# x y z rho theta phi s1 s2 stress_xx np intf bulk
-0.807119 -10.600939 -14.308959 17.826319 1.494806 2.502584 -0.003436 0.000885 -949800.000000 1 0 0
2.020581 -13.384839 -13.082159 18.824971 -1.420967 2.339128 0.002669 0.012671 255187.000000 1 0 0
2.077481 -11.115639 -14.710059 18.554223 -1.386031 2.486210 0.000363 0.007471 1177710.000000 1 0 0
-5.547519 -6.286439 -16.789759 18.766733 0.847758 2.678456 -0.000456 0.009547 76613.700000 1 0 0
4.409981 -14.061439 -11.513859 18.701362 -1.266889 2.234032 -0.001441 0.007976 1007650.000000 1 0 0
13.995081 -10.637639 -8.016259 19.320509 -0.649933 1.998639 0.010556 -0.005423 -506233.000000 1 0 0
6.911481 10.864961 -10.952659 16.904931 1.004236 2.275617 0.016519 -0.010279 446826.000000 1 0 0
5.595881 -4.181839 -12.690359 14.486092 -0.641775 2.638379 0.001096 -0.000704 1749320.000000 1 0 0
13.539681 0.551761 -10.141259 16.925500 0.040729 2.213261 -0.003219 0.000459 1298110.000000 1 0 0
14.122381 5.129561 -10.502559 18.331879 0.348405 2.180851 0.013440 -0.004478 -848543.000000 1 0 0
4.018481 4.343061 -13.518559 14.756754 0.824197 2.729022 0.001120 0.001480 2082950.000000 1 0 0
10.143281 -4.921839 -13.713359 17.752939 -0.451763 2.453495 0.015993 -0.005589 -404273.000000 1 0 0
2.468881 -7.598839 -12.098059 14.498302 -1.256653 2.557924 -0.002611 -0.000206 1433730.000000 1 0 0
-5.722519 -2.049039 -15.110759 16.287443 0.343842 2.759148 -0.000942 0.001855 59974.500000 1 0 0
10.555981 0.042461 -9.772059 14.384842 0.004022 2.317646 0.011102 -0.000390 1898440.000000 1 0 0
-1.787619 -9.533939 -16.918359 19.501857 1.385448 2.621002 0.002120 0.000979 743787.000000 1 0 0
8.556081 1.672361 -18.120259 20.108384 0.193025 2.693164 0.014578 -0.001856 -366862.000000 1 0 0
16.479281 -5.743439 -8.991759 19.631748 -0.335360 2.046564 0.018023 -0.008596 -903662.000000 1 0 0
9.960781 7.589261 -10.024659 16.040818 0.651083 2.245860 0.018105 -0.007280 1336040.000000 1 0 0
13.712581 -2.262739 -10.763159 17.578409 -0.163538 2.229755 0.008700 -0.003464 -221250.000000 1 0 0
7.121181 -1.850539 -13.834059 15.668979 -0.254241 2.652788 0.007233 -0.004231 -126376.000000 1 0 0
-2.895419 6.724561 -13.817359 15.637218 -1.164214 2.654335 -0.009044 0.009062 583164.000000 1 0 0
11.131081 1.850861 -14.050259 18.020445 0.164771 2.464958 0.006105 -0.006275 1897560.000000 1 0 0
-2.506319 10.852561 -12.905659 17.047456 -1.343833 2.429572 -0.008552 0.004903 -2629770.000000 1 0 0
2.802481 -1.008639 -15.325859 15.612597 -0.345475 2.949643 0.004259 -0.003755 1739580.000000 1 0 0
-9.059919 0.533261 -15.184059 17.689605 -0.058792 2.602862 -0.019392 0.005785 -1192110.000000 1 0 0
2.222581 -1.749739 -18.047559 18.267891 -0.666921 2.986123 0.015298 -0.009684 272943.000000 1 0 0
0.912081 7.990061 -13.148859 15.413158 1.457136 2.592681 -0.001632 0.000785 -324671.000000 1 0 0
9.305881 -9.112739 -9.905859 16.363602 -0.774912 2.221014 0.013211 -0.003247 -382664.000000 1 0 0
3.731481 7.345761 -13.549159 15.857612 1.100787 2.595242 -0.003984 0.000025 15213.000000 1 0 0
-2.896919 9.225861 -15.475459 18.248246 -1.266546 2.583094 -0.018290 0.010636 244769.000000 1 0 0
5.443581 -7.586339 -15.377759 17.990569 -0.948388 2.595900 0.000411 -0.000411 726932.000000 1 0 0
4.003981 7.407361 -16.405259 18.439994 1.075244 2.667388 -0.000665 -0.000160 -369952.000000 1 0 0
-0.329819 5.153361 -13.409059 14.369021 -1.506883 2.773992 0.000801 -0.001334 2689670.000000 1 0 0
8.611481 4.273661 -16.751159 19.313806 0.460663 2.620579 0.011558 -0.002545 204991.000000 1 0 0
5.306181 0.384961 -14.456459 15.404316 0.072423 2.788964 0.003764 -0.000679 841898.000000 1 0 0
6.083881 7.965461 -11.645359 15.364783 0.918533 2.430923 0.005084 -0.004202 149707.000000 1 0 0
2.675381 -8.392539 -15.126059 17.504000 -1.262200 2.614253 0.001238 0.000347 -177632.000000 1 0 0
3.796781 11.523861 -13.992359 18.520287 1.252526 2.427237 0.006118 -0.011248 -724821.000000 1 0 0
0.537981 -4.496239 -13.765259 14.490960 -1.451711 2.823777 0.007583 -0.003863 -569290.000000 1 0 0
8.371681 -0.096439 -11.844959 14.505082 -0.011519 2.526305 0.002273 -0.000232 749706.000000 1 0 0
-1.135719 -4.986039 -16.330459 17.112403 1.346838 2.838123 0.003794 -0.005907 553056.000000 1 0 0
4.378081 0.898061 -11.758159 12.578887 0.202320 2.778361 0.004809 -0.000044 214839.000000 1 0 0
-2.947719 -7.099939 -15.617959 17.407436 1.177277 2.684185 0.001899 -0.000048 1193510.000000 1 0 0
11.279881 -3.816639 -11.403859 16.487888 -0.326266 2.334568 0.018244 -0.004673 262069.000000 1 0 0
6.408881 -7.054039 -12.673659 15.857328 -0.833283 2.496810 0.002652 -0.000360 -1443390.000000 1 0 0
3.261681 -3.982439 -14.703159 15.578230 -0.884567 2.804824 0.004219 -0.003322 2280410.000000 1 0 0
-0.678319 -1.551139 -18.353359 18.431276 1.158551 3.049610 0.009222 -0.005303 1089930.000000 1 0 0
14.783881 2.916061 -8.695959 17.397881 0.194746 2.094197 -0.009366 0.007499 -1928400.000000 1 0 0
6.796481 4.266361 -14.457559 16.535265 0.560561 2.634885 0.006093 0.002684 2974500.000000 1 0 0
10.130881 -9.716639 -13.930359 19.776317 -0.764530 2.352368 0.020399 -0.007367 46082.300000 1 0 0
8.824081 -3.184339 -15.600759 18.204068 -0.346325 2.600202 0.009497 -0.006770 -505020.000000 1 0 0
-5.554919 -1.990139 -17.966659 18.910806 0.344020 2.824268 -0.004768 0.007476 643274.000000 1 0 0
4.956681 -9.026439 -11.186859 15.204969 -1.068622 2.397551 -0.001615 0.001119 1087810.000000 1 0 0
-2.584819 4.023361 -17.165059 17.818753 -0.999745 2.869886 -0.001015 0.007747 994859.000000 1 0 0
9.220181 9.460261 -14.627459 19.709663 0.798249 2.407064 0.037017 -0.010388 -389432.000000 1 0 0
9.655781 10.076461 -11.694759 18.208145 0.806714 2.268268 0.029249 -0.013052 212055.000000 1 0 0
12.005981 -5.875139 -9.703159 16.517025 -0.455092 2.198718 0.023365 -0.007317 995881.000000 1 0 0
7.974381 6.933061 -13.800759 17.381572 0.715659 2.488137 0.014613 -0.003147 716619.000000 1 0 0
3.782481 -4.099639 -17.587559 18.450919 -0.825614 2.834471 0.007214 -0.007627 -86006.700000 1 0 0
9.217781 -7.466039 -12.419659 17.174317 -0.680785 2.379153 0.016136 -0.005570 -316121.000000 1 0 0
11.932281 -8.658739 -8.832559 17.186250 -0.627738 2.110558 0.014199 -0.006500 -488584.000000 1 0 0
-3.084519 -2.544939 -13.866159 14.431262 0.689841 2.860820 0.003576 -0.002822 -1400600.000000 1 0 0
-0.576819 6.220261 -17.565759 18.643504 -1.478329 2.799909 -0.003190 0.007914 707382.000000 1 0 0
0.958581 -8.439039 -17.515259 19.465881 -1.457692 2.690091 -0.005818 -0.002440 1365400.000000 1 0 0
-0.134019 8.644761 -15.913459 18.110440 -1.555295 2.643907 -0.014026 0.007695 -544881.000000 1 0 0
1.564781 3.424161 -14.985359 15.451032 1.142151 2.895457 0.006889 -0.000551 3296850.000000 1 0 0
-2.061219 -0.503739 -15.843159 15.984619 0.239691 3.008455 0.007480 -0.001806 1330100.000000 1 0 0
14.128581 -4.184739 -8.576859 17.049673 -0.287957 2.097922 0.015461 -0.007593 729467.000000 1 0 0
0.399181 0.624361 -14.609159 14.627942 1.001949 3.090910 0.010053 -0.005180 3145470.000000 1 0 0
8.674881 2.776261 -12.693059 15.622898 0.309734 2.519164 0.004094 0.000450 985668.000000 1 0 0
5.847881 1.118261 -17.292359 18.288627 0.188944 2.810001 0.008392 -0.000334 505295.000000 1 0 0
15.145681 1.563561 -12.591959 19.758386 0.102870 2.261782 -0.008014 -0.004265 -1432660.000000 1 0 0
8.737881 -11.221439 -11.899759 18.543881 -0.909193 2.267520 0.015552 -0.004361 1720450.000000 1 0 0
-4.735419 0.690161 -15.035259 15.778451 -0.144725 2.833449 0.001279 -0.000372 559339.000000 1 0 0
2.155381 5.212661 -17.300559 18.196891 1.178715 2.826419 -0.002468 0.003506 1308620.000000 1 0 0
5.835981 -11.668539 -12.414359 18.009158 -1.107031 2.331368 0.005403 0.001863 823624.000000 1 0 0
12.744481 7.137061 -8.774159 17.039522 0.510497 2.111722 0.010292 -0.003266 596397.000000 1 0 0
-5.130219 3.556361 -15.697459 16.893107 -0.606160 2.763100 -0.006101 0.005359 63561.700000 1 0 0
-0.673119 -4.357239 -19.134159 19.635546 1.417525 2.915124 0.005405 -0.007936 282132.000000 1 0 0
9.653381 4.456561 -10.382759 14.861036 0.432506 2.344314 0.003225 0.000671 1336550.000000 1 0 0
13.127081 3.778661 -12.860859 18.761669 0.280275 2.326067 0.001475 -0.009992 969248.000000 1 0 0
-6.344719 5.682861 -17.192559 19.186830 -0.730425 2.681610 -0.010430 0.016198 -1878130.000000 1 0 0
-10.261919 3.165261 -15.289059 18.683714 -0.299188 2.529260 -0.011430 0.006637 -690103.000000 1 0 0
10.737681 13.418461 -8.328759 19.097673 0.895923 2.022072 0.021725 -0.007291 -1238440.000000 1 0 0
7.318681 13.382361 -12.349759 19.625678 1.070344 2.251404 0.030951 -0.018952 -332440.000000 1 0 0
5.221881 15.156561 -11.151959 19.528327 1.239003 2.178600 0.014965 -0.017390 270262.000000 1 0 0
14.000481 9.489961 -10.076059 19.687554 0.595692 2.108073 0.029270 -0.008914 -586153.000000 1 0 0
8.380781 -17.178339 -2.210859 19.241120 -1.116900 1.685953 0.018454 -0.008731 -969812.000000 1 0 0
0.674781 -15.971239 -0.010259 15.985491 -1.528572 1.571438 0.006697 -0.006189 2616320.000000 1 0 0
-9.076619 -11.703939 7.674241 16.681162 0.911163 1.092740 0.008534 -0.008218 -1032440.000000 1 0 0
2.021381 -15.915139 -2.617459 16.255114 -1.444463 1.732524 0.007054 -0.007569 1792110.000000 1 0 0
-1.393019 -10.944139 -9.402659 14.495678 1.444193 2.276609 0.004241 0.002317 996309.000000 1 0 0
-4.999819 -12.540339 -13.051759 18.777824 1.191412 2.339303 0.002891 0.001743 1032400.000000 1 0 0
-8.475119 -17.836739 -1.658159 19.817325 1.127226 1.654566 0.007968 0.004783 -1859160.000000 1 0 0
-11.311119 -7.121739 -8.735059 15.967524 0.561917 2.149634 0.002852 -0.002825 2770150.000000 1 0 0
-13.582819 -11.468139 -4.460659 18.327811 0.701183 1.816647 -0.002343 0.000800 -368729.000000 1 0 0
-5.613119 -13.434639 9.710541 17.501178 1.175032 0.982613 0.007380 -0.009160 14500.600000 1 0 0
0.129081 -13.976339 -3.623459 14.438981 -1.561561 1.824458 0.004015 -0.003249 452904.000000 1 0 0
-14.633619 -11.519239 2.075141 18.738780 0.666873 1.459828 -0.013710 0.006041 1065640.000000 1 0 0
-4.025419 -16.471039 -7.540859 18.557038 1.331101 1.989264 -0.003516 0.002105 -360920.000000 1 0 0
0.362681 -15.281839 -9.271459 17.878090 -1.547068 2.116001 0.007336 0.005166 2291620.000000 1 0 0
4.514881 -14.194539 -2.585359 15.117975 -1.262844 1.742653 0.000099 -0.002313 592589.000000 1 0 0
-3.605719 -18.112139 -2.491259 18.634837 1.374288 1.704886 0.003374 -0.000652 701132.000000 1 0 0
-0.934419 -13.445439 0.717841 13.496972 1.501411 1.517586 0.008312 -0.003821 1700900.000000 1 0 0
-8.629219 -11.200439 -10.522559 17.624911 0.914344 2.210587 0.008752 -0.007146 1961780.000000 1 0 0
-3.650819 -14.096939 -0.380859 14.566991 1.317384 1.596945 0.002410 0.001827 4890160.000000 1 0 0
-1.667519 -14.921639 -7.228359 16.663886 1.459506 2.019473 -0.001820 0.001339 1011030.000000 1 0 0
-14.110219 -7.921039 -1.714059 16.272035 0.511530 1.676330 0.000971 0.002373 353069.000000 1 0 0
-10.902519 -7.323239 -11.560859 17.497091 0.591480 2.292588 0.005756 -0.001961 12409.200000 1 0 0
-9.368319 -14.697539 6.967041 18.770261 1.003325 1.190523 0.000843 -0.001646 297883.000000 1 0 0
-2.658319 -14.248639 -12.393559 19.070676 1.386350 2.278217 0.009956 0.004030 612750.000000 1 0 0
2.327681 -17.860939 -4.757559 18.629697 -1.441204 1.829032 0.007081 -0.007903 229624.000000 1 0 0
-6.722719 -9.699439 -9.250359 14.994772 0.964714 2.235601 0.003102 -0.003758 407841.000000 1 0 0
-11.002219 -15.284939 0.589441 18.842124 0.946900 1.539508 -0.005151 0.007648 951943.000000 1 0 0
-12.553519 -10.944839 4.236141 17.185029 0.717046 1.321727 -0.002322 0.000674 2368090.000000 1 0 0
-16.882219 -8.928739 -1.457459 19.153482 0.486487 1.646964 -0.012209 0.005920 773666.000000 1 0 0
-1.491719 -19.308539 -4.141559 19.803975 1.493693 1.781479 0.001652 -0.001642 446323.000000 1 0 0
3.112481 -14.238639 -8.801459 17.026217 -1.355587 2.114064 0.001084 0.002821 1019820.000000 1 0 0
-4.460519 -7.926339 -13.061659 15.916344 1.058220 2.533334 0.006900 0.000336 1323990.000000 1 0 0
5.472281 -16.692839 1.199241 17.607808 -1.254014 1.502635 0.009025 -0.001897 3502300.000000 1 0 0
-2.767819 -13.782139 -3.148759 14.405654 1.372606 1.791153 0.003568 -0.000068 -194353.000000 1 0 0
-0.408219 -13.966639 3.664641 14.445181 1.541577 1.314300 -0.001291 -0.003371 -3260410.000000 1 0 0
1.315681 -16.163139 6.984741 17.656860 -1.489575 1.164095 0.005759 -0.009070 228557.000000 1 0 0
-5.678319 -10.250139 -14.572659 18.699493 1.064907 2.464357 0.007196 0.000057 -458022.000000 1 0 0
-0.312319 -17.279839 -5.904359 18.263401 1.552724 1.900000 0.003447 -0.004043 297895.000000 1 0 0
-6.485919 -13.374239 -1.260759 14.917336 1.119256 1.655414 0.006021 -0.000325 3085480.000000 1 0 0
-1.734119 -17.740039 -0.268959 17.826623 1.473354 1.585884 0.003719 -0.003664 1785600.000000 1 0 0
-9.420519 -9.735939 -4.757559 14.358588 0.801862 1.908519 0.009649 -0.005412 1621600.000000 1 0 0
-0.753819 -16.602239 4.895941 17.325496 1.525423 1.284307 0.008682 -0.012529 1288580.000000 1 0 0
-6.854719 -9.759539 -6.315459 13.495214 0.958488 2.057797 0.010013 -0.002720 2710190.000000 1 0 0
-6.197319 -14.482839 -8.517359 17.908232 1.166465 2.066455 0.003028 -0.001860 716715.000000 1 0 0
-5.921219 -12.198739 -10.329959 17.046352 1.118900 2.221809 0.002671 -0.001371 806537.000000 1 0 0
-10.865319 -12.099439 -8.751159 18.467115 0.839086 2.064486 0.004374 -0.015840 510316.000000 1 0 0
4.006081 -17.250539 6.447941 18.846902 -1.342612 1.221622 0.012578 -0.006905 936451.000000 1 0 0
-6.638119 -14.362539 -4.048659 16.332140 1.137857 1.821303 0.001124 -0.000003 -341755.000000 1 0 0
-2.889319 -12.143339 -7.079659 14.350276 1.337205 2.086729 0.006895 -0.001104 4067380.000000 1 0 0
-7.072019 -12.749039 4.453741 15.244253 1.064344 1.274313 0.003974 -0.001356 2643970.000000 1 0 0
2.599181 -16.410139 2.321241 16.776071 -1.413713 1.431985 0.002192 -0.006487 2497360.000000 1 0 0
-6.184819 -11.978739 7.277841 15.320220 1.094181 1.075778 0.005049 -0.004100 1526670.000000 1 0 0
-11.323319 -12.767539 -0.873059 17.087710 0.845275 1.621911 -0.004393 0.010183 1586940.000000 1 0 0
-14.231619 -8.613539 4.732941 17.295455 0.544263 1.293608 0.001512 -0.001199 -102332.000000 1 0 0
-8.012619 -15.476939 4.404141 17.975933 1.093079 1.323274 0.003829 -0.002994 610375.000000 1 0 0
-16.403719 -9.163539 1.336041 18.837129 0.509442 1.499811 -0.010618 0.006800 -1084460.000000 1 0 0
-6.634619 -17.058039 2.387541 18.457931 1.199857 1.441082 0.003140 0.001525 2742470.000000 1 0 0
-11.539819 -14.838639 -4.538759 19.337863 0.909810 1.807715 -0.000155 0.005515 677963.000000 1 0 0
-10.164119 -9.858339 -12.604259 18.956885 0.770128 2.298144 0.000206 0.002207 398209.000000 1 0 0
-4.361819 -16.055339 -4.530059 17.242993 1.305525 1.836635 -0.001690 0.003078 -584361.000000 1 0 0
-11.732919 -8.183139 0.132741 14.305341 0.609013 1.561517 0.001347 0.002575 -30945.300000 1 0 0
-9.557519 -11.049839 3.565541 15.038557 0.857689 1.331424 0.004628 0.001542 1347660.000000 1 0 0
-14.158019 -12.917739 -0.402259 19.169749 0.739622 1.591782 -0.016343 0.018798 76108.000000 1 0 0
5.464681 -14.955039 -7.195359 17.472525 -1.220462 1.995236 0.002366 -0.006535 -692037.000000 1 0 0
-7.422719 -10.501939 -1.215959 12.917664 0.955524 1.665067 0.007342 -0.001197 408232.000000 1 0 0
-11.577819 -8.197739 -5.968359 15.390585 0.616112 1.969032 0.001484 -0.003613 1414930.000000 1 0 0
-14.387919 -6.709139 -9.038959 18.268211 0.436329 2.088391 -0.006672 -0.005150 2739020.000000 1 0 0
-3.831419 -16.436539 1.421841 16.936978 1.341782 1.486748 0.004228 -0.004992 3148920.000000 1 0 0
-8.064919 -15.439739 0.183341 17.420163 1.089430 1.560271 0.003877 0.005055 1162170.000000 1 0 0
1.038981 -18.642639 3.665441 19.027951 -1.515122 1.376950 0.004473 -0.007665 1710190.000000 1 0 0
-14.064619 -8.649739 -4.506759 17.115559 0.551376 1.837252 0.000184 -0.001497 -258665.000000 1 0 0
-3.164119 -14.531439 11.057941 18.532470 1.356400 0.931440 -0.003959 -0.005479 -107991.000000 1 0 0
-10.839819 -12.063539 -3.729359 16.641477 0.838777 1.796816 0.003084 -0.001064 615651.000000 1 0 0
-9.946419 -10.639439 0.613941 14.577580 0.819050 1.528668 0.001622 0.004888 885003.000000 1 0 0
-0.240819 -13.135639 -11.200759 17.264414 1.552465 2.276773 0.006026 0.002424 652387.000000 1 0 0
-5.929919 -12.598639 -6.284959 15.277118 1.130879 1.994782 -0.000280 -0.003928 2081220.000000 1 0 0
1.878281 -15.843139 9.802041 18.724663 -1.452792 1.019863 0.009010 -0.007590 -159657.000000 1 0 0
-8.991219 -15.611839 -5.426659 18.815423 1.048269 1.863368 0.003129 0.004253 438245.000000 1 0 0
-3.331419 -15.492039 5.906241 16.911100 1.358981 1.214023 0.003512 -0.004579 -582162.000000 1 0 0
-17.448019 -5.507239 -6.394859 19.381880 0.305740 1.907036 -0.005931 -0.003141 -770037.000000 1 0 0
18.803781 5.440161 -2.985659 19.801305 0.281623 1.722154 -0.014457 0.019453 471415.000000 1 0 0
12.709181 -12.558939 -6.013359 18.852340 -0.779452 1.895440 0.012907 -0.004992 -859008.000000 1 0 0
10.876981 -13.540139 -1.719059 17.452772 -0.894038 1.669454 0.014828 -0.006578 153931.000000 1 0 0
18.648281 -2.908439 4.399241 19.379647 -0.154716 1.341797 -0.004389 0.006246 -1789860.000000 1 0 0
8.600881 -17.035639 4.862141 19.693364 -1.103256 1.321324 0.003760 -0.005549 -964417.000000 1 0 0
18.070881 -1.056339 6.537741 19.246160 -0.058389 1.224208 0.011574 0.003276 -469765.000000 1 0 0
17.844681 -4.193439 -5.353759 19.096605 -0.230809 1.854956 0.008314 0.000163 -1185580.000000 1 0 0
5.676081 -11.815539 14.636741 19.648386 -1.122958 0.730361 -0.010219 -0.002492 2057270.000000 1 0 0
15.867881 -8.904139 -0.964759 18.220980 -0.511357 1.623769 -0.001784 -0.003661 105066.000000 1 0 0
13.685881 -12.733439 -1.549359 18.757514 -0.749363 1.653490 0.008910 0.000018 -522762.000000 1 0 0
10.915281 -2.055239 13.822841 17.732409 -0.186111 0.676891 -0.008449 -0.004125 -314216.000000 1 0 0
16.764681 -6.180839 -1.649759 17.943774 -0.353220 1.662867 -0.007402 0.002107 -1277460.000000 1 0 0
17.740881 3.560261 -1.071059 18.126265 0.198050 1.629920 -0.010481 0.012195 -123559.000000 1 0 0
9.793681 -11.115039 9.423241 17.557271 -0.848511 1.004258 0.002596 0.000087 11484.200000 1 0 0
9.047681 -11.079539 4.147541 14.893583 -0.886008 1.288587 -0.001047 -0.000989 -411742.000000 1 0 0
13.943681 -10.212039 6.704841 18.538255 -0.632127 1.200731 -0.000319 -0.000822 -539722.000000 1 0 0
16.179481 -0.504439 -4.935259 16.922968 -0.031168 1.866728 0.003326 0.006644 -1099860.000000 1 0 0
15.751281 -0.477839 -1.938559 15.877317 -0.030327 1.693198 0.001868 0.005438 989724.000000 1 0 0
12.904181 -5.151039 -0.372559 13.899277 -0.379796 1.597604 0.003006 -0.001618 177807.000000 1 0 0
14.177881 -7.568039 0.906441 16.096868 -0.490314 1.514455 0.002173 -0.000856 2043220.000000 1 0 0
15.532981 2.446861 3.601541 16.131700 0.156243 1.345640 0.003873 0.005184 874295.000000 1 0 0
15.876881 -7.254839 4.843941 18.115513 -0.428613 1.300111 0.003247 0.000573 -862980.000000 1 0 0
13.621381 -12.219839 3.201741 18.577342 -0.731215 1.397585 0.002147 0.000320 617228.000000 1 0 0
14.046681 -1.057139 9.180641 16.814011 -0.075117 0.993200 0.009074 -0.002230 144640.000000 1 0 0
14.164881 -2.804539 -1.742959 14.544662 -0.195464 1.690920 -0.000582 0.001594 533479.000000 1 0 0
15.097181 1.760761 9.113641 17.722404 0.116104 1.030670 0.015475 -0.002709 -1919340.000000 1 0 0
14.259581 -10.227339 -3.046759 17.810583 -0.622194 1.742706 0.000057 -0.005150 -15471.200000 1 0 0
7.404481 -12.665839 6.046041 15.868347 -1.041775 1.179905 -0.001407 -0.001491 139339.000000 1 0 0
12.503381 -4.791839 6.937041 15.080411 -0.365978 1.092797 0.006551 0.000803 1803380.000000 1 0 0
14.895181 -9.019839 -5.766259 18.343218 -0.544493 1.890572 0.008976 -0.005044 -2097410.000000 1 0 0
14.287281 -4.714339 4.549041 15.717671 -0.318718 1.277173 0.003517 0.001687 945157.000000 1 0 0
17.128281 -4.344739 0.795341 17.688622 -0.248419 1.525818 -0.000342 0.003075 -1227100.000000 1 0 0
10.169381 -14.513539 1.051241 17.752866 -0.959613 1.511546 0.013840 -0.004009 443046.000000 1 0 0
16.379881 -2.612139 8.381241 18.584106 -0.158141 1.102922 0.009206 -0.003504 698417.000000 1 0 0
16.043081 -2.748639 3.106041 16.570545 -0.169681 1.382237 0.002343 0.005913 1669260.000000 1 0 0
7.720881 -15.348339 2.615441 17.378839 -1.104717 1.419727 -0.001732 -0.001900 3348710.000000 1 0 0
16.612881 -7.105439 7.647741 19.620475 -0.404161 1.170400 0.004349 -0.000288 -2237580.000000 1 0 0
10.199681 -8.582839 5.042241 14.252116 -0.699528 1.209177 0.002371 -0.003726 517524.000000 1 0 0
10.892981 -11.920439 2.074341 16.280565 -0.830405 1.443037 0.002840 0.000116 -88483.900000 1 0 0
12.242081 -7.423039 12.062441 18.720912 -0.545079 0.870650 -0.004587 -0.005325 -1462950.000000 1 0 0
15.141481 -10.017039 4.153241 18.624042 -0.584461 1.345901 0.000627 -0.001854 1597930.000000 1 0 0
7.371681 -10.296739 7.748641 14.846076 -0.949463 1.021682 -0.005882 -0.000876 1063830.000000 1 0 0
15.178081 -3.309639 -4.510559 16.176310 -0.214693 1.853380 0.009137 -0.000153 1290870.000000 1 0 0
11.778781 -9.045139 9.728441 17.753783 -0.654870 0.990867 -0.002615 -0.006163 -1654400.000000 1 0 0
16.873081 -6.840939 2.256541 18.346425 -0.385183 1.447488 -0.000421 0.002314 443642.000000 1 0 0
17.519481 3.947861 1.932641 18.062473 0.221639 1.463594 -0.000714 0.008553 662426.000000 1 0 0
14.813181 -5.108239 8.710941 17.927770 -0.332074 1.063414 0.010668 -0.000526 -277335.000000 1 0 0
12.737081 -12.688439 5.992941 18.951123 -0.783485 1.249042 -0.004945 0.004723 183668.000000 1 0 0
18.220581 0.679061 -1.094559 18.266055 0.037252 1.630755 0.008940 0.003938 -658027.000000 1 0 0
11.799581 -2.211639 11.013541 16.291702 -0.185284 0.828446 0.003925 -0.003560 1898220.000000 1 0 0
5.803381 -12.573439 10.516141 17.388497 -1.138372 0.921312 -0.011387 0.002331 -1974540.000000 1 0 0
10.794681 -5.088539 11.030541 16.250883 -0.440501 0.824716 -0.001560 -0.001769 136624.000000 1 0 0
17.923181 1.301961 4.872041 18.619138 0.072514 1.306046 0.008102 0.005703 -430655.000000 1 0 0
12.257081 -7.805839 7.072241 16.161181 -0.567070 1.117861 0.005414 -0.004161 -1123320.000000 1 0 0
10.486181 -8.057539 14.200841 19.404840 -0.655171 0.749808 -0.016368 -0.007907 -1326400.000000 1 0 0
14.173581 -0.330239 3.638041 14.636762 -0.023295 1.319608 0.000848 0.006598 2245950.000000 1 0 0
11.613681 -7.729339 2.438041 14.162073 -0.587220 1.397782 0.001342 -0.002711 921770.000000 1 0 0
9.334081 6.103361 3.453241 11.674800 0.579097 1.270518 -0.001054 0.000924 1261720.000000 1 0 0
-4.004219 14.894061 -9.845959 18.297807 -1.308160 2.138972 -0.006941 0.001072 1095570.000000 1 0 0
8.855081 -6.382339 9.218641 14.287409 -0.624520 0.869474 -0.003369 -0.001906 1069520.000000 1 0 0
5.737781 -10.624839 -8.625759 14.839577 -1.075636 2.191081 -0.000031 -0.002471 684647.000000 1 0 0
5.389081 1.018561 0.472841 5.504838 0.186801 1.484795 0.000783 -0.000327 3913140.000000 1 0 0
-0.472719 9.909561 10.931441 14.762089 -1.523129 0.736971 -0.000057 0.004483 205902.000000 1 0 0
-6.338519 -5.145239 1.092541 8.236744 0.681860 1.437762 0.003988 -0.002889 3802520.000000 1 0 0
-1.194219 4.012561 -10.778859 11.563330 -1.281524 2.771127 0.001453 -0.001037 244991.000000 1 0 0
10.920281 5.808761 1.164441 12.423774 0.488860 1.476932 -0.005581 0.003893 1384190.000000 1 0 0
-10.166119 -1.725239 -13.581559 17.052424 0.168103 2.492213 -0.012904 0.005079 -297553.000000 1 0 0
7.454981 10.824861 -6.103959 14.491814 0.967701 2.005565 0.006887 -0.002796 934906.000000 1 0 0
-12.516919 -2.891839 -9.491059 15.972357 0.227051 2.207089 -0.004611 -0.003137 -297529.000000 1 0 0
-3.864219 -8.576039 2.443441 9.718592 1.147458 1.316650 0.005019 -0.002067 -1052960.000000 1 0 0
7.951781 -6.763639 -5.842359 11.962892 -0.704832 2.081021 0.004043 -0.005288 1817320.000000 1 0 0
14.206081 3.176061 -4.393259 15.205289 0.219953 1.863905 0.001487 0.007116 1302580.000000 1 0 0
-2.363419 -4.961339 9.883541 11.308626 1.126233 0.507458 -0.000319 -0.000781 2487090.000000 1 0 0
3.394181 -1.916839 -4.628659 6.051382 -0.514091 2.441671 0.000607 -0.000053 -1233670.000000 1 0 0
-4.003119 8.550861 -3.431259 10.045682 -1.132949 1.919378 -0.005937 -0.002100 798090.000000 1 0 0
5.908581 0.025361 11.662941 13.074256 0.004292 0.468927 -0.007206 0.000216 1239680.000000 1 0 0
7.196681 4.562861 12.335841 14.992828 0.565061 0.604506 -0.006904 0.001843 -154164.000000 1 0 0
1.293781 -14.507939 12.401241 19.129688 -1.481854 0.865484 0.000027 -0.001515 -1181880.000000 1 0 0
2.884281 8.728461 -9.146559 12.967831 1.251647 2.353680 0.001836 -0.001685 -425751.000000 1 0 0
-4.419719 -8.847839 -4.585959 10.901797 1.107529 2.004970 0.003860 -0.002204 1140340.000000 1 0 0
5.575681 -6.566039 -4.118959 9.548136 -0.866785 2.016828 0.000166 -0.004083 1582510.000000 1 0 0
-3.030919 3.398961 8.683741 9.805446 -0.842575 0.483004 0.000390 -0.001837 2063320.000000 1 0 0
-3.903719 3.192561 -11.078559 12.172343 -0.685516 2.714423 -0.002396 -0.002562 -129306.000000 1 0 0
3.141481 -6.152439 8.524941 10.972513 -1.098699 0.681012 -0.009539 0.003336 -167970.000000 1 0 0
-4.963419 -8.714539 10.484641 14.508839 1.053063 0.763185 0.008147 -0.005343 534690.000000 1 0 0
-13.272319 -2.460039 6.629841 15.038651 0.183271 1.114247 0.005611 -0.004662 -228783.000000 1 0 0
3.825481 -5.884939 -8.473659 11.003168 -0.994389 2.449811 -0.001506 -0.001767 2636430.000000 1 0 0
3.066881 -0.509039 12.339041 12.724654 -0.164480 0.246814 -0.007746 -0.000915 1334020.000000 1 0 0
1.314681 -1.396239 -7.569259 7.808428 -0.815474 2.893450 0.002194 -0.001082 -1713730.000000 1 0 0
3.612381 -3.552339 3.338441 6.067421 -0.777018 0.988164 0.001253 -0.002957 2591400.000000 1 0 0
1.475781 0.415561 -11.820859 11.919871 0.274480 3.012612 0.004704 -0.004261 456151.000000 1 0 0
3.947681 3.593361 -10.675759 11.936007 0.738447 2.677921 0.001754 0.001639 1557580.000000 1 0 0
2.925281 3.262261 3.276341 5.471200 0.839805 0.928752 -0.001906 -0.002020 -301452.000000 1 0 0
-5.268719 0.963761 2.589841 5.949413 -0.180921 1.120413 0.007183 -0.007612 671317.000000 1 0 0
-9.403319 -9.255839 5.830341 14.425181 0.777494 1.154716 0.008191 -0.002174 -1447130.000000 1 0 0
-3.045919 3.828161 -0.540959 4.921897 -0.898707 1.680927 0.003026 -0.008411 -298041.000000 1 0 0
-15.850619 -6.398939 5.112741 17.841767 0.383694 1.280162 0.008686 -0.004401 507945.000000 1 0 0
0.876881 6.734261 -8.047059 10.529689 1.441313 2.440636 -0.001396 -0.000850 124592.000000 1 0 0
-1.737519 6.604861 -9.439359 11.650951 -1.313558 2.515254 -0.004641 0.001083 188157.000000 1 0 0
2.143881 -0.372739 5.200141 5.637076 -0.172141 0.396317 0.002126 -0.002936 3659640.000000 1 0 0
-3.524319 -0.529139 -6.223259 7.171454 0.149026 2.621518 0.004381 -0.005929 421658.000000 1 0 0
1.872281 -1.249539 -2.453559 3.329675 -0.588502 2.399234 0.003145 -0.001965 759942.000000 1 0 0
2.339581 -8.570739 -7.736459 11.780662 -1.304315 2.287242 -0.005029 0.000356 1738520.000000 1 0 0
-2.479519 14.028761 -5.523359 15.279452 -1.395858 1.940661 -0.007089 0.002287 784375.000000 1 0 0
6.793381 -5.170739 -8.185259 11.827300 -0.650595 2.335142 0.004109 -0.001302 4651310.000000 1 0 0
-14.168319 -5.041039 -2.121559 15.187309 0.341829 1.710948 0.003459 -0.000500 911774.000000 1 0 0
-2.796919 7.016861 -6.773659 10.146011 -1.191498 2.301801 -0.005283 -0.001660 -3015830.000000 1 0 0
-5.788119 -1.086939 -8.063659 9.985307 0.185626 2.510787 0.008485 -0.007407 461487.000000 1 0 0
-5.661419 -10.557839 3.460441 12.469735 1.078587 1.289598 0.006592 -0.001597 -2778760.000000 1 0 0
8.120181 -7.581539 6.606641 12.925354 -0.751107 1.034288 -0.003442 -0.001798 498762.000000 1 0 0
8.836081 -6.020939 13.065441 16.882944 -0.598136 0.685845 -0.005473 0.001270 -720362.000000 1 0 0
-4.662619 9.521161 -0.696559 10.624393 -1.115414 1.636406 -0.007293 0.000118 814602.000000 1 0 0
2.912181 6.589261 12.129841 14.107878 1.154650 0.535934 -0.003081 0.000156 1210180.000000 1 0 0
6.080181 -2.895639 10.900641 12.813169 -0.444461 0.553410 -0.008764 -0.000102 913098.000000 1 0 0
-9.711719 -6.383539 -0.991759 11.664075 0.581492 1.655926 0.003838 -0.001937 -1686910.000000 1 0 0
0.954081 -13.327139 6.202741 14.730815 -1.499329 1.136169 -0.003920 -0.003975 108045.000000 1 0 0
-0.492919 -3.160639 8.720841 9.289009 1.416087 0.351566 -0.002602 -0.000354 984204.000000 1 0 0
4.233981 0.727861 3.321641 5.430440 0.170245 0.912626 -0.001135 -0.000480 1111340.000000 1 0 0
-10.118219 5.604661 8.340841 14.260442 -0.505846 0.946047 -0.003679 -0.006680 1018590.000000 1 0 0
9.411281 7.972861 -0.108759 12.334932 0.702843 1.579614 -0.004080 0.002772 -648561.000000 1 0 0
4.342781 2.713261 8.149541 9.624789 0.558437 0.560999 -0.004880 -0.000745 3402200.000000 1 0 0
1.227681 2.675661 -9.847659 10.278266 1.140621 2.851108 0.004990 -0.001874 1601790.000000 1 0 0
-1.395219 -10.142339 3.043341 10.680618 1.434091 1.281852 0.002750 -0.002361 -903366.000000 1 0 0
-9.805819 9.516961 9.100341 16.417760 -0.770450 0.983276 -0.007408 -0.008164 2188840.000000 1 0 0
9.671381 -1.979239 -7.773659 12.565141 -0.201862 2.237843 0.011729 -0.001536 131783.000000 1 0 0
-5.131119 -1.770839 6.686641 8.612516 0.332319 0.681884 0.006715 -0.003414 1430160.000000 1 0 0
3.050681 -7.848639 -5.011959 9.799363 -1.200079 2.107676 -0.005425 -0.003066 3306070.000000 1 0 0
-5.176419 4.977461 -13.095459 14.935242 -0.765806 2.639996 -0.010505 0.000695 1864070.000000 1 0 0
-5.566119 9.635061 5.509441 12.416522 -1.046940 1.111052 -0.006051 -0.000264 1446260.000000 1 0 0
-0.640519 -1.740839 -9.406559 9.587707 1.218232 2.946895 0.005410 -0.004714 529870.000000 1 0 0
-16.724419 0.294761 6.492141 17.942714 -0.017623 1.200570 -0.002081 -0.000276 -2752.400000 1 0 0
-5.950519 -2.792339 4.109641 7.752095 0.438754 1.012039 0.003744 -0.004186 1292850.000000 1 0 0
0.957781 -5.702339 -5.171159 7.757248 -1.404387 2.300465 -0.003325 -0.001507 1335650.000000 1 0 0
-7.088519 1.434461 -8.464159 11.133138 -0.199668 2.434521 0.001422 -0.003676 474822.000000 1 0 0
8.194881 1.924461 4.681141 9.631859 0.230657 1.063282 -0.004714 0.001965 817156.000000 1 0 0
0.460981 -8.075739 -0.446359 8.101191 -1.513776 1.625922 -0.002115 -0.001083 2374150.000000 1 0 0
5.352581 5.492261 -3.380859 8.381245 0.798277 1.986008 0.000263 0.001000 -260472.000000 1 0 0
-0.753419 -0.330039 -1.139659 1.405485 0.412876 2.516425 0.002483 -0.004743 218119.000000 1 0 0
8.948281 6.352661 -6.402559 12.705148 0.617360 2.098944 0.003303 0.000295 1485530.000000 1 0 0
-14.983119 -6.957439 2.628141 16.727431 0.434725 1.413027 -0.000126 -0.003275 1464420.000000 1 0 0
-6.275919 6.811861 8.946841 12.877678 -0.826325 0.802716 -0.000250 -0.000616 60434.600000 1 0 0
-9.514319 -3.205639 -9.643559 13.921085 0.324982 2.336064 0.001787 -0.000738 1102360.000000 1 0 0
14.858681 3.393561 -1.368559 15.302602 0.224538 1.660349 -0.007282 0.006073 1499600.000000 1 0 0
12.001781 1.593561 -5.987359 13.506689 0.132005 2.030060 0.006692 0.000802 18728.700000 1 0 0
1.804581 -9.417139 12.726441 15.934282 -1.381464 0.645693 -0.011993 -0.000813 -396801.000000 1 0 0
-3.511119 6.360261 7.933741 10.757561 -1.066388 0.741430 -0.001223 -0.000983 158706.000000 1 0 0
-4.125019 13.291861 -12.319459 18.586512 -1.269879 2.295371 -0.014944 0.005282 93537.400000 1 0 0
-10.113719 7.824461 6.508941 14.348373 -0.658465 1.099955 -0.002800 -0.006937 -609972.000000 1 0 0
7.943381 -9.346139 -7.225659 14.235792 -0.866354 2.103158 0.005494 -0.004098 -223429.000000 1 0 0
5.821181 -3.819239 -0.394559 6.973408 -0.580647 1.627407 0.002991 -0.003530 -1867320.000000 1 0 0
-1.591619 -4.419539 4.165041 6.277989 1.225124 0.845395 0.002359 -0.001331 -125881.000000 1 0 0
9.921181 -2.033439 -2.736059 10.490507 -0.202160 1.834660 0.003937 -0.003913 -3549800.000000 1 0 0
13.588281 7.031461 1.389441 15.362727 0.477522 1.480230 -0.006432 0.008332 657408.000000 1 0 0
5.344481 -3.715539 -3.303459 7.299421 -0.607504 2.040435 0.004017 -0.003792 -1973610.000000 1 0 0
-12.275319 -5.848739 2.041541 13.749876 0.444642 1.421768 0.002644 -0.002764 993500.000000 1 0 0
3.717281 -5.812039 -0.325059 6.906782 -1.001779 1.617877 0.000735 -0.002115 74829.300000 1 0 0
-5.210519 3.773161 -8.622659 10.758090 -0.626746 2.500603 -0.000357 -0.003696 1180340.000000 1 0 0
-1.691219 -9.312439 7.191141 11.886726 1.391146 0.921065 -0.003645 -0.004220 1553420.000000 1 0 0
-7.438419 -7.366439 2.633741 10.794957 0.780536 1.324330 0.007735 -0.002173 -4299480.000000 1 0 0
-5.764119 13.128361 -8.542559 16.689944 -1.157078 2.108120 -0.006444 -0.001118 -120111.000000 1 0 0
9.129981 -13.855639 -4.285359 17.137666 -0.988165 1.823533 0.011826 -0.006445 685231.000000 1 0 0
-6.507519 -5.041639 -6.753159 10.647585 0.659148 2.257826 0.008457 -0.002226 1714280.000000 1 0 0
3.264481 0.361461 -6.297259 7.102321 0.110276 2.660842 0.002154 -0.001314 2124270.000000 1 0 0
-3.591419 5.780361 5.012941 8.452245 -1.014852 0.935905 -0.002385 -0.000188 -1091660.000000 1 0 0
-2.691119 -10.735739 -2.784959 11.412896 1.325188 1.817304 0.003717 0.000085 2351920.000000 1 0 0
-12.550919 -0.317439 1.893241 12.696877 0.025287 1.421127 0.000135 -0.003307 678839.000000 1 0 0
8.279981 -11.990439 -6.122659 15.805558 -0.966442 1.968578 0.006221 -0.008963 328452.000000 1 0 0
6.148781 3.855661 0.951441 7.319759 0.560080 1.440445 -0.002463 0.001060 -291481.000000 1 0 0
3.356081 -4.838639 -11.046459 12.517985 -0.964378 2.651835 -0.000870 -0.001910 -838672.000000 1 0 0
-7.577919 4.206761 8.695541 12.277383 -0.506776 0.783770 0.000512 -0.003791 479408.000000 1 0 0
8.251881 8.750861 4.039741 12.688208 0.814737 1.246770 -0.000013 -0.001362 2042860.000000 1 0 0
0.269381 10.595161 -6.365059 12.363008 1.545377 2.111626 -0.003275 0.000764 1071400.000000 1 0 0
5.478081 7.998661 3.276941 10.233587 0.970294 1.244841 0.000855 -0.001910 2721290.000000 1 0 0
8.016181 6.697761 -3.822059 11.123277 0.696033 1.921554 -0.002921 0.002697 1942870.000000 1 0 0
10.395681 2.557761 -8.404259 13.610433 0.241249 2.236340 0.002256 0.002060 1444430.000000 1 0 0
3.289481 -12.425839 -0.350859 12.858665 -1.312004 1.598085 -0.003175 -0.003651 -3163070.000000 1 0 0
0.758981 2.097861 5.188441 5.647743 1.223659 0.406083 0.002190 -0.002823 157417.000000 1 0 0
-4.714719 13.394761 1.562841 14.286031 -1.232357 1.461180 -0.010395 0.000697 54041.700000 1 0 0
8.082081 4.114761 -8.088059 12.151872 0.470918 2.299069 0.001216 0.001843 1177640.000000 1 0 0
-13.968819 -0.506839 -3.526359 14.415963 0.036268 1.817919 -0.003110 -0.003179 -343771.000000 1 0 0
-8.571719 0.081661 -0.404559 8.581649 -0.009527 1.617956 0.002762 -0.005314 -1174590.000000 1 0 0
1.842781 -3.859539 -1.177259 4.435969 -1.125342 1.839404 0.000174 -0.000829 -2254830.000000 1 0 0
8.041681 -5.612239 -0.365959 9.813246 -0.609311 1.608097 0.002244 -0.004821 2642500.000000 1 0 0
-2.205819 -1.145539 7.420041 7.825274 0.478989 0.323228 0.003270 -0.003268 2065360.000000 1 0 0
-5.957519 8.966961 -11.726459 15.918802 -0.984375 2.398888 -0.013290 0.007193 404732.000000 1 0 0
-6.171019 9.236261 -8.876059 14.218805 -0.981782 2.244965 -0.012479 0.003023 694761.000000 1 0 0
-1.547719 14.057561 -8.350559 16.423833 -1.461139 2.104170 0.000071 0.001481 1083290.000000 1 0 0
-1.388419 7.167561 9.788541 12.211355 -1.379457 0.640841 -0.003178 0.000404 834705.000000 1 0 0
10.020681 2.264961 -4.111959 11.065817 0.222293 1.951519 0.001574 0.002317 -1111570.000000 1 0 0
-2.974319 -7.460839 -6.907359 10.593502 1.191448 2.281065 0.003810 -0.001726 2343810.000000 1 0 0
-5.544419 -4.889039 -1.530859 7.548961 0.722665 1.775003 0.006276 -0.003438 754192.000000 1 0 0
5.565681 7.469961 -8.861959 12.857350 0.930455 2.331253 0.001969 -0.000448 627433.000000 1 0 0
-9.548319 5.301561 -7.369659 13.175311 -0.506854 2.164402 -0.002483 -0.000124 123374.000000 1 0 0
-0.582719 6.131361 -5.340059 8.151649 -1.476042 2.285097 -0.000122 -0.001138 -1858530.000000 1 0 0
-8.293819 2.871661 -6.339659 10.827056 -0.333322 2.196341 0.002011 -0.002569 811367.000000 1 0 0
3.619781 1.360961 -2.091559 4.396550 0.359629 2.066587 0.000098 -0.000685 1217200.000000 1 0 0
-6.696719 12.536161 -3.457359 14.627191 -1.080171 1.809420 -0.002114 -0.002613 1031500.000000 1 0 0
-6.578919 3.225261 -2.301459 7.679921 -0.455811 1.875145 0.002248 -0.005451 -1993500.000000 1 0 0
12.047381 3.953261 -0.851859 12.708003 0.317072 1.637880 -0.005426 0.004900 447571.000000 1 0 0
2.270381 12.357961 -5.554059 13.737591 1.389104 1.987006 0.002991 -0.002436 -337103.000000 1 0 0
-9.282519 -1.314239 -4.223359 10.282468 0.140647 1.994055 0.001626 -0.002072 -607331.000000 1 0 0
-1.088919 5.796261 3.538841 6.877920 -1.385095 1.030346 -0.001645 -0.000389 237243.000000 1 0 0
11.552081 2.520261 11.943241 16.806050 0.214799 0.780373 0.009729 -0.002625 -95613.800000 1 0 0
-7.078619 -2.264439 -5.678559 9.353104 0.309611 2.223241 0.010111 -0.004128 -583459.000000 1 0 0
7.504181 -7.394339 10.736641 15.042089 -0.778026 0.775925 -0.007564 0.001083 1534250.000000 1 0 0
-5.590619 -1.989139 -10.893859 12.405154 0.341832 2.642823 0.004961 -0.000804 -325570.000000 1 0 0
0.833181 -6.137939 4.539141 7.679342 -1.435878 0.938393 -0.001929 -0.000620 1214370.000000 1 0 0
-4.736619 -9.361339 7.391441 12.833691 1.102379 0.957042 0.002352 -0.003380 1570520.000000 1 0 0
-8.602919 9.401261 1.641941 12.848731 -0.829711 1.442656 -0.002638 -0.003886 501152.000000 1 0 0
-8.139319 7.262661 -9.015459 14.151793 -0.728541 2.261467 -0.006802 0.001965 -179284.000000 1 0 0
-1.317719 -10.599639 -0.078859 10.681524 1.447114 1.578179 0.003372 -0.002279 -629262.000000 1 0 0
-3.846719 10.201761 7.818841 13.416686 -1.210217 0.948663 -0.003261 0.001090 641226.000000 1 0 0
-7.284919 12.098461 2.015541 14.265525 -1.028808 1.429034 -0.008883 -0.003699 1634540.000000 1 0 0
-8.135319 -8.121239 -2.738459 11.816814 0.784532 1.804665 0.011518 -0.003881 520538.000000 1 0 0
5.251181 4.699561 -8.192859 10.806651 0.730020 2.431239 0.002348 0.000619 866009.000000 1 0 0
-8.992919 -0.183239 -10.216559 13.611915 0.020373 2.419705 -0.002754 -0.001614 -1815880.000000 1 0 0
-15.201219 -2.227139 -1.390159 15.426268 0.145476 1.661035 -0.004604 -0.001820 840548.000000 1 0 0
-7.025619 -5.783939 8.694541 12.586037 0.688766 0.808190 0.005978 -0.003811 -769657.000000 1 0 0
8.149281 3.367661 -1.082759 8.883934 0.391873 1.692978 -0.001362 0.003413 103433.000000 1 0 0
11.721081 7.292861 -5.998859 15.051773 0.556584 1.980730 -0.004902 0.002718 159740.000000 1 0 0
3.717981 13.283161 -9.505659 16.751815 1.297879 2.174190 0.002937 -0.005720 88874.400000 1 0 0
-9.818219 5.490561 -0.469359 11.258951 -0.509896 1.612496 0.000459 -0.004436 466009.000000 1 0 0
11.230181 -1.319939 -5.316959 12.495169 -0.116998 2.010334 0.009463 -0.001932 -562606.000000 1 0 0
10.559481 1.668261 -1.299659 10.769162 0.156692 1.691775 -0.001167 0.004211 389330.000000 1 0 0
14.677281 5.054261 4.766641 16.238504 0.331641 1.272869 -0.000627 0.001708 1684130.000000 1 0 0
0.989881 -0.831239 10.282641 10.363568 -0.698505 0.125051 -0.001277 -0.002061 1866890.000000 1 0 0
-7.991619 1.425561 -12.457459 14.868977 -0.176525 2.564066 -0.009629 -0.001577 951295.000000 1 0 0
3.038681 -11.473539 -7.861759 14.236675 -1.311898 2.155820 -0.006615 0.000344 505968.000000 1 0 0
2.768081 4.965761 -6.793259 8.858297 1.062264 2.444763 -0.000564 0.002123 -1430880.000000 1 0 0
6.534181 7.991961 0.536041 10.337036 0.885419 1.518917 0.003431 -0.001077 -351082.000000 1 0 0
-9.047519 -5.260539 6.819241 12.491314 0.526656 0.993311 0.006501 -0.003491 -1855740.000000 1 0 0
-0.360919 -6.820239 -11.803659 13.637165 1.517927 2.617045 0.002991 0.000446 2133300.000000 1 0 0
6.326881 -13.368439 -4.755059 15.535610 -1.128760 1.881864 0.003041 -0.005599 2747700.000000 1 0 0
-3.172519 -0.448039 10.121441 10.616458 0.140297 0.306575 0.005507 -0.001820 75920.000000 1 0 0
8.724281 8.413561 6.884441 13.939032 0.767270 1.054231 -0.005897 0.000830 144517.000000 1 0 0
-7.987519 5.739961 -2.636759 10.183325 -0.623111 1.832710 -0.000201 -0.005996 840037.000000 1 0 0
-5.389519 5.913761 -6.424959 10.261558 -0.831745 2.247362 -0.004236 -0.002337 -1638450.000000 1 0 0
3.307481 -13.592539 2.529541 14.216017 -1.332104 1.391908 -0.000146 -0.006958 -1133150.000000 1 0 0
-11.203419 -6.949139 6.619941 14.752313 0.555190 1.105442 0.010840 -0.005698 -1592240.000000 1 0 0
-12.950219 -3.724439 -6.670059 15.035601 0.280039 2.030428 0.002846 -0.000886 1048220.000000 1 0 0
5.989981 0.401761 -7.385959 9.518071 0.066972 2.459085 0.002075 0.002471 1563980.000000 1 0 0
-1.415419 2.190161 -2.484759 3.601977 -0.997053 2.332053 0.002267 -0.006164 3067960.000000 1 0 0
7.492581 0.909961 -5.070259 9.092542 0.120856 2.162322 0.002889 0.002192 584354.000000 1 0 0
3.723481 -4.510139 10.803141 12.284687 -0.880651 0.496198 -0.010061 0.002171 -57479.300000 1 0 0
6.048281 -2.518339 2.076441 6.872797 -0.394541 1.263876 0.002631 -0.003084 -549163.000000 1 0 0
-6.268219 7.689461 1.095441 9.980900 -0.886874 1.460821 -0.006021 -0.003348 916358.000000 1 0 0
6.111281 -3.462339 7.913641 10.581175 -0.515460 0.725906 -0.002277 -0.002531 -595583.000000 1 0 0
6.673581 -2.263039 -7.952259 10.625274 -0.326935 2.416486 0.004309 -0.001036 583529.000000 1 0 0
12.066881 -8.140039 -5.863159 15.692243 -0.593459 1.953720 0.007840 -0.007407 615052.000000 1 0 0
5.587081 -9.747739 9.878441 14.960531 -1.050341 0.849578 -0.013249 0.003001 2181110.000000 1 0 0
-6.633319 7.603261 -4.439959 11.023780 -0.853423 1.985329 -0.003833 -0.002804 522118.000000 1 0 0
-1.233919 -7.592439 9.688241 12.370518 1.409685 0.671046 -0.003562 -0.002319 -957229.000000 1 0 0
10.077081 -9.325339 0.654141 13.745451 -0.746673 1.523189 0.000800 -0.004791 840272.000000 1 0 0
11.155281 6.050161 9.793741 16.030038 0.496957 0.913521 -0.004192 0.002693 2193300.000000 1 0 0
-15.274219 -4.286139 -4.836459 16.585056 0.273577 1.866712 -0.004890 -0.000695 1815980.000000 1 0 0
-4.555619 -4.603139 7.843441 10.171633 0.790587 0.690215 0.008299 -0.002446 -704307.000000 1 0 0
2.800381 11.001061 -11.154259 15.914866 1.321535 2.347413 -0.002169 -0.001873 -1199600.000000 1 0 0
9.943281 -1.438739 1.423641 10.147195 -0.143697 1.430033 -0.002022 0.000669 -509436.000000 1 0 0
-1.662119 -2.612439 0.733841 3.182138 1.004160 1.338089 0.004626 -0.005423 350498.000000 1 0 0
1.594481 3.063461 0.825041 3.550754 1.090896 1.336296 -0.001953 -0.002058 -87141.100000 1 0 0
-8.932519 -2.295739 4.363441 10.202937 0.251565 1.128888 0.004606 -0.006997 3823870.000000 1 0 0
9.890081 4.824061 -2.809259 11.356813 0.453814 1.820754 -0.004279 0.004081 2353500.000000 1 0 0
2.614781 8.408361 2.488241 9.150353 1.269302 1.295400 -0.002250 -0.001667 1127410.000000 1 0 0
-8.083319 -0.012439 2.536841 8.472058 0.001539 1.266695 0.003661 -0.007543 1253500.000000 1 0 0
6.986981 1.965361 13.646841 15.456935 0.274204 0.488805 -0.006833 0.000973 -489289.000000 1 0 0
6.848581 4.376461 3.711141 8.934710 0.568626 1.142455 -0.004180 0.000202 333976.000000 1 0 0
-0.241119 3.286161 7.734541 8.407147 -1.497554 0.402726 -0.000835 -0.002139 731744.000000 1 0 0
2.704281 -10.321339 9.209741 14.094769 -1.314548 0.858709 -0.008115 -0.003911 1635510.000000 1 0 0
1.387281 -4.511739 6.902641 8.362224 -1.272489 0.599788 -0.004216 -0.000520 -1468000.000000 1 0 0
-0.157519 10.754761 -1.966359 10.934179 -1.556151 1.751616 -0.003383 -0.001191 2886230.000000 1 0 0
8.836181 5.508861 7.956141 13.104420 0.557479 0.918347 -0.005873 0.001943 -53356.400000 1 0 0
2.624181 11.395161 -2.943859 12.058289 1.344453 1.817425 0.003047 -0.005816 1421260.000000 1 0 0
1.311981 2.488661 -6.798959 7.358027 1.085639 2.749259 0.001196 -0.001593 1089760.000000 1 0 0
-13.561519 -2.105639 3.697941 14.213489 0.154036 1.307597 0.002603 -0.005960 1101440.000000 1 0 0
-0.996419 -10.602639 -5.245159 11.870994 1.477093 2.028452 -0.000277 0.000902 13699.500000 1 0 0
-5.699619 2.916261 0.452241 6.418314 -0.472931 1.500277 0.004358 -0.006923 390497.000000 1 0 0
3.707681 7.228861 -5.020459 9.550306 1.096882 2.124317 0.001901 -0.001293 -1283970.000000 1 0 0
2.895581 9.708061 -6.487659 12.029986 1.280931 2.140391 0.000386 -0.001572 95184.600000 1 0 0
-12.264719 1.788161 -2.512759 12.646533 -0.144777 1.770819 -0.000284 -0.001721 1434940.000000 1 0 0
-2.516019 9.781061 -5.739759 11.616554 -1.319021 2.087598 -0.007723 -0.001274 381716.000000 1 0 0
-1.336919 3.421161 1.741341 4.064968 -1.198264 1.128100 0.000339 -0.004915 850694.000000 1 0 0
12.926681 3.655661 9.644141 16.537001 0.275603 0.948152 0.008255 -0.000974 229779.000000 1 0 0
-2.483919 -9.597339 11.633341 15.284417 1.317540 0.705752 -0.002144 -0.004235 -470364.000000 1 0 0
-0.493219 -8.961439 -7.481359 11.684236 1.515814 2.265679 0.001586 0.000126 1500390.000000 1 0 0
2.400381 7.585561 -0.515059 7.972945 1.264325 1.635442 -0.000376 -0.001367 2490570.000000 1 0 0
-11.961919 -1.284339 -5.386559 13.181504 0.106959 1.991766 -0.001573 0.000058 -1731630.000000 1 0 0
-6.365819 -7.149339 -10.929359 14.528853 0.843307 2.422270 0.005560 -0.000072 1182390.000000 1 0 0
-4.724319 -2.179439 -1.371259 5.380473 0.432230 1.828498 0.005152 -0.005402 -488956.000000 1 0 0
-10.445419 3.690461 4.618841 12.002499 -0.339620 1.175780 -0.001477 -0.007040 3534330.000000 1 0 0
6.724381 9.318261 -3.639359 12.053722 0.945697 1.877511 0.004199 -0.001092 783629.000000 1 0 0
1.190281 -2.671939 -11.571359 11.935341 -1.151712 2.893994 0.005233 -0.004163 796230.000000 1 0 0
1.323781 8.706061 7.558441 11.605082 1.419899 0.861494 -0.003135 0.004286 407821.000000 1 0 0
10.399181 0.293961 10.348141 14.673562 0.028260 0.788058 -0.001524 -0.001453 140452.000000 1 0 0
-5.371719 -0.694739 -3.882159 6.664021 0.128619 2.192665 0.004054 -0.005329 -795056.000000 1 0 0
11.735881 5.671461 5.394841 14.106760 0.450165 1.178372 -0.002124 0.003407 2828700.000000 1 0 0
9.973981 -3.614939 3.585241 11.198305 -0.347711 1.244899 0.003909 -0.004436 -2414790.000000 1 0 0
7.327581 -1.695839 -3.495359 8.293784 -0.227428 2.005832 0.004230 -0.000837 -4591780.000000 1 0 0
2.466681 9.228561 10.445941 14.155160 1.309614 0.740754 0.000140 0.004735 2388310.000000 1 0 0
2.541781 -10.873139 6.336741 12.839007 -1.341153 1.054625 -0.008070 -0.001928 2280380.000000 1 0 0
5.850281 -7.566039 -1.334459 9.656682 -0.912594 1.709430 0.000543 -0.005095 1027490.000000 1 0 0
-0.225319 -5.624939 -2.307459 6.084001 1.530761 1.959800 -0.001202 -0.001256 1863130.000000 1 0 0
7.746181 -5.048439 2.567841 9.596034 -0.577592 1.299901 0.001505 -0.004800 782902.000000 1 0 0
-2.670919 -12.483939 4.706441 13.606364 1.360026 1.217598 0.003246 -0.004368 -353925.000000 1 0 0
4.807381 -10.321839 -1.304059 11.460883 -1.134923 1.684827 -0.002966 -0.004918 1552540.000000 1 0 0
1.023281 0.221461 1.091541 1.512485 0.213135 0.764560 -0.001635 -0.002702 -1800400.000000 1 0 0
-1.581019 8.527561 2.460941 9.015273 -1.387477 1.294313 -0.005693 0.000650 234985.000000 1 0 0
-7.638519 0.726761 -2.977059 8.230312 -0.094859 1.940907 0.005670 -0.003925 -2037780.000000 1 0 0
4.497981 -6.431139 12.833041 15.042551 -0.960469 0.548867 -0.009254 0.000853 -1484030.000000 1 0 0
-5.027619 12.905561 8.463141 16.231304 -1.199314 1.022295 -0.001027 -0.001893 1733180.000000 1 0 0
0.686281 6.061461 8.233241 10.246880 1.458056 0.637666 -0.003096 0.001184 1147550.000000 1 0 0
7.969281 -0.600539 -0.837059 8.035593 -0.075215 1.675155 0.002394 -0.000317 4474660.000000 1 0 0
2.352781 -9.161939 -2.438459 9.768459 -1.319428 1.823090 -0.006209 -0.002280 1497080.000000 1 0 0
-7.036519 12.136061 4.928241 14.868898 -1.045360 1.232960 -0.005595 -0.002552 1881280.000000 1 0 0
-14.986419 0.312461 0.283841 14.992363 -0.020847 1.551863 -0.002147 -0.002507 1254410.000000 1 0 0
6.939381 -0.504339 3.833041 7.943650 -0.072550 1.067257 -0.000561 -0.000791 2823080.000000 1 0 0
-4.145919 -4.975639 5.113141 8.251657 0.876111 0.902499 0.003768 -0.001863 814869.000000 1 0 0
3.002181 5.059661 6.854441 9.033085 1.035276 0.709304 -0.004180 -0.001070 -305157.000000 1 0 0
1.996581 -7.147539 1.833041 7.644193 -1.298401 1.328641 -0.001941 -0.002346 1304050.000000 1 0 0
-2.488619 6.423961 -1.798359 7.120014 -1.201202 1.826140 -0.002739 -0.002405 1729920.000000 1 0 0
2.583581 -3.820939 -6.638759 8.083785 -0.976247 2.534384 -0.003249 -0.001728 -269701.000000 1 0 0
-5.168219 0.910261 -12.121859 13.209032 -0.174339 2.733035 -0.000905 -0.000393 -519300.000000 1 0 0
-7.524319 6.467161 -11.930059 15.516631 -0.709984 2.447847 -0.009537 0.001428 1413950.000000 1 0 0
-1.100519 11.289761 -9.004759 14.482939 -1.473624 2.241771 -0.005916 0.002512 678756.000000 1 0 0
4.691181 5.862461 -0.661459 7.537450 0.895929 1.658666 -0.000739 0.000945 -510620.000000 1 0 0
-2.552219 13.373961 3.654341 14.097194 -1.382229 1.308577 -0.005811 0.001446 168841.000000 1 0 0
1.552081 -7.936739 10.199341 13.016426 -1.377677 0.670398 -0.010396 0.000186 -652203.000000 1 0 0
12.924081 -0.298639 -1.212759 12.984292 -0.023103 1.664335 -0.000718 0.004327 748731.000000 1 0 0
-1.110119 3.084661 -5.377459 6.297981 -1.225344 2.594112 0.001376 -0.004762 -615740.000000 1 0 0
6.714081 1.026861 7.200041 9.898178 0.151765 0.756255 -0.003780 0.000363 1552370.000000 1 0 0
5.528581 -6.149439 6.765141 10.684004 -0.838513 0.885112 -0.004714 -0.000587 1198020.000000 1 0 0
12.193381 -4.925539 2.468641 13.380346 -0.383908 1.385236 0.000538 -0.001843 -1117870.000000 1 0 0
4.543881 -9.220739 13.872041 17.265643 -1.112934 0.637733 -0.016506 0.002808 1073620.000000 1 0 0
-2.701219 -4.218439 -1.393359 5.199352 1.001245 1.842099 0.004912 -0.004340 2341650.000000 1 0 0
-9.326819 -5.096039 -7.510459 13.014075 0.500064 2.185973 0.008687 -0.003169 695023.000000 1 0 0
-10.622819 -2.992639 7.901041 13.573011 0.274601 0.949470 0.011255 -0.006177 -696986.000000 1 0 0
12.047681 -0.631039 1.565341 12.165325 -0.052331 1.441766 0.000100 0.001792 568552.000000 1 0 0
-7.567619 4.732961 4.451541 9.974267 -0.558903 1.108167 0.002957 -0.006584 2350330.000000 1 0 0
-0.989919 10.533761 6.977641 12.673892 -1.477096 0.987771 -0.003883 0.005173 1870570.000000 1 0 0
7.379381 -10.001339 1.797441 12.558377 -0.935124 1.427176 -0.001593 -0.003894 4093270.000000 1 0 0
-4.321319 -1.618139 1.699741 4.917448 0.358293 1.217859 0.004705 -0.005677 1449310.000000 1 0 0
6.673381 -15.003639 -0.951859 16.448381 -1.152288 1.628698 0.009375 -0.006681 -857256.000000 1 0 0
-10.364419 1.720161 2.462341 10.790888 -0.164469 1.340581 -0.001057 -0.004629 -364024.000000 1 0 0
-3.081419 8.372161 -11.406359 14.480789 -1.218128 2.477845 -0.009717 0.004110 -965595.000000 1 0 0
-1.312619 -5.109739 -6.897459 8.683740 1.319348 2.488644 0.000222 -0.003698 -586199.000000 1 0 0
12.818881 -0.525439 6.417541 14.345196 -0.040967 1.106979 0.002267 0.000766 2495830.000000 1 0 0
5.994681 -13.340439 3.727741 15.093030 -1.148473 1.321229 0.004157 -0.003514 394841.000000 1 0 0
-5.626019 3.556561 -4.904559 8.267763 -0.563734 2.205843 -0.000183 -0.004759 2094030.000000 1 0 0
-4.398319 7.999461 3.371341 9.731522 -1.068086 1.217028 -0.005366 -0.000307 -41435.400000 1 0 0
13.845481 6.216261 -4.102759 15.721701 0.422000 1.834814 -0.001549 0.008916 1160720.000000 1 0 0
-6.674919 -8.421239 5.362541 12.009524 0.900566 1.107919 0.010604 -0.003030 294413.000000 1 0 0
1.646381 11.284861 2.731541 11.726891 1.425925 1.335707 -0.004335 -0.002553 1897380.000000 1 0 0
-7.268419 7.297361 6.055641 11.947894 -0.787385 1.039284 -0.001113 -0.004452 -1362610.000000 1 0 0
-17.461219 -3.996439 5.236741 18.662506 0.225000 1.286375 0.010121 -0.006622 -760100.000000 1 0 0
7.456481 -13.148939 -8.624059 17.403106 -1.054936 2.089261 0.005503 -0.003040 -279476.000000 1 0 0
-2.281319 12.775461 -2.706459 13.256762 -1.394088 1.776399 -0.009969 0.001259 801483.000000 1 0 0
-5.466719 13.992361 -5.672559 16.057681 -1.198339 1.931851 0.001398 0.002461 1592400.000000 1 0 0
-5.601819 2.414161 7.479641 9.651610 -0.406908 0.684140 0.005033 -0.003456 699599.000000 1 0 0
-7.439819 5.096361 1.440741 9.132335 -0.600596 1.412372 0.002694 -0.004956 1933060.000000 1 0 0
10.728581 -5.716739 -5.135559 13.196875 -0.489582 1.970505 0.007279 -0.006136 2877280.000000 1 0 0
-9.542719 -0.595239 6.889041 11.784595 0.062296 0.946434 0.004447 -0.005552 967143.000000 1 0 0
-11.281919 -4.510339 -2.484759 12.401567 0.380321 1.772520 0.002226 -0.001801 639852.000000 1 0 0
6.567381 -4.404839 13.541141 15.681059 -0.590800 0.528559 -0.006255 -0.003269 -1348670.000000 1 0 0
0.085781 10.424161 -11.674859 15.651607 1.562567 2.412713 -0.002882 0.001836 -1237500.000000 1 0 0
-11.796419 -3.100539 1.557941 12.296179 0.257024 1.443754 0.003752 -0.005624 2834350.000000 1 0 0
5.273581 5.908761 5.414041 9.593537 0.842139 0.971160 -0.001943 0.000173 -4843810.000000 1 0 0
-7.132619 -0.051839 8.218141 10.881856 0.007268 0.714814 0.007437 -0.003616 -91559.500000 1 0 0
1.817681 2.057261 9.653341 10.036099 0.847148 0.277067 -0.003923 -0.002529 2952860.000000 1 0 0
10.526881 -4.927639 -2.130159 11.816701 -0.437804 1.752054 0.000745 -0.004057 1530950.000000 1 0 0
-9.673119 -2.302739 -1.577859 10.067843 0.233706 1.728168 0.002253 -0.003610 -1215310.000000 1 0 0
-2.116519 -5.192339 -9.899259 11.376966 1.183735 2.626230 0.007403 -0.004071 47362.800000 1 0 0
7.741881 -1.682639 6.447741 10.214762 -0.214014 0.887674 -0.001323 -0.002191 2429270.000000 1 0 0
1.466781 -11.823839 -2.611759 12.197373 -1.447374 1.786592 -0.003312 -0.001423 -4316250.000000 1 0 0
-0.727319 -1.483339 4.792041 5.068821 1.114918 0.331990 0.000984 -0.002202 2414140.000000 1 0 0
7.661981 1.436761 9.787941 12.512955 0.185366 0.672568 -0.003958 0.000119 915461.000000 1 0 0
-3.884219 10.763361 -8.010159 13.967811 -1.224467 2.181535 -0.007843 0.003537 1891590.000000 1 0 0
-9.491019 12.631661 6.443141 17.063188 -0.926421 1.183588 -0.011224 0.000075 1954080.000000 1 0 0
-2.680419 -2.474639 -11.066459 11.652253 0.745501 2.823159 0.008672 -0.004047 -2505410.000000 1 0 0
1.241481 -11.922439 11.097041 16.334937 -1.467040 0.823928 -0.004297 -0.002127 97015.400000 1 0 0
1.386781 3.455461 -2.021259 4.236609 1.189144 2.068141 -0.000158 -0.002162 2458870.000000 1 0 0
-2.070119 -9.262739 -12.031959 15.324874 1.350921 2.473696 0.004567 0.001269 967385.000000 1 0 0
1.309481 -2.696839 1.512741 3.357986 -1.118766 1.103481 0.002019 -0.002305 3554920.000000 1 0 0
-1.147419 -2.160439 -6.600259 7.038997 1.082576 2.786661 0.000193 -0.005690 -800332.000000 1 0 0
1.897881 5.825961 4.072741 7.357377 1.255875 0.984165 -0.002881 -0.000446 -639759.000000 1 0 0
-10.800819 8.566561 3.643541 14.258999 -0.670544 1.312405 -0.004877 -0.006273 2148120.000000 1 0 0
-16.352919 -1.468339 3.987741 16.896037 0.089550 1.332532 0.000556 -0.000597 65936.700000 1 0 0
-12.311619 0.363561 6.858041 14.097548 -0.029521 1.062751 0.004224 -0.004843 655205.000000 1 0 0
-5.060719 3.058961 4.687041 7.545626 -0.543687 0.900574 0.001600 -0.003459 909380.000000 1 0 0
5.263081 -6.029639 3.873041 8.891401 -0.853175 1.120098 -0.004674 -0.002762 1777300.000000 1 0 0
9.989381 3.443261 6.233741 12.267979 0.331938 1.037783 -0.002638 0.003850 -316384.000000 1 0 0
-12.127719 5.860161 3.255041 13.857068 -0.450121 1.333679 -0.001211 -0.005814 1741170.000000 1 0 0
-4.813919 12.291161 -1.207259 13.255336 -1.197503 1.662000 -0.013522 0.001172 720245.000000 1 0 0
-1.618819 -12.207039 10.287841 16.045936 1.438952 0.874801 -0.001555 -0.004097 1072030.000000 1 0 0
5.329081 6.238961 13.961941 16.194430 0.863891 0.531309 -0.004611 0.002581 629165.000000 1 0 0
12.873281 -3.777039 -6.081159 14.729830 -0.285392 1.996373 0.005495 -0.005340 966189.000000 1 0 0
3.626181 -2.532939 6.331141 7.723232 -0.609728 0.609817 -0.003164 -0.000590 2678620.000000 1 0 0
7.180981 -11.878239 -0.670059 13.896332 -1.027038 1.619033 0.002928 -0.001643 -850205.000000 1 0 0
-6.045119 -6.481339 -4.036059 9.738634 0.820208 1.998121 0.009348 -0.003272 -226986.000000 1 0 0
0.402781 -8.934239 5.083041 10.286893 -1.525744 1.053965 -0.004695 -0.001352 1986570.000000 1 0 0
-10.299519 2.517261 -0.359259 10.608759 -0.239707 1.604667 0.001148 -0.003184 -529861.000000 1 0 0
-1.814019 8.910661 -0.381359 9.101427 -1.369962 1.612710 -0.004262 -0.001700 254895.000000 1 0 0
-3.618319 2.350861 -6.522859 7.820899 -0.576172 2.557167 0.001540 -0.005560 -378526.000000 1 0 0
-12.725619 3.080861 6.442941 14.592620 -0.237529 1.113504 -0.000471 -0.008334 -471034.000000 1 0 0
11.390581 1.576061 7.898341 13.950380 0.137492 0.968940 0.001088 -0.001867 -1991740.000000 1 0 0
5.984481 2.601461 -3.266759 7.297488 0.410059 2.034938 -0.002325 0.001675 2123770.000000 1 0 0
10.545081 -2.546339 6.335441 12.562659 -0.236936 1.042217 0.006218 -0.004513 2375450.000000 1 0 0
-0.929219 10.986461 4.190541 11.795186 -1.486419 1.207587 -0.003636 0.001076 274028.000000 1 0 0
-1.510319 -12.193539 7.370741 14.327989 1.447562 1.030454 -0.003922 -0.002099 -90456.000000 1 0 0
7.926181 8.660061 -7.839159 14.116424 0.829616 2.159546 0.009568 -0.003248 1299340.000000 1 0 0
-4.734319 -5.995339 -8.691459 11.571487 0.902388 2.420538 0.005907 -0.003523 511779.000000 1 0 0
-8.743019 -5.436139 -11.653259 15.549612 0.556273 2.417989 0.006745 0.003742 1884930.000000 1 0 0
6.034781 -0.594139 -10.058359 11.744878 -0.098136 2.599060 0.003074 0.001746 -906586.000000 1 0 0
-11.158819 -5.443939 -5.257359 13.483157 0.453888 1.971342 0.003062 -0.004431 373506.000000 1 0 0
3.912781 8.884461 -2.731259 10.084804 1.155948 1.845051 0.004623 -0.002734 596406.000000 1 0 0
11.618281 -10.419339 -4.097659 16.134990 -0.731047 1.827570 0.009657 -0.007367 -61994.800000 1 0 0
4.084981 -11.304439 3.956741 12.654375 -1.224037 1.252786 -0.004385 -0.001345 -815290.000000 1 0 0
-1.009919 0.900161 3.182441 3.458057 -0.727999 0.401956 0.002020 -0.003853 714458.000000 1 0 0
-10.573319 -4.991039 4.592841 12.561836 0.441031 1.196499 0.009443 -0.006685 2395600.000000 1 0 0
4.573681 -8.679139 2.717841 10.180013 -1.085803 1.300540 -0.005230 -0.001196 6061500.000000 1 0 0
-3.650019 -5.733539 2.596741 7.275931 1.003893 1.205855 0.003946 -0.001006 3068660.000000 1 0 0
10.047481 4.944961 12.328541 16.655253 0.457355 0.737400 0.001733 0.001261 -241283.000000 1 0 0
1.576281 -12.291639 -5.282259 13.471129 -1.443252 1.973728 -0.004484 -0.000570 1373060.000000 1 0 0
9.775081 -10.823039 -1.770159 14.690944 -0.836231 1.691583 0.005376 -0.005900 309554.000000 1 0 0
9.544381 -4.509839 -9.250459 14.035841 -0.441417 2.290364 0.011245 -0.004671 1196780.000000 1 0 0
-7.592119 -3.128939 -13.044659 15.414073 0.390919 2.579764 -0.002150 0.001614 2271290.000000 1 0 0
0.375681 6.227161 -2.560659 6.743563 1.510540 1.960289 0.000179 -0.002204 1662180.000000 1 0 0
-5.965719 -9.425239 1.045641 11.203495 1.006500 1.477329 0.008033 -0.000917 1334530.000000 1 0 0
-8.983619 -3.970639 0.733241 9.849316 0.416170 1.496281 0.001592 -0.004000 1388460.000000 1 0 0
1.977381 3.779361 12.057741 12.789947 1.088757 0.340009 -0.003230 -0.001530 1471360.000000 1 0 0
6.752481 4.192961 9.508041 12.392731 0.555682 0.696289 -0.007562 0.002974 1782600.000000 1 0 0
-8.202419 9.922061 -3.510159 13.343470 -0.879995 1.836991 -0.004836 -0.002663 1575060.000000 1 0 0
16.287481 2.095261 -6.299259 17.588429 0.127940 1.937080 -0.004802 0.009852 734973.000000 1 0 0
-11.043719 2.680661 -5.139359 12.472477 -0.238126 1.995506 -0.000225 -0.001191 994975.000000 1 0 0
-13.746019 3.978561 1.567041 14.395749 -0.281735 1.461726 -0.002014 0.001632 -195241.000000 1 0 0
-17.307419 10.527361 3.502841 20.558258 -0.546469 1.399575 0.008770 -0.005903 -314615.000000 1 0 0
-14.415719 2.847461 -1.153359 14.739444 -0.195014 1.649126 -0.000697 0.001149 650576.000000 1 0 0
-14.331719 5.231661 5.188541 16.114881 -0.350011 1.242985 -0.004564 -0.006975 135069.000000 1 0 0
-17.479019 7.554161 3.222541 19.312333 -0.407940 1.403148 0.005472 -0.004121 -2038860.000000 1 0 0
-14.997119 12.785961 -3.301159 19.982293 -0.705979 1.736761 0.037970 -0.012476 -283234.000000 1 0 0
-8.588519 12.526661 -9.427859 17.876365 -0.969787 2.126325 -0.006097 -0.009120 1913880.000000 1 0 0
-12.260919 8.854061 -9.819159 18.031650 -0.625429 2.146650 -0.000614 0.002613 -2046510.000000 1 0 0
-13.831119 -3.657139 -12.124559 18.753118 0.258498 2.273831 -0.015343 0.005252 -998180.000000 1 0 0
-14.838319 5.817261 -7.518559 17.622286 -0.373628 2.011582 0.005385 0.006047 516519.000000 1 0 0
-10.939619 13.591561 -8.074459 19.225053 -0.893085 2.004238 0.010634 -0.012156 745473.000000 1 0 0
-10.755219 13.510461 3.914441 17.706782 -0.898459 1.347885 -0.004766 -0.006995 -258565.000000 1 0 0
-15.236019 3.327661 3.103041 15.900895 -0.215031 1.374387 -0.002108 -0.000698 -746186.000000 1 0 0
-11.119119 9.432361 -12.434459 19.162985 -0.703507 2.276907 -0.005355 0.002540 -1115670.000000 1 0 0
-13.002219 11.565261 -8.787159 19.494284 -0.726974 2.038408 0.011041 -0.019000 -547673.000000 1 0 0
-8.780419 14.647661 -3.315159 17.396552 -1.030787 1.762533 0.002375 -0.009414 778250.000000 1 0 0
-16.707119 8.357261 -4.028059 19.110125 -0.463825 1.783171 0.020848 0.002492 -400849.000000 1 0 0
-16.820619 6.905461 0.423341 18.187848 -0.389556 1.547518 0.002150 0.003230 288104.000000 1 0 0
-10.565019 2.794361 -12.374059 16.508949 -0.258571 2.418158 -0.003149 -0.000405 392619.000000 1 0 0
-16.892219 0.973761 2.427641 17.093528 -0.057582 1.428293 -0.007719 -0.000409 160763.000000 1 0 0
-12.790619 1.215961 -6.940959 14.603267 -0.094782 2.066103 -0.000493 -0.003877 833933.000000 1 0 0
-12.172919 8.956161 -5.382459 16.042557 -0.634315 1.912944 0.013436 -0.005254 -1703730.000000 1 0 0
-9.472919 13.989561 1.353841 16.949245 -0.975577 1.490835 0.007767 -0.007126 232077.000000 1 0 0
-12.015319 11.076961 2.698741 16.563519 -0.744785 1.407134 -0.001052 -0.006014 -648647.000000 1 0 0
-12.565519 6.886861 -3.528859 14.757166 -0.501365 1.812265 0.004377 0.000447 474073.000000 1 0 0
-15.871219 3.651161 -9.259759 18.734185 -0.226115 2.087792 0.002237 0.001094 -689281.000000 1 0 0
-15.096219 5.947361 -4.566259 16.855790 -0.375292 1.845126 0.010540 0.002974 431463.000000 1 0 0
-17.701219 5.521961 7.784041 20.110109 -0.302387 1.173343 -0.010114 -0.000361 -722601.000000 1 0 0
-15.807119 10.235361 -1.966259 18.933932 -0.574627 1.674832 0.024416 -0.004979 -1021560.000000 1 0 0
-8.755519 9.946261 -8.183459 15.574216 -0.848982 2.124039 -0.006924 -0.003055 -470005.000000 1 0 0
-17.074319 4.313461 -1.181759 17.650350 -0.247451 1.637800 0.001879 0.003723 -399567.000000 1 0 0
-10.285119 5.376961 -4.488259 12.443466 -0.481713 1.939806 -0.000786 -0.003106 360763.000000 1 0 0
-17.981619 3.025861 6.431541 19.335438 -0.166713 1.231706 -0.009105 0.002346 -1702500.000000 1 0 0
-10.238019 10.164961 -5.585059 15.470499 -0.781817 1.940151 -0.002749 -0.005016 -152325.000000 1 0 0
-15.422919 0.414861 -5.854059 16.501774 -0.026893 1.933447 -0.004074 0.000606 626292.000000 1 0 0
-16.413719 -4.224839 -8.758659 19.078090 0.251928 2.047773 -0.006792 -0.005744 -1644480.000000 1 0 0
-9.961419 9.680861 -1.026859 13.928509 -0.771116 1.644587 0.001158 -0.003989 1797260.000000 1 0 0
-17.370419 -2.959539 -3.119959 17.894817 0.168758 1.746042 -0.009956 0.002825 -472614.000000 1 0 0
-12.055919 5.083961 -11.439059 17.379410 -0.399071 2.289216 0.004348 0.001811 -957620.000000 1 0 0
-16.251419 7.275461 5.955041 18.775076 -0.420924 1.248044 -0.002891 -0.004090 -42406.900000 1 0 0
-12.135819 6.025461 -8.677459 16.089828 -0.460845 2.140418 0.002729 -0.001288 680911.000000 1 0 0
-14.446119 8.566161 -0.001159 16.794924 -0.535237 1.570865 0.010776 -0.003280 284908.000000 1 0 0
-14.712819 11.890161 3.892141 19.312994 -0.679691 1.367877 -0.009239 -0.007742 1094770.000000 1 0 0
-17.274619 4.135461 -4.072559 18.223617 -0.234973 1.796177 0.000878 0.003752 37231.600000 1 0 0
-13.676319 13.566761 -0.781559 19.279770 -0.781377 1.611345 0.020390 -0.013154 -12012.600000 1 0 0
-10.185119 6.798061 -13.028159 17.879687 -0.588545 2.387155 -0.009041 0.001487 3038260.000000 1 0 0
-15.901719 -1.285939 -8.223159 17.948221 0.080692 2.046720 -0.004103 -0.005284 -1437990.000000 1 0 0
-11.320519 12.027961 -0.036659 16.517486 -0.815688 1.573016 0.007188 -0.007287 1016770.000000 1 0 0
-11.958219 7.480061 -0.794159 14.127314 -0.558971 1.627040 0.001078 0.001003 1193810.000000 1 0 0
-11.497619 0.134661 -11.631059 16.355271 -0.011712 2.361930 -0.009540 -0.003253 -538019.000000 1 0 0
-19.029419 -1.180039 -4.646659 19.624034 0.061932 1.809851 -0.023420 0.002530 -182584.000000 1 0 0
-17.964619 1.487761 -5.062359 18.723473 -0.082628 1.844579 -0.014345 0.006234 -1249710.000000 1 0 0
-13.428719 -0.166239 -9.414959 16.401206 0.012379 2.182228 -0.003571 -0.006495 -510847.000000 1 0 0
-6.175519 11.458961 -13.238659 18.566284 -1.076496 2.364633 -0.027231 0.010763 686300.000000 1 0 0
16.410081 5.850661 7.021341 18.783510 0.342479 1.187690 0.013617 -0.002867 427589.000000 1 0 0
14.723581 10.174461 -5.659859 18.770655 0.604682 1.877090 0.006797 0.004585 -89430.200000 1 0 0
2.500681 16.800761 4.399341 17.546315 1.423038 1.317365 0.001874 -0.003793 885810.000000 1 0 0
-3.941419 18.248561 -5.712959 19.523900 -1.358079 1.867755 -0.008167 -0.001400 250381.000000 1 0 0
5.611481 14.408761 5.681541 16.473646 1.199418 1.218678 0.004245 -0.001981 -1241440.000000 1 0 0
9.907381 5.885061 15.145041 19.030565 0.536002 0.650424 0.007077 0.004751 -1027160.000000 1 0 0
4.582381 12.666061 -1.085559 13.513170 1.223662 1.651216 0.006348 -0.007147 1859050.000000 1 0 0
3.647781 13.556961 13.173741 19.252142 1.307951 0.817189 0.004191 0.004214 731131.000000 1 0 0
-0.647319 12.381061 9.184341 15.429252 -1.518561 0.933213 0.001169 0.007132 1583290.000000 1 0 0
-7.620919 13.916661 8.413141 17.959198 -1.069789 1.083251 -0.000718 -0.007718 1502930.000000 1 0 0
11.439281 12.797261 -4.242959 17.681339 0.841370 1.813129 0.014558 0.001875 -51822.000000 1 0 0
-5.722219 16.170761 1.013641 17.183270 -1.230685 1.511772 -0.010880 0.001352 993299.000000 1 0 0
3.308381 10.508861 6.729141 12.909798 1.265801 1.022490 -0.000496 0.006117 1943970.000000 1 0 0
-1.080219 15.529861 2.456541 15.760014 -1.501351 1.414286 -0.005006 -0.001288 -574115.000000 1 0 0
9.941881 8.760861 9.457841 16.280186 0.722335 0.950911 -0.007809 0.000387 1119020.000000 1 0 0
7.395181 12.199361 6.237941 15.570004 1.025835 1.158583 -0.003976 -0.006975 1881860.000000 1 0 0
11.865481 14.009661 -1.543659 18.423982 0.868076 1.654680 0.004164 0.004360 -1697200.000000 1 0 0
9.655381 15.816761 -1.218259 18.570958 1.022727 1.636444 0.004388 0.000482 596658.000000 1 0 0
10.186981 13.666661 2.902341 17.290917 0.930253 1.402144 0.004132 -0.004471 1490350.000000 1 0 0
-5.895919 14.562261 6.338441 16.940990 -1.186093 1.187318 -0.009209 -0.001856 -222518.000000 1 0 0
-0.940519 18.224161 -6.113459 19.245233 -1.519234 1.894058 0.002803 0.000628 818177.000000 1 0 0
-3.429919 15.771861 5.468441 17.041708 -1.356660 1.244132 -0.008612 0.000548 1414460.000000 1 0 0
7.143881 12.173461 10.607241 17.656210 1.040109 0.926338 -0.005896 -0.002339 997706.000000 1 0 0
1.595881 14.537461 6.244541 15.902167 1.461457 1.167247 -0.001465 0.003475 533825.000000 1 0 0
17.196281 7.579561 -1.720259 18.871172 0.415150 1.662081 -0.024616 0.021598 -219591.000000 1 0 0
2.049481 16.117161 -3.370759 16.592928 1.444314 1.775364 -0.006213 0.002450 1057770.000000 1 0 0
6.705781 11.211061 0.644241 13.079390 1.031746 1.521520 0.006418 -0.002615 693113.000000 1 0 0
12.667081 9.219261 3.212941 15.992896 0.629149 1.368522 -0.005095 0.001736 -1506510.000000 1 0 0
6.005781 14.185661 -3.413459 15.778279 1.170307 1.788860 0.000877 -0.001492 -62977.100000 1 0 0
3.123881 16.450861 1.537841 16.815303 1.383139 1.479213 -0.000134 -0.009180 -387574.000000 1 0 0
2.771381 18.793561 -2.395959 19.147300 1.424387 1.696258 0.000452 -0.014335 -374680.000000 1 0 0
4.049981 11.897861 10.716541 16.516831 1.242703 0.864756 -0.000628 0.000036 3011490.000000 1 0 0
8.111681 11.531461 3.367441 14.495297 0.957766 1.336342 0.000189 -0.005270 1153130.000000 1 0 0
0.734981 12.493261 0.237641 12.517118 1.512034 1.551810 -0.000753 -0.004261 -1708620.000000 1 0 0
11.939481 9.935161 -4.755859 16.244286 0.694026 1.867920 0.010328 0.004293 -929784.000000 1 0 0
-1.359719 16.549861 9.991241 19.379671 -1.488822 1.029144 0.004698 0.009417 -266898.000000 1 0 0
8.176581 14.708461 -7.942059 18.608375 1.063427 2.011748 0.018411 -0.002607 2166210.000000 1 0 0
14.303681 7.508761 -1.448059 16.219546 0.483410 1.660194 -0.006884 0.012553 -40518.100000 1 0 0
12.596781 8.343061 5.970241 16.245902 0.584985 1.194485 -0.002571 0.000727 -1100870.000000 1 0 0
-2.983819 14.142961 10.273641 17.733421 -1.362870 0.952880 0.001417 0.001633 3372260.000000 1 0 0
-4.503219 17.181361 -3.032159 18.018661 -1.314463 1.739880 -0.008991 -0.002088 -1255420.000000 1 0 0
-6.997619 16.507061 -1.650459 18.004826 -1.169844 1.662593 -0.003714 -0.002336 -220954.000000 1 0 0
8.249381 11.256161 -1.888359 14.082590 0.938344 1.705293 0.002665 -0.000533 -642038.000000 1 0 0
8.552281 12.900961 -4.264559 16.054992 0.985393 1.839645 0.008994 -0.001141 4477300.000000 1 0 0
2.582981 14.827361 -7.343259 16.746518 1.398323 2.024719 -0.002780 0.002754 -2202170.000000 1 0 0
11.410481 11.316261 9.781641 18.813223 0.781252 1.024022 0.000944 -0.008397 185228.000000 1 0 0
8.635381 15.764361 1.593841 18.045088 1.069660 1.482356 0.002975 -0.000414 -103088.000000 1 0 0
6.127581 9.884061 7.652941 13.921545 1.015840 0.988768 -0.003183 0.004175 2377720.000000 1 0 0
14.394081 11.346261 2.728041 18.530230 0.667541 1.423038 -0.000677 0.003255 1080390.000000 1 0 0
12.199481 12.591561 1.008841 17.561108 0.801212 1.513317 0.002578 0.003434 2055710.000000 1 0 0
5.370881 15.714061 8.309741 18.569596 1.241456 1.106838 0.007777 0.002197 482987.000000 1 0 0
11.510381 14.849261 5.173041 19.487170 0.911394 1.302117 0.004029 -0.008719 -600116.000000 1 0 0
5.981981 16.768161 1.809141 17.894924 1.228124 1.469525 -0.001375 -0.008908 174102.000000 1 0 0
-0.706019 16.092861 -4.137559 16.631237 -1.526953 1.822219 -0.006793 -0.000684 1229890.000000 1 0 0
16.125381 6.436261 2.535441 17.546562 0.379764 1.425791 -0.006781 0.008817 -1846640.000000 1 0 0
7.669081 16.597261 -3.187759 18.559248 1.137951 1.743413 -0.002022 0.000833 -863623.000000 1 0 0
14.798081 8.101061 7.499541 18.462219 0.500876 1.152494 0.007560 -0.004504 -1772190.000000 1 0 0
2.236381 12.870261 8.608641 15.644607 1.398751 0.988118 0.001663 0.003704 606716.000000 1 0 0
15.837981 7.444761 -5.929859 18.477807 0.439408 1.897495 -0.006793 0.011758 -1669120.000000 1 0 0
-2.887119 16.983661 0.773341 17.244659 -1.402412 1.525936 -0.013403 -0.004436 -56320.200000 1 0 0
-2.691519 18.555861 4.752541 19.342981 -1.426751 1.322556 -0.015107 0.001798 -158385.000000 1 0 0
-0.774719 19.049061 0.957441 19.088835 -1.530149 1.520618 -0.008654 -0.006564 -183690.000000 1 0 0
6.957881 16.729061 -6.028559 19.094950 1.176645 1.892006 0.000589 0.002853 -162946.000000 1 0 0
11.000181 10.021561 0.754141 14.899812 0.738879 1.520161 0.000106 0.000664 -2052910.000000 1 0 0
9.225081 8.593961 14.304141 19.067426 0.749995 0.722451 0.003249 -0.000248 -98767.600000 1 0 0
6.347481 12.343961 -8.402259 16.225346 1.095839 2.115129 0.011263 -0.007102 918496.000000 1 0 0
6.458181 8.900361 13.296441 17.254561 0.943089 0.691007 -0.001683 -0.002032 -439034.000000 1 0 0
16.623281 9.471561 3.022041 19.369478 0.517900 1.414136 -0.002270 0.010331 -1730820.000000 1 0 0
2.590181 14.727861 -0.769659 14.973687 1.396707 1.622220 -0.002033 -0.004525 437516.000000 1 0 0
9.168881 12.807461 8.390041 17.846351 0.949478 1.081362 0.001124 -0.008034 700179.000000 1 0 0
7.277581 9.262861 10.445641 15.744053 0.904853 0.845355 -0.006834 -0.001659 1647700.000000 1 0 0
4.347081 15.792261 -5.284859 17.211111 1.302182 1.882899 -0.000507 0.003648 1137380.000000 1 0 0
0.229981 16.397661 -8.140659 18.308646 1.556772 2.031563 -0.002590 0.005144 2240210.000000 1 0 0
-2.407619 15.604761 -1.869859 15.899735 -1.417716 1.688672 -0.011943 0.000018 -850944.000000 1 0 0
13.363381 10.482061 7.631841 18.619843 0.665148 1.148477 0.005366 -0.012522 364815.000000 1 0 0
-0.897619 15.878361 7.131441 17.429444 -1.514325 1.149262 -0.000176 0.003484 2265130.000000 1 0 0
13.245581 13.323661 6.902641 20.015290 0.788337 1.218698 0.005300 -0.007685 319341.000000 1 0 0
5.488881 17.233361 4.606841 18.663856 1.262452 1.321386 0.002663 -0.007543 1646010.000000 1 0 0
10.792181 9.588561 -1.974759 14.570908 0.726410 1.706742 0.003235 0.006429 78242.900000 1 0 0
3.305681 12.622661 4.697141 13.868029 1.314664 1.225258 0.001119 -0.000340 2301070.000000 1 0 0
-0.046619 17.944661 3.640241 18.310226 -1.568198 1.370654 -0.002927 -0.003723 196572.000000 1 0 0
-7.663319 16.045961 -5.630259 18.652054 -1.125241 1.877437 0.015377 -0.009016 367156.000000 1 0 0
-12.377119 -9.023239 8.354741 17.447453 0.629942 1.071450 0.011162 -0.010192 733915.000000 1 0 0
-13.177519 -11.619339 6.984841 18.906191 0.722643 1.192382 0.006822 -0.005231 -214643.000000 1 0 0
-6.354319 -12.233039 12.178641 18.394127 1.091719 0.847187 0.012590 -0.011699 -1581130.000000 1 0 0
-1.621919 -10.731539 14.232341 17.898494 1.420796 0.651509 -0.004551 -0.003491 718119.000000 1 0 0
-8.764019 2.841661 11.070641 14.402853 -0.313546 0.694080 0.006789 -0.003103 1599660.000000 1 0 0
0.568481 10.026961 15.216041 18.231594 1.514162 0.583395 0.001302 -0.003722 -856985.000000 1 0 0
1.055881 -6.885639 16.551941 17.958109 -1.418636 0.398363 -0.003000 -0.005580 928054.000000 1 0 0
6.195981 2.287961 17.785141 18.971985 0.353734 0.355587 0.001395 -0.007542 2346580.000000 1 0 0
-5.062719 -3.048139 17.769241 18.726137 0.541944 0.321063 0.021966 -0.006467 783092.000000 1 0 0
-4.137719 8.095761 13.144241 15.982276 -1.098311 0.605134 -0.004577 0.003610 -479277.000000 1 0 0
0.227681 -5.035539 18.488341 19.163174 -1.525612 0.266172 0.004636 -0.010858 1137970.000000 1 0 0
-11.548619 2.117061 11.227541 16.245314 -0.181304 0.807752 0.005167 -0.004050 -532739.000000 1 0 0
-3.320119 -6.040939 14.383741 15.950177 1.068258 0.446898 0.012094 -0.008180 671164.000000 1 0 0
-7.343819 -2.376839 14.695741 16.599574 0.313012 0.483640 0.014647 -0.003753 1293570.000000 1 0 0
-6.064419 -1.169539 10.659641 12.319616 0.190514 0.525132 0.008890 -0.004365 419288.000000 1 0 0
-3.858919 2.415661 11.142041 12.036268 -0.559314 0.387899 0.001942 0.001681 12446.000000 1 0 0
-6.283619 6.203861 13.627841 16.238529 -0.779011 0.574933 -0.005237 -0.000042 876565.000000 1 0 0
-8.874519 5.451461 12.587341 16.337585 -0.550855 0.691245 -0.002530 -0.002235 -259747.000000 1 0 0
-12.104719 -2.262139 15.890241 20.103265 0.184750 0.659284 0.002720 0.001671 1633890.000000 1 0 0
-3.338919 -7.716739 16.980041 18.947777 1.162434 0.459781 0.014789 -0.009477 -982723.000000 1 0 0
-0.436719 -5.297939 14.444941 15.392050 1.488550 0.352630 0.003700 -0.002891 2615750.000000 1 0 0
-14.201519 -2.221239 13.764741 19.901888 0.155152 0.807053 0.006705 -0.002017 -1791800.000000 1 0 0
-6.365719 1.401761 12.224341 13.853586 -0.216746 0.489867 0.007671 -0.000632 1555510.000000 1 0 0
2.385981 -2.223639 14.613141 14.972688 -0.750195 0.219591 -0.007293 0.000189 1017110.000000 1 0 0
-12.525819 4.102461 9.215041 16.082391 -0.316510 0.960647 -0.001249 -0.007122 502904.000000 1 0 0
-9.021219 -3.113439 12.608841 15.813247 0.332324 0.647889 0.006512 -0.001150 1159910.000000 1 0 0
-7.011719 -7.375639 15.299441 18.374906 0.810687 0.586962 0.015940 -0.004426 -631984.000000 1 0 0
-3.137219 5.790461 19.593541 20.670715 -1.074278 0.324253 0.022696 -0.003127 91955.300000 1 0 0
0.694381 5.396261 16.165241 17.056284 1.442821 0.324662 0.002662 -0.003110 1620640.000000 1 0 0
3.591181 1.484961 16.710541 17.156453 0.392092 0.228492 -0.000375 -0.003352 1595150.000000 1 0 0
-11.639019 11.418861 7.952641 18.141159 -0.775850 1.117006 -0.008871 -0.008898 -181423.000000 1 0 0
0.759781 -9.523839 15.371641 18.098843 -1.491188 0.556108 -0.012296 -0.001339 -698688.000000 1 0 0
-2.428319 -3.846539 18.895741 19.435577 1.007680 0.236242 0.015681 -0.013506 1242750.000000 1 0 0
-12.716519 2.249161 13.848541 18.935434 -0.175059 0.750488 0.001089 -0.005549 -205359.000000 1 0 0
-5.192119 -0.652439 15.819441 16.662488 0.125004 0.319462 0.015952 -0.001632 886121.000000 1 0 0
-4.380319 -6.003539 11.673841 13.838650 0.940465 0.566903 0.008379 -0.003011 1351030.000000 1 0 0
2.620981 1.812761 13.931441 14.291281 0.605089 0.224879 -0.007415 -0.001933 499207.000000 1 0 0
0.244381 3.275761 14.281041 14.653958 1.496331 0.226083 0.004406 -0.003390 678486.000000 1 0 0
-12.837719 7.056761 12.360341 19.167236 -0.502605 0.869945 -0.006606 -0.007950 248249.000000 1 0 0
1.064081 1.458761 18.215241 18.304515 0.940583 0.098804 0.007303 -0.002674 630695.000000 1 0 0
-1.893019 6.373961 12.523241 14.178945 -1.282101 0.488095 -0.002866 0.002522 930329.000000 1 0 0
-13.478919 -2.599239 10.933941 17.549597 0.190499 0.898185 0.009369 -0.004282 500689.000000 1 0 0
-2.376119 3.579661 13.462441 14.131427 -0.984793 0.308929 0.001990 -0.000414 -813766.000000 1 0 0
3.599781 6.130461 16.371441 17.848391 1.039845 0.409675 0.000749 -0.000774 778612.000000 1 0 0
-3.642019 12.356661 12.433741 17.903891 -1.284171 0.803111 0.004486 0.002869 257977.000000 1 0 0
3.923581 -1.510139 17.135041 17.643261 -0.367411 0.240602 0.004527 -0.002068 1524340.000000 1 0 0
-15.819819 0.493561 9.286241 18.350601 -0.031189 1.040202 0.001788 -0.001453 1885680.000000 1 0 0
-4.518519 4.489061 15.255941 16.532163 -0.782128 0.395501 0.007710 -0.002910 1690600.000000 1 0 0
-7.817819 -8.156439 10.476941 15.408182 0.806593 0.823089 0.008441 -0.008344 3869840.000000 1 0 0
-2.451019 -0.426439 14.745941 14.954335 0.172260 0.167140 0.010839 -0.002553 1213000.000000 1 0 0
-1.660019 0.880361 17.249541 17.351581 -0.487618 0.108503 0.008737 -0.004227 1919130.000000 1 0 0
-0.525019 -2.452339 14.430241 14.646552 1.359891 0.172077 0.005447 -0.000743 459728.000000 1 0 0
5.247181 -8.444539 16.554941 19.310858 -1.014812 0.540820 -0.014668 0.006122 224185.000000 1 0 0
-4.463619 9.990461 10.773041 15.355508 -1.150617 0.793191 -0.003954 0.001434 -1949870.000000 1 0 0
-6.123419 1.958961 15.235541 16.536490 -0.309624 0.399312 0.016378 -0.001907 196789.000000 1 0 0
-4.838419 6.670261 17.345641 19.203488 -0.943245 0.443501 0.011187 0.002789 550614.000000 1 0 0
-3.912919 9.062761 15.884341 18.701788 -1.163216 0.556046 0.002974 0.005212 -1483870.000000 1 0 0
-4.301019 -10.065439 18.441241 21.445074 1.166974 0.535666 0.020869 -0.000784 -1598700.000000 1 0 0
-6.796719 -4.123339 11.112341 13.663142 0.545307 0.620981 0.008579 -0.002244 626999.000000 1 0 0
-2.081119 -0.974839 19.515641 19.650487 0.438066 0.117218 0.013264 -0.009816 -1751460.000000 1 0 0
-5.682619 -4.649939 15.409641 17.069597 0.685785 0.444668 0.019436 -0.006567 910431.000000 1 0 0
-12.897519 0.073561 9.805441 16.201793 -0.005703 0.920770 0.000261 -0.001177 1016710.000000 1 0 0
-14.175119 8.745261 10.445741 19.660292 -0.552786 1.010648 -0.018020 -0.011204 -696437.000000 1 0 0
-8.339619 10.364561 12.905541 18.534464 -0.893240 0.800567 -0.006369 -0.009249 -2132390.000000 1 0 0
-10.377119 7.126761 10.789641 16.579858 -0.601796 0.862201 -0.003049 -0.005261 -1132300.000000 1 0 0
-9.747019 -6.611839 14.785041 18.902863 0.596044 0.672673 0.010090 -0.004941 -1617580.000000 1 0 0
-0.526519 -13.469739 14.453341 19.763860 1.531727 0.750568 -0.007522 -0.000128 450992.000000 1 0 0
3.922481 -5.872939 16.944541 18.357417 -0.981947 0.394900 -0.009300 -0.000123 2208850.000000 1 0 0
-7.248519 9.233561 10.498841 15.748820 -0.905257 0.841100 -0.001442 -0.005770 -129674.000000 1 0 0
-10.191519 -6.747339 11.784741 16.978627 0.584803 0.803637 0.005278 -0.010068 2934400.000000 1 0 0
-10.887319 -3.981639 10.734741 15.799425 0.350604 0.823799 0.007224 -0.001774 862355.000000 1 0 0
-10.036919 -10.169239 9.913641 17.390614 0.791947 0.964221 0.015453 -0.012905 1611030.000000 1 0 0
-9.799419 -3.756439 15.291941 18.546776 0.366056 0.601466 0.015564 -0.006667 2268890.000000 1 0 0
5.735081 -3.494839 16.117741 17.461003 -0.547287 0.394807 -0.005024 -0.002805 1675550.000000 1 0 0
-11.062519 0.407061 15.306941 18.890407 -0.036780 0.626128 0.009254 -0.006962 -907145.000000 1 0 0
-3.007619 2.940861 18.931141 19.392848 -0.774176 0.218647 0.012821 -0.003979 -241797.000000 1 0 0
0.638681 7.326561 13.892241 15.718803 1.483843 0.486878 0.001774 -0.002953 422883.000000 1 0 0
-13.010719 -7.388439 12.083141 19.232008 0.516462 0.891452 -0.001733 -0.008485 -1410380.000000 1 0 0
-1.359019 -1.080939 12.205241 12.328150 0.671919 0.141325 0.003145 -0.001828 -207100.000000 1 0 0
2.124981 -4.885639 13.193541 14.228652 -1.160533 0.383791 -0.006426 -0.000686 1924330.000000 1 0 0
-14.672719 -4.040039 8.619841 17.490348 0.268686 1.055452 0.005834 -0.007647 -607084.000000 1 0 0
8.206681 0.865561 16.052741 18.049635 0.105082 0.474839 -0.001969 -0.007701 -607420.000000 1 0 0
-1.259419 11.336561 13.398041 17.595774 -1.460156 0.705272 0.002879 0.003509 -202956.000000 1 0 0
2.764881 -12.233939 -13.844559 18.681157 -1.348529 2.405500 0.002995 0.011786 -953015.000000 1 0 0
0.726181 -10.515739 -13.988759 17.515521 -1.501849 2.495844 -0.000859 0.005583 -1031890.000000 1 0 0
3.062981 -14.295439 -12.341959 19.132835 -1.359725 2.271907 -0.000976 0.009338 -550894.000000 1 0 0
-5.233019 -10.194939 -16.128059 19.784730 1.096569 2.523831 -0.002572 -0.001292 -186822.000000 1 0 0
-1.146319 -12.039739 -14.962159 19.238907 1.475871 2.461800 -0.003937 0.004485 131660.000000 1 0 0
5.717581 -14.893439 -11.840159 19.866923 -1.204246 2.209274 -0.000966 0.007833 -94206.900000 1 0 0
1.773981 -11.901639 -16.123359 20.118616 -1.422832 2.500453 -0.001364 0.009679 -577023.000000 1 0 0
1.262781 -14.359139 -14.033959 20.117939 -1.483079 2.342817 0.008321 0.016618 -1013150.000000 1 0 0
-1.256919 -10.589839 -15.818959 19.077840 1.452658 2.548435 -0.003389 -0.002549 -117089.000000 1 0 0
-6.234919 -5.756239 -15.443759 17.621526 0.745500 2.639161 0.005981 0.011732 402593.000000 1 0 0
-6.328519 -7.662839 -17.107659 19.784874 0.880478 2.615317 -0.005760 0.024637 918334.000000 1 0 0
4.844881 -12.520139 -11.479559 17.663720 -1.201575 2.278242 0.000286 0.007344 145557.000000 1 0 0
-2.086619 -15.529939 -13.141759 20.450888 1.437235 2.268684 0.011818 0.005438 -101890.000000 1 0 0
16.065881 -7.294339 -8.731759 19.686633 -0.426197 2.030338 0.017936 -0.003397 715110.000000 1 0 0
19.202581 -3.848039 -4.614459 20.120630 -0.197772 1.802196 -0.002375 -0.000881 74710.500000 1 0 0
14.718381 -11.583739 -9.052159 20.802772 -0.666779 2.020992 0.002885 -0.005515 -119214.000000 1 0 0
17.732181 -3.280239 -6.687459 19.233105 -0.182920 1.925919 0.021037 0.001068 388317.000000 1 0 0
9.619081 -9.300239 -15.443459 20.433345 -0.768547 2.427667 0.020973 -0.003304 328432.000000 1 0 0
1.034581 1.932161 -15.322659 15.478613 1.079190 2.999519 0.007760 -0.003031 493910.000000 1 0 0
4.648381 -4.353139 -13.966059 15.349530 -0.752611 2.713764 -0.000244 -0.000299 55365.700000 1 0 0
13.184881 -5.473939 -8.711259 16.723969 -0.393513 2.118683 0.018883 -0.007325 -497579.000000 1 0 0
2.888381 0.922761 -12.296459 12.664799 0.309225 2.899825 0.005834 -0.003149 -2874320.000000 1 0 0
0.576681 6.428761 -12.934459 14.455509 1.481332 2.678728 0.004426 0.000441 284248.000000 1 0 0
3.033281 -1.061839 -16.893959 17.196922 -0.336731 2.953607 0.010783 -0.005915 -155296.000000 1 0 0
13.086281 4.536361 -11.507559 18.007033 0.333687 2.264071 0.009973 -0.005596 229362.000000 1 0 0
-4.045319 9.543061 -16.512359 19.495964 -1.169856 2.581043 -0.013929 0.012452 -680771.000000 1 0 0
-0.314519 -4.944339 -17.674759 18.355994 1.507270 2.868301 0.003478 -0.005565 369886.000000 1 0 0
-0.621219 -8.698239 -17.593959 19.636513 1.499498 2.681433 -0.000542 0.001415 -708685.000000 1 0 0
5.497781 -10.128339 -12.237159 16.809429 -1.073489 2.386187 0.002818 -0.000171 570676.000000 1 0 0
1.748881 -9.728539 -18.034559 20.565708 -1.392928 2.640220 -0.006008 -0.003717 -405824.000000 1 0 0
10.797381 9.146261 -14.739059 20.432263 0.702797 2.376563 0.039148 -0.010411 96576.500000 1 0 0
10.914181 -3.704839 -12.967859 17.349655 -0.327247 2.414999 0.019709 -0.006583 791011.000000 1 0 0
4.709781 7.529161 -12.311859 15.180651 1.011810 2.516695 -0.004918 -0.000695 -443404.000000 1 0 0
9.440781 -5.869539 -12.609859 16.810365 -0.556238 2.419046 0.015311 -0.007495 -1464770.000000 1 0 0
-3.459819 0.269561 -15.905959 16.280127 -0.077755 2.926782 0.007923 -0.000646 -1251240.000000 1 0 0
-0.935119 10.884861 -12.820059 16.843650 -1.485097 2.435836 -0.006248 0.003011 -1838960.000000 1 0 0
6.552481 -5.498239 -12.545959 15.184424 -0.698137 2.543194 0.003136 -0.000198 191238.000000 1 0 0
18.054081 -5.654939 -8.639259 20.798196 -0.303543 1.999162 0.022149 -0.004534 829720.000000 1 0 0
12.975081 4.833161 -14.065159 19.736790 0.356573 2.364046 0.002715 -0.010784 495984.000000 1 0 0
14.103781 0.854561 -11.606659 18.285553 0.060517 2.258474 0.005175 -0.006039 68500.800000 1 0 0
15.003881 6.226761 -11.281159 19.777602 0.393379 2.177790 0.008785 -0.006550 -283161.000000 1 0 0
8.183181 1.511861 -11.835659 14.468345 0.182692 2.528788 -0.000343 0.003150 616682.000000 1 0 0
9.876081 1.238561 -9.079459 13.472475 0.124759 2.310307 0.001837 0.001130 -239315.000000 1 0 0
-0.259719 -5.632739 -12.901759 14.080148 1.524720 2.729559 0.002509 -0.002811 658418.000000 1 0 0
10.562781 -5.713439 -8.987159 14.999492 -0.495832 2.213253 0.015134 -0.006305 97850.200000 1 0 0
10.114281 8.585661 -11.272859 17.409469 0.703835 2.275113 0.027050 -0.013198 726304.000000 1 0 0
8.272981 8.165961 -14.747159 18.777748 0.778888 2.474062 0.026120 -0.005681 895198.000000 1 0 0
8.462781 10.583761 -10.713859 17.274879 0.896299 2.239792 0.031540 -0.014420 -118451.000000 1 0 0
6.981181 1.879861 -18.121759 19.510738 0.263036 2.761983 0.010720 0.001678 -1638700.000000 1 0 0
11.995881 2.674561 -13.005159 17.893814 0.219369 2.384442 -0.001347 -0.005521 -1215190.000000 1 0 0
2.497381 -0.840139 -19.412859 19.590861 -0.324515 3.006687 0.015277 -0.009745 -470352.000000 1 0 0
10.114181 -2.214939 -15.553059 18.684225 -0.215590 2.554251 0.009660 -0.004908 246419.000000 1 0 0
8.230681 -0.854339 -13.240859 15.613915 -0.103429 2.583028 0.005599 -0.001947 256281.000000 1 0 0
0.348881 4.405561 -14.618759 15.272157 1.491770 2.848021 0.006102 0.000918 22600.700000 1 0 0
3.900181 -7.565739 -15.731959 17.887044 -1.094821 2.645643 -0.000418 -0.004166 -1428290.000000 1 0 0
11.219481 -5.821239 -14.446159 19.195184 -0.478614 2.422787 0.020047 -0.005365 -1049050.000000 1 0 0
-5.979419 4.182461 -16.862859 18.373961 -0.610374 2.733195 -0.009265 0.005942 -377092.000000 1 0 0
11.300181 7.724661 -9.170959 16.476376 0.599626 2.161099 0.015884 -0.007129 -295090.000000 1 0 0
9.411781 6.249561 -13.525359 17.623109 0.586164 2.445695 0.024571 -0.003883 184056.000000 1 0 0
11.952881 0.677361 -10.298259 15.791907 0.056609 2.281177 0.007647 -0.000430 -560325.000000 1 0 0
5.408181 -7.282239 -13.860859 16.565109 -0.932013 2.562118 0.001220 -0.000649 -1041310.000000 1 0 0
8.559681 -10.243139 -10.685559 17.098865 -0.874692 2.245836 0.013506 -0.004557 -54063.900000 1 0 0
9.963881 4.746361 -15.981359 19.421913 0.444555 2.537208 0.017849 -0.006044 557553.000000 1 0 0
9.771081 -0.434839 -11.101659 14.795605 -0.044473 2.419365 0.005626 0.000568 125030.000000 1 0 0
-1.822319 5.572261 -13.907059 15.092290 -1.254726 2.742638 -0.005349 0.004343 680787.000000 1 0 0
1.248981 -0.661639 -15.046059 15.112300 -0.487158 3.047929 0.012993 -0.006070 318273.000000 1 0 0
11.491581 -10.592739 -14.067359 21.027438 -0.744720 2.303659 0.016575 -0.002973 630372.000000 1 0 0
9.264381 -7.822339 -10.879359 16.290432 -0.701202 2.302096 0.014283 -0.003497 41397.100000 1 0 0
13.879581 -0.955239 -9.842659 17.042100 -0.068715 2.186520 -0.002023 -0.001204 703465.000000 1 0 0
3.769181 11.197161 -12.411859 17.135851 1.246091 2.380846 0.004115 -0.008924 -507281.000000 1 0 0
-1.455419 2.904661 -17.127659 17.433072 -1.106299 2.954133 0.002499 0.004428 -365471.000000 1 0 0
5.835981 -0.378039 -17.831359 18.765898 -0.064687 2.824674 0.001862 0.002326 -24026.200000 1 0 0
6.245781 -6.524439 -16.283259 18.620489 -0.807216 2.635161 0.001327 0.003806 241884.000000 1 0 0
-1.851719 -5.197939 -19.805259 20.559565 1.228572 2.869874 0.003655 -0.012832 -424547.000000 1 0 0
-0.196119 -4.305739 -15.179859 15.779923 1.525280 2.864932 0.005657 -0.005876 491680.000000 1 0 0
0.380181 0.699961 -12.969359 12.993796 1.073230 3.080252 0.006453 -0.005742 1016310.000000 1 0 0
15.360681 0.654961 -13.906859 20.731141 0.042613 2.306110 -0.010147 -0.006367 472398.000000 1 0 0
-0.337919 7.156361 -16.290259 17.796073 -1.523612 2.727260 -0.008497 0.008339 -527380.000000 1 0 0
-5.244819 -0.465339 -18.233659 18.978698 0.088492 2.860466 -0.003983 0.006806 -301046.000000 1 0 0
10.331381 -8.339639 -13.144959 18.683601 -0.679124 2.351185 0.018686 -0.011661 156509.000000 1 0 0
3.871581 8.738261 -17.269959 19.738232 1.153728 2.636128 -0.004536 -0.006868 -782592.000000 1 0 0
9.063981 0.545961 -17.039259 19.307775 0.060161 2.651964 0.011059 -0.005295 -176551.000000 1 0 0
3.058581 4.982461 -18.609559 19.506294 1.020241 2.837197 -0.001736 0.009348 -174761.000000 1 0 0
1.401381 -8.077339 -16.014059 17.990479 -1.399011 2.668450 -0.003828 -0.001395 76287.000000 1 0 0
4.370381 7.802861 -14.919659 17.394858 1.060232 2.601586 0.000962 -0.002468 698655.000000 1 0 0
-5.830819 -0.456639 -15.009859 16.109091 0.078155 2.770036 -0.002795 -0.001931 -1277040.000000 1 0 0
2.743781 3.397561 -13.820259 14.493837 0.891454 2.835528 0.006453 -0.000949 1664620.000000 1 0 0
-2.640219 -10.414739 -17.961559 20.929767 1.322519 2.602515 0.011810 -0.003721 -215141.000000 1 0 0
6.118881 -9.055839 -15.567559 19.020983 -0.976577 2.529489 0.000345 -0.002108 485497.000000 1 0 0
-1.978019 5.485661 -17.262159 18.220515 -1.224728 2.815816 -0.002925 0.004279 519664.000000 1 0 0
9.992381 -12.177739 -11.565959 19.542682 -0.883653 2.204124 0.017953 -0.004647 266470.000000 1 0 0
10.744581 3.679261 -9.505959 14.810342 0.329915 2.267699 0.001159 -0.000321 -1141630.000000 1 0 0
4.862081 -0.435339 -11.089159 12.116055 -0.089299 2.726912 0.003603 -0.003083 -567036.000000 1 0 0
6.043081 9.580861 -11.477559 16.125944 1.008076 2.362775 0.008556 -0.007421 773894.000000 1 0 0
10.802581 -9.548639 -9.546459 17.291823 -0.723861 2.155652 0.019177 -0.005819 -641229.000000 1 0 0
3.105681 -2.364739 -14.567759 15.081672 -0.650772 2.879789 0.005636 -0.005470 -155698.000000 1 0 0
8.996281 -4.430239 -14.682259 17.780012 -0.457591 2.542368 0.009753 -0.004400 -23492.700000 1 0 0
-3.980919 -6.517139 -16.650659 18.318440 1.022445 2.711570 -0.002834 0.001413 -1664910.000000 1 0 0
5.910681 -7.737339 -11.297059 14.913957 -0.918448 2.430244 0.003651 -0.001080 434848.000000 1 0 0
5.234081 6.536861 -16.854859 18.820532 0.895627 2.680478 0.006221 -0.007753 -1529540.000000 1 0 0
8.992081 1.257961 -19.642959 21.639913 0.138994 2.708611 0.022931 -0.007824 410879.000000 1 0 0
13.095081 5.756761 -9.459159 17.149260 0.414182 2.155051 0.005670 -0.003744 875040.000000 1 0 0
-1.699119 -0.820239 -17.350459 17.452742 0.449748 3.033275 0.005248 0.000685 347639.000000 1 0 0
-0.566419 -0.386739 -19.495459 19.507519 0.599075 3.106427 0.006966 -0.006050 -249355.000000 1 0 0
2.625981 6.583061 -16.590759 18.041223 1.191239 2.737864 -0.005203 0.004715 -139290.000000 1 0 0
7.605181 3.695361 -15.670059 17.805763 0.452304 2.646775 0.009934 -0.004064 -646599.000000 1 0 0
3.049881 -9.932939 -15.079659 18.312869 -1.272887 2.538254 0.000212 0.006791 -137341.000000 1 0 0
8.919181 -10.570539 -13.351859 19.223949 -0.869926 2.338581 0.016321 -0.004236 31516.100000 1 0 0
3.798281 0.195061 -14.946559 15.422860 0.051310 2.892422 0.002486 -0.002385 -886490.000000 1 0 0
-1.240719 -2.859639 -19.065559 19.318707 1.161435 2.979528 0.005978 0.002933 492677.000000 1 0 0
9.061181 10.051061 -13.163659 18.878844 0.837145 2.342379 0.034545 -0.017040 -10677.200000 1 0 0
4.499781 2.104661 -10.762859 11.853976 0.437496 2.709171 0.001642 0.001969 -38038.700000 1 0 0
-0.568919 7.179461 -18.879659 20.206678 -1.491719 2.777164 -0.001749 0.009379 138921.000000 1 0 0
0.701081 -1.806739 -17.606259 17.712599 -1.200645 3.031960 0.014234 -0.009494 -2214860.000000 1 0 0
-4.630019 -2.317139 -14.025259 14.950388 0.464015 2.787958 0.004853 -0.002180 -3547350.000000 1 0 0
9.970681 6.049661 -10.523259 15.708337 0.545364 2.304891 0.010542 -0.000102 301222.000000 1 0 0
7.923481 5.477461 -17.561459 20.029702 0.604860 2.639902 0.016434 -0.009080 -142704.000000 1 0 0
11.428981 0.368961 -13.555559 17.734456 0.032272 2.440849 0.007374 -0.005913 292745.000000 1 0 0
6.647881 12.014961 -11.974759 18.219453 1.065423 2.287962 0.024516 -0.017947 -133968.000000 1 0 0
-1.121919 0.556661 -15.164759 15.216388 -0.460578 3.059192 0.008483 -0.003127 118033.000000 1 0 0
-4.742019 -2.817339 -19.091859 19.872675 0.536086 2.860342 -0.002129 0.012191 200619.000000 1 0 0
5.656581 -12.083639 -13.937359 19.294072 -1.132977 2.378012 0.003270 0.002047 -311002.000000 1 0 0
2.031781 -4.808039 -14.118759 15.052731 -1.170977 2.787476 0.004184 -0.002629 -2112680.000000 1 0 0
11.719681 2.100361 -15.524859 19.564858 0.177334 2.487347 0.007411 -0.008660 430398.000000 1 0 0
9.541181 2.201061 -13.893859 16.997591 0.226724 2.527682 0.006248 -0.004699 1069680.000000 1 0 0
-2.441619 -4.055239 -16.461459 17.128517 1.028841 2.861594 0.000824 -0.003066 -769826.000000 1 0 0
-3.058919 10.224361 -14.228859 17.786370 -1.280092 2.498069 -0.014354 0.004338 -392631.000000 1 0 0
3.382881 5.823261 -13.699259 15.265122 1.044520 2.684688 -0.003121 0.001181 110892.000000 1 0 0
-5.214119 -2.490739 -16.541659 17.521909 0.445642 2.805516 0.001172 0.004245 7699.590000 1 0 0
-4.434319 6.284161 -13.700959 15.712101 -0.956299 2.630070 -0.009660 0.009654 83412.900000 1 0 0
5.817781 -1.073839 -14.174759 15.359801 -0.182524 2.746206 0.004664 -0.001580 -2256760.000000 1 0 0
6.616481 -2.978439 -12.800459 14.713962 -0.422982 2.625904 0.002931 -0.002951 787206.000000 1 0 0
2.777881 -3.153539 -18.326059 18.801751 -0.848647 2.916169 0.012230 -0.010607 -928601.000000 1 0 0
7.337881 -11.999639 -11.968759 18.468541 -1.021958 2.275833 0.008355 0.000074 -282198.000000 1 0 0
-5.973119 -5.239039 -17.921559 19.603774 0.720020 2.724299 0.001265 0.008758 322324.000000 1 0 0
0.423381 8.836761 -11.890159 14.820374 1.522922 2.501909 -0.003406 0.000257 -102181.000000 1 0 0
0.183581 8.669661 -14.379059 16.791488 1.549624 2.598918 -0.008506 0.004510 -111218.000000 1 0 0
7.495981 -2.415439 -15.268259 17.179750 -0.311726 2.665376 0.007290 -0.006472 -487750.000000 1 0 0
14.198281 1.482161 -9.028859 16.891071 0.104013 2.134753 -0.009364 0.004980 60820.600000 1 0 0
2.508581 10.943561 -14.793159 18.571270 1.345460 2.492382 -0.004661 0.002659 26428.800000 1 0 0
6.087881 1.110361 -15.684259 16.860936 0.180406 2.765789 0.008756 -0.000954 440665.000000 1 0 0
16.417881 -5.511739 -10.618859 20.314681 -0.323893 2.120833 0.019639 -0.010096 563489.000000 1 0 0
4.831181 -4.350139 -11.313859 13.048656 -0.733052 2.620050 -0.000437 0.000759 -1839080.000000 1 0 0
8.509981 -3.534039 -17.124359 19.446153 -0.393610 2.647932 -0.001126 -0.005104 474909.000000 1 0 0
13.247981 -9.492739 -8.831059 18.536685 -0.621742 2.067363 0.011967 -0.006738 -1411370.000000 1 0 0
2.214781 -7.781539 -13.673759 15.888023 -1.293509 2.607308 0.001034 -0.001084 781288.000000 1 0 0
-7.131919 -2.251439 -18.320459 19.788190 0.305784 2.754017 -0.004021 0.006925 520584.000000 1 0 0
-1.532619 -6.412339 -15.791059 17.112117 1.336187 2.746082 0.000606 -0.003332 -443701.000000 1 0 0
1.339781 -7.145339 -18.389359 19.774210 -1.385444 2.765119 0.001741 -0.008186 -46836.500000 1 0 0
5.053881 10.739161 -14.633359 18.841616 1.130942 2.460128 0.016736 -0.021533 -179535.000000 1 0 0
5.186181 -3.318839 -17.359659 18.419254 -0.569270 2.800751 0.005790 -0.008742 -250742.000000 1 0 0
3.942181 13.092961 -14.338059 19.812782 1.278338 2.379912 0.001187 -0.008025 141610.000000 1 0 0
8.905381 10.593461 -15.703859 20.931756 0.871756 2.419223 0.040446 -0.017580 11598.900000 1 0 0
2.290481 3.963061 -16.340059 16.969080 1.046742 2.868463 0.004292 0.001732 723504.000000 1 0 0
16.519181 1.656261 -11.823759 20.382046 0.099929 2.189656 -0.007387 0.001319 -1124560.000000 1 0 0
9.900081 -3.713039 -10.583559 14.960280 -0.358816 2.356671 0.012225 -0.003207 211407.000000 1 0 0
14.543581 -2.128739 -12.132059 19.058702 -0.145338 2.260829 0.008604 -0.006310 348563.000000 1 0 0
-2.747119 -8.604639 -16.040359 18.408682 1.261765 2.628738 0.004653 0.001309 29127.700000 1 0 0
13.842381 8.197561 -9.146359 18.505875 0.534670 2.087758 0.023036 -0.003130 101241.000000 1 0 0
-8.295019 -0.043039 -16.436259 18.410861 0.005188 2.674204 -0.024039 0.005200 -747013.000000 1 0 0
-3.598719 3.899161 -15.894559 16.756826 -0.825447 2.819397 -0.002369 0.005769 -707332.000000 1 0 0
15.024081 3.937761 -9.926359 18.432623 0.256331 2.139477 0.002093 0.005327 304734.000000 1 0 0
5.243381 1.180361 -13.073059 14.134750 0.221423 2.751537 0.004195 0.001412 191610.000000 1 0 0
7.785381 -7.750739 -13.008459 17.026629 -0.783168 2.440297 0.011411 -0.001364 -3039740.000000 1 0 0
3.173581 -6.183839 -11.953059 13.827042 -1.096640 2.614891 0.000915 -0.001606 -949299.000000 1 0 0
-3.448719 3.726861 -18.505359 19.189358 -0.824141 2.873792 0.003357 0.008273 -24020.100000 1 0 0
0.621181 5.209961 -17.717559 18.478134 1.452127 2.853682 -0.003669 -0.001021 -1632390.000000 1 0 0
6.322381 7.220761 -10.250859 14.042507 0.851636 2.389100 0.001997 -0.001576 63199.600000 1 0 0
9.564381 3.742161 -11.799959 15.643535 0.372949 2.425388 0.007386 0.000801 -184721.000000 1 0 0
4.423081 1.848861 -17.579159 18.221107 0.395929 2.875360 0.005773 -0.002426 510425.000000 1 0 0
2.479781 8.239261 -13.287959 15.830495 1.278449 2.566956 -0.003877 -0.001209 -2042120.000000 1 0 0
14.393381 -3.456739 -9.972559 17.848540 -0.235698 2.163653 0.020372 -0.005278 385228.000000 1 0 0
-1.451719 9.536461 -16.113459 18.780179 -1.419728 2.602166 -0.011858 0.009555 -560915.000000 1 0 0
-5.430219 1.955561 -15.716259 16.742529 -0.345667 2.789644 -0.004679 0.004079 762190.000000 1 0 0
4.417981 4.304961 -11.997459 13.490377 0.772442 2.666684 -0.000507 0.001193 435396.000000 1 0 0
9.135981 3.121761 -17.781459 20.233433 0.329261 2.644171 0.011580 -0.005764 999687.000000 1 0 0
-4.332419 14.550561 -13.318859 20.196056 -1.281406 2.290921 -0.012238 -0.001866 -463950.000000 1 0 0
15.544381 -4.777339 -8.134159 18.182830 -0.298173 2.034601 0.016572 -0.008107 -133852.000000 1 0 0
1.062981 9.320461 -16.770459 19.215858 1.457239 2.631585 -0.011402 0.007840 -639871.000000 1 0 0
0.423181 -3.140539 -12.936059 13.318546 -1.436855 2.901355 0.006901 -0.004491 419518.000000 1 0 0
7.363281 3.592461 -13.118059 15.466323 0.453912 2.583316 0.002662 0.003742 138339.000000 1 0 0
-2.984519 7.693061 -15.083759 17.193322 -1.200721 2.641011 -0.016051 0.012415 -576905.000000 1 0 0
12.093581 -5.157939 -11.099959 17.206630 -0.403142 2.271948 0.025433 -0.005823 -681587.000000 1 0 0
0.669981 -4.412739 -20.107259 20.596674 -1.420118 2.923159 0.012585 -0.006976 561091.000000 1 0 0
3.157981 -4.482939 -16.196759 17.099841 -0.957094 2.815146 0.003501 -0.007053 414530.000000 1 0 0
-5.707819 4.104461 -14.304059 15.938378 -0.623426 2.684774 -0.008421 0.005332 372587.000000 1 0 0
12.107381 -7.465939 -9.865859 17.310808 -0.552568 2.177211 0.012970 -0.006341 121471.000000 1 0 0
-2.115819 -1.790739 -14.903559 15.159139 0.702376 2.957705 0.006700 -0.002494 826253.000000 1 0 0
6.962981 5.845361 -14.367559 17.002297 0.698361 2.577429 0.010666 -0.000791 31140.400000 1 0 0
4.024381 -5.428239 -18.474459 19.671478 -0.932836 2.790942 0.007946 -0.008946 241086.000000 1 0 0
7.409081 7.477361 -12.385859 16.254689 0.789985 2.437172 0.008431 -0.005234 174596.000000 1 0 0
12.168481 -2.562239 -11.102159 16.670181 -0.207532 2.299615 0.018990 -0.006054 -585907.000000 1 0 0
7.414981 -0.772239 -10.810159 13.131559 -0.103772 2.537856 0.003252 -0.000460 -2046740.000000 1 0 0
5.199281 3.980561 -14.528759 15.936192 0.653410 2.718158 0.001261 0.002456 587503.000000 1 0 0
14.535081 2.969361 -12.965959 19.702837 0.201516 2.289057 -0.010693 -0.011375 909909.000000 1 0 0
-6.574019 6.545961 -15.855159 18.369904 -0.783260 2.612183 -0.011509 0.014161 383837.000000 1 0 0
-11.285819 3.788061 -16.327259 20.206397 -0.323832 2.511587 -0.002637 -0.000515 -207347.000000 1 0 0
-5.184919 6.325461 -18.120659 19.880974 -0.884164 2.717609 -0.010916 0.024099 135924.000000 1 0 0
-10.112019 1.642661 -15.538159 18.611438 -0.161040 2.558696 -0.015041 0.000747 -83635.300000 1 0 0
-7.726919 5.687561 -17.951659 20.354746 -0.634527 2.650758 -0.019971 0.013476 -1353440.000000 1 0 0
-8.833419 3.902461 -15.441559 18.212639 -0.416000 2.582711 -0.017755 0.007533 -287331.000000 1 0 0
8.886481 13.455961 -12.094159 20.156912 0.987136 2.214298 0.044034 -0.025538 -1239000.000000 1 0 0
13.747781 9.180361 -11.587059 20.187631 0.588766 2.182140 0.032427 -0.011603 545576.000000 1 0 0
8.346781 15.932461 -9.012159 20.117929 1.088224 2.035286 0.024293 -0.009533 110595.000000 1 0 0
6.999581 13.675661 -13.925959 20.735240 1.097731 2.307174 0.030411 -0.018166 141797.000000 1 0 0
4.654481 15.973561 -12.397459 20.748875 1.287260 2.211176 0.024348 -0.020827 288613.000000 1 0 0
10.848081 11.130661 -11.794659 19.511188 0.798254 2.219944 0.033140 -0.009290 -134220.000000 1 0 0
15.543381 9.973361 -9.909659 20.958673 0.570481 2.063284 0.020652 -0.000723 763754.000000 1 0 0
13.051481 10.649561 -9.480359 19.329550 0.684401 2.083413 0.036252 -0.010097 587625.000000 1 0 0
10.332181 11.864161 -8.344159 17.808348 0.854308 2.058449 0.017437 0.000549 151960.000000 1 0 0
5.236381 16.274561 -9.976959 19.794462 1.259504 2.099052 0.015524 -0.012014 68252.900000 1 0 0
6.660681 14.496061 -11.452659 19.638326 1.140085 2.193433 0.023581 -0.017441 -66906.900000 1 0 0
10.726481 13.903561 -9.850459 20.134496 0.913682 2.082006 0.034046 -0.010504 -106123.000000 1 0 0
8.264981 -18.642839 -1.487359 20.446946 -1.153501 1.643603 0.022282 0.001423 -72618.100000 1 0 0
7.605481 -17.294339 -3.649559 19.242058 -1.156485 1.761618 0.027413 -0.005705 -176805.000000 1 0 0
4.473581 -18.622739 5.749241 19.996827 -1.335042 1.279173 0.008339 0.010851 4569.290000 1 0 0
9.888881 -16.977639 -2.648159 19.825311 -1.043370 1.704771 0.024786 -0.009396 -1508560.000000 1 0 0
-9.908219 -12.033439 -10.060159 18.552176 0.881955 2.143924 0.009208 -0.011889 -49272.400000 1 0 0
-5.325219 -6.950739 -12.155259 14.980689 0.917047 2.517331 0.005376 -0.000683 432040.000000 1 0 0
-10.817119 -9.488739 -5.461259 15.390633 0.720073 1.933542 0.003477 -0.002861 -1093440.000000 1 0 0
-4.723719 -11.300139 -13.932059 18.550173 1.174850 2.420443 0.010151 -0.003160 -168493.000000 1 0 0
-3.011519 -15.449439 7.480641 17.427404 1.378283 1.127139 0.005010 -0.003892 342612.000000 1 0 0
-4.949019 -12.040039 -11.563659 17.411879 1.180803 2.297119 0.003385 0.001139 58178.700000 1 0 0
-14.373019 -12.793039 -3.981959 19.649466 0.727304 1.774859 -0.009534 0.003176 -126903.000000 1 0 0
-3.210819 -12.208039 -3.202659 13.023156 1.313612 1.819265 0.004017 -0.002583 655569.000000 1 0 0
-2.611319 -17.351639 -1.540559 17.614530 1.421423 1.658368 0.000985 -0.001097 -1280450.000000 1 0 0
-5.772319 -12.105939 3.758141 13.928282 1.125866 1.297589 0.005385 -0.001047 676513.000000 1 0 0
-8.893419 -10.400539 -11.839859 18.095479 0.863353 2.284052 0.003909 -0.003014 -354811.000000 1 0 0
-10.030919 -11.760539 -7.395559 17.135457 0.864604 2.017055 0.005279 -0.013228 224719.000000 1 0 0
-10.826719 -15.194239 6.460941 19.744024 0.951694 1.237420 0.005758 -0.006053 202637.000000 1 0 0
-9.452019 -15.455839 0.947041 18.141679 1.021927 1.518570 0.005945 0.006523 -1487430.000000 1 0 0
-14.900719 -7.738739 -7.938359 18.572481 0.479010 2.012440 -0.006332 -0.006879 -36861.900000 1 0 0
-2.296119 -16.529039 5.254841 17.495561 1.432765 1.265734 0.001254 -0.007410 -613478.000000 1 0 0
4.311581 -16.042139 5.407741 17.469505 -1.308235 1.256073 0.008292 -0.001102 -194885.000000 1 0 0
4.015181 -14.615639 -10.024359 18.172131 -1.302692 2.155118 -0.001600 0.003597 -178425.000000 1 0 0
-7.540319 -13.976939 -0.192059 15.882321 1.076064 1.582889 0.006650 0.001813 1194590.000000 1 0 0
3.030381 -14.787939 9.468641 17.819133 -1.368672 1.010574 0.005741 -0.012184 -1123960.000000 1 0 0
2.537281 -17.268939 10.231141 20.231913 -1.424913 1.040611 0.018880 -0.005850 -130143.000000 1 0 0
-8.135719 -16.921339 -5.790759 19.648270 1.122629 1.869960 0.001618 0.002956 -95469.800000 1 0 0
-6.538519 -9.095639 -7.747059 13.619831 0.947522 2.175851 0.009279 -0.003620 197831.000000 1 0 0
-6.071219 -13.055139 -4.750859 15.161366 1.135502 1.889518 0.004944 -0.005112 352235.000000 1 0 0
2.326581 -19.451639 -4.999159 20.218082 -1.451753 1.820650 0.007703 -0.008605 196726.000000 1 0 0
-5.307019 -12.835939 8.277441 16.169162 1.178749 1.033369 0.004456 -0.006957 763313.000000 1 0 0
2.190981 -17.491939 3.458241 17.964625 -1.446189 1.377084 0.001419 -0.010287 945021.000000 1 0 0
-17.482519 -10.134339 -2.338659 20.342385 0.525347 1.686016 -0.008405 -0.000249 373343.000000 1 0 0
-3.359619 -15.397939 2.492741 15.956106 1.355977 1.413929 -0.000293 -0.003526 -228936.000000 1 0 0
-10.191019 -10.334639 -14.127759 20.254757 0.792395 2.342704 0.005639 -0.000623 -545861.000000 1 0 0
5.850881 -14.503939 -5.728459 16.655699 -1.187363 1.921899 -0.003236 -0.009111 275689.000000 1 0 0
-7.454219 -12.259439 -10.765259 17.937392 1.024487 2.214494 0.004389 -0.004934 -1244140.000000 1 0 0
-7.348519 -14.162139 3.855641 16.414411 1.092155 1.333687 0.007002 -0.001752 657636.000000 1 0 0
3.225481 -14.997539 -3.149559 15.660448 -1.358956 1.773293 0.004316 -0.006546 417611.000000 1 0 0
-7.546019 -11.458739 7.907241 15.835705 0.988442 1.047971 0.006535 -0.006972 -2573690.000000 1 0 0
-12.813819 -12.185439 -0.952959 17.708388 0.760268 1.624636 -0.009896 0.011086 -15696.900000 1 0 0
-1.905919 -13.681939 4.080441 14.404096 1.432385 1.283580 -0.003306 -0.002801 -2757590.000000 1 0 0
-3.100819 -13.983639 5.268641 15.261580 1.352581 1.218320 -0.000680 -0.004044 -70928.300000 1 0 0
-14.475119 -10.158139 -4.348759 18.210671 0.611910 1.811929 -0.002487 -0.002641 539006.000000 1 0 0
-6.512419 -8.692439 -10.478659 15.092130 0.927804 2.338261 0.005345 -0.001603 304166.000000 1 0 0
0.858181 -19.461939 2.325841 19.619202 -1.526730 1.451968 0.008440 -0.008691 175431.000000 1 0 0
6.389981 -14.281839 -8.272659 17.698578 -1.150090 2.057166 0.005021 0.001805 -1458470.000000 1 0 0
-4.015119 -16.724739 -5.948559 18.199545 1.335185 1.903767 -0.000321 0.001887 -163099.000000 1 0 0
-3.854619 -13.640539 -13.291759 19.431758 1.295392 2.324059 0.001993 0.004931 58649.800000 1 0 0
-8.169219 -14.620239 -4.501159 17.342086 1.061252 1.833354 0.001377 0.000772 -105154.000000 1 0 0
-4.477119 -14.452439 10.157541 18.223425 1.270389 0.979558 0.007684 -0.001279 -711651.000000 1 0 0
-0.471919 -12.055039 -10.067659 15.713193 1.531669 2.266224 0.005632 0.004014 377172.000000 1 0 0
2.428281 -17.270539 6.759941 18.704675 -1.431110 1.201023 0.008318 -0.007790 -835368.000000 1 0 0
-2.951319 -19.214939 -3.479259 19.749162 1.418392 1.747893 0.000596 0.002607 -178081.000000 1 0 0
0.625881 -15.385039 -3.156459 15.717964 -1.530138 1.772990 0.005075 -0.004364 -473531.000000 1 0 0
5.881981 -18.063539 0.418541 19.001693 -1.255997 1.548768 0.005991 -0.007212 -371633.000000 1 0 0
-7.096119 -16.695539 3.885041 18.552344 1.168900 1.359825 0.003227 0.001055 357382.000000 1 0 0
-5.489419 -13.478539 -9.495359 17.377185 1.184038 2.148888 0.004266 -0.002746 -277067.000000 1 0 0
5.685281 -15.132139 -2.191159 16.312732 -1.211404 1.705526 0.005242 -0.005247 -1372100.000000 1 0 0
-8.839319 -10.278339 -0.471359 13.564660 0.860528 1.605552 0.003749 0.001795 -95674.000000 1 0 0
-7.483419 -17.985739 -2.871059 19.690895 1.176509 1.717124 0.007224 -0.004966 -219021.000000 1 0 0
7.893981 -16.016939 -1.204559 17.897157 -1.112883 1.638152 0.010455 -0.006293 -119588.000000 1 0 0
-8.235419 -10.227339 -9.345259 16.116899 0.892871 2.189331 0.006907 -0.005053 -805394.000000 1 0 0
-9.291719 -14.898539 -6.825259 18.838436 1.013157 1.941536 0.003270 -0.001057 -483366.000000 1 0 0
-11.572319 -10.451539 -11.987259 19.668442 0.734553 2.226184 0.011137 0.005943 887810.000000 1 0 0
6.491181 -16.408039 2.406641 17.808737 -1.194080 1.435243 0.005416 -0.001719 694394.000000 1 0 0
-2.302319 -11.106039 -5.986559 12.825118 1.366388 2.056447 0.003675 -0.000396 -719635.000000 1 0 0
-12.419119 -15.146039 -3.196459 19.845764 0.884004 1.732566 -0.009536 0.002755 425211.000000 1 0 0
-0.411119 -19.911439 -3.104859 20.156254 1.550152 1.725452 0.009150 -0.001995 203530.000000 1 0 0
-5.815319 -15.510239 -4.707759 17.220582 1.212083 1.847701 -0.005466 0.000448 -3293650.000000 1 0 0
1.919981 -15.860639 -0.993459 16.007284 -1.450329 1.632899 0.007235 -0.009003 81901.600000 1 0 0
-13.113419 -11.860339 5.431141 18.496667 0.735264 1.272776 0.003045 -0.001519 467774.000000 1 0 0
1.940581 -15.281739 -8.937559 17.809474 -1.444485 2.096524 0.007532 0.007359 -970386.000000 1 0 0
-11.561019 -16.768839 0.195441 20.368832 0.967196 1.561201 -0.004972 0.007488 431922.000000 1 0 0
-8.128819 -16.358039 -1.080459 18.298375 1.109607 1.629877 0.002526 0.001801 473087.000000 1 0 0
-2.807919 -14.443839 -1.682459 14.810117 1.378789 1.684644 0.001938 -0.000531 90148.700000 1 0 0
-1.845419 -10.416639 -13.097359 16.836055 1.395455 2.462169 0.002537 0.002037 317777.000000 1 0 0
1.518081 -19.603239 4.875641 20.257429 -1.493510 1.327726 0.006660 -0.008595 12860.400000 1 0 0
-17.256219 -9.390139 2.656341 19.824428 0.498348 1.436399 -0.006636 0.003970 -730987.000000 1 0 0
-2.830019 -15.577939 -8.066059 17.769144 1.391088 2.041974 0.002424 0.000434 -1344220.000000 1 0 0
-10.506719 -12.067039 0.310141 16.003148 0.854409 1.551415 0.001548 0.007406 281427.000000 1 0 0
-6.922819 -11.349839 -6.411859 14.759952 1.023094 2.020179 0.002796 -0.004842 317593.000000 1 0 0
-2.312019 -13.562739 -6.656559 15.284080 1.401951 2.021415 0.001482 0.000164 798436.000000 1 0 0
-14.276019 -14.526139 -0.758059 20.381072 0.794082 1.607999 -0.005226 0.016968 35652.500000 1 0 0
-9.594719 -11.265439 -4.321459 15.415698 0.865319 1.854933 0.008578 -0.003810 492548.000000 1 0 0
9.474981 -15.131639 -5.220659 18.600996 -1.011356 1.855284 0.012030 -0.007107 340921.000000 1 0 0
-5.684719 -10.879039 -9.428259 15.477777 1.089281 2.225782 0.001842 -0.001661 -615868.000000 1 0 0
-10.426619 -15.952339 -4.783159 19.648667 0.991887 1.816701 0.001794 0.006589 -390525.000000 1 0 0
2.232481 -17.401339 -3.243059 17.841188 -1.443200 1.753586 0.008283 -0.006693 660369.000000 1 0 0
-0.446619 -14.450739 -8.156659 16.599831 1.539900 2.084458 0.005971 0.002015 224724.000000 1 0 0
-0.534819 -18.245539 -7.154359 19.605371 1.541492 1.944341 0.002690 -0.004912 93267.200000 1 0 0
-1.945919 -9.842739 -10.498259 14.521692 1.375612 2.378839 0.007141 -0.000145 631596.000000 1 0 0
-5.036619 -17.270339 2.169241 18.120092 1.287032 1.450794 0.001074 -0.000555 1283020.000000 1 0 0
0.201981 -12.747939 -2.630859 13.018147 -1.554953 1.774289 -0.002983 0.000524 -2160670.000000 1 0 0
2.608981 -14.934239 2.929341 15.440833 -1.397844 1.379926 0.005360 -0.006087 -1127920.000000 1 0 0
-9.439919 -13.081239 6.954241 17.566797 0.945695 1.163777 0.004849 -0.004360 -148230.000000 1 0 0
-1.008419 -17.840039 -4.611959 18.454107 1.514331 1.823389 0.001741 -0.007785 -90683.200000 1 0 0
-9.942719 -17.820239 -2.258459 20.530933 1.061874 1.681022 0.005428 0.014374 -1075890.000000 1 0 0
1.274881 -16.263639 1.417541 16.375002 -1.492568 1.484120 0.005250 -0.008982 556243.000000 1 0 0
-0.379419 -17.969439 4.096841 18.434446 1.549685 1.346687 0.012397 -0.010972 939764.000000 1 0 0
-17.284319 -9.269839 0.035441 19.613231 0.492276 1.568989 -0.013113 0.005211 346671.000000 1 0 0
-14.854619 -7.506639 -10.345759 19.597042 0.467911 2.126951 0.001758 -0.009660 425351.000000 1 0 0
2.566681 -12.698839 -8.803259 15.663516 -1.371364 2.167626 -0.003358 0.001395 922824.000000 1 0 0
-11.834319 -14.702039 1.848741 18.963620 0.893048 1.473152 -0.005550 0.012103 47690.900000 1 0 0
-2.151619 -15.566839 10.439341 18.866261 1.433448 0.984435 -0.004782 -0.002399 -273921.000000 1 0 0
-7.033119 -15.954039 1.305741 17.484310 1.155589 1.496046 0.003600 0.003747 -754097.000000 1 0 0
-12.588519 -15.026239 -5.800359 20.442672 0.873446 1.858486 -0.001555 0.005928 1051620.000000 1 0 0
0.927981 -13.688139 -5.015959 14.607742 -1.503105 1.921306 0.002004 -0.002545 537507.000000 1 0 0
5.788681 -16.521639 -7.243559 18.945779 -1.233792 1.963114 0.012524 -0.011605 -166572.000000 1 0 0
-6.561619 -12.886239 5.973141 15.645715 1.099819 1.179080 0.006945 -0.004660 71856.600000 1 0 0
-2.543119 -13.522539 0.650441 13.774962 1.384902 1.523560 0.007392 -0.002611 737263.000000 1 0 0
-4.211319 -15.451139 0.204241 16.016074 1.304703 1.558044 0.003044 -0.000757 -2122.050000 1 0 0
-17.457219 -7.525239 -1.966759 19.111563 0.406999 1.673888 -0.023064 0.006223 300998.000000 1 0 0
1.067181 -12.669339 -11.963759 17.458022 -1.486761 2.325794 0.006462 0.008768 -104563.000000 1 0 0
1.254481 -17.091139 -5.690259 18.057126 -1.497528 1.891385 0.007731 -0.007344 -600603.000000 1 0 0
-12.778419 -6.456239 -8.928859 16.872923 0.467835 2.128433 -0.002347 -0.001899 1945950.000000 1 0 0
-11.395419 -13.649039 -8.652959 19.774365 0.875141 2.023707 -0.005525 -0.007991 380088.000000 1 0 0
-4.306919 -9.716739 3.535141 11.200973 1.153572 1.249697 0.005155 -0.000772 -3828010.000000 1 0 0
-6.940019 -14.307039 9.481441 18.513588 1.119158 1.033129 0.005937 -0.008158 -1482430.000000 1 0 0
-5.364819 -15.820839 -8.095459 18.563854 1.243866 2.022042 -0.006694 -0.002140 -462289.000000 1 0 0
-0.292819 -13.425439 2.202741 13.608094 1.548989 1.408211 0.001084 -0.005370 648107.000000 1 0 0
-10.980319 -13.376039 -4.564759 17.897565 0.883444 1.828695 0.002723 0.002145 -1196510.000000 1 0 0
-9.711919 -10.562639 6.727441 15.847687 0.827334 1.132380 0.007560 -0.004778 -265445.000000 1 0 0
-15.458119 -7.910739 -4.725859 17.996304 0.473006 1.836514 0.004539 -0.000314 -384476.000000 1 0 0
-14.568019 -7.272339 5.604341 17.219835 0.463007 1.239300 0.013821 -0.002675 66207.700000 1 0 0
-1.552619 -19.346939 -0.164959 19.409840 1.490717 1.579295 0.011527 -0.002939 -355796.000000 1 0 0
-15.456819 -12.258739 -1.018359 19.754164 0.670517 1.622371 -0.007365 0.017237 -446267.000000 1 0 0
-4.493319 -12.052339 -6.771759 14.536351 1.213941 2.055391 0.004127 -0.003059 906125.000000 1 0 0
-7.284619 -18.510039 2.107841 20.003255 1.195863 1.465225 0.003282 0.008067 27698.900000 1 0 0
-2.583219 -11.754339 -8.645759 14.818456 1.354468 2.193761 0.005268 0.000072 672035.000000 1 0 0
-1.551619 -20.399139 -5.375759 21.152569 1.494880 1.827757 -0.000032 -0.000843 44046.500000 1 0 0
-5.523319 -8.795939 -13.892859 17.346098 1.010086 2.499629 0.004176 0.002825 595234.000000 1 0 0
-8.177619 -18.994639 -0.585059 20.688452 1.164257 1.599080 -0.000387 0.008055 149713.000000 1 0 0
-17.058419 -7.253539 5.775641 19.415497 0.402055 1.268749 0.007672 -0.002433 -128723.000000 1 0 0
-3.574019 -14.705239 -4.219159 15.710473 1.332375 1.842691 0.002182 0.000359 -2377660.000000 1 0 0
-3.106519 -14.751039 -10.969159 18.643123 1.363233 2.199845 0.003830 0.003985 -510854.000000 1 0 0
-0.005419 -16.671039 6.313741 17.826578 1.570471 1.208764 0.008070 -0.008913 -1367640.000000 1 0 0
-11.048619 -11.463739 3.936341 16.400734 0.803836 1.328420 -0.000932 -0.000146 -443578.000000 1 0 0
-0.150919 -14.581539 -0.125459 14.582860 1.560447 1.579400 0.007751 -0.002559 813497.000000 1 0 0
-7.243719 -9.414839 -2.345759 12.108395 0.914998 1.765759 0.010245 -0.004277 122357.000000 1 0 0
-11.129519 -14.314839 -0.646859 18.143848 0.909938 1.606456 -0.006571 0.005093 -212612.000000 1 0 0
0.077581 -14.638239 -10.677459 18.118835 -1.565496 2.200990 0.004276 0.005697 -37299.500000 1 0 0
-1.407419 -13.965839 -3.932659 14.577081 1.470360 1.843965 -0.002674 -0.000610 -3168180.000000 1 0 0
-11.172819 -8.069639 -7.484059 15.683178 0.625507 2.068265 0.002628 -0.006224 494295.000000 1 0 0
-0.257219 -17.197339 -0.524459 17.207257 1.555841 1.601280 0.009749 -0.004857 -79400.100000 1 0 0
-12.822519 -9.389239 4.710441 16.575978 0.632041 1.282653 0.004512 -0.002764 -154798.000000 1 0 0
3.896981 -16.865439 1.493541 17.374123 -1.343718 1.484727 0.007622 -0.007397 516480.000000 1 0 0
-3.852419 -17.969039 -8.110359 20.087444 1.359601 1.986411 -0.004615 0.000476 155392.000000 1 0 0
-13.290119 -11.140439 2.833741 17.571759 0.697633 1.408822 -0.011057 0.005765 -423907.000000 1 0 0
-8.562519 -12.105939 4.290141 15.436185 0.955188 1.289160 0.002134 -0.002996 1304470.000000 1 0 0
-8.280519 -9.269439 -5.782859 13.708791 0.841687 2.006265 0.011681 -0.004425 -416838.000000 1 0 0
3.803381 -17.453939 -5.229859 18.613358 -1.356241 1.855605 0.003878 -0.002978 -413964.000000 1 0 0
-2.455719 -13.144439 11.244741 17.471435 1.386100 0.871594 -0.003057 -0.004683 -39927.400000 1 0 0
-0.101019 -16.813139 -9.434959 19.279790 1.564788 2.082164 0.005500 0.003554 -90740.400000 1 0 0
-7.252919 -10.573039 -14.507259 19.361161 0.969540 2.417796 0.003531 0.004866 -877242.000000 1 0 0
-4.541619 -18.986239 -1.551059 19.583395 1.336002 1.650082 0.007288 0.002130 -1183570.000000 1 0 0
-2.452519 -17.248239 1.060341 17.453966 1.429554 1.510008 0.006908 -0.006962 1506720.000000 1 0 0
3.965581 -14.644539 -7.519559 16.933166 -1.306349 2.030935 0.001459 -0.002151 -1330340.000000 1 0 0
-1.007819 -15.878239 -6.145359 17.055779 1.507410 1.939396 -0.000662 -0.000521 103793.000000 1 0 0
-9.302819 -15.257739 8.457841 19.770587 1.023267 1.128740 0.000211 -0.007219 -1020070.000000 1 0 0
-7.132519 -11.983839 -1.716959 14.051091 1.033930 1.693296 0.006985 -0.001483 894340.000000 1 0 0
-7.542719 -15.008239 -9.266859 19.183704 1.105093 2.074941 0.000104 -0.000100 392642.000000 1 0 0
-4.983219 -13.147139 -0.646859 14.074735 1.208493 1.616771 0.005455 0.000995 3160610.000000 1 0 0
-6.590319 -13.667039 -7.228159 16.806741 1.121486 2.015372 0.000208 -0.004349 182454.000000 1 0 0
5.686881 -15.484839 0.193341 16.497219 -1.218833 1.559076 0.004394 -0.003639 57153.600000 1 0 0
-14.259319 -12.754039 1.172741 19.166873 0.729732 1.509572 -0.024314 0.006740 851440.000000 1 0 0
1.043581 -15.338039 11.107741 18.966455 -1.502862 0.945112 0.007847 -0.005937 289945.000000 1 0 0
-9.234319 -10.729039 2.042741 14.302367 0.860132 1.427481 0.004266 0.003897 33908.000000 1 0 0
-9.406319 -8.786839 -3.451359 13.326637 0.751361 1.832764 0.009316 -0.004056 -290597.000000 1 0 0
-12.451219 -7.331039 -12.001759 18.783482 0.532129 2.263933 0.003667 -0.007883 -433478.000000 1 0 0
-13.094719 -8.409439 -0.568259 15.572837 0.570873 1.607295 -0.004740 0.003330 -1711130.000000 1 0 0
-11.121819 -9.584739 0.653741 14.696580 0.711303 1.526299 -0.001482 0.003740 -10369.400000 1 0 0
-15.765719 -12.060839 3.119841 20.093659 0.653035 1.414901 -0.004555 0.007671 610844.000000 1 0 0
-10.508019 -12.518439 -2.268859 16.500833 0.872486 1.708733 0.004035 0.004138 956231.000000 1 0 0
-3.610719 -8.928639 -12.197459 15.541425 1.186505 2.473227 0.007827 0.002746 -1427070.000000 1 0 0
-0.219019 -15.510339 3.886841 15.991439 1.556676 1.325280 0.006858 -0.008491 -804505.000000 1 0 0
-15.747919 -7.638139 1.375041 17.556448 0.451596 1.492395 -0.003760 -0.000787 1295380.000000 1 0 0
-6.406119 -13.228939 -13.428559 19.909027 1.119828 2.311078 0.012047 -0.000242 -206323.000000 1 0 0
-15.238119 -10.278039 1.226841 18.421278 0.593403 1.504148 -0.005635 0.002792 433644.000000 1 0 0
-10.123419 -8.270239 -12.629759 18.176668 0.684986 2.338985 0.006468 0.006724 545794.000000 1 0 0
-13.317919 -11.643639 -6.027559 18.688840 0.718424 1.899189 0.003696 -0.007732 -232031.000000 1 0 0
-12.196819 -11.255339 -3.711659 17.006512 0.745275 1.790816 -0.003591 0.000559 -2124910.000000 1 0 0
-12.120819 -11.114739 -8.925859 18.711564 0.742126 2.068061 0.008115 -0.011123 166517.000000 1 0 0
-13.153319 -8.443839 -5.789359 16.668080 0.570699 1.925521 -0.001785 -0.001293 -834996.000000 1 0 0
-13.397919 -8.183139 -3.111159 16.004602 0.548306 1.766433 0.003527 -0.001566 357335.000000 1 0 0
-4.457719 -16.979239 -3.233559 17.849978 1.314051 1.752954 0.002019 0.000450 26952.300000 1 0 0
-15.273919 -8.955139 -1.638859 17.781253 0.530287 1.663095 -0.004838 0.005226 -1318590.000000 1 0 0
-9.486019 -15.603539 3.760441 18.643924 1.024559 1.367705 0.007328 -0.000417 -356381.000000 1 0 0
4.812081 -16.969139 7.788341 19.281236 -1.294472 1.154983 0.020500 -0.030752 -66514.300000 1 0 0
-8.224219 -15.361439 6.026641 18.437245 1.079246 1.237803 0.004684 -0.003764 294054.000000 1 0 0
0.970781 -15.921639 8.500141 18.074662 -1.509899 1.081189 0.002582 -0.008383 247812.000000 1 0 0
-10.841119 -7.857939 -10.082659 16.761177 0.627195 2.216234 0.001257 -0.001793 774784.000000 1 0 0
-4.870319 -15.850439 5.653341 17.519038 1.272686 1.242219 0.003580 -0.007938 -583447.000000 1 0 0
-1.507219 -13.180239 -12.140659 17.982936 1.456936 2.311925 0.008314 0.004361 -1008560.000000 1 0 0
-6.494619 -14.374839 -2.496259 15.970203 1.146443 1.727747 0.003392 0.001837 407502.000000 1 0 0
-17.674719 -6.965639 -6.974759 20.237665 0.375411 1.922654 -0.005235 -0.007953 32846.200000 1 0 0
-17.255119 -4.188439 -10.089459 20.422520 0.238130 2.087522 -0.008807 -0.003946 216421.000000 1 0 0
-15.270219 -5.374239 -9.006259 18.524976 0.338404 2.078496 -0.012275 -0.005368 868116.000000 1 0 0
-16.068119 -5.412139 -5.625659 17.864034 0.324889 1.891164 -0.001780 -0.002290 -936006.000000 1 0 0
-15.128019 -4.600139 -12.252959 20.003830 0.295196 2.230054 -0.014843 0.000937 75536.200000 1 0 0
-18.599219 -5.129139 -5.348259 20.021061 0.269084 1.841212 -0.018662 -0.001241 -533434.000000 1 0 0
-17.441719 -4.461939 -7.599859 19.541758 0.250449 1.970237 -0.014506 -0.003917 263469.000000 1 0 0
12.103881 -7.906339 8.635941 16.840238 -0.578626 1.032335 0.004459 -0.006017 273179.000000 1 0 0
16.112581 -3.524539 1.702241 16.581172 -0.215352 1.467954 0.000816 0.004636 -289175.000000 1 0 0
11.942981 -2.178739 12.608541 17.503057 -0.180444 0.766472 -0.002992 -0.001851 359971.000000 1 0 0
9.639581 -10.066139 5.131141 14.851845 -0.807041 1.218037 0.003351 -0.003164 -216424.000000 1 0 0
16.784681 -1.864739 7.049241 18.300125 -0.110644 1.175370 0.001866 -0.000554 401822.000000 1 0 0
5.058881 -12.875339 9.112541 16.565176 -1.196415 0.988310 -0.005730 0.002474 -406269.000000 1 0 0
15.006081 -9.085139 -2.301059 17.692289 -0.544403 1.701226 -0.006250 -0.003276 109009.000000 1 0 0
11.096081 -8.597539 6.359041 15.410324 -0.659202 1.145437 0.006126 -0.006407 -2815620.000000 1 0 0
19.894681 -3.053139 3.458441 20.422556 -0.152277 1.400632 -0.001489 0.002052 -612699.000000 1 0 0
13.545781 -8.666239 6.679441 17.412835 -0.569153 1.177113 0.004237 -0.000258 -1259050.000000 1 0 0
8.354481 -11.075639 8.748641 16.401398 -0.924542 1.008171 -0.004532 -0.000670 -1065780.000000 1 0 0
16.809281 0.056161 -0.891759 16.833013 0.003341 1.623798 0.002715 0.002667 -2306000.000000 1 0 0
12.352681 -12.450639 2.283941 17.686818 -0.789348 1.441302 -0.000917 -0.001300 -2640410.000000 1 0 0
10.392281 -11.529739 3.478541 15.907063 -0.837238 1.350336 0.000071 0.000243 -812018.000000 1 0 0
16.216981 3.082161 2.294341 16.665959 0.187818 1.432691 -0.001951 0.004385 -23965.100000 1 0 0
18.349381 -3.332739 0.431841 18.654582 -0.179668 1.547645 0.000499 0.004040 501771.000000 1 0 0
13.409681 -11.835339 -0.252759 17.887389 -0.723116 1.584927 0.009172 0.001060 -513061.000000 1 0 0
16.865781 -7.632839 -0.976659 18.538303 -0.424984 1.623504 0.003227 -0.001404 645452.000000 1 0 0
10.180881 -5.633139 9.705941 15.152158 -0.505378 0.875563 0.002235 -0.005458 17507.200000 1 0 0
11.264681 -13.371139 5.861741 18.440185 -0.870695 1.247305 -0.002054 0.002512 356419.000000 1 0 0
13.187481 -1.760039 10.333041 16.845745 -0.132679 0.910448 0.011991 -0.002269 245070.000000 1 0 0
15.588381 -2.068439 -1.611059 15.807327 -0.131920 1.672892 -0.000163 0.003054 427856.000000 1 0 0
10.566581 -12.453139 8.924541 18.611307 -0.867169 1.070686 0.000170 -0.003308 474090.000000 1 0 0
14.657981 1.151861 3.209641 15.049418 0.078421 1.355872 0.006705 0.003736 856528.000000 1 0 0
14.863481 -6.060239 5.125241 16.849857 -0.387150 1.261728 0.000442 0.000045 -877893.000000 1 0 0
14.367181 -3.471239 -3.168059 15.116282 -0.237066 1.781941 0.003540 -0.000509 824781.000000 1 0 0
14.177481 0.517461 9.537441 17.094781 0.036483 0.978925 0.011248 -0.002072 570784.000000 1 0 0
15.438881 -3.677539 4.255641 16.431489 -0.233842 1.308817 0.002873 0.003409 -1393240.000000 1 0 0
18.492381 4.504761 -4.288759 19.510369 0.238947 1.792426 -0.019897 0.007380 331532.000000 1 0 0
17.939581 -5.746239 -5.734159 19.690820 -0.309985 1.866287 0.013094 0.003793 749030.000000 1 0 0
17.477581 0.164861 5.809441 18.418540 0.009432 1.249905 0.015598 0.007589 237863.000000 1 0 0
17.035481 -6.836939 3.835341 18.752632 -0.381657 1.364820 0.003239 -0.000595 380673.000000 1 0 0
9.739081 -6.679239 14.188941 18.460444 -0.601144 0.694126 -0.006479 -0.002248 -929304.000000 1 0 0
8.593181 -12.309639 5.058741 15.841744 -0.961356 1.245774 -0.001920 -0.001318 -1859570.000000 1 0 0
16.738881 -10.244239 -0.739259 19.638765 -0.549198 1.608448 -0.000838 -0.000209 -134324.000000 1 0 0
14.838681 -8.906139 0.230341 17.307768 -0.540565 1.557487 0.007818 -0.004606 207395.000000 1 0 0
9.893381 -12.971239 1.394541 16.373050 -0.919206 1.485520 0.004372 -0.001992 223632.000000 1 0 0
16.885481 -8.226739 8.756641 20.723838 -0.453362 1.134551 -0.004436 0.000109 656607.000000 1 0 0
19.186581 -0.203339 -2.067259 19.298699 -0.010598 1.678121 0.008228 0.009072 3447.020000 1 0 0
13.395481 -1.217039 7.768841 15.533029 -0.090606 1.047025 0.004363 -0.001025 -417562.000000 1 0 0
12.709381 -9.870139 -3.132259 16.393873 -0.660311 1.763041 0.002534 -0.004977 -2389640.000000 1 0 0
8.830281 -15.334439 1.432141 17.753025 -1.048326 1.490038 0.009633 0.001628 878777.000000 1 0 0
11.363381 -8.335639 11.131541 17.958856 -0.632891 0.902263 -0.003953 -0.004069 -289628.000000 1 0 0
13.922281 -3.946739 -0.654959 14.485704 -0.276236 1.616026 -0.000256 0.000126 -529419.000000 1 0 0
7.126381 -13.467239 10.514741 18.512472 -1.084090 0.966745 -0.001954 0.005929 -673918.000000 1 0 0
15.358881 -6.839139 1.724241 16.900949 -0.418929 1.468598 -0.002352 -0.000930 -696671.000000 1 0 0
15.494181 -6.117039 -2.643559 16.866423 -0.376012 1.728180 -0.006137 -0.000449 -17462.200000 1 0 0
11.050381 -8.579339 3.680241 14.465827 -0.660174 1.313559 0.005401 -0.005560 248680.000000 1 0 0
10.647081 -14.573039 -0.496759 18.054932 -0.939826 1.598314 0.023427 -0.003904 862436.000000 1 0 0
13.495581 -12.919239 4.574041 19.234326 -0.763583 1.330690 0.000873 0.005695 372657.000000 1 0 0
12.696881 -11.143839 6.400841 18.065622 -0.720348 1.208620 -0.005604 -0.001538 -464591.000000 1 0 0
10.915281 -10.543939 1.268541 15.229157 -0.768095 1.487403 0.001387 -0.001773 334786.000000 1 0 0
13.811781 -7.689639 11.890141 19.780579 -0.508007 0.925917 0.001315 -0.007875 -446229.000000 1 0 0
15.265181 -1.778139 -5.042259 16.174421 -0.115961 1.887823 0.008296 0.001703 -619965.000000 1 0 0
12.946581 -11.460239 -7.132759 18.703670 -0.724575 1.962059 0.015006 -0.004085 -74290.100000 1 0 0
17.624781 -5.583439 1.664241 18.562796 -0.306793 1.481021 0.001540 0.005704 266317.000000 1 0 0
10.640381 -9.895339 9.045941 17.116206 -0.749134 1.013962 -0.003979 -0.003312 -1733230.000000 1 0 0
16.545481 1.782461 9.767541 19.295983 0.107317 1.040029 0.023780 -0.003409 -71184.600000 1 0 0
18.007681 3.559861 0.481341 18.362486 0.195169 1.544580 -0.016482 0.010859 556407.000000 1 0 0
13.291081 -4.211239 5.702741 15.063487 -0.306840 1.182534 0.005314 -0.000290 -1482640.000000 1 0 0
12.137981 -6.275739 6.536241 15.147209 -0.477181 1.124625 0.007594 -0.003149 -285912.000000 1 0 0
16.608081 -10.384039 3.478141 19.893569 -0.558772 1.395056 0.001820 0.001886 1480500.000000 1 0 0
16.203181 -8.213639 -5.529659 18.989051 -0.469164 1.866280 0.006784 -0.003739 -1157440.000000 1 0 0
13.940181 -0.419539 5.231541 14.895425 -0.030087 1.211925 0.002744 0.004804 907832.000000 1 0 0
18.203481 -4.298939 4.991741 19.358850 -0.231911 1.309997 0.001356 0.005004 -177673.000000 1 0 0
13.469881 -13.505539 7.149541 20.370401 -0.786720 1.212182 -0.012718 0.010856 -162074.000000 1 0 0
14.825281 -13.759339 -1.135859 20.258296 -0.748125 1.626895 0.005110 0.004577 441592.000000 1 0 0
17.814581 -6.093439 7.812141 20.384280 -0.329573 1.177491 0.014546 0.004606 -1014910.000000 1 0 0
14.389381 3.161761 9.317341 17.431692 0.216292 1.006873 0.007719 -0.004270 -1044270.000000 1 0 0
18.802781 3.715561 2.876141 19.380974 0.195094 1.421846 0.011623 0.005744 468652.000000 1 0 0
14.668181 -10.777139 8.051141 19.902842 -0.633656 1.154340 -0.011422 0.004076 -29055.500000 1 0 0
14.908681 -5.054939 10.323441 18.825372 -0.326896 0.990372 0.007028 -0.003494 370017.000000 1 0 0
17.695381 -8.067539 1.654741 19.517937 -0.427760 1.485914 0.003339 -0.003448 -197426.000000 1 0 0
18.110381 -6.065839 -2.510959 19.263572 -0.323193 1.701516 -0.012345 0.002572 -353305.000000 1 0 0
14.094681 -13.145539 -5.483359 20.038275 -0.750569 1.847976 0.008621 -0.004086 -912272.000000 1 0 0
15.537781 -1.584039 9.320341 18.187924 -0.101597 1.032765 0.007744 -0.003955 -112896.000000 1 0 0
13.037481 -9.974439 10.103141 19.275342 -0.653069 1.019081 -0.005728 -0.009158 -980614.000000 1 0 0
16.628381 2.239461 4.721841 17.430262 0.133872 1.296469 0.005370 0.005151 -1284460.000000 1 0 0
14.912881 2.346361 -0.161559 15.097203 0.156059 1.581498 -0.005435 0.005335 -1114720.000000 1 0 0
15.021681 -9.873339 -7.081859 19.320622 -0.581471 1.946088 0.009975 -0.006574 433687.000000 1 0 0
16.084981 -0.012439 -3.439059 16.448523 -0.000773 1.781430 -0.000810 0.007750 205923.000000 1 0 0
11.966781 2.320761 13.486141 18.178718 0.191556 0.734950 0.024387 -0.006553 -96025.400000 1 0 0
17.643481 -3.176339 9.176641 20.139322 -0.178121 1.097685 0.012727 -0.008439 -114371.000000 1 0 0
7.810781 -18.329639 4.317241 20.386823 -1.167970 1.357414 0.013104 -0.006427 -324013.000000 1 0 0
6.870581 -11.288039 6.613841 14.777267 -1.024033 1.106752 -0.003451 -0.001678 -95159.600000 1 0 0
17.985181 2.126061 -1.693759 18.189439 0.117666 1.664049 0.000207 0.009680 432321.000000 1 0 0
17.488281 -2.235039 3.532641 17.980960 -0.127113 1.373044 -0.006037 0.010305 -1293690.000000 1 0 0
12.376781 -13.424539 -2.159659 18.386601 -0.825985 1.688526 0.013592 -0.000596 -1839090.000000 1 0 0
15.036481 -8.407639 4.190941 17.729866 -0.509841 1.332160 0.005064 0.001033 -733260.000000 1 0 0
11.431981 -3.119139 14.887241 19.027590 -0.266360 0.672281 -0.009647 -0.005913 233210.000000 1 0 0
11.883681 -13.821639 -6.581759 19.379864 -0.860647 1.917307 0.010166 -0.008605 -371554.000000 1 0 0
10.564881 -12.060739 -1.270559 16.083919 -0.851416 1.649874 0.015145 -0.008624 -1644030.000000 1 0 0
13.134581 -7.974339 2.046841 15.501512 -0.545642 1.438368 0.004525 -0.004063 -1304470.000000 1 0 0
8.811281 -7.838239 9.877041 15.382867 -0.727022 0.873587 -0.003582 -0.000956 -719518.000000 1 0 0
15.525581 -3.895139 8.009241 17.898707 -0.245812 1.106855 0.007635 -0.002801 -1145640.000000 1 0 0
10.103481 -17.465639 5.156141 20.825817 -1.046352 1.320610 0.005798 -0.001539 -634359.000000 1 0 0
15.225781 -6.503939 8.078141 18.422323 -0.403704 1.116870 0.009718 0.001077 -1441610.000000 1 0 0
16.573981 -4.974039 -0.597459 17.314586 -0.291559 1.605309 -0.000088 0.000383 -452538.000000 1 0 0
13.921581 -10.635939 3.318641 17.831068 -0.652394 1.383589 0.005020 -0.002372 380445.000000 1 0 0
14.804081 -10.084139 -4.565859 18.485068 -0.597978 1.820382 0.004885 -0.008667 92537.700000 1 0 0
13.601881 -6.540139 -0.156559 15.093346 -0.448191 1.581169 -0.001562 -0.002356 -593006.000000 1 0 0
17.722081 -0.926839 -5.110059 18.467374 -0.052251 1.851162 0.000916 0.005832 150725.000000 1 0 0
14.352881 0.201161 -1.723959 14.457444 0.014014 1.690324 0.001442 0.005386 -1904350.000000 1 0 0
4.929381 -13.038939 11.712941 18.207299 -1.209354 0.871982 -0.008944 0.003422 -1074430.000000 1 0 0
11.906481 -7.781039 13.589341 19.671783 -0.578841 0.808196 -0.009377 -0.002592 -738527.000000 1 0 0
11.976281 -5.923639 11.667341 17.738311 -0.459330 0.852971 -0.001562 -0.001861 227921.000000 1 0 0
13.314481 -4.837439 8.320641 16.428916 -0.348493 1.039718 0.013255 -0.001747 -2075030.000000 1 0 0
15.173981 -1.385339 2.988741 15.527442 -0.091045 1.377106 0.003345 0.007199 45436.300000 1 0 0
15.075781 -10.432639 5.652441 19.185130 -0.605346 1.271732 -0.004505 -0.001450 -797419.000000 1 0 0
13.666281 -8.037439 -5.866159 16.905014 -0.531640 1.925174 0.007669 -0.005554 -1211730.000000 1 0 0
9.394481 -2.345439 13.396141 16.529185 -0.244660 0.625870 -0.014121 -0.006444 -387630.000000 1 0 0
9.652081 -9.260939 13.535241 19.029725 -0.764720 0.779495 -0.012440 -0.003334 -286178.000000 1 0 0
20.246381 6.138161 -3.170859 21.392693 0.294365 1.719566 -0.008243 0.018280 115721.000000 1 0 0
11.499381 -3.697839 10.610741 16.077861 -0.311125 0.850031 0.010830 -0.003325 1073770.000000 1 0 0
10.064281 -14.062439 -3.002659 17.551578 -0.949621 1.742718 0.010338 -0.007543 413605.000000 1 0 0
14.844681 -12.843739 2.363841 19.771544 -0.713257 1.450952 0.001581 0.004253 189655.000000 1 0 0
11.078381 -0.540239 14.337241 18.126745 -0.048727 0.658446 -0.000316 -0.004871 260610.000000 1 0 0
18.981581 -1.956339 5.600141 19.886912 -0.102702 1.285336 0.002332 0.006812 360920.000000 1 0 0
18.947981 -0.486639 7.772341 20.485900 -0.025677 1.181649 0.015903 0.001297 420452.000000 1 0 0
18.951381 0.741161 0.324341 18.968642 0.039089 1.553697 -0.001242 0.003403 126236.000000 1 0 0
18.405781 0.790861 3.461641 18.745165 0.042942 1.385062 -0.004210 0.006046 -182316.000000 1 0 0
16.604281 -4.035039 -4.371659 17.637888 -0.238391 1.821263 0.002711 -0.000388 -580192.000000 1 0 0
10.771981 -8.536639 15.715041 20.877555 -0.670142 0.718606 -0.008787 -0.007188 597100.000000 1 0 0
16.621681 -7.729239 6.192141 19.348489 -0.435265 1.245033 0.002948 0.002381 735056.000000 1 0 0
18.937281 2.234961 5.685741 19.898325 0.117476 1.281018 0.016604 0.002801 -103726.000000 1 0 0
15.285481 1.743161 7.548541 17.136657 0.113550 1.114651 0.010228 0.000832 108939.000000 1 0 0
8.686081 -15.869739 3.773241 18.480638 -1.070001 1.365178 0.000447 -0.003031 930881.000000 1 0 0
11.358281 -15.196239 1.890841 19.065978 -0.928935 1.471459 0.013016 0.005263 133875.000000 1 0 0
7.855981 -16.363739 6.094541 19.147632 -1.123207 1.246869 -0.000103 0.000761 -214255.000000 1 0 0
14.421281 -11.741439 -2.559259 18.771908 -0.683324 1.707557 -0.000209 -0.003584 698594.000000 1 0 0
13.634081 -4.960639 3.076341 14.831048 -0.348952 1.361854 0.001603 0.002603 -2368430.000000 1 0 0
-1.033119 10.276961 -5.541059 11.721203 -1.470605 2.063192 -0.006383 0.000205 -1829660.000000 1 0 0
8.177981 -1.746739 -8.129159 11.662491 -0.210429 2.342050 0.004896 -0.001345 -3842370.000000 1 0 0
2.839281 -10.098739 7.667441 12.993679 -1.296720 0.939626 -0.006259 -0.002730 500219.000000 1 0 0
-6.191719 1.193861 8.317141 10.437314 -0.190478 0.648706 0.005191 -0.002838 -454911.000000 1 0 0
7.130781 -6.305739 -7.147759 11.903816 -0.724072 2.214872 0.003632 -0.004539 661049.000000 1 0 0
-11.308419 -4.410839 -4.060559 12.799374 0.371899 1.893621 0.002627 -0.003931 217885.000000 1 0 0
2.082781 -3.298539 2.832741 4.821075 -1.007590 0.942738 0.002194 -0.001313 1686520.000000 1 0 0
-3.528319 -4.265939 8.975141 10.545161 0.879753 0.552691 0.003424 -0.001261 -1291420.000000 1 0 0
-4.938319 -0.955939 -2.371359 5.560949 0.191211 2.011339 0.004598 -0.005416 -423368.000000 1 0 0
4.821781 -5.176539 -3.786959 8.024163 -0.820865 2.062291 0.004053 -0.002318 491425.000000 1 0 0
2.669181 14.248761 -8.815859 16.966764 1.385615 2.117174 0.002944 -0.001529 -114905.000000 1 0 0
5.518681 -5.590539 13.651541 15.750382 -0.791866 0.522161 -0.009924 0.001006 -1815350.000000 1 0 0
-4.681219 -0.925739 9.945841 11.031345 0.195237 0.447346 0.009337 -0.001884 -2625900.000000 1 0 0
-0.956019 11.961961 -2.624859 12.283825 -1.491044 1.786141 -0.010464 -0.000417 -1144030.000000 1 0 0
2.866181 9.536161 -10.527459 14.490712 1.278827 2.384007 0.002069 -0.000098 -864767.000000 1 0 0
-10.682619 2.667261 1.206741 11.076500 -0.244680 1.461634 0.000831 -0.004074 270386.000000 1 0 0
5.689381 -9.069839 -0.872359 10.742069 -1.010555 1.652095 -0.002821 -0.003713 760823.000000 1 0 0
-6.822719 5.403161 9.435241 12.836176 -0.669805 0.745055 0.002820 -0.003577 111152.000000 1 0 0
-5.423519 -1.729239 5.135741 7.666855 0.308651 0.836772 0.007911 -0.006445 808814.000000 1 0 0
6.623881 -3.744039 -7.413059 10.622950 -0.514463 2.343166 0.003127 -0.002220 456882.000000 1 0 0
6.337481 4.559561 10.988641 13.479744 0.623667 0.617728 -0.006533 0.004801 375227.000000 1 0 0
3.797081 -9.870739 3.367341 11.099022 -1.203566 1.262547 -0.006698 -0.001562 960805.000000 1 0 0
-6.637619 6.677461 -5.781759 11.048765 -0.788390 2.121509 -0.007563 -0.003332 -433755.000000 1 0 0
-10.890419 8.467561 5.259241 14.763483 -0.660885 1.206563 -0.005413 -0.007464 295674.000000 1 0 0
-9.184619 -5.409439 5.211241 11.864918 0.532268 1.116072 0.004706 -0.004311 -2544160.000000 1 0 0
3.121881 9.792161 -8.027159 13.041006 1.262169 2.233857 0.001345 -0.001036 549822.000000 1 0 0
-8.032819 -8.519739 6.193641 13.246634 0.814806 1.084264 0.009448 -0.004408 -1460880.000000 1 0 0
-7.797419 -5.543539 -7.521959 12.170063 0.618034 2.237082 0.010260 -0.003926 -1453390.000000 1 0 0
9.335481 -1.687039 6.867141 11.711317 -0.178783 0.944229 0.000512 -0.003953 1420160.000000 1 0 0
-4.134219 -0.345039 -4.791659 6.338045 0.083266 2.428000 0.005700 -0.005973 -1054740.000000 1 0 0
8.969981 1.132261 -4.553159 10.122936 0.125564 2.037322 0.001143 0.002445 -2398390.000000 1 0 0
-1.727819 -10.724339 10.856341 15.357635 1.411057 0.785688 -0.006948 -0.003508 -399102.000000 1 0 0
-12.942119 0.337561 -2.629559 13.210865 -0.026076 1.771180 -0.001271 -0.003214 -121166.000000 1 0 0
-9.787919 -5.072839 -5.990359 12.546770 0.478161 2.068538 0.008412 -0.005030 -432625.000000 1 0 0
-5.436319 8.280661 -0.128659 9.906536 -0.989860 1.583784 -0.007059 -0.001355 -1400.660000 1 0 0
6.385081 9.607961 0.400441 11.543073 0.984253 1.536098 0.005806 -0.003132 447569.000000 1 0 0
-0.609619 -12.029139 0.006741 12.044578 1.520161 1.570237 0.004642 -0.002225 -64530.200000 1 0 0
6.235581 4.639861 2.283341 8.100891 0.639711 1.285061 -0.001852 0.000058 67199.200000 1 0 0
3.355981 -7.435339 -8.349259 11.672917 -1.146816 2.367803 -0.003996 -0.002116 965576.000000 1 0 0
-6.570619 -9.747539 4.507041 12.589717 0.977679 1.204678 0.007040 -0.000498 -2622600.000000 1 0 0
-0.182819 6.715661 -9.215859 11.404630 -1.543580 2.511683 -0.004128 0.000890 -2124470.000000 1 0 0
-17.298719 -2.711239 4.325341 18.036215 0.155466 1.328622 0.004790 -0.004263 484106.000000 1 0 0
-8.445119 0.862261 -9.104359 12.448007 -0.101749 2.391156 0.000200 -0.003709 1084350.000000 1 0 0
-10.266319 -5.879539 -11.800159 16.709579 0.520105 2.354901 0.006733 0.005869 -723030.000000 1 0 0
2.225581 9.347161 6.404941 11.547550 1.337046 0.982844 -0.002550 0.002943 133879.000000 1 0 0
-11.425919 1.687261 -1.147459 11.606685 -0.146610 1.669820 0.000088 -0.002782 -1123630.000000 1 0 0
-5.873219 -5.273239 -3.039159 8.458028 0.731623 1.938338 0.009316 -0.003011 584485.000000 1 0 0
-6.939019 -8.207739 1.368741 10.834686 0.868965 1.444128 0.007137 -0.000708 -296186.000000 1 0 0
-0.019619 10.960261 -7.857259 13.485704 -1.569006 2.192765 -0.004790 0.001726 897898.000000 1 0 0
-3.023919 9.528261 -4.247359 10.861487 -1.263487 1.972566 -0.004183 -0.000767 291217.000000 1 0 0
3.411081 -4.770039 9.294841 10.990124 -0.950004 0.562837 -0.004311 0.000212 -1116290.000000 1 0 0
-8.958119 1.639761 -0.365959 9.114309 -0.181043 1.610959 0.003239 -0.004889 -1396350.000000 1 0 0
2.333581 3.529561 -10.580959 11.395617 0.986620 2.761179 0.003305 0.000038 -220253.000000 1 0 0
-13.668219 0.606461 1.217341 13.735717 -0.044341 1.482054 -0.002510 -0.001876 927156.000000 1 0 0
9.384781 -12.532939 -5.120459 16.473244 -0.928058 1.886868 0.014563 -0.008274 -2257130.000000 1 0 0
-4.695319 9.437661 -8.311959 13.424013 -1.109144 2.238502 -0.010337 0.002390 -939701.000000 1 0 0
-2.266919 7.173861 8.432941 11.301226 -1.264729 0.728465 -0.001905 0.001177 -1580340.000000 1 0 0
-10.820319 -1.181039 -4.355359 11.723622 0.108720 1.951424 0.003077 -0.002100 -4368200.000000 1 0 0
2.848281 -7.210839 9.609741 12.347309 -1.194608 0.678864 -0.011520 0.002472 -477687.000000 1 0 0
-16.191119 -6.486039 3.544641 17.798469 0.381017 1.370301 0.006778 -0.003575 -114292.000000 1 0 0
-10.844519 0.093061 6.292641 12.538325 -0.008581 1.045034 0.004006 -0.006513 -881898.000000 1 0 0
-8.248819 9.818761 9.448041 15.928483 -0.872073 0.935826 -0.003512 -0.006573 194298.000000 1 0 0
0.148881 -6.046139 -3.832759 7.160168 -1.546177 2.135646 -0.005140 -0.001361 605890.000000 1 0 0
4.829781 1.470161 -3.074859 5.911253 0.295484 2.117847 -0.001448 0.001050 -123988.000000 1 0 0
0.344881 5.421361 4.007741 6.750710 1.507267 0.935176 -0.001432 -0.000295 -1741300.000000 1 0 0
5.993781 -11.321139 -1.633159 12.913590 -1.083881 1.697604 -0.001518 -0.004515 -1103040.000000 1 0 0
6.310681 -13.547139 5.257241 15.842609 -1.134855 1.232541 0.002439 -0.004285 -4261.650000 1 0 0
8.075381 -8.369639 -5.961159 13.068973 -0.803290 2.044439 0.001733 -0.005094 719848.000000 1 0 0
-13.232519 -1.415339 -4.518359 14.054121 0.106554 1.898106 -0.001569 -0.000195 -3568160.000000 1 0 0
-6.819119 -1.454339 -6.972459 9.860561 0.210126 2.356193 0.008069 -0.004692 -1237640.000000 1 0 0
-5.561919 12.937861 -4.502259 14.784909 -1.164787 1.880228 -0.004228 -0.000549 563827.000000 1 0 0
-4.362419 7.050561 -6.682659 10.648898 -1.016716 2.249192 -0.004238 -0.001171 -3407280.000000 1 0 0
-9.390619 -3.640439 -8.137359 12.948093 0.369830 2.250368 0.004607 -0.000064 793428.000000 1 0 0
-2.091819 -6.353739 9.139541 11.325940 1.252747 0.631816 -0.002337 -0.001079 -285220.000000 1 0 0
7.427781 -5.983239 9.933841 13.771430 -0.678099 0.765066 -0.007054 0.001058 1143780.000000 1 0 0
9.664081 -5.055239 12.148341 16.325811 -0.481953 0.731582 -0.000945 -0.001551 -914755.000000 1 0 0
-6.487619 2.871561 -8.927159 11.403036 -0.416701 2.470071 0.000216 -0.003364 -423418.000000 1 0 0
7.468281 5.431461 8.799841 12.755908 0.628795 0.809495 -0.008184 0.002150 186768.000000 1 0 0
12.756581 3.151361 11.171041 17.246843 0.242189 0.866215 0.013849 -0.002625 -818786.000000 1 0 0
-7.400419 -7.202039 -3.746259 10.984991 0.771814 1.918813 0.011425 -0.005900 -2049680.000000 1 0 0
2.105081 1.386561 -5.902759 6.418448 0.582448 2.737998 0.006404 -0.001137 650782.000000 1 0 0
12.738581 6.914161 -7.174359 16.172461 0.497278 2.030425 0.002919 0.001229 558970.000000 1 0 0
0.733981 -7.756539 1.110641 7.869952 -1.476450 1.429199 -0.000099 -0.001359 40681.400000 1 0 0
-10.197719 -6.049539 -8.459559 14.565525 0.535423 2.190499 0.006941 -0.001788 -541335.000000 1 0 0
-6.638919 0.369261 3.171441 7.366793 -0.055563 1.125744 0.006660 -0.006806 170899.000000 1 0 0
10.764381 -7.946439 1.120041 13.426552 -0.635917 1.487279 -0.001757 -0.004884 -158249.000000 1 0 0
6.336581 1.033161 10.518141 12.322783 0.161625 0.548030 -0.005096 0.000409 -1294870.000000 1 0 0
-13.024919 5.352061 1.984241 14.220769 -0.389875 1.430808 -0.002232 -0.001695 547402.000000 1 0 0
2.140481 7.370661 3.664941 8.505298 1.288165 1.125305 -0.003142 0.000083 195069.000000 1 0 0
10.088181 -9.485439 -0.927259 13.878212 -0.754614 1.637660 0.001654 -0.004326 723721.000000 1 0 0
6.741281 -11.780739 -9.129559 16.357858 -1.051047 2.162908 0.001709 -0.003240 -166802.000000 1 0 0
10.222581 3.418061 11.816541 15.994216 0.322678 0.739507 -0.002751 -0.001742 -646099.000000 1 0 0
-11.046419 -3.051839 -1.839859 11.606988 0.269550 1.729981 0.000908 -0.002864 -644013.000000 1 0 0
12.292181 0.988461 6.742641 14.054821 0.080241 1.070439 0.001354 0.001168 -402383.000000 1 0 0
-9.342319 9.084261 3.065941 13.386662 -0.771394 1.339716 -0.002692 -0.004561 2016650.000000 1 0 0
-6.628619 7.731761 -8.788859 13.452240 -0.862066 2.282781 -0.010306 0.000006 -825519.000000 1 0 0
8.539581 5.319661 12.040341 15.690540 0.557118 0.696078 -0.005195 0.004100 -2955140.000000 1 0 0
1.233181 4.874361 -2.778259 5.744463 1.323002 2.075606 0.000388 -0.002070 532516.000000 1 0 0
1.392281 0.510561 9.487941 9.603132 0.351481 0.155043 -0.000450 -0.001822 510214.000000 1 0 0
2.544581 12.589761 -3.985459 13.448452 1.371368 1.871666 0.003991 -0.004730 420362.000000 1 0 0
2.259081 0.712461 12.899441 13.115130 0.305503 0.181610 -0.007019 -0.004499 24486.200000 1 0 0
-12.278419 -1.647239 0.973341 12.426599 0.133361 1.492389 -0.000780 -0.005590 -6403.550000 1 0 0
3.322681 8.743861 -1.178759 9.427873 1.207648 1.696154 0.003617 0.000250 637969.000000 1 0 0
3.605281 -2.894939 -5.863159 7.466951 -0.676550 2.473839 -0.001091 -0.000289 -680390.000000 1 0 0
-7.548919 -7.242739 9.195841 13.928637 0.764702 0.849697 0.005476 -0.005156 161838.000000 1 0 0
-6.956719 10.949261 -3.454859 13.424541 -1.004782 1.831079 -0.000895 -0.001475 627066.000000 1 0 0
0.383881 0.447161 2.482241 2.551243 0.861397 0.233105 0.001647 -0.002761 -1060010.000000 1 0 0
-7.041619 4.702861 -1.952559 8.689867 -0.588833 1.797425 0.000469 -0.006149 -532593.000000 1 0 0
-6.830419 -3.794839 -5.910559 9.797455 0.507117 2.218397 0.007658 -0.002464 111017.000000 1 0 0
3.038181 -6.228839 13.423241 15.106700 -1.116988 0.476595 -0.013201 -0.000662 -570943.000000 1 0 0
-5.530919 -0.585539 -11.669759 12.927381 0.105474 2.696838 0.003686 -0.001498 -584796.000000 1 0 0
11.843181 2.418361 -0.687059 12.107083 0.201429 1.627575 -0.004722 0.005216 -591782.000000 1 0 0
6.119481 -11.017139 10.691641 16.526845 -1.063778 0.867250 -0.012137 0.001782 358919.000000 1 0 0
-8.129519 6.505261 -10.440459 14.744852 -0.674864 2.357564 -0.008911 0.001261 353127.000000 1 0 0
2.962281 7.886661 11.144441 13.970437 1.211494 0.647298 -0.002059 0.002999 677912.000000 1 0 0
-6.236019 -10.112439 -0.340359 11.885504 1.018211 1.599437 0.009185 -0.001213 -1381770.000000 1 0 0
11.300081 4.331961 6.132341 13.566994 0.366077 1.101785 -0.003598 0.003789 -769094.000000 1 0 0
-7.702119 10.685261 1.411741 13.247281 -0.946235 1.464025 -0.006054 -0.002588 639507.000000 1 0 0
4.362181 -2.541839 -3.561559 6.178533 -0.527601 2.185163 0.002425 -0.001115 -5165000.000000 1 0 0
6.420981 6.395561 6.349241 11.065490 0.783415 0.959673 -0.003418 0.001099 -5215960.000000 1 0 0
-0.503519 10.475461 -10.227359 14.648812 -1.522767 2.343634 -0.003902 0.001662 -442221.000000 1 0 0
13.691981 6.500861 -2.547959 15.369569 0.443280 1.737345 -0.006799 0.009967 683240.000000 1 0 0
1.362981 9.419661 -6.241259 11.381610 1.427098 2.151202 -0.000632 -0.001240 -1300970.000000 1 0 0
0.675881 7.296361 7.173441 10.254363 1.478427 0.796029 -0.004736 0.001620 238527.000000 1 0 0
12.311381 6.168261 1.843441 13.893014 0.464464 1.437715 -0.003661 0.005590 -406858.000000 1 0 0
-6.857419 6.714661 -3.167859 10.106740 -0.774880 1.889610 -0.003202 -0.006717 900115.000000 1 0 0
1.112881 9.768661 11.141241 14.859088 1.457362 0.723047 -0.000092 0.002665 282876.000000 1 0 0
-3.673919 13.681761 -10.859259 17.849699 -1.308458 2.224804 -0.012631 0.001423 -301785.000000 1 0 0
-9.985219 -5.373139 -2.177959 11.546373 0.493668 1.760560 0.003890 -0.001138 -261577.000000 1 0 0
-4.111119 3.941661 -12.485559 13.723234 -0.764358 2.713626 -0.005186 -0.002895 -487050.000000 1 0 0
-3.166319 8.431061 2.502241 9.347169 -1.211540 1.299791 -0.004264 0.000699 -2408890.000000 1 0 0
7.160281 8.829061 7.063941 13.383617 0.889390 1.014782 -0.002540 0.000742 161228.000000 1 0 0
-1.461719 -2.191439 -8.138359 8.554058 0.982554 2.828557 0.002363 -0.005724 -2369150.000000 1 0 0
0.882981 -1.354939 4.804241 5.069147 -0.993244 0.324715 0.002308 -0.002934 907084.000000 1 0 0
2.676481 -8.854239 -6.169959 11.118880 -1.277247 2.159049 -0.005365 -0.002384 137065.000000 1 0 0
5.437981 3.803261 8.677041 10.923712 0.610315 0.652891 -0.006131 0.000709 519444.000000 1 0 0
5.974781 -7.478739 -2.860659 9.990641 -0.896725 1.861195 0.000128 -0.005660 926864.000000 1 0 0
1.698281 2.321361 -8.319959 8.803101 0.939183 2.808748 0.001606 -0.001142 128183.000000 1 0 0
-5.448319 10.915161 -0.605959 12.214422 -1.107828 1.620427 -0.009035 -0.000127 961200.000000 1 0 0
-5.442219 3.420161 -3.340559 7.243934 -0.561076 2.050090 0.001459 -0.006057 -428443.000000 1 0 0
2.040781 13.655261 -6.424859 15.228583 1.422444 2.006330 -0.003777 -0.000088 759827.000000 1 0 0
-5.353219 -2.427739 2.651441 6.448334 0.425769 1.147046 0.000196 -0.006757 494627.000000 1 0 0
10.397381 -3.342339 -1.981059 11.099611 -0.311026 1.750238 0.000232 -0.003641 -148042.000000 1 0 0
2.329081 -3.233339 6.985141 8.041847 -0.946554 0.518428 -0.003687 -0.000921 -657217.000000 1 0 0
-2.970919 9.962661 -11.680559 15.637021 -1.280987 2.414306 -0.010210 0.005986 -2837980.000000 1 0 0
0.576181 -2.028739 9.289741 9.526125 -1.294073 0.223238 -0.001911 -0.002017 1143940.000000 1 0 0
9.588481 2.721761 4.864441 11.090976 0.276582 1.116762 -0.002704 0.000391 -126832.000000 1 0 0
13.308481 2.048061 -5.115459 14.404102 0.152694 1.933859 0.001817 0.005304 -321565.000000 1 0 0
-6.595319 3.675161 7.595041 10.709327 -0.508383 0.782435 0.002511 -0.003110 -178707.000000 1 0 0
10.572081 0.021061 1.702341 10.708282 0.001992 1.411145 -0.000944 0.003090 1130070.000000 1 0 0
15.238081 6.895961 -4.556059 17.335255 0.424971 1.836741 -0.008425 0.011423 219430.000000 1 0 0
8.051781 -5.048539 -9.221059 13.241860 -0.560043 2.341105 0.007438 0.000403 442766.000000 1 0 0
4.357081 5.602661 -2.188059 7.427083 0.909814 1.869839 -0.000228 0.000579 -332044.000000 1 0 0
-1.609919 -10.478239 1.450741 10.699999 1.418344 1.434794 0.002722 -0.002281 -836657.000000 1 0 0
-2.933319 12.373461 -12.825759 18.061201 -1.338028 2.360476 -0.009122 0.002183 -456276.000000 1 0 0
8.201481 4.249361 -9.666559 13.370255 0.478039 2.378917 0.000354 0.001257 -44470.900000 1 0 0
4.002981 7.662861 -9.151659 12.589526 1.089400 2.384632 0.001135 -0.001074 -1903030.000000 1 0 0
-1.718319 -5.008139 -2.376859 5.803752 1.240277 1.992744 0.001189 -0.002301 304087.000000 1 0 0
-3.241319 -9.268439 6.910741 12.007017 1.234375 0.957509 0.000167 -0.002426 -2298420.000000 1 0 0
1.092781 7.260361 -1.471959 7.488236 1.421404 1.768654 -0.000811 -0.001462 1987190.000000 1 0 0
0.356981 -0.969039 -2.084059 2.325892 -1.217836 2.681532 0.003531 -0.003597 -1318240.000000 1 0 0
4.178681 -6.699439 7.418741 10.834278 -1.013106 0.816540 -0.005300 0.000977 -453700.000000 1 0 0
-13.880919 4.003961 5.992041 15.640210 -0.280828 1.177627 -0.002851 -0.005233 -1423500.000000 1 0 0
4.386281 6.297361 12.685541 14.826300 0.962405 0.544067 -0.001698 0.002102 -1001120.000000 1 0 0
8.338681 10.057761 -7.239759 14.936742 0.878574 2.076810 0.014233 -0.004285 578097.000000 1 0 0
12.577881 5.260461 9.532941 16.635880 0.396123 0.960592 0.005310 0.003387 1368840.000000 1 0 0
7.560081 3.954661 0.262641 8.535992 0.481955 1.540023 -0.003904 0.005373 -1386510.000000 1 0 0
-10.802919 -7.487539 -0.936959 13.177412 0.606082 1.641960 0.003184 0.001264 -2568060.000000 1 0 0
10.519781 6.922861 0.151941 12.594240 0.582035 1.558732 -0.005696 0.004075 -1443060.000000 1 0 0
14.634681 3.526461 4.286941 15.652083 0.236458 1.293361 0.001917 0.005630 -133470.000000 1 0 0
2.227281 5.541661 8.214241 10.156011 1.188639 0.628678 -0.005257 0.001339 1040290.000000 1 0 0
4.327581 0.058661 11.548641 12.332985 0.013554 0.358561 -0.004653 -0.000948 -1668320.000000 1 0 0
-1.587419 -1.405939 -0.371559 2.152816 0.724845 1.744257 0.004230 -0.006062 -1278150.000000 1 0 0
2.931081 -5.307939 -9.595459 11.350695 -1.066260 2.578041 -0.001317 0.000122 -10843.400000 1 0 0
-3.969419 -5.181839 -1.331159 6.661811 0.917118 1.771970 0.004350 -0.005396 -506978.000000 1 0 0
-1.118319 -8.682139 8.508441 12.207528 1.442695 0.799615 -0.005948 -0.000263 -80373.700000 1 0 0
3.889081 8.482161 -6.013159 11.100905 1.140895 2.143233 0.003612 -0.001593 783803.000000 1 0 0
-14.244519 -1.706939 -2.552959 14.571807 0.119263 1.746904 -0.004894 -0.002934 -275835.000000 1 0 0
8.777781 -10.624339 -6.776059 15.357115 -0.880285 2.027768 0.002438 -0.006551 510916.000000 1 0 0
14.896381 6.165261 1.624141 16.203409 0.392411 1.470393 -0.008869 0.008479 -1972870.000000 1 0 0
-5.886019 0.425361 -8.499759 10.347562 -0.072141 2.534704 0.005798 -0.006436 -673796.000000 1 0 0
-8.239419 -4.639839 -12.954859 16.038843 0.512866 2.511067 -0.000246 0.002523 1110110.000000 1 0 0
1.009181 -10.600639 11.971141 16.021867 -1.475882 0.726995 -0.003463 -0.001831 -637719.000000 1 0 0
0.221281 11.733161 3.385041 12.213703 1.551939 1.289969 -0.003718 -0.001191 -56814.900000 1 0 0
5.173481 -13.144639 -3.661459 14.592900 -1.195836 1.824413 -0.001092 -0.005461 901003.000000 1 0 0
-7.545319 1.606561 -6.976159 10.400945 -0.209789 2.305980 0.002405 -0.003201 946133.000000 1 0 0
1.597781 2.682361 3.987241 5.064194 1.033572 0.664314 -0.000088 -0.002390 -1314760.000000 1 0 0
17.259281 5.521061 2.033641 18.234599 0.309603 1.459037 -0.007324 0.006270 -883479.000000 1 0 0
2.396481 -8.095439 -3.581759 9.171055 -1.282987 1.972026 -0.007389 -0.000786 294637.000000 1 0 0
-0.297819 -9.493039 -0.604559 9.516931 1.539434 1.634364 0.002214 -0.000743 -1108900.000000 1 0 0
0.776581 11.871461 -5.578959 13.139994 1.505474 2.009293 -0.002629 -0.000149 -1635090.000000 1 0 0
6.042981 -5.071139 7.760341 11.066028 -0.698178 0.793610 -0.003916 -0.000748 -1484310.000000 1 0 0
-6.129719 -1.953839 -9.394759 11.386502 0.308567 2.541138 0.006087 -0.002684 -703861.000000 1 0 0
2.174181 -1.299239 11.258041 11.539436 -0.538635 0.221293 -0.006642 -0.003648 -244210.000000 1 0 0
17.880781 2.178161 -6.012059 18.989775 0.121219 1.892933 -0.008306 0.012897 123972.000000 1 0 0
-8.778319 4.847661 7.869841 12.747278 -0.504555 0.905396 -0.000451 -0.007310 -653886.000000 1 0 0
11.510881 -7.081139 -4.803859 14.342942 -0.551499 1.912326 0.005258 -0.008316 225823.000000 1 0 0
10.925481 0.433861 8.891941 14.093296 0.039690 0.888040 0.001113 -0.001617 -439492.000000 1 0 0
-8.464019 -7.253339 -1.401259 11.234503 0.708522 1.695850 0.006536 -0.003914 -1424480.000000 1 0 0
10.196581 -10.572839 -3.311659 15.057300 -0.803512 1.792546 0.009955 -0.008451 1327090.000000 1 0 0
7.582381 -13.983439 -3.937159 16.386894 -1.073930 1.813433 0.010048 -0.005884 -1665960.000000 1 0 0
1.654281 -1.120139 -11.692359 11.861813 -0.595201 2.972360 0.004883 -0.005092 270054.000000 1 0 0
-11.871819 -2.602539 -6.241859 13.662873 0.215806 2.045245 0.000637 -0.001048 628762.000000 1 0 0
2.613581 -12.010139 -6.447459 13.879624 -1.356522 2.053897 -0.004400 -0.002510 299431.000000 1 0 0
-5.469419 1.459861 1.087441 5.764396 -0.260833 1.381011 0.006138 -0.007317 539432.000000 1 0 0
0.047981 6.826561 -4.009159 7.916918 1.563768 2.101806 -0.001006 -0.001341 1117340.000000 1 0 0
5.503181 -11.812739 3.547241 13.505877 -1.134825 1.305035 -0.004193 -0.004308 -3850310.000000 1 0 0
-4.364719 -9.137239 1.067741 10.182337 1.125160 1.465741 0.006043 -0.001039 566985.000000 1 0 0
6.999081 -6.254939 -4.681559 10.489442 -0.729312 2.033436 0.004002 -0.004220 -1015070.000000 1 0 0
-7.047619 -5.922139 2.254941 9.477627 0.698838 1.330570 0.003536 -0.001738 145255.000000 1 0 0
-6.343219 -0.886739 7.150641 9.599708 0.138893 0.730440 0.006152 -0.003787 -1366840.000000 1 0 0
4.193181 -5.062339 3.130541 7.280820 -0.879031 1.126336 -0.002989 -0.002536 -260291.000000 1 0 0
-2.541119 10.681361 -8.833659 14.091923 -1.337236 2.248312 -0.008303 0.001159 -1906820.000000 1 0 0
-2.269319 -4.889139 2.770541 6.060477 1.136234 1.096009 0.003401 -0.001666 616946.000000 1 0 0
15.142681 5.141761 6.288841 17.183947 0.327339 1.196119 0.003370 -0.002275 756255.000000 1 0 0
6.708081 0.091361 0.003341 6.708704 0.013619 1.570298 -0.002053 -0.000945 4553620.000000 1 0 0
-9.652419 9.289961 0.466741 13.404865 -0.766266 1.535970 -0.000768 -0.003463 -1973810.000000 1 0 0
7.123781 10.403861 -2.542159 12.862782 0.970396 1.769743 0.002384 -0.001514 -626062.000000 1 0 0
1.598681 -4.285739 -5.452859 7.117374 -1.213760 2.443600 -0.002583 -0.001714 -879264.000000 1 0 0
0.802881 -8.154739 -7.892359 11.376894 -1.472657 2.337435 -0.001585 0.000286 -913144.000000 1 0 0
-10.500319 0.208661 -10.409359 14.786987 -0.019869 2.351746 -0.003490 -0.003879 -3712830.000000 1 0 0
5.811181 -2.515239 0.514241 6.353007 -0.408482 1.489763 0.002716 -0.002866 246279.000000 1 0 0
-3.397219 5.226561 -1.183759 6.345023 -0.994427 1.758461 0.002242 -0.008445 1218770.000000 1 0 0
-0.519519 4.583561 -5.125359 6.895523 -1.457934 2.408768 0.000711 -0.003755 -797184.000000 1 0 0
3.991481 -9.768239 10.026041 14.555821 -1.182883 0.810965 -0.010578 0.000158 -1261190.000000 1 0 0
7.260781 -13.495839 -0.713259 15.341621 -1.077212 1.617305 0.007100 -0.006017 439513.000000 1 0 0
12.961481 -0.119839 0.349541 12.966747 -0.009246 1.543836 -0.001990 0.003734 352440.000000 1 0 0
9.258581 2.319161 -0.671359 9.568205 0.245438 1.641020 -0.003078 0.004234 -1070430.000000 1 0 0
-0.719119 -5.665739 4.602941 7.335175 1.444547 0.892437 -0.000679 0.000906 215045.000000 1 0 0
11.478381 -3.743539 3.205741 12.491761 -0.315261 1.311264 0.002490 -0.001440 -2538800.000000 1 0 0
1.767181 -8.168139 11.770841 14.435863 -1.357730 0.617396 -0.010547 0.000371 304219.000000 1 0 0
9.382281 -6.106039 -5.898959 12.653404 -0.576941 2.055782 0.005751 -0.005403 -1281770.000000 1 0 0
3.303981 6.300161 -0.158759 7.115724 1.087798 1.593109 0.000128 0.000763 -1861020.000000 1 0 0
6.480981 -1.431439 11.357041 13.154259 -0.217378 0.528878 -0.006148 -0.001214 378013.000000 1 0 0
-4.855119 -7.524139 -3.803459 9.728882 0.997752 1.972455 0.006312 -0.002746 39597.800000 1 0 0
-3.282019 -8.362539 -5.630459 10.602159 1.196801 2.130656 0.005810 0.001193 -367696.000000 1 0 0
9.729981 5.339061 2.094741 11.294514 0.501862 1.384251 -0.002977 0.001393 -147668.000000 1 0 0
8.880381 -1.477639 0.198341 9.004661 -0.164883 1.548768 0.002008 -0.000762 896363.000000 1 0 0
-3.792119 9.682861 9.328541 13.969955 -1.197524 0.839604 -0.003665 0.002135 256071.000000 1 0 0
-14.437019 -3.583339 -6.021359 16.047573 0.243288 1.955430 -0.003892 -0.001576 234376.000000 1 0 0
10.503981 6.271861 -6.050559 13.648411 0.538280 2.030091 -0.002669 0.000635 -1004550.000000 1 0 0
-1.723619 4.518761 2.844641 5.610887 -1.206395 1.039112 -0.001465 -0.004361 289124.000000 1 0 0
6.975481 -3.683939 2.644641 8.320028 -0.485895 1.247320 0.000337 -0.003736 -1945520.000000 1 0 0
8.245781 -11.201839 -1.625559 14.004162 -0.936245 1.687135 0.006868 -0.005932 -2465300.000000 1 0 0
4.500781 0.492461 1.724141 4.844813 0.108983 1.206948 0.000518 -0.000736 -105277.000000 1 0 0
-10.671519 2.268461 3.905841 11.588047 -0.209454 1.227006 -0.003004 -0.005275 295574.000000 1 0 0
-0.806619 -3.036339 4.331741 5.351072 1.311139 0.627481 0.002265 -0.003332 278601.000000 1 0 0
8.529281 -8.701539 -8.559659 14.890708 -0.795395 2.183195 0.005349 -0.004068 -304471.000000 1 0 0
12.028581 -4.831139 0.886941 12.992819 -0.381918 1.502479 -0.000052 -0.002924 -142217.000000 1 0 0
2.970381 4.833261 3.434741 6.631819 1.019732 1.026381 -0.003425 -0.001888 -399972.000000 1 0 0
6.160281 7.423561 1.960141 9.843804 0.878130 1.370332 0.000746 -0.001554 -182735.000000 1 0 0
-1.823119 -1.340639 -10.354759 10.599156 0.634062 2.926431 0.007267 -0.004407 363972.000000 1 0 0
-0.904419 -8.625939 5.970741 10.529698 1.466329 0.967891 -0.005182 -0.000589 515661.000000 1 0 0
-4.207219 -0.172739 2.352741 4.823476 0.041035 1.061264 0.005098 -0.005891 -17241.400000 1 0 0
-8.398119 6.216861 -7.928559 13.116394 -0.637244 2.219905 -0.005890 -0.002007 -743459.000000 1 0 0
6.296981 11.289561 -9.521959 16.055337 1.062007 2.205664 0.008067 -0.003497 198445.000000 1 0 0
-11.158119 -5.651639 3.219641 12.915523 0.468838 1.318855 0.004808 -0.003959 933116.000000 1 0 0
1.508781 -6.286239 3.064941 7.154515 -1.335239 1.128083 -0.004182 -0.000917 507756.000000 1 0 0
10.137681 2.219561 7.212941 12.638258 0.215541 0.963411 -0.000937 0.001404 -1997650.000000 1 0 0
-4.169819 -2.615639 -10.674559 11.754793 0.560236 2.709527 0.005765 -0.003740 -3796660.000000 1 0 0
-8.231619 11.776661 5.975541 15.561375 -0.960757 1.176674 -0.002998 -0.002000 916753.000000 1 0 0
6.807881 6.014261 -2.982459 9.561048 0.723583 1.888029 0.000722 0.001764 -1412710.000000 1 0 0
3.807581 -9.870239 -2.468959 10.863473 -1.202622 1.800071 -0.005807 -0.004518 -1149500.000000 1 0 0
8.343881 -12.958939 -7.358059 17.079095 -0.998742 2.016200 0.008058 -0.007438 -87136.000000 1 0 0
-1.202219 9.465661 3.747441 10.251214 -1.444464 1.196561 -0.006888 0.000470 19188.300000 1 0 0
0.506081 -13.135839 4.661641 13.947662 -1.532289 1.230015 -0.000928 -0.003924 -1463450.000000 1 0 0
-11.106519 -6.984939 -5.002059 14.041536 0.561402 1.935030 0.003692 -0.003213 106859.000000 1 0 0
3.579081 10.241661 -3.392359 11.367037 1.234600 1.873852 0.005231 -0.003995 -713002.000000 1 0 0
11.520781 -8.126239 -7.366859 15.907066 -0.614311 2.052307 0.013725 -0.006828 257682.000000 1 0 0
11.644081 -4.787539 -6.077259 13.979922 -0.390087 2.020516 0.007530 -0.007358 66552.100000 1 0 0
1.221781 -10.242539 -2.751659 10.675860 -1.452072 1.831485 -0.007354 0.000831 -1308190.000000 1 0 0
2.339281 -11.940439 -3.933759 12.787524 -1.377334 1.883492 -0.003245 -0.000817 -1374570.000000 1 0 0
-7.587919 -5.559839 7.234041 11.866747 0.632352 0.915233 0.007666 -0.002866 -2552340.000000 1 0 0
-7.201819 -0.900939 9.592641 12.028992 0.124452 0.647722 0.008231 -0.003241 -207100.000000 1 0 0
16.051881 2.599561 -7.828659 18.047396 0.160554 2.019484 -0.010067 0.011104 -1045610.000000 1 0 0
-2.136619 6.321561 -5.512159 8.655124 -1.244861 2.261223 -0.002899 -0.001262 -1530780.000000 1 0 0
7.760281 0.976661 8.332441 11.428272 0.125196 0.753779 -0.001295 -0.003226 -1017110.000000 1 0 0
7.918681 8.259561 -3.859059 12.075520 0.806465 1.896079 0.001197 0.000993 453729.000000 1 0 0
8.117381 0.600461 3.847841 9.003239 0.073838 1.129199 -0.002157 -0.001214 632180.000000 1 0 0
-6.889919 5.941961 5.312041 10.535448 -0.711657 1.042333 0.001748 -0.006226 -46077.000000 1 0 0
-6.132919 -1.997639 -4.415359 7.816562 0.314887 2.171075 0.006785 -0.004316 -716320.000000 1 0 0
-15.084419 -2.092039 3.192141 15.559759 0.137810 1.364176 0.003807 -0.003717 -269094.000000 1 0 0
1.031081 1.290861 -10.564559 10.692958 0.896815 2.986467 0.004734 -0.004060 423355.000000 1 0 0
1.514081 -9.303039 9.438741 13.338996 -1.409460 0.784693 -0.008377 -0.002421 -996890.000000 1 0 0
-0.171219 -6.818339 -1.219559 6.928664 1.545690 1.747735 -0.001810 -0.000738 388223.000000 1 0 0
-0.402719 -10.259339 -8.383759 13.255324 1.531563 2.255550 0.004043 0.000037 -689095.000000 1 0 0
-4.327319 6.477061 3.786741 8.661260 -0.981803 1.118308 -0.002130 -0.000764 -421719.000000 1 0 0
10.720381 -1.152839 -8.686459 13.845944 -0.107125 2.248961 0.013818 -0.001874 817930.000000 1 0 0
3.200881 -1.025939 6.224541 7.074115 -0.310172 0.495136 -0.001362 -0.001549 822107.000000 1 0 0
2.074181 -12.351639 6.781841 14.242843 -1.404421 1.074516 -0.005177 -0.002775 319681.000000 1 0 0
2.961981 -4.958039 -1.397459 5.942085 -1.032284 1.808200 0.001403 -0.002305 -2326390.000000 1 0 0
-0.959519 9.439161 -1.665759 9.632922 -1.469491 1.744593 -0.004351 -0.003041 -80293.100000 1 0 0
4.551581 -2.529039 2.573841 5.808407 -0.507163 1.111716 0.002190 -0.002385 -1332490.000000 1 0 0
17.639581 6.560361 -2.841759 19.033359 0.356060 1.720661 -0.016528 0.018924 592876.000000 1 0 0
-7.187919 3.555161 -5.402859 9.669345 -0.459320 2.163688 0.000863 -0.004611 903742.000000 1 0 0
-13.799219 -5.872039 2.524441 15.207632 0.402323 1.404026 0.002425 -0.004879 458069.000000 1 0 0
6.745781 -6.108539 3.242141 9.660812 -0.735865 1.228557 -0.001215 -0.004543 395463.000000 1 0 0
-4.547519 2.100961 3.496041 6.108704 -0.432790 0.961483 0.004887 -0.005774 775456.000000 1 0 0
6.792381 -12.002239 -5.463059 14.833583 -1.055808 1.947965 0.003966 -0.006348 449668.000000 1 0 0
2.967981 -12.304739 3.387141 13.102986 -1.334111 1.309326 -0.003455 -0.005509 -565512.000000 1 0 0
3.294881 11.222161 -6.099959 13.191006 1.285217 2.051534 0.001370 -0.000827 -333094.000000 1 0 0
-5.583019 -8.319639 6.512041 11.949610 0.979755 0.994457 0.007194 -0.001769 -732587.000000 1 0 0
-3.861619 6.551761 6.383341 9.928984 -1.038206 0.872518 -0.000179 -0.000607 214947.000000 1 0 0
4.143681 4.313561 -7.154659 9.325559 0.805482 2.445276 0.000700 0.001516 -2554940.000000 1 0 0
-0.306819 -2.646839 1.601541 3.108831 1.455392 1.029603 0.000526 -0.002505 287014.000000 1 0 0
-13.324319 -0.848239 6.702941 14.939424 0.063575 1.105515 -0.003493 -0.002429 -384779.000000 1 0 0
-0.507419 -9.200939 -5.877659 10.929850 1.515704 2.138577 -0.001242 0.000951 1095.750000 1 0 0
1.961481 -1.686439 -3.958759 4.728980 -0.710144 2.562807 0.004368 -0.000958 -671435.000000 1 0 0
11.401881 -2.026439 1.036241 11.626829 -0.175892 1.481553 -0.002265 0.000633 696804.000000 1 0 0
0.550281 -4.297739 -1.930659 4.743502 -1.443450 1.989976 -0.000205 -0.002374 -2162700.000000 1 0 0
1.069081 -7.399939 -11.357059 13.597235 -1.427317 2.559379 -0.001613 -0.000115 -342304.000000 1 0 0
-4.546019 4.208561 -9.997259 11.761099 -0.746871 2.586834 -0.004482 -0.001354 37261.100000 1 0 0
-1.052319 5.782261 -2.064059 6.229146 -1.390776 1.908536 0.001361 -0.004863 -2079140.000000 1 0 0
-11.425819 1.819561 -3.863559 12.197837 -0.157924 1.893088 -0.000541 -0.000920 -148582.000000 1 0 0
-1.727119 -11.264639 4.168741 12.134803 1.418659 1.220117 0.004699 -0.003002 -128760.000000 1 0 0
-3.606719 -5.611139 -9.724359 11.792220 0.999515 2.540365 0.005360 -0.003113 -2562650.000000 1 0 0
-12.925319 -3.770039 -8.216159 15.772835 0.283805 2.118708 0.000026 -0.001387 5280.220000 1 0 0
11.296381 4.479461 0.431441 12.159767 0.377520 1.535308 -0.004326 0.005158 394694.000000 1 0 0
-9.019219 -2.255939 -2.989659 9.765942 0.245097 1.881923 0.001839 -0.003916 -577466.000000 1 0 0
-2.558319 -5.974039 -6.420959 9.135800 1.166185 2.350171 0.002369 -0.002055 -979579.000000 1 0 0
-0.034919 2.760561 -1.852359 3.324628 -1.558148 2.161761 0.001689 -0.005015 -540462.000000 1 0 0
7.960381 5.963861 -5.203159 11.225336 0.642984 2.052759 0.001389 0.001449 -128547.000000 1 0 0
-9.780219 -0.821739 -0.853559 9.851726 0.083824 1.657546 0.002663 -0.004143 -1037250.000000 1 0 0
6.149481 0.579261 -8.991659 10.908785 0.093920 2.539688 0.002640 0.002361 325841.000000 1 0 0
-4.145019 2.541261 7.993141 9.355720 -0.549987 0.546481 0.001906 -0.001730 -2632860.000000 1 0 0
-10.169219 -3.243839 1.547841 10.785700 0.308783 1.426790 0.001973 -0.005579 1168900.000000 1 0 0
-1.848519 -8.147239 -7.815759 11.440306 1.347685 2.322901 0.002432 -0.003007 60831.800000 1 0 0
-9.353319 -9.700439 4.300041 14.144732 0.803614 1.261905 0.007780 -0.002287 -978427.000000 1 0 0
-1.012719 -10.726139 7.235541 12.978009 1.476659 0.979397 -0.004638 -0.002922 -67605.500000 1 0 0
9.517881 3.775061 -3.985459 10.987494 0.377596 1.941989 -0.001155 0.003245 -355067.000000 1 0 0
12.761881 -0.784939 2.976041 13.127778 -0.061429 1.342110 0.001069 0.001303 -54182.500000 1 0 0
6.499481 11.788961 -6.903359 15.128755 1.066941 2.044637 0.006309 -0.003985 -26102.500000 1 0 0
-11.990319 -0.025139 -6.375659 13.580037 0.002097 2.059507 -0.002779 -0.001037 391140.000000 1 0 0
-7.781319 -6.729639 -11.483459 15.417743 0.713050 2.411063 0.007811 0.001136 -1748230.000000 1 0 0
4.156981 6.009161 6.491841 9.774176 0.965613 0.844396 -0.003572 0.000550 -4390800.000000 1 0 0
-4.326219 -1.296239 -7.373659 8.646806 0.291112 2.592045 0.006553 -0.007358 -2902.790000 1 0 0
9.591481 9.315961 0.736541 13.391271 0.770827 1.515767 0.001450 0.001107 -1889690.000000 1 0 0
-8.922819 4.088961 4.998941 11.014795 -0.429701 1.099728 0.004111 -0.008476 532529.000000 1 0 0
-7.044119 7.929161 -12.223459 16.183453 -0.844438 2.426917 -0.011304 0.004432 -736462.000000 1 0 0
11.224181 -3.783939 7.173041 13.847489 -0.325158 1.026282 0.004322 -0.001285 1285200.000000 1 0 0
11.887281 6.961361 6.389941 15.185498 0.529775 1.136478 -0.003845 0.000874 -204030.000000 1 0 0
-9.995019 -0.603839 -14.672259 17.763451 0.060341 2.542735 -0.021440 0.003906 -247202.000000 1 0 0
1.905981 -13.040239 12.006941 17.828271 -1.425662 0.831893 0.000229 -0.002973 561560.000000 1 0 0
3.105581 3.005761 12.958641 13.660367 0.769066 0.321917 -0.007577 -0.000082 -184613.000000 1 0 0
-2.429219 -1.481039 11.110441 11.468936 0.547505 0.250687 0.005347 -0.002576 -565543.000000 1 0 0
2.510881 -10.027839 -8.368159 13.299931 -1.325450 2.251305 -0.006440 0.000010 -1182040.000000 1 0 0
13.790581 3.682861 -7.705759 16.221045 0.260966 2.065814 0.000833 0.004837 -2203040.000000 1 0 0
7.434781 -1.615039 4.878241 9.037785 -0.213904 1.000643 -0.001462 -0.001343 498332.000000 1 0 0
-1.209319 8.691161 10.224341 13.473525 -1.432540 0.709256 -0.001328 0.002619 -3327.340000 1 0 0
-12.274419 -4.531239 1.053441 13.126432 0.353642 1.490456 0.001459 -0.003340 56145.000000 1 0 0
-4.907119 4.916161 -5.296659 8.735162 -0.786319 2.222272 -0.002442 -0.004861 -431840.000000 1 0 0
-11.161819 0.390761 2.119941 11.368071 -0.034994 1.383216 -0.003824 -0.002476 -2442720.000000 1 0 0
-1.255219 2.178561 -4.033859 4.753285 -1.048084 2.584218 0.002677 -0.005706 667186.000000 1 0 0
3.293381 -9.846039 13.086341 16.704585 -1.248007 0.670682 -0.012058 0.000432 -1465120.000000 1 0 0
8.889981 4.568361 -1.635859 10.128066 0.474688 1.733024 -0.003562 0.002622 -2061850.000000 1 0 0
4.134681 2.303461 3.690341 6.001678 0.508283 0.908556 -0.003249 0.000089 -257966.000000 1 0 0
-5.321319 -3.224739 7.444841 9.702630 0.544822 0.696174 0.007343 -0.003201 161993.000000 1 0 0
1.827281 -5.736339 7.780341 9.837594 -1.262414 0.658553 -0.008826 0.000654 -1346840.000000 1 0 0
-5.982219 -6.291039 -9.622259 12.959629 0.810555 2.407561 0.006531 -0.001177 -536836.000000 1 0 0
-11.687219 -5.724339 5.611541 14.172104 0.455450 1.163687 0.009493 -0.006845 -437653.000000 1 0 0
10.621881 6.157761 4.358241 13.028302 0.525377 1.229699 -0.005296 0.003125 -1008200.000000 1 0 0
1.441681 -3.696639 0.317541 3.980505 -1.198942 1.490937 0.004641 -0.000980 -305604.000000 1 0 0
8.828681 4.328161 6.914741 12.020492 0.455808 0.957891 -0.003718 0.003834 -45181.400000 1 0 0
-7.829319 12.079061 3.550741 14.825981 -0.995707 1.328951 -0.007302 -0.001939 255828.000000 1 0 0
-6.125419 13.292461 -6.978959 16.214689 -1.138982 2.015743 -0.001980 -0.002955 674398.000000 1 0 0
4.392881 -7.067139 -0.996959 8.380679 -1.014651 1.690038 0.002111 -0.004128 -1272670.000000 1 0 0
-1.847319 -8.263439 11.012241 13.891237 1.350859 0.655493 -0.004240 -0.003272 -1051020.000000 1 0 0
11.421781 8.854561 -5.885159 15.604340 0.659457 1.957512 0.006350 0.001229 759124.000000 1 0 0
-3.308519 -2.804239 -1.890759 4.731281 0.703088 1.981909 0.005823 -0.004392 -563182.000000 1 0 0
-2.057719 6.089961 4.781041 8.011254 -1.244953 0.931301 -0.000186 0.000006 -1126880.000000 1 0 0
0.278381 -11.455339 -5.672959 12.786115 -1.546500 2.030498 -0.002906 -0.003061 -238559.000000 1 0 0
-8.938619 6.318761 -1.487559 11.047103 -0.615346 1.705863 0.001634 -0.005482 -325809.000000 1 0 0
2.897081 -0.024939 3.821441 4.795531 -0.008608 0.648691 0.000528 -0.001469 -352858.000000 1 0 0
-10.231719 4.036661 -0.976659 11.042489 -0.375777 1.659358 0.002269 -0.004852 98826.400000 1 0 0
6.505881 5.252961 13.571341 15.940558 0.679247 0.552201 0.000191 0.003134 -627984.000000 1 0 0
-8.806819 -1.452139 5.732241 10.607891 0.163418 0.999913 0.003712 -0.006604 -55580.100000 1 0 0
12.901581 -1.826939 -1.642559 13.133412 -0.140671 1.696192 0.002311 0.001429 -1562180.000000 1 0 0
5.304281 -5.496339 5.359241 9.330949 -0.803178 0.958985 -0.005314 -0.002563 44914.300000 1 0 0
-8.977519 -1.170239 3.268241 9.625316 0.129621 1.224362 0.002569 -0.006409 569378.000000 1 0 0
2.020281 5.350561 5.595741 8.001397 1.209763 0.796315 -0.001531 -0.000514 -891956.000000 1 0 0
9.140181 3.072161 -7.510859 12.222687 0.324253 2.232550 0.001977 0.001105 -288693.000000 1 0 0
2.331681 -2.430639 -1.537759 3.702627 -0.806174 1.999086 0.000217 -0.000836 -389621.000000 1 0 0
-6.314119 0.509961 -3.820359 7.397520 -0.080590 2.113482 0.002350 -0.004421 -2329230.000000 1 0 0
-3.966419 4.201261 5.054141 7.676420 -0.814143 0.852108 0.001182 -0.002331 687188.000000 1 0 0
-6.466719 1.834861 -12.188559 13.919272 -0.276473 2.637598 -0.003654 -0.001089 -1960250.000000 1 0 0
-0.044719 3.070561 6.162941 6.885651 -1.556234 0.462273 0.000220 -0.002472 1504350.000000 1 0 0
-8.685519 9.430161 -2.022159 12.979033 -0.826480 1.727236 -0.005048 -0.001676 1407300.000000 1 0 0
-1.243119 -3.688939 -6.217659 7.335727 1.245762 2.582216 -0.005844 -0.002424 84045.100000 1 0 0
-3.213719 7.177261 -3.001559 8.417269 -1.149803 1.935417 -0.002715 -0.003192 780940.000000 1 0 0
6.941681 -0.501739 -4.431159 8.250688 -0.072154 2.137751 0.003183 0.001117 -28388.700000 1 0 0
-5.146619 -10.844739 6.883641 13.837650 1.127697 1.050131 0.004837 -0.003485 585794.000000 1 0 0
9.791081 8.424161 -1.604159 13.015571 0.710496 1.694360 -0.001699 0.003768 -63359.300000 1 0 0
13.590181 4.674361 -4.424559 15.037267 0.331276 1.869456 -0.002776 0.003039 785330.000000 1 0 0
4.590281 1.091561 -6.852659 8.319923 0.233462 2.538604 0.001010 0.001429 1644860.000000 1 0 0
9.021681 -4.865039 3.446241 10.813691 -0.494561 1.246447 0.000732 -0.004525 -1930110.000000 1 0 0
-8.755219 -3.182739 -0.635759 9.337445 0.348672 1.638936 0.002256 -0.003120 138314.000000 1 0 0
-8.717019 -4.375039 -10.430559 14.280194 0.465163 2.389735 0.004059 0.000003 35625.800000 1 0 0
10.543181 -1.245339 10.643041 15.032760 -0.117573 0.784149 0.001344 -0.002214 1215770.000000 1 0 0
2.153981 -11.700039 9.792941 15.408837 -1.388735 0.882088 -0.005709 -0.006076 233470.000000 1 0 0
-6.333919 -10.544439 2.061341 12.472083 1.029871 1.404758 0.008675 0.001050 -931521.000000 1 0 0
-3.688519 -1.116139 6.844941 7.855200 0.293839 0.512768 0.006996 0.000122 -683667.000000 1 0 0
4.796181 -7.565639 3.788341 9.725933 -1.005792 1.170698 -0.004997 -0.001805 217200.000000 1 0 0
11.453781 -9.462839 -5.340459 15.787809 -0.690499 1.915869 0.010490 -0.006755 373416.000000 1 0 0
11.364181 1.104861 11.337141 16.090249 0.096919 0.788941 0.001726 -0.001126 182140.000000 1 0 0
-10.198019 -3.351039 4.466041 11.626460 0.317482 1.176534 0.008477 -0.006542 839222.000000 1 0 0
2.186581 8.725561 8.909341 12.660684 1.325258 0.790203 -0.001763 0.003963 -124976.000000 1 0 0
6.623081 8.704761 4.130741 11.691924 0.920383 1.209701 0.000171 -0.000919 931107.000000 1 0 0
-4.294419 3.628161 0.457741 5.640489 -0.701500 1.489554 0.003776 -0.007926 -1017000.000000 1 0 0
4.957881 6.856461 4.217841 9.454196 0.944737 1.108355 -0.001676 -0.001277 -1495430.000000 1 0 0
-8.086319 13.216961 1.195241 15.540438 -1.021735 1.493809 -0.005312 -0.003503 135598.000000 1 0 0
8.707181 8.127761 -9.155259 15.023124 0.750994 2.226114 0.010236 -0.007618 -852522.000000 1 0 0
7.319381 1.891961 5.985141 9.642343 0.252950 0.901143 -0.002176 0.000903 -1508270.000000 1 0 0
11.455081 -6.252139 2.968841 13.383652 -0.499610 1.347110 0.000498 -0.001504 -285237.000000 1 0 0
11.379581 4.654961 -2.129259 12.477871 0.388294 1.742278 -0.003819 0.004237 1239750.000000 1 0 0
-3.956919 14.303761 -5.989859 16.004162 -1.300911 1.954404 -0.003657 0.000407 -2805820.000000 1 0 0
7.161181 -3.097339 6.802941 10.351620 -0.408221 0.853717 -0.001797 -0.002256 -1124310.000000 1 0 0
-7.964319 -0.398039 0.973541 8.033467 0.049936 1.449312 0.005292 -0.006258 56549.100000 1 0 0
-3.158019 1.055661 10.707241 11.213051 -0.322602 0.301504 0.002950 0.000275 -2164.250000 1 0 0
7.117681 -1.358939 -1.962859 7.507391 -0.188654 1.835328 0.001829 -0.000012 -1850000.000000 1 0 0
-7.727419 5.335761 2.997241 9.857322 -0.604320 1.261842 0.003593 -0.005534 773916.000000 1 0 0
9.533281 -2.279139 2.781041 10.188823 -0.234667 1.294338 -0.001754 -0.001538 -1402990.000000 1 0 0
0.254981 3.446461 1.660341 3.834037 1.496947 1.122919 -0.000705 -0.002735 -1794240.000000 1 0 0
-7.514219 -3.060339 4.112441 9.096226 0.386760 1.101673 0.003415 -0.005528 38282.300000 1 0 0
-2.309019 8.499861 -6.640759 11.030815 -1.305544 2.216823 -0.006870 0.000418 -666440.000000 1 0 0
4.623081 9.659261 7.164441 12.884232 1.124401 0.981155 -0.001525 0.005967 503952.000000 1 0 0
-11.816519 -3.028339 6.891241 14.010359 0.250881 1.056563 0.008618 -0.007161 -1997520.000000 1 0 0
-4.872319 2.360461 -5.571659 7.768825 -0.451141 2.370546 0.001662 -0.005553 -1391930.000000 1 0 0
-2.727119 2.824361 -1.777859 4.309869 -0.802913 1.996003 0.003381 -0.005415 1161190.000000 1 0 0
2.383781 5.232261 11.428041 12.792932 1.143301 0.466142 -0.001568 -0.001370 243484.000000 1 0 0
-0.571419 1.602161 4.511641 4.821654 -1.228205 0.360547 0.002073 -0.003789 -349178.000000 1 0 0
5.214381 1.513161 7.572141 9.317551 0.282433 0.622068 -0.001572 -0.000769 913317.000000 1 0 0
3.201181 -8.230739 1.939041 9.041709 -1.199869 1.354662 -0.003611 -0.002078 3075640.000000 1 0 0
4.988381 6.341461 -4.695859 9.335372 0.904261 2.097883 0.002671 0.000649 -2239060.000000 1 0 0
-3.987819 2.954361 -7.910959 9.338855 -0.637617 2.581304 0.003985 -0.007027 1334300.000000 1 0 0
-8.862319 -2.184839 -12.868759 15.777172 0.241711 2.524660 -0.003706 0.002266 -1879250.000000 1 0 0
-7.747619 8.207161 1.084941 11.338439 -0.814193 1.474963 -0.001825 -0.004018 -2137890.000000 1 0 0
7.293681 0.905161 -6.659959 9.918274 0.123471 2.307005 0.001293 0.002396 -377544.000000 1 0 0
9.042981 8.876361 5.411341 13.778531 0.776100 1.167190 -0.003898 0.000313 260534.000000 1 0 0
9.443581 -1.079639 -1.504359 9.623406 -0.113831 1.727763 0.003942 -0.001438 1132350.000000 1 0 0
5.463881 0.141461 4.133841 6.852930 0.025884 0.923261 -0.003224 0.000132 151797.000000 1 0 0
-4.323719 -7.286039 -7.807959 11.521507 1.035225 2.315407 0.008701 -0.004158 348115.000000 1 0 0
-2.290119 7.368161 -0.476559 7.730559 -1.269449 1.632482 -0.002100 -0.003514 222136.000000 1 0 0
13.334681 -3.297839 -7.532259 15.666026 -0.242448 2.072366 0.007289 -0.005382 878524.000000 1 0 0
-4.806519 -4.979639 1.682241 7.122455 0.803087 1.332355 0.005946 -0.004281 2734160.000000 1 0 0
-8.840119 1.345161 2.509241 9.287274 -0.151007 1.297216 0.001587 -0.006741 -2278080.000000 1 0 0
-0.966719 11.199361 10.126941 15.129943 -1.484691 0.837488 -0.000098 0.003769 783921.000000 1 0 0
-8.525919 0.399261 7.605641 11.432256 -0.046795 0.842929 0.006087 -0.005243 -724177.000000 1 0 0
-6.012419 12.946161 -2.062859 14.422470 -1.136018 1.714319 -0.010918 -0.001356 1082340.000000 1 0 0
-12.966519 -0.658339 3.411541 13.423958 0.050729 1.313840 0.000752 -0.004853 503831.000000 1 0 0
-6.606319 12.662261 8.658341 16.701592 -1.089914 1.025801 -0.001322 -0.005059 531044.000000 1 0 0
-7.998319 0.928761 -14.011659 16.160516 -0.115602 2.620007 -0.015747 0.002355 -2795.490000 1 0 0
7.400081 2.865261 3.698641 8.755048 0.369418 1.134641 -0.003339 0.002665 -346637.000000 1 0 0
-1.589819 0.685461 -2.033559 2.670719 -0.407074 2.436308 0.002483 -0.006374 656538.000000 1 0 0
-6.355619 9.769461 -10.386159 15.611168 -0.994028 2.298696 -0.012624 0.004225 -210407.000000 1 0 0
-9.967419 13.627161 5.306641 17.697723 -0.939281 1.266262 -0.011597 -0.001752 609221.000000 1 0 0
-5.680819 8.228961 2.460041 10.297539 -0.966580 1.329568 -0.006510 -0.002249 -1064070.000000 1 0 0
-2.508719 -10.725039 -1.162959 11.075766 1.341015 1.675991 0.004565 -0.000584 -96012.800000 1 0 0
-2.184719 -12.271339 8.782241 15.247509 1.394608 0.956995 -0.000656 -0.004993 392517.000000 1 0 0
-14.630619 -6.421339 -1.521559 16.050039 0.413583 1.665740 0.009966 0.000427 91890.100000 1 0 0
-2.711119 -9.253639 3.227141 10.168306 1.285794 1.247839 0.002850 -0.002276 -1241840.000000 1 0 0
4.767781 -2.733839 7.499241 9.297539 -0.520630 0.632447 -0.001719 -0.000285 -966502.000000 1 0 0
-15.073619 -1.220039 -0.117359 15.123368 0.080763 1.578556 -0.001195 -0.004036 91277.700000 1 0 0
5.494181 8.719961 -2.824559 10.686528 1.008560 1.838285 0.002367 -0.000711 -1613120.000000 1 0 0
-5.476519 -5.723239 8.489941 11.611495 0.807424 0.750765 0.008170 -0.002924 -3270770.000000 1 0 0
3.539981 3.538961 6.978341 8.587954 0.785254 0.622243 -0.002932 -0.000957 262033.000000 1 0 0
3.397581 2.314761 9.376341 10.238040 0.598063 0.413217 -0.003234 -0.001941 684128.000000 1 0 0
9.978681 -3.396339 5.142641 11.728425 -0.328061 1.116893 0.004029 -0.002517 -422076.000000 1 0 0
6.492881 9.934561 -5.104359 12.919268 0.991919 1.976969 0.005226 -0.002790 1053750.000000 1 0 0
-4.559519 12.103861 -8.592159 15.527970 -1.210536 2.157158 -0.009336 0.002486 -857979.000000 1 0 0
-3.302219 -7.148539 2.025841 8.130824 1.138055 1.318988 0.004637 -0.000479 976573.000000 1 0 0
-7.472819 -3.984939 1.250441 8.560745 0.489899 1.424205 0.002153 -0.004742 1634930.000000 1 0 0
-2.098219 -3.975439 -10.951259 11.837935 1.085160 2.752092 0.008223 -0.003270 -591328.000000 1 0 0
-5.195119 8.258461 -4.428059 10.714436 -1.009278 1.996849 -0.005027 -0.001451 -1471720.000000 1 0 0
-11.059019 -3.210339 -10.070559 15.297854 0.282526 2.289353 -0.003165 0.002508 -557365.000000 1 0 0
4.624181 -11.451839 -7.830959 14.623665 -1.187024 2.135895 -0.001693 -0.003100 -1824480.000000 1 0 0
-9.395919 -3.795939 7.347641 12.517199 0.383949 0.943444 0.007173 -0.005255 -774988.000000 1 0 0
-5.719119 -9.561639 -5.158559 12.277784 1.031752 2.004411 0.008863 -0.004349 386091.000000 1 0 0
4.766181 4.446261 -9.666059 11.658405 0.750685 2.548304 0.002984 0.002426 38295.600000 1 0 0
-3.588719 -7.041039 -14.115959 16.177621 1.099430 2.631217 0.004965 0.001182 441342.000000 1 0 0
0.531581 -0.785539 -8.819459 8.870316 -0.975874 3.034458 0.003878 -0.005435 765699.000000 1 0 0
-7.761219 2.290461 -2.805159 8.564557 -0.286970 1.904486 0.004277 -0.005686 -439256.000000 1 0 0
-2.418319 7.581761 -12.617759 14.917748 -1.262032 2.578900 -0.009183 0.004076 -211155.000000 1 0 0
-9.773119 8.946061 7.599041 15.273876 -0.741245 1.050060 -0.004252 -0.006146 -466480.000000 1 0 0
-10.792119 -2.990139 -14.344959 18.198588 0.270287 2.478749 -0.012083 0.010668 -219516.000000 1 0 0
-3.109719 4.792761 7.940241 9.782042 -0.995239 0.623712 -0.000855 -0.001891 -281604.000000 1 0 0
8.704481 -2.331939 -3.650359 9.722708 -0.261754 1.955675 0.005274 -0.001996 -6263690.000000 1 0 0
1.917381 -8.424639 -1.137859 8.714678 -1.347016 1.701738 -0.003614 -0.000940 400288.000000 1 0 0
-13.670319 -2.758939 5.127741 14.858772 0.199145 1.218452 0.003772 -0.006316 241630.000000 1 0 0
7.024781 2.708361 -2.014859 7.793743 0.367982 1.832289 -0.002641 0.001668 853869.000000 1 0 0
-11.015419 4.479461 8.954541 14.885860 -0.386229 0.925360 -0.002011 -0.007031 -2217360.000000 1 0 0
-1.735919 -2.497739 8.003941 8.562429 0.963437 0.363172 0.002054 -0.002030 -1134660.000000 1 0 0
2.937981 11.991361 -9.889559 15.818592 1.330521 2.246166 0.002330 -0.006617 424251.000000 1 0 0
3.569481 -4.997439 -7.189559 9.455440 -0.950562 2.434667 -0.001973 -0.003360 598839.000000 1 0 0
8.403281 -13.785639 -9.739459 18.855133 -1.023371 2.113603 0.009236 0.000343 42220.000000 1 0 0
-6.291719 -5.708139 -0.410359 8.505114 0.736804 1.619064 0.006346 -0.002631 -572750.000000 1 0 0
-1.027019 -4.065839 9.891941 10.744129 1.323375 0.400969 -0.003822 0.000198 641939.000000 1 0 0
2.831281 3.315261 1.705741 4.681524 0.863976 1.197855 -0.001721 -0.001132 -1506460.000000 1 0 0
-8.995219 13.387961 7.740541 17.890429 -0.979187 1.123351 -0.009060 -0.006688 719954.000000 1 0 0
4.006381 -11.023139 -0.069359 11.728832 -1.222188 1.576710 -0.003797 -0.003993 -278397.000000 1 0 0
-12.529819 -1.387039 -9.000059 15.489393 0.110250 2.190810 -0.003779 -0.001915 -223081.000000 1 0 0
-4.376819 0.928861 -13.492459 14.214984 -0.209120 2.821390 0.000780 -0.001090 51605.300000 1 0 0
3.943981 -3.120539 4.880441 7.007957 -0.669362 0.800408 -0.000613 -0.000543 -240378.000000 1 0 0
1.795981 -1.185739 1.121641 2.426851 -0.583525 1.090345 0.001392 -0.002610 455463.000000 1 0 0
8.191681 -9.060339 7.254941 14.206603 -0.835707 1.034828 -0.000539 -0.001929 -1668320.000000 1 0 0
-0.238219 2.382061 -6.509159 6.935424 -1.471122 2.789166 0.001236 -0.004560 -1376550.000000 1 0 0
-3.831019 -9.710239 -3.359459 10.965920 1.195011 1.882157 0.006937 -0.000987 801463.000000 1 0 0
-9.526819 2.356961 -5.516259 11.258093 -0.242533 2.082865 0.001063 -0.002685 -1119190.000000 1 0 0
8.966281 -7.566539 5.224541 12.842996 -0.700935 1.151847 -0.001264 -0.001803 710345.000000 1 0 0
-5.493419 -4.205739 4.693441 8.360280 0.653408 0.974723 0.004921 -0.003440 34463.100000 1 0 0
-0.066519 -12.534039 10.453041 16.320926 1.565489 0.875688 -0.003192 -0.002786 -2049940.000000 1 0 0
-14.214919 -8.203039 3.241741 16.729096 0.523390 1.375784 -0.003272 -0.002662 -1226340.000000 1 0 0
10.878381 -1.267139 -3.743359 11.574003 -0.115960 1.900146 0.007066 -0.001931 -732524.000000 1 0 0
-13.702319 2.964261 2.823941 14.300875 -0.213050 1.372024 -0.005274 -0.001506 -988439.000000 1 0 0
-6.227919 6.076761 1.041141 8.763445 -0.773114 1.451710 -0.000462 -0.002945 769373.000000 1 0 0
7.140081 -6.930439 -0.616159 9.969523 -0.770500 1.632640 0.002650 -0.007337 443965.000000 1 0 0
-6.812019 7.733561 10.104041 14.432713 -0.848669 0.795288 -0.001051 -0.003343 360216.000000 1 0 0
-12.585519 -5.151739 -1.873559 13.727561 0.388531 1.707705 0.001610 -0.003268 -1992310.000000 1 0 0
-9.432019 -5.490539 0.303041 10.917913 0.527166 1.543036 0.003105 -0.002037 -988303.000000 1 0 0
-1.836419 1.968361 2.210941 3.483553 -0.820062 0.883202 0.003506 -0.005363 546753.000000 1 0 0
-6.973119 7.408661 7.600841 12.699820 -0.815673 0.929169 -0.001542 -0.004956 111122.000000 1 0 0
5.742181 7.088461 -0.504959 9.136406 0.889943 1.626093 0.002575 -0.000136 -799554.000000 1 0 0
0.039181 -4.050439 7.491641 8.516589 -1.561123 0.495665 -0.002806 -0.000146 -2141940.000000 1 0 0
6.522381 0.574261 13.033741 14.585940 0.087818 0.465533 -0.007960 -0.000348 549785.000000 1 0 0
5.648981 6.214861 -7.920959 11.544569 0.833060 2.326938 -0.000191 0.000532 -241992.000000 1 0 0
10.081881 5.290561 8.953641 14.484545 0.483258 0.904408 -0.002815 0.002429 -1654050.000000 1 0 0
-1.300719 -4.903339 -8.501459 9.899970 1.311496 2.603594 0.006922 -0.003313 1235330.000000 1 0 0
9.835281 -3.516239 -8.065859 13.196771 -0.343352 2.228371 0.012475 -0.007841 452892.000000 1 0 0
8.355581 -5.447339 1.154541 10.041026 -0.577738 1.455559 0.002629 -0.005129 951006.000000 1 0 0
15.608181 3.093661 -5.187859 16.736186 0.195672 1.885967 -0.003641 0.007518 247647.000000 1 0 0
-6.954019 3.600561 1.174341 7.918428 -0.477760 1.421942 0.004075 -0.006650 512032.000000 1 0 0
-1.750519 3.847861 0.313341 4.238931 -1.143848 1.496809 0.002377 -0.007116 -1636820.000000 1 0 0
-2.483019 9.935761 7.000541 12.405334 -1.325905 0.971191 -0.005181 0.005053 483893.000000 1 0 0
5.396481 -5.721939 -8.818359 11.816346 -0.814662 2.413259 -0.000499 -0.001638 804476.000000 1 0 0
-1.131119 -0.865639 6.274441 6.434079 0.653218 0.223224 0.002677 -0.004077 374289.000000 1 0 0
-5.661119 5.048361 -7.735059 10.833529 -0.728244 2.365980 -0.005578 -0.001166 -96053.100000 1 0 0
6.779281 -1.170839 2.424941 7.294509 -0.171021 1.231913 -0.001230 -0.000719 -1142160.000000 1 0 0
8.862581 7.568161 3.127941 12.066749 0.706780 1.308582 -0.002473 -0.000789 -56202.900000 1 0 0
-5.158519 -4.856439 -7.657559 10.432331 0.755244 2.395022 0.008727 -0.004048 1604560.000000 1 0 0
-2.390519 7.910361 -10.044559 13.006981 -1.277322 2.453161 -0.008304 0.002137 237801.000000 1 0 0
-2.888219 -2.325539 1.695941 4.077518 0.677892 1.141837 0.003966 -0.002624 -776685.000000 1 0 0
5.903181 -1.986539 -9.324259 11.213192 -0.324616 2.552677 0.002824 0.001263 1095090.000000 1 0 0
1.177281 -7.551239 5.225041 9.257875 -1.416136 0.971104 -0.007185 0.000469 504892.000000 1 0 0
1.742181 11.860761 1.250641 12.053089 1.424953 1.466848 0.000146 -0.004543 61829.900000 1 0 0
-1.067819 7.002361 2.497641 7.510760 -1.419468 1.231799 -0.001801 -0.000377 651312.000000 1 0 0
8.496281 7.827861 -6.687059 13.348369 0.744474 2.095509 0.009370 -0.002410 14488.800000 1 0 0
3.905281 -11.125339 5.526541 13.021791 -1.233208 1.132489 -0.003765 -0.000184 491466.000000 1 0 0
8.003781 -7.131739 12.254041 16.281393 -0.727846 0.718733 -0.007703 0.001013 155178.000000 1 0 0
-8.808919 0.192061 -3.794359 9.593284 -0.021800 1.977433 0.004394 -0.003745 -1837070.000000 1 0 0
-3.096419 -5.095439 11.261541 12.742591 1.024746 0.486934 0.001499 -0.003268 1034800.000000 1 0 0
-8.305819 0.131961 -11.586159 14.256336 -0.015886 2.519571 -0.003711 -0.002206 -2140340.000000 1 0 0
1.453281 -4.959939 5.380641 7.460853 -1.285770 0.765288 -0.002814 -0.000669 -689932.000000 1 0 0
6.542581 3.880761 -7.744659 10.855663 0.535371 2.365165 0.000540 0.001574 -413713.000000 1 0 0
16.288181 4.118261 -1.349959 16.854890 0.247647 1.650975 -0.011209 0.014018 -1331100.000000 1 0 0
7.947981 7.477561 0.081641 10.912882 0.754911 1.563315 -0.001263 0.000189 -3224210.000000 1 0 0
5.635581 -10.424739 13.816641 18.202597 -1.075201 0.708947 -0.010840 -0.001521 706023.000000 1 0 0
-4.852619 -9.356039 9.008241 13.864768 1.092331 0.863578 -0.000265 -0.003403 498301.000000 1 0 0
-12.567319 -3.075039 2.962041 13.272794 0.239970 1.345735 0.004578 -0.005264 -620974.000000 1 0 0
-2.194319 -1.319339 -5.831759 6.369074 0.541340 2.727886 0.003673 -0.006456 -1005710.000000 1 0 0
-2.484719 12.975561 -4.308259 13.896046 -1.381595 1.886026 -0.009139 0.003855 383820.000000 1 0 0
3.735281 -0.415139 -5.014159 6.266295 -0.110686 2.498390 0.005015 0.000323 98196.600000 1 0 0
-8.857219 3.901661 -7.404359 12.185968 -0.414931 2.223849 0.000599 -0.002056 243453.000000 1 0 0
-4.630519 8.073661 -11.434459 14.743560 -1.050065 2.458392 -0.011195 0.005000 -1689730.000000 1 0 0
-10.062719 -6.295939 7.491741 14.036500 0.559081 1.007788 0.007086 -0.004717 -1531060.000000 1 0 0
8.114981 5.297961 4.027141 10.494721 0.578384 1.176964 -0.003503 0.001597 -1467130.000000 1 0 0
-6.776219 -7.415639 4.108941 10.853213 0.830423 1.182522 0.007281 -0.002495 -499367.000000 1 0 0
-3.992519 11.769561 8.042541 14.803555 -1.243753 0.996452 -0.003813 0.001852 235970.000000 1 0 0
-7.191319 9.988461 -7.897359 14.623703 -0.946798 2.141279 -0.008953 -0.001459 -1377870.000000 1 0 0
13.156081 5.522261 4.654841 15.008177 0.397415 1.255442 -0.002613 0.003693 -205138.000000 1 0 0
5.373381 3.958461 -3.781459 7.670858 0.634921 2.086290 0.000373 0.002158 464529.000000 1 0 0
-2.826119 -4.103539 5.042041 7.088594 0.967693 0.779465 0.003053 -0.001845 -2539220.000000 1 0 0
12.311781 -2.456539 -5.370559 13.654942 -0.196941 1.975020 0.007369 -0.002792 -1480570.000000 1 0 0
-5.102319 9.706261 7.050741 13.036798 -1.086822 0.999368 -0.005604 0.001028 -1314820.000000 1 0 0
1.724681 3.836361 -0.538959 4.240598 1.148307 1.698236 -0.001420 -0.000926 426695.000000 1 0 0
0.043981 9.608361 7.778841 12.362561 1.566219 0.890240 -0.003024 0.004181 -507856.000000 1 0 0
-5.519919 2.159461 5.938341 8.390273 -0.372908 0.784467 0.004855 -0.004099 927879.000000 1 0 0
8.929181 0.809361 10.603441 13.885903 0.090395 0.701908 -0.002972 0.001775 -775139.000000 1 0 0
0.310781 -2.777539 -10.208559 10.584232 -1.459369 2.874364 0.005980 -0.003998 -999537.000000 1 0 0
1.244381 10.553861 -2.781159 10.984867 1.453431 1.826763 -0.000922 -0.001947 692122.000000 1 0 0
2.411381 -4.311939 11.720741 12.719409 -1.060892 0.398910 -0.008645 0.000231 61164.000000 1 0 0
6.613681 -3.093539 9.390041 11.894689 -0.437515 0.660914 -0.005246 -0.000332 255680.000000 1 0 0
-10.529619 -8.137439 5.769941 14.504586 0.657943 1.161677 0.004261 -0.004011 -988956.000000 1 0 0
-3.063519 0.875261 -6.782259 7.493348 -0.278291 2.702420 0.004061 -0.006853 640287.000000 1 0 0
10.910281 2.445261 -5.331559 12.387052 0.220481 2.015748 0.002402 0.002705 -3651940.000000 1 0 0
-1.966219 -4.032239 0.021541 4.486138 1.117098 1.565995 0.001985 -0.003368 1110430.000000 1 0 0
-1.244819 -6.345339 -10.548859 12.373008 1.377078 2.591680 0.006863 -0.000751 945997.000000 1 0 0
0.187081 6.813361 -6.563359 9.462271 1.543345 2.337319 -0.000996 0.000638 -3245710.000000 1 0 0
1.909981 3.817961 -6.168459 7.501649 1.106939 2.536203 -0.000859 -0.000972 -1767220.000000 1 0 0
1.635781 -14.747339 6.343441 16.136884 -1.460327 1.166794 0.003849 -0.006761 60818.900000 1 0 0
-1.840619 5.463261 -10.510759 11.987958 -1.245832 2.639914 -0.003333 0.000446 -100361.000000 1 0 0
13.630081 4.234661 -0.836659 14.297254 0.301230 1.629349 -0.004303 0.006858 -211881.000000 1 0 0
-2.518019 3.351361 -5.972459 7.296732 -0.926437 2.529611 -0.000941 -0.003522 -3024950.000000 1 0 0
5.931381 7.671761 14.192341 17.188943 0.912646 0.599413 0.002665 0.000513 145233.000000 1 0 0
15.878581 0.564261 -6.057159 17.004026 0.035521 1.935015 0.003754 0.005533 235706.000000 1 0 0
6.173181 -8.360739 10.532341 14.796633 -0.934791 0.778729 -0.013597 0.002564 2077390.000000 1 0 0
-0.030819 -5.919939 -6.387759 8.709196 1.565590 2.394180 -0.002357 -0.001486 -983359.000000 1 0 0
8.464281 5.549961 -7.644959 12.684302 0.580366 2.217690 0.003199 0.002603 -660124.000000 1 0 0
-16.046419 -0.580939 5.302941 16.909945 0.036188 1.251815 0.001644 -0.003256 -40112.000000 1 0 0
-0.590319 4.077961 -12.263759 12.937466 -1.427037 2.817455 0.002821 -0.000593 738249.000000 1 0 0
-11.330319 3.685561 5.958941 13.321729 -0.314488 1.107041 -0.001353 -0.005873 -606807.000000 1 0 0
5.154581 -9.596839 -9.697859 14.584838 -1.077901 2.298193 -0.001566 -0.001113 -22070.200000 1 0 0
1.369881 11.361161 -11.715759 16.377166 1.450800 2.367952 -0.002241 0.001844 -2183340.000000 1 0 0
6.005281 2.303661 1.155741 6.534982 0.366294 1.393007 -0.000073 0.000979 -469252.000000 1 0 0
5.766681 4.494461 4.883241 8.792090 0.662043 0.981937 -0.003843 0.000556 -323561.000000 1 0 0
0.315781 -1.548039 -6.385159 6.577719 -1.369569 2.899029 0.001498 -0.003105 -1632770.000000 1 0 0
12.565581 6.940361 -4.723359 15.112000 0.504631 1.888680 -0.002668 0.004367 22714.700000 1 0 0
7.499881 3.040261 12.594741 14.970602 0.385131 0.571116 -0.007702 0.002255 -768250.000000 1 0 0
-2.345619 -0.274939 8.753541 9.066532 0.116681 0.263522 0.001844 -0.004037 849979.000000 1 0 0
2.566381 -15.126439 13.161141 20.214131 -1.402735 0.861782 0.004525 -0.004414 277918.000000 1 0 0
18.837881 4.549361 -1.680159 19.452131 0.236963 1.657278 -0.006026 0.017652 756526.000000 1 0 0
-0.283819 -13.210039 7.172241 15.034185 1.549315 1.073487 -0.006620 -0.004734 -1237830.000000 1 0 0
4.304381 1.528661 -0.635459 4.611758 0.341247 1.709027 0.000176 -0.000509 974871.000000 1 0 0
2.653481 -0.530539 -7.469959 7.944981 -0.197339 2.794046 -0.000412 0.000107 352548.000000 1 0 0
7.223281 -11.338139 0.893441 13.473211 -1.003559 1.504435 -0.002226 -0.003738 468829.000000 1 0 0
-11.837219 -7.235239 1.410141 13.944781 0.548634 1.469500 0.000790 -0.000565 45148.900000 1 0 0
0.234581 -7.100039 10.004941 12.270470 -1.537769 0.617433 -0.008657 -0.000644 -2157120.000000 1 0 0
-4.431619 -7.197639 10.630841 13.581607 1.018909 0.671743 0.010386 -0.003599 -1654620.000000 1 0 0
11.834981 0.742561 -1.807059 11.995151 0.062661 1.722021 -0.002363 0.003730 1013370.000000 1 0 0
6.437381 -9.696339 -7.536859 13.865897 -0.984713 2.145461 -0.002154 -0.005062 -1356150.000000 1 0 0
-10.990119 4.803161 3.592141 12.520246 -0.412027 1.279800 -0.003071 -0.006397 470052.000000 1 0 0
5.945381 -9.152639 1.916441 11.081115 -0.994716 1.396976 -0.003728 -0.003230 4166320.000000 1 0 0
11.665881 -1.499639 5.821141 13.123543 -0.127848 1.111224 0.001168 -0.001775 292512.000000 1 0 0
-6.429119 3.626561 4.203441 8.494377 -0.513592 1.053134 0.002441 -0.005960 -1201640.000000 1 0 0
9.469281 6.274361 -3.271859 11.821165 0.585183 1.851238 -0.002273 0.004490 470680.000000 1 0 0
-2.242519 6.541861 10.981141 12.977299 -1.240554 0.562019 -0.005900 -0.001166 250640.000000 1 0 0
1.819081 9.739261 2.849241 10.309240 1.386146 1.290774 -0.002897 -0.001368 226956.000000 1 0 0
2.780181 6.040761 -5.619059 8.705976 1.139462 2.272376 -0.000692 0.000199 -1310660.000000 1 0 0
11.904481 -0.015539 -5.901859 13.287169 -0.001305 2.031052 0.006288 0.001352 311403.000000 1 0 0
-2.622419 -12.521839 6.299241 14.260223 1.364352 1.113265 0.001036 -0.003950 -298104.000000 1 0 0
10.874081 1.784761 -2.851259 11.382473 0.162679 1.823988 -0.000750 0.002383 446721.000000 1 0 0
-8.854519 5.434961 0.794441 10.419810 -0.550510 1.494479 0.002195 -0.006119 -165069.000000 1 0 0
1.318081 -10.152239 5.546941 11.643618 -1.441687 1.074248 -0.007181 -0.002289 160778.000000 1 0 0
9.378181 -5.701139 -1.295359 11.051300 -0.546219 1.688280 0.000650 -0.005855 1331030.000000 1 0 0
-7.786719 8.675461 -4.373459 12.450854 -0.839333 1.929710 -0.006683 -0.003998 -1059510.000000 1 0 0
-7.517919 0.038061 -1.568859 7.679965 -0.005063 1.776524 0.003489 -0.005239 -2081810.000000 1 0 0
4.179181 8.781361 2.693341 10.091182 1.126602 1.300621 0.000891 -0.002981 1167540.000000 1 0 0
-1.390919 -10.386039 -3.706459 11.114958 1.437666 1.910774 0.000706 0.000907 -622530.000000 1 0 0
3.177481 7.833261 -3.687959 9.222657 1.185438 1.982183 0.002775 -0.002027 -403165.000000 1 0 0
-4.411719 1.657761 -10.986659 11.954836 -0.359440 2.736368 -0.000681 -0.004529 -627833.000000 1 0 0
1.340881 2.853161 10.945741 11.390687 1.131465 0.280425 -0.002054 -0.002511 264765.000000 1 0 0
1.955281 5.572761 -8.039359 9.975474 1.233352 2.508011 -0.001093 0.000523 23752.400000 1 0 0
15.575481 6.096161 3.987441 17.194723 0.373066 1.336767 -0.003969 0.003356 -142018.000000 1 0 0
-4.409319 8.923961 4.663441 10.992127 -1.111881 1.132660 -0.005308 0.000481 149108.000000 1 0 0
-1.216719 -7.976439 -12.466959 14.850220 1.419424 2.567183 0.004217 -0.000486 -365637.000000 1 0 0
14.189381 -4.288139 -5.373659 15.767146 -0.293481 1.918579 0.004893 -0.002277 627605.000000 1 0 0
-6.081819 -6.154839 -5.609359 10.311909 0.791365 2.145956 0.007894 -0.002699 733705.000000 1 0 0
-8.985519 2.669561 -12.143759 15.340697 -0.288790 2.484226 -0.008104 -0.001009 243845.000000 1 0 0
10.448681 5.164761 13.855641 18.106035 0.459076 0.699367 0.000619 -0.000006 363259.000000 1 0 0
-0.314519 10.802261 5.603341 12.173134 -1.541689 1.092459 0.000343 0.005280 280449.000000 1 0 0
0.386281 11.189661 -0.563759 11.210511 1.536289 1.621106 -0.003132 -0.002012 6449.110000 1 0 0
-1.432519 -0.522039 3.674541 3.978302 0.349463 0.393310 0.003403 -0.003554 91818.500000 1 0 0
-4.692319 6.802261 8.905141 12.148669 -0.966937 0.748054 -0.002567 -0.001945 -1623190.000000 1 0 0
3.413081 -8.748439 -11.473559 14.826559 -1.198822 2.455696 -0.003204 0.001792 14953.400000 1 0 0
6.728781 -3.869239 12.028741 14.315660 -0.521855 0.573051 -0.005771 0.001467 -464619.000000 1 0 0
-2.594519 -1.935639 -12.524859 12.936395 0.640968 2.888680 0.006285 -0.003981 941097.000000 1 0 0
-16.107219 -4.844339 5.462241 17.684632 0.292150 1.256792 0.010525 -0.007503 775441.000000 1 0 0
-8.809319 7.317861 5.853241 12.861401 -0.693179 1.098310 -0.002951 -0.005319 -5121860.000000 1 0 0
-12.956119 1.573261 6.026141 14.375345 -0.120838 1.138233 0.002219 -0.007330 489765.000000 1 0 0
-3.402419 3.625261 10.210541 11.356678 -0.817097 0.453137 0.000319 -0.001279 595314.000000 1 0 0
2.040281 -12.145939 -1.186359 12.373117 -1.404370 1.666826 -0.002136 -0.001407 -3992610.000000 1 0 0
10.299981 -5.150939 -3.708159 12.098439 -0.463721 1.882309 0.007307 -0.003998 678316.000000 1 0 0
3.052681 -13.310839 0.969341 13.690760 -1.345357 1.499934 -0.003059 -0.002984 435972.000000 1 0 0
9.962081 -1.634639 -6.267159 11.882440 -0.162637 2.126369 0.010949 -0.001399 449374.000000 1 0 0
11.975381 -5.359239 -1.658659 13.224309 -0.420791 1.696553 0.003043 -0.003235 -1085230.000000 1 0 0
1.553581 0.939961 5.883141 6.156987 0.544109 0.299369 0.000383 -0.003421 -25301.300000 1 0 0
-10.791419 11.705461 6.634441 17.247851 -0.826006 1.175964 -0.014216 -0.004192 338641.000000 1 0 0
4.756081 -14.080139 3.052641 15.171989 -1.245043 1.368211 0.002591 -0.003991 -2160820.000000 1 0 0
5.221481 -3.444639 -1.790059 6.506436 -0.583168 1.849512 0.004662 -0.002726 -1857660.000000 1 0 0
1.898781 -2.912339 -7.767659 8.510206 -0.993032 2.720753 -0.000574 -0.000444 -28357.900000 1 0 0
-2.849719 14.933861 -8.746759 17.539866 -1.382241 2.092870 -0.002834 -0.000775 -654122.000000 1 0 0
-2.401919 6.213561 -8.070659 10.464850 -1.201929 2.451545 -0.002422 -0.001821 -730884.000000 1 0 0
2.523281 -3.574839 -11.463759 12.270460 -0.956158 2.776965 0.000817 -0.002745 -1003220.000000 1 0 0
14.581181 2.849861 -2.876859 15.133039 0.193015 1.762065 0.002249 0.007349 869198.000000 1 0 0
-3.394219 13.044961 2.341941 13.681243 -1.316247 1.398770 -0.008139 -0.000218 -1267470.000000 1 0 0
7.863181 -5.162539 13.976741 16.847276 -0.580963 0.592380 -0.007428 -0.000078 -2010480.000000 1 0 0
-11.244719 7.166861 2.971341 13.661496 -0.567433 1.351546 0.000969 -0.004155 1270370.000000 1 0 0
-2.202719 11.926561 4.285041 12.862986 -1.388164 1.231176 -0.005315 0.000450 -411482.000000 1 0 0
1.889081 1.487861 0.782941 2.528904 0.667141 1.256027 -0.003121 -0.001841 -1563830.000000 1 0 0
-6.851119 8.703961 5.393641 12.320233 -0.903954 1.117660 -0.005617 -0.003688 -880854.000000 1 0 0
-1.143519 9.102861 1.050741 9.234380 -1.445829 1.456764 -0.003650 -0.000027 228258.000000 1 0 0
4.915081 12.972661 -8.510659 16.275112 1.208628 2.121075 0.006501 -0.007802 -2187490.000000 1 0 0
8.980681 6.813361 7.013541 13.276456 0.649026 1.014236 -0.006996 0.002633 -1978820.000000 1 0 0
7.196181 -13.849239 2.822841 15.860482 -1.091585 1.391863 0.003356 -0.001942 -554038.000000 1 0 0
4.079681 -13.455439 -1.241459 14.115022 -1.276407 1.658863 -0.002986 0.000915 -2528680.000000 1 0 0
12.000681 -11.842239 -4.753959 17.517280 -0.778753 1.845630 0.007398 -0.006316 -1431320.000000 1 0 0
2.847981 -0.036239 -1.979659 3.468625 -0.012724 2.178195 0.002838 -0.003042 1146820.000000 1 0 0
-13.586919 -3.242239 -10.601459 17.535889 0.234249 2.220007 -0.008756 -0.004096 -109094.000000 1 0 0
-6.493519 13.652861 5.151441 15.971968 -1.126846 1.242395 -0.003125 -0.002426 549811.000000 1 0 0
7.290281 -4.274839 -0.670559 8.477741 -0.530341 1.649975 0.002757 -0.003490 -2403260.000000 1 0 0
11.656881 2.080061 -7.471059 14.000937 0.176582 2.133661 0.006052 0.002212 -127725.000000 1 0 0
-7.366019 -4.548439 9.676141 12.983614 0.553180 0.729875 0.012246 -0.003628 383107.000000 1 0 0
1.124681 2.780461 8.403741 8.922933 1.186421 0.342810 -0.000605 -0.003068 -1058310.000000 1 0 0
1.509781 8.036861 -8.763359 11.986118 1.385103 2.390767 -0.001118 -0.001069 -854567.000000 1 0 0
-8.608619 -1.911539 -5.555259 10.422245 0.218504 2.132961 0.007310 -0.002007 -962370.000000 1 0 0
6.776381 -0.524639 6.906741 9.690081 -0.077268 0.777365 -0.001276 -0.001392 -14617.300000 1 0 0
-10.793019 6.531761 7.185141 14.518244 -0.544222 1.053072 -0.002183 -0.006839 681375.000000 1 0 0
-5.799019 11.106661 4.958441 13.474891 -1.089609 1.193965 -0.007346 -0.000677 588158.000000 1 0 0
5.919881 -1.206839 -7.041859 9.278428 -0.201106 2.432495 0.002659 0.001487 -303643.000000 1 0 0
4.496881 -5.798039 11.354541 13.519053 -0.911120 0.573713 -0.011014 0.002208 -1637400.000000 1 0 0
-8.986219 -7.255439 2.755841 11.873845 0.679235 1.336567 0.005902 -0.002283 -3273660.000000 1 0 0
-1.257919 12.824861 -9.290359 15.886163 -1.473025 2.195440 0.002150 0.001663 618451.000000 1 0 0
-4.697719 9.323161 -2.281059 10.686118 -1.104053 1.785912 -0.008010 -0.001027 285272.000000 1 0 0
-3.138019 9.769361 -0.262759 10.264337 -1.259996 1.596398 -0.007113 -0.001736 -1368640.000000 1 0 0
-3.446719 10.813161 -6.464559 13.061196 -1.262226 2.088567 -0.007727 0.001461 257057.000000 1 0 0
4.914981 -4.957339 0.268341 6.986004 -0.789689 1.532376 0.000687 -0.002831 -1272390.000000 1 0 0
-2.358219 3.003861 -10.750359 11.408531 -0.905230 2.800258 0.001488 -0.000986 -2094070.000000 1 0 0
-3.595619 12.010561 -2.160059 12.721946 -1.279916 1.741413 -0.011110 0.002085 -765803.000000 1 0 0
-0.094819 0.434761 0.004041 0.444999 -1.356065 1.561715 -0.002525 -0.003771 -1886320.000000 1 0 0
-4.841219 -1.632839 0.154841 5.111510 0.325297 1.540499 0.005211 -0.005313 359634.000000 1 0 0
2.587281 2.474361 -2.532059 4.384952 0.763093 2.186389 -0.004249 -0.001383 1003290.000000 1 0 0
6.027081 -9.733839 8.365041 14.179113 -1.016387 0.939793 -0.008446 0.000525 -407697.000000 1 0 0
-4.063619 -5.454639 6.624741 9.494908 0.930513 0.798593 0.008903 -0.002972 -75157.800000 1 0 0
-6.343319 5.436661 -12.123059 14.722891 -0.708584 2.538201 -0.011142 0.000674 -786444.000000 1 0 0
-12.965419 3.214961 7.993741 15.567208 -0.243062 1.031539 -0.000041 -0.006221 814372.000000 1 0 0
4.650081 -7.466839 -5.098559 10.167214 -1.013806 2.096094 -0.003230 -0.003538 1884960.000000 1 0 0
-5.954919 2.501761 -1.038659 6.542070 -0.397727 1.730237 0.004044 -0.007032 -783733.000000 1 0 0
-7.004519 -2.782039 -14.524059 16.363108 0.378071 2.662926 -0.001201 0.001880 -291438.000000 1 0 0
2.736381 -6.103939 0.901941 6.749767 -1.149359 1.436770 -0.000823 -0.002253 29021.200000 1 0 0
4.949381 -7.962239 12.943841 15.982386 -1.014641 0.626846 -0.015564 0.002565 52295.200000 1 0 0
-10.025619 -1.535439 8.124941 12.995587 0.151971 0.895399 0.010077 -0.004790 -138988.000000 1 0 0
-4.335219 13.210761 0.014941 13.903904 -1.253711 1.569722 -0.011516 0.001304 681735.000000 1 0 0
6.811881 2.213461 -4.566659 8.494440 0.314179 2.138391 -0.000076 0.003584 -1449550.000000 1 0 0
5.070781 4.465361 -0.049159 6.756825 0.721996 1.578072 -0.001439 0.000062 -670547.000000 1 0 0
-5.692519 12.223761 1.961741 13.626208 -1.134969 1.426326 -0.011002 -0.001093 -1025230.000000 1 0 0
6.564581 -7.320639 6.513541 11.794562 -0.839795 0.985736 -0.004252 -0.000218 -1726500.000000 1 0 0
-0.262519 4.868061 7.785341 9.185776 -1.516922 0.559457 -0.004911 -0.001813 -1010250.000000 1 0 0
-5.848819 -3.307039 -1.488159 6.881846 0.514605 1.788762 0.005006 -0.005220 -175194.000000 1 0 0
2.251881 -6.603139 -5.377059 8.808245 -1.242133 2.227434 -0.003757 -0.002317 -987204.000000 1 0 0
-14.394819 -4.939739 -3.692559 15.660358 0.330569 1.808828 0.001158 -0.000963 -409474.000000 1 0 0
-12.389319 -5.134139 -6.223459 14.784656 0.392859 2.005278 0.000816 -0.003764 -965166.000000 1 0 0
-14.723319 -3.775839 -1.253859 15.251401 0.251043 1.653102 0.000677 -0.002262 572529.000000 1 0 0
12.019881 2.862161 8.595041 15.051387 0.233766 0.963016 0.003317 -0.000364 -1334550.000000 1 0 0
8.811081 -6.549039 7.647141 13.379231 -0.639182 0.962381 -0.000225 -0.002499 331498.000000 1 0 0
-8.842219 -1.726839 -9.765759 13.286717 0.192867 2.396465 -0.001340 -0.000460 -579329.000000 1 0 0
-8.916419 5.034861 -3.729659 10.897830 -0.514039 1.920095 0.001600 -0.007866 -273222.000000 1 0 0
-4.142519 -6.149239 4.112241 8.478451 0.977965 1.064407 0.003463 -0.001799 -968544.000000 1 0 0
-0.138519 -9.299939 3.604441 9.974971 1.555903 1.201083 -0.001468 -0.002999 711171.000000 1 0 0
7.860581 -10.393039 3.268841 13.434631 -0.923255 1.325015 -0.002958 -0.000724 343823.000000 1 0 0
0.083981 6.501661 9.662241 11.646354 1.557880 0.592340 -0.003949 -0.000837 738689.000000 1 0 0
-0.073019 3.624661 -9.723459 10.377338 -1.550654 2.784708 0.003853 -0.001582 -278992.000000 1 0 0
4.494881 -3.153639 10.928941 12.230746 -0.611804 0.465576 -0.006670 -0.000326 -1525980.000000 1 0 0
8.577181 -9.148239 1.160841 12.593882 -0.817604 1.478490 -0.001787 -0.004543 -491225.000000 1 0 0
-0.230319 -0.467739 11.266041 11.278099 1.113240 0.046245 0.003379 -0.002357 -1821530.000000 1 0 0
10.846081 5.890561 11.360741 16.775060 0.497534 0.826791 0.000281 0.001872 -265531.000000 1 0 0
-6.525519 -2.953039 -11.812659 13.814548 0.424962 2.596517 0.004027 -0.000801 869017.000000 1 0 0
-1.581419 2.739161 8.401841 8.977462 -1.047208 0.360043 0.000759 -0.001331 412570.000000 1 0 0
-1.613619 13.638761 -6.789859 15.320632 -1.453033 2.029944 -0.003310 0.002818 345765.000000 1 0 0
7.814281 3.005761 9.635441 12.764769 0.367204 0.715376 -0.004661 0.001928 383537.000000 1 0 0
6.340481 8.559961 -8.056359 13.355881 0.933265 2.218312 0.007515 -0.003508 -303498.000000 1 0 0
6.637981 -3.040039 -3.888159 8.271784 -0.429467 2.060145 0.004648 -0.001614 -2237530.000000 1 0 0
2.044781 8.053261 1.038541 8.373453 1.322144 1.446448 -0.001102 -0.000592 930927.000000 1 0 0
-17.566119 6.609561 6.586241 19.890536 -0.359882 1.233301 -0.000149 -0.000485 589204.000000 1 0 0
-14.670019 3.274761 -10.280559 18.210530 -0.219627 2.170671 0.003757 0.003933 -483465.000000 1 0 0
-18.296419 0.143361 -4.276359 18.790070 -0.007835 1.800394 -0.013629 0.004390 -383200.000000 1 0 0
-12.983819 8.022061 0.282641 15.264760 -0.553442 1.552279 0.002597 -0.001140 -1294600.000000 1 0 0
-12.547219 -4.385039 -12.726259 18.401601 0.336214 2.334477 -0.010809 0.009198 -1153950.000000 1 0 0
-17.395419 -0.859539 -8.584759 19.417453 0.049372 2.028752 -0.005842 -0.001893 -513736.000000 1 0 0
-16.719219 -2.139939 -1.920759 16.964697 0.127301 1.684261 -0.008974 -0.002692 340148.000000 1 0 0
-15.342419 4.112861 1.745841 15.979781 -0.261913 1.461325 -0.003151 0.002463 -563765.000000 1 0 0
-13.143919 6.021761 4.447641 15.126325 -0.429603 1.272353 -0.004683 -0.004602 -136163.000000 1 0 0
-9.829719 14.276061 2.857641 17.566884 -0.967799 1.407398 0.002776 -0.003660 122906.000000 1 0 0
-11.890619 2.450661 -6.455059 13.749921 -0.203254 2.059477 -0.000204 0.002123 161465.000000 1 0 0
-15.787019 10.702561 4.000041 19.487819 -0.595763 1.364068 -0.003851 -0.002566 217743.000000 1 0 0
-13.060319 1.125061 -8.515159 15.631558 -0.085931 2.146877 -0.003428 -0.002873 828992.000000 1 0 0
-12.183519 14.288661 3.918241 19.182194 -0.864754 1.365084 -0.003887 -0.006858 591393.000000 1 0 0
-10.274819 11.259361 -1.008959 15.276227 -0.831086 1.636892 0.002876 -0.006366 578517.000000 1 0 0
-16.783919 5.893961 9.063941 19.964813 -0.337714 1.099551 -0.013504 -0.002944 379860.000000 1 0 0
-11.790419 12.595561 -8.969459 19.445136 -0.818403 2.050222 0.012887 -0.009052 -993562.000000 1 0 0
-17.157119 -0.457539 3.037841 17.429990 0.026661 1.395613 -0.004577 -0.002381 735409.000000 1 0 0
-12.943419 14.977161 -0.542759 19.802576 -0.858110 1.598208 0.018119 -0.014318 -95670.200000 1 0 0
-16.788119 4.640861 -10.203959 20.186612 -0.269702 2.100736 0.017385 0.004253 361553.000000 1 0 0
-11.814919 7.599361 -8.921159 16.641204 -0.571580 2.136593 0.000160 0.001031 -305052.000000 1 0 0
-14.623119 13.733961 -2.071959 20.168052 -0.754053 1.673713 0.029944 -0.018859 693356.000000 1 0 0
-11.794319 10.528761 -5.414359 16.711554 -0.728766 1.900739 0.014363 -0.006909 551034.000000 1 0 0
-17.781419 2.941261 -0.778559 18.039846 -0.163928 1.613967 -0.001920 0.003668 -616008.000000 1 0 0
-9.284619 15.449561 0.697441 18.038279 -1.029669 1.532122 0.006840 -0.008471 104656.000000 1 0 0
-8.105819 13.240361 -3.577859 15.931495 -1.021451 1.797306 -0.002484 -0.005846 -775402.000000 1 0 0
-17.601019 11.520661 2.286941 21.160142 -0.579564 1.462507 0.019596 -0.000004 -342211.000000 1 0 0
-8.090119 15.751461 -7.179759 19.107786 -1.096320 1.956003 0.025325 -0.014651 301632.000000 1 0 0
-6.261519 15.350361 -5.257259 17.391923 -1.183492 1.877882 -0.001465 -0.002044 -203942.000000 1 0 0
-17.372119 5.520261 -0.181859 18.229012 -0.307675 1.580773 0.000014 0.007238 730206.000000 1 0 0
-5.449019 12.430361 -12.184259 18.239020 -1.157661 2.302358 -0.027539 0.003702 -917312.000000 1 0 0
-11.301919 3.711461 -11.287859 16.398904 -0.317297 2.329981 0.002804 -0.002808 443389.000000 1 0 0
-11.746119 11.092461 1.131041 16.195470 -0.756785 1.500903 0.004950 -0.007323 -61425.400000 1 0 0
-12.953719 0.098461 -10.919659 16.942475 -0.007601 2.271184 -0.007500 -0.006996 1170240.000000 1 0 0
-14.166019 -2.272039 -12.884359 19.283282 0.159032 2.302532 -0.010000 0.001818 73564.400000 1 0 0
-18.721919 -2.316039 -3.603859 19.205782 0.123082 1.759560 -0.018954 0.002645 15339.300000 1 0 0
-18.286719 4.804161 -5.140859 19.593685 -0.256908 1.836277 0.010583 0.004866 515484.000000 1 0 0
-8.103219 15.533761 -2.181359 17.655543 -1.089977 1.694664 0.006888 -0.006402 -580709.000000 1 0 0
-15.963219 9.227661 -5.141159 19.141724 -0.524129 1.842719 0.016577 0.000378 308889.000000 1 0 0
-18.290519 1.754261 2.302941 18.518209 -0.095618 1.446113 0.001218 0.000442 -450927.000000 1 0 0
-15.710119 -2.845939 -8.529359 18.101303 0.179210 2.061449 -0.008258 -0.007172 -826416.000000 1 0 0
-9.601919 10.561261 -6.971259 15.885072 -0.832941 2.025121 -0.001557 -0.006061 103944.000000 1 0 0
-13.799719 11.675961 -7.431459 19.544485 -0.702226 1.960845 0.018818 -0.024431 -269048.000000 1 0 0
-11.014419 6.556861 -3.732159 13.350613 -0.536955 1.854121 0.000124 -0.002460 -917465.000000 1 0 0
-13.224419 5.014861 -12.520759 18.889243 -0.362458 2.295417 0.005735 -0.001080 56390.300000 1 0 0
-17.560319 9.096161 2.868841 19.983373 -0.477940 1.426737 0.004219 0.001486 1014140.000000 1 0 0
-13.205819 8.642861 -6.576059 17.097873 -0.579514 1.965585 0.005653 -0.002961 -31566.900000 1 0 0
-15.849719 7.051761 -3.690659 17.735892 -0.418616 1.780418 0.017088 0.004213 -192342.000000 1 0 0
-14.964619 -0.587439 -9.306459 17.632217 0.039235 2.126816 -0.002542 -0.007362 -454237.000000 1 0 0
-9.868719 5.887861 -5.919459 12.926659 -0.537929 2.046458 -0.000001 -0.000764 585795.000000 1 0 0
-12.616419 12.359261 -0.917259 17.685212 -0.775102 1.622685 0.021413 -0.013122 265145.000000 1 0 0
-10.800119 3.375761 -13.818459 17.860239 -0.302946 2.455456 -0.007131 0.002028 512504.000000 1 0 0
-10.970819 6.198861 -11.782059 17.251135 -0.514311 2.322621 -0.006737 0.001198 -557634.000000 1 0 0
-5.665919 11.718961 -14.731759 19.658621 -1.120449 2.417920 -0.025211 -0.000577 -444710.000000 1 0 0
-15.323519 13.298761 3.451541 20.581069 -0.714775 1.402295 -0.016354 -0.004032 133136.000000 1 0 0
-15.195719 11.245661 -3.008859 19.142309 -0.637106 1.728635 0.036961 -0.006887 747086.000000 1 0 0
-18.161019 7.978661 -4.645659 20.373114 -0.413945 1.800849 0.017269 0.004547 596280.000000 1 0 0
-4.003119 16.306061 -10.645059 19.880389 -1.330059 2.135843 0.002723 0.002507 -23363.400000 1 0 0
-15.722519 4.490561 -4.321959 16.912778 -0.278206 1.829207 0.004377 0.005575 567998.000000 1 0 0
-18.647819 -1.795239 -6.117159 19.707452 0.095975 1.886408 -0.013425 -0.002449 313289.000000 1 0 0
-10.648819 8.583461 -5.570459 14.768316 -0.678418 1.957556 -0.000730 -0.002198 -761016.000000 1 0 0
-11.257519 13.505961 -6.466659 18.733937 -0.875947 1.923231 0.013249 -0.011962 272319.000000 1 0 0
-9.401019 10.580161 -4.292659 14.790060 -0.844342 1.865273 -0.006208 -0.004002 -1051360.000000 1 0 0
-11.040519 6.381361 -0.087959 12.752355 -0.524082 1.577694 -0.000602 -0.001462 -1675200.000000 1 0 0
-14.558519 9.468461 -1.299859 17.415277 -0.576637 1.645505 0.016059 -0.003645 833427.000000 1 0 0
-18.301619 3.750061 5.027441 19.346508 -0.202106 1.307916 -0.022663 0.005643 240974.000000 1 0 0
-14.618319 13.399561 0.513641 19.837019 -0.741926 1.544900 0.009490 -0.006942 348775.000000 1 0 0
-16.698519 2.297461 -8.918459 19.069813 -0.136726 2.057454 -0.011687 0.000773 584038.000000 1 0 0
-9.164119 8.463661 -8.707359 15.212913 -0.745683 2.180185 -0.004315 0.001084 -2079640.000000 1 0 0
-17.639319 4.688661 -2.610259 18.437531 -0.259800 1.712847 -0.003286 0.007260 834307.000000 1 0 0
-13.549019 5.875561 -4.250259 15.367590 -0.409176 1.851022 0.005116 0.004301 -1529110.000000 1 0 0
-11.931519 9.581661 3.221941 15.638103 -0.676601 1.363279 -0.002784 -0.003837 191846.000000 1 0 0
-17.409619 2.578661 -4.060259 18.061839 -0.147048 1.797532 -0.009162 0.004391 845678.000000 1 0 0
-11.368719 1.454161 -12.467959 16.935535 -0.127218 2.398236 -0.006331 -0.000865 66572.300000 1 0 0
-10.933019 11.985561 3.442041 16.584095 -0.831291 1.361726 -0.001732 -0.008693 107577.000000 1 0 0
-16.403119 13.367561 -3.857059 21.508856 -0.683785 1.751096 0.029878 -0.011295 916799.000000 1 0 0
-11.214819 4.107861 -4.543059 12.778344 -0.351112 1.934275 -0.003915 0.000898 -305803.000000 1 0 0
-11.228619 15.076761 -8.614959 20.678688 -0.930655 2.000510 0.018614 -0.011665 225896.000000 1 0 0
-15.372019 7.318661 -0.124359 17.025781 -0.444348 1.578101 0.005792 0.000516 -952548.000000 1 0 0
-12.803319 8.403961 -4.005859 15.830301 -0.580854 1.826628 0.006877 -0.003522 980995.000000 1 0 0
-19.254419 1.969361 -5.841259 20.217105 -0.101927 1.863902 -0.001701 0.003483 -330620.000000 1 0 0
-12.462419 10.082261 -8.833659 18.302934 -0.680213 2.074459 0.005625 -0.006182 510192.000000 1 0 0
-16.676019 11.085561 -0.918059 20.045501 -0.586682 1.616611 0.021474 -0.005324 753663.000000 1 0 0
-10.952719 6.369761 -14.409159 19.187490 -0.526757 2.420321 0.002057 -0.001174 157238.000000 1 0 0
-13.872219 12.851061 -4.463059 19.429542 -0.747204 1.802571 0.033463 -0.017254 445735.000000 1 0 0
-17.900719 7.998261 -0.062359 19.606423 -0.420200 1.573977 0.009838 0.002115 502198.000000 1 0 0
-12.749119 6.739061 -1.992759 14.557681 -0.486257 1.708115 0.000851 0.001959 565157.000000 1 0 0
-13.680419 8.525961 -10.509359 19.242985 -0.557321 2.148545 -0.003835 0.000848 -204841.000000 1 0 0
-15.048519 1.385461 -0.857759 15.136485 -0.091807 1.627495 -0.001784 0.003498 -351639.000000 1 0 0
-13.477619 2.844461 -2.425659 13.986457 -0.207998 1.745107 -0.001487 0.001458 162268.000000 1 0 0
-11.149819 9.257561 -10.829859 18.091621 -0.692938 2.212563 0.000325 -0.003843 -739007.000000 1 0 0
-15.326819 4.347861 -7.954659 17.807073 -0.276415 2.033885 -0.001222 0.002437 733211.000000 1 0 0
-18.337719 10.744261 4.707641 21.768623 -0.529995 1.352816 0.010641 -0.000266 234179.000000 1 0 0
-15.375919 6.257561 -6.080659 17.679094 -0.386502 1.921913 0.008633 0.004694 765359.000000 1 0 0
-7.815719 11.602361 -13.133859 19.188499 -0.977987 2.324666 -0.023874 0.020189 1240390.000000 1 0 0
-16.854219 9.277161 -2.652159 19.420720 -0.503178 1.707788 0.018078 -0.002908 782191.000000 1 0 0
-20.651319 -0.941039 -4.693759 21.198913 0.045536 1.794062 -0.015813 0.005226 1679740.000000 1 0 0
-15.381819 4.515661 4.233041 16.580416 -0.285549 1.312635 -0.003817 -0.003720 -371859.000000 1 0 0
-6.987019 12.666361 -9.361059 17.230338 -1.066710 2.145146 -0.010384 -0.001042 -1387830.000000 1 0 0
-16.955719 1.839861 6.111141 18.117051 -0.108087 1.226734 -0.010329 -0.002576 575175.000000 1 0 0
-10.321319 14.392361 -2.905459 17.947461 -0.948660 1.733399 0.021525 -0.013970 453184.000000 1 0 0
-10.120319 8.373261 -13.041259 18.509640 -0.691209 2.352607 -0.013170 0.005043 -160000.000000 1 0 0
-13.501119 11.558061 2.907541 18.008964 -0.708014 1.408637 -0.003560 -0.007904 -910374.000000 1 0 0
-16.834919 6.788761 2.007441 18.262847 -0.383309 1.460654 0.001101 0.002714 884783.000000 1 0 0
-9.371219 13.351161 -8.314359 18.308517 -0.958794 2.042186 0.010808 -0.008850 -251125.000000 1 0 0
-5.692919 9.994461 -12.944259 17.316247 -1.053024 2.415118 -0.012859 0.009818 -733821.000000 1 0 0
-16.040019 1.994061 3.349641 16.506925 -0.123683 1.366454 -0.001475 0.000438 -535677.000000 1 0 0
-18.661019 -4.821239 4.548841 19.803281 0.252830 1.339025 0.011914 -0.004477 283958.000000 1 0 0
-5.387619 14.592361 -9.092959 18.017917 -1.217113 2.099787 -0.001955 0.000536 36891.900000 1 0 0
-15.405919 -0.902239 -6.755859 16.846305 0.058498 1.983436 -0.006316 -0.002121 591236.000000 1 0 0
-9.011819 10.988061 -9.340659 17.005830 -0.883891 2.152277 -0.009668 -0.004364 367818.000000 1 0 0
-16.826219 1.154761 -6.136659 17.947526 -0.068521 1.919758 -0.004291 0.000032 246542.000000 1 0 0
-11.185119 8.739761 -1.404959 14.264088 -0.663280 1.669452 -0.000020 -0.004212 -1134400.000000 1 0 0
-10.623619 10.919361 -12.674459 19.817559 -0.799125 2.264718 -0.010664 -0.001560 -793331.000000 1 0 0
-13.955619 11.780161 -10.072559 20.856364 -0.701068 2.074816 0.009585 -0.007451 -145807.000000 1 0 0
-13.229619 5.817561 -7.529559 16.296045 -0.414287 2.051100 0.003538 0.004633 166169.000000 1 0 0
-8.840619 15.492361 -4.680359 18.441137 -1.052242 1.827403 0.015948 -0.009280 1045090.000000 1 0 0
-8.684719 6.151761 -12.986059 16.790063 -0.616303 2.455042 -0.009142 -0.000031 711621.000000 1 0 0
-16.387219 7.387761 4.362541 18.497344 -0.423539 1.332706 0.000928 -0.003124 -49776.600000 1 0 0
-12.671419 5.370061 -10.013259 17.019629 -0.400848 2.199796 0.000723 0.000751 166560.000000 1 0 0
-12.561019 9.329561 -13.102459 20.408193 -0.638838 2.267926 0.011658 0.000413 -863598.000000 1 0 0
-10.825119 5.243661 -8.310659 14.620062 -0.451088 2.175407 -0.002719 0.001611 -1603000.000000 1 0 0
-17.650119 -4.441639 -2.479859 18.368575 0.246530 1.706215 -0.014468 0.001740 213319.000000 1 0 0
-9.111819 13.030261 -10.867559 19.259200 -0.960553 2.170356 0.000880 -0.010211 69067.100000 1 0 0
-14.982819 6.349961 6.151041 17.396614 -0.400868 1.209404 -0.005968 -0.007488 -611387.000000 1 0 0
-16.292219 -3.107339 -4.323259 17.140085 0.188462 1.825781 -0.012822 -0.000019 491758.000000 1 0 0
-11.243819 -1.216939 -12.475259 16.838542 0.107812 2.405169 -0.013502 0.003805 645576.000000 1 0 0
-15.473119 6.937461 -8.511159 18.973286 -0.421486 2.035979 0.008959 0.007221 642457.000000 1 0 0
-14.787519 9.475161 1.254341 17.607463 -0.569848 1.499497 0.000574 -0.003145 -170630.000000 1 0 0
-19.226019 5.583561 8.298341 21.672066 -0.282642 1.177857 0.005786 -0.010260 -55504.700000 1 0 0
-16.284319 0.780061 1.000841 16.333684 -0.047866 1.509483 -0.005279 -0.001606 -1406950.000000 1 0 0
-17.214719 4.086361 7.304841 19.141724 -0.233062 1.179249 -0.015659 0.000017 946150.000000 1 0 0
-15.520719 3.995461 -1.349459 16.083453 -0.251957 1.654799 0.000451 0.001410 -1205530.000000 1 0 0
-10.649019 13.355761 0.476341 17.088150 -0.897682 1.542917 0.008476 -0.012196 -674038.000000 1 0 0
-13.547519 3.400061 0.101441 13.968034 -0.245894 1.563534 0.000180 0.001005 -28707.400000 1 0 0
-15.235119 0.070061 -4.268659 15.821985 -0.004599 1.843974 -0.000556 0.000588 -778774.000000 1 0 0
-18.897719 6.895761 3.554741 20.428203 -0.349886 1.395895 0.006454 0.000999 79963.500000 1 0 0
-14.205719 1.409061 -6.229459 15.575431 -0.098866 1.982263 -0.004718 0.001017 55611.800000 1 0 0
-14.123619 12.052861 5.385041 19.332531 -0.706455 1.288514 -0.010331 -0.007670 153268.000000 1 0 0
17.728181 5.785161 6.105041 19.622131 0.315430 1.254414 0.015532 0.000172 -105553.000000 1 0 0
18.242081 7.569761 -0.507859 19.756840 0.393337 1.596505 -0.021565 0.022224 129858.000000 1 0 0
16.741581 5.108961 8.389941 19.410645 0.296189 1.123828 0.022104 -0.004312 332824.000000 1 0 0
11.725681 12.145761 11.122841 20.217040 0.802994 0.988227 0.004085 -0.007776 601522.000000 1 0 0
-2.235119 16.225361 -0.476759 16.385524 -1.433903 1.599897 -0.013121 -0.003148 -195701.000000 1 0 0
14.972281 12.607361 3.553341 19.893240 0.699859 1.391212 0.003075 0.001583 318581.000000 1 0 0
13.668281 11.781161 6.813241 19.288285 0.711382 1.209773 0.008534 -0.004554 852683.000000 1 0 0
-0.638619 15.942661 8.701541 18.173968 -1.530761 1.071519 0.001477 0.012156 -204144.000000 1 0 0
0.875581 12.858461 9.402241 15.953332 1.502808 0.940531 0.002029 0.005626 -651184.000000 1 0 0
0.732481 15.397661 -3.924259 15.906738 1.523261 1.820074 -0.008750 0.002983 297740.000000 1 0 0
5.581081 10.190661 13.577641 17.870377 1.069747 0.707814 0.004852 -0.005266 -95015.600000 1 0 0
-1.343619 16.435861 -2.744659 16.717535 -1.489228 1.735721 -0.010471 0.000398 -383485.000000 1 0 0
8.633281 10.075861 3.297641 13.672270 0.862352 1.327202 0.000789 -0.006754 617949.000000 1 0 0
12.553981 13.616661 -5.005159 19.185086 0.825982 1.834738 0.017383 -0.006159 -535292.000000 1 0 0
2.637081 11.517361 7.817841 14.167655 1.345710 0.986264 0.007655 0.001125 619923.000000 1 0 0
-0.347619 15.053061 -8.760659 17.420236 -1.547708 2.097748 0.000203 0.007079 -382851.000000 1 0 0
2.445081 15.947961 0.180641 16.135319 1.418665 1.559601 -0.002303 -0.004500 -611856.000000 1 0 0
1.967281 13.332661 5.256241 14.465757 1.424300 1.198927 0.000807 0.003955 616046.000000 1 0 0
17.279681 9.069961 -2.370359 19.658845 0.483362 1.691665 -0.034203 0.021057 189769.000000 1 0 0
-7.038119 14.946461 7.350941 18.082261 -1.130708 1.152146 0.001227 -0.005876 -1369410.000000 1 0 0
8.632981 15.910961 0.006541 18.102129 1.073667 1.570435 0.002723 -0.000244 -238785.000000 1 0 0
15.666381 10.469361 2.225041 18.973503 0.589111 1.453255 -0.001966 0.008754 306797.000000 1 0 0
14.152881 7.391461 8.787441 18.225171 0.481295 1.067678 0.009684 -0.003559 -1385780.000000 1 0 0
4.160381 18.289261 -1.791459 18.841846 1.347126 1.666019 0.005187 -0.010740 -619160.000000 1 0 0
-0.479119 17.539461 -4.728859 18.172076 -1.543486 1.834053 -0.001571 -0.000967 359077.000000 1 0 0
1.335781 13.693361 -0.703259 13.776321 1.473554 1.621867 -0.002096 -0.005685 424949.000000 1 0 0
10.264581 14.609761 4.233741 18.350240 0.958338 1.337980 0.004301 -0.008708 -29259.300000 1 0 0
-1.837019 15.367061 -5.027859 16.272694 -1.451818 1.884912 -0.007159 0.001267 360644.000000 1 0 0
15.094681 8.795061 -6.387659 18.601201 0.527572 1.921331 0.005823 0.006049 545584.000000 1 0 0
-2.230519 18.388161 0.994841 18.549647 -1.450084 1.517139 -0.013723 -0.005192 -740353.000000 1 0 0
-3.536319 19.499561 3.764341 20.171978 -1.391392 1.383083 -0.015615 -0.000624 -38070.600000 1 0 0
1.740281 17.566261 -2.676259 17.853976 1.472049 1.721260 -0.009094 -0.003401 -25097.800000 1 0 0
2.942381 11.999361 3.279141 12.782607 1.330330 1.311364 0.001191 -0.001403 152375.000000 1 0 0
-2.518219 16.058361 2.024441 16.380194 -1.415246 1.446889 -0.009924 -0.005106 -1028340.000000 1 0 0
11.818981 12.848561 -2.668559 17.660550 0.827112 1.722480 0.004233 0.003390 590547.000000 1 0 0
7.323081 11.652161 4.741141 14.556057 1.009703 1.239027 -0.003078 -0.005190 -14888.100000 1 0 0
7.114981 15.695461 2.010941 17.349765 1.145189 1.454629 0.003054 -0.006130 -1921130.000000 1 0 0
5.602681 12.136461 10.267141 16.855204 1.138304 0.915823 -0.001806 0.004402 -193129.000000 1 0 0
-1.268019 14.213861 3.289541 14.644548 -1.481822 1.344237 -0.005212 0.002408 -903773.000000 1 0 0
4.654381 15.950161 1.586241 16.690928 1.286872 1.475617 -0.003625 -0.009494 -1501960.000000 1 0 0
7.320181 12.964761 11.978341 19.108918 1.056797 0.893298 0.003955 -0.005021 433539.000000 1 0 0
0.740081 17.245461 -9.389559 19.649872 1.527908 2.068994 0.005227 0.002091 315179.000000 1 0 0
9.959481 9.416061 15.432141 20.639875 0.757359 0.726226 0.014442 -0.006013 -314312.000000 1 0 0
13.494081 7.500961 -0.125859 15.439251 0.507339 1.578948 -0.006449 0.009794 -485444.000000 1 0 0
12.618381 13.442061 -0.268259 18.438669 0.816994 1.585346 0.008852 0.003982 743349.000000 1 0 0
9.526681 12.292761 3.351541 15.909194 0.911497 1.358539 0.003505 -0.000976 1048110.000000 1 0 0
-0.692519 12.926861 0.800141 12.970102 -1.517275 1.509066 -0.007062 -0.002997 -594534.000000 1 0 0
15.814481 7.100361 -1.107059 17.370622 0.422004 1.634571 -0.019066 0.016263 -1606310.000000 1 0 0
-3.927519 18.468461 -2.300459 19.021082 -1.361257 1.692036 -0.021145 -0.003242 -88056.400000 1 0 0
11.532281 9.315761 -3.335359 15.195444 0.679478 1.792095 0.005634 0.004382 58886.500000 1 0 0
14.719881 9.692161 7.863941 19.299079 0.582286 1.151106 0.008215 -0.008737 -790254.000000 1 0 0
4.563981 13.623061 4.717941 15.122060 1.247530 1.253509 -0.000536 -0.001266 891386.000000 1 0 0
2.277381 15.869261 5.666741 17.003878 1.428261 1.231035 -0.004589 0.005595 342130.000000 1 0 0
6.187481 18.260361 5.583641 20.072438 1.244091 1.288903 0.002640 -0.010972 -111870.000000 1 0 0
10.664881 17.085261 -1.080759 20.169628 1.012761 1.624405 -0.000514 0.002146 -421942.000000 1 0 0
10.043881 13.592061 -4.526759 17.496149 0.934403 1.832502 0.017621 -0.000650 3038490.000000 1 0 0
16.590081 7.990361 2.394041 18.569009 0.448848 1.441510 -0.008960 0.011391 261117.000000 1 0 0
3.919281 13.958161 -0.368659 14.502653 1.297057 1.596219 0.000241 -0.006378 -73741.400000 1 0 0
5.562581 13.113461 -2.329759 14.433743 1.169613 1.732916 0.004432 -0.006175 327558.000000 1 0 0
-6.044719 17.173461 -2.746759 18.412253 -1.232358 1.720536 -0.005616 0.004043 -2100690.000000 1 0 0
18.091981 10.071661 2.766741 20.890500 0.507966 1.437966 -0.004261 0.012146 110937.000000 1 0 0
7.967681 12.823161 9.429841 17.799981 1.014825 1.012471 -0.003713 -0.003841 -325873.000000 1 0 0
-2.458519 15.831761 6.753341 17.386679 -1.416737 1.171880 -0.004245 0.007241 284617.000000 1 0 0
11.119181 15.939361 6.283541 20.425041 0.961688 1.258086 0.008247 -0.008414 77194.600000 1 0 0
13.538881 11.831961 1.474841 18.040836 0.718221 1.488955 -0.001847 0.002725 -110271.000000 1 0 0
17.327281 7.909861 -5.657959 19.869904 0.428244 1.859542 -0.016391 0.021783 -1189830.000000 1 0 0
9.567881 9.208261 7.942041 15.472958 0.766247 1.031788 -0.007442 0.000364 -424480.000000 1 0 0
-1.955319 14.105461 -1.871659 14.362813 -1.433053 1.701481 -0.013903 0.001296 654675.000000 1 0 0
10.988481 11.617061 0.681741 16.005237 0.813197 1.528189 0.000644 0.001850 -105475.000000 1 0 0
11.746481 9.850161 -0.671959 15.344609 0.697817 1.614602 -0.000839 0.008195 -941912.000000 1 0 0
-0.455319 16.435261 11.324641 19.964284 -1.543100 0.967640 0.007346 0.017692 -119253.000000 1 0 0
2.178381 19.990561 -1.496659 20.164520 1.462254 1.645087 0.002584 -0.012604 -478801.000000 1 0 0
9.160581 14.303261 1.898441 17.091039 1.001161 1.459488 0.003114 -0.003554 -412627.000000 1 0 0
8.474881 11.668261 -5.240659 15.343938 0.942624 1.919358 0.009118 -0.003134 -841622.000000 1 0 0
10.594481 10.027161 10.143141 17.767113 0.757894 0.963202 -0.010622 -0.002758 -317984.000000 1 0 0
-4.983219 15.772361 5.838141 17.540916 -1.264775 1.231493 -0.014145 0.000294 -4071.890000 1 0 0
14.270681 9.041261 -1.935459 17.004198 0.564728 1.684866 0.001451 0.013525 -927390.000000 1 0 0
12.255281 9.655161 6.824141 17.028886 0.667280 1.158473 -0.004229 -0.006560 -1236090.000000 1 0 0
3.341181 12.965061 9.743541 16.558771 1.318578 0.941691 0.002315 0.004278 -674226.000000 1 0 0
8.551781 12.555661 -2.713659 15.431835 0.972861 1.747564 0.004589 -0.001593 -470400.000000 1 0 0
9.467781 16.931561 2.286241 19.533140 1.060933 1.453483 0.000293 -0.000016 -57193.600000 1 0 0
9.650381 14.232561 -7.506059 18.762638 0.974955 1.982372 0.016059 -0.011076 50279.200000 1 0 0
6.426481 11.427961 7.239441 14.976898 1.058523 1.066292 -0.006691 0.001900 -1032690.000000 1 0 0
5.473981 16.860961 -5.485659 18.556641 1.256877 1.870898 -0.000487 0.003181 -2272430.000000 1 0 0
-4.117319 17.165561 -4.543959 18.227901 -1.335384 1.822739 -0.008139 -0.005358 -181818.000000 1 0 0
-0.138619 18.463161 -0.386159 18.467719 -1.563289 1.591708 -0.008618 -0.004707 -639884.000000 1 0 0
6.464981 15.603661 -2.792259 17.119198 1.178002 1.734635 0.000811 0.001445 404082.000000 1 0 0
-0.712719 20.617761 0.798341 20.645517 -1.536242 1.532118 -0.007770 -0.002854 -336532.000000 1 0 0
-1.159119 18.753361 4.381041 19.293150 -1.509066 1.341721 -0.005598 -0.003628 -1764170.000000 1 0 0
7.189681 13.741061 -4.391259 16.118047 1.088741 1.846728 0.004033 0.001367 120005.000000 1 0 0
-0.815819 11.956361 7.665741 14.226163 -1.502669 1.001727 -0.002210 0.005679 650192.000000 1 0 0
7.744381 10.718661 10.853841 17.107630 0.945120 0.883507 -0.007411 -0.002042 74859.400000 1 0 0
1.503981 15.938361 -7.211659 17.558512 1.476713 1.994042 -0.002800 -0.000265 326129.000000 1 0 0
8.955581 7.120661 14.810941 18.715508 0.671751 0.657745 0.001173 0.001937 429898.000000 1 0 0
11.317381 11.374061 -5.002959 16.807200 0.787896 1.873045 0.010270 -0.000315 -375398.000000 1 0 0
-3.239119 17.072361 4.558841 17.964978 -1.383296 1.314228 -0.014007 -0.000038 -79255.000000 1 0 0
3.946281 15.290061 -6.748759 17.172794 1.318214 1.974679 0.001106 -0.001849 -1244720.000000 1 0 0
-4.443119 13.884561 9.593141 17.451381 -1.261090 0.988783 0.006389 -0.003735 728888.000000 1 0 0
6.285581 17.732261 0.546641 18.821276 1.230144 1.541748 -0.001385 -0.005891 -541135.000000 1 0 0
9.762181 10.755761 -2.068859 14.671972 0.833785 1.712275 0.007486 0.003867 -329327.000000 1 0 0
7.461881 18.015561 -2.428959 19.650444 1.178117 1.694722 0.002565 0.006975 230162.000000 1 0 0
3.592381 10.392161 10.374441 15.117250 1.237974 0.814455 -0.000686 0.003808 822065.000000 1 0 0
0.145481 18.552761 2.152541 18.677782 1.562955 1.455294 -0.004277 -0.006019 -2219.160000 1 0 0
-0.960719 17.151361 -7.320359 18.672970 -1.514841 1.973633 0.002270 0.003487 1191440.000000 1 0 0
10.175781 8.633661 13.020941 18.644880 0.703595 0.797685 -0.001220 0.000476 -61536.300000 1 0 0
3.805381 11.368461 5.527341 13.201301 1.247788 1.138787 -0.000756 0.000616 924619.000000 1 0 0
13.106481 13.874561 8.411041 20.857347 0.813858 1.155714 0.009130 -0.014459 -601819.000000 1 0 0
-0.340419 17.341061 6.799741 18.629674 -1.551168 1.197169 -0.006034 0.001924 -703047.000000 1 0 0
11.962381 13.534461 5.921041 19.008917 0.846978 1.254038 -0.004683 -0.007626 614712.000000 1 0 0
4.822381 14.510461 -4.391059 15.908810 1.249942 1.850441 -0.000103 0.001089 -1180800.000000 1 0 0
3.880381 17.493461 4.751341 18.537901 1.352512 1.311600 0.000996 -0.006115 126461.000000 1 0 0
7.089981 11.720161 2.102341 13.858205 1.026753 1.418505 0.007073 -0.004441 1120430.000000 1 0 0
6.521981 8.548861 11.713641 15.900587 0.919086 0.742649 -0.004393 0.000375 957668.000000 1 0 0
-5.208019 14.890861 1.836441 15.881868 -1.234348 1.454906 -0.009939 0.001775 -201317.000000 1 0 0
6.961181 13.689761 5.964141 16.475393 1.100375 1.200381 -0.004320 -0.002357 -1203310.000000 1 0 0
5.972281 15.776261 4.988741 17.591080 1.208907 1.283255 -0.002340 -0.008584 766013.000000 1 0 0
1.388581 17.961361 4.294741 18.519812 1.493640 1.336766 0.005139 -0.002042 -698698.000000 1 0 0
7.249981 17.991361 -7.040559 20.635425 1.187732 1.918977 -0.002349 0.000362 562164.000000 1 0 0
-2.432519 18.723461 -5.838659 19.762972 -1.441602 1.870706 -0.001687 0.000210 -1494860.000000 1 0 0
13.485081 10.056961 -4.664759 17.457086 0.640798 1.841296 0.004962 0.006720 -2719970.000000 1 0 0
-1.656719 18.083361 9.718641 20.596229 -1.479436 1.079391 0.008577 0.002498 -582234.000000 1 0 0
3.371481 11.747661 -1.564959 12.321669 1.291316 1.698149 0.006400 -0.006350 -68752.400000 1 0 0
4.188281 13.994761 -10.817759 18.177429 1.280005 2.208212 0.004847 -0.015854 -293141.000000 1 0 0
11.627081 13.510161 2.217841 17.961968 0.860170 1.447006 0.003831 0.000864 485904.000000 1 0 0
15.853881 6.297361 -7.044559 18.456113 0.378101 1.962423 -0.000242 0.002570 342312.000000 1 0 0
2.549881 16.004761 2.951841 16.473240 1.412804 1.390633 -0.001260 -0.005329 -329996.000000 1 0 0
13.464381 10.493361 3.653741 17.457091 0.662017 1.359939 -0.003109 0.001966 -1230600.000000 1 0 0
-4.875819 19.520561 -5.441959 20.843244 -1.326026 1.834947 -0.012813 -0.005714 145465.000000 1 0 0
5.368081 11.913561 0.136541 13.067818 1.147455 1.560347 0.006050 -0.004348 156962.000000 1 0 0
5.132881 15.138261 9.766541 18.732292 1.243895 1.022335 0.010257 0.000983 -282488.000000 1 0 0
7.864081 9.285761 13.893241 18.468657 0.868107 0.719310 0.001387 -0.004868 -2306040.000000 1 0 0
-4.844019 13.662361 7.109441 16.145240 -1.230072 1.114816 -0.006472 0.002951 -1293780.000000 1 0 0
-4.446619 17.068361 0.616641 17.648842 -1.315943 1.535850 -0.013815 -0.004405 -1472080.000000 1 0 0
-0.519019 16.485661 3.595141 16.881097 -1.539324 1.356184 -0.003711 -0.001854 -1817700.000000 1 0 0
7.857081 16.956261 -4.730259 19.277548 1.136877 1.818704 -0.000850 0.009275 407426.000000 1 0 0
3.043581 16.419361 -4.597959 17.320509 1.387511 1.839481 -0.005009 0.002853 273548.000000 1 0 0
9.376281 14.347361 8.145841 18.976727 0.991951 1.127129 0.000105 -0.012410 174995.000000 1 0 0
12.804181 10.873961 9.127541 19.118109 0.704059 1.073070 0.003739 -0.013626 373653.000000 1 0 0
3.873281 12.263561 12.236641 17.751975 1.264875 0.810258 0.005055 0.002377 628934.000000 1 0 0
-2.974019 18.999761 6.223941 20.213193 -1.415527 1.257796 -0.008139 -0.004330 -88013.400000 1 0 0
-2.703119 15.710461 10.180941 18.914994 -1.400406 1.002440 0.006991 0.001159 -251961.000000 1 0 0
2.249581 14.144061 7.666541 16.244720 1.413070 1.079306 -0.000970 0.006387 17533.800000 1 0 0
4.493381 17.080961 8.127041 19.442184 1.313561 1.139542 0.005228 0.001789 526056.000000 1 0 0
-1.823319 13.401461 9.419041 16.481565 -1.435573 0.962477 0.002816 0.004493 -205703.000000 1 0 0
5.969281 17.655761 3.145141 18.901062 1.244769 1.403618 -0.002526 -0.009090 699077.000000 1 0 0
7.270781 15.306861 -6.715359 18.228009 1.127347 1.948093 0.006021 -0.001928 361888.000000 1 0 0
11.074981 7.578161 9.442141 16.408466 0.600084 0.957650 -0.005336 0.001388 1030360.000000 1 0 0
9.024381 15.985161 -2.651459 18.547104 1.056853 1.714246 0.002924 -0.011184 -952639.000000 1 0 0
14.440281 11.325261 -6.738559 19.549717 0.665083 1.922703 0.016391 0.001679 462486.000000 1 0 0
11.095281 6.343661 16.150841 20.596043 0.519384 0.669436 0.022137 -0.006810 -122391.000000 1 0 0
8.580281 8.367861 10.133441 15.694870 0.772865 0.868918 -0.006935 0.000176 -1134090.000000 1 0 0
16.299881 9.499961 4.600141 19.418977 0.527694 1.331634 0.000044 0.004440 -67820.100000 1 0 0
-3.270619 14.346061 4.685941 15.442295 -1.346647 1.262487 -0.009971 0.003246 -1256260.000000 1 0 0
4.520681 14.814361 12.704141 20.032400 1.274617 0.883849 0.000934 0.008813 -144250.000000 1 0 0
15.978481 10.671261 -4.809759 19.807106 0.588823 1.816078 -0.002958 0.007781 96863.700000 1 0 0
14.538081 14.125661 6.362441 21.245488 0.771011 1.266657 0.002828 -0.002321 -10398.900000 1 0 0
6.240181 9.406661 9.191241 14.556925 0.985073 0.887439 -0.006560 0.000761 1226790.000000 1 0 0
10.616681 12.288261 8.811541 18.475891 0.858248 1.073648 0.000729 -0.003934 -286219.000000 1 0 0
7.842481 11.621961 -0.383659 14.025751 0.977185 1.598154 0.001560 0.000041 -243418.000000 1 0 0
7.434781 13.482461 -8.695059 17.682103 1.066847 2.084887 0.017983 -0.004748 -410227.000000 1 0 0
2.776981 15.247561 -2.248659 15.660658 1.390645 1.714881 -0.002531 -0.000359 383490.000000 1 0 0
12.231181 13.665261 -7.900359 19.968896 0.840719 1.977554 0.022636 -0.013859 -720496.000000 1 0 0
-8.003419 14.639861 9.819741 19.359947 -1.070500 1.038841 0.004124 -0.007837 496316.000000 1 0 0
11.561881 9.591761 2.154741 15.176359 0.692532 1.428335 0.000374 0.003362 -1991540.000000 1 0 0
12.027181 8.636861 4.516141 15.480439 0.622778 1.274759 -0.004600 -0.000621 203086.000000 1 0 0
14.134681 7.965861 6.065441 17.321482 0.513201 1.213045 0.000352 -0.000561 -2681280.000000 1 0 0
16.186381 7.389861 7.357341 19.254596 0.428286 1.178720 0.015707 -0.003432 -1254860.000000 1 0 0
13.624481 8.259761 2.377641 16.109107 0.544998 1.422659 -0.005544 0.007667 -1881450.000000 1 0 0
-4.365719 17.575461 -7.096759 19.450458 -1.327325 1.944282 -0.005271 0.001257 143647.000000 1 0 0
3.006981 19.501761 -3.846759 20.103686 1.417811 1.763330 -0.008819 -0.003686 525422.000000 1 0 0
0.035481 14.770261 6.464341 16.122952 1.568394 1.158253 0.000743 0.005538 -473118.000000 1 0 0
6.953881 16.088361 8.220641 19.358997 1.162817 1.132230 0.010995 -0.002115 95278.100000 1 0 0
12.850081 15.199361 -1.996859 20.003315 0.868958 1.670789 0.005853 0.002079 -13881.400000 1 0 0
12.710981 15.535761 4.334141 20.535669 0.885071 1.358143 0.003751 -0.006162 -8046.860000 1 0 0
2.981281 18.075661 1.426541 18.375325 1.407334 1.493085 0.000080 -0.007845 -556018.000000 1 0 0
10.450181 14.459561 -1.139459 17.876900 0.944986 1.634579 0.008895 0.007141 -2918330.000000 1 0 0
-6.299719 15.776161 -0.415359 16.992535 -1.190877 1.595242 -0.007604 -0.004045 -366385.000000 1 0 0
-3.854319 15.869761 -2.423359 16.509929 -1.332538 1.718110 -0.013565 0.000406 -1626390.000000 1 0 0
-6.782519 16.973861 1.901241 18.377411 -1.190647 1.467156 -0.006467 -0.004132 -273823.000000 1 0 0
-0.000719 19.466461 -6.374359 20.483544 -1.570759 1.887246 0.000463 -0.001774 61895.600000 1 0 0
4.992381 14.743061 7.096841 17.106925 1.244290 1.143016 0.004505 0.000154 -402149.000000 1 0 0
8.863181 12.123961 6.969941 16.556766 0.939536 1.136279 -0.000721 -0.008441 1272990.000000 1 0 0
-7.502419 17.625161 -5.412659 19.905513 -1.168362 1.846181 0.022346 -0.007346 243699.000000 1 0 0
-7.709919 17.835461 -1.044059 19.458586 -1.162775 1.624478 0.000983 -0.004306 -285322.000000 1 0 0
-13.656619 -9.107239 9.317041 18.874647 0.588146 1.054541 0.010049 -0.012293 -130653.000000 1 0 0
-12.510219 -12.888639 7.749241 19.562038 0.800296 1.163491 0.012362 -0.008765 -153582.000000 1 0 0
-3.633719 -15.150339 12.474241 19.958542 1.335399 0.895655 -0.002717 -0.000207 385853.000000 1 0 0
-1.747819 -14.209739 15.202441 20.882667 1.448410 0.755406 -0.005663 0.010654 -338815.000000 1 0 0
-7.054619 -13.626639 12.640541 19.880549 1.093083 0.881720 0.019315 -0.014853 93858.800000 1 0 0
-9.844019 -11.493839 9.049241 17.632408 0.862564 1.031868 0.009537 -0.010799 458709.000000 1 0 0
-10.615619 -10.600939 11.361841 18.819211 0.784706 0.922617 0.019413 -0.014548 288332.000000 1 0 0
-5.791719 -12.241039 10.704741 17.262055 1.128867 0.901886 0.010079 -0.008730 454528.000000 1 0 0
-12.413219 -10.248039 7.330141 17.687320 0.690142 1.143481 0.007846 -0.009944 -566953.000000 1 0 0
-7.394519 -11.068439 12.441941 18.220624 0.981821 0.819141 0.009914 -0.016722 -247674.000000 1 0 0
-14.729519 -11.513639 7.454141 20.126769 0.663464 1.191400 0.005131 -0.001628 588215.000000 1 0 0
-10.990219 -9.108439 9.205041 16.984739 0.692043 0.998029 0.010868 -0.013253 306024.000000 1 0 0
-5.139019 -11.918039 13.158341 18.482184 1.163689 0.778529 0.011041 -0.008424 -814917.000000 1 0 0
4.194681 -12.536639 14.642741 19.727456 -1.247912 0.734372 -0.018478 -0.000898 1327450.000000 1 0 0
6.808281 -12.801539 13.989441 20.147867 -1.082008 0.803296 -0.002706 -0.002077 248939.000000 1 0 0
6.801481 -8.671139 16.168341 19.566912 -0.905652 0.598272 -0.012342 0.007863 92862.200000 1 0 0
0.889481 -1.670139 14.510241 14.633101 -1.081426 0.129675 0.001484 -0.000544 -676166.000000 1 0 0
-0.016719 -6.336439 15.551841 16.793168 1.568158 0.386905 -0.000954 -0.003113 -684764.000000 1 0 0
-1.366219 -4.860639 18.337741 19.020124 1.296788 0.268676 0.008411 -0.014659 -636664.000000 1 0 0
-5.071719 12.797061 13.071741 18.983085 -1.193467 0.811241 -0.004454 0.009110 623731.000000 1 0 0
-3.986519 8.810761 11.746241 15.214994 -1.145898 0.688787 -0.004963 0.003699 29916.200000 1 0 0
-0.414019 -3.853439 15.112941 15.601968 1.463766 0.251034 0.004958 -0.000818 -257711.000000 1 0 0
-4.091919 9.195461 14.291441 17.479863 -1.152114 0.613575 -0.007164 0.002890 458684.000000 1 0 0
-13.283919 -2.323539 16.972441 21.677756 0.173162 0.671414 -0.008606 0.004898 -148201.000000 1 0 0
-0.040219 0.855961 17.282441 17.303672 -1.523844 0.049542 0.008085 -0.002910 -356200.000000 1 0 0
-3.185319 -7.285539 15.430941 17.359127 1.158628 0.475806 0.013581 -0.010896 340180.000000 1 0 0
-7.299319 5.435661 12.639541 15.575123 -0.640088 0.624046 0.001197 0.000666 -1167140.000000 1 0 0
-9.768419 10.006261 13.507041 19.441899 -0.797425 0.802740 -0.006416 -0.006461 -860940.000000 1 0 0
-5.433919 2.298961 11.232841 12.688161 -0.400240 0.483655 0.006717 -0.001232 -1209000.000000 1 0 0
-6.888919 -7.573339 16.892941 19.753079 0.832687 0.544849 0.015627 -0.006510 -512490.000000 1 0 0
-4.573619 2.614761 18.800841 19.525025 -0.519355 0.273209 0.012698 0.000693 -507418.000000 1 0 0
1.012081 -8.474639 16.556841 18.627206 -1.451935 0.475961 -0.003446 -0.004680 791956.000000 1 0 0
-14.873419 -3.672439 14.011041 20.760893 0.242071 0.829999 0.005548 -0.002921 217020.000000 1 0 0
-14.192119 1.944661 13.245541 19.510057 -0.136176 0.824521 -0.003669 0.000389 177549.000000 1 0 0
-5.357119 0.878061 16.190741 17.076587 -0.162461 0.323511 0.017386 -0.003506 856371.000000 1 0 0
4.561481 5.670761 15.217441 16.868170 0.893387 0.446093 -0.004750 -0.000211 -223151.000000 1 0 0
-0.952119 -12.097339 13.780941 18.362094 1.492253 0.721962 -0.004942 -0.000751 -197483.000000 1 0 0
-5.833519 -4.231139 16.950341 18.418647 0.627515 0.401997 0.024619 -0.006530 163446.000000 1 0 0
-12.855719 -1.513339 9.953841 16.329074 0.117178 0.915268 0.001784 -0.001612 -768884.000000 1 0 0
-14.011119 10.327561 10.243441 20.196486 -0.635192 1.038876 -0.030156 -0.005381 388863.000000 1 0 0
-3.582419 -3.634939 17.869441 18.583957 0.792675 0.278197 0.016554 -0.006434 -1996120.000000 1 0 0
-7.863619 9.202261 11.970441 17.023794 -0.863678 0.790965 -0.001369 -0.006338 -242670.000000 1 0 0
-4.011919 10.533061 16.468241 19.956048 -1.206873 0.600195 -0.001257 0.003262 296447.000000 1 0 0
-12.528419 12.643761 8.442641 19.700360 -0.789980 1.127906 -0.010304 -0.003063 234312.000000 1 0 0
-12.527819 3.158461 10.520341 16.661324 -0.246969 0.887410 0.002096 -0.003733 611740.000000 1 0 0
-10.081019 -3.512939 13.714941 17.380083 0.335312 0.661424 0.008527 -0.002176 -1061870.000000 1 0 0
-4.221719 -6.651339 17.776141 19.443622 1.005240 0.417168 0.019762 -0.007778 -790261.000000 1 0 0
1.047581 -3.890739 17.679841 18.133176 -1.307784 0.224077 0.002951 -0.013882 -354175.000000 1 0 0
-5.770919 1.731661 13.673941 14.942517 -0.291518 0.415033 0.010152 0.001194 -373336.000000 1 0 0
-10.460019 8.631461 10.248641 16.998493 -0.689911 0.923647 -0.008341 -0.011638 -285218.000000 1 0 0
4.712781 2.494961 17.154641 17.964322 0.486892 0.301378 0.001122 -0.007185 -138286.000000 1 0 0
0.583081 -5.359139 13.232241 14.288197 -1.462421 0.386866 -0.001804 -0.001629 -177584.000000 1 0 0
-4.066319 5.413661 20.809741 21.883510 -0.926578 0.314560 0.036250 -0.005335 -521999.000000 1 0 0
-10.696319 10.862861 9.108741 17.759002 -0.793123 1.032227 -0.008582 -0.008769 361726.000000 1 0 0
0.821981 4.177261 13.117941 13.791503 1.376503 0.313821 0.001820 -0.001184 -2030440.000000 1 0 0
-2.990019 7.033761 13.421741 15.445295 -1.168845 0.517647 -0.000921 0.004258 -1259310.000000 1 0 0
0.635581 8.871361 14.086341 16.659232 1.499274 0.563188 -0.000177 -0.001151 266151.000000 1 0 0
-4.102719 -6.581139 13.131641 15.250695 1.013344 0.533462 0.012027 -0.005524 -209530.000000 1 0 0
-4.958119 8.060461 16.505741 19.026126 -1.019336 0.520581 0.008849 0.002195 -299875.000000 1 0 0
1.826681 -10.661439 15.771741 19.124614 -1.401109 0.601155 -0.012199 0.000622 -45512.200000 1 0 0
-15.185619 -1.184339 14.427441 20.979913 0.077833 0.812509 0.006139 0.001472 207688.000000 1 0 0
-13.628219 -5.188039 8.242041 16.750383 0.363744 1.056352 0.010257 -0.008836 -847998.000000 1 0 0
-14.177119 -1.892239 12.209241 18.805234 0.132687 0.864202 0.011417 -0.002934 508772.000000 1 0 0
9.510281 0.985661 16.937541 19.449866 0.103273 0.513907 0.004689 -0.006668 -1224150.000000 1 0 0
5.139081 -6.902539 16.953641 19.012658 -0.930811 0.469703 -0.015732 0.003535 378796.000000 1 0 0
-6.072519 -2.697839 11.180441 13.006002 0.418079 0.536237 0.008468 -0.002149 106009.000000 1 0 0
0.725381 -6.468539 18.057041 19.194398 -1.459123 0.345975 0.004676 -0.007201 -326389.000000 1 0 0
-8.357019 11.807561 12.222141 18.937767 -0.954876 0.869270 -0.005014 -0.005639 1052.340000 1 0 0
-6.528919 -5.924239 14.863341 17.281270 0.736880 0.535362 0.015848 -0.003930 -857322.000000 1 0 0
-4.010919 -9.148939 17.156241 19.852636 1.157629 0.527279 0.018791 -0.007205 185699.000000 1 0 0
2.551281 -6.364439 16.242641 17.630613 -1.189544 0.399450 -0.007293 -0.001454 487828.000000 1 0 0
2.291381 5.229161 16.208341 17.184437 1.157804 0.338666 0.000578 -0.000594 -1108150.000000 1 0 0
1.069481 -8.879539 14.004341 16.616605 -1.450930 0.568347 -0.008040 -0.002873 -696591.000000 1 0 0
-9.903519 -2.821339 11.297441 15.286328 0.277530 0.739129 0.004420 -0.003241 225366.000000 1 0 0
-1.139319 10.136161 12.345941 16.014433 -1.458865 0.690503 -0.002180 0.003832 -401725.000000 1 0 0
-12.367919 -3.696339 11.329641 17.175247 0.290415 0.850444 0.006820 -0.003880 103751.000000 1 0 0
-1.720619 6.335861 20.138341 21.181512 -1.305623 0.315147 0.020925 -0.005508 288688.000000 1 0 0
0.608281 -13.239139 15.559241 20.438562 -1.524883 0.705529 -0.013377 -0.008279 -836729.000000 1 0 0
4.246081 -8.824139 15.394841 18.245432 -1.122310 0.566538 -0.013482 0.001977 -496613.000000 1 0 0
4.494881 -4.567439 16.236441 17.455300 -0.793405 0.375914 -0.008778 0.001975 721063.000000 1 0 0
8.107881 1.767861 14.768841 16.940536 0.214682 0.511921 -0.004835 -0.000435 119657.000000 1 0 0
-6.204119 -0.111239 11.866441 13.390888 0.017928 0.481810 0.011086 -0.001352 195343.000000 1 0 0
-3.165319 -11.156439 18.727441 22.027311 1.294340 0.554447 0.012549 0.004560 -236069.000000 1 0 0
3.419481 -1.484939 13.591141 14.093155 -0.409687 0.267711 -0.010246 -0.001155 986066.000000 1 0 0
-2.434419 8.573361 16.232341 18.518040 -1.294127 0.502110 0.005817 0.006166 -1329730.000000 1 0 0
-3.085219 3.936961 14.812541 15.634245 -0.906102 0.325653 0.004708 -0.001885 -213552.000000 1 0 0
-4.329719 -9.161039 19.723041 22.173621 1.129289 0.474585 0.028955 -0.005069 45413.400000 1 0 0
-5.695319 -2.853039 19.242641 20.269577 0.464403 0.319680 0.025594 -0.010377 -711938.000000 1 0 0
-6.429419 -8.661839 11.103241 15.480531 0.932261 0.770964 0.012177 -0.007205 -1136680.000000 1 0 0
-11.641219 2.493861 12.731241 17.430486 -0.211037 0.751888 0.008296 -0.006683 -507071.000000 1 0 0
-11.536819 -7.598839 11.578241 18.024878 0.582439 0.873239 0.004451 -0.009258 -1207740.000000 1 0 0
-10.913819 -7.240239 15.614341 20.379896 0.585738 0.697946 0.019130 -0.015942 -1071780.000000 1 0 0
0.135081 5.699261 17.625941 18.524946 1.547099 0.312817 0.005113 -0.003414 118015.000000 1 0 0
-1.987119 -0.086339 13.240041 13.388607 0.043422 0.149111 0.009444 -0.003663 -190275.000000 1 0 0
-5.725519 -10.760039 18.368141 22.044242 1.081792 0.585855 0.018635 0.003517 -675451.000000 1 0 0
0.516781 2.672261 19.109341 19.302201 1.379767 0.141480 0.017136 -0.009875 -373562.000000 1 0 0
-0.669719 10.915861 14.816541 18.415603 -1.509520 0.635854 0.008234 0.000860 -543664.000000 1 0 0
-12.775619 -2.281639 14.400041 19.385136 0.176730 0.733495 0.009709 -0.002291 -1455550.000000 1 0 0
-13.656419 8.316061 11.888241 19.924481 -0.546974 0.931457 -0.002269 -0.012879 289122.000000 1 0 0
-18.090619 -0.454139 6.923441 19.375520 0.025098 1.205389 0.013184 -0.005913 -178388.000000 1 0 0
-1.905219 -7.785439 17.717341 19.446005 1.330797 0.424841 0.004706 -0.008805 -1527190.000000 1 0 0
5.730381 2.545461 14.428741 15.732299 0.418024 0.409949 -0.004850 -0.001111 -3146750.000000 1 0 0
-13.951719 -6.729239 10.955741 18.972648 0.449407 0.955195 0.005064 -0.010710 471503.000000 1 0 0
3.389481 7.746661 16.379941 18.433714 1.158352 0.476543 0.006467 -0.009602 95456.100000 1 0 0
1.095981 1.923161 14.452041 14.620575 1.052814 0.151983 0.000630 -0.003110 -299349.000000 1 0 0
-14.341319 0.753361 9.916541 17.452185 -0.052483 0.966465 -0.000974 -0.001139 -467804.000000 1 0 0
-9.386319 -5.263639 15.532241 18.896015 0.511080 0.605909 0.006083 0.000579 -331066.000000 1 0 0
-2.293519 -0.288039 18.128941 18.275714 0.124934 0.126821 0.011572 -0.006564 183355.000000 1 0 0
7.044181 3.657061 17.775241 19.466735 0.478858 0.419952 0.012111 0.001113 -255845.000000 1 0 0
-3.990719 -0.768039 14.796641 15.344586 0.190132 0.268044 0.014040 0.000184 -1694400.000000 1 0 0
4.881481 -9.289739 17.878041 20.730472 -1.086981 0.530797 -0.018788 0.009394 -130808.000000 1 0 0
2.092581 6.926461 13.430941 15.255981 1.277401 0.494150 0.001333 -0.000205 -2079690.000000 1 0 0
-3.435519 -0.811939 20.307641 20.612189 0.232078 0.172114 0.019411 -0.013757 -1860710.000000 1 0 0
-10.528819 1.477361 16.372741 19.521918 -0.139406 0.575932 0.011800 -0.006504 -396144.000000 1 0 0
-3.887719 6.844761 18.639041 20.233116 -1.054250 0.399605 0.021792 0.004710 393436.000000 1 0 0
-12.415019 0.967161 14.732141 19.290000 -0.077745 0.701742 0.004592 -0.003570 -800524.000000 1 0 0
-16.098419 -4.757539 8.423341 18.781532 0.287349 1.105720 0.011642 -0.007276 -600236.000000 1 0 0
-2.108419 0.722161 15.723041 15.880207 -0.329989 0.140807 0.008709 -0.002143 159922.000000 1 0 0
-13.546919 -8.793339 12.624941 20.499536 0.575744 0.907313 -0.001743 -0.013451 350205.000000 1 0 0
6.229881 -3.251239 14.590841 16.194895 -0.480997 0.448835 -0.005012 -0.002146 775386.000000 1 0 0
-15.707219 0.299961 7.749541 17.517480 -0.019095 1.112535 -0.002823 -0.003127 331379.000000 1 0 0
-13.820219 5.813961 12.632741 19.605783 -0.398210 0.870640 -0.006970 -0.011182 161986.000000 1 0 0
0.482281 9.462761 16.741341 19.236656 1.519874 0.515019 0.003992 -0.005748 -206774.000000 1 0 0
-10.396919 -5.498639 10.821941 15.982658 0.486478 0.826975 0.009621 -0.006329 81698.300000 1 0 0
-2.969719 -11.143539 15.012541 18.930771 1.310352 0.655041 0.004437 -0.002849 -787088.000000 1 0 0
-3.342819 2.726961 12.589741 13.308356 -0.684281 0.330122 0.003954 -0.000916 -1515320.000000 1 0 0
-12.323519 -7.636539 7.521141 16.332587 0.554759 1.092239 0.010842 -0.007799 -28938.900000 1 0 0
-8.053719 -2.024139 13.306941 15.685478 0.246230 0.557915 0.009633 -0.003056 51058.600000 1 0 0
-9.632619 6.393461 9.584041 15.017241 -0.585967 0.878635 -0.005659 -0.004280 -542947.000000 1 0 0
-18.052719 -3.401239 6.585541 19.515082 0.186223 1.226580 0.011299 -0.008881 363077.000000 1 0 0
-1.083119 -0.187739 20.474641 20.504130 0.171627 0.053638 0.011475 -0.008846 -1133330.000000 1 0 0
-2.517919 2.401861 20.354941 20.650242 -0.761813 0.169318 0.016211 -0.003805 -643429.000000 1 0 0
-3.806419 11.319061 11.269441 16.419814 -1.246393 0.814363 -0.002328 0.004065 -551848.000000 1 0 0
-4.140019 -4.799939 15.039741 16.320937 0.859081 0.398872 0.014981 -0.006680 -181312.000000 1 0 0
0.048281 -14.377239 13.307141 19.590491 -1.567438 0.824035 -0.006789 -0.002403 -1606300.000000 1 0 0
-12.233919 0.519661 8.454341 14.880010 -0.042452 0.966519 0.005411 -0.003734 -648354.000000 1 0 0
-7.697819 1.903661 15.487341 17.399370 -0.242435 0.473211 0.015657 -0.003377 -942813.000000 1 0 0
3.556081 -2.210939 18.555941 19.022537 -0.556248 0.221944 0.000193 -0.000244 -89979.100000 1 0 0
-1.943519 4.825261 12.604041 13.635332 -1.187896 0.391425 -0.000865 0.001884 -458997.000000 1 0 0
-10.201619 -6.325839 13.295141 17.912288 0.555055 0.734396 -0.000912 -0.007214 -619883.000000 1 0 0
2.491981 -3.812239 14.292041 15.000186 -0.991839 0.308497 -0.008040 -0.000804 -623217.000000 1 0 0
6.959081 1.141061 16.972841 18.379559 0.162521 0.393786 -0.004836 -0.005915 -1280410.000000 1 0 0
-1.927019 -5.502039 13.888541 15.062450 1.233910 0.397417 -0.000427 -0.004007 -1504400.000000 1 0 0
-12.736219 3.514061 14.848841 19.875814 -0.269213 0.727137 -0.005092 0.001529 157985.000000 1 0 0
-13.087919 -6.320239 13.303941 19.703652 0.449879 0.829558 -0.002240 -0.011229 -587362.000000 1 0 0
-9.345119 6.882961 11.971641 16.674130 -0.634824 0.769905 -0.002774 -0.003023 -483405.000000 1 0 0
-0.932419 -2.462039 12.891341 13.157421 1.208770 0.201451 0.003552 -0.001397 320345.000000 1 0 0
0.234081 6.601061 15.223941 16.595095 1.535350 0.409359 0.003702 -0.003864 537072.000000 1 0 0
-16.511819 -0.754039 10.075041 19.357562 0.045635 1.023394 0.010693 0.003367 165377.000000 1 0 0
-1.127519 2.673461 13.762941 14.065463 -1.171686 0.207777 0.002766 -0.001221 -2185030.000000 1 0 0
-11.114719 -3.526839 16.175841 19.940747 0.307263 0.624603 0.010282 -0.004820 444254.000000 1 0 0
-4.986219 -1.538139 17.152441 17.928594 0.299217 0.295321 0.017766 -0.003083 257892.000000 1 0 0
-11.759519 6.539961 11.289641 17.564549 -0.507546 0.872712 -0.004124 -0.005596 -1642420.000000 1 0 0
-2.692919 4.481361 18.816541 19.529379 -1.029704 0.271017 0.017939 -0.000856 420924.000000 1 0 0
5.322281 -2.049439 16.562441 17.516887 -0.367568 0.331630 -0.002602 -0.000057 -215319.000000 1 0 0
-7.994719 -4.242439 12.162441 15.160435 0.487870 0.639744 0.011363 -0.002487 -1376400.000000 1 0 0
-11.318419 -0.938739 16.130741 19.727865 0.082750 0.613457 0.010441 -0.007283 -243764.000000 1 0 0
2.229181 2.086761 17.312841 17.580054 0.752412 0.174576 0.000131 -0.006963 -774363.000000 1 0 0
-8.748919 -7.474239 11.606841 16.344008 0.706988 0.781073 0.008390 -0.011216 1575320.000000 1 0 0
-7.089119 6.741861 14.895541 17.820927 -0.760296 0.581125 -0.008437 -0.000588 -541630.000000 1 0 0
-5.501519 3.345661 15.802941 17.064381 -0.546379 0.386915 0.011488 -0.002545 921956.000000 1 0 0
-9.233219 4.279961 11.567841 15.407315 -0.434056 0.721521 -0.000598 -0.005069 -326305.000000 1 0 0
-9.992919 0.128461 14.138641 17.314044 -0.012855 0.615301 0.010129 -0.005856 -237433.000000 1 0 0
8.017681 -0.710839 15.667941 17.614565 -0.088428 0.474573 -0.010286 -0.005271 -53861.800000 1 0 0
-8.465919 -7.505639 14.680641 18.534498 0.725346 0.656602 0.015876 -0.005527 -2108140.000000 1 0 0
0.087981 4.003361 15.683441 16.186568 1.548823 0.249981 0.003239 -0.004398 142503.000000 1 0 0
-8.055719 3.054761 9.671841 12.952632 -0.362451 0.727697 0.002905 -0.002631 -430773.000000 1 0 0
-2.001319 -9.681839 13.137341 16.441807 1.366959 0.645132 -0.004944 -0.004562 532559.000000 1 0 0
-5.994319 10.185161 10.611441 15.883074 -1.038850 0.839147 0.000296 -0.004287 -3630560.000000 1 0 0
-8.546419 -2.782139 15.699641 18.090337 0.314714 0.519944 0.020104 -0.008995 1365460.000000 1 0 0
4.332481 5.673661 17.765041 19.145692 0.918640 0.382091 0.004066 -0.003487 471723.000000 1 0 0
-6.573019 -1.103639 15.196741 16.594082 0.166353 0.413319 0.014402 -0.003797 -641226.000000 1 0 0
-0.726119 -10.038339 15.412941 18.407994 1.498588 0.578477 -0.008652 -0.004575 -1032450.000000 1 0 0
-4.149519 5.620861 16.350741 17.780870 -0.934867 0.403813 0.008164 -0.001228 641788.000000 1 0 0
3.977881 0.064661 17.402641 17.851601 0.016254 0.224747 0.006485 -0.004702 -715730.000000 1 0 0
1.617081 0.318061 19.172041 19.242746 0.194209 0.085751 0.005446 -0.007867 -587077.000000 1 0 0
-6.319219 6.211261 17.829841 19.910187 -0.776783 0.461213 0.007914 -0.000242 292453.000000 1 0 0
-12.129919 0.641761 11.042841 16.416185 -0.052858 0.832971 0.008567 -0.003523 -567594.000000 1 0 0
-5.285019 5.056961 13.982241 15.779967 -0.763350 0.481987 0.001622 0.002106 -1015590.000000 1 0 0
-8.597819 -9.475539 10.010941 16.245839 0.833924 0.906868 0.015221 -0.009396 -12116.500000 1 0 0
7.027381 -3.848039 17.018341 18.809982 -0.500982 0.440003 -0.003788 -0.000373 152249.000000 1 0 0
-16.645119 1.861861 9.485941 19.248626 -0.111393 1.055479 0.003810 -0.005966 451865.000000 1 0 0
-4.056019 -9.614139 11.480541 15.514051 1.171571 0.737712 0.008030 -0.005382 -713826.000000 1 0 0
-11.101719 -3.784939 9.182841 14.896258 0.328574 0.906566 0.010724 -0.003510 -210847.000000 1 0 0
3.718281 -5.454639 18.517741 19.659233 -0.972476 0.342446 -0.007991 -0.002094 -206141.000000 1 0 0
2.687381 -1.885539 16.141741 16.472191 -0.611817 0.200642 -0.005033 -0.002470 676386.000000 1 0 0
-3.037319 -4.429639 20.254641 20.954653 0.969745 0.259205 0.016415 -0.014563 -451446.000000 1 0 0
-6.255619 -3.492939 14.454741 16.132977 0.509245 0.460175 0.017826 -0.003044 -64937.300000 1 0 0
-9.659719 5.098461 13.967041 17.730841 -0.485644 0.663688 0.004667 -0.003137 724562.000000 1 0 0
-5.787919 -5.230439 11.661741 14.030456 0.734846 0.589582 0.011635 -0.001807 10683.500000 1 0 0
5.973581 1.895161 19.291541 20.283956 0.307213 0.314103 0.002977 -0.015065 37766.600000 1 0 0
-2.768619 11.775961 13.580041 18.186699 -1.339882 0.727707 0.007353 -0.004394 -1973800.000000 1 0 0
3.489881 1.265561 15.127241 15.576082 0.347888 0.240647 -0.004314 -0.002348 -1517020.000000 1 0 0
-5.534619 7.410561 12.975241 15.934406 -0.929311 0.619290 -0.008241 0.000134 -1594000.000000 1 0 0
-1.615619 -1.709739 15.278941 15.458961 0.813694 0.152759 0.011188 -0.003278 -138178.000000 1 0 0
-7.305419 10.419461 14.117941 19.006593 -0.959311 0.733566 0.002689 -0.008944 108798.000000 1 0 0
-10.078619 2.013061 10.726741 14.855772 -0.197142 0.764023 0.004964 -0.002756 -2248070.000000 1 0 0
-13.667119 5.269861 9.298241 17.349895 -0.368020 1.005193 -0.001875 -0.007180 1119460.000000 1 0 0
0.633681 -4.979239 20.041541 20.660536 -1.444212 0.245402 0.009364 -0.012353 -238120.000000 1 0 0
-14.469519 -2.950339 7.514541 16.569243 0.201143 1.100081 0.007843 -0.007059 97948.600000 1 0 0
-2.197719 2.280561 17.728341 18.009026 -0.803895 0.176785 0.007227 -0.003058 -311429.000000 1 0 0
-6.090319 -8.444539 14.525541 17.871586 0.945974 0.621900 0.013512 -0.007002 4600.000000 1 0 0
-7.809019 2.050661 12.090941 14.538805 -0.256803 0.588756 0.007772 -0.000678 -548912.000000 1 0 0
-14.544119 -3.435339 10.101841 18.038297 0.231950 0.976384 0.008340 -0.006825 -145701.000000 1 0 0
-0.406219 6.960261 12.742541 14.525240 -1.512500 0.500654 0.000532 -0.000682 -31342.700000 1 0 0
-1.697819 -2.453839 19.218741 19.449009 0.965525 0.154032 0.011993 -0.015804 -28108.700000 1 0 0
-12.633619 10.183261 7.562741 17.902575 -0.678416 1.134662 -0.011736 -0.011705 106787.000000 1 0 0
-19.358619 2.505461 7.015041 20.742330 -0.128708 1.225794 0.005478 -0.005745 -118880.000000 1 0 0
-15.935819 8.716661 6.588341 19.321924 -0.500526 1.222840 -0.008172 -0.004176 473051.000000 1 0 0
-12.133119 7.463661 13.737341 19.789729 -0.551483 0.803537 -0.008069 -0.007967 296229.000000 1 0 0
-15.778019 8.526761 10.350041 20.706880 -0.495459 1.047387 -0.006658 -0.010004 73234.800000 1 0 0
1.880081 10.931261 15.020441 18.671926 1.400471 0.636064 -0.001160 -0.008305 -153276.000000 1 0 0
2.070581 13.956561 13.313941 19.399328 1.423512 0.814394 -0.002099 0.007559 405991.000000 1 0 0
-2.980819 13.685361 11.801041 18.314993 -1.356335 0.870639 -0.003975 0.002726 27953.600000 1 0 0
8.983381 4.891161 15.978641 18.972126 0.498586 0.569415 -0.000338 0.011665 4195.610000 1 0 0
-0.352019 12.565761 12.900941 18.012678 -1.542790 0.772433 0.001951 0.002331 -839581.000000 1 0 0
4.224281 13.231361 14.634441 20.176232 1.261762 0.759282 0.010209 -0.001466 283135.000000 1 0 0
-2.940719 -4.162139 -13.691959 14.609619 0.955694 2.785276 0.001732 -0.004490 -400536.000000 1 0 0
6.104681 -11.636839 16.176541 20.841393 -1.087663 0.682222 -0.012503 -0.004538 3003.250000 1 0 0
8.048981 -13.556839 7.221041 17.341206 -1.035006 1.141304 -0.001634 -0.002097 -120493.000000 1 0 0
-0.011419 15.526261 1.242241 15.575881 -1.570061 1.490957 -0.006551 -0.004528 -2325320.000000 1 0 0
-13.465619 8.017561 9.199341 18.172288 -0.537037 1.039990 -0.014102 -0.007000 392109.000000 1 0 0
-15.427619 -9.654739 5.032541 18.882581 0.559181 1.301018 0.005949 0.001669 -659073.000000 1 0 0
9.548481 -11.334439 11.018441 18.467513 -0.870713 0.931490 -0.004102 0.001934 193058.000000 1 0 0
-5.961119 -10.267739 -16.733959 20.517962 1.044788 2.524520 0.009015 0.000685 -7350.250000 1 0 0
-1.995119 -12.448339 -14.839259 19.471652 1.411876 2.437340 0.000673 0.005361 -12335.000000 1 0 0
5.603581 -15.836639 -11.841059 20.552614 -1.230708 2.184787 0.006806 0.011321 325242.000000 1 0 0
2.381081 -11.859639 -16.852859 20.744624 -1.372659 2.519047 0.003078 0.012566 186759.000000 1 0 0
0.719881 -13.852439 -14.626559 20.157989 -1.518875 2.382697 0.019824 0.013771 158435.000000 1 0 0
-6.780319 -6.382239 -14.982159 17.640033 0.755164 2.585506 0.004594 0.011732 97112.200000 1 0 0
-5.648419 -8.219439 -17.468359 20.114854 0.968711 2.622825 -0.020219 0.008816 81969.300000 1 0 0
-2.716719 -16.223739 -13.297359 21.152069 1.404882 2.250619 0.009683 0.002520 227404.000000 1 0 0
15.230281 -7.537739 -9.112559 19.282575 -0.459574 2.063012 -0.038112 -0.009559 -81730.300000 1 0 0
19.076681 -3.096639 -4.046959 19.745552 -0.160922 1.777215 -0.007045 -0.000666 102552.000000 1 0 0
15.623681 -11.368339 -9.243459 21.419152 -0.629033 2.017008 -0.000484 -0.002214 206465.000000 1 0 0
18.525181 -3.220939 -7.207259 20.137064 -0.172147 1.936825 0.128637 -0.000215 -395210.000000 1 0 0
8.848881 -9.658539 -15.868759 20.576870 -0.829118 2.451511 0.023443 0.003496 313787.000000 1 0 0
-4.887719 9.585861 -16.075259 19.344055 -1.099269 2.551732 -0.012465 0.002008 426322.000000 1 0 0
2.105081 -9.702639 -18.914859 21.362220 -1.357148 2.658226 -0.002988 0.015645 173879.000000 1 0 0
11.062981 8.254761 -14.546359 20.053109 0.641039 2.382400 0.036942 -0.041184 487705.000000 1 0 0
18.472681 -6.507539 -8.620059 21.398444 -0.338704 1.985409 0.010807 0.002201 194538.000000 1 0 0
12.097181 5.192661 -14.014059 19.227568 0.405461 2.387441 0.002006 -0.006675 102646.000000 1 0 0
15.947881 6.124861 -11.247759 20.453873 0.366685 2.153051 0.004497 -0.003462 -395422.000000 1 0 0
3.190581 -0.203039 -19.286259 19.549445 -0.063551 2.977319 0.012837 -0.007842 207574.000000 1 0 0
10.131181 -1.536339 -14.888459 18.073942 -0.150498 2.538795 0.011318 -0.005984 75095.400000 1 0 0
12.076581 -5.819939 -14.036559 19.409804 -0.449079 2.379175 0.021962 -0.002152 -178392.000000 1 0 0
10.092181 6.725761 -13.064159 17.825830 0.587841 2.393339 0.030755 -0.008599 561353.000000 1 0 0
10.244981 5.619661 -16.227959 19.997172 0.501713 2.517533 0.007018 -0.013257 466303.000000 1 0 0
11.591481 -10.790239 -14.991259 21.806640 -0.749614 2.328786 0.012998 0.005166 257084.000000 1 0 0
-1.682419 1.998461 -17.300159 17.496282 -0.871049 2.991723 -0.001117 -0.003395 230809.000000 1 0 0
6.108881 -0.992439 -17.160159 18.242105 -0.161051 2.795454 0.005452 0.001698 113243.000000 1 0 0
6.994881 -6.042039 -15.953659 18.437837 -0.712440 2.616480 -0.001310 0.003630 275536.000000 1 0 0
-2.307819 -4.600739 -20.386459 21.026187 1.105854 2.894284 0.005337 -0.016458 275183.000000 1 0 0
15.857481 -0.119739 -13.671059 20.937332 -0.007551 2.282271 -0.002363 -0.001758 66943.000000 1 0 0
-4.342119 -0.191439 -18.346259 18.854067 0.044060 2.908975 -0.001466 -0.000765 154428.000000 1 0 0
3.312981 8.609761 -18.027559 20.250844 1.203467 2.668608 -0.008418 -0.007118 115139.000000 1 0 0
9.414681 -0.172039 -17.552959 19.919141 -0.018271 2.649213 0.015120 0.000604 -215222.000000 1 0 0
3.780981 4.366761 -18.569159 19.446801 0.857169 2.840017 0.001899 0.006386 398957.000000 1 0 0
-3.392419 -10.801539 -17.529059 20.867430 1.266484 2.568116 0.011902 -0.028394 54470.900000 1 0 0
5.521781 -9.640339 -16.019559 19.494934 -1.050633 2.535235 -0.003764 -0.002494 120140.000000 1 0 0
10.296081 -12.250539 -10.668759 19.232977 -0.871867 2.158813 0.010070 -0.005369 273721.000000 1 0 0
5.980381 7.093661 -17.043759 19.405533 0.870345 2.643078 0.011469 -0.009384 347877.000000 1 0 0
8.380681 1.523461 -20.319859 22.033007 0.179819 2.744647 0.014741 -0.006193 127910.000000 1 0 0
-1.347019 -0.388839 -20.036859 20.085850 0.281027 3.071735 0.007265 -0.008042 284907.000000 1 0 0
-0.856319 6.759661 -19.681959 20.828005 -1.444787 2.808317 0.000525 0.004068 126366.000000 1 0 0
8.488081 5.745361 -18.277059 20.954894 0.595036 2.630498 0.020450 -0.011490 225101.000000 1 0 0
12.326881 0.127761 -13.360459 18.178839 0.010364 2.396383 0.013040 -0.000406 -20202.300000 1 0 0
-5.020019 -2.621339 -19.978859 20.766001 0.481231 2.865378 0.006812 0.008635 305021.000000 1 0 0
5.146981 -11.466239 -14.448859 19.150341 -1.148873 2.425682 -0.013924 0.000391 -164476.000000 1 0 0
11.088781 2.544361 -16.079259 19.697142 0.225549 2.525815 0.016605 -0.008017 -171383.000000 1 0 0
-3.075319 -4.147739 -17.163159 17.923039 0.932793 2.849360 -0.000781 -0.002313 430200.000000 1 0 0
-6.894019 -5.028039 -17.822559 19.759865 0.630143 2.695078 -0.002103 0.009188 39507.900000 1 0 0
2.721681 10.417361 -15.554859 18.917785 1.315245 2.536123 -0.008907 -0.008142 49620.000000 1 0 0
17.142481 -5.875339 -11.114059 21.258094 -0.330189 2.120947 0.031625 -0.012765 -125689.000000 1 0 0
9.219581 -3.446239 -17.749759 20.296088 -0.357714 2.635285 -0.007797 -0.001971 4526.320000 1 0 0
-7.413119 -1.764039 -19.085859 20.550819 0.233617 2.761729 -0.017712 0.023930 596601.000000 1 0 0
1.348581 -7.294939 -19.327459 20.702306 -1.387995 2.775099 0.001630 -0.013113 189408.000000 1 0 0
5.706981 10.657861 -13.948259 18.458428 1.079176 2.427454 0.013900 -0.015351 201684.000000 1 0 0
5.947481 -3.886139 -17.326959 18.726935 -0.578768 2.752471 0.009630 -0.023704 462702.000000 1 0 0
4.536781 13.274961 -15.056259 20.579065 1.241486 2.391506 0.004263 -0.011051 84441.500000 1 0 0
8.813681 11.469561 -15.348259 21.090302 0.915597 2.385817 0.041350 -0.027137 119123.000000 1 0 0
17.122681 0.960861 -12.057659 20.964174 0.056057 2.183590 0.006679 0.009323 271081.000000 1 0 0
14.969981 -2.907139 -12.470959 19.699660 -0.191810 2.256289 0.004736 -0.005128 197468.000000 1 0 0
-8.433219 0.476061 -17.219759 19.179831 -0.056391 2.685557 -0.034822 0.000462 477994.000000 1 0 0
-3.635419 4.522261 -18.990159 19.856819 -0.893685 2.845057 0.014367 0.006515 63387.000000 1 0 0
3.978281 2.156061 -16.797959 17.396745 0.496648 2.878463 0.005691 -0.010405 402905.000000 1 0 0
-5.075619 14.417561 -13.895559 20.657070 -1.232302 2.308619 -0.012977 -0.002765 115646.000000 1 0 0
0.922781 9.691961 -17.633459 20.142604 1.475871 2.637123 -0.008328 0.004727 231472.000000 1 0 0
1.379381 -4.911739 -19.719659 20.368918 -1.297015 2.888430 0.012441 -0.004189 446809.000000 1 0 0
3.961781 -6.197439 -17.920459 19.371288 -1.002008 2.752106 0.012561 -0.021038 182935.000000 1 0 0
-6.939719 7.407761 -16.017059 18.962616 -0.818009 2.576735 -0.017609 0.014448 80000.100000 1 0 0
-11.768219 3.041961 -16.663659 20.625761 -0.252953 2.511385 -0.003254 -0.005958 112551.000000 1 0 0
-4.480219 6.584361 -17.538459 19.261976 -0.973323 2.715342 -0.009872 0.025156 258046.000000 1 0 0
-8.203119 4.942861 -17.603559 20.040167 -0.542299 2.643329 -0.015886 0.007965 217517.000000 1 0 0
-8.710819 4.653861 -14.873359 17.853671 -0.490680 2.555431 -0.023190 -0.007479 494262.000000 1 0 0
9.469481 13.648361 -12.819059 20.982781 0.964231 2.228034 0.040984 -0.031617 293748.000000 1 0 0
13.926181 9.874161 -12.210959 20.989166 0.616765 2.191705 0.040878 -0.014609 57189.200000 1 0 0
8.609781 15.672561 -9.887259 20.433193 1.068449 2.075882 0.014442 -0.012345 52489.600000 1 0 0
7.788281 13.957161 -14.374559 21.496223 1.061822 2.303257 0.037756 -0.030859 97268.800000 1 0 0
4.347781 15.401961 -13.091459 20.676312 1.295668 2.256428 0.011292 -0.018401 131038.000000 1 0 0
10.958581 11.665561 -11.017359 19.430852 0.816637 2.173660 0.037078 -0.027145 264938.000000 1 0 0
15.834181 10.563161 -10.595359 21.784474 0.588310 2.078729 0.027429 -0.005071 240174.000000 1 0 0
13.505681 11.473461 -9.611859 20.160148 0.704220 2.067779 0.055541 -0.011350 18199.200000 1 0 0
11.007581 11.287461 -8.006759 17.682811 0.797951 2.040698 0.019230 -0.003844 95556.900000 1 0 0
5.205581 17.193261 -10.216959 20.666218 1.276801 2.087917 0.027360 -0.001532 -107869.000000 1 0 0
11.579981 14.186961 -10.156659 20.940954 0.886230 2.077176 0.041013 -0.020886 120530.000000 1 0 0
8.468481 -19.433439 -1.972959 21.290051 -1.159840 1.663600 0.023652 -0.004598 156940.000000 1 0 0
6.923281 -16.635639 -3.706459 18.396036 -1.176427 1.773666 0.015250 -0.023674 254863.000000 1 0 0
3.931381 -18.818639 4.994241 19.863015 -1.364849 1.316635 0.009920 -0.016730 34081.500000 1 0 0
10.400081 -17.778139 -2.667059 20.768657 -1.041485 1.699569 0.024028 -0.009026 601105.000000 1 0 0
-2.085719 -15.534639 7.675841 17.452615 1.437332 1.115409 -0.000328 -0.012466 163072.000000 1 0 0
-15.218119 -12.866139 -4.409659 20.410139 0.701846 1.788566 -0.020267 0.010246 3465.010000 1 0 0
-9.578519 -12.521239 -7.050559 17.269621 0.917776 1.991347 0.006619 -0.010982 216060.000000 1 0 0
-11.501519 -15.259239 7.126441 20.394006 0.924905 1.213825 0.008817 -0.006895 249347.000000 1 0 0
-15.534519 -8.402139 -8.184659 19.465504 0.495806 2.004759 0.055498 -0.003925 56595.500000 1 0 0
4.559281 -15.233339 5.840141 16.939566 -1.279985 1.218810 0.002232 -0.012357 145881.000000 1 0 0
2.727781 -14.082839 8.908441 16.885718 -1.379470 1.015056 0.001391 -0.009729 254453.000000 1 0 0
3.466181 -17.417539 10.098341 20.429429 -1.374357 1.053763 0.018730 -0.003498 237743.000000 1 0 0
-7.374419 -16.699439 -6.313959 19.316298 1.154952 1.903788 -0.036134 0.012924 17130.200000 1 0 0
2.036281 -19.945539 -4.241359 20.492928 -1.469057 1.779270 0.013921 -0.008022 166447.000000 1 0 0
-18.393619 -10.286239 -2.116359 21.180437 0.509901 1.670884 -0.000887 -0.004041 -136631.000000 1 0 0
-4.003219 -14.819039 2.884141 15.618833 1.306954 1.385073 0.001724 -0.003042 9959.180000 1 0 0
-11.010219 -10.110739 -14.553459 20.862769 0.742837 2.342811 0.009958 0.004963 -130811.000000 1 0 0
0.911981 -20.386539 2.537041 20.564028 -1.526092 1.447108 0.013149 -0.006104 184626.000000 1 0 0
6.724181 -18.363439 0.739741 19.569817 -1.219787 1.532987 0.014566 -0.007034 281396.000000 1 0 0
-7.783019 -18.740939 -3.363359 20.569646 1.177175 1.735045 0.006978 -0.003012 222697.000000 1 0 0
-9.936419 -15.262539 -7.420559 19.665762 0.993695 1.957712 0.006745 -0.004981 34028.600000 1 0 0
-11.728119 -11.373639 -12.154959 20.362992 0.770055 2.210446 -0.005815 0.006799 262907.000000 1 0 0
-13.362419 -15.149539 -3.308659 20.469733 0.847996 1.733145 -0.010661 0.009497 319529.000000 1 0 0
-0.471219 -20.851839 -2.983959 21.069534 1.548202 1.712898 0.011281 0.004947 258548.000000 1 0 0
-12.224819 -16.836239 -0.480859 20.811928 0.942766 1.593903 0.002171 0.012319 169875.000000 1 0 0
0.793081 -19.889439 5.418741 20.629627 -1.530943 1.305010 0.008310 -0.017267 67626.500000 1 0 0
-18.098719 -8.951139 2.650141 20.364424 0.459297 1.440290 0.007943 0.005248 -12038.600000 1 0 0
-14.905619 -14.991539 -0.219959 21.141715 0.788272 1.581201 -0.014932 0.011713 -327393.000000 1 0 0
10.114281 -15.725939 -4.845659 19.315389 -0.999245 1.824376 0.015576 -0.004018 -22820.400000 1 0 0
0.224181 -18.792639 -7.318959 20.168805 -1.558868 1.942159 0.011575 -0.006232 117810.000000 1 0 0
-10.205219 -16.925039 -2.437759 19.913465 1.028199 1.693522 0.002176 0.013088 517387.000000 1 0 0
-15.182619 -6.879039 -10.978959 19.959224 0.425418 2.153244 0.027996 -0.016206 116078.000000 1 0 0
-12.212219 -15.409439 2.357841 19.802740 0.900636 1.451447 -0.003179 0.005719 205785.000000 1 0 0
-2.595719 -16.385339 10.251741 19.501674 1.413685 1.017276 -0.000080 -0.006414 280657.000000 1 0 0
-12.454819 -14.294339 -6.390959 20.007373 0.854059 1.895924 -0.003619 0.001376 208849.000000 1 0 0
5.907181 -16.930139 -6.394159 19.037060 -1.235088 1.913335 0.026638 -0.021596 -121069.000000 1 0 0
-17.172819 -7.389339 -2.862959 18.913079 0.406345 1.722755 -0.044271 0.004831 -162422.000000 1 0 0
-11.884219 -13.913839 -9.423259 20.582210 0.863910 2.046355 -0.006825 -0.009764 -1910.660000 1 0 0
-6.898419 -15.037039 8.875041 18.774107 1.140680 1.078413 0.003664 -0.000646 196530.000000 1 0 0
-15.674919 -7.881739 -5.650359 18.432348 0.465905 1.882358 0.006804 -0.002666 181278.000000 1 0 0
-0.722319 -19.622239 -0.535459 19.642829 1.534002 1.598059 0.013309 -0.003608 305924.000000 1 0 0
-15.310619 -11.702139 -1.774259 19.352083 0.652600 1.662608 0.012321 0.016173 234677.000000 1 0 0
-6.735619 -19.227639 2.401241 20.514303 1.233846 1.453475 -0.004090 0.001572 136872.000000 1 0 0
-2.385419 -20.850239 -5.436059 21.678870 1.456884 1.824255 -0.001173 0.007404 107896.000000 1 0 0
-8.708619 -19.740839 -0.837259 21.592632 1.155329 1.609581 -0.009071 0.018505 255692.000000 1 0 0
-17.743419 -7.445739 5.146041 19.918576 0.397317 1.309478 0.012177 -0.000894 32975.600000 1 0 0
-2.911119 -15.676539 -10.881259 19.303634 1.387189 2.169642 0.005398 0.005689 89101.000000 1 0 0
-2.991219 -18.180439 -8.451259 20.270657 1.407728 2.000851 -0.000790 0.003664 200671.000000 1 0 0
4.042281 -17.922639 -6.020959 19.334243 -1.348967 1.887477 0.006931 0.023922 248302.000000 1 0 0
0.601381 -17.412339 -9.211059 19.707735 -1.536272 2.057124 0.005878 0.005356 19283.200000 1 0 0
-7.800819 -9.797539 -14.534959 19.186182 0.898376 2.430385 -0.003617 -0.005781 310866.000000 1 0 0
-5.372519 -19.124039 -1.990559 19.963846 1.296925 1.670670 0.007126 -0.004506 173964.000000 1 0 0
-9.929019 -15.916739 8.733641 20.693102 1.013053 1.135085 -0.002162 -0.008541 -143823.000000 1 0 0
-7.342119 -15.452239 -10.082459 19.857854 1.127226 2.103346 0.002962 0.005216 323666.000000 1 0 0
-12.741019 -8.162339 -12.358859 19.537111 0.569763 2.255681 0.004552 -0.001752 272029.000000 1 0 0
-15.523419 -12.942439 3.377641 20.491260 0.694976 1.405207 -0.007897 0.005917 147753.000000 1 0 0
-6.522419 -14.083639 -13.030659 20.265461 1.137085 2.269203 0.003969 0.003508 530730.000000 1 0 0
-14.045619 -11.599039 -6.636659 19.387170 0.690283 1.920184 -0.001394 -0.011781 -149283.000000 1 0 0
-12.037719 -10.335539 -8.388859 17.947228 0.709463 2.057164 0.015011 -0.007957 392199.000000 1 0 0
-10.036119 -14.853939 3.955441 18.357797 0.976598 1.353630 0.002826 0.002345 501068.000000 1 0 0
5.350381 -17.693839 8.084241 20.175566 -1.277151 1.158521 0.029681 -0.031065 258903.000000 1 0 0
-4.930119 -16.719139 5.273441 18.211119 1.284045 1.277016 0.001789 0.004700 449330.000000 1 0 0
-18.483019 -7.389539 -6.711259 21.006386 0.380335 1.895984 -0.011359 -0.007642 6436.680000 1 0 0
-16.935619 -3.538339 -10.704059 20.344825 0.205966 2.124842 -0.004698 -0.004815 -123273.000000 1 0 0
-15.738419 -4.436739 -12.962359 20.866366 0.274774 2.241080 -0.015134 0.000960 254922.000000 1 0 0
-19.183319 -4.543639 -5.815659 20.553984 0.232568 1.857660 -0.015883 -0.000535 -302997.000000 1 0 0
5.274581 -13.740139 8.783741 17.139625 -1.204262 1.032724 0.004749 -0.000668 244476.000000 1 0 0
19.682681 -2.890639 2.546741 20.056162 -0.145820 1.443472 -0.009743 0.003955 -6625.840000 1 0 0
18.111081 -2.643639 -0.177059 18.303864 -0.144944 1.580470 0.003606 0.000324 322678.000000 1 0 0
14.092581 -11.214539 -0.027359 18.010205 -0.672160 1.572315 0.010112 -0.000055 -41502.500000 1 0 0
11.332681 -14.181739 5.370941 18.931413 -0.896602 1.283140 0.011849 0.017276 503505.000000 1 0 0
10.149881 -13.245339 9.242841 19.075880 -0.916946 1.064970 0.008036 0.007325 272781.000000 1 0 0
17.582681 4.559761 -4.556959 18.727199 0.253743 1.816598 -0.029175 0.017038 -57284.100000 1 0 0
18.023781 -6.356039 -5.010559 19.757571 -0.339031 1.827198 -0.040498 -0.000353 -98823.600000 1 0 0
17.505681 -10.051839 -0.212559 20.187459 -0.521236 1.581326 0.001121 0.001750 163141.000000 1 0 0
17.381481 -9.002139 8.521641 21.348835 -0.477877 1.160194 0.009497 0.001821 -31148.900000 1 0 0
19.892481 0.349361 -2.381359 20.037558 0.017561 1.689923 0.004917 0.008864 61006.800000 1 0 0
7.733381 -13.268939 11.218141 19.018849 -1.043106 0.939932 0.000492 -0.002233 402365.000000 1 0 0
15.707881 -6.158439 -3.568259 17.245184 -0.373643 1.779215 -0.011090 0.000426 344960.000000 1 0 0
14.325581 -6.903639 12.033841 19.942313 -0.449071 0.922998 0.001671 -0.016397 243066.000000 1 0 0
16.349081 1.767961 10.696941 19.617408 0.107720 0.994076 0.022321 -0.008460 356228.000000 1 0 0
16.631381 -10.346939 2.529141 19.749900 -0.556535 1.442385 0.001413 -0.000439 283134.000000 1 0 0
16.485081 -7.733339 -6.299259 19.267670 -0.438633 1.903854 0.018430 0.005432 73139.000000 1 0 0
18.730381 -4.483539 5.760341 20.102508 -0.234952 1.280174 0.096424 0.001937 -51129.800000 1 0 0
13.191281 -13.325539 8.039741 20.401405 -0.790461 1.165732 -0.010926 0.000074 201538.000000 1 0 0
15.304681 -14.233739 -1.804859 20.978325 -0.749158 1.656937 0.016717 -0.002428 201342.000000 1 0 0
18.603381 -6.601039 7.661941 21.174628 -0.340971 1.200550 0.007333 0.000474 42465.000000 1 0 0
19.698781 3.802761 2.572641 20.226751 0.190700 1.443261 0.009172 0.007286 473572.000000 1 0 0
15.607381 -10.914339 8.010141 20.660966 -0.610260 1.172667 -0.000286 -0.008852 344080.000000 1 0 0
14.214081 -4.533339 10.708041 18.364461 -0.308735 0.948275 0.008794 -0.005371 -70318.800000 1 0 0
18.523781 -7.862539 1.237541 20.161386 -0.401410 1.509376 -0.002293 -0.008225 118985.000000 1 0 0
18.841781 -6.122839 -1.907359 19.903263 -0.314196 1.666775 -0.004963 0.001408 -4859.640000 1 0 0
14.311781 -13.921939 -5.985959 20.844164 -0.771591 1.862074 0.007487 -0.003186 408150.000000 1 0 0
13.883981 -9.554939 10.003341 19.599200 -0.602762 1.035152 -0.001340 -0.011636 525887.000000 1 0 0
14.263981 2.416461 0.528741 14.476878 0.167817 1.534265 -0.008917 0.003654 -133895.000000 1 0 0
12.875481 2.563361 13.619841 18.916895 0.196519 0.767019 0.019892 -0.012913 186893.000000 1 0 0
17.918881 -2.683139 9.940441 20.666347 -0.148634 1.069005 -0.009178 0.012701 193202.000000 1 0 0
7.130581 -18.610739 4.917841 20.527785 -1.204905 1.328873 0.000762 -0.012543 388748.000000 1 0 0
12.371281 -3.193039 15.008141 19.710109 -0.252588 0.705259 -0.005315 0.003177 331539.000000 1 0 0
11.350781 -13.622539 -7.342659 19.191885 -0.876116 1.963396 0.011796 -0.008812 233392.000000 1 0 0
10.672881 -17.663639 4.421841 21.106094 -1.027273 1.359727 0.004485 -0.003157 604344.000000 1 0 0
18.090981 -0.717239 -5.959959 19.060932 -0.039625 1.888809 -0.001373 0.009316 183253.000000 1 0 0
4.284581 -13.706539 11.510241 18.404144 -1.267826 0.895132 -0.011646 -0.002988 43665.100000 1 0 0
8.945281 -2.628239 14.184041 16.973884 -0.285771 0.581501 -0.012877 -0.004361 262118.000000 1 0 0
8.713581 -9.167039 13.648741 18.607774 -0.810753 0.747344 -0.022867 -0.017866 384370.000000 1 0 0
20.958381 5.521261 -3.293259 21.922217 0.257587 1.721592 -0.001651 0.020831 393161.000000 1 0 0
14.477281 -13.364539 1.659341 19.772607 -0.745453 1.486776 -0.002553 -0.000753 85258.200000 1 0 0
11.888581 -0.125439 14.065141 18.416903 -0.010551 0.701758 0.029201 -0.024593 -43089.000000 1 0 0
18.978381 0.459961 7.847041 20.541825 0.024231 1.178833 -0.000911 -0.001236 165724.000000 1 0 0
19.788581 1.189761 0.302441 19.826622 0.060051 1.555541 0.000751 0.005635 180446.000000 1 0 0
17.812981 0.205261 3.005441 18.065910 0.011523 1.403659 -0.004028 0.007231 -14454.700000 1 0 0
10.017881 -8.300739 16.242441 20.810505 -0.691934 0.675343 -0.011205 -0.003964 146471.000000 1 0 0
18.999681 3.042061 5.188441 19.928922 0.158764 1.307414 0.008580 0.004295 68547.200000 1 0 0
15.887581 2.376761 7.176441 17.594475 0.148497 1.150665 0.025125 0.000651 64043.700000 1 0 0
11.707681 -16.025939 1.587541 19.910319 -0.939863 1.490977 0.013510 0.001683 273024.000000 1 0 0
8.226081 -16.383339 6.969241 19.612561 -1.105470 1.207512 -0.004999 0.006120 307383.000000 1 0 0
6.091681 6.675361 7.195241 11.551646 0.831084 0.898383 -0.001678 0.002173 -1135170.000000 1 0 0
18.425881 2.851861 -6.401259 19.713506 0.153556 1.901506 -0.010258 0.016351 441028.000000 1 0 0
14.133681 4.550661 -7.527559 16.647330 0.311491 2.040002 0.005618 0.004637 250185.000000 1 0 0
-10.596619 -3.850939 -13.993759 17.970624 0.348573 2.463390 -0.009399 0.005017 -322712.000000 1 0 0
7.922081 -14.214539 -10.437359 19.332639 -1.062349 2.141094 0.001862 0.008284 174035.000000 1 0 0
2.328481 -15.739939 13.846341 21.092384 -1.423927 0.854678 0.000786 -0.006544 529256.000000 1 0 0
-9.494719 -7.619539 2.040741 12.343893 0.676265 1.404710 0.006108 0.003238 46454.600000 1 0 0
-13.883219 2.988261 -9.831759 17.272433 -0.212008 2.176349 0.002867 0.000305 229765.000000 1 0 0
-12.647419 -4.941539 -13.489559 19.140120 0.372477 2.352908 -0.015426 0.009977 193598.000000 1 0 0
-17.697819 -0.003639 -8.304659 19.549429 0.000206 2.009541 0.008261 -0.008916 359537.000000 1 0 0
-12.298519 14.931061 4.608541 19.885392 -0.881778 1.336915 -0.004371 -0.014505 377411.000000 1 0 0
-17.119619 6.670461 9.496341 20.682285 -0.371542 1.093754 -0.004046 -0.003530 139593.000000 1 0 0
-13.225919 15.507561 0.193141 20.382509 -0.864639 1.561320 0.013929 -0.025560 10221.000000 1 0 0
-16.301319 5.423761 -10.433159 20.099776 -0.321198 2.116557 0.023225 0.000831 83453.500000 1 0 0
-18.219119 2.974361 0.063941 18.460423 -0.161827 1.567333 0.011490 0.004980 19854.200000 1 0 0
-9.864719 15.477861 -0.054359 18.354286 -1.003370 1.573758 0.007361 -0.013231 78785.000000 1 0 0
-17.916319 12.389261 2.507441 21.926594 -0.605003 1.456189 0.024262 -0.009273 -149770.000000 1 0 0
-8.443319 16.464161 -7.699059 20.040802 -1.096937 1.965104 0.035615 -0.017281 87868.200000 1 0 0
-15.011919 -1.962239 -12.582859 19.685945 0.129975 2.264228 -0.011189 -0.014089 47279.400000 1 0 0
-18.886319 5.443161 -4.774059 20.226534 -0.280602 1.809074 0.014829 0.004842 -30085.600000 1 0 0
-16.503919 9.952861 -5.431259 20.023420 -0.542667 1.845483 0.012988 0.017261 53509.100000 1 0 0
-18.881819 1.485161 2.996141 19.175652 -0.078494 1.413906 -0.010023 -0.009466 142472.000000 1 0 0
-13.320819 12.103461 -6.731259 19.215822 -0.737553 1.928685 0.016636 -0.005188 -221001.000000 1 0 0
-13.509519 4.138861 -12.752759 19.033395 -0.297287 2.305032 0.022933 -0.014052 -49029.400000 1 0 0
-13.974119 9.201261 -6.594959 17.984234 -0.582293 1.946264 0.013374 -0.005963 191873.000000 1 0 0
-6.347219 11.474461 -15.347059 20.186200 -1.065530 2.434532 -0.026285 -0.016238 148047.000000 1 0 0
-14.723819 13.914161 3.046441 20.485984 -0.757134 1.421534 -0.012924 -0.009232 -99237.000000 1 0 0
-18.599719 8.746961 -4.991859 21.151301 -0.439585 1.809051 0.018474 0.000231 181711.000000 1 0 0
-3.919019 17.033661 -10.040059 20.157061 -1.344657 2.092193 -0.002299 0.003655 71889.800000 1 0 0
-19.003819 -1.467639 -6.934759 20.282751 0.077076 1.919739 -0.023549 -0.002570 -514450.000000 1 0 0
-10.687719 14.071161 -5.958459 18.647470 -0.921213 1.896032 0.013820 -0.011578 71393.300000 1 0 0
-19.126719 3.395461 4.717541 19.990391 -0.175694 1.332559 -0.003273 0.005137 121969.000000 1 0 0
-14.941619 12.515461 0.641641 19.501293 -0.697265 1.537888 0.003686 -0.010893 119136.000000 1 0 0
-17.455619 2.449861 -8.365159 19.510928 -0.139437 2.013896 -0.008557 0.000098 88142.200000 1 0 0
-16.294319 14.309661 -3.801359 22.016393 -0.720639 1.744326 0.004556 0.036200 238477.000000 1 0 0
-10.591719 15.747861 -8.399559 20.754089 -0.978710 1.987467 0.018373 -0.011395 51080.500000 1 0 0
-19.190919 1.857061 -6.782459 20.438733 -0.096467 1.909053 0.008763 0.000673 -15866.500000 1 0 0
-17.506619 10.697261 -0.669659 20.527093 -0.548498 1.603425 0.038309 0.002025 -100082.000000 1 0 0
-11.890419 6.521561 -14.421059 19.795953 -0.501669 2.386904 0.010163 -0.006257 461883.000000 1 0 0
-13.541819 11.969961 -4.593459 18.648343 -0.723863 1.819678 0.035317 -0.025281 -69620.800000 1 0 0
-18.740419 7.718161 -0.407259 20.271635 -0.390676 1.590888 0.003371 0.006582 -16265.100000 1 0 0
-14.348219 9.198061 -10.440259 19.986863 -0.570064 2.120408 -0.000593 0.006228 547822.000000 1 0 0
-18.670719 11.633861 4.693541 22.493817 -0.557237 1.360593 0.013570 -0.001187 163836.000000 1 0 0
-8.088819 12.500861 -13.277059 19.949456 -0.996490 2.299007 -0.030496 0.015580 475724.000000 1 0 0
-21.074219 -1.595239 -5.237459 21.773802 0.075552 1.813718 -0.023807 -0.000149 312895.000000 1 0 0
-10.638219 13.647361 -3.402359 17.635141 -0.908676 1.764944 0.016405 -0.005685 386538.000000 1 0 0
-18.650919 -4.795339 3.599241 19.590982 0.251659 1.386028 0.004686 -0.007774 -32257.900000 1 0 0
-10.762319 11.221961 -13.564259 20.633687 -0.806303 2.288138 -0.014535 0.001872 240899.000000 1 0 0
-14.847119 11.516561 -9.877159 21.227962 -0.659733 2.054759 0.005437 -0.005901 240584.000000 1 0 0
-12.782419 10.036061 -13.697659 21.254143 -0.665618 2.271126 0.019258 0.002975 238969.000000 1 0 0
-18.479619 -4.838139 -2.719059 19.295004 0.256062 1.712187 -0.011648 0.002390 -419091.000000 1 0 0
-9.551119 12.375461 -11.397359 19.346206 -0.913502 2.200773 0.002102 -0.008979 -74187.900000 1 0 0
-15.515619 7.798161 -8.111259 19.166071 -0.465726 2.007781 -0.008258 0.008499 -28254.900000 1 0 0
-14.831119 8.981361 2.064741 17.461102 -0.544509 1.452271 0.007821 -0.001319 -89026.700000 1 0 0
-19.665319 6.408961 8.130541 22.223979 -0.315047 1.196255 0.010792 -0.007167 182279.000000 1 0 0
-18.827719 6.041661 3.964641 20.166880 -0.310512 1.372916 -0.004667 0.004609 221339.000000 1 0 0
-14.503919 12.701761 5.965241 20.181241 -0.719253 1.270730 -0.005872 -0.003920 -232712.000000 1 0 0
17.893981 6.653661 5.757641 19.940316 0.355996 1.277882 0.000401 0.001030 202369.000000 1 0 0
18.238481 6.756761 -0.016459 19.449840 0.354791 1.571643 -0.005117 0.002414 43000.700000 1 0 0
16.906581 4.176361 8.315941 19.298429 0.242177 1.125292 0.018561 -0.006448 23232.900000 1 0 0
12.386881 12.827061 11.090741 20.999354 0.802854 1.014380 0.022094 -0.014917 151257.000000 1 0 0
15.301881 12.428961 4.426341 20.204434 0.682166 1.349927 0.005876 -0.001508 4056.990000 1 0 0
5.105981 10.109661 14.396341 18.317504 1.103109 0.666592 0.005328 -0.008157 163651.000000 1 0 0
13.269481 13.075061 -5.316959 19.372826 0.778018 1.848819 0.023080 -0.007255 185924.000000 1 0 0
17.841681 9.271861 -3.109159 20.346004 0.479263 1.724212 -0.008507 0.021776 -127009.000000 1 0 0
14.605281 7.372861 9.622641 18.980741 0.467487 1.039132 0.016554 -0.007631 -61148.000000 1 0 0
4.882081 18.901161 -1.875759 19.611402 1.318026 1.666589 0.001362 -0.003967 482698.000000 1 0 0
-4.478019 19.537461 3.883741 20.416868 -1.345486 1.379408 -0.013786 0.006036 301255.000000 1 0 0
7.200981 12.317161 12.663041 19.076666 1.041755 0.844912 0.025110 -0.009007 -22111.100000 1 0 0
0.379281 17.012761 -10.237059 19.858884 1.548506 2.112376 0.001986 0.005922 -71234.000000 1 0 0
10.865881 9.207761 15.625941 21.142854 0.702983 0.739115 0.023180 -0.007861 59902.400000 1 0 0
-1.226319 12.157261 0.958941 12.256526 -1.470265 1.492477 -0.008685 0.000316 379353.000000 1 0 0
-4.611519 19.111361 -2.154859 19.777605 -1.334025 1.679968 -0.011854 0.004581 132261.000000 1 0 0
6.056681 18.085661 6.508241 20.152710 1.247647 1.241955 0.011249 -0.016388 175939.000000 1 0 0
11.080481 17.242361 -1.920459 20.585535 0.999619 1.664224 -0.002077 0.008924 226055.000000 1 0 0
18.253481 10.887361 3.226141 21.497260 0.537808 1.420155 -0.010842 0.010297 67705.600000 1 0 0
11.883481 16.471661 6.470541 21.316675 0.945819 1.262387 0.020899 -0.004523 -63578.600000 1 0 0
17.771681 8.158361 -6.459959 20.594236 0.430367 1.889860 -0.022389 0.029901 139409.000000 1 0 0
-0.223019 15.548961 11.575641 19.385959 -1.556454 0.930897 -0.000141 0.031410 270238.000000 1 0 0
1.349681 20.378861 -1.751659 20.498486 1.504663 1.656354 -0.003219 0.000581 302998.000000 1 0 0
14.182081 9.688661 -1.245859 17.220736 0.599336 1.643206 -0.008776 0.009708 -122886.000000 1 0 0
9.606581 16.773061 3.212641 19.594465 1.050663 1.406096 0.001338 -0.012517 227278.000000 1 0 0
0.133381 17.553461 -0.355259 17.557562 1.563198 1.591032 -0.012201 -0.003532 3737.220000 1 0 0
-0.048719 21.079461 1.296741 21.119365 -1.568485 1.509357 -0.006670 0.004648 223396.000000 1 0 0
5.984281 17.340761 -0.264759 18.346218 1.238494 1.585228 -0.002404 -0.013602 42831.700000 1 0 0
6.851581 18.627061 -2.824159 20.047130 1.218327 1.712142 -0.019843 0.005118 -25140.700000 1 0 0
9.988881 9.463861 12.598641 18.656585 0.758415 0.829436 -0.008062 -0.003518 63167.300000 1 0 0
12.484481 14.583061 8.527741 21.005959 0.862775 1.152759 0.004760 -0.014743 218609.000000 1 0 0
0.455881 17.594961 7.251541 19.036159 1.544892 1.179989 -0.006134 0.005903 312657.000000 1 0 0
7.171681 17.781061 -7.963659 20.760997 1.187420 1.964474 -0.000693 -0.013298 -13035.300000 1 0 0
-0.890819 18.634961 9.611441 20.986547 -1.523029 1.095074 0.016473 0.006545 244034.000000 1 0 0
16.126681 6.572861 -7.911859 19.127725 0.387021 1.997237 0.028795 0.001909 -207985.000000 1 0 0
-4.687419 20.179061 -6.100259 21.595823 -1.342553 1.857169 -0.033987 0.007768 234953.000000 1 0 0
4.262881 15.372861 10.067241 18.863890 1.300294 1.007853 0.004686 0.002207 211001.000000 1 0 0
9.083081 14.740861 7.332441 18.803192 1.018562 1.170211 0.005182 -0.010932 -53169.300000 1 0 0
-2.196519 19.008061 6.769741 20.296810 -1.455749 1.230743 -0.010677 -0.004906 19710.000000 1 0 0
4.798581 17.732061 8.747841 20.346427 1.306510 1.126365 0.004614 -0.001045 315362.000000 1 0 0
15.130681 11.379861 -7.388759 20.323201 0.644847 1.942886 0.021627 -0.018652 -42335.700000 1 0 0
11.721781 6.893161 15.694641 20.766261 0.531597 0.713958 0.033004 -0.003947 217473.000000 1 0 0
16.779081 10.213061 5.005641 20.270684 0.546776 1.321275 -0.001826 0.000437 -14883.600000 1 0 0
5.470481 14.801561 12.714841 20.265230 1.216779 0.892559 0.004579 -0.000907 322829.000000 1 0 0
15.840581 11.017261 -3.935859 19.692512 0.607705 1.772017 0.002351 0.013222 109511.000000 1 0 0
15.359981 13.911961 6.788341 21.807184 0.735971 1.254247 0.010905 0.004313 253232.000000 1 0 0
12.509081 14.554761 -8.084459 20.824905 0.860842 1.969486 0.025330 -0.015109 262918.000000 1 0 0
-8.171419 15.568061 9.707741 20.084244 -1.087441 1.066318 0.005453 -0.001799 207455.000000 1 0 0
-3.877019 16.773461 -7.240159 18.676193 -1.343645 1.968897 -0.013624 0.004088 139671.000000 1 0 0
2.499581 19.231961 -4.603259 19.932542 1.441551 1.803842 -0.007968 -0.017720 -11992.900000 1 0 0
7.401781 15.795061 9.005341 19.630754 1.132572 1.094224 0.012336 -0.024672 482054.000000 1 0 0
13.378381 15.633661 -1.337459 20.619923 0.862978 1.635704 0.015115 0.002473 220471.000000 1 0 0
13.285881 14.906761 3.914041 20.348117 0.842828 1.377236 0.012056 -0.014948 167194.000000 1 0 0
2.353781 18.354361 0.769941 18.520682 1.443252 1.529212 -0.009148 -0.011032 -97212.800000 1 0 0
-7.449819 17.327261 1.324741 18.907372 -1.164742 1.500674 -0.007120 -0.001709 161159.000000 1 0 0
0.124281 20.057961 -5.641559 20.836613 1.564600 1.844971 0.001327 0.007805 161944.000000 1 0 0
-7.386119 18.272061 -6.098559 20.630448 -1.186649 1.870890 0.026909 -0.009460 117850.000000 1 0 0
-7.205219 18.603261 -1.285559 19.991227 -1.201278 1.635147 -0.005685 0.000637 42180.000000 1 0 0
-14.493319 -8.960939 8.891741 19.220244 0.553753 1.089844 0.015146 -0.008271 311897.000000 1 0 0
-13.117819 -13.539739 8.079941 20.510660 0.801224 1.165883 0.010038 -0.008423 -184945.000000 1 0 0
-3.938619 -16.049639 12.447641 20.689306 1.330150 0.925236 0.018433 0.001383 165744.000000 1 0 0
-1.984519 -13.798139 16.025241 21.239946 1.427951 0.715926 -0.006330 -0.002752 464706.000000 1 0 0
-7.791119 -13.419839 13.203841 20.374863 1.044788 0.865781 0.011023 -0.010669 220850.000000 1 0 0
-10.208219 -11.376139 11.730241 19.267144 0.839455 0.916223 0.035872 -0.004534 103531.000000 1 0 0
-7.098519 -10.428439 13.078541 18.171119 0.973149 0.767364 0.010373 -0.009706 236442.000000 1 0 0
-15.201619 -12.321639 7.290841 20.882250 0.681140 1.214142 0.001135 -0.004326 282304.000000 1 0 0
-4.340119 -12.346939 12.874941 18.358857 1.232774 0.793586 0.006754 -0.011194 232270.000000 1 0 0
3.821281 -12.655739 13.777341 19.094110 -1.277560 0.764759 -0.010333 0.000577 385781.000000 1 0 0
7.211381 -13.371539 14.633741 21.093801 -1.076199 0.804119 0.013995 -0.000346 315151.000000 1 0 0
7.227581 -9.286139 16.753841 20.473434 -0.909416 0.612313 -0.015084 0.005925 543282.000000 1 0 0
-4.992219 13.482161 13.725141 19.876378 -1.216167 0.808581 -0.017378 0.016108 400437.000000 1 0 0
-13.368619 -1.568139 17.542341 22.111372 0.116766 0.654483 -0.000714 -0.008926 332253.000000 1 0 0
-9.990019 9.085961 13.426941 19.043054 -0.738041 0.788256 -0.010163 -0.009911 366708.000000 1 0 0
-6.800319 -8.484839 17.145641 20.302952 0.895161 0.565184 0.017691 -0.003576 124910.000000 1 0 0
-4.740519 1.743061 18.462041 19.140474 -0.352350 0.267044 0.014474 -0.002676 551703.000000 1 0 0
-15.303719 -3.912339 14.823341 21.661986 0.250286 0.817150 0.004740 0.001781 188090.000000 1 0 0
-14.579019 2.695261 12.810341 19.593802 -0.182809 0.858207 0.002356 0.005765 240023.000000 1 0 0
-14.488719 10.615861 9.474441 20.307253 -0.632336 1.085405 -0.033729 -0.002504 -201915.000000 1 0 0
-3.628419 11.219461 15.935041 19.823402 -1.258009 0.637057 -0.020868 0.004783 166154.000000 1 0 0
-13.024019 12.504261 9.240941 20.282421 -0.765041 1.097735 -0.016619 -0.007913 46269.600000 1 0 0
-3.952419 -6.602739 18.685941 20.208468 1.031405 0.390657 0.017654 -0.005423 356390.000000 1 0 0
0.531681 -3.172739 17.332241 17.628260 -1.404761 0.183518 -0.000446 -0.022860 155159.000000 1 0 0
-4.220319 6.176761 21.354241 22.626690 -0.971395 0.336962 0.024227 0.005087 352271.000000 1 0 0
2.357781 -10.518539 16.546341 19.747916 -1.350286 0.577413 -0.013558 -0.006531 351868.000000 1 0 0
-14.937119 -0.294239 14.207641 20.617012 0.019696 0.810519 -0.015827 0.008817 89669.000000 1 0 0
-13.780919 -5.522439 7.366041 16.573160 0.381136 1.110229 0.007664 -0.007604 76656.800000 1 0 0
10.246881 0.482061 16.611541 19.523685 0.047010 0.553213 0.012400 0.006431 482063.000000 1 0 0
-7.488719 12.192461 12.203741 18.806071 -1.019995 0.864625 -0.004608 -0.000901 74760.800000 1 0 0
-1.766219 7.246461 20.405141 21.725573 -1.331722 0.350439 0.028276 -0.003461 516579.000000 1 0 0
1.467481 -13.536139 15.283241 20.468464 -1.462806 0.727751 -0.011614 -0.010189 550998.000000 1 0 0
-3.433819 -11.989039 18.357141 22.192630 1.291851 0.596738 0.007696 0.013299 391776.000000 1 0 0
-2.211419 8.506561 17.153341 19.274052 -1.316460 0.473515 0.013787 -0.002453 471315.000000 1 0 0
-3.645019 -9.386139 20.341841 22.697495 1.200381 0.459633 0.012100 -0.009697 125932.000000 1 0 0
-6.629919 -2.792239 19.083741 20.394646 0.398611 0.360493 0.024362 -0.015973 2101.300000 1 0 0
-11.129219 -8.163439 15.552741 20.793966 0.632866 0.725836 0.079729 -0.016241 353805.000000 1 0 0
-0.597719 6.300461 17.689341 18.787386 -1.476210 0.343582 0.016457 -0.010415 59836.800000 1 0 0
-5.998619 -11.146739 19.191741 22.990349 1.077096 0.583074 0.033460 0.003094 342828.000000 1 0 0
0.896481 3.523561 18.925941 19.272011 1.321658 0.189795 0.016140 -0.002829 31471.200000 1 0 0
-18.529119 -0.040039 7.657441 20.049096 0.002161 1.178908 0.009590 -0.004708 292163.000000 1 0 0
-1.484619 -8.622439 17.559441 19.618474 1.400287 0.462261 0.001750 -0.006728 277048.000000 1 0 0
5.949881 3.342261 14.897241 16.385957 0.511809 0.429565 -0.005718 -0.003218 410619.000000 1 0 0
-13.650819 -6.826839 10.060041 18.279907 0.463731 0.988033 0.005674 -0.009805 86198.300000 1 0 0
3.930781 8.234761 16.989241 19.284622 1.125440 0.492881 0.008028 -0.002354 127242.000000 1 0 0
6.447981 4.396661 17.770241 19.408466 0.598452 0.413818 0.010295 -0.017505 207167.000000 1 0 0
5.599781 -9.811639 18.216041 21.434784 -1.052178 0.555123 -0.007762 0.014941 290467.000000 1 0 0
-4.304819 -0.706039 19.939341 20.410960 0.162564 0.215387 0.016575 -0.006859 907709.000000 1 0 0
-11.218119 1.960761 16.812841 20.306708 -0.173037 0.595363 0.034605 -0.013524 69276.300000 1 0 0
-16.797119 -4.186639 8.720841 19.383607 0.244270 1.104134 0.015803 -0.011556 386992.000000 1 0 0
-12.936819 -9.217939 13.216441 20.664124 0.619089 0.876839 0.002353 -0.019288 43309.300000 1 0 0
-14.553219 5.916461 13.228241 20.537455 -0.386131 0.870946 -0.000249 -0.014022 286979.000000 1 0 0
1.307481 9.123961 17.068141 19.397877 1.428463 0.495150 0.006366 -0.016091 197035.000000 1 0 0
-3.628719 -10.465439 14.921141 18.583150 1.237034 0.638586 0.010605 -0.006376 514582.000000 1 0 0
-18.953219 -3.106739 6.656241 20.326876 0.162471 1.237182 0.095506 -0.012314 -351421.000000 1 0 0
-1.221419 -0.248239 21.412541 21.448786 0.200507 0.058143 0.009645 0.001138 198998.000000 1 0 0
-1.570419 2.421361 20.421141 20.624069 -0.995428 0.140396 0.014434 -0.010750 128368.000000 1 0 0
-7.797319 2.093461 16.412841 18.291039 -0.262299 0.457146 0.006843 0.006470 550172.000000 1 0 0
2.630881 -2.294739 18.754541 19.076692 -0.717260 0.184037 -0.008070 -0.006862 126996.000000 1 0 0
-12.125719 4.203261 14.614941 19.449858 -0.333679 0.720590 -0.015008 -0.001168 90091.100000 1 0 0
-13.011419 -5.398139 13.088741 19.228938 0.393265 0.822107 -0.007403 -0.008591 47325.500000 1 0 0
-17.391219 -0.968239 9.786441 19.979149 0.055617 1.058898 0.015253 -0.007938 121629.000000 1 0 0
-7.263919 7.674061 14.949541 18.306953 -0.812848 0.615293 -0.005651 -0.000486 8492.640000 1 0 0
-9.311519 0.782161 14.034741 16.860905 -0.083803 0.587401 0.016012 -0.007397 112354.000000 1 0 0
7.450681 -0.827839 14.914741 16.692737 -0.110655 0.465746 -0.006890 -0.004934 172820.000000 1 0 0
4.072281 6.203561 18.509341 19.941498 0.989905 0.381299 0.008789 -0.002687 65345.900000 1 0 0
1.935081 0.606461 20.019541 20.121987 0.303708 0.100951 0.008917 -0.003932 247347.000000 1 0 0
-7.088219 6.613261 17.442941 19.955808 -0.750747 0.507261 0.005315 -0.005420 687736.000000 1 0 0
7.847081 -3.384939 16.891541 18.930364 -0.407248 0.468384 -0.001814 0.010652 599385.000000 1 0 0
-16.076519 2.598161 9.678441 18.944053 -0.160227 1.034570 -0.002928 -0.000029 112629.000000 1 0 0
3.874881 -6.194939 19.092141 20.442647 -1.011844 0.365523 -0.005234 -0.008011 85862.200000 1 0 0
-3.643119 -3.911839 20.771741 21.448544 0.820952 0.251881 0.015170 -0.009529 261744.000000 1 0 0
-9.752619 5.804761 14.595541 18.488879 -0.536883 0.660928 0.004412 -0.000218 29143.700000 1 0 0
6.591381 2.227361 19.932241 21.111648 0.325873 0.335837 0.011422 -0.002884 -103728.000000 1 0 0
-7.094919 11.297461 14.413241 19.639553 -1.010035 0.746767 -0.006630 -0.008541 327504.000000 1 0 0
-14.415219 5.245261 8.713241 17.641765 -0.348977 1.054229 -0.002674 -0.016003 143782.000000 1 0 0
1.505481 -5.342239 20.144541 20.895180 -1.296113 0.268854 0.015658 -0.016505 283508.000000 1 0 0
-5.912219 -8.142539 13.642541 16.952115 0.942774 0.635510 0.012871 -0.007651 186129.000000 1 0 0
-12.824519 10.101861 6.635641 17.622361 -0.667195 1.184731 -0.017960 -0.016892 120821.000000 1 0 0
-19.424319 2.629061 7.954741 21.154055 -0.134531 1.185279 -0.012617 -0.004406 86509.600000 1 0 0
-15.209719 9.191761 6.201541 18.822410 -0.543601 1.235047 -0.036252 -0.004591 63654.500000 1 0 0
-12.811819 7.601161 14.387741 20.710564 -0.535473 0.802786 -0.002216 -0.010775 265412.000000 1 0 0
-16.304519 9.153961 10.831641 21.609183 -0.511582 1.045752 -0.011308 -0.012846 448654.000000 1 0 0
2.579081 10.616261 14.459541 18.122776 1.332476 0.647050 0.002396 -0.044046 387168.000000 1 0 0
2.070781 14.876661 13.550641 20.229262 1.432488 0.836785 -0.005343 0.003072 673230.000000 1 0 0
8.782581 5.199461 16.854441 19.703815 0.534531 0.544494 -0.002211 0.004176 85162.500000 1 0 0
-0.310719 13.234861 13.574141 18.960892 -1.547323 0.772881 0.003915 0.020039 158297.000000 1 0 0
4.702981 12.417961 14.742741 19.841175 1.208765 0.733198 0.028302 -0.001952 141017.000000 1 0 0
-3.744119 -4.528639 -13.341659 14.578301 0.879947 2.726732 0.001184 -0.005471 228081.000000 1 0 0
5.975681 -12.432939 16.678441 21.643871 -1.122762 0.691038 -0.041977 0.015173 190676.000000 1 0 0
8.874781 -13.933739 6.940841 17.918876 -1.003666 1.173043 -0.003139 0.001077 351235.000000 1 0 0
-0.404419 15.216761 0.434541 15.228335 -1.544225 1.542257 -0.005280 -0.003990 -637808.000000 1 0 0
-14.090319 7.703061 8.556341 18.195747 -0.500300 1.081235 -0.002682 -0.008039 38151.800000 1 0 0
-15.778919 -9.596539 5.913241 19.391603 0.546418 1.260923 -0.004094 0.005282 136556.000000 1 0 0
8.704281 -11.009239 11.308441 18.023560 -0.901792 0.892554 -0.026133 0.008584 76894.600000 1 0 0
-25.006119 5.778761 31.367649 40.529365 -0.227107 0.685743 -0.004285 -0.010819 211384.000000 0 0 1
-23.668319 5.345661 31.143579 39.480222 -0.222130 0.661877 -0.010334 -0.010818 125344.000000 0 0 1
-23.129819 5.101761 32.400139 40.134592 -0.217095 0.631256 -0.002782 -0.004182 -1220000.000000 0 0 1
-21.765119 4.494661 32.242999 39.160354 -0.203645 0.603493 -0.000538 -0.011197 -1227150.000000 0 0 1
-21.798319 3.159161 31.815939 38.696266 -0.143925 0.605537 0.008637 -0.017667 555633.000000 0 0 1
-20.476619 2.656361 31.594399 37.743267 -0.129006 0.578860 -0.002017 -0.012940 562131.000000 0 0 1
-20.079919 1.400061 32.416729 38.157668 -0.069612 0.555671 -0.005936 -0.010670 59551.600000 0 0 1
-20.738519 0.224061 31.927339 38.072186 -0.010804 0.576088 -0.000999 0.000411 352930.000000 0 0 1
-20.813919 -0.667539 33.038589 39.053978 0.032061 0.562410 -0.003134 0.000525 -86611.600000 0 0 1
-21.314619 -2.061839 32.600869 39.004882 0.096434 0.581181 -0.000180 -0.018538 -331799.000000 0 0 1
-20.293619 -2.854739 32.046279 38.038724 0.139755 0.568955 0.021736 -0.034897 -124381.000000 0 0 1
-20.347519 -4.170039 32.484519 38.557162 0.202142 0.568884 0.031912 -0.036778 -909443.000000 0 0 1
-21.524919 -5.100939 32.155739 39.029902 0.232686 0.602583 0.022095 -0.025171 -96848.200000 0 0 1
-22.734019 -4.839039 32.851259 40.242479 0.209725 0.615763 0.020352 -0.020365 343071.000000 0 0 1
-22.731719 -5.093939 34.240836 41.413936 0.220448 0.597410 0.021666 -0.017618 -97181.800000 0 0 1
-24.136519 -4.728639 -34.419172 42.303794 0.193462 2.521146 0.018124 -0.011437 715381.000000 0 0 1
-24.135419 -4.960339 -33.039269 41.215491 0.202699 2.500801 0.029028 -0.015287 61105.000000 0 0 1
-25.333299 -4.591239 -32.410319 41.391838 0.179287 2.470290 0.030018 -0.005962 -341598.000000 0 0 1
-25.317169 -5.014139 -30.925669 40.280238 0.195523 2.446139 0.022720 -0.002770 -363576.000000 0 0 1
-25.243659 -6.441239 -30.736359 40.292128 0.249832 2.438487 0.022839 -0.006638 533432.000000 0 0 1
-25.229829 -6.865839 -29.358719 39.314353 0.265698 2.413986 0.003568 -0.006635 -209259.000000 0 0 1
-25.261179 -8.425339 -29.206669 39.523955 0.321927 2.402324 0.004571 -0.004550 956633.000000 0 0 1
-26.543139 -8.965439 -29.617699 40.769172 0.325737 2.383972 0.023049 0.004230 789668.000000 0 0 1
-26.706939 -10.231039 -29.006959 40.734977 0.365840 2.363266 0.021073 -0.005293 314477.000000 0 0 1
-28.165769 -10.574839 -28.604159 41.513078 0.359165 2.330959 0.050571 -0.000744 376280.000000 0 0 1
-28.163909 -11.436239 -27.456989 40.961928 0.385720 2.305416 0.048479 -0.007506 -564973.000000 0 0 1
-29.434739 -11.749139 -26.969439 41.614862 0.379781 2.275847 0.042604 -0.008455 -513464.000000 0 0 1
-29.309969 -12.659139 -25.725319 41.001465 0.407705 2.249037 0.024829 -0.006236 -282120.000000 0 0 1
-28.851769 -11.944039 -24.621859 39.765821 0.392499 2.238483 0.023425 -0.001549 132549.000000 0 0 1
-29.162269 -12.627439 -23.442659 39.489852 0.408632 2.206368 0.012905 0.001712 -151233.000000 0 0 1
-28.664969 -11.771539 -22.284559 38.168719 0.389662 2.194251 0.011531 0.005514 88071.200000 0 0 1
-28.423369 -12.306839 -20.987859 37.414387 0.408613 2.166338 0.013422 0.007784 832739.000000 0 0 1
-27.276099 -13.169639 -20.833559 36.762238 0.449815 2.173305 0.006443 0.005080 223843.000000 0 0 1
-27.118119 -13.599739 -19.325259 35.969583 0.464847 2.137989 -0.003718 -0.001548 -176073.000000 0 0 1
-26.653839 -12.483139 -18.606259 34.820235 0.438003 2.134537 -0.002126 -0.006513 127687.000000 0 0 1
-26.241129 -12.957639 -17.312959 34.003467 0.458668 2.104996 0.021486 -0.008873 35929.400000 0 0 1
-26.012899 -11.765439 -16.385159 32.917623 0.424759 2.091813 0.021748 -0.017906 -289023.000000 0 0 1
-24.855119 -10.995839 -16.596159 31.845218 0.416514 2.118995 -0.003043 -0.004653 222527.000000 0 0 1
-25.042119 -9.718039 -15.985559 31.258376 0.370178 2.107610 0.005368 -0.006669 725543.000000 0 0 1
-23.649419 -9.021739 -15.800759 29.838746 0.364438 2.128853 0.000851 -0.006051 881029.000000 0 0 1
-22.693519 -9.506139 -14.892659 28.760281 0.396686 2.115097 0.001305 -0.013379 202918.000000 0 0 1
-21.557019 -8.676639 -14.793159 27.546809 0.382657 2.137696 0.004419 -0.024808 196854.000000 0 0 1
-20.553919 -9.175039 -13.704459 26.352554 0.419847 2.117698 -0.007173 -0.018069 -2009.850000 0 0 1
-20.005419 -10.433139 -14.094059 26.602813 0.480712 2.129156 -0.013049 -0.003710 -657948.000000 0 0 1
-18.878119 -10.697139 -13.352059 25.477237 0.515530 2.122428 -0.000299 -0.007892 -286958.000000 0 0 1
-17.934819 -11.797839 -13.955759 25.604881 0.581851 2.147237 -0.000021 -0.002652 493065.000000 0 0 1
-17.251519 -11.578839 -15.241259 25.767817 0.591119 2.203695 0.013611 -0.005752 1014210.000000 0 0 1
-18.136519 -11.515139 -16.371259 27.010180 0.565697 2.221963 0.008219 -0.009453 40413.700000 0 0 1
-17.374519 -11.311439 -17.680359 27.247342 0.577103 2.276913 0.010297 -0.003484 -113640.000000 0 0 1
-18.219019 -11.241039 -18.813459 28.499822 0.552822 2.291782 -0.000060 0.001737 -243693.000000 0 0 1
-17.516519 -10.925539 -19.924459 28.691112 0.557684 2.338448 0.002784 -0.002097 -938039.000000 0 0 1
-18.285119 -11.009839 -21.228059 30.103033 0.541977 2.353473 0.014546 -0.000267 216788.000000 0 0 1
-19.383519 -10.084739 -21.352659 30.550921 0.479735 2.344683 -0.016405 -0.003125 1035560.000000 0 0 1
-20.226019 -10.605039 -22.415859 32.000459 0.482919 2.346874 -0.008967 0.007091 660838.000000 0 0 1
-21.262219 -9.607239 -22.983059 32.750603 0.424388 2.348661 -0.024999 -0.003530 -444501.000000 0 0 1
-20.629819 -8.696539 -23.813659 32.685005 0.398946 2.387044 -0.030526 -0.008999 147781.000000 0 0 1
-21.486219 -7.948139 -24.631559 33.638433 0.354308 2.392408 -0.031685 -0.006934 -362081.000000 0 0 1
-20.597319 -7.229039 -25.661079 33.689754 0.337539 2.436711 -0.030787 -0.008305 -187879.000000 0 0 1
-19.962119 -8.192939 -26.474819 34.154450 0.389460 2.457749 -0.019724 -0.016233 -175169.000000 0 0 1
-19.092419 -7.529139 -27.340829 34.186683 0.375628 2.497676 -0.027366 -0.019930 -478506.000000 0 0 1
-18.021219 -8.446439 -27.966869 34.325681 0.438291 2.523095 -0.000285 -0.017611 -462496.000000 0 0 1
-18.494919 -9.278239 -28.972149 35.602432 0.464978 2.521404 0.010959 -0.021537 293914.000000 0 0 1
-17.429719 -10.117039 -29.401339 35.645312 0.525919 2.540699 -0.003485 -0.018053 236846.000000 0 0 1
-17.854719 -11.294539 -30.343329 36.973980 0.564032 2.533374 0.011529 -0.009791 -272961.000000 0 0 1
-18.179719 -10.899039 -31.649629 38.091866 0.540064 2.551477 0.005719 -0.012738 294879.000000 0 0 1
-18.170819 -12.109639 -32.379179 39.054234 0.587841 2.548261 0.000692 -0.008776 -224506.000000 0 0 1
-18.790519 -11.983939 -33.787359 40.475721 0.567726 2.558486 0.004000 -0.005021 82754.600000 0 0 1
-17.956519 -11.338339 34.491320 40.504884 0.563212 0.551891 0.002408 -0.006514 423662.000000 0 0 1
-18.545519 -11.299339 33.206429 39.677176 0.547212 0.579174 0.003223 -0.014302 -175958.000000 0 0 1
-18.115819 -12.470939 32.274659 39.055868 0.602899 0.598163 -0.001512 -0.005288 -966638.000000 0 0 1
-16.789119 -12.462239 31.872959 38.119122 0.638542 0.580587 0.003241 -0.008282 -342527.000000 0 0 1
-16.372319 -13.403439 30.858169 37.415660 0.686019 0.601055 0.006580 -0.007670 119471.000000 0 0 1
-16.364219 -14.852639 31.322559 38.333944 0.737014 0.614439 0.009035 0.002763 -298702.000000 0 0 1
-17.684719 -15.365939 31.484379 39.244458 0.715355 0.639720 -0.006772 0.007360 244995.000000 0 0 1
-17.672519 -16.741039 31.801849 40.049194 0.758338 0.653321 0.011133 0.001500 -683988.000000 0 0 1
-17.852619 -17.085939 33.335013 41.495402 0.763458 0.637910 -0.004887 -0.008856 41498.600000 0 0 1
-16.706919 -16.584539 34.016608 41.367834 0.781722 0.605362 0.006140 -0.005103 297007.000000 0 0 1
-16.914919 -16.360539 -33.895059 41.263261 0.768739 2.534718 0.005589 -0.004064 -604733.000000 0 0 1
-15.744519 -15.722439 -33.206099 39.971614 0.784696 2.551236 0.002302 -0.001513 -726861.000000 0 0 1
-15.566119 -14.394839 -33.649029 39.771505 0.746325 2.579344 -0.001446 -0.005030 443432.000000 0 0 1
-14.431819 -13.675539 -33.118739 38.628339 0.758498 2.600932 0.004188 0.000322 575702.000000 0 0 1
-14.546919 -13.182039 -31.689919 37.277741 0.736216 2.586977 0.019388 -0.001229 -272667.000000 0 0 1
-14.589019 -14.284039 -30.818569 36.968330 0.774836 2.556476 0.019807 -0.002362 -285411.000000 0 0 1
-15.080419 -13.882939 -29.600049 36.004415 0.744077 2.535926 0.010747 0.002146 -424741.000000 0 0 1
-15.255319 -15.127739 -28.711369 35.859670 0.781199 2.499191 0.022159 0.014566 746202.000000 0 0 1
-14.084219 -15.810939 -28.220799 35.281220 0.843093 2.497894 0.002398 0.007776 493703.000000 0 0 1
-13.350319 -16.571839 -29.201499 36.132871 0.892648 2.511834 -0.001413 -0.000940 -76618.300000 0 0 1
-11.909919 -16.905539 -28.774379 35.434563 0.957058 2.518440 -0.024403 0.013554 776466.000000 0 0 1
-11.004219 -15.765639 -28.948409 34.751382 0.961422 2.555331 -0.033768 0.015338 326189.000000 0 0 1
-9.684219 -16.033639 -28.517589 34.119123 1.027445 2.560429 -0.039368 0.012448 705934.000000 0 0 1
-8.779019 -14.752539 -28.532989 33.299250 1.033998 2.599956 -0.039831 0.013585 166796.000000 0 0 1
-9.249819 -13.806539 -27.606459 32.222604 0.980518 2.599715 -0.037292 0.004851 -832483.000000 0 0 1
-8.311919 -12.889639 -27.180999 31.209573 0.998048 2.627865 -0.021631 0.010170 -1068750.000000 0 0 1
-8.042919 -11.583239 -27.923159 31.281988 0.963867 2.673937 -0.028113 -0.002920 -453944.000000 0 0 1
-7.349519 -11.802439 -29.103299 32.253914 1.013844 2.695914 -0.011562 -0.007236 11012.500000 0 0 1
-7.331919 -10.550339 -29.791699 32.443982 0.963470 2.734436 -0.013718 -0.000555 -259526.000000 0 0 1
-6.462819 -10.606039 -31.066169 33.456882 1.023528 2.761266 -0.011988 0.009050 622150.000000 0 0 1
-5.074819 -10.811039 -30.703019 32.944009 1.131918 2.770622 0.001713 0.005644 2182680.000000 0 0 1
-4.044719 -10.513539 -31.701939 33.643828 1.203535 2.800175 0.005871 0.007815 972286.000000 0 0 1
-3.938619 -8.984339 -31.957769 33.429479 1.157641 2.843763 -0.005946 0.006717 -787077.000000 0 0 1
-2.783719 -8.659339 -32.715929 33.956814 1.259760 2.870418 -0.010170 0.005882 161088.000000 0 0 1
-2.856219 -7.287439 -33.146079 34.057705 1.197260 2.909699 -0.015719 0.003758 626218.000000 0 0 1
-1.502219 -6.686739 -33.668969 34.359403 1.349809 2.940784 -0.012858 0.001933 554800.000000 0 0 1
-1.026719 -7.272139 34.443618 35.217907 1.430538 0.210080 -0.011104 -0.004618 279987.000000 0 0 1
0.233881 -6.744339 34.015677 34.678626 -1.536132 0.195848 -0.019754 0.016482 787959.000000 0 0 1
0.795381 -7.308639 32.646379 33.463934 -1.462395 0.221500 -0.018486 0.015730 -36353.300000 0 0 1
0.126681 -6.876639 31.464379 32.207318 -1.552376 0.215205 -0.017453 0.019874 269548.000000 0 0 1
0.712281 -7.463239 30.306439 31.219986 -1.475646 0.242510 -0.010006 0.013473 -3343.510000 0 0 1
0.241281 -6.847139 28.981089 29.779944 -1.535573 0.232147 -0.010133 0.014650 195891.000000 0 0 1
0.848681 -5.573439 28.608129 29.158335 -1.419685 0.194573 -0.000392 0.009098 368687.000000 0 0 1
0.458281 -5.279639 27.289849 27.799649 -1.484212 0.191806 -0.000773 0.015309 610669.000000 0 0 1
-0.800819 -4.335639 27.093329 27.449728 1.388149 0.161319 0.003577 0.016666 673218.000000 0 0 1
-2.037419 -4.962739 27.249519 27.772579 1.181234 0.194387 0.002879 0.018275 -1018190.000000 0 0 1
-3.098819 -4.086239 27.028229 27.510456 0.921970 0.187512 0.000882 -0.000755 -282826.000000 0 0 1
-4.447119 -4.697739 27.442759 28.194869 0.812797 0.231495 -0.004634 0.002752 -44327.100000 0 0 1
-4.910619 -5.784639 26.658849 27.717692 0.866937 0.277297 -0.008090 0.008658 -256036.000000 0 0 1
-6.187819 -6.226639 27.070799 28.458536 0.788525 0.313576 -0.009914 0.004735 330029.000000 0 0 1
-6.412319 -7.702839 26.797009 28.609985 0.876573 0.357909 0.005825 0.004524 402775.000000 0 0 1
-5.531719 -8.492939 27.618169 29.419266 0.993486 0.351729 0.003437 0.001121 170476.000000 0 0 1
-5.905419 -9.812439 27.818209 30.083395 1.029032 0.390541 0.009792 0.000102 70825.700000 0 0 1
-4.869619 -10.529739 28.737239 30.990603 1.137626 0.383692 0.001094 -0.009586 109252.000000 0 0 1
-5.143219 -11.907839 29.050059 31.814388 1.163080 0.419947 0.009858 -0.012625 -247063.000000 0 0 1
-4.385919 -12.313139 30.120689 32.834518 1.228610 0.409429 0.014119 -0.018262 -626703.000000 0 0 1
-4.307219 -13.807339 30.285599 33.562066 1.268411 0.445545 0.015953 -0.016566 -506056.000000 0 0 1
-5.486419 -14.421739 30.696009 34.355965 1.207276 0.465784 0.041498 -0.031407 -634407.000000 0 0 1
-5.296519 -15.815539 30.729799 34.964338 1.247642 0.497267 0.023697 -0.031601 -108589.000000 0 0 1
-5.717419 -16.486739 32.087199 36.525194 1.236985 0.498094 0.027510 -0.023879 -369275.000000 0 0 1
-7.075419 -16.527239 32.395829 37.049979 1.166297 0.506636 0.028560 -0.021464 -673790.000000 0 0 1
-7.170619 -16.849139 33.720838 38.371945 1.168436 0.497478 0.018701 -0.017145 -16153.000000 0 0 1
-8.620219 -17.178939 34.147963 39.185552 1.105718 0.512660 0.017916 -0.015113 285495.000000 0 0 1
-9.095919 -18.525539 33.797999 39.600960 1.114380 0.548200 0.014050 -0.011593 262207.000000 0 0 1
-9.387519 -18.790639 32.391059 38.605626 1.107481 0.575309 0.017868 -0.014311 -344790.000000 0 0 1
-10.035819 -20.184839 32.294349 39.383631 1.109395 0.609395 0.029615 -0.017729 -339865.000000 0 0 1
-11.318619 -20.338839 32.867939 40.275066 1.062974 0.616190 0.025172 -0.009796 173221.000000 0 0 1
-11.800319 -21.621439 32.778119 41.001698 1.071207 0.644445 0.011998 -0.007895 -268215.000000 0 0 1
-11.227119 -22.575239 33.876077 42.228879 1.109295 0.639823 0.014188 -0.007590 -162738.000000 0 0 1
-9.952019 -23.084039 33.540244 41.914956 1.163752 0.643172 -0.001160 -0.005742 -242644.000000 0 0 1
-9.221519 -23.697339 34.572570 42.916930 1.199689 0.634160 -0.000351 -0.010335 133522.000000 0 0 1
-9.465619 -25.168389 -34.409157 43.669621 1.211069 2.478257 0.013263 -0.003500 -189729.000000 0 0 1
-8.841919 -26.007509 33.902316 43.634127 1.243080 0.680961 0.008654 0.003368 5542.580000 0 0 1
-8.980119 -27.392229 34.108868 44.658612 1.254003 0.701664 0.014836 0.007786 -740659.000000 0 0 1
-8.403419 -28.270449 32.954439 44.224776 1.281863 0.730025 0.023117 0.006902 460248.000000 0 0 1
-7.082119 -27.965069 32.542479 43.488095 1.322762 0.725289 0.004674 -0.005715 -24263.800000 0 0 1
-6.073419 -28.503819 33.347712 44.287967 1.360862 0.718226 0.006381 -0.003847 -235038.000000 0 0 1
-4.654719 -27.894269 33.248207 43.648596 1.405450 0.704826 0.007840 -0.005864 234016.000000 0 0 1
-4.490819 -26.772669 34.090423 43.578667 1.404605 0.672490 0.000870 -0.002459 111150.000000 0 0 1
-4.723219 -25.562699 33.430678 42.348207 1.388087 0.660927 0.004848 -0.002303 -142211.000000 0 0 1
-4.429919 -24.414639 34.377609 42.397155 1.391304 0.625198 -0.005998 0.000589 1215690.000000 0 0 1
-3.037919 -24.317139 -34.494967 42.313768 1.446511 2.523903 -0.011137 -0.000387 1164780.000000 0 0 1
-2.800919 -22.969039 -34.114284 41.221429 1.449452 2.545590 -0.011200 0.001348 -48521.400000 0 0 1
33.146781 -16.074839 2.357941 36.914353 -0.451543 1.506877 0.025869 -0.016150 -248608.000000 0 0 1
33.950746 -16.024839 3.551541 37.710238 -0.441000 1.476477 0.025836 -0.012777 606059.000000 0 0 1
33.288481 -16.534939 4.709041 37.466015 -0.461017 1.444775 0.029635 -0.026268 -78368.200000 0 0 1
34.191546 -16.566339 5.968241 38.459398 -0.451184 1.414984 0.026615 -0.009161 -211680.000000 0 0 1
-34.835727 -17.671339 5.949241 39.511993 0.469452 1.419654 0.036612 -0.010208 -412408.000000 0 0 1
-34.064689 -17.686539 7.121141 39.037512 0.478893 1.387351 0.024665 -0.011314 748222.000000 0 0 1
-32.657129 -18.368039 6.949441 38.107318 0.512352 1.387405 0.025905 -0.019669 476762.000000 0 0 1
-32.853219 -19.732139 6.946641 38.948005 0.540872 1.391480 0.047573 -0.026583 -186033.000000 0 0 1
-31.650589 -20.354639 7.280041 38.328450 0.571513 1.379697 0.029149 -0.020521 -377587.000000 0 0 1
-31.805179 -21.879639 7.536141 39.332956 0.602577 1.378006 0.019493 -0.017963 -197653.000000 0 0 1
-31.877539 -22.595739 6.341041 39.584766 0.616627 1.409914 0.036948 -0.021261 124883.000000 0 0 1
-31.979909 -23.993639 6.617141 40.524016 0.643675 1.406772 0.050084 -0.024027 -313378.000000 0 0 1
-31.461269 -24.965939 5.554141 40.545752 0.670793 1.433380 0.051366 -0.021177 -388303.000000 0 0 1
-32.034939 -24.745939 4.289841 40.706284 0.657726 1.465215 0.046234 -0.018173 246280.000000 0 0 1
-31.319709 -25.361139 3.203041 40.427355 0.680658 1.491484 0.037582 -0.013962 -46231.700000 0 0 1
-31.917249 -25.039539 1.790641 40.606596 0.665227 1.526685 0.033297 -0.003700 36352.500000 0 0 1
-33.079959 -25.847329 1.588641 42.010616 0.663271 1.532972 0.032331 -0.002286 328596.000000 0 0 1
-33.767499 -25.620999 0.374241 42.388909 0.649076 1.561967 0.022367 0.006446 363697.000000 0 0 1
-34.766598 -24.403039 0.445141 42.478498 0.612007 1.560317 0.036039 0.007560 -237713.000000 0 0 1
33.761761 -24.833139 0.478741 41.913846 -0.634183 1.559374 0.028575 0.004721 -198009.000000 0 0 1
32.950281 -23.792739 1.021441 40.655366 -0.625392 1.545669 0.035653 0.009626 150805.000000 0 0 1
31.515441 -24.030639 0.498141 39.635121 -0.651456 1.558228 0.005467 0.012639 -12784.600000 0 0 1
31.415131 -23.591239 -0.834659 39.295721 -0.644110 1.592038 0.013007 0.003674 -73600.600000 0 0 1
30.032211 -23.444539 -1.064959 38.114489 -0.662828 1.598741 -0.004469 0.011646 40281.000000 0 0 1
29.827201 -23.239639 -2.540959 37.897219 -0.661893 1.637895 -0.017881 0.019165 -7812.670000 0 0 1
30.274091 -21.970539 -3.057259 37.530947 -0.627781 1.652346 -0.003486 0.003143 83949.400000 0 0 1
30.222331 -21.914839 -4.498359 37.601658 -0.627387 1.690715 -0.004350 -0.026886 -224919.000000 0 0 1
30.208091 -20.405039 -4.924859 36.785168 -0.594081 1.705081 0.005843 -0.025490 810156.000000 0 0 1
28.932071 -19.903439 -4.496859 35.403861 -0.602584 1.698156 -0.010701 -0.018761 323053.000000 0 0 1
28.950471 -18.474039 -4.563459 34.644553 -0.567982 1.702903 -0.011522 -0.023149 382204.000000 0 0 1
27.810221 -17.857339 -3.689559 33.255162 -0.570812 1.681972 -0.010693 -0.015345 216278.000000 0 0 1
28.123521 -17.696339 -2.300959 33.307466 -0.561640 1.639934 -0.009960 -0.008122 10503.800000 0 0 1
28.756041 -18.749939 -1.569359 34.364706 -0.577804 1.616480 -0.013410 0.008795 -538633.000000 0 0 1
27.931491 -19.971439 -1.157459 34.356459 -0.620732 1.604492 -0.022326 0.010830 -234109.000000 0 0 1
26.891051 -19.574839 -0.259859 33.262148 -0.629227 1.578609 -0.019743 0.027439 101269.000000 0 0 1
26.286341 -20.805139 0.128241 33.523753 -0.669525 1.566971 -0.029647 0.027040 152593.000000 0 0 1
25.076791 -20.610239 1.108441 32.478547 -0.687944 1.536661 -0.032939 0.033133 -201781.000000 0 0 1
24.483801 -21.816639 1.612341 32.833244 -0.727856 1.521670 -0.031750 0.038402 112933.000000 0 0 1
23.684401 -21.644539 2.771541 32.204322 -0.740427 1.484629 -0.042706 0.042151 628179.000000 0 0 1
22.263801 -21.015839 2.579341 30.724507 -0.756571 1.486747 -0.036579 0.036838 -434297.000000 0 0 1
22.229301 -19.725339 2.101641 29.793417 -0.725786 1.500197 -0.016977 0.020439 59213.600000 0 0 1
22.300201 -18.789339 3.144241 29.329584 -0.700161 1.463386 -0.005076 0.031530 -488585.000000 0 0 1
22.400701 -17.353939 2.667741 28.461684 -0.659126 1.476928 -0.011872 0.034208 -266719.000000 0 0 1
21.259501 -16.962939 1.969941 27.268817 -0.673459 1.498492 -0.012305 0.027488 -433499.000000 0 0 1
21.347601 -15.640939 1.654941 26.515993 -0.632323 1.508343 -0.000775 0.013582 -632872.000000 0 0 1
20.123001 -15.123539 0.933341 25.189834 -0.644495 1.533736 -0.001102 0.008782 -728096.000000 0 0 1
19.017501 -15.104039 1.827541 24.354409 -0.671205 1.495686 0.002172 0.011658 -667145.000000 0 1 0
18.075801 -14.165939 1.457841 23.011600 -0.664720 1.507401 0.010770 0.005723 -721683.000000 0 1 0
18.279901 -12.710439 2.005441 22.354683 -0.607580 1.480965 0.005641 0.003507 -897733.000000 0 1 0
19.445001 -12.171039 1.457341 22.986215 -0.559261 1.507353 0.009224 0.001201 58030.900000 0 1 0
19.619001 -10.799239 1.879941 22.473606 -0.503187 1.487047 0.001199 -0.004640 -120412.000000 0 1 0
20.564201 -9.969739 1.000441 22.875379 -0.451422 1.527048 0.008556 -0.002992 -236650.000000 0 1 0
19.849601 -9.550039 -0.141259 22.027934 -0.448430 1.577209 0.005583 -0.002347 890837.000000 0 1 0
20.701501 -9.293139 -1.262759 22.726837 -0.421948 1.626387 0.010218 0.005856 -279034.000000 0 1 0
19.859101 -8.923339 -2.519059 21.917015 -0.422299 1.685987 0.003331 0.004213 -53310.400000 0 1 0
20.541801 -8.244239 -3.589459 22.423588 -0.381661 1.731563 -0.002053 0.004365 861111.000000 0 1 0
21.657201 -8.902939 -4.199459 23.789328 -0.390025 1.748253 -0.003624 0.008521 -350900.000000 0 1 0
21.284301 -10.033239 -5.214359 24.101388 -0.440500 1.788872 -0.008817 0.006992 -245110.000000 0 1 0
20.870901 -9.497739 -6.470059 23.825684 -0.427063 1.845808 -0.000002 -0.005885 141362.000000 0 1 0
19.532401 -9.061339 -6.426959 22.470611 -0.434364 1.860863 -0.003807 0.001816 -843067.000000 0 1 0
18.868801 -9.102539 -7.828659 22.364610 -0.449479 1.928417 -0.002361 0.001993 -310676.000000 0 1 0
18.759101 -10.453439 -8.264759 23.010530 -0.508390 1.938178 -0.005529 0.001870 186207.000000 0 1 0
19.872601 -10.782039 -9.037159 24.348365 -0.497112 1.951055 -0.001773 0.006816 -630114.000000 0 1 0
19.894701 -12.156239 -9.680159 25.244381 -0.548490 1.964334 -0.001615 0.005866 312434.000000 0 0 1
18.745001 -12.409239 -10.511759 24.816554 -0.584767 2.008188 0.008459 0.002092 949911.000000 0 1 0
18.932901 -13.624039 -11.227459 25.886773 -0.623757 2.019407 0.009724 0.010270 689484.000000 0 0 1
17.626201 -14.020639 -12.028959 25.533451 -0.671956 2.061340 0.013619 0.010195 847469.000000 0 0 1
17.648301 -15.328539 -12.505959 26.510859 -0.715169 2.062048 0.012495 0.009292 123194.000000 0 0 1
16.456301 -15.533539 -13.238959 26.217756 -0.756561 2.100134 0.011656 0.003590 -74480.000000 0 0 1
16.309501 -17.017139 -13.690859 27.258438 -0.806628 2.097008 0.011136 0.002119 -363951.000000 0 0 1
15.941001 -17.810839 -12.596559 27.018786 -0.840741 2.055804 0.011776 0.004946 158424.000000 0 0 1
15.741901 -19.152039 -12.930859 27.960958 -0.882817 2.051565 0.006260 0.005228 -335671.000000 0 0 1
14.873401 -19.981039 -11.934659 27.620573 -0.930904 2.017609 0.004201 0.006921 205527.000000 0 0 1
13.495501 -19.904439 -12.257759 26.991997 -0.974979 2.042187 0.003751 0.009853 -583442.000000 0 0 1
12.783201 -20.729839 -11.391059 26.886663 -1.018219 2.008289 -0.001148 0.008863 -916923.000000 0 0 1
11.338401 -20.660239 -11.846959 26.377173 -1.068873 2.036595 -0.005480 0.005236 -438796.000000 0 0 1
10.429101 -21.223139 -10.891959 26.035025 -1.114050 2.002433 -0.008970 0.008449 -226487.000000 0 0 1
9.095901 -20.968739 -11.229759 25.466270 -1.161509 2.027471 -0.002206 0.014759 133435.000000 0 0 1
8.058001 -21.628139 -10.242459 25.251054 -1.214158 1.988459 0.001464 0.007332 242878.000000 0 0 1
8.036201 -23.028639 -10.273659 26.465956 -1.235043 1.969457 0.011331 0.008240 -12297.000000 0 0 1
7.160401 -23.590739 -9.314659 26.354453 -1.276108 1.932040 0.012477 -0.009368 186555.000000 0 0 1
7.114101 -25.121519 -9.500359 27.784132 -1.294834 1.919771 0.023142 -0.002829 325706.000000 0 0 1
8.370501 -25.690759 -9.191159 28.540459 -1.255825 1.898679 0.017057 0.005207 -152403.000000 0 0 1
8.518801 -26.905189 -9.855259 29.892897 -1.264160 1.906767 0.005611 0.009185 467778.000000 0 0 1
9.947601 -27.483499 -9.636459 30.775945 -1.223517 1.889269 0.007941 0.012335 269995.000000 0 0 1
10.352501 -27.742959 -8.342559 30.764335 -1.213642 1.845411 0.016522 0.020260 -39282.500000 0 0 1
11.660301 -28.292309 -8.424459 31.739390 -1.179871 1.839442 0.023118 0.033225 245411.000000 0 0 1
12.359901 -28.450079 -6.988359 31.796404 -1.160956 1.792390 0.014529 0.015084 152783.000000 0 0 1
11.842001 -29.389449 -6.062659 32.260324 -1.187763 1.759850 0.031310 0.004309 -1102400.000000 0 0 1
10.521901 -29.261979 -5.695459 31.613479 -1.225616 1.751945 0.034175 0.009507 -1052610.000000 0 0 1
10.108901 -30.368519 -4.648159 32.342576 -1.249459 1.715012 0.048982 -0.000749 179182.000000 0 0 1
10.188801 -31.731959 -4.949159 33.693071 -1.260105 1.718219 0.053504 -0.005457 -59544.600000 0 0 1
9.229501 -32.077489 -5.933159 33.902085 -1.290639 1.746711 0.049918 0.002088 311565.000000 0 0 1
9.478401 -33.598789 -6.321159 35.477821 -1.295836 1.749925 0.033751 -0.002610 276838.000000 0 0 1
8.953701 -34.419798 -5.299259 35.957939 -1.316304 1.718709 0.033456 -0.007629 290679.000000 0 0 1
9.540601 33.637167 -5.416159 35.381024 1.294422 1.724481 0.025505 -0.008829 269214.000000 0 0 1
9.082801 32.723987 -4.247359 34.225672 1.300054 1.695216 0.020099 -0.000182 201263.000000 0 0 1
7.729801 32.332217 -4.327459 33.523857 1.336127 1.700243 0.027992 -0.009183 -468522.000000 0 0 1
7.394401 31.400517 -3.314659 32.429255 1.339523 1.673187 0.005221 -0.007820 1256870.000000 0 0 1
6.001901 30.624217 -3.446759 31.396586 1.377264 1.680799 0.004122 -0.012725 1255330.000000 0 0 1
5.849501 29.838127 -4.605059 30.752838 1.377210 1.721106 -0.009495 -0.013105 93493.500000 0 0 1
5.377001 30.599897 -5.758059 31.597802 1.396853 1.754050 0.007192 -0.022704 -312443.000000 0 0 1
5.271401 29.908757 -7.154959 31.201199 1.396339 1.802172 0.022836 -0.028192 -575391.000000 0 0 1
4.393401 28.853787 -7.293159 30.083769 1.419693 1.815664 0.021071 -0.027248 -218195.000000 0 0 1
4.921601 27.580377 -6.876759 28.847689 1.394209 1.811495 0.012814 -0.020406 77472.300000 0 0 1
4.010101 26.436087 -7.417459 27.748267 1.420254 1.841399 0.013762 -0.018739 293869.000000 0 0 1
2.692101 26.365837 -6.907459 27.388278 1.469043 1.825754 0.015648 -0.020193 -253261.000000 0 0 1
1.680601 26.824107 -7.770059 27.977329 1.508225 1.852224 0.021497 -0.025332 150835.000000 0 0 1
1.181901 26.011767 -8.974959 27.541946 1.525390 1.902723 0.035307 -0.023193 -350220.000000 0 0 1
2.204701 25.908877 -9.938859 27.837233 1.485906 1.935888 0.027062 -0.022341 233497.000000 0 0 1
1.791901 25.134387 -11.141559 27.551455 1.499624 1.987109 0.030206 -0.015905 13939.200000 0 0 1
1.625501 23.599027 -11.172259 26.160575 1.502025 2.012040 0.034772 -0.014189 -183306.000000 0 0 1
0.508501 23.149327 -10.461559 25.408544 1.548834 1.995152 0.030917 -0.012571 -292472.000000 0 0 1
0.716501 21.783627 -10.125459 24.032576 1.537916 2.005699 0.020674 -0.010159 -887913.000000 0 1 0
-0.295299 21.056827 -9.275759 23.011233 -1.556773 1.985695 0.023971 -0.006869 -659007.000000 0 1 0
-1.542199 20.958227 -9.919259 23.238273 -1.497344 2.011803 0.029948 -0.011220 -663229.000000 0 1 0
-2.489699 20.321927 -9.111359 22.409734 -1.448891 1.989504 0.017846 -0.008993 -822546.000000 0 1 0
-3.845699 20.418227 -9.771759 22.960415 -1.384631 2.010412 0.014149 -0.010914 -1133310.000000 0 1 0
-4.907499 19.813127 -9.118159 22.355857 -1.327994 1.990910 0.012407 -0.012767 -793422.000000 0 1 0
-5.871299 19.409827 -10.039759 22.627644 -1.277056 2.030513 0.012750 -0.008478 -1245360.000000 0 1 0
-6.674199 18.312027 -9.322359 21.605130 -1.221289 2.016938 0.016093 -0.010988 -466913.000000 0 1 0
-7.710299 18.760927 -8.452059 21.974039 -1.180863 1.965612 0.033768 -0.007231 796430.000000 0 1 0
-8.929399 18.859527 -9.237859 22.820034 -1.128598 1.987571 0.038386 -0.012168 -183687.000000 0 1 0
-10.130499 19.151627 -8.365359 23.224794 -1.084248 1.939269 0.055853 -0.016831 -440406.000000 0 1 0
-10.283899 18.068327 -7.472859 22.092230 -1.053357 1.915861 0.050363 -0.015535 244654.000000 0 1 0
-11.368299 18.374427 -6.569759 22.583612 -1.016739 1.865972 0.054371 -0.013483 511012.000000 0 1 0
-11.800899 17.171827 -5.730459 21.609512 -0.968696 1.839189 0.046331 -0.021823 -261223.000000 0 1 0
-12.769299 17.502527 -4.777359 22.185955 -0.940500 1.787829 0.054796 -0.025867 -68570.700000 0 1 0
-13.136399 16.439727 -3.895359 21.401014 -0.896626 1.753834 0.055364 -0.025550 -417687.000000 0 1 0
-14.396599 16.807927 -3.113459 22.348649 -0.862520 1.710564 0.052871 -0.026114 -1238430.000000 0 1 0
-15.563999 16.729627 -3.855659 23.172928 -0.821477 1.737960 0.061239 -0.035564 -879426.000000 0 1 0
-16.492499 17.403727 -3.045059 24.169498 -0.812275 1.697120 0.052538 -0.027705 -645981.000000 0 1 0
-17.884899 17.633527 -3.642759 25.378742 -0.778321 1.714830 0.041366 -0.025762 -392320.000000 0 0 1
-17.821999 18.336527 -4.872659 26.030649 -0.799627 1.759096 0.043886 -0.028884 -612792.000000 0 0 1
-19.090899 18.608327 -5.364359 27.193907 -0.772598 1.769362 0.015568 -0.029357 -556084.000000 0 0 1
-18.994399 19.542527 -6.621359 28.045319 -0.799621 1.809142 0.002109 -0.011835 -198415.000000 0 0 1
-18.740899 20.885327 -6.256359 28.749960 -0.839462 1.790164 0.011528 -0.009587 -337.206000 0 0 1
-18.550599 21.662027 -7.396859 29.463225 -0.862619 1.824565 -0.002160 0.004143 -72261.400000 0 0 1
-18.373899 23.096027 -7.013359 30.335026 -0.898779 1.804104 -0.001403 0.006906 -125210.000000 0 0 1
-17.034599 23.251127 -6.623459 29.574696 -0.938501 1.796669 0.015383 0.002523 -219634.000000 0 0 1
-16.959799 24.493397 -5.891959 30.369005 -0.965174 1.766047 0.012543 0.000126 754314.000000 0 0 1
-15.543699 24.781987 -5.284059 29.726667 -1.010604 1.749501 0.026854 -0.001244 597806.000000 0 0 1
-15.500399 26.055627 -4.669959 30.675178 -1.034138 1.723630 0.022559 -0.009777 222312.000000 0 0 1
-14.228099 26.500737 -4.203959 30.371057 -1.078071 1.709662 0.029740 -0.006933 172325.000000 0 0 1
-13.810599 27.832917 -4.837559 31.445284 -1.110196 1.725250 0.035975 -0.003571 229405.000000 0 0 1
-14.566399 28.985357 -4.451259 32.743619 -1.105116 1.707161 0.031309 -0.003639 188780.000000 0 0 1
-13.895099 30.076767 -5.039059 33.512353 -1.138018 1.721733 0.022843 -0.002832 111061.000000 0 0 1
-14.490999 31.392087 -4.569859 34.876006 -1.138327 1.702206 0.020683 -0.011838 709815.000000 0 0 1
-15.828999 31.700197 -4.987059 35.781705 -1.107681 1.710626 0.036114 -0.006142 493450.000000 0 0 1
-16.324899 32.801947 -4.270859 36.887807 -1.109006 1.686836 0.035233 -0.009594 -26894.700000 0 0 1
12.553581 -8.537339 18.921159 24.258788 -0.597226 0.676176 0.021404 -0.003252 110540.000000 0 1 0
13.257281 -9.723239 19.301059 25.354048 -0.632809 0.705540 0.039856 -0.000446 148260.000000 0 0 1
13.236281 -10.742439 18.334359 25.034933 -0.681768 0.749028 0.025359 -0.010822 -66953.100000 0 0 1
13.601981 -12.122239 18.897759 26.250483 -0.727938 0.767136 0.031205 -0.012508 513778.000000 0 0 1
14.921981 -12.214639 19.464659 27.399560 -0.685960 0.780729 0.028315 -0.002884 933789.000000 0 0 1
15.180281 -13.419139 20.170759 28.589749 -0.723896 0.787634 0.033335 -0.010131 -98401.900000 0 0 1
15.652781 -14.691539 19.432759 28.956571 -0.753731 0.835105 0.018129 -0.010894 -437838.000000 0 0 1
14.675781 -15.161539 18.543159 28.090916 -0.801677 0.849828 0.021924 -0.010709 110283.000000 0 0 1
15.020181 -16.392239 17.979459 28.593221 -0.829049 0.890785 0.018985 -0.009963 -436869.000000 0 0 1
14.427481 -16.677339 16.588759 27.594796 -0.857604 0.925850 0.010218 -0.010821 1427390.000000 0 0 1
12.969881 -16.518639 16.568659 26.750770 -0.905166 0.902855 0.012487 -0.013374 1429310.000000 0 0 1
12.457981 -16.473039 15.273359 25.687308 -0.923298 0.934043 0.012475 -0.013875 -48523.200000 0 0 1
11.908581 -17.799439 14.731759 25.993443 -0.981151 0.968242 0.005276 -0.003190 -470969.000000 0 0 1
12.919681 -18.618339 14.231959 26.760220 -0.964161 1.010033 -0.005191 0.001046 -37397.600000 0 0 1
12.376981 -19.864839 13.741059 27.140711 -1.013593 1.039920 0.009745 -0.002469 -305871.000000 0 0 1
13.339481 -20.944339 13.204059 28.123909 -1.003684 1.082077 0.005227 -0.002303 -511868.000000 0 0 1
13.997981 -21.586839 14.264459 29.417850 -0.995512 1.064557 0.001402 -0.007786 -206016.000000 0 0 1
14.637181 -22.722839 13.687759 30.297347 -0.998536 1.102036 -0.005375 -0.013876 -134285.000000 0 0 1
15.516681 -23.538639 14.678859 31.785277 -0.987980 1.090758 0.004640 -0.012979 334119.000000 0 0 1
16.813481 -22.995039 14.909159 32.151952 -0.939450 1.088619 -0.028929 -0.015806 -5728.980000 0 0 1
17.486481 -23.841939 15.824159 33.535341 -0.937982 1.079391 -0.017547 -0.016026 -41773.500000 0 0 1
18.936881 -23.361739 15.987759 34.058549 -0.889629 1.082163 -0.041016 -0.021335 -153215.000000 0 0 1
19.849081 -23.688739 14.999459 34.352964 -0.873362 1.118949 -0.032160 -0.016587 -263861.000000 0 0 1
21.149181 -23.159739 15.224359 34.863197 -0.830743 1.118882 -0.023263 -0.012835 784865.000000 0 0 1
22.322781 -23.928339 14.548159 35.812301 -0.820098 1.152468 -0.020600 -0.013972 -58739.300000 0 0 1
22.683081 -24.983539 15.417059 37.099664 -0.833622 1.142240 -0.011778 -0.018292 397681.000000 0 0 1
23.663081 -25.862569 14.870359 38.078097 -0.829780 1.169597 0.000928 -0.016575 -144871.000000 0 0 1
23.857981 -27.019019 15.914659 39.401866 -0.847449 1.155013 0.009218 -0.017112 -160790.000000 0 0 1
24.252281 -26.541969 17.202459 39.856917 -0.830445 1.124525 0.006002 -0.007732 293875.000000 0 0 1
24.703581 -27.585299 18.079359 41.207752 -0.840454 1.116604 0.015985 0.004721 349250.000000 0 0 1
25.095981 -27.104619 19.473659 41.757539 -0.823858 1.085635 0.015360 0.003133 186759.000000 0 0 1
23.913181 -26.897569 20.212859 41.278071 -0.844066 1.059079 0.015669 0.013358 138542.000000 0 0 1
24.217781 -26.497919 21.546059 41.867330 -0.830327 1.030224 0.020972 0.015344 -831502.000000 0 0 1
23.053581 -26.622819 22.459359 41.769186 -0.857125 1.003088 0.035692 0.004889 -776117.000000 0 0 1
22.726781 -27.978149 22.753659 42.626428 -0.888597 1.007717 0.033517 0.005967 353299.000000 0 0 1
21.445981 -28.125619 23.360159 42.387234 -0.919339 0.987099 0.030939 -0.000151 482126.000000 0 0 1
20.984781 -29.656299 23.390259 43.208348 -0.954988 0.998770 0.054051 0.002895 -492071.000000 0 0 1
21.805981 -30.442709 24.197479 44.584497 -0.949217 0.997109 0.044818 -0.004004 89155.100000 0 0 1
21.901781 -31.799739 23.642059 45.275362 -0.967667 1.021387 0.054638 -0.007739 -77217.600000 0 0 1
22.996481 -32.589479 24.372939 46.743475 -0.956294 1.022283 0.030833 -0.002999 -58888.600000 0 0 1
22.522281 -32.771749 25.684839 47.338691 -0.968681 0.997296 0.030565 -0.010838 788447.000000 0 0 1
23.559981 -32.686579 26.694649 48.333109 -0.946257 0.985669 0.025449 -0.009522 535320.000000 0 0 1
22.968381 -32.925539 28.176309 49.046325 -0.961693 0.958823 0.011195 -0.010600 590736.000000 0 0 1
22.444981 -34.240629 28.477539 49.871516 -0.990559 0.963051 0.011197 -0.010368 648152.000000 0 0 1
21.414681 34.558623 27.662689 49.174296 1.016044 0.973337 0.019473 -0.008143 -95362.000000 0 0 1
20.710981 33.370136 28.308139 48.413443 1.015335 0.946266 0.041881 -0.022720 -156608.000000 0 0 1
19.930481 33.689040 29.444029 48.980877 1.036575 0.925878 0.021759 -0.017294 109998.000000 0 0 1
19.665481 32.457877 30.110439 48.444643 1.026067 0.900085 0.039057 -0.019730 -66298.200000 0 0 1
19.527881 32.634907 31.621599 49.460093 1.031573 0.877162 0.026201 -0.018492 -234384.000000 0 0 1
20.740581 32.882537 32.285109 50.534752 1.008075 0.877769 0.017809 -0.006509 -217847.000000 0 0 1
20.589981 33.129177 33.665063 51.525005 1.014714 0.858764 0.000708 -0.004385 295425.000000 0 0 1
21.964281 33.162287 34.398533 52.587318 0.985804 0.857775 -0.010596 0.009038 466397.000000 0 0 1
22.245881 31.784157 -34.483836 51.906134 0.960134 2.297420 -0.010638 0.007682 -229636.000000 0 0 1
23.384481 31.654827 -33.673949 51.795722 0.934545 2.278552 -0.007119 0.018445 -229744.000000 0 0 1
23.645681 30.230867 -33.353149 50.847380 0.907022 2.286232 -0.004437 0.013240 -305311.000000 0 0 1
24.207081 29.514927 -34.409830 51.392121 0.883881 2.304405 0.002977 0.005737 -219535.000000 0 0 1
23.530381 28.290237 -34.581477 50.496484 0.876994 2.325166 0.008678 -0.006411 -105883.000000 0 0 1
23.564181 27.754907 33.253220 49.309047 0.866878 0.830667 0.014437 -0.014603 375991.000000 0 0 1
24.785281 27.089507 32.934759 49.323928 0.829788 0.839650 0.008303 -0.016607 757255.000000 0 0 1
24.634281 26.273677 31.804499 48.048726 0.817590 0.847417 0.018662 -0.026338 412467.000000 0 0 1
25.785381 25.184107 31.742969 48.028546 0.773602 0.848754 0.010145 -0.018758 429607.000000 0 0 1
25.793281 24.272227 32.814669 48.282884 0.755026 0.823533 0.021054 -0.022921 477541.000000 0 0 1
26.582381 24.686667 33.923281 49.667328 0.748439 0.818921 0.023137 -0.024448 -1170490.000000 0 0 1
26.290181 23.860927 -34.064089 49.202435 0.736997 2.335503 0.020278 -0.023639 -667736.000000 0 0 1
25.222581 24.316927 -33.212279 48.275739 0.767119 2.329485 0.022224 -0.014882 461916.000000 0 0 1
23.920881 24.121827 -33.666549 47.827896 0.789581 2.351684 0.021550 -0.008900 -781284.000000 0 0 1
23.459381 22.614727 -33.750239 46.913186 0.767068 2.373762 0.004129 -0.009689 -1017540.000000 0 0 1
23.463981 21.952127 -32.494619 45.698518 0.752122 2.361808 -0.004264 -0.019275 344948.000000 0 0 1
23.235081 20.544627 -32.685819 45.058999 0.724021 2.382412 -0.000013 -0.006646 -177301.000000 0 0 1
23.303481 19.759427 -31.362449 43.784591 0.703284 2.369267 0.005964 -0.016581 -37329.700000 0 0 1
22.196881 20.019727 -30.506829 42.710158 0.733873 2.366385 0.000082 -0.007117 273743.000000 0 0 1
22.275181 19.260527 -29.301199 41.541688 0.712945 2.353705 0.000526 -0.005955 714387.000000 0 0 1
20.949981 19.316627 -28.451889 40.268396 0.744857 2.355416 0.018560 -0.012762 676146.000000 0 0 1
21.121481 18.522527 -27.259529 39.144385 0.719935 2.341143 0.025496 -0.008494 -123229.000000 0 0 1
21.809681 19.220027 -26.265199 39.178212 0.722365 2.305548 0.025054 -0.000120 -233323.000000 0 0 1
21.928581 18.419127 -24.974059 37.997770 0.698636 2.287961 0.030758 0.001031 -88599.100000 0 0 1
22.952481 17.459727 -25.027959 38.184515 0.650308 2.285572 0.020337 -0.006816 183941.000000 0 0 1
22.796881 16.549027 -23.959659 36.981527 0.627920 2.275597 0.027323 0.000326 -68058.900000 0 0 1
23.767781 15.333627 -24.063859 37.136193 0.572954 2.275738 0.047808 -0.010421 121098.000000 0 0 1
25.123481 15.696127 -23.801659 38.001009 0.558426 2.247649 0.051752 -0.018005 316752.000000 0 0 1
25.953981 14.561227 -23.720759 38.056706 0.511280 2.243752 0.052115 -0.023299 -226366.000000 0 0 1
25.865381 13.792627 -22.385559 36.883163 0.489890 2.222990 0.057540 -0.019172 -874808.000000 0 0 1
24.648481 13.116127 -22.234059 35.692209 0.489018 2.243290 0.059237 -0.017924 -266704.000000 0 0 1
24.446781 12.603727 -20.912459 34.551845 0.476016 2.220875 0.049636 -0.023285 558546.000000 0 0 1
22.977781 12.152627 -20.638859 33.190771 0.486488 2.241867 0.044281 -0.013885 755339.000000 0 0 1
21.981881 13.153727 -20.504259 32.812319 0.539234 2.245794 0.066010 -0.010779 -492887.000000 0 0 1
20.790481 12.658727 -21.031659 32.168589 0.546917 2.283385 0.059259 -0.015862 208472.000000 0 0 1
19.716381 13.804027 -21.242259 32.101720 0.610813 2.293903 0.054510 -0.012244 -221117.000000 0 0 1
20.181281 14.769327 -22.130559 33.394292 0.631772 2.295221 0.048310 -0.004929 360711.000000 0 0 1
19.340081 15.907427 -22.382859 33.586863 0.688317 2.300189 0.033703 -0.000537 304696.000000 0 0 1
17.931781 15.761727 -23.009759 33.157651 0.721081 2.337757 0.029755 0.009209 19079.600000 0 0 1
16.975381 15.141727 -22.165559 31.760785 0.728367 2.343245 0.020724 -0.005782 -134556.000000 0 0 1
15.786081 15.018327 -22.903459 31.612006 0.760480 2.381131 0.025220 -0.020668 -587545.000000 0 0 1
14.703081 14.142127 -22.270559 30.201956 0.765954 2.399991 0.007437 -0.012690 -164704.000000 0 0 1
13.562581 14.224527 -23.106459 30.334621 0.809216 2.436759 0.015855 -0.011229 -89354.900000 0 0 1
12.389281 13.613727 -22.591659 29.141223 0.832452 2.457903 0.029398 -0.010678 551144.000000 0 0 1
11.166981 13.974727 -23.494859 29.529694 0.896614 2.490851 0.025906 -0.008101 317.145000 0 0 1
10.838281 15.342327 -23.476259 30.066427 0.955768 2.466762 0.009349 -0.003789 93912.100000 0 0 1
10.297281 15.858527 -24.665659 31.079279 0.994898 2.487560 0.012966 -0.010687 -817723.000000 0 0 1
10.351781 17.419927 -24.602659 31.873250 1.034616 2.452606 0.002953 0.000291 941508.000000 0 0 1
11.629481 18.115627 -24.554759 32.655121 1.000095 2.421799 0.003248 -0.002737 1463490.000000 0 0 1
12.694881 17.773027 -25.456609 33.542204 0.950552 2.432484 0.006274 -0.007418 55298.100000 0 0 1
12.383481 17.807627 -26.953439 34.596966 0.963162 2.463976 0.012193 -0.013714 -1071670.000000 0 0 1
13.455181 17.630627 -27.818949 35.577729 0.918919 2.468537 0.004232 -0.013753 -388016.000000 0 0 1
12.937881 17.431227 -29.110859 36.313614 0.932290 2.500849 0.012954 -0.019860 -390212.000000 0 0 1
13.974081 17.696127 -30.159009 37.656257 0.902387 2.499598 0.015193 -0.010589 -1352170.000000 0 0 1
14.999781 16.825927 -30.354249 37.808540 0.842715 2.502842 -0.003719 -0.010894 -638147.000000 0 0 1
15.791381 17.295627 -31.485489 39.240826 0.830830 2.502045 -0.002962 0.002191 250490.000000 0 0 1
17.011681 16.370927 -31.664569 39.497461 0.766206 2.500907 0.002307 -0.002640 -971150.000000 0 0 1
17.927681 16.422427 -30.610729 39.091106 0.741605 2.470369 0.011886 -0.006351 -199483.000000 0 0 1
19.068381 15.622527 -30.805799 39.454578 0.686393 2.466728 0.024122 -0.005997 -360858.000000 0 0 1
20.225281 16.330027 -31.489179 40.832587 0.679241 2.451485 0.014631 -0.005044 -1218700.000000 0 0 1
20.108781 16.589127 -32.870219 41.952515 0.689782 2.471091 0.018132 -0.000780 -367061.000000 0 0 1
21.113581 17.426927 -33.325999 43.128915 0.690032 2.453890 0.018251 -0.002078 -548121.000000 0 0 1
21.263181 17.517927 34.433189 44.098131 0.689123 0.674801 0.010196 0.012129 -88643.400000 0 0 1
22.302981 18.386327 34.060665 44.672238 0.689436 0.703694 0.011971 0.004468 137137.000000 0 0 1
22.293881 18.578627 32.673249 43.700386 0.694749 0.726257 0.011450 0.005293 -177008.000000 0 0 1
23.011981 19.912627 32.299949 44.377367 0.713319 0.755619 0.023701 0.002125 402422.000000 0 0 1
24.424581 19.830527 32.435009 45.186721 0.681960 0.770160 0.010191 -0.001971 -31625.200000 0 0 1
24.975481 21.101527 32.305269 45.963893 0.701520 0.791414 0.012234 -0.007130 -291174.000000 0 0 1
26.507781 21.052627 32.186139 46.709989 0.671198 0.810601 0.007535 -0.008333 -189330.000000 0 0 1
27.174181 20.564227 33.355440 47.685521 0.647811 0.796116 0.004245 -0.007332 -1017160.000000 0 0 1
28.528681 20.632827 33.112899 48.332839 0.626148 0.816053 -0.002221 -0.004683 -749648.000000 0 0 1
29.432581 20.062927 34.268007 49.427666 0.598309 0.804744 0.001712 -0.003163 109954.000000 0 0 1
29.350181 20.652627 -33.723699 49.246847 0.613180 2.325110 0.003205 -0.005570 574776.000000 0 0 1
28.204981 20.273727 -32.924079 47.859585 0.623232 2.329430 -0.004462 -0.011620 337956.000000 0 0 1
28.406481 20.426327 -31.391749 47.006435 0.623412 2.302070 0.002031 -0.008547 -408142.000000 0 0 1
29.388581 19.506127 -31.029349 46.978699 0.585968 2.292278 0.000168 -0.010891 -351323.000000 0 0 1
29.909881 19.946027 -29.774069 46.679119 0.588144 2.262494 -0.005519 -0.010085 389231.000000 0 0 1
31.429081 19.716527 -29.583539 47.452232 0.560276 2.243929 -0.010772 -0.001267 156021.000000 0 0 1
32.323081 20.416427 -30.401229 48.845130 0.563357 2.242602 -0.010852 -0.006009 369095.000000 0 0 1
33.644881 20.241227 -29.883269 49.342629 0.541605 2.221351 -0.021681 0.002147 974242.000000 0 0 1
34.801981 21.101727 -30.493779 50.855986 0.545066 2.213811 -0.026086 -0.004538 429894.000000 0 0 1
-34.563839 20.634227 -31.715139 51.247247 -0.538202 2.238094 -0.027389 -0.001127 86829.100000 0 0 1
-33.705139 21.493927 -32.445929 51.485567 -0.567683 2.252600 -0.017293 -0.003254 -494721.000000 0 0 1
-32.983539 20.857727 -33.575329 51.480689 -0.563880 2.281270 -0.019838 0.000632 -263127.000000 0 0 1
-32.061239 19.874927 -33.083669 50.174345 -0.554927 2.290782 -0.005859 -0.003370 505222.000000 0 0 1
-31.269739 19.372727 -34.170651 50.206897 -0.554660 2.319373 -0.004025 0.001064 -200361.000000 0 0 1
-30.498139 18.110427 -33.699529 48.926294 -0.535864 2.330603 -0.007852 -0.002263 -357575.000000 0 0 1
-31.272939 16.985127 -33.307029 48.742686 -0.497550 2.323102 -0.011711 -0.003710 68566.400000 0 0 1
-30.573239 15.769327 -33.502399 48.018802 -0.476199 2.342969 -0.018967 0.000810 82310.400000 0 0 1
-31.585539 14.606127 -33.621619 48.387999 -0.433143 2.338985 -0.025332 0.001227 47392.300000 0 0 1
-30.978139 13.341727 -33.751819 47.716161 -0.406673 2.356532 -0.013960 -0.006499 256088.000000 0 0 1
-31.923639 12.360327 -33.358519 47.798401 -0.369410 2.343258 -0.007689 -0.005918 -52448.200000 0 0 1
-31.258139 11.008027 -33.411879 47.059553 -0.338602 2.360282 -0.008630 0.001689 -147578.000000 0 0 1
-30.921139 10.611927 34.549579 47.564727 -0.330598 0.757771 -0.019025 -0.001084 219538.000000 0 0 1
-31.453039 9.301027 34.324767 47.476230 -0.287518 0.762678 0.000300 -0.008860 16289.200000 0 0 1
-30.743939 8.503727 33.179709 46.026039 -0.269852 0.765711 0.008989 -0.011408 -269225.000000 0 0 1
-29.482839 8.039427 33.544126 45.377071 -0.266210 0.738869 0.007825 0.001843 -404835.000000 0 0 1
-28.702239 7.606127 32.434579 43.973556 -0.259047 0.741298 0.003404 0.001440 190704.000000 0 0 1
19.187881 -4.125539 -31.134729 36.804432 -0.211783 2.579141 0.017760 -0.008307 -305167.000000 0 0 1
20.190681 -4.338239 -32.092169 38.162694 -0.211646 2.569797 0.032506 -0.014171 513260.000000 0 0 1
21.360081 -3.512239 -31.912459 38.561560 -0.162972 2.545565 0.020733 -0.012946 735788.000000 0 0 1
21.268981 -2.103339 -32.531869 38.924492 -0.098572 2.560327 0.018943 -0.010498 -405375.000000 0 0 1
22.358281 -1.287039 -32.167869 39.195931 -0.057501 2.533421 0.015550 -0.012162 279132.000000 0 0 1
22.091181 0.034961 -32.559999 39.346855 0.001583 2.545458 0.008109 -0.009725 545318.000000 0 0 1
23.230881 0.983261 -32.051269 39.597026 0.042300 2.513988 0.013666 -0.010592 833503.000000 0 0 1
24.525181 0.926461 -32.636329 40.834701 0.037758 2.496810 0.019297 -0.021498 -173220.000000 0 0 1
25.367981 1.786261 -31.925879 40.816503 0.070298 2.468954 0.023150 -0.007305 -632338.000000 0 0 1
26.799881 1.680561 -32.458869 42.126430 0.062626 2.450438 0.017574 -0.017228 -505960.000000 0 0 1
27.034781 2.289961 -33.684609 43.252470 0.084503 2.463532 0.026223 -0.025505 -215397.000000 0 0 1
27.898381 1.474161 -34.437609 44.344579 0.052791 2.460033 0.018324 -0.019192 -250018.000000 0 0 1
28.710381 2.274961 33.797731 44.404370 0.079073 0.705735 0.025906 -0.023907 -205066.000000 0 0 1
27.887381 3.002361 32.912309 43.242806 0.107247 0.705782 0.015209 -0.014211 223012.000000 0 0 1
27.614681 4.351761 33.452731 43.595799 0.156303 0.696116 0.010738 -0.011780 261347.000000 0 0 1
26.775481 5.245461 32.467669 42.409796 0.193455 0.698869 0.002176 -0.007929 94899.700000 0 0 1
26.803981 6.635361 32.829619 42.898314 0.242673 0.699306 0.006407 -0.015238 52764.900000 0 0 1
26.383181 7.450561 31.751749 41.949454 0.275231 0.712232 0.004744 -0.009455 -411108.000000 0 0 1
26.621081 8.968661 32.056869 42.623488 0.324958 0.719563 0.008900 -0.007830 -604555.000000 0 0 1
27.987981 9.194061 32.082089 43.555921 0.317395 0.742808 0.009847 -0.009714 -951527.000000 0 0 1
28.315281 10.544761 32.076309 44.066277 0.356494 0.755527 0.008876 -0.012147 555318.000000 0 0 1
29.735881 10.867161 31.505789 44.664668 0.350377 0.787830 0.002487 -0.002964 -40351.900000 0 0 1
30.835681 10.546461 32.349769 45.919219 0.329549 0.789088 0.006388 -0.011942 170634.000000 0 0 1
32.029181 10.784161 31.632019 46.289861 0.324776 0.818460 -0.000628 -0.008783 -209100.000000 0 0 1
32.555181 12.229861 31.715149 47.066549 0.359354 0.831408 0.003804 -0.004240 -890890.000000 0 0 1
32.968981 12.584261 33.044639 48.345274 0.364632 0.818231 0.006269 -0.016061 -49493.000000 0 0 1
33.333081 13.922461 33.185069 49.052809 0.395652 0.827773 0.003550 -0.003154 809993.000000 0 0 1
32.168881 15.014861 33.101019 48.538237 0.436697 0.820360 0.008441 -0.003309 549327.000000 0 0 1
31.602981 15.201961 31.821869 47.354824 0.448356 0.833906 -0.001525 -0.009347 241415.000000 0 0 1
30.542081 16.137161 31.768059 46.930121 0.486076 0.827223 -0.007940 -0.006654 -721338.000000 0 0 1
29.138681 15.685061 32.004549 46.036671 0.493808 0.802103 0.000325 -0.002449 -1252430.000000 0 0 1
28.555781 14.832061 30.988419 44.673312 0.479052 0.804228 -0.004927 0.006871 127417.000000 0 0 1
27.326681 14.267761 31.407979 44.008836 0.481185 0.776066 -0.008754 0.014716 -150178.000000 0 0 1
26.430881 13.723361 30.334439 42.510002 0.478903 0.776196 -0.009524 0.015459 -546118.000000 0 0 1
27.054181 12.727761 29.580809 42.058874 0.439733 0.790741 -0.010889 0.010372 -84883.700000 0 0 1
26.255481 12.208361 28.530299 40.649383 0.435244 0.792787 -0.018838 0.001585 -118840.000000 0 0 1
26.226681 10.704061 28.531259 40.205080 0.387501 0.781805 -0.015293 0.021908 96863.400000 0 0 1
27.372981 10.092661 28.002429 40.438570 0.353244 0.805892 -0.018777 0.016128 -164493.000000 0 0 1
27.003981 8.754661 27.789349 39.725395 0.313507 0.796048 -0.007332 0.013631 164172.000000 0 0 1
28.110581 7.884261 27.147709 39.866834 0.273447 0.821724 -0.008590 0.004410 -7258.760000 0 0 1
28.410281 8.286261 25.807639 39.266276 0.283792 0.853636 -0.016346 0.011885 158124.000000 0 0 1
29.448181 7.533861 25.200959 39.484716 0.250462 0.878579 -0.021744 0.022975 145518.000000 0 0 1
29.832281 7.943461 23.775759 38.966015 0.260233 0.914526 -0.015873 0.026566 -233837.000000 0 0 1
30.569381 9.128861 23.638359 39.706362 0.290197 0.933121 -0.020987 0.015093 204338.000000 0 0 1
29.760981 10.289361 23.467159 39.272058 0.332869 0.930350 -0.021194 0.008150 -257188.000000 0 0 1
29.325881 10.475461 22.002159 38.129222 0.343082 0.955694 -0.028110 0.026060 -535780.000000 0 0 1
30.377881 10.704961 21.116459 38.513851 0.338805 0.990488 -0.023380 0.011918 -195908.000000 0 0 1
29.969781 10.723761 19.760359 37.465432 0.343624 1.015225 -0.032489 0.008063 -583493.000000 0 0 1
31.007581 11.322861 18.708659 37.943263 0.350120 1.055182 -0.022495 -0.011750 881620.000000 0 0 1
32.122781 10.509561 18.389059 38.477025 0.316192 1.072508 -0.011401 -0.008256 364255.000000 0 0 1
33.127181 10.337861 19.378859 39.746971 0.302489 1.061508 0.001835 0.005608 -1175550.000000 0 0 1
34.303481 9.579961 18.836859 40.290591 0.272332 1.084307 0.017716 -0.007172 -882084.000000 0 0 1
33.969181 8.249361 18.491759 39.546206 0.238236 1.084224 0.025488 -0.014843 110824.000000 0 0 1
-34.791539 7.625061 17.930759 39.876119 -0.215753 1.104410 0.026051 -0.003242 -538355.000000 0 0 1
34.826881 6.160461 17.559059 39.486498 0.175077 1.109974 0.019293 -0.000838 -99726.600000 0 0 1
33.734881 6.104561 16.637459 38.106599 0.179020 1.118977 -0.007973 0.008958 489652.000000 0 0 1
33.735081 4.821961 16.069659 37.676796 0.141974 1.130162 -0.000818 0.006837 -4461.330000 0 0 1
32.496381 4.012861 16.505159 36.667944 0.122864 1.103891 -0.012346 0.003255 -24582.100000 0 0 1
32.709181 3.305161 17.713059 37.343903 0.100705 1.076602 0.000688 0.011723 319849.000000 0 0 1
31.518781 2.587261 17.971659 36.374552 0.081903 1.054029 -0.011299 0.017528 -36619.000000 0 0 1
31.619181 1.803161 19.284959 37.080098 0.056966 1.023841 -0.014783 0.010221 -117992.000000 0 0 1
32.256481 0.533261 19.228659 37.556707 0.016530 1.033296 -0.000891 0.012846 -51855.000000 0 0 1
32.043981 -0.267539 20.377559 37.975429 -0.008349 1.004395 0.005310 0.009634 -153379.000000 0 0 1
32.565681 -1.681639 20.402959 38.465988 -0.051593 1.011706 0.009123 0.005364 -139701.000000 0 0 1
32.061081 -2.483139 21.443959 38.651291 -0.077296 0.982667 0.000224 0.016321 85234.600000 0 0 1
32.606681 -3.787939 21.402359 39.186798 -0.115652 0.993020 -0.003406 0.017740 52165.500000 0 0 1
32.186181 -4.658039 22.637559 39.624571 -0.143724 0.962706 -0.010090 0.019283 -44176.300000 0 0 1
32.720781 -4.176739 23.857059 40.709384 -0.126961 0.944641 -0.004500 0.012484 180129.000000 0 0 1
32.137581 -4.778839 24.987539 40.988273 -0.147618 0.915207 -0.011058 0.008744 -63519.700000 0 0 1
32.466581 -3.997139 26.272819 41.956132 -0.122499 0.894130 -0.020540 0.008847 141370.000000 0 0 1
31.662681 -4.245339 27.413809 42.095905 -0.133285 0.861602 -0.018585 0.009807 -248532.000000 0 0 1
32.072481 -3.535139 28.515899 43.061558 -0.109780 0.847029 -0.011177 0.003343 231893.000000 0 0 1
31.104481 -3.957739 29.666069 43.165126 -0.126560 0.813073 -0.015164 0.000837 219813.000000 0 0 1
31.213281 -5.360539 30.029629 43.643819 -0.170080 0.811982 -0.014315 0.004879 -396602.000000 0 0 1
30.396181 -5.715339 31.077979 43.845567 -0.185858 0.782993 0.004842 -0.002818 -438768.000000 0 0 1
30.247481 -7.176939 31.392389 44.180320 -0.232966 0.780515 -0.000580 0.002554 -207185.000000 0 0 1
31.361481 -7.633439 32.090789 45.515169 -0.238759 0.788293 -0.009716 -0.002482 -300507.000000 0 0 1
31.932581 -8.868939 31.692929 45.856184 -0.270911 0.807735 -0.012703 0.001069 9234.190000 0 0 1
33.239081 -9.240239 32.410689 47.335730 -0.271147 0.816607 -0.015901 0.002591 -55154.300000 0 0 1
33.110681 -9.718339 33.722556 48.249084 -0.285493 0.796901 -0.011237 -0.003565 -243895.000000 0 0 1
34.353981 -10.090539 34.254712 49.551996 -0.285688 0.807526 -0.019701 -0.003915 -783334.000000 0 0 1
34.454581 -10.316039 -33.473719 49.132766 -0.290915 2.320321 -0.006260 -0.003152 -418905.000000 0 0 1
34.125281 -9.204139 -32.655369 48.120932 -0.263447 2.316666 -0.007660 -0.004235 537880.000000 0 0 1
-34.806639 -8.139439 -32.617469 48.390617 0.229719 2.310468 0.002115 -0.001325 -81626.200000 0 0 1
34.539681 -6.945339 -31.791449 47.454436 -0.198437 2.304919 -0.000655 -0.006444 -155248.000000 0 0 1
34.439381 -7.016939 -30.374789 46.453592 -0.200996 2.283490 -0.002169 -0.000905 193701.000000 0 0 1
33.599481 -5.987939 -29.904429 45.376816 -0.176364 2.290317 0.009022 -0.007253 -152371.000000 0 0 1
33.847381 -5.664539 -28.414869 44.554876 -0.165819 2.262370 0.019114 -0.012966 -4334.020000 0 0 1
-34.722239 -5.175839 -28.180349 45.017277 0.147975 2.247196 0.020855 -0.013438 -122553.000000 0 0 1
-34.593539 -4.895639 -26.826769 44.049469 0.140585 2.225614 0.023557 -0.014022 57778.400000 0 0 1
-33.111539 -4.731939 -26.436699 42.634074 0.141948 2.239646 0.044786 -0.009718 -594870.000000 0 0 1
-32.931539 -4.263139 -25.099489 41.625052 0.128739 2.218040 0.054571 -0.010642 177831.000000 0 0 1
-31.591139 -4.404639 -24.651359 40.312410 0.138533 2.228761 0.061050 -0.005083 377810.000000 0 0 1
-30.490339 -3.467439 -25.168989 39.688309 0.113236 2.257726 0.060665 -0.002168 -434381.000000 0 0 1
-30.063139 -3.748739 -26.493799 40.246326 0.124055 2.289343 0.053296 -0.004216 58472.700000 0 0 1
-29.205239 -2.785039 -27.096459 39.936456 0.095073 2.316501 0.050242 -0.006566 316778.000000 0 0 1
-28.573339 -3.387339 -28.388819 40.420722 0.117998 2.349466 0.048187 0.002198 -78167.800000 0 0 1
-29.516639 -3.591139 -29.406639 41.819596 0.121070 2.350654 0.042079 0.003752 -199828.000000 0 0 1
-28.938839 -4.226339 -30.538459 42.283753 0.145019 2.377813 0.034285 0.007955 -1002920.000000 0 0 1
-29.969539 -4.536139 -31.640629 43.816426 0.150218 2.377655 0.012882 0.013013 -107002.000000 0 0 1
-30.972339 -5.487039 -31.200399 44.304156 0.175340 2.352137 0.008217 0.009241 1174670.000000 0 0 1
-32.065139 -4.918639 -30.456339 44.496682 0.152209 2.324663 0.023023 -0.000391 -39665.600000 0 0 1
-33.101739 -4.047739 -31.224819 45.684774 0.121678 2.323321 0.028190 -0.002333 -748921.000000 0 0 1
-32.751239 -2.695139 -31.619559 45.603771 0.082106 2.336930 0.032650 0.002434 118314.000000 0 0 1
-32.217839 -1.810439 -30.636809 44.495852 0.056135 2.330259 0.041618 0.002229 -64251.400000 0 0 1
-31.737239 -0.465339 -31.232829 44.530422 0.014661 2.348131 0.042593 -0.000164 64494.100000 0 0 1
-32.806539 0.343761 -31.697379 45.619195 -0.010478 2.338974 0.047857 0.000711 178635.000000 0 0 1
-32.416039 1.617061 -32.116179 45.660304 -0.049843 2.350927 0.057880 0.000309 786.675000 0 0 1
-33.623839 2.414761 -32.668519 46.942792 -0.071694 2.340499 0.029870 -0.000708 115324.000000 0 0 1
-34.128439 1.972261 -33.919319 48.157661 -0.057725 2.352288 0.025740 -0.004407 121915.000000 0 0 1
34.458681 2.529661 -34.073888 48.526588 0.073280 2.349236 0.008687 -0.001586 257883.000000 0 0 1
33.514681 1.863161 34.127008 47.868130 0.055535 0.777117 0.010513 -0.006133 271962.000000 0 0 1
33.867881 2.016261 32.745689 47.152718 0.059463 0.803127 0.006981 -0.002210 937888.000000 0 0 1
-34.889539 1.226861 32.247419 47.525584 -0.035150 0.825040 -0.005736 0.005875 408548.000000 0 0 1
-34.602739 1.466761 30.778779 46.333942 -0.042363 0.844264 0.003914 0.000053 -524754.000000 0 0 1
-34.103939 2.710861 30.400839 45.767220 -0.079321 0.844307 0.005618 -0.000730 24191.300000 0 0 1
-33.763039 2.787261 29.040799 44.621515 -0.082367 0.862126 0.002359 -0.001382 17337.400000 0 0 1
-33.236839 4.206961 28.663289 44.090476 -0.125906 0.863078 0.005019 0.007910 -169882.000000 0 0 1
-33.021339 4.356661 27.275659 43.050562 -0.131177 0.884634 0.011993 0.012342 51121.100000 0 0 1
-32.457839 5.625561 27.118189 42.667955 -0.171614 0.882058 0.009001 0.020609 -493558.000000 0 0 1
-31.669039 5.823661 25.826399 41.277669 -0.181860 0.894800 0.013872 0.021339 539611.000000 0 0 1
-30.398739 5.137261 25.790359 40.194743 -0.167414 0.874168 0.003714 0.020004 1418660.000000 0 0 1
-29.509139 5.506861 24.713199 38.882605 -0.184493 0.882030 0.005613 0.011088 398004.000000 0 0 1
-29.948139 5.189461 23.245059 38.264269 -0.171578 0.917903 0.022254 0.000129 -256231.000000 0 0 1
-29.911839 3.818761 23.059559 37.961089 -0.126980 0.917947 0.006603 0.003885 163645.000000 0 0 1
-30.587139 3.543161 21.836159 37.748442 -0.115324 0.953950 0.028321 -0.000992 -194520.000000 0 0 1
-30.507639 2.107261 21.296859 37.265437 -0.068964 0.962475 0.026467 0.012103 83113.600000 0 0 1
-29.244139 1.663761 20.841659 35.949444 -0.056831 0.952376 0.014103 0.011584 100635.000000 0 0 1
-29.047239 2.004861 19.459059 35.020230 -0.068911 0.981649 0.016234 0.009720 -206727.000000 0 0 1
-27.929739 1.150961 18.832659 33.705550 -0.041186 0.977930 0.015286 0.011061 -353447.000000 0 0 1
-28.200439 -0.236139 18.612959 33.789980 0.008373 0.987423 0.019063 0.005081 -197946.000000 0 0 1
-27.293739 -1.016139 17.868359 32.638305 0.037213 0.991463 0.023335 0.007328 -374525.000000 0 0 1
-27.275039 -0.744539 16.334959 31.801147 0.027291 1.031352 0.016746 0.018430 101215.000000 0 0 1
-26.574739 0.443561 16.028159 31.037322 -0.016690 1.028136 0.022038 0.022034 277128.000000 0 0 1
-26.833039 0.780361 14.694559 30.603121 -0.029074 1.069953 0.021717 0.021133 107193.000000 0 0 1
-26.433339 2.259861 14.415859 30.193466 -0.085285 1.073046 0.022063 0.016774 492433.000000 0 0 1
-25.036839 2.494761 14.269359 28.925451 -0.099316 1.054900 0.020567 0.009966 406345.000000 0 0 1
-24.729239 3.729561 13.686559 28.509065 -0.149688 1.070053 0.016906 0.008849 -124034.000000 0 0 1
-23.243539 4.003061 13.403959 27.128448 -0.170549 1.054006 0.020555 0.006623 -336600.000000 0 0 1
-22.482139 4.370661 14.522859 27.119415 -0.192011 1.005679 0.017743 0.012356 628998.000000 0 0 1
-21.138839 4.645961 14.096059 25.828944 -0.216343 0.993516 0.018997 0.005268 608686.000000 0 0 1
-20.279639 5.255361 15.223959 25.896940 -0.253567 0.942377 0.001871 0.008837 -180384.000000 0 0 1
-20.716539 6.595961 15.453759 26.673964 -0.308243 0.952856 0.014555 -0.001542 446277.000000 0 0 1
-20.310839 7.053961 16.663359 27.202134 -0.334268 0.911481 0.010729 -0.001231 -280926.000000 0 0 1
-20.655539 8.566361 16.879859 28.017199 -0.393135 0.924189 0.024006 0.000516 -814487.000000 0 0 1
-19.737839 9.354361 16.174059 27.178788 -0.442575 0.933408 0.009369 -0.009665 429601.000000 0 0 1
-19.933939 10.764261 16.238459 27.873263 -0.495131 0.948895 0.006489 -0.009608 -348544.000000 0 0 1
-19.366939 11.456061 17.492059 28.500733 -0.534166 0.910006 0.016094 -0.010862 -271605.000000 0 0 1
-20.070239 11.064461 18.629159 29.534427 -0.503831 0.888263 0.017225 -0.009636 544355.000000 0 0 1
-19.353039 11.547261 19.751459 29.966639 -0.537963 0.851155 0.019716 -0.004787 -8016.460000 0 0 1
-12.831919 -33.184105 -22.484159 42.087770 1.201818 2.134382 0.045412 -0.007498 -66270.200000 0 0 1
-13.062419 -33.941605 -21.345259 42.169650 1.203418 2.101541 0.053123 -0.012129 9081.550000 0 0 1
-14.152919 -33.386905 -20.622159 41.716471 1.169852 2.087873 0.030283 -0.017765 54387.300000 0 0 1
-14.805019 -34.411405 -19.670359 42.311421 1.164499 2.054312 0.020065 -0.009467 -454487.000000 0 0 1
-15.560619 33.994461 -20.407859 42.593860 -1.141525 2.070456 0.013952 -0.012091 162783.000000 0 0 1
-16.161819 32.992661 -19.607059 41.643209 -1.115293 2.061033 0.013718 -0.011243 -254111.000000 0 0 1
-17.465819 33.269361 -18.874859 42.049560 -1.087363 2.036299 0.016773 -0.011166 -1327490.000000 0 0 1
-17.386019 34.397361 -17.991959 42.534253 -1.102801 2.007549 0.019706 -0.009416 -686626.000000 0 0 1
-18.626719 34.679961 -17.448259 43.059216 -1.077909 1.988011 0.001810 -0.004536 -812346.000000 0 0 1
-18.881919 34.113061 -16.063659 42.169526 -1.065262 1.961599 0.012673 -0.005152 -252223.000000 0 0 1
-18.808619 32.740161 -15.954159 40.990456 -1.049352 1.970577 0.011730 -0.009753 423759.000000 0 0 1
-19.582819 32.374461 -14.804459 40.629602 -1.026793 1.943759 0.018037 -0.005273 -277259.000000 0 0 1
-19.604719 30.846761 -14.761759 39.417981 -1.004645 1.954646 0.011176 -0.005631 -95425.200000 0 0 1
-18.360219 30.356961 -14.318459 38.257822 -1.026847 1.954397 0.016910 -0.006644 15070.600000 0 0 1
-18.468819 28.984361 -14.107659 37.151265 -1.003472 1.960307 0.013142 -0.003967 -905033.000000 0 0 1
-17.155419 28.353261 -13.754759 35.880485 -1.026665 1.964216 0.015702 -0.002289 -861504.000000 0 0 1
-16.107019 28.521561 -14.707159 35.905654 -1.056713 1.992818 0.023553 -0.013551 -524326.000000 0 0 1
-15.160319 27.566061 -14.373259 34.587766 -1.067981 1.999354 0.028390 -0.015291 -59616.400000 0 0 1
-13.747319 27.923161 -14.945459 34.526199 -1.113306 2.018474 0.026201 -0.012107 244473.000000 0 0 1
-13.780119 27.775961 -16.375459 35.064959 -1.110260 2.056695 0.017588 -0.011824 -1248490.000000 0 0 1
-12.803319 28.482361 -16.978759 35.545015 -1.148344 2.068796 0.014600 -0.011371 -1243550.000000 0 0 1
-12.917419 28.615261 -18.514959 36.448547 -1.146765 2.103629 0.030554 -0.020563 -280047.000000 0 0 1
-12.783819 27.353861 -19.164059 35.762003 -1.133608 2.136343 0.016219 -0.024364 244760.000000 0 0 1
-13.191119 27.340761 -20.515259 36.638759 -1.121270 2.165102 0.021218 -0.026034 -205067.000000 0 0 1
-12.517019 26.134361 -21.215259 35.913337 -1.124131 2.202766 0.011363 -0.019069 -500113.000000 0 0 1
-11.270819 26.568861 -21.705159 36.111628 -1.169594 2.215620 0.028442 -0.021092 -320316.000000 0 0 1
-10.511419 25.409861 -22.013459 35.224187 -1.178557 2.245868 0.029980 -0.012383 328548.000000 0 0 1
-9.230419 25.754761 -22.835459 35.636590 -1.226661 2.266319 0.040081 -0.014010 165972.000000 0 0 1
-9.402019 26.210561 -24.122759 36.841538 -1.226382 2.284675 0.041930 -0.014709 460525.000000 0 0 1
-8.144019 26.398861 -24.785559 37.115345 -1.271561 2.302043 0.023750 -0.017266 290176.000000 0 0 1
-8.262919 27.247161 -26.074319 38.607690 -1.276353 2.312257 0.022994 -0.014343 -11863.400000 0 0 1
-9.160719 26.547461 -26.909269 38.894668 -1.238521 2.334844 0.036089 -0.013428 -139860.000000 0 0 1
-9.482919 27.151961 -28.134659 40.233242 -1.234787 2.345199 0.053512 -0.010653 -628966.000000 0 0 1
-10.754319 26.615661 -28.757859 40.633277 -1.186795 2.357093 0.026412 -0.010981 -561857.000000 0 0 1
-11.117119 27.283861 -29.958609 42.018063 -1.183874 2.364555 0.027689 -0.007366 308923.000000 0 0 1
-12.372919 26.759061 -30.390999 42.340870 -1.137693 2.371390 0.022798 -0.005460 384126.000000 0 0 1
-12.715919 26.980761 -31.898079 43.670854 -1.130375 2.389733 0.010507 -0.009241 -88473.600000 0 0 1
-11.836819 26.373661 -32.828389 43.742238 -1.148931 2.419609 0.007540 -0.009275 57681.400000 0 0 1
-11.762219 24.955261 -32.846059 42.894970 -1.130345 2.442975 0.014261 -0.010287 279665.000000 0 0 1
-10.854819 24.535261 -34.033929 43.337218 -1.154266 2.474022 -0.006581 0.005777 262884.000000 0 0 1
-11.575619 24.722861 34.032095 43.627953 -1.132898 0.676047 -0.006519 0.008410 14686.500000 0 0 1
-10.879919 24.217161 32.928279 42.297932 -1.148554 0.678549 -0.000748 0.005688 -583091.000000 0 0 1
-11.649419 24.256461 31.615099 41.516254 -1.123065 0.705155 0.005170 0.011679 481262.000000 0 0 1
-12.836519 23.404461 31.638079 41.394602 -1.069133 0.700834 0.017653 0.001512 999184.000000 0 0 1
-13.319219 23.152161 30.304579 40.395441 -1.048744 0.722435 0.029966 0.004296 -801735.000000 0 0 1
-14.633019 22.466261 30.134859 40.335690 -0.993485 0.727105 0.011537 0.011600 -864826.000000 0 0 1
-14.530819 21.104061 30.477329 39.817002 -0.967809 0.699079 -0.010460 -0.001119 311953.000000 0 0 1
-15.799219 20.456561 30.387579 39.893498 -0.913156 0.704836 -0.013082 -0.003226 213512.000000 0 0 1
-15.668319 18.998661 30.578669 39.261945 -0.881171 0.677986 -0.017252 -0.016796 -22730.300000 0 0 1
-14.962219 18.429961 29.515819 37.877632 -0.888876 0.677342 -0.018332 -0.007255 6169.350000 0 0 1
-14.511419 17.114461 29.649869 37.183340 -0.867520 0.647828 -0.030911 -0.018077 -21988.900000 0 0 1
-14.273219 16.351961 28.328409 35.687675 -0.853171 0.653786 -0.028461 -0.002431 214887.000000 0 0 1
-13.266119 16.962161 27.530989 34.952256 -0.907065 0.663772 -0.036493 0.000932 100713.000000 0 0 1
-12.890619 16.135461 26.444319 33.553288 -0.896727 0.663033 -0.035192 0.007716 942096.000000 0 0 1
-11.744519 16.841461 25.569149 32.792528 -0.961846 0.676570 -0.032768 0.013349 709899.000000 0 0 1
-12.136419 17.846361 24.667819 32.776311 -0.973585 0.718778 -0.035879 0.020383 -139994.000000 0 0 1
-12.389719 19.166461 25.134029 33.949636 -0.996937 0.737231 -0.024400 0.021436 439325.000000 0 0 1
-11.100219 19.893461 25.674239 34.323916 -1.061845 0.725755 -0.027422 0.021341 463631.000000 0 0 1
-10.795119 19.770161 27.081969 35.225373 -1.071006 0.693803 -0.024511 0.014604 336139.000000 0 0 1
-11.853819 20.122461 27.989629 36.453337 -1.038442 0.695364 -0.011370 0.013205 74577.100000 0 0 1
-11.588319 19.763461 29.460179 37.320044 -1.040474 0.660977 -0.008501 0.003329 -376454.000000 0 0 1
-10.548419 20.417361 30.123609 37.888911 -1.093926 0.651705 -0.018677 -0.000632 -453309.000000 0 0 1
-10.650519 20.104261 31.521689 38.874564 -1.083622 0.625182 -0.018138 -0.006415 409191.000000 0 0 1
-9.514519 20.667561 32.454389 39.635357 -1.139360 0.611437 -0.024671 -0.005710 846593.000000 0 0 1
-8.276219 19.962561 32.494319 39.024100 -1.177779 0.586879 -0.023908 -0.004957 697118.000000 0 0 1
-7.299519 20.844861 33.092229 39.785510 -1.233958 0.588515 -0.033790 0.011687 125987.000000 0 0 1
-5.991019 20.216861 33.545370 39.622035 -1.282703 0.561168 -0.028010 0.016294 -915328.000000 0 0 1
-6.128719 19.371161 -34.562954 40.092404 -1.264377 2.610161 -0.029001 0.003338 532898.000000 0 0 1
-4.880019 18.980061 -33.973979 39.221022 -1.319134 2.618380 -0.024539 0.008240 627519.000000 0 0 1
-4.063319 17.998261 34.455846 39.085205 -1.348757 0.491646 -0.020807 0.005786 -462514.000000 0 0 1
-4.718719 16.727961 34.423054 38.562127 -1.295855 0.467573 -0.015691 0.003387 288074.000000 0 0 1
-4.490719 16.041861 33.197445 37.142674 -1.297846 0.465089 -0.013464 0.010600 76894.400000 0 0 1
-5.096219 14.584161 33.188759 36.608236 -1.234625 0.435658 0.003359 0.000677 -361312.000000 0 0 1
-4.338519 13.613761 33.815823 36.710586 -1.262286 0.399781 0.000058 0.007261 -371772.000000 0 0 1
-5.009719 12.335761 33.731654 36.264208 -1.185031 0.375938 0.012225 0.008980 7705.520000 0 0 1
-4.185719 11.104461 34.059765 36.067948 -1.210326 0.335268 0.009639 0.003498 -287422.000000 0 0 1
-3.898119 10.912861 -33.860769 35.788790 -1.227718 2.811856 0.018001 0.002301 -114157.000000 0 0 1
-2.955519 9.896561 -33.588559 35.140693 -1.280587 2.843270 0.023641 0.000209 279269.000000 0 0 1
-2.780419 9.556261 -32.073269 33.581951 -1.287660 2.840708 0.031632 0.001480 514975.000000 0 0 1
-4.023319 8.982761 -31.673549 33.167616 -1.149696 2.840301 0.030393 0.002071 409940.000000 0 0 1
-4.055119 8.719061 -30.239919 31.731982 -1.135467 2.833716 0.030985 0.005721 570368.000000 0 0 1
-5.435119 8.109161 -29.845449 31.401430 -0.980321 2.825472 0.032059 0.002305 383534.000000 0 0 1
-5.390319 7.393461 -28.619179 30.046234 -0.940828 2.832154 0.037375 0.004664 637808.000000 0 0 1
-6.593519 6.654661 -28.329699 29.838412 -0.790013 2.822235 0.039191 -0.007214 297216.000000 0 0 1
-6.628519 5.760661 -27.071459 28.460259 -0.715463 2.827905 0.033740 -0.004908 -430754.000000 0 0 1
-7.041619 6.381261 -25.844419 27.536137 -0.736241 2.789241 0.011958 0.006750 -244152.000000 0 0 1
-6.311419 7.400061 -25.200499 27.012220 -0.864628 2.773262 0.027997 0.002815 -265037.000000 0 0 1
-6.887319 7.966861 -23.833259 26.056290 -0.857947 2.725520 0.018530 -0.000696 32358.200000 0 0 1
-6.873119 7.069961 -22.745059 24.790357 -0.799515 2.732535 0.010111 0.002446 -208880.000000 0 1 0
-7.938119 7.255961 -21.861059 24.363263 -0.740532 2.684402 -0.001783 0.002385 -743010.000000 0 1 0
-7.515319 7.774561 -20.470559 23.150974 -0.802352 2.655618 -0.014696 0.009527 -218078.000000 0 1 0
-7.206619 9.140861 -20.424459 23.508492 -0.903171 2.623594 -0.025309 0.016903 14628.700000 0 1 0
-6.919319 9.631661 -19.135659 22.512648 -0.947832 2.586774 -0.022876 0.025389 -711398.000000 0 1 0
-8.101019 9.687961 -18.180659 22.136383 -0.874372 2.534486 -0.028627 0.022094 -1020420.000000 0 1 0
-7.876419 9.780361 -16.782259 20.960383 -0.892814 2.499202 -0.030001 0.018790 -121648.000000 0 1 0
-8.988119 10.235561 -16.027259 21.033925 -0.850198 2.437149 -0.015545 0.013565 -41773.600000 0 1 0
-9.373719 11.700061 -16.249659 22.109035 -0.895343 2.396431 -0.021490 0.012733 -598738.000000 0 1 0
-8.332219 12.632261 -16.016059 22.034383 -0.987703 2.384545 -0.040289 0.014319 -124664.000000 0 1 0
-8.687119 13.980161 -16.179559 23.080058 -1.014798 2.347622 -0.024920 0.006340 631154.000000 0 1 0
-7.604719 14.956161 -15.539759 22.869250 -1.100398 2.317883 -0.020941 -0.001392 440775.000000 0 1 0
-7.305519 14.838161 -14.167459 21.777477 -1.113290 2.279112 -0.019693 -0.008823 -361960.000000 0 1 0
-8.256119 15.323661 -13.268759 21.886938 -1.076606 2.222122 -0.017305 -0.020874 -491735.000000 0 1 0
-7.508019 16.238261 -12.196659 21.652020 -1.137707 2.169175 -0.011801 -0.012775 727218.000000 0 1 0
-7.109619 17.552861 -12.634859 22.765967 -1.185952 2.159146 -0.001363 -0.009915 417612.000000 0 1 0
-6.037619 17.536161 -13.591759 22.993601 -1.239213 2.203231 0.006068 -0.010287 -7102.090000 0 1 0
-5.946819 18.896861 -14.358559 24.466798 -1.265910 2.197970 0.028390 -0.003962 145250.000000 0 1 0
-5.351819 19.923361 -13.587359 24.702198 -1.308371 2.153216 0.020588 -0.004317 -74496.200000 0 1 0
-5.498419 21.196761 -14.206059 26.102632 -1.316991 2.146278 0.028801 -0.009757 -210609.000000 0 0 1
-4.945819 22.247061 -13.280259 26.377227 -1.352041 2.098412 0.029861 -0.015142 -550572.000000 0 0 1
-5.080619 23.576961 -13.700759 27.737999 -1.358551 2.087405 0.010341 -0.017075 324211.000000 0 0 1
-6.365319 24.168861 -13.518359 28.414735 -1.313276 2.066615 0.015219 -0.017690 646175.000000 0 0 1
-7.077419 24.287461 -12.119459 28.050881 -1.287246 2.017564 -0.000645 -0.015783 83472.100000 0 0 1
-7.486619 23.019061 -11.589159 26.837199 -1.256351 2.017319 0.009131 -0.014809 -347553.000000 0 0 1
-8.214819 23.037461 -10.405059 26.579562 -1.228267 1.973023 0.015257 -0.011243 -293230.000000 0 0 1
-7.563619 23.449961 -9.053959 26.250394 -1.258788 1.922937 0.012463 -0.009578 -256343.000000 0 0 1
-7.267219 24.835261 -9.138359 27.442891 -1.286127 1.910275 -0.001693 -0.010923 -201938.000000 0 0 1
-6.734919 25.336961 -7.951859 27.396218 -1.310990 1.865288 -0.007014 -0.009106 -328555.000000 0 0 1
-6.867619 26.917161 -7.866059 28.871658 -1.320987 1.846734 -0.019869 -0.014954 -403088.000000 0 0 1
-6.013119 27.699061 -8.648459 29.634295 -1.357026 1.866946 -0.028083 -0.015760 -288850.000000 0 0 1
-6.180219 27.551761 -10.049859 29.971558 -1.350136 1.912734 -0.022612 -0.007267 181411.000000 0 0 1
-5.450819 28.581061 -10.951659 31.089022 -1.382345 1.930789 -0.029553 -0.005078 41295.100000 0 0 1
-6.029219 29.845261 -10.750859 32.290433 -1.371463 1.910219 -0.031182 -0.004602 -270357.000000 0 0 1
-7.048819 30.109561 -11.664459 33.050433 -1.340832 1.931496 -0.028558 -0.006153 -597240.000000 0 0 1
-7.960819 31.302461 -11.343059 34.232787 -1.321757 1.908531 -0.024478 -0.006392 -41558.000000 0 0 1
-8.841519 30.951061 -10.284059 33.792048 -1.292546 1.880035 -0.016295 -0.007826 -487083.000000 0 0 1
-9.829919 31.922361 -10.146059 34.908551 -1.272078 1.865699 -0.004389 -0.006748 -164379.000000 0 0 1
-10.991919 31.474461 -9.237059 34.594613 -1.234805 1.841084 0.013761 -0.008304 -58394.800000 0 0 1
-11.875319 30.504161 -9.746759 34.154448 -1.199547 1.860192 0.019831 -0.011801 -330641.000000 0 0 1
-12.881619 30.344061 -8.765259 34.110525 -1.169333 1.830678 0.041729 -0.003131 103892.000000 0 0 1
-13.926619 29.258561 -9.147159 33.670233 -1.126545 1.845923 0.043386 -0.005992 -347186.000000 0 0 1
-13.532519 27.916361 -9.055159 32.317924 -1.119421 1.854788 0.022239 0.001670 -322771.000000 0 0 1
-14.398819 27.079061 -9.769759 32.187726 -1.082086 1.879186 0.035911 -0.001637 -329595.000000 0 0 1
-14.721019 25.749761 -9.147459 31.039243 -1.051449 1.869944 0.031473 -0.003358 -154810.000000 0 0 1
-13.756419 24.740561 -9.361859 29.815748 -1.063338 1.890189 0.028133 0.002330 147972.000000 0 0 1
-14.313119 23.499261 -9.011359 28.953156 -1.023721 1.887293 0.044080 -0.001296 -25777.500000 0 0 1
-13.414019 22.288461 -9.326359 27.634984 -1.029027 1.915039 0.043118 0.001090 -154979.000000 0 0 1
-13.208519 21.962561 -10.713259 27.777562 -1.029340 1.966741 0.034472 0.003361 166180.000000 0 0 1
-12.590419 20.699461 -10.813159 26.531316 -1.024334 1.990579 0.034605 -0.000460 -205769.000000 0 0 1
-12.447419 20.139461 -12.214859 26.640925 -1.017202 2.047103 0.020710 -0.002042 134558.000000 0 0 1
-13.686619 19.783061 -12.802159 27.250474 -0.965571 2.059856 0.020850 0.010314 -88583.500000 0 0 1
-13.620519 19.507561 -14.178059 27.696224 -0.961268 2.108207 0.015164 0.014913 -170541.000000 0 0 1
-14.938719 19.115861 -14.857659 28.448752 -0.907449 2.120296 0.008697 0.012167 303179.000000 0 0 1
-15.795519 20.243961 -15.090059 29.782986 -0.908209 2.102111 -0.015915 0.012087 -119191.000000 0 0 1
-17.049919 19.866661 -15.590459 30.470418 -0.861551 2.107911 -0.012013 0.014833 -156073.000000 0 0 1
-17.716919 21.087861 -16.262959 31.985480 -0.872050 2.104178 -0.014683 0.011065 -92553.100000 0 0 1
-17.986019 22.219761 -15.427759 32.484310 -0.890313 2.065680 -0.016660 0.000624 335095.000000 0 0 1
-18.684519 23.201861 -16.143559 33.882917 -0.892830 2.067410 -0.009124 -0.000254 -152142.000000 0 0 1
-19.008719 24.413461 -15.276159 34.506659 -0.909231 2.029406 -0.009273 0.011374 213134.000000 0 0 1
-20.082019 24.137961 -14.379659 34.535536 -0.876864 2.000249 -0.008457 0.011963 394923.000000 0 0 1
-20.601619 25.241061 -13.646359 35.323660 -0.886258 1.967439 -0.011038 0.000921 -179510.000000 0 0 1
-25.397879 -0.931739 3.605141 25.669387 0.036669 1.429885 0.043803 -0.013107 -262245.000000 0 0 1
-25.815569 -0.032439 4.621841 26.226057 0.001257 1.393640 0.048714 -0.016428 -136960.000000 0 0 1
-26.980599 -0.468039 5.247341 27.490114 0.017346 1.378737 0.029561 -0.016049 -763470.000000 0 0 1
-27.359579 0.255261 6.542241 28.132057 -0.009330 1.336093 0.026569 -0.010842 -452410.000000 0 0 1
-27.684169 1.641961 6.272541 28.433326 -0.059241 1.348361 0.038469 -0.013143 399298.000000 0 0 1
-28.187899 2.408561 7.372641 29.235503 -0.085240 1.315863 0.041532 0.002209 217098.000000 0 0 1
-27.070449 2.939461 8.372941 28.487818 -0.108162 1.272478 0.044089 0.001934 449447.000000 0 0 1
-26.493179 1.936661 9.129141 28.088795 -0.072971 1.239774 0.039252 -0.005822 -230131.000000 0 0 1
-25.413249 2.402961 9.879241 27.371643 -0.094275 1.201532 0.036478 -0.014965 -323103.000000 0 0 1
-24.716819 1.211661 10.614541 26.926896 -0.048983 1.165601 0.027499 -0.008702 177522.000000 0 0 1
-23.791019 0.408961 9.826141 25.743599 -0.017188 1.179169 0.031733 -0.014349 787060.000000 0 0 1
-24.372119 -0.514739 8.893241 25.949082 0.021117 1.220987 0.023289 -0.010925 -303561.000000 0 0 1
-23.351419 -1.292639 8.024041 24.725390 0.055299 1.240285 0.030442 -0.016509 -162090.000000 0 1 0
-22.442919 -2.008239 8.798741 24.189574 0.089244 1.198515 0.019347 -0.016234 -579998.000000 0 1 0
-21.343419 -2.534539 8.123741 22.977393 0.118197 1.209429 0.023116 -0.015830 -117669.000000 0 1 0
-20.258319 -2.911239 9.201141 22.439603 0.142729 1.148298 0.029189 -0.005900 28697.000000 0 1 0
-19.578819 -1.807939 9.721341 21.934066 0.092080 1.111623 0.018109 -0.004606 380576.000000 0 1 0
-20.257819 -1.265639 10.868941 23.024225 0.062395 1.079164 0.014148 -0.004056 -267718.000000 0 1 0
-19.889519 0.206761 11.135041 22.795281 -0.010395 1.060449 0.015806 -0.002228 -304933.000000 0 1 0
-20.338119 1.154461 10.215641 22.788839 -0.056703 1.105963 0.015734 0.002115 260678.000000 0 1 0
-20.453519 2.436161 10.783141 23.249891 -0.118549 1.088524 0.011657 0.003156 -421513.000000 0 1 0
-21.293319 3.440761 10.001041 23.775304 -0.160204 1.136637 0.015107 -0.009863 -559140.000000 0 1 0
-21.430619 4.595961 10.800741 24.434613 -0.211258 1.112940 0.013903 -0.013273 575553.000000 0 1 0
-21.912019 5.707761 10.063141 24.778659 -0.254823 1.152591 0.011921 -0.021356 -544687.000000 0 1 0
-21.958419 7.016461 10.872441 25.487504 -0.309280 1.130089 0.013262 -0.019639 -103166.000000 0 0 1
-22.983119 6.921461 11.834241 26.761533 -0.292515 1.112734 0.009046 -0.007548 294929.000000 0 0 1
-23.012919 8.068061 12.683941 27.487641 -0.337199 1.091177 0.015285 -0.007476 -22977.300000 0 0 1
-23.828619 7.761861 13.996741 28.704674 -0.314898 1.061444 0.016988 0.001378 1148270.000000 0 0 1
-25.213399 7.569761 13.669941 29.662840 -0.291666 1.091850 0.027681 0.007196 851209.000000 0 0 1
-26.092139 7.319961 14.780241 30.868059 -0.273512 1.071486 0.023274 0.010033 965002.000000 0 0 1
-27.519659 7.003261 14.214941 31.755973 -0.249193 1.106683 0.027506 0.024822 376174.000000 0 0 1
-27.533639 5.881061 13.346741 31.158043 -0.210433 1.128123 0.029762 0.035009 185212.000000 0 0 1
-28.764499 5.854361 12.638441 31.959351 -0.200785 1.164235 0.008848 0.014684 -78870.200000 0 0 1
-29.053309 4.599861 11.814041 31.698976 -0.157022 1.188885 0.020933 0.010602 -114645.000000 0 0 1
-29.516659 3.514461 12.604941 32.287291 -0.118509 1.169731 0.016184 0.010363 183294.000000 0 0 1
-29.692579 2.401561 11.771741 32.031088 -0.080705 1.194466 0.006255 0.012273 -349505.000000 0 0 1
-30.689109 1.370361 12.347241 33.108211 -0.044623 1.188625 0.005968 0.017011 188371.000000 0 0 1
-30.191489 0.430761 13.314441 32.999786 -0.014267 1.155490 0.001614 0.017059 1076660.000000 0 0 1
-31.419259 -0.098539 13.862041 34.341458 0.003136 1.155290 0.012265 0.018243 1168360.000000 0 0 1
-31.160219 -1.277039 14.846941 34.540147 0.040960 1.126474 0.014286 0.011298 -184372.000000 0 0 1
-31.072899 -2.561839 14.261541 34.285268 0.082260 1.141790 0.001276 0.012402 199590.000000 0 0 1
-31.272319 -3.528139 15.274241 34.981540 0.112345 1.118939 0.005296 0.017996 -80033.900000 0 0 1
-31.142929 -4.981239 14.824641 34.849171 0.158604 1.131399 0.008093 0.016105 191798.000000 0 0 1
-32.125979 -5.345839 13.856941 35.393097 0.164892 1.168518 0.007525 0.009923 74718.200000 0 0 1
-32.033379 -6.696939 13.495141 35.399226 0.206093 1.179673 0.017221 0.011309 -1083770.000000 0 0 1
-33.007069 -7.157039 12.393841 35.976341 0.213528 1.219090 0.017962 0.020701 1307380.000000 0 0 1
-34.419021 -7.123239 12.691241 37.369468 0.204075 1.224289 0.003252 0.029090 1023920.000000 0 0 1
34.876616 -5.901939 13.116641 37.726086 -0.167635 1.215700 0.008383 0.020563 -795573.000000 0 0 1
33.367281 -5.694039 12.854241 36.208135 -0.169019 1.207872 0.007429 0.018459 1046590.000000 0 0 1
32.430601 -6.480439 13.619841 35.766466 -0.197227 1.180136 0.003891 0.025295 1136530.000000 0 0 1
31.080521 -6.362239 13.147541 34.341443 -0.201912 1.177919 -0.000706 0.023318 1225340.000000 0 0 1
30.131911 -7.575139 13.494041 33.873352 -0.246295 1.161060 -0.013318 0.024874 376994.000000 0 0 1
29.842601 -7.641639 14.887841 34.214373 -0.250678 1.120609 -0.000567 0.025210 -47179.700000 0 0 1
28.878001 -8.616039 15.168941 33.738285 -0.289951 1.104472 0.004702 0.029863 -381970.000000 0 0 1
28.397481 -8.567739 16.642241 34.011576 -0.293023 1.059497 -0.022682 0.026861 -487447.000000 0 0 1
29.322651 -8.907139 17.658641 35.369233 -0.294906 1.048045 -0.033600 0.033409 -89961.900000 0 0 1
28.777721 -9.050639 18.974041 35.638260 -0.304707 1.009355 -0.038170 0.023893 -70375.700000 0 0 1
29.841471 -9.603139 19.969641 37.168808 -0.311340 1.003601 -0.043245 0.028363 555087.000000 0 0 1
30.818721 -8.696439 20.427441 37.982917 -0.275029 1.002964 -0.032583 0.028024 236744.000000 0 0 1
32.070571 -8.797139 19.749041 38.677330 -0.267721 1.034902 -0.026368 0.028131 232124.000000 0 0 1
33.154561 -7.991439 20.502241 39.792335 -0.236524 1.029519 -0.012999 0.023677 40347.900000 0 0 1
33.452251 -8.599139 21.776241 40.831397 -0.251610 1.008275 -0.010152 0.020504 -94709.900000 0 0 1
34.678037 -8.108239 22.278841 42.007816 -0.229689 1.011783 -0.011081 0.018539 35898.300000 0 0 1
34.868791 -8.634239 23.728541 43.051439 -0.242738 0.987034 -0.010335 0.017799 -250346.000000 0 0 1
34.047647 -8.068339 24.708141 42.834946 -0.232680 0.955963 -0.005559 0.014010 -82478.900000 0 0 1
34.002501 -9.099139 25.712141 43.589891 -0.261475 0.939905 -0.000361 0.004468 -53981.600000 0 0 1
33.496801 -8.645539 27.109741 43.951327 -0.252588 0.906109 -0.006168 0.013186 -519528.000000 0 0 1
34.494870 -8.013439 27.850241 45.052716 -0.228259 0.904384 -0.008881 -0.003044 -517233.000000 0 0 1
34.038200 -7.245539 28.867741 45.215522 -0.209735 0.878317 -0.011149 -0.003199 -233881.000000 0 0 1
-34.678738 -6.559939 29.618841 46.075193 0.186954 0.872600 -0.011135 -0.002235 42195.300000 0 0 1
-34.154074 -7.446639 30.577941 46.443123 0.214671 0.852111 -0.012904 -0.006517 -149050.000000 0 0 1
-32.814559 -7.110139 30.894641 45.627056 0.213378 0.826965 -0.011159 -0.009379 328357.000000 0 0 1
-32.330019 -7.808339 32.209741 46.299759 0.236981 0.801433 -0.019993 -0.001521 -259374.000000 0 0 1
-32.305029 -9.254439 32.079041 46.457770 0.278999 0.808618 -0.018827 -0.005774 246836.000000 0 0 1
-31.816179 -9.752839 33.297841 47.075825 0.297443 0.785092 -0.028021 -0.000950 -273071.000000 0 0 1
-31.803639 -11.281939 33.471341 47.529825 0.340889 0.789476 -0.010511 -0.005827 514056.000000 0 0 1
-33.164389 -11.725939 33.418641 48.519892 0.339852 0.811017 -0.024755 -0.011394 402713.000000 0 0 1
-33.282279 -13.149839 33.411341 48.958616 0.376275 0.819700 -0.020073 -0.009249 274693.000000 0 0 1
-34.715952 -13.596039 33.807341 50.328778 0.373276 0.834255 -0.019175 -0.009944 299989.000000 0 0 1
-34.889671 -14.959239 33.942341 50.922986 0.405050 0.841235 -0.018429 -0.018260 -204072.000000 0 0 1
33.681301 -15.228839 34.385441 50.484712 -0.424636 0.821524 -0.033960 -0.018250 -217129.000000 0 0 1
33.340031 -16.740939 34.545441 50.844904 -0.465348 0.823814 -0.035339 -0.005788 80727.000000 0 0 1
34.021704 -17.291839 -33.590576 50.841035 -0.470233 2.292545 -0.029982 -0.013929 365837.000000 0 0 1
33.850764 -18.695239 -33.634376 51.250926 -0.504595 2.286659 -0.024565 -0.023852 -359254.000000 0 0 1
34.238484 -19.403839 -32.348676 50.943298 -0.515594 2.258797 -0.018368 -0.009695 -363957.000000 0 0 1
33.308301 -19.258739 -31.304476 49.601534 -0.524233 2.253791 -0.021758 -0.006938 -375209.000000 0 0 1
33.704701 -19.808939 -30.104076 49.342237 -0.531341 2.226993 -0.031191 0.002020 -937875.000000 0 0 1
32.628501 -19.675139 -28.987876 47.875120 -0.542626 2.221177 -0.037662 0.004988 708480.000000 0 0 1
31.401731 -20.380739 -29.064076 47.393710 -0.575695 2.230962 -0.028057 0.007039 283573.000000 0 0 1
30.551271 -19.947439 -30.094576 47.296554 -0.578423 2.260483 -0.029492 0.005211 -2168740.000000 0 0 1
29.199901 -20.582539 -30.101276 46.715757 -0.613996 2.270969 -0.023779 0.002117 -1213930.000000 0 0 1
28.306071 -19.851339 -30.896676 46.367164 -0.611605 2.300097 -0.023830 0.001579 -245068.000000 0 0 1
27.081441 -20.540639 -31.029976 46.023708 -0.648904 2.310701 -0.011560 -0.001487 -205302.000000 0 0 1
26.166221 -19.943239 -32.098876 45.964571 -0.651248 2.343871 -0.003628 0.001085 -95629.200000 0 0 1
26.617841 -20.002839 -33.490176 47.225152 -0.644449 2.359102 -0.009023 -0.002631 -233929.000000 0 0 1
25.642081 -19.538939 -34.382376 47.132094 -0.651129 2.388372 0.019299 -0.006804 -272433.000000 0 0 1
25.896121 -19.822939 33.385041 46.670322 -0.653334 0.773689 0.013003 -0.003565 -61668.100000 0 0 1
27.060761 -19.178039 32.899741 46.716966 -0.616543 0.789451 -0.001582 -0.007320 216034.000000 0 0 1
27.245791 -19.198239 31.447741 45.824294 -0.613828 0.814451 -0.003135 -0.008185 -427767.000000 0 0 1
26.228501 -18.349639 30.678541 44.337528 -0.610462 0.806635 0.004421 -0.000955 -280827.000000 0 0 1
26.205471 -16.979639 30.979741 43.986125 -0.574927 0.789350 0.006320 -0.006425 592755.000000 0 0 1
25.113951 -16.348239 30.318541 42.628505 -0.577052 0.779554 0.024702 -0.006797 205735.000000 0 0 1
24.910821 -14.934139 30.883441 42.395335 -0.540055 0.754720 0.029025 -0.007278 310278.000000 0 0 1
26.057221 -14.081739 30.749341 42.694217 -0.495455 0.766673 0.023880 -0.001526 629777.000000 0 0 1
25.946831 -12.845839 31.466741 42.759905 -0.459706 0.743811 0.036643 -0.002581 35807.900000 0 0 1
27.331021 -12.172639 31.362641 43.344817 -0.419004 0.761848 0.015371 0.008340 -21959.200000 0 0 1
27.597351 -11.557339 30.088041 42.432017 -0.396594 0.782592 0.001505 0.005440 1547410.000000 0 0 1
29.038411 -11.423539 29.890941 43.211051 -0.374799 0.806896 -0.011028 0.012378 1578620.000000 0 0 1
29.370031 -10.685939 28.588041 42.356394 -0.348949 0.829912 -0.013935 0.012036 -184246.000000 0 0 1
29.514981 -9.327239 28.680641 42.198468 -0.306086 0.823496 -0.003838 0.021902 54062.200000 0 0 1
29.857371 -8.791739 27.435641 41.490622 -0.286365 0.848314 -0.016382 0.025046 -332411.000000 0 0 1
29.798711 -7.229339 27.481941 41.176251 -0.238007 0.840055 -0.009952 0.020387 -762736.000000 0 0 1
28.514201 -6.776039 27.259541 40.025704 -0.233310 0.821599 -0.005654 0.023209 -1083160.000000 0 0 1
28.297621 -5.403339 27.494541 39.823376 -0.188676 0.808738 -0.002967 0.018427 518390.000000 0 0 1
26.875371 -4.921039 27.062141 38.455971 -0.181100 0.790180 0.006661 0.020493 430624.000000 0 0 1
26.582661 -5.132239 25.708141 37.334786 -0.190721 0.811262 -0.003858 0.023318 127731.000000 0 0 1
25.245831 -4.706539 25.492341 36.185121 -0.184313 0.789081 0.013968 0.018045 74841.800000 0 0 1
24.728301 -5.187039 24.110941 34.924658 -0.206764 0.808796 0.015190 0.020225 -309525.000000 0 0 1
25.002731 -4.223139 23.111041 34.308770 -0.167328 0.831702 0.015322 0.023431 187294.000000 0 0 1
24.718401 -4.608839 21.819241 33.291441 -0.184337 0.856083 0.022158 0.017671 -6244.540000 0 0 1
25.064641 -3.587039 20.664641 32.682266 -0.142146 0.886292 0.020807 0.014180 -337932.000000 0 0 1
24.083201 -2.599639 20.463041 31.709537 -0.107528 0.869344 0.020899 0.019455 -107203.000000 0 0 1
24.463701 -1.561639 19.608641 31.391244 -0.063748 0.896109 0.013595 0.007554 -295973.000000 0 0 1
23.283201 -0.615739 19.222441 30.199153 -0.026439 0.880815 -0.017860 0.008840 802970.000000 0 0 1
22.515201 -1.216739 18.131641 28.933910 -0.053988 0.893540 0.010077 -0.001742 300188.000000 0 0 1
21.206001 -0.693139 18.025341 27.840400 -0.032674 0.866559 0.015364 0.002886 -11762.700000 0 0 1
20.239301 -1.739839 17.443141 26.775353 -0.085753 0.861286 0.012648 0.002966 -733563.000000 0 0 1
20.509801 -2.108439 16.098241 26.158189 -0.102442 0.907879 0.013728 -0.004059 21992.500000 0 0 1
19.656701 -3.117639 15.611541 25.294778 -0.157294 0.905637 0.024562 -0.013649 -225353.000000 0 0 1
19.998401 -3.454039 14.105841 24.715202 -0.171028 0.963395 0.015989 -0.018750 -286181.000000 0 1 0
19.107201 -4.389239 13.574941 23.845955 -0.225799 0.965171 0.018456 -0.014877 435212.000000 0 1 0
19.325601 -4.711639 12.247041 23.359547 -0.239138 1.018922 0.016985 -0.015473 -353409.000000 0 1 0
18.253501 -5.735439 11.830441 22.495442 -0.304442 1.017019 0.001095 -0.007755 -569322.000000 0 1 0
18.431001 -6.966239 12.440441 23.302250 -0.361366 1.007622 0.015339 -0.009905 860743.000000 0 1 0
17.225801 -7.728239 12.414841 22.596066 -0.421725 0.989121 -0.006119 0.007162 -43301.100000 0 1 0
17.419601 -9.306839 12.523841 23.386029 -0.490689 1.005665 0.002599 -0.010342 -813566.000000 0 1 0
18.050001 -9.954339 11.446041 23.577601 -0.503984 1.063904 -0.015181 -0.017326 419891.000000 0 1 0
17.836301 -11.367539 11.492141 24.071225 -0.567414 1.073078 -0.005185 -0.012286 -149956.000000 0 1 0
18.485801 -12.051439 10.258041 24.334943 -0.577730 1.135658 -0.000395 -0.007268 -278734.000000 0 1 0
17.967701 -11.563439 9.050741 23.204899 -0.571840 1.170126 -0.004638 -0.001912 213289.000000 0 1 0
18.670301 -12.068139 7.942841 23.607390 -0.573827 1.227646 -0.006265 -0.009965 -480519.000000 0 1 0
18.377201 -11.350339 6.604341 22.586922 -0.553283 1.274064 -0.008197 -0.004010 -336967.000000 0 1 0
18.869701 -10.021239 6.511341 22.335810 -0.488198 1.274981 0.000786 -0.003193 531287.000000 0 1 0
19.391201 -9.808339 5.232541 22.351771 -0.468288 1.334504 -0.003850 0.000121 -253136.000000 0 1 0
19.867401 -8.324739 4.964641 22.105714 -0.396790 1.344278 0.014741 -0.002149 -226041.000000 0 1 0
20.619601 -8.078539 3.759641 22.462539 -0.373408 1.402631 0.020976 -0.007554 777862.000000 0 1 0
20.592801 -6.697839 3.523741 21.939491 -0.314459 1.409486 0.006006 -0.007362 -471041.000000 0 1 0
21.394201 -6.235839 2.294141 22.402246 -0.283616 1.468210 0.020904 -0.003291 -208806.000000 0 1 0
20.511401 -6.349139 1.233741 21.507005 -0.300188 1.513400 -0.000506 -0.010475 349601.000000 0 1 0
21.021701 -5.878739 -0.015859 21.828233 -0.272685 1.571523 0.006835 -0.001076 -249410.000000 0 1 0
-24.993219 -15.652339 -0.102259 29.490120 0.559507 1.574264 0.034653 -0.002343 221612.000000 0 0 1
-23.916019 -15.081739 -0.909859 28.288914 0.562625 1.602965 0.022843 0.004098 1059490.000000 0 0 1
-22.657519 -15.700939 -0.696559 27.574768 0.605991 1.596060 0.021935 0.008841 409500.000000 0 0 1
-21.925119 -15.246239 0.591141 26.711572 0.607617 1.548664 0.009449 0.005751 -938755.000000 0 0 1
-22.563519 -15.682039 1.765941 27.534656 0.607374 1.506617 0.018636 0.009383 -268976.000000 0 0 1
-21.857119 -15.187939 2.857641 26.768886 0.607277 1.463840 0.019788 0.018929 63928.400000 0 0 1
-22.260119 -15.836439 4.193441 27.638572 0.618354 1.418484 0.018054 0.019764 -278757.000000 0 0 1
-21.894519 -17.185039 4.242041 28.154759 0.665466 1.419552 0.019506 0.011317 119218.000000 0 0 1
-22.440919 -17.866239 5.352441 29.179547 0.672386 1.386321 0.033494 -0.000109 -306981.000000 0 0 1
-22.280319 -19.408539 5.219341 30.005758 0.716621 1.395962 0.021898 0.000769 -72738.800000 0 0 1
-22.815319 -20.151439 6.277241 31.080911 0.723479 1.367433 0.008167 -0.000172 -97161.900000 0 0 1
-22.756819 -21.552039 6.129141 31.936336 0.758214 1.377681 0.015911 -0.002700 345255.000000 0 0 1
-23.669919 -22.286939 7.200741 33.299000 0.755314 1.352830 0.023962 0.005492 452566.000000 0 0 1
-23.076419 -22.384539 8.458941 33.243682 0.770180 1.313515 0.018612 0.017079 -227056.000000 0 0 1
-24.054419 -22.886439 9.328241 34.487972 0.760521 1.296907 0.032896 0.023579 172222.000000 0 0 1
-23.438219 -23.148739 10.686641 34.632622 0.779184 1.257105 -0.012155 0.017683 362550.000000 0 0 1
-22.844319 -22.029839 11.372441 33.712151 0.767250 1.226707 0.030615 0.018875 354072.000000 0 0 1
-21.898519 -22.407939 12.357141 33.680258 0.796895 1.195127 0.037103 0.017828 -314256.000000 0 0 1
-22.110619 -21.750039 13.760841 33.930877 0.777177 1.153210 0.022224 0.024443 -210344.000000 0 0 1
-23.145619 -22.441039 14.464641 35.334767 0.769944 1.149044 0.021959 0.019365 391691.000000 0 0 1
-23.352719 -21.946339 15.747541 35.706811 0.754362 1.114058 0.016726 0.021664 -402570.000000 0 0 1
-24.496919 -22.626839 16.539641 37.224086 0.745735 1.110374 0.010864 0.011941 107147.000000 0 0 1
-25.831619 -22.326739 16.187141 37.785968 0.712748 1.128086 0.001100 0.003907 217902.000000 0 0 1
-26.287879 -23.021639 15.034641 38.040621 0.719255 1.164482 0.001823 0.006768 -877749.000000 0 0 1
-27.308649 -24.097639 15.353941 39.524701 0.723016 1.171832 0.003195 0.003390 -576828.000000 0 0 1
-26.791149 -25.037539 16.302341 40.129918 0.751576 1.152462 -0.000214 0.011994 28787.600000 0 0 1
-27.645879 -26.129839 16.615741 41.510793 0.757214 1.158979 -0.010362 0.013206 -15534.100000 0 0 1
-27.544189 -27.315339 15.616541 41.817298 0.781227 1.188074 -0.010908 0.012554 197742.000000 0 0 1
-28.256639 -27.124369 14.385941 41.726782 0.764956 1.218808 -0.003522 -0.000519 494241.000000 0 0 1
-29.483049 -27.867559 14.383941 43.043568 0.757237 1.230070 0.020736 -0.014458 681602.000000 0 0 1
-30.074179 -28.177349 12.994441 43.211974 0.752847 1.265355 0.027988 -0.027819 552499.000000 0 0 1
-29.326589 -29.270649 12.409841 43.253021 0.784444 1.279794 0.039438 -0.027598 675072.000000 0 0 1
-29.915159 -29.497879 11.154541 43.467981 0.778375 1.311278 0.039057 -0.024142 146559.000000 0 0 1
-29.244519 -30.690989 10.417841 43.654440 0.809527 1.329828 0.042164 -0.027513 19953.000000 0 0 1
-29.574539 -31.922719 10.988641 44.882776 0.823563 1.323452 0.044113 -0.014932 222318.000000 0 0 1
-28.846159 -33.012919 10.401941 45.057231 0.852655 1.337834 0.051957 -0.018175 49382.100000 0 0 1
-28.994879 -34.403035 11.166941 46.357010 0.870497 1.327514 0.044753 -0.010205 -328758.000000 0 0 1
-30.292539 34.459048 11.110541 47.207076 -0.849656 1.333210 0.044392 -0.011217 -493867.000000 0 0 1
-30.310219 33.187527 11.659141 46.433360 -0.830681 1.316986 0.040622 -0.013141 513653.000000 0 0 1
-31.705429 32.782297 12.296541 47.234713 -0.802095 1.307434 0.044310 -0.009848 1108390.000000 0 0 1
-32.839419 32.575527 11.499641 47.663761 -0.781364 1.327126 0.020228 -0.014169 89443.700000 0 0 1
-33.364079 33.717746 10.844841 48.658594 -0.790670 1.346032 0.027888 -0.012701 -1598200.000000 0 0 1
-34.785813 33.554870 10.393341 49.436865 -0.767388 1.358981 0.005619 0.000951 -956030.000000 0 0 1
-34.822747 32.903797 9.140141 48.773207 -0.757072 1.382281 -0.009589 0.001009 -853877.000000 0 0 1
33.725081 32.786737 8.789141 47.849767 0.771291 1.386065 -0.009312 0.006305 -1069430.000000 0 0 1
33.439021 32.114317 7.410341 46.951152 0.765193 1.412303 -0.008900 0.003943 -142232.000000 0 0 1
33.537661 30.726137 7.412241 46.084830 0.741676 1.409256 0.000955 0.005217 -16491.400000 0 0 1
33.469861 30.265267 6.086841 45.533149 0.735161 1.436716 0.016959 0.000799 -76547.300000 0 0 1
34.038814 28.860727 5.878741 45.012687 0.703260 1.439820 0.009630 0.011001 -355126.000000 0 0 1
33.187731 27.797257 6.335541 43.752167 0.697237 1.425480 0.012643 0.010476 375748.000000 0 0 1
33.294361 27.474097 7.744841 43.855707 0.689912 1.393267 0.008559 0.016874 -507534.000000 0 0 1
32.314741 26.392457 8.130041 42.507668 0.684860 1.378350 0.006057 0.007015 -493505.000000 0 0 1
32.570331 25.125997 7.495041 41.812891 0.657081 1.390570 0.011258 0.002971 233260.000000 0 0 1
31.413441 24.313327 7.505141 40.426097 0.658672 1.384062 0.008208 0.006757 -331537.000000 0 0 1
31.517781 23.196727 6.396141 39.653112 0.634473 1.408786 0.006869 0.008159 489784.000000 0 0 1
32.378811 22.045727 6.554641 39.716052 0.597771 1.405000 0.022740 0.000556 967347.000000 0 0 1
33.774811 22.320327 6.687641 41.032419 0.583970 1.407082 0.030960 -0.005960 513886.000000 0 0 1
34.675067 21.071727 6.887541 41.155998 0.546055 1.402653 0.019862 -0.010863 -44596.400000 0 0 1
34.576474 20.157027 5.803241 40.441512 0.527803 1.426802 0.037755 -0.018779 43874.300000 0 0 1
-34.549617 18.981727 6.037341 39.880214 -0.502386 1.418825 0.038565 -0.023860 -367618.000000 0 0 1
-34.770793 17.791327 5.109141 39.390896 -0.472944 1.440726 0.029714 -0.019678 -696873.000000 0 0 1
-34.219434 17.895727 3.830941 38.805964 -0.481854 1.471915 0.021452 -0.018270 177931.000000 0 0 1
-34.796884 16.885627 3.009341 38.794377 -0.451788 1.493147 0.013852 -0.014962 -720466.000000 0 0 1
-33.869609 16.462527 1.872441 37.705056 -0.452430 1.521116 0.009578 -0.003321 -82390.700000 0 0 1
-32.786299 15.614727 2.172141 36.379655 -0.444474 1.511053 0.020041 -0.009711 -26305.400000 0 0 1
-31.624229 16.324827 2.511641 35.677726 -0.476533 1.500340 0.018660 -0.011632 -920348.000000 0 0 1
-30.420529 15.450427 2.870041 34.239764 -0.469943 1.486876 0.001873 -0.007810 -382460.000000 0 0 1
-30.480849 14.766827 4.131141 34.120487 -0.451140 1.449423 0.014884 -0.009711 307308.000000 0 0 1
-29.184169 14.284027 4.421241 32.791714 -0.455167 1.435556 0.001607 -0.002231 -113189.000000 0 0 1
-28.953899 13.709527 5.851741 32.565661 -0.442220 1.390124 0.011374 -0.004816 -309698.000000 0 0 1
-29.317279 12.385627 5.960841 32.379596 -0.399724 1.385648 0.008419 0.000022 174036.000000 0 0 1
-29.114389 11.918827 7.254641 32.285227 -0.388566 1.344156 -0.001034 0.005818 -163632.000000 0 0 1
-29.086999 10.370927 7.386441 31.751679 -0.342497 1.336014 0.000792 0.008460 205469.000000 0 0 1
-30.349379 9.796427 7.099941 32.672067 -0.312230 1.351739 -0.006687 0.010160 86883.000000 0 0 1
-30.297649 8.379227 7.211441 32.251571 -0.269819 1.345290 -0.009254 0.007443 911582.000000 0 0 1
-31.731929 7.734827 7.030641 33.409172 -0.239093 1.358771 -0.022799 0.013336 963093.000000 0 0 1
-32.526479 7.816627 8.198041 34.442406 -0.235844 1.330468 -0.028316 0.013431 164919.000000 0 0 1
-33.745179 7.123327 7.986941 35.401555 -0.208038 1.343227 -0.032447 0.009304 225551.000000 0 0 1
-34.425297 6.397127 9.172941 36.196231 -0.183731 1.314580 -0.025326 0.006550 -49252.600000 0 0 1
34.833653 7.241927 10.161741 37.001215 0.204980 1.292589 -0.023114 0.002896 191498.000000 0 0 1
-34.163002 7.847827 11.104541 36.769688 -0.225800 1.264004 -0.013612 -0.006754 -359312.000000 0 0 1
-34.815130 8.872527 12.034141 37.889782 -0.249535 1.247589 -0.009981 -0.008772 -756860.000000 0 0 1
34.313304 8.339827 13.147841 37.680516 0.238426 1.214368 -0.021868 -0.013306 616352.000000 0 0 1
33.866309 9.414127 13.926241 37.808635 0.271134 1.193579 -0.003793 -0.015820 -425769.000000 0 0 1
33.139501 8.908527 15.214941 37.537752 0.262611 1.153463 -0.020706 -0.013790 -509698.000000 0 0 1
31.815721 8.508027 14.983841 36.182069 0.261302 1.143817 -0.021438 -0.011681 -184265.000000 0 0 1
31.299611 8.056127 16.201041 36.153016 0.251919 1.106130 -0.031308 -0.001601 -1545810.000000 0 0 1
29.885291 7.590127 16.227941 34.843747 0.248717 1.086332 -0.050187 0.011683 -1284330.000000 0 0 1
28.948351 8.634127 16.402241 34.374245 0.289859 1.073369 -0.058654 0.006020 220872.000000 0 0 1
27.588811 8.269127 16.527941 33.206834 0.291207 1.049820 -0.047582 0.010564 265035.000000 0 0 1
27.087711 7.757727 17.900541 33.381968 0.278927 1.004827 -0.046405 0.015400 -451955.000000 0 0 1
27.088881 8.766727 18.922741 34.186739 0.312991 0.984222 -0.033885 0.002129 71146.700000 0 0 1
26.560301 8.387127 20.180641 34.395520 0.305867 0.943790 -0.021801 0.016192 -516969.000000 0 0 1
27.081141 7.204827 20.995641 35.015921 0.260023 0.927792 -0.028470 0.022007 -460061.000000 0 0 1
26.400651 6.953927 22.199441 35.187593 0.257550 0.888099 -0.034940 0.029416 -110557.000000 0 0 1
26.821391 5.699527 22.700941 35.597814 0.209385 0.879280 -0.023406 0.031476 -1360570.000000 0 0 1
26.110161 5.271427 24.033641 35.876794 0.199214 0.836731 -0.012955 0.029324 817361.000000 0 0 1
24.729401 4.919427 23.945441 34.772521 0.196367 0.811197 -0.024717 0.030829 657602.000000 0 0 1
23.877001 5.944327 23.466441 34.001766 0.243996 0.809095 -0.021965 0.036397 -2157700.000000 0 0 1
22.387201 5.771227 23.593441 33.032474 0.252298 0.775245 -0.002416 0.032139 -585738.000000 0 0 1
21.796201 4.874427 22.650541 31.810084 0.220016 0.778375 -0.014128 0.035381 241935.000000 0 0 1
20.387001 4.915927 22.689141 30.896493 0.236614 0.746073 -0.000669 0.027655 -1216160.000000 0 0 1
19.756801 4.013227 21.675941 29.602088 0.200405 0.749186 0.016925 0.026663 212477.000000 0 0 1
18.380901 4.245827 21.394641 28.523942 0.227010 0.722645 0.027137 0.011769 557556.000000 0 0 1
17.480901 3.767127 22.377941 28.645164 0.212254 0.674192 0.039957 0.011032 -430763.000000 0 0 1
16.038701 3.724927 21.818141 27.333977 0.228201 0.646485 0.047215 0.011840 -596612.000000 0 0 1
16.097301 2.945227 20.668641 26.362667 0.180962 0.669694 0.033592 0.014700 193838.000000 0 0 1
14.890901 2.680027 19.970541 25.054820 0.178071 0.648362 0.033784 -0.002118 -59740.100000 0 0 1
13.851501 1.779327 20.709841 24.978543 0.127758 0.593291 0.029681 -0.004307 -312833.000000 0 1 0
14.204601 0.396327 20.766541 25.163009 0.027894 0.600098 0.011438 0.001686 698775.000000 0 0 1
13.215301 -0.268573 21.556941 25.286717 -0.020320 0.550046 -0.002917 0.000701 226441.000000 0 0 1
13.495001 -1.743073 21.880341 25.766309 -0.128453 0.556358 -0.020450 0.006914 -120712.000000 0 0 1
13.447201 -2.513773 20.701241 24.813054 -0.184804 0.583956 -0.001241 0.007430 249126.000000 0 1 0
13.655001 -3.941973 20.905841 25.279486 -0.281043 0.597067 0.005890 0.018187 -51697.800000 0 0 1
13.466501 -4.715973 19.580341 24.227605 -0.336853 0.629736 0.010567 0.009766 -96549.700000 0 1 0
12.126901 -4.742573 19.150741 23.158252 -0.372792 0.597133 0.005870 0.004821 -233607.000000 0 1 0
12.033901 -5.026073 17.730841 22.010428 -0.395637 0.634167 0.015333 -0.000566 258741.000000 0 1 0
10.560301 -5.350073 17.391641 21.038356 -0.468931 0.597644 0.009807 -0.002893 198996.000000 0 1 0
10.077501 -6.373473 18.215641 21.771237 -0.563936 0.579596 0.009622 0.004702 -337350.000000 0 1 0
8.679901 -6.443673 18.019641 21.013545 -0.638598 0.540357 -0.000099 -0.005417 319694.000000 0 1 0
7.802701 -7.082373 19.145941 21.854272 -0.737043 0.503139 -0.007353 -0.003432 -12487.900000 0 1 0
7.684301 -8.488673 19.103741 22.272382 -0.835093 0.539954 -0.020931 -0.001058 200476.000000 0 1 0
8.678501 -9.198773 19.854341 23.539938 -0.814492 0.567156 0.001455 0.001574 410258.000000 0 1 0
8.754101 -10.653173 19.324741 23.739630 -0.882941 0.619741 0.007230 -0.008881 -82687.300000 0 1 0
9.203101 -10.661773 18.037241 22.884767 -0.858696 0.662955 -0.000454 0.004626 -87224.100000 0 1 0
9.412901 -11.972373 17.503341 23.201452 -0.904515 0.716046 -0.011916 -0.005344 98919.700000 0 1 0
9.743601 -11.829673 16.019741 22.170048 -0.881796 0.763262 -0.002473 -0.011987 6179.830000 0 1 0
10.182601 -12.978473 15.356641 22.537803 -0.905531 0.821160 -0.016844 -0.008232 -6607.290000 0 1 0
10.106501 -12.865073 13.943941 21.496162 -0.904912 0.864959 -0.004870 -0.005317 -465648.000000 0 1 0
10.822701 -14.044473 13.168541 22.085936 -0.914240 0.931986 0.003208 -0.011429 1218910.000000 0 1 0
12.223401 -13.892573 12.883341 22.547630 -0.849225 0.962606 -0.002525 -0.007678 724417.000000 0 1 0
12.466401 -13.019273 11.790341 21.538913 -0.807088 0.991545 -0.012889 -0.005650 372981.000000 0 1 0
13.932101 -13.000073 11.184441 22.095182 -0.750805 1.040031 -0.015257 -0.003690 1102330.000000 0 1 0
14.291701 -14.175073 10.480741 22.694302 -0.781301 1.090747 -0.017967 0.003244 -1169860.000000 0 1 0
15.548201 -14.048073 9.972341 23.206519 -0.734755 1.126612 -0.021946 -0.002877 -1493370.000000 0 1 0
16.152301 -15.392673 9.443841 24.228441 -0.761322 1.170400 -0.021839 -0.000872 -50986.700000 0 1 0
16.401101 -16.471273 10.334541 25.438194 -0.787533 1.152438 -0.021067 0.002159 335096.000000 0 0 1
15.249401 -17.046273 10.944641 25.355568 -0.840979 1.124479 -0.019114 0.002352 259902.000000 0 0 1
15.651401 -17.605573 12.285041 26.567740 -0.844090 1.090091 -0.025307 0.002804 601608.000000 0 0 1
16.757401 -18.525573 12.287841 27.838793 -0.835470 1.113646 -0.009653 -0.001528 564543.000000 0 0 1
16.788201 -19.115473 13.604941 28.850294 -0.850127 1.079726 -0.034288 -0.006920 29408.800000 0 0 1
18.161101 -19.791973 13.810441 30.203908 -0.828342 1.095907 -0.033794 -0.017034 -315393.000000 0 0 1
19.228901 -18.917773 14.050141 30.414458 -0.777242 1.090597 -0.031015 -0.014515 92515.500000 0 0 1
20.457801 -19.622673 13.800841 31.528307 -0.764565 1.117726 -0.040140 -0.011692 715256.000000 0 0 1
21.270301 -19.087173 12.582541 31.226051 -0.731356 1.156058 -0.013839 -0.007892 -533573.000000 0 0 1
20.939501 -19.477673 11.270341 30.738625 -0.749245 1.195390 -0.021603 0.009377 151092.000000 0 0 1
19.784301 -18.917473 10.642541 29.369253 -0.763004 1.199987 -0.024841 0.011127 116163.000000 0 0 1
19.572601 -17.409073 10.420741 28.191389 -0.726962 1.192172 -0.007106 0.011516 -135597.000000 0 0 1
20.509201 -16.710573 9.609241 28.146192 -0.683691 1.222385 -0.004702 0.016079 41237.600000 0 0 1
20.127101 -15.384573 9.547841 27.072986 -0.652635 1.210373 -0.003835 -0.002674 19041.400000 0 0 1
-33.240089 25.277061 8.205341 42.557737 -0.650149 1.376776 0.018063 0.013093 -485432.000000 0 0 1
-32.381809 24.504261 8.939141 41.580628 -0.647794 1.354122 0.022929 0.000942 220216.000000 0 0 1
-31.323229 25.261461 9.553141 41.358779 -0.678678 1.337709 0.025886 0.009602 493588.000000 0 0 1
-30.191209 24.327961 10.087741 40.063965 -0.678265 1.316266 0.030542 -0.011740 -215304.000000 0 0 1
-29.535729 23.695861 9.022641 38.926356 -0.676128 1.336882 0.025999 -0.008287 -144962.000000 0 0 1
-28.622309 22.766861 9.562641 37.802257 -0.671944 1.315053 0.028948 -0.006968 -246.185000 0 0 1
-27.876019 21.889061 8.528541 36.454622 -0.665669 1.334658 0.029862 -0.017208 343979.000000 0 0 1
-28.712579 20.915361 7.895941 36.389702 -0.629559 1.352074 0.031595 -0.024932 925739.000000 0 0 1
-27.962919 20.286261 6.851441 35.219305 -0.627616 1.375011 0.022492 -0.022169 425905.000000 0 0 1
-28.960019 19.503161 5.956341 35.419401 -0.592685 1.401827 0.016455 -0.020637 249378.000000 0 0 1
-29.608349 18.399761 6.632141 35.485079 -0.556034 1.382791 0.015163 -0.017339 7484.730000 0 0 1
-30.606959 17.924261 5.816341 35.942939 -0.529784 1.408260 0.009862 -0.021944 -758749.000000 0 0 1
-31.510679 16.794961 6.326241 36.263135 -0.489692 1.395445 0.016458 -0.011402 -304223.000000 0 0 1
-32.326479 17.123461 7.463041 37.335119 -0.487127 1.369547 0.027432 -0.017816 502767.000000 0 0 1
-33.069629 15.987961 7.875041 37.566362 -0.450331 1.359600 0.031653 -0.021371 -420767.000000 0 0 1
-33.932809 16.239861 9.105441 38.705008 -0.446372 1.333318 0.028675 -0.023857 -716898.000000 0 0 1
34.902125 17.094661 8.774741 39.841961 0.455445 1.348737 0.038370 -0.026120 -416045.000000 0 0 1
34.440745 17.823261 9.912941 40.026241 0.477553 1.320531 0.037425 -0.017618 739280.000000 0 0 1
33.447791 19.026461 9.614041 39.663469 0.517193 1.325967 0.026330 -0.015585 843315.000000 0 0 1
32.111671 18.746861 9.241241 38.314550 0.528424 1.327200 0.016128 -0.013386 58902.700000 0 0 1
31.366121 19.915561 9.149541 38.264569 0.565714 1.329344 0.010114 -0.001785 417347.000000 0 0 1
29.965601 19.701261 8.472941 36.849256 0.581603 1.338785 -0.004894 -0.004479 183557.000000 0 0 1
29.190471 20.888161 8.568441 36.902806 0.621107 1.336468 -0.015092 0.005600 -222612.000000 0 0 1
27.971211 20.850161 7.876541 35.765315 0.640560 1.348748 -0.011557 0.000740 -229263.000000 0 0 1
28.010061 20.715361 6.376241 35.416750 0.636792 1.389775 -0.032586 0.009192 -888311.000000 0 0 1
28.244871 19.374661 5.896141 34.755068 0.601236 1.400323 -0.022925 0.002693 8016.660000 0 0 1
28.118951 19.093561 4.524741 34.288668 0.596512 1.438450 -0.021950 -0.005844 -242857.000000 0 0 1
26.750121 19.441461 3.869941 33.294381 0.628474 1.454299 -0.005617 0.001031 -567542.000000 0 0 1
25.752601 18.563161 4.416941 32.051471 0.624567 1.432549 -0.014468 -0.003807 6993.660000 0 0 1
24.449201 18.875461 4.004241 31.146114 0.657450 1.441876 0.008632 -0.002667 -189634.000000 0 0 1
23.782001 20.178361 4.493341 31.510950 0.703606 1.427712 0.025004 -0.005655 -959754.000000 0 0 1
24.273301 21.328961 3.823841 32.538277 0.720922 1.453006 0.018127 -0.004666 331503.000000 0 0 1
23.677501 22.539061 4.330441 32.975537 0.760770 1.439093 0.021107 0.003161 -130183.000000 0 0 1
24.485801 23.818361 4.069741 34.401040 0.771582 1.452216 0.006613 0.008905 -335127.000000 0 0 1
25.678391 23.859461 4.815441 35.381381 0.748697 1.434272 -0.005731 0.005629 -282530.000000 0 0 1
26.368631 25.018861 4.446241 36.619901 0.759138 1.449080 0.014018 0.004788 -339745.000000 0 0 1
27.776851 25.112861 5.106141 37.792617 0.735072 1.435272 0.004210 0.007704 422242.000000 0 0 1
28.715671 24.076161 4.772941 37.776081 0.697740 1.444109 -0.001531 0.004448 649354.000000 0 0 1
29.165921 23.869461 3.380141 37.839496 0.685862 1.481349 0.008426 -0.004571 -242096.000000 0 0 1
29.992341 25.031961 2.789541 39.165305 0.695492 1.499511 0.016609 -0.007249 -672367.000000 0 0 1
29.274571 26.215261 2.562341 39.380275 0.730321 1.505684 0.016468 -0.015136 -347787.000000 0 0 1
30.080341 27.156761 1.925541 40.571225 0.734364 1.523318 0.044312 -0.008075 -790698.000000 0 0 1
29.775711 28.572561 2.471441 41.341169 0.764781 1.510979 0.046128 -0.006258 1352010.000000 0 0 1
28.482031 29.080861 2.067641 40.757793 0.795801 1.520045 0.059902 -0.012162 1448340.000000 0 0 1
27.363071 28.589461 2.838741 39.675602 0.807313 1.499186 0.041411 -0.005599 521259.000000 0 0 1
25.981981 28.970461 2.235841 38.978840 0.839728 1.513404 0.016727 -0.003037 367391.000000 0 0 1
25.680111 30.355661 2.491241 39.838933 0.868644 1.508223 0.010342 -0.010748 32848.400000 0 0 1
24.323901 30.678761 2.263941 39.216884 0.900425 1.513035 0.008846 -0.003227 125565.000000 0 0 1
23.898001 32.048661 2.857741 40.079893 0.930067 1.499435 0.020615 -0.014583 -292508.000000 0 0 1
23.994001 32.274461 4.252141 40.440495 0.931509 1.465456 0.006604 -0.019103 202077.000000 0 0 1
25.270911 32.082561 4.856641 41.127809 0.903611 1.452434 -0.003763 -0.016793 86123.300000 0 0 1
25.207901 32.029661 6.449041 41.266543 0.904022 1.413875 0.015329 -0.020675 135922.000000 0 0 1
24.736501 30.842061 7.076641 40.164737 0.894814 1.393681 0.025163 -0.022892 176754.000000 0 0 1
25.557581 29.761061 6.710241 39.798719 0.861239 1.401383 0.014423 -0.015623 -209357.000000 0 0 1
24.999071 28.395861 7.138341 38.499797 0.848929 1.384305 0.026712 -0.015532 126175.000000 0 0 1
23.807501 28.152861 6.397841 37.420757 0.868832 1.398982 0.014364 -0.019869 322209.000000 0 0 1
23.108101 26.976061 6.653041 36.138002 0.862474 1.385639 0.018363 -0.016109 440597.000000 0 0 1
21.738001 26.777061 5.911341 34.992794 0.888893 1.401052 0.027443 -0.011353 291941.000000 0 0 1
21.685101 26.538961 4.521741 34.568862 0.885713 1.439617 0.024121 -0.007643 73523.200000 0 0 1
21.895901 27.622961 3.678541 35.439951 0.900541 1.466813 0.025225 -0.010680 -249830.000000 0 0 1
22.066201 27.207061 2.173941 35.097969 0.889356 1.508817 0.021906 -0.000965 -60997.500000 0 0 1
23.247801 26.503461 1.860141 35.303737 0.850744 1.518082 0.007394 0.016049 70505.100000 0 0 1
23.264501 26.325461 0.464641 35.135208 0.847045 1.557572 0.021558 0.008737 -299257.000000 0 0 1
24.594501 25.829561 -0.096759 35.666021 0.809887 1.573509 0.037383 0.003588 -536617.000000 0 0 1
25.704401 26.753061 -0.202759 37.100992 0.805386 1.576261 0.033199 0.010857 1989180.000000 0 0 1
26.847261 26.208861 -0.938959 37.530807 0.773366 1.595817 0.036150 0.019459 1247390.000000 0 0 1
27.627751 25.022761 -0.283459 37.276153 0.735961 1.578401 0.027760 0.011326 -760891.000000 0 0 1
26.912221 23.798261 -0.331859 35.926801 0.724069 1.580034 0.032626 0.004693 361443.000000 0 0 1
27.648731 22.737061 0.270741 35.798039 0.688224 1.563233 0.028751 -0.003792 -126164.000000 0 0 1
26.715541 21.674261 0.854241 34.412548 0.681592 1.545970 0.032766 -0.003500 -27467.100000 0 0 1
26.073181 20.950361 -0.192259 33.447950 0.676884 1.576544 0.038318 -0.017797 1035270.000000 0 0 1
24.943901 20.255161 0.401141 32.134571 0.682033 1.558313 0.033424 -0.003371 431455.000000 0 0 1
24.259801 19.241861 -0.523659 30.968716 0.670555 1.587706 0.038817 -0.014295 -24292.400000 0 0 1
23.049501 18.779361 0.088941 29.731327 0.683665 1.567805 0.033925 -0.009250 360815.000000 0 0 1
22.608001 17.752061 -0.721259 28.753741 0.665658 1.595883 0.037692 -0.024905 472445.000000 0 0 1
21.256101 17.070461 -0.296859 27.263723 0.676619 1.581685 0.027039 -0.006194 -398189.000000 0 0 1
20.727301 16.026661 -1.074659 26.222696 0.658194 1.611790 0.026311 -0.010500 1462830.000000 0 0 1
19.368101 15.799961 -0.592759 25.002269 0.684284 1.594507 0.024573 -0.005956 1391600.000000 0 0 1
18.225101 16.770461 -0.992459 24.786844 0.743856 1.610847 0.016167 -0.006409 -774285.000000 0 1 0
18.233301 18.029461 -0.383059 25.644911 0.779777 1.585734 0.018113 -0.001700 143930.000000 0 0 1
17.030201 18.730261 -0.669659 25.323880 0.832903 1.597243 -0.001469 -0.005999 301497.000000 0 0 1
16.995201 20.210761 -0.316159 26.408553 0.871610 1.582768 0.006402 0.007708 -141982.000000 0 0 1
16.737301 20.556061 1.055741 26.529295 0.887440 1.530991 0.013248 0.011474 -60419.800000 0 0 1
16.816801 21.953761 1.337741 27.686856 0.917127 1.522461 0.011631 0.011390 -151155.000000 0 0 1
15.612501 22.835461 0.953741 27.678838 0.971097 1.536332 -0.001819 0.013839 -406226.000000 0 0 1
14.477501 22.720961 1.745941 26.997934 1.003481 1.506082 -0.005819 0.017920 -290173.000000 0 0 1
13.466301 23.617561 1.290541 27.217567 1.052591 1.523363 -0.011209 0.014598 188664.000000 0 0 1
12.159001 23.661261 2.094441 26.684888 1.096108 1.492228 -0.011786 0.018529 -58084.700000 0 0 1
12.236001 24.119561 3.441041 27.263780 1.101321 1.444246 -0.007162 0.019731 -303273.000000 0 0 1
10.985901 23.929161 4.051841 26.640424 1.140400 1.418110 -0.012507 0.020200 -32498.700000 0 0 1
11.116601 24.191161 5.520541 27.189474 1.140044 1.366335 -0.011899 0.015323 -373057.000000 0 0 1
11.825401 23.153361 6.166641 26.719762 1.098592 1.337907 -0.012269 0.004776 -137095.000000 0 0 1
11.153001 22.572561 7.260841 26.203621 1.111883 1.290029 -0.010434 0.006023 -723797.000000 0 0 1
11.929501 21.414961 8.004841 25.787420 1.062546 1.255165 0.005442 0.001380 231420.000000 0 0 1
13.036301 21.829161 8.789441 26.901890 1.032441 1.237963 0.020420 0.007125 -271304.000000 0 0 1
14.175901 21.873461 7.955041 27.252287 0.995767 1.274580 0.013561 0.008953 -550483.000000 0 0 1
15.486801 21.855761 8.805441 28.196651 0.954328 1.253197 0.029433 0.006048 -95291.000000 0 0 1
15.748001 20.555061 9.274141 27.504905 0.917047 1.226875 0.036808 0.000185 1069450.000000 0 0 1
16.936301 20.306061 10.075341 28.296412 0.875634 1.206744 0.033312 0.001056 861193.000000 0 0 1
17.070101 21.153161 11.384241 29.469400 0.891816 1.174172 0.015773 -0.000979 -149373.000000 0 0 1
16.046101 20.836261 12.323241 29.042889 0.914552 1.132595 0.018117 -0.003398 202399.000000 0 0 1
16.141301 21.574361 13.529241 30.150208 0.928467 1.105455 0.008972 0.020324 26064.000000 0 0 1
17.315001 21.175861 14.461641 30.941322 0.885370 1.084461 0.020160 0.011743 1254710.000000 0 0 1
18.637101 21.579661 14.060741 31.791945 0.858436 1.112664 0.023266 0.009357 563135.000000 0 0 1
19.627701 21.267461 15.029841 32.610546 0.825473 1.091800 0.009632 0.010709 -21144.500000 0 0 1
20.980401 21.787861 14.527441 33.554950 0.804276 1.123039 0.002558 0.012304 -369757.000000 0 0 1
21.490901 21.105961 13.401141 32.968334 0.776362 1.152192 -0.002219 0.010966 -490651.000000 0 0 1
22.733301 21.656361 13.071741 34.009872 0.761142 1.176291 -0.005068 0.014572 -521085.000000 0 0 1
23.393101 21.074161 11.845341 33.640297 0.733296 1.210964 -0.008703 0.017530 -366710.000000 0 0 1
23.129001 21.706061 10.611941 33.447228 0.753672 1.247943 0.000870 0.014533 -316998.000000 0 0 1
24.123701 21.479461 9.681541 33.720208 0.727479 1.279584 0.012952 0.003231 -774333.000000 0 0 1
23.831301 22.136061 8.332341 33.576242 0.748536 1.320014 0.009425 -0.000600 -147408.000000 0 0 1
23.947701 23.538961 8.415641 34.617887 0.776791 1.325235 0.018198 0.001618 -393178.000000 0 0 1
25.268701 23.959461 8.305241 35.798604 0.758809 1.336664 -0.000049 0.001898 -1025900.000000 0 0 1
25.580471 25.291461 9.081041 37.100995 0.779717 1.323519 0.018284 0.005251 -480780.000000 0 0 1
26.878621 25.703261 8.724541 38.199941 0.763049 1.340371 0.005002 0.003015 155136.000000 0 0 1
27.263191 26.879461 9.435641 39.431185 0.778311 1.329158 0.008236 0.000317 647151.000000 0 0 1
28.608421 27.495061 8.886541 40.661908 0.765556 1.350471 -0.004575 0.002891 610102.000000 0 0 1
28.415851 28.291961 7.737241 40.838224 0.783213 1.380183 0.009133 0.003935 136804.000000 0 0 1
29.627741 28.616061 7.072541 41.793574 0.768030 1.400752 0.009977 0.011677 -104272.000000 0 0 1
29.545501 29.734761 5.965641 42.340070 0.788591 1.429428 0.029180 0.007402 -185056.000000 0 0 1
29.753341 31.056961 6.430941 43.487391 0.806832 1.422371 0.015395 0.003444 170297.000000 0 0 1
29.648701 32.012361 5.370941 43.962299 0.823713 1.448319 0.021425 -0.006485 30708.300000 0 0 1
29.738121 33.463361 5.807141 45.142832 0.844272 1.441800 -0.012801 0.002123 163257.000000 0 0 1
28.536461 33.897461 6.419541 44.772514 0.871055 1.426919 -0.024559 -0.003866 161090.000000 0 0 1
28.430621 -34.064105 6.516841 44.845654 -0.875299 1.424963 -0.028564 -0.001367 -86990.200000 0 0 1
27.030701 -33.768405 7.081041 43.830413 -0.895767 1.408530 -0.004735 -0.005639 257813.000000 0 0 1
26.008031 -33.840405 6.101541 43.114029 -0.915529 1.428799 -0.001440 -0.012436 -50036.000000 0 0 1
24.757101 -33.359805 6.561041 42.057555 -0.932355 1.414155 0.003876 -0.015810 347521.000000 0 0 1
23.640501 -33.648205 5.534441 41.493433 -0.958342 1.437017 0.028958 -0.012300 -129147.000000 0 0 1
23.931501 -32.896005 4.381041 40.915247 -0.941858 1.463515 -0.004337 0.007038 -147662.000000 0 0 1
23.026001 -33.151405 3.341241 40.501559 -0.963723 1.488206 0.010731 0.000737 -405337.000000 0 0 1
23.489001 -32.560105 1.948941 40.195671 -0.945849 1.522291 0.005278 0.011438 -415949.000000 0 0 1
23.332201 -31.139705 1.904341 38.957661 -0.927759 1.521895 0.003999 0.015375 -71614.600000 0 0 1
24.227501 -30.607205 0.968641 39.047549 -0.901222 1.545987 -0.000620 0.007180 -371135.000000 0 0 1
24.524101 -29.088305 1.213841 38.066185 -0.870327 1.538903 -0.017944 0.017580 203501.000000 0 0 1
23.500601 -28.121005 0.947541 36.660156 -0.874666 1.544947 -0.017076 0.015631 169142.000000 0 0 1
23.140101 -27.960905 -0.418459 36.296716 -0.879459 1.582325 -0.006612 0.010660 139414.000000 0 0 1
22.174801 -26.738305 -0.699959 34.744045 -0.878427 1.590944 -0.009200 0.010399 69370.100000 0 0 1
22.605201 -25.427305 -0.299059 34.023997 -0.844085 1.579586 -0.021110 0.006285 -299336.000000 0 0 1
22.645201 -25.085805 1.091641 33.812637 -0.836486 1.538506 -0.032777 0.020197 -605385.000000 0 0 1
21.335501 -24.865405 1.828041 32.815144 -0.861653 1.515060 -0.027125 0.020808 -575696.000000 0 0 1
21.513201 -24.208205 3.062241 32.530483 -0.844274 1.476522 -0.049005 0.030777 -1002230.000000 0 0 1
20.316801 -24.092705 3.745241 31.737323 -0.870219 1.452513 -0.020270 0.030563 -1223760.000000 0 0 1
20.262901 -23.407905 5.108441 31.378517 -0.857290 1.407268 -0.029333 0.036245 -176001.000000 0 0 1
20.411501 -22.004705 5.126941 30.448677 -0.822942 1.401611 -0.016885 0.046412 629479.000000 0 0 1
19.225701 -21.267705 4.765541 29.062919 -0.835784 1.406079 -0.026433 0.031936 -46914.800000 0 0 1
19.294501 -19.769505 5.000041 28.073324 -0.797557 1.391734 -0.028261 0.034585 -317465.000000 0 0 1
19.158701 -19.312605 6.321341 27.928335 -0.789399 1.342476 -0.018218 0.034424 234829.000000 0 0 1
17.803801 -19.170105 6.733541 27.014974 -0.822335 1.318888 -0.015807 0.030584 535323.000000 0 0 1
18.247181 -26.620959 -12.620459 34.654164 -0.969906 1.943552 0.042229 -0.018512 46628.200000 0 0 1
18.417181 -25.294029 -12.985559 33.876322 -0.941444 1.964187 0.037714 -0.013186 -589066.000000 0 0 1
17.150181 -24.830239 -13.332659 32.991351 -0.966341 1.986819 0.028903 -0.011695 -452077.000000 0 0 1
17.082381 -23.329339 -13.742459 32.014387 -0.938767 2.014468 0.021868 -0.010627 -190875.000000 0 0 1
17.271281 -22.259639 -12.821459 30.954458 -0.910923 1.997864 0.021815 -0.003511 829695.000000 0 0 1
18.539781 -22.187139 -12.104759 31.345140 -0.874716 1.967279 0.019110 -0.006597 737429.000000 0 0 1
18.694881 -23.037339 -10.840059 31.586776 -0.889080 1.921100 0.021942 -0.014667 40122.100000 0 0 1
18.059581 -22.703539 -9.579059 30.550900 -0.898835 1.889720 0.017187 -0.009372 1691790.000000 0 0 1
16.613581 -22.927639 -9.604759 29.898814 -0.943744 1.897837 0.011248 0.004754 1574670.000000 0 0 1
15.789381 -22.187339 -8.538559 28.539263 -0.952301 1.874636 0.001902 0.008790 -572234.000000 0 0 1
15.805781 -20.747639 -8.778559 27.519999 -0.919779 1.895458 0.002505 0.000484 836210.000000 0 0 1
14.952081 -19.982739 -7.860259 26.165975 -0.928416 1.875908 -0.000976 -0.003485 2136420.000000 0 0 1
13.366981 -20.094739 -7.996459 25.424753 -0.983811 1.890742 0.006698 0.009042 1366420.000000 0 0 1
12.911581 -21.376939 -7.636859 26.115207 -1.027444 1.867563 -0.004772 0.011913 554095.000000 0 0 1
11.478981 -21.435939 -7.809859 25.539389 -1.079152 1.881571 0.002819 0.005008 1065460.000000 0 0 1
10.996781 -22.934439 -7.714459 26.578761 -1.123693 1.865283 0.006589 0.015547 4574.720000 0 0 1
11.206981 -23.380739 -6.396859 26.705340 -1.123825 1.812683 0.011785 0.016261 212484.000000 0 0 1
10.625881 -24.628739 -6.068759 27.501163 -1.163482 1.793301 0.001225 0.022589 40883.600000 0 0 1
10.746781 -24.793739 -4.538559 27.401119 -1.161792 1.737197 0.025059 0.011583 -221506.000000 0 0 1
9.936081 -25.794229 -4.016459 27.932059 -1.203108 1.715090 0.040714 0.000426 -521622.000000 0 0 1
10.394781 -26.230339 -2.792959 28.352827 -1.193494 1.669464 0.032708 0.001756 206822.000000 0 0 1
9.368281 -27.094789 -1.972359 28.736431 -1.237904 1.639487 0.039904 0.006265 390662.000000 0 0 1
8.515681 -26.240979 -1.249359 27.616421 -1.257000 1.616051 0.034311 0.008593 -819362.000000 0 0 1
7.697781 -26.988769 -0.432859 28.068432 -1.292952 1.586218 0.040888 -0.002621 -384572.000000 0 0 1
6.979981 -26.149769 0.646841 27.073030 -1.309954 1.546902 0.031674 -0.000828 738183.000000 0 0 1
5.772181 -25.543329 0.123541 26.187688 -1.348553 1.566079 0.040195 -0.008878 192807.000000 0 0 1
5.058181 -25.098419 1.238541 25.632983 -1.371926 1.522459 0.036415 -0.014261 -1354360.000000 0 0 1
3.601281 -24.972039 0.916041 25.247002 -1.427571 1.534505 0.013906 -0.009585 -581564.000000 0 0 1
2.794481 -26.187719 0.869741 26.350753 -1.464489 1.537784 0.007213 -0.003552 622946.000000 0 0 1
1.431181 -25.850729 0.723641 25.900427 -1.515490 1.542853 -0.003122 0.002116 836402.000000 0 0 1
0.373581 -26.880219 0.177041 26.883398 -1.556899 1.564211 0.001656 0.000247 754943.000000 0 0 1
0.079781 -27.953359 1.058241 27.973497 -1.567942 1.532957 0.000295 0.002001 -295180.000000 0 0 1
0.847381 -29.081499 0.785441 29.104442 -1.541666 1.543806 -0.006405 0.001708 -383153.000000 0 0 1
0.450881 -30.234849 1.689741 30.285386 -1.555885 1.514973 -0.008234 0.004687 79855.800000 0 0 1
0.876681 -30.097199 3.047641 30.263808 -1.541676 1.469923 -0.026976 0.004503 57072.600000 0 0 1
0.135181 -30.920359 3.887241 31.164042 -1.566424 1.445736 -0.021578 0.004734 -401419.000000 0 0 1
0.428781 -30.638159 5.364241 31.107165 -1.556802 1.397486 -0.028432 -0.001306 225706.000000 0 0 1
1.717081 -31.068819 5.796141 31.651463 -1.515585 1.386633 -0.029704 0.010137 289359.000000 0 0 1
1.838881 -30.888649 7.198341 31.769580 -1.511334 1.342232 -0.019549 0.011429 -216755.000000 0 0 1
3.203081 -31.461229 7.570741 32.517453 -1.469335 1.335819 -0.014730 0.013978 -200584.000000 0 0 1
3.301381 -32.871889 7.497641 33.877350 -1.470700 1.347631 -0.018379 0.011449 290926.000000 0 0 1
4.663481 -33.287829 7.573541 34.455568 -1.431607 1.349181 -0.013108 0.010457 563777.000000 0 0 1
4.646381 34.578013 7.181441 35.620232 1.437223 1.367794 -0.030207 0.015275 -188118.000000 0 0 1
4.553081 34.154488 5.881541 34.955001 1.438269 1.401732 -0.027085 0.010170 51137.100000 0 0 1
4.386081 32.768677 5.734541 33.554565 1.437737 1.399051 -0.026145 0.011622 -831657.000000 0 0 1
4.585881 32.318677 4.308641 32.925546 1.429842 1.439560 -0.023042 0.013973 1261690.000000 0 0 1
5.930981 32.101497 3.777641 32.862642 1.388099 1.455589 -0.011214 0.019085 809743.000000 0 0 1
6.599981 31.087027 4.360341 32.077649 1.361596 1.434443 -0.023152 0.011458 -930330.000000 0 0 1
8.056281 31.014767 3.849941 32.274471 1.316657 1.451224 -0.019346 0.009963 -639473.000000 0 0 1
8.936781 31.659527 4.663441 33.225583 1.295677 1.429974 -0.018737 0.001498 -118248.000000 0 0 1
10.235181 31.865847 4.088141 33.718008 1.260009 1.449252 -0.015496 -0.000672 767420.000000 0 0 1
11.340781 32.258737 5.083641 34.569970 1.232735 1.423207 -0.012801 -0.005326 -290058.000000 0 0 1
11.761981 31.189127 5.859641 33.844368 1.210170 1.396785 -0.004122 -0.010937 -327160.000000 0 0 1
12.868881 31.637647 6.604741 34.787518 1.184477 1.379777 0.020435 -0.010241 -389030.000000 0 0 1
13.593781 30.543057 7.411241 34.243185 1.152050 1.352640 0.017898 -0.014999 -468618.000000 0 0 1
13.041181 30.251607 8.652041 34.060093 1.163778 1.313959 0.005598 -0.012255 236014.000000 0 0 1
13.899681 29.376357 9.414441 33.834940 1.128851 1.288829 0.001902 -0.019388 318654.000000 0 0 1
13.860481 29.478567 10.919341 34.355944 1.131281 1.247357 -0.004595 -0.012199 19359.400000 0 0 1
14.411981 30.699587 11.427141 35.787559 1.131884 1.245800 0.010809 -0.025024 211700.000000 0 0 1
13.856581 30.951197 12.706141 36.213636 1.149864 1.212300 0.002129 -0.016411 -372610.000000 0 0 1
14.696581 31.895687 13.535341 37.636815 1.139022 1.202925 0.008330 -0.015723 -1042120.000000 0 0 1
15.696381 31.282207 14.232441 37.782473 1.105736 1.184571 0.007795 -0.015018 -1267310.000000 0 0 1
16.446881 32.265957 14.824541 39.132581 1.099396 1.182266 0.017640 -0.009433 -166980.000000 0 0 1
17.671281 31.739727 15.651741 39.555802 1.062781 1.163980 0.014272 -0.004307 821343.000000 0 0 1
18.743681 31.213567 14.855441 39.322977 1.030011 1.183399 0.021310 -0.005842 410159.000000 0 0 1
18.780981 29.806967 14.749041 38.193124 1.008547 1.174320 0.012486 0.004107 -247176.000000 0 0 1
20.174181 29.301007 14.352141 38.360534 0.967820 1.187329 0.020580 -0.000920 88596.200000 0 0 1
21.187981 29.337127 15.326441 39.300094 0.945310 1.170181 0.007318 0.001825 480485.000000 0 0 1
22.511381 29.284387 14.786441 39.786637 0.915424 1.190018 0.015238 -0.002306 896990.000000 0 0 1
23.608181 29.293907 15.887641 40.839887 0.892464 1.171226 0.018557 -0.005920 10260.900000 0 0 1
23.515281 28.167787 16.744041 40.333058 0.875176 1.142695 -0.000244 -0.000573 -1063460.000000 0 0 1
24.663281 28.270057 17.474141 41.386220 0.853431 1.134902 0.011782 -0.004568 -1398470.000000 0 0 1
25.460481 27.000857 17.825341 41.170683 0.814752 1.123020 -0.010870 0.006455 -437311.000000 0 0 1
24.878081 25.881317 18.473741 40.373761 0.805160 1.095538 -0.003545 0.003168 -219668.000000 0 0 1
24.747781 26.094827 19.868041 41.086880 0.811886 1.066077 0.023081 0.008635 -195452.000000 0 0 1
24.317781 24.812317 20.654641 40.418062 0.795464 1.034419 0.035002 0.005898 390314.000000 0 0 1
25.329181 23.812427 20.553541 40.386225 0.754543 1.036861 0.000699 0.006015 116954.000000 0 0 1
24.730881 22.570627 20.856241 39.446578 0.739760 1.013703 0.010065 0.000416 -287848.000000 0 0 1
25.743681 21.490527 20.740641 39.430370 0.695596 1.016898 -0.002011 0.006266 -763086.000000 0 0 1
25.102981 20.241427 20.969241 38.465362 0.678592 0.994233 -0.006306 0.016743 187819.000000 0 0 1
25.827681 18.987627 20.838541 38.234067 0.633939 0.994377 -0.012514 0.010069 -313158.000000 0 0 1
26.480681 18.559827 22.138041 39.189112 0.611318 0.970481 0.000143 0.017205 -144896.000000 0 0 1
25.540781 18.248827 23.162641 39.011013 0.620390 0.935090 -0.002869 0.019876 243841.000000 0 0 1
26.190681 18.031327 24.405941 40.084043 0.602941 0.916162 0.002830 0.023810 143570.000000 0 0 1
25.319781 17.272127 25.465241 39.848415 0.598652 0.877530 -0.011308 0.018997 278528.000000 0 0 1
25.007581 15.932327 25.055641 38.820141 0.567253 0.869212 -0.005531 0.015173 351984.000000 0 0 1
23.949081 15.272127 25.730041 38.325336 0.567674 0.834756 -0.003522 0.018259 138013.000000 0 0 1
23.379181 14.085527 24.859941 36.918896 0.542242 0.832044 -0.009496 0.026146 -72209.200000 0 0 1
22.227381 13.512827 25.446341 36.389136 0.546234 0.796401 -0.003811 0.018932 221685.000000 0 0 1
21.608181 12.550727 24.645341 35.097394 0.526206 0.792316 -0.006080 0.024499 -610043.000000 0 0 1
20.432381 11.815427 25.250641 34.564164 0.524288 0.751678 -0.004946 0.020527 -230118.000000 0 0 1
19.282381 12.633527 25.324541 34.245418 0.580012 0.738467 0.000482 0.013043 244031.000000 0 0 1
18.080881 11.912527 25.082741 33.135638 0.582569 0.712130 -0.001681 0.018711 710751.000000 0 0 1
16.747981 12.667927 25.325741 32.899307 0.647575 0.692275 0.002155 0.009371 168810.000000 0 0 1
16.538181 13.005327 26.683341 33.980151 0.666382 0.667676 0.009078 0.012436 167897.000000 0 0 1
15.253381 13.544327 26.917441 33.773704 0.726121 0.648494 0.026067 0.012602 50421.000000 0 0 1
14.961281 13.866327 28.403741 34.969808 0.747434 0.622821 0.020902 0.017639 -310719.000000 0 0 1
14.789381 12.716427 29.244141 35.151858 0.710176 0.588206 0.012656 0.019870 -13190.300000 0 0 1
14.904681 13.083427 30.605141 36.469169 0.720417 0.574975 0.002634 0.015676 41593.800000 0 0 1
16.364081 13.143827 31.123841 37.539803 0.676696 0.593320 0.007912 0.021455 -332060.000000 0 0 1
17.108181 14.162327 30.576441 37.791271 0.691470 0.628199 0.028274 0.008872 -483685.000000 0 0 1
18.488281 13.921727 30.564841 38.338500 0.645420 0.648093 0.026705 0.018162 -354429.000000 0 0 1
19.326581 15.165527 30.108441 38.859081 0.665340 0.684380 0.031458 0.008512 -172348.000000 0 0 1
19.021081 15.743027 28.833941 37.961041 0.691382 0.708150 0.032818 0.001971 319141.000000 0 0 1
19.330881 14.945927 27.679841 36.922044 0.658162 0.723213 0.029506 0.005162 -246624.000000 0 0 1
19.107781 15.687327 26.304741 36.099016 0.687410 0.754399 0.007434 0.011790 -405344.000000 0 0 1
20.145181 16.596527 26.068741 36.889732 0.689113 0.786020 0.010545 0.014383 50839.900000 0 0 1
20.090581 17.063127 24.686541 36.113807 0.704093 0.818145 0.006603 0.005815 -519291.000000 0 0 1
21.407781 17.683827 24.247741 36.864126 0.690423 0.852956 0.010761 0.009505 -608523.000000 0 0 1
21.227481 18.235727 22.955041 36.195050 0.709732 0.883818 0.006628 0.003125 559134.000000 0 0 1
22.364181 18.984727 22.484641 36.961271 0.703849 0.916842 0.010582 0.006915 368856.000000 0 0 1
22.580781 20.427827 23.097441 38.218838 0.735381 0.921850 0.028251 0.001185 46410.300000 0 0 1
21.529481 21.334427 22.780641 37.916144 0.780848 0.926274 0.024373 -0.000235 309241.000000 0 0 1
21.613681 22.572327 23.543741 39.127598 0.807090 0.925147 0.027028 0.000817 282844.000000 0 0 1
20.606681 23.640427 22.982041 38.880320 0.853855 0.938378 0.012998 0.001208 390657.000000 0 0 1
21.123781 24.477407 21.956541 39.082570 0.858809 0.974238 0.019047 0.003294 556297.000000 0 0 1
20.231581 25.598077 21.708041 39.189507 0.901964 0.983725 0.024779 0.003944 291074.000000 0 0 1
20.671781 26.473277 20.564341 39.383360 0.907839 1.021417 0.018019 0.003330 -228320.000000 0 0 1
20.580081 25.892047 19.278641 38.283206 0.899209 1.043059 0.010113 0.006632 -69725.200000 0 0 1
21.063681 26.696967 18.296541 38.615672 0.902804 1.077183 0.016593 0.006375 -514729.000000 0 0 1
21.216581 26.108397 16.905941 37.651063 0.888399 1.105132 0.018836 0.012973 482989.000000 0 0 1
19.964981 25.848067 16.232641 36.472204 0.913114 1.109545 0.020758 0.012355 853694.000000 0 0 1
20.221281 25.811187 14.820741 35.982940 0.906240 1.146277 0.022063 0.009203 -186525.000000 0 0 1
18.925581 25.551827 14.009841 34.746930 0.933290 1.155789 0.019318 0.017486 374629.000000 0 0 1
17.890381 26.490507 13.895541 34.855398 0.976806 1.160738 0.012755 0.022435 -180671.000000 0 0 1
17.051781 26.457367 15.038041 34.884068 0.998297 1.125100 0.008741 0.025246 -1101210.000000 0 0 1
15.622181 26.968617 14.738141 34.475668 1.045757 1.129077 -0.000177 0.026868 129051.000000 0 0 1
14.689981 25.996477 14.213641 33.070228 1.056452 1.126523 0.006642 0.027190 756114.000000 0 0 1
14.268081 24.951387 15.147541 32.489966 1.051344 1.085781 0.019474 0.021364 -283957.000000 0 0 1
13.290681 25.385087 16.282341 32.956934 1.088477 1.054056 0.021843 0.017475 23724.200000 0 0 1
13.895481 26.205227 17.292341 34.333998 1.083238 1.042977 0.017866 0.022980 437320.000000 0 0 1
12.869081 26.764607 18.100441 34.779066 1.122606 1.023429 0.017159 0.027856 319771.000000 0 0 1
13.272881 28.072397 18.879241 36.340812 1.129137 1.024525 0.020341 0.017144 -159863.000000 0 0 1
13.243281 29.199407 18.011041 36.774821 1.144997 1.058975 0.020020 0.004928 -55053.100000 0 0 1
13.915781 30.250187 18.645941 38.162729 1.139639 1.060323 0.019437 -0.001262 -301783.000000 0 0 1
13.868781 31.493967 17.710341 38.702316 1.155985 1.095497 0.012204 -0.011695 337189.000000 0 0 1
12.622381 32.189907 17.645641 38.818594 1.197099 1.098911 0.021469 -0.008275 278618.000000 0 0 1
12.619181 33.279257 16.766741 39.343059 1.208357 1.130544 0.021886 -0.013808 -439182.000000 0 0 1
11.300181 34.068511 16.781041 39.622732 1.250526 1.133468 0.017100 -0.014731 -339706.000000 0 0 1
11.243981 -33.966289 16.240141 39.292214 -1.251117 1.144703 0.014559 -0.016038 -28285.500000 0 0 1
12.042781 -32.872119 16.743341 38.806498 -1.219629 1.124689 0.027739 -0.019802 61305.500000 0 0 1
11.745381 -32.562089 18.197841 39.107609 -1.224615 1.086792 0.030916 -0.018294 52517.700000 0 0 1
12.458081 -33.352809 19.155141 40.429359 -1.213320 1.077204 0.045802 -0.021343 365686.000000 0 0 1
11.966581 -33.097549 20.461941 40.710415 -1.223865 1.044168 0.044197 -0.024795 -457423.000000 0 0 1
12.867481 -33.660099 21.544941 41.985222 -1.205661 1.031939 0.057460 -0.016710 112177.000000 0 0 1
14.091681 -32.926029 21.559341 41.803158 -1.166404 1.028931 0.055473 -0.021157 222250.000000 0 0 1
15.040181 -33.532529 22.420541 43.050183 -1.149170 1.023008 0.053334 -0.017332 1231500.000000 0 0 1
16.538181 -33.060259 22.230641 43.135757 -1.106954 1.029363 0.073259 -0.017147 1152940.000000 0 0 1
16.778081 -31.817589 22.769841 42.571453 -1.085532 1.006452 0.080301 -0.021337 983051.000000 0 0 1
18.076981 -31.385089 22.288341 42.527300 -1.048231 1.019144 0.082304 -0.017794 685051.000000 0 0 1
-4.787919 12.954361 18.801359 23.328753 -1.216769 0.633550 0.014595 0.013579 -566053.000000 0 1 0
-4.453319 14.213361 18.238359 23.547599 -1.267165 0.684822 0.012644 0.010281 567195.000000 0 1 0
-5.625919 14.972161 17.921559 24.020800 -1.211361 0.728633 0.009648 0.010519 314332.000000 0 1 0
-5.302919 16.460561 17.716359 24.757633 -1.259136 0.773325 0.008767 0.012003 -107630.000000 0 1 0
-5.065019 17.147161 18.894859 26.013367 -1.283579 0.757797 0.017267 0.012970 84271.200000 0 0 1
-4.623119 18.451961 18.525859 26.552882 -1.325301 0.798619 0.004826 0.019608 -467097.000000 0 0 1
-4.125319 19.337361 19.693359 27.906633 -1.360613 0.787403 0.003385 0.013422 505847.000000 0 0 1
-5.100719 19.471661 20.767659 28.921594 -1.314597 0.769775 0.007218 0.017750 331315.000000 0 0 1
-4.657319 20.360661 21.739959 30.147520 -1.345924 0.765380 0.015184 0.017954 -342482.000000 0 0 1
-5.599519 20.548761 22.919859 31.287795 -1.304757 0.748737 -0.000323 0.016980 -272116.000000 0 0 1
-5.731919 19.398861 23.677359 31.141420 -1.283494 0.706995 -0.007251 0.007153 -205617.000000 0 0 1
-6.343619 19.539861 24.958629 32.326163 -1.256881 0.688677 -0.015932 0.013484 32797.800000 0 0 1
-5.539519 20.244961 26.069759 33.469046 -1.303709 0.677852 -0.028463 0.009399 -787470.000000 0 0 1
-5.259219 21.545661 25.743389 33.979361 -1.331382 0.711140 -0.025656 0.015258 267765.000000 0 0 1
-4.128719 22.141361 26.378449 34.685858 -1.386443 0.706720 -0.022498 0.022740 1571120.000000 0 0 1
-2.689919 21.618061 25.977989 33.903276 -1.447003 0.697830 -0.008094 0.021309 566049.000000 0 0 1
-2.246419 20.373661 26.536879 33.531156 -1.460979 0.657685 0.006782 0.021112 735810.000000 0 0 1
-0.868719 20.083861 26.233539 33.050185 -1.527569 0.653849 0.021166 0.020684 985033.000000 0 0 1
-0.289719 18.829461 26.874359 32.815602 -1.555411 0.611216 0.020454 0.027173 -159501.000000 0 0 1
-0.821219 17.621161 26.352109 31.711408 -1.524226 0.589897 0.024089 0.017930 175400.000000 0 0 1
-0.118719 16.420161 26.801579 31.431838 -1.563566 0.549685 0.017701 0.020279 -19889.900000 0 0 1
1.256281 16.132661 26.207579 30.800620 1.493081 0.553142 0.006792 0.020592 -445720.000000 0 0 1
1.223881 15.891761 24.813399 29.491536 1.493934 0.570977 0.018187 0.009332 -353632.000000 0 0 1
0.806981 14.592661 24.430059 28.467960 1.515552 0.539122 0.021230 0.008329 -263578.000000 0 0 1
1.035281 14.214161 22.967959 27.030378 1.498090 0.555363 0.032177 -0.004380 -35047.400000 0 0 1
2.396381 14.185061 22.592359 26.783825 1.403440 0.567016 0.024027 -0.004806 -140317.000000 0 0 1
2.482781 13.535861 21.392159 25.436356 1.389390 0.571654 0.017591 -0.011015 -814697.000000 0 0 1
3.904681 13.565461 20.905259 25.224950 1.290533 0.593920 0.009596 -0.008906 -677522.000000 0 0 1
4.412481 14.753061 20.328659 25.502494 1.280175 0.648279 0.016373 -0.011056 419467.000000 0 0 1
5.813381 14.692561 20.038259 25.518593 1.194030 0.667710 0.013756 -0.014111 657959.000000 0 0 1
6.180281 15.899661 19.056859 25.576532 1.200065 0.730124 0.012451 -0.015075 -53506.600000 0 0 1
5.945781 15.594561 17.722059 24.343665 1.206538 0.755404 0.017313 -0.024901 31589.700000 0 1 0
6.377081 16.627361 16.880159 24.537238 1.204569 0.812149 0.011626 -0.009800 -95184.400000 0 1 0
6.300581 16.220861 15.339459 23.197255 1.200308 0.848297 0.010298 -0.009745 402392.000000 0 1 0
7.400981 15.411661 14.905559 22.681920 1.123098 0.853757 0.008469 -0.008516 508448.000000 0 1 0
7.590581 14.122461 15.565759 22.346223 1.077614 0.800187 0.017792 -0.014984 -94337.300000 0 1 0
8.624581 13.158161 14.892559 21.663539 0.990596 0.812827 0.009832 -0.020697 1032100.000000 0 1 0
9.988881 13.587161 14.985459 22.559979 0.936854 0.844307 0.007865 -0.024093 326534.000000 0 1 0
10.852081 12.819961 14.221059 22.008125 0.868338 0.868237 0.005209 -0.014184 -266204.000000 0 1 0
12.299881 13.346661 14.289759 23.100166 0.826191 0.903837 0.024076 -0.009035 -32523.400000 0 1 0
13.115681 12.910561 15.419659 24.009781 0.777517 0.873400 0.028188 -0.015741 1595160.000000 0 1 0
14.431981 13.492961 15.467559 25.091581 0.751784 0.906578 0.027822 -0.014185 1698260.000000 0 0 1
15.497281 13.108961 14.346759 24.856389 0.702102 0.955518 0.031341 -0.015660 285059.000000 0 1 0
16.762881 13.731161 14.526859 26.087710 0.686304 0.980212 0.025746 -0.016914 653993.000000 0 0 1
17.671681 13.361661 13.498159 25.942679 0.647397 1.023586 0.028882 -0.016597 -442571.000000 0 0 1
19.112281 13.821561 13.692759 27.272816 0.626112 1.044810 0.015636 -0.015566 -325978.000000 0 0 1
19.712881 13.451861 14.938059 28.154855 0.598809 1.011526 -0.006683 -0.005907 708141.000000 0 0 1
21.058581 13.951861 14.847759 29.301437 0.585131 1.039415 -0.011776 -0.014556 -22780.000000 0 0 1
21.807281 13.848161 16.131259 30.455650 0.565776 1.012592 -0.023275 -0.001877 -543865.000000 0 0 1
21.957781 12.473161 16.551959 30.194225 0.516597 0.990606 -0.009993 0.000730 190183.000000 0 0 1
22.952881 12.402961 17.538559 31.436750 0.495417 0.978943 -0.028445 0.003792 -443359.000000 0 0 1
23.445281 10.940161 17.663759 31.326933 0.436593 0.971754 -0.011337 0.012752 -401307.000000 0 0 1
22.504981 10.093761 18.299459 30.712024 0.421616 0.932485 -0.030731 0.016341 452210.000000 0 0 1
22.517081 8.785161 17.770859 30.000024 0.371991 0.936810 -0.021682 0.022519 -627264.000000 0 0 1
21.375881 7.957761 18.313759 29.251462 0.356382 0.894280 0.005971 0.018128 -604967.000000 0 0 1
21.534281 6.547961 18.078959 28.869531 0.295188 0.894088 0.011061 0.014685 560691.000000 0 0 1
20.346881 5.926361 18.531759 28.152148 0.283425 0.852276 0.005681 0.017887 -32457.500000 0 0 1
20.232681 4.482961 18.051159 27.482770 0.218048 0.854206 0.058231 0.013125 -453417.000000 0 0 1
19.701481 4.364061 16.722259 26.207391 0.217989 0.878802 0.062391 -0.006636 507237.000000 0 0 1
19.869281 3.067061 16.190459 25.813294 0.153153 0.892825 0.046560 -0.008372 203965.000000 0 0 1
18.720781 2.054161 16.542759 25.066912 0.109289 0.850052 0.060310 -0.004298 529271.000000 0 0 1
18.931281 1.543061 17.845259 26.061997 0.081329 0.816572 0.042909 -0.004360 188339.000000 0 0 1
17.662881 1.101361 18.316859 25.469544 0.062274 0.768193 0.052393 -0.005052 87527.300000 0 0 1
17.571681 0.140461 19.520359 26.264579 0.007993 0.732926 0.028574 0.000220 -373986.000000 0 0 1
17.829481 -1.208039 19.138059 26.184252 -0.067652 0.751157 0.032640 0.001194 -231156.000000 0 0 1
17.075181 -2.211339 19.805559 26.243323 -0.128789 0.715616 0.025718 0.008626 14825.500000 0 0 1
17.324781 -3.629339 19.274159 26.168939 -0.206502 0.742873 0.003716 0.009430 32919.700000 0 0 1
16.747481 -3.693739 17.972759 24.842341 -0.217080 0.761977 -0.009081 0.004004 389583.000000 0 1 0
16.793981 -5.003839 17.444159 24.725996 -0.289579 0.787670 0.007147 0.001561 -245921.000000 0 1 0
16.548581 -5.041739 15.924559 23.513108 -0.295729 0.826760 0.000651 -0.005765 -295246.000000 0 1 0
15.280481 -4.589239 15.500559 22.244585 -0.291763 0.799837 -0.006668 -0.008926 115556.000000 0 1 0
15.126481 -4.669739 14.119759 21.212838 -0.299431 0.842468 -0.000499 -0.009975 288119.000000 0 1 0
15.753681 -3.471439 13.336759 20.930803 -0.216891 0.879958 0.005965 -0.007995 -93220.200000 0 1 0
14.956181 -2.341139 13.529959 20.303401 -0.155273 0.841441 0.007832 -0.007996 403708.000000 0 1 0
15.593981 -1.184339 12.963759 20.313393 -0.075803 0.878654 0.012154 -0.008834 272367.000000 0 1 0
14.648481 0.060561 12.903759 19.521492 0.004134 0.848642 0.018125 -0.010717 -247486.000000 0 1 0
15.177181 1.322661 12.494859 19.703242 0.086928 0.883884 0.027040 -0.011979 -36953.400000 0 1 0
15.954181 1.980461 13.457259 20.965589 0.123503 0.873857 0.035671 -0.016646 -46067.100000 0 1 0
16.080681 3.488061 13.044559 20.997986 0.213601 0.900486 0.033088 -0.011525 570890.000000 0 1 0
14.924881 4.274261 13.391259 20.502371 0.278920 0.859051 0.028410 -0.007782 1030940.000000 0 1 0
14.948281 5.393161 12.570359 20.262064 0.346253 0.901558 0.032662 -0.012569 -401343.000000 0 1 0
13.971781 6.518061 12.866059 20.080619 0.436504 0.875360 0.028456 -0.008958 -579825.000000 0 1 0
14.272981 7.758361 12.187459 20.308725 0.497893 0.927158 0.019851 -0.015024 521267.000000 0 1 0
13.363081 8.827061 12.476459 20.301502 0.583760 0.908970 0.010649 -0.001329 -248966.000000 0 1 0
13.612981 9.593361 13.777459 21.613982 0.613888 0.879635 0.020788 -0.005365 -80082.000000 0 1 0
13.311481 8.795061 14.910659 21.837499 0.583869 0.819207 0.034034 -0.008226 430071.000000 0 1 0
13.862481 9.393661 16.033659 23.183776 0.595556 0.807109 0.051881 -0.012162 -271674.000000 0 1 0
13.234681 8.764861 17.308859 23.485659 0.584949 0.742180 0.045878 -0.018659 778298.000000 0 1 0
11.982181 9.391861 17.678659 23.330553 0.664796 0.710943 0.032758 -0.016223 841374.000000 0 1 0
11.378581 8.869561 18.861759 23.746730 0.662113 0.652960 0.032284 -0.001000 18180.200000 0 1 0
12.005681 9.317261 20.220259 25.294399 0.659979 0.644506 0.036424 0.001688 -1119100.000000 0 0 1
13.254581 8.772261 20.450359 25.900843 0.584646 0.660699 0.043688 -0.001415 -931517.000000 0 0 1
13.764881 9.157261 21.686159 27.269339 0.587030 0.651363 0.035046 0.014674 -631335.000000 0 0 1
15.240781 8.763461 21.747859 27.965140 0.521835 0.679833 0.031555 0.012987 -905854.000000 0 0 1
15.959281 9.506461 20.854459 27.928121 0.537229 0.727681 0.037829 0.012536 -367542.000000 0 0 1
16.904881 8.723361 20.131959 27.697794 0.476386 0.757082 0.035986 0.006636 261207.000000 0 0 1
17.760581 9.580661 19.123759 27.801897 0.494695 0.812262 0.031603 0.006562 194590.000000 0 0 1
18.591481 10.439261 19.891359 29.159690 0.511635 0.820094 0.011818 0.018102 179982.000000 0 0 1
19.291481 11.373761 19.074359 29.416914 0.532718 0.865296 -0.003610 0.013318 287102.000000 0 0 1
20.177681 12.334361 19.922359 30.922090 0.548678 0.870720 -0.014786 0.014694 205479.000000 0 0 1
19.364081 13.260861 20.688959 31.286596 0.600464 0.848283 -0.004863 0.008671 749555.000000 0 0 1
20.136681 13.969461 21.628259 32.686593 0.606507 0.847731 -0.012857 0.015580 -70378.500000 0 0 1
21.355481 14.876161 21.322359 33.645204 0.608438 0.884416 -0.022735 0.008850 44115.400000 0 0 1
22.551281 14.157561 21.179359 34.022964 0.560606 0.898861 -0.031082 0.011332 -841875.000000 0 0 1
23.675381 14.951961 21.239559 35.145465 0.563289 0.921868 -0.035172 0.009971 -848910.000000 0 0 1
24.986381 14.168361 21.226259 35.715764 0.515834 0.934388 -0.034188 0.006349 -462654.000000 0 0 1
25.318181 13.649061 19.957559 35.008732 0.494437 0.964201 -0.037773 -0.001602 506255.000000 0 0 1
26.529181 12.896661 20.046759 35.665023 0.452491 0.973892 -0.028744 -0.004696 283116.000000 0 0 1
26.853081 12.202561 18.758559 34.955314 0.426523 1.004341 -0.021644 -0.004687 -696537.000000 0 0 1
27.492581 12.899761 17.720159 35.160345 0.438713 1.042594 -0.021969 -0.009108 192605.000000 0 0 1
27.688381 12.225761 16.451759 34.449616 0.415803 1.072921 -0.021858 -0.014583 301389.000000 0 0 1
26.443881 11.819861 15.577459 32.888375 0.420339 1.077370 -0.019361 -0.023712 291768.000000 0 0 1
25.836281 12.858961 14.867759 32.464081 0.461813 1.095080 -0.011108 -0.021673 -455991.000000 0 0 1
24.761981 12.442561 14.104559 31.095203 0.465635 1.100004 -0.010702 -0.015725 -589857.000000 0 0 1
24.352281 13.326561 12.941259 30.628533 0.500722 1.134569 -0.020657 -0.015275 -278093.000000 0 0 1
23.739781 14.511261 13.370059 30.869279 0.548660 1.122846 -0.029345 -0.006828 87421.200000 0 0 1
23.613281 15.401661 12.324959 30.768536 0.577952 1.158657 -0.033012 -0.004766 -405150.000000 0 0 1
23.041781 16.768361 12.820059 31.248288 0.629100 1.148052 -0.025767 -0.001578 -870913.000000 0 0 1
21.768681 16.647461 13.371259 30.492688 0.652870 1.116859 -0.013279 -0.009597 -594855.000000 0 0 1
21.154281 17.880861 13.461159 30.796617 0.701736 1.118426 -0.005546 -0.008267 -1076480.000000 0 0 1
20.337181 18.475961 12.259659 30.087561 0.737482 1.151119 -0.007709 0.001783 -279523.000000 0 0 1
19.131181 17.921461 11.820659 28.756023 0.752761 1.147172 0.014583 0.000351 11682.500000 0 0 1
18.165681 17.709761 12.841159 28.434538 0.772690 1.102234 0.015265 -0.002864 -426635.000000 0 0 1
16.765081 17.303761 12.270759 27.038114 0.801208 1.099735 0.025808 0.000484 326264.000000 0 0 1
16.779581 16.024561 11.637459 25.957106 0.762386 1.105895 0.031486 -0.010316 -786213.000000 0 0 1
15.535281 15.720261 11.149059 24.754254 0.791316 1.103595 0.031024 -0.012362 -1024940.000000 0 1 0
15.481681 14.363461 10.425659 23.551769 0.747948 1.112222 0.029527 -0.017681 -490058.000000 0 1 0
15.596781 13.140961 11.174159 23.255242 0.700149 1.069571 0.028316 -0.014906 452142.000000 0 1 0
16.018481 12.140561 10.263759 22.568334 0.648544 1.098665 0.031562 -0.013580 -202412.000000 0 1 0
16.292281 10.742261 11.011859 22.407491 0.582918 1.057058 0.031356 -0.017219 -407570.000000 0 1 0
16.931481 9.803461 10.134259 22.033749 0.524841 1.092866 0.022713 -0.020764 414434.000000 0 1 0
17.269981 8.650561 10.841959 22.150226 0.464369 1.059310 0.005916 -0.019970 402988.000000 0 1 0
18.617581 8.618461 11.638859 23.587184 0.433547 1.054756 0.015251 -0.020655 163731.000000 0 1 0
18.524581 9.273261 12.896859 24.402509 0.464121 1.013957 0.027508 -0.021172 -415424.000000 0 1 0
19.762781 9.411961 13.503759 25.719721 0.444465 1.018040 0.028174 -0.023154 -810910.000000 0 0 1
19.557981 9.544861 15.067059 26.469516 0.454025 0.965236 0.028512 -0.004012 40356.800000 0 0 1
19.213581 8.281961 15.690459 26.152306 0.406982 0.927339 0.050110 -0.005690 152988.000000 0 0 1
17.830981 8.102461 15.867159 25.206358 0.426510 0.889899 0.062211 -0.014189 -511935.000000 0 0 1
17.371481 6.659761 16.077959 24.589053 0.366091 0.858113 0.061216 -0.006243 767706.000000 0 1 0
15.989281 6.641761 16.497259 23.915051 0.393701 0.809546 0.054863 -0.008901 980710.000000 0 1 0
15.625381 5.287061 16.725659 23.491556 0.326271 0.778474 0.062174 -0.010917 699784.000000 0 1 0
14.173381 5.239061 17.376759 23.027902 0.354064 0.715758 0.053709 -0.018969 1163410.000000 0 1 0
13.592281 3.968861 17.599759 22.588791 0.284096 0.677509 0.045683 -0.010709 94404.900000 0 1 0
13.202281 3.321961 16.407559 21.320029 0.246503 0.692606 0.047574 -0.012390 -492568.000000 0 1 0
12.972481 1.841261 16.591959 21.141632 0.140994 0.668423 0.029589 -0.011345 473169.000000 0 1 0
14.249881 1.213561 16.771459 22.041181 0.084958 0.706075 0.023506 -0.009189 691417.000000 0 1 0
14.310281 -0.166139 16.692659 21.987647 -0.011609 0.708739 0.021548 -0.003314 -202633.000000 0 1 0
13.417681 -1.031239 17.597959 22.153686 -0.076706 0.652846 0.022596 -0.000150 -959914.000000 0 1 0
12.084481 -1.065739 17.287959 21.119754 -0.087963 0.611882 0.022860 -0.010332 -1214390.000000 0 1 0
11.269581 -1.506039 18.355659 21.591707 -0.132850 0.554573 0.006507 -0.006187 168736.000000 0 1 0
-24.638619 14.176561 28.739659 40.422821 -0.522120 0.779911 0.042371 0.002973 -523537.000000 0 0 1
-23.739319 14.229661 29.788789 40.662150 -0.539988 0.748673 0.040624 0.009695 -95777.100000 0 0 1
-23.297419 12.935061 30.218159 40.289238 -0.506838 0.722688 0.028892 0.005174 -429926.000000 0 0 1
-22.221719 12.898661 31.280729 40.480418 -0.525923 0.687654 0.034394 -0.003520 -487794.000000 0 0 1
-22.612619 13.317161 32.558289 41.817694 -0.532237 0.678401 0.029578 -0.006968 182770.000000 0 0 1
-21.515519 13.212261 33.442534 41.903275 -0.550709 0.646680 0.007086 -0.006571 57020.600000 0 0 1
-22.028919 13.371061 -34.409215 42.988982 -0.545534 2.498791 0.005569 -0.001438 275603.000000 0 0 1
-22.726619 12.274161 -33.810719 42.547843 -0.495194 2.489230 0.000992 -0.006573 159710.000000 0 0 1
-23.421619 12.623561 -32.620989 42.095789 -0.494336 2.457389 -0.013636 -0.005289 -84812.000000 0 0 1
-24.205819 11.471961 -32.021399 41.748024 -0.442578 2.444974 -0.024242 -0.011688 -95059.900000 0 0 1
-23.414519 10.461061 -31.374259 40.521816 -0.420170 2.456335 -0.020346 -0.012765 323509.000000 0 0 1
-23.183619 9.292061 -32.145659 40.708303 -0.381198 2.481049 -0.013312 -0.011855 -14404.400000 0 0 1
-22.215419 8.331061 -31.444159 39.391199 -0.358782 2.495186 -0.011919 0.002580 261806.000000 0 0 1
-22.893819 7.582261 -30.397899 38.802704 -0.319823 2.470908 -0.012332 0.003564 1014030.000000 0 0 1
-21.940319 6.786261 -29.710549 37.551932 -0.299972 2.483542 -0.014962 0.009529 -50730.300000 0 0 1
-22.625519 6.036661 -28.620819 36.979814 -0.260734 2.455864 -0.014405 0.022775 -830490.000000 0 0 1
-23.377819 5.013461 -29.066239 37.636464 -0.211254 2.453233 -0.007788 0.016208 -364684.000000 0 0 1
-23.753419 4.215661 -27.973909 36.939630 -0.175647 2.429946 0.002243 0.021925 -317633.000000 0 0 1
-24.422219 2.818761 -28.326499 37.507076 -0.114909 2.426802 0.011759 0.016627 1740010.000000 0 0 1
-25.796349 2.842461 -28.815109 38.779398 -0.109746 2.408416 0.022637 0.013140 1552180.000000 0 0 1
-26.087379 3.579161 -30.003219 39.919354 -0.136348 2.421274 0.019159 0.005045 -517301.000000 0 0 1
-27.483869 3.334661 -30.615259 41.276835 -0.120741 2.406406 0.035811 -0.006712 -106707.000000 0 0 1
-28.583829 3.750761 -29.835799 41.488292 -0.130474 2.373357 0.044999 -0.004593 773606.000000 0 0 1
-29.814549 3.840761 -30.575469 42.877944 -0.128116 2.364680 0.049956 -0.016610 687228.000000 0 0 1
-30.126299 5.237861 -31.145319 43.646992 -0.172143 2.365382 0.041351 -0.031652 -713656.000000 0 0 1
-29.184049 5.700861 -32.070739 43.734892 -0.192912 2.393957 0.030276 -0.026209 -18304.800000 0 0 1
-29.459239 7.001561 -32.539819 44.448942 -0.233340 2.392155 0.030093 -0.027042 -742925.000000 0 0 1
-29.016779 8.207361 -31.730189 43.773726 -0.275648 2.381640 0.008006 -0.025427 193137.000000 0 0 1
-27.607869 8.488761 -31.768899 42.936190 -0.298301 2.403732 -0.009738 -0.027328 988944.000000 0 0 1
-26.841609 7.999361 -30.678989 41.541089 -0.289640 2.401671 -0.011272 -0.030158 -141096.000000 0 0 1
-27.068419 8.817061 -29.348569 40.887386 -0.314894 2.371420 -0.017367 -0.024151 345216.000000 0 0 1
-28.392789 8.826861 -28.786889 41.385371 -0.301412 2.340025 -0.005438 -0.023427 786656.000000 0 0 1
-28.677959 7.715161 -27.960679 40.789074 -0.262805 2.326079 -0.001280 -0.007620 -49753.200000 0 0 1
-30.075859 7.767961 -27.295599 41.351520 -0.252755 2.291731 -0.001702 -0.010093 142181.000000 0 0 1
-30.128759 8.711261 -26.232829 40.887522 -0.281459 2.267359 -0.026019 -0.002826 7130.230000 0 0 1
-29.876999 8.116661 -24.983159 39.782829 -0.265267 2.249762 -0.022115 0.003732 -192799.000000 0 0 1
-29.328979 9.092761 -23.949859 38.941790 -0.300630 2.233204 -0.019180 -0.000988 -257851.000000 0 0 1
-30.261809 9.954861 -23.329059 39.485710 -0.317808 2.202875 -0.025123 0.000652 79473.100000 0 0 1
-29.615669 11.029361 -22.757559 38.944077 -0.356504 2.194894 -0.019884 0.000518 131533.000000 0 0 1
-30.649759 11.794661 -21.876359 39.460066 -0.367353 2.158429 -0.027836 0.008553 266771.000000 0 0 1
-30.740029 11.178061 -20.608559 38.660201 -0.348767 2.133020 -0.036801 0.002425 334806.000000 0 0 1
-31.691529 11.817061 -19.769259 39.176773 -0.356909 2.099734 -0.041002 0.016093 -74299.400000 0 0 1
-31.176549 13.091161 -18.989559 38.780911 -0.397546 2.082499 -0.036267 0.009573 182273.000000 0 0 1
-30.228849 12.916661 -17.931459 37.445436 -0.403814 2.070162 -0.017839 0.001140 380781.000000 0 0 1
-30.775219 12.410661 -16.717659 37.156678 -0.383320 2.037476 -0.024544 -0.000284 -433609.000000 0 0 1
-31.203009 13.475261 -15.693259 37.436463 -0.407665 2.003357 -0.027284 0.008482 -594520.000000 0 0 1
-32.152749 14.347561 -16.196859 38.755516 -0.419715 2.001955 -0.033741 0.006735 -100615.000000 0 0 1
-32.727559 15.245061 -15.266259 39.199026 -0.435929 1.970836 -0.029277 0.007879 162226.000000 0 0 1
-33.450749 16.391161 -16.038159 40.556692 -0.455623 1.977354 -0.022059 0.009547 105549.000000 0 0 1
-34.476819 15.894661 -16.876559 41.546474 -0.431984 1.989098 -0.034607 0.013719 9551.510000 0 0 1
34.714610 16.926961 -17.475359 42.391206 0.453681 1.995708 -0.037412 0.009692 -773316.000000 0 0 1
34.320686 16.736861 -18.926359 42.617356 0.453728 2.030966 -0.046852 0.010186 -493818.000000 0 0 1
33.247031 15.919661 -19.211159 41.567647 0.446568 2.051233 -0.025011 0.009274 802628.000000 0 0 1
31.954441 16.594661 -19.144159 40.779503 0.478986 2.059470 0.004761 0.001365 842537.000000 0 0 1
30.763541 15.648361 -19.426959 39.606482 0.470556 2.083459 0.027701 -0.005976 -131522.000000 0 0 1
30.672311 15.279061 -20.798459 40.085113 0.462157 2.116310 0.023721 -0.007219 378262.000000 0 0 1
29.755621 14.233661 -21.115859 39.164698 0.446180 2.140230 0.015881 -0.006449 -2170.850000 0 0 1
30.295871 12.792461 -20.947259 38.990698 0.399540 2.137955 0.004066 0.025574 -143625.000000 0 0 1
30.259801 12.311261 -19.640959 38.118106 0.386399 2.112114 0.002766 0.022338 448078.000000 0 0 1
31.248631 11.302461 -19.338259 38.447247 0.347055 2.097841 -0.020882 0.033588 169338.000000 0 0 1
31.491251 11.130761 -17.836859 37.864842 0.339750 2.061296 -0.021630 0.036416 -844301.000000 0 0 1
30.367021 10.551461 -17.244059 36.480774 0.334414 2.063136 -0.010126 0.024747 -329021.000000 0 0 1
30.564201 10.194161 -15.887059 35.923390 0.321930 2.028900 -0.035671 0.021760 -152834.000000 0 0 1
30.304591 11.331661 -14.855759 35.601522 0.357828 2.001245 -0.023367 0.008986 -437679.000000 0 0 1
28.924561 11.492261 -14.680959 34.412684 0.378193 2.011543 0.000214 0.017537 -205522.000000 0 0 1
28.618901 12.515761 -13.778959 34.140086 0.412264 1.986245 -0.010057 0.019448 -217091.000000 0 0 1
27.111171 12.692461 -13.533259 32.852142 0.437856 1.995383 0.030024 0.009638 -222428.000000 0 0 1
26.428611 11.567561 -12.989659 31.638761 0.412571 1.993866 -0.001422 0.011957 1424410.000000 0 0 1
25.077611 11.494061 -13.539359 30.729697 0.429767 2.027058 0.004343 0.005863 839862.000000 0 0 1
24.989631 10.535661 -14.776059 30.883875 0.398988 2.069673 0.004253 -0.001953 -646882.000000 0 0 1
25.255451 9.195961 -14.502759 30.540686 0.349196 2.065609 -0.007893 0.002224 641883.000000 0 0 1
26.632801 8.905761 -14.692559 31.693690 0.322702 2.052828 -0.010340 0.001052 -217829.000000 0 0 1
27.133031 7.645861 -13.958559 31.456350 0.274669 2.030568 -0.005394 0.004739 -792570.000000 0 0 1
26.681131 6.337061 -14.250659 30.905054 0.233190 2.050043 -0.015684 -0.002276 189176.000000 0 0 1
25.733761 5.974061 -13.271959 29.564519 0.228108 2.036347 0.009972 -0.003482 -348776.000000 0 0 1
25.355181 4.467561 -13.396059 29.022383 0.174409 2.050568 0.009126 -0.002710 -328544.000000 0 0 1
24.629001 4.136361 -12.246259 27.814889 0.166394 2.026704 0.001615 -0.000712 -227344.000000 0 0 1
24.007501 2.889961 -12.414659 27.181533 0.119801 2.045114 -0.004498 0.000239 -143062.000000 0 0 1
23.129001 2.545961 -11.191259 25.820087 0.109635 2.019094 -0.009166 0.010606 137492.000000 0 0 1
23.944201 2.132561 -10.076059 26.065294 0.088829 1.967706 -0.005824 0.014138 492714.000000 0 0 1
23.175801 1.875761 -8.927459 24.906540 0.080760 1.937391 -0.007976 0.018315 -690672.000000 0 1 0
23.820801 1.223761 -7.660459 25.052161 0.051329 1.881554 -0.009366 0.017059 -529745.000000 0 0 1
23.790601 -0.226039 -7.568259 24.966424 -0.009501 1.878780 -0.027035 0.013064 387434.000000 0 1 0
24.637601 -0.919139 -8.456259 26.064622 -0.037289 1.901210 -0.008935 0.010867 -403127.000000 0 0 1
24.593301 -2.410439 -7.957459 25.960775 -0.097700 1.882330 0.008177 0.004736 -908846.000000 0 0 1
25.438321 -2.667839 -6.890759 26.489774 -0.104493 1.833952 0.013902 0.003886 172764.000000 0 0 1
25.593781 -4.036639 -6.597559 26.736938 -0.156431 1.820130 0.018031 0.001048 -696675.000000 0 0 1
26.744991 -4.326839 -5.629559 27.671430 -0.160392 1.775670 0.005668 0.002538 -750688.000000 0 0 1
27.977921 -4.200339 -6.269759 28.977867 -0.149018 1.788885 0.012558 0.003431 -248614.000000 0 0 1
29.049881 -4.646639 -5.465159 29.922480 -0.158610 1.754471 0.017453 0.005823 -627998.000000 0 0 1
30.374261 -4.616739 -6.193759 31.341229 -0.150841 1.769729 0.015897 0.002475 -757385.000000 0 0 1
30.410771 -5.756639 -7.013459 31.735508 -0.187082 1.793633 0.003239 0.003397 480636.000000 0 0 1
31.449781 -5.552139 -7.963659 32.914052 -0.174739 1.815175 0.000342 -0.017500 -182866.000000 0 0 1
31.190911 -6.424339 -9.211159 33.151026 -0.203128 1.852356 -0.003447 -0.015973 838776.000000 0 0 1
29.966671 -6.239839 -9.959659 32.189001 -0.205292 1.885371 0.014636 -0.004229 823106.000000 0 0 1
28.893371 -6.999739 -9.456959 31.197072 -0.237682 1.878778 0.001470 -0.005692 250162.000000 0 0 1
27.503121 -6.301539 -9.338959 29.721158 -0.225233 1.890430 -0.000663 -0.002622 -688172.000000 0 0 1
26.906511 -5.879339 -10.534659 29.487387 -0.215129 1.936129 -0.011219 -0.000359 593045.000000 0 0 1
25.795801 -5.006339 -10.215159 28.192840 -0.191693 1.941565 0.018514 0.005631 1119680.000000 0 0 1
24.455101 -5.808139 -10.104259 27.090266 -0.233182 1.953020 0.029659 0.003339 -1390620.000000 0 0 1
24.499501 -6.768039 -9.075959 26.988978 -0.269530 1.913765 0.021158 0.000453 245428.000000 0 0 1
23.289101 -7.297239 -8.560059 25.863227 -0.303643 1.908132 0.018135 -0.004880 -29099.100000 0 0 1
22.310001 -6.347339 -7.798159 24.471129 -0.277183 1.895120 0.029242 0.000388 -220970.000000 0 1 0
21.863601 -5.403339 -8.772059 24.169446 -0.242284 1.942217 0.016283 0.005640 4222.590000 0 1 0
21.361801 -4.223939 -8.181759 23.261758 -0.195215 1.930210 0.002179 0.006388 -542178.000000 0 1 0
21.171301 -3.326839 -9.390259 23.398051 -0.155865 1.983761 -0.004680 0.009979 -574153.000000 0 1 0
22.342001 -3.061639 -10.121359 24.718021 -0.136187 1.992673 -0.005668 0.012332 206129.000000 0 1 0
22.078001 -2.221739 -11.219259 24.864554 -0.100294 2.038923 -0.012468 0.011581 -266100.000000 0 1 0
23.186701 -2.091339 -12.301159 26.330881 -0.089952 2.056891 -0.003415 0.005440 218481.000000 0 0 1
24.208901 -1.200739 -11.868559 26.988430 -0.049558 2.026133 -0.005569 0.002688 132521.000000 0 0 1
25.355841 -1.243339 -12.654259 28.365381 -0.048996 2.033217 0.007125 0.005115 -351696.000000 0 0 1
26.450531 -0.250439 -12.193159 29.126731 -0.009468 2.002726 0.014175 0.006326 -167564.000000 0 0 1
27.719881 -0.561239 -12.727659 30.507378 -0.020244 2.001158 0.014719 -0.002373 844406.000000 0 0 1
28.786231 0.349961 -12.392759 31.342464 0.012157 1.977298 0.015633 0.002756 565141.000000 0 0 1
28.814321 1.634761 -13.261659 31.761756 0.056674 2.001528 0.016323 -0.000285 -547178.000000 0 0 1
29.145041 1.516161 -14.656859 32.658164 0.051974 2.036214 0.026779 -0.005762 413817.000000 0 0 1
28.818641 2.655961 -15.379959 32.773638 0.091902 2.059270 0.015230 0.001205 -202193.000000 0 0 1
28.848991 2.419861 -16.919159 33.531745 0.083684 2.099682 0.002963 -0.012270 279067.000000 0 0 1
27.762501 1.610261 -17.387259 32.797350 0.057936 2.129565 0.006240 -0.006890 275382.000000 0 0 1
27.899871 1.455561 -18.745259 33.643814 0.052124 2.161768 -0.008281 -0.008806 -396269.000000 0 0 1
26.876551 0.677361 -19.558359 33.246612 0.025197 2.199728 -0.013481 -0.006230 -972684.000000 0 0 1
27.035721 -0.722239 -19.425459 33.298653 -0.026708 2.193669 0.001855 -0.004085 12797.400000 0 0 1
26.586981 -1.402839 -20.555159 33.635548 -0.052715 2.228264 -0.012149 -0.002816 -92728.300000 0 0 1
26.581641 -2.897739 -20.404359 33.635077 -0.108584 2.222623 -0.011340 -0.003691 704681.000000 0 0 1
25.232511 -3.267539 -20.076759 32.410379 -0.128781 2.238844 -0.003553 0.000860 762266.000000 0 0 1
24.992821 -4.715839 -20.063059 32.394545 -0.186495 2.238691 -0.004234 -0.005678 -304108.000000 0 0 1
25.643651 -5.540139 -18.978359 32.380057 -0.212773 2.197049 -0.019078 -0.004229 -638133.000000 0 0 1
27.035911 -5.557939 -19.048259 33.536060 -0.202751 2.174862 -0.017306 -0.009047 -560998.000000 0 0 1
27.701451 -5.638639 -17.793259 33.403064 -0.200807 2.132564 -0.022180 -0.004931 -296216.000000 0 0 1
29.200241 -5.393439 -17.943359 34.694486 -0.182647 2.114351 -0.013437 -0.003798 -400405.000000 0 0 1
29.862221 -6.176139 -18.953859 35.904675 -0.203946 2.126915 -0.020784 -0.006892 -713848.000000 0 0 1
31.217021 -5.895139 -18.968659 37.000880 -0.186646 2.109070 0.002821 -0.000458 -839773.000000 0 0 1
31.963871 -6.891439 -19.871259 38.262879 -0.212350 2.116869 0.002398 0.001954 -225112.000000 0 0 1
32.190221 -8.139939 -19.206659 38.358372 -0.247678 2.095222 -0.004071 0.009522 -163296.000000 0 0 1
32.924201 -9.017539 -19.994959 39.561565 -0.267332 2.100658 -0.002701 0.016758 -132862.000000 0 0 1
33.748591 -9.984839 -19.083759 40.035662 -0.287654 2.067658 -0.000359 0.013971 -403502.000000 0 0 1
32.899391 -10.782939 -18.292459 39.156810 -0.316722 2.056871 -0.019104 0.007872 63684.600000 0 0 1
33.603841 -11.613539 -17.374659 39.572354 -0.332751 2.025349 -0.012005 0.019557 -602554.000000 0 0 1
34.120542 -10.951439 -16.049259 39.264795 -0.310576 1.991874 0.007535 0.011962 -204748.000000 0 0 1
34.434706 -11.871339 -14.998359 39.390715 -0.331989 1.961413 -0.011162 0.003230 923833.000000 0 0 1
-34.596774 -13.037939 -15.219459 39.981953 0.360395 1.961304 0.009487 -0.006040 321352.000000 0 0 1
-33.090159 -12.914739 -15.537259 38.770549 0.372107 1.983131 0.017401 -0.007376 -24486.200000 0 0 1
-32.901049 -12.545539 -16.883559 39.050277 0.364292 2.017899 0.026581 0.003523 -85191.200000 0 0 1
-31.543519 -12.539839 -17.274359 38.087329 0.378385 2.041537 0.019709 0.002245 204269.000000 0 0 1
-31.104559 -11.691939 -18.519059 38.041432 0.359552 2.079234 0.035318 0.006086 179595.000000 0 0 1
-31.143759 -10.262039 -18.412059 37.606476 0.318302 2.082425 0.044005 0.004645 -346812.000000 0 0 1
-32.395129 -9.692439 -18.671759 38.626705 0.290717 2.075319 0.038478 0.002218 -553978.000000 0 0 1
-32.619039 -8.273739 -18.124959 38.222645 0.248409 2.064845 0.037937 0.002473 29294.200000 0 0 1
-33.898049 -7.773939 -18.477859 39.382015 0.225435 2.059176 0.033965 -0.002280 85070.400000 0 0 1
-34.124483 -6.526839 -17.842259 39.056704 0.188983 2.045224 0.036600 -0.005628 3376.990000 0 0 1
23.423781 27.594261 -27.444649 45.423843 0.866962 2.219546 0.026896 0.005941 -466732.000000 0 0 1
24.077181 26.845961 -26.504729 44.753960 0.839716 2.204622 0.027174 -0.004479 293937.000000 0 0 1
25.346981 26.414561 -27.031119 45.506921 0.806020 2.206819 0.018798 -0.000271 808839.000000 0 0 1
26.114081 25.375761 -26.144659 44.826529 0.771060 2.193509 -0.000850 -0.003557 -85304.300000 0 0 1
26.525381 25.965961 -24.878959 44.685451 0.774741 2.161274 0.008574 0.000665 263035.000000 0 0 1
26.654581 25.024661 -23.847559 43.650961 0.753869 2.148765 0.000776 -0.001434 -261854.000000 0 0 1
27.224981 25.700361 -22.572259 43.717445 0.756599 2.113346 0.010766 -0.000315 -387376.000000 0 0 1
26.323681 26.457961 -21.831359 43.238503 0.787942 2.100069 0.023702 -0.000263 -589114.000000 0 0 1
26.930581 27.289661 -20.904859 43.669153 0.792021 2.069981 0.007112 0.001854 13588.100000 0 0 1
25.904281 28.203261 -20.187159 43.289457 0.827862 2.055933 0.016884 0.005051 -78809.900000 0 0 1
25.065181 27.607061 -19.249159 41.963594 0.833619 2.047340 0.030262 0.003137 -253742.000000 0 0 1
24.309581 28.657361 -18.638359 41.947449 0.867299 2.031219 0.028365 0.003647 100060.000000 0 0 1
23.174981 28.139861 -17.750559 40.546441 0.881851 2.023928 0.036688 0.003523 72846.700000 0 0 1
22.166981 27.380361 -18.390059 39.739822 0.890233 2.051904 0.052638 0.002401 643824.000000 0 0 1
20.940981 27.422961 -17.640959 38.752379 0.918629 2.043419 0.027408 0.012974 477657.000000 0 0 1
19.860481 26.445461 -18.111159 37.706965 0.926657 2.071808 0.013305 0.006596 -84724.800000 0 0 1
19.453881 26.800161 -19.443559 38.402527 0.942907 2.101696 0.018507 0.006119 -258383.000000 0 0 1
18.805881 25.754761 -20.122559 37.707907 0.940094 2.133699 0.010652 0.011794 -73003.800000 0 0 1
18.052681 26.203361 -21.405259 38.349714 0.967528 2.162962 -0.001536 0.019680 890176.000000 0 0 1
17.087081 27.265661 -21.188559 38.527129 1.010984 2.153118 -0.016906 0.026658 -583885.000000 0 0 1
15.880381 26.976461 -21.798059 38.145397 1.038745 2.179064 -0.024850 0.018039 -952378.000000 0 0 1
14.786881 27.967261 -21.369859 38.177093 1.084437 2.164888 -0.015712 0.021380 -354372.000000 0 0 1
14.381381 27.728461 -20.070359 37.128304 1.092340 2.141908 -0.017842 0.022256 -213011.000000 0 0 1
13.626781 28.842561 -19.605159 37.442553 1.129427 2.121875 -0.032561 0.029501 68078.600000 0 0 1
13.292081 28.842061 -18.127259 36.566944 1.138950 2.089469 -0.021940 0.029064 -140781.000000 0 0 1
12.570581 27.687161 -17.803759 35.235951 1.144603 2.100494 -0.028700 0.035589 -266827.000000 0 0 1
12.120081 27.630961 -16.471959 34.375744 1.157428 2.070510 -0.007528 0.036650 -165212.000000 0 0 1
11.237781 26.395561 -16.269559 32.980478 1.168295 2.086686 0.010442 0.024056 -274794.000000 0 0 1
11.964281 25.172061 -16.167759 32.220694 1.127103 2.096454 -0.022272 0.028340 -243440.000000 0 0 1
11.185281 23.997261 -15.993759 30.931850 1.134629 2.114214 0.027046 0.021490 253067.000000 0 0 1
12.013181 22.685461 -16.265759 30.389498 1.083786 2.135591 -0.003713 0.014729 48588.100000 0 0 1
12.249881 22.436461 -17.643059 31.060133 1.071044 2.174905 -0.004620 0.020922 -598529.000000 0 0 1
13.169181 21.421161 -17.847459 30.835455 1.019584 2.188049 -0.004228 0.020362 -590300.000000 0 0 1
12.600281 20.041561 -18.154659 29.833251 1.009535 2.225013 0.014359 0.005106 -378809.000000 0 0 1
11.931881 19.562561 -17.031659 28.550674 1.023104 2.209981 0.012172 -0.003438 -581548.000000 0 0 1
11.466781 18.278761 -17.178159 27.580597 1.010525 2.243157 0.016979 -0.010690 -235071.000000 0 0 1
12.478681 17.093861 -17.255559 27.306993 0.940212 2.254811 0.016084 -0.011750 139536.000000 0 0 1
13.176581 16.961961 -16.036259 26.804701 0.910343 2.212128 0.013752 -0.018779 -753133.000000 0 0 1
14.382081 16.296561 -16.157659 27.083059 0.847722 2.210050 0.016559 -0.012517 -1265740.000000 0 0 1
14.949681 15.775461 -14.817159 26.304112 0.812268 2.169173 0.035763 -0.007406 -803820.000000 0 0 1
15.703481 16.634861 -13.958959 26.798702 0.814191 2.118680 -0.000991 -0.000776 1272150.000000 0 0 1
16.998581 17.085461 -14.395359 28.072960 0.787947 2.109221 -0.014880 0.006070 212407.000000 0 0 1
18.013181 16.044661 -14.964359 28.387284 0.727663 2.126040 -0.019290 0.002634 -1236730.000000 0 0 1
18.327481 14.936961 -14.134859 27.546390 0.683823 2.109623 0.001041 0.010525 -315642.000000 0 0 1
19.169481 15.340561 -13.147859 27.850817 0.674899 2.062447 -0.007027 0.005758 -1555110.000000 0 0 1
19.816181 14.171461 -12.398259 27.335474 0.620819 2.041551 -0.002811 0.003177 -604483.000000 0 0 1
18.941481 13.429961 -11.593359 25.952833 0.616757 2.033880 0.017482 -0.000477 366048.000000 0 0 1
19.616781 12.443161 -10.812859 25.623588 0.565268 2.006434 0.026250 0.005007 -203878.000000 0 0 1
20.040581 11.182861 -11.576559 25.704046 0.508973 2.037986 0.019724 -0.000713 -1106190.000000 0 0 1
21.128181 11.395461 -12.425459 27.030512 0.494629 2.048434 0.013609 0.005367 220878.000000 0 0 1
21.644381 10.268061 -13.168459 27.337166 0.442957 2.073396 0.005830 -0.002506 33000.300000 0 0 1
22.289481 9.152961 -12.279659 27.044180 0.389645 2.042112 0.009493 0.001599 -256354.000000 0 0 1
21.231081 8.477961 -11.592959 25.632622 0.379919 2.040109 0.003966 -0.004039 1054920.000000 0 0 1
21.677381 7.418161 -10.715959 25.293670 0.329716 2.008280 -0.008668 0.016046 -542023.000000 0 0 1
22.299181 6.191161 -11.464959 25.826909 0.270820 2.030760 0.008320 0.007940 247486.000000 0 0 1
21.352581 5.300261 -12.108159 25.112407 0.243308 2.073913 0.031914 0.002971 941468.000000 0 0 1
20.603981 5.812861 -13.202559 25.151957 0.274976 2.123408 0.010203 -0.011965 493061.000000 0 0 1
19.233781 5.083661 -13.413159 23.993640 0.258400 2.164011 -0.004557 -0.013916 303821.000000 0 1 0
19.406981 3.910661 -14.113859 24.313066 0.198845 2.190145 -0.018304 -0.010498 946848.000000 0 1 0
18.146181 3.256061 -14.316559 23.342015 0.177546 2.231077 -0.034720 0.008337 -18645.700000 0 1 0
18.347881 1.894961 -15.088559 23.830657 0.102915 2.256422 -0.046126 0.008779 -749571.000000 0 1 0
19.020681 0.864561 -14.412659 23.880086 0.045422 2.218734 -0.067580 0.007201 715936.000000 0 1 0
20.405381 0.983561 -14.760859 25.203768 0.048164 2.196491 -0.021543 0.003748 582524.000000 0 0 1
21.230081 -0.320539 -14.988759 25.990036 -0.015097 2.185494 -0.002477 0.003384 -139084.000000 0 0 1
20.728181 -0.958939 -16.102159 26.265121 -0.046230 2.230727 -0.015174 0.001910 -555060.000000 0 0 1
21.532381 -2.035739 -16.450659 27.173734 -0.094263 2.221050 -0.006743 -0.005359 -1117570.000000 0 0 1
20.937681 -2.916139 -17.531659 27.463602 -0.138387 2.263162 -0.006529 -0.005528 -103884.000000 0 0 1
19.881981 -3.713939 -17.019959 26.434173 -0.184671 2.270331 -0.006045 -0.010810 242141.000000 0 0 1
19.170481 -4.371939 -18.074559 26.707880 -0.224221 2.314136 -0.001364 -0.012728 441957.000000 0 0 1
18.136781 -5.426639 -17.617059 25.860240 -0.290728 2.320253 0.004766 -0.009063 247332.000000 0 0 1
18.837081 -6.527539 -17.101659 26.266159 -0.333577 2.279817 0.002473 -0.003039 853291.000000 0 0 1
17.893281 -7.559139 -16.818159 25.693590 -0.399715 2.284405 0.015150 0.006932 79659.900000 0 0 1
18.539781 -8.735739 -16.085359 26.053318 -0.440334 2.236232 0.004717 0.005161 -545175.000000 0 0 1
19.518481 -9.261739 -16.902759 27.430898 -0.443049 2.234698 0.027394 0.001085 -259662.000000 0 0 1
20.211881 -10.308239 -16.263159 27.915413 -0.471623 2.192704 0.026736 -0.002168 -187599.000000 0 0 1
20.736581 -11.397239 -17.271859 29.295391 -0.502551 2.201330 0.029409 -0.006154 169027.000000 0 0 1
22.020181 -11.123039 -17.819359 30.432547 -0.467743 2.196338 0.029627 -0.006937 334537.000000 0 0 1
22.490081 -12.083839 -18.736359 31.668187 -0.493038 2.203895 0.039524 -0.005224 -643083.000000 0 0 1
21.836281 -12.070139 -20.143659 32.066781 -0.504957 2.250006 0.050186 -0.002919 -1063290.000000 0 0 1
20.525681 -12.464239 -20.226159 31.396789 -0.545734 2.270788 0.039666 -0.005942 -1052700.000000 0 0 1
20.370881 -13.855839 -20.307459 31.927260 -0.597299 2.260170 0.033776 0.001632 -899080.000000 0 0 1
18.909081 -14.265039 -20.195759 31.127373 -0.646312 2.276816 0.026354 0.012183 -745083.000000 0 0 1
18.182981 -13.826639 -21.287259 31.224095 -0.650134 2.320959 0.021570 0.009038 1450470.000000 0 0 1
16.755681 -14.179239 -21.146259 30.478975 -0.702304 2.337546 0.017856 0.012488 2028080.000000 0 0 1
15.916381 -13.648039 -22.329159 30.629912 -0.708823 2.387654 0.026574 0.001310 -160600.000000 0 0 1
16.280881 -14.266339 -23.577959 32.008056 -0.719545 2.398864 0.016801 0.003598 195938.000000 0 0 1
15.820881 -13.528139 -24.659859 32.271031 -0.707437 2.440516 0.024466 0.003584 -352462.000000 0 0 1
15.714381 -14.274339 -26.013459 33.576756 -0.737416 2.457110 0.022978 -0.002520 -909976.000000 0 0 1
14.653781 -15.171839 -26.138749 33.587977 -0.802766 2.462619 0.013731 -0.003001 -271493.000000 0 0 1
14.751081 -15.961939 -27.332339 34.920404 -0.824803 2.469795 0.018526 -0.009470 -561287.000000 0 0 1
15.635781 -17.200839 -27.327689 35.876860 -0.833024 2.436741 0.011156 -0.007912 -245658.000000 0 0 1
16.999181 -16.797039 -27.247349 36.242664 -0.779417 2.421589 0.020646 -0.007382 -72547.500000 0 0 1
17.720881 -17.985239 -27.497929 37.331415 -0.792802 2.398810 0.016172 -0.007044 -115428.000000 0 0 1
19.256781 -17.835439 -27.471139 37.994604 -0.747098 2.378971 0.014315 -0.005690 -123469.000000 0 0 1
19.778681 -17.315839 -26.287749 37.176340 -0.719102 2.356199 0.016732 -0.000854 -526776.000000 0 0 1
21.167181 -17.152439 -26.337589 37.893592 -0.681009 2.339273 0.015422 -0.000412 -381104.000000 0 0 1
21.786881 -16.534539 -25.034359 37.078003 -0.649187 2.312006 0.019992 0.005380 36409.800000 0 0 1
21.532381 -15.206839 -24.726259 36.142485 -0.614896 2.324210 0.020739 0.000646 628278.000000 0 0 1
20.138481 -14.836939 -24.628959 35.103829 -0.634964 2.348441 0.036476 0.002959 930967.000000 0 0 1
19.810081 -13.530539 -23.937459 33.889773 -0.599234 2.355101 0.041299 0.009215 -174200.000000 0 0 1
20.095781 -12.339039 -24.696859 34.147139 -0.550658 2.379291 0.042853 0.001362 214061.000000 0 0 1
19.799181 -11.162739 -23.991359 33.048443 -0.513375 2.383204 0.047620 -0.000461 14441.300000 0 0 1
19.936381 -9.971539 -24.940059 33.449924 -0.463782 2.412222 0.058172 -0.008470 42389.800000 0 0 1
19.438881 -8.819939 -24.237359 32.297229 -0.425949 2.419534 0.062418 -0.014452 247423.000000 0 0 1
19.431681 -7.657039 -25.080209 32.637974 -0.375366 2.447191 0.050281 -0.009868 -305296.000000 0 0 1
18.912881 -6.454939 -24.291659 31.455492 -0.328902 2.453179 0.047875 -0.013317 -23642.200000 0 0 1
17.591081 -6.582539 -23.807159 30.324194 -0.358067 2.473634 0.046315 -0.002741 47938.800000 0 0 1
17.131681 -5.688739 -22.782759 29.067342 -0.320604 2.471545 0.027405 -0.000274 -80238.600000 0 0 1
17.690881 -5.956939 -21.358459 28.366109 -0.324799 2.423340 0.030419 -0.010447 -476925.000000 0 0 1
17.259181 -7.056739 -20.525559 27.730407 -0.388128 2.404138 0.037292 -0.008040 125077.000000 0 0 1
17.566481 -8.383239 -20.954059 28.599520 -0.445266 2.393036 0.053334 -0.006759 -160098.000000 0 0 1
17.289581 -9.458939 -19.858859 27.978124 -0.500605 2.360010 0.050645 -0.007306 211389.000000 0 0 1
15.901581 -9.442239 -19.585959 26.937445 -0.535843 2.384871 0.029588 -0.002666 -520545.000000 0 0 1
15.443881 -10.649739 -19.083759 26.760423 -0.603696 2.364755 0.027103 -0.000845 -480980.000000 0 0 1
13.973581 -10.577139 -18.643659 25.587553 -0.647927 2.387104 0.013748 -0.000947 -310137.000000 0 0 1
13.655281 -9.774339 -17.491459 24.247794 -0.621246 2.376565 0.022710 -0.001179 270622.000000 0 1 0
13.977881 -8.411539 -17.654259 24.037637 -0.541724 2.395641 0.043609 -0.009290 -900373.000000 0 1 0
12.850981 -7.478539 -17.162559 22.707481 -0.527036 2.427688 0.040045 -0.002511 402947.000000 0 1 0
11.736481 -7.559739 -18.075959 22.839328 -0.572233 2.483958 0.025741 -0.004805 266073.000000 0 1 0
10.681981 -6.839139 -17.493859 21.608184 -0.569491 2.514257 0.015703 -0.006833 481855.000000 0 1 0
9.256781 -6.960639 -18.142959 21.524531 -0.644748 2.573441 0.012223 0.000707 787290.000000 0 1 0
9.036981 -6.489139 -19.454059 22.410630 -0.622747 2.622103 0.010518 -0.004039 -205568.000000 0 1 0
7.643081 -6.263839 -19.571859 21.925100 -0.686545 2.674029 0.008438 -0.010809 348963.000000 0 1 0
7.090081 -5.920839 -20.977159 22.920881 -0.695773 2.726797 0.005926 -0.013048 70489.200000 0 1 0
6.987881 -7.064439 -21.817759 23.973973 -0.790846 2.714226 0.003791 -0.008123 -193214.000000 0 1 0
6.381781 -6.661039 -23.013659 24.793649 -0.806806 2.760363 0.012248 -0.007931 -237036.000000 0 1 0
6.474281 -7.705539 -24.144159 26.157830 -0.872013 2.746649 0.018016 -0.002321 -246109.000000 0 0 1
5.640781 -8.818239 -23.967559 26.153845 -1.001716 2.729805 0.012634 -0.005784 73807.300000 0 0 1
5.896381 -9.781139 -25.038359 27.520127 -1.028297 2.713646 0.021106 0.004209 -305208.000000 0 0 1
5.064181 -11.058439 -24.850959 27.667764 -1.141353 2.686435 0.019355 -0.007562 151351.000000 0 0 1
5.499981 -11.892839 -23.780459 27.151420 -1.137628 2.637982 0.014569 -0.017980 109215.000000 0 0 1
4.744681 -13.100239 -23.796959 27.575777 -1.223310 2.611907 0.022971 -0.022504 -164915.000000 0 0 1
5.306281 -14.207039 -22.767359 27.355972 -1.213344 2.553973 0.022869 -0.016536 245788.000000 0 0 1
6.354381 -15.086339 -23.149959 28.353066 -1.172148 2.526099 0.027779 -0.015016 50902.200000 0 0 1
7.588181 -14.461839 -23.444759 28.572399 -1.087582 2.533149 0.025284 -0.014165 191437.000000 0 0 1
8.552081 -14.080139 -22.285759 27.713597 -1.024964 2.505033 0.014476 -0.005923 -269574.000000 0 0 1
9.068881 -15.047039 -21.396459 27.685130 -1.028392 2.454117 0.013481 0.004466 280883.000000 0 0 1
8.134681 -15.604139 -20.460859 26.987199 -1.090242 2.431297 0.006395 0.003896 59282.000000 0 0 1
8.679581 -15.728439 -19.034659 26.173214 -1.066542 2.385114 0.001484 0.006992 -7085.580000 0 0 1
9.701581 -16.709439 -18.935359 27.053167 -1.044760 2.346098 0.005229 0.010189 -196435.000000 0 0 1
10.092581 -17.068439 -17.615659 26.523635 -1.036798 2.297152 -0.003179 0.008284 -140920.000000 0 0 1
8.981581 -17.837239 -16.848759 26.128845 -1.104329 2.271602 -0.014251 0.016739 -521512.000000 0 0 1
8.770381 -19.178539 -17.148859 27.181231 -1.141887 2.253519 -0.021221 0.018837 110233.000000 0 0 1
8.005181 -19.448639 -18.333059 27.900422 -1.180325 2.287747 -0.012685 0.017742 -345899.000000 0 0 1
6.525581 -19.077439 -18.336459 27.253580 -1.241215 2.308796 -0.005125 0.014857 -829693.000000 0 0 1
6.307381 -17.648239 -18.365259 26.239781 -1.227549 2.346056 -0.004503 0.008712 -934893.000000 0 0 1
4.948881 -17.321439 -18.471059 25.801234 -1.292502 2.368706 -0.006136 0.013948 -308491.000000 0 0 1
4.653781 -15.873939 -18.075159 24.502061 -1.285616 2.400453 -0.000904 0.016330 -51133.200000 0 1 0
4.767481 -15.717239 -16.704359 23.426397 -1.276289 2.364645 -0.003101 0.018221 51047.300000 0 1 0
4.480281 -14.428039 -16.249059 22.187229 -1.269711 2.392579 -0.002044 0.016241 -14619.700000 0 1 0
9.794881 30.496561 -18.108759 36.795476 1.260023 2.085350 0.016045 0.002707 -483554.000000 0 0 1
8.901281 29.954661 -19.029259 36.587255 1.281948 2.117772 0.038730 -0.000906 -607363.000000 0 0 1
7.973781 29.150761 -18.378959 35.371375 1.303792 2.117179 0.035072 0.003176 -167601.000000 0 0 1
6.983781 28.420461 -19.325659 35.071026 1.329840 2.154410 0.036369 -0.003786 -166529.000000 0 0 1
6.139781 29.367161 -19.923459 36.014876 1.364695 2.156998 0.036812 -0.013102 190270.000000 0 0 1
5.003381 28.717161 -20.556259 35.668879 1.398298 2.185000 0.023570 -0.019748 950483.000000 0 0 1
4.199181 29.892061 -21.203759 36.888587 1.431231 2.183163 0.006728 -0.017007 369845.000000 0 0 1
3.426781 30.789761 -20.367559 37.075459 1.459956 2.152387 0.004137 -0.016768 591538.000000 0 0 1
2.467081 31.579861 -21.089259 38.054316 1.492833 2.158184 -0.015263 -0.016148 671285.000000 0 0 1
0.996581 31.136461 -20.861359 37.492248 1.538800 2.160865 -0.022566 -0.005324 -17019.200000 0 0 1
0.791081 29.762961 -21.065759 36.472261 1.544223 2.186561 -0.022840 -0.009688 237153.000000 0 0 1
0.202881 29.559361 -22.385059 37.079480 1.563933 2.218936 -0.028413 -0.011811 -335849.000000 0 0 1
-0.142219 28.070861 -22.672459 36.083706 -1.565730 2.250200 -0.025079 -0.006594 149740.000000 0 0 1
-1.066919 27.493761 -21.768859 35.084590 -1.532010 2.240135 -0.027388 -0.011745 130867.000000 0 0 1
-1.416219 26.141461 -22.156859 34.297348 -1.516674 2.273158 -0.017869 -0.018943 49175.800000 0 0 1
-2.615619 25.654061 -21.302059 33.447721 -1.469190 2.261236 -0.015885 -0.008925 694431.000000 0 0 1
-3.763719 26.516561 -21.441559 34.307930 -1.429800 2.245894 -0.007385 -0.011767 956054.000000 0 0 1
-4.833219 26.129661 -20.590659 33.616877 -1.387893 2.230028 0.009611 -0.016378 177636.000000 0 0 1
-6.115219 26.982561 -20.632159 34.512903 -1.347925 2.211563 0.022395 -0.025278 497692.000000 0 0 1
-7.192919 26.413961 -19.887659 33.837175 -1.304928 2.199066 0.031013 -0.022492 -109841.000000 0 0 1
-8.067519 27.362261 -19.354259 34.472678 -1.284079 2.166918 0.028138 -0.024626 622550.000000 0 0 1
-9.335019 26.764661 -18.623259 33.916300 -1.235207 2.152077 0.020434 -0.017955 612203.000000 0 0 1
-9.247519 26.207061 -17.353859 32.764051 -1.231573 2.128998 0.024908 -0.022399 -1046080.000000 0 0 1
-10.459319 25.610461 -17.079959 32.511814 -1.183069 2.123918 0.006672 -0.019159 -789190.000000 0 0 1
-10.460419 24.743561 -15.744959 31.137885 -1.170830 2.100935 0.017830 -0.014605 -602968.000000 0 0 1
-9.615919 23.590261 -15.632959 29.889057 -1.183736 2.121202 0.027229 -0.015683 5260.990000 0 0 1
-9.879519 22.873361 -14.458459 28.806988 -1.163077 2.096600 0.034821 -0.010299 -305291.000000 0 0 1
-9.230219 21.448961 -14.369859 27.418018 -1.164416 2.122458 0.048672 -0.007490 -113184.000000 0 0 1
-9.886919 20.406861 -15.062059 27.222358 -1.119634 2.157114 0.019329 -0.004351 -202797.000000 0 0 1
-9.999319 20.427961 -16.464359 28.077804 -1.115591 2.197383 0.019853 -0.002980 502257.000000 0 0 1
-8.644919 20.234761 -17.231159 27.948041 -1.167037 2.235140 0.009572 -0.001649 552079.000000 0 0 1
-8.340319 18.863561 -17.387159 26.976066 -1.154499 2.271218 0.009637 -0.003298 -302928.000000 0 0 1
-7.191919 18.681861 -18.188159 27.047084 -1.203315 2.308328 0.019717 -0.005989 59991.300000 0 0 1
-6.803919 17.184261 -18.016959 25.810907 -1.193796 2.343448 0.009064 -0.003975 -157168.000000 0 0 1
-7.784419 16.284161 -18.448659 25.809380 -1.124874 2.367141 0.005354 -0.006235 -512993.000000 0 0 1
-7.601219 15.818061 -19.784159 26.446219 -1.122837 2.415976 0.015400 -0.002802 229660.000000 0 0 1
-6.393119 14.847661 -19.970759 25.693505 -1.164208 2.461109 0.006269 0.006236 189199.000000 0 0 1
-6.523319 13.579061 -19.365359 24.534908 -1.122955 2.480462 -0.014568 0.007041 472381.000000 0 1 0
-5.295119 12.965561 -18.917259 23.537348 -1.183071 2.504305 -0.009374 0.015028 790897.000000 0 1 0
-4.765819 13.473261 -17.589659 22.663581 -1.230808 2.459286 0.002242 0.014644 -379688.000000 0 1 0
-4.173019 14.716061 -17.711359 23.402324 -1.294481 2.429231 -0.001363 0.001909 -453438.000000 0 1 0
-3.634019 15.095161 -16.424359 22.601538 -1.334551 2.384291 0.005860 0.003523 -222587.000000 0 1 0
-2.658719 16.239861 -16.390659 23.226183 -1.408520 2.354203 0.015089 -0.001993 -171201.000000 0 1 0
-3.361819 17.487661 -16.415159 24.219363 -1.380874 2.315522 0.006356 -0.005168 -50865.200000 0 1 0
-2.455719 18.548961 -16.390059 24.874254 -1.439171 2.290174 0.013448 -0.011939 -117291.000000 0 1 0
-2.983519 19.914361 -16.947759 26.319379 -1.422085 2.270416 0.019247 -0.019912 101053.000000 0 0 1
-3.213819 19.770561 -18.352459 27.166458 -1.409650 2.312515 0.030708 -0.017846 -94235.100000 0 0 1
-3.939219 20.800561 -18.931659 28.400501 -1.383632 2.300429 0.042566 -0.011536 -100160.000000 0 0 1
-3.001319 21.976261 -19.262459 29.376969 -1.435065 2.285905 0.012599 -0.012088 -385256.000000 0 0 1
-1.983019 21.684461 -20.199959 29.701625 -1.479601 2.318690 0.011138 -0.006256 -45199.400000 0 0 1
-0.879219 22.553261 -20.090459 30.216703 -1.531832 2.298128 -0.005221 -0.000995 725560.000000 0 0 1
0.174081 22.380461 -18.931959 29.314406 1.563018 2.272899 0.009145 0.000798 -562563.000000 0 0 1
-0.385319 22.450661 -17.679559 28.578794 -1.553635 2.237788 0.011224 -0.006589 -1115520.000000 0 0 1
0.550881 22.384061 -16.657959 27.907656 1.546191 2.210423 0.026812 -0.010282 -613430.000000 0 0 1
-0.050419 22.618161 -15.260559 27.284948 -1.568567 2.164341 0.029691 -0.014272 -311727.000000 0 0 1
-0.868919 21.520461 -14.911459 26.196123 -1.530442 2.176358 0.037219 -0.008658 -203766.000000 0 0 1
-0.850219 21.404661 -13.491159 25.315879 -1.531096 2.132836 0.054319 -0.016600 305199.000000 0 0 1
-1.676319 20.181061 -12.945459 24.034770 -1.487923 2.139587 0.028947 -0.011976 309116.000000 0 1 0
-1.128619 18.900461 -13.199459 23.080878 -1.511153 2.179590 0.028878 -0.007366 29335.100000 0 1 0
-2.065319 17.914661 -12.822659 22.127386 -1.456017 2.188902 0.020682 -0.003318 199207.000000 0 1 0
-1.544719 16.433161 -12.989659 21.003956 -1.477072 2.237551 0.003261 0.002563 -1095580.000000 0 1 0
-0.465419 16.091661 -12.194159 20.195437 -1.541881 2.219065 0.003787 0.002059 -523152.000000 0 1 0
-0.236019 14.718861 -12.111559 19.062802 -1.554763 2.259258 0.001717 0.000159 -55545.500000 0 1 0
0.480181 14.120061 -13.322859 19.419198 1.536802 2.326865 0.002113 -0.001261 -155631.000000 0 1 0
-0.343119 14.043661 -14.496459 20.186368 -1.546369 2.371909 -0.001109 -0.002357 214562.000000 0 1 0
0.238481 13.130661 -15.355859 20.205780 1.552636 2.434069 -0.000682 -0.003930 -530012.000000 0 1 0
-0.473919 12.950061 -16.704259 21.141451 -1.534217 2.481799 -0.008068 0.003689 -172431.000000 0 1 0
-0.584619 14.133861 -17.490959 22.495365 -1.529457 2.461534 -0.004628 0.002365 -62207.500000 0 1 0
-0.800519 13.964061 -18.858659 23.479456 -1.513532 2.503441 -0.003860 0.005617 -144790.000000 0 1 0
-1.190619 15.350961 -19.480259 24.830426 -1.493391 2.472737 0.000228 0.008060 118680.000000 0 1 0
-0.125119 16.275961 -19.509859 25.407817 -1.563109 2.446303 -0.001189 0.006116 -14985.000000 0 0 1
-0.683519 17.570961 -19.641859 26.363014 -1.531915 2.411412 0.017030 -0.000497 -313585.000000 0 0 1
0.299781 18.651761 -20.018759 27.362908 1.554725 2.391465 0.024643 0.000203 -381751.000000 0 0 1
0.746981 18.384661 -21.341459 28.178211 1.530188 2.430079 0.020804 -0.003268 101578.000000 0 0 1
1.311881 19.598661 -21.883859 29.406323 1.503959 2.410116 0.012661 0.000624 119413.000000 0 0 1
1.651981 19.416161 -23.378859 30.434970 1.485918 2.446755 0.019057 -0.005489 732713.000000 0 0 1
2.768881 18.510061 -23.564259 30.092580 1.422309 2.470365 0.010379 -0.005891 647506.000000 0 0 1
3.211481 18.578461 -24.909259 31.240102 1.399627 2.493686 0.017130 -0.017014 50252.400000 0 0 1
4.149981 17.431661 -25.305679 31.007459 1.337076 2.525454 0.006399 -0.001010 -733467.000000 0 0 1
5.403881 17.509361 -24.683059 30.741390 1.271443 2.502984 -0.004258 0.009582 54696.500000 0 0 1
6.270981 16.402461 -25.021359 30.568518 1.205624 2.529650 0.001001 0.000522 561430.000000 0 0 1
6.807681 16.256261 -26.494559 31.820939 1.174212 2.554607 -0.002396 -0.011934 -854705.000000 0 0 1
7.712581 17.315561 -26.816389 32.839477 1.151763 2.526275 -0.003023 -0.006653 460204.000000 0 0 1
8.186181 17.499061 -28.144049 34.136757 1.133233 2.540026 0.007500 -0.016055 49817.800000 0 0 1
8.797581 16.298761 -28.860199 34.292246 1.075841 2.571027 0.004644 -0.021013 205961.000000 0 0 1
10.037781 15.876661 -28.253839 33.927936 1.007011 2.554871 0.010871 -0.017391 701619.000000 0 0 1
10.465581 14.570161 -28.615589 33.773805 0.947901 2.581624 0.007162 -0.011895 -128608.000000 0 0 1
10.006781 13.529461 -27.592709 32.319337 0.933966 2.593946 0.004375 -0.012151 -121542.000000 0 0 1
8.598981 13.466661 -27.549099 31.847233 1.002521 2.616024 0.008545 -0.011967 -343958.000000 0 0 1
8.138881 12.626261 -26.535689 30.492731 0.998227 2.626465 0.005591 -0.007831 -379768.000000 0 0 1
6.704181 12.081761 -26.631329 30.002378 1.064198 2.662993 0.000240 -0.011715 155723.000000 0 0 1
5.839981 13.222861 -26.549149 30.229236 1.154901 2.643009 0.005260 -0.014823 -7742.500000 0 0 1
4.512881 12.834861 -26.211159 29.531756 1.232687 2.662814 -0.006658 -0.011672 1088710.000000 0 0 1
3.398681 13.870061 -26.661659 30.245226 1.330494 2.649860 0.011218 -0.005293 136225.000000 0 0 1
3.086081 13.827261 -28.052959 31.427465 1.351207 2.673933 0.022032 -0.016741 160147.000000 0 0 1
3.755481 14.766261 -28.856289 32.631756 1.321748 2.655791 0.029748 -0.030060 -35259.900000 0 0 1
3.537481 14.445261 -30.324069 33.774672 1.330634 2.685623 0.044981 -0.032111 158838.000000 0 0 1
4.559881 13.553161 -30.748429 33.910862 1.246249 2.706291 0.033321 -0.026303 -60737.100000 0 0 1
4.558981 13.467061 -32.159179 35.161894 1.244378 2.725322 0.023867 -0.016197 -711800.000000 0 0 1
5.687081 12.494861 -32.573119 35.347878 1.143665 2.742725 0.012436 -0.005904 223354.000000 0 0 1
6.988681 12.990561 -32.300349 35.509279 1.077227 2.713192 0.022649 -0.007375 279500.000000 0 0 1
7.458681 13.068361 -30.914369 34.381858 1.052167 2.688614 0.019647 -0.014228 -986715.000000 0 0 1
7.514981 11.749961 -30.133199 33.204611 1.001785 2.708091 0.022902 -0.009356 -203299.000000 0 0 1
8.410581 10.796661 -30.669369 33.584460 0.908993 2.721868 0.010244 -0.002178 -129018.000000 0 0 1
8.217081 9.547661 -30.031329 32.566224 0.860159 2.744429 0.007000 -0.002512 689250.000000 0 0 1
9.254181 8.385761 -30.442649 32.904646 0.736208 2.752300 -0.003692 0.000937 1999490.000000 0 0 1
10.575581 8.604661 -29.862799 32.827882 0.683000 2.713304 0.000738 -0.001701 929570.000000 0 0 1
11.301381 7.401161 -29.918949 32.827456 0.579805 2.717470 -0.010889 0.003158 -480894.000000 0 0 1
12.624381 7.502261 -29.103219 32.598409 0.536194 2.674276 -0.006131 0.009676 174001.000000 0 0 1
13.279381 6.296461 -28.830339 32.360096 0.442757 2.670169 -0.003921 -0.000372 -120445.000000 0 0 1
14.089681 5.905161 -29.927939 33.601660 0.396873 2.669610 -0.014574 0.006355 -1062400.000000 0 0 1
14.904881 4.669161 -29.513219 33.391415 0.303581 2.654840 -0.004947 -0.004731 -269502.000000 0 0 1
15.721081 5.014261 -28.416269 32.859999 0.308751 2.615484 -0.009153 -0.002523 281347.000000 0 0 1
16.642381 3.956261 -28.148829 32.938995 0.233390 2.595527 -0.001769 -0.003035 266966.000000 0 0 1
17.353281 4.080161 -26.763479 32.156926 0.230929 2.553999 0.003802 -0.003785 -101024.000000 0 0 1
18.302381 5.101261 -26.663939 32.740886 0.271822 2.522478 0.027516 -0.011286 -145598.000000 0 0 1
18.714081 5.262661 -25.334309 31.933362 0.274134 2.487087 0.032987 -0.016122 140069.000000 0 0 1
19.756781 6.419761 -25.247559 32.695305 0.314177 2.453104 0.025132 -0.009519 -159109.000000 0 0 1
19.226181 7.680361 -25.597789 32.922345 0.380053 2.461509 0.035991 -0.010060 -177663.000000 0 0 1
20.108681 8.553761 -26.233929 34.143007 0.402190 2.447062 0.039368 -0.016177 -881636.000000 0 0 1
20.373881 8.402661 -27.769449 35.451968 0.391170 2.470750 0.033977 -0.009431 -603074.000000 0 0 1
19.357581 8.662861 -28.677659 35.667481 0.420788 2.504835 0.029850 -0.001355 -991046.000000 0 0 1
18.458081 7.614961 -28.810879 35.053604 0.391282 2.535551 0.023826 -0.001156 193421.000000 0 0 1
17.058181 8.212161 -29.249789 34.842091 0.448674 2.567151 0.011964 0.003188 488301.000000 0 0 1
16.845781 8.406661 -30.638109 35.960339 0.462877 2.590585 0.001183 0.006419 339647.000000 0 0 1
15.634681 9.093961 -30.913629 35.816139 0.526820 2.612212 -0.014491 0.010463 -207569.000000 0 0 1
15.229981 9.071161 -32.374849 36.910285 0.537187 2.640634 -0.022953 0.017416 -134567.000000 0 0 1
14.662881 7.805561 -32.675759 36.655587 0.489180 2.671279 -0.021944 0.019945 580430.000000 0 0 1
13.317281 7.879361 -33.151109 36.584564 0.534268 2.704888 -0.030652 0.017563 473019.000000 0 0 1
12.744081 6.529161 -33.505299 36.436885 0.473462 2.737713 -0.031041 0.009522 -41914.700000 0 0 1
12.384581 5.613461 -32.468419 35.200668 0.425563 2.744995 -0.021549 0.007757 237570.000000 0 0 1
11.706881 4.453061 -32.947029 35.247518 0.363479 2.778304 -0.010073 0.003034 77382.800000 0 0 1
11.478581 3.445361 -31.784759 33.969092 0.291600 2.781024 -0.010779 0.004615 -218073.000000 0 0 1
12.656581 2.866461 -31.275159 33.860614 0.222723 2.748279 -0.012821 -0.003214 168459.000000 0 0 1
12.325581 1.722361 -30.404219 32.852747 0.138840 2.753070 -0.009611 -0.002248 28063.900000 0 0 1
11.557081 0.538061 -31.041589 33.127570 0.046523 2.784829 -0.011075 0.003157 211885.000000 0 0 1
12.246281 -0.484339 -31.797889 34.078024 -0.039529 2.773710 -0.011187 0.004021 523956.000000 0 0 1
13.268281 -1.223439 -31.101469 33.835565 -0.091948 2.736827 -0.010362 -0.003408 620951.000000 0 0 1
13.663081 -2.507239 -31.876909 34.772163 -0.181486 2.730629 -0.011985 -0.003285 286107.000000 0 0 1
12.719181 -3.573839 -31.845059 34.476915 -0.273917 2.748329 -0.007109 0.001113 247526.000000 0 0 1
13.153381 -4.558039 -32.738959 35.575646 -0.333580 2.739549 -0.000034 -0.003113 443101.000000 0 0 1
12.232381 -5.845339 -32.675259 35.376145 -0.445777 2.748300 -0.000737 -0.000139 240715.000000 0 0 1
12.284481 -6.560739 -31.518799 34.458474 -0.490529 2.725535 0.010049 -0.005311 36508.600000 0 0 1
11.834281 -7.902739 -31.743789 34.787521 -0.588775 2.720163 0.021401 -0.009093 43390.500000 0 0 1
11.865881 -8.786139 -30.504749 33.890044 -0.637364 2.690817 0.026735 -0.010855 -69496.700000 0 0 1
13.192681 -8.924539 -30.036549 33.998360 -0.594763 2.654015 0.016199 -0.008583 86147.300000 0 0 1
13.234381 -9.435139 -28.699809 32.982567 -0.619349 2.626305 0.024860 -0.006868 -197851.000000 0 0 1
13.417481 -10.947739 -28.612089 33.444482 -0.684380 2.597331 0.028533 -0.008208 -218837.000000 0 0 1
12.301981 -11.754439 -28.957609 33.586436 -0.762641 2.610357 0.018800 -0.007806 12280.300000 0 0 1
12.474381 -13.118739 -28.819329 34.033295 -0.810570 2.580733 0.017426 -0.017899 -210655.000000 0 0 1
-10.335119 -3.062839 -17.854259 20.855940 0.288107 2.598424 -0.010433 0.018989 -190364.000000 0 1 0
-10.871819 -2.783239 -19.113459 22.164547 0.250622 2.610677 -0.022769 0.024048 -217664.000000 0 1 0
-11.796919 -3.742239 -19.541959 23.131360 0.307181 2.577035 -0.023341 0.025679 -104126.000000 0 1 0
-12.647219 -3.298339 -20.798359 24.564261 0.255113 2.580533 -0.030749 0.017584 120458.000000 0 1 0
-13.240019 -2.043939 -20.445659 24.443828 0.153167 2.561541 -0.043768 0.012589 -433636.000000 0 1 0
-14.036819 -1.593239 -21.482559 25.711301 0.113021 2.559893 -0.045550 0.012636 -170521.000000 0 0 1
-14.800619 -0.298439 -21.166559 25.829646 0.020161 2.531278 -0.033784 0.012770 -50869.100000 0 0 1
-14.031419 0.871461 -21.382659 25.590198 -0.062028 2.559984 -0.021899 0.007417 107815.000000 0 0 1
-14.743019 2.007061 -20.918659 25.670512 -0.135305 2.523337 -0.026970 0.014627 -79514.200000 0 0 1
-14.253819 3.295061 -21.493759 26.000201 -0.227180 2.543972 -0.009265 0.001596 -757069.000000 0 0 1
-13.147619 3.852161 -20.900759 24.990813 -0.285016 2.561365 -0.012794 0.007073 -429205.000000 0 1 0
-12.571219 4.943261 -21.589959 25.467581 -0.374648 2.582511 -0.016565 0.001654 -85885.000000 0 0 1
-11.367719 5.541161 -20.823359 24.362713 -0.453555 2.595812 -0.029818 0.002555 -36439.100000 0 1 0
-11.800219 6.160661 -19.616659 23.706797 -0.481155 2.545383 -0.011943 -0.005222 -97119.000000 0 1 0
-10.744719 6.487561 -18.806859 22.610514 -0.543202 2.553094 -0.013972 -0.003611 -1006860.000000 0 1 0
-11.283619 7.126061 -17.519759 22.023686 -0.563289 2.490622 0.003805 -0.001054 25913.000000 0 1 0
-11.815419 8.401661 -17.624159 22.821109 -0.618121 2.453210 0.007947 -0.002274 112676.000000 0 1 0
-12.811119 8.573061 -16.645859 22.687149 -0.589747 2.394567 0.020501 -0.000425 -111157.000000 0 1 0
-13.493319 9.973461 -16.571859 23.583174 -0.636515 2.349979 0.024843 0.004533 106004.000000 0 1 0
-12.713819 10.955261 -15.866459 23.095529 -0.711237 2.328139 0.004919 0.013912 388512.000000 0 1 0
-13.242719 12.249461 -15.979659 24.099137 -0.746455 2.295722 0.008772 0.001100 -424709.000000 0 1 0
-12.470319 13.382661 -15.279159 23.833950 -0.820673 2.266684 0.008145 0.012711 -461596.000000 0 1 0
-12.247619 13.246661 -13.903459 22.776838 -0.824565 2.227388 0.035749 0.007055 153015.000000 0 1 0
-11.892919 14.523861 -13.354059 23.037251 -0.884664 2.189123 0.019018 0.000148 -950472.000000 0 1 0
-12.497819 14.743961 -11.975659 22.737552 -0.867664 2.125499 0.013957 -0.003746 685068.000000 0 1 0
-13.874819 15.066361 -11.843159 23.659380 -0.826546 2.095053 0.002960 -0.002596 1320230.000000 0 1 0
-14.893519 14.148961 -12.345059 23.966862 -0.759767 2.111907 0.007157 0.002574 -53560.900000 0 1 0
-16.307919 14.553961 -11.942159 24.907452 -0.728627 2.070837 -0.002067 0.007972 -514245.000000 0 1 0
-17.341319 13.714261 -12.434659 25.365785 -0.669132 2.083131 0.002088 0.003868 164890.000000 0 0 1
-18.498619 14.072661 -11.675759 26.010806 -0.650340 2.036309 0.024003 0.003911 -721510.000000 0 0 1
-19.753919 13.639761 -12.393959 27.016117 -0.604311 2.047397 0.010418 -0.000386 -1086020.000000 0 0 1
-19.915419 12.264261 -12.351659 26.449943 -0.551969 2.056672 0.009208 -0.002460 54149.500000 0 0 1
-21.069419 11.933361 -13.099659 27.530466 -0.515334 2.066697 0.018415 -0.003472 -281263.000000 0 0 1
-21.755919 10.658661 -12.643259 27.327258 -0.455551 2.051791 0.016873 -0.002904 -223235.000000 0 0 1
-20.899419 9.539561 -12.762059 26.280393 -0.428206 2.077859 0.009235 -0.001164 184990.000000 0 0 1
-21.345819 8.506661 -11.918059 25.885274 -0.379227 2.049263 0.002694 0.000031 204320.000000 0 0 1
-20.360019 7.285461 -11.922259 24.693087 -0.343635 2.074666 0.005731 0.004935 282748.000000 0 1 0
-20.203319 6.599061 -13.128159 24.981398 -0.315708 2.124119 0.013687 0.000051 56924.200000 0 1 0
-19.406719 5.469261 -12.896659 23.934439 -0.274698 2.139847 0.020828 0.000953 -196213.000000 0 1 0
-19.438319 4.415261 -14.044759 24.384381 -0.223352 2.184591 0.020221 -0.004152 90863.600000 0 1 0
-20.238119 3.300461 -13.667759 24.643095 -0.161658 2.158713 0.024956 -0.009314 413228.000000 0 1 0
-20.135319 2.378261 -14.693659 25.039784 -0.117569 2.197913 0.024904 -0.013400 -579769.000000 0 0 1
-20.901919 1.131061 -14.461859 25.442383 -0.054060 2.175376 0.043073 -0.005157 1032510.000000 0 0 1
-22.237519 0.984561 -15.046559 26.867741 -0.044246 2.165210 0.038371 -0.010550 1631360.000000 0 0 1
-22.675319 -0.362039 -14.823659 27.093210 0.015965 2.149735 0.034370 -0.020584 -427363.000000 0 0 1
-24.054919 -0.529639 -15.474259 28.607207 0.022014 2.142329 0.042536 -0.016551 16657.400000 0 0 1
-25.116339 -0.095639 -14.615559 29.059494 0.003808 2.097808 0.056263 -0.020621 233155.000000 0 0 1
-26.382119 -0.164639 -15.238359 30.467210 0.006240 2.094575 0.018476 -0.014517 -199086.000000 0 0 1
-27.495999 0.304561 -14.272759 30.981193 -0.011076 2.049570 0.018269 -0.003274 -1093360.000000 0 0 1
-27.698189 -0.601139 -13.187359 30.683179 0.021700 2.015058 0.018190 -0.012460 811444.000000 0 0 1
-28.890519 -0.267039 -12.443459 31.457480 0.009243 1.977479 0.015723 -0.007270 777713.000000 0 0 1
-29.018279 -1.012639 -11.099459 31.085108 0.034882 1.935922 0.015664 -0.017741 -395179.000000 0 0 1
-29.338949 -2.422039 -11.105459 31.463811 0.082367 1.931529 0.022931 -0.025309 545354.000000 0 0 1
-28.393409 -3.325039 -11.697359 30.888019 0.116575 1.959190 0.027945 -0.021728 -37428.700000 0 0 1
-28.455219 -4.737339 -11.099559 30.908608 0.164971 1.938109 0.022848 -0.025409 -855344.000000 0 0 1
-29.689069 -5.335339 -11.335159 32.224098 0.177809 1.930247 0.025433 -0.023197 -285499.000000 0 0 1
-29.767019 -6.682639 -10.962659 32.417788 0.220837 1.915766 0.030434 -0.019992 -269989.000000 0 0 1
-29.089889 -7.713839 -11.882659 32.356182 0.259207 1.946842 0.031128 -0.019346 184601.000000 0 0 1
-27.683209 -7.536439 -11.863859 31.046886 0.265797 1.962893 0.014868 -0.009149 -176975.000000 0 0 1
-27.003449 -8.637139 -12.368359 30.931581 0.309570 1.982162 0.023990 -0.013209 65924.700000 0 0 1
-25.566169 -8.689539 -11.785859 29.462579 0.327635 1.982344 0.025900 -0.022208 36403.400000 0 0 1
-24.659719 -7.679139 -12.216259 28.571102 0.301886 2.012604 0.019931 -0.023712 461372.000000 0 0 1
-23.425119 -7.687839 -11.523559 27.214545 0.317112 2.008029 0.015119 -0.025520 -43854.800000 0 0 1
-23.406819 -7.285239 -9.949459 26.456485 0.301740 1.956346 0.006793 -0.020080 -755756.000000 0 0 1
-23.599519 -5.923639 -9.637759 26.170846 0.245926 1.947937 0.000391 -0.012940 868805.000000 0 0 1
-24.963719 -5.516039 -9.461259 27.260399 0.217468 1.925241 0.005388 -0.013462 95081.100000 0 0 1
-25.133319 -4.146839 -8.688159 26.914013 0.163520 1.899495 -0.001551 -0.019837 -545279.000000 0 0 1
-24.788819 -4.168239 -7.351459 26.189763 0.166592 1.855319 -0.018003 -0.008322 309604.000000 0 0 1
-24.974519 -2.861039 -6.773859 26.034540 0.114061 1.834013 0.016622 -0.008834 -131047.000000 0 0 1
-24.757419 -2.758239 -5.238359 25.455413 0.110953 1.778063 0.006468 -0.002185 -295371.000000 0 0 1
-23.470719 -3.107339 -4.808059 24.158800 0.131627 1.771153 -0.042934 0.003062 18116.000000 0 1 0
-23.259019 -2.841739 -3.434659 23.682363 0.121575 1.716340 -0.065358 0.007438 -538970.000000 0 1 0
-22.097819 -3.609039 -2.841059 22.570121 0.161892 1.697008 -0.061816 0.011238 -460173.000000 0 1 0
-22.392719 -4.943439 -2.519359 23.069864 0.217276 1.680220 -0.031888 0.009368 499112.000000 0 1 0
-21.216119 -5.690039 -2.677959 22.128527 0.262028 1.692112 -0.021768 0.000964 -134558.000000 0 1 0
-21.570419 -7.253039 -2.577459 22.902682 0.324373 1.683575 0.013324 0.000740 248794.000000 0 1 0
-22.255019 -7.509939 -1.366259 23.527680 0.325450 1.628899 0.019889 0.011054 478510.000000 0 1 0
-22.922519 -8.745939 -1.383059 24.573282 0.364495 1.627109 0.021711 0.002728 -111291.000000 0 1 0
-22.884419 -9.544139 -0.044859 24.794944 0.395125 1.572606 0.006982 -0.004439 -738615.000000 0 1 0
-21.738919 -10.280039 0.194341 24.047818 0.441722 1.562715 -0.005093 0.008652 -478311.000000 0 1 0
-21.844719 -11.093639 1.392841 24.539775 0.469901 1.514007 -0.020500 0.009282 -218957.000000 0 1 0
-20.478219 -11.562339 1.901841 23.593688 0.513996 1.490101 -0.026249 0.012716 -270716.000000 0 1 0
-19.867619 -12.514839 1.069041 23.505028 0.562123 1.525299 -0.015508 0.018238 -533389.000000 0 1 0
-18.737019 -13.007139 1.687241 22.871561 0.606819 1.496959 -0.038566 0.018629 -1138860.000000 0 1 0
-17.976519 -14.150139 1.055941 22.901892 0.666854 1.524673 -0.037042 0.027532 -923037.000000 0 1 0
-18.718319 -15.295239 0.746841 24.184242 0.685097 1.539910 -0.024175 0.026666 -62290.300000 0 1 0
-18.010419 -16.446839 0.237741 24.391191 0.740052 1.561049 -0.037376 0.021753 203656.000000 0 1 0
-16.918319 -17.106239 1.140741 24.086391 0.790921 1.523418 -0.030288 0.022910 275551.000000 0 1 0
-15.668919 -16.419639 1.085741 22.722200 0.808789 1.522995 -0.027598 0.022986 -299595.000000 0 1 0
-14.774119 -16.849139 2.043441 22.502083 0.850921 1.479860 -0.013522 0.009689 -561858.000000 0 1 0
-15.054619 -16.578539 3.578841 22.678131 0.833536 1.412324 0.006063 -0.000913 -552492.000000 0 1 0
-14.952119 -15.213939 3.952941 21.694597 0.794077 1.387564 0.003562 -0.005689 189845.000000 0 1 0
-14.041919 -15.016039 5.031041 21.165261 0.818909 1.330796 -0.003560 -0.009937 954.642000 0 1 0
-14.454619 -15.511939 6.446141 22.160979 0.820667 1.275652 0.001959 -0.007119 -784187.000000 0 1 0
-15.379819 -14.704939 7.147741 22.446921 0.762969 1.246725 -0.001768 -0.001047 158716.000000 0 1 0
-15.502119 -14.886139 8.539141 23.126387 0.765131 1.192607 -0.000629 0.004885 -639700.000000 0 1 0
-16.351519 -16.110839 8.991341 24.653104 0.777984 1.197470 0.000465 0.010777 -539231.000000 0 1 0
-15.955919 -17.323039 8.471841 25.029006 0.826456 1.225494 0.007821 0.004425 277182.000000 0 0 1
-16.694019 -18.440239 9.034141 26.464096 0.835059 1.222419 0.017637 0.001751 256707.000000 0 0 1
-16.171919 -18.899239 10.455541 26.982041 0.863007 1.172878 0.013735 0.007263 318849.000000 0 0 1
-14.817219 -19.289939 10.547441 26.512266 0.915791 1.161643 0.009084 0.007012 63831.800000 0 0 1
-14.507919 -19.778339 11.854441 27.243168 0.937922 1.120609 0.004438 0.012711 73337.200000 0 0 1
-13.137019 -20.420839 12.138041 27.146344 0.999135 1.107238 -0.002485 0.020500 329674.000000 0 0 1
-12.003419 -19.570939 12.080741 25.943169 1.020634 1.086414 0.005278 0.013866 21172.500000 0 0 1
-10.910819 -20.173839 12.756341 26.244123 1.075013 1.063215 0.001675 0.016201 -124629.000000 0 0 1
-9.808519 -19.188839 13.094641 25.216824 1.098263 1.024786 -0.005282 0.010581 53117.800000 0 0 1
-9.022519 -18.883239 11.919741 24.084493 1.125061 1.053061 -0.011870 0.015913 348768.000000 0 1 0
-8.104019 -17.811439 12.182641 23.050797 1.143801 1.013949 0.000127 0.003430 661194.000000 0 1 0
-7.343719 -17.304539 10.920741 21.740282 1.169450 1.044508 -0.001016 0.004836 370003.000000 0 1 0
-6.316619 -18.094639 10.369941 21.791083 1.234934 1.074832 -0.002176 0.004259 64273.800000 0 1 0
-5.763619 -17.512339 9.213741 20.610540 1.252845 1.107342 0.005388 0.001085 237571.000000 0 1 0
-4.661019 -18.271839 8.426041 20.653895 1.321030 1.150574 0.001176 -0.003652 774128.000000 0 1 0
-3.437219 -18.452339 9.122541 20.869213 1.386632 1.118392 0.005658 0.001650 678864.000000 0 1 0
-2.346319 -18.953139 8.329641 20.835297 1.447627 1.159514 0.005439 -0.006941 669655.000000 0 1 0
-1.048519 -19.092439 9.152241 21.198682 1.515933 1.124379 0.000066 -0.005732 317545.000000 0 1 0
-0.053019 -19.743939 8.336141 21.431687 1.568111 1.171290 0.008298 0.001739 210770.000000 0 1 0
1.127181 -19.980339 9.104941 21.986006 -1.514442 1.143816 0.008249 0.003410 575828.000000 0 1 0
2.241181 -20.532439 8.168841 22.211121 -1.462074 1.194174 0.012808 -0.009874 -148045.000000 0 1 0
1.977281 -21.912839 7.805041 23.345253 -1.480806 1.229901 0.002534 -0.002815 -157512.000000 0 1 0
2.073081 -22.915739 8.808541 24.637759 -1.480577 1.205183 0.008129 0.001184 39205.300000 0 1 0
1.506881 -24.259039 8.289341 25.680437 -1.508760 1.242122 -0.010166 0.000309 -1362.680000 0 0 1
1.453381 -25.258309 9.299741 26.955142 -1.513319 1.218549 -0.004840 0.006294 -20555.400000 0 0 1
0.859981 -26.425169 8.753341 27.850496 -1.538264 1.251080 -0.003077 0.006026 -608981.000000 0 0 1
1.110381 -27.661449 9.656341 29.319509 -1.530676 1.235183 0.013686 0.008765 107097.000000 0 0 1
0.507181 -27.693309 10.927841 29.775734 -1.552484 1.195009 -0.004455 0.003274 31337.700000 0 0 1
-0.907419 -27.764869 10.878441 29.833737 1.538126 1.197555 -0.033304 0.010900 102523.000000 0 0 1
-1.561319 -27.971599 12.296141 30.594822 1.515036 1.157203 -0.026654 -0.000101 80771.800000 0 0 1
-1.207019 -29.210639 12.903641 31.956569 1.529499 1.155144 -0.042592 -0.000034 -13368.500000 0 0 1
-1.521219 -29.155049 14.267941 32.494694 1.518667 1.116216 -0.047381 -0.003448 -387650.000000 0 0 1
-0.979619 -30.328869 15.146541 33.914859 1.538508 1.107829 -0.052637 0.009155 35771.400000 0 0 1
-1.204919 -30.221159 16.564741 34.484213 1.530947 1.069734 -0.042342 0.004275 165269.000000 0 0 1
-0.548819 -31.228729 17.333641 35.721000 1.553224 1.064146 -0.049058 0.012009 74496.600000 0 0 1
-0.780919 -30.980379 18.863441 36.279790 1.545595 1.024012 -0.030969 0.005148 -808920.000000 0 0 1
-2.109119 -31.163969 19.187641 36.657972 1.503221 1.019933 -0.046898 0.008491 -871064.000000 0 0 1
-2.376719 -30.606129 20.479641 36.902569 1.493297 0.982475 -0.027338 0.002407 -96988.400000 0 0 1
-3.863519 -30.588579 20.901841 37.248824 1.445156 0.975033 -0.014876 -0.010067 -420640.000000 0 0 1
-4.597719 -29.668709 20.085541 36.122019 1.417051 0.981174 -0.018120 -0.005892 343905.000000 0 0 1
-5.862819 -29.370459 20.678441 36.394978 1.373770 0.966519 -0.004749 -0.009188 402998.000000 0 0 1
-5.958819 -28.377769 21.820141 36.289446 1.363821 0.925693 0.008704 -0.013775 -441582.000000 0 0 1
-5.264019 -28.767969 23.020641 37.219025 1.389817 0.903941 0.000621 -0.015103 143471.000000 0 0 1
-5.260619 -27.773999 24.033041 37.103318 1.383606 0.866191 0.013233 -0.019384 -196741.000000 0 0 1
-4.042919 -27.969039 24.974541 37.713924 1.427241 0.847032 0.019043 -0.027818 89643.900000 0 0 1
-4.096319 -29.144299 25.693241 39.068051 1.431158 0.853097 0.010943 -0.026277 90059.900000 0 0 1
-3.360219 -30.184859 25.114641 39.410176 1.459931 0.879855 0.010026 -0.024703 -254213.000000 0 0 1
-3.636319 -31.512999 25.877141 40.937982 1.455913 0.886528 0.009779 -0.023588 -44195.500000 0 0 1
-3.150519 -31.523729 27.207541 41.760287 1.471186 0.861214 0.010916 -0.030835 209630.000000 0 0 1
-3.595819 -32.602649 28.044041 43.154732 1.460948 0.863411 0.021880 -0.022349 -231284.000000 0 0 1
-3.184819 -32.347949 29.526341 43.912842 1.472658 0.833370 0.026192 -0.019235 -638712.000000 0 0 1
-1.843719 -32.641349 29.743541 44.198815 1.514372 0.832608 0.016528 -0.018407 -713347.000000 0 0 1
-1.538119 -32.380019 31.062841 44.896899 1.523330 0.806720 0.017757 -0.020513 -123919.000000 0 0 1
-27.638869 3.306561 -10.274559 29.671653 -0.119069 1.924394 0.034563 0.002521 -331707.000000 0 0 1
-28.353679 2.852761 -11.402559 30.693447 -0.100276 1.951418 0.015569 -0.009953 -146256.000000 0 0 1
-29.260989 3.856961 -11.764259 31.772306 -0.131057 1.950094 -0.006076 -0.003925 160531.000000 0 0 1
-30.201139 3.427961 -12.983659 33.052006 -0.113021 1.974498 -0.004656 -0.002553 234580.000000 0 0 1
-31.095929 2.453561 -12.474859 33.594625 -0.078740 1.951243 0.003906 0.000159 269125.000000 0 0 1
-31.927949 2.063061 -13.590559 34.761378 -0.064526 1.972479 0.008126 -0.000767 279590.000000 0 0 1
-33.031889 1.067661 -13.173259 35.577807 -0.032311 1.950092 0.001429 -0.004351 172732.000000 0 0 1
-32.466559 -0.187639 -12.807259 34.901841 0.005779 1.946525 0.008991 -0.009854 458459.000000 0 0 1
-33.468369 -1.179939 -12.704659 35.818045 0.035241 1.933389 0.012307 -0.001658 -33215.600000 0 0 1
-32.815179 -2.548839 -12.676959 35.270920 0.077517 1.938439 0.007940 -0.012473 -45540.600000 0 0 1
-32.067819 -2.829839 -13.851759 35.046030 0.088017 1.977131 0.013794 -0.009180 69792.700000 0 0 1
-31.569149 -4.127139 -13.863559 34.725246 0.129996 1.981479 0.019419 -0.018857 -12802.500000 0 0 1
-32.496239 -5.227839 -14.514559 35.972326 0.159508 1.986127 0.027077 -0.016989 436485.000000 0 0 1
-32.354969 -6.402439 -13.747859 35.732882 0.195357 1.965722 0.023876 -0.018655 177937.000000 0 0 1
-33.170609 -7.392739 -14.338859 36.885563 0.219286 1.970059 0.027367 -0.016490 -547761.000000 0 0 1
-33.044109 -8.746039 -13.650559 36.806848 0.258745 1.950742 0.026159 -0.015531 -352764.000000 0 0 1
-31.754779 -9.284039 -13.582559 35.763742 0.284439 1.960361 0.029991 -0.017807 29395.400000 0 0 1
-31.129599 -9.629939 -14.848059 35.808553 0.300012 1.998356 0.025969 -0.015593 -326466.000000 0 0 1
-29.799049 -10.358439 -14.570059 34.750067 0.334544 2.003450 0.024404 -0.016683 -173191.000000 0 0 1
-30.005069 -11.704139 -14.264359 35.224465 0.371919 1.987727 0.027766 -0.017910 -325770.000000 0 0 1
-28.868529 -12.301239 -13.758159 34.263674 0.402813 1.983992 0.035246 -0.022949 -750346.000000 0 0 1
-29.144919 -13.830739 -13.814759 35.093635 0.443082 1.975400 0.036608 -0.018622 -21333.400000 0 0 1
-29.062479 -14.231939 -15.140559 35.726913 0.455375 2.008417 0.019730 -0.010470 73015.800000 0 0 1
-29.193369 -15.599439 -15.439359 36.523541 0.490748 2.007245 0.018874 -0.010161 -139709.000000 0 0 1
-28.035679 -16.548939 -15.007459 35.848159 0.533243 2.002743 0.005079 -0.010178 -265675.000000 0 0 1
-26.813179 -16.102739 -15.517859 34.914878 0.540826 2.031355 0.004873 -0.015808 -710166.000000 0 0 1
-26.082969 -17.228239 -15.983659 35.108558 0.583733 2.043465 0.001644 -0.015545 -1252410.000000 0 0 1
-24.829519 -16.850939 -16.669459 34.326812 0.596264 2.077858 0.001242 -0.023750 -1066610.000000 0 0 1
-25.000519 -16.440539 -18.025959 34.932112 0.581705 2.113004 0.000427 -0.017143 1654030.000000 0 0 1
-23.663519 -16.288739 -18.622759 34.235833 0.602863 2.145940 -0.022032 -0.006566 1483850.000000 0 0 1
-23.729419 -15.836739 -20.121559 34.910811 0.588502 2.185076 -0.019289 0.005324 -44210.800000 0 0 1
-24.243119 -16.816239 -21.037659 36.236691 0.606451 2.190216 -0.009563 -0.006349 350334.000000 0 0 1
-25.593119 -16.540439 -21.365959 37.216905 0.573759 2.182292 0.006404 -0.008958 -118825.000000 0 0 1
-26.215959 -17.671139 -22.163659 38.610535 0.593104 2.182217 0.015443 -0.008391 -6704.000000 0 0 1
-25.471759 -17.846439 -23.357259 38.895596 0.611153 2.214937 0.015792 0.002967 400710.000000 0 0 1
-26.055249 -18.895539 -24.123659 40.222733 0.627446 2.213987 0.013012 0.005854 -326712.000000 0 0 1
-25.329899 -19.106939 -25.491369 40.699985 0.646262 2.247625 0.028877 0.010153 531061.000000 0 0 1
-24.027919 -19.667839 -25.398909 40.115699 0.685945 2.256401 0.036227 -0.000164 203826.000000 0 0 1
-24.003419 -21.038639 -25.032259 40.563560 0.719670 2.235863 0.025526 0.004890 -288974.000000 0 0 1
-22.513019 -21.435239 -25.121829 39.967634 0.760879 2.250489 0.030226 0.007815 333309.000000 0 0 1
-21.916219 -21.447439 -26.376419 40.447852 0.774588 2.281160 0.044313 -0.003213 -485061.000000 0 0 1
-20.527819 -21.617639 -26.407699 39.825622 0.811251 2.295726 0.041299 0.002378 -87154.000000 0 0 1
-19.924719 -21.543339 -27.818849 40.435111 0.824411 2.329509 0.046347 0.000725 -220522.000000 0 0 1
-20.395319 -22.603539 -28.603839 41.774018 0.836708 2.325027 0.079904 -0.005514 -26241.000000 0 0 1
-20.563919 -22.259539 -29.965279 42.617834 0.824973 2.350566 0.068059 -0.012224 -90487.900000 0 0 1
-19.317419 -22.580639 -30.829529 42.819479 0.863126 2.374582 0.066697 -0.020411 181399.000000 0 0 1
-19.147419 -23.912339 -31.246659 43.758168 0.895608 2.366100 0.057549 -0.034505 -158526.000000 0 0 1
-18.279819 -23.962939 -32.364099 44.224531 0.919130 2.391775 0.053284 -0.033326 -117440.000000 0 0 1
-17.805819 -25.363339 -32.834279 45.149042 0.958709 2.385091 0.049509 -0.025534 -311226.000000 0 0 1
-17.266319 -25.428199 -34.127412 45.928197 0.974288 2.408428 0.035029 -0.025997 -226159.000000 0 0 1
-18.082019 -25.048579 34.035364 45.965168 0.945538 0.737042 0.044337 -0.022969 -541955.000000 0 0 1
-17.299519 -25.064839 32.713079 44.695246 0.966684 0.749670 0.040181 -0.015845 -135437.000000 0 0 1
-16.541319 -23.877539 32.433109 43.539162 0.964948 0.730384 0.029639 -0.012115 43799.200000 0 0 1
-16.028019 -23.929239 31.093399 42.382842 0.980621 0.747145 0.030166 -0.007720 395431.000000 0 0 1
-15.147619 -22.668439 30.737179 41.086283 0.981716 0.725583 0.007110 0.000958 6286.450000 0 0 1
-15.920119 -21.513339 30.565509 40.626645 0.933719 0.719172 0.012297 -0.000501 -58681.000000 0 0 1
-15.186519 -20.311739 30.279009 39.497031 0.928787 0.697244 0.011563 -0.001381 -990.494000 0 0 1
-14.726219 -19.505939 31.547429 39.907185 0.924128 0.659139 0.008994 -0.006144 111477.000000 0 0 1
-14.240419 -18.206339 31.308869 38.916649 0.907023 0.635945 0.014199 -0.005636 -57319.900000 0 0 1
-13.740919 -17.706539 32.543879 39.515041 0.910839 0.603099 0.012466 -0.008312 -105950.000000 0 0 1
-13.213919 -16.294439 32.428719 38.623027 0.889416 0.574211 0.018959 -0.009025 360816.000000 0 0 1
-12.075019 -16.183039 31.551169 37.458952 0.929762 0.569285 0.025484 -0.014374 530810.000000 0 0 1
-11.822019 -14.848139 31.248049 36.560469 0.898380 0.545833 0.025189 -0.019121 -877788.000000 0 0 1
-10.366419 -14.690839 30.877409 35.730908 0.956296 0.527307 0.034346 -0.026117 -870720.000000 0 0 1
-10.029319 -13.358239 30.659409 34.914598 0.926786 0.498866 0.045294 -0.027199 838488.000000 0 0 1
-8.594319 -13.290839 30.841269 34.665438 0.996790 0.474145 0.040846 -0.020229 1070370.000000 0 0 1
-8.266619 -11.796439 30.656879 33.872366 0.959552 0.439251 0.043067 -0.018699 -155500.000000 0 0 1
-8.966819 -10.988439 31.599969 34.636796 0.886361 0.421873 0.033845 -0.017148 89866.600000 0 0 1
-8.583419 -9.642039 31.532829 34.072912 0.843418 0.388571 0.023883 -0.012317 9749.600000 0 0 1
-9.365419 -8.650439 32.451049 34.865624 0.745733 0.374348 0.002485 -0.010189 368610.000000 0 0 1
-10.609419 -8.155039 32.010039 34.694481 0.655337 0.395961 0.010403 -0.013454 450842.000000 0 0 1
-11.604219 -7.799239 32.969569 35.811709 0.591757 0.401088 0.010986 -0.014427 238310.000000 0 0 1
-11.530619 -6.370739 33.570197 36.062440 0.504765 0.373952 0.008724 -0.009043 -355836.000000 0 0 1
-11.626719 -5.380239 32.545959 34.976664 0.433404 0.375007 0.013944 -0.010976 247596.000000 0 0 1
-11.728819 -4.112339 33.128059 35.382832 0.337226 0.358925 0.009089 -0.013825 -245190.000000 0 0 1
-11.328519 -2.971439 32.131989 34.199847 0.256519 0.349523 0.004373 -0.000282 1227240.000000 0 0 1
-9.888319 -2.849039 32.085689 33.695509 0.280524 0.310357 0.010461 -0.008954 999439.000000 0 0 1
-9.454319 -1.847139 31.246659 32.697856 0.192945 0.299046 0.009460 -0.010387 -921.875000 0 0 1
-8.004219 -1.362839 31.477659 32.507966 0.168648 0.252439 0.008325 -0.006359 32749.900000 0 0 1
-7.696819 -0.913339 32.785099 33.688840 0.118112 0.232150 0.017516 -0.017519 -354959.000000 0 0 1
-6.419819 -0.340839 32.761169 33.385992 0.053042 0.193772 0.018962 -0.021057 -465872.000000 0 0 1
-6.154719 0.476561 34.042655 34.597833 -0.077276 0.179386 0.031053 -0.025761 -106512.000000 0 0 1
-6.882819 1.686061 34.175983 34.902920 -0.240236 0.204451 0.033768 -0.021110 112410.000000 0 0 1
-6.399419 2.675461 33.270223 33.985562 -0.395994 0.205536 0.037752 -0.019417 -111205.000000 0 0 1
-7.163819 4.001261 33.411505 34.404346 -0.509374 0.240823 0.049075 -0.005966 206532.000000 0 0 1
-8.466519 3.931861 32.847989 34.148673 -0.434765 0.276887 0.019724 0.008759 532017.000000 0 0 1
-9.162519 5.172261 33.121429 34.752455 -0.513909 0.307586 0.012899 0.015175 556592.000000 0 0 1
-10.557019 5.288861 32.442719 34.524668 -0.464432 0.349054 -0.013637 0.029647 309256.000000 0 0 1
-11.250319 6.486561 32.699109 35.183474 -0.523011 0.378044 -0.008920 0.027889 47176.300000 0 0 1
-12.572719 6.396761 32.207449 35.161223 -0.470648 0.412819 -0.022987 0.025525 -46681.700000 0 0 1
-13.312019 7.758661 32.384189 35.862827 -0.527700 0.444091 -0.014077 0.014892 29575.300000 0 0 1
-13.891119 7.932761 33.678161 37.284184 -0.518874 0.443436 -0.001651 0.008052 468801.000000 0 0 1
-14.687619 9.112461 33.848968 38.006785 -0.555298 0.472126 0.008790 0.001337 437375.000000 0 0 1
-15.266619 9.281861 -33.964889 38.377549 -0.546269 2.657333 0.015362 0.002111 446886.000000 0 0 1
-14.271319 9.561161 -33.004079 37.206929 -0.590277 2.661693 0.015057 -0.004948 186683.000000 0 0 1
-14.970019 10.041261 -31.874159 36.618170 -0.590830 2.626905 0.018593 -0.010848 -521101.000000 0 0 1
-14.148919 10.229461 -30.531749 35.171316 -0.625986 2.622131 0.023567 -0.014321 480782.000000 0 0 1
-13.245619 11.331261 -30.580629 35.199698 -0.707662 2.623520 0.033563 -0.018625 1758120.000000 0 0 1
-11.973119 10.955161 -31.263279 35.224476 -0.741030 2.662783 0.037673 -0.026315 1314000.000000 0 0 1
-11.168819 12.264261 -31.558839 35.652699 -0.832112 2.657664 0.035314 -0.024059 -601497.000000 0 0 1
-11.754119 13.085461 -32.497769 36.952585 -0.838945 2.645491 0.028434 -0.022453 -326863.000000 0 0 1
-11.091319 14.307261 -32.746899 37.417569 -0.911347 2.636593 0.024303 -0.029478 -283072.000000 0 0 1
-11.209219 15.397361 -31.659879 36.946897 -0.941527 2.600026 0.029253 -0.033247 1043690.000000 0 0 1
-12.594419 15.806661 -31.593109 37.504592 -0.898022 2.572480 0.027441 -0.031467 1239480.000000 0 0 1
-12.662419 16.913961 -30.716419 37.281595 -0.928168 2.539060 0.014006 -0.025945 -225700.000000 0 0 1
-13.974219 17.686061 -30.891769 38.241037 -0.902105 2.511236 0.002905 -0.033498 -398778.000000 0 0 1
-14.244719 18.276561 -32.157649 39.636587 -0.908744 2.517190 0.008025 -0.034188 563349.000000 0 0 1
-15.545319 18.870161 -32.212049 40.439535 -0.881708 2.492361 -0.002540 -0.030541 515025.000000 0 0 1
-15.757019 20.293461 -31.461209 40.619156 -0.910576 2.456786 -0.017987 -0.029477 -399446.000000 0 0 1
-15.136319 21.447461 -32.025149 41.409080 -0.956229 2.454959 -0.006195 -0.029483 408058.000000 0 0 1
-15.628619 22.672861 -31.390329 41.757216 -0.967281 2.421484 -0.016824 -0.013766 -260794.000000 0 0 1
-16.984019 23.213161 -31.829579 42.900231 -0.939140 2.406762 -0.010138 -0.016565 -138557.000000 0 0 1
-18.076819 22.435861 -31.327359 42.562221 -0.892583 2.397993 -0.009819 -0.015505 465890.000000 0 0 1
-19.187519 22.527661 -32.210979 43.740182 -0.865298 2.398554 0.015039 -0.019158 -1299970.000000 0 0 1
-20.377119 21.732361 -31.746069 43.535450 -0.817571 2.387949 0.018915 -0.020979 -1153620.000000 0 0 1
-21.266319 22.421861 -30.870309 43.680340 -0.811842 2.355665 0.062119 -0.024648 1006400.000000 0 0 1
-22.162319 23.385061 -31.505249 45.062292 -0.812237 2.345003 0.050751 -0.017093 250712.000000 0 0 1
-23.450419 22.741461 -32.104349 45.801587 -0.770051 2.347517 0.054024 -0.025012 -138558.000000 0 0 1
-23.132519 21.909761 -33.202439 46.016877 -0.758258 2.376802 0.053546 -0.017231 -293808.000000 0 0 1
-24.318019 21.527861 -33.827689 46.894854 -0.724614 2.376549 0.072122 -0.016593 -309156.000000 0 0 1
-24.124619 20.448161 34.307749 46.659899 -0.703102 0.744727 0.067578 -0.005843 29671.900000 0 0 1
-23.899419 19.130361 -34.486559 46.113725 -0.675017 2.415627 0.071395 -0.013122 163435.000000 0 0 1
-23.607819 18.249561 33.721164 45.027686 -0.658078 0.724398 0.056175 -0.017431 -538157.000000 0 0 1
-23.487319 16.803661 34.306946 44.843993 -0.621010 0.699710 0.033115 -0.011581 -78995.700000 0 0 1
-24.605019 15.937961 34.537655 45.302044 -0.574794 0.703804 0.034722 -0.003380 221546.000000 0 0 1
-25.110759 15.495761 33.316018 44.504223 -0.552896 0.724843 0.039496 -0.001875 -769237.000000 0 0 1
-25.948389 14.213161 33.366234 44.594152 -0.501112 0.725421 0.017585 0.003819 -403662.000000 0 0 1
-27.269029 14.557961 33.730763 45.752580 -0.490371 0.741816 0.023668 0.000609 -237946.000000 0 0 1
-28.111319 13.420661 33.980488 46.098091 -0.445414 0.741976 0.013738 0.004063 69771.300000 0 0 1
-27.737479 12.392061 -34.203705 45.747397 -0.420158 2.415334 0.002339 -0.001976 -412197.000000 0 0 1
-26.650399 11.548261 -34.552527 45.138489 -0.408900 2.442580 -0.003068 -0.012857 118655.000000 0 0 1
-27.151009 10.203161 34.599816 45.148965 -0.359466 0.697659 -0.000640 0.000112 -313389.000000 0 0 1
-26.097229 9.095361 34.622510 44.300216 -0.335354 0.673661 -0.007083 -0.006779 689359.000000 0 0 1
-25.068379 8.881761 33.616874 42.864945 -0.340502 0.669308 -0.009963 -0.008055 984639.000000 0 0 1
-24.068319 9.878161 33.547777 42.453685 -0.389458 0.659627 -0.016129 -0.011462 -319486.000000 0 0 1
-22.826419 9.427361 32.750409 41.018408 -0.391665 0.646110 0.005534 -0.005945 -154469.000000 0 0 1
-23.129719 9.366261 31.353879 40.072141 -0.384762 0.672229 0.005241 -0.005591 606493.000000 0 0 1
-21.954419 9.076661 30.591289 38.732535 -0.392032 0.660299 0.011951 -0.002046 644712.000000 0 0 1
-22.249319 9.110361 29.057059 37.713970 -0.388641 0.691236 0.033144 -0.009633 -273501.000000 0 0 1
-22.388219 10.335061 28.395179 37.607606 -0.432483 0.715084 0.028844 -0.006844 262177.000000 0 0 1
-22.534519 10.143661 27.033329 36.626483 -0.422969 0.740574 0.024633 -0.011430 -1453940.000000 0 0 1
-22.786119 11.454861 26.223199 36.579738 -0.465815 0.771483 0.025219 -0.008178 310884.000000 0 0 1
-24.019319 12.142161 26.399199 37.699834 -0.468051 0.795053 0.031166 -0.004189 -268745.000000 0 0 1
-25.121539 11.512361 25.830129 37.826204 -0.429707 0.819121 0.030741 0.002326 -1332850.000000 0 0 1
-26.397999 12.271961 26.125829 39.115397 -0.435161 0.839390 0.024259 0.004107 -738982.000000 0 0 1
-26.450319 13.598361 25.674949 39.290429 -0.474871 0.858642 0.036077 0.001598 50554.400000 0 0 1
-27.655709 14.238661 26.065969 40.583401 -0.475460 0.873325 0.013340 0.002313 92263.100000 0 0 1
-27.719119 15.668161 25.412079 40.738367 -0.514474 0.897217 0.013253 0.001979 -408466.000000 0 0 1
-26.756099 16.554561 25.865329 40.730303 -0.554071 0.882737 0.023584 -0.003610 -326476.000000 0 0 1
-26.653499 17.722161 25.092239 40.670683 -0.586785 0.905921 0.020197 -0.009310 -160899.000000 0 0 1
-21.631419 -9.435239 32.490279 40.156696 0.411304 0.628199 0.024205 -0.018405 53452.600000 0 0 1
-20.857719 -8.767239 31.493559 38.778256 0.397913 0.622978 0.018916 -0.029531 537037.000000 0 0 1
-21.474719 -8.979239 30.220019 38.144984 0.396038 0.656324 0.016535 -0.027146 331601.000000 0 0 1
-20.468919 -8.597439 29.091509 36.595198 0.397648 0.651864 0.002942 -0.013466 -810679.000000 0 0 1
-20.121319 -7.238739 28.886369 35.940077 0.345338 0.637247 0.006674 -0.016877 -544743.000000 0 0 1
-18.871319 -6.981139 29.434449 35.654590 0.354322 0.599630 0.007943 -0.017878 -624933.000000 0 0 1
-17.607519 -7.477239 28.686409 34.479615 0.401584 0.588126 0.022963 -0.017830 -1152790.000000 0 0 1
-17.343619 -8.874839 28.722079 34.706220 0.472969 0.596018 0.017075 -0.016585 -89527.600000 0 0 1
-16.917019 -9.441439 29.930479 35.653329 0.509043 0.574459 0.022918 -0.017682 -271396.000000 0 0 1
-15.499119 -9.120039 30.500719 35.407508 0.531864 0.532738 0.027975 -0.017245 43954.900000 0 0 1
-14.486819 -9.764339 29.781469 34.527469 0.593073 0.530520 0.020669 -0.014509 -256986.000000 0 0 1
-13.182819 -9.463039 30.244779 34.323206 0.622593 0.492453 0.022345 -0.019024 591913.000000 0 0 1
-12.067919 -10.331239 29.598969 33.592680 0.708020 0.492584 0.026150 -0.019257 149102.000000 0 0 1
-11.764819 -9.954939 28.249309 32.179733 0.702261 0.499420 0.049445 -0.015046 246608.000000 0 0 1
-10.487919 -10.439239 27.863939 31.549536 0.783072 0.488196 0.057856 -0.008470 258603.000000 0 0 1
-10.092419 -10.147939 26.403069 30.032643 0.788141 0.496730 0.056863 -0.006076 231006.000000 0 0 1
-11.022919 -10.760739 25.509069 29.799511 0.773363 0.543270 0.050374 -0.010257 595981.000000 0 0 1
-10.544619 -10.770339 24.122959 28.444795 0.795988 0.558478 0.045190 -0.011930 645239.000000 0 0 1
-11.636219 -11.394839 23.187959 28.335938 0.774918 0.612309 0.040118 -0.009902 -243767.000000 0 0 1
-11.950119 -12.752439 23.445359 29.242348 0.817866 0.640561 0.057552 -0.005795 660796.000000 0 0 1
-13.165419 -13.235239 22.836759 29.496057 0.788043 0.685297 0.041834 0.001086 178561.000000 0 0 1
-14.399219 -12.761939 23.624759 30.468571 0.725191 0.683478 0.023843 0.006556 -1205800.000000 0 0 1
-15.558119 -13.362339 23.092959 30.885141 0.709619 0.726198 0.010134 0.011637 -949978.000000 0 0 1
-16.685219 -13.046439 23.825359 31.878736 0.663616 0.726695 -0.003497 0.017988 -1014080.000000 0 0 1
-17.907419 -13.810439 23.353259 32.508131 0.656940 0.769323 0.002066 0.015212 -749348.000000 0 0 1
-17.643519 -15.218439 23.455359 33.061284 0.711736 0.782078 0.007940 0.018044 -159608.000000 0 0 1
-18.774719 -16.033139 23.507459 34.090354 0.706797 0.809910 -0.009167 0.017892 -523057.000000 0 0 1
-19.441519 -16.096739 24.905539 35.459322 0.691557 0.792076 -0.010005 0.014090 -236325.000000 0 0 1
-18.803819 -16.871239 25.876859 36.163990 0.731279 0.773396 0.003564 0.010084 -179123.000000 0 0 1
-19.609619 -16.829339 26.996559 37.370817 0.709246 0.763534 0.002793 0.005618 -467266.000000 0 0 1
-18.981819 -17.581439 28.193999 38.266409 0.747117 0.742498 0.007438 0.005661 -137917.000000 0 0 1
-18.937919 -18.998439 28.033179 38.800059 0.786993 0.763380 0.016914 0.006230 91714.500000 0 0 1
-18.786519 -19.639239 29.277189 39.947300 0.807586 0.748228 0.019031 0.003569 -278987.000000 0 0 1
-18.768519 -21.172139 29.104729 40.590664 0.845505 0.771264 0.031207 0.007276 -641016.000000 0 0 1
-20.012319 -21.737639 28.841179 41.289605 0.826700 0.797484 0.025919 0.007164 -477407.000000 0 0 1
-19.823319 -23.077739 28.382209 41.606439 0.861112 0.820085 0.042417 0.006798 281496.000000 0 0 1
-21.212619 -23.619339 27.964919 42.307033 0.839030 0.848647 0.041509 0.012225 158671.000000 0 0 1
-22.061319 -23.924439 29.046639 43.620956 0.825891 0.842114 0.036836 0.015855 -123655.000000 0 0 1
-23.252719 -24.446539 28.500409 44.165547 0.810421 0.869369 0.018751 0.019863 319705.000000 0 0 1
-24.069319 -25.485119 29.410929 45.758345 0.813961 0.872721 0.000481 0.023775 397433.000000 0 0 1
-24.530519 -24.910839 30.623809 46.477026 0.793090 0.851438 -0.005439 0.029762 126306.000000 0 0 1
-25.190159 -25.952779 31.363639 47.872421 0.800309 0.856415 -0.018250 0.036541 9321.720000 0 0 1
-26.205469 -25.319669 32.356779 48.731647 0.768208 0.844669 0.005386 0.021763 165897.000000 0 0 1
-27.294629 -24.850039 31.578379 48.576900 0.738552 0.863120 -0.003931 0.022226 403528.000000 0 0 1
-28.425189 -24.513939 32.390909 49.579185 0.711650 0.858839 0.003323 0.002063 91811.700000 0 0 1
-29.601759 -23.911839 31.634429 49.485122 0.679470 0.877246 -0.006711 0.004726 -414208.000000 0 0 1
-30.111199 -24.748939 30.575919 49.538683 0.687963 0.905601 -0.009003 0.006386 187744.000000 0 0 1
-31.393679 -24.395239 30.129099 49.884400 0.660605 0.922313 -0.019594 0.005362 312516.000000 0 0 1
-32.607359 -25.109159 30.773189 51.387731 0.656207 0.928741 -0.021744 -0.001426 5682.370000 0 0 1
-32.534869 -26.528879 30.643389 51.974190 0.684060 0.940247 -0.013384 -0.004742 -812717.000000 0 0 1
-33.654169 -27.137809 31.161289 53.292492 0.678615 0.946259 -0.005947 -0.004060 -707017.000000 0 0 1
-33.543729 -28.709209 31.225599 54.078077 0.707894 0.955235 0.005024 -0.009249 18489.000000 0 0 1
-32.683659 -29.051369 32.299079 54.363904 0.726629 0.934616 0.000252 -0.008355 -364962.000000 0 0 1
-32.275819 -30.338259 32.139799 54.727554 0.754464 0.943116 -0.000736 -0.018292 -446919.000000 0 0 1
-31.301729 -30.676579 33.254506 55.015570 0.775312 0.921713 0.011764 -0.010343 -767001.000000 0 0 1
-31.827629 -30.615759 34.504837 56.043790 0.765993 0.907552 0.011147 -0.006223 -444364.000000 0 0 1
-30.898769 -31.033039 -33.771739 55.302023 0.787566 2.227713 0.002909 -0.013599 101538.000000 0 0 1
-31.403369 -30.835679 -32.312399 54.599467 0.776277 2.204096 0.006065 -0.020158 -389007.000000 0 0 1
-31.555379 -29.479089 -31.904459 53.690345 0.751393 2.207105 -0.005945 -0.004509 105172.000000 0 0 1
-30.334849 -28.830739 -31.531759 52.399107 0.759982 2.216501 0.011874 -0.010014 235405.000000 0 0 1
-30.403999 -27.286579 -31.482759 51.576396 0.731414 2.227375 -0.009424 -0.002526 -579952.000000 0 0 1
-31.265329 -26.805289 -30.513449 51.255389 0.708745 2.208462 -0.023794 -0.006270 -589991.000000 0 0 1
-31.181999 -25.413249 -30.358689 50.396431 0.683819 2.217298 -0.017301 0.011266 443948.000000 0 0 1
-29.972529 -24.813639 -29.549679 48.859520 0.691511 2.220297 -0.009632 0.003013 273480.000000 0 0 1
-29.897089 -23.414039 -29.577229 48.133830 0.664385 2.232522 -0.006929 0.004569 163400.000000 0 0 1
-28.727099 -22.921839 -28.940339 46.778201 0.673469 2.237847 0.019538 0.002068 153554.000000 0 0 1
-28.615859 -21.398939 -28.906539 45.960526 0.642092 2.250989 0.038498 -0.008049 -78130.000000 0 0 1
-28.346439 -20.781039 -30.135559 46.298208 0.632603 2.279567 0.044179 -0.003901 181743.000000 0 0 1
-28.088879 -19.400639 -29.948229 45.412182 0.604449 2.290917 0.042124 -0.013394 -164909.000000 0 0 1
-27.304319 -18.646439 -31.067309 45.369518 0.599165 2.325073 0.055934 -0.007173 151894.000000 0 0 1
-27.908699 -18.570139 -32.361029 46.593795 0.587117 2.338570 0.039623 -0.012161 -119393.000000 0 0 1
-28.853059 -17.526739 -32.336049 46.747253 0.545878 2.334666 0.036998 -0.015272 -828594.000000 0 0 1
-29.210119 -16.923739 -33.750219 47.735953 0.525119 2.356070 0.041590 -0.020500 50528.700000 0 0 1
-30.180859 -17.615739 -34.527503 49.125828 0.528328 2.350176 0.029332 -0.025047 953009.000000 0 0 1
-31.493139 -17.270039 -34.037789 49.483766 0.501594 2.329330 0.018777 -0.020549 577996.000000 0 0 1
-32.687849 -17.728839 34.330834 50.610408 0.496965 0.825302 0.012475 -0.021419 48203.100000 0 0 1
-32.925249 -19.108039 34.406730 51.312886 0.525843 0.835876 -0.011085 -0.016359 -113342.000000 0 0 1
-33.430329 -19.599339 33.202576 51.030697 0.530266 0.862370 -0.008583 -0.012897 -447658.000000 0 0 1
-33.947259 -21.025039 33.325709 52.010302 0.554522 0.875319 -0.012042 -0.017360 -593345.000000 0 0 1
-32.899589 -21.908539 33.513899 51.822278 0.587486 0.867535 -0.005665 -0.018483 -487233.000000 0 0 1
-33.282549 -23.080339 34.213483 53.018794 0.606328 0.869369 -0.010827 -0.019470 -865455.000000 0 0 1
-32.146299 -24.104039 34.494982 52.955576 0.643388 0.861375 -0.006755 -0.007442 119877.000000 0 0 1
-31.237909 -23.813239 -33.745109 51.784261 0.651339 2.280551 -0.021471 -0.012523 -117801.000000 0 0 1
-30.389279 -22.702739 -33.971399 50.921298 0.641619 2.301153 -0.017935 -0.010830 -634125.000000 0 0 1
-29.039859 -22.776539 -33.175839 49.625804 0.665107 2.303013 -0.000956 -0.005246 115169.000000 0 0 1
-28.394169 -23.975239 -33.548459 50.065357 0.701218 2.305131 0.000066 -0.003650 790858.000000 0 0 1
-27.052819 -24.095739 -33.021289 49.019028 0.727649 2.309922 0.020575 -0.007590 760389.000000 0 0 1
-26.789209 -24.683139 -31.579219 48.209606 0.744504 2.285032 0.025536 0.000249 -728998.000000 0 0 1
-27.032459 -26.006759 -31.238959 48.815754 0.766062 2.265211 0.024182 -0.008609 -177576.000000 0 0 1
-26.609499 -26.266349 -29.919379 47.886906 0.778909 2.245662 0.017341 -0.015376 -436641.000000 0 0 1
-26.193819 -27.740809 -29.806419 48.415816 0.814073 2.233986 0.025271 -0.018184 325833.000000 0 0 1
-27.146089 -28.756339 -30.176799 49.744109 0.814195 2.222624 0.008870 -0.002023 478485.000000 0 0 1
-26.612669 -30.016879 -29.806829 49.976937 0.845440 2.209820 0.009139 -0.009659 -181277.000000 0 0 1
-27.503059 -31.191909 -30.167019 51.375115 0.848163 2.198381 0.010255 -0.002202 -376241.000000 0 0 1
-27.413809 -31.416969 -31.571369 52.300040 0.853339 2.218879 0.032842 -0.016605 338859.000000 0 0 1
-27.806829 -32.708859 -32.012829 53.552875 0.866226 2.211525 0.048655 -0.005312 -438331.000000 0 0 1
-27.337459 -32.926849 -33.471279 54.330843 0.877882 2.234532 0.018022 -0.023087 -804947.000000 0 0 1
-26.027119 -33.401399 -33.416739 53.942032 0.908854 2.238894 0.031577 -0.018362 -802412.000000 0 0 1
-25.600059 -33.703589 34.565223 54.644758 0.921202 0.885963 0.033661 -0.022323 -335903.000000 0 0 1
-24.127519 -34.090394 34.347562 54.074459 0.954887 0.882542 0.037174 -0.023238 -112764.000000 0 0 1
-23.755119 -34.477877 33.055329 53.344957 0.967494 0.902497 0.035535 -0.009267 -306959.000000 0 0 1
-22.764319 33.893229 33.132829 52.580886 -0.979353 0.889075 0.026668 -0.002607 -314680.000000 0 0 1
-22.759319 32.945857 31.899999 51.195957 -0.966265 0.898101 0.036131 0.001281 -69708.700000 0 0 1
-24.006619 32.362287 31.605609 51.210838 -0.932558 0.905660 0.023886 -0.020038 -16347.900000 0 0 1
-23.804819 31.614797 30.430309 49.921623 -0.925401 0.915289 0.023116 -0.007957 388547.000000 0 0 1
-25.205709 31.115777 30.005029 50.038196 -0.889950 0.927742 0.026474 -0.011029 98323.800000 0 0 1
-25.759069 30.207347 30.882129 50.296315 -0.864713 0.909673 0.028603 -0.012723 685706.000000 0 0 1
-27.013259 29.677347 30.380659 50.333344 -0.832357 0.922801 0.024426 -0.018828 1263430.000000 0 0 1
-27.562869 28.516077 31.248389 50.490991 -0.802394 0.903467 0.041379 -0.024949 361616.000000 0 0 1
-26.524679 27.529867 31.332059 49.428232 -0.803992 0.884224 0.042062 -0.015997 434056.000000 0 0 1
-26.821869 26.256177 31.883159 49.247693 -0.774741 0.866623 0.035808 -0.015954 543230.000000 0 0 1
-27.793369 25.268777 31.081439 48.754880 -0.737856 0.879542 0.032888 -0.017476 887049.000000 0 0 1
-27.250559 24.816587 29.863469 47.437145 -0.738685 0.889838 0.031980 -0.009528 -769074.000000 0 0 1
-28.190219 24.173827 29.086859 47.171047 -0.708847 0.906348 0.024760 0.006336 -299723.000000 0 0 1
-27.641539 23.806727 27.672329 45.788347 -0.710999 0.921843 0.040967 -0.007689 -212653.000000 0 0 1
-26.439949 23.091627 27.800679 44.779146 -0.717901 0.900983 0.047750 -0.009951 -343332.000000 0 0 1
-25.906039 22.752527 26.555639 43.520137 -0.720680 0.914493 0.025286 -0.000720 -851146.000000 0 0 1
-24.560719 22.074127 26.504899 42.343898 -0.732128 0.894455 0.020906 -0.004106 -957001.000000 0 0 1
-24.616419 20.744827 27.035779 42.038664 -0.700254 0.872235 0.048799 -0.016197 561855.000000 0 0 1
-23.371919 20.328927 27.582779 41.476759 -0.715878 0.843279 0.036184 -0.000701 148544.000000 0 0 1
-23.514219 18.997027 28.322249 41.424091 -0.679537 0.817956 0.052325 -0.003354 -110088.000000 0 0 1
-22.318519 18.372327 28.750229 40.770508 -0.688721 0.788130 0.031826 0.001687 22881.600000 0 0 1
-22.526419 17.216327 29.518129 40.928736 -0.652573 0.765252 0.037638 0.007018 345194.000000 0 0 1
-21.241519 16.340727 29.710409 40.011622 -0.655728 0.733935 0.032653 -0.001073 48976.500000 0 0 1
-20.272219 16.842027 30.557309 40.353016 -0.693237 0.711705 0.044980 0.000574 -139935.000000 0 0 1
-19.140519 15.964127 30.564229 39.438368 -0.695160 0.684102 0.017576 -0.003025 198617.000000 0 0 1
-18.074419 16.322527 31.582899 39.882189 -0.734511 0.656874 0.000565 -0.015532 -230293.000000 0 0 1
-18.516219 16.202027 32.944339 41.117946 -0.718840 0.641472 -0.001841 -0.019282 771195.000000 0 0 1
-17.472219 16.769727 33.756810 41.545450 -0.764886 0.622322 -0.002738 -0.019988 -233823.000000 0 0 1
-17.560919 16.493827 -34.011709 41.680073 -0.754074 2.525285 0.000729 -0.030101 -748025.000000 0 0 1
-18.486819 17.175327 -33.268279 41.755631 -0.748639 2.492674 0.010942 -0.029761 -355980.000000 0 0 1
-19.814519 16.705827 -33.478539 42.338072 -0.700481 2.482818 0.021895 -0.023179 -486836.000000 0 0 1
-20.807319 17.578527 -32.682959 42.545563 -0.701482 2.446801 0.043796 -0.028405 -324786.000000 0 0 1
-20.734119 17.394627 -31.311619 41.387126 -0.698036 2.428824 0.041264 -0.029557 66052.500000 0 0 1
-21.649519 18.270227 -30.708809 41.779586 -0.700947 2.396492 0.045286 -0.030033 -540807.000000 0 0 1
-21.976019 18.044827 -29.184339 40.746617 -0.687484 2.369195 0.044511 -0.039290 266224.000000 0 0 1
-22.670119 16.873427 -28.719689 40.292274 -0.639845 2.364256 0.026024 -0.032882 391051.000000 0 0 1
-23.917619 16.634027 -29.365579 41.365209 -0.607680 2.360167 0.035389 -0.035872 564335.000000 0 0 1
-24.852719 15.584727 -28.613269 40.978781 -0.560096 2.343741 0.031091 -0.029542 598886.000000 0 0 1
-24.445719 14.271027 -28.926769 40.472377 -0.528411 2.367032 0.001262 -0.022921 218234.000000 0 0 1
-25.334059 13.422927 -28.210249 40.221979 -0.487231 2.348106 -0.021938 -0.009097 -53664.300000 0 0 1
-24.991019 11.933827 -28.264679 39.570940 -0.445506 2.366389 -0.006966 -0.012644 -229613.000000 0 0 1
-23.890019 11.581027 -27.462309 38.197272 -0.451385 2.373101 -0.014089 -0.006981 -250133.000000 0 0 1
-23.278319 10.432727 -28.071919 37.930918 -0.421334 2.403986 -0.024571 0.003937 -199443.000000 0 0 1
-22.150719 9.828027 -27.236179 36.456191 -0.417593 2.414475 -0.000511 0.007267 -140441.000000 0 0 1
-22.564519 8.926727 -26.238499 35.739373 -0.376715 2.395228 -0.019885 0.014754 -309242.000000 0 0 1
-21.403019 8.347527 -25.708419 34.477430 -0.371870 2.412320 0.009138 0.024989 -130940.000000 0 0 1
-21.666119 7.230627 -24.684559 33.630791 -0.322107 2.394970 0.011420 0.029243 47380.700000 0 0 1
-22.334119 6.102627 -25.240419 34.251039 -0.266731 2.399305 0.008402 0.017362 229266.000000 0 0 1
-22.256419 4.909327 -24.469459 33.439559 -0.217104 2.391685 0.017458 0.028110 -412453.000000 0 0 1
33.269511 25.591061 -10.532959 43.274773 0.655679 1.816663 -0.021953 0.004429 -415234.000000 0 0 1
34.400719 25.113461 -9.879859 43.723072 0.630596 1.798729 -0.017706 0.006254 -215120.000000 0 0 1
-34.924632 23.966461 -10.539659 43.648661 -0.601427 1.814672 -0.005195 0.004446 -15009.200000 0 0 1
-33.818579 23.212061 -9.794759 42.171476 -0.601520 1.805197 0.003715 -0.001809 -273474.000000 0 0 1
-34.291334 22.456161 -8.661659 41.895096 -0.579787 1.779045 -0.026410 0.004747 -72751.300000 0 0 1
-33.221819 21.684161 -8.171759 40.505181 -0.578277 1.773937 -0.019867 0.011999 -500051.000000 0 0 1
-33.534289 20.853261 -6.923959 40.091748 -0.556330 1.744369 -0.037669 0.022756 -247116.000000 0 0 1
-34.153644 19.626661 -7.138259 40.032886 -0.521577 1.750065 -0.037180 0.013232 199307.000000 0 0 1
-34.494924 18.942461 -5.974659 39.804688 -0.502181 1.721465 -0.026381 -0.001209 -105905.000000 0 0 1
34.641374 17.591361 -6.245859 39.350877 0.469879 1.730193 -0.022520 0.016156 133958.000000 0 0 1
33.394561 17.782961 -6.881859 38.455044 0.489317 1.750724 -0.009383 0.004207 30930.500000 0 0 1
32.862671 16.589761 -7.445559 37.558111 0.467497 1.770359 0.009065 0.009108 142977.000000 0 0 1
31.898641 16.983661 -8.586459 37.144250 0.489251 1.804071 0.001741 -0.001104 -59153.800000 0 0 1
31.511521 15.891861 -9.356359 36.511213 0.467097 1.829947 0.017611 -0.005878 182679.000000 0 0 1
30.904261 16.313361 -10.596559 36.516930 0.485692 1.865213 0.033569 -0.005554 -328620.000000 0 0 1
30.242251 15.168861 -11.404559 35.703670 0.464910 1.895916 0.026984 0.004365 306506.000000 0 0 1
28.978281 14.649761 -10.998759 34.283071 0.468072 1.897393 0.019284 0.015016 690491.000000 0 0 1
28.913691 14.064361 -9.693259 33.582243 0.452729 1.863605 0.016111 0.009720 -1041260.000000 0 0 1
27.756941 13.091461 -9.479559 32.120028 0.440709 1.870387 0.003192 0.019178 -280403.000000 0 0 1
27.981881 11.878161 -10.135059 32.043655 0.401443 1.892612 0.002693 0.016392 529087.000000 0 0 1
27.016271 10.966461 -9.674559 30.720340 0.385600 1.891172 0.008843 0.013449 -323578.000000 0 0 1
27.373441 9.586561 -10.157859 30.730921 0.336865 1.907674 0.000946 0.011011 872892.000000 0 0 1
28.483941 9.038461 -9.369659 31.318033 0.307268 1.874627 0.002945 0.015424 1350670.000000 0 0 1
28.499361 7.664761 -9.452959 30.989040 0.262728 1.880779 -0.002111 0.015546 -470620.000000 0 0 1
29.620811 7.070461 -8.551959 31.630995 0.234315 1.844570 0.014738 0.014291 492466.000000 0 0 1
30.900881 7.399861 -9.094759 33.050522 0.235045 1.849571 0.015793 0.012356 -546275.000000 0 0 1
31.897501 6.924761 -8.278459 33.673963 0.213777 1.819184 0.029154 0.002075 46949.400000 0 0 1
33.333521 7.304061 -8.808759 35.242973 0.215711 1.823418 0.020694 0.006166 456750.000000 0 0 1
33.646991 6.532461 -9.883259 35.671724 0.191761 1.851531 0.009790 0.008821 -174202.000000 0 0 1
-34.889532 6.797961 -10.228959 36.988151 -0.192431 1.850995 0.010166 0.005556 -686564.000000 0 0 1
-34.415644 5.743661 -11.310659 36.679111 -0.165367 1.884273 0.002692 0.015590 297435.000000 0 0 1
-33.074699 5.779161 -11.792259 35.586399 -0.172984 1.908551 0.006207 0.014256 828499.000000 0 0 1
-32.582389 6.848461 -12.568359 35.587598 -0.207173 1.931750 -0.004950 0.013269 88552.500000 0 0 1
-31.711069 7.891261 -11.803559 34.744609 -0.243895 1.917419 -0.004194 0.022077 -416742.000000 0 0 1
-32.552489 8.737661 -11.056859 35.472036 -0.262236 1.887785 0.005371 0.018134 308807.000000 0 0 1
-32.930719 9.956161 -11.708559 36.340717 -0.293599 1.898837 0.002787 0.017207 123430.000000 0 0 1
-33.816079 10.778561 -10.703159 37.071042 -0.308560 1.863686 0.013772 0.010854 214297.000000 0 0 1
-33.087389 11.265761 -9.610259 36.249824 -0.328173 1.839116 0.007106 0.007415 -183623.000000 0 0 1
-33.946059 11.944561 -8.734759 37.031115 -0.338339 1.808916 0.018154 0.007194 -546367.000000 0 0 1
-33.270989 12.830961 -7.650859 36.470919 -0.368075 1.782146 0.012712 0.011791 -232962.000000 0 0 1
-32.788799 13.991161 -8.306259 36.603987 -0.403314 1.799713 0.000311 0.006969 -51587.600000 0 0 1
-32.132709 14.821561 -7.360859 36.143767 -0.432179 1.775886 -0.006524 0.010710 307652.000000 0 0 1
-31.048479 15.726461 -8.003759 35.712600 -0.468844 1.796832 -0.014493 0.012646 116492.000000 0 0 1
-31.645359 16.655061 -8.915559 36.855216 -0.484468 1.815128 -0.011518 0.007649 224954.000000 0 0 1
-30.773489 17.717161 -9.318259 36.711515 -0.522381 1.827428 -0.003064 0.011337 171719.000000 0 0 1
-31.400859 18.759961 -10.298959 38.000245 -0.538531 1.845252 -0.014415 0.002564 187227.000000 0 0 1
-31.190549 18.404961 -11.626959 38.036549 -0.533094 1.881447 -0.012811 0.003644 -236779.000000 0 0 1
-32.203469 18.983261 -12.381459 39.379285 -0.532647 1.890637 -0.015357 -0.000684 -728072.000000 0 0 1
-31.787959 19.109761 -13.887659 39.604600 -0.541275 1.929070 -0.008395 0.006436 286782.000000 0 0 1
-30.831009 20.139061 -14.123559 39.441194 -0.578627 1.937019 -0.004087 -0.001445 326887.000000 0 0 1
-30.629999 20.389861 -15.518759 39.934636 -0.587321 1.969912 -0.008685 -0.000418 -292472.000000 0 0 1
-29.857759 21.689761 -15.843559 40.161547 -0.628249 1.976315 0.004381 -0.013870 -117028.000000 0 0 1
-28.561609 21.532861 -15.284359 38.897831 -0.645998 1.974619 0.006157 -0.012721 447329.000000 0 0 1
-27.788759 22.719461 -15.031959 38.914635 -0.685367 1.967392 0.015434 -0.013532 225006.000000 0 0 1
-27.144909 23.426461 -16.255259 39.368497 -0.712002 1.996432 0.000972 -0.021948 -781229.000000 0 0 1
-28.016959 24.065161 -17.215959 40.748880 -0.709667 2.006986 0.015045 -0.012697 618867.000000 0 0 1
-27.249729 24.611861 -18.292359 41.023186 -0.734578 2.032979 0.004674 -0.011327 142443.000000 0 0 1
-26.437929 25.861661 -18.068459 41.161375 -0.774380 2.025244 0.000007 -0.004581 202800.000000 0 0 1
-27.267719 26.999361 -17.791359 42.296884 -0.780453 2.004936 0.006534 -0.005818 810702.000000 0 0 1
-26.430759 28.175561 -17.716959 42.501034 -0.817340 2.000784 0.007361 -0.002198 602796.000000 0 0 1
-27.197509 29.464661 -17.279559 43.662958 -0.825389 1.977679 0.004126 -0.001565 -81087.500000 0 0 1
-27.571329 29.532261 -15.879959 43.410894 -0.819725 1.945295 0.004547 -0.010733 215507.000000 0 0 1
-26.555239 29.546461 -14.909759 42.432004 -0.838666 1.929841 -0.004613 0.000010 -218823.000000 0 0 1
-27.128099 30.177661 -13.581259 42.791069 -0.838564 1.893767 -0.009787 0.007517 21964.900000 0 0 1
-26.870129 31.575961 -13.576459 43.627576 -0.865741 1.887241 -0.001811 0.011797 336590.000000 0 0 1
-27.308779 32.316561 -12.408859 44.092055 -0.869189 1.856081 -0.019047 0.014301 192965.000000 0 0 1
-26.567439 33.669861 -12.282759 44.613389 -0.902764 1.849714 -0.032497 0.015342 43609.100000 0 0 1
-27.022199 34.558161 -13.267259 45.831058 -0.907169 1.864482 -0.038247 0.001234 -29481.600000 0 0 1
-26.242989 -33.649705 -13.380259 44.721677 0.908440 1.874640 -0.015299 0.009131 -67328.300000 0 0 1
-26.488299 -33.007205 -14.781459 44.828530 0.894533 1.906817 -0.015375 0.002033 79159.200000 0 0 1
-25.861439 -33.740205 -15.848359 45.369438 0.916827 1.927639 -0.012925 -0.002131 -1678.060000 0 0 1
-26.149549 -32.995905 -17.047659 45.421925 0.900640 1.955536 -0.004761 0.007506 -153106.000000 0 0 1
-25.261059 -33.276105 -18.272159 45.599255 0.921474 1.983090 -0.005296 0.000556 -310223.000000 0 0 1
-25.493739 -34.479505 -18.941659 46.878070 0.934121 1.986750 -0.002858 0.007010 -206155.000000 0 0 1
-25.042319 33.763961 -18.261259 45.832263 -0.932636 1.980608 -0.025482 0.001130 -773273.000000 0 0 1
-25.059819 32.459861 -19.045559 45.214714 -0.913348 2.005592 -0.023452 -0.008674 553873.000000 0 0 1
-26.362339 31.905861 -19.257959 45.648941 -0.880251 2.006304 -0.001151 0.002826 207722.000000 0 0 1
-27.041159 32.494761 -20.320559 46.904785 -0.876745 2.018870 0.008915 0.002931 -141876.000000 0 0 1
-28.562299 32.179861 -20.347759 47.596005 -0.844884 2.012533 0.010850 -0.005951 246205.000000 0 0 1
-28.874379 30.855461 -20.671459 47.043580 -0.818553 2.025739 0.006430 -0.002307 -278382.000000 0 0 1
-30.245229 30.596261 -20.552759 47.679356 -0.791168 2.016466 0.012074 -0.005361 -391969.000000 0 0 1
-30.588949 29.254661 -21.233359 47.353717 -0.763106 2.035770 0.012849 -0.008724 387170.000000 0 0 1
-31.972979 28.927261 -21.394559 48.132992 -0.735428 2.031399 0.016944 -0.014384 623223.000000 0 0 1
-32.129179 27.767061 -22.230659 47.932202 -0.712699 2.053069 0.017355 -0.010808 226502.000000 0 0 1
-33.556229 27.154661 -22.376959 48.622262 -0.680343 2.049040 0.016605 -0.011040 484748.000000 0 0 1
-34.394096 27.921661 -23.228359 50.021292 -0.681904 2.053719 0.004205 -0.004297 -344678.000000 0 0 1
34.561168 27.060161 -23.848859 49.954927 0.664267 2.068498 0.009704 -0.010277 81233.000000 0 0 1
33.683191 27.761561 -24.893259 50.248741 0.689322 2.089092 0.012686 -0.011949 476636.000000 0 0 1
34.457776 27.981961 -26.077199 51.481538 0.682055 2.101958 0.008936 -0.007492 80417.200000 0 0 1
33.574091 28.016561 -27.156269 51.474365 0.695409 2.126532 0.024549 -0.008380 -299542.000000 0 0 1
34.277919 28.352061 -28.438929 52.797611 0.691062 2.139619 0.015781 -0.006089 -239769.000000 0 0 1
-34.914818 27.264261 -29.007369 52.951033 -0.662973 2.150547 -0.000354 0.001148 -22283.500000 0 0 1
-34.308359 27.558761 -30.265619 53.409329 -0.676730 2.173259 -0.016029 0.003753 -832787.000000 0 0 1
-33.974889 26.218061 -31.037719 52.962437 -0.657238 2.196950 -0.021230 0.001845 27381.100000 0 0 1
-32.922089 25.423761 -30.578919 51.626561 -0.657584 2.204719 -0.013563 -0.001339 -1226860.000000 0 0 1
-31.661349 25.982861 -30.712129 51.193602 -0.687206 2.214199 -0.022898 0.005542 -927555.000000 0 0 1
-30.751779 25.279261 -29.624939 49.622071 -0.688038 2.210567 -0.026990 0.006825 -160443.000000 0 0 1
-30.379729 23.904961 -29.863989 48.849083 -0.666685 2.228564 -0.012868 0.001781 384575.000000 0 0 1
-31.363009 23.077661 -29.263299 48.708905 -0.634367 2.215272 -0.027440 0.003781 92156.000000 0 0 1
-31.332859 21.677461 -29.816819 48.380813 -0.605231 2.234825 -0.039357 -0.004260 -205699.000000 0 0 1
-30.192729 20.932761 -29.424149 47.069756 -0.606218 2.246079 0.026777 -0.010045 120347.000000 0 0 1
-30.034959 19.795461 -30.261979 47.007940 -0.582732 2.270202 0.007947 -0.010779 -213257.000000 0 0 1
-28.593509 19.282961 -30.403539 45.976043 -0.593325 2.293335 0.035856 -0.021093 -733421.000000 0 0 1
-27.764399 20.081461 -31.229699 46.361849 -0.626180 2.309876 0.044473 -0.021244 1263410.000000 0 0 1
-26.392259 19.622761 -31.324149 45.418128 -0.639331 2.331849 0.050440 -0.026458 1210210.000000 0 0 1
-26.173159 18.222561 -32.023319 45.195010 -0.608192 2.358250 0.041271 -0.016916 -712582.000000 0 0 1
-26.502449 16.999661 -31.299849 44.396495 -0.570332 2.353230 0.017045 -0.021863 -27523.900000 0 0 1
-26.351579 15.830061 -32.133079 44.469442 -0.540953 2.378335 -0.001870 -0.010497 -43859.800000 0 0 1
-26.911439 14.532161 -31.457549 43.874669 -0.495133 2.370266 -0.005372 -0.012817 897302.000000 0 0 1
-28.347379 14.475461 -31.350559 44.676284 -0.472128 2.348615 -0.005801 -0.014884 1027980.000000 0 0 1
-28.934039 13.180361 -31.100109 44.476030 -0.427444 2.345152 -0.014590 -0.011418 -109525.000000 0 0 1
-28.579539 12.310961 -29.861079 43.128109 -0.406740 2.335580 -0.025149 -0.020178 -593120.000000 0 0 1
-29.111709 12.871861 -28.688479 42.850965 -0.416310 2.304324 -0.024214 -0.017786 268330.000000 0 0 1
-29.090059 11.861361 -27.687159 41.874839 -0.387166 2.293198 -0.020345 -0.013205 -112729.000000 0 0 1
-28.936059 12.435661 -26.315269 41.041863 -0.405898 2.266833 -0.023393 -0.008163 798244.000000 0 0 1
-27.596929 12.916161 -26.088589 40.112743 -0.437745 2.278883 -0.021245 -0.016938 478412.000000 0 0 1
-27.401969 13.512661 -24.845459 39.379649 -0.458134 2.253536 -0.019026 -0.012560 -64299.700000 0 0 1
-25.951199 13.912861 -24.510859 38.312069 -0.492122 2.264993 -0.003279 -0.009800 -547573.000000 0 0 1
-25.381499 14.890561 -25.359159 38.846315 -0.530560 2.282081 0.009518 -0.013003 836444.000000 0 0 1
-23.985619 15.148761 -25.094719 37.875319 -0.563315 2.295029 0.016411 -0.016307 1059180.000000 0 0 1
-23.653419 15.797761 -23.706259 37.027560 -0.588846 2.265598 0.018981 -0.009528 -1189790.000000 0 0 1
-24.183519 17.113861 -23.534659 37.836583 -0.615853 2.242101 0.032888 -0.010048 79600.300000 0 0 1
-24.350519 17.584861 -22.194659 37.346726 -0.625441 2.207175 0.030894 -0.010755 898548.000000 0 0 1
-25.839729 17.467961 -21.692359 37.991837 -0.594444 2.178488 0.030533 -0.004629 788698.000000 0 0 1
-26.429309 16.160161 -21.639659 37.788014 -0.548795 2.180542 0.022114 0.000187 1284820.000000 0 0 1
-27.651639 16.216261 -20.850359 38.240263 -0.530396 2.147479 0.012897 0.009450 1252020.000000 0 0 1
-28.707759 15.027861 -21.071759 38.652180 -0.482253 2.147380 -0.024094 0.004582 656614.000000 0 0 1
-29.336919 14.950161 -22.307659 39.771771 -0.471300 2.166259 -0.018517 0.006704 106498.000000 0 0 1
-30.304249 15.940561 -22.566859 41.008683 -0.484244 2.153513 -0.037471 0.015969 -533192.000000 0 0 1
-30.795339 15.928461 -24.035259 42.187231 -0.477341 2.176972 -0.040400 0.012403 -240098.000000 0 0 1
-31.606269 14.828461 -24.371059 42.576848 -0.438674 2.180228 -0.035960 0.015769 29629.400000 0 0 1
-32.186359 15.044761 -25.624949 43.805759 -0.437251 2.195636 -0.029671 0.010314 382212.000000 0 0 1
-33.334019 14.179961 -26.236119 44.727643 -0.402201 2.197620 -0.034214 0.006619 156600.000000 0 0 1
-32.939499 12.816161 -26.358289 44.091087 -0.371059 2.211568 -0.037138 0.004621 164445.000000 0 0 1
-32.802659 12.018161 -25.270099 43.116453 -0.351190 2.197020 -0.037842 0.000104 -289487.000000 0 0 1
-32.822919 10.539561 -25.616599 42.949231 -0.310704 2.209854 -0.036822 -0.008532 -1281390.000000 0 0 1
-34.078362 10.237161 -26.059899 44.105017 -0.291824 2.202921 -0.030745 -0.006290 -1269010.000000 0 0 1
-34.128009 8.957761 -26.722649 44.261297 -0.256685 2.218990 -0.028855 0.003493 -302838.000000 0 0 1
34.335061 8.414861 -26.968649 44.463629 0.240343 2.222489 -0.019994 0.002622 -297202.000000 0 0 1
33.860913 7.662561 -25.850689 43.284343 0.222547 2.210839 -0.025487 0.007791 -396549.000000 0 0 1
32.885771 6.774661 -26.316739 42.660763 0.203164 2.235574 -0.015331 0.003872 -493291.000000 0 0 1
32.150431 5.948161 -25.250899 41.311484 0.182942 2.228413 -0.011906 0.002666 -268169.000000 0 0 1
32.906971 4.903761 -24.690359 41.431020 0.147930 2.209231 -0.009376 -0.003991 -24155.100000 0 0 1
32.165111 4.101061 -23.741459 40.187933 0.126816 2.202798 0.006423 -0.004275 499679.000000 0 0 1
33.077441 3.166261 -22.876159 40.341802 0.095432 2.173727 0.008037 -0.010875 139976.000000 0 0 1
33.509771 2.113561 -23.657059 41.073450 0.062990 2.184586 0.010463 -0.024009 -498336.000000 0 0 1
34.649194 1.569361 -23.065159 41.653704 0.045262 2.157641 0.023805 -0.016174 -413770.000000 0 0 1
-34.567884 0.473561 -23.876159 42.014686 -0.013699 2.175212 0.037652 -0.016217 -104936.000000 0 0 1
34.641294 -0.736239 -23.674959 41.965045 -0.021250 2.170211 0.025744 -0.021107 -23649.700000 0 0 1
-34.696834 -1.724939 -24.535359 42.530336 0.049674 2.185713 0.034348 -0.018888 74171.700000 0 0 1
-22.039419 29.387561 27.616869 45.957112 -0.927322 0.926136 0.004538 -0.001440 -515607.000000 0 0 1
-23.319119 29.809661 27.174509 46.592394 -0.906962 0.948086 -0.009299 -0.007692 496464.000000 0 0 1
-23.677019 29.328261 25.862169 45.712142 -0.891614 0.969440 -0.013080 0.006669 -108116.000000 0 0 1
-24.121019 27.809461 25.782059 44.943345 -0.856306 0.959833 -0.012611 0.006181 -778460.000000 0 0 1
-25.361309 27.566761 26.373799 45.811566 -0.827043 0.957334 0.003743 0.006024 -464215.000000 0 0 1
-25.383799 27.384661 27.769279 46.533749 -0.823298 0.931344 0.012591 0.003169 -609644.000000 0 0 1
-24.646719 26.120361 28.298369 45.722333 -0.814418 0.903432 0.016015 0.000733 1540730.000000 0 0 1
-23.248119 26.229361 28.697419 45.298965 -0.845580 0.884713 0.009350 0.003733 1245830.000000 0 0 1
-23.117219 26.564861 30.035839 46.284439 -0.854681 0.864605 0.006504 0.001633 547175.000000 0 0 1
-21.662019 26.204061 30.456679 45.645429 -0.880006 0.840293 0.006640 0.006991 -102903.000000 0 0 1
-20.592519 26.995361 29.952469 45.276393 -0.919143 0.847916 0.013568 0.001467 -352359.000000 0 0 1
-19.361919 26.628261 30.482079 44.867642 -0.942100 0.823882 0.025120 0.003303 -381973.000000 0 0 1
-18.745519 25.219561 30.178129 43.567651 -0.931602 0.805608 0.027257 0.000853 -670468.000000 0 0 1
-18.262419 25.131161 28.797649 42.360309 -0.942385 0.823271 0.024932 0.002793 223267.000000 0 0 1
-19.173519 24.476061 27.924469 41.790877 -0.906286 0.839016 0.021977 0.000567 48698.800000 0 0 1
-19.199319 22.951961 27.803629 40.846642 -0.874192 0.822101 0.020330 0.014933 193124.000000 0 0 1
-19.713019 22.279461 28.963689 41.519547 -0.846439 0.798766 0.004539 0.010619 172666.000000 0 0 1
-19.425719 20.905461 28.821889 40.559809 -0.822071 0.780443 0.004632 0.015484 -95456.100000 0 0 1
-19.803219 20.077361 30.024479 41.191471 -0.792272 0.754082 0.014693 0.005462 -270559.000000 0 0 1
-19.051619 20.299861 31.202479 41.816782 -0.817108 0.728504 0.013069 -0.003385 -161404.000000 0 0 1
-19.690219 19.798261 32.327269 42.716837 -0.788134 0.712423 0.019445 -0.013823 -8537.540000 0 0 1
-18.892819 20.218061 33.624418 43.546643 -0.819269 0.688583 0.011439 -0.021507 137411.000000 0 0 1
-18.861019 21.592761 33.974611 44.455141 -0.852823 0.700927 0.014465 -0.015942 77830.500000 0 0 1
-18.046719 22.422361 33.143369 43.896802 -0.893103 0.715098 0.022938 -0.013826 -160502.000000 0 0 1
-16.609919 22.595961 33.687345 43.832683 -0.936910 0.694234 0.012523 -0.004904 22756.800000 0 0 1
-15.873719 21.387561 33.605939 42.880787 -0.932310 0.670186 0.002803 -0.017162 929843.000000 0 0 1
-14.470019 21.592861 33.913362 42.728787 -0.980400 0.653947 -0.000127 -0.012000 357269.000000 0 0 1
-13.639419 20.328161 33.896108 41.811649 -0.979826 0.625474 -0.001603 -0.014901 -29985.800000 0 0 1
-12.296819 20.377761 34.355041 41.793944 -1.027849 0.605865 -0.011541 -0.012665 308716.000000 0 0 1
-12.188519 20.691261 -33.564309 41.270463 -1.038455 2.520558 0.000245 -0.025479 -868470.000000 0 0 1
-10.765419 20.488261 -33.004919 40.311137 -1.087002 2.530034 -0.012216 -0.021682 287539.000000 0 0 1
-9.860319 21.490161 -33.444799 40.958607 -1.140624 2.526208 -0.027587 -0.009574 -924471.000000 0 0 1
-8.621719 21.328961 -32.865609 40.117413 -1.186652 2.530873 -0.035667 -0.001744 -682627.000000 0 0 1
-7.626919 22.526761 -33.005829 40.681809 -1.244339 2.517197 -0.041894 0.002985 86340.600000 0 0 1
-7.813519 23.677961 -32.196429 40.722315 -1.252057 2.482639 -0.024803 0.003413 -29319.600000 0 0 1
-7.312219 23.462061 -30.924119 39.499848 -1.268676 2.470097 -0.022869 0.000385 -405072.000000 0 0 1
-7.103619 24.776961 -30.134429 39.654041 -1.291583 2.434007 -0.021475 -0.002502 29517.600000 0 0 1
-5.980819 25.486061 -30.610569 40.277989 -1.340297 2.434083 -0.041117 0.002267 44425.800000 0 0 1
-5.777119 26.696361 -29.873799 40.478570 -1.357681 2.400920 -0.021181 0.007340 678397.000000 0 0 1
-4.448719 27.457161 -30.277989 41.115002 -1.410168 2.398562 -0.034981 0.012242 -94348.600000 0 0 1
-3.319919 26.765461 -29.856919 40.234902 -1.447389 2.406942 -0.031693 0.008538 -129692.000000 0 0 1
-2.082119 27.064661 -30.486379 40.819730 -1.494016 2.414115 -0.025132 0.012937 457105.000000 0 0 1
-1.425419 28.383961 -30.088169 41.388150 -1.520619 2.384703 -0.024014 0.008222 -896764.000000 0 0 1
-1.089019 28.337061 -28.707499 40.352143 -1.532384 2.362319 -0.022883 0.000888 128492.000000 0 0 1
-0.378219 29.471961 -28.310879 40.868636 -1.557964 2.336062 -0.027178 0.003462 -925272.000000 0 0 1
-0.214419 29.552461 -26.793339 39.890813 -1.563541 2.307253 -0.019295 -0.006206 431117.000000 0 0 1
0.787081 28.689061 -26.228249 38.879336 1.543368 2.311228 -0.007488 -0.009496 1922680.000000 0 0 1
2.172781 28.905261 -26.630719 39.362803 1.495768 2.313857 -0.003826 -0.010081 984467.000000 0 0 1
3.162581 29.062861 -25.464279 38.769592 1.462404 2.287378 -0.009065 -0.011177 -59512.800000 0 0 1
3.462081 27.757261 -24.947059 37.480759 1.446710 2.299089 0.015231 -0.010075 -392266.000000 0 0 1
4.545581 27.784061 -24.083459 37.049013 1.408629 2.278438 0.011936 -0.002183 -451299.000000 0 0 1
5.222781 26.391861 -23.830759 35.940407 1.375427 2.295700 0.023118 -0.005302 850175.000000 0 0 1
6.446981 26.622061 -23.098959 35.830986 1.333204 2.271380 0.011646 -0.007871 486430.000000 0 0 1
7.231881 25.457361 -22.915759 35.007275 1.294010 2.284450 0.021853 0.003785 2090150.000000 0 0 1
8.730681 25.690761 -22.371859 35.167315 1.243204 2.260301 0.016751 0.011458 1299190.000000 0 0 1
8.731081 26.383861 -21.104759 34.896285 1.251215 2.220293 0.025631 0.013183 633744.000000 0 0 1
10.034681 26.736761 -20.603959 35.214661 1.211750 2.195795 0.026841 0.008354 1151450.000000 0 0 1
10.973381 25.578161 -20.095659 34.329185 1.165531 2.196146 0.004370 0.023324 39405.700000 0 0 1
11.467681 24.763361 -21.140559 34.520356 1.137110 2.229900 0.005783 0.008802 -194334.000000 0 0 1
11.713081 23.495461 -20.627059 33.387251 1.108329 2.236754 -0.000894 0.012757 -342081.000000 0 0 1
11.950481 22.399461 -21.712759 33.406493 1.080696 2.278323 -0.006189 0.007493 298154.000000 0 0 1
10.881081 22.283361 -22.677459 33.603768 1.116548 2.311556 0.005202 -0.000858 547857.000000 0 0 1
11.120981 21.327561 -23.736659 33.793047 1.090146 2.349578 -0.007769 -0.002608 -199342.000000 0 0 1
10.320381 21.445661 -25.059759 34.560355 1.122274 2.381978 0.009356 -0.001462 145046.000000 0 0 1
8.946381 21.179761 -24.836259 33.844642 1.171128 2.394741 0.004804 -0.001420 312102.000000 0 0 1
8.326181 21.034561 -26.160569 34.585451 1.193887 2.428594 -0.004934 -0.001709 462977.000000 0 0 1
6.805181 20.692761 -26.195129 34.068836 1.253070 2.447897 0.011932 -0.008286 784335.000000 0 0 1
5.898181 21.705461 -25.757659 34.196090 1.305466 2.423761 0.022415 -0.006888 290575.000000 0 0 1
5.729381 21.710261 -24.325959 33.104584 1.312777 2.396200 0.022453 0.003440 -191505.000000 0 0 1
4.288381 22.083261 -23.898459 32.820679 1.378992 2.386419 0.025050 0.000207 259308.000000 0 0 1
3.799581 23.394361 -24.188559 33.864721 1.409788 2.366377 0.016764 -0.004088 -766344.000000 0 0 1
2.426881 23.502261 -23.976659 33.661940 1.467899 2.363535 0.011731 -0.003492 -550858.000000 0 0 1
1.911381 24.705561 -24.800259 35.058108 1.493584 2.356615 -0.002617 0.009034 -362850.000000 0 0 1
0.549981 24.567661 -25.132709 35.150043 1.548414 2.367438 -0.003991 -0.010996 -149786.000000 0 0 1
0.427081 25.433461 -26.219689 36.531020 1.554006 2.371344 -0.006284 -0.007035 -928481.000000 0 0 1
-0.944219 25.507161 -26.824539 37.027864 -1.533795 2.381021 0.005475 -0.003007 -1015490.000000 0 0 1
-1.295119 24.202761 -27.355069 36.547924 -1.517336 2.416550 0.013061 -0.011231 -22592.600000 0 0 1
-2.586019 24.390661 -27.920149 37.163511 -1.465166 2.420794 0.010092 -0.001454 53062.900000 0 0 1
-3.178819 23.041661 -28.258989 36.600457 -1.433702 2.452926 0.007678 -0.008877 -701428.000000 0 0 1
-2.464319 22.430561 -29.278829 36.965562 -1.461371 2.484968 0.017226 -0.015243 -272266.000000 0 0 1
-2.923719 21.092961 -29.507579 36.388986 -1.433063 2.516473 0.000759 -0.007064 327053.000000 0 0 1
-4.310019 20.960861 -30.230299 37.037885 -1.368001 2.525598 -0.019592 0.001857 159106.000000 0 0 1
-4.273319 21.248561 -31.628279 38.342021 -1.372333 2.540819 -0.011200 0.003790 194362.000000 0 0 1
-3.822219 22.552361 -32.067989 39.390027 -1.402910 2.521999 -0.004475 0.005937 -256828.000000 0 0 1
-3.531619 22.673661 -33.588709 40.678847 -1.416279 2.542246 -0.009865 0.006914 -197764.000000 0 0 1
-2.373219 22.020261 -34.026419 40.599523 -1.463436 2.564585 -0.013225 0.013038 -117236.000000 0 0 1
-2.142919 22.089961 33.858648 40.484152 -1.474090 0.580218 -0.015468 0.020705 -313717.000000 0 0 1
-1.069319 21.152761 33.322789 39.484060 -1.520287 0.566181 0.003948 0.020156 -198407.000000 0 0 1
-1.375219 19.777661 33.481816 38.911169 -1.501374 0.534609 -0.008372 0.041172 -90214.600000 0 0 1
-0.262719 19.052161 33.021369 38.124332 -1.557008 0.523351 0.001872 0.032385 -177366.000000 0 0 1
-0.492019 17.699361 32.359089 36.886584 -1.543005 0.500674 -0.003804 0.039471 -227538.000000 0 0 1
-1.028619 17.788961 31.065729 35.813192 -1.513037 0.520766 -0.013434 0.033616 64811.800000 0 0 1
-1.478819 16.504261 30.641119 34.834691 -1.481433 0.495744 -0.009316 0.026962 -352511.000000 0 0 1
-2.469519 16.675761 29.494859 33.972434 -1.423775 0.519234 -0.000870 0.028785 -536714.000000 0 0 1
-3.791519 16.979861 29.863249 34.561611 -1.351105 0.527520 -0.014898 0.021210 -211307.000000 0 0 1
-4.101519 18.301061 29.469319 34.931248 -1.350326 0.566773 -0.016361 0.024320 317696.000000 0 0 1
-5.608819 18.583661 29.777089 35.545553 -1.277676 0.577708 -0.018258 0.013912 802033.000000 0 0 1
-6.437419 17.830861 28.881079 34.547021 -1.224332 0.580856 -0.015686 0.012255 841282.000000 0 0 1
-7.812319 18.253661 28.998949 35.144950 -1.166399 0.600374 -0.023124 0.016106 593980.000000 0 0 1
-8.871019 17.424661 28.275239 34.377361 -1.099890 0.605011 -0.014089 0.007005 -248226.000000 0 0 1
-9.186519 16.159561 28.771739 34.254000 -1.053870 0.573600 0.002922 -0.005951 -33050.600000 0 0 1
-9.925619 16.053361 29.973259 35.420680 -1.017037 0.561968 0.001198 -0.010043 -765763.000000 0 0 1
-10.281919 14.628961 30.253959 35.142942 -0.958162 0.533794 0.007374 -0.016052 -700593.000000 0 0 1
-9.308819 13.651461 30.394909 34.595765 -0.972327 0.497930 0.011172 -0.002368 16314.900000 0 0 1
-8.385219 13.758461 31.507749 35.388492 -1.023451 0.472707 0.007984 0.000461 254586.000000 0 0 1
-8.953419 13.301361 32.871489 36.573552 -0.978339 0.453823 0.032681 -0.009827 -405565.000000 0 0 1
-9.257119 11.924661 32.889219 36.188293 -0.910674 0.430311 0.026586 0.000559 413657.000000 0 0 1
-9.761519 11.557061 34.191238 37.388416 -0.869424 0.416557 0.026065 0.000650 -151604.000000 0 0 1
-10.093619 10.054161 34.306893 37.147412 -0.783440 0.393601 0.027163 0.000498 380875.000000 0 0 1
-8.913119 9.249461 34.479801 36.794740 -0.803914 0.356612 0.017302 0.008383 668691.000000 0 0 1
-8.952019 8.485461 -33.597969 35.790574 -0.758649 2.789746 0.034881 -0.000753 -300223.000000 0 0 1
-8.181719 9.158761 -32.429359 34.676890 -0.841683 2.779582 0.022113 -0.002298 -139962.000000 0 0 1
-8.699619 10.385661 -31.932329 34.687446 -0.873512 2.740342 0.032698 -0.006688 -571196.000000 0 0 1
-7.735319 11.051061 -31.217779 34.007511 -0.960096 2.733721 0.022345 -0.002874 -565846.000000 0 0 1
-6.908419 12.092561 -32.000599 34.899779 -1.051751 2.731110 0.004374 -0.002702 256838.000000 0 0 1
-7.637519 13.321861 -32.195719 35.670267 -1.050235 2.696551 0.017247 -0.007960 518189.000000 0 0 1
-6.791819 14.339361 -32.686589 36.333995 -1.128451 2.689682 -0.000985 -0.005664 43235.100000 0 0 1
-7.582119 15.630161 -32.989729 37.284215 -1.119143 2.656899 -0.006988 -0.004437 -220891.000000 0 0 1
-8.126519 15.696361 -34.296324 38.583078 -1.093063 2.665725 0.000567 -0.006730 -129910.000000 0 0 1
-8.653919 16.955661 -34.395102 39.311675 -1.098875 2.636095 0.002585 -0.007635 -2272160.000000 0 0 1
-9.196019 17.235961 33.448756 38.735828 -1.080681 0.528609 0.000570 -0.012381 324714.000000 0 0 1
-10.430519 16.621561 33.125089 38.501215 -1.010380 0.534811 0.010491 -0.016111 250220.000000 0 0 1
-11.488819 16.796661 34.049371 39.667120 -0.970893 0.538697 0.004503 -0.032589 -1657930.000000 0 0 1
-12.874319 16.897661 33.340440 39.533074 -0.919723 0.567299 -0.004594 -0.033224 228531.000000 0 0 1
-13.476819 15.796161 32.717809 38.750463 -0.864464 0.565501 -0.011851 -0.024446 195944.000000 0 0 1
-13.816019 14.715661 33.541828 39.146996 -0.816919 0.541731 0.004838 -0.024572 -403804.000000 0 0 1
-13.081319 13.350461 33.269173 38.160105 -0.795580 0.511868 -0.006592 -0.010940 -64393.200000 0 0 1
-13.380819 12.701361 32.037499 36.969883 -0.759353 0.522481 -0.024669 -0.009799 -386787.000000 0 0 1
-12.415219 11.772661 31.729849 36.048808 -0.758839 0.494531 -0.010248 -0.001328 -882374.000000 0 0 1
-12.544519 11.180661 30.300049 34.647729 -0.727976 0.506356 -0.012878 0.002099 491398.000000 0 0 1
-13.611319 10.225461 30.082779 34.565903 -0.644299 0.514981 -0.020529 0.012676 749756.000000 0 0 1
-13.647219 9.870661 28.721499 33.295661 -0.626175 0.530370 -0.031380 0.020811 120733.000000 0 0 1
-14.524019 8.659061 28.392149 33.046037 -0.537613 0.537152 -0.023483 0.021561 128877.000000 0 0 1
-13.929019 7.449561 28.822669 32.867306 -0.491116 0.501338 -0.039126 0.025628 236227.000000 0 0 1
-14.698619 6.297461 28.393629 32.586893 -0.404780 0.512909 -0.023392 0.030926 428227.000000 0 0 1
-13.907319 4.940061 28.394559 32.001073 -0.341311 0.479338 -0.024752 0.032796 875386.000000 0 0 1
-12.948019 4.780061 27.301499 30.592025 -0.353652 0.468075 -0.026727 0.020963 608499.000000 0 0 1
-13.546319 4.630361 26.003009 29.683320 -0.329366 0.503262 -0.020796 0.025536 189642.000000 0 0 1
-12.507619 4.527661 24.819479 28.159311 -0.347318 0.491989 -0.029903 0.033788 322889.000000 0 0 1
-11.618819 3.443761 24.969819 27.755149 -0.288146 0.451837 -0.035358 0.021027 -85236.400000 0 0 1
-11.216019 2.777761 23.793759 26.451049 -0.242775 0.452083 -0.030283 0.014708 -252638.000000 0 0 1
-10.505819 1.442761 24.121959 26.350004 -0.136476 0.414186 -0.023841 0.009167 -89265.600000 0 0 1
-9.210819 1.675661 24.633749 26.352772 -0.179955 0.363189 -0.016503 0.003807 136770.000000 0 0 1
-8.470419 0.457161 24.762589 26.175233 -0.053919 0.330034 -0.013382 -0.003033 -602798.000000 0 0 1
-6.973019 0.681461 24.698959 25.673448 -0.097419 0.276404 0.009370 -0.010606 -1381910.000000 0 0 1
-6.588519 0.894861 23.329859 24.258847 -0.134995 0.277639 0.024059 -0.006614 641818.000000 0 1 0
-5.239119 1.233761 22.984459 23.606268 -0.231276 0.230032 0.021638 -0.013515 594024.000000 0 1 0
-4.736619 2.581561 23.528059 24.138550 -0.499013 0.225382 0.043288 -0.014938 -534289.000000 0 1 0
-4.693019 2.630461 24.945429 25.518977 -0.510873 0.212415 0.036449 -0.014360 2884.680000 0 0 1
-4.232019 3.944161 25.339419 25.991394 -0.750206 0.224454 0.037783 -0.021636 188251.000000 0 0 1
3.615581 -23.927739 12.863341 27.405742 -1.420827 1.082223 0.026904 0.011036 248250.000000 0 0 1
3.403781 -25.223609 13.455041 28.789830 -1.436662 1.084501 0.017814 -0.000088 -361514.000000 0 0 1
2.101981 -25.726649 13.291541 29.033496 -1.489273 1.095277 -0.004891 0.000607 -118641.000000 0 0 1
1.825381 -26.914309 14.241941 30.504835 -1.503078 1.085043 -0.015062 0.010853 -137369.000000 0 0 1
1.787481 -26.702589 15.669241 31.012070 -1.503956 1.041110 -0.003614 0.007032 90794.800000 0 0 1
1.758581 -27.973469 16.347241 32.447494 -1.508013 1.042797 -0.016499 0.011229 -399467.000000 0 0 1
1.543081 -27.895929 17.868941 33.164183 -1.515537 1.001781 -0.026658 0.013976 -339733.000000 0 0 1
2.641681 -27.501639 18.646641 33.331904 -1.475035 0.977107 -0.020000 0.013588 -191270.000000 0 0 1
2.406481 -27.624479 19.995941 34.186849 -1.483902 0.946038 -0.031329 0.008191 -142717.000000 0 0 1
3.220881 -26.736789 20.939641 34.113026 -1.450908 0.909892 -0.033397 0.018797 13396.900000 0 0 1
2.596081 -25.503119 21.233341 33.286686 -1.469351 0.879037 -0.032980 0.017201 188029.000000 0 0 1
3.417581 -24.771539 22.121441 33.386632 -1.433698 0.846533 -0.019256 0.007228 292538.000000 0 0 1
2.701481 -23.492639 22.659941 32.751718 -1.456307 0.806720 -0.015546 0.001666 -27247.700000 0 0 1
2.260281 -22.454639 21.816941 31.389467 -1.470474 0.802321 -0.004339 0.002629 -571674.000000 0 0 1
3.240581 -21.725339 21.157641 30.498156 -1.422727 0.804134 -0.001227 0.009960 -1137250.000000 0 0 1
2.787081 -20.621139 20.212141 29.009134 -1.436454 0.799938 -0.005830 0.000964 -349030.000000 0 0 1
2.288781 -19.549339 20.926341 28.728504 -1.454250 0.754787 -0.020235 -0.000424 -541282.000000 0 0 1
1.559481 -18.798739 20.035941 27.518421 -1.488029 0.755262 -0.027896 -0.000143 -379157.000000 0 0 1
1.207581 -17.382739 20.512741 26.914502 -1.501438 0.704177 -0.024373 -0.007800 -307046.000000 0 0 1
2.286281 -16.503539 20.630541 26.518166 -1.433140 0.679356 -0.029546 0.005801 -111545.000000 0 0 1
1.756381 -15.254539 21.030941 26.040091 -1.456163 0.630663 -0.031920 0.002738 1190500.000000 0 0 1
2.859381 -14.114839 20.852141 25.341992 -1.370921 0.604424 -0.032302 0.004608 173089.000000 0 0 1
3.031881 -13.670539 19.466941 23.979945 -1.352547 0.623567 -0.038000 0.003071 -381502.000000 0 1 0
2.029681 -13.128639 18.640041 22.889559 -1.417411 0.619193 -0.029499 0.007489 -296256.000000 0 1 0
1.245681 -11.898839 19.157141 22.586061 -1.466487 0.558248 -0.022463 0.006746 54590.300000 0 1 0
2.009681 -10.682539 19.042841 21.926816 -1.384842 0.518683 -0.020388 0.007495 99236.900000 0 1 0
1.791181 -9.716039 20.055541 22.356978 -1.388490 0.457726 -0.019072 0.002280 643258.000000 0 1 0
0.312281 -9.141139 20.127841 22.108549 -1.536647 0.426523 -0.008403 -0.002519 1188590.000000 0 1 0
-0.005019 -8.466039 21.318941 22.938420 1.570204 0.378016 -0.004296 0.000554 567975.000000 0 1 0
-1.273019 -7.789639 21.247641 22.666303 1.408804 0.355677 -0.003397 -0.005145 637970.000000 0 1 0
-1.592419 -7.062739 22.569241 23.702083 1.349037 0.310421 0.002596 -0.004210 -56156.400000 0 1 0
-1.914319 -7.997339 23.588141 24.980442 1.335848 0.335444 -0.006005 0.005377 25678.500000 0 1 0
-2.189219 -7.310639 24.750641 25.900432 1.279838 0.299082 -0.001532 0.011591 8788.530000 0 0 1
-2.361019 -8.114839 26.072341 27.407882 1.287662 0.313462 -0.002785 0.009841 474225.000000 0 0 1
-1.127619 -8.710639 26.460241 27.879941 1.442059 0.320500 -0.013779 0.011259 361398.000000 0 0 1
-1.348119 -9.683639 27.452041 29.141120 1.432469 0.342143 -0.007544 0.005021 -129810.000000 0 0 1
-0.181119 -10.663539 27.599241 29.588207 1.553813 0.368751 -0.021265 0.009396 238338.000000 0 0 1
1.028481 -10.206539 28.190341 29.998776 -1.470368 0.348996 -0.022076 0.016324 205098.000000 0 0 1
2.009081 -11.218239 28.221741 30.436031 -1.393584 0.383802 -0.017095 0.017142 445381.000000 0 0 1
3.140281 -10.895639 29.261241 31.381468 -1.290187 0.369697 -0.009716 0.015284 248075.000000 0 0 1
2.620181 -10.805039 30.546541 32.507005 -1.332892 0.349071 -0.019193 0.005561 -73809.000000 0 0 1
3.528781 -10.158339 31.414841 33.204464 -1.236459 0.329813 -0.024385 0.017154 -325419.000000 0 0 1
3.023281 -10.050539 32.856341 34.491923 -1.278599 0.309189 -0.032370 0.017484 -344642.000000 0 0 1
2.908781 -11.312539 33.524341 35.500930 -1.319119 0.335266 -0.033471 0.015361 141011.000000 0 0 1
2.440381 -11.376939 -34.389976 36.305105 -1.359496 2.815337 -0.031549 0.019721 -647223.000000 0 0 1
3.150781 -10.573339 -33.276476 35.057764 -1.281182 2.821448 -0.039225 0.028858 -300608.000000 0 0 1
2.950381 -9.153639 -33.333276 34.692956 -1.258992 2.860699 -0.042016 0.020860 -31506.700000 0 0 1
3.462681 -8.547839 -32.205976 33.500457 -1.185906 2.862694 -0.034092 0.022605 -503058.000000 0 0 1
3.013981 -7.103439 -31.974576 32.892499 -1.169520 2.904791 -0.038380 0.019770 -7769.530000 0 0 1
3.607981 -6.156639 -32.832376 33.598909 -1.040711 2.927576 -0.026318 0.020315 28853.700000 0 0 1
3.476481 -4.829139 -32.331676 32.874668 -0.946841 2.959589 -0.026830 0.022360 -6892.190000 0 0 1
3.493781 -3.881239 -33.545376 33.949415 -0.837886 2.987159 -0.023180 0.027799 -438773.000000 0 0 1
2.250781 -3.743139 -34.152976 34.431133 -1.029415 3.014396 -0.024279 0.025842 -638013.000000 0 0 1
2.292281 -2.626739 34.278041 34.454875 -0.853286 0.101358 0.000429 0.022040 117830.000000 0 0 1
1.818681 -2.953539 32.834941 33.017637 -1.018867 0.105246 0.000836 0.012936 -100017.000000 0 0 1
0.425781 -2.977039 32.701841 32.839831 -1.428738 0.091704 -0.002976 0.006322 -746444.000000 0 0 1
0.057781 -3.442039 31.428741 31.616716 -1.554011 0.109099 0.009928 0.002246 204434.000000 0 0 1
-1.465219 -3.571039 31.193041 31.430956 1.181437 0.123118 0.001302 -0.003048 10234.000000 0 0 1
-2.097219 -2.322639 30.988941 31.146548 0.836356 0.100642 0.002273 -0.002259 -1696140.000000 0 0 1
-3.410319 -2.613239 30.766641 31.065182 0.653835 0.138748 -0.008145 -0.004464 -1705510.000000 0 0 1
-4.186519 -1.431839 30.260341 30.582109 0.329541 0.145189 0.017671 -0.013925 -926187.000000 0 0 1
-4.131819 -1.367439 28.840041 29.166587 0.319607 0.149779 0.009997 -0.010504 -784763.000000 0 0 1
-5.184219 -0.849339 28.107741 28.594451 0.162389 0.184768 0.000228 -0.014060 -418454.000000 0 0 1
-5.662519 0.606761 28.390441 28.955991 -0.106747 0.197966 0.002336 -0.013307 -76171.700000 0 0 1
-6.692319 0.735961 29.335941 30.098608 -0.109531 0.225596 0.001255 -0.010776 -453270.000000 0 0 1
-7.055319 2.088461 29.454641 30.359761 -0.287794 0.244796 0.006311 -0.008061 -756281.000000 0 0 1
-8.438019 2.404961 30.015741 31.271852 -0.277653 0.284392 0.002702 -0.000118 -344829.000000 0 0 1
-9.342719 1.686661 29.157141 30.663824 -0.178608 0.314780 -0.016889 0.012323 117496.000000 0 0 1
-10.690919 2.099861 29.354341 31.311061 -0.193946 0.355401 -0.028780 0.023868 331537.000000 0 0 1
-11.558519 1.330161 28.291741 30.590706 -0.114577 0.390162 -0.025484 0.025286 48417.700000 0 0 1
-11.619519 -0.009539 28.628841 30.896988 0.000821 0.385555 -0.020957 0.022327 -8182.860000 0 0 1
-11.733419 -0.813439 27.444741 29.858812 0.069216 0.404878 -0.020403 0.026385 -584387.000000 0 0 1
-11.545419 -2.327539 27.735241 30.132337 0.198932 0.401572 -0.006366 0.020038 740857.000000 0 0 1
-10.240319 -2.780839 28.153041 30.086391 0.265163 0.360445 0.001692 0.013598 2018760.000000 0 0 1
-9.104819 -2.730039 27.240141 28.850930 0.291315 0.335734 0.009387 0.003441 677309.000000 0 0 1
-9.225119 -3.355939 25.846741 27.648132 0.348900 0.362972 -0.001869 0.004590 -555346.000000 0 0 1
-10.014419 -2.477039 25.009941 27.054047 0.242480 0.391222 -0.016086 0.005600 624192.000000 0 0 1
-10.211019 -2.883939 23.670941 25.940229 0.275264 0.421397 0.002184 0.000354 -357508.000000 0 0 1
-9.081519 -2.481239 22.738141 24.610031 0.266709 0.392546 -0.002134 -0.005268 959817.000000 0 1 0
-7.722219 -2.748139 23.152341 24.560453 0.341898 0.340261 -0.006809 -0.005961 536850.000000 0 1 0
-6.834519 -2.371139 22.153041 23.304295 0.333942 0.315636 -0.001317 -0.009431 455102.000000 0 1 0
-5.301319 -2.439339 22.522241 23.265978 0.431253 0.253529 -0.000550 -0.010928 1012660.000000 0 1 0
-4.738919 -3.774239 22.695241 23.489917 0.672563 0.260856 0.004031 -0.009133 -166755.000000 0 1 0
-5.330119 -4.505039 23.729441 24.734428 0.701703 0.286039 0.004946 -0.003897 -628838.000000 0 1 0
-5.546219 -6.017039 23.421241 24.809672 0.826093 0.336135 0.016141 0.001479 11008.400000 0 1 0
-6.497119 -6.465439 22.474441 24.271691 0.782954 0.387245 0.034585 -0.003096 -148756.000000 0 1 0
-6.140419 -6.179239 21.178941 22.900552 0.788549 0.390228 0.029824 -0.000363 -261628.000000 0 1 0
-7.225419 -6.401839 20.087041 22.286306 0.725035 0.447994 0.033866 -0.003678 -404891.000000 0 1 0
-8.221619 -5.461039 20.248941 22.526375 0.586313 0.453546 0.036339 -0.006518 -1087290.000000 0 1 0
-9.053219 -5.369739 19.146041 21.848702 0.535353 0.502666 0.033485 -0.005044 156692.000000 0 1 0
-9.756519 -3.941739 19.119741 21.824103 0.383959 0.503117 0.027708 -0.013571 34499.600000 0 1 0
-8.868419 -2.903239 18.830941 21.016232 0.316372 0.460076 0.024975 -0.012779 -445461.000000 0 1 0
-9.432819 -1.617239 18.860241 21.149521 0.169797 0.469582 0.017597 -0.014496 -23445.000000 0 1 0
-8.464019 -0.506939 18.299841 20.168807 0.059822 0.433898 0.022887 -0.011496 238281.000000 0 1 0
-7.377719 -0.135939 19.130041 20.503846 0.018424 0.368142 0.021382 -0.003890 74180.800000 0 1 0
-7.670219 0.540961 20.356541 21.760369 -0.070411 0.361162 0.023615 -0.001755 -498138.000000 0 1 0
-7.541119 2.075161 20.290941 21.746197 -0.268533 0.367913 0.013271 -0.002290 -695889.000000 0 1 0
-8.523119 2.654161 19.520141 21.464483 -0.301889 0.428919 0.007019 -0.005044 -387947.000000 0 1 0
-8.213019 3.943661 19.152841 21.209372 -0.447660 0.444009 0.000624 -0.006384 -16674.800000 0 1 0
-9.112519 4.276761 17.940341 20.571449 -0.438810 0.511321 0.004538 -0.004414 132005.000000 0 1 0
-10.428119 4.601861 18.370941 21.619766 -0.415590 0.555325 -0.000637 0.002784 -113231.000000 0 1 0
-11.193019 5.055761 17.299841 21.216241 -0.424257 0.617367 0.003934 0.011621 -151255.000000 0 1 0
-11.477119 6.605361 17.267241 21.760346 -0.522228 0.654227 -0.000316 0.012748 -231399.000000 0 1 0
-10.287619 7.252461 16.862741 21.042465 -0.614054 0.641219 0.002596 0.005377 667131.000000 0 1 0
-10.561519 8.679061 16.824341 21.677874 -0.687871 0.682328 -0.002942 0.003287 -61761.100000 0 1 0
-9.280219 9.518061 16.826841 21.444312 -0.798050 0.668623 -0.008578 0.005312 26398.000000 0 1 0
-8.614119 9.736761 18.099141 22.284220 -0.846498 0.622891 0.004325 0.019838 416600.000000 0 1 0
-7.679219 10.808361 18.111141 22.445590 -0.953066 0.631927 0.007142 0.008801 13503.300000 0 1 0
-8.174019 12.226461 17.712441 23.022413 -0.981490 0.692963 0.000998 0.011537 -457150.000000 0 1 0
-8.365419 12.468661 16.317241 22.174312 -0.979858 0.743857 0.001999 -0.003796 65502.000000 0 1 0
-9.186319 13.606661 16.130441 23.015665 -0.976955 0.794213 0.011275 -0.009174 -361491.000000 0 1 0
-8.899219 14.355261 14.803541 22.459173 -1.015853 0.851133 -0.000198 -0.003394 -127266.000000 0 1 0
-7.668219 15.019561 14.717141 22.382651 -1.098745 0.853268 -0.001835 0.014466 -380061.000000 0 1 0
-7.449819 15.457761 13.407941 21.776480 -1.121695 0.907513 -0.011545 0.002520 80897.100000 0 1 0
-6.506419 16.689561 13.269841 22.292681 -1.199071 0.933213 -0.022599 0.011929 257092.000000 0 1 0
-5.180119 16.398961 13.656241 21.960248 -1.264834 0.899678 -0.014169 0.009497 -428797.000000 0 1 0
-4.433619 17.616461 13.789741 22.806877 -1.324242 0.921494 -0.011731 0.010844 -531237.000000 0 1 0
-2.951219 17.319761 13.925341 22.418719 -1.402021 0.900590 0.000003 0.009609 -576070.000000 0 1 0
-2.506719 16.624461 15.158741 22.637221 -1.421139 0.837075 0.005780 0.007630 115644.000000 0 1 0
-2.801219 15.217361 15.110141 21.627096 -1.388754 0.797263 -0.001989 0.003410 -149922.000000 0 1 0
-1.917419 14.444961 16.160041 21.759603 -1.438828 0.733759 -0.002160 0.003219 676536.000000 0 1 0
-0.565619 14.338961 15.724241 21.287966 -1.531370 0.739739 0.007441 -0.005057 -193179.000000 0 1 0
0.185381 13.651961 16.671741 21.548953 1.557218 0.686186 0.003713 0.006386 -444743.000000 0 1 0
1.487681 14.289861 17.101141 22.335227 1.467063 0.698733 -0.001676 -0.007561 -557594.000000 0 1 0
1.202781 15.331161 18.043441 23.707740 1.492503 0.705823 0.001873 -0.008200 -442973.000000 0 1 0
2.275681 16.155161 18.379241 24.575689 1.430853 0.725960 0.021841 -0.014600 -832804.000000 0 1 0
1.825781 17.480261 19.063541 25.928972 1.466726 0.744803 0.014586 -0.002718 628427.000000 0 0 1
0.945081 18.339061 18.324541 25.942304 1.519308 0.786457 0.010895 0.006718 -21809.300000 0 0 1
-0.410119 17.993061 18.267641 25.644203 -1.548007 0.777956 0.001680 0.006595 -409331.000000 0 0 1
-1.195819 18.790761 17.180841 25.489292 -1.507243 0.831130 0.001118 0.004595 -320148.000000 0 0 1
-1.511419 20.136561 17.508341 26.726532 -1.495878 0.856492 0.004446 0.011833 65739.900000 0 0 1
-2.082119 20.805061 16.388041 26.566025 -1.471051 0.906024 -0.001954 0.012480 -232786.000000 0 0 1
-2.699519 22.102861 16.845841 27.921430 -1.449264 0.923126 -0.000932 0.011296 -963379.000000 0 0 1
-3.866419 22.032561 17.604141 28.465571 -1.397079 0.904045 -0.012376 0.019449 -264196.000000 0 0 1
-4.362619 23.301361 17.953341 29.737322 -1.385713 0.922623 -0.006088 0.007605 -391094.000000 0 0 1
-5.365419 23.261961 19.106641 30.577284 -1.344109 0.895839 -0.025277 0.015972 384460.000000 0 0 1
-6.697419 22.936161 18.670241 30.323272 -1.286693 0.907514 -0.028531 0.014960 108501.000000 0 0 1
-7.444919 22.671361 19.808341 31.012704 -1.253507 0.877967 -0.029686 0.013776 -1007470.000000 0 0 1
-8.861019 23.170361 19.563541 31.592965 -1.205528 0.903025 -0.026690 0.002338 -878459.000000 0 0 1
-9.227019 24.488661 19.852141 32.847221 -1.210460 0.921811 -0.025436 0.013665 349078.000000 0 0 1
-10.418219 24.699861 19.089341 32.909351 -1.171646 0.951996 -0.012366 0.011342 344093.000000 0 0 1
-11.204419 25.998161 19.336241 34.283139 -1.163880 0.971555 -0.000567 0.003227 -37731.100000 0 0 1
-12.055519 25.919861 20.459941 35.153719 -1.135450 0.949594 -0.002881 0.012460 153296.000000 0 0 1
-12.492019 27.225361 20.862041 36.503364 -1.140617 0.962451 0.004726 0.002169 -174381.000000 0 0 1
-13.306619 27.093761 22.185741 37.461248 -1.114268 0.936971 0.030367 -0.013491 -620204.000000 0 0 1
-14.647219 26.731061 22.034441 37.611265 -1.069530 0.944872 0.026915 -0.013441 -431695.000000 0 0 1
-15.168419 26.662561 23.363041 38.559108 -1.053556 0.919897 0.016517 -0.004038 -265258.000000 0 0 1
-16.659619 26.308861 23.373541 38.936121 -1.006299 0.926914 0.028346 -0.007750 -248709.000000 0 0 1
-16.906319 25.007661 22.888441 37.882548 -0.976329 0.922041 0.026951 0.000357 -985096.000000 0 0 1
-18.221819 24.580261 22.939941 38.242186 -0.932874 0.927471 0.029302 0.007076 -873659.000000 0 0 1
26.380881 24.504861 24.013459 43.279156 0.748548 0.982613 0.018603 -0.011075 58337.100000 0 0 1
26.005281 23.831561 25.175709 43.336293 0.741809 0.950915 0.014420 -0.020223 61493.000000 0 0 1
25.964881 22.447561 24.806679 42.349019 0.712872 0.944970 0.004167 -0.008282 -159499.000000 0 0 1
25.646781 21.614461 26.030819 42.456399 0.700284 0.910794 0.012785 -0.007298 461138.000000 0 0 1
24.361181 21.894161 26.585109 42.185181 0.732114 0.888985 0.015655 -0.005082 454969.000000 0 0 1
24.236781 21.251461 27.860579 42.605845 0.719864 0.858049 0.026597 -0.008181 -208567.000000 0 0 1
22.885581 21.506261 28.533559 42.431510 0.754337 0.833267 0.031312 -0.008538 -304699.000000 0 0 1
22.693781 22.883161 28.952459 43.323108 0.789553 0.838887 0.027599 -0.015073 578319.000000 0 0 1
21.542881 23.000761 29.817899 43.384765 0.818116 0.813045 0.036475 -0.009294 655221.000000 0 0 1
21.398581 24.462961 30.328269 44.453792 0.852117 0.819971 0.028216 -0.012610 -496194.000000 0 0 1
21.004181 25.448361 29.441059 44.221835 0.880779 0.842287 0.029282 -0.018101 -256934.000000 0 0 1
20.661881 26.649461 30.038469 45.159902 0.911286 0.843091 0.032261 -0.017856 -400871.000000 0 0 1
19.308481 26.844861 30.739619 45.148513 0.947260 0.821866 0.042987 -0.015141 -896345.000000 0 0 1
18.307181 26.887061 29.760269 44.087873 0.973010 0.829802 0.036671 -0.015925 1307190.000000 0 0 1
16.966381 27.275161 30.197309 44.087073 1.014325 0.816265 0.033725 -0.011111 2195800.000000 0 0 1
16.061181 26.114961 30.812099 43.466518 1.019407 0.782902 0.020718 -0.000573 -207252.000000 0 0 1
16.342581 25.781461 32.198939 44.368180 1.005831 0.758714 0.031948 0.001563 -184817.000000 0 0 1
15.342981 25.074761 32.852959 44.084778 1.021680 0.729928 0.025728 0.004704 -499891.000000 0 0 1
15.854481 24.573561 34.171382 44.976748 0.997814 0.707858 0.023607 0.005717 147228.000000 0 0 1
16.282881 25.641761 -34.183707 45.729180 1.005028 2.415124 0.031252 -0.005089 256482.000000 0 0 1
16.606081 25.228961 -32.905379 44.665718 0.988668 2.398978 0.006264 0.011661 -120177.000000 0 0 1
17.122681 26.443861 -32.124539 44.993888 0.996173 2.365956 0.015046 0.018116 -455083.000000 0 0 1
16.126181 27.318561 -31.677549 44.831067 1.037539 2.355475 0.020234 0.001887 -313883.000000 0 0 1
16.624181 28.388961 -30.923099 45.150133 1.041043 2.325256 0.034320 -0.005690 -396057.000000 0 0 1
15.937081 28.751661 -29.603709 44.238311 1.064657 2.303911 0.029123 -0.002326 -394331.000000 0 0 1
16.176181 27.775861 -28.574439 43.007742 1.043431 2.297490 0.015309 0.006525 326240.000000 0 0 1
15.555081 28.175061 -27.363989 42.244319 1.066352 2.275431 0.014917 0.009080 -135975.000000 0 0 1
16.202381 27.470661 -26.127459 41.228612 1.037906 2.257151 0.007693 0.005531 -952448.000000 0 0 1
17.534881 27.830761 -26.054069 41.962338 1.008571 2.240676 0.024742 -0.000922 -1377130.000000 0 0 1
18.112881 27.244361 -24.921759 41.126947 0.984066 2.221783 0.025802 0.006418 515987.000000 0 0 1
19.670481 27.317661 -25.103789 41.992650 0.946731 2.211568 0.018808 0.003219 435422.000000 0 0 1
20.262281 26.811061 -23.949359 41.266994 0.923630 2.189956 0.016661 0.010081 -221198.000000 0 0 1
21.664781 26.660861 -24.171959 42.005331 0.888416 2.183950 0.024688 0.011004 98656.700000 0 0 1
22.375281 26.436861 -22.903359 41.522580 0.868415 2.155063 0.026803 0.011951 -308517.000000 0 0 1
22.018281 25.223561 -22.278959 40.216722 0.853143 2.157925 0.018503 0.007764 306034.000000 0 0 1
22.712181 25.213661 -20.999759 39.906913 0.837546 2.124944 0.024636 0.005991 274083.000000 0 0 1
22.354881 24.051261 -20.014559 38.454992 0.821937 2.118194 0.019426 0.002999 -650561.000000 0 0 1
22.884481 22.781361 -20.291359 38.136978 0.783140 2.131834 0.015671 0.010936 67932.300000 0 0 1
22.555981 21.836861 -19.273359 36.838609 0.769201 2.121379 0.010252 0.010235 -604479.000000 0 0 1
22.805881 20.290961 -19.583559 36.267714 0.727109 2.141200 0.030555 0.011223 517829.000000 0 0 1
21.974181 19.639161 -20.571759 35.941043 0.729345 2.180196 0.017647 0.009672 1355210.000000 0 0 1
20.555281 19.665061 -20.324959 34.961953 0.763268 2.191177 0.013465 0.013471 989021.000000 0 0 1
19.624181 19.758161 -21.569759 35.224252 0.788800 2.229833 0.021504 0.002008 170777.000000 0 0 1
19.897881 20.835361 -22.466159 36.534453 0.808409 2.233094 0.020294 0.001440 -52582.600000 0 0 1
19.830181 22.194961 -22.053759 37.043497 0.841609 2.208495 0.016668 0.008742 -235704.000000 0 0 1
19.585981 23.170961 -23.227959 38.210498 0.869048 2.224203 0.017724 0.003082 664438.000000 0 0 1
18.178181 23.121961 -23.472559 37.630205 0.904535 2.244352 0.022308 0.000204 153947.000000 0 0 1
17.853881 23.570361 -24.762359 38.568088 0.922530 2.267956 0.009679 -0.001874 673767.000000 0 0 1
16.308281 23.390861 -24.933759 37.878552 0.961947 2.289295 0.007286 0.004555 759319.000000 0 0 1
15.555181 24.378961 -24.245059 37.737518 1.002862 2.268508 -0.003151 0.001641 437556.000000 0 0 1
14.155681 24.292561 -24.536459 37.316881 1.043182 2.288314 0.002971 0.001843 1022950.000000 0 0 1
13.350081 25.490261 -23.915159 37.415410 1.088343 2.264227 -0.008257 0.008384 163421.000000 0 0 1
13.488981 26.737961 -24.638759 38.780660 1.103565 2.259240 -0.016203 0.014165 302112.000000 0 0 1
12.505381 27.656661 -24.125759 38.772770 1.146143 2.242390 -0.007540 0.015237 496422.000000 0 0 1
12.394381 29.014461 -24.852859 40.163718 1.167081 2.237996 -0.004861 0.009764 87399.000000 0 0 1
12.065981 29.039861 -26.204629 40.933898 1.177002 2.265515 -0.001400 0.004634 -219217.000000 0 0 1
11.633281 30.279461 -26.730429 42.032069 1.203987 2.260039 0.011392 0.001512 24484.000000 0 0 1
12.610981 31.503761 -26.777319 43.226712 1.190031 2.238854 0.017111 -0.001903 -364047.000000 0 0 1
13.655681 31.317161 -27.678569 43.969823 1.159608 2.251693 0.020225 0.010218 -631933.000000 0 0 1
14.320281 32.573261 -27.761769 45.130960 1.156597 2.233357 0.012356 0.001731 -608294.000000 0 0 1
15.776581 32.473261 -28.194739 45.807821 1.118546 2.233817 0.018659 0.014374 -741740.000000 0 0 1
16.569181 31.803861 -27.261449 45.046753 1.090506 2.220790 0.005464 0.016888 -914919.000000 0 0 1
17.898681 31.840361 -27.665389 45.820793 1.058682 2.219023 0.022563 0.014886 -1205490.000000 0 0 1
18.889881 31.192361 -26.703939 45.198355 1.026274 2.202867 0.015695 0.017433 -1055710.000000 0 0 1
19.292381 31.990261 -25.607279 45.291340 1.028122 2.171703 0.020282 0.018145 137251.000000 0 0 1
20.150081 33.094561 -25.848509 46.577045 1.023885 2.159114 0.022524 0.010841 87019.700000 0 0 1
21.606381 32.756261 -26.276759 47.225802 0.987695 2.160851 0.023307 0.014779 -385131.000000 0 0 1
21.674181 32.130961 -27.503409 47.524796 0.977351 2.187951 0.019049 0.020053 1066190.000000 0 0 1
23.021281 32.109961 -28.063779 48.462405 0.948784 2.188400 0.018854 0.023801 861804.000000 0 0 1
23.030581 31.249461 -29.329449 48.653397 0.935673 2.217832 0.003689 0.025890 64718.800000 0 0 1
22.149881 31.743761 -30.321599 49.169939 0.961568 2.235301 0.007391 0.029918 469845.000000 0 0 1
20.868381 31.113761 -30.288269 48.176080 0.979998 2.250676 0.013072 0.020533 938105.000000 0 0 1
19.728481 31.888261 -31.090929 48.710574 1.016758 2.263057 0.002256 0.016100 690098.000000 0 0 1
19.240481 33.133661 -30.427639 48.927260 1.044694 2.241957 0.002895 0.023540 161806.000000 0 0 1
18.565081 34.002861 -31.336899 49.828285 1.071040 2.250931 -0.001255 0.013996 1159810.000000 0 0 1
16.996581 33.799361 -31.401329 49.166289 1.104858 2.263573 0.011079 0.009135 1027020.000000 0 0 1
16.453781 32.524761 -31.831299 48.392340 1.102452 2.288658 0.025639 0.003467 169341.000000 0 0 1
16.736281 32.166061 -33.164889 49.139276 1.091034 2.311647 0.032546 -0.006216 -923057.000000 0 0 1
16.194581 32.913061 -34.361625 50.261867 1.113536 2.323551 0.044941 -0.016649 -682239.000000 0 0 1
16.781481 34.159961 -34.616322 51.447165 1.114164 2.308853 0.028060 -0.006053 -71254.700000 0 0 1
16.711781 34.606761 33.298251 50.849632 1.120918 0.856829 0.043835 -0.013812 -307005.000000 0 0 1
15.317181 -34.309705 32.850149 49.908959 -1.150908 0.852369 0.052929 -0.021287 -379893.000000 0 0 1
14.335281 34.019461 32.782629 49.371295 1.171992 0.844638 0.054265 -0.022019 -92770.200000 0 0 1
13.029581 34.452261 32.504719 49.125198 1.209230 0.847751 0.036793 -0.022804 53934.600000 0 0 1
12.733981 -34.403005 31.092469 48.088072 -1.216292 0.867712 0.013840 -0.020441 -783880.000000 0 0 1
13.306281 -33.120405 30.769229 47.124980 -1.188778 0.859352 0.029139 -0.021668 290906.000000 0 0 1
12.713181 -32.534805 29.604619 45.788339 -1.198284 0.867738 0.027095 -0.028288 203890.000000 0 0 1
13.156581 -31.046505 29.309869 44.677170 -1.169968 0.855241 0.026233 -0.026777 216579.000000 0 0 1
12.579181 -30.176505 30.301549 44.576239 -1.175846 0.823349 0.009702 -0.018670 447736.000000 0 0 1
12.725581 -28.810005 29.935969 43.452492 -1.154860 0.810777 0.023915 -0.021849 -299302.000000 0 0 1
12.452681 -27.864305 31.140549 43.603011 -1.150520 0.775339 0.010035 -0.006577 -97798.300000 0 0 1
11.074281 -27.661005 31.364959 43.261201 -1.189982 0.759742 -0.020190 0.000982 -47265.600000 0 0 1
10.437681 -26.582805 30.694559 41.925489 -1.196644 0.749365 -0.025451 -0.003107 119094.000000 0 0 1
11.063281 -25.203005 31.105949 41.535138 -1.157155 0.724385 -0.028731 0.007285 -31314.700000 0 0 1
10.370081 -24.791405 32.251949 41.980240 -1.174620 0.694670 -0.019893 0.005956 125907.000000 0 0 1
10.847581 -23.529805 32.689049 41.712056 -1.138821 0.670223 -0.025065 0.004614 265620.000000 0 0 1
9.950881 -22.863705 33.793417 41.997191 -1.160296 0.635695 -0.019918 -0.000144 -161700.000000 0 0 1
9.795881 -23.605005 -34.251416 42.735407 -1.177433 2.500556 -0.026677 0.000661 137020.000000 0 0 1
10.951381 -23.949405 -33.491989 42.605399 -1.141912 2.475266 -0.020490 -0.001661 252117.000000 0 0 1
11.547681 -22.789205 -32.657219 41.463125 -1.101789 2.477734 -0.008303 -0.014493 11254.300000 0 0 1
12.018181 -21.684105 -33.413179 41.606221 -1.064704 2.503245 -0.021277 -0.003508 405528.000000 0 0 1
13.006481 -20.859805 -32.793269 40.984125 -1.013263 2.498334 -0.009167 -0.011889 -123638.000000 0 0 1
13.309881 -19.684705 -33.742409 41.269731 -0.976255 2.528038 -0.018601 -0.004876 -480796.000000 0 0 1
13.914581 -20.145505 34.291851 42.135353 -0.966337 0.620049 -0.010262 0.005017 519670.000000 0 0 1
13.841481 -19.243905 33.189509 40.785512 -0.947257 0.620208 -0.035217 0.010712 -397750.000000 0 0 1
14.527781 -17.881905 33.320133 40.509878 -0.888522 0.604971 -0.007476 -0.000173 -705866.000000 0 0 1
13.836481 -16.839705 34.035363 40.415712 -0.882988 0.569572 -0.007684 -0.000490 393346.000000 0 0 1
14.357881 -15.503805 33.861676 39.914030 -0.823754 0.557907 0.030943 -0.010401 -776971.000000 0 0 1
15.750481 -15.255405 34.428162 40.817930 -0.769432 0.567110 0.034851 -0.005148 -12664.600000 0 0 1
16.774781 -15.805005 33.585964 40.733382 -0.755641 0.601422 0.035609 -0.009963 16444.000000 0 0 1
18.093881 -15.598505 33.985237 41.541524 -0.711470 0.612692 0.057813 -0.010152 -701839.000000 0 0 1
19.138481 -16.344405 33.195639 41.657790 -0.706816 0.648708 0.080666 -0.021265 -551057.000000 0 0 1
19.296981 -15.802605 31.890779 40.486017 -0.686169 0.663732 0.061352 -0.009465 185935.000000 0 0 1
20.309481 -16.488505 31.209509 40.723203 -0.681932 0.697607 0.050934 -0.008983 -424548.000000 0 0 1
20.618881 -15.971905 29.791659 39.595239 -0.659076 0.719091 0.033406 0.008548 -510552.000000 0 0 1
21.532581 -14.929805 29.754479 39.646944 -0.606255 0.721999 0.035165 0.005788 105285.000000 0 0 1
21.595381 -14.306905 28.467649 38.489675 -0.585111 0.738294 0.018394 0.005094 25482.300000 0 0 1
22.337581 -12.948005 28.484169 38.444327 -0.525323 0.736357 0.013890 0.010063 -252750.000000 0 0 1
21.593781 -11.969205 29.130819 38.185833 -0.506130 0.703056 0.013168 0.008231 -23665.900000 0 0 1
22.359981 -10.823005 29.384009 38.477606 -0.450794 0.701825 0.012795 0.012680 53925.400000 0 0 1
21.533081 -9.499105 29.347969 37.619275 -0.415462 0.675921 0.019430 0.009128 277491.000000 0 0 1
20.604081 -9.319805 30.410419 37.896972 -0.424788 0.639407 0.030556 -0.002111 -374669.000000 0 0 1
19.728381 -8.301205 30.009529 36.860424 -0.398286 0.619550 0.032489 -0.003752 879783.000000 0 0 1
18.406381 -8.373805 30.911449 36.938234 -0.426955 0.579308 0.019122 0.002524 938980.000000 0 0 1
18.614181 -7.883305 32.249449 38.061282 -0.400609 0.559909 0.019834 0.002395 305335.000000 0 0 1
18.910981 -8.952005 33.176929 39.223363 -0.442122 0.562647 0.029332 -0.008575 -204434.000000 0 0 1
18.949981 -8.534005 -34.632568 40.389922 -0.423140 2.601101 0.037166 -0.018107 313380.000000 0 0 1
17.647381 -8.386505 -34.073268 39.277870 -0.443633 2.620936 0.029266 -0.014881 350792.000000 0 0 1
17.755281 -7.837005 -32.790809 38.103882 -0.415671 2.607171 0.024254 -0.019107 -279431.000000 0 0 1
16.453081 -7.556105 -32.036819 36.798863 -0.430521 2.627202 0.017070 -0.018128 -253435.000000 0 0 1
16.671481 -7.004705 -30.748599 35.671845 -0.397765 2.609969 0.016576 -0.012853 -35002.400000 0 0 1
15.454981 -6.683105 -30.121519 34.508350 -0.408142 2.631863 0.010533 -0.007565 -271378.000000 0 0 1
15.475381 -5.296105 -29.484719 33.717722 -0.329734 2.635113 0.003134 -0.001283 -89726.500000 0 0 1
16.367781 -5.135405 -28.371409 33.154388 -0.304024 2.597768 0.001280 0.006849 351452.000000 0 0 1
16.066281 -5.821105 -27.164329 32.092233 -0.347606 2.580070 0.027263 -0.004925 17241.600000 0 0 1
14.713181 -5.652705 -26.425539 30.769138 -0.366806 2.603783 0.019382 -0.002814 143736.000000 0 0 1
14.730681 -4.538005 -25.570159 29.856649 -0.298839 2.599113 0.006519 0.007355 -254421.000000 0 0 1
13.533681 -4.379305 -24.842359 28.626589 -0.312952 2.621568 0.000118 0.008323 18500.700000 0 0 1
13.534681 -3.151305 -23.923059 27.666425 -0.228756 2.615342 -0.003115 0.016659 4071.910000 0 0 1
13.542981 -1.887305 -24.534259 28.087437 -0.138465 2.633134 -0.009486 0.008900 268200.000000 0 0 1
13.005481 -0.876305 -23.670659 27.022408 -0.067278 2.638227 -0.004931 0.003505 -55874.700000 0 0 1
13.306881 0.537695 -24.133959 27.564654 0.040385 2.637349 -0.006790 0.001790 -436820.000000 0 0 1
12.517481 1.025695 -25.192509 28.149634 0.081758 2.679115 -0.008479 -0.004740 249595.000000 0 0 1
13.143681 2.212695 -25.703739 28.954008 0.166783 2.663217 -0.014015 0.001862 -62733.900000 0 0 1
12.488681 2.735695 -26.970139 29.846936 0.215648 2.698932 -0.008182 -0.004098 6403.690000 0 0 1
11.246981 3.359695 -26.695809 29.162447 0.290282 2.727340 0.005209 -0.014582 273994.000000 0 0 1
10.710081 3.976695 -27.861739 30.113061 0.355526 2.752458 0.002890 -0.005101 -599524.000000 0 0 1
9.481181 4.834695 -27.678959 29.654541 0.471556 2.774515 0.006489 -0.005405 -519069.000000 0 0 1
9.664881 6.099695 -26.972449 29.293842 0.562988 2.740807 0.004321 -0.018705 -360683.000000 0 0 1
8.462381 6.810695 -27.027669 29.128892 0.677673 2.759442 0.010644 -0.021399 -75107.900000 0 0 1
7.784181 5.397761 -31.706769 33.091517 0.606301 2.851278 0.006338 0.000246 -5663.350000 0 0 1
7.745981 4.353461 -30.711509 31.971075 0.512031 2.859960 0.001145 0.012210 292071.000000 0 0 1
7.644081 3.090961 -31.347139 32.413410 0.384259 2.884385 -0.002408 0.014741 -337687.000000 0 0 1
7.488381 1.983661 -30.338109 31.311525 0.258951 2.891590 0.002940 0.006936 -315660.000000 0 0 1
8.563181 1.716261 -29.470279 30.737127 0.197803 2.853489 0.007555 -0.002426 -158628.000000 0 0 1
8.142381 0.853661 -28.477329 29.630818 0.104460 2.861650 0.010712 -0.004403 -504285.000000 0 0 1
9.127281 0.359261 -27.406059 28.888205 0.039341 2.819875 0.008407 -0.013835 -19728.500000 0 0 1
10.285981 -0.170039 -28.049229 29.876237 -0.016530 2.790064 -0.005818 0.004085 407504.000000 0 0 1
11.011981 -1.003639 -27.114129 29.282196 -0.090890 2.754365 -0.002737 0.002748 -96724.700000 0 0 1
11.886481 -2.078239 -27.723799 30.236014 -0.173091 2.731072 -0.009469 0.009704 -34433.900000 0 0 1
11.191581 -3.049239 -28.547149 30.813780 -0.266002 2.755642 -0.006127 -0.001596 312940.000000 0 0 1
12.032981 -4.178539 -28.762609 31.456962 -0.334229 2.724691 0.003389 0.002855 -189016.000000 0 0 1
11.356781 -5.508939 -28.415229 31.092605 -0.451640 2.723562 -0.002525 0.013096 -319687.000000 0 0 1
11.329281 -5.739139 -26.993899 29.832212 -0.468894 2.701841 -0.000814 0.006943 72072.600000 0 0 1
10.656081 -6.946339 -26.681539 29.558555 -0.577686 2.696724 0.002611 -0.001318 -18483.200000 0 0 1
10.096681 -6.937439 -25.191819 28.012475 -0.602016 2.688979 0.000017 0.002529 -648951.000000 0 0 1
11.039181 -7.023339 -24.199559 27.510170 -0.566626 2.645940 -0.003901 0.009700 -630477.000000 0 0 1
10.496481 -6.893639 -22.889359 26.107875 -0.581111 2.639801 -0.012752 0.012327 26861.600000 0 0 1
11.573081 -7.089439 -21.808159 25.686419 -0.549618 2.584915 -0.005152 0.012357 387637.000000 0 0 1
12.518881 -6.055139 -21.656459 25.736925 -0.450507 2.570766 0.001681 0.010343 -225770.000000 0 0 1
13.583281 -6.341739 -20.794059 25.634275 -0.436801 2.516967 0.006181 0.008537 141676.000000 0 0 1
14.205081 -5.103439 -20.128359 25.159099 -0.344908 2.498163 0.007090 0.001145 153904.000000 0 0 1
15.054481 -4.300739 -20.949359 26.153573 -0.278266 2.499782 0.008895 -0.005080 200972.000000 0 0 1
15.408481 -3.105739 -20.164659 25.567174 -0.198895 2.479477 -0.002330 0.000703 -213841.000000 0 0 1
16.290881 -2.048739 -20.823659 26.518199 -0.125103 2.473911 0.001006 -0.000588 198694.000000 0 0 1
17.557481 -2.572439 -21.190959 27.639452 -0.145480 2.444470 0.000058 -0.001031 -197570.000000 0 0 1
18.337081 -1.640239 -21.857259 28.577591 -0.089212 2.441588 -0.002009 0.001078 391472.000000 0 0 1
19.739881 -2.227339 -22.271559 29.843697 -0.112359 2.413242 0.001090 -0.001230 -206051.000000 0 0 1
20.551181 -2.343439 -21.102059 29.548936 -0.113539 2.366190 -0.007699 0.000060 552064.000000 0 0 1
21.823881 -2.967839 -21.228959 30.590171 -0.135161 2.337798 -0.010611 -0.002181 1040930.000000 0 0 1
22.889781 -2.316339 -22.179859 31.957059 -0.100852 2.337898 -0.010771 -0.002047 -919179.000000 0 0 1
22.536781 -2.487039 -23.521059 32.670048 -0.109910 2.374538 -0.004761 0.001956 -167689.000000 0 0 1
23.265481 -1.713839 -24.450959 33.794515 -0.073532 2.379682 -0.005193 0.006488 65571.000000 0 0 1
24.642281 -2.306939 -24.821459 35.052372 -0.093345 2.357635 0.000070 -0.001997 -168768.000000 0 0 1
25.682181 -2.128539 -23.832859 35.101428 -0.082691 2.317157 -0.003636 -0.006962 706041.000000 0 0 1
26.895981 -2.771239 -24.221459 36.300863 -0.102673 2.301296 -0.001838 -0.001480 593628.000000 0 0 1
27.814981 -1.877139 -25.108979 37.518764 -0.067384 2.303979 0.002715 -0.007302 -1087120.000000 0 0 1
27.355981 -1.647539 -26.397619 38.051260 -0.060153 2.337463 0.009148 -0.006172 -274426.000000 0 0 1
28.073181 -0.675039 -27.081319 39.012267 -0.024041 2.338069 0.004248 -0.013506 -553317.000000 0 0 1
27.416681 -0.393139 -28.438549 39.504177 -0.014338 2.374436 0.007440 -0.015941 793017.000000 0 0 1
26.018981 -0.084839 -28.487759 38.581692 -0.003261 2.401454 0.009230 -0.005192 779053.000000 0 0 1
25.684981 1.254661 -28.148359 38.126402 0.048809 2.401329 0.009498 0.004477 -221590.000000 0 0 1
24.179481 1.538161 -28.394579 37.326470 0.063529 2.435201 0.003940 0.002139 188720.000000 0 0 1
23.370881 1.048461 -27.323249 35.970228 0.044832 2.433505 0.009070 -0.001122 -1124200.000000 0 0 1
22.062981 1.364061 -27.546299 35.319037 0.061747 2.465347 0.005305 0.001523 -1327670.000000 0 0 1
21.093981 1.061061 -26.376699 33.790711 0.050259 2.466406 0.006389 0.000564 6525.530000 0 0 1
21.355681 1.762861 -25.183039 33.065968 0.082361 2.436575 0.000713 0.004053 179392.000000 0 0 1
20.377181 1.485761 -24.197859 31.669755 0.072784 2.440392 0.007901 0.004274 -157262.000000 0 0 1
20.613681 2.283961 -22.889859 30.888282 0.110348 2.405434 0.001419 -0.001475 -304299.000000 0 0 1
20.178281 3.658161 -22.773459 30.645972 0.179344 2.408509 0.008476 -0.005226 515478.000000 0 0 1
20.468581 4.110261 -21.436559 29.922953 0.198173 2.369413 0.006420 -0.010069 -179894.000000 0 0 1
20.237481 5.629561 -21.146259 29.806239 0.271316 2.359524 0.014687 -0.012871 -38042.800000 0 0 1
21.261181 6.420561 -21.733459 31.074180 0.293277 2.345362 0.018193 -0.008930 309042.000000 0 0 1
21.046881 7.862461 -21.517659 31.109470 0.357515 2.334603 0.010121 -0.013209 -354858.000000 0 0 1
21.446481 8.389561 -20.136859 30.591328 0.372885 2.289293 0.016180 -0.012340 -684144.000000 0 0 1
22.806781 8.628961 -19.895459 31.471217 0.361705 2.255159 0.016149 -0.005089 -155613.000000 0 0 1
23.107981 8.601561 -18.489959 30.819543 0.356343 2.214226 0.025858 -0.014851 84165.400000 0 0 1
22.452281 9.731161 -17.621359 30.154812 0.408977 2.194891 0.037643 -0.023504 1249260.000000 0 0 1
21.009081 9.762861 -17.505359 29.036744 0.435009 2.217889 0.030381 -0.021678 1386750.000000 0 0 1
20.520781 11.001461 -17.018759 28.840471 0.492119 2.201979 0.003058 -0.012220 1077540.000000 0 0 1
18.962581 11.279461 -17.096459 27.912267 0.536607 2.230025 0.013663 -0.008651 1398070.000000 0 0 1
18.477081 11.313461 -18.484659 28.479458 0.549412 2.277134 0.009581 -0.008031 301679.000000 0 0 1
17.755281 10.153661 -18.814759 27.791041 0.519477 2.314486 0.015866 -0.001245 -388083.000000 0 0 1
17.167981 10.261761 -20.254759 28.465744 0.538746 2.362496 0.004145 -0.013370 -479165.000000 0 0 1
18.036481 10.213161 -21.336159 29.746512 0.515234 2.370667 0.021539 -0.022082 -464827.000000 0 0 1
17.359181 10.245861 -22.536659 30.236068 0.533203 2.411866 0.023420 -0.019320 -132384.000000 0 0 1
18.288881 10.525761 -23.786259 31.797184 0.522231 2.415933 0.042135 -0.022197 109169.000000 0 0 1
18.801081 11.826461 -23.813059 32.563900 0.561493 2.390981 0.037978 -0.015946 188206.000000 0 0 1
19.383981 12.148061 -25.062959 33.933258 0.559825 2.401781 0.049823 -0.017159 -36225.200000 0 0 1
19.791581 13.621361 -25.157619 34.787267 0.602790 2.379199 0.044660 -0.025059 -21736.900000 0 0 1
20.512181 13.885461 -26.368189 36.177852 0.595079 2.387436 0.033252 -0.035813 374633.000000 0 0 1
20.456081 15.271761 -26.701709 36.941294 0.641298 2.378663 0.038948 -0.024657 116729.000000 0 0 1
19.149381 15.745861 -27.386409 36.941120 0.688170 2.405880 0.033779 -0.020226 430096.000000 0 0 1
17.994781 15.722161 -26.578309 35.740803 0.718097 2.409295 0.036604 -0.019753 306605.000000 0 0 1
16.793281 16.047461 -27.281419 35.830310 0.762692 2.436276 0.026924 -0.020224 648914.000000 0 0 1
15.498581 15.629461 -26.563999 34.498291 0.789603 2.449652 0.027415 -0.028045 -274994.000000 0 0 1
15.239781 14.209061 -26.532719 33.736234 0.750412 2.475878 0.021124 -0.016556 99910.700000 0 0 1
13.905881 13.892461 -26.204429 32.757382 0.784915 2.498016 0.011983 -0.016488 -184377.000000 0 0 1
13.757581 12.373061 -26.022559 31.930193 0.732463 2.523496 0.012751 -0.015269 580768.000000 0 0 1
12.420781 11.855261 -26.038349 31.190040 0.762107 2.558618 0.013643 -0.016039 491240.000000 0 0 1
12.448481 10.522761 -25.598379 30.347490 0.701762 2.574579 0.015288 -0.015851 132095.000000 0 0 1
11.001681 9.992061 -25.550919 29.558886 0.737344 2.614767 0.016387 -0.019492 70161.800000 0 0 1
10.271181 10.380761 -24.425359 28.457960 0.790704 2.602736 0.017339 -0.019814 435790.000000 0 0 1
9.173081 9.546161 -24.044459 27.448326 0.805326 2.638281 0.017313 -0.018729 71452.600000 0 0 1
8.199881 10.041661 -23.000659 26.402714 0.886023 2.628331 0.006673 -0.014852 -509870.000000 0 0 1
7.384481 11.107261 -23.431559 26.961820 0.984064 2.624104 0.003142 -0.019086 181374.000000 0 0 1
6.794581 11.935461 -22.374059 26.253001 1.053274 2.591063 0.005154 -0.002338 705312.000000 0 0 1
7.828081 12.763761 -21.543759 26.235967 1.020651 2.534226 0.016672 -0.009825 446352.000000 0 0 1
8.571981 12.061461 -20.574659 25.343131 0.952931 2.518099 0.020018 -0.023719 -213611.000000 0 0 1
9.496081 12.819861 -19.843959 25.461875 0.933253 2.464440 0.031061 -0.023322 -485338.000000 0 0 1
10.642381 12.101561 -19.133859 25.016247 0.849467 2.441616 0.030942 -0.023623 224680.000000 0 0 1
11.664281 11.446561 -19.919259 25.765405 0.775978 2.454512 0.039527 -0.023400 472698.000000 0 0 1
11.289281 10.530161 -20.907959 25.989900 0.750621 2.505570 0.033851 -0.023835 -716214.000000 0 0 1
12.496181 9.941661 -21.698659 26.941102 0.672038 2.507165 0.039804 -0.023038 86667.300000 0 0 1
13.183581 8.929461 -21.019359 26.369595 0.595340 2.493283 0.049867 -0.027036 -254743.000000 0 0 1
14.054481 8.272561 -21.890759 27.297784 0.532000 2.501306 0.041013 -0.025854 -406377.000000 0 0 1
14.612881 7.003661 -21.250659 26.724110 0.446935 2.490112 0.043845 -0.024875 806335.000000 0 0 1
15.545181 7.159161 -20.116959 26.412086 0.431583 2.436663 0.024081 -0.024595 926999.000000 0 0 1
16.007481 5.926061 -19.600059 25.990767 0.354561 2.425104 0.011600 -0.035283 -805961.000000 0 0 1
16.984781 6.120761 -18.472459 25.829794 0.345881 2.367651 0.019591 -0.035569 -1091880.000000 0 0 1
18.237881 6.581561 -18.944159 27.107534 0.346328 2.344588 0.010825 -0.040773 169377.000000 0 0 1
19.070881 7.002661 -17.863559 27.052588 0.351907 2.292051 0.016491 -0.030165 -78069.700000 0 0 1
19.745881 5.937861 -16.955759 26.695613 0.292112 2.259001 0.008334 -0.032473 -502070.000000 0 0 1
21.050981 5.587661 -17.396359 27.874703 0.259452 2.244764 0.012239 -0.035493 512259.000000 0 0 1
21.529981 4.560261 -16.568159 27.547050 0.208725 2.216111 0.012618 -0.033188 316134.000000 0 0 1
22.942781 4.032661 -16.998659 28.837267 0.173993 2.201197 -0.011942 -0.002474 344219.000000 0 0 1
23.344781 2.854161 -16.271359 28.598639 0.121657 2.176032 -0.011002 -0.005270 -38895.600000 0 0 1
24.463181 2.294161 -16.905859 29.824796 0.093507 2.173460 -0.009950 -0.006498 -476296.000000 0 0 1
24.836281 1.092061 -16.019059 29.574376 0.043942 2.143199 0.008092 -0.013297 4947.980000 0 0 1
24.276881 -0.177039 -16.324559 29.255590 -0.007292 2.162768 0.003486 -0.005527 357673.000000 0 0 1
25.379681 -1.033639 -16.624659 30.357469 -0.040705 2.150325 0.005087 0.004676 286492.000000 0 0 1
25.073581 -2.564239 -16.688359 30.228482 -0.101914 2.155646 -0.006475 0.000444 -428836.000000 0 0 1
24.646181 -3.132339 -15.451659 29.257470 -0.126415 2.127190 0.001986 0.002605 387189.000000 0 0 1
24.464281 -4.553139 -15.614559 29.377654 -0.184008 2.131180 0.003638 -0.001698 -937572.000000 0 0 1
23.941281 -5.222639 -14.304859 28.374106 -0.214779 2.099196 -0.001746 -0.000594 639812.000000 0 0 1
22.566981 -5.028039 -13.967459 27.011844 -0.219224 2.114240 -0.005113 0.005579 593846.000000 0 0 1
21.670281 -5.719039 -14.838659 26.879254 -0.258028 2.155616 -0.001778 0.007456 -828743.000000 0 0 1
20.224281 -5.586339 -14.344259 25.416264 -0.269500 2.170470 0.003595 0.002014 -717922.000000 0 0 1
19.816181 -6.444839 -13.316359 24.729383 -0.314441 2.139432 0.000791 0.005281 418869.000000 0 1 0
20.343881 -6.106239 -12.034559 24.412912 -0.291595 2.086283 0.009553 0.001104 -531022.000000 0 1 0
20.293581 -7.397039 -11.140559 24.303450 -0.349535 2.046984 0.021464 0.002282 89829.200000 0 1 0
18.963981 -7.871839 -10.964959 23.277215 -0.393451 2.061288 0.024756 -0.000401 716270.000000 0 1 0
18.599881 -8.872439 -11.855159 23.774367 -0.445092 2.092840 0.016232 -0.004349 163708.000000 0 1 0
17.138281 -9.434139 -11.842359 22.868431 -0.503205 2.115129 0.024508 -0.005523 939068.000000 0 1 0
16.162781 -8.433139 -12.126359 21.895248 -0.480906 2.157760 0.023302 -0.005885 -575104.000000 0 1 0
14.878981 -8.887039 -12.334359 21.272046 -0.538423 2.189327 0.020445 -0.005845 -631128.000000 0 1 0
13.861181 -7.728639 -12.434759 20.161533 -0.508640 2.235412 0.023258 -0.014007 -528085.000000 0 1 0
13.901481 -6.902939 -13.589159 20.629275 -0.460893 2.289928 0.016290 -0.009881 -904063.000000 0 1 0
15.026981 -6.118439 -13.682559 21.223993 -0.386667 2.271393 0.014986 -0.006716 -905617.000000 0 1 0
14.910481 -4.979939 -14.742259 21.551251 -0.322341 2.324105 0.001815 -0.008024 139817.000000 0 1 0
13.902081 -3.998439 -14.507959 20.487465 -0.280055 2.357654 0.015979 -0.011470 214678.000000 0 1 0
13.767781 -3.103239 -15.552059 21.001153 -0.221694 2.404660 0.020325 -0.010183 308543.000000 0 1 0
14.829781 -1.967039 -15.799359 21.758019 -0.131871 2.383487 -0.002645 -0.010298 213393.000000 0 1 0
15.920281 -2.321839 -16.681459 23.175792 -0.144821 2.374281 -0.003943 -0.003350 892693.000000 0 1 0
17.055581 -1.497939 -16.424659 23.725642 -0.087602 2.335433 0.011695 0.002316 -28701.200000 0 1 0
18.009281 -2.010539 -15.356059 23.752579 -0.111179 2.273785 -0.004418 -0.000344 -1931470.000000 0 1 0
17.449781 -2.130439 -14.035959 22.495372 -0.121488 2.244582 -0.004639 0.001715 270797.000000 0 1 0
18.442581 -2.666839 -13.183659 22.826513 -0.143607 2.186532 -0.005397 0.005870 -147284.000000 0 1 0
18.135481 -2.761739 -11.665259 21.739391 -0.151123 2.137194 0.001071 0.000698 -432194.000000 0 1 0
18.085981 -1.463239 -11.039059 21.239223 -0.080729 2.117353 0.008712 0.002365 636262.000000 0 1 0
17.538981 -1.667939 -9.760159 20.140968 -0.094814 2.076693 0.007376 0.004134 -830026.000000 0 1 0
17.382681 -0.350339 -9.007459 19.580977 -0.020152 2.048804 -0.003315 0.005202 206032.000000 0 1 0
18.597281 0.155261 -8.424159 20.416891 0.008348 1.996111 -0.011575 0.014233 1213080.000000 0 1 0
19.573281 0.733361 -9.272859 21.671111 0.037450 2.012954 -0.015291 0.020257 -218495.000000 0 1 0
19.135281 2.044261 -10.035959 21.703881 0.106428 2.051501 -0.021041 0.015058 -681893.000000 0 1 0
19.288981 3.279061 -9.292559 21.660302 0.168387 2.014197 -0.007870 0.030603 473347.000000 0 1 0
18.394681 4.196061 -9.846359 21.281964 0.224275 2.051792 -0.021483 0.012769 -613835.000000 0 1 0
18.557881 5.652661 -9.395859 21.555271 0.295668 2.021830 0.003466 0.018603 -638275.000000 0 1 0
17.640081 6.513161 -10.019959 21.307119 0.353698 2.060386 -0.011010 0.009705 -113220.000000 0 1 0
18.040281 7.852661 -9.958459 22.051914 0.410550 2.039345 -0.003649 0.013994 -302762.000000 0 1 0
-24.864319 -29.565069 5.925741 39.082503 0.871549 1.418588 0.034718 -0.004831 -87544.900000 0 0 1
-25.227659 -28.446599 6.720541 38.611001 0.845298 1.395848 0.035827 -0.006998 451126.000000 0 0 1
-24.127319 -27.512159 6.860541 37.230544 0.850852 1.385465 0.029718 0.002255 -87284.000000 0 0 1
-24.399419 -26.337519 7.809241 36.742085 0.823579 1.356621 0.023121 0.009599 -399593.000000 0 0 1
-25.530569 -25.528679 7.515941 36.878351 0.785361 1.365555 0.014210 0.007279 293531.000000 0 0 1
-26.772459 -26.160169 7.808441 38.237295 0.773831 1.365140 0.018095 0.004374 -301201.000000 0 0 1
-27.193679 -26.241559 9.320541 38.922848 0.767582 1.328985 0.004905 0.004091 -794516.000000 0 0 1
-26.276469 -26.925479 10.137441 38.964111 0.797597 1.307594 0.010345 0.005038 -462074.000000 0 0 1
-26.624349 -27.068479 11.490441 39.668486 0.793670 1.276923 0.003489 0.003375 -546146.000000 0 0 1
-25.633439 -27.975349 12.272641 39.878704 0.829056 1.257970 -0.005317 0.007072 139974.000000 0 0 1
-24.422619 -27.340909 12.585341 38.760552 0.841716 1.240108 0.006423 0.017750 -417267.000000 0 0 1
-24.498019 -26.341269 13.635141 38.469890 0.821639 1.208485 0.011933 0.021843 -1098280.000000 0 0 1
-23.118819 -26.049359 14.203741 37.613763 0.844930 1.183571 0.019224 0.016542 -377737.000000 0 0 1
-22.597419 -27.047739 15.055141 38.325981 0.874802 1.167102 0.023614 0.011885 6374.180000 0 0 1
-21.582919 -26.551299 15.914941 37.736974 0.888253 1.135440 0.028609 0.013683 236733.000000 0 0 1
-20.779319 -27.654329 16.636741 38.383892 0.926403 1.122501 0.026757 -0.001733 5225.150000 0 0 1
-21.559319 -28.310479 17.604741 39.701566 0.919956 1.111378 0.036276 -0.004314 418860.000000 0 0 1
-20.965219 -29.575389 17.913541 40.436852 0.954140 1.111854 0.033493 0.008785 86211.100000 0 0 1
-21.943019 -30.367239 18.794441 41.915347 0.945071 1.105833 0.040190 -0.006100 286233.000000 0 0 1
-23.040519 -30.952219 18.088441 42.615690 0.930895 1.132436 0.018806 -0.002633 575078.000000 0 0 1
-23.573019 -32.069549 18.801741 44.018731 0.936926 1.129480 0.012901 0.007824 55925.400000 0 0 1
-24.680319 -32.803639 18.001641 44.824725 0.925783 1.157532 0.008210 0.004529 165768.000000 0 0 1
-24.118219 -33.555949 16.919541 44.653791 0.947599 1.182184 0.005438 0.009243 -80973.600000 0 0 1
-24.934119 -34.597410 16.494341 45.724767 0.946317 1.201745 0.002303 0.013814 -815023.000000 0 0 1
-24.448419 34.237574 15.128041 44.707878 -0.950682 1.225607 -0.004682 0.004977 -225218.000000 0 0 1
-23.266219 33.475555 15.130841 43.484159 -0.963420 1.215400 -0.014002 0.007742 -609303.000000 0 0 1
-22.182419 34.295311 14.806141 43.444791 -0.996670 1.223025 -0.010525 0.007662 -1350930.000000 0 0 1
-20.937719 33.409554 14.719341 42.086166 -1.010977 1.213500 0.012234 0.001148 -539483.000000 0 0 1
-20.928319 32.507927 13.669941 41.007647 -0.998798 1.230941 0.014457 -0.002120 343337.000000 0 0 1
-19.786219 31.676237 13.842041 39.830648 -1.012457 1.215869 0.008147 0.001243 136452.000000 0 0 1
-19.556019 30.579707 12.767941 38.478262 -1.001831 1.232562 0.007771 -0.001798 -322115.000000 0 0 1
-19.112019 31.196827 11.606341 38.382528 -1.021144 1.263601 0.000949 0.000258 -46769.500000 0 0 1
-19.418719 30.343557 10.521641 37.530295 -1.001510 1.286637 0.008595 -0.002570 -137801.000000 0 0 1
-18.837519 30.854497 9.223741 37.308571 -1.022672 1.320977 -0.010835 -0.002802 101636.000000 0 0 1
-17.427519 30.665347 9.178141 36.446127 -1.054002 1.316228 -0.014765 -0.012580 160183.000000 0 0 1
-16.803319 31.458867 8.145641 36.583648 -1.080214 1.346256 -0.012503 -0.010235 218814.000000 0 0 1
-16.441419 30.649747 6.841941 35.447700 -1.078432 1.376562 -0.020178 -0.001918 -384372.000000 0 0 1
-17.471819 29.844407 6.317341 35.154827 -1.041159 1.390114 -0.016961 -0.002732 -135927.000000 0 0 1
-17.198319 28.536447 6.786241 34.002412 -1.028409 1.369866 -0.011710 0.000433 -172993.000000 0 0 1
-18.198019 27.504427 6.299641 33.575987 -0.986282 1.382054 -0.006468 0.002307 -256618.000000 0 0 1
-17.889219 27.100067 4.939641 32.845667 -0.987342 1.419834 0.001966 -0.006815 73204.800000 0 0 1
-18.934019 26.403727 4.309941 32.775440 -0.948688 1.438915 0.006438 -0.012163 -863789.000000 0 0 1
-18.634919 25.697247 2.987341 31.883113 -0.943376 1.476962 0.023891 -0.017352 -1664750.000000 0 0 1
-18.363219 26.411217 1.777241 32.216747 -0.963244 1.515603 0.025397 -0.019176 20848.100000 0 0 1
-17.100019 27.026047 1.693541 32.026332 -1.006662 1.517892 0.015630 -0.013710 320296.000000 0 0 1
-15.837619 26.087467 1.891041 30.577151 -1.025175 1.508912 0.012873 -0.015339 -657457.000000 0 0 1
-15.791819 24.864057 1.167141 29.478214 -1.004948 1.531193 0.026362 -0.013598 -7954.800000 0 0 1
-15.385119 25.040257 -0.169359 29.389539 -1.019845 1.576559 0.030493 -0.012570 -96861.100000 0 0 1
-14.961019 23.704327 -0.845359 28.043570 -1.007786 1.600945 0.043861 -0.020689 480960.000000 0 0 1
-16.058619 22.798327 -0.997459 27.904083 -0.957139 1.606550 0.054913 -0.027683 656444.000000 0 0 1
-15.689119 21.691727 -1.836759 26.833806 -0.944619 1.639299 0.055619 -0.023340 38435.100000 0 0 1
-14.831119 20.644627 -1.117359 25.444276 -0.947827 1.614724 0.050715 -0.025386 375651.000000 0 0 1
-15.627019 19.866727 -0.218359 25.277228 -0.904284 1.579435 0.061479 -0.029453 328669.000000 0 0 1
-14.788419 18.881527 0.299641 23.985395 -0.906370 1.558303 0.068525 -0.041776 -317448.000000 0 1 0
-15.455719 17.727327 1.053541 23.542458 -0.853748 1.526031 0.048781 -0.039027 -183178.000000 0 1 0
-15.939419 16.753527 0.151441 23.125066 -0.810295 1.564247 0.045461 -0.035759 -71053.000000 0 1 0
-16.919119 16.015727 0.793241 23.310713 -0.757975 1.536761 0.045982 -0.037907 -491580.000000 0 1 0
-17.547219 14.899227 -0.069259 23.019484 -0.703967 1.573805 0.054485 -0.032423 -336528.000000 0 1 0
-18.504519 15.316827 -1.014059 24.042685 -0.691425 1.612986 0.048329 -0.030668 105487.000000 0 1 0
-19.312319 14.258327 -1.448559 24.049197 -0.635972 1.631066 0.039065 -0.024584 -1077700.000000 0 1 0
-20.520819 14.771927 -2.230859 25.382879 -0.623925 1.658798 0.050646 -0.005725 -1588630.000000 0 0 1
-21.375919 13.797027 -2.771159 25.592327 -0.573168 1.679290 0.026858 -0.006594 826655.000000 0 0 1
-22.340219 13.320727 -1.798859 26.072266 -0.537670 1.639846 0.017773 -0.004778 -199175.000000 0 0 1
-23.462319 14.290627 -1.326659 27.503862 -0.547075 1.619050 -0.006126 -0.000030 -960522.000000 0 0 1
-23.083219 15.412427 -0.598059 27.762125 -0.588711 1.592340 -0.005036 -0.010194 908643.000000 0 0 1
-24.267319 16.003627 -0.021359 29.069216 -0.583005 1.571531 0.001120 -0.005029 516506.000000 0 0 1
-23.878119 17.273527 0.721641 29.479825 -0.626261 1.546315 0.000109 -0.005714 183724.000000 0 0 1
-23.208619 16.921127 1.931841 28.787090 -0.629983 1.503638 0.002005 -0.003122 577342.000000 0 0 1
-22.455419 17.944327 2.599341 28.861762 -0.674197 1.480612 0.000784 -0.008073 56675.700000 0 0 1
-23.287919 18.998627 3.377041 30.243667 -0.684310 1.458902 -0.006928 -0.014446 -763124.000000 0 0 1
-24.183919 18.358927 4.283041 30.663603 -0.649324 1.430660 -0.004116 -0.011379 -38594.600000 0 0 1
-25.441739 18.964627 4.368141 32.031544 -0.640560 1.434000 -0.004494 -0.021023 73600.100000 0 0 1
-26.361939 18.681227 3.107341 32.459138 -0.616504 1.474919 0.008285 -0.016380 -1149140.000000 0 0 1
-27.596379 19.327027 3.118741 33.835198 -0.610958 1.478491 0.004325 -0.015537 -116654.000000 0 0 1
-28.415319 19.040827 1.997541 34.263298 -0.590369 1.512464 -0.005000 -0.008366 302537.000000 0 0 1
-29.689949 19.912427 1.827541 35.795778 -0.590775 1.519719 -0.001229 -0.015267 622059.000000 0 0 1
-30.731739 19.498327 2.729741 36.497617 -0.565379 1.495934 0.019727 -0.015112 1209350.000000 0 0 1
-31.974029 20.184027 2.455841 37.891485 -0.563090 1.505938 0.009150 -0.014932 739348.000000 0 0 1
-32.561329 20.857727 3.672941 38.842958 -0.569716 1.476096 0.007065 -0.018712 -609740.000000 0 0 1
-31.691309 21.873927 4.109441 38.725899 -0.604131 1.464480 0.009255 -0.018739 350734.000000 0 0 1
-31.863029 22.217227 5.487841 39.229761 -0.608893 1.430446 0.008838 -0.019070 -322438.000000 0 0 1
-30.730719 23.122927 6.004641 38.924318 -0.645059 1.415913 0.014647 -0.010568 -310540.000000 0 0 1
-30.699549 24.373587 5.332841 39.559743 -0.671035 1.435580 0.011437 -0.006899 -526587.000000 0 0 1
-29.729769 25.195727 5.797841 39.399223 -0.703036 1.423104 0.002246 -0.003000 -845359.000000 0 0 1
-30.184769 26.712297 5.657341 40.702243 -0.724443 1.431351 0.000699 0.001958 -355326.000000 0 0 1
-31.267509 27.074247 6.475141 41.864059 -0.713647 1.415502 0.012556 0.008519 5454.420000 0 0 1
-31.520479 28.437747 6.337541 42.923309 -0.734029 1.422607 0.004857 0.012825 -359885.000000 0 0 1
-32.614389 29.015237 7.222641 44.246456 -0.727065 1.406826 0.008538 0.017903 -1042530.000000 0 0 1
-32.065839 29.423267 8.475141 44.337058 -0.742448 1.378460 0.011555 0.010878 484391.000000 0 0 1
-32.926469 30.118237 9.389241 45.600640 -0.740884 1.363411 0.014228 0.009190 -494560.000000 0 0 1
-34.019599 29.273127 10.023041 45.985981 -0.710546 1.351074 0.013225 0.006641 -706859.000000 0 0 1
-33.617079 28.185117 10.829241 45.186074 -0.697731 1.328782 0.013165 0.007202 896333.000000 0 0 1
-34.759734 27.622157 11.492341 45.861711 -0.671476 1.317510 0.014056 0.004712 776031.000000 0 0 1
-34.230002 26.292607 12.140141 44.837230 -0.654995 1.296614 0.019605 0.005898 -522313.000000 0 0 1
-33.275959 26.510767 13.114041 44.520650 -0.672722 1.271800 0.016164 -0.000986 -523731.000000 0 0 1
-32.909529 25.304497 13.676741 43.708213 -0.655495 1.252541 0.018550 0.000640 -740184.000000 0 0 1
-31.784289 25.574077 14.639241 43.342610 -0.677548 1.226264 0.014240 0.004176 -754454.000000 0 0 1
-32.115159 26.596507 15.543141 44.501088 -0.691678 1.213998 0.007185 0.002236 344514.000000 0 0 1
-30.940029 27.220737 16.064141 44.230199 -0.721537 1.199103 0.023788 0.005446 323557.000000 0 0 1
-31.163459 28.502707 16.964241 45.512097 -0.740834 1.188835 0.006712 0.005271 -453120.000000 0 0 1
-31.535979 29.703477 16.308441 46.290169 -0.755484 1.210759 0.018365 -0.001377 92739.700000 0 0 1
-31.687129 30.722637 17.290841 47.401769 -0.769945 1.197408 0.012135 0.002091 -82145.400000 0 0 1
-31.329159 32.073537 16.635541 47.822267 -0.797138 1.215507 0.010924 -0.002037 516453.000000 0 0 1
-29.929519 32.134307 16.375041 46.867171 -0.820908 1.213874 0.002434 0.009588 343912.000000 0 0 1
-29.526339 33.244737 15.525241 47.096182 -0.844566 1.234864 0.011470 0.012433 -414700.000000 0 0 1
-28.026369 33.153087 15.210341 45.999554 -0.869001 1.233791 0.017345 0.007855 -459673.000000 0 0 1
-27.679229 32.295217 14.102041 44.810583 -0.862213 1.250652 0.014351 0.007908 132902.000000 0 0 1
-27.441269 30.984277 14.553641 43.873194 -0.845965 1.232669 0.010972 0.008106 63737.800000 0 0 1
-28.529919 29.939867 14.125141 43.702077 -0.809508 1.241672 0.026477 0.006534 459983.000000 0 0 1
-28.630079 29.734017 12.747241 43.200525 -0.804311 1.271266 0.037929 -0.005185 -690520.000000 0 0 1
-29.644169 28.864527 12.386941 43.189975 -0.772074 1.279910 0.036287 -0.002273 -228124.000000 0 0 1
-29.748029 28.636937 10.890241 42.703826 -0.766370 1.312930 0.040904 0.002042 -151817.000000 0 0 1
-28.729939 27.803057 10.428241 41.317884 -0.769004 1.315646 0.020000 0.009590 -392280.000000 0 0 1
-28.717119 28.011677 9.006641 41.115040 -0.772963 1.349946 0.022864 0.000968 132300.000000 0 0 1
-27.561349 27.278597 8.278941 39.652121 -0.780242 1.360459 0.006814 0.002707 321528.000000 0 0 1
-27.220909 27.911837 7.014541 39.613789 -0.797930 1.392784 0.003087 0.000147 -273977.000000 0 0 1
-26.316599 27.159137 6.236941 38.328599 -0.801152 1.407347 0.000538 0.000980 -220749.000000 0 0 1
-26.107099 27.611007 4.786241 38.299562 -0.813387 1.445500 -0.009816 -0.001887 -30459.900000 0 0 1
-25.159669 28.656237 4.605841 38.410970 -0.850280 1.450598 -0.000179 -0.008317 261006.000000 0 0 1
-25.054219 28.990507 3.252341 38.454403 -0.858104 1.486119 -0.001095 -0.007238 -406942.000000 0 0 1
-23.914519 29.965457 2.935041 38.450582 -0.897234 1.494389 -0.000025 -0.009748 -609444.000000 0 0 1
-22.626719 29.432067 3.058541 37.250096 -0.915385 1.488596 0.000700 -0.010409 -657256.000000 0 0 1
-21.696719 30.470897 2.879641 37.516870 -0.952031 1.493965 0.007187 -0.012797 -255146.000000 0 0 1
-20.249219 29.972037 3.022041 36.297198 -0.976632 1.487442 -0.008102 -0.019269 149856.000000 0 0 1
-19.284719 31.004467 2.808941 36.620589 -1.014359 1.494017 -0.010308 -0.010274 -229526.000000 0 0 1
-17.985719 30.535987 3.077041 35.572472 -1.038504 1.484187 -0.003643 -0.006758 223865.000000 0 0 1
-16.902219 31.594317 2.668841 35.930608 -1.079561 1.496450 -0.001639 -0.007289 25747.900000 0 0 1
-16.845619 32.764707 3.409741 36.999017 -1.095901 1.478508 -0.003287 -0.006788 -27225.100000 0 0 1
-15.898419 33.595684 2.782141 37.271571 -1.128795 1.496082 0.001363 0.004310 -170539.000000 0 0 1
-15.548319 -34.507740 3.660641 38.025447 1.147464 1.474379 0.002145 0.001437 270081.000000 0 0 1
-16.535519 -33.475239 3.641341 37.513656 1.111990 1.473576 0.004489 -0.003211 269180.000000 0 0 1
-16.252919 -32.515309 4.628341 36.644566 1.107265 1.444154 -0.005139 -0.007258 492333.000000 0 0 1
-17.439519 -31.499799 4.817241 36.326023 1.065164 1.437793 -0.008093 -0.003716 465114.000000 0 0 1
-17.685319 -30.632199 3.713241 35.565296 1.047202 1.466199 0.001134 -0.007168 -263180.000000 0 0 1
-18.689419 -29.719399 3.986441 35.333111 1.009424 1.457731 0.007956 -0.012653 -673143.000000 0 0 1
-19.110119 -28.796939 2.790541 34.673440 0.984908 1.490229 -0.000784 -0.016978 -480855.000000 0 0 1
-18.199219 -27.797029 2.582541 33.325004 0.991111 1.493223 -0.009829 -0.002344 -548034.000000 0 0 1
-18.664019 -26.896279 1.582141 32.775884 0.964159 1.522506 -0.014028 0.004361 -468595.000000 0 0 1
-17.791519 -25.715959 1.346041 31.299529 0.965563 1.527778 -0.010835 0.002122 -256547.000000 0 0 1
-16.510419 -26.066449 0.860641 30.867368 1.006181 1.542911 -0.015280 0.007277 -383041.000000 0 0 1
-15.614219 -24.990339 0.945141 29.482438 1.012334 1.538733 -0.008374 0.007595 66894.100000 0 0 1
-14.350819 -25.097409 0.061541 28.910720 1.051367 1.568668 0.011621 0.005645 -265301.000000 0 0 1
-14.506919 -25.248019 -1.352159 29.150326 1.049280 1.617199 0.013324 0.003792 -40433.000000 0 0 1
-14.862119 -24.039439 -2.002959 28.333532 1.017074 1.641548 0.033918 0.004547 -9466.740000 0 0 1
-14.970319 -24.283739 -3.527159 28.744587 1.018351 1.693813 0.017655 0.000975 -165566.000000 0 0 1
-13.675019 -24.552339 -3.990459 28.385687 1.062614 1.711843 0.033844 0.001753 -174072.000000 0 0 1
-13.650619 -24.548239 -5.386959 28.600258 1.063302 1.760282 0.035551 -0.001509 425594.000000 0 0 1
-12.415519 -25.234519 -6.034859 28.763615 1.113565 1.782176 0.047498 -0.009153 304064.000000 0 0 1
-12.495119 -26.653879 -5.991959 30.040986 1.132426 1.771603 0.030505 -0.008357 140189.000000 0 0 1
-11.275219 -27.216189 -6.476059 30.162739 1.178038 1.787185 0.030398 -0.002486 558416.000000 0 0 1
22.133681 12.970761 28.790439 38.562026 0.530076 0.727859 0.006744 0.012407 -388348.000000 0 0 1
22.649781 11.647661 28.801219 38.447247 0.474983 0.724079 -0.005136 0.012763 22750.100000 0 0 1
22.033381 10.706461 29.604589 38.425641 0.452320 0.691268 -0.011573 0.014652 -1083010.000000 0 0 1
22.220481 10.957761 31.127309 39.783560 0.458143 0.672260 0.008538 0.010040 -173612.000000 0 0 1
21.366981 11.971861 31.600299 39.980648 0.510715 0.659351 0.008002 0.013070 169967.000000 0 0 1
21.785081 12.484661 32.860919 41.355731 0.520392 0.652462 0.017045 0.005398 379617.000000 0 0 1
20.759081 13.544761 33.366891 41.566205 0.578112 0.638919 0.003535 0.014837 -244732.000000 0 0 1
19.589181 13.089261 33.936512 41.312851 0.589055 0.606844 0.008601 0.017656 -357707.000000 0 0 1
18.761481 14.106461 34.470910 41.704065 0.644706 0.597828 0.012620 0.016445 -287707.000000 0 0 1
17.527681 13.656661 -34.017969 40.631837 0.661896 2.562984 0.001806 0.017521 -496333.000000 0 0 1
16.438581 13.373561 34.392318 40.396914 0.682947 0.552224 -0.006421 0.021688 -401699.000000 0 0 1
15.501081 12.747461 -34.049529 39.524065 0.688227 2.608990 -0.012392 0.015334 -487896.000000 0 0 1
14.257981 12.223561 34.471287 39.255256 0.708725 0.498853 -0.015210 0.017714 27164.000000 0 0 1
14.472781 11.053661 33.634028 38.247780 0.652246 0.496255 -0.023406 0.025725 242701.000000 0 0 1
13.230381 10.445561 33.265913 37.293078 0.668314 0.469017 -0.016629 0.020894 346603.000000 0 0 1
13.205381 9.400161 32.143479 35.999283 0.618630 0.467068 -0.015891 0.021014 -466382.000000 0 0 1
13.826081 8.214861 32.578329 36.331694 0.536112 0.458558 -0.027878 0.019774 -66179.700000 0 0 1
14.268381 7.454061 31.445919 35.326980 0.481421 0.473146 -0.022838 0.004641 185038.000000 0 0 1
14.788381 6.040361 31.917329 35.691709 0.387772 0.464043 -0.001787 -0.004239 -266739.000000 0 0 1
13.774281 5.189361 32.373989 35.563119 0.360298 0.426728 -0.014876 0.002396 -476016.000000 0 0 1
14.271281 3.940461 32.783129 35.971242 0.269399 0.424195 -0.015041 -0.001301 -286425.000000 0 0 1
13.159181 2.958661 33.112659 35.754243 0.221159 0.386807 -0.011558 0.001093 -486900.000000 0 0 1
13.636981 1.696161 33.396664 36.113452 0.123744 0.390364 -0.003267 -0.005017 -321009.000000 0 0 1
12.581281 0.818661 33.706450 35.987270 0.064978 0.357937 -0.005461 -0.003421 -813307.000000 0 0 1
13.038481 -0.524039 34.162958 36.570265 -0.040170 0.364862 -0.027452 0.003302 -210695.000000 0 0 1
13.334781 -1.400639 33.098239 35.710945 -0.104653 0.384896 -0.035355 0.009838 5760.930000 0 0 1
13.714381 -2.716739 33.476688 36.278831 -0.195562 0.395612 -0.015675 0.006452 -444069.000000 0 0 1
13.890581 -3.760439 32.293489 35.354753 -0.264382 0.419205 -0.007129 0.006657 -1016770.000000 0 0 1
14.298281 -5.085239 32.615899 35.973565 -0.341703 0.435491 0.002234 0.003928 319186.000000 0 0 1
15.512981 -5.361739 33.310612 37.134858 -0.332776 0.457822 -0.008989 0.006087 693015.000000 0 0 1
16.806681 -4.895339 32.566699 36.973217 -0.283432 0.493208 0.009092 0.001733 -548057.000000 0 0 1
16.909981 -3.469639 32.494389 36.794988 -0.202374 0.488325 0.010755 0.001054 -573917.000000 0 0 1
17.921681 -3.046939 31.643329 36.493435 -0.168404 0.521453 0.028235 -0.003541 -636115.000000 0 0 1
18.008881 -1.490639 31.548559 36.357302 -0.082584 0.520166 0.032440 -0.008339 -659204.000000 0 0 1
18.335981 -0.883639 32.788999 37.578019 -0.048154 0.510382 0.020444 -0.005930 61058.600000 0 0 1
18.179781 0.525461 32.759139 37.469211 0.028896 0.506815 0.013785 -0.005755 -7507.760000 0 0 1
19.401181 1.366661 32.328189 37.727780 0.070326 0.541609 0.027542 -0.010890 -309047.000000 0 0 1
19.621381 1.360661 30.945109 36.666739 0.069235 0.566181 0.042744 -0.014708 269426.000000 0 0 1
20.745781 2.120761 30.525659 36.968918 0.101872 0.599334 0.028193 -0.009308 220857.000000 0 0 1
20.318081 3.583961 30.243729 36.610823 0.174597 0.598668 0.023122 0.000619 -133586.000000 0 0 1
19.985481 4.311561 31.414409 37.481650 0.212478 0.576955 0.010714 -0.004849 470230.000000 0 0 1
19.356281 5.580761 31.144849 37.091942 0.280705 0.574128 0.012506 -0.008475 -236763.000000 0 0 1
18.891081 6.218761 32.448269 38.058325 0.318017 0.549869 0.015246 -0.009479 -354426.000000 0 0 1
17.763981 5.653561 33.056149 37.950372 0.308124 0.513488 0.005189 -0.000766 -159111.000000 0 0 1
17.775781 6.041761 34.419156 39.206627 0.327637 0.499356 -0.001756 0.001294 179537.000000 0 0 1
16.679681 5.379461 -33.959009 38.214718 0.311983 2.665161 0.001559 -0.002020 93175.400000 0 0 1
16.826381 4.007361 -33.728349 37.904981 0.233804 2.667732 -0.011050 -0.006806 120295.000000 0 0 1
15.741381 3.648961 -32.893529 36.648195 0.227784 2.684974 -0.011903 -0.008760 15193.000000 0 0 1
15.592081 2.138961 -33.067179 36.621393 0.136332 2.697375 -0.010837 -0.012461 -170845.000000 0 0 1
16.635381 1.378961 -32.516829 36.551082 0.082704 2.667324 -0.012749 -0.000647 -123133.000000 0 0 1
16.486081 0.084861 -32.995819 36.885256 0.005147 2.678227 -0.006713 -0.004281 124269.000000 0 0 1
17.507381 -0.874539 -32.293509 36.744305 -0.049911 2.644287 -0.006729 -0.002705 73561.700000 0 0 1
17.353081 -1.077139 -30.902979 35.458197 -0.061992 2.629116 -0.001546 -0.000696 140420.000000 0 0 1
17.769681 0.010561 -30.120409 34.971427 0.000594 2.608592 0.000069 0.002465 -347023.000000 0 0 1
17.476081 -0.165639 -28.600039 33.517205 -0.009478 2.593067 -0.008011 0.008320 -12959.400000 0 0 1
16.130181 -0.435039 -28.257669 32.540250 -0.026964 2.622745 -0.006930 0.000003 41107.000000 0 0 1
15.799481 -0.918839 -26.962899 31.264449 -0.058091 2.610816 -0.000759 0.005036 -335971.000000 0 0 1
16.544081 -2.132139 -26.389239 31.219298 -0.128170 2.577897 0.007217 0.008090 -1560120.000000 0 0 1
17.821481 -1.791339 -26.021929 31.590424 -0.100179 2.538752 0.008389 0.008007 -1352470.000000 0 0 1
18.672981 -2.882939 -25.812019 31.988308 -0.153181 2.509716 0.011749 0.009104 518420.000000 0 0 1
19.591081 -3.327939 -26.999449 33.523960 -0.168264 2.507109 0.010415 0.003146 325637.000000 0 0 1
20.746081 -2.539739 -27.243859 34.337705 -0.121814 2.487186 0.011241 0.005082 -25588.900000 0 0 1
21.162981 -2.500539 -28.561209 35.635195 -0.117611 2.500577 0.009921 0.000511 -1225680.000000 0 0 1
22.631781 -2.186839 -28.679639 36.599200 -0.096328 2.471258 0.012066 -0.004939 -1430630.000000 0 0 1
23.373581 -3.326339 -28.397799 36.929985 -0.141363 2.448014 0.012155 -0.008011 -842393.000000 0 0 1
24.708081 -2.956739 -28.641019 37.941264 -0.119101 2.426264 0.006173 -0.010533 -439219.000000 0 0 1
25.735181 -4.102539 -28.520039 38.633185 -0.158083 2.401234 0.005396 -0.010094 -127174.000000 0 0 1
25.592281 -5.164039 -29.465229 39.367904 -0.199108 2.416530 0.010834 -0.017420 3690.250000 0 0 1
26.596881 -6.131739 -29.309119 40.050178 -0.226585 2.391770 0.008941 -0.014141 -281597.000000 0 0 1
26.397281 -7.174539 -28.194779 39.284043 -0.265380 2.371313 -0.009540 -0.008279 -153859.000000 0 0 1
26.603881 -6.735139 -26.846769 38.391113 -0.247954 2.345209 -0.015744 0.001406 144661.000000 0 0 1
26.273481 -7.747139 -25.879719 37.683867 -0.286739 2.327817 -0.025343 0.006732 -239708.000000 0 0 1
26.219881 -7.123139 -24.503959 36.587775 -0.265267 2.304643 -0.037436 0.003854 236512.000000 0 0 1
27.509681 -6.730839 -24.048059 37.153679 -0.239957 2.274780 -0.033246 0.005041 522761.000000 0 0 1
27.429881 -6.422339 -22.671359 36.161241 -0.229994 2.248431 -0.031440 0.001057 89510.100000 0 0 1
28.783581 -5.937039 -22.099259 36.771187 -0.203412 2.215540 -0.020911 0.002575 -44990.800000 0 0 1
29.186481 -4.709239 -22.578059 37.199413 -0.159971 2.223009 -0.013106 -0.000871 264836.000000 0 0 1
30.504881 -4.283939 -22.252659 38.001062 -0.139522 2.196392 -0.008020 -0.002568 364885.000000 0 0 1
31.029681 -3.021739 -22.867659 38.663960 -0.097076 2.203648 0.011335 -0.014584 -242759.000000 0 0 1
30.362681 -1.895739 -22.390059 37.773019 -0.062356 2.205269 0.007427 -0.017541 -308740.000000 0 0 1
30.842681 -0.703139 -22.889359 38.414686 -0.022794 2.209119 0.016109 -0.019402 -436323.000000 0 0 1
29.915381 0.467561 -22.624359 37.510135 0.015628 2.218245 0.017724 -0.012285 425954.000000 0 0 1
28.702481 0.388261 -23.391559 37.029018 0.013526 2.254552 0.007642 -0.007636 268470.000000 0 0 1
27.751381 1.327061 -23.016459 36.078492 0.047783 2.262636 0.003231 -0.001627 -625466.000000 0 0 1
26.657281 1.455561 -24.054859 35.935575 0.054549 2.304182 -0.001920 0.000457 24435.700000 0 0 1
25.527881 2.235161 -23.658559 34.876870 0.087335 2.316304 -0.000821 0.001967 -118090.000000 0 0 1
24.684481 2.521361 -24.691759 35.005197 0.101791 2.353747 -0.003035 0.001147 -176805.000000 0 0 1
23.676881 3.666961 -24.302859 34.127265 0.153654 2.363316 0.001927 0.002195 69632.800000 0 0 1
24.310681 4.945061 -24.219459 34.670521 0.200673 2.344180 -0.000015 0.006151 198136.000000 0 0 1
23.383481 5.917761 -23.863159 33.930185 0.247870 2.350828 0.013745 -0.001887 -639313.000000 0 0 1
24.104081 7.085361 -23.190959 34.191075 0.285896 2.316209 0.030056 -0.005135 -411561.000000 0 0 1
24.751481 7.854561 -24.185159 35.485939 0.307285 2.320664 0.020012 -0.001492 25608.600000 0 0 1
24.981381 9.074261 -23.594359 35.540194 0.348422 2.296789 0.030417 -0.007199 -244519.000000 0 0 1
25.788781 10.134461 -24.418159 36.932574 0.374440 2.293154 0.043153 -0.008810 -87443.800000 0 0 1
25.277681 10.616861 -25.647069 37.542656 0.397636 2.322857 0.041377 -0.016416 146678.000000 0 0 1
23.982281 11.195861 -25.653439 36.859138 0.436769 2.340588 0.046643 -0.026247 154442.000000 0 0 1
23.485881 11.586561 -27.064219 37.660416 0.458307 2.372639 0.034422 -0.023080 -289033.000000 0 0 1
23.108381 10.545861 -27.968299 37.781453 0.428135 2.404261 0.032670 -0.012595 812194.000000 0 0 1
24.153981 9.663761 -28.454449 38.554620 0.380584 2.400942 0.028812 -0.021467 667742.000000 0 0 1
24.997281 10.165161 -29.657569 40.096957 0.386227 2.403341 0.024331 -0.014908 -202165.000000 0 0 1
26.020381 11.143561 -29.391119 40.805356 0.404631 2.374996 0.017905 -0.011242 937563.000000 0 0 1
26.739381 11.638461 -30.497709 42.196665 0.410525 2.378572 0.014824 -0.007459 -13550.300000 0 0 1
27.693281 10.655461 -31.159499 43.027561 0.367306 2.380634 0.015236 -0.012430 -1305300.000000 0 0 1
26.999881 9.824461 -32.017959 43.019336 0.348978 2.410236 0.015565 -0.010867 168352.000000 0 0 1
27.855381 8.841261 -32.539019 43.736460 0.307341 2.409802 0.012202 -0.013180 400859.000000 0 0 1
26.974081 7.759761 -33.251349 43.513988 0.280111 2.440524 0.024661 -0.009540 621103.000000 0 0 1
25.970481 7.125661 -32.494109 42.203176 0.267785 2.449551 0.030481 -0.011599 145804.000000 0 0 1
25.243681 6.183761 -33.262939 42.212622 0.240232 2.478327 0.011131 -0.009699 -137024.000000 0 0 1
23.963781 5.556861 -32.646209 40.876845 0.227859 2.495842 0.022164 -0.004599 1286640.000000 0 0 1
22.758181 6.368761 -32.755549 40.390864 0.272865 2.516595 0.014129 -0.005808 1041180.000000 0 0 1
22.680781 7.334061 -31.715239 39.674458 0.312748 2.497070 0.025069 -0.000535 -420945.000000 0 0 1
21.208881 7.774161 -31.602719 38.845670 0.351344 2.521020 0.017933 0.000849 -77544.200000 0 0 1
20.862881 8.661361 -32.597529 39.659524 0.393504 2.535595 0.023986 0.002230 -538104.000000 0 0 1
19.498981 8.920961 -32.382199 38.838133 0.429081 2.556704 0.011545 0.007752 -437291.000000 0 0 1
18.919881 9.909561 -33.423069 39.664377 0.482478 2.572977 0.007482 0.010190 -252609.000000 0 0 1
18.472581 9.347161 -34.612425 40.331447 0.468438 2.602548 0.014413 0.006097 -45391.800000 0 0 1
18.073881 10.287661 33.685382 39.587954 0.517465 0.553101 0.002511 0.011060 -179880.000000 0 0 1
17.254481 9.733361 32.493699 38.056483 0.513609 0.547501 -0.016584 0.020245 -302196.000000 0 0 1
17.826081 8.917061 31.500079 37.276509 0.463828 0.564159 -0.016964 0.013422 -158617.000000 0 0 1
18.882781 9.374361 30.666659 37.214003 0.460804 0.602251 -0.005929 0.011956 -691908.000000 0 0 1
18.507581 10.270961 29.449079 36.266671 0.506643 0.623200 -0.005099 0.008802 -684048.000000 0 0 1
17.832981 9.628861 28.414669 34.901627 0.495092 0.619557 -0.004602 0.016339 -11499.800000 0 0 1
16.435281 9.743361 28.581149 34.379262 0.535132 0.589267 -0.008847 0.016000 -126641.000000 0 0 1
15.512681 8.852561 27.707619 32.965486 0.518571 0.572584 0.002968 0.015109 -261179.000000 0 0 1
15.480881 9.164461 26.320649 31.881367 0.534506 0.599565 0.007574 0.019021 1306150.000000 0 0 1
14.346081 8.487161 25.658749 30.597604 0.534221 0.576112 0.017362 0.019316 1251960.000000 0 0 1
14.445181 6.973461 25.453529 30.086119 0.449755 0.562316 0.012307 0.024299 -166604.000000 0 0 1
14.157581 6.201061 26.634469 30.794240 0.412832 0.525811 0.011059 0.015485 5003.570000 0 0 1
14.344581 4.818261 26.399099 30.428524 0.324054 0.520486 0.005268 0.012668 -195102.000000 0 0 1
14.582381 4.022261 27.718179 31.577237 0.269138 0.499567 -0.008870 0.002666 251877.000000 0 0 1
15.793381 4.494161 28.344119 32.756945 0.277232 0.525076 0.004440 0.011764 559077.000000 0 0 1
16.041881 3.884961 29.615609 33.904560 0.237602 0.508452 0.009967 0.002406 -178210.000000 0 0 1
16.643681 2.402461 29.507309 33.962703 0.143357 0.517992 0.022979 0.000229 -516256.000000 0 0 1
15.837181 1.321961 29.107739 33.163600 0.083279 0.499752 0.012859 -0.002446 180483.000000 0 0 1
14.949481 0.908861 30.176469 33.688756 0.060721 0.460697 -0.003616 0.003221 348744.000000 0 0 1
14.906881 -0.646839 30.232989 33.714494 -0.043365 0.458459 0.004548 0.004236 -107091.000000 0 0 1
14.030181 -1.292739 29.272489 32.486855 -0.091880 0.448597 -0.003688 0.012078 697661.000000 0 0 1
14.504281 -1.236439 27.910379 31.478440 -0.085041 0.480745 0.002713 0.015135 79913.400000 0 0 1
15.596481 -2.315939 27.488079 31.689246 -0.147414 0.520791 0.011202 0.012972 2449870.000000 0 0 1
16.964281 -2.123039 27.974909 32.785510 -0.124500 0.548571 0.017314 0.003483 1689940.000000 0 0 1
17.678681 -0.993539 27.484889 32.694679 -0.056141 0.572308 0.021188 0.005319 -34978.900000 0 0 1
19.184881 -0.990239 27.888729 33.864752 -0.051570 0.603186 0.036454 0.008061 206483.000000 0 0 1
19.985181 -1.868439 27.164109 33.775544 -0.093220 0.636378 0.032267 0.008418 -494609.000000 0 0 1
21.324181 -1.652139 27.582949 34.903715 -0.077323 0.659566 0.043389 0.002955 167647.000000 0 0 1
22.213681 -2.431639 26.547299 34.700426 -0.109032 0.699689 0.039778 0.005831 -111563.000000 0 0 1
22.517681 -1.766139 25.311959 33.924335 -0.078273 0.728566 0.036000 0.021697 504458.000000 0 0 1
21.620581 -2.321339 24.340299 32.638755 -0.106957 0.729139 0.039018 0.026143 313984.000000 0 0 1
21.399781 -1.441839 23.084259 31.510515 -0.067275 0.748678 0.029470 0.003567 -412834.000000 0 0 1
20.522381 -0.371339 23.276759 31.034070 -0.018092 0.722675 0.022336 0.016096 27607.400000 0 0 1
20.447581 0.466661 22.159659 30.155793 0.022818 0.745367 0.027874 0.016183 4552.930000 0 0 1
-29.577969 -27.626005 -10.480159 41.807728 0.751289 1.824174 -0.030265 0.028740 -170128.000000 0 0 1
-29.370659 -26.597805 -9.572559 40.764110 0.735895 1.807838 -0.029265 0.029165 -149959.000000 0 0 1
-29.748099 -26.938405 -8.238659 40.969532 0.735873 1.773269 -0.025073 0.021053 -485240.000000 0 0 1
-30.069199 -25.730505 -7.368159 40.255501 0.707800 1.754869 -0.011286 0.011154 612859.000000 0 0 1
-28.938229 -25.005505 -6.811359 38.847020 0.712623 1.747045 -0.019076 0.008618 413566.000000 0 0 1
-28.232089 -25.776205 -5.824559 38.670261 0.739957 1.721993 -0.018343 0.011506 773555.000000 0 0 1
-27.058249 -24.910305 -5.185359 37.142429 0.744090 1.710861 -0.027016 0.015101 317848.000000 0 0 1
-27.401249 -23.802005 -4.337759 36.553796 0.715220 1.689744 -0.024944 0.008154 -230929.000000 0 0 1
-28.061419 -22.729805 -5.005659 36.457425 0.680810 1.708533 -0.024784 0.007487 -27922.700000 0 0 1
-28.184369 -21.592605 -3.978059 35.727079 0.653738 1.682373 -0.011528 -0.002952 -817794.000000 0 0 1
-27.016109 -20.855505 -3.851359 34.346109 0.657411 1.683166 -0.006075 -0.006170 -506783.000000 0 0 1
-27.210939 -19.619805 -3.111359 33.690540 0.624699 1.663279 0.003631 -0.001834 320610.000000 0 0 1
-25.990859 -18.648105 -3.209859 32.149335 0.622366 1.670805 0.011196 -0.006721 569122.000000 0 0 1
-26.208269 -17.721805 -4.259359 31.922999 0.594568 1.704621 0.012189 -0.013114 -21100.900000 0 0 1
-25.339199 -16.632805 -4.099859 30.586501 0.580865 1.705242 0.022955 -0.011719 -138008.000000 0 0 1
-25.428619 -15.494605 -5.129659 30.216069 0.547257 1.741388 0.018849 -0.017332 63849.800000 0 0 1
-26.721249 -14.907905 -5.173159 31.032762 0.508892 1.738278 0.010073 -0.016390 217724.000000 0 0 1
-26.732979 -13.713105 -5.997459 30.637737 0.473966 1.767823 0.023569 -0.025253 -83648.300000 0 0 1
-28.115079 -13.029405 -5.930259 31.549818 0.433967 1.759886 0.015288 -0.020519 -183868.000000 0 0 1
-29.081679 -13.676405 -6.709159 32.829878 0.439587 1.776608 0.009968 -0.016550 -21887.200000 0 0 1
-30.335389 -13.058305 -6.478659 33.656027 0.406490 1.764502 -0.000384 -0.019779 -452937.000000 0 0 1
-31.482989 -13.586105 -7.316259 35.061210 0.407395 1.781012 -0.011733 -0.014907 -1294720.000000 0 0 1
-32.057639 -14.679105 -6.748159 35.898551 0.429402 1.759900 -0.010267 -0.011107 -249024.000000 0 0 1
-32.119509 -15.818805 -7.625359 36.606605 0.457628 1.780639 -0.007356 -0.011970 -756634.000000 0 0 1
-32.895569 -17.014605 -6.962959 37.684188 0.477337 1.756636 -0.014091 -0.013816 402805.000000 0 0 1
-34.302587 -16.860405 -6.905259 38.841000 0.456841 1.749529 -0.008489 -0.022922 150409.000000 0 0 1
-34.717421 -15.955305 -5.884759 38.658782 0.430789 1.723613 -0.003365 -0.028202 -1076060.000000 0 0 1
33.655201 -16.029905 -5.578259 37.692803 -0.444507 1.719335 0.016003 -0.028354 -1252460.000000 0 0 1
32.931061 -15.332905 -6.576859 36.916227 -0.435756 1.749909 0.012410 -0.028560 -293022.000000 0 0 1
31.546121 -15.564105 -6.560659 35.783255 -0.458335 1.755184 0.016105 -0.033389 -82926.600000 0 0 1
30.768181 -14.894105 -5.405159 34.608251 -0.450827 1.727620 0.031776 -0.033412 -1153180.000000 0 0 1
30.941581 -15.599305 -4.146059 34.898561 -0.466965 1.689881 0.014855 -0.031370 247681.000000 0 0 1
30.409241 -14.826205 -3.083659 33.971271 -0.453643 1.661694 0.008933 -0.020507 -1180020.000000 0 0 1
30.452351 -15.474605 -1.673959 34.199579 -0.470153 1.619763 0.017732 -0.012191 155472.000000 0 0 1
31.731641 -15.677805 -1.066559 35.409436 -0.458896 1.600922 0.025919 -0.008828 1277840.000000 0 0 1
32.710031 -16.431305 -1.852059 36.651931 -0.465512 1.621349 0.020578 -0.010005 -441398.000000 0 0 1
32.443491 -17.946505 -2.143659 37.138288 -0.505268 1.628549 0.025815 -0.009704 -827157.000000 0 0 1
32.963111 -18.708505 -1.039659 37.916431 -0.516224 1.598220 0.019559 -0.010036 628627.000000 0 0 1
32.579871 -20.102005 -0.979559 38.294884 -0.552831 1.596378 0.024896 -0.009181 204780.000000 0 0 1
33.530551 -20.880805 -1.922159 39.547447 -0.556972 1.619419 0.036344 -0.022865 129206.000000 0 0 1
33.366311 -20.464405 -3.250859 39.276846 -0.550160 1.653659 0.016044 -0.022238 -34761.200000 0 0 1
34.345387 -20.979305 -4.140959 40.458428 -0.548347 1.673327 0.019953 -0.017984 184319.000000 0 0 1
34.471181 -20.153805 -5.463359 40.302437 -0.529061 1.706774 0.032980 -0.027811 229060.000000 0 0 1
33.276061 -20.251905 -6.226059 39.448697 -0.546721 1.729286 0.022454 -0.038802 261566.000000 0 0 1
33.358461 -19.485305 -7.458359 39.345789 -0.528660 1.761510 0.025087 -0.035807 52175.500000 0 0 1
32.148921 -19.693005 -8.396459 38.624708 -0.549601 1.789932 0.021104 -0.040832 58275.600000 0 0 1
32.328161 -20.987205 -8.974459 39.574154 -0.575807 1.799562 0.027179 -0.042324 10108.400000 0 0 1
31.427701 -21.151905 -10.027859 39.187516 -0.592398 1.829569 0.020586 -0.043701 -513555.000000 0 0 1
31.498901 -22.513105 -10.784059 40.191001 -0.620541 1.842445 0.024007 -0.032524 -111657.000000 0 0 1
31.196991 -23.497005 -9.833959 40.274908 -0.645534 1.817461 0.012513 -0.031939 -63678.900000 0 0 1
30.975991 -24.795005 -10.403059 41.018629 -0.675021 1.827215 0.003338 -0.018009 237138.000000 0 0 1
29.961311 -25.611005 -9.511359 40.547129 -0.707276 1.807578 0.001180 -0.022233 626133.000000 0 0 1
28.647751 -25.088805 -9.472059 39.241071 -0.719265 1.814585 0.004638 -0.023941 -226358.000000 0 0 1
27.720971 -26.034205 -9.036959 39.088345 -0.754030 1.804100 -0.012604 -0.013708 70869.200000 0 0 1
26.253871 -25.559305 -8.961759 37.720776 -0.771994 1.810672 0.001292 -0.025307 167234.000000 0 0 1
25.647041 -25.258805 -10.215759 37.418440 -0.777772 1.847321 -0.000328 -0.019097 -587266.000000 0 0 1
24.378501 -24.725005 -10.030759 36.142126 -0.792455 1.852025 0.013051 -0.029476 -752038.000000 0 0 1
23.591501 -24.584005 -11.340859 35.910267 -0.805997 1.892108 0.025562 -0.028714 -201346.000000 0 0 1
23.293701 -25.853305 -11.868959 36.767677 -0.837432 1.899493 0.027828 -0.026463 -137.871000 0 0 1
22.442201 -25.702805 -12.962459 36.500848 -0.853020 1.933847 0.033354 -0.012295 -243164.000000 0 0 1
21.893301 -26.947705 -13.684059 37.319551 -0.888518 1.946226 0.037349 -0.010579 -158869.000000 0 0 1
22.837001 -27.728405 -14.402659 38.701804 -0.881832 1.952115 0.030556 -0.004464 -149577.000000 0 0 1
22.451201 -29.078405 -14.548659 39.512954 -0.913306 1.947868 0.049913 -0.012282 -582799.000000 0 0 1
23.434801 -30.094105 -15.143659 41.038707 -0.909168 1.948739 0.043828 -0.005771 -361358.000000 0 0 1
23.305001 -30.083005 -16.561059 41.501553 -0.911680 1.981273 0.028999 -0.007705 290599.000000 0 0 1
23.522501 -31.390705 -17.084259 42.785001 -0.927714 1.981555 0.032942 -0.008463 -290451.000000 0 0 1
23.531801 -31.502405 -18.625159 43.509122 -0.929228 2.013158 0.029390 0.004483 -689207.000000 0 0 1
22.247801 -31.139405 -19.011459 42.732455 -0.950433 2.031853 0.021598 0.002772 -621711.000000 0 0 1
22.143601 -31.105105 -20.411659 43.295524 -0.952131 2.061730 0.013731 0.001044 -792666.000000 0 0 1
20.724201 -30.708105 -20.747759 42.461155 -0.977131 2.081314 0.000293 0.001729 -683176.000000 0 0 1
20.419201 -30.626305 -22.134559 42.951752 -0.982756 2.112195 -0.003949 -0.000206 -800520.000000 0 0 1
19.068801 -30.397405 -22.370859 42.285656 -1.010533 2.128267 0.003161 0.000274 -983397.000000 0 0 1
18.713801 -30.378905 -23.853659 42.919474 -1.018686 2.160094 -0.004356 0.003853 -618398.000000 0 0 1
19.270501 -29.267905 -24.551459 42.787108 -0.988526 2.181941 -0.008089 0.002196 378556.000000 0 0 1
19.355101 -29.440805 -25.959369 43.763795 -0.989220 2.205787 -0.010445 -0.005406 -390715.000000 0 0 1
19.960701 -28.283005 -26.817209 43.789504 -0.956222 2.229904 -0.019674 -0.005225 542184.000000 0 0 1
19.109501 -27.159205 -27.171189 42.907679 -0.957651 2.256539 -0.002154 -0.011874 80530.300000 0 0 1
18.094001 -27.421705 -28.102429 43.232965 -0.987533 2.278411 -0.004793 -0.011717 -464163.000000 0 0 1
17.355501 -26.156305 -28.515299 42.408584 -0.984968 2.308235 0.000835 -0.010162 -437545.000000 0 0 1
16.487001 -25.730705 -27.490809 41.105169 -1.000950 2.303379 -0.002464 0.007019 -319337.000000 0 0 1
16.199001 -24.388305 -27.738039 40.331078 -0.984495 2.329193 -0.006191 0.004703 -286659.000000 0 0 1
15.145201 -23.914605 -26.719969 38.926112 -1.006248 2.327362 -0.005117 0.000605 -312221.000000 0 0 1
13.895801 -24.552505 -26.941609 39.009858 -1.055780 2.333164 0.006028 -0.004162 321995.000000 0 0 1
12.817001 -24.142005 -26.082909 37.781345 -1.082735 2.332789 0.006886 0.001598 582643.000000 0 0 1
12.828901 -24.628505 -24.636659 37.122889 -1.090572 2.296486 0.000426 0.007334 -798624.000000 0 0 1
13.840101 -24.072405 -23.863459 36.612754 -1.049010 2.280725 -0.025604 0.003244 -517101.000000 0 0 1
13.889701 -24.582505 -22.587259 36.158092 -1.056492 2.245519 -0.015776 -0.000496 403290.000000 0 0 1
14.878001 -23.950005 -21.549559 35.487197 -1.014926 2.223390 -0.022986 -0.003407 441713.000000 0 0 1
14.522301 -22.690305 -21.086159 34.210718 -1.001467 2.234910 -0.029136 -0.008339 100248.000000 0 0 1
15.686501 -22.021205 -20.603459 33.992680 -0.951839 2.221963 -0.016525 -0.000849 -131832.000000 0 0 1
15.526001 -20.587105 -20.030959 32.651568 -0.924637 2.231251 -0.007807 0.013651 60492.100000 0 0 1
14.965601 -20.431705 -18.730859 31.500299 -0.938609 2.207595 -0.001706 -0.001143 1276650.000000 0 0 1
13.517701 -20.520905 -18.698359 30.878219 -0.988310 2.221255 -0.021581 0.004038 945666.000000 0 0 1
12.948601 -20.346105 -17.279659 29.668449 -1.004029 2.192506 -0.007649 0.005591 -195601.000000 0 0 1
13.032101 -18.996005 -16.718059 28.463614 -0.969498 2.198575 0.004492 0.001590 131439.000000 0 0 1
12.510901 -18.960205 -15.396359 27.441936 -0.987527 2.166453 0.006705 -0.002464 -248405.000000 0 0 1
12.676201 -17.608405 -14.639759 26.173737 -0.946842 2.164374 0.003874 0.003652 -506648.000000 0 0 1
11.838501 -16.576905 -15.096759 25.354605 -0.950633 2.208591 -0.004440 -0.003370 52344.300000 0 0 1
12.118301 -15.314505 -14.504859 24.326492 -0.901385 2.209628 0.006616 -0.013208 -108734.000000 0 1 0
10.845401 -14.463905 -14.298059 23.049116 -0.927407 2.239960 0.006968 -0.011887 -40857.800000 0 1 0
10.278901 -13.936805 -15.506659 23.245361 -0.935320 2.301087 0.008005 -0.001070 26717.600000 0 1 0
8.952501 -13.584505 -15.103159 22.198906 -0.988104 2.319045 0.010602 -0.007962 167033.000000 0 1 0
8.060101 -13.125005 -16.247359 22.387667 -1.020072 2.382888 0.011502 -0.002477 -551395.000000 0 1 0
8.347301 -11.960305 -17.017559 22.412578 -0.961470 2.433012 0.003708 0.005260 -461311.000000 0 1 0
9.548101 -11.967705 -17.761659 23.449280 -0.897385 2.430195 0.005677 0.002936 -34023.800000 0 1 0
9.714701 -10.831705 -18.721659 23.710794 -0.839710 2.480927 0.009339 0.000711 141748.000000 0 1 0
8.913601 -11.084505 -19.874459 24.439980 -0.893530 2.520417 0.005258 0.002959 274334.000000 0 1 0
8.771801 -9.881305 -20.606959 24.479204 -0.844809 2.571433 -0.011338 0.008471 31617.500000 0 1 0
8.382301 -10.068105 -22.087159 25.680192 -0.876515 2.606233 0.003575 0.008215 194976.000000 0 0 1
9.523201 -10.407705 -22.868759 26.869905 -0.829748 2.588858 0.001186 0.009200 -187005.000000 0 0 1
9.301301 -10.631605 -24.245959 28.060858 -0.852038 2.614055 0.001160 0.005810 337442.000000 0 0 1
10.535001 -11.293905 -24.971459 29.361749 -0.820150 2.587686 0.019355 0.005551 440227.000000 0 0 1
10.772001 -12.634405 -24.556359 29.642519 -0.864799 2.547071 0.018280 0.004896 16385.600000 0 0 1
11.893001 -13.304805 -25.115129 30.809593 -0.841368 2.523823 0.013313 -0.000092 118331.000000 0 0 1
11.790301 -14.859905 -24.780459 31.207357 -0.900074 2.488253 0.005612 -0.003295 -195824.000000 0 0 1
10.736601 -15.513905 -25.460199 31.688761 -0.965417 2.503857 0.007957 -0.009157 -87426.400000 0 0 1
10.525301 -16.848105 -24.971559 31.909549 -1.012400 2.469585 0.005597 -0.001518 -22875.000000 0 0 1
9.345701 -17.518705 -25.696269 32.473764 -1.080733 2.483717 0.020566 -0.007666 89738.500000 0 0 1
9.630701 -18.432905 -26.713029 33.854221 -1.089332 2.480074 0.023809 -0.013650 -372516.000000 0 0 1
8.401601 -18.926705 -27.165199 34.157797 -1.153025 2.490275 0.028806 -0.015816 -175393.000000 0 0 1
8.558901 -19.823205 -28.434669 35.703566 -1.163212 2.492131 0.021553 -0.011023 -199997.000000 0 0 1
9.205601 -21.090205 -28.134049 36.346451 -1.159236 2.456013 0.012645 -0.007209 271148.000000 0 0 1
9.328301 -21.891605 -29.271319 37.723596 -1.167983 2.459003 0.018032 -0.012483 -166785.000000 0 0 1
10.049101 -23.210305 -28.919069 38.418943 -1.162204 2.422995 0.010786 -0.006707 38930.200000 0 0 1
10.126201 -24.145205 -30.025749 39.838128 -1.173689 2.424461 0.004146 -0.004025 -113282.000000 0 0 1
10.702801 -25.415705 -29.684419 40.517561 -1.172225 2.392976 0.012947 -0.009175 92245.800000 0 0 1
10.038101 -26.295305 -28.575059 40.109108 -1.206125 2.363756 0.015754 -0.010616 108276.000000 0 0 1
10.557301 -26.161005 -27.249529 39.222335 -1.187232 2.338862 0.010701 0.001844 -518467.000000 0 0 1
9.659301 -26.600005 -26.263969 38.609046 -1.222471 2.318906 0.011356 0.003613 714033.000000 0 0 1
8.632601 -25.568105 -25.716139 37.276931 -1.245182 2.332102 0.009729 0.006397 240121.000000 0 0 1
9.413801 -24.567005 -25.091009 36.355414 -1.204866 2.332505 0.008718 0.009990 259710.000000 0 0 1
8.692601 -23.342805 -25.011759 35.299234 -1.214317 2.358257 -0.005807 0.007840 679155.000000 0 0 1
9.701501 -22.120505 -24.929459 34.711868 -1.157484 2.371983 0.002747 0.010202 478091.000000 0 0 1
10.183301 -21.972505 -23.618959 33.828181 -1.136808 2.343682 -0.003337 0.006940 155931.000000 0 0 1
11.252801 -21.023505 -23.630759 33.571209 -1.079349 2.351669 0.005882 0.004003 -20519.400000 0 0 1
11.896201 -20.865305 -22.245959 32.737795 -1.052620 2.317903 -0.004496 0.005527 -83270.400000 0 0 1
11.088501 -20.271805 -21.225859 31.375755 -1.070266 2.313803 -0.019767 0.008464 -99059.100000 0 0 1
10.705901 -18.917305 -21.317059 30.444995 -1.055804 2.346450 -0.013868 0.010765 -305501.000000 0 0 1
11.788801 -17.838705 -21.119959 30.054083 -0.986828 2.350026 -0.008432 0.008748 -410925.000000 0 0 1
12.725001 -17.944405 -22.159759 31.224705 -0.953966 2.359850 -0.007446 0.009738 -301250.000000 0 0 1
13.661201 -16.866505 -22.099059 30.975406 -0.890011 2.365190 -0.003904 0.010631 310027.000000 0 0 1
14.856701 -17.074305 -23.073459 32.320859 -0.854737 2.365831 -0.013243 0.014083 -457512.000000 0 0 1
15.896001 -17.812105 -22.524759 32.822533 -0.842181 2.327130 -0.008235 0.019575 756434.000000 0 0 1
17.126801 -17.517505 -23.260359 33.782164 -0.796675 2.330270 0.005200 0.015819 923819.000000 0 0 1
18.396701 -17.930205 -22.513559 34.158325 -0.772557 2.290410 0.006243 0.013060 -249724.000000 0 0 1
18.445101 -19.333705 -22.505559 34.935857 -0.808915 2.270769 0.000340 0.011146 159227.000000 0 0 1
19.761601 -19.807905 -22.319159 35.791323 -0.786568 2.244125 -0.004036 0.008778 55023.000000 0 0 1
19.718501 -21.343605 -21.998259 36.445742 -0.824954 2.218792 0.009713 0.001835 -226996.000000 0 0 1
19.073101 -21.665905 -20.769659 35.560840 -0.848957 2.194518 0.001947 0.008719 303568.000000 0 0 1
19.203801 -23.063505 -20.499859 36.344951 -0.876462 2.170062 0.016373 0.005588 -220895.000000 0 0 1
-15.553519 13.196061 29.572449 35.924612 -0.703581 0.603806 -0.004320 0.000214 -165376.000000 0 0 1
-16.781119 13.765061 29.150179 36.343029 -0.686980 0.640019 0.002474 -0.006760 103552.000000 0 0 1
-16.946019 13.477361 27.796409 35.234176 -0.671875 0.661772 -0.007631 -0.004724 271842.000000 0 0 1
-18.061619 14.250561 27.038239 35.501647 -0.667996 0.705010 0.004108 0.000960 279606.000000 0 0 1
-17.806219 15.629561 26.862889 35.818423 -0.720390 0.722773 0.003465 0.006159 -65092.800000 0 0 1
-18.935019 16.276761 26.314379 36.275535 -0.710048 0.759177 0.009984 0.005632 -149854.000000 0 0 1
-19.185019 17.759161 26.760629 37.411015 -0.746822 0.773723 0.017490 0.011365 1188240.000000 0 0 1
-18.176119 18.776161 26.356169 37.115538 -0.801635 0.781140 -0.018132 0.017134 1517750.000000 0 0 1
-16.960119 18.719461 27.111269 37.055158 -0.834668 0.750062 -0.018347 0.023375 -182109.000000 0 0 1
-15.864719 19.624761 26.562389 36.638519 -0.890952 0.759783 -0.005213 0.021225 -433835.000000 0 0 1
-16.141919 21.007061 26.677059 37.596857 -0.915620 0.781929 0.001023 0.013817 622732.000000 0 0 1
-15.207619 21.691561 25.818769 36.991949 -0.959343 0.798256 0.018479 0.007749 510423.000000 0 0 1
-15.437819 23.220161 25.897569 38.055042 -0.984056 0.822312 0.020371 0.003617 186696.000000 0 0 1
-14.954419 23.891661 27.072669 39.081652 -1.011531 0.805542 0.021991 0.002714 92198.500000 0 0 1
-15.396419 25.196261 27.004339 40.014193 -1.022284 0.830009 0.017883 0.003497 -380096.000000 0 0 1
-14.812419 26.110361 28.074339 41.101426 -1.054768 0.818866 0.010659 0.007728 9125.070000 0 0 1
-13.468219 26.460561 27.808529 40.680075 -1.099981 0.818125 0.015559 0.009079 -13092.000000 0 0 1
-12.907919 27.304961 28.809369 41.739130 -1.129200 0.808997 0.020782 0.012527 725399.000000 0 0 1
-11.350919 27.406461 28.753599 41.312552 -1.178135 0.800983 0.033964 0.008139 518332.000000 0 0 1
-10.811919 28.048761 27.618899 40.821981 -1.202879 0.827703 0.038685 0.003925 -1166220.000000 0 0 1
-9.481719 28.212261 27.937109 40.820543 -1.246571 0.817032 0.016010 0.008185 -1082560.000000 0 0 1
-8.633519 28.820661 26.801419 40.292483 -1.279743 0.843073 0.042103 -0.009004 351834.000000 0 0 1
-7.241219 28.523861 26.754959 39.772776 -1.322183 0.832951 0.015302 -0.002996 577405.000000 0 0 1
-6.698119 28.960861 25.508279 39.169740 -1.343511 0.861600 0.030983 -0.007930 -1229310.000000 0 0 1
-5.230319 28.638861 25.466709 38.679373 -1.390157 0.852098 -0.000361 -0.000066 -1282180.000000 0 0 1
-4.490419 29.414661 26.425359 39.795549 -1.419307 0.844603 0.007724 0.001804 877145.000000 0 0 1
-3.084019 29.166461 26.432529 39.482556 -1.465449 0.837296 -0.003108 0.005549 993899.000000 0 0 1
-2.141019 29.867161 25.418369 39.277535 -1.499234 0.866959 -0.006196 0.011683 -381567.000000 0 0 1
-2.376619 29.446161 24.104459 38.128069 -1.490260 0.886411 -0.007398 0.016312 63727.000000 0 0 1
-2.110519 30.529361 23.191259 38.397014 -1.501775 0.922303 -0.004464 0.009993 -257220.000000 0 0 1
-2.510519 30.102461 21.786259 37.243818 -1.487590 0.945962 -0.003803 0.017299 1112800.000000 0 0 1
-3.917519 30.000961 21.493259 37.112866 -1.440951 0.953132 -0.001568 0.025964 581832.000000 0 0 1
-4.443419 28.699961 21.680459 36.241882 -1.417193 0.929524 -0.007427 0.019694 -838070.000000 0 0 1
-5.898319 28.657861 21.264359 36.169547 -1.367812 0.942326 0.008158 0.015162 -1117270.000000 0 0 1
-6.253819 29.037761 19.946459 35.779366 -1.358668 0.979443 -0.009301 0.021251 647900.000000 0 0 1
-7.436419 28.385761 19.443459 35.200850 -1.314577 0.985606 -0.004882 0.011949 -41230.500000 0 0 1
-7.119019 26.972661 18.781159 33.629404 -1.312746 0.978251 -0.019805 0.009625 -127852.000000 0 0 1
-6.292619 27.031561 17.643659 32.887704 -1.342082 1.004534 -0.015037 0.007745 1519850.000000 0 0 1
-4.879719 27.168261 17.995859 32.951131 -1.393080 0.993050 -0.013892 0.014671 885912.000000 0 0 1
-3.910219 27.120061 16.808559 32.145220 -1.427601 1.020553 -0.012643 0.007641 -205264.000000 0 0 1
-3.664419 25.922361 16.158159 30.764962 -1.430365 1.017831 -0.003012 0.001662 -215670.000000 0 0 1
-2.898619 26.264161 15.045959 30.407056 -1.460877 1.053171 0.006515 -0.009809 -371436.000000 0 0 1
-2.128619 25.129361 14.294459 28.988745 -1.486292 1.055143 -0.003128 -0.012248 527542.000000 0 0 1
-1.019719 24.648961 15.065559 28.906438 -1.529450 1.022559 0.000795 -0.007178 281342.000000 0 0 1
-0.389119 23.552761 14.436459 27.627800 -1.554277 1.020976 0.004668 -0.016986 92755.700000 0 0 1
0.902181 23.133661 15.206759 27.698840 1.531817 0.989625 -0.006821 -0.009082 142158.000000 0 0 1
1.960781 24.041761 15.022759 28.417147 1.489419 1.013786 0.001657 -0.013774 -485120.000000 0 0 1
3.160881 23.441761 15.436959 28.245478 1.436765 0.992583 0.007495 -0.003586 -651054.000000 0 0 1
4.321381 24.424461 15.479059 29.237474 1.395680 1.012873 0.007981 -0.000955 -669932.000000 0 0 1
5.539881 23.755461 15.672559 28.993815 1.341687 0.999708 0.004363 0.006474 -500106.000000 0 0 1
6.589081 24.690761 15.628659 29.955044 1.310009 1.021910 0.004846 0.010984 -292370.000000 0 0 1
8.001081 24.080861 15.537059 29.754082 1.250013 1.021388 0.001471 0.024043 -117455.000000 0 0 1
8.304581 23.561561 14.260559 28.765896 1.231929 1.052103 0.010928 0.011199 -67303.900000 0 0 1
9.362881 24.296161 13.692559 29.418585 1.202970 1.086666 0.011415 0.010539 -284399.000000 0 0 1
9.938681 23.641061 12.385259 28.479322 1.172829 1.120885 0.020594 0.011726 -15217.500000 0 0 1
10.692181 22.478161 12.638359 27.916278 1.126802 1.100979 0.023017 0.012014 102222.000000 0 0 1
11.398681 21.934761 11.506959 27.266716 1.091542 1.135130 0.040102 0.007217 41111.100000 0 0 1
12.552281 21.016161 11.911259 27.223462 1.032388 1.117939 0.014610 0.004901 -374663.000000 0 0 1
12.208281 19.991861 12.787559 26.687793 1.022574 1.071106 0.023601 0.003140 -318693.000000 0 0 1
13.268081 19.069361 12.908559 26.576557 0.962908 1.063619 0.036403 -0.006882 -158564.000000 0 0 1
13.719081 18.922061 14.421359 27.463306 0.943468 1.017948 0.032351 -0.004120 -464881.000000 0 0 1
14.579981 17.830561 14.616959 27.279301 0.885358 1.005311 0.028569 -0.002012 9948.340000 0 0 1
15.051281 17.719161 15.941259 28.189244 0.866630 0.969747 0.016301 -0.012132 -184665.000000 0 0 1
16.276881 16.781361 15.969059 28.311867 0.800657 0.971525 0.002812 -0.017582 -47925.400000 0 0 1
16.984781 16.730561 17.190959 29.392576 0.777858 0.946071 0.009928 -0.019947 23961.600000 0 0 1
18.127081 15.908761 17.071259 29.548395 0.720314 0.954840 0.005230 -0.013942 -61166.400000 0 0 1
18.615081 15.636461 18.480559 30.537702 0.698653 0.920815 0.010577 -0.013835 -154224.000000 0 0 1
19.190481 16.663661 19.279359 31.900562 0.715040 0.921837 0.010460 -0.005619 414943.000000 0 0 1
18.174981 17.458361 19.850959 32.080912 0.765290 0.903610 0.001045 -0.008374 -127431.000000 0 0 1
18.668181 18.590561 20.794159 33.563477 0.783315 0.902631 0.003625 -0.000261 96762.400000 0 0 1
17.659681 19.536861 21.130159 33.764432 0.835822 0.894625 0.006500 -0.000268 181437.000000 0 0 1
18.275181 20.651761 21.701659 35.091872 0.846375 0.904061 0.007553 0.005529 51883.900000 0 0 1
17.287281 21.759561 22.148359 35.537000 0.899437 0.897907 0.012023 0.004731 405142.000000 0 0 1
16.487281 21.455861 23.294359 35.704504 0.915605 0.860022 0.013226 -0.002818 136408.000000 0 0 1
15.821281 22.546561 23.842159 36.429506 0.958920 0.857310 0.007072 -0.002008 128587.000000 0 0 1
15.214881 22.272961 25.279189 36.967754 0.971496 0.817815 0.016519 -0.002848 300357.000000 0 0 1
14.195881 21.302861 25.275409 35.974730 0.982990 0.791769 0.013624 0.001467 -243637.000000 0 0 1
13.565681 21.139761 26.570249 36.563579 1.000268 0.757311 0.023916 0.002355 591935.000000 0 0 1
12.562781 19.933161 26.587049 35.524999 1.008434 0.725144 0.034662 0.005647 236545.000000 0 0 1
13.154881 18.659261 26.446699 34.937756 0.956719 0.712139 0.024068 0.001924 -262724.000000 0 0 1
13.546381 18.212861 25.155479 33.882309 0.931287 0.734096 0.032985 -0.005549 -397307.000000 0 0 1
12.527081 18.173961 23.988859 32.598865 0.967296 0.743831 0.031843 -0.002812 -646347.000000 0 0 1
12.431181 19.278961 23.135659 32.580229 0.998081 0.781137 0.026563 0.003870 -180428.000000 0 0 1
13.507881 19.723361 22.312559 32.700522 0.970299 0.819851 0.022601 -0.000280 29885.700000 0 0 1
14.212881 18.686361 21.429659 31.787047 0.920544 0.830965 0.022358 -0.003213 -518797.000000 0 0 1
13.367881 18.041461 20.485859 30.395147 0.933110 0.831207 0.035047 -0.005650 -1491.320000 0 0 1
13.989381 16.959561 19.817759 29.598532 0.881075 0.837191 0.034416 -0.008659 291148.000000 0 0 1
12.971781 16.260361 18.856559 28.075546 0.897426 0.834381 0.037711 -0.013016 388316.000000 0 0 1
12.366681 17.031761 17.776459 27.550285 0.942771 0.869463 0.038075 -0.006650 463304.000000 0 0 1
11.562581 16.210261 16.941059 26.143170 0.951208 0.865826 0.036649 -0.011910 129664.000000 0 0 1
10.925681 16.795361 15.668259 25.435192 0.994057 0.907133 0.033135 -0.007677 350812.000000 0 0 1
9.953081 17.815361 15.918659 25.881550 1.061314 0.908337 0.026875 -0.002231 333196.000000 0 0 1
9.653681 18.349961 14.655359 25.390829 1.086497 0.955512 0.011823 0.005735 -957395.000000 0 0 1
8.725281 19.519761 14.634659 25.909937 1.150442 0.970571 0.010985 0.006405 -572408.000000 0 0 1
7.367381 19.203861 14.859959 25.374889 1.204472 0.945156 -0.010470 0.002725 -503061.000000 0 0 1
6.687881 20.388261 14.983859 26.171071 1.253830 0.961202 -0.001572 0.001833 -200881.000000 0 0 1
5.341281 20.274261 15.740159 26.216933 1.313198 0.926818 0.001351 0.003129 781451.000000 0 0 1
4.259181 19.706661 14.969959 25.111607 1.357941 0.932115 0.005699 0.006487 752146.000000 0 0 1
3.096381 19.528961 15.780059 25.297790 1.413552 0.897237 0.000046 0.005483 881359.000000 0 0 1
1.836681 18.968961 15.047459 24.282111 1.474272 0.902445 0.001190 0.005777 12946.500000 0 1 0
1.234381 19.921061 14.265059 24.532922 1.508912 0.950267 -0.000560 0.000009 -751274.000000 0 1 0
0.318481 19.267661 13.462359 23.507005 1.554269 0.961006 -0.001349 0.002233 -421139.000000 0 1 0
-0.478319 20.041861 12.368459 23.555971 -1.546935 1.018003 0.001134 -0.008102 130631.000000 0 1 0
-1.544619 20.732061 12.989459 24.513879 -1.496430 1.012335 0.003936 -0.000147 -762848.000000 0 1 0
-2.537319 20.931461 12.018659 24.269574 -1.450165 1.052714 0.004078 -0.010496 -314835.000000 0 1 0
-3.626019 21.786861 12.699159 25.477126 -1.405877 1.048983 0.000444 -0.008590 -240907.000000 0 0 1
-4.347519 21.098861 13.702159 25.530609 -1.367586 1.004281 0.000755 -0.000235 -443655.000000 0 0 1
-5.403019 21.924461 14.138359 26.641468 -1.329173 1.011382 -0.015651 0.012500 -335807.000000 0 0 1
-6.061819 21.203061 15.322659 26.853293 -1.292331 0.963552 -0.017108 0.016578 -1406270.000000 0 0 1
-6.944919 20.159461 14.991159 26.064739 -1.239030 0.958008 -0.013060 0.016246 193746.000000 0 0 1
-7.574519 19.571261 16.157759 26.485482 -1.201527 0.914659 -0.009340 0.029488 -362304.000000 0 0 1
-8.572119 20.516861 16.906859 27.933218 -1.175033 0.920704 -0.007121 0.029718 -777264.000000 0 0 1
-9.776919 20.571361 16.178559 27.937695 -1.127129 0.953179 -0.010399 0.015283 -811433.000000 0 0 1
-10.726519 19.702461 16.705259 27.969820 -1.072243 0.930716 -0.012570 0.017704 -572936.000000 0 0 1
-11.968619 19.664661 15.759259 27.898046 -1.024051 0.970499 0.008212 0.009460 -22022.100000 0 0 1
-12.759619 20.816061 15.672859 29.013011 -1.020895 1.000120 0.003539 0.012208 402923.000000 0 0 1
-13.604419 20.703861 14.505959 28.708064 -0.989449 1.041076 0.003565 0.009594 -4080.570000 0 0 1
-14.602519 21.835861 14.305059 29.911087 -0.981360 1.072132 0.002529 0.001193 293706.000000 0 0 1
-15.766019 21.801561 15.148959 30.876632 -0.944695 1.057985 0.001456 0.001853 253197.000000 0 0 1
-16.581419 22.889161 14.817359 31.912557 -0.943867 1.087940 0.019292 -0.001611 -834035.000000 0 0 1
-17.907619 22.868761 15.568859 32.955309 -0.906470 1.078758 0.050703 -0.010400 -353143.000000 0 0 1
-18.880219 22.009661 14.911059 32.607170 -0.861783 1.095846 0.032496 -0.015086 886524.000000 0 0 1
-19.986419 21.683661 15.755859 33.434790 -0.826106 1.080099 0.033385 -0.008997 789250.000000 0 0 1
-21.140719 22.720061 15.912559 34.876076 -0.821391 1.097009 0.025204 -0.009297 -311235.000000 0 0 1
-21.900019 22.848561 14.739859 34.913193 -0.806592 1.134941 0.022484 0.001556 230317.000000 0 0 1
-22.798919 23.957561 14.678359 36.183002 -0.810173 1.153085 0.032785 -0.008741 -104589.000000 0 0 1
-22.286019 25.281061 14.039259 36.508896 -0.848280 1.176083 0.023300 0.000433 -39013.800000 0 0 1
-21.073319 25.758061 14.595959 36.340122 -0.885101 1.157480 0.013171 -0.002982 136003.000000 0 0 1
-20.640719 26.918761 13.921259 36.666885 -0.916643 1.181358 0.004606 0.006436 7434.510000 0 0 1
-19.158219 27.231061 14.275359 36.226426 -0.957697 1.165752 0.020962 -0.003753 312569.000000 0 0 1
-18.259819 26.605861 13.353959 34.923073 -0.969319 1.178423 0.016542 -0.001192 658421.000000 0 0 1
-16.906519 26.907561 13.737259 34.620218 -1.009814 1.162770 0.010122 -0.005776 411022.000000 0 0 1
-15.876319 26.323461 12.802459 33.299926 -1.028083 1.176175 0.012334 -0.006647 133280.000000 0 0 1
-14.525219 26.724461 12.984059 33.072112 -1.072944 1.167341 0.005273 -0.004264 807283.000000 0 0 1
-13.572219 26.231161 12.028059 31.889703 -1.093319 1.184050 0.004016 -0.002080 139629.000000 0 0 1
-12.158819 26.767561 12.246959 31.848504 -1.144424 1.176089 0.002598 0.004202 -1395460.000000 0 0 1
-11.255419 25.991961 11.514159 30.575192 -1.162140 1.184689 -0.002464 0.004833 933856.000000 0 0 1
-9.856319 26.351361 11.559759 30.416595 -1.212872 1.180948 0.005046 0.002668 1227290.000000 0 0 1
-9.500219 27.821961 11.138559 31.438562 -1.241745 1.208635 -0.002090 -0.005954 -1509660.000000 0 0 1
-8.276819 28.240261 11.647259 31.649277 -1.285695 1.193928 0.007854 -0.014229 -424694.000000 0 0 1
-7.906519 29.495861 11.142259 32.506442 -1.308898 1.220932 0.012890 -0.013538 21870.300000 0 0 1
-6.537119 29.982561 11.684659 32.836247 -1.356125 1.206977 0.011486 -0.016085 -167400.000000 0 0 1
-5.442319 29.391961 11.066159 31.874223 -1.387706 1.216232 0.029007 -0.014717 -844105.000000 0 0 1
-4.271819 29.788261 11.703559 32.288732 -1.428361 1.199884 0.028637 -0.017367 -300946.000000 0 0 1
-2.911219 29.460261 11.047459 31.597920 -1.472298 1.213624 0.027629 -0.019679 21865.600000 0 0 1
-2.648219 30.320561 9.983459 32.031530 -1.483677 1.253840 0.050183 -0.023554 484264.000000 0 0 1
-1.601519 29.794161 9.154259 31.209892 -1.517095 1.273106 0.020641 -0.021325 402818.000000 0 0 1
-1.370519 30.619361 7.862459 31.642406 -1.526066 1.319687 0.005504 -0.017940 154642.000000 0 0 1
-2.402519 30.485661 6.886059 31.345900 -1.492151 1.349310 0.019431 -0.015093 423092.000000 0 0 1
-2.394019 31.406261 5.809659 32.028686 -1.494716 1.388397 0.013100 -0.005284 -56945.900000 0 0 1
9.717481 -34.401805 -26.881409 44.727215 -1.295499 2.215558 0.037754 -0.001495 -116006.000000 0 0 1
10.498081 -34.305805 -25.721019 44.143728 -1.273831 2.192801 0.019518 0.000899 -234374.000000 0 0 1
11.784681 -33.823805 -26.022629 44.273081 -1.235535 2.199103 0.017218 0.001608 97316.000000 0 0 1
12.667481 -33.724405 -24.730859 43.696864 -1.211484 2.172399 0.013543 0.011832 -225484.000000 0 0 1
12.372581 -32.559905 -23.995959 42.296976 -1.207654 2.174045 0.012679 0.018743 102647.000000 0 0 1
12.756781 -32.567005 -22.629359 41.658530 -1.197458 2.145053 0.012092 0.011648 394596.000000 0 0 1
14.268381 -32.261205 -22.409759 41.791977 -1.154384 2.136751 0.001814 0.012698 530353.000000 0 0 1
15.207081 -33.231205 -22.859559 43.106006 -1.141628 2.129763 0.004712 0.009300 120742.000000 0 0 1
16.466681 -33.014205 -22.252959 43.084608 -1.108129 2.113548 -0.002136 0.010704 131455.000000 0 0 1
17.445881 -34.204405 -22.581259 44.544509 -1.099143 2.102424 -0.002131 0.013097 353658.000000 0 0 1
18.734481 -33.993905 -22.023459 44.627336 -1.067099 2.086902 0.009633 0.013621 134192.000000 0 0 1
19.536081 34.254661 -22.219659 45.263158 1.052487 2.083918 0.016202 0.021399 671710.000000 0 0 1
21.078081 34.504561 -22.012459 46.036926 1.022417 2.069341 0.019769 0.020790 727250.000000 0 0 1
21.687881 -34.415005 -23.193259 46.826104 -1.008476 2.088984 0.016549 0.023343 -1515370.000000 0 0 1
23.040981 -34.615605 -23.040359 47.539300 -0.983516 2.076770 0.013866 0.023927 -1171430.000000 0 0 1
23.801681 -33.913805 -24.168359 47.966402 -0.958844 2.098858 0.020338 0.011121 -242062.000000 0 0 1
23.810081 -32.461505 -24.047659 46.893061 -0.937948 2.109262 0.025269 0.005928 -231916.000000 0 0 1
22.572181 -31.857605 -24.352459 46.015786 -0.954366 2.128477 0.008612 0.008569 -110582.000000 0 0 1
22.544181 -30.325805 -24.235959 44.891828 -0.931533 2.141084 0.003172 -0.005998 -426885.000000 0 0 1
23.236281 -29.585905 -25.259259 45.313140 -0.905032 2.162093 -0.001530 -0.012626 79528.100000 0 0 1
23.380381 -28.259205 -24.784159 44.266007 -0.879597 2.165051 0.013227 -0.004482 -14374.000000 0 0 1
24.147081 -27.365305 -25.719319 44.647786 -0.847792 2.184683 0.006550 0.000263 -136168.000000 0 0 1
23.296881 -26.961805 -26.744869 44.553020 -0.858191 2.214664 -0.002287 -0.002849 -22688.000000 0 0 1
24.021081 -26.244205 -27.803649 45.153223 -0.829597 2.234149 -0.000938 -0.002487 305840.000000 0 0 1
23.130481 -25.995605 -29.081679 45.349032 -0.843654 2.266969 -0.008313 -0.003906 1039510.000000 0 0 1
22.223281 -24.892905 -29.098039 44.274448 -0.841998 2.287920 0.008335 -0.008801 -268604.000000 0 0 1
21.154981 -24.923105 -28.196719 43.171163 -0.866994 2.282517 -0.010539 -0.000422 -921450.000000 0 0 1
20.501481 -23.564405 -28.108249 42.019823 -0.854794 2.303562 -0.005394 -0.003935 -454530.000000 0 0 1
19.959081 -23.145705 -29.310559 42.346162 -0.859191 2.335282 0.009444 -0.009926 -43027.500000 0 0 1
19.542381 -21.788205 -29.128459 41.292828 -0.839683 2.353801 0.009866 0.001338 -1126920.000000 0 0 1
18.590381 -21.328505 -30.179299 41.367831 -0.853883 2.388439 0.021963 -0.015166 -1191810.000000 0 0 1
17.406681 -22.028205 -29.939019 41.043626 -0.902060 2.388305 0.007440 -0.017770 -520266.000000 0 0 1
16.343281 -21.506405 -30.719409 40.906116 -0.920973 2.420331 -0.000527 -0.022201 -188937.000000 0 0 1
15.132281 -22.450405 -30.719829 40.947704 -0.977712 2.419193 -0.003248 -0.023940 -802990.000000 0 0 1
15.230681 -23.620505 -31.493589 42.210757 -0.998080 2.412987 -0.003942 -0.011789 -141006.000000 0 0 1
14.437281 -24.681805 -31.042639 42.205118 -1.041527 2.397228 0.001839 -0.015046 -355884.000000 0 0 1
14.717081 -25.996705 -31.769399 43.608667 -1.055666 2.386942 0.014696 -0.012092 -85639.500000 0 0 1
14.010181 -26.984205 -31.062839 43.466452 -1.091907 2.366905 0.012657 -0.001873 93801.200000 0 0 1
14.428681 -28.275105 -31.471859 44.700630 -1.098946 2.351893 0.017028 -0.000872 328583.000000 0 0 1
13.883181 -29.406905 -30.509359 44.590691 -1.129712 2.324315 0.017809 -0.006652 -11639.200000 0 0 1
14.317281 -29.434005 -29.180609 43.850349 -1.118072 2.298905 0.021827 -0.009700 -76902.100000 0 0 1
13.823781 -28.380605 -28.312529 42.404657 -1.117534 2.301878 0.011616 -0.008586 63263.300000 0 0 1
14.564581 -28.259905 -26.952679 41.679685 -1.094921 2.273997 0.006391 0.002396 -222016.000000 0 0 1
14.430081 -29.335405 -26.103909 41.835479 -1.113650 2.244604 0.009107 -0.002294 -199461.000000 0 0 1
15.325781 -29.403705 -25.023459 41.540714 -1.090318 2.217281 0.014271 -0.004660 -1096340.000000 0 0 1
15.062081 -28.321005 -23.897859 40.000666 -1.082007 2.211097 0.012625 -0.001544 135224.000000 0 0 1
13.973581 -28.450705 -23.031659 39.181129 -1.114253 2.199164 0.007880 -0.003822 1015250.000000 0 0 1
12.657481 -28.568305 -23.657659 39.192406 -1.153728 2.218841 0.011098 0.003870 769698.000000 0 0 1
11.485181 -28.354505 -22.675259 38.079584 -1.185938 2.208647 0.007597 0.005446 -17801.900000 0 0 1
11.300781 -26.945105 -22.436159 36.839212 -1.173678 2.225632 0.002006 0.008266 823572.000000 0 0 1
10.029881 -26.645905 -21.819559 35.870544 -1.210787 2.224696 0.004754 0.005520 450228.000000 0 0 1
9.725081 -25.157505 -21.547459 34.522025 -1.201923 2.244859 -0.001635 0.005109 -21655.000000 0 0 1
10.414181 -24.627005 -20.437259 33.654510 -1.170726 2.223412 -0.011476 0.002698 76428.300000 0 0 1
9.938081 -23.318305 -20.238259 32.436028 -1.167916 2.244576 -0.013339 0.005294 -125760.000000 0 0 1
10.280281 -22.742605 -18.865659 31.286152 -1.146258 2.218057 -0.025601 0.007199 72038.800000 0 0 1
9.389081 -23.075305 -17.804159 30.620461 -1.184366 2.191302 -0.020281 0.007927 294502.000000 0 0 1
9.597381 -22.228505 -16.695559 29.410165 -1.163214 2.174481 -0.016936 0.010876 -20818.500000 0 0 1
8.850081 -22.709205 -15.423959 28.843204 -1.199189 2.135010 -0.001797 0.014414 149466.000000 0 0 1
9.395781 -23.912505 -14.935559 29.718000 -1.196405 2.097372 -0.004240 0.011873 -132684.000000 0 0 1
8.798381 -24.327105 -13.752859 29.297793 -1.223763 2.059426 -0.000022 0.007842 -335874.000000 0 0 1
8.912681 -25.805005 -13.459359 30.438274 -1.238238 2.028830 0.001661 0.008275 -14028.800000 0 0 1
10.230281 -26.301005 -13.370559 31.227766 -1.199835 2.013255 0.002591 -0.000437 -253821.000000 0 0 1
10.324281 -27.671905 -13.689959 32.553649 -1.213696 2.004832 0.009296 -0.013975 -436112.000000 0 0 1
11.585581 -28.393105 -13.158259 33.369655 -1.183376 1.976122 0.019551 -0.016782 375639.000000 0 0 1
12.827481 -27.941505 -13.672059 33.648137 -1.140414 1.989224 0.025182 -0.010408 281956.000000 0 0 1
13.151981 -28.322105 -15.017659 34.650343 -1.136055 2.019065 0.030356 -0.016607 58827.300000 0 0 1
14.554581 -27.882205 -15.579059 35.099291 -1.089702 2.030694 0.026279 -0.014601 776085.000000 0 0 1
15.614681 -28.740705 -15.185759 36.061803 -1.073115 2.005458 0.039547 -0.014666 -797307.000000 0 0 1
16.778181 -28.147705 -15.654359 36.316107 -1.033267 2.016462 0.048250 -0.019934 -342228.000000 0 0 1
18.038381 -29.043305 -15.516259 37.545320 -1.015017 1.996836 0.048061 -0.020236 259464.000000 0 0 1
18.020881 -30.190405 -16.357359 38.778549 -1.032654 2.006242 0.048223 -0.012886 -470847.000000 0 0 1
19.279981 -30.797605 -16.384859 39.858170 -1.011462 1.994434 0.055639 -0.007776 -81144.800000 0 0 1
19.393681 -31.952605 -17.437959 41.245196 -1.025281 2.007316 0.031693 -0.004239 120970.000000 0 0 1
18.901681 -33.234905 -17.001659 41.843624 -1.053687 1.989213 0.037898 0.000559 65916.800000 0 0 1
19.237381 -34.269905 -17.940859 43.201593 -1.059282 1.999049 0.020907 0.009430 40387.700000 0 0 1
18.967581 33.721961 -17.448059 42.442603 1.058430 1.994454 0.017374 0.010609 -19538.800000 0 0 1
20.004581 33.175161 -16.666859 42.172962 1.028175 1.977085 0.040561 0.004462 105109.000000 0 0 1
19.664181 31.843961 -16.354759 40.843555 1.017596 1.982776 0.022827 0.007479 581146.000000 0 0 1
20.702681 31.279761 -15.285059 40.505030 0.986132 1.957742 0.033521 0.004820 1174700.000000 0 0 1
21.990481 31.021661 -15.851859 41.197162 0.954139 1.965766 0.043808 0.001948 1052850.000000 0 0 1
23.094181 30.714361 -14.981559 41.245124 0.926079 1.942531 0.042293 -0.008098 789193.000000 0 0 1
23.025281 29.498461 -13.996059 39.952627 0.908023 1.928705 0.033667 0.003410 -1077220.000000 0 0 1
22.894381 28.276561 -14.632559 39.215155 0.890193 1.953182 0.036160 0.012593 329094.000000 0 0 1
22.363181 27.228761 -13.817559 37.847619 0.883197 1.944519 0.024447 0.015598 840514.000000 0 0 1
20.816981 27.246161 -13.506059 36.852593 0.918374 1.946029 0.027956 0.009923 -51174.900000 0 0 1
20.131781 27.034461 -14.698259 36.772129 0.930714 1.981999 0.022431 0.009807 -859435.000000 0 0 1
18.739081 27.048361 -14.601059 35.999415 0.964920 1.988422 0.020568 0.000359 -349873.000000 0 0 1
17.974581 28.406161 -14.324959 36.540389 1.006629 1.973634 0.008520 0.007168 -293563.000000 0 0 1
17.923581 29.156761 -15.530959 37.584334 1.019615 1.996794 0.004408 0.013092 81087.400000 0 0 1
17.066381 28.663961 -16.553959 37.241342 1.033770 2.031418 -0.018309 0.024361 -538959.000000 0 0 1
17.275381 29.391961 -17.858759 38.487159 1.039426 2.053323 -0.017714 0.021966 30378.700000 0 0 1
16.478181 30.567661 -18.004059 39.115962 1.076382 2.049100 -0.009628 0.016275 159817.000000 0 0 1
16.672981 31.152861 -19.268759 40.246417 1.079388 2.070049 -0.017781 0.026215 -30480.800000 0 0 1
15.726981 32.353461 -19.545459 40.940314 1.118331 2.068505 -0.016104 0.028695 184622.000000 0 0 1
16.014581 33.483061 -18.790259 41.601154 1.124668 2.039440 -0.004821 0.014645 -43865.100000 0 0 1
15.089581 34.502461 -19.118559 42.233098 1.158514 2.040578 0.001266 0.013135 104708.000000 0 0 1
15.336481 -33.555305 -18.306759 41.186206 -1.142094 2.031399 0.002046 0.010196 643796.000000 0 0 1
14.214581 -32.694705 -18.554559 40.190418 -1.160682 2.050669 0.008562 0.007855 536305.000000 0 0 1
13.997581 -31.768205 -17.490259 38.872359 -1.155773 2.037495 0.018954 0.005900 -63555.800000 0 0 1
12.825081 -30.800105 -17.754259 37.793424 -1.176235 2.059828 0.016561 0.000214 25101.700000 0 0 1
11.593881 -31.476105 -17.883959 38.013146 -1.217878 2.060617 0.014917 0.003752 -430504.000000 0 0 1
10.565581 -30.560605 -18.180059 37.095776 -1.237935 2.082983 0.004618 0.006517 620121.000000 0 0 1
9.158281 -31.212305 -18.353959 37.349028 -1.285388 2.084513 0.014028 0.004063 -310238.000000 0 0 1
8.499981 -31.701305 -17.207059 37.058134 -1.308831 2.053670 0.012832 0.000439 751325.000000 0 0 1
7.343581 -32.529805 -17.455059 37.640343 -1.348769 2.053000 0.014523 0.003244 1073800.000000 0 0 1
6.081981 -31.865105 -18.081759 37.139270 -1.382198 2.079292 0.011633 0.004432 -568987.000000 0 0 1
5.974781 -31.538105 -19.466159 37.540397 -1.383569 2.115938 0.012029 0.005421 -118779.000000 0 0 1
6.027181 -32.695305 -20.389259 39.000407 -1.388499 2.120924 0.008662 0.004048 -949382.000000 0 0 1
6.392981 -32.183105 -21.802359 39.394991 -1.374705 2.157273 0.003632 0.013443 -1035570.000000 0 0 1
7.691381 -31.757905 -22.097659 39.446526 -1.333184 2.165415 0.022478 0.008815 -142880.000000 0 0 1
8.663481 -32.811905 -22.105359 40.500912 -1.312653 2.148139 0.023883 0.005206 -292890.000000 0 0 1
8.558081 -33.879905 -23.172859 41.929346 -1.323372 2.156354 0.017738 0.007684 -1311030.000000 0 0 1
7.515481 34.612561 -22.947359 42.202999 1.356984 2.145681 0.017805 0.001673 -941321.000000 0 0 1
7.474281 33.533861 -23.914559 41.860373 1.351493 2.178877 0.009797 -0.004157 239321.000000 0 0 1
6.168881 32.663261 -23.694659 40.821325 1.384132 2.190075 0.010580 -0.012235 1555730.000000 0 0 1
4.976781 33.449061 -23.873559 41.395106 1.423093 2.185509 0.004944 -0.011571 359099.000000 0 0 1
4.551981 34.201361 -22.748359 41.327248 1.438480 2.153693 -0.003252 -0.012176 -1764400.000000 0 0 1
3.275681 -34.410505 -23.008559 41.523568 -1.475888 2.158088 -0.009040 -0.007156 -593650.000000 0 0 1
2.155881 34.098661 -22.948859 41.158433 1.507656 2.162256 -0.017396 -0.010523 1009900.000000 0 0 1
0.935681 -34.602905 -23.401459 41.783547 -1.543762 2.165259 -0.019999 -0.003873 1371000.000000 0 0 1
-0.354619 34.040061 -22.947659 41.054190 -1.560379 2.163928 -0.026229 -0.005388 991.891000 0 0 1
-0.564919 34.096861 -21.541659 40.335569 -1.554230 2.134193 -0.027217 -0.002483 -1273670.000000 0 0 1
-1.839519 33.718061 -21.215159 39.879499 -1.516294 2.131735 -0.016640 -0.003206 -923866.000000 0 0 1
-2.140419 33.892561 -19.713059 39.266930 -1.507727 2.096737 -0.013222 -0.006846 271113.000000 0 0 1
-1.302119 33.139661 -18.854059 38.149812 -1.531525 2.087723 -0.028698 -0.005799 -72001.500000 0 0 1
-1.805319 33.294861 -17.545859 37.678430 -1.516627 2.055192 -0.025771 -0.005555 69533.700000 0 0 1
-1.087619 32.525061 -16.419659 36.450894 -1.537369 2.038076 -0.028175 0.000608 56252.300000 0 0 1
0.132081 33.041661 -15.946959 36.688885 1.566799 2.020450 -0.025643 -0.003928 -103424.000000 0 0 1
0.931181 31.949761 -15.479359 35.514291 1.541659 2.021793 -0.016160 0.003242 175684.000000 0 0 1
1.973781 32.258261 -14.423159 35.390941 1.509686 1.990553 0.003494 -0.007866 -326341.000000 0 0 1
3.019181 33.133361 -14.757859 36.396833 1.479925 1.988290 0.011036 -0.009807 -142134.000000 0 0 1
3.826181 33.384361 -13.621659 36.258858 1.456684 1.955925 0.021036 -0.013917 1133590.000000 0 0 1
5.331481 33.717261 -14.014259 36.900919 1.413972 1.960356 0.036681 -0.016396 1467370.000000 0 0 1
6.045181 32.538861 -14.394559 36.090511 1.387107 1.981054 0.037786 -0.008198 36403.500000 0 0 1
7.149981 32.708561 -15.273959 36.800353 1.355585 1.998793 0.023586 -0.001829 84844.100000 0 0 1
8.021581 31.466361 -15.423159 35.949290 1.321187 2.014210 0.021923 -0.003296 -261747.000000 0 0 1
8.729781 31.255761 -14.217059 35.429598 1.298435 1.983706 0.014819 -0.005991 447085.000000 0 0 1
9.735081 30.206961 -14.218459 34.776384 1.259027 1.991994 0.023182 -0.000480 914624.000000 0 0 1
9.116381 28.803661 -13.900959 33.256517 1.264271 2.002030 0.023207 0.000763 -20010.500000 0 0 1
8.412681 28.289461 -15.000759 33.107244 1.281746 2.041032 0.039018 -0.002454 -32591.500000 0 0 1
7.901081 27.015761 -14.731159 31.769253 1.286269 2.052954 0.033357 0.005885 136760.000000 0 0 1
7.039781 26.390061 -15.896459 31.602077 1.310108 2.097885 0.034034 0.003893 105419.000000 0 0 1
7.842181 25.788061 -16.863659 31.794762 1.275581 2.129858 0.040506 0.010209 -263341.000000 0 0 1
7.172581 24.846561 -17.696359 31.336219 1.289762 2.170897 0.030329 0.016261 -117722.000000 0 0 1
8.114781 24.005461 -18.576759 31.419863 1.244817 2.203395 0.027868 0.022737 -257208.000000 0 0 1
7.416781 23.203961 -19.515559 31.213611 1.261425 2.246217 0.032251 0.016505 -8245.560000 0 0 1
8.242781 22.183661 -20.076659 31.034344 1.215036 2.274331 0.023187 0.019514 -200169.000000 0 0 1
7.547081 21.244461 -21.081059 30.865784 1.229453 2.322646 0.016559 0.010616 527813.000000 0 0 1
6.630881 20.340361 -20.398159 29.559833 1.255664 2.332373 0.008883 0.016121 468184.000000 0 0 1
5.952181 19.480161 -21.286559 29.462225 1.274255 2.378213 0.002208 0.016867 99366.800000 0 0 1
24.223481 -13.167739 -9.518559 29.167951 -0.497912 1.903221 0.018148 0.006731 4739.460000 0 0 1
24.940381 -12.392939 -8.561159 29.135905 -0.461167 1.869033 0.012202 -0.000352 217787.000000 0 0 1
24.091581 -12.186739 -7.481359 28.015917 -0.468317 1.841116 0.012198 0.001600 -839260.000000 0 0 1
24.731281 -11.716539 -6.150259 28.048872 -0.442431 1.791862 -0.002286 0.005476 -612203.000000 0 0 1
24.833681 -10.317039 -5.938459 27.539395 -0.393750 1.788138 0.011121 0.008671 448182.000000 0 0 1
25.780381 -9.714239 -6.795659 28.375614 -0.360354 1.812636 0.005497 0.000281 -709300.000000 0 0 1
26.092481 -8.231039 -6.297959 28.075467 -0.305576 1.797044 0.037445 -0.003446 -47920.300000 0 0 1
26.631681 -8.118339 -4.971059 28.281890 -0.295889 1.747482 0.033532 -0.007947 751253.000000 0 0 1
28.051981 -8.163439 -4.915659 29.626324 -0.283190 1.737489 0.029606 0.000502 102727.000000 0 0 1
28.530381 -7.984539 -3.462159 29.828209 -0.272880 1.687128 0.034196 0.003326 -256110.000000 0 0 1
28.489681 -6.615539 -3.080059 29.409421 -0.228165 1.675719 0.036260 0.003860 274361.000000 0 0 1
29.191081 -6.517039 -1.881359 29.968826 -0.219652 1.633615 0.032319 0.009017 -192987.000000 0 0 1
29.571581 -5.085139 -1.449359 30.040601 -0.170295 1.619062 0.029218 0.002779 -182926.000000 0 0 1
28.425881 -4.481139 -0.889359 28.790663 -0.156356 1.601692 0.031281 -0.001697 34421.300000 0 0 1
28.529181 -3.206839 -0.335659 28.710811 -0.111936 1.582488 0.024888 0.005798 -280713.000000 0 0 1
29.216481 -3.089339 1.058741 29.398431 -0.105348 1.534775 0.023806 0.002722 -106479.000000 0 0 1
28.345981 -3.133539 2.159841 28.600326 -0.110099 1.495206 0.031557 -0.005610 572408.000000 0 0 1
29.171981 -2.944639 3.293541 29.504623 -0.100600 1.458935 0.018361 -0.004238 -181153.000000 0 0 1
28.748881 -3.765539 4.539541 29.347656 -0.130239 1.415491 0.025404 -0.009949 -304264.000000 0 0 1
28.933681 -5.186739 4.355341 29.715807 -0.177379 1.423700 0.021154 -0.015633 251195.000000 0 0 1
28.708181 -5.862339 5.518641 29.815803 -0.201435 1.384632 0.031875 -0.014333 -474297.000000 0 0 1
29.363281 -7.240439 5.570841 30.751594 -0.241759 1.388634 0.015314 -0.008806 -106793.000000 0 0 1
30.755981 -7.127239 5.734841 32.087635 -0.227716 1.391107 0.007869 -0.005300 -208399.000000 0 0 1
31.434181 -8.365239 5.705941 33.024881 -0.260091 1.397148 0.004148 0.001951 -60621.200000 0 0 1
32.964981 -8.305839 5.783041 34.483627 -0.246822 1.402296 -0.001037 0.005892 -138342.000000 0 0 1
33.522181 -7.844839 4.578441 34.730970 -0.229882 1.438586 0.000345 0.004337 -273718.000000 0 0 1
34.877281 -7.470939 4.645241 35.969681 -0.211018 1.441291 0.004254 0.002597 158667.000000 0 0 1
-34.319639 -7.220539 3.264041 35.222546 0.207367 1.477994 0.001499 0.005984 -452649.000000 0 0 1
-34.173439 -8.423739 2.553241 35.288842 0.241681 1.498380 0.007932 0.010146 198859.000000 0 0 1
-33.456139 -8.187839 1.356141 34.470176 0.240016 1.531444 0.021636 0.004353 -124071.000000 0 0 1
-33.222439 -9.528339 0.603541 34.567093 0.279307 1.553335 0.017936 0.008880 -72432.500000 0 0 1
-32.534439 -10.444239 1.460741 34.200959 0.310629 1.528073 0.009837 0.005234 444558.000000 0 0 1
-32.722039 -11.788739 1.039541 34.796362 0.345794 1.540917 0.004874 0.000798 -1337930.000000 0 0 1
-32.469739 -12.856039 2.128741 34.987044 0.377001 1.509915 0.012015 -0.013292 706875.000000 0 0 1
-31.118739 -13.113839 2.505241 33.861850 0.398828 1.496744 0.011117 -0.009275 846488.000000 0 0 1
-30.235739 -13.572139 1.469641 33.174730 0.421920 1.526482 0.017937 0.002234 -675683.000000 0 0 1
-28.864339 -14.009539 1.979341 32.145529 0.451866 1.509183 0.017318 0.001641 -670960.000000 0 0 1
-28.100339 -12.975939 2.503741 31.052741 0.432600 1.490080 0.018678 -0.004534 390137.000000 0 0 1
-26.947539 -13.528539 3.174141 30.319406 0.465272 1.465914 0.029314 -0.001576 126462.000000 0 0 1
-25.999039 -12.437839 3.635841 29.049427 0.446216 1.445307 0.019986 0.006227 -728007.000000 0 0 1
-24.916939 -12.958539 4.352941 28.420515 0.479574 1.417029 0.014872 0.011668 90857.800000 0 0 1
-24.147939 -11.968139 5.028441 27.416136 0.460135 1.386340 0.006513 0.019918 1011590.000000 0 0 1
-22.775739 -12.439939 5.647841 26.559075 0.499915 1.356508 0.008756 0.030865 1005430.000000 0 0 1
-22.987039 -13.138739 6.895141 27.360069 0.519254 1.316035 0.012157 0.015781 -569604.000000 0 0 1
-21.794739 -13.586339 7.445541 26.740145 0.557431 1.288626 0.017762 0.019249 -313049.000000 0 0 1
-21.246139 -12.799739 8.706041 26.287390 0.542219 1.233235 0.019609 0.012613 -138433.000000 0 0 1
-20.943039 -11.413539 8.522841 25.328217 0.498981 1.227603 0.021719 0.006351 777202.000000 0 0 1
-22.041739 -10.530839 8.775841 25.956737 0.445704 1.225904 0.028317 0.001731 -116141.000000 0 0 1
-22.417739 -10.322839 10.280441 26.735809 0.431532 1.176109 0.022332 0.008353 -224154.000000 0 0 1
-22.924239 -11.459239 10.992541 27.886750 0.463547 1.165615 0.014032 -0.001181 1095440.000000 0 0 1
-24.313139 -11.756839 10.741441 29.064249 0.450409 1.192244 0.015478 0.000720 508113.000000 0 0 1
-25.230939 -11.314739 11.879041 30.095435 0.421562 1.165042 0.019286 0.000289 -626518.000000 0 0 1
-25.026239 -12.039339 13.067641 30.692370 0.448388 1.130993 0.009545 0.002068 1057620.000000 0 0 1
-26.282539 -12.122439 13.785641 32.058841 0.432158 1.126292 0.005334 0.004813 797132.000000 0 0 1
-26.294739 -12.920639 15.091341 32.956104 0.456726 1.095139 0.003839 0.002572 -338230.000000 0 0 1
-26.272139 -14.325339 14.966441 33.457958 0.499202 1.107029 -0.001299 0.001532 333561.000000 0 0 1
-25.956339 -15.038339 16.171641 34.079395 0.525113 1.076368 -0.017726 0.011330 -721765.000000 0 0 1
-25.748139 -16.608139 16.006741 34.568956 0.572868 1.089377 -0.006653 -0.000270 -1443970.000000 0 0 1
-26.964339 -17.271239 16.083441 35.833620 0.569683 1.105333 -0.011236 0.003725 -647322.000000 0 0 1
-26.860239 -18.690239 15.944041 36.400686 0.607924 1.117407 -0.012200 0.007901 -36690.800000 0 0 1
-27.970539 -19.455639 16.726341 37.955809 0.607751 1.114441 -0.019126 0.015873 115898.000000 0 0 1
-27.927539 -19.320539 18.159441 38.509687 0.605208 1.079743 -0.010228 0.017251 -90779.100000 0 0 1
-28.402639 -20.422339 18.869641 39.747266 0.623384 1.076127 0.000061 0.010900 237321.000000 0 0 1
-27.325939 -21.566739 18.995941 39.656991 0.668146 1.071274 -0.003474 0.016038 1033560.000000 0 0 1
-26.261339 -21.251839 19.940941 39.229322 0.680352 1.037567 0.001900 0.017698 668500.000000 0 0 1
-25.440139 -22.384239 20.049341 39.372972 0.721587 1.036523 0.012762 0.017488 50176.800000 0 0 1
-23.996939 -22.038039 20.519541 38.504283 0.742871 1.008754 0.024326 0.013140 113858.000000 0 0 1
-23.082639 -21.704939 19.508141 37.208603 0.754647 1.018914 0.029494 0.008074 -750214.000000 0 0 1
-21.860439 -21.463939 20.111041 36.647421 0.776247 0.989903 0.035037 0.010492 -728636.000000 0 0 1
-20.638339 -21.367839 19.179641 35.360772 0.802763 0.997507 0.029762 0.005062 -191358.000000 0 0 1
-20.389739 -22.546239 18.435641 35.552035 0.835582 1.025638 0.028978 0.010701 559570.000000 0 0 1
-19.173739 -22.526839 17.694141 34.469891 0.865634 1.031745 0.025484 0.015419 58446.300000 0 0 1
-19.003239 -23.770039 16.742841 34.734141 0.896384 1.067828 0.019569 0.027250 -889636.000000 0 0 1
-18.692239 -24.982739 17.451341 35.750334 0.928444 1.060833 0.023133 0.012552 212168.000000 0 0 1
-17.400339 -25.132319 18.000241 35.474130 0.965224 1.038610 0.018089 0.008835 30582.100000 0 0 1
-16.230239 -25.286419 17.009341 34.527400 1.000168 1.055683 0.024979 0.012073 -527922.000000 0 0 1
-16.027239 -24.136339 16.238141 33.213137 0.984622 1.059960 0.019500 0.018705 681376.000000 0 0 1
-14.759039 -24.211239 15.532541 32.330684 1.023352 1.069655 0.004667 0.020063 1301360.000000 0 0 1
-13.797039 -22.974339 15.635141 31.026379 1.029979 1.042653 0.010617 0.018753 -105324.000000 0 0 1
-14.192439 -21.741239 15.033741 30.002003 0.992463 1.045937 -0.004777 0.024102 -204189.000000 0 0 1
-15.256539 -21.096539 15.712841 30.409198 0.944684 1.027789 0.013243 0.022322 39014.900000 0 0 1
-14.953139 -19.825739 16.549941 29.842199 0.924594 0.982936 0.017784 0.010600 -394933.000000 0 0 1
-14.581039 -18.676539 15.827041 28.494123 0.907926 0.981893 0.017623 0.009445 119033.000000 0 0 1
-14.406839 -17.546939 16.626541 28.140610 0.883354 0.938699 0.005770 0.009648 -461300.000000 0 0 1
-13.843239 -16.275439 15.899641 26.633133 0.865977 0.931056 0.015081 0.006431 109346.000000 0 0 1
-14.518839 -15.625239 14.802241 25.962495 0.822085 0.964121 0.016031 -0.007206 143919.000000 0 0 1
-14.896839 -16.468039 13.725441 26.105552 0.835451 1.017180 0.016452 -0.002039 -277484.000000 0 0 1
-15.650739 -15.749539 12.581541 25.520360 0.788545 1.055262 0.013849 -0.005465 -833678.000000 0 0 1
-16.985539 -15.684939 12.961941 26.505429 0.745610 1.059819 0.015997 -0.010859 -1033860.000000 0 0 1
-17.613739 -14.608839 12.353441 26.005182 0.692413 1.075789 0.014201 -0.011629 602306.000000 0 0 1
-19.192839 -14.693039 12.421141 27.176004 0.653378 1.096106 0.014402 -0.014129 1176870.000000 0 0 1
-19.759339 -15.922739 11.869441 28.015152 0.678288 1.133293 0.024392 -0.018862 288721.000000 0 0 1
-19.829439 -16.083139 10.434441 27.581725 0.681457 1.182826 0.016623 -0.008429 -737464.000000 0 0 1
-20.695439 -17.238339 9.944541 28.711590 0.694514 1.217108 0.008654 -0.002988 -165610.000000 0 0 1
-20.038939 -18.475439 9.730441 28.941016 0.744825 1.227900 0.018886 0.006715 -434031.000000 0 0 1
-20.861239 -19.330939 9.025441 29.838483 0.747342 1.263506 0.017326 -0.002572 -264817.000000 0 0 1
-20.337439 -20.779339 8.859941 30.395574 0.796145 1.275014 0.020171 0.007837 113044.000000 0 0 1
-19.097239 -20.879439 8.179841 29.454462 0.829950 1.289385 0.022189 0.011587 -104484.000000 0 0 1
-18.674039 -22.243139 8.315241 30.209604 0.872405 1.291945 0.017678 0.019356 218004.000000 0 0 1
-17.330139 -22.568639 7.612841 29.455603 0.915946 1.309378 0.011858 0.015699 -72757.900000 0 0 1
-16.272139 -21.815339 8.127141 28.403203 0.929922 1.280606 0.002940 0.009842 -971789.000000 0 0 1
-15.070639 -22.195039 7.543941 27.868530 0.974297 1.296679 0.016679 0.017088 -533177.000000 0 0 1
-13.806739 -21.701939 8.319541 27.033589 1.004185 1.257971 -0.036175 0.013929 -61340.100000 0 0 1
-12.719939 -22.105539 7.503341 26.584804 1.048647 1.284666 -0.012508 0.019859 -699335.000000 0 0 1
-11.545039 -21.741739 8.207041 25.948924 1.082651 1.248994 -0.002448 0.017031 13345.000000 0 0 1
-10.311239 -22.415539 7.556341 25.804580 1.139654 1.273612 -0.003052 0.015585 19381.000000 0 0 1
-10.328839 -23.862239 7.625441 27.096840 1.162293 1.285529 -0.007975 0.023813 380485.000000 0 0 1
-9.070739 -24.426839 7.218841 27.038129 1.215236 1.300531 0.007844 0.015764 759476.000000 0 0 1
-9.102739 -25.985729 7.361241 28.500980 1.233856 1.309555 -0.010848 0.019430 -246705.000000 0 0 1
-9.656439 -26.641179 6.256041 29.019602 1.223062 1.353511 -0.012022 0.016402 -243188.000000 0 0 1
-9.813439 -27.986359 6.507841 30.362672 1.233542 1.354783 0.000273 0.013017 25928.500000 0 0 1
-8.681739 -28.928099 6.046441 30.802061 1.279235 1.373213 -0.004462 0.004271 -78536.800000 0 0 1
-7.388539 -28.683389 6.546841 30.334608 1.318687 1.353264 -0.005779 0.004188 -252367.000000 0 0 1
-6.355039 -29.439809 5.958341 30.701640 1.358193 1.375485 -0.008630 0.010934 360531.000000 0 0 1
-6.191539 -30.878979 6.463541 32.150021 1.372911 1.368374 -0.009610 0.010199 -539742.000000 0 0 1
-6.031939 -30.896569 7.835641 32.440400 1.377991 1.326844 -0.007317 0.002801 108683.000000 0 0 1
-6.175739 -32.197399 8.473641 33.861702 1.381289 1.317865 0.018617 -0.007168 -68316.000000 0 0 1
-6.348739 -32.090939 10.012441 34.210873 1.375483 1.273780 0.015836 -0.004554 -31579.500000 0 0 1
-5.187139 -31.619969 10.676241 33.774413 1.408198 1.249176 -0.009111 0.006733 324493.000000 0 0 1
-5.239839 -31.814909 12.074441 34.430168 1.407564 1.212485 -0.009476 0.004727 -116642.000000 0 0 1
-4.671939 -30.686269 12.956541 33.635488 1.419708 1.175367 -0.021670 0.008670 425030.000000 0 0 1
-5.536339 -29.509299 12.904541 32.679917 1.385339 1.164863 -0.026888 0.011886 873732.000000 0 0 1
-5.083739 -28.548649 13.805441 32.116350 1.394571 1.126462 -0.039033 0.008648 -217107.000000 0 0 1
-5.924739 -28.571169 15.131241 32.868962 1.366327 1.092406 -0.028963 0.010203 -93019.100000 0 0 1
-5.904139 -29.765929 15.925441 34.270819 1.374986 1.087507 -0.018768 -0.003074 77025.600000 0 0 1
-4.685939 -30.052009 16.605241 34.652782 1.416114 1.071066 -0.016513 -0.002642 180316.000000 0 0 1
-4.763939 -31.497479 17.023341 36.118976 1.420686 1.080017 -0.006426 0.001918 8823.660000 0 0 1
-4.819939 -32.337449 15.869241 36.342471 1.422834 1.118916 -0.007710 0.005022 195960.000000 0 0 1
-5.543539 -33.496299 16.268041 37.648135 1.406786 1.123968 -0.009276 0.006230 78805.900000 0 0 1
-5.119639 34.565976 15.586541 38.261700 -1.423753 1.151228 -0.013424 0.006146 103289.000000 0 0 1
-5.495939 34.563405 14.213141 37.773638 -1.413106 1.185028 0.013225 -0.002563 557273.000000 0 0 1
-4.859939 33.350788 13.741241 36.396645 -1.426093 1.183657 0.009962 -0.001626 7567.550000 0 0 1
-3.697939 33.563510 12.783841 36.105547 -1.461062 1.208878 0.005351 -0.009847 -641323.000000 0 0 1
-4.084939 34.017268 11.506541 36.142243 -1.451284 1.246789 0.011056 -0.011179 345617.000000 0 0 1
-2.980939 34.500456 10.737041 36.255365 -1.484607 1.270137 0.004546 -0.008269 -168179.000000 0 0 1
-3.356939 -34.562790 9.293341 35.947485 1.473974 1.309301 0.004210 -0.010883 -477331.000000 0 0 1
-3.786939 33.676130 8.438441 34.923200 -1.458815 1.326753 0.019535 -0.026255 1429390.000000 0 0 1
-4.818939 32.710667 8.843941 34.226089 -1.424528 1.309433 0.030334 -0.023197 1081960.000000 0 0 1
-6.227839 33.230927 9.211141 35.041769 -1.385534 1.304809 0.036214 -0.019482 43995.000000 0 0 1
-6.951739 33.849276 8.167041 35.507756 -1.368239 1.338711 0.041563 -0.012996 -303790.000000 0 0 1
-8.347239 33.663899 8.335741 35.670984 -1.327740 1.334931 0.031588 -0.011066 86159.000000 0 0 1
-8.995539 33.943177 6.969941 35.799987 -1.311734 1.374854 0.037253 -0.013509 -328221.000000 0 0 1
-9.124739 -34.052250 6.709741 35.886449 1.308984 1.382718 0.040767 -0.009185 134619.000000 0 0 1
-9.680439 -33.968979 5.379841 35.728772 1.293177 1.419647 0.028281 0.004166 -229873.000000 0 0 1
-9.557739 -32.506629 4.768841 34.216562 1.284831 1.430969 0.010748 0.007439 87051.100000 0 0 1
-10.409739 -31.617679 5.437541 33.728432 1.252736 1.408874 0.034013 -0.000672 -602240.000000 0 0 1
-11.725939 -31.611849 4.970941 34.081034 1.215594 1.424418 0.029823 0.000817 -551178.000000 0 0 1
-12.724439 -30.684539 5.685941 33.701368 1.177694 1.401270 0.017489 -0.000666 -6161.960000 0 0 1
-13.060039 -31.152929 6.992541 34.495873 1.173829 1.366675 0.020361 0.000719 452753.000000 0 0 1
-14.077739 -30.338679 7.614441 34.301573 1.136345 1.346946 0.012916 0.001382 574946.000000 0 0 1
32.034181 -13.359439 -12.940359 37.042088 -0.395107 1.927665 -0.030780 0.005148 -29790.100000 0 0 1
30.965981 -13.532539 -12.018059 35.867190 -0.412002 1.912477 -0.023014 0.005458 476857.000000 0 0 1
30.788231 -14.873239 -11.528459 36.083705 -0.450022 1.895990 -0.020927 -0.002781 -427130.000000 0 0 1
31.715731 -15.395139 -10.402859 36.757549 -0.451908 1.857730 -0.020550 -0.013659 -1452040.000000 0 0 1
32.960121 -15.689039 -10.883359 38.091509 -0.444264 1.860550 -0.011536 -0.013402 -1766920.000000 0 0 1
33.789121 -15.901839 -9.776159 38.602415 -0.439869 1.826837 0.003339 -0.017108 -567019.000000 0 0 1
-34.607188 -15.935439 -10.181459 39.436757 0.431523 1.831926 0.003358 -0.019139 -581077.000000 0 0 1
-34.160649 -14.684039 -10.653359 38.678999 0.405974 1.849833 -0.008545 -0.010300 -1010310.000000 0 0 1
-32.841419 -14.697439 -11.059059 37.641417 0.420796 1.868996 -0.005432 -0.013048 -871990.000000 0 0 1
-32.396659 -13.297639 -11.491459 36.856808 0.389494 1.887869 0.010539 -0.023910 -222454.000000 0 0 1
-32.281679 -12.412039 -10.375659 36.108445 0.367066 1.862252 0.016515 -0.019121 303931.000000 0 0 1
-31.790479 -11.151939 -10.843659 35.391881 0.337383 1.882193 0.019803 -0.019525 -208493.000000 0 0 1
-32.085549 -9.978439 -9.893959 35.027733 0.301513 1.857155 0.014210 -0.022568 159113.000000 0 0 1
-31.209689 -9.807039 -8.775459 33.870804 0.304461 1.832872 0.016122 -0.016871 97656.000000 0 0 1
-31.913249 -9.151039 -7.779859 34.098727 0.279254 1.800981 0.015032 -0.014982 -1002480.000000 0 0 1
-31.400079 -9.157739 -6.350359 33.319006 0.283776 1.762562 0.012642 -0.002835 -793156.000000 0 0 1
-30.204889 -8.417439 -6.178559 31.958773 0.271782 1.765350 0.020566 -0.015055 377713.000000 0 0 1
-29.704349 -8.420239 -4.793959 31.244692 0.276222 1.724838 0.020256 -0.008963 -234328.000000 0 0 1
-28.887329 -9.615939 -4.266759 30.743280 0.321340 1.710032 0.012811 -0.000458 -693887.000000 0 0 1
-29.556859 -10.842339 -4.031059 31.739780 0.351589 1.698144 0.027437 -0.004110 170880.000000 0 0 1
-30.250999 -10.779739 -2.822959 32.238095 0.342315 1.658475 0.013310 -0.009531 -490411.000000 0 0 1
-30.939879 -12.049639 -2.274659 33.281286 0.371381 1.639196 0.020356 -0.003738 8942.980000 0 0 1
-32.012709 -12.382339 -3.163359 34.469446 0.369071 1.662698 0.017510 -0.013000 373519.000000 0 0 1
-32.515959 -13.650039 -2.818659 35.377337 0.397454 1.650555 0.015674 -0.010110 -286467.000000 0 0 1
-34.038419 -13.720339 -2.595959 36.791312 0.383162 1.641414 0.004571 -0.009245 -235912.000000 0 0 1
-34.432133 -12.934139 -1.496159 36.811713 0.359333 1.611451 0.010708 -0.009554 52773.800000 0 0 1
34.136000 -13.292639 -1.099959 36.649293 -0.371337 1.600814 0.026448 -0.004638 -440251.000000 0 0 1
33.474601 -12.266139 -0.243959 35.652021 -0.351237 1.577639 0.026219 -0.000452 -528060.000000 0 0 1
33.942605 -12.290439 1.116141 36.116494 -0.347409 1.539887 0.025448 0.003307 1813.450000 0 0 1
33.532891 -11.167439 1.867041 35.392829 -0.321477 1.518020 0.021065 0.005950 -398589.000000 0 0 1
34.049688 -11.080439 3.311241 35.960002 -0.314611 1.478584 0.015888 -0.000148 153330.000000 0 0 1
33.110461 -11.723739 4.163841 35.370698 -0.340305 1.452803 0.018693 -0.004689 114561.000000 0 0 1
33.730741 -12.243939 5.282641 36.270970 -0.348200 1.424633 0.016613 -0.009935 -384643.000000 0 0 1
32.767681 -12.561739 6.452041 35.681186 -0.366078 1.388971 0.020870 -0.014963 -338604.000000 0 0 1
32.199031 -11.417839 6.954741 34.864209 -0.340769 1.369968 0.018090 -0.010452 -241369.000000 0 0 1
31.951081 -11.576839 8.348641 34.994208 -0.347617 1.329901 -0.003321 0.008619 -441691.000000 0 0 1
31.148341 -10.364939 8.898341 34.012227 -0.321235 1.306094 -0.010545 -0.000501 -632439.000000 0 0 1
29.808471 -10.451639 8.517941 32.716006 -0.337233 1.307401 -0.000098 0.006954 -589092.000000 0 0 1
29.070131 -9.452539 9.214741 31.927018 -0.314380 1.278012 0.008330 0.010538 81790.200000 0 0 1
27.538701 -9.489339 9.020241 30.492497 -0.331840 1.270484 0.008843 0.003413 115130.000000 0 0 1
27.105651 -8.923339 7.799241 29.583280 -0.318031 1.304006 0.027877 -0.004117 -211821.000000 0 0 1
26.294871 -9.774339 7.050841 28.925289 -0.355892 1.324555 0.028499 -0.011617 -316518.000000 0 0 1
25.370401 -9.069239 6.025241 27.608185 -0.343317 1.350785 0.038700 -0.016138 -300570.000000 0 0 1
24.313801 -8.434139 6.722841 26.598726 -0.333899 1.315274 0.026246 -0.007763 -345444.000000 0 0 1
23.380001 -7.820439 5.902641 25.350047 -0.322794 1.335794 0.012344 -0.011705 -891539.000000 0 0 1
23.754101 -6.604439 5.097441 25.176573 -0.271184 1.366919 0.010924 -0.008662 -1039770.000000 0 0 1
24.749501 -6.877339 4.130641 26.017260 -0.271040 1.411356 0.016486 -0.011939 310873.000000 0 0 1
25.387811 -5.715139 3.681541 26.282266 -0.221422 1.430257 0.024518 -0.012127 -30979.000000 0 0 1
26.128651 -5.915639 2.353741 26.893146 -0.222651 1.483162 0.030278 -0.010575 290578.000000 0 0 1
25.167381 -6.022539 1.304641 25.910811 -0.234882 1.520424 0.034578 -0.016984 295034.000000 0 0 1
25.759671 -5.827639 0.045241 26.410681 -0.222486 1.569083 0.029744 -0.014839 -613096.000000 0 0 1
24.927251 -5.952839 -1.233759 25.657870 -0.234418 1.618900 0.030357 -0.012220 1902.110000 0 0 1
23.907101 -4.987139 -1.467759 24.465800 -0.205656 1.630825 0.027179 -0.006303 344531.000000 0 1 0
23.299001 -5.156639 -2.715559 24.016841 -0.217813 1.684108 0.016840 -0.009867 111867.000000 0 1 0
22.255501 -4.021639 -3.002859 22.814427 -0.178774 1.702800 0.000588 0.000200 55715.900000 0 1 0
22.815001 -2.747339 -3.187059 23.199774 -0.119841 1.708607 -0.005403 0.005561 444827.000000 0 1 0
23.172101 -2.282639 -4.541259 23.722979 -0.098191 1.763414 -0.007476 0.010594 123219.000000 0 1 0
22.057601 -1.362839 -5.149259 22.691628 -0.061707 1.799714 -0.018990 0.012097 389737.000000 0 1 0
22.053401 -0.064239 -4.505359 22.508996 -0.002913 1.772316 -0.014380 0.017953 306486.000000 0 1 0
21.005301 0.649361 -5.116659 21.629252 0.030904 1.809622 -0.015143 0.020778 -424116.000000 0 1 0
20.663801 1.985261 -4.467659 21.234263 0.095780 1.782779 -0.015706 0.018174 -747815.000000 0 1 0
21.686901 2.954661 -4.470459 22.339129 0.135408 1.772275 -0.010996 0.017832 410760.000000 0 1 0
22.493801 2.836061 -3.281759 22.908170 0.125420 1.714548 -0.000301 0.018239 -384671.000000 0 1 0
23.677201 3.765861 -3.161459 24.182357 0.157729 1.701906 0.001193 0.013227 -927822.000000 0 1 0
23.292201 5.128061 -3.162859 24.058830 0.216705 1.702642 -0.006333 0.019065 586697.000000 0 1 0
24.360701 5.998161 -2.815459 25.245762 0.241421 1.682551 0.000624 0.014760 -107227.000000 0 0 1
23.932401 7.443361 -2.920459 25.232767 0.301532 1.686797 -0.005037 0.011340 712729.000000 0 0 1
22.811701 7.675161 -2.031659 24.153870 0.324559 1.655009 0.002533 0.011745 1093820.000000 0 1 0
22.081301 8.831061 -2.387659 23.901306 0.380449 1.670860 -0.005674 0.014105 -431041.000000 0 1 0
21.169401 9.212361 -1.216759 23.119075 0.410456 1.623451 -0.010556 0.019221 -542268.000000 0 1 0
21.745201 9.994761 -0.217759 23.933166 0.430834 1.579895 -0.014058 0.024676 760544.000000 0 1 0
20.743501 10.332561 0.761941 23.186962 0.462135 1.537930 -0.020600 0.025279 481435.000000 0 1 0
21.355501 10.840861 2.121141 24.043314 0.469739 1.482460 0.001807 0.020729 -392105.000000 0 1 0
21.911101 12.166461 2.104541 25.150511 0.506876 1.487020 -0.005119 0.021908 965668.000000 0 0 1
21.023201 13.297361 1.836241 24.943267 0.563981 1.497113 -0.005562 0.017987 -209014.000000 0 1 0
20.185301 13.780661 3.020541 24.626747 0.599026 1.447834 -0.001505 0.014131 1074760.000000 0 1 0
18.823701 13.248061 3.017941 23.215314 0.613270 1.440429 0.005251 0.010888 1481570.000000 0 1 0
17.946001 13.837361 3.930541 22.999580 0.656841 1.399057 0.004125 0.005023 -582887.000000 0 1 0
18.052201 13.565761 5.455341 23.230854 0.644444 1.333751 0.000346 0.001990 -601278.000000 0 1 0
17.666801 12.250961 5.759141 22.256900 0.606313 1.309061 -0.003021 -0.000243 537462.000000 0 1 0
17.856601 11.990361 7.176541 22.674429 0.591328 1.248755 -0.003106 -0.007000 -146550.000000 0 1 0
18.070001 10.501061 7.495441 22.203127 0.526431 1.226446 -0.000468 -0.014846 -899564.000000 0 1 0
19.320301 10.066061 7.066141 22.902619 0.480314 1.257149 0.002846 -0.013888 -87159.700000 0 1 0
19.647401 8.740661 7.483441 22.768870 0.418585 1.235901 0.026924 -0.008214 579907.000000 0 1 0
20.641101 8.054461 6.458141 23.078930 0.372042 1.287181 0.033383 -0.016369 652573.000000 0 1 0
20.012001 7.783161 5.181841 22.088668 0.370922 1.333997 0.013537 -0.006664 1059480.000000 0 1 0
20.934901 7.118961 4.323041 22.530832 0.327785 1.377727 0.017198 -0.003457 341789.000000 0 1 0
20.346601 6.839361 2.902241 21.660657 0.324277 1.436405 -0.001299 0.003035 -207722.000000 0 1 0
21.225601 5.940461 2.270341 22.157835 0.272890 1.468154 -0.008402 0.002234 500564.000000 0 1 0
21.011401 5.827761 0.880141 21.822384 0.270561 1.530453 -0.001859 0.014487 -328717.000000 0 1 0
21.920101 4.787161 0.177041 22.437448 0.215015 1.562906 -0.005683 0.009440 -68409.100000 0 1 0
21.813501 3.429261 0.643941 22.090797 0.155932 1.541642 -0.009925 0.009527 1467340.000000 0 1 0
23.017401 2.669361 0.324341 23.173939 0.115456 1.556800 -0.004534 0.009571 992393.000000 0 1 0
22.874401 1.159461 0.184041 22.904507 0.050645 1.562761 0.005371 0.006431 -469484.000000 0 1 0
22.119901 0.661561 -0.898059 22.148007 0.029899 1.611356 0.001250 0.004195 655053.000000 0 1 0
22.277001 -0.708739 -1.192859 22.320170 -0.031804 1.624265 0.001973 0.009125 -1146260.000000 0 1 0
21.899801 -1.789339 -0.064859 21.972875 -0.081525 1.573748 0.006996 0.009448 562630.000000 0 1 0
22.791101 -1.841439 1.081341 22.890926 -0.080621 1.523540 0.005598 0.005938 1194220.000000 0 1 0
24.151101 -2.155739 0.803741 24.260439 -0.089025 1.537661 0.015320 0.002638 -210987.000000 0 1 0
25.038931 -1.983939 2.024341 25.198850 -0.079069 1.490375 0.019940 0.002728 -584092.000000 0 0 1
25.086701 -0.643639 2.481841 25.217383 -0.025651 1.472219 0.018147 -0.001931 455425.000000 0 0 1
26.053251 -0.334639 3.470641 26.285533 -0.012844 1.438373 0.027326 0.000269 -180575.000000 0 0 1
25.810711 1.098661 4.037941 26.147750 0.042540 1.415748 0.033369 0.004671 -465725.000000 0 0 1
26.064451 2.209661 3.170541 26.349394 0.084575 1.450177 0.034401 0.008095 102832.000000 0 0 1
27.414191 2.525061 2.914041 27.684029 0.091849 1.465340 0.041591 0.003110 -584864.000000 0 0 1
27.544701 3.765761 1.988541 27.871954 0.135872 1.499390 0.043871 -0.000361 -288151.000000 0 0 1
26.873861 3.571661 0.745241 27.120409 0.132130 1.543314 0.039713 0.008888 340299.000000 0 0 1
27.131681 4.507361 -0.294659 27.505113 0.164626 1.581509 0.033571 0.011851 389973.000000 0 0 1
28.523411 4.293661 -0.978959 28.861373 0.149409 1.604722 0.030454 0.007971 -219860.000000 0 0 1
29.630371 4.551661 -0.209559 29.978666 0.152423 1.577787 0.038511 0.001295 -697739.000000 0 0 1
30.826211 4.150361 -0.844059 31.115803 0.133833 1.597926 0.012627 0.001267 849096.000000 0 0 1
32.097601 4.218461 0.104541 32.373791 0.130677 1.567567 -0.016710 -0.004343 548709.000000 0 0 1
32.039451 3.316161 1.249641 32.234841 0.103135 1.532020 -0.028790 -0.000841 186318.000000 0 0 1
31.397381 3.851261 2.378941 31.722029 0.122052 1.495733 -0.009148 0.003930 -417862.000000 0 0 1
31.305411 2.787061 3.518941 31.625613 0.088794 1.459297 -0.006912 0.004639 713830.000000 0 0 1
30.251911 1.756961 3.452641 30.498947 0.058013 1.457348 0.003128 0.004883 697956.000000 0 0 1
30.447141 0.677061 4.343841 30.762896 0.022234 1.429119 0.000666 0.004896 589499.000000 0 0 1
31.733631 -0.257239 4.231741 32.015577 -0.008106 1.438231 0.001507 -0.000909 338401.000000 0 0 1
32.886541 0.450661 4.583741 33.207505 0.013703 1.432321 -0.009656 -0.003545 -811951.000000 0 0 1
33.994364 -0.421939 4.526041 34.296937 -0.012411 1.438444 -0.018831 -0.005836 -742132.000000 0 0 1
-34.670633 0.474961 4.937341 35.023645 -0.013698 1.429354 -0.018385 -0.016409 -293560.000000 0 0 1
-34.185539 1.502561 4.131941 34.467110 -0.043925 1.450627 -0.025821 -0.016820 143421.000000 0 0 1
-34.045759 1.259461 2.749941 34.179850 -0.036976 1.490254 -0.020481 -0.003842 -758096.000000 0 0 1
-34.508683 2.435661 1.864741 34.644753 -0.070464 1.516946 -0.033924 -0.008110 383229.000000 0 0 1
-33.609609 3.552761 1.868641 33.848482 -0.105316 1.515562 -0.013728 -0.006291 -292829.000000 0 0 1
-32.539419 3.418361 0.993941 32.733574 -0.104669 1.540427 0.030701 0.000064 -917406.000000 0 0 1
-31.469489 4.469461 1.356941 31.814244 -0.141082 1.528131 0.032723 0.003049 -282623.000000 0 0 1
-30.705329 4.100561 2.488941 31.077752 -0.132760 1.490623 0.025797 -0.004415 192141.000000 0 0 1
-30.126959 5.239961 3.170141 30.743140 -0.172207 1.467496 0.033120 -0.005911 -104317.000000 0 0 1
-29.624459 4.902661 4.613241 30.379708 -0.164007 1.418354 0.013531 -0.001656 764535.000000 0 0 1
-30.559689 4.732561 5.724641 31.449376 -0.153642 1.387749 -0.009040 0.002608 718388.000000 0 0 1
-31.592249 3.771361 5.609841 32.307332 -0.118814 1.396272 -0.008944 -0.002420 14978.800000 0 0 1
-31.749099 2.949461 6.881041 32.619830 -0.092633 1.358253 -0.016394 -0.006529 -511978.000000 0 0 1
-32.264429 3.692961 8.004641 33.447057 -0.113963 1.329128 -0.026774 0.010063 427444.000000 0 0 1
-32.208289 2.908561 9.195741 33.621351 -0.090060 1.293757 -0.023582 0.011697 128875.000000 0 0 1
-33.353839 1.871661 9.385841 34.699794 -0.056057 1.296898 -0.025492 0.012443 -54737.300000 0 0 1
-33.021859 0.770961 8.599341 34.131894 -0.023343 1.316107 -0.011892 0.002167 353790.000000 0 0 1
-34.025009 -0.232639 8.551741 35.084008 0.006837 1.324565 0.002433 -0.000588 177914.000000 0 0 1
-34.206022 -1.101839 9.847641 35.612386 0.032201 1.290622 0.006334 0.010642 18331.400000 0 0 1
-33.062779 -1.957939 9.879341 34.562729 0.059150 1.280916 0.004132 -0.005490 574930.000000 0 0 1
-33.084709 -2.881339 10.884341 34.948089 0.086871 1.254085 0.009131 0.012227 560180.000000 0 0 1
-31.672169 -3.546039 11.017541 33.720719 0.111496 1.237956 0.002060 0.012049 447985.000000 0 0 1
-31.589689 -4.625439 10.103041 33.486931 0.145389 1.264320 0.001453 0.012057 182588.000000 0 0 1
-30.380489 -5.374839 10.126541 32.471677 0.175106 1.253649 0.011464 -0.000092 209165.000000 0 0 1
-30.291529 -6.428039 9.002641 32.248162 0.209104 1.287869 0.009095 0.003842 86275.300000 0 0 1
-31.113169 -7.548939 9.236941 33.321717 0.238029 1.289913 0.009042 0.005820 -201106.000000 0 0 1
-31.188479 -8.467139 8.156041 33.330687 0.265093 1.323585 0.011822 0.002576 -374133.000000 0 0 1
-32.280239 -9.501539 8.346641 34.669287 0.286261 1.327658 0.014562 0.002796 -883706.000000 0 0 1
-33.562329 -9.007139 8.230741 35.711393 0.262192 1.338226 0.011510 -0.000957 -797405.000000 0 0 1
-34.573204 -9.962939 8.493741 36.969044 0.280568 1.338973 0.012952 -0.000555 98634.700000 0 0 1
7.169481 -24.247739 10.722541 27.465018 -1.283311 1.169722 0.055900 -0.005793 342005.000000 0 0 1
6.404881 -24.469539 9.557941 27.039510 -1.314791 1.209507 0.046642 -0.012188 -176309.000000 0 0 1
5.207781 -25.204779 9.694141 27.502332 -1.367045 1.210572 0.048932 -0.012388 329956.000000 0 0 1
4.942381 -26.138729 8.478041 27.920198 -1.383920 1.262272 0.030702 -0.001064 -141672.000000 0 0 1
4.494581 -25.460369 7.334741 26.874339 -1.396064 1.294362 0.037966 -0.003384 -164527.000000 0 0 1
4.294581 -26.434989 6.293941 27.511193 -1.409745 1.339975 0.029408 0.000406 -524286.000000 0 0 1
3.657581 -26.068099 4.961041 26.786855 -1.431398 1.384517 0.014782 0.000370 621032.000000 0 0 1
2.236881 -25.924849 4.885541 26.475837 -1.484726 1.385204 -0.012448 0.002090 411029.000000 0 0 1
1.516681 -27.119989 4.663041 27.559718 -1.514930 1.400781 -0.019738 0.000797 -421769.000000 0 0 1
-0.002619 -26.908049 4.698841 27.315238 1.570699 1.397914 -0.009506 -0.000089 -507339.000000 0 0 1
-0.391719 -26.669439 6.051541 27.350202 1.556109 1.347689 -0.014480 0.004076 -544898.000000 0 0 1
-1.764719 -26.887049 6.255541 27.661515 1.505256 1.342677 -0.031383 0.006828 -442017.000000 0 0 1
-2.304919 -28.286379 6.433341 29.100168 1.489491 1.347879 -0.035959 0.006251 -675555.000000 0 0 1
-1.908119 -28.982689 7.645941 30.034940 1.505055 1.313395 -0.035854 0.004684 71409.600000 0 0 1
-2.599019 -30.186429 7.856041 31.300044 1.484909 1.317092 -0.024857 0.003573 -119158.000000 0 0 1
-2.207019 -30.919439 9.205041 32.335977 1.499538 1.282135 -0.028346 0.007350 861755.000000 0 0 1
-0.905919 -31.504819 9.379641 32.883917 1.542049 1.281545 -0.031699 0.010213 577909.000000 0 0 1
-0.768419 -31.788689 10.795041 33.580413 1.546628 1.243517 -0.033580 0.015930 222002.000000 0 0 1
0.690681 -32.034049 11.227941 33.951789 -1.549239 1.233748 -0.020699 0.011730 198904.000000 0 0 1
1.324381 -33.305329 11.059241 35.118453 -1.531052 1.250432 -0.021192 0.011609 209606.000000 0 0 1
2.730081 -33.292359 11.198841 35.231358 -1.488976 1.247319 -0.015652 0.014139 236559.000000 0 0 1
3.249481 -33.693669 12.583741 36.113335 -1.474652 1.214878 -0.010230 0.014861 -432440.000000 0 0 1
2.760281 -32.885179 13.624541 35.702693 -1.487056 1.179258 -0.018909 0.012913 -393582.000000 0 0 1
3.400081 -33.081909 14.801641 36.401399 -1.468378 1.152042 -0.016016 0.013679 -782140.000000 0 0 1
2.996381 -32.107689 15.949641 35.976007 -1.477743 1.111474 -0.022529 0.016413 62653.500000 0 0 1
3.386381 -30.733979 15.804441 34.724997 -1.461055 1.098276 -0.021095 0.012376 102138.000000 0 0 1
4.759981 -30.465509 16.018541 34.747638 -1.415808 1.091678 -0.008104 0.022060 149201.000000 0 0 1
5.206481 -29.194469 15.151041 33.301329 -1.394314 1.098460 0.009151 0.011363 -124798.000000 0 0 1
5.408881 -29.429539 13.760041 32.934670 -1.389034 1.139776 0.011823 0.012609 997296.000000 0 0 1
4.179781 -29.519299 12.958941 32.508364 -1.430137 1.160769 -0.013360 0.023920 497905.000000 0 0 1
4.234981 -29.705429 11.415241 32.103821 -1.429185 1.207270 -0.007681 0.012613 171195.000000 0 0 1
4.870481 -30.880499 10.902241 33.108695 -1.414365 1.235249 -0.000860 0.010573 -344578.000000 0 0 1
6.220881 -31.051089 11.211141 33.594035 -1.373071 1.230545 0.008001 0.010085 -1036260.000000 0 0 1
6.897081 -32.297159 10.705041 34.717058 -1.360406 1.257337 -0.007924 0.018435 -326093.000000 0 0 1
6.598781 -33.435079 11.464741 35.956762 -1.375940 1.246283 -0.019895 0.012135 162654.000000 0 0 1
6.855281 -34.584000 10.709241 36.847466 -1.375112 1.275904 -0.012398 0.010569 -229361.000000 0 0 1
6.781281 33.453497 11.504641 36.020536 1.370799 1.245709 -0.005684 0.008779 -447928.000000 0 0 1
5.519281 33.170087 12.035841 35.715243 1.405914 1.227073 -0.016127 0.009120 -386321.000000 0 0 1
5.363581 31.806487 12.334841 34.533591 1.403736 1.205545 -0.007717 0.006589 12110.200000 0 0 1
4.036781 31.489757 13.038341 34.320529 1.443298 1.181109 -0.014981 0.011167 -16183.200000 0 0 1
4.094781 31.865167 14.441241 35.223650 1.442993 1.148356 -0.003741 0.009391 479380.000000 0 0 1
2.826681 31.666987 15.063741 35.181025 1.481770 1.128321 0.007421 0.001740 442370.000000 0 0 1
2.963081 31.702417 16.604841 35.910219 1.477602 1.090098 -0.002141 -0.006821 -73719.000000 0 0 1
3.314481 32.971187 17.110541 37.294176 1.470606 1.094153 -0.014320 -0.005186 262905.000000 0 0 1
3.863781 32.811497 18.427541 37.829848 1.453579 1.062011 -0.014346 0.000769 -307778.000000 0 0 1
4.242481 34.138876 19.072741 39.334857 1.447159 1.064569 -0.016362 0.003008 313044.000000 0 0 1
3.176381 -34.320743 19.373441 39.539006 -1.478509 1.058726 -0.036993 0.000125 341778.000000 0 0 1
3.669381 -33.434299 20.354741 39.314529 -1.461485 1.026588 -0.028916 -0.008204 378359.000000 0 0 1
2.517681 -32.528299 20.827241 38.706626 -1.493551 1.002639 -0.035594 -0.009568 158356.000000 0 0 1
1.514881 -33.215219 21.545441 39.620092 -1.525220 0.995837 -0.032472 -0.003123 -126255.000000 0 0 1
0.682581 -32.244439 22.208341 39.158399 -1.549631 0.967766 -0.020775 -0.002345 -536204.000000 0 0 1
-0.462519 -32.938249 22.915641 40.128155 1.556755 0.962998 -0.026901 0.000498 -754335.000000 0 0 1
-1.443619 -33.385769 21.963141 39.988413 1.527583 0.989345 -0.035293 0.004031 35337.300000 0 0 1
-2.309819 -34.355846 22.464041 41.113168 1.503665 0.992742 -0.028500 0.004402 -128263.000000 0 0 1
-3.587019 -33.797379 23.116641 41.103633 1.465059 0.973512 -0.003086 0.005556 655423.000000 0 0 1
-4.659019 -33.417699 22.182141 40.379406 1.432272 0.989219 -0.010940 0.004105 1845720.000000 0 0 1
-5.796619 -32.773049 22.820941 40.354292 1.395735 0.969739 -0.000049 0.012344 1624180.000000 0 0 1
-7.128919 -32.731159 21.986841 40.069582 1.356343 0.989968 0.011834 -0.002317 1023820.000000 0 0 1
-7.832119 -33.941429 21.679741 41.028939 1.344012 1.014080 0.024807 0.004613 492784.000000 0 0 1
-8.974319 -33.656169 20.868641 40.605126 1.310212 1.031024 0.025673 0.001465 39310.000000 0 0 1
-9.801219 34.453933 20.628741 41.336211 -1.293645 1.048297 0.048201 -0.006748 -88196.700000 0 0 1
-10.338319 33.946032 21.817241 41.655803 -1.275169 1.019549 0.067825 -0.010281 -867796.000000 0 0 1
-11.733319 33.828548 21.762441 41.900421 -1.236933 1.024665 0.054585 -0.005294 -505694.000000 0 0 1
-12.262519 33.443470 23.172141 42.494508 -1.219354 0.994053 0.058490 -0.007806 -299080.000000 0 0 1
-12.384919 34.447325 24.126141 43.841477 -1.225655 0.988068 0.045670 -0.006329 -458900.000000 0 0 1
-11.178919 -34.458132 24.653541 43.819267 1.257089 0.973246 0.040968 -0.010434 -415629.000000 0 0 1
-11.254719 -33.043529 25.241941 43.077826 1.242518 0.944730 0.027027 -0.007966 -81467.500000 0 0 1
-11.930419 -32.904959 26.462641 43.878726 1.222966 0.923432 0.021823 0.005035 -43796.700000 0 0 1
-12.065019 -31.515209 26.696041 43.028499 1.205177 0.901509 0.021050 0.008328 -80893.800000 0 0 1
-12.923419 -31.221429 27.932541 43.840840 1.178341 0.880021 0.017260 0.008596 -573485.000000 0 0 1
-12.233919 -31.038499 29.169741 44.316261 1.195341 0.852348 0.009266 0.009788 -192334.000000 0 0 1
-13.037019 -30.543559 30.195041 44.884445 1.167374 0.832906 -0.000620 0.010176 -302422.000000 0 0 1
-12.223619 -30.115579 31.472841 45.242731 1.185223 0.801480 -0.002397 0.012862 -148426.000000 0 0 1
-13.064719 -29.624289 32.508841 45.881479 1.155440 0.783370 -0.003535 0.014422 38700.100000 0 0 1
-12.491519 -29.188129 33.672641 46.279927 1.166416 0.755999 -0.004557 0.012075 -673056.000000 0 0 1
-11.959319 -30.141849 -34.513776 47.357757 1.193079 2.387347 -0.002909 0.015810 -344757.000000 0 0 1
-10.742319 -30.727239 34.389641 47.351959 1.234476 0.757937 0.000481 0.023407 -578588.000000 0 0 1
-10.332919 -31.837049 -34.121276 47.797786 1.256966 2.365802 0.004853 0.028113 347582.000000 0 0 1
-8.801619 -32.007419 -34.310176 47.740251 1.302442 2.372705 0.005740 0.021245 183737.000000 0 0 1
-8.042519 -31.041819 -33.660776 46.490047 1.317284 2.380442 0.010851 0.014970 -370937.000000 0 0 1
-6.662719 -31.348629 -33.643976 46.465530 1.361376 2.380471 0.013258 0.008181 18996.600000 0 0 1
-5.860019 -30.436249 -32.742976 45.086667 1.380590 2.383608 0.006524 0.010029 -222972.000000 0 0 1
-6.235919 -30.640009 -31.412776 44.322222 1.370016 2.358502 0.008484 0.005116 -53697.200000 0 0 1
-5.573219 -29.829749 -30.459676 42.996123 1.386092 2.358065 0.008001 0.008154 -61902.500000 0 0 1
-6.172919 -30.028439 -29.067676 42.246205 1.368052 2.329600 0.008993 0.007491 -294600.000000 0 0 1
-6.014819 -31.382709 -28.508176 42.822524 1.381432 2.299266 0.001752 0.003564 35893.600000 0 0 1
-6.909419 -31.671259 -27.453676 42.479560 1.356001 2.273495 0.007534 -0.000481 5183.780000 0 0 1
-6.555519 -32.996849 -26.728176 42.966991 1.374679 2.242171 0.003032 -0.001695 290765.000000 0 0 1
-5.580619 -32.852779 -25.712376 42.090078 1.402535 2.227980 0.000047 -0.005812 -95430.400000 0 0 1
-5.314619 -34.067287 -25.094776 42.644730 1.416040 2.199951 -0.008143 -0.010345 -148616.000000 0 0 1
-4.279419 -33.849299 -23.970776 41.697561 1.445038 2.183245 -0.007090 -0.013121 -99452.900000 0 0 1
-4.809419 -33.443779 -22.708776 40.710016 1.427969 2.162551 0.004935 -0.012824 -31173.400000 0 0 1
-4.745919 -32.050489 -22.599576 39.503145 1.423788 2.179855 -0.000944 -0.001706 -246163.000000 0 0 1
-5.291619 -31.618629 -21.233276 38.452450 1.404975 2.155792 0.010983 -0.002940 352679.000000 0 0 1
-6.721819 -31.692239 -21.161876 38.696329 1.361797 2.149418 0.018130 -0.001692 543641.000000 0 0 1
-7.340919 -30.529819 -20.639676 37.575992 1.334825 2.152297 0.017560 -0.001926 51495.100000 0 0 1
-7.584319 -29.442349 -21.725576 37.368094 1.318679 2.191237 0.026311 -0.010277 95115.500000 0 0 1
-6.379319 -28.898259 -22.334576 37.076116 1.353530 2.217298 0.018718 0.002668 592546.000000 0 0 1
-6.625419 -27.908509 -23.295476 36.952135 1.337713 2.252894 0.029772 -0.001325 -878799.000000 0 0 1
-5.587819 -27.901749 -24.447976 37.515795 1.373143 2.280582 0.030016 -0.003840 428642.000000 0 0 1
-4.358919 -27.226619 -24.312976 36.761526 1.412046 2.293440 0.029393 0.001111 182191.000000 0 0 1
-3.527619 -27.567149 -23.217576 36.213915 1.443523 2.266757 0.009946 0.005157 -1050350.000000 0 0 1
-2.080619 -27.050069 -23.263476 35.738278 1.494030 2.279618 0.018641 0.004010 -173720.000000 0 0 1
-1.873619 -25.619069 -23.239576 34.639934 1.497793 2.306204 0.021975 0.005723 -35854.800000 0 0 1
-2.401919 -24.989039 -22.078076 33.431463 1.474972 2.292145 0.034816 0.009368 -645566.000000 0 0 1
-2.191519 -23.508339 -22.358176 32.516654 1.477842 2.328963 0.035252 0.007263 288882.000000 0 0 1
-2.848919 -22.919339 -23.471176 32.928841 1.447129 2.364257 0.032511 0.005479 746119.000000 0 0 1
-4.284219 -23.021039 -23.461476 33.147604 1.386801 2.357158 0.021840 0.006239 472137.000000 0 0 1
-4.928019 -23.296639 -24.813876 34.391092 1.362336 2.376792 0.007480 0.009303 -49203.300000 0 0 1
-4.781219 -22.154139 -25.606576 34.195945 1.358240 2.417075 0.011872 0.004526 82699.700000 0 0 1
-5.052819 -22.431639 -26.973276 35.443858 1.349240 2.435671 0.001570 0.011860 83642.600000 0 0 1
-5.223619 -21.162839 -27.781176 35.312118 1.328804 2.476293 -0.001061 0.012707 61542.500000 0 0 1
-5.579719 -21.436139 -29.129076 36.594322 1.316152 2.491454 -0.002561 0.010173 -75512.600000 0 0 1
-4.462819 -21.598039 -29.961376 37.203173 1.367033 2.507053 -0.003492 0.004711 -537113.000000 0 0 1
-4.891519 -21.921739 -31.365876 38.578592 1.351257 2.520148 -0.000296 -0.003160 105758.000000 0 0 1
-5.687319 -20.887739 -31.961276 38.602674 1.304960 2.546248 -0.003581 -0.010017 22637.900000 0 0 1
-6.527819 -21.436439 -32.931976 39.832755 1.275198 2.544113 -0.001751 -0.006273 -548277.000000 0 0 1
-6.561919 -20.717239 -34.333276 40.632950 1.264056 2.577289 0.001070 -0.004852 -470341.000000 0 0 1
-5.373019 -20.866239 34.241441 40.456712 1.318773 0.561660 -0.006295 0.000685 -823834.000000 0 0 1
-5.424719 -20.248739 33.008241 39.102212 1.309039 0.565813 -0.008152 0.006962 322199.000000 0 0 1
-4.227019 -20.511939 32.051441 38.287103 1.367565 0.578774 -0.007841 0.008309 -916634.000000 0 0 1
-4.129219 -21.907739 31.693841 38.749181 1.384500 0.613005 -0.003987 0.006375 978298.000000 0 0 1
-2.963219 -22.334139 30.946341 38.278851 1.438890 0.629291 -0.006506 0.004265 1898080.000000 0 0 1
-1.520819 -22.020739 31.512241 38.473981 1.501843 0.611037 -0.005413 0.000864 346653.000000 0 0 1
-1.168419 -20.620339 31.363141 37.552766 1.514193 0.582345 -0.010497 -0.004075 269659.000000 0 0 1
-0.179919 -20.156539 32.304241 38.077322 1.561870 0.557869 -0.007760 0.003229 140182.000000 0 0 1
-0.657319 -19.848339 33.721841 39.135038 1.537691 0.532227 -0.016362 -0.000268 -404147.000000 0 0 1
-1.689219 -18.903939 33.713141 38.688348 1.481675 0.512741 -0.028576 0.003649 -360621.000000 0 0 1
-1.998419 -18.522639 -34.233676 38.974690 1.463321 2.643210 -0.022180 -0.003330 871512.000000 0 0 1
-2.962019 -17.250339 -34.113276 38.341405 1.400747 2.667537 -0.012192 -0.010818 926167.000000 0 0 1
-2.314919 -16.083339 -34.568376 38.196928 1.427845 2.702186 -0.011693 -0.010304 -458781.000000 0 0 1
-3.167919 -15.009739 -34.453076 37.713956 1.362791 2.722692 -0.007746 -0.008155 -514873.000000 0 0 1
-2.672619 -13.581239 34.446441 37.123446 1.376492 0.382085 -0.002657 -0.011138 -804669.000000 0 0 1
-1.729919 -12.973539 -34.015976 36.447112 1.438236 2.774283 0.004071 -0.007214 -463082.000000 0 0 1
-1.596419 -11.605239 -34.076176 36.033539 1.434094 2.810475 -0.004703 -0.002085 -296620.000000 0 0 1
-1.024119 -10.960839 33.907041 35.649351 1.477632 0.313933 -0.010170 0.003054 -612921.000000 0 0 1
-1.766619 -11.264639 32.728441 34.657812 1.415235 0.335242 -0.009528 -0.004202 -338612.000000 0 0 1
-1.070219 -10.889139 31.594841 33.435800 1.472828 0.333384 -0.004578 0.002804 -127172.000000 0 0 1
-0.259919 -12.123439 31.046841 33.330942 1.549360 0.372358 -0.018310 0.002204 -236373.000000 0 0 1
-1.041219 -13.206939 30.599741 33.344438 1.492120 0.408578 -0.012818 -0.006405 -240967.000000 0 0 1
-0.276419 -14.280539 30.117541 33.332814 1.551442 0.442835 -0.020045 -0.006451 -493283.000000 0 0 1
-0.727619 -15.612039 30.679841 34.431350 1.524224 0.471157 -0.026630 -0.003197 -662449.000000 0 0 1
-1.868319 -16.180739 30.142441 34.261840 1.455840 0.495424 -0.011611 -0.007890 -502144.000000 0 0 1
-2.129919 -17.463639 30.671141 35.358650 1.449433 0.520783 -0.011046 0.000199 -430189.000000 0 0 1
-2.519319 -18.479939 29.517141 34.915852 1.435304 0.563521 -0.005259 0.001180 203066.000000 0 0 1
-3.711419 -18.062839 28.846641 34.236961 1.368144 0.568780 0.001386 0.000058 156284.000000 0 0 1
-4.208519 -19.022539 27.919841 34.045354 1.353065 0.609249 0.005049 0.008943 196865.000000 0 0 1
-3.339319 -19.491039 26.659741 33.193274 1.401118 0.638204 0.009619 0.002069 262644.000000 0 0 1
-4.009819 -20.336439 25.650941 32.979087 1.376119 0.679648 0.024261 0.006020 414719.000000 0 0 1
-4.495419 -21.606139 26.111241 34.188170 1.365661 0.701692 0.006417 -0.000562 -102536.000000 0 0 1
-28.006319 34.450361 -0.402059 44.399808 -0.888211 1.579852 0.004147 -0.007372 -397916.000000 0 0 1
-27.564519 -33.591805 -0.192659 43.453989 0.883636 1.575230 0.019507 0.003466 48497.800000 0 0 1
-28.120279 -32.994605 0.958941 43.362583 0.864986 1.548680 0.009050 0.002803 -305871.000000 0 0 1
-27.485159 -31.648605 1.249941 41.936029 0.855689 1.540986 0.024169 -0.003330 860153.000000 0 0 1
-26.054539 -31.590705 1.350541 40.971156 0.881143 1.537827 0.026796 -0.012951 348693.000000 0 0 1
-25.528379 -30.348205 1.760441 39.696484 0.871444 1.526434 0.034979 -0.011576 -14892.700000 0 0 1
-24.011319 -30.484505 1.905341 38.852011 0.903627 1.521736 0.034510 -0.005487 -396647.000000 0 0 1
-23.582619 -31.041805 3.115641 39.108065 0.921113 1.491044 0.028374 -0.008048 134074.000000 0 0 1
-22.160019 -31.025005 3.204741 38.260786 0.950562 1.486938 0.018830 -0.001148 343759.000000 0 0 1
-21.644319 -31.682905 4.494141 38.632633 0.971466 1.454202 0.019173 -0.009877 -341335.000000 0 0 1
-21.999419 -30.969305 5.669641 38.408555 0.953150 1.422641 0.015426 -0.005439 -212877.000000 0 0 1
-21.562419 -31.587205 6.818341 38.848156 0.971822 1.394370 -0.000227 0.003114 -465703.000000 0 0 1
-22.158519 -31.001505 8.075341 38.952592 0.950235 1.361970 -0.001183 0.020889 -410318.000000 0 0 1
-21.567619 -29.785405 8.462941 37.735314 0.944078 1.344601 0.009581 0.016636 -132374.000000 0 0 1
-21.993019 -29.446105 9.747141 38.023318 0.929288 1.311556 -0.003516 0.023624 -589015.000000 0 0 1
-21.353319 -28.270405 10.473241 36.944131 0.923896 1.283366 0.004564 0.026094 -508015.000000 0 0 1
-20.136719 -28.639905 11.045341 36.711458 0.957993 1.265193 -0.000996 0.021695 -628493.000000 0 0 1
-19.704819 -27.543405 11.847641 35.878763 0.949803 1.234267 0.016311 0.022585 163351.000000 0 0 1
-18.417119 -27.763005 12.683341 35.648869 0.985080 1.207042 0.021838 0.023427 235437.000000 0 0 1
-18.500919 -28.663805 13.752441 36.783520 0.997630 1.187613 0.025354 0.015464 -45580.900000 0 0 1
-17.207919 -28.816105 14.308841 36.485933 1.032465 1.167802 0.024124 0.015469 203325.000000 0 0 1
-17.141019 -29.979105 15.325441 37.781350 1.051396 1.153123 0.030545 -0.003074 -58173.400000 0 0 1
-17.212519 -31.277905 14.733041 38.621764 1.067716 1.179410 0.035055 -0.001121 -55779.100000 0 0 1
-17.036219 -32.285005 15.707641 39.740210 1.085249 1.164447 0.051895 -0.000694 118597.000000 0 0 1
-16.766019 -33.695305 15.135341 40.565398 1.109089 1.188438 0.037678 -0.001817 16594.200000 0 0 1
-16.768919 34.675261 16.160841 41.770123 -1.120355 1.173529 0.046572 0.007347 29179.300000 0 0 1
-16.644919 33.304761 15.757141 40.429543 -1.107328 1.170444 0.027882 0.005820 -158802.000000 0 0 1
-16.665419 32.254861 16.840041 40.021235 -1.093894 1.136494 0.018329 0.003979 18034.800000 0 0 1
-17.829319 32.216261 17.642541 40.829295 -1.065327 1.123971 0.023380 0.001943 184432.000000 0 0 1
-17.993319 30.946161 18.333641 40.218737 -1.044136 1.097471 0.018434 0.009045 -119333.000000 0 0 1
-18.907019 31.044761 19.552141 41.273948 -1.023768 1.077291 0.021293 0.008663 161496.000000 0 0 1
-18.291419 31.856961 20.611541 42.122175 -1.049584 1.059478 0.012255 0.009687 654410.000000 0 0 1
-19.175919 32.150561 21.708441 43.273905 -1.032998 1.045289 0.001686 0.016952 196588.000000 0 0 1
-18.575319 33.016261 22.864941 44.248407 -1.058322 1.027757 -0.016515 0.018214 714120.000000 0 0 1
-17.547519 32.312261 23.608041 43.695964 -1.073296 1.000027 -0.027352 0.006444 446024.000000 0 0 1
-17.217319 32.911361 24.885141 44.708657 -1.088807 0.980501 -0.034244 0.009665 -507014.000000 0 0 1
-18.111319 32.603561 26.098341 45.520715 -1.063739 0.960233 -0.035029 0.022796 -956152.000000 0 0 1
-19.349119 33.173061 25.849441 46.292915 -1.042763 0.978354 -0.027666 0.013458 -931671.000000 0 0 1
-20.384819 32.359261 26.381041 46.460972 -1.008643 0.966952 -0.023504 0.015900 301320.000000 0 0 1
-21.787119 32.857161 25.926541 47.185349 -0.985277 0.989077 -0.020258 0.004898 85813.800000 0 0 1
-21.977519 32.628761 24.521141 46.356593 -0.978035 1.013413 -0.002221 0.010503 -282885.000000 0 0 1
-23.290819 32.902361 24.148241 46.991118 -0.954803 1.031084 -0.008439 0.006634 -432876.000000 0 0 1
-23.577219 32.465261 22.680841 46.090118 -0.942683 1.056299 -0.024069 0.002481 199247.000000 0 0 1
-22.911119 33.403061 21.772041 45.985929 -0.969597 1.077593 -0.019876 0.008713 443126.000000 0 0 1
-23.005419 32.805661 20.528941 45.021085 -0.959223 1.097318 -0.019782 0.021925 -77910.400000 0 0 1
-22.424619 33.747361 19.429241 44.935991 -0.984306 1.123670 -0.012332 0.021357 185342.000000 0 0 1
-21.121919 34.242961 19.696141 44.795690 -1.018097 1.115545 0.002601 0.020797 29632.000000 0 0 1
-20.629419 -34.572205 18.486041 44.300609 1.032803 1.140339 0.009523 0.023758 264259.000000 0 0 1
-19.284419 -33.874305 18.841841 43.294022 1.053261 1.120529 0.031609 0.010392 336346.000000 0 0 1
-19.491419 -32.718705 19.646541 42.853420 1.033525 1.094536 0.020816 0.005168 1107580.000000 0 0 1
-18.232719 -32.016605 19.629441 41.746976 1.053123 1.081279 0.029715 0.005119 750306.000000 0 0 1
-18.059319 -30.991705 20.788641 41.458321 1.043184 1.045540 0.046168 0.001433 -281789.000000 0 0 1
-18.802219 -29.803705 20.640541 40.838905 1.007988 1.040935 0.041242 0.003686 143527.000000 0 0 1
-19.100519 -29.364705 21.959641 41.344184 0.994099 1.010848 0.037604 0.003216 -53416.000000 0 0 1
-20.004319 -28.091805 21.906741 40.856182 0.951992 1.004878 0.030800 -0.007172 -422599.000000 0 0 1
-19.413019 -26.978305 21.324641 39.489677 0.947051 1.000353 0.028131 -0.001538 -33053.100000 0 0 1
-20.207719 -25.820505 21.303641 39.101093 0.906741 0.994604 0.029689 0.008795 448704.000000 0 0 1
-21.354619 -25.696705 20.220441 39.053894 0.877422 1.026569 0.024603 0.012516 -295360.000000 0 0 1
-22.558319 -26.318905 20.427841 40.235049 0.862186 1.038269 0.031629 0.006228 -846091.000000 0 0 1
-23.499619 -25.888705 19.450441 40.009709 0.833734 1.063126 0.025822 0.012354 -1188320.000000 0 0 1
-24.895319 -26.262605 19.877541 41.287019 0.812119 1.068491 0.011005 0.001811 -1062620.000000 0 0 1
-25.118859 -27.678705 19.978341 42.381622 0.833844 1.079928 0.008951 0.003594 -183853.000000 0 0 1
-25.218469 -28.292005 18.718941 42.270646 0.842773 1.112038 0.005154 -0.002878 -191410.000000 0 0 1
-26.319419 -29.397705 18.617541 43.629688 0.840591 1.129936 -0.009616 -0.010500 1874700.000000 0 0 1
-27.677349 -28.876605 18.725341 44.164832 0.806601 1.132953 -0.026530 -0.009659 835167.000000 0 0 1
-28.647889 -29.743905 18.183241 45.122408 0.804166 1.156030 -0.017961 0.003873 -18802.200000 0 0 1
-30.056759 -29.186505 18.435841 45.772711 0.770710 1.156256 -0.016694 0.005801 -181641.000000 0 0 1
-30.302289 -27.897105 17.865341 44.895964 0.744095 1.161540 -0.007225 0.007610 451043.000000 0 0 1
-31.619049 -27.461605 18.240041 45.679351 0.715145 1.160037 -0.037250 0.029275 568877.000000 0 0 1
-32.039899 -26.245805 17.399241 44.923613 0.686315 1.173087 -0.025638 0.016494 -197396.000000 0 0 1
-32.395039 -26.544005 16.030841 44.844293 0.686450 1.205230 -0.001845 -0.002849 372118.000000 0 0 1
-32.724259 -25.399505 15.193941 44.123325 0.660039 1.219248 -0.007414 -0.006039 -295687.000000 0 0 1
-31.605069 -24.350405 15.084341 42.653956 0.656467 1.209332 -0.007554 0.000188 -171942.000000 0 0 1
-31.546719 -23.489905 16.191341 42.533876 0.640041 1.180276 -0.023350 0.007446 516.109000 0 0 1
-30.733439 -22.357405 16.068241 41.262407 0.628920 1.170799 -0.013456 0.004072 -348463.000000 0 0 1
-31.575319 -21.066705 16.195141 41.268504 0.588364 1.167521 -0.011593 0.002768 -37570.100000 0 0 1
-32.107509 -21.010505 17.503541 42.174725 0.579448 1.142827 -0.004780 0.003884 83837.000000 0 0 1
-32.678279 -19.761105 17.759241 42.116052 0.543881 1.135506 -0.004032 -0.001299 -254508.000000 0 0 1
-32.889709 -19.479705 19.281841 42.813330 0.534719 1.103617 -0.015483 0.003485 718831.000000 0 0 1
-34.105069 -20.092505 19.772441 44.247191 0.532393 1.107540 -0.014289 0.005411 1064370.000000 0 0 1
-34.266814 -19.646905 21.086441 44.775589 0.520594 1.080445 -0.017326 0.013843 286849.000000 0 0 1
34.248183 -19.865005 21.864341 45.228375 -0.525607 1.066238 -0.015658 0.006789 387039.000000 0 0 1
33.784981 -21.160105 22.066941 45.564513 -0.559546 1.065232 -0.011953 0.007224 298277.000000 0 0 1
34.534453 -21.893005 23.046341 46.936830 -0.565007 1.057550 -0.021644 0.013318 -275470.000000 0 0 1
33.933474 -23.272405 23.307441 47.289770 -0.601149 1.055418 -0.017095 0.015178 -336650.000000 0 0 1
32.916311 -23.182105 24.266741 47.008172 -0.613589 1.028360 -0.001712 0.004438 26873.300000 0 0 1
32.563911 -24.471105 24.771241 47.674497 -0.644447 1.024424 0.001634 -0.001586 -53515.700000 0 0 1
31.735891 -24.390305 26.116241 47.792382 -0.655262 0.992674 0.015389 -0.008312 768629.000000 0 0 1
30.449491 -23.799605 25.890141 46.517654 -0.663426 0.980550 0.024413 -0.012803 623261.000000 0 0 1
29.567871 -23.907405 26.999141 46.634501 -0.679939 0.953353 0.014565 -0.002196 378494.000000 0 0 1
28.375671 -24.875905 26.766641 46.264916 -0.719771 0.953845 0.020971 -0.000350 -610694.000000 0 0 1
27.419381 -24.360805 25.937941 44.922690 -0.726398 0.955267 0.022476 0.004319 -918748.000000 0 0 1
26.283991 -25.186805 25.802841 44.620735 -0.764085 0.954189 0.018959 0.018592 765897.000000 0 0 1
25.012621 -24.403005 25.285541 43.133473 -0.773062 0.944416 0.015605 0.025166 346744.000000 0 0 1
24.971321 -23.782905 23.974241 41.999496 -0.761027 0.963290 0.026539 0.006117 245461.000000 0 0 1
25.904401 -22.700105 23.831041 41.883783 -0.719568 0.965531 0.021671 0.005696 273149.000000 0 0 1
26.088371 -22.048105 22.419741 40.857886 -0.701661 0.989958 0.032601 -0.005920 218149.000000 0 0 1
25.139221 -20.987505 22.243641 39.588324 -0.695633 0.974147 0.023051 -0.005478 311158.000000 0 0 1
25.245561 -20.302405 20.998541 38.606538 -0.677295 0.995705 0.017890 -0.006795 -725839.000000 0 0 1
24.298301 -19.151405 20.804541 37.282874 -0.667491 0.978800 0.019969 -0.001619 -646922.000000 0 0 1
24.656101 -17.892005 21.407141 37.233223 -0.627742 0.958257 0.022310 -0.017421 111828.000000 0 0 1
24.696601 -17.914605 22.840441 38.112215 -0.627562 0.928177 0.024607 -0.010230 -254668.000000 0 0 1
24.812401 -16.507905 23.426241 37.907189 -0.587062 0.904614 0.035406 0.000099 3054.450000 0 0 1
23.540201 -15.895905 23.308341 36.743702 -0.593933 0.883630 0.001656 0.009776 43096.400000 0 0 1
23.487401 -14.617005 23.970741 36.604799 -0.556680 0.856809 -0.010955 0.014211 -242764.000000 0 0 1
22.116901 -13.934505 23.873241 35.401404 -0.562214 0.830701 -0.035370 0.017080 -155925.000000 0 0 1
21.128701 -14.699905 24.508241 35.541006 -0.607856 0.809892 -0.002530 0.020733 525255.000000 0 0 1
19.812401 -14.117905 24.414241 34.465949 -0.619119 0.783627 0.009939 0.017047 863408.000000 0 0 1
18.718801 -14.974505 25.060841 34.679606 -0.674723 0.763184 0.016229 0.018254 -278344.000000 0 0 1
18.346901 -16.107105 24.327441 34.465519 -0.720481 0.787176 0.028385 0.026735 1214750.000000 0 0 1
16.996201 -16.563905 24.608141 34.187635 -0.772518 0.767287 0.020291 0.030442 996659.000000 0 0 1
16.656201 -17.745605 23.596141 33.898575 -0.817055 0.800872 0.006082 0.007328 -250157.000000 0 0 1
17.342101 -18.963605 23.829241 35.045678 -0.830031 0.823104 0.001088 0.015830 133894.000000 0 0 1
17.095501 -19.903405 22.798441 34.758749 -0.861144 0.855415 -0.001407 0.006584 -79865.300000 0 0 1
17.494601 -21.286105 23.286141 36.074973 -0.882856 0.869128 -0.001323 0.009813 -398871.000000 0 0 1
16.552801 -21.892005 24.174841 36.574281 -0.923395 0.848673 0.001233 0.004759 210450.000000 0 0 1
16.821601 -23.197905 24.614141 37.775190 -0.943400 0.861111 0.021773 -0.000109 -262569.000000 0 0 1
16.420901 -24.264205 23.519341 37.570694 -0.975843 0.894380 0.017016 0.005538 229847.000000 0 0 1
17.280401 -24.421505 22.402141 37.374832 -0.954995 0.928056 0.013751 0.008135 551795.000000 0 0 1
18.498801 -25.176305 22.578441 38.546569 -0.937114 0.944998 0.020956 -0.001072 1031810.000000 0 0 1
19.429501 -24.986705 21.336941 38.172058 -0.909868 0.977656 0.015273 0.008156 -145593.000000 0 0 1
18.894801 -25.740405 20.265241 37.818804 -0.937580 1.005281 0.025029 -0.006185 -173220.000000 0 0 1
19.754301 -25.874205 19.183641 37.785169 -0.918727 1.038280 0.023627 0.000887 -215784.000000 0 0 1
19.036901 -26.569105 18.001641 37.314609 -0.949079 1.067371 0.017498 -0.007993 129336.000000 0 0 1
18.688001 -27.893205 18.280141 38.228730 -0.980501 1.072217 0.042846 -0.025458 -125909.000000 0 0 1
17.682601 -28.310905 17.385341 37.635513 -1.012495 1.090615 0.044174 -0.023963 -359910.000000 0 0 1
16.922001 -29.529305 17.849241 38.430839 -1.050423 1.087782 0.061525 -0.027028 -273705.000000 0 0 1
16.136901 -29.276005 18.993841 38.448017 -1.067033 1.054096 0.063400 -0.034807 -79955.200000 0 0 1
15.323001 -30.365905 19.366341 39.139976 -1.103466 1.053195 0.074334 -0.034578 -331887.000000 0 0 1
14.060301 -29.986805 20.118141 38.751002 -1.132351 1.024923 0.059939 -0.023856 80134.000000 0 0 1
13.031201 -29.443805 19.263441 37.521061 -1.154131 1.031650 0.055656 -0.029310 127195.000000 0 0 1
11.782501 -29.384205 19.912941 37.400322 -1.189445 1.009331 0.032777 -0.017167 333034.000000 0 0 1
10.731401 -28.762405 18.933441 36.068187 -1.213688 1.018158 0.028902 -0.016770 47139.600000 0 0 1
10.524001 -29.481505 17.714741 35.968400 -1.227926 1.055827 0.020390 -0.015668 568843.000000 0 0 1
9.606201 -28.746405 16.860141 34.682838 -1.248292 1.063148 0.037116 -0.014014 536695.000000 0 0 1
9.259001 -29.497505 15.588741 34.624280 -1.266645 1.103778 0.036747 -0.014051 96262.800000 0 0 1
8.486401 -30.689505 15.710141 35.505961 -1.301013 1.112451 0.009294 -0.004443 102983.000000 0 0 1
8.665101 -31.554805 14.588941 35.827739 -1.302798 1.151414 0.007179 -0.002801 -104339.000000 0 0 1
7.570001 -32.627005 14.498641 36.497082 -1.342814 1.162273 -0.006658 0.003090 -169792.000000 0 0 1
7.398201 -33.475205 15.607341 37.668446 -1.353287 1.143585 0.003020 -0.003248 112462.000000 0 0 1
6.706801 -34.645805 15.123341 38.393078 -1.379580 1.165917 -0.017537 0.002876 212459.000000 0 0 1
6.584501 33.536961 16.155341 37.803154 1.376927 1.129232 -0.005451 -0.000131 -479972.000000 0 0 1
7.867001 33.003661 16.216541 37.604622 1.336795 1.124932 0.003108 -0.001602 -341563.000000 0 0 1
7.753201 31.804761 16.961041 36.869118 1.331685 1.092763 0.004599 -0.008213 -504429.000000 0 0 1
9.133701 31.194761 17.041341 36.700748 1.285962 1.087916 0.009076 -0.007526 -905644.000000 0 0 1
9.624401 30.580761 15.905041 35.788020 1.265890 1.110266 0.025508 -0.014602 -689962.000000 0 0 1
10.682601 29.777861 16.318641 35.596868 1.226354 1.094569 0.020753 -0.000191 -661414.000000 0 0 1
11.446101 29.003061 15.181141 34.679357 1.194909 1.117694 0.014715 0.001349 -137855.000000 0 0 1
10.733401 28.067661 14.422741 33.331891 1.205544 1.123310 0.005787 0.006847 -527787.000000 0 0 1
11.493301 27.511061 13.397641 32.687173 1.175065 1.148480 0.012621 0.008370 -104934.000000 0 0 1
-9.145819 -9.730039 18.900059 23.141562 0.816339 0.615101 0.033506 -0.007004 -143367.000000 0 1 0
-9.314019 -9.627439 17.520659 22.054750 0.801943 0.652750 0.023673 -0.015408 65678.500000 0 1 0
-9.009619 -10.871839 16.899859 22.022156 0.878792 0.696016 0.026657 -0.022362 -3513.220000 0 1 0
-9.500019 -10.950839 15.393359 21.145371 0.856221 0.755429 0.031421 -0.027719 -408083.000000 0 1 0
-10.889519 -11.110039 15.419359 21.903680 0.795422 0.789836 0.030262 -0.010081 -235945.000000 0 1 0
-11.482519 -11.812339 14.329259 21.833627 0.799556 0.854901 0.033835 -0.014624 155.063000 0 1 0
-11.369519 -13.348439 14.330959 22.645599 0.865288 0.885585 0.031278 -0.010073 -651346.000000 0 1 0
-10.110519 -13.835339 13.926359 22.081274 0.939713 0.888359 0.024585 -0.007394 -38901.700000 0 1 0
-9.891419 -15.168439 14.306159 23.077866 0.992943 0.902171 0.020730 -0.000896 150536.000000 0 1 0
-9.450419 -15.458039 15.738959 23.999504 1.022066 0.855550 0.019284 0.001987 582642.000000 0 1 0
-10.543019 -15.230439 16.659859 24.913298 0.965302 0.838319 0.039722 0.003221 617582.000000 0 1 0
-10.052319 -15.021939 17.986859 25.499703 0.981059 0.787844 0.040812 0.004639 -123628.000000 0 0 1
-11.150019 -14.512939 18.975959 26.363523 0.915698 0.767310 0.043077 -0.000897 -166431.000000 0 0 1
-11.691119 -13.235339 18.696759 25.718189 0.847270 0.756874 0.045746 0.002454 -328606.000000 0 0 1
-12.742919 -13.297939 17.792959 25.608720 0.806708 0.802653 0.037575 -0.012108 -1009770.000000 0 0 1
-14.153519 -13.476339 18.372359 26.823076 0.760894 0.816267 0.027686 -0.004458 -673511.000000 0 0 1
-14.324419 -14.733839 19.005059 27.990485 0.799487 0.824420 0.025500 0.006503 147429.000000 0 0 1
-15.363119 -14.698739 19.984559 29.179804 0.763301 0.816362 0.024991 0.006505 158201.000000 0 0 1
-15.629119 -16.113139 20.535259 30.423666 0.800645 0.829864 0.017804 0.014511 82355.400000 0 0 1
-16.608519 -16.832139 19.787459 30.833542 0.792085 0.874017 0.017670 0.016693 209426.000000 0 0 1
-16.811919 -18.135339 20.266759 31.972999 0.823249 0.884248 -0.008895 0.017167 336292.000000 0 0 1
-18.031119 -18.777539 19.509459 32.532080 0.805674 0.927671 0.013399 0.015142 193903.000000 0 0 1
-17.916519 -18.894939 18.124359 31.725585 0.811971 0.962725 0.020165 0.008653 37044.800000 0 0 1
-18.347719 -17.769739 17.400759 30.906129 0.769397 0.972761 0.025023 0.001600 -579597.000000 0 0 1
-18.262619 -17.864539 15.907359 30.095001 0.774380 1.013879 0.028416 -0.008744 -560900.000000 0 0 1
-19.139519 -18.674739 15.202759 30.760217 0.773108 1.053842 0.033571 -0.005891 -162829.000000 0 0 1
-18.701419 -18.761839 13.840459 29.888258 0.787011 1.089337 0.039589 -0.001959 143625.000000 0 0 1
-19.163019 -20.021939 13.152759 30.677262 0.807314 1.127692 0.032292 0.011897 -165101.000000 0 0 1
-18.408019 -21.160939 13.646359 31.190762 0.854859 1.117965 0.028355 0.026604 643823.000000 0 0 1
-18.292819 -22.141139 12.681759 31.395609 0.880288 1.154983 0.019055 0.024096 -704678.000000 0 0 1
-17.779019 -23.486739 13.182559 32.272283 0.922842 1.150009 0.014225 0.024456 -94935.900000 0 0 1
-17.578319 -24.581439 12.312759 32.632016 0.950004 1.183894 0.014053 0.018376 47309.800000 0 0 1
-16.547019 -24.381339 11.376959 31.586211 0.974526 1.202327 0.006337 0.016656 -371385.000000 0 0 1
-16.389319 -25.508019 10.323459 32.028778 0.999700 1.242619 0.009414 0.022461 492145.000000 0 0 1
-17.500119 -25.559829 9.417959 32.376797 0.970431 1.275644 0.007707 0.018777 298501.000000 0 0 1
-17.249319 -26.636219 8.544959 32.864015 0.996118 1.307764 0.008246 0.020475 877963.000000 0 0 1
-18.336019 -26.718429 7.383859 33.235604 0.969346 1.346760 -0.000390 0.010064 743330.000000 0 0 1
-18.371819 -25.496879 6.656959 32.123662 0.946410 1.362055 -0.003037 0.006679 -78361.900000 0 0 1
-19.120619 -25.606629 5.477159 32.423707 0.929407 1.401058 0.001920 0.002616 -104819.000000 0 0 1
-19.303419 -24.258839 4.838359 31.377109 0.898666 1.415978 -0.000414 0.003204 -284371.000000 0 0 1
-20.108419 -24.305339 3.714759 31.763146 0.879614 1.453576 0.004025 -0.005313 -217734.000000 0 0 1
-20.139819 -23.021139 3.144059 30.748500 0.852057 1.468366 -0.004972 0.000162 -65392.400000 0 0 1
-21.070219 -23.060539 1.940459 31.297092 0.830468 1.508755 -0.018017 0.001960 -286204.000000 0 0 1
-20.513619 -23.795739 0.866759 31.429238 0.859336 1.543215 -0.029047 -0.004045 -164265.000000 0 0 1
-21.211819 -23.606539 -0.314341 31.738128 0.838779 1.580701 -0.016349 0.003417 -518294.000000 0 0 1
-20.733819 -24.526039 -1.478541 32.149711 0.868991 1.616802 -0.014551 0.006972 323174.000000 0 0 1
-19.331619 -24.334839 -1.699641 31.125306 0.899479 1.625430 -0.021376 0.005248 539385.000000 0 0 1
-18.881019 -24.870639 -2.940341 31.363787 0.921453 1.664684 -0.008591 0.010841 255054.000000 0 0 1
-18.552819 -26.385459 -3.012141 32.395563 0.957962 1.663911 0.008504 0.001862 -671148.000000 0 0 1
-19.734919 -27.060499 -3.190341 33.643958 0.940683 1.665766 0.010876 -0.001190 -610284.000000 0 0 1
-19.312219 -28.279609 -3.859841 34.461521 0.971638 1.683036 0.022480 0.003023 646386.000000 0 0 1
-20.366019 -28.906979 -4.831341 35.689354 0.957032 1.706585 0.027940 -0.003846 389644.000000 0 0 1
-20.601819 -28.241199 -6.057741 35.478113 0.940548 1.742383 0.017568 0.006537 -404122.000000 0 0 1
-21.555319 -28.959979 -6.783441 36.733190 0.930944 1.756530 0.017482 0.001892 -298610.000000 0 0 1
-21.845319 -28.310999 -8.186041 36.684355 0.913602 1.795839 -0.001158 0.012652 -275061.000000 0 0 1
-20.741819 -28.213379 -9.051741 36.168381 0.936850 1.823752 0.004240 0.015316 -104618.000000 0 0 1
-21.100419 -28.163499 -10.453141 36.710741 0.927800 1.859535 0.002131 0.023259 204796.000000 0 0 1
-21.995919 -26.977159 -10.980741 36.498825 0.886763 1.876382 0.000701 0.033862 42060.000000 0 0 1
-21.402319 -25.699929 -11.128041 35.247396 0.876386 1.892004 -0.002543 0.034975 -154684.000000 0 0 1
-21.073919 -25.085549 -9.901941 34.226353 0.872088 1.864300 -0.010326 0.040308 18144.800000 0 0 1
-20.877719 -23.530939 -10.083841 33.034347 0.845073 1.881001 -0.008270 0.025277 605278.000000 0 0 1
-22.116619 -22.841639 -10.289941 33.418082 0.801523 1.883797 -0.019014 0.029890 434371.000000 0 0 1
-21.902119 -21.439839 -10.536141 32.409563 0.774733 1.901907 -0.009475 0.025442 -268240.000000 0 0 1
-23.212719 -20.669239 -10.626541 32.847696 0.727501 1.900232 -0.001413 0.023873 -1023210.000000 0 0 1
-23.837019 -20.910639 -11.882041 33.862091 0.720094 1.929323 -0.014656 0.024209 37064.100000 0 0 1
-25.080119 -20.270139 -12.033441 34.419393 0.679730 1.927954 -0.012172 0.012146 -181254.000000 0 0 1
-24.982919 -18.715239 -11.970641 33.432060 0.642939 1.936984 -0.008863 0.005640 -915379.000000 0 0 1
-24.173219 -18.188039 -13.044941 32.944192 0.645038 1.977921 -0.008736 0.009165 580627.000000 0 0 1
-23.939019 -16.824939 -13.066041 32.044916 0.612619 1.990776 0.003763 -0.006763 -362222.000000 0 0 1
-22.983119 -16.233239 -12.036841 30.604368 0.614949 1.975020 -0.004464 -0.007060 -911799.000000 0 0 1
-23.512419 -16.293939 -10.714841 30.547244 0.606008 1.929182 0.012625 -0.012282 735841.000000 0 0 1
-22.623619 -16.574739 -9.587541 29.639012 0.632291 1.900198 0.007843 -0.006681 260625.000000 0 0 1
-23.471119 -16.933739 -8.365841 30.126935 0.624991 1.852181 0.004070 -0.004398 103589.000000 0 0 1
-23.704319 -18.328439 -8.388441 31.115789 0.658191 1.843761 -0.007086 0.005147 -116183.000000 0 0 1
-24.421419 -18.767639 -7.283841 31.649397 0.655231 1.803019 -0.001639 0.009244 -437728.000000 0 0 1
-24.592219 -20.316039 -7.248941 32.711860 0.690464 1.794251 -0.007881 0.008239 34383.200000 0 0 1
-25.571499 -20.865739 -8.129341 33.990687 0.684407 1.812301 -0.015685 0.001063 -73712.700000 0 0 1
-25.898149 -22.241039 -7.871541 35.033400 0.709574 1.797418 -0.025967 0.012975 -143350.000000 0 0 1
-25.023719 -23.352539 -8.414541 35.246731 0.750866 1.811857 -0.035962 0.030020 -65554.200000 0 0 1
-25.645619 -24.554939 -8.080241 36.413364 0.763675 1.794562 -0.033417 0.026100 -150243.000000 0 0 1
-24.938919 -25.602819 -8.720841 36.790040 0.798533 1.810118 -0.028509 0.038432 347784.000000 0 0 1
-25.559789 -27.017959 -8.473841 38.145496 0.813125 1.794810 -0.029511 0.030805 191995.000000 0 0 1
-25.143919 -27.515489 -7.211041 37.964693 0.830404 1.761898 -0.012784 0.008993 366726.000000 0 0 1
-25.895829 -28.682359 -6.880841 39.250702 0.836410 1.747012 -0.003496 0.005738 110168.000000 0 0 1
-25.491619 -29.261209 -5.548941 39.202445 0.854137 1.712819 0.008865 0.006445 -117101.000000 0 0 1
-25.972069 -28.617449 -4.369541 38.892154 0.833820 1.683384 -0.013739 0.000894 281105.000000 0 0 1
-25.343849 -29.070449 -3.113041 38.692282 0.853777 1.651340 -0.013294 0.006189 209091.000000 0 0 1
-25.556239 -30.549079 -2.690641 39.920009 0.874155 1.638248 -0.007095 0.010625 -422975.000000 0 0 1
-24.757719 -31.454109 -3.398141 40.172789 0.903967 1.655486 0.020682 -0.005161 -202207.000000 0 0 1
-24.788019 -32.774659 -2.850541 41.191622 0.923265 1.640054 0.020041 -0.011690 -98966.000000 0 0 1
-24.034919 -32.862709 -1.471141 40.740633 0.939323 1.606914 0.034868 -0.016628 238786.000000 0 0 1
-22.674019 -32.524519 -1.688041 39.683812 0.961995 1.613346 0.043946 -0.027974 89425.000000 0 0 1
-21.900919 -32.518169 -0.489341 39.208685 0.978079 1.583277 0.037441 -0.022924 413632.000000 0 0 1
-20.693019 -31.569459 -0.398241 37.749045 0.990581 1.581346 0.029729 -0.022371 -146555.000000 0 0 1
-21.010019 -30.209999 -0.165641 36.797994 0.963120 1.575298 0.030696 -0.018802 -356561.000000 0 0 1
-21.436619 -29.438659 -1.240441 36.437645 0.941407 1.604846 0.023132 -0.017043 -248436.000000 0 0 1
-22.073819 -28.074579 -0.934841 35.725473 0.904492 1.596967 0.016758 -0.011941 1108510.000000 0 0 1
-23.483919 -28.255979 -0.607041 36.745929 0.877370 1.587317 0.018736 -0.017587 1132990.000000 0 0 1
-24.140419 -27.042059 -0.236441 36.250361 0.842030 1.577319 0.011869 -0.015942 102559.000000 0 0 1
-23.670719 -26.252489 1.004359 35.362478 0.837067 1.542391 0.016247 -0.013601 -433398.000000 0 0 1
-23.586019 -27.029489 2.183959 35.939717 0.853325 1.509992 0.013109 -0.012382 -258033.000000 0 0 1
-23.132519 -26.319249 3.316259 35.196788 0.849750 1.476436 0.026231 -0.012444 -94723.100000 0 0 1
-23.939219 -25.139839 3.917859 34.934901 0.809856 1.458412 0.037542 -0.017610 -277375.000000 0 0 1
-24.028319 -24.060739 3.035059 34.139286 0.786072 1.481777 0.017433 -0.018585 112792.000000 0 0 1
-24.915419 -23.079839 3.577859 34.150522 0.747172 1.465836 0.013538 -0.007778 10215.400000 0 0 1
-25.155479 -21.920939 2.608459 33.468339 0.716798 1.492779 0.026853 -0.009872 24779.400000 0 0 1
-24.122819 -20.950339 2.623159 32.057886 0.715129 1.488879 0.002066 -0.003266 222207.000000 0 0 1
-24.390019 -19.912439 1.676559 31.530764 0.684672 1.517599 0.003015 -0.002577 -5029.410000 0 0 1
-23.113919 -19.076639 1.596359 30.011994 0.689997 1.517581 0.013441 0.002280 123793.000000 0 0 1
-21.984519 -19.792039 1.118559 29.602281 0.732965 1.533001 0.003009 0.001566 550238.000000 0 0 1
-20.782819 -19.066439 1.426759 28.239871 0.742353 1.520252 -0.001119 0.005708 453298.000000 0 0 1
-19.500019 -19.885139 1.204859 27.876893 0.795176 1.527562 -0.024764 0.003224 -436245.000000 0 0 1
-19.213919 -20.024039 -0.112941 27.751569 0.806042 1.574866 -0.031427 0.004420 144335.000000 0 0 1
-18.292819 -21.075539 -0.419941 27.910247 0.855965 1.585843 -0.007864 0.008571 146767.000000 0 0 1
-18.030419 -21.253139 -1.932241 27.937886 0.867252 1.640014 0.004162 0.004760 113637.000000 0 0 1
-17.126219 -20.258139 -2.423541 26.637814 0.868979 1.661904 -0.018929 0.010004 102679.000000 0 0 1
-16.840319 -20.506739 -3.780841 26.803310 0.883256 1.712327 -0.004004 0.010200 28411.400000 0 0 1
-16.110719 -19.516939 -4.696941 25.739608 0.880715 1.754304 -0.003985 0.019385 -142130.000000 0 0 1
-14.768319 -19.326939 -4.353641 24.710079 0.918312 1.747910 0.007430 0.016298 -230301.000000 0 1 0
-14.017319 -18.616139 -5.331441 23.905441 0.925400 1.795710 -0.000153 0.015364 940511.000000 0 1 0
-12.460319 -18.713939 -5.145441 23.063968 0.983373 1.795784 0.003411 0.018768 715283.000000 0 1 0
-12.056719 -20.041139 -5.398141 24.003159 1.029202 1.797629 0.020827 0.014033 -195918.000000 0 1 0
-10.668419 -20.060639 -5.649841 23.412926 1.082027 1.814515 0.012395 0.019339 238533.000000 0 1 0
-10.065619 -21.448839 -6.011141 24.443878 1.132021 1.819261 0.019610 0.018859 255364.000000 0 1 0
-10.559119 -22.024439 -7.193141 25.461975 1.123742 1.857201 0.037077 0.008107 -199533.000000 0 0 1
-9.620519 -23.021739 -7.593941 26.081081 1.174965 1.866242 0.034681 0.010933 177046.000000 0 0 1
-10.023219 -24.065039 -8.698641 27.481946 1.176143 1.892857 0.033635 -0.007764 -245263.000000 0 0 1
-10.219719 -23.418539 -9.918741 27.408977 1.159314 1.941079 0.026208 0.002369 -31579.100000 0 0 1
-10.456419 -24.375539 -10.946741 28.693810 1.165566 1.962217 0.038616 -0.006345 -154810.000000 0 0 1
-11.099219 -23.626339 -12.146641 28.791274 1.131614 2.006321 0.059687 -0.011319 -72243.700000 0 0 1
-10.232419 -22.964339 -13.016741 28.310754 1.151625 2.048545 0.036563 0.001753 -83466.600000 0 0 1
-11.082519 -22.225439 -13.895241 28.458216 1.108236 2.080901 0.041667 -0.001979 244647.000000 0 0 1
-10.488519 -20.917039 -14.533041 27.545251 1.106002 2.126576 0.037821 -0.000375 -232633.000000 0 0 1
-10.236419 -19.914139 -13.571241 26.182738 1.095990 2.115691 0.041347 -0.000519 -325413.000000 0 0 1
-9.971619 -18.624639 -14.196241 25.452772 1.079232 2.162467 0.033671 0.008907 33156.900000 0 0 1
-9.627519 -17.629639 -13.094541 23.978330 1.070953 2.148497 0.013843 0.006824 397422.000000 0 1 0
-10.776519 -17.303339 -12.273741 23.794613 1.013781 2.112761 0.008695 0.003934 824668.000000 0 1 0
-10.543919 -16.289439 -11.256141 22.432582 0.996332 2.096448 0.009146 -0.006558 18924.500000 0 1 0
-10.232419 -14.850939 -11.724241 21.510709 0.967486 2.147236 0.012147 -0.008125 -251375.000000 0 1 0
-11.342519 -14.180739 -12.235441 21.896395 0.896144 2.163720 0.014015 -0.000139 -32761.200000 0 1 0
-11.091019 -14.008539 -13.638841 22.478164 0.901117 2.222774 0.009396 -0.002883 588877.000000 0 1 0
-12.412419 -13.575139 -14.348341 23.328683 0.830110 2.233248 0.009276 -0.005253 206464.000000 0 1 0
-12.684619 -12.277639 -13.969841 22.512140 0.769096 2.240236 0.014673 0.006850 231395.000000 0 1 0
-13.717519 -11.709239 -14.802141 23.331952 0.706579 2.258048 0.010157 0.007179 486165.000000 0 1 0
-14.121319 -10.282939 -14.302841 22.577018 0.629393 2.256882 0.006033 0.001125 -198657.000000 0 1 0
-13.131019 -9.298939 -14.501841 21.660963 0.616185 2.304321 0.009309 0.007212 -76738.500000 0 1 0
-13.324319 -8.500039 -15.662041 22.250565 0.567846 2.351661 0.010944 -0.001223 -824848.000000 0 1 0
-12.406619 -7.327839 -15.750541 21.347153 0.533508 2.400644 0.017030 0.010410 -524648.000000 0 1 0
-11.093219 -7.717339 -16.039741 20.973558 0.607821 2.441465 0.012871 0.014198 -425782.000000 0 1 0
-10.102219 -6.752039 -15.906541 20.016566 0.589182 2.489258 0.001369 0.019015 108534.000000 0 1 0
11.102381 21.953761 15.871259 29.276737 1.102586 0.997848 0.027762 0.020604 -255407.000000 0 0 1
11.856281 21.805461 17.050959 30.112867 1.072780 0.968866 0.034366 0.025081 -65160.900000 0 0 1
12.306481 20.468461 17.183459 29.422417 1.029465 0.947117 0.031147 0.014227 -133889.000000 0 0 1
13.422381 20.364161 18.253059 30.463643 0.988038 0.928326 0.026230 0.015798 149149.000000 0 0 1
14.680381 20.793261 17.795359 31.057175 0.956044 0.960650 0.017970 0.020855 -674981.000000 0 0 1
15.736981 20.516261 18.652159 31.882167 0.916473 0.945874 0.019926 0.017197 -404195.000000 0 0 1
17.058981 21.136661 18.197959 32.694541 0.891753 0.980502 0.021936 0.012424 -1226820.000000 0 0 1
17.063681 22.589361 18.366859 33.745962 0.923857 0.995280 0.030598 0.010817 -587613.000000 0 0 1
18.187881 23.283261 17.943959 34.567252 0.907651 1.024995 0.029843 0.013579 294738.000000 0 0 1
19.560281 23.024461 18.654259 35.506503 0.866567 1.017640 0.007575 0.010057 136359.000000 0 0 1
19.988381 21.679161 18.440459 34.778901 0.825954 1.011937 0.014343 0.005688 -645062.000000 0 0 1
21.247081 21.519361 19.035559 35.733372 0.791765 1.008996 0.017133 0.000133 -375081.000000 0 0 1
21.696581 20.071261 18.853959 35.058079 0.746505 1.002980 0.007024 -0.005516 -187109.000000 0 0 1
21.783681 19.645061 17.493659 34.153847 0.733822 1.033050 -0.005321 -0.002885 99642.600000 0 0 1
21.435581 18.267961 17.330759 33.068985 0.705785 1.019163 -0.004635 -0.007475 136382.000000 0 0 1
22.362781 17.124661 17.910559 33.378678 0.653515 1.004409 -0.016672 0.000926 -127244.000000 0 0 1
23.549381 16.911961 17.208859 33.715465 0.622803 1.035130 -0.029298 0.005414 -386344.000000 0 0 1
24.403181 16.058061 17.930659 34.276597 0.582001 1.020293 -0.041365 -0.001142 283880.000000 0 0 1
25.715081 15.747161 17.124459 34.676874 0.549466 1.054308 -0.009376 -0.001604 120501.000000 0 0 1
26.482981 16.897461 16.778159 35.614310 0.567928 1.080251 -0.012248 0.007580 417890.000000 0 0 1
27.747481 17.164161 17.366459 36.961129 0.553973 1.081667 -0.020857 -0.002021 477436.000000 0 0 1
28.870681 16.217261 16.851059 37.154730 0.511797 1.100066 -0.007119 -0.008827 -666581.000000 0 0 1
29.038681 16.520061 15.478559 36.820418 0.517237 1.136932 0.006717 -0.014813 19951.900000 0 0 1
29.388981 15.373261 14.697659 36.277687 0.481953 1.153661 0.027771 -0.023283 242221.000000 0 0 1
28.496281 15.356461 13.375159 35.025046 0.494276 1.178973 0.011666 -0.009986 154990.000000 0 0 1
28.948481 16.177161 12.322359 35.377332 0.509594 1.215026 0.012503 -0.004796 55665.700000 0 0 1
28.119481 16.209261 11.174659 34.326642 0.522918 1.239215 0.006023 -0.002826 454449.000000 0 0 1
26.686181 16.816261 11.231559 33.482635 0.562293 1.228720 -0.002917 0.004515 -390856.000000 0 0 1
26.524681 18.216361 11.211959 34.074955 0.601792 1.235512 -0.022751 0.015435 403694.000000 0 0 1
27.147181 18.957561 12.310959 35.325887 0.609601 1.214829 -0.025300 0.007019 40162.400000 0 0 1
26.566381 18.672861 13.753359 35.264759 0.612653 1.170162 -0.026066 0.007664 795732.000000 0 0 1
25.304681 19.328361 13.997059 34.782612 0.652291 1.156643 -0.026266 0.021143 848536.000000 0 0 1
24.906181 19.200161 15.391459 35.012299 0.656743 1.115641 -0.017239 0.021812 -49698.900000 0 0 1
25.721081 20.093261 16.342759 36.502040 0.663171 1.106580 -0.005872 0.004787 -159418.000000 0 0 1
25.561881 21.525361 16.099259 37.093626 0.699883 1.121850 -0.011591 0.008271 -176874.000000 0 0 1
24.383181 22.158261 16.518859 36.856489 0.737629 1.106052 -0.001189 0.008675 -399997.000000 0 0 1
24.327581 23.685761 16.331459 37.677089 0.772031 1.122469 -0.006887 0.011067 -143421.000000 0 0 1
24.270681 24.066961 14.976659 37.317354 0.781184 1.157825 0.014156 0.005827 45326.000000 0 0 1
24.035381 25.406861 14.770859 37.965595 0.813130 1.171186 0.006586 0.002523 -540823.000000 0 0 1
24.063681 25.896961 13.253659 37.754110 0.822076 1.212102 0.006930 0.002240 -213586.000000 0 0 1
22.983381 25.407761 12.498759 36.469290 0.835456 1.220985 0.025422 0.011423 29192.300000 0 0 1
22.636581 26.176361 11.394359 36.434161 0.857789 1.252722 0.020948 -0.008270 -108566.000000 0 0 1
21.873981 25.306761 10.354359 35.015939 0.858028 1.270604 0.018603 -0.002160 198300.000000 0 0 1
20.558781 24.961961 10.814859 34.098741 0.881827 1.248060 0.032168 -0.003422 422101.000000 0 0 1
20.171181 23.606761 10.538059 32.790340 0.863715 1.243613 0.029557 0.007416 172931.000000 0 0 1
19.916881 23.237161 9.037159 31.911096 0.862187 1.283669 0.027027 0.018862 -233066.000000 0 0 1
18.786781 23.878061 8.488459 31.546139 0.904168 1.298358 0.021964 0.017628 -170395.000000 0 0 1
18.966881 24.181461 7.140559 31.551121 0.905667 1.342501 0.022016 0.002167 -569930.000000 0 0 1
17.787681 24.731461 6.333359 31.115241 0.947279 1.365819 0.018036 0.004626 -573449.000000 0 0 1
16.782381 23.701861 6.254659 29.707698 0.954680 1.358669 0.042981 0.012365 360678.000000 0 0 1
15.925481 23.692161 5.145359 29.007140 0.978984 1.392470 0.048492 0.012286 -101314.000000 0 0 1
14.772081 24.694161 5.224359 29.245682 1.031700 1.391195 0.008271 0.011595 -1020050.000000 0 0 1
15.173181 26.034661 4.993059 30.544388 1.043115 1.406590 0.022994 -0.007065 620176.000000 0 0 1
14.028481 26.821961 5.330559 30.734846 1.088901 1.396478 0.019491 -0.011770 372506.000000 0 0 1
13.876081 28.207461 4.551259 31.763508 1.113626 1.427016 0.012744 -0.018154 -592617.000000 0 0 1
13.225281 28.085761 3.353659 31.224431 1.130707 1.463184 0.011547 -0.006750 47915.400000 0 0 1
12.963181 29.332461 2.734959 32.185670 1.154665 1.485719 0.002952 -0.008302 -238491.000000 0 0 1
12.454481 29.163561 1.239159 31.735830 1.167185 1.531740 0.018969 -0.012481 -155631.000000 0 0 1
13.374581 28.836261 0.209059 31.787625 1.136517 1.564220 0.035784 -0.007799 -230146.000000 0 0 1
13.896281 27.535861 0.215559 30.844396 1.103427 1.563808 0.012387 0.000705 608107.000000 0 0 1
14.980181 27.440061 -0.941341 31.276971 1.071088 1.600898 0.025679 0.000238 790167.000000 0 0 1
14.403881 27.586261 -2.228841 31.200021 1.089594 1.642294 0.030651 -0.001608 221243.000000 0 0 1
15.421781 27.446661 -3.217141 31.646493 1.058877 1.672631 0.038049 0.004497 489491.000000 0 0 1
14.802981 27.753461 -4.607741 31.790158 1.080807 1.716251 0.047845 0.009569 45343.300000 0 0 1
13.949681 26.777561 -5.174641 30.633451 1.090532 1.740531 0.048504 0.002704 -321602.000000 0 0 1
13.423981 27.317061 -6.357641 31.094126 1.114041 1.776713 0.038353 0.005199 939433.000000 0 0 1
12.144781 26.476061 -6.770041 29.905033 1.140724 1.799161 0.009508 0.000118 1031940.000000 0 0 1
12.507981 25.159661 -7.162641 28.995889 1.109436 1.820403 0.044869 -0.016075 -208946.000000 0 0 1
11.306081 24.512261 -7.475941 28.010143 1.138633 1.840972 0.023976 0.010174 -127703.000000 0 0 1
11.398281 23.071361 -8.124441 26.985460 1.111924 1.876608 0.011536 -0.000947 -263324.000000 0 0 1
11.704281 23.068061 -9.531141 27.567522 1.101262 1.923822 0.011159 0.001136 30905.100000 0 0 1
11.996181 21.763861 -9.930041 26.761534 1.067034 1.950943 0.011069 -0.006743 -490281.000000 0 0 1
11.948481 21.566561 -11.427541 27.174831 1.064866 2.004814 0.008150 -0.004553 60065.800000 0 0 1
11.939881 20.160261 -11.627441 26.157108 1.036096 2.031438 0.021457 -0.013351 -167517.000000 0 0 1
11.873081 19.786761 -13.000541 26.485846 1.030339 2.083860 0.020617 -0.008072 -173031.000000 0 0 1
13.241081 19.412361 -13.620541 27.160360 0.972188 2.096112 0.004704 -0.012873 171497.000000 0 0 1
14.049381 20.576261 -13.662841 28.415504 0.971710 2.072390 0.004969 -0.004172 165063.000000 0 0 1
15.386281 20.226961 -14.029041 29.028979 0.920494 2.075190 0.007327 0.000924 624305.000000 0 0 1
16.466381 21.323261 -13.859141 30.296847 0.913222 2.045916 -0.002362 0.014949 -71890.800000 0 0 1
16.427881 22.536861 -14.609841 31.483850 0.940914 2.053350 0.000805 0.019606 -451869.000000 0 0 1
15.230681 23.277161 -14.590041 31.411291 0.991391 2.053848 0.008323 0.019111 -228456.000000 0 0 1
15.478981 24.684761 -15.086341 32.810577 1.010713 2.048568 0.018647 0.021930 -56666.100000 0 0 1
15.922081 24.790961 -16.425341 33.732718 0.999886 2.079363 -0.009869 0.025366 -381119.000000 0 0 1
14.922081 24.790661 -17.432041 33.780489 1.028964 2.113016 -0.020721 0.029206 -285081.000000 0 0 1
15.357281 24.752761 -18.911741 34.730379 1.015492 2.146625 -0.025004 0.022607 -237165.000000 0 0 1
15.636381 23.468461 -19.358741 34.205642 0.983067 2.172383 -0.027311 0.028406 -97473.900000 0 0 1
15.583081 23.315861 -20.763341 34.893812 0.981631 2.208116 -0.026978 0.029655 -248291.000000 0 0 1
15.929281 21.920561 -21.369441 34.509506 0.942386 2.238562 -0.007528 0.023059 -401674.000000 0 0 1
14.949681 20.969261 -21.104741 33.295840 0.951443 2.257324 0.004499 0.012495 -342332.000000 0 0 1
15.214781 19.814261 -21.890341 33.215682 0.915956 2.290333 0.011590 0.006305 -586256.000000 0 0 1
14.168581 18.739861 -21.924741 32.134489 0.923424 2.321674 0.016452 0.007420 -1200660.000000 0 0 1
13.932881 18.026361 -20.694341 30.778737 0.912789 2.308187 0.016022 0.003323 367644.000000 0 0 1
12.956381 17.000361 -20.884341 29.883704 0.919581 2.344590 0.013151 -0.002038 1362320.000000 0 0 1
11.432281 17.361361 -21.082841 29.607433 0.988476 2.363252 0.012181 -0.001411 305190.000000 0 0 1
10.619081 17.337961 -19.941541 28.478673 1.021254 2.346512 0.017567 -0.001141 -536351.000000 0 0 1
9.295181 17.480061 -20.396241 28.424630 1.082065 2.371082 0.002548 0.011449 131557.000000 0 0 1
8.244981 17.026761 -19.320241 27.040008 1.119839 2.366714 0.010626 -0.001941 34396.400000 0 0 1
8.136881 15.648561 -19.163241 26.044502 1.091296 2.397626 0.003130 -0.006234 -111550.000000 0 0 1
6.984681 15.227161 -18.466741 24.933366 1.140732 2.404824 0.012667 -0.013742 -306855.000000 0 1 0
6.921581 15.523661 -16.936041 23.994204 1.151380 2.354403 0.015001 -0.022374 -86322.600000 0 1 0
6.888481 16.921861 -16.611441 24.692925 1.184205 2.308676 0.020335 -0.018574 -260229.000000 0 1 0
6.478481 17.066061 -15.263941 23.795148 1.207988 2.267213 0.022998 -0.027365 -330414.000000 0 1 0
6.071681 18.513061 -14.801641 24.468088 1.253883 2.220483 0.022318 -0.024517 -443140.000000 0 1 0
7.017681 19.526761 -14.562741 25.349865 1.225783 2.182753 0.020017 -0.019679 -360094.000000 0 0 1
7.696381 19.986961 -15.747041 26.583495 1.203226 2.204783 0.030663 -0.008300 1266520.000000 0 0 1
8.986181 20.877461 -15.430741 27.472306 1.164340 2.167216 0.014911 0.010057 850447.000000 0 0 1
8.672981 22.123161 -14.801341 27.995259 1.197178 2.127875 0.032159 0.009402 34174.000000 0 0 1
8.350081 22.049861 -13.399441 27.119463 1.208794 2.087584 0.018141 -0.003301 -161369.000000 0 0 1
8.075281 23.394661 -12.720541 27.826831 1.238425 2.045564 0.033232 -0.001651 -1789740.000000 0 0 1
6.810481 23.792761 -13.005941 27.957694 1.292009 2.054658 0.036191 -0.002464 -1628750.000000 0 0 1
6.409381 24.839061 -12.174041 28.394830 1.318268 2.013896 0.027177 -0.002767 327933.000000 0 0 1
5.624781 24.455761 -10.869841 27.347319 1.344730 1.979558 0.011841 -0.006109 -19616.500000 0 0 1
6.515381 24.046361 -9.859841 26.793547 1.306198 1.947646 -0.002485 -0.006741 -133037.000000 0 0 1
5.825681 23.446461 -8.814741 25.717207 1.327261 1.920646 0.000561 -0.013062 -43278.200000 0 0 1
6.688181 23.388761 -7.512741 25.459913 1.292272 1.870337 -0.011012 -0.010709 161920.000000 0 0 1
6.745381 24.603461 -6.860741 26.417801 1.303208 1.833509 -0.026457 -0.007090 819008.000000 0 0 1
7.782081 24.508661 -5.847941 26.371076 1.263341 1.794411 -0.009916 -0.005855 644298.000000 0 0 1
8.030481 25.873661 -5.218941 27.589351 1.269851 1.761108 -0.015420 -0.004544 -72563.200000 0 0 1
8.547881 26.847161 -6.081641 28.823995 1.262554 1.783386 0.002725 -0.006696 120373.000000 0 0 1
8.812381 28.083261 -5.426841 29.929554 1.266732 1.753125 -0.007172 -0.007001 -65196.200000 0 0 1
8.978781 29.250961 -6.395641 31.259262 1.272969 1.776851 -0.008364 -0.000782 -1127640.000000 0 0 1
10.191381 29.391661 -7.011441 31.888780 1.237025 1.792479 0.007577 -0.000620 -1147600.000000 0 0 1
10.243381 30.629161 -7.670241 33.194954 1.248057 1.803970 0.007276 0.001054 -126764.000000 0 0 1
11.453381 30.729761 -8.615241 33.907529 1.214032 1.827693 0.004526 0.002159 826617.000000 0 0 1
12.689381 30.922661 -7.892941 34.344285 1.181392 1.802687 0.020992 0.009882 646473.000000 0 0 1
13.733281 31.406761 -8.739541 35.374669 1.158578 1.820438 0.019182 0.009253 -250676.000000 0 0 1
15.036481 31.655961 -8.042341 35.956569 1.127351 1.796373 0.018902 0.006917 -777203.000000 0 0 1
15.813381 30.548161 -7.698141 35.249320 1.093125 1.790962 0.029292 0.015190 -198277.000000 0 0 1
17.042681 30.951361 -7.115041 36.042524 1.067471 1.769508 0.035569 0.013853 200234.000000 0 0 1
18.020781 29.828861 -6.858441 35.518273 1.027339 1.765113 0.035714 0.008493 -263000.000000 0 0 1
17.690281 29.060761 -5.693741 34.494819 1.023979 1.736616 0.042321 0.004511 -425356.000000 0 0 1
18.723781 28.210861 -5.328341 34.275704 0.984845 1.726885 0.033974 0.010402 -548865.000000 0 0 1
18.965781 26.879661 -6.175641 33.471713 0.956334 1.756363 0.032315 0.030519 -250371.000000 0 0 1
19.636181 27.189261 -7.342541 34.332906 0.945324 1.786324 0.035885 0.024696 -166253.000000 0 0 1
19.486681 26.168761 -8.333941 33.674759 0.930725 1.820878 0.028054 0.022699 -616359.000000 0 0 1
20.242781 26.410261 -9.655941 34.648366 0.916835 1.853220 0.038760 0.011779 1791140.000000 0 0 1
21.695881 26.534761 -9.726741 35.628841 0.885391 1.847308 0.018561 0.010986 1519570.000000 0 0 1
22.311381 25.294261 -9.497141 35.039878 0.847974 1.845268 0.026859 0.011834 -399477.000000 0 0 1
23.855581 25.409061 -9.605641 36.152143 0.816921 1.839727 0.001772 0.012559 274463.000000 0 0 1
24.332181 25.798661 -10.878841 37.094139 0.814643 1.868449 0.014233 0.011458 -54465.200000 0 0 1
25.734881 25.959961 -10.803541 38.117190 0.789752 1.858165 -0.002600 0.021869 -203333.000000 0 0 1
26.402981 26.152261 -12.172841 39.105450 0.780628 1.887339 -0.000809 0.013336 -121387.000000 0 0 1
26.201781 27.415961 -12.758741 40.011920 0.808039 1.895337 -0.000522 0.010818 -260019.000000 0 0 1
26.949981 27.482361 -13.932341 40.935214 0.795178 1.918086 -0.001171 0.011170 -169221.000000 0 0 1
26.776881 28.679461 -14.912941 41.975096 0.819692 1.934011 0.020536 -0.001974 -644501.000000 0 0 1
27.304681 29.905261 -14.559441 43.033099 0.830824 1.915939 0.017156 -0.010485 -279563.000000 0 0 1
27.020681 30.947261 -15.429641 43.885351 0.853032 1.930065 0.022965 -0.003728 -456562.000000 0 0 1
27.604281 32.296061 -15.009741 45.059119 0.863565 1.910399 0.013580 -0.007475 -740218.000000 0 0 1
28.983681 32.425061 -15.127741 46.046573 0.841380 1.905544 0.010704 -0.002444 -655562.000000 0 0 1
29.348381 33.600061 -14.431941 46.888938 0.852838 1.883666 0.009835 -0.015949 -186730.000000 0 0 1
14.295481 -32.959305 -29.426389 46.439088 -1.161554 2.257066 0.011915 0.001427 398601.000000 0 0 1
15.330681 -33.360205 -28.529449 46.495833 -1.140029 2.231397 0.000631 0.006086 431873.000000 0 0 1
15.486781 -32.407405 -27.484119 45.226729 -1.125003 2.223953 0.008176 0.004204 -1037930.000000 0 0 1
16.600081 -32.709105 -26.504419 45.254088 -1.101162 2.196515 -0.000245 0.005438 -32993.100000 0 0 1
17.959281 -32.456005 -26.795589 45.759497 -1.065391 2.196385 0.014280 -0.003479 370045.000000 0 0 1
18.509981 -33.306605 -27.799799 47.167554 -1.063553 2.201092 0.006831 -0.000767 -447793.000000 0 0 1
20.041581 -33.092805 -27.921609 47.711790 -1.026257 2.195940 0.013216 0.004656 279896.000000 0 0 1
20.458181 -31.938105 -28.651379 47.534001 -1.001088 2.217746 -0.007946 -0.004406 892305.000000 0 0 1
21.781081 -31.578405 -28.180019 47.599628 -0.966985 2.204362 -0.011940 0.006703 1210500.000000 0 0 1
22.413381 -30.309705 -28.885039 47.490876 -0.934063 2.224616 -0.018239 0.012208 189253.000000 0 0 1
22.566881 -30.414505 -30.287369 48.493617 -0.932449 2.245369 -0.023654 0.008769 -228412.000000 0 0 1
23.190581 -29.258105 -30.763849 48.376173 -0.900571 2.260009 -0.021871 -0.001963 -175160.000000 0 0 1
23.665581 -29.388305 -32.240849 49.630681 -0.892849 2.277875 -0.017986 -0.004309 789982.000000 0 0 1
24.715981 -30.326705 -32.570269 50.905905 -0.886981 2.265051 -0.015691 -0.006249 61279.300000 0 0 1
24.707981 -30.578305 -33.934309 51.933172 -0.891182 2.282893 -0.015698 -0.008623 155156.000000 0 0 1
26.014581 -31.178505 -34.506950 53.287777 -0.875443 2.275172 -0.011552 -0.007957 296537.000000 0 0 1
27.151981 -30.311705 -34.500713 53.350995 -0.840329 2.274012 -0.000864 -0.018312 -530689.000000 0 0 1
28.164881 -31.024705 34.143370 54.051481 -0.833677 0.887075 0.004947 -0.005806 425822.000000 0 0 1
29.563581 -30.288605 34.108989 54.358330 -0.797511 0.892479 0.014402 -0.018862 821859.000000 0 0 1
29.584581 -29.150905 33.288356 53.227224 -0.778015 0.895151 0.009898 -0.016288 -549296.000000 0 0 1
30.863681 -28.620105 33.102839 53.548811 -0.747699 0.904370 0.008235 -0.020640 -390654.000000 0 0 1
30.959881 -27.576505 31.991649 52.368344 -0.727663 0.913604 0.004461 -0.021243 -518328.000000 0 0 1
32.225781 -27.443105 31.421669 52.715712 -0.705416 0.932213 -0.006574 -0.021910 -334130.000000 0 0 1
32.269581 -26.379705 30.494849 51.644463 -0.685308 0.939147 0.009398 -0.011485 -136821.000000 0 0 1
32.959281 -26.803005 29.161399 51.527686 -0.682748 0.969228 0.003219 -0.001332 -197058.000000 0 0 1
32.474281 -27.978505 28.544249 51.499027 -0.711166 0.983313 0.007683 -0.014571 989508.000000 0 0 1
31.158881 -27.930805 27.943279 50.317319 -0.730822 0.982023 0.007790 -0.013469 779099.000000 0 0 1
30.757881 -29.146105 27.104249 50.300924 -0.758499 1.001734 -0.004266 0.001581 -57989.900000 0 0 1
29.486981 -28.850105 26.559489 49.063398 -0.774481 0.998778 0.004178 0.001327 -8342.830000 0 0 1
28.885481 -29.906005 25.849889 48.958727 -0.802755 1.014560 0.001240 0.010153 -408177.000000 0 0 1
27.642481 -29.458805 25.103989 47.561941 -0.817196 1.014768 0.000996 0.009191 293054.000000 0 0 1
26.493181 -29.294305 25.942959 47.255498 -0.835567 0.989637 0.008273 0.012714 1021800.000000 0 0 1
25.298281 -28.825505 25.295609 45.943232 -0.850476 0.987733 0.014580 0.019356 1589870.000000 0 0 1
24.022881 -28.713305 26.195409 45.691926 -0.874106 0.960262 0.017205 0.019909 586377.000000 0 0 1
24.117181 -27.601205 27.104099 45.586150 -0.852662 0.934067 0.010086 0.020270 -1001400.000000 0 0 1
22.966581 -27.471805 27.826439 45.348370 -0.874483 0.910166 0.011766 0.010159 -1114750.000000 0 0 1
22.893781 -26.231105 28.731569 45.140881 -0.853229 0.880862 0.008127 0.020943 -867042.000000 0 0 1
21.780181 -26.289405 29.555939 45.155981 -0.878931 0.857236 0.021954 0.014585 -529352.000000 0 0 1
21.534281 -25.156105 30.362549 44.927044 -0.862814 0.828721 0.015586 0.020376 -109980.000000 0 0 1
21.230981 -23.746805 29.800259 43.620187 -0.841275 0.818694 0.019804 0.021666 -345712.000000 0 0 1
22.241481 -23.177105 28.975749 43.260325 -0.805995 0.836857 0.029541 0.016989 244082.000000 0 0 1
21.944881 -21.829305 28.606929 42.147986 -0.782758 0.824770 0.048512 0.019034 -94512.200000 0 0 1
22.527781 -20.761705 29.562549 42.573391 -0.744624 0.803224 0.047925 0.012589 -439802.000000 0 0 1
21.987181 -20.761305 30.865079 43.210196 -0.756730 0.775172 0.051623 0.009897 276786.000000 0 0 1
22.479681 -19.583705 31.525829 43.390500 -0.716659 0.757493 0.054610 0.000595 -62283.700000 0 0 1
21.828381 -19.317905 32.910149 43.962911 -0.724460 0.724865 0.058314 -0.011771 -61974.300000 0 0 1
22.212781 -20.225005 33.964666 45.343765 -0.738593 0.724172 0.036324 -0.009580 366539.000000 0 0 1
21.610981 -19.779805 -34.107482 44.962156 -0.741186 2.431930 0.046004 -0.015504 -110002.000000 0 0 1
21.542981 -20.940605 -33.065789 44.676116 -0.771220 2.404048 0.020082 -0.007130 -261208.000000 0 0 1
22.749981 -21.131005 -32.399899 44.875767 -0.748520 2.377472 0.015824 -0.006343 -504017.000000 0 0 1
22.549281 -22.296405 -31.633049 44.791177 -0.779759 2.354961 0.003547 -0.003392 -5879.260000 0 0 1
23.651081 -22.720005 -30.635339 44.878684 -0.765322 2.322146 -0.006336 -0.002620 636063.000000 0 0 1
24.808081 -23.309905 -31.257369 46.214886 -0.754273 2.313590 0.001000 -0.002987 247151.000000 0 0 1
25.745081 -23.709905 -30.274719 46.276640 -0.744269 2.283936 -0.008203 -0.004434 81418.000000 0 0 1
26.935281 -24.565505 -30.746239 47.689670 -0.739416 2.271447 -0.013040 0.002160 596291.000000 0 0 1
27.880581 -23.903605 -31.642519 48.476367 -0.708750 2.281993 -0.005946 -0.006111 548257.000000 0 0 1
27.494381 -23.693105 -32.995959 49.051376 -0.711272 2.308623 0.006283 -0.007229 -256345.000000 0 0 1
27.855081 -24.815305 -33.969509 50.454261 -0.727749 2.309423 0.003403 -0.011012 -46509.400000 0 0 1
27.101481 -25.929105 -33.532689 50.311529 -0.763294 2.300302 0.014540 -0.017462 -86586.200000 0 0 1
27.227781 -27.172705 -34.184416 51.461464 -0.784386 2.297316 0.016050 -0.018758 5787.970000 0 0 1
26.694881 -27.317205 33.631110 50.891040 -0.796920 0.848852 0.016135 -0.013831 -204550.000000 0 0 1
27.521081 -26.705905 32.687419 50.389311 -0.770367 0.864925 0.001978 -0.011875 -82221.300000 0 0 1
26.858781 -26.507805 31.449439 49.123569 -0.778822 0.876024 0.009455 -0.011830 476620.000000 0 0 1
27.881581 -25.933205 30.366859 48.703797 -0.749209 0.897584 0.002453 -0.009686 961044.000000 0 0 1
28.410281 -24.596305 30.504769 48.401066 -0.713569 0.888921 -0.004669 -0.006957 406858.000000 0 0 1
28.953781 -24.108705 31.717869 49.250120 -0.694342 0.871060 -0.000995 -0.004079 -1529820.000000 0 0 1
29.418481 -22.644105 31.755969 48.853291 -0.656005 0.863176 -0.007260 -0.007861 426262.000000 0 0 1
30.703781 -22.393305 31.225429 49.185462 -0.630143 0.882981 -0.001619 -0.015845 234496.000000 0 0 1
31.803381 -22.989305 31.894029 50.568689 -0.625902 0.888332 -0.006656 -0.011450 -1761620.000000 0 0 1
33.104281 -22.481705 31.349889 50.834398 -0.596573 0.906245 -0.013182 -0.015068 -1206920.000000 0 0 1
33.453681 -22.965605 30.057269 50.497596 -0.601601 0.933255 -0.007965 -0.014142 166891.000000 0 0 1
34.591081 -22.266705 29.599489 50.680162 -0.571942 0.947093 -0.024688 -0.010991 -72914.900000 0 0 1
34.897981 -22.681705 28.127799 50.234469 -0.576335 0.976495 -0.011983 -0.004757 -78054.600000 0 0 1
-34.670739 -24.062205 28.047909 50.672823 0.606702 0.984224 -0.011234 0.000929 336410.000000 0 0 1
-34.166539 -24.329305 26.742899 49.743845 0.618787 1.003194 -0.022726 0.015070 -289450.000000 0 0 1
-33.951639 -25.853205 26.547619 50.258114 0.650803 1.014287 -0.033542 0.009501 410899.000000 0 0 1
34.660481 -26.486605 26.288539 50.931095 -0.652510 1.028436 -0.017142 -0.000491 626909.000000 0 0 1
34.752781 -27.852805 25.870659 51.505587 -0.675628 1.044553 -0.014710 0.000263 311296.000000 0 0 1
-34.302939 -28.799205 26.845879 52.218646 0.698399 1.030832 -0.017610 -0.003352 -464854.000000 0 0 1
-34.152939 -30.118505 26.309369 52.590213 0.722709 1.046884 -0.009071 -0.005410 248077.000000 0 0 1
-33.186939 -30.963105 26.949549 52.786030 0.750746 1.034980 -0.009069 -0.011457 777649.000000 0 0 1
-31.723439 -30.454205 26.814429 51.505813 0.764988 1.023231 -0.004090 -0.008591 -701516.000000 0 0 1
-31.143639 -30.407105 25.555449 50.473748 0.773432 1.039894 -0.012127 -0.001891 -185364.000000 0 0 1
-29.904539 -29.748405 25.518269 49.299402 0.782781 1.026731 -0.020268 0.004464 -110738.000000 0 0 1
-29.282739 -29.589505 24.117259 48.110911 0.790609 1.045714 -0.028035 0.008582 -449892.000000 0 0 1
-29.153539 -30.837305 23.508059 48.512854 0.813458 1.064920 -0.023909 0.002562 309905.000000 0 0 1
-28.667939 -30.721205 22.189559 47.518624 0.819957 1.084940 -0.027705 0.001280 -567424.000000 0 0 1
-28.833039 -32.032605 21.380359 48.109787 0.837918 1.110283 -0.026509 0.004103 995.606000 0 0 1
-28.003039 -33.112005 21.721259 48.501424 0.868800 1.106439 -0.026531 -0.004850 879623.000000 0 0 1
-26.595239 -32.975505 21.436559 47.478592 0.892095 1.102351 -0.015416 -0.001228 939193.000000 0 0 1
-25.849239 -34.359105 21.431359 48.042006 0.925808 1.108398 -0.017942 0.010986 -323873.000000 0 0 1
-26.145739 34.155161 20.327759 47.575125 -0.917449 1.129317 -0.029934 0.013836 255098.000000 0 0 1
-27.365939 33.424661 20.467759 47.802006 -0.884736 1.128321 -0.024600 0.013869 298617.000000 0 0 1
-27.489239 32.274861 21.565659 47.564720 -0.865303 1.100224 -0.020667 0.015373 -434860.000000 0 0 1
-26.563539 31.241961 21.413459 46.262490 -0.866156 1.089568 -0.025783 0.017589 -214919.000000 0 0 1
-26.709039 30.204661 22.435559 46.141615 -0.846741 1.063023 -0.013327 0.009078 -332152.000000 0 0 1
-25.906939 28.951261 22.128659 44.710430 -0.840836 1.053039 -0.003638 0.004757 -65611.600000 0 0 1
-24.521639 29.177061 22.291959 44.153631 -0.871877 1.041562 -0.001463 0.002969 -20544.800000 0 0 1
-23.698039 28.301761 21.547259 42.741913 -0.873701 1.042428 0.003786 -0.003985 -1099540.000000 0 0 1
-22.243839 28.613761 21.666859 42.225448 -0.909999 1.031977 -0.004493 0.008089 -1417210.000000 0 0 1
-21.662739 28.288261 22.883859 42.345850 -0.917269 0.999879 -0.009147 0.005171 -207178.000000 0 0 1
-20.356939 28.807661 22.948559 42.082332 -0.955621 0.994019 0.010150 0.001859 -153351.000000 0 0 1
-19.817639 28.848561 24.393779 42.661865 -0.968880 0.962106 -0.000944 0.000946 -424277.000000 0 0 1
-19.520739 27.605461 24.936429 42.011263 -0.955299 0.935315 0.003775 -0.007359 235492.000000 0 0 1
-19.250939 27.652961 26.336529 42.765613 -0.962651 0.907352 0.003489 -0.005487 -1588680.000000 0 0 1
-17.885039 27.975261 26.828689 42.688036 -1.001968 0.891195 0.013587 -0.005625 -1796460.000000 0 0 1
-17.550339 29.368761 26.794439 43.456651 -1.032154 0.906407 -0.009229 -0.000309 118339.000000 0 0 1
-16.252139 29.542661 27.327539 43.401558 -1.067858 0.889701 -0.003006 -0.001683 -204963.000000 0 0 1
-16.169539 29.748461 28.889469 44.508722 -1.072925 0.864429 -0.014303 0.009857 -475595.000000 0 0 1
-16.367839 28.577961 29.701289 44.348310 -1.050660 0.836954 -0.005940 0.003781 215401.000000 0 0 1
-16.335039 28.993861 31.031019 45.501666 -1.057726 0.820336 -0.020508 0.016269 -343270.000000 0 0 1
-16.110239 27.896261 32.080069 45.462864 -1.047081 0.787481 -0.015719 0.019908 373760.000000 0 0 1
-14.778939 27.369461 32.076779 44.681363 -1.075679 0.770014 -0.007640 0.022337 577850.000000 0 0 1
-14.657839 26.072361 32.499939 44.168612 -1.058636 0.743927 0.008390 0.014069 -169682.000000 0 0 1
-14.663139 25.742161 34.034934 45.122536 -1.053018 0.716243 0.022212 0.004247 1238500.000000 0 0 1
-16.041439 25.748261 34.521949 45.957216 -1.013629 0.720955 0.024736 0.004999 1216560.000000 0 0 1
-16.278039 26.577061 -33.632179 45.852352 -1.021248 2.394237 0.024139 0.003871 -434868.000000 0 0 1
-17.744239 26.517061 -33.199359 46.045738 -0.981067 2.376053 0.009396 0.005212 -270851.000000 0 0 1
-18.606339 26.927961 -34.263906 47.384873 -0.966158 2.379073 -0.008754 0.003099 -921744.000000 0 0 1
-19.911839 26.703561 -33.858749 47.497119 -0.930077 2.364363 0.004049 -0.001377 -676588.000000 0 0 1
-20.879839 26.622061 34.180085 48.093451 -0.905699 0.780302 0.015049 -0.010709 8999.070000 0 0 1
-20.873539 25.449361 33.378377 46.877400 -0.883860 0.778403 0.015087 -0.001156 -10122.600000 0 0 1
-21.308439 24.217661 33.987815 46.858470 -0.849214 0.759284 0.020995 -0.005852 -296450.000000 0 0 1
-21.774739 23.248261 32.951539 45.830392 -0.818115 0.768450 0.014064 0.005050 233959.000000 0 0 1
-23.116439 23.391061 32.494079 46.231771 -0.791303 0.791398 0.031705 -0.003469 127771.000000 0 0 1
-23.144239 22.797661 31.249559 45.076869 -0.777854 0.804807 0.027239 -0.001272 470663.000000 0 0 1
-24.572439 22.501361 30.716839 45.317107 -0.741430 0.826003 0.029484 0.006732 580165.000000 0 0 1
-25.259239 21.400761 31.295229 45.556702 -0.702892 0.813511 0.045595 -0.009622 455839.000000 0 0 1
-26.408239 20.983261 30.548169 45.506955 -0.671423 0.834854 0.036813 -0.001573 499465.000000 0 0 1
-26.867739 19.564061 30.998199 45.447951 -0.629378 0.820221 0.050764 -0.011519 -196557.000000 0 0 1
-27.400939 19.615061 32.313029 46.687192 -0.621287 0.806377 0.048802 -0.014948 74204.700000 0 0 1
-27.603439 18.406861 33.029049 46.815387 -0.588117 0.787644 0.043538 -0.005601 -180354.000000 0 0 1
-28.382039 17.243161 32.382359 46.384091 -0.545944 0.798007 0.022906 -0.002880 -186819.000000 0 0 1
-29.776939 17.482261 32.311069 47.289541 -0.530886 0.818578 0.006077 -0.005951 -208315.000000 0 0 1
-30.486139 16.356461 31.908949 47.065056 -0.492436 0.825791 0.005979 0.002602 -262765.000000 0 0 1
-32.003439 16.597661 31.878169 48.124008 -0.478433 0.846756 -0.012523 0.002569 -440635.000000 0 0 1
-32.388839 16.948161 33.189579 49.374337 -0.482091 0.833616 -0.009937 -0.001059 832435.000000 0 0 1
-33.820939 17.035761 33.280809 50.415130 -0.466607 0.849797 0.002599 -0.008820 492607.000000 0 0 1
-34.283739 17.303561 -34.574208 51.673628 -0.467414 2.303777 0.001096 -0.002709 -1232490.000000 0 0 1
34.209681 17.459061 -34.626031 51.711537 0.471897 2.304466 -0.000313 -0.004816 -964736.000000 0 0 1
33.796781 18.154161 -33.452189 50.900343 0.492929 2.287907 -0.010930 -0.000146 -13740.000000 0 0 1
32.268081 18.234361 -33.294049 49.821829 0.514355 2.302667 -0.007749 0.005681 -124101.000000 0 0 1
31.669081 16.982861 -33.304159 48.995053 0.492233 2.318212 -0.004051 0.004317 346965.000000 0 0 1
30.396381 16.945161 -32.642159 47.713614 0.508563 2.324202 -0.007944 0.005169 922101.000000 0 0 1
29.645581 15.551961 -32.779469 46.853149 0.483130 2.345664 -0.005602 0.000918 58768.500000 0 0 1
29.146781 15.216261 -34.052329 47.335299 0.481137 2.373714 -0.002077 -0.013181 152029.000000 0 0 1
28.257381 14.108361 -34.023279 46.423151 0.463072 2.393363 -0.000271 -0.012366 -736400.000000 0 0 1
29.021881 12.797761 -34.154209 46.610752 0.415319 2.393156 -0.000158 -0.009971 214819.000000 0 0 1
29.745081 12.431761 -32.987189 46.124540 0.395879 2.367673 0.000395 -0.006385 508865.000000 0 0 1
30.738081 11.424461 -33.251499 46.701286 0.355849 2.363144 0.016122 -0.011331 240864.000000 0 0 1
16.868581 -21.119539 10.333741 28.937349 -0.896837 1.205627 -0.036870 0.001835 -521928.000000 0 0 1
16.686181 -22.383139 10.935441 29.983619 -0.930194 1.197471 -0.023224 -0.005078 -209197.000000 0 0 1
17.883181 -23.110839 11.108141 31.261955 -0.912236 1.207535 -0.026344 -0.007737 -824614.000000 0 0 1
17.907781 -24.400639 11.888441 32.517916 -0.937675 1.196523 -0.002989 -0.016724 28142.300000 0 0 1
17.174681 -25.500089 11.277741 32.747697 -0.978068 1.219215 0.003069 -0.013555 791964.000000 0 0 1
15.785681 -25.500389 11.605741 32.158215 -1.016497 1.201569 0.018965 -0.008965 590517.000000 0 0 1
14.913881 -26.553799 10.842841 32.327934 -1.059055 1.228765 0.049326 -0.001400 215446.000000 0 0 1
14.699181 -26.228719 9.456241 31.518758 -1.059986 1.266083 0.044680 -0.010705 29139.400000 0 0 1
13.703581 -26.991799 8.828041 31.532200 -1.101012 1.287034 0.050617 0.000391 -195834.000000 0 0 1
13.442281 -26.462109 7.420241 30.594086 -1.100783 1.325815 0.053859 -0.010690 -475207.000000 0 0 1
12.851981 -25.214709 7.415141 29.256440 -1.099417 1.314548 0.071665 -0.021815 -77070.400000 0 0 1
12.515181 -24.784739 6.100141 28.427535 -1.103192 1.354529 0.062236 -0.004997 482384.000000 0 0 1
11.786881 -23.348239 5.997741 26.833631 -1.103293 1.345376 0.053111 -0.001482 469250.000000 0 0 1
11.550281 -22.848139 4.698241 26.029213 -1.102739 1.389303 0.057441 -0.002468 92617.200000 0 0 1
10.600081 -21.806539 4.894341 24.735429 -1.118333 1.371614 0.043796 -0.003154 396045.000000 0 1 0
9.929881 -21.265939 3.582841 23.741934 -1.133946 1.419310 0.028285 -0.001094 398795.000000 0 1 0
10.778181 -20.362739 2.855241 23.215571 -1.083977 1.447496 0.022312 0.001041 -196773.000000 0 1 0
10.076381 -19.671339 1.892041 22.182760 -1.097407 1.485399 0.016577 0.002941 -645813.000000 0 1 0
10.884981 -19.207639 0.737641 22.089824 -1.055222 1.537397 0.016385 0.005733 -499443.000000 0 1 0
11.886581 -18.245539 0.867341 21.793182 -0.993382 1.530987 0.017269 0.012077 -240759.000000 0 1 0
12.398581 -17.937739 -0.437559 21.810061 -0.966000 1.590860 0.017120 0.001224 79844.500000 0 1 0
13.648181 -17.042539 -0.331959 21.836464 -0.895549 1.585999 0.018785 0.004400 247554.000000 0 1 0
14.772781 -17.591039 0.310241 22.973375 -0.872260 1.557292 0.020267 0.002790 1146700.000000 0 1 0
16.040681 -16.938539 0.029641 23.328490 -0.812616 1.569526 0.019433 0.000149 1656510.000000 0 1 0
17.240781 -17.582939 0.793641 24.638063 -0.795223 1.538579 0.019141 0.006455 255292.000000 0 1 0
17.500381 -18.912039 0.353341 25.769234 -0.824147 1.557084 0.011472 0.000123 349669.000000 0 0 1
18.650681 -19.504139 0.963041 27.003459 -0.807763 1.535125 -0.003603 0.018521 494716.000000 0 0 1
19.047381 -20.842139 0.414141 28.237723 -0.830361 1.556130 -0.006263 0.015892 -37934.300000 0 0 1
18.131781 -21.877539 0.740841 28.424233 -0.878748 1.544730 0.003994 0.011137 72904.700000 0 0 1
18.401981 -23.110839 0.088541 29.542370 -0.898347 1.567799 0.007371 0.010234 -172632.000000 0 0 1
17.314581 -24.172839 0.380741 29.736608 -0.949226 1.557992 0.004580 0.013958 -179538.000000 0 0 1
17.314981 -24.669039 1.715441 30.187958 -0.958802 1.513940 -0.003076 0.009587 279661.000000 0 0 1
16.232181 -25.580519 1.895741 30.355238 -1.005357 1.508304 0.013083 0.007534 -309237.000000 0 0 1
16.155881 -26.247289 3.283741 30.995413 -1.019039 1.464654 0.027018 0.004721 204498.000000 0 0 1
17.108981 -27.298509 3.384341 32.394129 -1.010949 1.466131 0.017217 0.004510 -77970.600000 0 0 1
18.372181 -26.778339 3.723441 32.687620 -0.969471 1.456639 0.001311 0.011053 -1483390.000000 0 0 1
19.483881 -27.817139 3.726341 34.165779 -0.959784 1.461512 0.016780 0.016702 -457850.000000 0 0 1
19.786681 -28.344849 2.446141 34.654391 -0.961367 1.500151 0.005776 0.012600 -50560.900000 0 0 1
20.556881 -29.560219 2.480141 36.090761 -0.963148 1.502023 0.015848 0.013364 311477.000000 0 0 1
19.768281 -30.863389 2.865541 36.763366 -1.001122 1.492772 0.026409 0.016738 307771.000000 0 0 1
19.804181 -31.142329 4.306441 37.156368 -1.004379 1.454635 0.049591 0.013509 -7820.340000 0 0 1
19.003481 -32.291489 4.555141 37.744163 -1.038877 1.449817 0.047939 -0.007050 -159804.000000 0 0 1
18.908781 -32.686259 6.033841 38.240564 -1.046341 1.412348 0.058570 -0.013047 -420315.000000 0 0 1
19.940781 -33.476389 6.503341 39.504390 -1.033569 1.405420 0.044825 -0.019882 -478941.000000 0 0 1
19.666481 -33.942519 7.805141 39.997316 -1.045658 1.374394 0.041467 -0.019841 126029.000000 0 0 1
20.758281 34.466408 8.345641 41.091231 1.028705 1.366273 0.054096 -0.027804 1284850.000000 0 0 1
21.867281 -34.153958 8.934741 41.527105 -1.001301 1.353946 0.056547 -0.022414 986117.000000 0 0 1
22.871081 34.373078 9.456041 42.355774 0.983687 1.345646 0.066552 -0.025254 -234793.000000 0 0 1
23.817381 -34.405862 10.479141 43.137494 -0.965292 1.325417 0.050088 -0.016598 -300037.000000 0 0 1
24.785281 -33.544909 9.910141 42.869359 -0.934457 1.337515 0.030920 -0.002883 188241.000000 0 0 1
25.230581 -32.514989 10.812441 42.552504 -0.910882 1.313883 0.008314 0.002381 84892.700000 0 0 1
26.027281 -31.432899 10.088141 42.038281 -0.879198 1.328456 0.003878 -0.000085 -227387.000000 0 0 1
25.148781 -30.625829 9.287041 40.701987 -0.883284 1.340597 0.000759 -0.004451 327861.000000 0 0 1
25.846581 -29.698589 8.485041 40.274655 -0.854636 1.358526 -0.008191 0.004101 -330653.000000 0 0 1
25.215681 -28.285279 8.371141 38.806747 -0.842710 1.353374 -0.018509 0.008192 -100904.000000 0 0 1
25.483981 -27.582579 9.571041 38.753539 -0.824924 1.321242 -0.010806 -0.005909 37866.900000 0 0 1
25.101481 -26.238949 9.481741 37.529591 -0.807550 1.315381 -0.008585 0.004347 -336028.000000 0 0 1
25.788681 -25.477739 10.611941 37.772802 -0.779333 1.286022 0.011259 -0.012254 1258500.000000 0 0 1
27.191881 -25.271889 10.315641 38.528940 -0.748818 1.299752 0.014398 -0.004686 769878.000000 0 0 1
27.797481 -24.362339 11.221941 38.628428 -0.719635 1.276037 0.013157 -0.015104 525859.000000 0 0 1
29.238781 -23.984539 10.775241 39.322643 -0.686996 1.293224 0.024710 -0.012894 424107.000000 0 0 1
29.196781 -23.244439 9.511241 38.512591 -0.672377 1.321250 0.034378 -0.015474 61141.400000 0 0 1
30.509781 -23.048639 9.008241 39.284029 -0.646981 1.339427 0.028162 -0.017586 121006.000000 0 0 1
30.416681 -22.297939 7.621841 38.476812 -0.632586 1.371388 0.031186 0.001131 -647693.000000 0 0 1
30.084481 -20.913739 7.754341 37.451172 -0.607475 1.362236 0.029749 0.006066 -149355.000000 0 0 1
30.145181 -20.186839 6.550641 36.866669 -0.590068 1.392163 0.015424 0.012050 -319375.000000 0 0 1
29.618181 -18.794239 6.696041 35.711301 -0.565438 1.382175 0.011570 0.006031 -244065.000000 0 0 1
30.467481 -18.114639 7.569941 36.245159 -0.536407 1.360394 0.021563 -0.004949 -23148.500000 0 0 1
30.066481 -16.803939 7.660141 35.285173 -0.509645 1.351962 0.021579 -0.002957 17811.100000 0 0 1
30.575881 -16.168239 8.959341 35.729067 -0.486414 1.317333 0.020488 -0.015171 -49217.200000 0 0 1
31.971781 -15.977239 9.081041 36.877259 -0.463431 1.321987 0.016225 -0.011555 -54872.100000 0 0 1
32.192581 -15.092039 10.123841 36.967879 -0.438382 1.293397 0.021051 -0.016434 -566114.000000 0 0 1
33.695581 -14.968939 10.350941 38.296257 -0.418054 1.297106 0.015066 -0.019062 -452534.000000 0 0 1
34.313781 -14.199039 9.330641 38.289805 -0.392346 1.324633 0.026014 -0.012492 -396965.000000 0 0 1
-34.223739 -14.603639 9.224241 38.335587 0.403319 1.327794 0.021265 -0.018604 -334480.000000 0 0 1
-33.317639 -13.752239 8.353541 36.999605 0.391459 1.343059 0.009916 -0.012202 -389594.000000 0 0 1
-33.632639 -13.810739 6.961841 37.018349 0.389641 1.381605 0.011399 -0.011234 22226.400000 0 0 1
-32.672539 -13.366539 6.008341 35.808649 0.388332 1.402209 0.006351 -0.007760 332785.000000 0 0 1
-31.592139 -14.446739 5.621441 35.190512 0.428899 1.410366 -0.008898 0.003875 489432.000000 0 0 1
-30.608239 -14.610139 6.628841 34.558096 0.445345 1.377783 0.010878 -0.003463 468420.000000 0 0 1
-29.598839 -15.552539 6.225541 34.010735 0.483795 1.386712 0.008244 0.005534 477239.000000 0 0 1
-28.979739 -16.251639 7.457641 34.052275 0.511092 1.350001 0.001739 -0.008884 -707943.000000 0 0 1
-29.922939 -17.103239 8.009741 35.384446 0.519257 1.342454 0.017416 -0.019593 -326319.000000 0 0 1
-29.609039 -17.279439 9.340641 35.531982 0.528263 1.304791 -0.001866 -0.014460 210751.000000 0 0 1
-30.736339 -18.021539 10.109841 37.036567 0.530305 1.294318 -0.017245 -0.021747 -361894.000000 0 0 1
-31.963339 -17.300039 10.218941 37.754114 0.496098 1.296706 0.004060 -0.014121 1015980.000000 0 0 1
-33.069839 -17.979039 10.834341 39.169415 0.497969 1.290540 0.032974 -0.028840 669331.000000 0 0 1
-33.481939 -19.374239 10.297241 40.030420 0.524571 1.310636 0.028897 -0.027314 -2024600.000000 0 0 1
-32.628339 -20.459339 10.514241 39.921702 0.560066 1.304281 0.024280 -0.022696 -557482.000000 0 0 1
-32.440939 -20.853839 11.871941 40.351457 0.571315 1.272164 0.008400 -0.022563 -840166.000000 0 0 1
-33.577639 -21.513339 12.606641 41.823546 0.569813 1.264610 -0.003221 -0.031661 -639234.000000 0 0 1
-33.641639 -22.847539 12.209841 42.459983 0.596592 1.279117 0.013919 -0.027596 -632821.000000 0 0 1
34.917781 -23.230639 11.999541 43.622277 -0.587053 1.292125 0.020605 -0.020338 -676733.000000 0 0 1
34.743381 -24.745439 11.753341 44.244551 -0.618890 1.301923 0.010230 -0.013965 -211094.000000 0 0 1
-34.782739 -25.531409 12.929941 45.043037 0.633199 1.279643 0.011677 -0.003380 48684.900000 0 0 1
34.329781 -26.703629 12.971441 45.385856 -0.661092 1.280951 0.002542 -0.003060 -451939.000000 0 0 1
33.204081 -26.627539 14.005441 44.807245 -0.675920 1.252898 0.001965 -0.013957 -187805.000000 0 0 1
32.585781 -25.350169 14.010041 43.597540 -0.661152 1.243642 -0.006606 -0.014409 125282.000000 0 0 1
31.575381 -25.303479 15.033341 43.165636 -0.675574 1.215070 -0.000798 -0.004889 112659.000000 0 0 1
31.181281 -23.882139 15.492841 42.221523 -0.653608 1.195077 0.013158 -0.006775 -65542.400000 0 0 1
32.130381 -23.135539 16.229241 42.790219 -0.624057 1.181784 0.008837 -0.011223 333506.000000 0 0 1
33.204981 -22.603739 15.423441 43.027693 -0.597678 1.204185 0.003995 -0.015893 1012890.000000 0 0 1
34.360781 -21.946239 16.263241 43.895258 -0.568391 1.191248 0.001307 -0.011760 429433.000000 0 0 1
34.065081 -20.622939 16.742241 43.197662 -0.544379 1.172799 0.004565 -0.011146 234832.000000 0 0 1
33.023881 -20.420539 17.691541 42.668088 -0.553808 1.143258 0.000679 -0.009726 219525.000000 0 0 1
32.989481 -18.958239 18.286741 42.215229 -0.521590 1.122780 0.004168 -0.008825 -459109.000000 0 0 1
32.693381 -18.011239 17.235941 41.113739 -0.503545 1.138204 0.010316 -0.013969 282126.000000 0 0 1
32.791781 -16.650939 17.651641 40.793812 -0.469850 1.123306 0.006151 -0.012920 844040.000000 0 0 1
34.218081 -16.115639 18.095841 41.929111 -0.440154 1.124551 -0.013785 -0.007778 648579.000000 0 0 1
34.516381 -16.510739 19.407541 42.902654 -0.446174 1.101384 -0.013507 0.006259 -118121.000000 0 0 1
-34.232839 -15.807739 19.847641 42.611040 0.432600 1.086273 -0.022852 0.000808 -408009.000000 0 0 1
-34.063239 -15.781739 21.410541 43.217807 0.433865 1.052489 -0.016406 0.006181 -397571.000000 0 0 1
-33.611639 -16.996439 21.957141 43.597446 0.468174 1.042997 -0.017675 0.012298 219775.000000 0 0 1
-33.216739 -16.796239 23.300541 43.913331 0.468162 1.011485 -0.009006 0.011867 330585.000000 0 0 1
-32.219239 -17.866539 23.880141 43.903915 0.506315 0.995697 -0.012162 0.017426 -169886.000000 0 0 1
-32.813939 -19.161839 23.948641 44.916234 0.528538 1.008436 -0.021926 0.015676 53131.000000 0 0 1
-31.979939 -20.254539 24.233341 44.946832 0.564582 1.001362 -0.028023 0.021899 -562746.000000 0 0 1
-30.918239 -20.602639 23.174341 43.788769 0.587789 1.013103 -0.026622 0.029533 -370018.000000 0 0 1
-29.780039 -19.805839 23.206941 42.634307 0.586897 0.995211 -0.022151 0.033391 255914.000000 0 0 1
-28.615439 -20.415839 22.623541 41.802804 0.619699 0.998937 -0.015062 0.020884 1204140.000000 0 0 1
-27.300339 -19.574239 22.749141 40.570713 0.622042 0.975531 0.000697 0.023767 367557.000000 0 0 1
-26.912539 -19.485239 24.108841 41.051133 0.626666 0.943092 -0.001689 0.025294 571726.000000 0 0 1
-25.723339 -18.702239 24.216341 39.973680 0.628653 0.920016 0.016338 0.021339 56025.700000 0 0 1
-25.502339 -18.235939 25.591241 40.470117 0.620768 0.886215 0.010576 0.011105 -582991.000000 0 0 1
-24.407739 -17.315339 25.635041 39.404492 0.617020 0.862473 0.001169 0.010525 412793.000000 0 0 1
-24.146439 -16.830539 26.934641 39.897274 0.608723 0.829696 -0.003295 0.003265 -54403.700000 0 0 1
-23.083239 -17.688739 27.639541 40.120713 0.653853 0.810813 -0.003642 0.004984 -928749.000000 0 0 1
-23.509339 -18.977939 28.038941 41.219333 0.679147 0.822710 0.009708 0.008416 -506655.000000 0 0 1
-22.608239 -19.664339 28.865241 41.605539 0.715870 0.804067 0.009269 0.007467 -688914.000000 0 0 1
-23.062939 -20.941539 29.626441 42.990385 0.737227 0.810493 0.014169 0.013113 -1996.070000 0 0 1
-24.206439 -20.657139 30.448741 44.043103 0.706449 0.807455 0.015844 0.004789 529374.000000 0 0 1
-24.698839 -21.807239 31.034241 45.262705 0.723301 0.815304 0.013473 0.004713 -68600.900000 0 0 1
-25.802839 -21.522439 32.106941 46.474268 0.695197 0.808127 0.016137 0.002992 -964034.000000 0 0 1
-25.395039 -20.930639 33.308641 46.823768 0.689325 0.779362 0.024100 -0.000600 163447.000000 0 0 1
-26.354939 -20.919939 34.369741 48.098916 0.670935 0.774796 0.038434 -0.014289 -266368.000000 0 0 1
-27.598439 -20.058139 34.086041 48.227181 0.628477 0.785859 0.019784 -0.018605 -934381.000000 0 0 1
-28.446039 -20.753339 33.216441 48.406716 0.630296 0.814551 0.019700 -0.014761 -1165740.000000 0 0 1
-29.443139 -19.910839 32.766041 48.342046 0.594606 0.826036 0.023924 -0.018666 -524125.000000 0 0 1
-30.206039 -20.523439 31.532441 48.248432 0.596799 0.858540 0.006329 0.003421 -331993.000000 0 0 1
-31.099639 -19.639639 30.928941 48.057282 0.563265 0.871623 0.009141 -0.006018 -5745.170000 0 0 1
-31.603839 -20.251339 29.771341 47.908790 0.569872 0.900246 -0.000264 -0.002780 -211293.000000 0 0 1
-32.386039 -19.223839 28.951841 47.503901 0.535689 0.915414 -0.005628 0.000205 68632.200000 0 0 1
-33.386339 -19.779839 28.096941 47.909579 0.534852 0.944118 -0.019066 0.005422 554386.000000 0 0 1
-33.892439 -18.804239 27.197541 47.349795 0.506537 0.958930 -0.016623 0.003490 -26434.500000 0 0 1
34.870781 -19.402739 26.283541 47.783493 -0.507757 0.988366 -0.025881 0.005730 101214.000000 0 0 1
33.626781 -19.547039 26.938241 47.312958 -0.526551 0.965066 -0.025362 -0.002578 -23407.900000 0 0 1
32.609281 -19.956239 26.075241 46.276721 -0.549182 0.972224 -0.005044 0.001373 614198.000000 0 0 1
31.277981 -20.465139 26.764741 45.972659 -0.579391 0.949379 -0.000830 -0.003100 586937.000000 0 0 1
30.486381 -19.401839 27.258141 45.264302 -0.566762 0.924543 -0.004735 -0.021836 291864.000000 0 0 1
29.825581 -19.939139 28.435041 45.778665 -0.589288 0.900598 0.005167 -0.010243 106324.000000 0 0 1
-29.228949 -6.307739 34.008089 45.284314 0.212545 0.721236 -0.011198 0.012720 -368531.000000 0 0 1
-30.112569 -5.859339 33.044559 45.089262 0.192180 0.748266 -0.016177 0.011170 -83904.300000 0 0 1
-29.610379 -4.647639 32.544569 44.243915 0.155690 0.744286 -0.000994 0.009200 9167.070000 0 0 1
-30.195629 -4.308339 31.143689 43.592054 0.141724 0.774980 -0.012495 0.000857 124103.000000 0 0 1
-29.872859 -5.293939 30.241489 42.836446 0.175395 0.786997 -0.008563 -0.002823 97444.200000 0 0 1
-28.533089 -5.504039 29.810949 41.630809 0.190560 0.772628 -0.002182 -0.006033 225194.000000 0 0 1
-28.337759 -6.591439 28.744109 40.898648 0.228539 0.791452 0.010484 -0.014928 -105576.000000 0 0 1
-28.772249 -6.085239 27.516749 40.274606 0.208425 0.818622 0.010477 -0.014996 -76939.300000 0 0 1
-28.283479 -6.873339 26.465289 39.339668 0.238395 0.832893 0.028679 -0.013649 -296847.000000 0 0 1
-29.032869 -6.585639 25.186049 38.995066 0.223059 0.868624 0.009214 -0.009839 -265785.000000 0 0 1
-28.736839 -5.316139 24.632479 38.220757 0.182926 0.870454 0.020174 -0.007907 -263027.000000 0 0 1
-29.441999 -5.150239 23.429559 37.977631 0.173176 0.905960 0.026913 -0.008697 -97813.200000 0 0 1
-29.205879 -3.824139 22.629659 37.144432 0.130197 0.915702 0.020714 -0.012349 -1393250.000000 0 0 1
-27.955919 -3.785739 22.113159 35.844902 0.134599 0.905983 0.022610 -0.009281 -1692320.000000 0 0 1
-27.614439 -2.549939 21.579659 35.138883 0.092080 0.909520 0.020834 -0.010528 -28928.100000 0 0 1
-26.104819 -2.571639 21.271859 33.772280 0.098195 0.889421 0.005087 0.000689 -36293.600000 0 0 1
-25.779629 -3.440039 20.155559 32.903946 0.132657 0.911504 0.012018 0.006283 -225624.000000 0 0 1
-24.609819 -3.055139 19.478359 31.533847 0.123511 0.904986 0.009404 0.006080 -349215.000000 0 0 1
-24.365419 -3.793739 18.112459 30.596197 0.154462 0.937278 0.018832 0.001675 -673668.000000 0 0 1
-25.171279 -3.378839 17.061259 30.595692 0.133436 0.979261 0.018480 0.001125 -118235.000000 0 0 1
-24.670519 -3.867639 15.870259 29.588144 0.155506 1.004664 0.029173 -0.004091 -267876.000000 0 0 1
-25.818529 -4.203539 14.913559 30.111134 0.161395 1.052635 0.021014 -0.000887 -279592.000000 0 0 1
-26.319769 -3.125239 14.178959 30.058946 0.118188 1.079573 0.019269 -0.003083 -1108150.000000 0 0 1
-27.499449 -3.496439 13.581359 30.869047 0.126467 1.115235 0.010693 0.001835 -822252.000000 0 0 1
-28.030019 -2.294739 12.753359 30.880349 0.081685 1.145059 0.007228 0.012635 -349454.000000 0 0 1
-27.234229 -2.030139 11.624059 29.680691 0.074406 1.168386 0.012406 -0.000678 75650.600000 0 0 1
-27.627879 -0.878239 10.857159 29.697624 0.031777 1.196530 0.008491 0.001614 176156.000000 0 0 1
-28.981179 -0.977139 10.072659 30.697263 0.033704 1.236474 -0.005873 0.005231 353246.000000 0 0 1
-28.985609 -1.666639 8.854759 30.353747 0.057436 1.274773 -0.000816 -0.006480 862080.000000 0 0 1
-30.279969 -1.861739 8.230059 31.433683 0.061407 1.305886 -0.006594 -0.002856 626108.000000 0 0 1
-30.178209 -2.376339 6.783459 31.022356 0.078581 1.350352 -0.001895 -0.009076 -535990.000000 0 0 1
-29.903419 -1.485139 5.668659 30.472181 0.049624 1.383679 0.005711 -0.010436 180017.000000 0 0 1
-30.907739 -0.533239 5.345559 31.371128 0.017251 1.399563 -0.008614 -0.006880 -422773.000000 0 0 1
-30.594639 0.392161 4.149959 30.877304 -0.012817 1.435987 0.002019 -0.006205 -283182.000000 0 0 1
-30.709469 -0.477739 3.044359 30.863698 0.015555 1.471997 0.003057 -0.012307 371728.000000 0 0 1
-30.157359 0.087461 1.874159 30.215665 -0.002900 1.508730 0.009117 -0.010567 -234283.000000 0 0 1
-30.718889 -0.584139 0.637859 30.731063 0.019013 1.550039 0.015105 -0.010363 -672565.000000 0 0 1
-32.047659 -0.234139 0.412859 32.051173 0.007306 1.557915 0.004245 -0.006560 -456308.000000 0 0 1
-32.504029 -0.763439 -0.813341 32.523165 0.023483 1.595807 0.008983 -0.005223 -212258.000000 0 0 1
-34.034759 -0.619339 -0.919441 34.052808 0.018195 1.597800 0.010471 -0.005678 -423661.000000 0 0 1
-34.726173 -1.464839 -0.061241 34.757108 0.042158 1.572558 -0.000137 0.003324 273150.000000 0 0 1
33.770861 -1.097739 0.035359 33.788716 -0.032494 1.569750 0.011434 0.006292 745467.000000 0 0 1
32.967551 -2.338139 0.599959 33.055805 -0.070804 1.552645 0.011167 0.001205 -270587.000000 0 0 1
33.465331 -2.713139 1.847259 33.625911 -0.080896 1.515833 0.001585 -0.000261 -442857.000000 0 0 1
32.699621 -3.720439 2.313459 32.991802 -0.113289 1.500616 0.002679 0.004393 -1072690.000000 0 0 1
32.757981 -4.196539 3.845759 33.248852 -0.127413 1.454871 0.002125 0.005939 -277550.000000 0 0 1
32.253431 -3.265639 4.761959 32.766209 -0.100905 1.424948 0.006706 -0.000947 204655.000000 0 0 1
32.287141 -3.848239 6.079759 33.079176 -0.118628 1.385951 0.002171 -0.000078 -312558.000000 0 0 1
31.756591 -2.816139 7.103959 32.663098 -0.088448 1.351552 0.004210 -0.000236 1015480.000000 0 0 1
30.333981 -2.580239 7.072059 31.254153 -0.084857 1.342544 0.011628 -0.002145 992356.000000 0 0 1
29.899541 -1.411039 7.712259 30.910395 -0.047158 1.318629 0.012872 -0.003385 276874.000000 0 0 1
28.412821 -1.451639 8.160159 29.597024 -0.051047 1.291469 0.014635 -0.005299 143755.000000 0 0 1
27.450431 -1.211039 7.118659 28.384293 -0.044089 1.317294 0.014285 -0.002748 1663680.000000 0 0 1
26.094611 -1.445639 7.582959 27.212495 -0.055343 1.288401 0.021223 0.000556 927811.000000 0 0 1
25.625131 -2.912539 7.548259 26.872038 -0.113174 1.286068 0.017209 -0.000521 -895631.000000 0 0 1
26.219511 -3.762439 8.516759 27.823621 -0.142525 1.259705 0.015238 -0.002386 622709.000000 0 0 1
25.829511 -5.114639 8.220559 27.584430 -0.195486 1.268184 0.024285 -0.007583 -145782.000000 0 0 1
26.170871 -6.123439 9.301659 28.441727 -0.229844 1.237624 0.011997 -0.003664 -407378.000000 0 0 1
25.469431 -5.945439 10.513459 28.188171 -0.229328 1.188584 0.007010 -0.000141 322673.000000 0 0 1
25.862971 -6.779439 11.542559 29.121894 -0.256361 1.163255 0.006738 0.009143 -441644.000000 0 0 1
24.774701 -6.927039 12.609259 28.648963 -0.272639 1.115053 0.003741 -0.002600 -121949.000000 0 0 1
23.628101 -7.609439 12.167459 27.644851 -0.311562 1.115048 0.007828 -0.011671 315489.000000 0 0 1
22.452101 -7.180639 12.859459 26.851892 -0.309540 1.071391 0.011124 -0.015131 -109825.000000 0 0 1
21.379801 -8.223139 12.878659 26.278808 -0.367179 1.058617 0.017389 -0.012100 -795050.000000 0 0 1
21.674301 -9.338839 13.642459 27.259969 -0.406833 1.046669 0.004670 -0.011493 -162685.000000 0 0 1
20.499901 -10.082139 13.752959 26.665321 -0.457077 1.028900 0.012778 -0.027296 -1130570.000000 0 0 1
20.601401 -11.352039 14.633459 27.702430 -0.503635 1.014273 0.014211 -0.016607 -339802.000000 0 0 1
20.815901 -10.979739 16.013259 28.465433 -0.485380 0.973328 0.001076 -0.018333 198153.000000 0 0 1
21.438501 -11.969739 16.793459 29.747340 -0.509215 0.970925 0.002569 -0.017648 -323027.000000 0 0 1
21.471301 -11.627239 18.301559 30.514857 -0.496313 0.927596 0.020417 -0.006814 395111.000000 0 0 1
20.160501 -11.684639 18.853959 29.974128 -0.525270 0.890520 0.026337 -0.013483 267417.000000 0 0 1
20.183801 -12.061739 20.249759 31.031019 -0.538649 0.859832 0.060267 -0.004998 274663.000000 0 0 1
20.851001 -11.148939 21.339059 31.849938 -0.491017 0.836604 0.031378 0.004337 135154.000000 0 0 1
20.130101 -9.963239 21.641559 31.190450 -0.459593 0.803972 0.047401 0.005564 -70898.400000 0 0 1
20.249501 -8.881539 20.722559 30.304265 -0.413338 0.817816 0.033190 0.006343 -797664.000000 0 0 1
21.368601 -7.820939 20.963259 30.939335 -0.350858 0.826356 0.010786 0.016339 1768400.000000 0 0 1
22.743601 -8.287339 20.979059 32.032363 -0.349429 0.856702 0.009379 0.025206 1043560.000000 0 0 1
23.211301 -8.617439 19.728559 31.658187 -0.355488 0.898002 0.004625 0.008747 -1169490.000000 0 0 1
24.537301 -9.383739 19.767459 32.876833 -0.365267 0.925722 -0.030181 0.015506 -348076.000000 0 0 1
24.428901 -10.623839 20.509759 33.619747 -0.410216 0.914671 -0.031436 0.012117 122731.000000 0 0 1
25.571151 -11.394339 20.250459 34.551351 -0.419183 0.944562 -0.022866 0.003667 -218449.000000 0 0 1
25.397081 -12.859339 20.684959 35.188661 -0.468700 0.942422 -0.039177 0.002289 196465.000000 0 0 1
24.426901 -13.441239 19.800159 34.196297 -0.503046 0.953277 0.006650 -0.011508 511026.000000 0 0 1
24.225801 -14.802539 20.015059 34.736252 -0.548486 0.956724 0.008432 -0.009056 -782928.000000 0 0 1
22.909101 -15.142339 19.366859 33.603461 -0.584052 0.956559 0.026350 -0.013123 -989293.000000 0 0 1
23.047001 -15.089739 17.933159 32.870392 -0.579699 0.993725 0.008265 -0.016889 278862.000000 0 0 1
21.947801 -15.538239 17.158959 31.899416 -0.616051 1.002842 0.003041 -0.010226 -245756.000000 0 0 1
21.636201 -17.124139 17.158359 32.492624 -0.669511 1.014471 -0.000080 -0.019710 -433775.000000 0 0 1
22.633101 -17.965639 16.599559 33.325168 -0.670935 1.049380 0.031608 -0.020376 -29969.300000 0 0 1
22.485801 -19.320339 17.010859 34.179761 -0.709825 1.049865 0.017626 -0.015072 -300930.000000 0 0 1
23.718601 -20.216339 16.797559 35.403819 -0.705852 1.076450 0.014190 -0.016068 -121359.000000 0 0 1
24.048901 -20.437439 15.445359 35.136842 -0.704394 1.115668 0.016274 -0.025492 -242435.000000 0 0 1
25.028811 -21.435939 15.357259 36.356379 -0.708227 1.134695 0.021962 -0.022419 -255560.000000 0 0 1
25.355131 -21.641639 13.829259 36.090049 -0.706546 1.177551 0.017446 -0.027374 -354857.000000 0 0 1
24.200901 -21.904239 13.074759 35.162887 -0.735626 1.189812 0.014251 -0.017125 -147950.000000 0 0 1
24.430001 -21.943939 11.666359 34.849180 -0.731840 1.229438 0.032937 -0.014534 175701.000000 0 0 1
23.108201 -22.242639 10.919059 33.881408 -0.766315 1.242667 -0.012645 0.002719 255836.000000 0 0 1
22.563001 -23.564639 11.211559 34.497540 -0.807109 1.239789 -0.015512 0.008050 605679.000000 0 0 1
21.330401 -23.806939 10.535759 33.656479 -0.840210 1.252406 -0.033865 0.014869 -170213.000000 0 0 1
21.443401 -24.115239 9.014959 33.505726 -0.843977 1.298382 -0.035916 0.018910 -529356.000000 0 0 1
22.037501 -25.405989 8.849859 34.776943 -0.856279 1.313492 -0.034774 0.021935 59902.900000 0 0 1
21.665101 -26.061019 7.669459 34.747286 -0.877246 1.348243 -0.019580 0.023987 299158.000000 0 0 1
20.223901 -26.651509 7.498959 34.286200 -0.921669 1.350297 -0.007057 0.015504 658252.000000 0 0 1
19.269101 -25.620909 7.359759 32.892177 -0.925962 1.345132 -0.012437 0.021811 -195943.000000 0 0 1
17.941001 -26.113579 7.490759 32.556259 -0.968823 1.338630 -0.003740 -0.002599 512674.000000 0 0 1
16.858701 -25.015139 7.535059 31.092605 -0.977775 1.326017 -0.004341 0.001066 -400841.000000 0 0 1
16.761701 -24.314339 6.286959 30.193833 -0.967237 1.361042 0.010067 0.003036 16861.800000 0 0 1
16.016801 -23.130839 6.416959 28.857425 -0.965160 1.346554 0.014326 0.006906 -165182.000000 0 0 1
15.755801 -22.436739 5.080859 27.883107 -0.958574 1.387553 0.029345 0.009070 -158716.000000 0 0 1
15.019901 -21.236739 5.223259 26.530717 -0.955214 1.372626 0.041848 0.011921 24565.400000 0 0 1
14.594501 -20.756439 3.974559 25.683192 -0.957972 1.415419 0.024613 0.010636 370793.000000 0 0 1
13.724101 -19.464739 3.980359 24.146848 -0.956672 1.405201 0.008016 0.022026 44342.400000 0 1 0
14.496701 -18.456239 4.522259 23.900584 -0.904982 1.380438 0.000313 0.025397 181418.000000 0 1 0
13.967901 -17.206639 4.104559 22.539257 -0.888917 1.387667 -0.007408 0.024028 433519.000000 0 1 0
15.105301 -16.152439 4.201159 22.510467 -0.818886 1.383064 -0.015929 0.022758 -491392.000000 0 1 0
15.534601 -15.948739 5.574259 22.951219 -0.798552 1.325469 -0.018524 0.017075 11200.800000 0 1 0
16.436601 -14.883439 5.719759 22.899656 -0.735849 1.318349 -0.023661 0.009459 51309.600000 0 1 0
17.869701 -15.269939 5.273259 24.089510 -0.707110 1.350107 -0.023066 0.006911 -542456.000000 0 1 0
18.819701 -14.216239 5.364259 24.187970 -0.646943 1.347163 -0.004925 0.001933 -427365.000000 0 1 0
20.116001 -14.701739 5.272059 25.467415 -0.631131 1.362277 0.007364 0.005751 -1129260.000000 0 0 1
21.197601 -13.659639 5.256359 25.759529 -0.572425 1.365298 0.010409 -0.002417 -770622.000000 0 0 1
21.247301 -12.993439 6.500159 25.739645 -0.548857 1.315497 0.016391 -0.008755 202370.000000 0 0 1
22.403301 -12.184039 6.626359 26.348953 -0.498109 1.316582 0.028813 -0.010528 -60147.000000 0 0 1
22.448301 -11.367139 7.911659 26.376740 -0.468730 1.266158 0.029465 -0.013495 -432327.000000 0 0 1
22.688801 -12.163939 9.113459 27.309307 -0.492125 1.230557 0.023948 -0.008926 436547.000000 0 0 1
22.677201 -11.486239 10.396159 27.463963 -0.468842 1.182580 0.024049 -0.009424 -230295.000000 0 0 1
22.984101 -12.418939 11.550659 28.564255 -0.495387 1.154501 0.014319 -0.008905 116944.000000 0 0 1
21.984301 -13.388339 11.848559 28.336292 -0.547008 1.139399 0.016084 -0.014929 658312.000000 0 0 1
22.513401 -14.317639 12.785559 29.585783 -0.566442 1.123918 0.014735 -0.022699 328832.000000 0 0 1
21.517701 -15.486439 13.145159 29.591155 -0.623830 1.110486 0.007400 -0.022082 1273250.000000 0 0 1
20.414901 -14.970439 13.958959 28.909078 -0.632733 1.066882 -0.002352 -0.025439 379459.000000 0 0 1
19.492801 -15.978039 14.226059 28.942145 -0.686632 1.056946 -0.020474 -0.021000 -765814.000000 0 0 1
18.249301 -15.430439 14.909559 28.167896 -0.701897 1.013009 -0.014414 -0.027384 -1140130.000000 0 0 1
18.520001 -14.845739 16.161159 28.715318 -0.675719 0.973020 -0.014805 -0.013353 208143.000000 0 0 1
18.057301 -13.480339 16.242559 27.777804 -0.641277 0.946247 0.003454 -0.029479 -993754.000000 0 0 1
16.586401 -13.144939 16.231359 26.671242 -0.670159 0.916537 0.010457 -0.025303 -1139660.000000 0 0 1
15.987701 -13.486039 14.957559 25.713973 -0.700723 0.949992 0.001836 -0.023951 -307101.000000 0 0 1
14.628501 -13.117739 14.873459 24.643212 -0.731003 0.922848 0.015304 -0.024627 -119108.000000 0 1 0
14.261001 -11.649339 14.443559 23.402984 -0.684941 0.905659 0.011231 -0.023014 -516762.000000 0 1 0
14.580101 -10.685539 15.387159 23.738676 -0.632457 0.865592 0.016362 -0.016549 30325.100000 0 1 0
14.264901 -9.329239 15.106859 22.775849 -0.579182 0.845598 0.007205 -0.014554 -1069810.000000 0 1 0
14.993401 -8.297339 15.966659 23.421830 -0.505449 0.820713 0.021504 -0.012325 -1009600.000000 0 1 0
16.370101 -8.286339 15.862759 24.254293 -0.468585 0.857912 0.025633 -0.019889 -854820.000000 0 1 0
16.970901 -9.092639 16.866459 25.596191 -0.491859 0.851382 0.038096 -0.016286 1085220.000000 0 0 1
18.559801 -9.023439 16.853859 26.644722 -0.452532 0.885968 0.023240 -0.012480 1445110.000000 0 0 1
19.149601 -7.725939 17.122659 26.825041 -0.383478 0.878497 0.029526 -0.014406 -534151.000000 0 0 1
20.481401 -7.659439 16.773159 27.558913 -0.357868 0.916465 0.028174 -0.004770 -1103110.000000 0 0 1
20.981801 -6.228339 17.011559 27.720414 -0.288560 0.910079 0.021378 0.003496 -324354.000000 0 0 1
21.268301 -5.972739 18.350459 28.718523 -0.273777 0.877629 0.016232 0.007625 -28368.000000 0 0 1
21.815101 -4.721439 18.457759 28.963416 -0.213142 0.879835 0.019877 0.002235 -256854.000000 0 0 1
-5.412319 -33.433105 -6.447159 34.476536 1.410304 1.758905 -0.027325 -0.010642 -254829.000000 0 0 1
-6.220019 -32.263005 -6.386859 33.472109 1.380342 1.762785 -0.023605 -0.019680 -27297.800000 0 0 1
-5.692419 -31.277805 -5.513959 32.266212 1.390771 1.742529 -0.029404 -0.018355 -599620.000000 0 0 1
-6.395519 -29.842905 -5.657259 31.040396 1.359683 1.754075 -0.013401 -0.020947 2200410.000000 0 0 1
-7.832219 -29.792005 -5.372559 31.269339 1.313717 1.743469 -0.004713 -0.020836 2118300.000000 0 0 1
-8.625319 -30.507005 -6.367059 32.335938 1.295256 1.768995 -0.010955 -0.019881 -461114.000000 0 0 1
-10.145919 -30.489105 -6.112059 32.709057 1.249551 1.758763 -0.006719 -0.016766 -58624.200000 0 0 1
-10.914619 -31.033705 -7.154859 33.666181 1.232606 1.784953 0.007991 -0.015101 -426502.000000 0 0 1
-12.266919 -30.943205 -6.741059 33.961759 1.193368 1.770613 0.022353 -0.017139 -335816.000000 0 0 1
-13.255419 -31.247005 -7.835959 34.835093 1.169592 1.797682 0.035738 -0.022304 -506933.000000 0 0 1
-13.450619 -30.147905 -8.664159 34.130382 1.151145 1.827460 0.049863 -0.023624 687762.000000 0 0 1
-14.370719 -30.417805 -9.765859 35.030450 1.129435 1.853322 0.055284 -0.016836 442927.000000 0 0 1
-14.401519 -29.403605 -10.967659 34.529194 1.115352 1.894030 0.054180 -0.015092 -363727.000000 0 0 1
-14.826419 -28.079305 -10.760159 33.526871 1.084985 1.897520 0.055405 -0.019974 431114.000000 0 0 1
-13.867519 -27.226905 -10.130859 32.190786 1.099711 1.890951 0.045820 -0.015071 356448.000000 0 0 1
-14.461919 -25.794605 -9.910559 31.188586 1.059808 1.894165 0.053404 -0.007846 94261.500000 0 0 1
-14.847719 -25.187805 -11.109859 31.277935 1.038148 1.933922 0.054886 -0.025093 211293.000000 0 0 1
-15.184419 -23.828305 -10.885459 30.279496 1.003442 1.938528 0.046098 0.002245 -127240.000000 0 0 1
-15.851019 -23.191705 -12.142159 30.602973 0.971245 1.978785 0.064384 0.003754 591355.000000 0 0 1
-17.164819 -23.701505 -12.414359 31.788498 0.944007 1.972003 0.060588 -0.003507 188108.000000 0 0 1
-17.569819 -23.186105 -13.642059 32.130978 0.922339 2.009290 0.059300 -0.014055 22481.300000 0 0 1
-18.931119 -23.781305 -14.117959 33.514989 0.898468 2.005612 0.035848 0.009842 -221844.000000 0 0 1
-18.920819 -25.170105 -14.398559 34.624414 0.926197 1.999673 0.057317 0.001075 -234739.000000 0 0 1
-18.780119 -25.930205 -13.227359 34.641469 0.943976 1.962578 0.063311 -0.005383 -1096910.000000 0 0 1
-19.144719 -27.419405 -13.350959 36.008223 0.961267 1.950640 0.058584 -0.003667 -300505.000000 0 0 1
-18.311019 -28.269605 -14.078659 36.505789 0.996020 1.966715 0.064226 -0.015163 88051.300000 0 0 1
-16.940719 -28.380405 -13.733559 35.791702 1.032648 1.964605 0.079009 -0.023843 -102336.000000 0 0 1
-16.321519 -29.676105 -14.194459 36.722552 1.067962 1.967665 0.066583 -0.019928 -258837.000000 0 0 1
-16.029819 -29.772405 -15.609359 37.242493 1.076893 2.003281 0.058524 -0.024383 -2782.480000 0 0 1
-15.254819 -30.849205 -16.104859 37.996703 1.111561 2.008487 0.053648 -0.015629 241548.000000 0 0 1
-15.754719 -32.312005 -15.789159 39.262888 1.117133 1.984649 0.046263 -0.008964 -87740.300000 0 0 1
-15.889219 -32.500805 -14.399459 38.937309 1.116079 1.949602 0.054856 -0.007433 65431.700000 0 0 1
-16.154019 -33.863105 -14.072759 40.071246 1.125686 1.929642 0.030647 0.000918 -632044.000000 0 0 1
-16.654919 -34.041205 -12.618859 39.942778 1.115779 1.892226 0.051835 -0.007457 509476.000000 0 0 1
-18.015719 -33.696505 -12.361159 40.159915 1.079817 1.883675 0.052877 0.002236 684011.000000 0 0 1
-18.548419 -32.371005 -12.450459 39.331155 1.050470 1.892891 0.060283 -0.000698 -61165.000000 0 0 1
-17.987419 -31.349205 -11.379059 37.891989 1.049882 1.875806 0.074722 -0.004118 -131650.000000 0 0 1
-18.205319 -31.742105 -10.002759 37.934813 1.050061 1.837634 0.054042 -0.004074 97464.300000 0 0 1
-18.169919 -30.545605 -9.204759 36.713860 1.034175 1.824216 0.067983 0.001757 -144626.000000 0 0 1
-18.302119 -30.854105 -7.681459 36.687166 1.035405 1.781734 0.046366 0.006050 -657205.000000 0 0 1
-17.230219 -31.543305 -7.177059 36.652022 1.070844 1.767886 0.046853 -0.009474 -581761.000000 0 0 1
-17.478319 -31.841905 -5.792159 36.782436 1.068791 1.728925 0.046452 -0.019140 -117300.000000 0 0 1
-16.541519 -32.895305 -5.159259 37.179845 1.104869 1.710010 0.046339 -0.014844 -144534.000000 0 0 1
-15.226119 -32.535505 -4.845459 36.247376 1.133087 1.704875 0.046692 -0.018780 -45737.900000 0 0 1
-15.140819 -31.993305 -3.577059 35.575431 1.128777 1.671515 0.031154 -0.021877 -1136950.000000 0 0 1
-13.826219 -31.284505 -3.360559 34.368269 1.154656 1.668734 0.031568 -0.024308 -584590.000000 0 0 1
-12.700519 -32.163005 -3.456359 34.752100 1.194712 1.670419 0.000015 -0.021306 -158004.000000 0 0 1
-11.653119 -31.475005 -2.807159 33.680131 1.216211 1.654241 -0.002932 -0.013030 396857.000000 0 0 1
-10.222819 -32.084705 -2.831259 33.792756 1.262346 1.654678 0.006609 -0.014674 241894.000000 0 0 1
-10.206919 -33.218705 -1.984259 34.808057 1.272689 1.627833 0.001733 -0.002874 346096.000000 0 0 1
-8.983619 -33.971905 -1.881359 35.189988 1.312271 1.624285 -0.008705 -0.003701 789524.000000 0 0 1
-7.976319 -33.377305 -0.863359 34.327999 1.336221 1.595949 -0.012345 -0.000142 -205757.000000 0 0 1
-8.535319 -33.392505 0.421041 34.468657 1.320549 1.558581 0.001576 0.003776 -255368.000000 0 0 1
-7.690919 -32.930305 1.438641 33.847081 1.341358 1.528279 -0.004886 0.005514 256730.000000 0 0 1
-6.725219 -33.990505 2.072541 34.711359 1.375463 1.511053 0.005574 0.004364 408003.000000 0 0 1
-7.419719 34.388361 2.862741 35.295990 -1.358291 1.489600 0.019625 0.003870 281854.000000 0 0 1
-6.543719 33.436161 3.425241 34.242217 -1.377531 1.470599 0.022405 0.005891 274539.000000 0 0 1
-5.606419 33.848561 4.605441 34.617439 -1.406654 1.437363 0.024755 -0.000561 26267.600000 0 0 1
-4.557319 -34.639305 4.324441 35.204423 1.439983 1.447647 0.015415 -0.001111 -345037.000000 0 0 1
-4.047419 -34.158705 5.567941 34.845383 1.452858 1.410318 0.002400 -0.006181 394213.000000 0 0 1
-2.935119 -33.093205 5.334841 33.648710 1.482335 1.411579 0.003049 0.001892 307041.000000 0 0 1
-3.476819 -31.938005 4.692441 32.467575 1.462362 1.425761 -0.009972 0.004927 191114.000000 0 0 1
-3.384919 -31.976205 3.262241 32.319925 1.465332 1.469688 -0.013110 0.001474 -424053.000000 0 0 1
-4.041919 -30.804405 2.574941 31.174971 1.440329 1.488106 -0.020410 0.000637 -361219.000000 0 0 1
-3.423519 -29.625805 2.918141 29.965386 1.455748 1.473258 -0.010106 0.006310 -208334.000000 0 0 1
-3.735219 -28.606405 2.035741 28.920970 1.440958 1.500348 -0.012476 0.004668 103086.000000 0 0 1
-3.131619 -27.306905 2.575241 27.606267 1.456613 1.477376 -0.003477 0.002670 -63769.400000 0 0 1
-3.286219 -26.234805 1.647541 26.491104 1.446184 1.508564 -0.000160 0.002778 -443817.000000 0 0 1
-3.201919 -24.935805 2.221641 25.238509 1.443089 1.482656 0.010317 -0.001188 176056.000000 0 0 1
-4.154919 -24.429105 3.365541 25.007427 1.402328 1.435805 -0.006164 0.001936 45689.600000 0 0 1
-3.988119 -25.087905 4.587441 25.813808 1.413150 1.392135 -0.008102 0.000846 -179294.000000 0 0 1
-4.808419 -24.403805 5.494641 25.472685 1.376253 1.353380 -0.017420 0.002421 -424154.000000 0 0 1
-5.431119 -25.325205 6.484141 26.700321 1.359541 1.325495 -0.020253 0.003253 -555577.000000 0 0 1
-4.581719 -25.757105 7.525241 27.222231 1.394756 1.290711 -0.029883 -0.000452 -38947.800000 0 0 1
-5.315219 -26.674205 8.313741 28.440869 1.374108 1.274148 -0.032132 0.003789 165864.000000 0 0 1
-4.642619 -27.160905 9.625241 29.187565 1.401502 1.234734 -0.035412 0.007681 206639.000000 0 0 1
-4.302819 -26.246405 10.704841 28.670222 1.408302 1.188148 -0.037278 0.005806 1076290.000000 0 0 1
-5.493919 -25.961005 11.468141 28.908047 1.362251 1.162865 -0.036006 0.001814 788405.000000 0 0 1
-5.139219 -24.957505 12.568641 28.412310 1.367716 1.112561 -0.027615 0.002758 528469.000000 0 0 1
-4.178919 -25.421605 13.505841 29.088298 1.407869 1.087947 -0.025286 -0.003226 91426.000000 0 0 1
-3.531419 -24.441205 14.263841 28.518425 1.427303 1.047010 -0.028887 -0.002425 -361265.000000 0 0 1
-2.408119 -24.933605 15.141741 29.270395 1.474514 1.027097 -0.023669 -0.002770 -292226.000000 0 0 1
-2.932019 -25.608505 16.262241 30.477086 1.456799 1.007958 -0.019295 -0.006494 -648086.000000 0 0 1
-1.994819 -26.455105 16.772441 31.387365 1.495535 1.007035 -0.025813 0.000701 -579230.000000 0 0 1
-2.356219 -26.904905 18.218541 32.578228 1.483443 0.977346 -0.021918 -0.002550 -29431.200000 0 0 1
-2.389319 -25.883805 19.196641 32.313948 1.478748 0.934691 -0.011353 -0.003362 -55198.900000 0 0 1
-2.660919 -26.362705 20.523741 33.515618 1.470202 0.911750 0.006795 -0.004772 141032.000000 0 0 1
-2.712919 -25.243305 21.576841 33.318830 1.463736 0.866383 0.015694 -0.008180 -18283.400000 0 0 1
-2.521819 -25.686805 22.939941 34.531325 1.472934 0.844209 0.009258 -0.013634 -4025.440000 0 0 1
-2.703919 -24.585105 23.904441 34.397106 1.461255 0.802439 0.017805 -0.015992 547394.000000 0 0 1
-1.655719 -23.402905 23.816641 33.431568 1.500166 0.777884 0.007814 -0.012064 436425.000000 0 0 1
-1.951619 -22.581505 22.683241 32.066534 1.484585 0.785011 0.022543 -0.007200 -16042.500000 0 0 1
-0.938419 -21.616805 22.494541 31.211717 1.527412 0.765973 0.017886 -0.007107 -535650.000000 0 0 1
-1.435719 -20.507805 21.479541 29.732172 1.500902 0.763480 0.008278 0.011930 97761.600000 0 0 1
-2.214119 -19.460505 22.057841 29.498507 1.457508 0.726112 0.010131 -0.005511 665709.000000 0 0 1
-3.476219 -19.874105 22.603941 30.298553 1.397636 0.728701 0.026008 -0.011465 -303867.000000 0 0 1
-4.689519 -19.667905 21.678641 29.644250 1.336732 0.750580 0.023883 -0.008772 -435369.000000 0 0 1
-4.553219 -20.464905 20.504241 29.325212 1.351873 0.796516 0.028137 -0.008427 -11465.600000 0 0 1
-5.141919 -21.744005 20.635141 30.414637 1.338587 0.825131 0.026331 -0.011096 -169065.000000 0 0 1
-5.126019 -22.451605 19.286941 30.038920 1.346330 0.873607 0.017944 -0.010528 -57410.100000 0 0 1
-5.537519 -23.784005 19.292641 31.121520 1.342046 0.902164 0.030245 -0.013878 -305648.000000 0 0 1
-5.446819 -24.386505 17.986141 30.787509 1.351049 0.946899 0.021962 -0.013416 -31949.300000 0 0 1
-6.064519 -25.802205 17.946941 32.009762 1.339948 0.975601 -0.000841 -0.015932 292541.000000 0 0 1
-7.473519 -25.788305 17.857341 32.245539 1.288721 0.983884 0.011945 -0.013259 -339280.000000 0 0 1
-8.101919 -27.016605 17.575041 33.232817 1.279444 1.013556 0.007358 -0.014816 315168.000000 0 0 1
-9.616019 -26.978505 17.899941 33.774479 1.228402 1.012214 0.019609 -0.014117 -471101.000000 0 0 1
-10.431319 -26.247205 17.005641 32.968470 1.192511 1.028837 0.023229 -0.014483 -724987.000000 0 0 1
-11.791519 -26.419305 17.217041 33.666691 1.151005 1.033987 0.026389 -0.008329 -420051.000000 0 0 1
-12.346019 -25.554805 18.395441 33.821066 1.120744 0.995713 0.021384 -0.005270 -963293.000000 0 0 1
-12.656219 -24.211705 18.037541 32.737432 1.089129 0.987263 0.019438 -0.004261 -184027.000000 0 0 1
-12.848819 -23.265405 19.070441 32.711664 1.066211 0.948397 0.008123 0.006185 11158.900000 0 0 1
-11.577819 -22.738105 19.784241 32.287513 1.099831 0.911258 -0.003660 0.003293 28173.000000 0 0 1
-10.739119 -23.677505 20.378841 33.034075 1.144988 0.905994 0.001597 0.002278 -673772.000000 0 0 1
-9.412119 -23.281405 20.210241 32.234541 1.186609 0.893133 0.025667 -0.007050 -19843.300000 0 0 1
-8.334119 -24.114605 20.973741 33.028314 1.238043 0.882758 0.017944 -0.015656 258319.000000 0 0 1
-8.419219 -23.936605 22.372941 33.828875 1.232581 0.848171 0.023894 -0.006605 163814.000000 0 0 1
-7.401519 -24.589305 23.121541 34.554624 1.278417 0.837759 0.016015 -0.005163 285761.000000 0 0 1
-7.516919 -24.232205 24.593941 35.335050 1.270005 0.800955 0.015572 -0.007797 -34962.500000 0 0 1
-6.562219 -24.868005 25.407941 36.153062 1.312796 0.791487 0.007510 -0.013998 -149616.000000 0 0 1
-6.659119 -24.455605 26.771641 36.866533 1.304947 0.758051 0.015471 -0.010980 -315661.000000 0 0 1
-5.631419 -25.172005 27.651641 37.814759 1.350703 0.750659 -0.005521 -0.012174 -805577.000000 0 0 1
-4.355419 -24.780305 27.291241 37.119335 1.396812 0.744791 0.006671 -0.013582 -992748.000000 0 0 1
-3.369419 -24.827505 28.298841 37.796592 1.435907 0.724676 0.012618 -0.013671 -910422.000000 0 0 1
-2.018919 -24.498805 27.774241 37.090106 1.488573 0.724499 0.006382 -0.013394 -1718300.000000 0 0 1
-1.984519 -23.114105 27.407841 35.908076 1.485149 0.702425 0.012249 -0.008454 577519.000000 0 0 1
-0.703819 -22.518905 27.132741 35.267295 1.539552 0.692980 0.013056 -0.018118 901832.000000 0 0 1
0.282981 -22.285005 28.314741 36.033680 -1.558099 0.666831 0.017893 -0.011924 -344699.000000 0 0 1
0.841481 -23.458905 28.770441 37.131747 -1.534941 0.684365 0.016661 -0.003119 417319.000000 0 0 1
1.849381 -23.124305 29.750741 37.726122 -1.490991 0.662271 0.007921 -0.009750 322783.000000 0 0 1
2.612981 -24.315705 30.335041 38.965317 -1.463746 0.678502 0.021812 -0.021732 -960454.000000 0 0 1
3.386481 -24.977205 29.381541 38.711807 -1.436035 0.709049 0.020621 -0.032411 -165379.000000 0 0 1
4.023481 -26.087205 29.959941 39.929046 -1.417770 0.722236 0.001879 -0.013908 -314075.000000 0 0 1
5.351581 -25.798505 30.766741 40.506723 -1.366260 0.708181 -0.010762 -0.016225 617878.000000 0 0 1
6.507481 -25.343505 30.079441 39.867447 -1.319455 0.715925 -0.024349 -0.012974 504117.000000 0 0 1
6.949181 -26.183805 29.028141 39.705362 -1.311377 0.750880 -0.024394 -0.008923 -1629800.000000 0 0 1
8.006281 -25.566205 28.157141 38.865872 -1.267311 0.760532 -0.033019 -0.011246 -380812.000000 0 0 1
7.494081 -24.587105 27.276441 37.479211 -1.274944 0.755724 -0.024884 -0.007470 213386.000000 0 0 1
8.638581 -24.099605 26.614441 36.928912 -1.226611 0.765994 -0.037829 0.007378 83634.700000 0 0 1
8.350581 -22.985605 25.603041 35.406016 -1.222326 0.762478 -0.020988 0.013229 -207393.000000 0 0 1
7.599281 -23.412905 24.503041 34.732006 -1.256947 0.787684 -0.016950 0.015520 -172607.000000 0 0 1
7.286881 -22.295805 23.710341 33.352389 -1.254912 0.780014 -0.018500 0.022194 -325698.000000 0 0 1
6.488481 -22.492205 22.436841 32.425476 -1.289944 0.806608 -0.005783 0.027984 -542185.000000 0 0 1
7.191781 -23.309105 21.464941 32.492765 -1.271524 0.849170 -0.015343 0.035543 632142.000000 0 0 1
6.580681 -23.436405 20.148941 31.599846 -1.297056 0.879381 -0.008516 0.024438 298629.000000 0 0 1
7.481181 -24.398605 19.346941 32.024430 -1.273274 0.922122 0.002513 0.012413 3138.800000 0 0 1
8.788181 -23.991005 19.090341 31.894225 -1.219665 0.929104 0.015798 0.005644 -786105.000000 0 0 1
9.519581 -24.923805 18.327241 32.368291 -1.205949 0.968896 0.033879 -0.005150 1007830.000000 0 0 1
10.900081 -24.263205 17.934541 32.080565 -1.148572 0.977560 0.024432 -0.006210 769333.000000 0 0 1
10.775581 -23.497205 16.718841 30.785572 -1.140822 0.996703 0.027765 0.000005 222396.000000 0 0 1
12.071281 -23.078805 16.308741 30.729824 -1.088882 1.011354 0.037254 -0.012247 145447.000000 0 0 1
-12.168319 22.845661 11.134641 28.177517 -1.081386 1.164554 0.014242 0.004716 195941.000000 0 0 1
-13.147719 21.849261 10.829541 27.704362 -1.029094 1.169191 -0.006148 0.003305 506635.000000 0 0 1
-12.560919 20.669161 10.269941 26.276655 -1.024725 1.169253 0.004502 -0.001011 -326198.000000 0 0 1
-13.524919 19.988061 9.332941 25.875661 -0.975914 1.201795 -0.006733 0.006905 -1386050.000000 0 0 1
-13.717219 20.855461 8.178041 26.267712 -0.989008 1.254199 -0.005785 0.009445 228817.000000 0 0 1
-14.532119 20.264261 7.153541 25.942165 -0.948666 1.291427 0.002942 0.009333 1006320.000000 0 0 1
-16.052719 20.191861 7.548741 26.877212 -0.899106 1.286106 -0.013144 0.015444 -81452.600000 0 0 1
-16.307619 19.132961 8.502441 26.538654 -0.864950 1.244666 -0.020939 0.016141 -148265.000000 0 0 1
-17.686919 19.071861 8.781441 27.453173 -0.823057 1.245204 -0.002489 0.017941 -104313.000000 0 0 1
-18.026619 17.918561 9.753841 27.224460 -0.782392 1.204377 -0.016400 0.017215 -59282.700000 0 0 1
-17.750119 16.620961 9.251041 26.017395 -0.752558 1.207271 -0.025301 0.021096 200673.000000 0 0 1
-18.326319 15.666561 10.118941 26.147430 -0.707313 1.173425 -0.012035 0.011746 -270836.000000 0 0 1
-17.382319 14.964461 11.123641 25.491479 -0.710789 1.119239 -0.009263 0.009182 601753.000000 0 0 1
-16.506119 14.004561 10.435841 24.030948 -0.703592 1.121572 -0.028472 0.012793 996475.000000 0 1 0
-15.767819 13.039361 11.202541 23.326937 -0.690965 1.069867 -0.031272 0.002240 241271.000000 0 1 0
-16.579119 12.069461 12.120741 23.821239 -0.629266 1.036982 -0.017993 -0.008164 150305.000000 0 1 0
-17.565819 11.344361 11.389841 23.811363 -0.573431 1.072037 -0.024855 -0.006042 602465.000000 0 1 0
-18.518719 10.630861 12.185141 24.585277 -0.521128 1.052239 0.000154 -0.008654 325393.000000 0 1 0
-19.565619 9.875961 11.324741 24.669775 -0.467449 1.093867 0.007694 -0.019260 -396755.000000 0 1 0
-19.082419 8.870561 10.402741 23.474296 -0.435139 1.111682 -0.001684 -0.019075 265163.000000 0 1 0
-18.739119 9.445561 9.155941 22.895512 -0.466887 1.159387 0.002494 -0.007329 -605960.000000 0 1 0
-19.876519 9.709261 8.143941 23.572644 -0.454388 1.218043 0.011627 -0.004164 -552888.000000 0 1 0
-20.127619 8.578561 7.344541 23.079321 -0.402894 1.246934 -0.006740 -0.011431 314389.000000 0 1 0
-20.987119 8.892261 6.263441 23.638151 -0.400770 1.302622 0.002003 -0.003300 -12650.500000 0 1 0
-21.396119 7.624261 5.450941 23.358853 -0.342310 1.335268 0.015205 -0.001185 -516112.000000 0 1 0
-22.143219 6.707661 6.207041 23.955004 -0.294135 1.308693 0.023714 0.000271 -33564.300000 0 1 0
-21.775619 5.369361 5.944741 23.202318 -0.241754 1.311694 0.018395 -0.002736 -720237.000000 0 1 0
-22.807219 4.263061 6.112141 23.993774 -0.184785 1.313219 0.036106 0.001191 160669.000000 0 1 0
-23.964919 4.299161 5.269341 24.911164 -0.177506 1.357661 0.045023 -0.004086 1005750.000000 0 1 0
-24.746719 3.105361 5.266141 25.490696 -0.124833 1.362707 0.050559 -0.008877 -405798.000000 0 0 1
-25.781269 3.143661 4.149841 26.301666 -0.121337 1.412356 0.047860 -0.008150 -700525.000000 0 0 1
-25.345049 2.914161 2.839741 25.669592 -0.114477 1.459943 0.048818 -0.011306 277094.000000 0 0 1
-26.424609 2.928761 1.915041 26.655299 -0.110384 1.498890 0.050550 -0.003935 85244.700000 0 0 1
-26.023729 3.034661 0.420441 26.203443 -0.116087 1.554750 0.054012 -0.007059 -114631.000000 0 0 1
-25.442319 4.258161 -0.062659 25.796268 -0.165828 1.573225 0.051688 -0.013921 585268.000000 0 0 1
-25.366279 4.414661 -1.482759 25.790229 -0.172311 1.628321 0.062285 -0.006263 -400862.000000 0 0 1
-26.680899 4.964461 -2.101859 27.220104 -0.183964 1.648090 0.061992 -0.014971 394989.000000 0 0 1
-27.685949 3.962561 -2.191859 28.053839 -0.142160 1.649006 0.044314 -0.011575 -98223.900000 0 0 1
-28.960729 4.532961 -2.177159 29.394074 -0.155261 1.644932 0.019640 -0.005732 -107973.000000 0 0 1
-30.122029 3.502261 -2.393459 30.419255 -0.115749 1.649560 0.017092 -0.000257 1198.840000 0 0 1
-30.222259 3.075861 -3.712159 30.604346 -0.101425 1.692391 0.011404 -0.001136 49729.900000 0 0 1
-30.946069 1.904861 -3.733259 31.228591 -0.061477 1.690629 0.024351 0.000828 -481487.000000 0 0 1
-30.969089 1.271761 -5.178959 31.424886 -0.041042 1.736356 0.021829 0.000102 -412649.000000 0 0 1
-29.673029 0.927361 -5.642359 30.218949 -0.031242 1.758615 0.030393 -0.008021 409096.000000 0 0 1
-29.595549 0.110761 -6.802059 30.367364 -0.003742 1.796705 0.029084 -0.013171 -307817.000000 0 0 1
-30.069909 0.777061 -8.104559 31.152642 -0.025836 1.833980 0.020820 -0.005904 -432637.000000 0 0 1
-31.455729 0.966361 -8.221359 32.526719 -0.030712 1.826325 0.008207 -0.004465 -13073.400000 0 0 1
-31.866829 1.502861 -9.469059 33.277867 -0.047126 1.859328 0.007081 0.000005 -863520.000000 0 0 1
-33.335479 1.860661 -9.316959 34.662976 -0.055758 1.842930 0.020157 0.001783 -679026.000000 0 0 1
-33.648869 2.857561 -8.306859 34.776658 -0.084720 1.811991 0.007042 0.010914 164915.000000 0 0 1
34.847531 3.093761 -8.143759 35.919947 0.088548 1.799505 0.013022 0.012300 -197678.000000 0 0 1
34.419713 3.926061 -6.907459 35.324830 0.113573 1.767606 0.021336 0.004357 292446.000000 0 0 1
33.010561 3.883161 -6.700259 33.906777 0.117096 1.769714 0.029857 -0.004299 714102.000000 0 0 1
32.711601 4.557161 -5.458059 33.475468 0.138422 1.734574 0.021728 -0.006911 582776.000000 0 0 1
31.276371 4.304761 -4.887959 31.947371 0.136777 1.724400 0.030513 -0.012111 596550.000000 0 0 1
31.282711 3.037461 -4.235259 31.713902 0.096794 1.704742 0.033925 -0.012538 -435209.000000 0 0 1
30.173561 2.305661 -4.619659 30.612107 0.076265 1.722285 0.049043 -0.010256 -726257.000000 0 0 1
30.138331 0.961261 -3.881059 30.402395 0.031884 1.698802 0.048193 0.005978 -286751.000000 0 0 1
31.235431 0.145461 -4.203259 31.517308 0.004657 1.704558 0.044600 -0.006324 -75489.600000 0 0 1
31.078581 -1.158739 -3.681959 31.317371 -0.037267 1.688638 0.043815 0.004441 -215774.000000 0 0 1
32.373311 -1.966939 -3.726659 32.646410 -0.060683 1.685198 0.040352 -0.002106 -111149.000000 0 0 1
32.160451 -3.361539 -3.418559 32.515859 -0.104146 1.676126 0.026836 0.005975 129469.000000 0 0 1
33.421291 -3.982439 -3.262959 33.815520 -0.118600 1.667440 0.040927 0.005853 -31258.200000 0 0 1
33.306701 -5.491639 -2.971059 33.886895 -0.163411 1.658585 0.015504 0.014079 -54946.500000 0 0 1
32.848451 -5.715739 -1.634959 33.382084 -0.172278 1.619793 0.011684 0.022432 71863.400000 0 0 1
32.967931 -7.101939 -1.214759 33.746076 -0.212177 1.606801 0.019026 0.014213 -232281.000000 0 0 1
32.609771 -7.460339 0.219341 33.452981 -0.224906 1.564240 0.008554 0.017072 -1183430.000000 0 0 1
31.247571 -7.392139 0.414441 32.112711 -0.232296 1.557890 0.010269 0.013648 -976351.000000 0 0 1
30.822871 -7.542139 1.783841 31.782312 -0.239978 1.514640 0.007655 0.004469 -232623.000000 0 0 1
30.694031 -9.014939 2.263741 32.070504 -0.285670 1.500151 0.014972 0.000324 -58493.600000 0 0 1
29.587671 -9.758539 1.753541 31.204716 -0.318583 1.514572 0.014856 -0.011020 382515.000000 0 0 1
28.377081 -9.563139 2.452141 30.045388 -0.325049 1.489091 0.017028 -0.013857 -129032.000000 0 0 1
27.238031 -10.508639 1.882841 29.255545 -0.368212 1.506393 0.020030 -0.015610 111522.000000 0 0 1
25.963891 -10.432339 2.510441 28.093765 -0.382059 1.481318 0.029132 -0.021192 1069860.000000 0 0 1
25.110371 -9.408539 1.932241 26.884659 -0.358497 1.498863 0.036017 -0.016860 47799.100000 0 0 1
24.489301 -9.655139 0.532041 26.329274 -0.375548 1.550588 0.024699 -0.010146 -1075600.000000 0 0 1
25.467031 -9.559239 -0.454359 27.205793 -0.359084 1.587498 0.020651 -0.013806 -3736.930000 0 0 1
24.964641 -9.461339 -1.753759 26.754923 -0.362264 1.636392 0.012003 -0.003466 -375079.000000 0 0 1
24.407301 -10.767939 -2.340059 26.779483 -0.415493 1.658290 0.005577 0.006611 -958372.000000 0 0 1
23.103201 -11.025939 -1.915059 25.670931 -0.445280 1.645466 0.012155 0.001811 -588631.000000 0 0 1
22.890601 -12.373539 -2.305459 26.122772 -0.495560 1.659166 0.002745 0.002444 -492194.000000 0 0 1
21.535801 -12.887739 -1.822659 25.163597 -0.539267 1.643292 0.011129 0.003256 -163830.000000 0 0 1
20.423101 -12.360139 -2.533359 24.006124 -0.544237 1.676523 0.003591 0.004595 -1110810.000000 0 1 0
19.281401 -12.887239 -2.027559 23.280128 -0.589186 1.658001 0.008371 0.006841 -675977.000000 0 1 0
18.038901 -12.484039 -2.917559 22.130642 -0.605379 1.703015 -0.006638 0.008232 406580.000000 0 1 0
18.066401 -13.159739 -4.199359 22.742212 -0.629539 1.756512 -0.003863 -0.004057 210923.000000 0 1 0
17.581701 -12.349939 -5.219259 22.110583 -0.612356 1.809098 0.013325 -0.000318 -227568.000000 0 1 0
17.593301 -12.941339 -6.613459 22.819736 -0.634210 1.864828 0.005883 -0.003294 -48938.200000 0 1 0
16.675401 -14.014039 -6.848159 22.833300 -0.698895 1.875405 0.003113 -0.009008 580674.000000 0 1 0
16.814701 -14.502339 -8.180259 23.663657 -0.711695 1.923769 0.007874 -0.009416 -372651.000000 0 1 0
15.907001 -15.666639 -8.527759 23.899768 -0.777786 1.935651 0.013793 -0.011344 -122659.000000 0 1 0
14.513301 -15.402739 -8.469459 22.795000 -0.815121 1.951473 0.015270 -0.011028 300860.000000 0 1 0
13.681501 -16.253139 -9.191759 23.148141 -0.871096 1.979134 0.016865 -0.010089 -498478.000000 0 1 0
13.598201 -16.058339 -10.761759 23.634652 -0.868163 2.043548 0.013126 -0.008098 -947995.000000 0 1 0
12.845801 -15.011039 -11.333959 22.777281 -0.862970 2.091625 0.008079 -0.007272 168695.000000 0 1 0
13.311601 -13.775839 -10.893059 22.037041 -0.802535 2.087834 0.011179 -0.002354 -223992.000000 0 1 0
13.496001 -12.663239 -11.968659 22.039702 -0.753575 2.144861 0.032162 0.000085 -311536.000000 0 1 0
14.487401 -13.014639 -12.890159 23.354267 -0.731898 2.155485 0.021712 0.008645 -224458.000000 0 1 0
14.429701 -12.107739 -14.011259 23.476137 -0.698123 2.210341 0.031699 -0.001568 -66440.700000 0 1 0
15.584001 -12.096439 -15.062259 24.820487 -0.660065 2.222885 0.030497 0.001136 189477.000000 0 1 0
15.692601 -13.313139 -15.770659 25.927034 -0.703547 2.224677 0.023357 0.005534 -73796.700000 0 0 1
16.637101 -13.214039 -16.809659 27.091855 -0.671226 2.240137 0.021180 0.005013 -602328.000000 0 0 1
17.800701 -14.156339 -16.631159 28.175563 -0.671849 2.202188 0.023905 -0.000745 -964585.000000 0 0 1
18.730001 -13.841039 -15.643259 28.055282 -0.636409 2.162272 0.020543 0.001216 -207980.000000 0 0 1
19.753901 -14.807139 -15.604959 29.205868 -0.643233 2.134486 0.016795 0.003678 -285832.000000 0 0 1
20.709601 -14.584039 -14.429459 29.151176 -0.613550 2.088616 0.000540 0.005558 -48142.200000 0 0 1
21.369701 -13.335039 -14.265759 28.948217 -0.557892 2.086104 0.000544 0.000271 -162864.000000 0 0 1
22.232501 -13.344039 -13.188659 29.091033 -0.540570 2.041326 -0.003729 0.009000 -465022.000000 0 0 1
22.975201 -12.004539 -13.062659 29.027605 -0.481485 2.037571 0.019239 0.000777 -441012.000000 0 0 1
22.130501 -10.884239 -12.799959 27.786052 -0.457083 2.049536 0.013513 -0.000821 326358.000000 0 0 1
22.702901 -9.613239 -13.023859 27.882916 -0.400546 2.056794 0.027082 -0.002814 231567.000000 0 0 1
23.942701 -9.122439 -12.213659 28.383891 -0.364030 2.015624 0.026417 -0.002669 640670.000000 0 0 1
25.131511 -9.879139 -12.378959 29.705704 -0.374542 2.000630 0.011742 0.004512 336717.000000 0 0 1
25.989651 -9.782239 -11.262859 29.966751 -0.359989 1.956105 -0.002505 0.003270 -785180.000000 0 0 1
27.330821 -10.446139 -11.476259 31.429288 -0.365078 1.944585 -0.014376 0.012316 -634048.000000 0 0 1
28.234051 -9.766639 -12.327759 32.319074 -0.333033 1.962149 -0.034212 0.014340 -756101.000000 0 0 1
29.262011 -10.586139 -12.674959 33.600390 -0.347122 1.957596 -0.035528 0.020659 -1098650.000000 0 0 1
29.920031 -10.039239 -13.979559 34.516991 -0.323731 1.987781 -0.037256 0.025620 -454877.000000 0 0 1
29.307561 -10.343639 -15.228159 34.609548 -0.339286 2.026394 -0.034796 0.017197 651211.000000 0 0 1
30.296311 -10.317039 -16.268759 35.902371 -0.328220 2.041080 -0.031229 0.016144 -63705.400000 0 0 1
29.897381 -11.143239 -17.504859 36.392929 -0.356767 2.072587 -0.052170 0.016629 22630.800000 0 0 1
28.720141 -10.734139 -18.207759 35.659371 -0.357674 2.106682 -0.025231 0.005260 486887.000000 0 0 1
28.786131 -9.448839 -18.875959 35.696270 -0.317162 2.127975 -0.026907 0.008504 84396.100000 0 0 1
27.431351 -8.960039 -19.466459 34.809544 -0.315710 2.164250 -0.064316 0.002285 251268.000000 0 0 1
26.927331 -9.531439 -20.609859 35.223512 -0.340206 2.195820 -0.048726 0.006518 292755.000000 0 0 1
25.541441 -9.303939 -20.828459 34.245484 -0.349329 2.224600 -0.003396 0.010470 486863.000000 0 0 1
25.125191 -9.761439 -22.247459 34.950112 -0.370564 2.260812 0.008796 0.002100 -91730.200000 0 0 1
24.881041 -11.138439 -22.325959 35.236053 -0.420913 2.257008 0.002756 0.000887 142413.000000 0 0 1
24.000801 -11.423739 -23.391259 35.407503 -0.444242 2.292454 0.008461 -0.005130 -586873.000000 0 0 1
23.949801 -12.929539 -23.753859 36.124946 -0.495025 2.288355 0.005402 0.002690 200173.000000 0 0 1
25.024651 -13.487339 -24.477059 37.513569 -0.494329 2.281656 -0.002251 0.008008 -598734.000000 0 0 1
26.236501 -13.552439 -23.806359 37.931060 -0.476799 2.249291 -0.013699 0.016223 -668307.000000 0 0 1
27.373921 -14.351439 -24.495259 39.437458 -0.482878 2.240963 -0.024363 0.022845 130339.000000 0 0 1
27.762361 -13.735939 -25.691959 40.243030 -0.459454 2.263240 -0.026331 0.011477 598954.000000 0 0 1
29.089001 -14.218139 -25.966989 41.504337 -0.454632 2.246755 -0.039187 0.008328 471531.000000 0 0 1
29.752431 -13.603339 -27.212659 42.553340 -0.428840 2.264638 -0.030309 0.005806 38000.600000 0 0 1
29.271991 -14.133639 -28.437049 43.188829 -0.449824 2.289534 -0.022733 -0.003525 132848.000000 0 0 1
30.010041 -13.564339 -29.472609 44.195345 -0.424510 2.300799 -0.020355 -0.002921 -45822.900000 0 0 1
30.109311 -14.480139 -30.698729 45.372425 -0.448267 2.313924 -0.024612 -0.010371 117750.000000 0 0 1
31.015701 -15.543739 -30.457499 46.165363 -0.464573 2.291279 -0.019447 -0.012217 -95330.900000 0 0 1
31.208721 -16.446339 -31.521339 47.308151 -0.484997 2.300030 -0.031830 -0.009065 -284191.000000 0 0 1
30.002081 -17.114439 -32.214509 47.231382 -0.518402 2.321368 -0.034783 -0.004883 37412.000000 0 0 1
29.368361 -16.279439 -33.161039 47.192958 -0.506153 2.349938 -0.035623 -0.010090 196211.000000 0 0 1
28.246011 -16.876239 -33.803669 47.173431 -0.538560 2.369687 -0.022494 -0.014313 202864.000000 0 0 1
27.495721 -15.897539 34.507480 46.898962 -0.524223 0.743973 0.006661 -0.011008 -4840.700000 0 0 1
26.712931 -14.870039 -34.126354 45.818192 -0.507943 2.411063 0.014649 -0.015834 303027.000000 0 0 1
27.461061 -13.666139 -33.854029 45.683350 -0.461770 2.405442 -0.011018 -0.004037 -267566.000000 0 0 1
26.663431 -12.391639 -33.500599 44.573326 -0.435046 2.421256 0.001574 -0.004367 -447035.000000 0 0 1
25.980621 -11.770739 -34.551445 44.803407 -0.425394 2.451487 0.027536 0.001063 -281701.000000 0 0 1
25.297691 -10.694739 -33.983379 43.694629 -0.399968 2.461870 0.011500 -0.008499 -95768.300000 0 0 1
20.552281 -30.375005 9.132241 37.794643 -0.975936 1.326753 0.024678 -0.004589 134518.000000 0 0 1
21.015081 -29.765705 7.929741 37.289564 -0.956044 1.356507 0.038788 -0.007608 132425.000000 0 0 1
22.169981 -30.397005 7.415641 38.346808 -0.940644 1.376187 0.027392 -0.011223 -48791.800000 0 0 1
22.567781 -30.046105 5.977441 38.050006 -0.926588 1.413049 0.013244 -0.003241 17263.100000 0 0 1
22.941581 -28.670205 5.892341 37.188929 -0.895940 1.411682 -0.000358 0.017784 173223.000000 0 0 1
23.478381 -28.376505 4.627441 37.119720 -0.879577 1.445809 -0.012664 0.022670 -119321.000000 0 0 1
23.492581 -26.834405 4.321241 35.925754 -0.851703 1.450222 -0.024488 0.024765 -18864.100000 0 0 1
24.409081 -26.148405 5.142841 36.138499 -0.819787 1.428002 -0.028489 0.028544 147151.000000 0 0 1
24.214681 -24.729105 4.978441 34.966617 -0.795908 1.427934 -0.034257 0.033531 -138117.000000 0 0 1
24.882281 -23.824705 6.012441 34.969900 -0.763689 1.398006 -0.036145 0.032796 1382500.000000 0 0 1
26.293981 -23.542705 5.771741 35.762346 -0.730248 1.408696 -0.028136 0.028436 1580470.000000 0 0 1
26.923581 -22.644205 6.696841 35.811827 -0.699278 1.382688 -0.013747 0.016401 -35916.700000 0 0 1
26.354781 -21.218805 6.755141 34.502813 -0.677856 1.373738 -0.010629 0.026841 -415458.000000 0 0 1
26.481881 -20.593705 5.531441 33.999817 -0.660965 1.407380 -0.007837 0.036420 39897.200000 0 0 1
25.846681 -19.355305 5.551641 32.764302 -0.642765 1.400533 -0.004790 0.028861 -332141.000000 0 0 1
26.023581 -18.530205 4.327041 32.238464 -0.618770 1.436170 -0.021614 0.038931 -761139.000000 0 0 1
27.324081 -18.153005 4.012141 33.048968 -0.586403 1.449096 0.006759 0.021545 -563689.000000 0 0 1
27.402981 -17.509005 2.742841 32.634519 -0.568565 1.486650 -0.002601 0.036070 31505.500000 0 0 1
28.708881 -16.706505 2.591241 33.316988 -0.527025 1.492942 0.006990 0.008106 193782.000000 0 0 1
28.572081 -15.477105 3.273441 32.659149 -0.496438 1.470397 0.016139 0.001393 -746630.000000 0 0 1
29.823081 -15.071305 3.666741 33.615553 -0.467924 1.461500 0.022442 0.000715 -987983.000000 0 0 1
29.743481 -13.816405 4.554641 33.110610 -0.434862 1.432800 0.029989 -0.006924 64545.600000 0 0 1
29.189481 -14.197005 5.797641 32.972616 -0.452688 1.394045 0.021791 -0.002060 73494.400000 0 0 1
28.984381 -13.022605 6.594241 32.452529 -0.422269 1.366175 0.009659 -0.003727 -381527.000000 0 0 1
28.321681 -13.357205 7.929341 32.301811 -0.440691 1.322785 0.028264 -0.002933 -713146.000000 0 0 1
26.930081 -13.505605 7.828541 31.127427 -0.464852 1.316567 0.017863 0.005851 -424216.000000 0 0 1
26.280281 -13.651305 9.074241 30.973427 -0.479087 1.273466 0.022948 0.010299 125610.000000 0 0 1
26.529081 -14.910205 9.980941 32.026950 -0.512034 1.253876 0.030540 -0.001802 376145.000000 0 0 1
27.747881 -14.885305 10.750541 33.272982 -0.492379 1.241792 0.017350 0.005438 691492.000000 0 0 1
27.901181 -16.120205 11.463841 34.201704 -0.523907 1.228997 0.026070 -0.002152 -221311.000000 0 0 1
28.637881 -16.014205 12.817041 35.225836 -0.509876 1.198395 0.020599 -0.002256 106546.000000 0 0 1
29.983281 -15.612305 12.779441 36.139388 -0.480070 1.209363 0.013406 0.002097 -271679.000000 0 0 1
30.629181 -15.789405 14.012341 37.199432 -0.475972 1.184585 0.025675 0.000470 268810.000000 0 0 1
32.173781 -15.723105 13.974641 38.440328 -0.454561 1.198730 0.021132 -0.011204 175367.000000 0 0 1
32.772981 -14.462205 13.955841 38.444625 -0.415582 1.199298 0.022052 -0.005772 1023330.000000 0 0 1
34.126881 -14.383405 14.446641 39.752129 -0.398876 1.198862 0.018394 -0.009580 807539.000000 0 0 1
34.744381 -12.981905 14.388741 39.783637 -0.357578 1.200733 0.016714 -0.003261 -265198.000000 0 0 1
-34.454139 -12.730505 13.146041 39.012457 0.353932 1.227099 0.022912 -0.004559 248593.000000 0 0 1
-33.906739 -11.444605 13.064941 38.096438 0.325524 1.220747 0.030064 0.000329 -106323.000000 0 0 1
-32.631539 -11.361905 12.174741 36.635154 0.335060 1.232030 0.026131 -0.001078 1874560.000000 0 0 1
-31.440539 -12.149505 12.550341 35.967055 0.368752 1.214357 0.011930 0.004358 1695420.000000 0 0 1
-31.470839 -13.478105 12.004141 36.279091 0.404639 1.233557 0.004638 -0.000844 141269.000000 0 0 1
-30.234839 -14.343205 12.381241 35.681482 0.442953 1.216433 -0.000448 -0.003127 555929.000000 0 0 1
-29.017839 -14.149405 11.697641 34.337668 0.453687 1.223172 0.001133 -0.003727 -118845.000000 0 0 1
-28.042339 -15.074805 12.073341 34.049788 0.493252 1.208333 0.002022 -0.000287 -913742.000000 0 0 1
-26.749239 -14.970505 11.312841 32.674427 0.510230 1.217248 0.002718 0.001178 -925887.000000 0 0 1
-26.774039 -15.215705 9.924941 32.355390 0.516785 1.259022 -0.001549 0.002944 -43038.100000 0 0 1
-25.484639 -15.192805 9.347441 31.107279 0.537588 1.265589 -0.001711 0.002331 18727.700000 0 0 1
-25.435939 -14.970905 7.825241 30.534397 0.531975 1.311628 0.008822 0.010450 -176323.000000 0 0 1
-25.865039 -16.141305 7.042541 31.291202 0.557922 1.343787 0.018347 0.011976 239052.000000 0 0 1
-25.613239 -15.875905 5.665341 30.662329 0.554874 1.384963 0.022598 0.010865 -550608.000000 0 0 1
-26.018439 -17.045705 4.735141 31.463261 0.579980 1.419725 0.013422 0.011239 -19806.600000 0 0 1
-27.417339 -17.226505 4.619441 32.707830 0.560974 1.429089 -0.002675 -0.001369 -19090.000000 0 0 1
-27.800639 -18.312605 3.825741 33.509153 0.582475 1.456377 0.003960 0.003218 -101208.000000 0 0 1
-29.291739 -18.626405 4.070641 34.950237 0.566394 1.454062 0.014101 -0.006629 -215037.000000 0 0 1
-30.131439 -17.734305 3.397141 35.127621 0.531969 1.473936 0.020970 -0.003724 -883755.000000 0 0 1
-31.460639 -17.946105 3.775341 36.415487 0.518393 1.466936 0.032108 -0.009877 -300197.000000 0 0 1
-32.408039 -16.982205 3.012341 36.711721 0.482672 1.488650 0.021441 -0.011471 51417.300000 0 0 1
-32.471239 -17.237305 1.628641 36.798893 0.488021 1.526524 0.023481 -0.004609 -122118.000000 0 0 1
-33.362939 -16.330005 1.036741 37.159515 0.455184 1.542893 0.027113 -0.003443 -247375.000000 0 0 1
-33.866739 -16.816805 -0.386659 37.814156 0.460890 1.581022 0.030523 -0.003793 -594707.000000 0 0 1
-32.870339 -16.883605 -1.365459 36.978098 0.474502 1.607731 0.024640 -0.003726 -278717.000000 0 0 1
-33.241539 -17.526205 -2.552459 37.665406 0.485200 1.638615 0.018246 0.001919 -484310.000000 0 0 1
-32.097239 -18.233805 -3.301559 37.062173 0.516618 1.659996 0.006505 -0.002024 -233126.000000 0 0 1
-32.409239 -19.144105 -4.309359 37.887017 0.533552 1.684785 0.003541 -0.004894 -922905.000000 0 0 1
-31.258139 -19.788305 -4.724759 37.295732 0.564375 1.697821 -0.010735 0.002773 -836363.000000 0 0 1
-31.466539 -20.938705 -5.724559 38.227516 0.587144 1.721111 -0.002454 0.001708 -471756.000000 0 0 1
-31.942139 -22.111105 -5.078259 39.178947 0.605488 1.700779 0.004891 -0.000150 46582.200000 0 0 1
-32.334239 -23.100505 -6.046359 40.195706 0.620344 1.721792 0.006936 0.000150 177811.000000 0 0 1
-32.930539 -24.414905 -5.454459 41.355279 0.637978 1.703074 0.006718 0.001539 860026.000000 0 0 1
-31.980039 -25.323705 -4.780859 41.071517 0.669758 1.687464 0.011138 0.009432 382768.000000 0 0 1
-32.552339 -26.625505 -4.580259 42.303085 0.685578 1.679281 0.010817 0.018796 4460.550000 0 0 1
-31.658739 -27.690405 -3.944359 42.244434 0.718633 1.664302 -0.000679 0.017091 -445699.000000 0 0 1
-30.664539 -28.362805 -4.754959 42.040127 0.746424 1.684144 0.001305 0.015298 722167.000000 0 0 1
-29.970239 -29.370905 -4.044059 42.157083 0.775299 1.666872 -0.005760 0.007451 2257.030000 0 0 1
-29.158039 -28.996105 -2.788359 41.215777 0.782614 1.638501 -0.003297 0.008714 -1304370.000000 0 0 1
-29.873139 -28.645505 -1.617759 41.419639 0.764423 1.609864 -0.004563 0.000387 116818.000000 0 0 1
-29.005439 -28.319005 -0.505259 40.540557 0.773424 1.583260 0.011281 -0.018085 474704.000000 0 0 1
-29.688239 -28.389805 0.897241 41.087438 0.763045 1.548957 0.008785 -0.010562 33112.800000 0 0 1
-30.025039 -29.700105 1.305441 42.252850 0.779958 1.539895 0.007452 -0.000907 -537150.000000 0 0 1
-30.957639 -29.565005 2.334141 42.870889 0.762392 1.516324 0.015817 0.001454 -679471.000000 0 0 1
-31.472739 -30.937705 2.831141 44.223187 0.776826 1.506733 0.000631 0.001850 -735707.000000 0 0 1
-32.456739 -30.702905 3.831841 44.841847 0.757637 1.485240 0.000834 -0.003987 169302.000000 0 0 1
-32.953239 -31.960105 4.288041 46.105873 0.770100 1.477657 0.003055 -0.004164 91656.800000 0 0 1
-33.977039 -32.739005 3.408841 47.306467 0.766844 1.498675 -0.002431 0.000559 -471683.000000 0 0 1
-34.542439 -33.866605 4.060341 48.544962 0.775519 1.487058 0.002499 -0.004339 -52338.600000 0 0 1
34.319581 -34.347705 3.204641 48.660746 -0.785808 1.504892 0.000406 -0.000838 -833399.000000 0 0 1
33.108081 34.384161 3.910641 47.892679 0.804303 1.489051 0.002348 -0.003407 -785924.000000 0 0 1
32.441281 -34.070805 4.770841 47.286546 -0.809893 1.469732 -0.005484 -0.004256 439332.000000 0 0 1
31.728681 -32.912505 4.221241 45.910359 -0.803710 1.478721 -0.004894 -0.004609 37678.200000 0 0 1
30.606281 -33.221005 3.194841 45.283403 -0.826341 1.500186 -0.000292 -0.000606 -836871.000000 0 0 1
31.125681 -33.791805 1.998241 45.985727 -0.826445 1.527329 0.006466 -0.002842 5101.670000 0 0 1
30.502181 -33.164405 0.848741 45.066408 -0.827189 1.551962 0.009728 -0.005633 -479304.000000 0 0 1
30.947781 -33.815805 -0.489459 45.842266 -0.829654 1.581474 0.012365 -0.000833 728607.000000 0 0 1
32.115181 -33.354605 -1.143759 46.316549 -0.804327 1.595493 -0.002015 0.005424 261406.000000 0 0 1
33.346281 -33.421405 -0.445759 47.214018 -0.786523 1.580238 -0.004171 0.002867 311279.000000 0 0 1
34.675181 -33.516705 -1.258859 48.242330 -0.768411 1.596894 -0.020413 0.020639 219358.000000 0 0 1
34.848181 34.639661 -1.992859 49.175943 0.782397 1.611333 -0.013545 0.008295 207636.000000 0 0 1
-34.198439 -34.444705 -3.098059 48.637114 0.788986 1.634537 -0.015111 0.010089 -410600.000000 0 0 1
-33.749439 33.845561 -4.086659 47.971319 -0.786820 1.656089 -0.013601 0.002547 -149392.000000 0 0 1
-32.622339 33.135961 -3.591359 46.638040 -0.793209 1.647878 -0.020995 0.010588 -133642.000000 0 0 1
-32.011639 32.454261 -4.598359 45.816689 -0.792264 1.671330 -0.016989 -0.002737 -525886.000000 0 0 1
-30.726439 31.696161 -4.273259 44.351115 -0.800932 1.667297 -0.011279 -0.006290 97268.200000 0 0 1
-29.558739 32.510061 -4.108159 44.130489 -0.832912 1.664022 -0.001653 -0.004326 -352932.000000 0 0 1
-28.367339 31.823761 -3.987559 42.817734 -0.842759 1.664060 0.012931 -0.011894 -367017.000000 0 0 1
-27.958539 31.331361 -2.556159 42.069799 -0.842224 1.631594 0.005210 -0.015352 77875.800000 0 0 1
-29.015939 30.618261 -1.903859 42.225908 -0.812261 1.615899 -0.012180 -0.005329 153024.000000 0 0 1
-28.751639 30.442161 -0.555259 41.877085 -0.813950 1.584056 -0.011431 0.005438 489785.000000 0 0 1
-29.999239 29.814761 0.174941 42.295448 -0.782314 1.566660 -0.013848 0.011968 521520.000000 0 0 1
-30.267439 28.523361 -0.345459 41.591097 -0.755741 1.579102 -0.015639 0.005456 -1640420.000000 0 0 1
-31.536539 28.397061 -0.829459 42.445664 -0.733063 1.590339 -0.021159 0.001722 -1364730.000000 0 0 1
-31.859539 26.918861 -1.196859 41.726344 -0.701539 1.599484 -0.031249 0.008454 -336975.000000 0 0 1
-32.076739 25.971661 -0.160859 41.273117 -0.680611 1.574694 -0.026655 0.011411 -69289.100000 0 0 1
-32.536839 24.785561 -0.729459 40.908459 -0.650991 1.588629 -0.020911 0.011361 -1049810.000000 0 0 1
-32.598939 23.591761 0.204141 40.240573 -0.626454 1.565723 -0.020981 0.001988 -623660.000000 0 0 1
-31.464739 23.113961 0.867941 39.051739 -0.633571 1.548569 -0.016783 -0.002787 -210066.000000 0 0 1
-30.917339 23.982761 1.850141 39.172410 -0.659751 1.523548 -0.009097 -0.007405 -411624.000000 0 0 1
-29.411739 23.843261 2.250541 37.929097 -0.681214 1.511426 -0.005707 -0.014050 831960.000000 0 0 1
-28.564539 24.559961 1.344441 37.695253 -0.710159 1.535123 -0.002284 -0.014317 91068.700000 0 0 1
-28.442839 25.902061 1.778241 38.510700 -0.738679 1.524605 -0.025562 -0.009793 -511659.000000 0 0 1
-27.821439 26.914261 0.795141 38.717466 -0.768826 1.550258 -0.022706 -0.006606 2835.290000 0 0 1
-26.415139 26.857261 0.634941 37.675923 -0.793697 1.553943 -0.010032 -0.015475 -46582.900000 0 0 1
-25.949439 27.847661 -0.285759 38.065040 -0.820668 1.578304 -0.004014 -0.015532 459163.000000 0 0 1
-24.867839 27.224361 -1.238059 36.893198 -0.830605 1.604361 0.006718 -0.019640 -311574.000000 0 0 1
-25.303139 26.175461 -2.065559 36.464642 -0.802342 1.627472 0.013898 -0.024300 101553.000000 0 0 1
-24.176439 25.495161 -2.614659 35.232653 -0.811941 1.645076 0.007752 -0.017331 664285.000000 0 0 1
-23.371939 24.604761 -1.645159 33.975702 -0.811089 1.619237 0.010198 -0.015161 -265554.000000 0 0 1
-23.944739 23.337161 -1.362659 33.463868 -0.772549 1.611528 -0.007597 -0.009941 -440672.000000 0 0 1
-23.064839 22.534361 -0.652059 32.252277 -0.773765 1.591015 -0.003209 -0.020125 -1079690.000000 0 0 1
-23.568439 21.120561 -0.484859 31.650979 -0.730677 1.586116 -0.005269 -0.016410 862104.000000 0 0 1
-24.692739 20.922861 0.426141 32.367871 -0.702941 1.557630 -0.019399 -0.012725 2220190.000000 0 0 1
-26.007339 21.466061 0.114641 33.722197 -0.690029 1.567397 -0.026822 -0.013134 1104400.000000 0 0 1
-26.755139 20.735761 -1.027359 33.865391 -0.659322 1.601138 -0.033190 -0.010494 -488836.000000 0 0 1
-26.931539 19.345261 -0.787959 33.168777 -0.622911 1.594555 -0.045880 -0.002806 772136.000000 0 0 1
-27.890039 18.761961 -1.701259 33.656496 -0.592176 1.621366 -0.033139 0.004317 439159.000000 0 0 1
-28.030839 17.208061 -1.585959 32.929630 -0.550576 1.618977 -0.040452 0.004151 -65468.600000 0 0 1
-28.834239 16.706661 -0.518659 33.328589 -0.525137 1.586359 -0.029178 -0.003075 523480.000000 0 0 1
-28.910339 15.268261 -0.517559 32.698553 -0.485893 1.586625 -0.018272 -0.000471 -145224.000000 0 0 1
-27.687939 14.507361 0.043141 31.258396 -0.482631 1.569416 -0.009278 -0.000048 -647717.000000 0 0 1
-27.583839 14.566661 1.484941 31.229166 -0.485864 1.523229 0.003814 -0.007446 648743.000000 0 0 1
-26.392139 13.990561 2.026241 29.939714 -0.487439 1.503067 0.006162 -0.003077 213031.000000 0 0 1
-26.001739 12.507361 1.860741 28.913437 -0.448349 1.506396 0.008036 0.004371 -241234.000000 0 0 1
-25.897039 12.178961 0.495541 28.622182 -0.439593 1.553482 -0.001884 0.004319 572823.000000 0 0 1
-25.295139 10.868561 0.388141 27.533985 -0.405819 1.556699 0.008851 0.007609 39185.000000 0 0 1
-25.266239 10.274661 -1.039959 27.295293 -0.386231 1.608906 0.010296 0.000437 340310.000000 0 0 1
-26.537139 9.759761 -1.434459 28.311311 -0.352424 1.621485 0.019867 -0.021864 763135.000000 0 0 1
-26.378939 9.103861 -2.694759 28.035521 -0.332319 1.667064 0.015118 -0.020701 -539154.000000 0 0 1
-27.727939 8.691961 -3.242059 29.238668 -0.303771 1.681907 0.024097 -0.027084 -608829.000000 0 0 1
-27.596039 8.255761 -4.605959 29.170427 -0.290690 1.729358 0.019860 -0.011629 1525970.000000 0 0 1
-28.923739 8.177761 -5.206459 30.505174 -0.275543 1.742311 0.007386 -0.009472 1055520.000000 0 0 1
-10.937919 18.022961 -19.540359 28.745275 -1.025328 2.318254 0.023712 0.000089 -114361.000000 0 0 1
-11.378419 17.395661 -20.704359 29.338506 -0.991548 2.354215 0.025496 0.006922 151014.000000 0 0 1
-10.386719 17.352261 -21.744259 29.695078 -1.031421 2.392418 0.017919 0.006381 135528.000000 0 0 1
-10.508519 16.206261 -22.800959 29.882362 -0.995530 2.438775 0.017861 0.005491 -63008.600000 0 0 1
-10.009519 14.972161 -22.266459 28.638283 -0.981497 2.461488 0.016954 0.007284 123346.000000 0 0 1
-10.060019 14.007761 -23.341059 29.021137 -0.947976 2.505256 0.006525 0.007270 -100754.000000 0 0 1
-9.400719 12.685161 -22.939259 27.847736 -0.933029 2.538770 -0.005696 0.011116 476599.000000 0 0 1
-7.988219 12.595161 -23.086659 27.485333 -1.005588 2.568011 -0.003940 0.007495 164721.000000 0 0 1
-7.457419 11.447761 -22.450359 26.280847 -0.993416 2.594899 -0.012367 0.007837 2483950.000000 0 0 1
-5.841919 11.445961 -22.620359 26.015739 -1.098870 2.624960 -0.004627 0.015035 2443470.000000 0 0 1
-5.376519 11.096161 -23.888059 26.882543 -1.119594 2.665099 0.002713 0.007268 7059.500000 0 0 1
-3.954619 11.055961 -23.892859 26.622208 -1.227286 2.684815 0.008159 0.011028 366056.000000 0 0 1
-3.311819 10.544561 -25.174679 27.494006 -1.266474 2.727899 0.019074 0.004736 -493621.000000 0 0 1
-3.299819 9.151261 -25.370049 27.171193 -1.224722 2.775439 0.019110 0.000641 -138716.000000 0 0 1
-2.781019 8.620061 -26.554959 28.057180 -1.258717 2.812880 0.018160 -0.004706 -136444.000000 0 0 1
-2.202919 7.198661 -26.533839 27.581120 -1.273828 2.865138 0.018756 0.008839 178471.000000 0 0 1
-0.821819 7.056361 -26.266539 27.210268 -1.454854 2.877452 0.016275 0.003880 -16089.300000 0 0 1
-0.531119 5.767661 -25.753489 26.396784 -1.478970 2.920370 0.018296 0.003927 318796.000000 0 0 1
0.987781 5.642161 -25.444239 26.081008 1.397481 2.920165 0.031465 0.006535 325852.000000 0 0 1
1.359481 6.400761 -24.321459 25.186331 1.361513 2.878772 0.016607 0.010267 106365.000000 0 0 1
1.782981 5.654861 -23.158859 23.905840 1.265362 2.890950 0.012843 0.005828 79593.400000 0 1 0
1.651281 6.417661 -21.816759 22.800966 1.318956 2.846705 -0.007902 0.005509 335770.000000 0 1 0
2.378981 7.654761 -21.757559 23.187201 1.269475 2.788603 -0.021959 -0.001182 219416.000000 0 1 0
2.054481 8.357061 -20.560659 22.289057 1.329739 2.745188 -0.019113 -0.000619 -169889.000000 0 1 0
2.588181 9.791761 -20.519859 22.883222 1.312384 2.683100 -0.030507 -0.003929 -427078.000000 0 1 0
2.246481 10.560161 -19.407059 22.208053 1.361189 2.633913 -0.016972 -0.007289 -126706.000000 0 1 0
2.794181 11.854761 -19.434059 22.935245 1.339320 2.581761 -0.026497 -0.000866 -374172.000000 0 1 0
4.025581 12.023861 -18.527859 22.451282 1.247727 2.541436 -0.009895 -0.012286 196362.000000 0 1 0
5.121881 11.329861 -19.150059 22.832524 1.146223 2.565722 0.001010 -0.006945 110959.000000 0 1 0
5.948081 10.816061 -18.089659 21.899831 1.068007 2.542803 0.007887 -0.019876 -539647.000000 0 1 0
7.094681 9.922261 -18.527659 22.182423 0.950056 2.559366 0.027347 -0.024066 -459453.000000 0 1 0
6.767981 8.597561 -18.853059 21.798198 0.903910 2.615729 0.016509 -0.013829 40758.900000 0 1 0
6.149681 8.384061 -20.127759 22.654751 0.937941 2.664767 0.000795 -0.006417 -31515.600000 0 1 0
5.848681 6.904361 -20.336459 22.258680 0.867989 2.722950 0.011587 -0.006323 -425328.000000 0 1 0
6.990481 6.094961 -20.432159 22.438549 0.717068 2.715488 0.016570 -0.006015 -164822.000000 0 1 0
6.797481 4.745461 -20.799259 22.390496 0.609463 2.762315 0.012804 -0.000761 -279883.000000 0 1 0
6.712181 4.527761 -22.326959 23.749675 0.593447 2.793706 0.012827 -0.004925 -404175.000000 0 1 0
5.683581 5.114561 -23.081559 24.315020 0.732751 2.821708 -0.003482 -0.000109 -197467.000000 0 1 0
5.806681 4.614461 -24.374359 25.477837 0.671489 2.846203 -0.001704 -0.006539 134361.000000 0 0 1
4.991881 5.500061 -25.373859 26.438651 0.833796 2.856821 -0.008404 -0.002167 -99716.400000 0 0 1
5.260481 6.855561 -25.664769 27.080468 0.916296 2.816818 -0.013747 -0.003010 -138949.000000 0 0 1
5.118881 7.648061 -24.513859 26.184443 0.980970 2.782452 -0.004242 -0.005324 -956083.000000 0 0 1
4.993581 9.145061 -24.925759 27.015948 1.070997 2.745644 -0.007161 -0.010152 304184.000000 0 0 1
3.828181 9.529961 -25.655179 27.634459 1.188826 2.760816 -0.007913 -0.009218 1092010.000000 0 0 1
2.627381 9.433661 -24.854859 26.714436 1.299169 2.766273 -0.020000 0.001580 21544.100000 0 0 1
1.309681 9.717361 -25.597539 27.411245 1.436826 2.775780 -0.009277 0.007215 -185119.000000 0 0 1
1.037181 11.074161 -25.673049 27.978889 1.477411 2.732762 -0.006535 -0.005175 580152.000000 0 0 1
-0.051019 11.272861 -26.589649 28.880606 -1.566271 2.740602 0.013462 -0.009510 248533.000000 0 0 1
0.014681 12.792261 -26.967619 29.847858 1.569649 2.698669 0.010438 -0.010532 -235032.000000 0 0 1
-0.323719 13.586261 -25.830999 29.187870 -1.546974 2.657271 0.005398 -0.000073 115353.000000 0 0 1
-0.383319 14.932661 -26.224489 30.180376 -1.545132 2.623823 0.003735 -0.004216 -192252.000000 0 0 1
-0.594519 15.859861 -25.034259 29.641234 -1.533328 2.576568 0.007444 0.000370 -611215.000000 0 0 1
-1.756419 15.538161 -24.351359 28.939733 -1.458235 2.570759 0.006388 0.009395 -696532.000000 0 0 1
-1.982719 16.373561 -23.223359 28.484190 -1.450290 2.524055 0.009509 0.006315 -8805.120000 0 0 1
-3.233419 15.823861 -22.484859 27.684263 -1.369233 2.518691 0.001481 0.003360 921524.000000 0 0 1
-4.525819 16.138561 -23.021859 28.477046 -1.297384 2.512286 -0.009122 0.003725 366114.000000 0 0 1
-4.909019 15.156961 -23.984659 28.794023 -1.257579 2.555256 -0.002576 0.001499 -575712.000000 0 0 1
-6.387619 15.259161 -24.372259 29.455910 -1.174352 2.545285 -0.009182 0.006883 -351481.000000 0 0 1
-6.834319 16.426361 -24.980659 30.668658 -1.176524 2.522721 -0.002509 0.010288 -555798.000000 0 0 1
-8.078119 16.121461 -25.557709 31.278651 -1.106286 2.527155 0.006997 0.007188 -393657.000000 0 0 1
-8.789019 17.342061 -26.208089 32.632160 -1.101721 2.503338 0.011692 0.004426 -76573.200000 0 0 1
-9.452819 18.102061 -25.211449 32.444684 -1.089550 2.460777 0.018248 0.004178 -213280.000000 0 0 1
-10.249119 19.075761 -25.818729 33.697713 -1.077768 2.443682 0.017177 0.004428 112926.000000 0 0 1
-11.136419 19.975461 -24.944959 33.842131 -1.062209 2.399562 0.035038 0.000736 87568.600000 0 0 1
-10.435719 21.046561 -24.303059 33.800897 -1.110483 2.373168 0.024292 -0.007392 19577.700000 0 0 1
-10.850019 22.354961 -24.570359 34.945239 -1.118936 2.350559 0.025354 -0.004024 -324209.000000 0 0 1
-10.341419 22.932561 -25.906779 36.111058 -1.147153 2.370887 0.022966 -0.003853 -450535.000000 0 0 1
-10.956119 22.492261 -27.063109 36.855803 -1.117517 2.395427 0.007366 -0.002832 -196273.000000 0 0 1
-10.431419 23.147461 -28.183799 37.933441 -1.147401 2.408308 0.010639 0.003545 5249.090000 0 0 1
-10.978719 22.619461 -29.572849 38.816564 -1.118924 2.436979 0.004286 -0.003408 40018.100000 0 0 1
-10.492819 21.345461 -30.028169 38.306904 -1.113914 2.471693 -0.008052 -0.008257 133745.000000 0 0 1
-10.660519 20.215761 -29.200319 37.080753 -1.085519 2.477504 0.006495 -0.001149 380295.000000 0 0 1
-9.538619 19.152861 -29.544059 36.478332 -1.108729 2.514790 -0.008589 -0.006122 -74213.200000 0 0 1
-8.241619 19.612161 -29.242399 36.161845 -1.172973 2.512656 -0.016875 0.001519 -579329.000000 0 0 1
-7.260419 19.000761 -30.033119 36.273004 -1.205805 2.546282 -0.022396 -0.000300 -426046.000000 0 0 1
-6.745119 17.665061 -29.488409 35.030233 -1.206048 2.571403 -0.011589 -0.009907 -1867050.000000 0 0 1
-7.667219 16.625561 -29.520979 34.737353 -1.138692 2.586466 0.003337 -0.012219 -531267.000000 0 0 1
-7.280819 15.334661 -29.073799 33.666718 -1.127515 2.613117 -0.012309 -0.005256 -412576.000000 0 0 1
-8.453319 14.329161 -29.131799 33.547655 -1.037808 2.622704 0.001719 -0.005793 234675.000000 0 0 1
-9.448719 14.696261 -28.187859 33.163440 -0.999405 2.586721 0.004113 -0.000098 -1104660.000000 0 0 1
-10.580019 13.934161 -28.255369 33.233470 -0.921378 2.587177 0.042391 -0.012211 -381715.000000 0 0 1
-11.644419 14.358861 -27.185389 32.875747 -0.889410 2.544392 0.034126 -0.009907 405735.000000 0 0 1
-12.282519 15.571261 -27.501139 33.906298 -0.902926 2.516814 0.024504 -0.007026 -606790.000000 0 0 1
-13.250119 15.951561 -26.564389 33.699921 -0.877645 2.478777 0.020064 -0.006855 43620.800000 0 0 1
-14.188319 17.075461 -27.122019 35.049731 -0.877485 2.455639 0.007585 -0.003511 57082.000000 0 0 1
-13.638719 18.360761 -27.426399 35.711896 -0.931907 2.446494 -0.001543 -0.002505 -200694.000000 0 0 1
-14.640619 19.344661 -27.532609 36.696160 -0.922938 2.419291 -0.018778 -0.003938 -529297.000000 0 0 1
-14.171019 20.760461 -27.743149 37.436571 -0.971846 2.405460 -0.000119 -0.005547 -334460.000000 0 0 1
-15.246019 21.671261 -27.590489 38.253362 -0.957716 2.376411 -0.022959 0.000844 -44495.900000 0 0 1
-14.968719 23.012561 -27.693019 38.994151 -0.994099 2.360556 -0.000409 -0.000367 14754.400000 0 0 1
-14.203919 23.686961 -26.506479 38.280763 -1.030633 2.335638 -0.026467 -0.001183 134354.000000 0 0 1
-13.988319 25.040961 -26.818939 39.268031 -1.061361 2.322619 0.004577 -0.013816 206456.000000 0 0 1
-13.482219 25.752161 -25.671389 38.780978 -1.088497 2.294225 0.032457 -0.018051 -41010.200000 0 0 1
-12.897819 27.186461 -25.854559 39.672605 -1.127821 2.280617 0.047347 -0.024623 44888.500000 0 0 1
-13.835819 28.201361 -26.144759 40.869243 -1.114690 2.264927 0.046558 -0.021618 -168987.000000 0 0 1
-14.340819 28.782761 -24.948559 40.700577 -1.108555 2.230621 0.045190 -0.023133 568185.000000 0 0 1
-15.700619 29.543361 -25.156459 41.858894 -1.082312 2.215526 0.042370 -0.024287 1616000.000000 0 0 1
-16.784319 28.629061 -25.456699 41.825590 -1.040535 2.225141 0.028470 -0.018541 396464.000000 0 0 1
-18.000619 29.216961 -25.843589 42.959797 -1.018621 2.216269 0.015019 -0.010117 736620.000000 0 0 1
-19.260119 28.284361 -25.806069 42.859193 -0.972973 2.216941 -0.009651 0.008537 446905.000000 0 0 1
-19.633419 27.954261 -24.496059 42.035327 -0.958501 2.192904 -0.008731 0.005504 184032.000000 0 0 1
-20.587619 26.877261 -24.467059 41.771691 -0.917142 2.196580 -0.004730 -0.002036 221115.000000 0 0 1
-21.097319 26.646761 -23.006759 41.042145 -0.901112 2.165863 0.000764 -0.000019 65238.200000 0 0 1
-21.984119 27.668361 -22.516159 41.902471 -0.899382 2.138084 -0.007322 0.008304 268164.000000 0 0 1
-22.193819 27.620961 -21.135959 41.257870 -0.893917 2.108644 -0.021183 0.008337 -414405.000000 0 0 1
-23.450419 28.391061 -20.687059 42.236582 -0.880414 2.082645 -0.030027 0.020358 521024.000000 0 0 1
-24.689719 27.818961 -21.087559 42.757010 -0.844923 2.086555 -0.030670 0.016307 211564.000000 0 0 1
-25.725169 28.729661 -21.373359 44.090795 -0.840516 2.076883 -0.022164 0.017276 -407063.000000 0 0 1
-27.031969 28.019961 -21.629959 44.538755 -0.803343 2.077896 -0.020702 0.016192 -851782.000000 0 0 1
-27.042169 27.434061 -22.907359 44.818006 -0.792592 2.107283 -0.026952 0.022526 -4158.630000 0 0 1
-28.312829 26.889461 -23.211359 45.424955 -0.759619 2.107124 -0.031436 0.022337 92135.600000 0 0 1
-28.437239 26.617061 -24.668859 46.105283 -0.752349 2.135369 -0.029712 0.026199 -24470.000000 0 0 1
-28.067119 25.316961 -25.118559 45.383407 -0.733927 2.157327 -0.010693 0.011440 -58134.900000 0 0 1
-28.351529 25.302261 -26.551789 46.357427 -0.728627 2.180668 -0.006115 0.009777 -121433.000000 0 0 1
-28.365799 23.869261 -27.181839 45.969691 -0.699527 2.203465 0.004204 0.001093 -1267960.000000 0 0 1
-27.188959 23.188961 -27.061279 44.824995 -0.706165 2.218943 0.022112 -0.006331 -966246.000000 0 0 1
-27.316449 22.058261 -27.878339 44.832544 -0.679302 2.241877 0.033249 -0.016604 -313681.000000 0 0 1
-26.227759 21.081461 -27.526349 43.474397 -0.677044 2.256428 0.045126 -0.011377 -493769.000000 0 0 1
-26.595419 20.202061 -26.536709 42.657197 -0.649621 2.242208 0.040617 -0.015862 -211618.000000 0 0 1
-25.803309 19.051461 -26.515869 41.615625 -0.635993 2.261606 0.039903 -0.022290 -60741.900000 0 0 1
-26.653009 17.799361 -26.161299 41.371653 -0.588799 2.255377 0.039680 -0.011701 -91091.100000 0 0 1
-27.462789 17.464461 -27.241709 42.441994 -0.566422 2.267714 0.034960 -0.009247 -390770.000000 0 0 1
-28.255259 16.339361 -26.962909 42.335952 -0.524293 2.261241 0.011999 -0.009899 -450116.000000 0 0 1
-29.004009 15.836261 -28.176529 43.427370 -0.499769 2.276828 -0.011427 -0.014098 236803.000000 0 0 1
-30.249549 16.524961 -28.319779 44.610754 -0.499989 2.258571 -0.017714 -0.006540 113843.000000 0 0 1
-30.890969 16.102761 -29.479039 45.635125 -0.480524 2.273093 -0.011292 -0.004874 242417.000000 0 0 1
-32.221399 16.803161 -29.904169 47.061917 -0.480692 2.259351 -0.013435 -0.002296 733231.000000 0 0 1
-33.233109 16.476461 -28.955559 47.056749 -0.460270 2.233604 -0.026670 0.002445 214495.000000 0 0 1
-34.543113 16.759561 -29.428689 48.375172 -0.451720 2.224767 -0.033236 -0.000690 570536.000000 0 0 1
34.196384 16.629861 -28.392849 47.456283 0.452631 2.212168 -0.012185 0.013214 70348.000000 0 0 1
34.146146 17.684661 -27.429069 47.234101 0.477873 2.190390 -0.040298 0.022677 630153.000000 0 0 1
33.002941 17.531961 -26.559689 45.847365 0.488314 2.188674 -0.031467 0.019610 729160.000000 0 0 1
32.590151 18.723661 -25.678119 45.519877 0.521473 2.170149 -0.023407 0.015030 65256.600000 0 0 1
31.978031 19.775761 -26.459609 45.975930 0.553852 2.184024 -0.017587 0.008866 268261.000000 0 0 1
31.511681 20.830361 -25.606119 45.635110 0.584094 2.166517 -0.006921 0.003689 -744143.000000 0 0 1
30.842601 21.928061 -26.468869 46.181240 0.618048 2.181143 0.000689 -0.008491 -112682.000000 0 0 1
29.637831 21.567961 -27.116329 45.594663 0.629087 2.207721 -0.002151 -0.004475 205168.000000 0 0 1
28.551301 21.898661 -26.215059 44.519181 0.654289 2.200430 -0.005443 -0.000721 -420688.000000 0 0 1
27.189271 21.474161 -26.733839 43.761789 0.668492 2.227986 -0.000637 -0.001181 -371798.000000 0 0 1
27.112721 20.062961 -26.838519 43.103691 0.637060 2.242921 -0.006701 -0.006085 365973.000000 0 0 1
25.780501 19.685261 -27.189779 42.325262 0.652131 2.268423 -0.006545 -0.003598 450221.000000 0 0 1
25.620931 18.153661 -26.936189 41.370833 0.616440 2.279818 0.003130 -0.001851 -237340.000000 0 0 1
26.368851 17.343261 -27.798549 42.057869 0.581782 2.292893 0.000043 -0.007388 242713.000000 0 0 1
27.426071 16.673461 -27.098929 42.006495 0.546239 2.271967 -0.002831 0.001295 99060.700000 0 0 1
28.039731 15.578961 -27.950579 42.546039 0.507135 2.287561 -0.019862 0.002751 -259216.000000 0 0 1
27.171901 14.518961 -28.301599 41.834112 0.490739 2.313823 -0.003667 0.007843 458449.000000 0 0 1
26.563911 13.623761 -27.317899 40.466231 0.473888 2.311868 0.025070 -0.004339 -246410.000000 0 0 1
27.511671 12.693361 -26.556279 40.289569 0.432278 2.290465 0.014721 -0.004669 -154111.000000 0 0 1
28.260571 13.307761 -25.501039 40.324426 0.440094 2.255440 0.007405 -0.000760 178114.000000 0 0 1
29.215971 12.487861 -24.884659 40.357972 0.403929 2.235211 0.005797 -0.001185 -126022.000000 0 0 1
-13.569719 -31.991105 -25.878739 43.327557 1.169628 2.210903 0.028103 0.010551 172745.000000 0 0 1
-12.937419 -30.731905 -25.986869 42.274627 1.172338 2.232822 0.019200 0.020805 -50912.400000 0 0 1
-13.316019 -30.087205 -27.158409 42.663045 1.154129 2.260851 0.008840 0.021244 -148102.000000 0 0 1
-12.787419 -28.631805 -27.383579 41.631223 1.150760 2.288645 0.018403 0.016132 -992122.000000 0 0 1
-13.261119 -27.689205 -26.472159 40.537939 1.124148 2.282364 0.030945 0.014377 -357.550000 0 0 1
-12.721819 -26.402205 -26.872859 39.762691 1.121776 2.312888 0.025444 0.005869 -79722.800000 0 0 1
-13.178819 -25.042905 -26.192099 38.559751 1.086370 2.317550 0.019452 0.004194 -161662.000000 0 0 1
-12.541819 -24.814905 -24.958059 37.362835 1.102826 2.302303 0.018067 0.002536 229110.000000 0 0 1
-12.932919 -23.571305 -24.358559 36.279556 1.068973 2.306910 0.027736 0.009721 -229537.000000 0 0 1
-12.326019 -23.454605 -22.986659 35.077567 1.086937 2.285388 0.019570 0.005878 265988.000000 0 0 1
-10.951819 -23.104405 -23.088259 34.450305 1.128153 2.305261 0.013147 0.003019 82445.700000 0 0 1
-10.419719 -22.654705 -21.862459 33.162830 1.139710 2.290612 0.017202 0.007216 -116717.000000 0 0 1
-8.982319 -22.148705 -22.029359 32.504458 1.185518 2.315472 0.010625 0.007336 -142535.000000 0 0 1
-8.992319 -20.904205 -22.758259 32.183628 1.164557 2.356238 0.007657 0.010597 29559.000000 0 0 1
-7.673919 -20.405405 -22.843159 31.576565 1.211085 2.379541 0.012013 0.007342 151608.000000 0 0 1
-7.469619 -19.211105 -23.763559 31.457407 1.199967 2.427091 0.015582 0.012618 191884.000000 0 0 1
-8.074019 -18.024105 -23.231859 30.492251 1.149643 2.437028 0.009142 0.024175 31238.600000 0 0 1
-8.538519 -17.040705 -24.175959 30.785856 1.106296 2.473968 0.005025 0.019220 -412308.000000 0 0 1
-7.481819 -16.258905 -24.950759 30.706188 1.139519 2.519335 0.007104 0.016948 -130709.000000 0 0 1
-7.125519 -17.062905 -26.079529 31.969635 1.175208 2.524837 -0.027337 0.018129 214498.000000 0 0 1
-5.922019 -16.579305 -26.684059 31.968463 1.227728 2.558383 -0.006973 0.007740 352920.000000 0 0 1
-5.602319 -17.353205 -27.967099 33.386798 1.258519 2.563798 -0.017636 0.020496 107368.000000 0 0 1
-6.472019 -17.043805 -29.064229 34.309003 1.207887 2.581360 -0.023743 0.014020 181584.000000 0 0 1
-6.429519 -18.052005 -30.006409 35.603345 1.228639 2.573256 -0.020580 0.009408 -75317.200000 0 0 1
-7.067019 -17.588805 -31.352249 36.637035 1.188747 2.597801 -0.016869 0.002245 -62850.300000 0 0 1
-6.442119 -16.632805 -32.218409 36.826308 1.201274 2.635974 -0.015507 -0.003610 -5391.780000 0 0 1
-6.260119 -15.301905 -31.765319 35.810234 1.182464 2.661703 -0.015838 -0.002830 48463.900000 0 0 1
-6.892119 -14.164805 -32.673149 36.272271 1.117953 2.692347 -0.007885 -0.008611 -326833.000000 0 0 1
-6.271419 -14.141405 -33.927659 37.288015 1.153378 2.713794 -0.006666 -0.020808 -34801.700000 0 0 1
-6.938219 -13.411005 34.301134 37.477483 1.093363 0.414677 0.002605 -0.012140 -446308.000000 0 0 1
-7.214019 -11.895705 34.513687 37.212155 1.025656 0.383170 0.002149 -0.007501 699726.000000 0 0 1
-6.046519 -11.040605 34.603225 36.821713 1.069750 0.348896 -0.005839 -0.004525 749973.000000 0 0 1
-5.528219 -10.674405 33.332563 35.433937 1.092936 0.346120 -0.003096 -0.012191 611877.000000 0 0 1
-4.380019 -9.579005 33.336292 34.960696 1.141928 0.306033 -0.004462 -0.008550 335142.000000 0 0 1
-4.353519 -8.759205 32.199519 33.652427 1.109534 0.294918 -0.001235 -0.004898 428090.000000 0 0 1
-3.305219 -7.770905 32.248419 33.335746 1.168644 0.256111 -0.010084 -0.009056 -16056.800000 0 0 1
-3.372619 -6.774505 31.110259 32.017444 1.108878 0.238616 -0.007578 -0.003084 -18534.700000 0 0 1
-4.393919 -5.797505 31.154869 31.992866 0.922259 0.229383 0.008205 -0.005580 -494987.000000 0 0 1
-5.523419 -6.240605 30.471389 31.590487 0.846287 0.266969 -0.002354 0.000232 -376655.000000 0 0 1
-6.852519 -5.443605 30.647969 31.872996 0.671314 0.278149 -0.005361 -0.001906 463363.000000 0 0 1
-7.800219 -6.021205 29.787619 31.375158 0.657388 0.319472 -0.000346 -0.000017 285462.000000 0 0 1
-9.172119 -5.675105 30.046489 31.923754 0.554081 0.344645 0.009307 -0.001158 1052860.000000 0 0 1
-10.188619 -6.454705 29.192449 31.585918 0.564703 0.391799 0.024405 0.000070 -96026.600000 0 0 1
-9.978819 -6.250005 27.787949 30.179621 0.559553 0.400792 0.011168 0.002414 40169.300000 0 0 1
-11.071919 -6.654405 27.012309 29.942166 0.541167 0.446070 0.020668 -0.002162 -350443.000000 0 0 1
-10.886819 -6.548805 25.462849 28.456394 0.541548 0.462808 0.022322 -0.004229 -786487.000000 0 0 1
-9.953719 -7.393705 24.929199 27.842564 0.638883 0.461551 0.027749 0.001032 -595662.000000 0 0 1
-9.505219 -7.025205 23.639859 26.430014 0.636482 0.463636 0.023028 -0.005701 -167438.000000 0 0 1
-10.529719 -6.987405 22.459159 25.770383 0.585869 0.512522 0.036086 -0.006996 -49809.100000 0 0 1
-11.445219 -5.917005 22.554159 25.974874 0.477143 0.519018 0.026205 -0.003208 -602776.000000 0 0 1
-12.320319 -6.062305 21.466359 25.482275 0.457273 0.569068 0.030530 -0.000817 -104650.000000 0 0 1
-13.317319 -4.853705 21.437059 25.699357 0.349503 0.584211 0.013657 0.007024 350882.000000 0 0 1
-12.818619 -3.655305 20.931059 24.815065 0.277783 0.567064 0.006318 0.002023 1218720.000000 0 1 0
-13.967319 -2.743305 21.002059 25.371208 0.193940 0.595637 -0.001905 0.003586 1594280.000000 0 0 1
-13.650419 -1.361305 20.378259 24.565434 0.099398 0.592495 0.000871 0.000180 735275.000000 0 1 0
-12.597019 -0.520305 20.926259 24.430799 0.041280 0.542245 -0.004587 0.001949 687001.000000 0 1 0
-12.705419 0.814695 20.552459 24.176331 -0.064034 0.554609 -0.006451 -0.009207 -418657.000000 0 1 0
-12.512619 1.244695 19.081259 22.851900 -0.099149 0.582670 0.019449 -0.026115 -74986.700000 0 1 0
-13.447719 0.756695 18.144659 22.597398 -0.056210 0.638562 0.024569 -0.015671 -495847.000000 0 1 0
-14.719119 1.335695 18.190959 23.438164 -0.090498 0.682298 0.013829 -0.012690 -891448.000000 0 1 0
-15.720919 0.490695 17.415159 23.466483 -0.031203 0.734555 0.030630 -0.005486 -522478.000000 0 1 0
-16.088519 -0.693305 18.083459 24.214306 0.043066 0.727546 0.006806 0.000089 62601.100000 0 1 0
-16.927519 -1.454305 17.245759 24.208926 0.085703 0.777924 0.000176 0.011437 -68558.100000 0 1 0
-16.888519 -2.971305 17.561359 24.544899 0.174154 0.773487 0.004837 0.014539 -57750.000000 0 1 0
-17.440319 -3.318305 18.794959 25.853943 0.188019 0.756902 -0.007747 0.019903 225738.000000 0 0 1
-16.951519 -4.644905 19.188259 26.021499 0.267447 0.741583 -0.017900 0.019705 360555.000000 0 0 1
-17.581619 -5.019205 20.572159 27.523071 0.278083 0.726579 -0.018122 0.027154 -186296.000000 0 0 1
-17.085419 -4.406305 21.740959 27.999935 0.252399 0.681760 -0.010578 0.017848 -160736.000000 0 0 1
-17.979519 -4.347305 22.828859 29.382290 0.237239 0.680974 -0.004768 0.013161 -489134.000000 0 0 1
-18.336519 -5.761305 23.430859 30.305539 0.304431 0.686997 -0.006409 0.016513 193240.000000 0 0 1
-17.280919 -6.441905 24.093759 30.342009 0.356819 0.653316 0.007684 0.009311 794729.000000 0 0 1
-16.240219 -6.991405 23.262059 29.218964 0.406519 0.649926 0.004722 0.004930 394898.000000 0 0 1
-15.079219 -7.642005 24.044559 29.392582 0.469065 0.612787 0.017108 0.000848 25833.700000 0 0 1
-15.502219 -8.809905 24.717239 30.477453 0.516784 0.624936 0.014092 -0.002791 60386.100000 0 0 1
-14.578219 -9.196305 25.717649 30.959554 0.562777 0.590459 0.025319 -0.000683 100953.000000 0 0 1
-15.141419 -10.170105 26.725349 32.356419 0.591462 0.598880 0.016654 -0.005447 -464762.000000 0 0 1
-15.063219 -11.497705 26.320439 32.432442 0.651957 0.624002 0.010905 -0.005303 -30966.100000 0 0 1
-14.350719 -12.202305 27.318379 33.183327 0.704664 0.603673 0.017546 -0.008856 -33241.200000 0 0 1
-14.284419 -13.746505 27.182029 33.643331 0.766210 0.630137 0.004037 -0.008753 190374.000000 0 0 1
-15.505819 -14.347505 27.625099 34.776823 0.746617 0.652853 -0.006206 -0.002554 544592.000000 0 0 1
-15.712319 -15.772705 27.470359 35.359239 0.787316 0.681080 0.005593 0.003455 -217239.000000 0 0 1
-14.779519 -16.651405 28.344959 36.043587 0.844883 0.665824 0.006415 -0.000184 -48075.500000 0 0 1
-13.418819 -16.512805 28.040529 35.199555 0.888401 0.649120 0.030773 -0.006107 -40863.400000 0 0 1
-12.592119 -17.456805 28.736149 35.903590 0.945898 0.642885 0.035718 -0.006884 658893.000000 0 0 1
-11.242119 -17.723005 27.997859 34.991002 1.005521 0.643260 0.037109 -0.005594 428487.000000 0 0 1
-10.324519 -18.540405 28.687079 35.683201 1.062697 0.636909 0.034544 -0.006797 22051.000000 0 0 1
-9.211219 -18.925305 27.918389 34.963555 1.117834 0.645997 0.022505 -0.003939 -297061.000000 0 0 1
-8.182319 -19.681805 28.792859 35.823910 1.176803 0.637253 0.023445 -0.003721 -267667.000000 0 0 1
-8.395419 -21.023805 29.216669 36.960752 1.190868 0.659207 0.012641 0.006669 -101117.000000 0 0 1
-7.397319 -21.426105 30.137949 37.710665 1.238361 0.644852 0.015132 -0.002004 -132766.000000 0 0 1
-7.600119 -22.741905 30.847959 39.071123 1.248275 0.660748 0.015462 -0.002422 30649.700000 0 0 1
-7.767319 -23.837505 29.975529 39.078002 1.255801 0.696536 0.014059 -0.005473 38009.900000 0 0 1
-8.128819 -25.029605 30.680999 40.421313 1.256774 0.708974 0.000257 -0.005408 -363901.000000 0 0 1
-8.408719 -26.255305 29.776699 40.579544 1.260851 0.746918 -0.000632 -0.001964 -62628.400000 0 0 1
-9.514619 -26.275505 28.865559 40.176493 1.223374 0.769198 0.005468 -0.005358 289939.000000 0 0 1
-9.429119 -27.400605 28.042979 40.325055 1.239369 0.801788 0.014483 -0.008070 -520895.000000 0 0 1
-10.669419 -27.716305 27.190569 40.266079 1.203330 0.829462 0.003740 -0.001329 -154334.000000 0 0 1
-10.840019 -27.078205 25.911049 39.014326 1.190012 0.844451 0.018449 -0.002994 67785.900000 0 0 1
-11.180819 -25.710405 26.010349 38.243612 1.160591 0.822866 0.008938 0.007216 -577255.000000 0 0 1
-11.591319 -25.086105 24.707969 37.069598 1.137958 0.841253 0.015913 -0.002527 96768.400000 0 0 1
-12.822619 -25.523905 24.153859 37.407194 1.105249 0.868855 0.015242 0.003484 203402.000000 0 0 1
-12.927119 -24.929505 22.852359 36.205261 1.092421 0.887711 0.019438 -0.002224 -528684.000000 0 0 1
-14.273219 -25.162305 22.194259 36.461644 1.054809 0.916373 0.014208 -0.006440 -646700.000000 0 0 1
-14.525519 -26.519905 21.834359 37.296585 1.069704 0.945392 0.028460 -0.003895 -196330.000000 0 0 1
-15.506719 -26.671705 20.845759 37.234176 1.044171 0.976585 0.031561 -0.004599 -45159.500000 0 0 1
-15.736619 -28.119805 20.288659 38.078790 1.060592 1.008882 0.032747 -0.005877 507336.000000 0 0 1
-14.666219 -28.519105 19.426959 37.494587 1.095806 1.026137 0.025817 -0.000691 491020.000000 0 0 1
-14.927519 -29.825905 18.912859 38.342035 1.106758 1.054955 0.028595 0.011354 747854.000000 0 0 1
-13.866119 -30.186405 17.782559 37.679009 1.140194 1.079297 0.015678 -0.000151 708160.000000 0 0 1
-14.159819 -29.567705 16.555059 36.726280 1.124175 1.103170 0.027296 -0.008088 242328.000000 0 0 1
-13.038019 -29.740905 15.702259 36.070380 1.157642 1.120400 0.025578 -0.004794 269571.000000 0 0 1
-13.364019 -29.276705 14.237159 35.191180 1.142573 1.154292 0.008437 -0.009274 -33254.900000 0 0 1
-13.658019 -27.870505 14.164259 34.116459 1.115138 1.142663 0.008394 -0.001272 -103457.000000 0 0 1
-14.011219 -27.365805 12.894659 33.338773 1.097597 1.173663 0.008076 0.008220 -48832.400000 0 0 1
-12.911019 -27.292205 11.796659 32.414812 1.128927 1.198315 -0.006660 0.010201 146998.000000 0 0 1
-13.370919 -26.765405 10.559759 31.728172 1.107501 1.231504 -0.015479 0.018266 -136085.000000 0 0 1
-12.523419 -27.210605 9.528259 31.433116 1.139459 1.262823 -0.004085 0.013799 22137.800000 0 0 1
-12.767419 -26.498905 8.223059 30.542063 1.121807 1.298195 -0.002656 0.018450 -309603.000000 0 0 1
-13.978719 -26.851805 7.607859 31.213835 1.090815 1.324583 -0.010903 0.013617 -247517.000000 0 0 1
-14.116919 -26.078905 6.435459 30.344881 1.074645 1.357096 -0.007423 0.015669 230982.000000 0 0 1
-15.073519 -26.759505 5.426659 31.188631 1.057802 1.395911 -0.010605 0.014887 239767.000000 0 0 1
-14.396719 -27.789205 4.705059 31.648744 1.092798 1.421578 -0.005421 0.011699 193678.000000 0 0 1
-15.106719 -28.008505 3.502459 32.014942 1.076157 1.461176 0.001217 0.009561 -288073.000000 0 0 1
-14.694619 -29.175005 2.573259 32.767887 1.104216 1.492185 0.006524 0.005061 320715.000000 0 0 1
-13.366819 -29.085305 2.059459 32.075975 1.140010 1.506546 0.004927 0.013737 199445.000000 0 0 1
-12.988419 -30.324405 1.431659 33.019967 1.166121 1.527425 0.003963 0.013026 71501.000000 0 0 1
-11.582319 -30.198105 0.802759 32.353053 1.204556 1.545981 -0.007071 0.011655 -37675.500000 0 0 1
-11.485719 -29.535105 -0.434941 31.692796 1.199910 1.584520 -0.000631 0.011671 -192334.000000 0 0 1
-11.721019 -28.134205 -0.423941 30.481068 1.176053 1.584705 0.005421 0.004226 -365796.000000 0 0 1
-11.309019 -27.319105 -1.679041 29.614972 1.178314 1.627522 0.017272 0.003462 260348.000000 0 0 1
-9.944219 -27.448605 -2.035841 29.265304 1.223219 1.640418 0.004646 -0.002577 -130712.000000 0 0 1
-9.669519 -26.519505 -3.110541 28.398225 1.221158 1.680549 0.019723 -0.003834 -56030.400000 0 0 1
-8.256419 -26.673405 -3.671541 28.162372 1.270613 1.701539 0.009970 -0.008607 -155860.000000 0 0 1
-7.947619 -25.915105 -4.827141 27.532864 1.273223 1.747030 0.015027 -0.004157 -447299.000000 0 0 1
-6.626119 -26.063705 -5.282641 27.406723 1.321843 1.764760 0.000348 -0.001239 163161.000000 0 0 1
-6.120519 -24.851105 -6.109341 26.312777 1.329315 1.805116 -0.000359 0.000745 -127752.000000 0 0 1
-6.638419 -24.736305 -7.401441 26.659608 1.308607 1.852120 -0.000024 0.001859 18035.600000 0 0 1
-5.908919 -23.701305 -8.062941 25.723106 1.326469 1.889622 -0.014963 0.009631 -106147.000000 0 0 1
-6.192619 -23.682905 -9.566141 26.281925 1.315042 1.943336 -0.008837 0.004183 -174280.000000 0 0 1
-5.622919 -24.770705 -10.195441 27.370642 1.347580 1.952493 -0.024793 0.009586 -159753.000000 0 0 1
-5.900219 -24.708905 -11.590741 27.922891 1.336397 1.998847 -0.032820 0.015416 241645.000000 0 0 1
-7.092619 -25.605305 -12.038741 29.169645 1.300574 1.996229 -0.023558 0.010451 163966.000000 0 0 1
-7.306719 -25.598505 -13.398341 29.802469 1.292755 2.037082 -0.009155 0.009999 -564269.000000 0 0 1
-8.252319 -26.529705 -13.764441 31.006223 1.269224 2.030771 0.008728 0.002297 -1186770.000000 0 0 1
-8.646519 -26.634305 -15.265541 31.893341 1.256891 2.069905 0.008017 0.003255 224626.000000 0 0 1
-7.782919 -27.372505 -16.147041 32.719333 1.293774 2.086907 -0.005848 0.010198 -272269.000000 0 0 1
-6.456219 -26.962405 -16.237241 32.129457 1.335769 2.100606 -0.012846 0.017026 -202963.000000 0 0 1
-5.537319 -27.886805 -17.132141 33.194066 1.374782 2.113112 -0.015931 0.016134 153774.000000 0 0 1
-5.712019 -27.676905 -18.499141 33.776566 1.367272 2.150399 -0.001343 0.014877 347759.000000 0 0 1
-4.605119 -28.030405 -19.349041 34.369988 1.407961 2.168763 0.004966 0.009402 539704.000000 0 0 1
-23.995819 14.714161 -6.012759 28.782966 -0.550067 1.781246 -0.025491 -0.008335 -75170.200000 0 0 1
-24.326419 13.477561 -5.435859 28.336688 -0.505932 1.763824 -0.034728 -0.000031 373213.000000 0 0 1
-23.203419 12.619261 -5.481759 26.975805 -0.498112 1.775432 -0.022687 -0.011278 -690167.000000 0 0 1
-23.528119 11.239361 -4.901159 26.531434 -0.445648 1.756594 -0.012491 -0.013921 -382109.000000 0 0 1
-24.093919 10.278161 -5.789359 26.826744 -0.403214 1.788313 -0.005333 -0.012779 13449.100000 0 0 1
-25.485779 10.393361 -5.969159 28.163411 -0.387221 1.784363 -0.013690 -0.013225 -581466.000000 0 0 1
-25.807999 9.786761 -7.356959 28.564984 -0.362460 1.831284 0.005119 -0.005740 -347748.000000 0 0 1
-25.439669 10.655061 -8.409059 28.834343 -0.396639 1.866730 0.016880 -0.001368 -117710.000000 0 0 1
-25.725649 9.983061 -9.595459 29.215464 -0.370170 1.905445 0.032554 -0.003212 -458189.000000 0 0 1
-26.031739 10.865361 -10.785459 30.199894 -0.395406 1.935996 0.012212 -0.006757 -30926.300000 0 0 1
-25.014019 11.745661 -11.261959 29.841136 -0.439003 1.957780 0.009830 -0.004213 315914.000000 0 0 1
-25.448389 12.480661 -12.445959 30.956248 -0.455963 1.984551 0.010996 -0.007368 -307726.000000 0 0 1
-24.487319 13.505761 -13.046659 30.858543 -0.504026 2.007317 0.009776 -0.005957 -598532.000000 0 0 1
-24.274519 14.607561 -12.201159 30.846416 -0.541716 1.977458 0.004694 -0.008554 187931.000000 0 0 1
-23.698319 15.728161 -12.840359 31.206733 -0.585934 1.994853 0.001842 -0.006482 -254089.000000 0 0 1
-23.810819 16.956261 -11.914659 31.566263 -0.618817 1.957836 0.001490 -0.009264 -383144.000000 0 0 1
-22.798719 17.154661 -10.960359 30.564578 -0.645061 1.937561 -0.012761 0.002303 -203733.000000 0 0 1
-22.734119 18.449861 -10.443859 31.085555 -0.681744 1.913433 -0.027064 0.008583 -407579.000000 0 0 1
-21.784819 18.716461 -9.281659 30.183330 -0.709783 1.883371 -0.030469 0.006822 -430986.000000 0 0 1
-22.097119 18.122161 -8.056859 29.691890 -0.686886 1.845590 -0.023464 -0.004131 149331.000000 0 0 1
-22.976719 18.938661 -7.280059 30.652924 -0.689356 1.810587 -0.027585 -0.005916 2153.630000 0 0 1
-23.427119 18.338961 -5.979259 30.346316 -0.664170 1.769128 -0.029269 -0.005901 -104336.000000 0 0 1
-22.439919 18.272961 -4.985959 29.365130 -0.683403 1.741415 -0.006479 -0.022820 187497.000000 0 0 1
-23.068219 18.394561 -3.700759 29.735471 -0.673153 1.695576 -0.018632 -0.015840 727127.000000 0 0 1
-22.076519 18.029461 -2.544659 28.616594 -0.684830 1.659836 0.004854 -0.029788 837795.000000 0 0 1
-21.118819 19.033661 -2.140059 28.510781 -0.733514 1.645928 0.020655 -0.033027 1436080.000000 0 0 1
-20.184919 18.566061 -1.126559 27.448109 -0.743647 1.611851 0.050705 -0.041650 347424.000000 0 0 1
-19.259319 19.570061 -0.458859 27.461231 -0.793401 1.587506 0.060055 -0.038130 110490.000000 0 0 1
-19.974619 20.559961 0.247641 28.666334 -0.799838 1.562157 0.043736 -0.030759 442321.000000 0 0 1
-19.072119 21.584861 0.527841 28.808515 -0.847123 1.552473 0.055604 -0.032834 320420.000000 0 0 1
-19.887019 22.567361 1.374641 30.110944 -0.848449 1.525128 0.035385 -0.018810 328623.000000 0 0 1
-20.211019 22.040661 2.684741 30.024721 -0.828675 1.481259 0.033208 -0.017195 338749.000000 0 0 1
-21.216419 22.667661 3.450741 31.238868 -0.818456 1.460107 0.003770 -0.016892 -22002.500000 0 0 1
-21.007619 22.376561 4.933841 31.086546 -0.816942 1.411409 -0.003434 -0.009566 31058.800000 0 0 1
-20.102819 23.227161 5.641241 31.232162 -0.857379 1.389177 -0.001432 -0.003815 -150110.000000 0 0 1
-19.598119 22.583261 6.765241 30.657111 -0.856050 1.348290 -0.005486 0.016441 -569544.000000 0 0 1
-20.375419 22.125061 8.018841 31.128409 -0.826543 1.310253 -0.021216 0.010329 -829037.000000 0 0 1
-21.324819 21.087561 7.867841 31.005420 -0.779804 1.314234 -0.015246 0.015556 708623.000000 0 0 1
-21.869019 20.548661 9.095241 31.356417 -0.754281 1.276507 -0.001941 0.013685 253076.000000 0 0 1
-22.408119 21.522761 10.246841 32.716216 -0.765247 1.252232 -0.005762 0.007104 381675.000000 0 0 1
-23.709919 22.141061 10.132141 33.985984 -0.751195 1.268066 0.001342 0.006629 1281230.000000 0 0 1
-23.837019 23.056961 11.174841 34.995771 -0.768765 1.245785 -0.000137 0.015468 29227.500000 0 0 1
-25.100539 23.935061 11.023841 36.392984 -0.761635 1.263050 0.002959 -0.001383 -66839.000000 0 0 1
-25.572709 24.350461 12.270441 37.382778 -0.760920 1.236359 0.001317 0.002951 -200196.000000 0 0 1
-26.362159 25.496561 12.159841 38.638061 -0.768708 1.250644 0.002194 0.000790 -91143.400000 0 0 1
-27.055499 25.927861 13.487741 39.826790 -0.764119 1.225304 0.005838 0.007259 -271543.000000 0 0 1
-26.145189 26.225661 14.494841 39.767532 -0.786935 1.197712 -0.000670 0.002437 -77731.300000 0 0 1
-26.779009 26.690961 15.694041 40.936850 -0.783751 1.177352 -0.013107 0.001702 191285.000000 0 0 1
-25.791269 26.816261 16.869741 40.852045 -0.804879 1.145109 0.000089 -0.008512 59173.300000 0 0 1
-25.207219 25.588161 17.343441 39.886750 -0.792898 1.120961 0.016951 -0.013383 -180350.000000 0 0 1
-24.266019 25.792161 18.332241 39.876639 -0.815876 1.093112 0.027969 -0.015994 -485523.000000 0 0 1
-23.601119 24.453361 18.728241 38.803694 -0.803131 1.067129 0.041426 -0.012174 -241061.000000 0 0 1
-22.500019 24.583361 19.615241 38.669758 -0.829617 1.038805 0.043295 -0.020918 323201.000000 0 0 1
-22.114419 23.238361 19.903341 37.751979 -0.810175 1.015479 0.047331 -0.020383 -711779.000000 0 0 1
-20.647319 23.104561 20.332941 37.061584 -0.841502 0.990077 0.042909 -0.018528 -930844.000000 0 0 1
-19.748219 23.325961 19.271441 36.131441 -0.868268 1.008216 0.037212 -0.020493 124037.000000 0 0 1
-18.426919 22.927361 19.595041 35.343753 -0.893798 0.983139 0.035148 -0.014569 125189.000000 0 0 1
-18.154019 21.381061 19.458341 34.137153 -0.866842 0.964285 0.033569 0.001256 -726819.000000 0 0 1
-18.565619 20.535561 20.574841 34.492254 -0.835736 0.931655 0.034334 -0.002160 301404.000000 0 0 1
-17.742019 20.540961 21.758241 34.786943 -0.858380 0.895061 0.021289 0.007081 -95947.500000 0 0 1
-18.513919 20.476561 23.072941 35.977984 -0.835692 0.874596 0.001158 0.013354 -398652.000000 0 0 1
-19.438119 21.543161 23.150041 37.119707 -0.836719 0.897381 0.013479 0.004789 183143.000000 0 0 1
-20.292319 21.301661 24.272241 38.140276 -0.809660 0.880982 0.019261 0.012003 58677.400000 0 0 1
-21.372319 22.349561 24.518241 39.464200 -0.807746 0.900424 0.026958 0.007437 -728171.000000 0 0 1
-20.772119 23.588761 24.837541 40.060130 -0.848807 0.902045 0.021021 -0.000980 160574.000000 0 0 1
-21.629419 24.714461 24.941341 41.239627 -0.851869 0.921293 0.013929 -0.001999 -248871.000000 0 0 1
-22.477719 25.129361 23.721941 41.224545 -0.841039 0.957664 0.014914 -0.008594 -83816.200000 0 0 1
-23.644319 24.351261 23.601741 41.341020 -0.800126 0.963190 0.018778 -0.018040 -75607.600000 0 0 1
-24.352919 24.711961 22.418341 41.307720 -0.792716 0.997129 0.022273 -0.018481 -451191.000000 0 0 1
-25.337699 23.666361 21.957541 41.039362 -0.751305 1.006246 0.023419 -0.018568 -105552.000000 0 0 1
-26.643209 23.893361 22.498741 42.272292 -0.731039 1.009559 0.013158 -0.017156 671464.000000 0 0 1
-27.554939 22.885061 22.092741 42.084319 -0.693079 1.018124 0.018618 -0.017604 702232.000000 0 0 1
-29.021989 22.966761 22.604341 43.367087 -0.669449 1.022502 0.027576 -0.012529 92014.100000 0 0 1
-29.819519 23.977661 22.028141 44.151681 -0.677232 1.048445 0.007944 -0.008929 495903.000000 0 0 1
-31.087199 24.119261 22.673741 45.412016 -0.659846 1.048018 -0.000071 -0.002240 1528770.000000 0 0 1
-32.325919 23.287961 22.136541 45.577633 -0.624294 1.063645 0.002267 -0.005880 134457.000000 0 0 1
-32.192209 21.876061 22.484141 44.949271 -0.596866 1.046953 0.013298 -0.001669 444066.000000 0 0 1
-32.464569 21.027261 21.356141 44.183466 -0.574756 1.066317 -0.010246 0.009778 453916.000000 0 0 1
-33.980489 20.877161 20.997641 45.071392 -0.550931 1.086173 -0.033581 0.013468 427464.000000 0 0 1
-34.233339 20.144961 19.780241 44.373403 -0.531891 1.108764 -0.015196 0.012384 -999030.000000 0 0 1
34.326537 20.191061 19.385541 44.292091 0.531702 1.117785 -0.015113 0.003598 -941714.000000 0 0 1
33.883937 19.385661 18.097141 43.028265 0.519667 1.136704 0.003519 0.013154 -345291.000000 0 0 1
33.927189 17.946061 18.334441 42.535479 0.486545 1.125153 0.013748 0.000100 92732.900000 0 0 1
33.163751 17.208861 17.417341 41.223089 0.478658 1.134579 0.017704 -0.002208 -18532.400000 0 0 1
33.471711 15.682161 17.495341 40.894652 0.438148 1.128722 0.013075 -0.002508 -228567.000000 0 0 1
32.695651 15.010661 16.555341 39.603092 0.430398 1.139519 0.008149 -0.017670 40121.000000 0 0 1
32.901051 13.562361 16.530941 39.238869 0.390993 1.135929 -0.007151 -0.022980 -100737.000000 0 0 1
32.053501 12.883061 15.457241 37.846090 0.382164 1.150070 -0.005952 -0.021991 -240693.000000 0 0 1
32.485321 13.206861 14.156841 37.817105 0.386139 1.187100 0.008959 -0.027576 934317.000000 0 0 1
31.607711 12.627861 13.139841 36.485144 0.380091 1.202376 0.018760 -0.028807 76864.300000 0 0 1
31.952751 13.053761 11.735341 36.456786 0.387841 1.243064 0.031293 -0.022953 -436356.000000 0 0 1
33.278681 12.664661 11.463741 37.406973 0.363640 1.259324 0.022354 -0.021293 -2097.800000 0 0 1
33.584911 13.068561 10.162341 37.443380 0.371092 1.295943 0.016255 -0.015012 -203800.000000 0 0 1
-34.837390 12.846161 9.685641 38.372897 -0.353277 1.315628 0.028697 -0.013116 -140839.000000 0 0 1
-34.615009 11.432061 9.510641 37.674171 -0.318985 1.315590 0.019299 -0.006219 -425870.000000 0 0 1
-33.379629 11.055461 8.997441 36.295686 -0.319833 1.320292 0.006919 0.006204 -575038.000000 0 0 1
-33.192089 11.197961 7.449641 35.813493 -0.325378 1.361254 0.014611 0.001243 -306572.000000 0 0 1
-33.158089 12.541561 6.996441 36.134468 -0.361604 1.375943 0.031051 -0.007332 76248.000000 0 0 1
-32.777739 12.682861 5.636741 35.595056 -0.369193 1.411769 0.020888 -0.010080 -604070.000000 0 0 1
-33.741799 13.553761 4.839141 36.682840 -0.381963 1.438492 0.040643 -0.020204 -1533120.000000 0 0 1
34.908699 12.923761 4.801341 37.532569 0.354570 1.442520 0.046899 -0.016452 -1764890.000000 0 0 1
33.850441 13.761861 4.546841 36.822750 0.386139 1.447001 0.027340 -0.011438 -607601.000000 0 0 1
33.225741 14.439761 5.809241 36.690651 0.409970 1.411797 0.032118 -0.011985 -1653590.000000 0 0 1
32.610231 15.633161 5.413941 36.566838 0.447028 1.422194 0.029547 -0.015774 40175.400000 0 0 1
31.935451 16.287361 6.471741 36.428486 0.471623 1.392192 0.032316 -0.016069 704702.000000 0 0 1
30.671841 15.625661 7.132241 35.153833 0.471176 1.366491 0.032426 -0.014390 110081.000000 0 0 1
31.107231 14.653061 8.105941 35.328152 0.440221 1.339287 0.035736 -0.014231 587905.000000 0 0 1
30.111811 13.656361 8.362741 34.105026 0.425779 1.323065 0.039371 -0.015921 6239.540000 0 0 1
30.191131 12.370961 7.516341 33.481942 0.388887 1.344377 0.043376 -0.010711 -94225.200000 0 0 1
30.049291 12.638861 6.139841 33.172253 0.398142 1.384633 0.042141 -0.011282 241070.000000 0 0 1
29.990491 11.503761 5.318541 32.558455 0.366272 1.406707 0.053882 -0.015399 -180817.000000 0 0 1
29.434051 11.736761 3.892241 31.925922 0.379426 1.448578 0.035518 -0.018282 103191.000000 0 0 1
28.041871 11.550361 3.719341 30.554719 0.390720 1.448766 0.017582 -0.012382 97816.400000 0 0 1
27.752191 11.852761 2.397141 30.272402 0.403642 1.491528 0.024845 -0.006561 780157.000000 0 0 1
26.256271 11.408661 2.178141 28.710514 0.409900 1.494858 0.049451 0.007134 764561.000000 0 0 1
26.123781 9.993861 2.071841 28.046778 0.365380 1.496858 0.015249 0.004501 297186.000000 0 0 1
24.775401 9.565561 1.999241 26.633014 0.368459 1.495659 0.015431 0.002097 -496923.000000 0 0 1
24.676301 8.031961 1.837241 26.015528 0.314678 1.500117 0.019209 0.002812 -114.565000 0 0 1
25.148421 7.274961 2.934441 26.343483 0.281594 1.459173 0.026051 0.008679 1038410.000000 0 0 1
26.579831 7.236661 2.994641 27.709648 0.265818 1.462513 0.043268 -0.000526 132753.000000 0 0 1
27.133191 6.473961 4.229141 28.213611 0.234220 1.420332 0.042321 -0.005249 307156.000000 0 0 1
28.555031 6.506261 4.366241 29.610561 0.224025 1.422801 0.059684 -0.008354 729010.000000 0 0 1
28.897731 5.845961 5.552841 30.001470 0.199604 1.384637 0.042265 -0.003138 -86378.900000 0 0 1
30.401121 5.880761 5.897841 31.521359 0.191079 1.382581 0.044299 -0.008907 72756.800000 0 0 1
30.775071 7.163461 6.390541 32.237543 0.228696 1.371242 0.051308 -0.020583 -408424.000000 0 0 1
32.119791 7.174961 6.778641 33.602247 0.219773 1.367671 0.005841 -0.005851 -473201.000000 0 0 1
32.514271 8.429761 7.578941 34.433691 0.253678 1.348877 0.019764 -0.013132 -510634.000000 0 0 1
31.930751 8.542561 8.810841 34.207881 0.261412 1.310292 0.021211 -0.016026 -226494.000000 0 0 1
32.343731 9.642461 9.589741 35.086424 0.289735 1.293956 0.007841 -0.011134 -237904.000000 0 0 1
31.799501 9.527061 11.051341 34.987216 0.291088 1.249425 0.001587 -0.016015 -762693.000000 0 0 1
30.444121 9.880461 11.148141 33.893201 0.313820 1.235637 0.008205 -0.013098 -116911.000000 0 0 1
29.898541 9.646361 12.466141 33.799108 0.312093 1.193046 0.001986 -0.014266 -41759.900000 0 0 1
28.400801 10.022061 12.522841 32.617001 0.339238 1.176741 0.004912 -0.020546 -208468.000000 0 0 1
28.139531 11.405461 12.479641 32.827720 0.385083 1.180832 0.001679 -0.021225 131388.000000 0 0 1
28.234201 12.199361 11.240041 32.746497 0.407850 1.220428 0.009922 -0.021461 -1153510.000000 0 0 1
26.991261 12.237061 10.379041 31.400611 0.425654 1.233925 0.005595 -0.019299 -864595.000000 0 0 1
27.062631 13.147861 9.312541 31.495645 0.452248 1.270632 -0.001876 -0.009423 226259.000000 0 0 1
25.946471 13.064561 8.431841 30.248935 0.466459 1.288306 -0.007223 -0.004363 108840.000000 0 0 1
26.012311 14.109661 7.296741 30.478932 0.497007 1.329046 -0.014222 -0.000845 62045.500000 0 0 1
25.634471 15.432661 7.766141 30.912879 0.541909 1.316849 -0.020918 0.005870 320663.000000 0 0 1
25.808961 16.457161 6.876241 31.372334 0.567646 1.349821 -0.029075 0.010324 -714004.000000 0 0 1
25.639791 17.819861 7.578141 32.130586 0.607368 1.332699 -0.020128 0.008481 499184.000000 0 0 1
24.321401 18.272761 7.890641 31.427481 0.644335 1.317006 -0.015475 0.014538 238581.000000 0 0 1
23.618101 17.567261 8.868841 30.742149 0.639524 1.278146 -0.005143 0.010428 -687977.000000 0 0 1
22.284501 18.294561 9.096641 30.233075 0.687388 1.265177 0.005986 0.002906 -267541.000000 0 0 1
21.576901 18.647561 7.931741 29.600789 0.712702 1.299524 0.015082 0.003887 289773.000000 0 0 1
20.587901 19.662661 8.109941 29.601572 0.762415 1.293278 0.055396 -0.003595 116986.000000 0 0 1
19.767401 19.942761 6.871341 28.908117 0.789814 1.330803 0.039682 -0.001086 -154829.000000 0 0 1
20.423001 20.751661 5.934541 29.714461 0.793380 1.369725 0.022929 0.011030 -347933.000000 0 0 1
19.560601 20.980461 4.889841 29.098237 0.820407 1.401949 0.031646 0.004207 -206314.000000 0 0 1
16.982481 17.216861 33.226222 41.095095 0.792251 0.629163 0.028263 0.006692 -118254.000000 0 0 1
16.279881 17.827161 32.180389 40.229587 0.830732 0.643637 0.024143 0.002165 173722.000000 0 0 1
15.884081 16.870561 31.216379 38.876499 0.815506 0.638547 0.026325 -0.002455 -120937.000000 0 0 1
15.481481 17.556061 29.866089 37.945682 0.848110 0.664744 0.037652 -0.000378 891789.000000 0 0 1
16.584481 18.145161 29.132149 38.117896 0.830306 0.700896 0.026906 0.007511 446743.000000 0 0 1
16.188881 18.470061 27.778139 37.078943 0.851121 0.724000 0.041172 -0.004964 -49357.500000 0 0 1
17.308681 18.797261 26.747219 36.991096 0.826603 0.762557 0.026282 -0.002330 -249620.000000 0 0 1
17.760781 20.081561 26.914229 37.988027 0.846649 0.783437 0.027693 0.001812 -74559.000000 0 0 1
18.759981 20.462761 25.981289 38.022215 0.828784 0.818498 0.021129 0.000582 432024.000000 0 0 1
19.588981 21.731961 26.370719 39.388084 0.837214 0.837247 0.019937 -0.005772 -112021.000000 0 0 1
18.844781 22.885361 26.168549 39.543122 0.881924 0.847616 0.008105 -0.006918 -231173.000000 0 0 1
19.540681 24.041761 26.524929 40.785002 0.888311 0.862738 0.017256 -0.005183 -263112.000000 0 0 1
18.703481 25.360361 26.531469 41.193288 0.935338 0.870986 0.021716 -0.005635 -95130.400000 0 0 1
18.281981 25.627561 25.223889 40.339153 0.951152 0.895286 0.023118 -0.006906 529155.000000 0 0 1
17.463681 26.816161 25.194069 40.728709 0.993552 0.903859 0.019340 -0.008204 272600.000000 0 0 1
17.431181 27.584961 23.857159 40.422026 1.007244 0.939487 0.012305 -0.010226 147713.000000 0 0 1
18.620081 28.354161 23.716859 41.390280 0.989728 0.960628 0.028929 -0.012932 359335.000000 0 0 1
18.553381 29.247361 22.610359 41.362597 1.005494 0.992453 0.026198 -0.007520 -270496.000000 0 0 1
19.769281 30.174861 22.629259 42.584388 0.990804 1.010546 0.038227 -0.005284 -173907.000000 0 0 1
20.520581 29.992361 21.463659 42.205742 0.970758 1.037298 0.024681 -0.004537 -403508.000000 0 0 1
21.802881 30.590861 21.485859 43.275958 0.951581 1.051252 0.019396 -0.009823 457728.000000 0 0 1
22.388581 30.646961 20.056659 42.927315 0.939872 1.084648 0.016848 -0.010344 128415.000000 0 0 1
21.634381 31.576361 19.317959 42.875361 0.970110 1.103403 0.015931 -0.002605 168732.000000 0 0 1
21.716581 31.298961 17.911459 42.095786 0.964214 1.131290 0.021932 0.002036 -318763.000000 0 0 1
21.255781 32.625061 17.229959 42.580211 0.993355 1.154203 0.031737 -0.005675 88957.500000 0 0 1
22.147081 33.737361 17.417159 43.955206 0.989896 1.163370 0.035818 -0.009681 289182.000000 0 0 1
22.218881 34.645761 16.278059 44.260396 1.000550 1.194176 0.041543 -0.014354 -60165.000000 0 0 1
23.075081 34.227461 15.054059 43.938629 0.977618 1.221097 0.021097 -0.011044 -185296.000000 0 0 1
22.632581 33.086361 14.379759 42.587774 0.970858 1.226377 0.033022 -0.009929 -154472.000000 0 0 1
21.580081 33.318461 13.464359 41.917881 0.996046 1.243792 0.030602 -0.010419 -42050.400000 0 0 1
21.326181 32.119661 12.551559 40.546520 0.984670 1.256067 0.028452 -0.023881 -98469.000000 0 0 1
22.452381 31.771161 11.771359 40.645799 0.955594 1.276979 0.037015 -0.029297 3869.680000 0 0 1
22.176181 30.558661 11.156059 39.370959 0.943035 1.283503 0.028992 -0.029154 -429272.000000 0 0 1
23.400881 29.870161 10.518259 39.375900 0.906247 1.300389 0.030956 -0.026402 160787.000000 0 0 1
24.371981 29.280661 11.343659 39.749581 0.876634 1.281395 0.021967 -0.022849 157425.000000 0 0 1
25.242481 30.165761 12.051659 41.138771 0.874020 1.273484 0.021704 -0.019761 -713999.000000 0 0 1
26.612581 29.496561 12.193659 41.556731 0.836752 1.272992 0.025829 -0.015205 -349976.000000 0 0 1
26.570681 28.444861 13.157059 41.087947 0.819451 1.244838 0.026460 -0.011103 636950.000000 0 0 1
27.683281 27.525061 13.065259 41.166662 0.782532 1.247837 0.015497 0.004827 658364.000000 0 0 1
27.676881 26.617361 14.306159 40.977553 0.765886 1.214163 -0.004722 -0.008205 -132310.000000 0 0 1
28.519381 27.134661 15.321559 42.242101 0.760522 1.199624 -0.020554 -0.007126 151566.000000 0 0 1
28.878781 26.096961 16.224259 42.169443 0.734840 1.175871 -0.004751 -0.012351 893165.000000 0 0 1
30.133781 26.317361 17.173859 43.538370 0.717895 1.165323 -0.004222 -0.011585 1124080.000000 0 0 1
31.400281 26.450061 16.554659 44.267823 0.700037 1.187515 0.011641 -0.008262 712715.000000 0 0 1
32.460281 26.708561 17.489559 45.529131 0.688494 1.176520 0.001711 -0.005876 306404.000000 0 0 1
33.802381 27.078861 16.892359 46.488896 0.675407 1.198921 0.002295 -0.012633 -404538.000000 0 0 1
33.794181 28.448361 16.422759 47.128154 0.699721 1.214858 0.018095 -0.007123 -188053.000000 0 0 1
-34.820239 28.765461 15.876459 47.874448 -0.690462 1.232769 0.028208 -0.011192 -72124.200000 0 0 1
-34.811039 29.785261 14.759359 48.133241 -0.707752 1.259140 0.023153 -0.008212 156860.000000 0 0 1
34.605481 31.079361 15.144459 48.916466 0.731767 1.256026 0.028250 -0.009574 -137939.000000 0 0 1
34.201481 31.890661 14.110659 48.845330 0.750449 1.277735 0.022447 -0.000296 -66894.200000 0 0 1
33.896481 33.367761 14.516659 49.730396 0.777538 1.274576 -0.006475 -0.002783 -617964.000000 0 0 1
33.452481 34.159961 13.467459 49.672365 0.795862 1.296234 -0.031670 -0.003943 33118.500000 0 0 1
32.188481 -34.614905 13.649359 49.199542 -0.821704 1.289680 -0.034284 0.005544 416024.000000 0 0 1
30.962981 33.844761 13.370459 47.780155 0.829835 1.287176 -0.034457 0.010859 -542806.000000 0 0 1
30.688081 32.908661 14.409459 47.247971 0.820301 1.260884 -0.028927 0.001016 490138.000000 0 0 1
29.645881 31.992061 14.015059 45.812576 0.823444 1.259890 -0.016437 0.010371 -74661.800000 0 0 1
29.142981 31.009261 15.035659 45.132678 0.816414 1.231161 -0.006709 0.001554 288238.000000 0 0 1
28.282381 31.632761 16.027259 45.358546 0.841259 1.209651 -0.010111 -0.000950 321656.000000 0 0 1
27.937381 30.706661 17.027659 44.870229 0.832585 1.181555 -0.007638 -0.003005 -3411.360000 0 0 1
26.755981 31.083361 17.953759 44.770474 0.860076 1.158169 -0.008011 -0.002837 -30279.400000 0 0 1
26.543581 30.170661 19.027559 44.462102 0.849265 1.128573 -0.020557 -0.003619 -433677.000000 0 0 1
27.459781 30.237961 20.081059 45.515083 0.833512 1.113866 -0.010622 -0.008646 -198477.000000 0 0 1
27.244681 29.081561 21.077659 45.080789 0.817998 1.084276 -0.000275 -0.012490 325327.000000 0 0 1
26.054281 29.116961 21.861059 44.771965 0.840853 1.060684 -0.000341 -0.016389 133547.000000 0 0 1
25.979881 28.151961 22.861459 44.610912 0.825502 1.032745 -0.007608 -0.013807 184902.000000 0 0 1
24.744981 28.243561 23.798259 44.456383 0.851328 1.005913 0.002576 -0.017006 384625.000000 0 0 1
23.545081 27.755661 23.222259 43.174308 0.867291 1.002885 0.004272 -0.012102 399247.000000 0 0 1
22.385081 27.689061 24.032959 42.957643 0.890927 0.977066 0.009675 -0.013620 327143.000000 0 0 1
22.244481 26.558761 25.106479 42.784577 0.873570 0.943681 0.025852 -0.013581 -888959.000000 0 0 1
23.297881 26.555561 26.012199 43.870532 0.850651 0.936102 0.011137 -0.016880 -368099.000000 0 0 1
23.200681 25.490161 27.010099 43.790014 0.832384 0.906113 0.008872 -0.014088 170109.000000 0 0 1
24.559981 25.328761 27.794639 44.914149 0.800807 0.903532 0.018728 -0.023059 564132.000000 0 0 1
24.889381 26.467261 28.606399 46.242008 0.816112 0.903807 0.010008 -0.024209 -182564.000000 0 0 1
25.594881 27.386661 27.878159 46.715296 0.819204 0.931330 -0.004268 -0.016921 -1232150.000000 0 0 1
25.909581 28.706561 28.652779 48.128524 0.836565 0.933109 -0.010360 -0.015363 -605622.000000 0 0 1
26.694681 28.556261 29.824009 49.168461 0.819079 0.919060 0.000387 -0.012608 209215.000000 0 0 1
26.757481 29.851961 30.485459 50.363336 0.840007 0.920640 0.006313 -0.010542 1272740.000000 0 0 1
28.316581 30.145761 30.576819 51.434789 0.816676 0.934181 -0.008912 -0.006233 1147250.000000 0 0 1
28.991981 30.161961 29.378279 51.121054 0.805174 0.958582 -0.026554 -0.011284 -234593.000000 0 0 1
30.361581 30.509761 29.513309 52.189142 0.787832 0.969749 -0.002488 -0.018211 312749.000000 0 0 1
30.990881 30.881661 28.203599 52.053383 0.783633 0.998195 -0.010908 -0.007630 -282901.000000 0 0 1
30.680581 32.214361 27.810229 52.464006 0.809780 1.012099 -0.016785 -0.008017 20291.600000 0 0 1
31.399581 32.531361 26.652979 52.484326 0.803099 1.038135 -0.006082 -0.009647 -98844.100000 0 0 1
31.323181 34.000361 26.235489 53.155123 0.826359 1.054613 -0.011067 -0.010565 -636644.000000 0 0 1
32.036881 -34.504005 27.020929 54.286450 -0.822458 1.049797 0.007787 -0.014453 -268396.000000 0 0 1
31.837581 -33.209305 26.607489 53.145536 -0.806483 1.046443 0.001347 -0.010695 -241411.000000 0 0 1
32.803281 -32.221805 27.293879 53.472009 -0.776456 1.035108 0.001442 -0.008406 -235711.000000 0 0 1
32.522881 -32.072905 28.642359 53.914690 -0.778432 1.010717 0.001014 -0.011326 410800.000000 0 0 1
33.371981 -31.075605 29.246389 54.173182 -0.749782 1.000516 0.002372 -0.018509 -80141.400000 0 0 1
33.135381 -30.567805 30.692419 54.537774 -0.745115 0.973059 0.002716 -0.016888 -397596.000000 0 0 1
33.217381 -31.539905 31.754129 55.735848 -0.759500 0.964625 0.003160 -0.016908 730669.000000 0 0 1
32.002781 -32.286905 31.920489 55.547636 -0.789818 0.958619 0.006150 -0.019525 300721.000000 0 0 1
32.133781 -33.345605 33.042949 56.888889 -0.803903 0.951045 0.015101 -0.016915 -151150.000000 0 0 1
31.942181 -32.728205 34.299654 57.165589 -0.797552 0.927289 0.003665 -0.017596 118257.000000 0 0 1
32.346181 -33.447905 -33.825069 57.525412 -0.802142 2.199383 0.001788 -0.016603 -601197.000000 0 0 1
31.666581 34.562761 -33.516569 57.625664 0.829100 2.191522 0.010753 -0.012194 -66811.300000 0 0 1
31.884781 33.578361 -34.502290 57.745594 0.811263 2.211161 0.004056 -0.014776 -182824.000000 0 0 1
31.252981 32.383161 -34.200730 56.525285 0.803156 2.220627 0.001401 -0.009361 -227048.000000 0 0 1
31.358881 31.365761 33.917070 55.835097 0.785508 0.917949 -0.000871 -0.006951 -358048.000000 0 0 1
32.652481 30.907761 33.671493 56.171556 0.757955 0.927995 -0.005807 -0.018675 -553514.000000 0 0 1
32.612381 29.923761 32.598189 54.969453 0.742432 0.935987 -0.002913 -0.019661 -8437.800000 0 0 1
33.840781 28.988661 32.497279 55.150830 0.708324 0.940674 -0.002033 -0.015165 -16333.600000 0 0 1
34.033281 28.127461 33.559079 55.458363 0.690674 0.920877 0.000932 -0.012524 71817.700000 0 0 1
-34.594039 27.472261 33.645379 55.529129 -0.671153 0.919893 -0.014786 -0.015239 -135266.000000 0 0 1
-34.542839 26.170661 34.486550 55.384414 -0.648366 0.898638 -0.018860 -0.010685 14868.400000 0 0 1
34.867781 25.028861 33.755167 54.604188 0.622587 0.904372 -0.016113 -0.009256 189882.000000 0 0 1
34.423381 24.003061 34.626883 54.407142 0.608904 0.880922 -0.024196 -0.015260 55770.700000 0 0 1
33.949681 22.788861 33.778568 53.036824 0.591172 0.880340 -0.017016 -0.014883 301099.000000 0 0 1
-34.800639 22.134961 33.170099 52.927275 -0.566506 0.893471 -0.009894 -0.014247 534110.000000 0 0 1
34.786281 21.020161 32.338899 51.939743 0.543550 0.898706 -0.001395 -0.005529 -48809.100000 0 0 1
-33.816939 20.458961 31.659869 50.640910 -0.544082 0.895430 -0.008655 -0.018799 80120.500000 0 0 1
-33.392539 21.284761 30.599389 50.044234 -0.567474 0.912909 -0.007207 -0.018151 -216656.000000 0 0 1
-32.359439 20.699261 29.838909 48.641065 -0.569077 0.910373 0.004550 -0.020964 -264160.000000 0 0 1
-32.816639 19.646061 28.774179 47.862855 -0.539435 0.925820 0.001005 -0.009722 -544173.000000 0 0 1
-33.383339 18.512061 29.363239 48.159563 -0.506314 0.915105 -0.013674 -0.010220 10848.400000 0 0 1
-33.927239 17.739061 28.352449 47.640248 -0.481765 0.933361 -0.015107 -0.009728 -539.763000 0 0 1
-34.800639 16.513661 28.737779 48.058770 -0.443058 0.929828 -0.012554 -0.003656 9517.090000 0 0 1
-33.937939 15.536761 29.329949 47.470207 -0.429321 0.904778 -0.005028 0.003079 251362.000000 0 0 1
-34.611739 14.509161 29.990339 48.040698 -0.396946 0.896600 0.001978 -0.003108 -226808.000000 0 0 1
-33.740339 13.273961 30.387619 47.307673 -0.374817 0.873249 -0.003132 0.007140 94906.300000 0 0 1
-32.890939 13.410561 31.535999 47.499224 -0.387151 0.844739 -0.009123 0.008469 410236.000000 0 0 1
-32.322939 12.164361 31.954329 47.051283 -0.359943 0.824208 0.008125 0.009860 -599083.000000 0 0 1
-30.829139 12.226761 31.685039 45.867976 -0.377570 0.808218 -0.003131 0.015308 -1751940.000000 0 0 1
-30.475939 12.301361 30.318349 44.713629 -0.383642 0.825682 0.001429 0.018339 314323.000000 0 0 1
-29.146639 12.648561 29.971399 43.678340 -0.409438 0.814566 0.020813 0.018855 1166660.000000 0 0 1
-27.936839 11.724661 30.405069 42.923221 -0.397360 0.783625 0.010720 0.015496 314749.000000 0 0 1
-27.728439 10.539461 29.674629 41.958672 -0.363231 0.785217 0.003605 0.012618 -886143.000000 0 0 1
-26.561139 9.936961 30.073029 41.335510 -0.357996 0.756074 -0.004041 0.008687 -798558.000000 0 0 1
-25.952939 8.881061 29.096579 39.987988 -0.329708 0.755931 -0.000306 0.004735 -24072.300000 0 0 1
-26.592139 7.586461 29.019099 40.084964 -0.277907 0.761300 0.000203 0.000528 882335.000000 0 0 1
-27.928939 7.628861 28.468719 40.604102 -0.266648 0.793816 0.003214 0.010663 762225.000000 0 0 1
-28.652339 6.268961 28.478829 40.881537 -0.215400 0.800123 -0.002812 0.009674 -96345.900000 0 0 1
-29.044739 5.813861 29.761709 41.989965 -0.197558 0.783027 0.002229 0.009966 99767.700000 0 0 1
-29.531739 4.468861 29.675289 42.103647 -0.150185 0.788634 -0.000692 0.002268 -287562.000000 0 0 1
-30.140139 4.033961 31.007179 43.429782 -0.133049 0.775657 0.007317 0.005597 -389023.000000 0 0 1
-31.355239 4.647361 31.352939 44.584255 -0.147145 0.790867 0.008169 0.005215 -446011.000000 0 0 1
-31.715539 4.368561 32.713609 45.772699 -0.136881 0.774606 0.009333 -0.006606 650432.000000 0 0 1
-33.205239 4.741961 33.014469 47.064097 -0.141849 0.793326 0.014486 -0.008411 585101.000000 0 0 1
-33.431739 6.128561 32.982489 47.361218 -0.181303 0.800423 0.007783 0.001829 171899.000000 0 0 1
-34.831139 6.384861 32.948489 48.369180 -0.181296 0.821413 0.000358 0.016536 601969.000000 0 0 1
34.661181 7.886661 33.183699 48.628744 0.223727 0.819771 0.004581 0.003190 -148491.000000 0 0 1
34.897581 8.358961 34.517489 49.791269 0.235099 0.804816 0.001122 -0.004935 255889.000000 0 0 1
34.458681 9.735461 -34.583526 49.781524 0.275349 2.338807 0.006062 -0.010087 -49798.500000 0 0 1
34.514781 10.227761 -33.138499 48.928901 0.288086 2.314854 0.003801 -0.018368 -339058.000000 0 0 1
33.431681 9.832761 -32.342679 47.543763 0.286049 2.318930 0.015173 -0.018151 -184471.000000 0 0 1
33.653481 10.138761 -30.984889 46.855252 0.292621 2.293333 0.020595 -0.011543 -319284.000000 0 0 1
32.486781 9.620161 -30.121979 45.335108 0.287898 2.297526 0.005018 -0.006308 30999.400000 0 0 1
32.345781 8.198061 -30.049239 44.904504 0.248224 2.303902 -0.009356 -0.006967 166070.000000 0 0 1
31.133981 7.733461 -29.487759 43.573606 0.243466 2.314114 0.001720 -0.006597 -38485.700000 0 0 1
33.585121 6.025561 -20.059359 39.580874 0.177523 2.102258 -0.009621 0.004288 -325696.000000 0 0 1
33.151841 7.061561 -19.227659 38.969386 0.209870 2.086796 -0.021199 0.011423 223051.000000 0 0 1
33.733231 8.324861 -19.512659 39.849442 0.241951 2.082496 -0.035050 0.018307 -1165040.000000 0 0 1
-34.734034 8.736361 -19.103059 40.591920 -0.246410 2.060781 -0.029106 0.013666 -332842.000000 0 0 1
-33.740079 7.919861 -19.700359 39.865038 -0.230558 2.087683 -0.020433 0.001308 73359.800000 0 0 1
-33.304899 8.443561 -20.932859 40.233004 -0.248292 2.117988 -0.027446 0.000602 -1063020.000000 0 0 1
-32.484749 7.438661 -21.740159 39.789786 -0.225108 2.148827 -0.014315 0.002356 -187417.000000 0 0 1
-33.150219 6.357161 -22.388559 40.504297 -0.189468 2.156451 -0.008097 0.005614 -115827.000000 0 0 1
-33.849929 6.646761 -23.547859 41.767197 -0.193893 2.169762 -0.011485 0.003614 -162708.000000 0 0 1
-33.770489 5.485761 -24.600859 42.139551 -0.161036 2.194191 -0.001651 -0.000503 618616.000000 0 0 1
-32.444929 5.347461 -25.136599 41.389822 -0.163348 2.223471 -0.005908 0.004848 573226.000000 0 0 1
-32.339149 4.212261 -25.980979 41.696222 -0.129523 2.243498 0.007426 -0.001574 485454.000000 0 0 1
-31.002559 4.185161 -26.802939 41.195531 -0.134183 2.279207 0.028246 0.000398 1510780.000000 0 0 1
-29.844279 4.180061 -25.936629 39.760063 -0.139157 2.281449 0.033830 0.001305 -470013.000000 0 0 1
-28.662799 4.101061 -26.624199 39.334752 -0.142115 2.314288 0.040044 0.005282 257721.000000 0 0 1
-27.404169 4.481961 -25.709129 37.842248 -0.162115 2.317709 0.015281 0.010197 932244.000000 0 0 1
-27.219039 5.876561 -25.589889 37.818679 -0.212635 2.313995 0.000731 0.012769 -185191.000000 0 0 1
-25.929729 6.189361 -25.145509 36.646359 -0.234313 2.327003 -0.003412 0.015800 -251687.000000 0 0 1
-25.440439 7.626461 -25.423019 36.765591 -0.291252 2.334345 -0.006249 0.008384 -126357.000000 0 0 1
-26.250699 8.648861 -24.825059 37.150848 -0.318271 2.302614 -0.002799 0.003865 142034.000000 0 0 1
-25.772909 10.004161 -25.082019 37.328725 -0.370263 2.307598 -0.011218 -0.007699 -238120.000000 0 0 1
-24.506719 10.415261 -24.330859 36.070038 -0.401867 2.311144 0.002115 -0.002208 -433018.000000 0 0 1
-24.584119 10.487061 -22.901059 35.196816 -0.403207 2.279246 -0.002582 -0.001328 726370.000000 0 0 1
-23.281419 10.952261 -22.506359 34.183515 -0.439712 2.289485 0.008926 -0.006094 89860.700000 0 0 1
-23.204119 11.097161 -20.985459 33.195897 -0.446089 2.255147 0.015375 -0.006055 -799528.000000 0 0 1
-23.644619 12.377661 -20.440459 33.616764 -0.482261 2.224390 0.015907 -0.011106 831013.000000 0 0 1
-24.893919 12.905161 -20.892459 34.967774 -0.478264 2.211148 0.012019 -0.008996 55118.600000 0 0 1
-26.159489 12.202761 -20.360459 35.323852 -0.436470 2.185105 0.004695 -0.008544 -870244.000000 0 0 1
-26.114279 12.160561 -18.919759 34.464359 -0.435806 2.151923 0.016443 -0.013140 411161.000000 0 0 1
-27.272899 11.727361 -18.203759 34.824113 -0.406099 2.120852 0.013890 -0.012490 -443507.000000 0 0 1
-26.927139 11.103961 -16.831759 33.640405 -0.391125 2.094792 0.029103 -0.014076 21578.900000 0 0 1
-26.066539 9.989361 -16.667259 32.512294 -0.365962 2.109059 0.038603 -0.014115 843233.000000 0 0 1
-24.703819 10.295561 -16.962759 31.686155 -0.394871 2.135703 0.025161 -0.009781 -239271.000000 0 0 1
-23.783519 9.072161 -16.798159 30.498164 -0.364411 2.154110 0.020999 -0.011441 -939687.000000 0 0 1
-22.435519 9.363661 -16.629359 29.454477 -0.395381 2.170719 0.023604 -0.006020 -332068.000000 0 0 1
-21.771919 8.178761 -16.203159 28.345210 -0.359346 2.179295 0.016694 -0.006008 1072610.000000 0 0 1
-20.226319 8.312061 -15.919759 27.048716 -0.389913 2.200071 0.023877 -0.001582 1168620.000000 0 0 1
-19.382119 8.421561 -17.057259 27.157675 -0.409891 2.249883 0.027606 -0.001327 728404.000000 0 0 1
-18.036819 8.718961 -16.686459 26.072687 -0.450278 2.265292 0.046273 -0.005948 218042.000000 0 0 1
-17.170619 9.232961 -17.870259 26.446623 -0.493365 2.312724 0.037302 -0.005961 -127710.000000 0 0 1
-16.992419 8.340061 -18.971859 26.799820 -0.456269 2.357331 0.046375 -0.003514 300969.000000 0 0 1
-16.377319 7.094861 -18.705359 25.854285 -0.408806 2.379643 0.051764 -0.005177 -407441.000000 0 0 1
-15.775219 6.305461 -19.913359 26.175527 -0.380254 2.435283 0.022454 -0.008402 465801.000000 0 0 1
-16.737819 5.566461 -20.667059 27.171076 -0.321061 2.435075 0.029764 0.003995 369786.000000 0 0 1
-17.551119 6.269461 -21.581459 28.515036 -0.343085 2.429269 0.036287 -0.003391 -314628.000000 0 0 1
-18.512019 5.377061 -22.351759 29.516245 -0.282685 2.429919 0.031195 0.003917 -102818.000000 0 0 1
-19.427119 4.727061 -21.461759 29.331981 -0.238684 2.391586 0.021584 0.000881 387388.000000 0 0 1
-20.029919 3.596261 -21.984459 29.957423 -0.177652 2.394779 0.005719 0.016261 263917.000000 0 0 1
-21.139119 2.900861 -21.093959 30.003874 -0.136375 2.350461 0.015795 0.003775 559868.000000 0 0 1
-21.646119 1.709761 -21.670759 30.677345 -0.078823 2.355208 0.016236 0.010319 572790.000000 0 0 1
-22.545919 1.116761 -20.701659 30.628815 -0.049492 2.312966 0.037807 0.000325 -10112.100000 0 0 1
-22.743519 -0.373239 -21.136459 31.050875 0.016409 2.319520 0.033997 0.016529 258029.000000 0 0 1
-21.583019 -1.196039 -21.154259 30.244997 0.055359 2.345396 0.013949 0.004133 42921.500000 0 0 1
-21.920819 -2.507539 -21.485559 30.796741 0.113896 2.342918 0.021719 -0.002252 -741769.000000 0 0 1
-22.286619 -2.783339 -22.954459 32.114600 0.124245 2.367087 0.023443 -0.003743 -350616.000000 0 0 1
-21.321219 -2.594239 -23.940859 32.163476 0.121079 2.410356 0.000516 -0.002759 -450156.000000 0 0 1
-20.383319 -3.654139 -24.026959 31.719508 0.177387 2.430244 -0.025941 -0.009556 127144.000000 0 0 1
-19.395219 -3.465339 -25.215839 32.000338 0.176804 2.478328 -0.010824 -0.011001 85882.900000 0 0 1
-20.074719 -3.406239 -26.462849 33.389806 0.168077 2.485764 -0.012611 -0.014151 659215.000000 0 0 1
-19.144919 -3.723739 -27.507379 33.720172 0.192104 2.524829 -0.014640 -0.013783 119051.000000 0 0 1
-19.847719 -4.050039 -28.836289 35.240123 0.201292 2.529209 -0.017006 -0.013191 -160886.000000 0 0 1
-20.590819 -5.233839 -28.662199 35.677675 0.248912 2.503721 -0.014964 -0.012580 38298.100000 0 0 1
-21.416719 -5.489639 -29.770659 37.082396 0.250923 2.502814 -0.016681 -0.018672 -289815.000000 0 0 1
-21.029719 -6.726439 -30.559459 37.701122 0.309570 2.515924 -0.000516 -0.020913 -291292.000000 0 0 1
-19.867119 -6.516539 -31.319729 37.657577 0.316949 2.552955 0.000653 -0.024069 -153370.000000 0 0 1
-19.324919 -7.758939 -31.748439 37.968632 0.381798 2.561069 0.005267 -0.021011 188245.000000 0 0 1
-17.962119 -7.560939 -32.482849 37.880615 0.398425 2.601198 0.013034 -0.021130 -231062.000000 0 0 1
-17.997019 -6.982739 -33.781739 38.908318 0.370114 2.622439 0.011026 -0.026606 292955.000000 0 0 1
-18.266419 -7.929739 34.450359 39.791583 0.409566 0.524109 0.012614 -0.027694 -359511.000000 0 0 1
-18.175219 -7.296139 33.038209 38.406972 0.381741 0.535107 0.016502 -0.027020 441138.000000 0 0 1
-16.838219 -7.108539 32.569089 37.347055 0.399469 0.511389 0.023694 -0.024446 421596.000000 0 0 1
-16.317719 -5.832339 32.859679 37.148925 0.343273 0.485291 0.006707 -0.023052 201266.000000 0 0 1
-15.053819 -5.655139 31.959139 35.776873 0.359350 0.466183 0.010699 -0.019665 271753.000000 0 0 1
-15.448519 -5.492739 30.619639 34.733114 0.341612 0.491620 0.019266 -0.023177 1118040.000000 0 0 1
-14.299919 -5.126939 29.818239 33.464915 0.344253 0.471187 0.023168 -0.016522 1061340.000000 0 0 1
-14.723019 -5.100439 28.313719 32.317928 0.333487 0.503085 0.025116 -0.015020 241411.000000 0 0 1
-15.671419 -4.102339 28.000439 32.348835 0.256027 0.524493 0.015757 -0.016152 144071.000000 0 0 1
-16.302519 -4.156439 26.714209 31.570509 0.249638 0.562028 0.018670 -0.009508 110726.000000 0 0 1
-15.399119 -3.728839 25.531889 30.048535 0.237573 0.555402 0.021492 -0.003765 -13001.700000 0 0 1
-15.074819 -2.352039 25.504559 29.719771 0.154776 0.539106 0.010008 0.005735 222447.000000 0 0 1
-14.096919 -2.094039 24.506399 28.349104 0.147468 0.526740 -0.001974 0.010930 117636.000000 0 0 1
-13.785919 -0.588139 24.448949 28.073984 0.042636 0.513815 0.003127 0.011694 292281.000000 0 0 1
-14.703619 0.180461 23.623059 27.825849 -0.012273 0.556780 0.007498 0.002299 529609.000000 0 0 1
-14.914319 1.395061 24.261189 28.512951 -0.093267 0.553132 -0.007111 0.010643 -394241.000000 0 0 1
-15.631419 2.314661 23.268859 28.127188 -0.147009 0.596560 -0.007384 0.001330 -604899.000000 0 0 1
-14.811719 2.956661 22.376559 26.997023 -0.197027 0.593742 -0.022547 0.009354 -168112.000000 0 0 1
-15.494119 3.994861 21.743359 26.996301 -0.252335 0.634413 -0.020826 0.012159 471674.000000 0 0 1
-14.451319 4.634261 20.773959 25.726919 -0.310320 0.630930 -0.003783 0.012374 542209.000000 0 0 1
-13.624819 5.619961 21.358659 25.950182 -0.391218 0.604011 -0.027472 0.010168 -191479.000000 0 0 1
-12.552419 5.832661 20.479859 24.718572 -0.434982 0.594335 -0.021868 0.010898 -73511.500000 0 1 0
-11.487719 6.807761 21.017159 24.900487 -0.534970 0.566012 -0.022789 0.012188 134660.000000 0 1 0
-12.053119 8.117661 20.885459 25.443594 -0.592712 0.607893 -0.019247 0.005386 43987.900000 0 0 1
-11.112519 9.122561 20.922659 25.386352 -0.687371 0.602062 -0.020240 0.009639 -601975.000000 0 0 1
-11.763119 10.498661 20.762659 26.070690 -0.728660 0.649480 -0.014326 0.006725 -302255.000000 0 0 1
-12.335019 10.885861 19.545759 25.547825 -0.723071 0.699653 -0.009738 0.002165 236247.000000 0 0 1
-12.752919 12.206561 19.676559 26.434902 -0.763512 0.731250 -0.020587 0.002300 -627285.000000 0 0 1
-12.991419 12.902861 18.284559 25.876358 -0.781978 0.786097 -0.020126 -0.001241 -157824.000000 0 0 1
-11.850219 13.537461 17.739459 25.266162 -0.851760 0.792449 -0.021458 0.000279 79404.000000 0 0 1
-11.634019 14.901561 18.172059 26.222712 -0.907920 0.805169 -0.016817 0.003659 -626793.000000 0 0 1
-12.702319 15.944161 17.776959 27.047836 -0.898086 0.853644 -0.012953 0.004270 -285783.000000 0 0 1
-12.696019 16.370661 16.409259 26.428228 -0.911152 0.900907 -0.018112 0.008951 268219.000000 0 0 1
-13.079319 15.380761 15.406759 25.396941 -0.866088 0.918971 -0.017579 -0.000975 -230077.000000 0 0 1
-13.481619 16.062961 14.081559 25.259910 -0.872548 0.979465 -0.025493 0.004681 -64059.700000 0 0 1
-14.586419 16.974361 14.169959 26.489248 -0.860916 1.006369 -0.019253 0.003825 502079.000000 0 0 1
-15.044819 17.393861 12.924859 26.380769 -0.857687 1.058781 -0.022169 0.012001 -308257.000000 0 0 1
-16.222019 18.383761 12.946459 27.725933 -0.847785 1.084965 -0.003095 0.012333 -741101.000000 0 0 1
-17.435019 17.711861 13.108759 28.098567 -0.793275 1.085435 0.009425 0.008132 -411331.000000 0 0 1
-18.469619 18.699161 13.288959 29.451348 -0.791574 1.102667 0.015612 0.014342 -333000.000000 0 0 1
-19.762419 18.014561 13.675159 30.034773 -0.739163 1.098075 0.021541 0.013040 -692865.000000 0 0 1
-20.280619 17.332261 12.545659 29.480576 -0.707171 1.131219 0.023439 0.015324 -889364.000000 0 0 1
-21.600219 16.979361 12.795159 30.308155 -0.666191 1.134960 0.034192 0.007470 -716947.000000 0 0 1
-22.161919 16.353761 11.510759 29.851193 -0.635726 1.174933 0.023739 0.004857 -183781.000000 0 0 1
-21.544119 15.104561 11.229759 28.607767 -0.611463 1.167402 0.031657 -0.001626 182142.000000 0 0 1
-22.176919 14.476961 10.161159 28.366305 -0.578337 1.204444 0.030731 0.003803 -282406.000000 0 0 1
-21.628719 13.074961 9.778859 27.099486 -0.543735 1.201617 0.032708 -0.001976 -270429.000000 0 0 1
-22.081719 11.991061 10.576959 27.262794 -0.497477 1.172376 0.034582 -0.007014 485067.000000 0 0 1
-23.287719 11.329561 10.212159 27.838193 -0.452792 1.195187 0.035124 0.002217 -266349.000000 0 0 1
-23.211019 10.519861 8.858559 26.979491 -0.425534 1.236246 0.015446 0.014791 -764045.000000 0 0 1
-23.523519 11.353861 7.732159 27.240638 -0.449680 1.282993 0.016216 0.008307 987649.000000 0 0 1
-24.945219 11.517161 7.596159 28.506325 -0.432539 1.301065 0.018970 0.012642 316900.000000 0 0 1
-25.225179 12.946361 7.057559 29.218608 -0.474177 1.326840 0.005613 0.027097 -597840.000000 0 0 1
-25.033619 13.213061 5.707559 28.876345 -0.485649 1.371831 0.010558 0.010236 1449130.000000 0 0 1
-23.671819 13.666061 5.463459 27.874103 -0.523571 1.373514 0.011000 0.006684 1101260.000000 0 0 1
-23.380519 15.155261 5.872559 28.474858 -0.575109 1.363069 0.016159 0.008099 -1295200.000000 0 0 1
-22.053719 15.547861 5.820359 27.603968 -0.614073 1.358350 -0.001203 0.009696 -452801.000000 0 0 1
-21.924219 16.851861 6.329059 28.367474 -0.655325 1.345793 0.002903 0.006429 -1081550.000000 0 0 1
-20.519219 17.388961 6.308059 27.626182 -0.703010 1.340428 -0.007377 0.011545 -1010390.000000 0 0 1
-20.031719 17.941961 5.094159 27.370316 -0.730422 1.383585 -0.003913 0.000693 -97815.000000 0 0 1
-18.784119 18.515861 5.364659 26.915791 -0.778206 1.370140 -0.006316 0.007798 -597918.000000 0 0 1
-18.179819 19.302761 4.192359 26.845452 -0.815348 1.413988 0.012597 -0.004195 -517707.000000 0 0 1
-16.840319 19.629961 4.412759 26.237457 -0.861740 1.401808 -0.000613 -0.002869 -190430.000000 0 0 1
-16.255219 20.647961 3.569759 26.520061 -0.903875 1.435781 0.013014 -0.004208 181084.000000 0 0 1
-16.509319 22.149361 3.766259 27.880755 -0.930269 1.435298 0.026060 -0.008075 -277266.000000 0 0 1
-15.868819 22.509561 4.944059 27.981127 -0.956735 1.393171 0.014459 -0.005491 72703.500000 0 0 1
-16.201719 23.826861 5.341359 29.304353 -0.973635 1.387500 0.011108 -0.008458 -257339.000000 0 0 1
-15.715419 24.189661 6.724959 29.619912 -0.994650 1.341757 0.008907 0.004962 305959.000000 0 0 1
-16.486619 23.585261 7.784159 29.810506 -0.960727 1.306613 -0.001843 0.013534 456237.000000 0 0 1
-15.760919 23.656861 8.993359 29.814999 -0.983096 1.264385 0.003150 0.007849 58159.300000 0 0 1
-16.485819 22.989461 10.168959 30.061691 -0.948684 1.225719 -0.002302 0.015230 -231448.000000 0 0 1
-17.530819 23.791761 10.625259 31.404994 -0.935768 1.225654 -0.002263 0.005822 -532480.000000 0 0 1
-18.358919 23.096761 11.553259 31.685771 -0.899191 1.197572 -0.007521 0.015486 89883.200000 0 0 1
-19.577319 23.950061 11.982859 33.173269 -0.885522 1.201220 -0.010607 0.008576 -511913.000000 0 0 1
-20.413919 24.314361 10.936759 33.578698 -0.872381 1.239039 -0.004905 0.015316 -271863.000000 0 0 1
-20.021219 25.486561 10.268859 33.997992 -0.904923 1.263961 -0.006886 0.003976 -1002820.000000 0 0 1
-21.201419 26.289461 9.743059 35.150578 -0.892128 1.289938 -0.006209 -0.001454 -703293.000000 0 0 1
-21.803619 26.879861 10.839559 36.268730 -0.889293 1.267290 -0.002359 -0.008047 -599841.000000 0 0 1
-22.712619 27.831561 10.378459 37.392128 -0.886331 1.289546 -0.014792 -0.003017 -458644.000000 0 0 1
-23.400619 28.497161 11.584259 38.650643 -0.883288 1.266400 -0.020111 0.004736 165760.000000 0 0 1
-22.481819 29.271061 12.364159 38.924281 -0.915839 1.247550 -0.005293 0.002192 702897.000000 0 0 1
-23.189819 30.195561 13.201459 40.296627 -0.915882 1.237027 -0.007327 0.007113 -175279.000000 0 0 1
7.883181 -32.991205 27.968539 43.963659 -1.336246 0.881267 -0.026878 -0.024587 63769.800000 0 0 1
9.293981 -32.934305 27.841009 44.115398 -1.295751 0.887832 -0.016556 -0.022141 401639.000000 0 0 1
9.678081 -32.824605 26.488249 43.275250 -1.284078 0.912098 -0.012313 -0.028017 -437734.000000 0 0 1
11.178281 -33.040705 26.292939 43.680210 -1.244566 0.924866 -0.009930 -0.020017 -573351.000000 0 0 1
11.563781 -34.386605 26.399989 44.867795 -1.246389 0.941724 0.004710 -0.024575 173999.000000 0 0 1
12.971781 -34.513505 26.290319 45.283882 -1.211284 0.951372 0.020744 -0.025649 121043.000000 0 0 1
13.582281 33.462861 26.119839 44.570028 1.185222 0.944633 0.039508 -0.015476 -270604.000000 0 0 1
13.594181 33.006861 24.791249 43.461025 1.180108 0.963773 0.031519 -0.009703 -295221.000000 0 0 1
14.631781 32.099561 24.608969 43.012466 1.143109 0.961689 0.027647 -0.012894 -928272.000000 0 0 1
14.915681 31.823761 23.134659 42.076618 1.132504 0.988645 0.027781 -0.012873 139121.000000 0 0 1
14.071081 30.887261 22.398659 40.665933 1.143326 0.987478 0.016891 -0.002837 237225.000000 0 0 1
14.278581 29.467161 22.518759 39.740231 1.119578 0.968363 0.014498 0.003903 27894.600000 0 0 1
13.636481 28.815961 23.803159 39.785721 1.128796 0.929439 0.015861 -0.002122 -549783.000000 0 0 1
14.313181 29.152061 24.965609 40.963294 1.114388 0.915413 0.022900 -0.007503 110247.000000 0 0 1
13.734581 28.606161 26.110009 41.093597 1.123173 0.882297 0.024923 -0.007152 -607915.000000 0 0 1
14.644681 28.949361 27.291959 42.395557 1.102462 0.871413 0.023213 -0.019189 -115914.000000 0 0 1
14.677281 30.342061 27.615869 43.574069 1.120251 0.884381 0.028150 -0.017165 253846.000000 0 0 1
15.402981 30.566361 28.812029 44.740220 1.104018 0.871101 0.053687 -0.021854 23100.400000 0 0 1
15.341181 32.009161 29.284639 46.016609 1.123866 0.880984 0.064076 -0.031396 -277026.000000 0 0 1
16.102581 32.817261 28.467939 46.332378 1.114637 0.909135 0.058671 -0.025188 -315478.000000 0 0 1
16.078481 34.131561 28.946239 47.553820 1.130556 0.916369 0.068164 -0.018641 138828.000000 0 0 1
16.759281 -34.066405 28.155539 47.266561 -1.113602 0.932690 0.070607 -0.031789 -120398.000000 0 0 1
16.173181 -33.951805 26.878329 46.224900 -1.126241 0.950264 0.070330 -0.030414 -163840.000000 0 0 1
16.305081 -32.636005 26.295339 44.971206 -1.107466 0.946268 0.052532 -0.030090 -1544830.000000 0 0 1
17.633181 -32.091405 25.908659 44.855835 -1.068362 0.955013 0.051365 -0.020149 -1321760.000000 0 0 1
18.420381 -31.791405 27.015919 45.605523 -1.045651 0.936783 0.037131 -0.015955 -991006.000000 0 0 1
19.576881 -31.096405 26.719099 45.432928 -1.008929 0.942089 0.041753 -0.016636 -541159.000000 0 0 1
20.107481 -30.272305 27.945999 45.844325 -0.984489 0.915260 0.042968 -0.010289 -498421.000000 0 0 1
19.223781 -29.257405 28.273289 44.999204 -0.989476 0.891422 0.038609 -0.006004 23729.300000 0 0 1
19.631481 -28.516405 29.434199 45.441748 -0.967879 0.866189 0.050859 0.000282 -572825.000000 0 0 1
18.386081 -28.036505 30.152599 45.091826 -0.990361 0.838346 0.025850 0.000321 -277223.000000 0 0 1
17.587181 -27.139605 29.436469 43.730685 -0.995810 0.832362 0.040802 0.003495 789648.000000 0 0 1
16.377681 -26.692705 30.082729 43.424642 -1.020463 0.805491 0.022746 -0.000919 566280.000000 0 0 1
15.499681 -25.786805 29.235349 41.951222 -1.029590 0.799746 0.017857 0.013815 -542478.000000 0 0 1
14.848081 -26.515505 28.159579 41.430658 -1.060325 0.823470 0.018123 0.004789 490947.000000 0 0 1
14.236681 -25.612605 27.246849 40.013490 -1.063475 0.821749 0.012606 -0.004419 1005800.000000 0 0 1
12.735381 -25.211305 27.613489 39.500691 -1.103041 0.796709 -0.001371 0.006117 2014820.000000 0 0 1
11.708481 -26.256405 27.584309 39.841956 -1.151333 0.806065 -0.004986 0.002712 1161230.000000 0 0 1
11.355781 -26.647505 26.249459 39.090630 -1.167954 0.834562 -0.004824 -0.003951 -565176.000000 0 0 1
10.594481 -27.984705 26.181789 39.760191 -1.208890 0.851982 -0.007784 -0.014550 -19821.600000 0 0 1
9.217781 -28.021305 26.544719 39.683537 -1.252990 0.838055 -0.030656 -0.010736 210676.000000 0 0 1
8.756381 -29.349905 26.467159 40.479645 -1.280859 0.858150 -0.021242 -0.019644 -757825.000000 0 0 1
7.286381 -29.526805 26.900159 40.602243 -1.328858 0.846606 -0.027457 -0.015830 -167893.000000 0 0 1
6.232181 -29.203805 26.017849 39.605944 -1.360547 0.854073 -0.029806 -0.015039 246734.000000 0 0 1
6.280681 -27.876505 25.460309 38.272364 -1.349193 0.842981 -0.013407 -0.013906 -1742060.000000 0 0 1
5.010681 -27.507605 24.698659 37.306822 -1.390616 0.847257 -0.013733 -0.015875 -1084100.000000 0 0 1
4.794181 -28.164805 23.476659 36.978290 -1.402193 0.882947 -0.026325 -0.001640 197401.000000 0 0 1
4.110681 -29.428505 23.557059 37.919251 -1.432011 0.900469 -0.022727 -0.008618 -577476.000000 0 0 1
2.707781 -29.446605 24.168459 38.190955 -1.479099 0.885591 -0.021042 -0.008803 -983137.000000 0 0 1
1.714681 -29.064305 23.196959 37.225970 -1.511869 0.898046 -0.021953 0.000782 1739650.000000 0 0 1
0.404281 -28.810905 23.795459 37.369179 -1.556765 0.880498 -0.008681 -0.012909 1461970.000000 0 0 1
0.207981 -27.354005 24.229359 36.542396 -1.563193 0.845913 0.002810 -0.013004 -404543.000000 0 0 1
1.156481 -26.992005 25.203419 36.947505 -1.527977 0.820109 0.002318 -0.021426 -58662.600000 0 0 1
1.181081 -25.576505 25.435499 36.090403 -1.524651 0.788695 0.004083 -0.024599 -480126.000000 0 0 1
2.331781 -24.988205 26.268189 36.329951 -1.477751 0.762596 0.011214 -0.022218 43604.300000 0 0 1
3.491681 -24.793405 25.438929 35.693751 -1.430885 0.777457 -0.003087 -0.015253 809439.000000 0 0 1
4.609381 -24.162705 26.085569 35.854422 -1.382297 0.756065 0.002270 -0.013115 321058.000000 0 0 1
4.467681 -22.645205 26.459749 35.112445 -1.376008 0.717318 0.002221 0.000995 -659307.000000 0 0 1
4.688081 -21.734805 25.420749 33.772686 -1.358356 0.718641 -0.009041 0.011035 103402.000000 0 0 1
3.716581 -20.701105 25.428569 32.999407 -1.393153 0.691051 -0.000511 -0.001590 -182169.000000 0 0 1
3.646981 -19.800605 24.226509 31.500606 -1.388652 0.693395 -0.009105 -0.002695 -474772.000000 0 0 1
4.767381 -18.998505 24.048359 31.016039 -1.324938 0.683523 0.011787 0.004639 -566536.000000 0 0 1
4.670781 -18.182905 22.882459 29.597992 -1.319355 0.687069 0.016278 0.005006 -1138750.000000 0 0 1
5.977781 -17.524305 22.571359 29.194201 -1.242060 0.687011 0.013040 0.005253 -632816.000000 0 0 1
6.796381 -18.516805 21.896359 29.470551 -1.219024 0.733268 -0.003130 0.007820 398191.000000 0 0 1
8.063381 -18.064405 21.427159 29.162716 -1.150966 0.745506 -0.014291 0.001430 692747.000000 0 0 1
9.284281 -18.191905 22.361059 30.284653 -1.098901 0.740157 -0.007927 0.009711 -144402.000000 0 0 1
9.159881 -17.342505 23.496659 30.606517 -1.084863 0.695550 0.004974 0.017244 154409.000000 0 0 1
10.069881 -17.658505 24.549259 31.873052 -1.052534 0.691610 -0.005486 0.021344 130936.000000 0 0 1
9.965881 -16.693105 25.739659 32.256915 -1.032581 0.646897 0.008180 0.003964 -178964.000000 0 0 1
10.357281 -15.353105 25.416949 31.448567 -0.977318 0.629695 0.014265 0.006957 265653.000000 0 0 1
10.175481 -14.616905 26.605739 32.016553 -0.962662 0.589894 0.010346 0.005251 -137097.000000 0 0 1
10.626481 -13.156205 26.620669 31.538355 -0.891368 0.565963 0.020580 0.008184 87861.900000 0 0 1
9.714981 -12.349705 25.893329 30.287961 -0.904245 0.545429 0.028675 0.005300 435144.000000 0 0 1
10.215781 -11.018205 25.808199 29.863459 -0.823170 0.527225 0.033105 0.018060 -149695.000000 0 0 1
9.260981 -10.191605 24.978719 28.523166 -0.833202 0.503841 0.033123 0.016470 244072.000000 0 0 1
8.052281 -9.850605 25.654699 28.636292 -0.885511 0.460387 0.008985 0.023147 824126.000000 0 0 1
7.010781 -9.421905 24.756269 27.400661 -0.931086 0.442949 0.010958 0.024684 852604.000000 0 0 1
5.575581 -9.408305 25.335109 27.594765 -1.035818 0.407504 -0.002647 0.018970 -587859.000000 0 0 1
5.337481 -8.262505 26.217719 28.002258 -0.997246 0.358935 0.003629 0.020409 1197740.000000 0 0 1
3.966181 -8.144905 26.680679 28.176740 -1.117641 0.327329 -0.010745 0.021650 1165910.000000 0 0 1
2.869181 -7.957605 25.642309 27.001550 -1.224747 0.318645 -0.014751 0.024745 -891729.000000 0 0 1
2.943481 -6.677805 25.027459 26.069731 -1.155631 0.283723 -0.003710 0.016772 -611215.000000 0 0 1
1.963581 -6.639205 24.060759 25.037069 -1.283238 0.280181 0.001686 0.000675 -396354.000000 0 0 1
1.981981 -5.315005 23.302559 23.983052 -1.213865 0.238785 0.004572 -0.008516 -263043.000000 0 1 0
1.510981 -4.274305 24.139659 24.561675 -1.231004 0.185641 0.006047 0.001197 101096.000000 0 1 0
1.785581 -2.958305 23.590959 23.842676 -1.027747 0.145438 0.002191 -0.002823 -1292250.000000 0 1 0
0.796881 -2.476305 22.492459 22.642390 -1.259459 0.115143 0.002604 -0.015739 240611.000000 0 1 0
-0.338819 -1.766305 22.941559 23.011948 1.381275 0.078235 0.008701 -0.020581 391756.000000 0 1 0
-1.246919 -2.545305 23.757459 23.925932 1.115270 0.118741 0.028303 -0.013597 -526955.000000 0 1 0
-2.267519 -1.566305 24.399779 24.554921 0.604496 0.112471 0.021996 -0.013010 -136920.000000 0 1 0
-1.609519 -0.705305 25.327139 25.388028 0.413005 0.069272 0.030676 -0.017667 -322807.000000 0 0 1
-2.344219 0.368695 25.798839 25.907748 -0.156001 0.091724 0.031781 -0.018827 -820805.000000 0 0 1
-1.759919 1.223695 26.942759 27.027893 -0.607574 0.079392 0.050090 -0.029433 -332768.000000 0 0 1
-1.695419 0.656695 28.289129 28.347496 -0.369541 0.064182 0.035508 -0.023597 -284066.000000 0 0 1
-0.867119 -0.452305 28.518789 28.535553 0.480792 0.034280 0.039743 -0.021205 -1653820.000000 0 0 1
0.405781 -0.075305 29.252769 29.255680 -0.183492 0.014107 0.051752 -0.025445 -816007.000000 0 0 1
1.244581 0.783695 28.461819 28.499795 0.561962 0.051629 0.049508 -0.021280 248013.000000 0 0 1
2.001181 0.216695 27.406099 27.479919 0.107863 0.073315 0.037339 -0.019317 -26459.200000 0 0 1
3.122781 -0.796305 27.775319 27.961656 -0.249678 0.115511 0.021649 -0.019862 -227870.000000 0 0 1
2.507581 -2.059305 28.051599 28.238642 -0.687554 0.115161 0.029142 -0.014698 -54074.100000 0 0 1
3.372581 -3.132305 28.275979 28.648152 -0.748477 0.161365 0.017159 0.006395 -272509.000000 0 0 1
3.980981 -3.818305 27.045329 27.602128 -0.764543 0.201199 0.018396 -0.002388 -153251.000000 0 0 1
4.932681 -3.077305 26.337189 26.971256 -0.557779 0.217263 0.018225 0.003393 -362720.000000 0 0 1
5.444581 -3.767305 25.203749 26.058876 -0.605294 0.256890 0.010832 0.006520 -1188990.000000 0 0 1
6.892281 -3.393305 24.978879 26.133550 -0.457496 0.298371 0.008229 0.004870 -706112.000000 0 0 1
7.786281 -3.965305 25.994729 27.424000 -0.471035 0.324273 0.008948 0.000734 536840.000000 0 0 1
8.187081 -5.324605 25.859309 27.642062 -0.576633 0.361108 0.004478 0.012686 63598.900000 0 0 1
9.032481 -5.713305 24.593659 26.815586 -0.563995 0.409951 0.007528 0.003334 46018.700000 0 0 1
8.307281 -5.552205 23.390359 25.435149 -0.589170 0.403716 0.005669 0.009646 -191900.000000 0 0 1
9.171281 -5.590205 22.285559 24.738814 -0.547400 0.449110 0.013083 0.003456 68023.700000 0 1 0
9.181281 -4.189305 21.623259 23.862345 -0.428070 0.436666 0.012613 0.000747 455839.000000 0 1 0
7.930881 -3.767305 21.103059 22.856740 -0.443462 0.394276 0.000609 -0.014682 -80957.900000 0 1 0
8.150581 -2.629305 20.325659 22.056238 -0.312052 0.398774 -0.001216 -0.016316 884850.000000 0 1 0
6.799981 -1.877305 20.049759 21.254573 -0.269365 0.338315 0.003122 -0.016507 740297.000000 0 1 0
6.242381 -1.286305 21.196959 22.134430 -0.203216 0.292082 0.009912 -0.014189 -65617.600000 0 1 0
4.964081 -0.712305 21.044559 21.633838 -0.142519 0.233937 0.000155 -0.010361 -145606.000000 0 1 0
4.419481 -0.355305 22.437459 22.871328 -0.080223 0.195091 0.001119 -0.019681 117584.000000 0 1 0
3.150581 0.292695 22.351559 22.574411 0.092636 0.140628 0.006207 -0.017593 345584.000000 0 1 0
2.869081 0.822695 23.672359 23.859779 0.279252 0.125422 0.028065 -0.023453 -4444.110000 0 1 0
1.401081 1.276695 23.825959 23.901241 0.738980 0.079390 0.031258 -0.022817 -149642.000000 0 1 0
1.023981 2.523695 23.252459 23.411417 1.185346 0.116597 0.036334 -0.021028 18784.200000 0 1 0
-0.376819 2.625695 23.332359 23.482658 -1.428258 0.113201 0.023307 -0.012834 -60410.400000 0 1 0
-0.908319 3.961695 22.779659 23.139424 -1.345416 0.176568 0.031578 -0.014371 41389.100000 0 1 0
-0.520819 4.970695 23.724259 24.244990 -1.466399 0.207630 0.040725 -0.014848 199890.000000 0 1 0
-1.299519 6.148695 23.524459 24.349443 -1.362513 0.261052 0.034418 -0.007563 75753.200000 0 1 0
-1.053619 7.369695 24.419759 25.529339 -1.428792 0.295910 0.040134 -0.004947 -319827.000000 0 0 1
0.037881 8.138695 24.009459 25.351409 1.566142 0.326826 0.037391 -0.005892 -215066.000000 0 0 1
-0.195219 9.452695 24.458689 26.222491 -1.550147 0.368865 0.044717 -0.004038 -389391.000000 0 0 1
0.563281 10.589695 23.748559 26.008710 1.517655 0.419972 0.042389 -0.009590 1299100.000000 0 0 1
2.004281 10.652695 23.821359 26.171630 1.384823 0.427035 0.029069 -0.004692 1138480.000000 0 0 1
2.632781 10.900695 25.122999 27.512211 1.333811 0.419830 0.038139 -0.006359 290054.000000 0 0 1
3.934281 11.771695 25.032969 27.941026 1.248252 0.460295 0.025384 -0.005539 651244.000000 0 0 1
5.099481 11.196695 24.468359 27.387429 1.143423 0.465904 0.010918 -0.003498 7579.960000 0 0 1
4.987081 10.712695 23.100959 25.947777 1.135103 0.472822 0.018636 -0.008206 -1452800.000000 0 0 1
6.269481 10.113695 22.549359 25.496408 1.015873 0.485561 0.017420 -0.006695 274813.000000 0 0 1
7.236481 11.123695 22.141459 25.813707 0.994037 0.539938 0.022866 -0.011395 597344.000000 0 0 1
8.330281 10.506695 21.476859 25.318762 0.900428 0.558108 0.022724 -0.011947 173325.000000 0 0 1
9.280981 11.563695 20.882159 25.610940 0.894474 0.617444 0.025764 -0.017837 -501154.000000 0 0 1
8.775081 12.106695 19.641759 24.685478 0.943611 0.650666 0.020802 -0.028197 332586.000000 0 1 0
9.547981 13.112695 19.022259 24.999061 0.941428 0.706068 0.028768 -0.025929 -633199.000000 0 1 0
10.947981 12.866695 18.511559 25.061683 0.865793 0.739746 0.032467 -0.021178 -668841.000000 0 0 1
11.963081 12.821695 19.476059 26.207405 0.820027 0.733029 0.038378 -0.017780 43836.300000 0 0 1
13.238681 12.538695 18.934659 26.286933 0.758250 0.766552 0.040773 -0.013861 167319.000000 0 0 1
14.376081 12.424695 19.960659 27.558532 0.712716 0.760777 0.028893 -0.000682 3846.830000 0 0 1
14.747681 13.668695 20.562059 28.759791 0.747446 0.774231 0.019874 -0.000659 -137480.000000 0 0 1
15.908181 13.458695 21.326359 29.816443 0.702181 0.773807 0.018156 0.004499 -95079.000000 0 0 1
16.459381 14.699695 22.057859 31.201625 0.728984 0.785626 0.010786 0.003714 -223529.000000 0 0 1
15.704381 15.198695 23.162359 31.845295 0.769036 0.756358 0.014799 0.002979 302940.000000 0 0 1
16.300681 16.329695 23.792959 33.143266 0.786287 0.770041 0.025650 0.005695 -302864.000000 0 0 1
-20.269419 13.067261 -25.080749 34.794347 -0.572625 2.375793 -0.002749 0.006266 -49137.800000 0 0 1
-20.542019 12.659361 -26.405149 35.769622 -0.552294 2.401195 0.006649 -0.016281 -279734.000000 0 0 1
-21.265219 13.625161 -27.074269 37.025269 -0.569827 2.390931 0.001840 -0.021127 -444802.000000 0 0 1
-21.071719 13.576361 -28.626329 38.049988 -0.572353 2.422395 0.011992 -0.022181 -405937.000000 0 0 1
-19.777519 13.838461 -29.085459 37.797052 -0.610529 2.448880 0.034917 -0.024042 -632961.000000 0 0 1
-19.717019 14.446161 -30.331929 38.954824 -0.632320 2.463298 0.035663 -0.031057 530453.000000 0 0 1
-18.272319 14.928261 -30.654249 38.683505 -0.685014 2.485591 0.027042 -0.033678 195313.000000 0 0 1
-17.361319 14.003961 -31.213369 38.364055 -0.678764 2.521130 0.023794 -0.028293 1009840.000000 0 0 1
-16.004119 14.526561 -31.176299 37.935661 -0.737040 2.535395 0.015926 -0.021520 1944830.000000 0 0 1
-15.098219 13.982061 -30.006039 36.384291 -0.747035 2.540464 0.032451 -0.021273 255716.000000 0 0 1
-15.649119 14.468561 -28.770259 35.804496 -0.746220 2.504011 0.031626 -0.016063 52115.600000 0 0 1
-16.184919 13.421061 -27.993559 35.010224 -0.692313 2.497396 0.048330 -0.011627 174537.000000 0 0 1
-16.863919 13.806061 -26.647039 34.424755 -0.686025 2.456035 0.041900 -0.015842 78085.000000 0 0 1
-15.928719 14.258961 -25.694699 33.425433 -0.730142 2.447629 0.053531 -0.011233 274137.000000 0 0 1
-16.658419 14.527061 -24.514359 33.007457 -0.717160 2.407877 0.033977 -0.001906 98118.100000 0 0 1
-15.750219 15.058361 -23.400759 31.975289 -0.762945 2.391813 0.031150 -0.000784 198248.000000 0 0 1
-15.188419 16.350361 -23.636559 32.507065 -0.822223 2.384915 0.015082 -0.005465 -4132.750000 0 0 1
-14.561319 16.906761 -22.495359 31.684566 -0.859795 2.360264 0.012686 0.003481 -285823.000000 0 0 1
-14.290819 18.426561 -22.781659 32.600148 -0.911139 2.344544 0.010396 -0.000363 138554.000000 0 0 1
-15.379119 19.342861 -22.915859 33.701634 -0.899063 2.318508 -0.020642 0.002653 -10178.900000 0 0 1
-16.045219 19.240361 -24.124759 34.779944 -0.875703 2.337326 -0.034814 0.003263 -429248.000000 0 0 1
-17.328019 20.091161 -24.159959 35.883403 -0.859107 2.309447 -0.029105 0.004915 -270446.000000 0 0 1
-17.127419 21.472361 -24.354759 36.709196 -0.897490 2.296218 -0.037575 0.005831 -1098160.000000 0 0 1
-18.331519 22.070761 -24.591059 37.787342 -0.877686 2.279401 -0.012918 -0.001177 -1190270.000000 0 0 1
-18.150219 23.593861 -24.855959 38.780400 -0.915072 2.266520 -0.024052 -0.005293 103021.000000 0 0 1
-17.674719 24.287761 -23.684759 38.252566 -0.941707 2.238479 -0.021932 -0.000415 -568662.000000 0 0 1
-17.053419 25.463061 -24.013859 38.933944 -0.980675 2.235448 -0.017154 0.002231 -411449.000000 0 0 1
-15.916619 25.761961 -22.986259 38.018226 -1.017367 2.220074 -0.007450 -0.003305 533611.000000 0 0 1
-14.811919 24.844261 -22.865159 36.870662 -1.033182 2.239724 0.000364 -0.013254 403435.000000 0 0 1
-15.160119 23.552661 -22.401759 35.866361 -0.998885 2.245402 -0.024571 0.003311 -798504.000000 0 0 1
-14.008019 22.504561 -22.220859 34.589687 -1.014031 2.268439 0.003544 0.002441 1103880.000000 0 0 1
-13.057319 22.762661 -21.160659 33.710618 -1.049993 2.249411 0.008215 -0.007785 324046.000000 0 0 1
-12.171919 21.732161 -20.874959 32.499328 -1.060241 2.268317 0.010144 -0.003882 -369559.000000 0 0 1
-11.533019 21.928961 -19.455459 31.502456 -1.086623 2.236465 0.013274 -0.009629 70375.700000 0 0 1
-12.318219 21.840961 -18.253859 31.015632 -1.057271 2.200045 0.009907 -0.003696 45663.800000 0 0 1
-13.176819 22.919861 -17.968959 31.966108 -1.049031 2.167750 0.009944 -0.011805 -273480.000000 0 0 1
-13.876819 22.895861 -16.629959 31.517330 -1.025915 2.126622 0.016634 -0.006803 306063.000000 0 0 1
-13.036919 23.430961 -15.627759 31.035432 -1.063055 2.098494 0.024544 -0.019327 -157391.000000 0 0 1
-13.880219 23.511361 -14.489359 30.909320 -1.037494 2.058694 0.015996 -0.007412 550154.000000 0 0 1
-13.088019 23.785461 -13.159359 30.169738 -1.067759 2.022143 0.029561 -0.003323 -30406.800000 0 0 1
-12.492919 25.091761 -13.154559 30.963073 -1.108839 2.009589 0.026120 -0.008607 151889.000000 0 0 1
-11.810019 25.228661 -11.934159 30.304885 -1.132977 1.975562 0.011989 -0.007510 -219034.000000 0 0 1
-11.216219 26.625661 -11.666959 31.158423 -1.172101 1.954589 0.017856 -0.011477 -40595.300000 0 0 1
-10.143819 26.952961 -12.512059 31.399216 -1.210840 1.980659 0.021536 -0.019274 45172.000000 0 0 1
-10.296719 28.308161 -12.866259 32.755381 -1.221937 1.974469 -0.002374 -0.004391 -514685.000000 0 0 1
-9.915319 28.642461 -14.307559 33.517314 -1.237533 2.011826 0.003845 -0.014974 -300501.000000 0 0 1
-8.574319 28.819761 -14.671759 33.456809 -1.281621 2.024757 -0.001358 -0.019385 -131093.000000 0 0 1
-7.823519 27.571661 -14.733459 32.225436 -1.294312 2.045640 0.003617 -0.019712 40333.800000 0 0 1
-6.355019 27.812861 -15.146859 32.301220 -1.346161 2.058870 0.001163 -0.018876 114927.000000 0 0 1
-5.651719 28.673061 -14.284959 32.529162 -1.376182 2.025441 -0.008468 -0.021376 125738.000000 0 0 1
-4.425919 28.974861 -14.969659 32.912338 -1.419218 2.042982 0.000546 -0.021216 848671.000000 0 0 1
-3.440519 30.046761 -14.382759 33.488935 -1.456787 2.014711 -0.016991 -0.012507 325159.000000 0 0 1
-3.784619 31.382261 -14.652659 34.840638 -1.450779 2.004861 -0.016156 -0.011073 244113.000000 0 0 1
-4.730919 32.044161 -13.797359 35.207626 -1.424218 1.973476 -0.022875 -0.014772 182236.000000 0 0 1
-4.757219 33.548761 -13.929359 36.635741 -1.429935 1.960822 -0.021606 -0.013280 -543030.000000 0 0 1
-3.563219 34.095961 -13.487659 36.839490 -1.466669 1.945632 -0.027527 -0.010618 -631259.000000 0 0 1
-3.544519 -33.870305 -13.746859 36.725159 1.466526 1.954457 -0.022411 -0.008359 224724.000000 0 0 1
-2.484819 -33.126205 -12.921459 35.643847 1.495926 1.941762 -0.024787 -0.007443 -64146.400000 0 0 1
-2.913019 -33.125705 -11.542359 35.199773 1.483084 1.904887 -0.023670 -0.009018 -177391.000000 0 0 1
-2.125319 -32.325905 -10.757359 34.135053 1.505144 1.891402 -0.024674 -0.003605 -566437.000000 0 0 1
-2.595019 -32.298605 -9.275959 33.704264 1.490624 1.849611 -0.029951 -0.012622 -515288.000000 0 0 1
-1.782719 -31.490405 -8.480559 32.661040 1.514245 1.833460 -0.019939 -0.007927 -120862.000000 0 0 1
-2.145319 -31.570105 -7.106759 32.431157 1.502947 1.791723 -0.029192 -0.013979 -44859.800000 0 0 1
-0.995019 -31.002605 -6.261059 31.644153 1.538713 1.769969 -0.012681 -0.009494 -6244.980000 0 0 1
-1.211719 -31.146805 -4.884059 31.550685 1.531912 1.726222 -0.008931 -0.007649 172876.000000 0 0 1
-0.072719 -30.683305 -4.168959 30.965314 1.568426 1.705840 0.004745 -0.003805 187634.000000 0 0 1
-0.196919 -30.810505 -2.634759 30.923582 1.564405 1.656102 0.008424 0.004235 -484930.000000 0 0 1
-0.208919 -32.079805 -2.002059 32.142896 1.564284 1.633123 0.000131 -0.001086 584094.000000 0 0 1
0.878481 -33.008205 -2.202259 33.093251 -1.544189 1.637393 -0.005233 -0.003557 45380.200000 0 0 1
2.277181 -32.652605 -1.743959 32.778340 -1.501169 1.624026 0.015052 0.000164 -1311090.000000 0 0 1
2.418181 -32.819205 -0.379259 32.910358 -1.497247 1.582321 -0.001642 0.003005 -286287.000000 0 0 1
3.669581 -32.564105 0.199041 32.770816 -1.458582 1.564723 0.008448 -0.001026 -351489.000000 0 0 1
4.103581 -31.095805 0.320341 31.367038 -1.439589 1.560583 -0.000713 -0.001239 -752552.000000 0 0 1
4.252181 -30.427405 -0.904459 30.736396 -1.431947 1.600227 0.016420 -0.010553 205992.000000 0 0 1
4.231081 -28.982205 -0.690359 29.297557 -1.425831 1.594362 0.024731 0.000627 -312257.000000 0 0 1
3.781481 -28.197805 -1.950159 28.516993 -1.437486 1.639236 0.022311 0.007130 1028190.000000 0 0 1
2.383281 -28.275305 -2.316959 28.470005 -1.486707 1.652269 0.014019 0.009240 1041620.000000 0 0 1
1.925281 -27.293505 -3.187759 27.546396 -1.500373 1.686779 0.008909 0.014500 -31773.400000 0 0 1
2.408081 -27.333905 -4.667659 27.833941 -1.482925 1.739289 0.000091 0.013380 -283834.000000 0 0 1
1.817581 -28.259205 -5.479759 28.842920 -1.506567 1.761944 -0.004586 0.010635 -309526.000000 0 0 1
2.373581 -28.148605 -6.757659 29.045547 -1.486672 1.805605 0.015289 0.007237 -169084.000000 0 0 1
1.915981 -29.200805 -7.792259 30.283284 -1.505276 1.831036 -0.008650 0.003840 1099890.000000 0 0 1
0.530181 -29.002705 -8.167959 30.135586 -1.552518 1.845270 -0.011625 0.004143 951841.000000 0 0 1
0.402781 -28.830605 -9.569659 30.380000 -1.556827 1.891252 -0.016084 0.010341 -792567.000000 0 0 1
-0.925819 -28.221005 -9.923059 29.929072 1.538002 1.908745 -0.026531 0.003974 -1186980.000000 0 0 1
-0.940919 -26.842005 -9.539059 28.502144 1.535757 1.912061 -0.023369 0.005006 -412216.000000 0 0 1
-2.181619 -26.212105 -9.545659 27.981306 1.487758 1.918930 -0.014500 -0.000771 504161.000000 0 0 1
-3.365719 -26.645605 -8.599259 28.200418 1.445148 1.880665 -0.011773 -0.004123 120318.000000 0 0 1
-3.107219 -26.498105 -7.171459 27.626693 1.454067 1.833388 -0.005463 -0.006566 -840553.000000 0 0 1
-2.342619 -27.509805 -6.670859 28.403830 1.485845 1.807869 -0.006495 -0.002291 -573861.000000 0 0 1
-1.947119 -27.404605 -5.245459 27.969957 1.499865 1.759452 -0.000688 0.003562 -99315.000000 0 0 1
-2.954619 -27.428805 -4.251159 27.913105 1.463491 1.723691 -0.003949 -0.010276 -319673.000000 0 0 1
-2.441019 -27.226805 -2.968359 27.496702 1.481380 1.678960 -0.004030 0.004408 -41180.300000 0 0 1
-3.483519 -27.340705 -1.823859 27.622011 1.444068 1.636874 0.001592 0.005000 -350687.000000 0 0 1
-4.359119 -26.274205 -1.841759 26.696963 1.406385 1.639839 -0.000890 0.006366 -456033.000000 0 0 1
-5.249119 -26.300905 -0.735059 26.829669 1.373805 1.598197 0.008747 0.007517 505899.000000 0 0 1
-6.280919 -25.122905 -0.609959 25.903327 1.325810 1.594346 0.008616 0.003727 759681.000000 0 0 1
-5.596119 -23.906405 -0.374959 24.555515 1.340852 1.586067 -0.003762 0.008236 1215960.000000 0 1 0
-6.516019 -22.997305 0.342741 23.905062 1.294695 1.556458 0.015683 0.003137 1194730.000000 0 1 0
-5.776219 -21.669105 0.590241 22.433528 1.310289 1.544483 0.006207 0.000178 120152.000000 0 1 0
-4.815319 -21.650105 1.605441 22.237171 1.351943 1.498537 0.002200 -0.001756 -298492.000000 0 1 0
-4.139319 -20.412305 1.571741 20.886994 1.370724 1.495475 0.001352 -0.001166 -357939.000000 0 1 0
-3.121619 -20.301205 2.712541 20.718139 1.418226 1.439493 0.006232 0.000191 -78582.400000 0 1 0
-3.708219 -20.153305 4.020541 20.882321 1.388831 1.377053 -0.000008 0.001558 816520.000000 0 1 0
-2.668019 -20.055905 5.030841 20.848669 1.438544 1.327088 0.002881 -0.002372 779436.000000 0 1 0
-1.857119 -21.367505 5.355041 22.106461 1.484101 1.326124 -0.010772 -0.006138 -219921.000000 0 1 0
-0.816119 -21.583505 4.467741 22.056166 1.533002 1.366823 0.010898 -0.010146 -721256.000000 0 1 0
-0.304619 -22.896805 4.637741 23.363756 1.557493 1.370968 0.001642 -0.011078 -765604.000000 0 1 0
0.653381 -23.330605 3.455041 23.594095 -1.542798 1.423831 0.003273 -0.012903 820180.000000 0 1 0
1.905381 -22.692005 3.390641 23.022902 -1.487026 1.422986 -0.015585 -0.010596 260677.000000 0 1 0
2.739181 -22.775405 4.545441 23.385534 -1.451102 1.375181 -0.000892 -0.016595 -6667.670000 0 1 0
4.015881 -21.829605 4.547941 22.657068 -1.388866 1.368694 0.008340 -0.020758 1344290.000000 0 1 0
5.115581 -22.180905 3.701441 23.062142 -1.344130 1.409601 -0.007035 -0.004887 1891.970000 0 1 0
5.907881 -21.037005 3.522741 22.132969 -1.297016 1.410954 0.017393 -0.013596 -57777.400000 0 1 0
6.251181 -20.692805 2.084541 21.716693 -1.277419 1.474660 0.019659 -0.007664 -411400.000000 0 1 0
7.030681 -21.692505 1.558341 22.856589 -1.257373 1.502564 0.022351 -0.004465 -550268.000000 0 1 0
6.867281 -21.676305 0.173741 22.738776 -1.263989 1.563156 0.025187 -0.008603 -448457.000000 0 1 0
7.868781 -22.572005 -0.534859 23.910232 -1.235362 1.593168 0.025228 0.002931 792753.000000 0 1 0
9.109481 -21.824005 -0.688859 23.658917 -1.175375 1.599917 0.024944 0.001867 215916.000000 0 1 0
10.076581 -22.589705 -1.359759 24.772590 -1.151216 1.625714 0.025742 0.006021 605794.000000 0 1 0
11.362081 -21.769205 -1.723459 24.616366 -1.089756 1.640866 0.025459 0.000713 512634.000000 0 1 0
11.181581 -20.837905 -2.765159 23.809497 -1.078301 1.687196 0.027565 0.006395 52994.900000 0 1 0
12.418681 -20.691205 -3.448159 24.377026 -1.030236 1.712723 0.021013 0.009110 247231.000000 0 1 0
12.534781 -19.453905 -4.369959 23.551469 -0.998416 1.757427 0.017049 -0.017433 -139686.000000 0 1 0
12.686581 -18.222605 -3.697059 22.509574 -0.962625 1.735788 0.036620 -0.013788 105555.000000 0 1 0
12.811581 -17.151005 -4.606659 21.897828 -0.929226 1.782750 0.030619 -0.023584 -1302320.000000 0 1 0
13.501481 -16.038205 -3.758759 21.298880 -0.871063 1.748202 0.071801 -0.019891 582645.000000 0 1 0
14.879181 -16.162005 -3.444659 22.236594 -0.826701 1.726332 0.053617 -0.010651 239654.000000 0 1 0
15.724481 -16.241605 -4.545859 23.058922 -0.801574 1.769237 0.042805 -0.008890 -1716580.000000 0 1 0
17.218481 -16.115105 -4.265259 23.965916 -0.752309 1.749721 0.030177 0.002140 -455016.000000 0 1 0
17.770481 -17.011105 -3.350659 24.827295 -0.763569 1.706168 0.028222 -0.007306 32226.600000 0 1 0
19.166781 -16.809005 -3.292859 25.705079 -0.719954 1.699251 -0.000178 0.008705 -124243.000000 0 0 1
19.842581 -17.859005 -2.309359 26.795619 -0.732834 1.657088 0.008047 -0.001132 -924247.000000 0 0 1
21.195481 -17.629805 -2.445959 27.677448 -0.693816 1.659285 -0.016991 0.004604 -893822.000000 0 0 1
22.009281 -18.458805 -1.607259 28.770110 -0.697887 1.626691 -0.025456 0.014904 -278606.000000 0 0 1
23.489581 -18.146705 -1.757659 29.734705 -0.657773 1.629942 -0.014838 0.009972 -637379.000000 0 0 1
23.883681 -16.925505 -1.189859 29.297077 -0.616517 1.611421 -0.021640 0.010920 466728.000000 0 0 1
25.232281 -17.054705 -0.728059 30.464094 -0.594373 1.594698 -0.008709 0.010862 555683.000000 0 0 1
25.854081 -15.700305 -0.170259 30.248340 -0.545745 1.576425 -0.010399 0.010819 -680335.000000 0 0 1
25.149881 -15.148105 0.837141 29.371456 -0.542119 1.542291 -0.000072 0.015106 -33919.700000 0 0 1
25.844781 -14.082405 1.486441 29.469923 -0.498907 1.520336 0.004903 0.006231 565733.000000 0 0 1
24.825781 -13.459405 2.488141 28.349001 -0.496800 1.482915 0.007250 -0.004835 443149.000000 0 0 1
24.305181 -14.253805 3.553341 28.399631 -0.530398 1.445348 0.007729 0.007386 471242.000000 0 0 1
25.274481 -14.697405 4.517341 29.584109 -0.526714 1.417502 0.018071 0.020462 439320.000000 0 0 1
24.631081 -15.235205 5.819941 29.541045 -0.553937 1.372487 0.016725 0.024441 582417.000000 0 0 1
23.827081 -16.447705 5.846441 29.537056 -0.604183 1.371545 0.009331 0.028913 555723.000000 0 0 1
23.077781 -16.497705 7.063841 29.234502 -0.620639 1.326754 0.005462 0.029101 404692.000000 0 0 1
22.215181 -17.799205 7.131641 29.345975 -0.675483 1.325319 0.008422 0.030515 419389.000000 0 0 1
23.064981 -18.919505 7.285441 30.708609 -0.686979 1.331268 0.017004 0.032931 83768.500000 0 0 1
22.243581 -20.025005 7.474241 30.848695 -0.732959 1.326074 -0.008995 0.053905 61641.000000 0 0 1
1.798281 22.843661 -3.098459 23.122870 1.492237 1.705200 -0.009250 -0.012817 247093.000000 0 1 0
2.390181 24.111561 -2.756359 24.386018 1.471989 1.684069 0.000127 -0.008199 32501.500000 0 1 0
2.992281 24.765761 -3.858459 25.242511 1.450556 1.724253 0.005051 -0.007427 20687.600000 0 0 1
3.836381 25.981261 -3.383359 26.480009 1.424196 1.698917 0.000504 -0.001803 485168.000000 0 0 1
5.098681 25.566161 -2.855559 26.225548 1.373948 1.679897 -0.000940 -0.006021 85045.100000 0 0 1
5.713981 26.592261 -2.181359 27.286558 1.359141 1.650824 -0.003710 -0.004611 -573803.000000 0 0 1
6.776881 26.136461 -1.171859 27.026172 1.317095 1.614170 -0.008162 -0.016437 321268.000000 0 0 1
7.979581 25.793061 -1.872959 27.064066 1.270766 1.640056 -0.014847 -0.015040 128504.000000 0 0 1
8.791681 25.003661 -1.036859 26.524551 1.232683 1.609897 -0.026537 0.003620 1005180.000000 0 0 1
10.110981 24.371761 -1.693259 26.440155 1.177542 1.634881 -0.018016 0.001217 232897.000000 0 0 1
11.107781 25.357161 -1.709559 27.736096 1.157922 1.632472 -0.008775 0.002269 -353089.000000 0 0 1
11.979481 25.339861 -2.821459 28.170502 1.129183 1.671121 0.002433 0.004003 564124.000000 0 0 1
13.074381 24.210461 -2.811359 27.658445 1.075640 1.672618 0.020518 0.002419 -566498.000000 0 0 1
12.589281 22.910561 -3.030259 26.316654 1.068339 1.686198 0.018604 0.000638 -174399.000000 0 0 1
12.425181 22.591961 -4.411559 26.158052 1.067967 1.740256 0.014736 -0.002494 -159240.000000 0 0 1
11.530081 21.367261 -4.746659 24.739309 1.075962 1.763861 0.008363 -0.009155 290285.000000 0 1 0
10.152481 21.663361 -4.598459 24.362264 1.132544 1.760689 0.007347 -0.005063 231806.000000 0 1 0
9.340581 20.498161 -4.838159 23.039723 1.143230 1.782363 -0.004873 0.004499 336683.000000 0 1 0
7.833481 20.805661 -4.743459 22.731902 1.210705 1.781011 -0.007873 0.005081 -24574.600000 0 1 0
7.415481 21.353561 -3.517359 22.876533 1.236554 1.725163 -0.011726 0.010790 -292452.000000 0 1 0
6.098381 21.835961 -3.513659 22.942215 1.298454 1.724554 -0.001830 0.019066 -82091.500000 0 1 0
5.631381 22.462561 -2.224359 23.264283 1.325158 1.666555 0.003558 0.004535 -178936.000000 0 1 0
5.313081 21.561861 -1.146659 22.236401 1.329198 1.622386 0.003195 0.002763 -196572.000000 0 1 0
4.705781 22.220561 -0.082459 22.713531 1.362104 1.574427 0.002058 0.003379 121226.000000 0 1 0
4.467281 21.208861 1.088241 21.701536 1.363198 1.520629 -0.002563 0.001843 13743.700000 0 1 0
3.748481 21.801561 2.187141 22.229322 1.400525 1.472247 0.001337 0.001757 108254.000000 0 1 0
3.301681 20.858661 3.089441 21.343137 1.413811 1.425535 -0.005170 0.001999 -173069.000000 0 1 0
2.210081 21.356861 4.056441 21.850737 1.467680 1.384070 -0.006693 -0.005343 557904.000000 0 1 0
0.971281 21.741261 3.440941 22.033291 1.526151 1.413984 -0.008558 0.002098 534752.000000 0 1 0
-0.023919 22.003061 4.401541 22.439003 -1.569709 1.373360 -0.008468 -0.014336 592800.000000 0 1 0
-1.459719 22.282661 3.874341 22.664031 -1.505381 1.399006 -0.013322 -0.007258 435667.000000 0 1 0
-2.426419 22.506661 4.892941 23.159840 -1.463402 1.357924 -0.000147 -0.013363 -312182.000000 0 1 0
-3.645119 22.691061 4.191241 23.361028 -1.411516 1.390408 0.009172 -0.008219 -641471.000000 0 1 0
-4.735419 23.134861 5.138441 24.167117 -1.368898 1.356540 0.021321 -0.016249 -688593.000000 0 1 0
-4.663819 24.470561 5.636141 25.540667 -1.382466 1.348292 0.025238 -0.005249 -695158.000000 0 0 1
-5.886219 24.753961 6.218041 26.192942 -1.337343 1.331114 0.040734 -0.009107 -474964.000000 0 0 1
-6.155819 26.198361 6.633341 27.717313 -1.340013 1.329130 0.042420 -0.008123 -189890.000000 0 0 1
-5.350319 26.665461 7.709441 28.268502 -1.372780 1.294575 0.026947 -0.014032 92581.800000 0 0 1
-5.709719 27.943261 8.243141 29.687979 -1.369238 1.289440 0.046718 -0.014340 -93307.000000 0 0 1
-5.990319 29.195461 7.400541 30.708743 -1.368425 1.327409 0.043236 -0.016986 603193.000000 0 0 1
-7.194719 29.150261 6.629841 30.748276 -1.328818 1.353473 0.042082 -0.018902 -57688.600000 0 0 1
-7.444019 30.288661 5.865741 31.736782 -1.329804 1.384903 0.049645 -0.017184 -485184.000000 0 0 1
-8.918319 30.513461 5.417941 32.248439 -1.286442 1.401989 0.053145 -0.011703 465217.000000 0 0 1
-9.714319 31.056961 6.452741 33.174398 -1.267647 1.375039 0.041185 -0.008305 -235512.000000 0 0 1
-10.067419 30.103661 7.472741 32.610201 -1.248064 1.339588 0.019119 -0.001685 -1621510.000000 0 0 1
-10.951719 30.659461 8.526641 33.654811 -1.227717 1.314649 0.000631 -0.000477 -719394.000000 0 0 1
-10.285419 31.489261 9.464541 34.452009 -1.255089 1.292501 0.022587 -0.013844 19016.300000 0 0 1
-11.216219 31.886861 10.439941 35.377505 -1.232563 1.271235 0.017885 -0.006699 -139579.000000 0 0 1
-10.536219 32.446961 11.692241 36.062802 -1.256817 1.240610 0.024853 -0.009497 -453139.000000 0 0 1
-10.050219 33.734561 11.541041 37.043530 -1.281248 1.253969 0.022992 -0.007156 290328.000000 0 0 1
-9.017019 33.875061 12.526741 37.225605 -1.310644 1.227589 0.015299 -0.009180 392812.000000 0 0 1
-8.527719 -34.057205 12.680741 37.328493 1.325447 1.224191 0.012942 -0.005666 -79542.800000 0 0 1
-9.391319 -33.205305 13.403841 37.019618 1.295169 1.200304 0.020110 0.000739 -158670.000000 0 0 1
-8.906619 -31.892505 13.503741 35.760464 1.298465 1.183575 0.035198 0.001047 1735.620000 0 0 1
-9.779119 -31.008905 14.418241 35.567809 1.265304 1.153409 0.024434 -0.000815 -40394.600000 0 0 1
-9.862819 -31.198505 15.800241 36.335513 1.264607 1.120932 0.016864 -0.000481 -638258.000000 0 0 1
-8.772219 -30.623905 16.425841 35.841089 1.291817 1.094719 0.017599 0.009231 -989866.000000 0 0 1
-8.563419 -30.853005 17.943241 36.704223 1.300056 1.060013 -0.012534 0.000515 258666.000000 0 0 1
-9.477519 -30.093105 18.734541 36.693342 1.265690 1.034948 0.028367 0.001326 564752.000000 0 0 1
-10.511419 -30.793505 19.412141 37.888799 1.241847 1.032883 0.011482 -0.002133 44735.600000 0 0 1
-10.924619 -30.060305 20.685441 38.090113 1.222213 0.996712 0.027368 -0.011690 340859.000000 0 0 1
-9.855519 -29.915705 21.638541 38.213965 1.252551 0.968851 0.041272 -0.012952 552970.000000 0 0 1
-10.169319 -29.044205 22.671841 38.222942 1.234004 0.935834 0.031575 -0.008284 -448363.000000 0 0 1
-9.123119 -29.086405 23.754441 38.646135 1.266859 0.908835 0.028178 -0.012719 -396367.000000 0 0 1
-9.043919 -30.194705 24.645941 40.011687 1.279780 0.907181 0.039703 -0.014219 -96802.500000 0 0 1
-7.823319 -30.107505 25.347741 40.126975 1.316572 0.887067 0.024477 -0.012391 104564.000000 0 0 1
-7.450619 -31.287305 26.299441 41.545972 1.337015 0.885348 0.039890 -0.010639 -132558.000000 0 0 1
-7.209619 -32.471305 25.577641 41.959266 1.352310 0.915262 0.048434 -0.006757 173253.000000 0 0 1
-7.335319 -33.626505 26.404341 43.379004 1.356020 0.916389 0.047968 -0.009440 -234303.000000 0 0 1
-7.096119 34.461861 25.579641 43.500492 -1.367722 0.942174 0.050353 -0.010067 -198308.000000 0 0 1
-5.732019 34.199261 25.335441 42.945664 -1.404733 0.939810 0.046163 -0.007966 -74049.400000 0 0 1
-5.401019 32.964561 24.706441 41.548063 -1.408396 0.933970 0.050001 0.000297 -199877.000000 0 0 1
-6.216119 32.501761 23.448741 40.556727 -1.381824 0.954311 0.055979 0.003745 -389569.000000 0 0 1
-7.382119 31.819661 23.809741 40.421409 -1.342831 0.940929 0.047525 -0.001909 -549882.000000 0 0 1
-8.087119 31.560761 22.618841 39.662263 -1.319954 0.963942 0.040548 -0.000361 -387559.000000 0 0 1
-9.129919 30.468361 22.796141 39.132346 -1.279658 0.948947 0.022077 -0.009737 -381919.000000 0 0 1
-8.658419 29.148961 22.651941 37.917550 -1.282057 0.930541 0.024581 -0.002800 -334413.000000 0 0 1
-9.534519 28.192161 23.196041 37.732762 -1.244674 0.908733 0.016139 0.003890 -366297.000000 0 0 1
-9.156619 26.705661 22.934041 36.373153 -1.240486 0.888572 0.007747 0.001700 572649.000000 0 0 1
-7.858219 26.292161 23.393841 36.059689 -1.280367 0.864851 -0.003105 0.003392 854407.000000 0 0 1
-7.612319 24.893761 23.098841 34.802345 -1.274034 0.845022 -0.004393 0.006902 -269537.000000 0 0 1
-6.227819 24.472361 23.585841 34.553930 -1.321602 0.819508 -0.019444 0.015261 -51549.100000 0 0 1
-5.133419 24.946361 22.825141 34.200292 -1.367851 0.840090 -0.023441 0.007931 52979.500000 0 0 1
-3.929819 24.934461 23.570841 34.536291 -1.414476 0.819626 0.006192 0.011902 -666750.000000 0 0 1
-2.775819 25.462161 22.798541 34.289945 -1.462208 0.843469 0.001800 0.012231 -1178060.000000 0 0 1
-2.472019 24.743061 21.622441 32.952389 -1.471219 0.855061 0.010204 0.011207 208314.000000 0 0 1
-1.752019 25.517161 20.641841 32.867624 -1.502244 0.891778 0.016338 0.012581 263405.000000 0 0 1
-1.259419 24.574561 19.505341 31.399897 -1.519592 0.900534 0.007681 0.001181 527127.000000 0 0 1
-0.103419 23.796161 19.888041 31.012935 -1.566450 0.874628 0.021311 0.009898 581586.000000 0 0 1
0.118481 22.723361 18.996941 29.618389 1.565582 0.874488 0.016132 0.006366 -701048.000000 0 0 1
1.220181 21.736361 19.300641 29.094209 1.514720 0.845464 0.017640 0.016219 -780132.000000 0 0 1
2.503581 22.272861 19.289741 29.570972 1.458861 0.860155 0.008168 0.005792 -614574.000000 0 0 1
3.488281 21.287261 19.552441 29.113803 1.408373 0.834448 0.004953 0.014034 1178900.000000 0 0 1
4.953781 21.824461 19.311641 29.559881 1.347595 0.858854 -0.001470 0.013532 989327.000000 0 0 1
5.917981 20.829061 19.072541 28.855400 1.293970 0.848686 0.009952 0.007944 -425574.000000 0 0 1
7.180881 21.345861 18.778341 29.322976 1.246283 0.875781 0.014901 0.010768 176470.000000 0 0 1
8.336781 20.289561 18.641141 28.786461 1.180937 0.866410 0.014603 0.012148 347876.000000 0 0 1
8.772381 19.555561 19.750141 29.145201 1.149118 0.826239 0.017553 0.010797 -227207.000000 0 0 1
9.564581 18.487861 19.291341 28.380241 1.093370 0.823381 0.022999 -0.000704 38487.500000 0 0 1
10.174781 17.693761 20.496441 28.925758 1.048925 0.783301 0.033057 -0.009033 -515593.000000 0 0 1
9.252481 16.754161 21.003341 28.415676 1.066228 0.738994 0.026153 -0.005640 212582.000000 0 0 1
9.741581 15.943461 22.058941 28.908290 1.022322 0.702752 0.034363 -0.007573 -74287.900000 0 0 1
8.535681 15.113361 22.504641 28.420598 1.056679 0.656976 0.028014 -0.007554 293678.000000 0 0 1
7.585081 15.795461 23.338541 29.184200 1.123109 0.644005 0.018004 0.008663 -423538.000000 0 0 1
6.537981 15.012661 23.792241 28.882450 1.160068 0.602783 0.011398 0.005852 -440855.000000 0 0 1
6.781981 13.967161 24.878441 29.325990 1.118762 0.557952 0.014648 0.009076 -649611.000000 0 0 1
7.261881 14.610361 26.038641 30.727974 1.109522 0.559742 0.018233 0.007311 -20190.400000 0 0 1
7.466781 13.683361 27.067341 31.235047 1.071273 0.522509 0.011682 0.007858 -845510.000000 0 0 1
8.486681 14.185161 28.098141 32.599817 1.031643 0.531770 -0.000205 0.017768 -748413.000000 0 0 1
9.806181 14.156061 27.664441 32.586448 0.964973 0.556791 0.018004 0.018554 -468471.000000 0 0 1
10.226581 15.345461 26.995141 32.692565 0.982962 0.599306 0.018949 0.016465 -71231.000000 0 0 1
11.579581 15.150361 26.253641 32.448017 0.918199 0.628180 0.030147 0.012282 265165.000000 0 0 1
11.355081 14.523461 24.994941 31.058266 0.907225 0.635499 0.032224 0.003708 -287579.000000 0 0 1
12.515081 14.184261 24.289641 30.786477 0.847835 0.661664 0.030691 0.009474 -572765.000000 0 0 1
12.217181 12.989761 23.286541 29.330128 0.816038 0.653524 0.024850 0.003242 83610.000000 0 0 1
12.014981 11.764061 24.002741 29.306731 0.774846 0.611099 0.028411 0.006173 95754.500000 0 0 1
10.729281 11.608861 24.580941 29.225089 0.824754 0.571500 0.029832 0.008696 -72482.500000 0 0 1
10.497081 10.198061 25.116041 29.068964 0.770950 0.527604 0.020239 0.009155 -24412.700000 0 0 1
10.381581 9.191261 24.111641 27.814165 0.724658 0.521880 0.022635 0.005798 126356.000000 0 0 1
10.159381 7.943861 24.674741 27.841710 0.663621 0.481609 0.017808 0.003251 12449.900000 0 0 1
10.357881 6.859061 23.611641 26.680368 0.584909 0.484341 0.016099 0.003637 -1084700.000000 0 0 1
11.686881 6.558461 23.420841 26.983929 0.511387 0.519726 0.015615 0.008512 -781666.000000 0 0 1
11.983881 5.512261 22.477541 26.062200 0.431116 0.530691 0.016237 -0.000758 -122297.000000 0 0 1
11.639481 4.089261 22.886441 25.999784 0.337856 0.494397 0.005930 0.000507 98372.100000 0 0 1
12.561281 3.482461 23.811241 27.145691 0.270445 0.500871 0.005882 0.008460 404520.000000 0 0 1
12.121881 2.217761 24.198241 27.155356 0.180954 0.471025 0.000281 0.007204 -598513.000000 0 0 1
13.052581 1.310161 25.018941 28.249492 0.100041 0.482921 -0.014150 0.014864 -364657.000000 0 0 1
14.103381 0.747961 24.288941 28.096574 0.052985 0.526680 0.006439 0.014090 -256695.000000 0 0 1
15.367081 0.859261 24.897741 29.270856 0.055858 0.553674 0.006256 0.015304 615165.000000 0 0 1
16.519681 0.122461 24.086941 29.207800 0.007413 0.601169 0.020752 0.008382 675771.000000 0 0 1
16.513481 -1.303739 24.378841 29.474102 -0.078787 0.596819 0.008490 0.010122 111712.000000 0 0 1
17.487981 -1.962839 23.606241 29.443791 -0.111772 0.640597 0.030935 0.013517 -149278.000000 0 0 1
17.545981 -3.462239 23.914941 29.862568 -0.194821 0.642111 0.031058 0.020935 394278.000000 0 0 1
16.706581 -4.355539 23.143141 28.873614 -0.255031 0.640942 0.027407 0.021901 688420.000000 0 0 1
16.960681 -5.685539 23.619741 29.629078 -0.323446 0.648185 0.032863 0.017734 -113028.000000 0 0 1
16.041781 -6.591239 22.816241 28.659449 -0.389850 0.649947 0.026995 0.013975 -538806.000000 0 0 1
16.311481 -6.819939 21.430841 27.782314 -0.396017 0.689783 0.017792 0.010828 -218405.000000 0 0 1
15.787681 -7.992439 20.888041 27.375906 -0.468631 0.702842 0.031761 0.000911 -46827.400000 0 0 1
16.594681 -9.322739 21.181141 28.476967 -0.511851 0.732060 0.036493 0.003938 273935.000000 0 0 1
16.351281 -9.790039 22.515241 29.498226 -0.539487 0.702430 0.031021 0.012254 54527.600000 0 0 1
17.004281 -11.033639 22.680041 30.418268 -0.575583 0.729353 0.012468 0.007736 -26245.100000 0 0 1
16.457581 -11.811739 23.913541 31.340495 -0.622512 0.702818 0.014594 0.010996 -740394.000000 0 0 1
15.331381 -12.514639 23.555641 30.765820 -0.684587 0.698756 0.031812 -0.005577 -877516.000000 0 0 1
14.867781 -13.263439 24.620941 31.672709 -0.728429 0.680346 0.018413 0.011578 88535.400000 0 0 1
13.668981 -14.170239 24.253941 31.239244 -0.803402 0.681873 0.029637 0.002992 -116384.000000 0 0 1
14.017481 -15.129039 23.305141 31.120848 -0.823517 0.724457 0.021949 -0.002255 200210.000000 0 0 1
12.914981 -15.933039 22.889241 30.733953 -0.889638 0.730630 0.011843 0.002733 15349.400000 0 0 1
13.121181 -16.813339 21.652241 30.391994 -0.908119 0.777838 0.001661 -0.005486 437564.000000 0 0 1
14.102981 -17.877439 21.811841 31.531783 -0.902879 0.806899 0.007700 -0.003326 548445.000000 0 0 1
14.332381 -18.594139 20.620841 31.247052 -0.914115 0.850072 -0.001472 -0.002264 -34653.100000 0 0 1
-22.516519 -32.344905 27.096409 47.826790 0.962667 0.968480 0.009609 -0.006077 -346180.000000 0 0 1
-23.123119 -33.446705 27.707459 49.204308 0.965905 0.972651 0.008892 -0.009876 483954.000000 0 0 1
-24.366219 -33.764705 27.041019 49.648611 0.945689 0.994827 0.006726 -0.016572 630680.000000 0 0 1
-25.169989 34.637861 27.877819 51.092882 -0.942400 0.993655 0.007255 -0.017399 33096.700000 0 0 1
-26.023489 -34.169005 28.901499 51.769098 0.919906 0.978489 0.024011 -0.017804 285956.000000 0 0 1
-25.368259 -33.985405 30.136239 52.026428 0.929574 0.952990 0.021821 -0.011397 -695284.000000 0 0 1
-26.266539 -33.480605 31.212679 52.774173 0.905560 0.937955 0.017562 -0.021318 -593835.000000 0 0 1
-26.665859 -32.175005 30.865979 51.951974 0.878754 0.934619 0.010954 -0.013533 586145.000000 0 0 1
-27.544589 -31.596005 31.879679 52.662376 0.853796 0.920579 0.009755 0.000828 436056.000000 0 0 1
-27.720469 -30.026505 31.653149 51.690785 0.825310 0.911759 0.001192 -0.001424 40194.000000 0 0 1
-28.568389 -29.706805 30.549559 51.302267 0.804931 0.932931 -0.004581 0.018452 360614.000000 0 0 1
-28.887689 -28.326105 30.559409 50.702507 0.775583 0.923891 -0.006764 0.021841 -190911.000000 0 0 1
-29.809189 -28.015405 29.386759 50.368961 0.754387 0.947851 -0.013801 0.008733 -265115.000000 0 0 1
-29.174429 -27.962305 28.096259 49.218264 0.764187 0.963255 -0.014821 0.010155 -2698.040000 0 0 1
-28.532589 -26.772705 27.862629 48.033451 0.753588 0.951985 -0.029261 0.024561 -308106.000000 0 0 1
-27.614269 -26.702305 26.609819 46.729470 0.768610 0.964967 -0.014853 0.029043 -122554.000000 0 0 1
-28.172929 -26.679605 25.312639 46.327583 0.758181 0.992756 -0.041253 0.023708 -436929.000000 0 0 1
-27.152859 -26.559505 24.331069 45.107493 0.774352 1.001070 -0.010454 0.034160 -264134.000000 0 0 1
-27.575509 -26.761405 22.881559 44.723005 0.770417 1.033717 -0.036587 0.037262 -126385.000000 0 0 1
-28.221689 -25.649505 22.254059 44.154320 0.737687 1.042565 -0.037069 0.028490 176374.000000 0 0 1
-28.642869 -26.071405 20.965859 44.042018 0.738435 1.074648 -0.042310 0.033369 -117539.000000 0 0 1
-29.183329 -24.852405 20.172859 43.315736 0.705420 1.086352 -0.033223 0.024199 -582390.000000 0 0 1
-30.469239 -24.480205 20.533059 44.150441 0.676835 1.087082 -0.027040 0.019656 -617999.000000 0 0 1
-30.971349 -23.332405 19.881559 43.576392 0.645645 1.097024 -0.015685 0.015639 -427146.000000 0 0 1
-32.469339 -23.104605 20.042659 44.607050 0.618457 1.104797 -0.027766 0.025171 -831017.000000 0 0 1
-33.289569 -24.067805 19.477159 45.462230 0.625985 1.128047 -0.025568 0.020485 176361.000000 0 0 1
-34.654362 -23.646605 19.577459 46.296475 0.598786 1.134185 -0.024938 0.015998 50534.000000 0 0 1
34.359940 -24.600205 18.806659 46.254362 -0.621355 1.152076 -0.020420 0.008264 -571360.000000 0 0 1
34.210368 -25.743905 19.629259 47.099955 -0.645110 1.140921 -0.027619 0.009479 -82422.700000 0 0 1
33.611221 -26.743905 18.836759 46.901750 -0.672104 1.157509 -0.020000 0.009879 -28278.300000 0 0 1
33.552911 -28.095305 19.635359 47.965522 -0.697100 1.149039 -0.021026 0.013525 -175546.000000 0 0 1
32.524371 -28.292705 20.572759 47.765576 -0.715930 1.125525 -0.011649 0.014194 -312185.000000 0 0 1
32.544561 -27.438105 21.725859 47.791328 -0.700471 1.098875 -0.001675 0.003617 273161.000000 0 0 1
31.141571 -27.487605 22.420459 47.202149 -0.723155 1.075846 0.005395 -0.001637 511057.000000 0 0 1
30.051551 -27.108505 21.614959 45.882167 -0.733956 1.080262 0.012436 -0.001343 -490926.000000 0 0 1
28.999051 -26.729205 22.486059 45.398438 -0.744690 1.052611 0.015708 -0.001047 117820.000000 0 0 1
28.161761 -25.538005 21.904959 43.875981 -0.736577 1.048067 0.023142 0.003941 -61443.900000 0 0 1
28.917531 -24.404605 21.542759 43.541920 -0.700964 1.053239 0.015864 0.003320 -166559.000000 0 0 1
29.366111 -23.602305 22.655559 43.962616 -0.677009 1.029396 0.013161 -0.003167 -534469.000000 0 0 1
30.371981 -22.606805 22.096459 43.838093 -0.639863 1.042518 0.010785 -0.006698 -463275.000000 0 0 1
29.754071 -21.639505 21.295059 42.509440 -0.628800 1.046101 0.018990 -0.018346 167026.000000 0 0 1
30.686101 -20.608405 20.956059 42.491170 -0.591402 1.055048 0.010370 -0.019088 -108831.000000 0 0 1
30.113161 -19.163505 21.138759 41.483605 -0.566743 1.036113 0.009744 -0.016400 79279.600000 0 0 1
29.886931 -18.641005 22.444559 41.766900 -0.557677 1.003473 -0.001963 -0.023598 1000240.000000 0 0 1
28.768201 -19.218205 23.187559 41.648670 -0.588950 0.980338 0.026376 -0.018308 764843.000000 0 0 1
28.660801 -18.656105 24.643759 42.152184 -0.577027 0.946363 0.016603 -0.010407 -118847.000000 0 0 1
28.079091 -17.392505 24.807579 41.307996 -0.554570 0.926606 0.008537 -0.010686 73506.000000 0 0 1
28.252041 -16.970705 26.165629 42.081145 -0.540926 0.899770 0.010714 -0.012748 -219341.000000 0 0 1
27.757781 -15.533005 26.401139 41.337499 -0.510177 0.878024 -0.005945 -0.008416 387863.000000 0 0 1
26.338511 -15.371705 26.375929 40.319922 -0.528289 0.857717 0.016801 -0.006813 813992.000000 0 0 1
25.819891 -14.154405 26.954489 39.919399 -0.501458 0.829530 0.004783 -0.008130 81156.500000 0 0 1
26.348691 -12.805405 26.359619 39.408900 -0.452383 0.838102 0.005706 0.000537 -738004.000000 0 0 1
25.977391 -12.555505 25.001459 38.177723 -0.450218 0.856785 -0.002839 0.011059 -106694.000000 0 0 1
26.961511 -11.992305 24.182659 38.151533 -0.418516 0.884265 -0.012913 0.014327 -117211.000000 0 0 1
28.065241 -12.981905 23.744859 38.987254 -0.433251 0.915945 -0.015191 0.015743 -139084.000000 0 0 1
27.530301 -13.964305 22.838359 38.399348 -0.469418 0.933830 0.001640 0.007855 219056.000000 0 0 1
28.468411 -14.997005 22.634159 39.340383 -0.484853 0.957775 -0.003234 -0.003252 -254901.000000 0 0 1
27.920591 -16.006605 21.587259 38.752814 -0.520548 0.979967 0.016962 -0.011289 -154054.000000 0 0 1
28.015261 -15.414705 20.296659 37.873769 -0.503016 1.005220 0.005050 -0.008888 -86869.000000 0 0 1
27.814841 -16.459205 19.322759 37.655542 -0.534325 1.031951 0.010554 -0.014236 -169334.000000 0 0 1
27.845981 -15.900005 17.860259 36.704191 -0.518822 1.062603 0.010201 -0.014649 173321.000000 0 0 1
27.367321 -16.876805 16.912459 36.329438 -0.552592 1.086562 0.016268 -0.019871 7012.890000 0 0 1
25.967721 -16.987605 16.801259 35.287159 -0.579309 1.074548 0.016186 -0.019227 -158038.000000 0 0 1
25.281091 -16.168405 15.631159 33.836135 -0.568991 1.090585 0.021666 -0.016078 -267271.000000 0 0 1
25.429281 -16.523705 14.245659 33.505521 -0.576228 1.131643 0.030812 -0.023722 426541.000000 0 0 1
24.635801 -17.682305 13.925959 33.369431 -0.622539 1.140295 0.020622 -0.026662 108962.000000 0 0 1
25.108111 -18.298205 12.590559 33.522585 -0.629779 1.185769 0.019312 -0.008195 -218266.000000 0 0 1
24.921191 -17.424305 11.516759 32.516271 -0.610173 1.208754 0.008766 -0.013493 -285620.000000 0 0 1
24.787201 -18.073005 10.295059 32.357798 -0.630008 1.247005 0.007703 -0.008080 35819.600000 0 0 1
26.052251 -18.555405 9.513159 33.369493 -0.618892 1.281701 0.021074 0.002030 102782.000000 0 0 1
26.671301 -19.518905 10.288459 34.615002 -0.631772 1.269011 0.030513 0.012737 97734.000000 0 0 1
28.079401 -19.574805 9.991059 35.657356 -0.608793 1.286798 0.034763 0.012476 817096.000000 0 0 1
28.858631 -20.306605 11.102759 36.992567 -0.613177 1.265962 0.045273 -0.009227 -204330.000000 0 0 1
29.022571 -19.548805 12.288759 37.087451 -0.592768 1.233067 0.055633 -0.027021 117259.000000 0 0 1
29.252631 -20.464905 13.349559 38.114820 -0.610452 1.212963 0.024521 -0.018540 -2000.840000 0 0 1
29.246711 -19.760405 14.725659 38.245114 -0.594193 1.175552 0.034717 -0.013595 173928.000000 0 0 1
29.124011 -20.667605 15.830359 39.063515 -0.617167 1.153548 0.035425 -0.011260 -2383.840000 0 0 1
28.689341 -20.090805 17.052459 38.955168 -0.610919 1.117706 0.039744 -0.019204 99327.200000 0 0 1
28.521241 -21.144305 18.114159 39.858068 -0.637944 1.099023 0.023039 -0.016062 -759849.000000 0 0 1
27.402531 -21.907605 17.881659 39.377603 -0.674420 1.099426 0.022333 -0.010037 -924816.000000 0 0 1
27.196361 -22.843905 18.903159 40.234506 -0.698637 1.081704 0.024690 -0.010233 655563.000000 0 0 1
25.890191 -23.665505 18.630659 39.717245 -0.740536 1.082545 0.025633 -0.000258 720830.000000 0 0 1
24.711701 -23.145205 19.197759 38.922007 -0.752677 1.054990 0.027517 0.003465 -474652.000000 0 0 1
23.539801 -23.740805 18.718459 38.316168 -0.789649 1.060396 0.016306 0.001503 -627600.000000 0 0 1
22.359901 -23.239705 19.533159 37.704023 -0.804690 1.026208 0.005209 0.005524 -893160.000000 0 0 1
21.661101 -22.146205 18.981459 36.331164 -0.796471 1.021067 0.003305 0.002044 212389.000000 0 0 1
20.521001 -21.711005 19.717859 35.794876 -0.813568 0.987406 0.004793 -0.000271 371172.000000 0 0 1
20.651301 -21.175205 21.167659 36.372178 -0.797923 0.949642 -0.001058 0.007662 -567557.000000 0 0 1
20.887901 -22.105005 22.156659 37.627825 -0.813700 0.941177 0.012335 0.012927 -156092.000000 0 0 1
21.128901 -21.543005 23.414459 38.193827 -0.795102 0.910890 0.025760 0.008667 -203588.000000 0 0 1
21.462801 -22.605805 24.466359 39.626720 -0.811329 0.905337 0.034002 0.005877 -63183.500000 0 0 1
20.393301 -23.426205 24.866619 39.787216 -0.854502 0.895677 0.018222 0.014012 -303429.000000 0 0 1
20.856601 -24.465205 25.705889 41.162322 -0.864852 0.896305 0.023828 0.024433 -427603.000000 0 0 1
19.774401 -25.314305 26.339209 41.540280 -0.907652 0.883998 0.040074 0.022350 -625987.000000 0 0 1
19.228301 -26.316905 25.581619 41.433396 -0.939798 0.905343 0.037783 0.013979 436239.000000 0 0 1
18.220801 -27.093705 26.244379 41.890737 -0.978759 0.893747 0.045280 0.000644 232296.000000 0 0 1
17.439701 -28.072405 25.354659 41.654073 -1.014905 0.916381 0.051928 -0.015350 -115808.000000 0 0 1
16.521001 -27.385305 24.518569 40.299611 -1.027969 0.916744 0.049336 -0.015896 297794.000000 0 0 1
15.972801 -28.257405 23.546359 40.100403 -1.056312 0.943219 0.058725 -0.027374 -562992.000000 0 0 1
15.013301 -27.544005 22.619159 38.674252 -1.071749 0.946085 0.044181 -0.025204 227543.000000 0 0 1
13.708901 -27.271905 23.151159 38.310141 -1.105011 0.921898 0.021479 -0.024156 367991.000000 0 0 1
13.035001 -26.491605 22.222559 36.953464 -1.113535 0.925587 0.002944 -0.016008 -751892.000000 0 0 1
11.655001 -25.950705 22.547659 36.299794 -1.148674 0.900586 0.017530 -0.009316 -368236.000000 0 0 1
10.647701 -26.926005 22.395459 36.605189 -1.194225 0.912448 0.015019 -0.020050 -233207.000000 0 0 1
9.368301 -26.302805 22.500659 35.859201 -1.228634 0.892494 0.003837 -0.001838 492722.000000 0 0 1
8.238301 -27.362805 22.352259 36.279694 -1.278352 0.907003 -0.004318 -0.003977 -7533.970000 0 0 1
8.141501 -27.834905 21.034159 35.825994 -1.286241 0.943300 0.009912 -0.003097 -221853.000000 0 0 1
7.013101 -28.650505 20.914559 36.158731 -1.330736 0.954019 -0.008414 0.004019 -330036.000000 0 0 1
6.930901 -29.509905 19.613459 36.104842 -1.340110 0.996509 0.001876 0.001627 -142925.000000 0 0 1
7.408001 -30.814405 19.832059 37.386048 -1.334866 1.011645 0.010872 -0.006541 206979.000000 0 0 1
7.294601 -31.595805 18.639659 37.402446 -1.343899 1.049097 -0.002010 -0.002860 106198.000000 0 0 1
7.989301 -32.971605 18.757459 38.765938 -1.333070 1.065731 0.000880 -0.011158 -14139.200000 0 0 1
7.270601 -33.739905 19.681359 39.731583 -1.358552 1.052549 -0.004581 -0.007818 252584.000000 0 0 1
8.125301 34.657261 20.280359 40.968759 1.340508 1.052938 0.001715 -0.012427 169742.000000 0 0 1
7.478001 33.661861 21.267359 40.513479 1.352196 1.018146 0.009362 -0.008804 -752759.000000 0 0 1
6.666801 32.678861 20.772159 39.291689 1.369548 1.013769 0.004118 -0.005247 -675242.000000 0 0 1
6.896901 31.401661 21.321259 38.577554 1.354594 0.985213 -0.006265 -0.014520 -566702.000000 0 0 1
5.978701 30.335461 20.752159 37.237577 1.376204 0.979677 0.005081 -0.022864 582582.000000 0 0 1
4.611101 30.532161 21.154059 37.429525 1.420905 0.970157 -0.003104 -0.019492 146600.000000 0 0 1
3.805701 29.577761 20.531459 36.205913 1.442832 0.967846 0.005091 -0.009900 -362997.000000 0 0 1
2.533501 29.337361 21.361059 36.378486 1.484653 0.943214 -0.004025 -0.006598 -260390.000000 0 0 1
2.680001 28.925561 22.701159 36.867508 1.478408 0.907459 -0.008753 -0.007877 -165964.000000 0 0 1
1.365701 28.709261 23.175959 36.921699 1.523262 0.892194 -0.005476 -0.000189 116379.000000 0 0 1
1.236301 28.184161 24.651219 37.464089 1.526959 0.852642 0.006924 -0.002096 -369489.000000 0 0 1
1.359801 29.287561 25.583929 38.912051 1.524400 0.853326 0.002449 0.000810 170159.000000 0 0 1
1.255001 28.866861 26.942659 39.506678 1.527348 0.820333 0.000507 0.002649 173389.000000 0 0 1
2.524701 28.200961 27.568489 39.518222 1.481509 0.798734 -0.001225 -0.002032 17035.600000 0 0 1
2.811701 26.900161 27.131929 38.310128 1.466651 0.783825 0.007062 0.001539 185868.000000 0 0 1
3.909101 26.403361 27.877259 38.594820 1.423811 0.763666 0.007351 0.002603 -65915.200000 0 0 1
4.223901 24.963961 27.355429 37.274122 1.403184 0.746752 0.002434 0.015879 -109465.000000 0 0 1
3.203101 23.997861 27.529619 36.661112 1.438106 0.721340 0.019631 0.018041 -96797.900000 0 0 1
3.686901 22.706461 27.261539 35.670269 1.409829 0.700895 0.017090 0.024475 526179.000000 0 0 1
2.531501 21.717361 26.870709 34.642276 1.454754 0.683032 0.017230 0.024144 360079.000000 0 0 1
2.917501 20.363061 26.704289 33.708829 1.428491 0.656383 0.013714 0.031670 68063.500000 0 0 1
3.778201 19.997161 25.627689 32.725215 1.384061 0.671133 0.022719 0.025931 122654.000000 0 0 1
4.290501 18.532561 25.740069 32.006490 1.343293 0.636444 0.014540 0.019098 339952.000000 0 0 1
5.419101 18.335561 26.570999 32.734958 1.283426 0.623738 0.005553 0.018396 497332.000000 0 0 1
6.686001 18.308961 25.895159 32.411108 1.220666 0.645233 0.005399 0.014516 462173.000000 0 0 1
7.817701 18.285561 26.965009 33.505073 1.166781 0.635452 0.005259 0.013040 -43886.800000 0 0 1
8.109001 19.437461 27.761529 34.846424 1.175564 0.649010 -0.002931 0.008260 85774.900000 0 0 1
8.295501 20.708861 27.116769 35.113978 1.189792 0.688421 -0.007540 0.009680 -120210.000000 0 0 1
8.826901 21.809561 28.097779 36.647733 1.186222 0.697113 -0.012294 0.013447 -219913.000000 0 0 1
10.017301 21.456161 28.735659 37.235081 1.134000 0.689230 0.000108 0.007669 -482371.000000 0 0 1
10.250901 22.402661 29.778219 38.648448 1.141661 0.691188 0.006152 -0.006309 120698.000000 0 0 1
11.460601 22.033861 30.666689 39.462415 1.091170 0.680733 0.026778 -0.009118 -139797.000000 0 0 1
12.666601 21.913761 29.988749 39.242589 1.046695 0.701014 0.021923 -0.012587 -336499.000000 0 0 1
13.764201 21.466861 30.784109 39.974251 1.000644 0.691801 0.025143 0.005425 -320915.000000 0 0 1
15.093501 21.464561 30.102839 39.933971 0.957938 0.716947 0.025413 -0.003566 -1067080.000000 0 0 1
15.496901 22.730861 29.712239 40.492754 0.972420 0.746947 0.022200 -0.015109 -43575.100000 0 0 1
16.574301 22.718161 28.790179 40.245456 0.940505 0.773650 0.028529 -0.003769 99464.100000 0 0 1
-8.785619 16.766661 4.567441 19.472276 -1.088139 1.334029 0.004536 -0.013778 -194867.000000 0 1 0
-8.461219 18.132061 4.936741 20.609107 -1.134188 1.328903 0.007077 -0.013023 -51192.000000 0 1 0
-7.093119 18.319261 5.202041 20.321636 -1.201378 1.311929 0.000531 -0.011804 -257707.000000 0 1 0
-6.860019 19.782361 5.749041 21.712972 -1.236998 1.302826 -0.000531 -0.008556 -215575.000000 0 1 0
-6.943219 20.887961 4.815941 22.532388 -1.249883 1.355400 0.000371 -0.012648 259638.000000 0 1 0
-8.270819 21.157261 4.387041 23.136168 -1.198141 1.380023 -0.003864 -0.016372 237350.000000 0 1 0
-8.322119 22.313661 3.366941 24.051890 -1.213815 1.430348 0.006024 -0.010654 410036.000000 0 1 0
-7.606019 22.184761 2.101341 23.546354 -1.240506 1.481435 -0.014471 -0.008561 160169.000000 0 1 0
-8.116719 21.176361 1.256841 22.713411 -1.204776 1.515433 0.001013 -0.013589 -850295.000000 0 1 0
-7.451219 21.240361 -0.151159 22.509919 -1.233405 1.577512 -0.015860 -0.002780 491415.000000 0 1 0
-6.141019 20.717861 -0.233459 21.610099 -1.282635 1.581600 -0.030512 0.002898 371284.000000 0 1 0
-5.117519 21.571461 0.307141 22.172309 -1.337867 1.556943 -0.020920 0.000705 -740474.000000 0 1 0
-3.744419 21.270161 -0.270459 21.598925 -1.396541 1.583319 -0.027655 0.003732 -921793.000000 0 1 0
-3.734119 21.613461 -1.626459 21.993879 -1.399717 1.644814 -0.025656 -0.002101 79126.600000 0 1 0
-2.448419 21.492461 -2.187959 21.741844 -1.457365 1.671600 -0.016559 0.002430 7964.740000 0 1 0
-2.626619 21.868661 -3.681259 22.331349 -1.451260 1.736399 -0.009901 0.004836 421356.000000 0 1 0
-1.395919 22.290761 -4.254359 22.736011 -1.508255 1.759026 0.000274 0.006982 402360.000000 0 1 0
-1.567819 22.606861 -5.664959 23.358510 -1.501556 1.815761 0.006984 -0.003689 -113438.000000 0 1 0
-0.373719 23.318361 -6.326859 24.164328 -1.554771 1.835710 0.009005 -0.008867 50848.600000 0 1 0
0.778881 22.498461 -6.358059 23.392570 1.536191 1.846057 0.000083 0.009170 -818430.000000 0 1 0
1.857381 23.156261 -6.918959 24.239106 1.490757 1.860268 0.011391 0.003717 -338013.000000 0 1 0
3.092981 22.207461 -6.873059 23.451584 1.432410 1.868237 0.006066 0.013032 -235559.000000 0 1 0
2.941881 21.211561 -7.854559 22.809627 1.432983 1.922346 0.013294 0.000519 650536.000000 0 1 0
3.869581 20.101861 -7.657459 21.856238 1.380624 1.928747 0.013588 -0.001294 775172.000000 0 1 0
3.654481 19.033861 -8.741559 21.261654 1.381106 1.994503 0.007408 -0.001508 284122.000000 0 1 0
4.106281 19.307261 -10.071359 22.159967 1.361238 2.042590 0.015524 -0.012352 253183.000000 0 1 0
2.942781 19.178061 -10.871659 22.240750 1.418539 2.081530 0.018690 -0.015848 103457.000000 0 1 0
3.182381 19.619661 -12.336959 23.393572 1.409993 2.126293 0.018396 -0.017078 81050.800000 0 1 0
3.277181 21.006561 -12.556859 24.691906 1.416036 2.104286 0.038416 -0.019142 -20969.300000 0 1 0
3.740081 21.273461 -13.868959 25.668977 1.396765 2.141590 0.041004 -0.014969 100391.000000 0 0 1
3.976181 22.782661 -14.195859 27.136361 1.398010 2.121316 0.036714 -0.011200 -163509.000000 0 0 1
2.821381 23.551461 -14.404259 27.750931 1.451568 2.116541 0.040049 -0.012647 -467086.000000 0 0 1
3.171081 24.843561 -14.834959 29.109007 1.443841 2.105556 0.033577 -0.011324 -27722.200000 0 0 1
1.959381 25.733861 -15.211959 29.957878 1.494803 2.103400 0.023956 -0.000451 222516.000000 0 0 1
1.151781 26.044561 -14.072359 29.625615 1.526602 2.065768 0.029337 -0.015217 182300.000000 0 0 1
0.771781 27.404661 -14.116859 30.836614 1.542641 2.046310 0.017768 -0.007472 -1075710.000000 0 0 1
-0.102619 27.889861 -12.987759 30.765837 -1.567117 2.006611 0.021469 -0.019334 1050120.000000 0 0 1
-1.540819 27.759961 -13.078759 30.725291 -1.515348 2.010496 -0.000542 -0.026900 1423250.000000 0 0 1
-2.202619 26.492661 -13.358059 29.751476 -1.487846 2.036429 -0.003766 -0.020870 -64283.800000 0 0 1
-2.024519 25.316261 -12.284759 28.212179 -1.490997 2.021325 0.025535 -0.028291 -422875.000000 0 0 1
-2.646619 25.526961 -11.071159 27.949971 -1.467486 1.978069 0.023201 -0.027782 -331125.000000 0 0 1
-2.802119 24.238161 -10.462959 26.548330 -1.455700 1.975895 0.049798 -0.024001 -253294.000000 0 0 1
-3.606319 24.175161 -9.186659 26.112040 -1.422714 1.930308 0.022001 -0.016917 -648181.000000 0 0 1
-3.046119 24.684161 -8.014659 26.130852 -1.448013 1.882533 0.021338 -0.018137 -182753.000000 0 0 1
-2.776819 26.107561 -8.075059 27.468565 -1.464834 1.869179 0.020729 -0.020199 -46091.900000 0 0 1
-2.502019 26.762961 -6.694859 27.700854 -1.477579 1.814897 0.007135 -0.013788 663548.000000 0 0 1
-1.247919 26.376061 -6.108959 27.103012 -1.523519 1.798148 0.014813 -0.015436 512135.000000 0 0 1
-1.174719 26.873661 -4.773559 27.319599 -1.527111 1.746428 0.013007 -0.015817 202687.000000 0 0 1
-1.917419 25.933361 -3.721259 26.269059 -1.496994 1.712934 0.001072 -0.008261 889840.000000 0 0 1
-3.333119 25.949461 -3.860859 26.445991 -1.443049 1.717310 -0.012975 -0.005246 456937.000000 0 0 1
-4.031719 25.222161 -2.825959 25.698214 -1.412289 1.680986 -0.011514 0.001134 -676036.000000 0 0 1
-5.351419 24.717661 -3.330859 25.508725 -1.357585 1.701747 -0.025509 0.002414 -1234070.000000 0 0 1
-6.200719 25.716061 -3.782059 26.722064 -1.334190 1.712806 -0.032950 0.005927 -810563.000000 0 0 1
-7.359319 25.134461 -4.328259 26.544953 -1.285960 1.734582 -0.018473 0.006977 494959.000000 0 0 1
-8.569519 26.139161 -4.438359 27.863801 -1.253996 1.730765 -0.019739 0.002906 219203.000000 0 0 1
-9.138519 26.308661 -3.189359 28.032663 -1.236477 1.684816 -0.015108 0.004647 647648.000000 0 0 1
-10.518719 26.734361 -3.296559 28.917759 -1.195946 1.685042 -0.007266 0.002307 1073950.000000 0 0 1
-11.204519 26.876061 -1.897159 29.179841 -1.175810 1.635858 0.005715 0.007016 -25430.600000 0 0 1
-11.486619 25.708561 -1.137059 28.180941 -1.150606 1.611156 0.017228 -0.000806 49944.600000 0 0 1
-10.347819 25.005661 -0.691159 27.070983 -1.178434 1.596330 0.010096 -0.004929 -219057.000000 0 0 1
-10.561219 23.522361 -0.478859 25.788953 -1.148786 1.589366 0.001660 -0.004193 -104801.000000 0 0 1
-11.367819 23.273961 0.664041 25.910336 -1.116443 1.545165 0.008988 -0.007501 169672.000000 0 0 1
-11.741919 21.908761 0.732141 24.867700 -1.078807 1.541351 0.025632 -0.011860 -30922.100000 0 1 0
-12.740919 21.701061 1.945841 25.239916 -1.039908 1.493626 0.022405 -0.013861 232757.000000 0 0 1
-12.205519 21.769661 3.267841 25.170849 -1.059801 1.440602 0.038690 -0.015820 128631.000000 0 0 1
-12.171119 23.087561 3.726241 26.363924 -1.085648 1.428983 0.023453 -0.017589 -78586.700000 0 0 1
-12.139019 23.103261 5.270841 26.625143 -1.087017 1.371515 0.017371 -0.013361 -603770.000000 0 0 1
-10.884219 22.823961 5.796941 25.942320 -1.125818 1.345439 0.010243 -0.007496 -434960.000000 0 0 1
-11.032919 22.379461 7.114841 25.945839 -1.112770 1.293019 0.007815 -0.004509 -167691.000000 0 0 1
-9.686619 22.005961 7.744541 25.260064 -1.156137 1.259185 0.012077 -0.009111 326229.000000 0 0 1
-8.828419 23.065161 8.237141 26.034460 -1.205240 1.248871 0.021354 -0.016233 719224.000000 0 0 1
-7.796619 22.593461 9.103841 25.575998 -1.238509 1.206863 0.031384 -0.016933 76446.100000 0 0 1
-8.112419 22.473961 10.634741 26.153164 -1.224383 1.152031 0.016946 -0.015250 198298.000000 0 0 1
-9.109119 21.483761 10.930341 25.768205 -1.169773 1.132741 0.019550 -0.010315 387483.000000 0 0 1
-8.858719 20.976961 12.190741 25.828743 -1.171209 1.079257 0.013874 -0.004369 223924.000000 0 0 1
-9.914719 19.934261 12.703541 25.633111 -1.109254 1.052281 0.016198 0.003784 46911.100000 0 0 1
-10.028119 18.816261 11.818841 24.378266 -1.081138 1.064650 0.020158 -0.001720 69326.800000 0 1 0
-10.636119 17.750261 12.508641 24.179845 -1.030959 1.027084 0.007819 0.000857 -287192.000000 0 1 0
-10.727619 16.446461 11.621541 22.817277 -0.992823 1.036389 -0.003253 -0.006792 -281493.000000 0 1 0
-10.811319 15.278661 12.374441 22.437667 -0.954982 0.986631 -0.010905 -0.000680 -51838.600000 0 1 0
-11.307219 14.278561 11.572141 21.578808 -0.901013 1.004781 -0.016010 0.003669 -237117.000000 0 1 0
-11.386819 12.894161 12.275941 21.133333 -0.847398 0.950986 -0.022618 -0.007323 -45284.400000 0 1 0
-12.359919 12.812461 13.324441 22.236625 -0.803374 0.928280 -0.028197 0.002085 442553.000000 0 1 0
-12.540519 11.436361 13.676941 21.797103 -0.739380 0.892502 -0.020647 -0.003176 -1075920.000000 0 1 0
-13.362219 11.345561 14.910641 23.012994 -0.703958 0.865942 -0.018895 -0.015404 -532163.000000 0 1 0
-14.698919 11.680761 14.600541 23.783906 -0.671481 0.909826 -0.010677 -0.026423 -214167.000000 0 1 0
-15.445619 11.794761 15.812341 25.054215 -0.652168 0.887794 -0.003037 -0.028322 -22935.100000 0 0 1
-16.342119 13.059261 15.736241 26.177059 -0.674202 0.925862 0.015473 -0.030442 373983.000000 0 0 1
-17.543519 12.861561 14.969241 26.405927 -0.632612 0.968071 0.007804 -0.026055 151225.000000 0 0 1
-18.201919 14.050961 14.921941 27.411744 -0.657401 0.995167 0.027193 -0.014700 -1202110.000000 0 0 1
-19.480819 14.059961 14.122441 27.868049 -0.625164 1.039373 0.029881 -0.007456 -621174.000000 0 0 1
-20.471419 13.233861 14.731341 28.482038 -0.573879 1.027202 0.029388 -0.003007 676979.000000 0 0 1
-21.686919 13.310261 13.978941 29.032676 -0.550466 1.068442 0.014173 -0.001183 287803.000000 0 0 1
-22.815919 12.384661 14.432941 29.702791 -0.497305 1.063390 0.014893 0.000701 -262239.000000 0 0 1
-23.281619 12.628061 15.748241 30.814101 -0.496993 1.034364 0.014827 0.006916 393188.000000 0 0 1
-24.276419 11.675661 16.136641 31.401541 -0.448289 1.031094 0.009961 0.000845 6097.960000 0 0 1
-25.109739 12.219461 17.323541 32.862126 -0.452904 1.015543 0.001201 0.008055 -797646.000000 0 0 1
-25.984489 13.223261 16.965341 33.732345 -0.470735 1.043800 0.003343 0.010263 -241985.000000 0 0 1
-26.446409 13.876061 18.126341 34.935968 -0.483201 1.025297 -0.012511 0.022674 -647996.000000 0 0 1
-27.523859 14.899561 17.945841 36.077873 -0.496164 1.050175 -0.013168 0.018079 -631767.000000 0 0 1
-27.115639 16.231161 17.682741 36.213089 -0.539382 1.060659 0.001491 0.020953 331689.000000 0 0 1
-28.244619 17.083961 17.402941 37.315983 -0.543983 1.085617 0.008464 0.021189 568808.000000 0 0 1
-27.905049 18.613361 17.589541 37.875334 -0.588251 1.087832 0.018468 0.013826 -113345.000000 0 0 1
-27.539849 19.163061 18.820341 38.469097 -0.607922 1.059587 0.014437 0.010583 -690661.000000 0 0 1
-28.495869 19.184861 19.798641 39.649207 -0.592547 1.047953 0.009961 0.006247 -1395040.000000 0 0 1
-27.852009 19.445361 21.149241 40.014333 -0.609495 1.013915 0.016622 -0.007532 457824.000000 0 0 1
-27.099109 18.469961 21.903341 39.436753 -0.598250 0.981947 0.008478 -0.004012 521227.000000 0 0 1
-26.036459 17.854861 21.159041 38.005240 -0.601107 0.980340 0.022090 0.003869 -433347.000000 0 0 1
-25.607709 16.531361 21.790341 37.468115 -0.573249 0.950139 0.006857 0.006067 -314265.000000 0 0 1
-26.598999 15.555661 21.965841 37.841558 -0.529184 0.951492 -0.025957 0.016320 206058.000000 0 0 1
-26.015529 14.256361 22.182141 37.041854 -0.501302 0.928745 -0.022659 0.021484 -257387.000000 0 0 1
-27.136579 13.269161 22.487541 37.658386 -0.454790 0.930858 -0.011410 0.008502 8747.780000 0 0 1
-27.974449 13.071661 21.340741 37.534855 -0.437124 0.966044 -0.010951 0.003137 -41686.800000 0 0 1
-28.908039 12.050161 21.584541 38.036476 -0.394943 0.967367 0.008668 0.004239 -451779.000000 0 0 1
-29.793579 11.793761 20.352341 37.960083 -0.376923 1.004925 0.020309 0.011024 -481532.000000 0 0 1
-29.177829 11.318061 19.153241 36.691836 -0.370031 1.021599 0.032002 0.000529 -43804.500000 0 0 1
-28.580999 10.062461 19.318641 35.935171 -0.338516 1.003212 0.038558 -0.003858 -358722.000000 0 0 1
-27.797659 9.608161 18.075441 34.521706 -0.332791 1.019730 0.043469 -0.007132 -68945.100000 0 0 1
-28.601269 9.221761 16.957141 34.505334 -0.311901 1.057059 0.037289 -0.002854 479335.000000 0 0 1
-29.152469 10.249261 16.105141 34.846655 -0.338077 1.090354 0.035501 -0.003844 -372689.000000 0 0 1
-28.205139 11.188761 15.334941 33.998215 -0.377652 1.102853 0.028671 0.005762 -482127.000000 0 0 1
-27.781989 10.681861 14.106441 32.938317 -0.367063 1.128221 0.023259 0.000155 -121639.000000 0 0 1
-26.941469 11.590061 13.493441 32.283823 -0.406262 1.139594 0.013710 0.003764 -632982.000000 0 0 1
-26.782119 11.498761 11.939441 31.496883 -0.405545 1.182008 0.022191 0.002556 -440108.000000 0 0 1
-26.104929 10.303361 11.577641 30.358991 -0.375921 1.179532 0.028747 0.001748 538217.000000 0 0 1
-26.995859 9.238661 11.362941 30.712305 -0.329732 1.191809 0.020134 0.005944 -294984.000000 0 0 1
-26.302289 8.039061 10.692041 29.508586 -0.296624 1.200023 0.012524 -0.003431 -336226.000000 0 0 1
-26.116949 8.295861 9.319341 28.944195 -0.307563 1.242980 0.022946 -0.002673 267595.000000 0 0 1
-25.671109 7.208661 8.622541 28.023541 -0.273758 1.258033 0.030699 -0.012547 -543665.000000 0 0 1
-25.025519 7.534461 7.266041 27.126372 -0.292439 1.299626 0.025747 0.005526 -661380.000000 0 0 1
-25.830889 8.033261 6.247741 27.763328 -0.301513 1.343817 0.026978 0.004594 -541704.000000 0 0 1
-25.062819 8.382861 5.157741 26.926187 -0.322777 1.378054 0.023178 0.006836 -590087.000000 0 0 1
-25.887589 8.901061 3.953041 27.659043 -0.331172 1.427385 0.001736 0.017198 -146557.000000 0 0 1
-26.613789 7.940561 3.180141 27.954598 -0.289954 1.456789 0.035498 0.001625 403302.000000 0 0 1
-25.917479 6.832961 2.616441 26.930481 -0.257777 1.473487 0.039710 0.001691 -631908.000000 0 0 1
-24.934519 7.119161 1.475041 25.972840 -0.278115 1.513974 0.046083 0.003486 -479938.000000 0 0 1
-23.810519 7.759261 2.011841 25.123583 -0.315023 1.490633 0.026488 0.003941 -60144.000000 0 0 1
-22.785919 7.898561 1.049441 24.138904 -0.333680 1.527308 0.021523 0.009107 -470688.000000 0 1 0
-21.628419 8.805161 1.396541 23.393796 -0.386621 1.511064 0.006914 0.009404 -319283.000000 0 1 0
-21.878319 10.180161 1.042741 24.153340 -0.435511 1.527611 0.002488 0.012110 1019140.000000 0 1 0
-20.698519 10.927961 1.324441 23.443617 -0.485764 1.514271 0.000792 0.008745 100675.000000 0 1 0
-21.075619 12.418661 1.507041 24.508693 -0.532472 1.509267 -0.005464 0.015800 24288.400000 0 1 0
-20.035419 13.110161 2.183341 24.042906 -0.579427 1.479861 0.002285 0.002230 356621.000000 0 1 0
-20.478819 14.272761 2.851641 25.124203 -0.608678 1.457049 0.004397 0.003488 251588.000000 0 0 1
-19.378119 14.761761 3.852141 24.662929 -0.650994 1.413963 -0.012731 0.007075 517102.000000 0 1 0
-18.990319 13.802361 4.862441 23.974585 -0.628494 1.366563 -0.016798 0.001806 132496.000000 0 1 0
-18.224519 14.400561 5.877541 23.959439 -0.668721 1.322955 -0.013116 0.003572 -396215.000000 0 1 0
-17.729419 13.552061 7.056341 23.404756 -0.652643 1.264539 -0.031930 0.005128 -311755.000000 0 1 0
-16.763219 12.602361 6.711941 22.019881 -0.644643 1.261054 -0.018504 0.001436 -205340.000000 0 1 0
-16.326519 11.920161 7.800541 21.667808 -0.630650 1.202522 -0.023660 0.004143 -623780.000000 0 1 0
9.264381 -34.020105 -14.558959 38.146554 -1.304923 1.962386 0.010840 0.005264 -77824.200000 0 0 1
10.530581 -33.581505 -14.114259 37.918635 -1.266925 1.952201 0.025994 -0.006120 50568.200000 0 0 1
10.952481 -32.373005 -14.607059 37.166308 -1.244563 1.974709 0.032572 -0.013960 554011.000000 0 0 1
12.264181 -31.825605 -13.941059 36.846063 -1.202978 1.958820 0.016404 -0.019770 846301.000000 0 0 1
13.485381 -32.428905 -14.324459 37.929929 -1.176706 1.958060 0.021442 -0.009302 288101.000000 0 0 1
14.595181 -31.767505 -13.712659 37.553038 -1.140122 1.944595 0.014686 -0.011510 994277.000000 0 0 1
15.967781 -32.416905 -14.111659 38.793874 -1.113106 1.943098 0.036495 -0.006912 613971.000000 0 0 1
16.187081 -33.718205 -13.663059 39.819820 -1.123220 1.921035 0.039927 -0.011240 -1625440.000000 0 0 1
17.396281 -34.131405 -14.115359 40.826790 -1.099430 1.923821 0.036894 0.007449 -1112510.000000 0 0 1
17.647281 33.756461 -13.894059 40.545901 1.089089 1.920559 0.021001 0.003181 13189.800000 0 0 1
17.874981 33.364761 -12.569759 39.883845 1.078964 1.891421 0.032612 0.002594 -161300.000000 0 0 1
17.668781 31.930761 -12.499959 38.574711 1.065387 1.900799 0.025496 0.009072 304885.000000 0 0 1
18.364881 31.303461 -11.241059 37.993907 1.040234 1.871157 0.030657 -0.001607 102783.000000 0 0 1
19.722181 31.002761 -11.396759 38.471051 1.004224 1.871552 0.029945 -0.001409 -288296.000000 0 0 1
20.347981 30.684261 -10.153459 38.192368 0.985239 1.839882 0.027590 0.003734 273759.000000 0 0 1
21.584981 29.762161 -10.215759 38.158346 0.943325 1.841822 0.019068 0.014414 -352028.000000 0 0 1
22.725981 30.362061 -10.727359 39.413211 0.928256 1.846451 0.012893 -0.000724 -353302.000000 0 0 1
23.864881 29.541861 -10.522759 39.407900 0.891298 1.841097 0.006510 0.010035 571449.000000 0 0 1
25.166881 30.034761 -11.221859 40.760139 0.873354 1.849713 -0.003389 0.002849 30733.500000 0 0 1
25.610381 31.251661 -10.741759 41.808412 0.884285 1.830639 -0.002949 -0.004650 6310.700000 0 0 1
26.846781 31.500661 -11.394959 42.928853 0.864991 1.839455 0.004748 -0.000748 148689.000000 0 0 1
27.465781 32.893661 -11.198559 44.291870 0.875083 1.826406 -0.006141 -0.004621 -471113.000000 0 0 1
26.827181 33.882161 -11.975559 44.845429 0.901088 1.841117 0.007853 -0.002829 25760.800000 0 0 1
27.407181 -34.220405 -11.723059 45.383034 -0.895506 1.832073 0.020480 -0.001942 372621.000000 0 0 1
26.464181 -33.012505 -12.142259 44.018324 -0.895056 1.850266 0.010856 0.003091 948752.000000 0 0 1
25.354081 -32.964305 -11.232459 43.077174 -0.915159 1.834597 0.026028 -0.004645 761552.000000 0 0 1
24.274281 -32.077605 -11.599759 41.866070 -0.922998 1.851538 0.026470 -0.007424 834555.000000 0 0 1
24.464081 -30.610905 -11.125659 40.734494 -0.896546 1.847438 -0.000344 -0.004695 -299108.000000 0 0 1
25.119881 -29.849605 -12.088659 40.842906 -0.871229 1.871277 -0.001065 0.002940 -305248.000000 0 0 1
25.492081 -28.564005 -11.689259 40.029831 -0.842166 1.867128 -0.006925 0.002625 -85664.400000 0 0 1
26.298781 -27.890605 -12.823459 40.422182 -0.814765 1.893612 -0.002486 -0.005837 398739.000000 0 0 1
27.572881 -28.479905 -13.073959 41.740833 -0.801578 1.889375 -0.016002 0.002273 108276.000000 0 0 1
27.595681 -29.493205 -14.070359 42.770852 -0.818624 1.906010 -0.010772 0.000064 -75476.500000 0 0 1
29.036781 -29.981005 -14.349759 44.135143 -0.801396 1.901948 -0.012206 0.001350 146065.000000 0 0 1
29.605981 -30.747305 -13.317659 44.713207 -0.804307 1.873232 -0.011945 -0.008198 -275807.000000 0 0 1
30.719581 -31.484205 -13.743159 46.084946 -0.797690 1.873617 -0.007980 -0.010238 -170492.000000 0 0 1
31.211381 -32.577505 -12.749759 46.882838 -0.806811 1.846215 -0.023700 -0.009163 136308.000000 0 0 1
32.203581 -33.418005 -13.307859 48.279735 -0.803903 1.850052 -0.028105 -0.014013 305308.000000 0 0 1
32.905981 -34.262005 -12.391859 49.094264 -0.805584 1.825966 -0.016161 -0.010806 145013.000000 0 0 1
32.074981 33.900161 -11.815759 48.141848 0.813056 1.818766 -0.021822 -0.014372 -22070.400000 0 0 1
31.174781 34.394461 -10.857259 47.673116 0.834462 1.800556 -0.021166 -0.010067 -224340.000000 0 0 1
30.908181 33.337761 -9.953459 46.538085 0.823197 1.786339 -0.007594 -0.007263 -594589.000000 0 0 1
30.171381 33.727661 -8.665459 46.075563 0.840995 1.759994 -0.019698 0.000304 -1365140.000000 0 0 1
28.878881 34.123961 -8.848759 45.571208 0.868458 1.766212 -0.023692 -0.009440 -1598610.000000 0 0 1
28.301381 34.674161 -7.646759 45.406371 0.886249 1.740010 -0.021888 -0.002231 451482.000000 0 0 1
27.464881 -33.460105 -7.976959 44.017385 -0.883486 1.753026 -0.016446 -0.007386 -335807.000000 0 0 1
28.236081 -32.287405 -8.017859 43.635294 -0.852236 1.755593 -0.023363 -0.008165 350063.000000 0 0 1
27.482981 -31.091405 -8.371259 42.332820 -0.846925 1.769857 -0.013602 -0.003158 559691.000000 0 0 1
26.321081 -30.602305 -7.444959 41.045436 -0.860467 1.753189 -0.011295 -0.003650 921280.000000 0 0 1
25.585081 -29.448005 -7.884159 39.798760 -0.855476 1.770216 -0.004027 -0.015221 311888.000000 0 0 1
24.444881 -29.083605 -7.131859 38.655811 -0.871841 1.756356 -0.001934 -0.017430 -106730.000000 0 0 1
23.555881 -28.154405 -7.975759 37.565447 -0.874093 1.784741 0.026790 -0.024052 -574879.000000 0 0 1
22.568981 -28.870805 -8.677459 37.658738 -0.907299 1.803309 0.034896 -0.018705 309252.000000 0 0 1
21.792381 -28.024805 -9.564659 36.766564 -0.909857 1.833969 0.047914 -0.022930 91203.300000 0 0 1
20.606081 -28.783705 -10.165459 36.829999 -0.949483 1.850437 0.051452 -0.020316 -444386.000000 0 0 1
20.840081 -29.429805 -11.424459 37.827776 -0.954636 1.877599 0.058306 -0.019012 -243194.000000 0 0 1
19.842681 -30.285505 -11.957459 38.130363 -0.990783 1.889772 0.057225 -0.024384 131534.000000 0 0 1
19.519781 -31.615705 -11.127559 38.786560 -1.017675 1.861777 0.060048 -0.026696 121024.000000 0 0 1
20.524981 -32.608005 -11.175759 40.118006 -1.009006 1.853103 0.043463 -0.013210 -180740.000000 0 0 1
20.109281 -33.820505 -10.634459 40.759066 -1.034365 1.834761 0.031292 -0.011720 72151.000000 0 0 1
21.156181 34.414061 -10.764359 41.806495 1.019599 1.831210 0.033411 -0.003598 825337.000000 0 0 1
22.178681 34.477461 -9.749659 42.138404 0.999159 1.804284 0.027216 0.005514 720829.000000 0 0 1
23.268481 33.587661 -10.049559 42.077866 0.964940 1.811960 0.016034 0.003839 310396.000000 0 0 1
24.524981 33.855861 -9.202259 42.806256 0.943885 1.787462 0.011140 0.003460 -610067.000000 0 0 1
24.498281 33.529261 -7.866259 42.264112 0.939792 1.758009 -0.004908 0.001312 -28019.800000 0 0 1
24.718381 32.134461 -7.637759 41.254785 0.915109 1.757007 -0.008187 -0.001842 -189576.000000 0 0 1
24.715881 31.885961 -6.031959 40.791835 0.911403 1.719212 -0.007310 0.000172 -991340.000000 0 0 1
25.729081 32.592761 -5.319059 41.863661 0.902546 1.698197 -0.007879 0.000659 12725.500000 0 0 1
26.801781 31.789461 -4.872659 41.864640 0.870320 1.687452 -0.004556 0.000773 48041.700000 0 0 1
26.464481 30.708361 -3.793559 40.715639 0.859491 1.664104 0.009925 0.010511 -643435.000000 0 0 1
25.908381 31.150461 -2.570659 40.598075 0.877012 1.634158 0.002847 0.004298 35827.400000 0 0 1
25.790381 30.159961 -1.605459 39.715797 0.863337 1.611231 0.007958 0.003974 329861.000000 0 0 1
24.445081 29.386061 -1.726259 38.263332 0.876928 1.615927 0.009829 0.009785 822753.000000 0 0 1
23.285181 30.094261 -1.242859 38.071103 0.912273 1.603448 0.007890 0.008362 1129620.000000 0 0 1
22.085681 29.306461 -1.422359 36.724230 0.924988 1.609537 0.013895 0.020489 750275.000000 0 0 1
20.839981 29.977561 -0.835759 36.519275 0.963309 1.593684 0.018099 0.012913 -142615.000000 0 0 1
20.806781 29.877261 0.582741 36.413081 0.962485 1.554792 0.036534 0.005007 -101663.000000 0 0 1
19.693581 30.505661 1.171841 36.329130 0.997541 1.538534 0.037496 -0.000313 -304483.000000 0 0 1
19.018181 29.730561 2.297241 35.367708 1.001707 1.505797 0.038248 -0.014295 -198658.000000 0 0 1
18.356881 28.573261 1.758441 34.007329 0.999747 1.519066 0.039663 -0.009887 427578.000000 0 0 1
17.889781 27.672761 2.762841 33.067496 0.996902 1.487147 0.041865 -0.012567 -132571.000000 0 0 1
17.444481 26.287061 2.222941 31.626903 0.984910 1.500452 0.026316 0.002943 109545.000000 0 0 1
18.456381 25.359661 1.884141 31.421337 0.941665 1.510797 0.035585 0.000583 165318.000000 0 0 1
19.103581 24.660861 2.959341 31.334687 0.911704 1.476212 0.049629 0.001155 38457.200000 0 0 1
20.302581 23.839961 2.443441 31.408740 0.865363 1.492923 0.047467 0.005353 -95064.700000 0 0 1
19.900181 22.771761 1.638141 30.286199 0.852591 1.516681 0.048028 0.011856 -669506.000000 0 0 1
21.020881 22.081661 1.251941 30.513023 0.810004 1.529755 0.030061 0.008979 -694270.000000 0 0 1
20.812881 21.141461 0.024941 29.667120 0.793230 1.569956 0.058525 0.000182 -203711.000000 0 0 1
20.640681 21.753361 -1.257459 30.013791 0.811638 1.612705 0.042089 0.007807 308268.000000 0 0 1
20.901681 20.806561 -2.277159 29.580039 0.783118 1.647856 0.070460 -0.007218 -49032.900000 0 0 1
20.746481 21.444561 -3.726159 30.069419 0.801942 1.695034 0.045112 0.003987 -169274.000000 0 0 1
21.640981 22.478461 -3.959059 31.452940 0.804378 1.697004 0.033868 0.006425 -50713.500000 0 0 1
21.243681 23.139061 -5.148159 31.831017 0.828078 1.733244 0.033155 0.004024 -304124.000000 0 0 1
22.160781 24.292961 -5.593759 33.354735 0.831265 1.739298 0.025177 0.024573 -234768.000000 0 0 1
22.176281 25.530561 -4.881959 34.167682 0.855593 1.714169 0.012518 0.024987 -186619.000000 0 0 1
22.649481 25.556961 -3.569259 34.335068 0.845638 1.674938 0.023978 0.018683 -624929.000000 0 0 1
21.690781 25.200161 -2.411359 33.336958 0.860100 1.643192 0.024676 0.009117 -1302000.000000 0 0 1
20.757281 26.241561 -2.311159 33.538421 0.901562 1.639762 0.031065 0.015868 244585.000000 0 0 1
19.649181 26.028861 -1.463159 32.645563 0.924167 1.615631 0.041337 0.015960 248337.000000 0 0 1
18.598081 24.960761 -1.837059 31.181774 0.930443 1.629745 0.036727 0.009272 -674822.000000 0 0 1
17.884281 25.137461 -3.053559 31.001027 0.952421 1.669455 0.028371 0.007767 120700.000000 0 0 1
16.992781 24.058661 -3.244959 29.632812 0.955851 1.680522 0.028014 0.009903 16762.000000 0 0 1
16.640581 24.076861 -4.746059 29.650114 0.966039 1.731557 0.030701 0.006051 -176462.000000 0 0 1
15.957381 22.982161 -5.280859 28.472886 0.963881 1.757346 0.031691 -0.002569 57339.400000 0 0 1
15.823781 23.160261 -6.703959 28.839778 0.971414 1.805398 0.029216 -0.003394 -307119.000000 0 0 1
14.920681 22.100361 -7.326059 27.653640 0.976955 1.838919 0.031209 -0.005091 -432707.000000 0 0 1
15.585481 20.847261 -7.530159 27.096472 0.928831 1.852406 0.012501 -0.000192 613777.000000 0 0 1
14.844181 20.015361 -8.423859 26.304482 0.932667 1.896784 0.007355 -0.002001 -271513.000000 0 0 1
15.625781 18.824661 -9.013559 26.072536 0.877987 1.923793 -0.004455 -0.000089 -494058.000000 0 0 1
16.632381 19.262661 -9.896059 27.306010 0.858544 1.941652 0.006544 0.000755 -278795.000000 0 0 1
17.351081 18.129961 -10.239159 27.103429 0.807347 1.958195 -0.006664 -0.002358 -368782.000000 0 0 1
18.801981 18.474961 -10.655459 28.431980 0.776626 1.954945 -0.016721 0.001615 -135571.000000 0 0 1
18.891081 18.781161 -12.065259 29.243383 0.782480 1.996082 -0.014279 0.005725 -406581.000000 0 0 1
20.147481 19.186761 -12.503559 30.502324 0.760978 1.993164 -0.011438 0.013513 -879901.000000 0 0 1
20.244581 19.442061 -14.010159 31.370708 0.765180 2.033758 -0.003440 0.012083 -289957.000000 0 0 1
20.414681 18.256761 -14.823259 31.141572 0.729655 2.066892 -0.009369 0.018212 253088.000000 0 0 1
20.689881 18.635461 -16.143159 32.186226 0.733204 2.096191 0.003128 0.011420 -111681.000000 0 0 1
20.448181 17.539461 -17.231859 31.979646 0.708977 2.139854 0.004527 0.009167 61381.300000 0 0 1
21.405181 16.472661 -17.128159 31.982873 0.655905 2.135945 0.011740 0.012038 459599.000000 0 0 1
21.502881 15.613361 -18.304959 32.267979 0.628032 2.173995 0.036013 -0.001335 -367544.000000 0 0 1
22.365981 16.221861 -19.439459 33.782813 0.627499 2.183919 0.037661 -0.000446 -81192.500000 0 0 1
23.673781 16.517761 -18.948459 34.530109 0.609197 2.151667 0.046895 0.001651 334255.000000 0 0 1
24.439281 16.929661 -20.029659 35.848000 0.605826 2.163660 0.061934 0.000368 563289.000000 0 0 1
25.935581 17.383961 -19.848159 36.997377 0.590496 2.137051 0.030404 0.000041 972570.000000 0 0 1
26.061381 18.666661 -19.323259 37.430311 0.621554 2.113259 0.021481 0.006848 -272184.000000 0 0 1
27.274081 18.903261 -18.655459 38.068818 0.606070 2.082938 0.013635 0.000783 -465104.000000 0 0 1
27.301881 19.919261 -17.486259 38.051793 0.630312 2.048272 0.013303 -0.005658 141194.000000 0 0 1
26.547181 19.529961 -16.327059 36.779683 0.634267 2.030760 0.005928 -0.002432 992186.000000 0 0 1
25.173981 19.940261 -16.317659 36.022345 0.669904 2.040909 0.005577 0.009207 896247.000000 0 0 1
24.292681 19.442961 -15.116159 34.592793 0.674962 2.023028 -0.005943 0.010495 113487.000000 0 0 1
24.762781 19.856261 -13.846459 34.629335 0.675874 1.982147 0.002094 0.009983 477041.000000 0 0 1
23.856381 19.545261 -12.773659 33.381290 0.686392 1.963469 0.007713 0.003868 59425.600000 0 0 1
24.423881 20.062061 -11.407559 33.602748 0.687661 1.917163 0.012916 0.001633 -52221.400000 0 0 1
24.264781 21.434561 -11.193659 34.256649 0.723546 1.903668 0.013473 0.004297 216200.000000 0 0 1
24.825181 21.796061 -9.901859 34.487747 0.720516 1.862007 0.005425 0.005097 341068.000000 0 0 1
23.901681 21.516761 -8.679459 33.310574 0.732936 1.834400 0.012780 0.007607 -594474.000000 0 0 1
24.041881 20.217261 -8.226659 32.471951 0.699198 1.826934 0.026870 0.002281 201137.000000 0 0 1
23.288081 19.884461 -7.082859 31.430772 0.706723 1.798096 0.031507 -0.000586 191714.000000 0 0 1
21.760981 19.661861 -7.293059 30.221148 0.734766 1.814525 0.018521 -0.001712 -123927.000000 0 0 1
21.119181 20.846261 -7.565059 30.623790 0.778895 1.820413 0.028950 0.006595 134030.000000 0 0 1
19.751781 20.754161 -7.978559 29.740973 0.810140 1.842391 0.038463 0.004247 574826.000000 0 0 1
19.112681 22.153761 -8.044959 30.344770 0.858959 1.839123 0.035751 0.002584 -898010.000000 0 0 1
19.406281 22.901161 -9.217859 31.401208 0.867818 1.868736 0.021290 0.011289 221758.000000 0 0 1
18.780981 22.606461 -10.482359 31.203480 0.877567 1.913395 0.010020 0.018136 -662803.000000 0 0 1
17.282581 22.840061 -10.516159 30.511401 0.923035 1.922676 0.018099 0.008988 -1048310.000000 0 0 1
16.993181 24.219861 -10.288259 31.324402 0.958983 1.905450 0.031978 0.008323 410914.000000 0 0 1
15.643181 24.649961 -10.433359 31.002978 1.005314 1.914023 0.028594 0.009293 485157.000000 0 0 1
15.547381 26.130561 -9.904659 31.978579 1.034070 1.885703 0.024536 0.016042 88237.700000 0 0 1
16.171281 27.075361 -10.768059 33.324715 1.032387 1.899826 0.041663 0.025752 226775.000000 0 0 1
16.095081 28.358161 -10.159459 34.153353 1.054568 1.872834 0.041990 0.010504 -161878.000000 0 0 1
19.253381 29.475861 34.096198 49.010915 0.992181 0.801422 0.021904 0.008193 -43106.000000 0 0 1
17.898581 29.835361 33.995956 48.643941 1.030442 0.796975 0.036394 0.000757 -275763.000000 0 0 1
17.136181 28.629761 34.080059 47.694469 1.031448 0.774816 0.032768 0.004483 -772632.000000 0 0 1
15.639381 28.840961 34.140780 47.349595 1.073913 0.765499 0.065153 -0.008905 -860016.000000 0 0 1
15.143581 29.369761 32.918529 46.642689 1.094732 0.787301 0.053564 -0.012168 -136339.000000 0 0 1
13.878781 29.944061 33.205457 46.817408 1.136781 0.782356 0.061297 -0.021108 457251.000000 0 0 1
12.888681 30.006761 31.998289 45.721049 1.165098 0.795596 0.038969 -0.030013 240981.000000 0 0 1
12.453281 28.670461 31.647139 44.481692 1.161025 0.779216 0.027906 -0.028477 256239.000000 0 0 1
11.084281 28.613761 31.281049 43.819090 1.201220 0.775790 0.017596 -0.011202 -125231.000000 0 0 1
10.572181 27.205561 31.001479 42.579400 1.200153 0.755270 0.003779 -0.007348 -151157.000000 0 0 1
11.039281 26.569861 29.791319 41.416735 1.177016 0.767993 0.006434 -0.007245 552023.000000 0 0 1
12.414681 26.202261 29.800339 41.578155 1.128326 0.771694 0.007004 -0.011273 80714.100000 0 0 1
12.738681 25.202461 28.658749 40.233841 1.102795 0.778020 0.008564 -0.001374 -253404.000000 0 0 1
12.560281 25.820861 27.377259 39.673566 1.118056 0.809220 -0.008592 0.001603 240482.000000 0 0 1
12.690781 24.947861 26.276709 38.391628 1.100219 0.816963 -0.003938 0.010268 -414644.000000 0 0 1
11.418781 24.164361 26.000819 37.287364 1.129352 0.799160 -0.010607 0.011646 -1026780.000000 0 0 1
11.605381 23.404061 24.823599 36.036731 1.110458 0.810907 -0.003673 0.015836 116154.000000 0 0 1
10.448081 22.730461 24.375439 34.928474 1.139946 0.798381 0.005312 0.010660 -7071.060000 0 0 1
10.652481 22.262761 22.904159 33.670557 1.124505 0.822702 0.009826 0.019012 72146.900000 0 0 1
10.234481 23.276561 21.992059 33.618352 1.156549 0.857714 0.011938 0.012261 195866.000000 0 0 1
10.206881 22.785561 20.691959 32.427140 1.149645 0.878760 0.019017 0.022892 -769555.000000 0 0 1
10.140681 23.813361 19.544459 32.432938 1.168214 0.924027 0.011083 0.024533 -683846.000000 0 0 1
8.892481 24.284661 19.211459 32.216473 1.219783 0.931882 0.008220 0.023912 -754352.000000 0 0 1
8.122981 25.006061 20.168059 33.136634 1.256709 0.916459 0.002258 0.018965 -409512.000000 0 0 1
6.777281 25.489161 19.638959 32.883394 1.310920 0.930753 0.010794 0.011081 -566401.000000 0 0 1
6.907281 26.601261 18.711059 33.248178 1.316747 0.973064 0.010927 -0.002078 -560741.000000 0 0 1
5.636481 26.948061 18.262659 33.037746 1.364608 0.985098 0.011771 -0.009191 -884395.000000 0 0 1
5.521681 28.184161 17.426459 33.593413 1.377332 1.025412 0.010795 -0.008377 -4688.760000 0 0 1
6.157081 27.872361 16.206059 32.823993 1.353385 1.054427 0.013697 -0.005964 -13437.200000 0 0 1
6.476781 28.953061 15.408159 33.431120 1.350720 1.091795 0.001649 0.000295 20809.800000 0 0 1
7.231781 28.554761 14.138759 32.673805 1.322752 1.123284 0.007044 -0.005336 -342983.000000 0 0 1
6.366681 28.235361 13.109659 31.774729 1.349019 1.145510 0.000402 -0.004715 -533679.000000 0 0 1
6.792581 27.189161 12.252559 30.586187 1.325981 1.158634 -0.006555 -0.005792 -23453.900000 0 0 1
6.050281 27.214461 10.894659 29.932029 1.352036 1.198259 -0.018953 -0.008519 55892.600000 0 0 1
6.643781 27.989161 9.805359 30.392072 1.337740 1.242291 -0.016947 -0.005613 277084.000000 0 0 1
6.457381 29.388461 9.916759 31.681564 1.354508 1.252432 -0.023343 -0.000519 -308320.000000 0 0 1
6.597081 30.150661 8.642359 32.051119 1.355387 1.297774 -0.020556 0.006524 -624650.000000 0 0 1
5.588181 30.054661 7.688959 31.521905 1.386962 1.324386 -0.029526 0.000523 -352462.000000 0 0 1
5.706981 28.857161 6.982259 30.233381 1.375549 1.337747 -0.031032 0.012133 130660.000000 0 0 1
4.316781 28.335161 6.538959 29.398536 1.419612 1.346496 -0.025931 0.015332 190929.000000 0 0 1
3.681481 29.190361 5.653159 29.959785 1.445339 1.380967 -0.024167 0.012016 421865.000000 0 0 1
2.258081 29.049361 5.602359 29.670705 1.493220 1.380838 -0.021073 0.008985 753326.000000 0 0 1
1.532381 30.159261 4.847359 30.584737 1.520030 1.411636 -0.021881 0.008129 -544274.000000 0 0 1
1.793081 30.180561 3.484759 30.433944 1.511454 1.456042 -0.026152 0.007235 -303900.000000 0 0 1
0.909181 31.001761 2.794559 31.140735 1.541478 1.480936 -0.021374 0.000618 -556418.000000 0 0 1
-0.263419 30.189161 2.251159 30.274123 -1.562071 1.496368 -0.013998 0.006921 -638291.000000 0 0 1
-0.103419 29.507261 1.039959 29.525763 -1.567291 1.535567 -0.013512 0.013941 -360901.000000 0 0 1
-1.179819 28.610061 0.940859 28.649830 -1.529582 1.537950 -0.004648 0.013415 -115258.000000 0 0 1
-1.501419 28.247061 -0.509041 28.291515 -1.517693 1.588790 -0.012230 0.002412 -354713.000000 0 0 1
-2.273419 29.241661 -1.098341 29.350460 -1.493207 1.608227 -0.001503 -0.001897 -479980.000000 0 0 1
-1.642019 30.002961 -2.137141 30.123766 -1.516122 1.641801 -0.001939 0.001190 -421581.000000 0 0 1
-2.501519 31.114961 -2.779041 31.338817 -1.490573 1.659590 -0.007424 -0.003868 292461.000000 0 0 1
-3.658819 30.688861 -3.511941 31.105094 -1.452133 1.683943 -0.024539 -0.005709 421352.000000 0 0 1
-3.398919 29.936261 -4.683141 30.490395 -1.457742 1.725001 -0.021810 -0.006907 -950233.000000 0 0 1
-4.701319 29.505861 -5.336941 30.350967 -1.412789 1.747556 -0.021588 -0.007443 -682522.000000 0 0 1
-5.403519 30.620161 -5.735841 31.617909 -1.396125 1.753218 -0.023648 -0.007275 -729004.000000 0 0 1
-6.488019 30.270761 -6.544641 31.642467 -1.359658 1.779131 -0.029947 -0.004027 -759053.000000 0 0 1
-7.081819 31.519861 -7.279341 33.115595 -1.349788 1.792422 -0.024962 -0.004893 -254431.000000 0 0 1
-7.804919 32.347261 -6.395741 33.884621 -1.334036 1.760686 -0.025049 -0.011406 -179170.000000 0 0 1
-8.002919 33.606861 -7.032741 35.255174 -1.337017 1.771625 -0.018292 -0.014493 -470946.000000 0 0 1
-9.010619 34.495861 -6.319041 36.208921 -1.315296 1.746211 -0.008530 -0.018138 617621.000000 0 0 1
-10.376419 34.069461 -6.469841 36.197474 -1.275155 1.750499 0.001076 -0.009781 453741.000000 0 0 1
-11.272719 -34.336005 -5.932741 36.622846 1.253577 1.733509 0.011342 -0.011065 594964.000000 0 0 1
-12.736919 34.539861 -6.107541 37.316661 -1.217508 1.735204 0.028295 -0.015338 381863.000000 0 0 1
-13.234819 34.440061 -7.434141 37.637012 -1.203910 1.769626 0.038048 -0.015556 -757392.000000 0 0 1
-14.559119 34.033361 -7.490641 37.767014 -1.166565 1.770458 0.048314 -0.018876 -1287890.000000 0 0 1
-15.118119 34.205161 -8.933441 38.449407 -1.154629 1.805282 0.052609 -0.011362 -694855.000000 0 0 1
-16.456219 33.856161 -9.046841 38.715528 -1.118361 1.806652 0.057798 -0.009134 -419586.000000 0 0 1
-17.338319 -34.419805 -8.739241 39.518535 1.104168 1.793782 0.062035 -0.003072 550976.000000 0 0 1
-18.866619 34.557561 -8.960941 40.379113 -1.071070 1.794580 0.063742 0.007758 1255470.000000 0 0 1
-19.411519 33.577361 -8.094041 39.620194 -1.046625 1.776535 0.052272 0.006630 39627.200000 0 0 1
-19.612219 34.087261 -6.766741 39.904502 -1.048697 1.741193 0.042806 -0.007607 -693241.000000 0 0 1
-19.849919 32.913761 -5.708941 38.857779 -1.028109 1.718249 0.031205 -0.015471 -339876.000000 0 0 1
-19.607919 33.364061 -4.382141 38.946556 -1.039473 1.683552 0.037127 -0.023368 529786.000000 0 0 1
-20.701619 33.910461 -3.607641 39.893502 -1.022707 1.661352 0.028038 -0.016610 521404.000000 0 0 1
-21.328419 -34.118805 -4.068941 40.441941 1.012109 1.671579 0.035532 -0.023376 72016.400000 0 0 1
-22.131419 -34.145905 -5.272241 41.030952 0.995728 1.699647 0.030354 -0.015020 461593.000000 0 0 1
-22.686819 -32.904305 -5.619741 40.360457 0.967167 1.710489 0.033196 -0.011472 -270063.000000 0 0 1
-23.502919 -32.857205 -6.895241 40.982038 0.949872 1.739851 0.032701 -0.002719 -289512.000000 0 0 1
-22.673119 -32.704005 -8.033841 40.597597 0.964593 1.770001 0.048086 0.002354 216852.000000 0 0 1
-23.159019 -33.358805 -9.230441 41.645541 0.963947 1.794295 0.018202 0.018136 298208.000000 0 0 1
-24.270419 -32.488705 -9.913341 41.747377 0.929191 1.810547 0.012856 0.014749 -125625.000000 0 0 1
-25.473249 -32.539605 -9.181541 42.332174 0.906608 1.789427 0.013456 0.016914 670040.000000 0 0 1
-26.602079 -31.890605 -9.882541 42.688943 0.875566 1.804417 -0.029561 0.021512 1108420.000000 0 0 1
-26.634349 -30.343505 -9.925441 41.576811 0.850405 1.811849 -0.025570 0.025362 -61843.100000 0 0 1
-25.664889 -29.672005 -10.746741 40.676859 0.857685 1.838169 -0.018300 0.033051 349899.000000 0 0 1
-26.088519 -29.705905 -12.096641 41.344653 0.850142 1.867721 -0.024401 0.032311 -5810.110000 0 0 1
-25.102939 -29.020305 -13.073341 40.536994 0.857651 1.899170 -0.007903 0.035679 346183.000000 0 0 1
-23.967219 -29.849005 -13.326141 40.533649 0.894260 1.905794 -0.005988 0.023837 -166947.000000 0 0 1
-23.016019 -29.199005 -14.117941 39.769778 0.903263 1.933702 -0.006370 0.028376 342620.000000 0 0 1
-21.687919 -30.026805 -14.271641 39.694516 0.945270 1.938568 0.010883 0.009272 435362.000000 0 0 1
-21.797619 -31.277405 -15.018841 40.975332 0.962145 1.946077 0.015947 0.005128 -144124.000000 0 0 1
-22.537819 -32.301405 -14.372041 41.927194 0.961592 1.920677 0.003702 0.006433 -129522.000000 0 0 1
-22.605819 -33.641405 -14.999441 43.217478 0.979135 1.925240 0.001890 0.008378 -133155.000000 0 0 1
-22.926819 -34.670805 -14.083441 43.886752 0.986538 1.897480 0.000982 0.001404 -130763.000000 0 0 1
-22.882419 33.465161 -14.684841 43.118055 -0.971047 1.918322 0.006251 -0.004256 -455851.000000 0 0 1
-23.250219 32.218361 -13.759441 42.046613 -0.945691 1.904180 -0.008434 0.002992 161188.000000 0 0 1
-22.355619 31.823461 -12.700341 40.912162 -0.958402 1.886441 -0.013955 0.004095 304758.000000 0 0 1
-22.388419 32.753561 -11.584741 41.330900 -0.971202 1.854895 0.016620 0.004769 -56254.200000 0 0 1
-21.638919 32.362561 -10.304141 40.271001 -0.981428 1.829544 0.017138 0.005119 -207194.000000 0 0 1
-22.336919 31.476061 -9.428941 39.731414 -0.953625 1.810399 0.009359 0.015071 211278.000000 0 0 1
-21.496619 30.795561 -8.491141 38.504164 -0.961385 1.793149 0.013248 0.012779 -354182.000000 0 0 1
-22.137619 29.764861 -7.560641 37.857422 -0.931307 1.771862 0.008340 0.006096 -286797.000000 0 0 1
-22.649819 28.673261 -8.260841 37.462137 -0.902227 1.793135 0.006189 0.017807 -111261.000000 0 0 1
-23.237719 27.653261 -7.472141 36.885327 -0.871946 1.774786 0.003424 0.006718 -95539.900000 0 0 1
-22.384719 26.849561 -6.449641 35.546764 -0.875836 1.753248 0.014392 0.001261 -259247.000000 0 0 1
-22.161019 27.593361 -5.300641 35.785488 -0.894151 1.719466 0.018096 0.005052 85913.100000 0 0 1
-21.209319 27.004861 -4.423841 34.621786 -0.905028 1.698923 0.018489 0.009693 444570.000000 0 0 1
-19.849419 27.792261 -4.420841 34.437669 -0.950599 1.699524 0.015892 -0.004214 357980.000000 0 0 1
-19.330019 27.828861 -5.728741 34.364424 -0.963701 1.738284 0.010319 0.003515 -1166340.000000 0 0 1
-18.280519 28.686761 -5.842141 34.514319 -1.003439 1.740882 0.025024 -0.000394 -241711.000000 0 0 1
-17.401119 28.416461 -7.157941 34.081231 -1.021338 1.782398 0.030914 0.003497 605304.000000 0 0 1
-17.939419 28.997161 -8.382441 35.113009 -1.016768 1.811852 0.037870 0.001768 299669.000000 0 0 1
-17.669719 30.357961 -8.473141 36.133349 -1.043683 1.807497 0.045749 0.000077 -307212.000000 0 0 1
-17.451919 30.942461 -9.874941 36.871667 -1.057259 1.841925 0.038719 0.002145 697471.000000 0 0 1
-16.184319 30.671261 -10.513841 36.238092 -1.085258 1.865161 0.031889 0.001225 557020.000000 0 0 1
-15.967319 31.543461 -11.640541 37.221599 -1.102201 1.888869 0.038848 0.004513 242578.000000 0 0 1
-14.591819 31.339761 -12.326541 36.702117 -1.135045 1.913308 0.033270 0.001964 294063.000000 0 0 1
-14.460519 32.172861 -13.468541 37.757134 -1.148389 1.935546 0.026805 0.000886 76905.600000 0 0 1
-15.079219 31.623861 -14.657441 37.977520 -1.125856 1.967034 0.020276 -0.000764 150740.000000 0 0 1
-14.603219 32.288261 -15.970841 38.869700 -1.146051 1.994217 0.034148 -0.002552 -481820.000000 0 0 1
-13.222319 32.239961 -16.125341 38.396242 -1.181595 2.004211 0.024499 -0.003687 -1006800.000000 0 0 1
-12.857619 32.802761 -17.329441 39.263839 -1.197234 2.027909 0.008268 -0.008025 -16568.300000 0 0 1
-11.348819 32.567661 -17.559841 38.701373 -1.235486 2.041739 0.016888 -0.011849 -283495.000000 0 0 1
-11.051819 31.233261 -17.877741 37.646685 -1.230698 2.065627 0.015114 -0.016507 142370.000000 0 0 1
-9.691219 31.027361 -18.223941 37.265653 -1.268053 2.081771 0.019286 -0.019608 146480.000000 0 0 1
-9.355819 31.128761 -19.712741 38.014777 -1.278833 2.115956 0.029781 -0.024737 -409799.000000 0 0 1
-9.805319 30.046261 -20.472041 37.656693 -1.255352 2.145576 0.029951 -0.028054 -122517.000000 0 0 1
-9.360219 30.087461 -21.804641 38.318551 -1.269187 2.176130 0.037018 -0.038822 -1496690.000000 0 0 1
-10.342319 29.535661 -22.834041 38.739028 -1.233976 2.201152 0.039914 -0.034171 355967.000000 0 0 1
-11.408519 30.440661 -23.146241 39.906599 -1.212219 2.189538 0.043416 -0.036641 177745.000000 0 0 1
-12.401219 30.596961 -22.179641 39.773116 -1.185722 2.162353 0.039714 -0.032964 -1397820.000000 0 0 1
-13.167219 31.903861 -22.378441 41.134251 -1.179377 2.146034 0.045637 -0.030940 -133983.000000 0 0 1
-14.070019 31.916561 -23.449641 42.029965 -1.155588 2.162682 0.045448 -0.030727 -158011.000000 0 0 1
-14.602819 33.219761 -23.647441 43.312773 -1.156639 2.148342 0.034693 -0.019082 251285.000000 0 0 1
-15.241319 33.411461 -25.055241 44.456593 -1.142823 2.169520 0.038804 -0.011281 129157.000000 0 0 1
-14.282819 33.381261 -26.088341 44.709161 -1.166498 2.193843 0.038109 -0.015872 -55758.400000 0 0 1
-14.861119 33.335161 -27.361941 45.615366 -1.151433 2.214098 0.039544 -0.004483 16706.100000 0 0 1
-15.311019 34.685561 -27.936241 47.095106 -1.155098 2.205809 0.016803 0.003045 465093.000000 0 0 1
-16.471119 -34.076705 -27.376841 46.712000 1.120554 2.197005 0.009993 0.010167 169615.000000 0 0 1
-16.956319 -32.956705 -28.110441 46.517287 1.095614 2.219685 0.004717 0.013496 -446666.000000 0 0 1
-18.402019 -32.612805 -27.748641 46.607043 1.057073 2.208528 0.002918 0.002442 -220608.000000 0 0 1
-19.247119 -33.675505 -28.172041 47.939077 1.051561 2.198964 0.011411 0.005440 -391596.000000 0 0 1
-20.596119 -33.416505 -27.790941 48.095731 1.018445 2.186858 0.013499 0.007045 668213.000000 0 0 1
-21.519319 -34.585305 -28.215941 49.551627 1.014206 2.176603 0.002347 0.010599 -192381.000000 0 0 1
-21.340419 33.580361 -27.524941 48.380538 -1.004680 2.175996 0.008691 -0.002216 -56508.800000 0 0 1
-22.546419 32.816261 -27.536741 48.409917 -0.968814 2.175872 -0.009570 0.005228 477379.000000 0 0 1
-22.419519 31.358461 -27.088841 47.114681 -0.950112 2.183346 -0.015580 0.011537 -109719.000000 0 0 1
-22.266619 31.175361 -25.694841 46.129495 -0.950579 2.161584 -0.003023 0.013963 -196034.000000 0 0 1
-22.611819 29.868761 -25.253741 45.179516 -0.922805 2.163933 -0.021777 0.013616 -302693.000000 0 0 1
30.460431 9.734661 -26.548549 41.562326 0.309325 2.263688 -0.020037 0.005279 -67168.500000 0 0 1
30.012071 8.377661 -26.450989 40.872539 0.272214 2.274647 -0.014646 0.002366 -916627.000000 0 0 1
28.638731 8.267161 -26.475139 39.867980 0.281031 2.297046 0.002114 -0.004854 -981547.000000 0 0 1
28.240311 6.803961 -26.241809 39.146412 0.236425 2.305477 0.002858 -0.002041 -77573.800000 0 0 1
28.513291 6.361461 -24.885359 38.376517 0.219510 2.276347 -0.008795 0.008064 651385.000000 0 0 1
27.682751 5.221561 -24.542859 37.362432 0.186431 2.287478 -0.004993 0.001082 429252.000000 0 0 1
27.636541 4.957061 -23.023059 36.309945 0.177479 2.257602 -0.008848 -0.003753 14326.700000 0 0 1
28.851681 4.479061 -22.472659 36.844292 0.154015 2.226776 -0.000505 -0.001886 154721.000000 0 0 1
28.806301 4.372961 -21.079459 35.962054 0.150655 2.197105 -0.004627 -0.002315 286713.000000 0 0 1
30.165451 4.235261 -20.303159 36.607515 0.139489 2.158699 -0.004393 -0.002278 207105.000000 0 0 1
30.683411 2.942461 -20.398559 36.962562 0.095605 2.155402 0.013585 -0.005537 24686.100000 0 0 1
31.695651 2.730061 -19.443859 37.284463 0.085922 2.119405 0.018155 -0.009507 -272320.000000 0 0 1
32.309241 1.322861 -19.502959 37.762447 0.040921 2.113513 0.034049 -0.014366 -215326.000000 0 0 1
31.416661 0.328961 -19.026459 36.730382 0.010471 2.115311 0.044343 -0.018016 158298.000000 0 0 1
31.936401 -0.963839 -19.205159 37.278691 -0.030171 2.112012 0.052821 -0.013481 679567.000000 0 0 1
30.852711 -2.063339 -18.822659 36.199995 -0.066778 2.117604 0.018654 -0.007175 837225.000000 0 0 1
30.666701 -2.077239 -17.381959 35.311386 -0.067633 2.085467 0.023547 -0.006909 382944.000000 0 0 1
29.337361 -1.722539 -17.009759 33.955556 -0.058648 2.095483 0.004728 -0.011923 232583.000000 0 0 1
29.018001 -2.037139 -15.528859 32.974836 -0.070088 2.061142 0.002528 -0.005908 -154447.000000 0 0 1
29.113641 -3.401939 -15.230559 33.032517 -0.116323 2.050006 -0.004585 -0.003473 702241.000000 0 0 1
28.280351 -3.692439 -14.103959 31.817197 -0.129831 2.030052 0.009025 -0.006547 58812.000000 0 0 1
28.349671 -5.172439 -13.752459 31.930990 -0.180466 2.016057 -0.005297 -0.005800 -236106.000000 0 0 1
27.671821 -6.015539 -14.673859 31.894177 -0.214058 2.048881 -0.011728 -0.001350 491704.000000 0 0 1
27.386571 -7.268739 -14.153559 31.673050 -0.259431 2.034054 -0.020512 0.001870 -184915.000000 0 0 1
26.715171 -8.137639 -15.247359 31.818289 -0.295678 2.070541 -0.020162 0.004940 511753.000000 0 0 1
25.391201 -7.846139 -15.701059 30.867430 -0.299702 2.104425 -0.002028 -0.004731 584604.000000 0 0 1
24.956361 -8.715639 -16.735159 31.286544 -0.335993 2.135185 -0.003683 -0.003522 98941.500000 0 0 1
23.501801 -8.584939 -17.225759 30.377008 -0.350229 2.173735 0.002814 -0.007543 -207474.000000 0 0 1
23.239801 -7.512439 -18.102259 30.400935 -0.312655 2.208623 0.001261 -0.007709 -109690.000000 0 0 1
21.868001 -7.487639 -18.445959 29.572413 -0.329890 2.244335 0.017720 -0.014048 112943.000000 0 0 1
21.601201 -7.791339 -19.923059 30.401400 -0.346166 2.285421 0.024813 -0.013611 -139901.000000 0 0 1
22.243101 -6.888139 -20.774759 31.205650 -0.300309 2.299278 0.007378 -0.012735 266535.000000 0 0 1
21.971901 -7.319539 -22.090959 32.005477 -0.321569 2.332595 0.020816 -0.013496 143007.000000 0 0 1
22.588801 -6.258039 -23.074659 32.891593 -0.270263 2.348348 0.012237 -0.005798 7363.760000 0 0 1
22.456901 -6.629139 -24.421059 33.832617 -0.287042 2.377225 0.021931 -0.010057 30042.800000 0 0 1
22.874601 -5.584439 -25.257359 34.530675 -0.239449 2.391238 0.021611 -0.014853 -333701.000000 0 0 1
22.828201 -6.010239 -26.748039 35.675024 -0.257439 2.418510 0.035400 -0.013805 826519.000000 0 0 1
21.499501 -6.429939 -27.130779 35.208689 -0.290607 2.450532 0.046852 -0.014054 863580.000000 0 0 1
21.506901 -6.661939 -28.525119 36.340207 -0.300385 2.473406 0.037940 -0.014375 686336.000000 0 0 1
20.166701 -7.292339 -29.022519 36.085740 -0.346974 2.505235 0.039690 -0.018175 269730.000000 0 0 1
20.277801 -8.702039 -28.770769 36.258404 -0.405373 2.487323 0.034993 -0.015239 367509.000000 0 0 1
19.279701 -9.370239 -29.521189 36.482994 -0.452398 2.513546 0.036209 -0.018538 -161319.000000 0 0 1
19.069701 -10.890339 -29.198079 36.534652 -0.518884 2.496740 0.044562 -0.020191 -239639.000000 0 0 1
18.372801 -11.212439 -28.009059 35.324014 -0.547940 2.486380 0.043068 -0.014019 144701.000000 0 0 1
18.401101 -12.575039 -27.544399 35.431992 -0.599488 2.461299 0.049606 -0.016695 -589714.000000 0 0 1
18.262501 -13.771439 -28.579129 36.605165 -0.646109 2.466646 0.040812 -0.014011 -771122.000000 0 0 1
17.096701 -13.845139 -29.330569 36.664251 -0.680696 2.498054 0.036372 -0.014273 -357776.000000 0 0 1
17.152701 -14.916239 -30.284699 37.866506 -0.715772 2.497717 0.032028 -0.020293 -34048.000000 0 0 1
15.900601 -15.077839 -31.205409 38.130668 -0.758845 2.529384 0.020391 -0.021750 276543.000000 0 0 1
14.860701 -15.826039 -30.586219 37.507609 -0.816846 2.524332 0.014846 -0.019688 498420.000000 0 0 1
13.873801 -16.142639 -31.560079 38.067121 -0.860841 2.548228 0.006642 -0.017891 -972648.000000 0 0 1
12.695201 -16.892139 -31.009619 37.524778 -0.926307 2.543440 0.008063 -0.018902 -998234.000000 0 0 1
12.857801 -18.257939 -30.724779 37.982725 -0.957237 2.513100 0.003631 -0.023149 215522.000000 0 0 1
11.889801 -18.751939 -29.800549 37.162821 -1.005710 2.501251 0.009320 -0.015668 -119009.000000 0 0 1
12.352101 -19.939839 -28.974199 37.278355 -1.016185 2.461062 0.013507 -0.013771 -972641.000000 0 0 1
13.180401 -19.493339 -27.985679 36.563800 -0.976258 2.442448 0.007813 -0.008931 -575129.000000 0 0 1
13.036801 -20.391139 -26.851409 36.149065 -1.001954 2.408034 0.015775 0.001046 291511.000000 0 0 1
14.116401 -20.202139 -25.739799 35.636168 -0.960905 2.377910 -0.006492 0.007994 -108961.000000 0 0 1
15.437401 -20.525839 -26.093139 36.612502 -0.925955 2.364113 -0.005743 0.001585 154460.000000 0 0 1
16.259901 -20.546739 -24.934059 36.169879 -0.901345 2.331401 -0.004828 0.006596 91116.200000 0 0 1
17.743701 -20.909939 -25.206179 37.248032 -0.867129 2.314083 -0.005976 0.006631 138967.000000 0 0 1
18.238101 -22.254339 -25.371909 38.361669 -0.884260 2.293463 -0.005035 0.005833 233302.000000 0 0 1
17.811501 -23.189039 -24.417659 38.094660 -0.915811 2.266562 -0.008391 0.004363 -750015.000000 0 0 1
18.313901 -24.645539 -24.654959 39.378529 -0.931731 2.247340 -0.012515 0.001201 -951913.000000 0 0 1
19.631701 -24.734839 -24.225159 39.800430 -0.899917 2.225174 0.000460 -0.002027 -616870.000000 0 0 1
20.009901 -26.129179 -24.099659 40.791221 -0.917255 2.202853 -0.000716 -0.009982 6945.710000 0 0 1
20.163101 -26.617039 -22.659559 40.354343 -0.922496 2.167012 0.008733 -0.013581 -547943.000000 0 0 1
18.958401 -26.700649 -21.950659 39.423052 -0.953367 2.161322 -0.003538 -0.004901 -396451.000000 0 0 1
19.069001 -26.822479 -20.553259 38.800884 -0.952770 2.129056 0.000651 -0.007240 174812.000000 0 0 1
17.810401 -27.362499 -19.811959 38.189402 -0.993785 2.116221 -0.001674 -0.008036 -475066.000000 0 0 1
17.688701 -28.802169 -19.972459 39.260084 -1.020041 2.104496 0.007590 -0.006345 49866.000000 0 0 1
16.512701 -29.378399 -19.450259 38.911080 -1.058734 2.094238 0.014034 -0.002138 449075.000000 0 0 1
15.142701 -28.917569 -20.028959 38.297342 -1.088408 2.121146 0.014130 -0.000404 -361816.000000 0 0 1
14.560701 -27.911329 -19.219359 36.884144 -1.089958 2.118905 0.014214 0.000948 -443578.000000 0 0 1
13.368101 -27.444869 -19.779259 36.375074 -1.117531 2.145706 0.019096 0.013232 -382419.000000 0 0 1
12.511101 -26.450949 -19.005059 34.890867 -1.128987 2.146828 0.005726 0.002377 -441517.000000 0 0 1
11.840701 -27.056379 -17.934459 34.552781 -1.158276 2.116530 0.006589 0.000968 -135332.000000 0 0 1
10.918901 -26.224879 -17.250059 33.234488 -1.176269 2.116525 0.004204 -0.003273 625177.000000 0 0 1
9.430001 -26.466599 -17.627159 33.168095 -1.228522 2.131107 -0.002426 0.004389 -213674.000000 0 0 1
8.865001 -27.649639 -17.064659 33.679272 -1.260532 2.102127 0.001566 0.009618 278099.000000 0 0 1
7.450801 -27.535789 -16.920259 33.166689 -1.306538 2.106165 -0.005786 0.014244 477437.000000 0 0 1
6.706101 -28.187979 -18.043159 34.133408 -1.337232 2.127755 -0.004143 0.011894 -835314.000000 0 0 1
7.078201 -27.668429 -19.288359 34.462787 -1.320345 2.164804 0.003920 0.015778 -326906.000000 0 0 1
6.514601 -28.400869 -20.348259 35.540132 -1.345317 2.180401 0.002478 0.012234 3445.500000 0 0 1
6.709801 -27.848689 -21.758459 35.972231 -1.334365 2.220397 0.003649 0.001449 -290730.000000 0 0 1
5.994801 -26.620159 -21.907859 34.993210 -1.349294 2.247287 0.005594 0.003551 148467.000000 0 0 1
5.913301 -26.029929 -23.213559 35.375043 -1.347414 2.286585 0.006216 0.006880 -1363470.000000 0 0 1
4.630701 -25.278229 -23.343059 34.717872 -1.389616 2.308195 -0.001418 0.008613 -1274840.000000 0 0 1
3.534201 -26.160819 -23.396859 35.274524 -1.436514 2.295988 -0.007093 0.011968 -538883.000000 0 0 1
2.454901 -25.526169 -24.039859 35.150059 -1.474919 2.323920 -0.002719 0.008247 -277560.000000 0 0 1
1.520601 -26.618339 -24.577759 36.261749 -1.513732 2.315546 -0.018194 0.009078 -646879.000000 0 0 1
2.020701 -27.377619 -25.596019 37.533631 -1.497121 2.321220 -0.006410 0.015988 -249079.000000 0 0 1
1.047201 -27.950759 -26.429259 38.481778 -1.533348 2.327873 0.000167 0.011119 -168965.000000 0 0 1
1.753201 -28.638169 -27.584899 39.801320 -1.509654 2.336528 0.001612 0.013654 -813130.000000 0 0 1
2.227201 -27.845619 -28.650559 40.014915 -1.490982 2.368848 -0.006564 0.011634 -84595.100000 0 0 1
2.589901 -28.662759 -29.710859 41.364193 -1.480683 2.372116 0.003377 0.011766 110299.000000 0 0 1
3.918701 -29.485399 -29.667639 42.010877 -1.438668 2.354898 0.010207 0.014670 -272374.000000 0 0 1
4.128601 -30.340909 -28.562889 41.874273 -1.435553 2.321441 -0.009807 0.008108 -618955.000000 0 0 1
5.215301 -31.157259 -28.845519 42.778945 -1.404947 2.310802 -0.014099 0.011761 -315208.000000 0 0 1
5.608501 -32.176679 -27.759359 42.864623 -1.398227 2.275234 -0.000941 -0.005115 282934.000000 0 0 1
4.626801 -33.215249 -27.672329 43.478935 -1.432389 2.260688 -0.006109 -0.006026 296418.000000 0 0 1
5.062201 -34.348083 -26.976049 43.967305 -1.424470 2.231342 -0.010077 -0.001866 288413.000000 0 0 1
3.903001 34.005226 -26.740419 43.435456 1.456520 2.233989 -0.004430 0.001227 459636.000000 0 0 1
3.305701 33.507708 -27.926749 43.744685 1.472460 2.263218 -0.005876 0.002644 511377.000000 0 0 1
2.077301 32.800427 -27.732229 43.003020 1.507549 2.271676 -0.030907 0.012757 493735.000000 0 0 1
1.122201 33.004057 -28.952119 43.917562 1.536808 2.290601 -0.030168 0.021436 -99722.600000 0 0 1
1.370101 32.252087 -30.111259 44.144787 1.528341 2.321430 -0.023824 0.008826 -192507.000000 0 0 1
0.493501 32.704497 -31.106879 45.138294 1.555708 2.331106 -0.023905 0.011989 -116200.000000 0 0 1
0.146901 31.593917 -32.130109 45.061525 1.566147 2.364603 -0.022144 0.008841 -655939.000000 0 0 1
1.186601 31.090167 -32.896899 45.279272 1.532648 2.384060 -0.013024 0.009068 -657279.000000 0 0 1
0.826201 30.026457 -33.726549 45.163600 1.543287 2.413979 -0.005734 0.008661 -867111.000000 0 0 1
1.914601 29.638757 34.554224 45.564416 1.506288 0.710003 -0.002850 0.009410 -143129.000000 0 0 1
2.139501 30.645327 33.565770 45.501368 1.501095 0.741158 -0.006087 0.000517 74925.800000 0 0 1
3.020701 30.240497 32.491949 44.489763 1.471237 0.752000 -0.029387 -0.001168 399692.000000 0 0 1
2.438201 29.272527 31.378109 42.981524 1.487695 0.752420 -0.023032 -0.002066 88491.300000 0 0 1
2.182801 27.928567 31.744129 42.337444 1.492798 0.723054 -0.009171 -0.003074 -114195.000000 0 0 1
3.364601 27.139677 31.815499 41.953648 1.447452 0.710020 -0.020036 0.002156 76407.600000 0 0 1
3.061101 25.715207 32.321289 41.416276 1.452315 0.675490 -0.003064 0.003398 -205110.000000 0 0 1
2.418201 24.987807 31.315719 40.136174 1.474322 0.675752 0.013893 0.009089 -48886.100000 0 0 1
2.667601 23.662627 31.513649 39.498685 1.458536 0.647092 0.008292 0.007313 -213638.000000 0 0 1
1.834901 22.781927 30.561979 38.163040 1.490428 0.642122 0.018387 0.020233 95797.000000 0 0 1
0.449501 22.739627 30.819119 38.302882 1.551032 0.635768 0.001394 0.023371 -204097.000000 0 0 1
-0.171899 22.045927 29.747859 37.026849 -1.562999 0.637791 0.009853 0.020587 -428482.000000 0 0 1
-1.600999 21.607027 29.983289 36.992221 -1.496835 0.625741 0.002095 0.029624 -391811.000000 0 0 1
-2.608199 22.620927 30.130139 37.766841 -1.456003 0.647170 0.006105 0.021975 360839.000000 0 0 1
-3.780499 21.914727 30.516709 37.759991 -1.399968 0.629748 -0.018812 0.023856 527665.000000 0 0 1
-5.046799 22.809727 30.753089 38.620025 -1.353048 0.649644 -0.044311 0.016355 452243.000000 0 0 1
-5.250299 23.374127 32.053959 40.017143 -1.349844 0.641823 -0.057431 0.015398 76345.800000 0 0 1
-4.737299 24.687737 32.007269 40.698791 -1.381212 0.665768 -0.051079 0.009916 -338083.000000 0 0 1
-4.750099 25.404327 33.386367 42.220762 -1.385951 0.658752 -0.040574 0.010117 -1189870.000000 0 0 1
-6.006299 25.672957 33.859474 42.914337 -1.340976 0.661614 -0.050584 0.014304 -1264880.000000 0 0 1
-6.067699 26.214427 -34.122548 43.455281 -1.343338 2.473870 -0.045593 0.007229 -327025.000000 0 0 1
-7.437199 26.694997 -33.643129 43.586637 -1.299087 2.452570 -0.022460 0.008664 -476297.000000 0 0 1
-7.757899 28.033477 -33.955769 44.710793 -1.300816 2.433269 -0.013455 0.003062 -564158.000000 0 0 1
-9.030399 28.424307 -33.554449 44.893099 -1.263181 2.414981 0.009238 -0.004139 -394871.000000 0 0 1
-9.022899 28.838057 -32.033249 44.036068 -1.267564 2.385368 0.025039 -0.007836 -398259.000000 0 0 1
-8.301199 29.991927 -31.766489 44.469488 -1.300775 2.366482 0.019907 -0.006511 -92789.000000 0 0 1
-8.394099 30.281237 -30.376009 43.704875 -1.300382 2.339252 0.027471 -0.012763 -169123.000000 0 0 1
-7.865399 31.678717 -29.972769 44.314472 -1.327431 2.313613 0.019642 -0.010193 723867.000000 0 0 1
-6.441299 31.711617 -29.835339 44.014366 -1.370402 2.315637 -0.000444 -0.004223 386103.000000 0 0 1
-5.990099 33.038227 -29.561979 44.736074 -1.391437 2.292692 0.000689 0.000216 -507996.000000 0 0 1
-4.465999 33.035147 -29.359409 44.421177 -1.436422 2.292857 0.004465 -0.000321 -441432.000000 0 0 1
-3.935299 34.257540 -28.843669 44.955788 -1.456424 2.267380 -0.005106 -0.001903 -113975.000000 0 0 1
-4.049999 -33.890299 -29.572829 45.160902 1.451857 2.284757 0.007488 -0.000467 -491790.000000 0 0 1
-3.442899 -33.979969 -30.978029 46.109978 1.469820 2.307472 0.007428 0.005047 -331638.000000 0 0 1
-4.207499 34.625821 -31.865539 47.244715 -1.449876 2.311054 0.005916 0.002302 -295209.000000 0 0 1
-4.463699 -34.128895 -33.104639 47.755871 1.440745 2.336724 0.023399 -0.004142 -431561.000000 0 0 1
-3.317999 -33.669549 -34.022219 47.980819 1.472568 2.358988 0.006763 0.000676 -81142.500000 0 0 1
-2.821199 -32.372299 -33.640279 46.771714 1.483867 2.373510 0.017316 0.003541 -565827.000000 0 0 1
-1.679499 -32.066229 -34.348624 47.020120 1.518468 2.389863 0.021673 -0.002789 -543809.000000 0 0 1
31.272351 20.303761 12.783459 39.415980 0.575852 1.240502 0.024621 -0.004513 270533.000000 0 0 1
32.165431 19.303661 13.256459 39.786681 0.540520 1.231113 0.021146 -0.005623 298008.000000 0 0 1
31.632531 18.046461 12.992059 38.666334 0.518448 1.228125 0.021121 -0.008329 -289596.000000 0 0 1
32.479721 16.926661 13.620459 39.076349 0.480421 1.214762 0.045546 -0.016282 631277.000000 0 0 1
33.748721 16.854661 12.920459 39.874729 0.463181 1.240814 0.031863 -0.007762 564889.000000 0 0 1
34.554797 15.944861 13.604059 40.414639 0.432324 1.227480 0.022039 -0.005396 339667.000000 0 0 1
-34.193922 15.279561 12.707159 39.549477 -0.420231 1.243697 0.018624 -0.013392 1102850.000000 0 0 1
-33.346299 14.297161 13.313959 38.647716 -0.405041 1.219095 0.019526 -0.011661 223675.000000 0 0 1
-34.060409 13.133661 13.593059 38.953508 -0.368030 1.214340 0.015449 -0.012021 -500452.000000 0 0 1
-33.303649 12.196061 14.517459 38.322755 -0.351040 1.182274 0.011288 -0.012232 -247126.000000 0 0 1
-33.300019 12.709161 15.826959 38.998803 -0.364593 1.152907 0.018243 -0.015106 57067.400000 0 0 1
-32.751069 11.867861 16.785859 38.668381 -0.347648 1.121760 0.021551 -0.014043 -171185.000000 0 0 1
-32.650929 12.522561 18.194159 39.419857 -0.366227 1.091057 0.032579 -0.004367 678023.000000 0 0 1
-33.927349 12.628061 18.852659 40.816120 -0.356321 1.090669 0.036167 0.003786 684366.000000 0 0 1
-33.782859 13.115961 20.160159 41.469772 -0.370330 1.063128 0.033454 -0.002964 -378744.000000 0 0 1
34.811984 13.345961 20.965159 42.772968 0.366091 1.058535 0.035830 -0.001715 -345315.000000 0 0 1
34.463340 12.215561 21.683159 42.510012 0.340634 1.035528 0.026224 0.013719 -280368.000000 0 0 1
33.346861 12.403161 22.502159 42.097491 0.356089 1.006851 0.025479 0.003301 -204390.000000 0 0 1
33.402251 11.233761 23.542959 42.381348 0.324434 0.981829 0.001756 0.007433 333733.000000 0 0 1
34.259664 11.146961 24.723869 43.694954 0.314564 0.969358 0.012844 0.016019 465420.000000 0 0 1
33.791251 11.949361 25.743059 44.128687 0.339899 0.947933 0.001176 0.019486 -330781.000000 0 0 1
34.877234 12.109161 26.870769 45.662802 0.334173 0.941643 -0.004154 0.016799 2139610.000000 0 0 1
-33.883839 13.073261 26.739349 45.100083 -0.368228 0.936154 0.004987 0.006355 1280600.000000 0 0 1
-32.971319 12.701061 25.738289 43.713663 -0.367696 0.941232 0.005455 0.004571 -951990.000000 0 0 1
-31.902919 13.770061 25.468259 43.081818 -0.407468 0.938300 0.002302 0.002505 790893.000000 0 0 1
-30.843319 14.042461 26.406239 42.962664 -0.427239 0.908877 -0.019220 -0.001309 793642.000000 0 0 1
-31.385909 14.784761 27.520459 44.283632 -0.440232 0.900193 -0.017546 0.006591 -916600.000000 0 0 1
-30.478039 15.724061 28.249419 44.431820 -0.476298 0.881761 -0.015579 0.026518 -703930.000000 0 0 1
-30.217619 16.919061 27.564459 44.262383 -0.510418 0.898542 0.011098 0.006717 -98088.500000 0 0 1
-29.534789 17.845761 28.379519 44.678541 -0.543523 0.882537 0.019495 -0.001860 -187027.000000 0 0 1
-28.955189 19.047461 27.595849 44.302817 -0.581857 0.898363 0.031062 0.009727 -689399.000000 0 0 1
-29.899989 19.909961 27.103479 45.000161 -0.587461 0.924420 0.014822 -0.021933 -102958.000000 0 0 1
-29.273879 20.900061 26.317289 44.568736 -0.620027 0.939133 0.024673 -0.026992 -374751.000000 0 0 1
-30.306149 21.943661 25.981359 45.552365 -0.626696 0.963849 0.027396 -0.008551 -552026.000000 0 0 1
-30.924369 22.470161 27.131939 46.876080 -0.628367 0.953538 0.020337 -0.015809 669131.000000 0 0 1
-32.101819 23.213661 26.786429 47.821686 -0.626079 0.976252 0.013793 -0.011959 -160621.000000 0 0 1
-31.990159 24.726461 26.533789 48.361246 -0.658022 0.990038 0.020367 -0.010616 -1157280.000000 0 0 1
-33.040539 25.199161 25.798939 48.910737 -0.651563 1.015177 0.015053 -0.004344 -791456.000000 0 0 1
-32.918669 26.563361 25.473859 49.377813 -0.678958 1.028742 0.022857 -0.011534 -196326.000000 0 0 1
-33.924789 27.090961 24.458689 49.830101 -0.673862 1.057741 0.021139 -0.004413 -209967.000000 0 0 1
-33.596359 26.775361 23.124659 48.789191 -0.672892 1.077001 0.013861 -0.000095 546859.000000 0 0 1
-34.551066 27.307861 22.187759 49.313204 -0.668837 1.104103 0.015367 -0.007368 398428.000000 0 0 1
-33.932259 27.084761 20.798159 48.140896 -0.673643 1.124057 0.012433 -0.011330 253971.000000 0 0 1
-33.731669 25.751961 20.491759 47.126438 -0.652045 1.120952 0.006607 -0.007528 139723.000000 0 0 1
-33.144049 25.611661 19.194359 46.075032 -0.657895 1.141106 0.015744 -0.007307 -5919.200000 0 0 1
-33.394729 24.239461 18.444459 45.199087 -0.627863 1.150456 0.002216 -0.000473 476617.000000 0 0 1
-34.684475 24.090661 17.847659 45.846610 -0.607070 1.170935 -0.001576 -0.004592 200863.000000 0 0 1
-34.589362 23.295461 16.706659 44.924547 -0.592709 1.189760 -0.007511 0.000315 -876658.000000 0 0 1
33.991359 23.027561 15.980559 44.057455 0.595433 1.199610 -0.014738 0.004227 -773961.000000 0 0 1
33.112101 22.212261 16.696159 43.226815 0.590873 1.174239 -0.009436 0.000621 55738.200000 0 0 1
31.916301 22.015061 15.942659 41.922328 0.603830 1.180686 -0.002244 -0.004133 -233730.000000 0 0 1
30.875641 21.058561 16.554059 40.875483 0.598573 1.153831 -0.003900 -0.005922 561046.000000 0 0 1
30.007351 21.535361 17.611959 40.919360 0.622487 1.125853 -0.014999 0.004021 193841.000000 0 0 1
29.013291 22.400161 17.185359 40.483019 0.657474 1.132378 -0.009030 0.004181 -722806.000000 0 0 1
28.127831 22.988661 18.280459 40.667292 0.685196 1.104577 -0.007743 0.004649 -170925.000000 0 0 1
28.893901 23.874361 19.017959 42.030054 0.690559 1.101247 -0.018648 0.004560 -52825.500000 0 0 1
28.066111 24.739261 19.796759 42.327879 0.722479 1.084109 -0.016890 0.007513 -1027840.000000 0 0 1
28.836821 25.374461 20.901459 43.729813 0.721617 1.072456 -0.008235 -0.005907 -593992.000000 0 0 1
29.707221 26.358161 20.457159 44.674008 0.725734 1.095141 -0.007277 -0.013678 -844130.000000 0 0 1
30.427101 26.798561 21.527059 45.906270 0.722075 1.082712 -0.006340 -0.011848 -533564.000000 0 0 1
31.525441 27.829961 21.128659 47.061453 0.723218 1.105196 0.012205 -0.014144 -313881.000000 0 0 1
32.307151 28.342861 22.160359 48.354434 0.720128 1.094726 0.018926 -0.006890 -198100.000000 0 0 1
31.681781 29.169061 23.115959 48.876548 0.744129 1.078165 0.008680 -0.000303 -942311.000000 0 0 1
32.621761 29.459961 24.276139 50.213539 0.734512 1.066196 0.010642 -0.007032 1218640.000000 0 0 1
33.881021 30.147161 24.014559 51.317385 0.727148 1.083814 0.026985 -0.003931 890026.000000 0 0 1
34.430445 30.567561 25.243749 52.507887 0.726037 1.069274 0.024323 -0.004835 -422578.000000 0 0 1
-34.216616 31.458261 25.084279 52.816854 -0.743423 1.075912 0.028524 -0.011861 -170021.000000 0 0 1
-33.045889 30.714261 24.816619 51.490399 -0.748846 1.067899 0.017040 -0.007929 -235355.000000 0 0 1
-31.936369 31.582961 24.644549 51.232498 -0.779834 1.068963 0.020453 -0.010666 949850.000000 0 0 1
-30.621159 30.770761 24.320499 49.759238 -0.787835 1.060124 0.026598 -0.011495 544096.000000 0 0 1
-30.287079 30.603361 22.928259 48.780918 -0.790592 1.081477 0.003762 -0.000987 299567.000000 0 0 1
-30.771179 29.364461 22.289159 48.020242 -0.762010 1.088108 0.006342 0.004038 -74159.600000 0 0 1
-30.388919 27.990261 22.886559 47.230665 -0.744334 1.064925 0.007686 0.006333 -592224.000000 0 0 1
-28.996219 27.828061 22.902859 46.257136 -0.764844 1.052823 -0.009995 0.003608 -359840.000000 0 0 1
-28.484709 26.757861 23.710059 45.711363 -0.754149 1.025477 -0.000125 -0.002472 41928.900000 0 0 1
-28.350569 27.096161 25.254489 46.644892 -0.762778 0.998671 0.028748 -0.008656 -543690.000000 0 0 1
-29.513309 27.474361 25.937919 47.944255 -0.749635 0.999169 0.018825 -0.006675 -465628.000000 0 0 1
-29.172819 28.029961 27.209059 48.755153 -0.765422 0.978732 0.030800 -0.007924 -764334.000000 0 0 1
-30.326969 28.312061 28.121809 50.121193 -0.751050 0.975111 0.019775 -0.013220 -780254.000000 0 0 1
-30.901089 27.175861 28.742519 50.194991 -0.721343 0.961102 0.011131 -0.009456 201908.000000 0 0 1
-31.698749 27.594661 29.853859 51.551226 -0.716292 0.953159 0.007023 -0.000575 188530.000000 0 0 1
-32.460569 26.433861 30.561069 51.830652 -0.683422 0.940192 0.009273 -0.002344 -412837.000000 0 0 1
-31.730069 25.693161 31.449309 51.536345 -0.680653 0.914438 0.001437 -0.009444 -558441.000000 0 0 1
-32.407389 24.506561 31.812409 51.602711 -0.647459 0.906523 -0.004578 -0.016067 -400438.000000 0 0 1
-31.649929 23.582261 32.721459 51.269239 -0.640356 0.878602 0.004017 -0.021557 -585743.000000 0 0 1
-30.641409 22.793161 32.140079 49.914014 -0.639565 0.871200 0.014455 -0.018666 407127.000000 0 0 1
-29.745249 21.986561 32.920579 49.517201 -0.636529 0.843529 0.009687 -0.017298 687976.000000 0 0 1
-28.643889 22.710361 33.720095 49.732059 -0.670367 0.825710 0.023857 -0.016681 -347070.000000 0 0 1
-29.151979 23.576961 -34.529542 50.970582 -0.680060 2.315074 0.027059 -0.023557 291166.000000 0 0 1
-29.344709 23.039561 -33.219939 49.954956 -0.665611 2.298287 0.016566 -0.018252 -95990.100000 0 0 1
-28.211959 23.456461 -32.259639 48.854933 -0.693618 2.292034 0.032443 -0.022469 -55469.900000 0 0 1
-28.195759 24.792161 -31.917839 49.278804 -0.721253 2.275357 0.014043 -0.018330 665014.000000 0 0 1
-27.044189 25.031161 -31.087459 48.211796 -0.746761 2.271571 0.039148 -0.011767 435400.000000 0 0 1
-26.979549 26.334361 -30.203509 48.307831 -0.773297 2.246223 0.006617 0.003638 -144846.000000 0 0 1
-26.806669 27.606861 -30.861289 49.327025 -0.800103 2.246757 0.005098 0.006283 25120.800000 0 0 1
-28.031969 28.103161 -31.350419 50.580902 -0.786666 2.239294 -0.000160 0.001264 -204048.000000 0 0 1
-27.938509 29.470861 -32.007889 51.706836 -0.812084 2.238299 0.000626 -0.002546 -37132.900000 0 0 1
-27.737599 30.541061 -31.026069 51.621195 -0.833466 2.215590 -0.001516 -0.008015 268708.000000 0 0 1
-27.562679 31.771661 -31.721779 52.682169 -0.856216 2.216969 0.000707 -0.023454 -134514.000000 0 0 1
-27.916299 32.970561 -30.808579 53.061720 -0.868219 2.190284 0.007238 -0.017442 247094.000000 0 0 1
-26.857109 33.261261 -29.895459 52.166601 -0.891524 2.181052 -0.009744 -0.006680 295968.000000 0 0 1
-27.186059 34.261761 -28.948949 52.449897 -0.900043 2.155480 -0.010474 -0.006988 -216269.000000 0 0 1
-26.301289 34.233161 -27.655719 51.268956 -0.915687 2.140550 0.001588 -0.000165 -448652.000000 0 0 1
-25.038719 -34.585405 -27.667469 50.878055 0.944165 2.145754 -0.025449 -0.007111 -964993.000000 0 0 1
-24.968419 -33.180205 -27.800579 49.972193 0.925691 2.160748 -0.005158 0.004350 -762552.000000 0 0 1
-25.431059 -32.149705 -26.734149 48.939319 0.901555 2.148703 -0.007697 0.007177 -883577.000000 0 0 1
-26.798429 -31.925405 -26.719859 49.510990 0.872484 2.140848 -0.003655 0.000754 -1030800.000000 0 0 1
-27.209609 -31.213705 -25.593499 48.679414 0.853827 2.124400 -0.007321 0.000313 41265.300000 0 0 1
-28.745509 -31.057605 -25.638289 49.479298 0.824041 2.115497 -0.010505 -0.006637 -93652.400000 0 0 1
-29.252719 -30.091905 -26.486949 49.626633 0.799538 2.133795 -0.003794 -0.011519 963667.000000 0 0 1
-30.691799 -30.217105 -26.520559 50.580628 0.777605 2.122716 -0.013800 -0.011017 929888.000000 0 0 1
-31.384669 -29.210405 -27.472919 50.921572 0.749532 2.140657 -0.007928 -0.017541 -28426.000000 0 0 1
-32.784089 -29.378305 -27.563349 51.938612 0.730664 2.130212 -0.014085 -0.009812 -326145.000000 0 0 1
-33.255099 -28.822105 -28.724699 52.552104 0.714108 2.149089 -0.010703 -0.013812 -401058.000000 0 0 1
-34.779350 -28.986005 -28.870629 53.696414 0.694793 2.138460 -0.008812 -0.013662 -141866.000000 0 0 1
34.446295 -28.493705 -27.715749 52.598490 -0.691103 2.125781 -0.023343 -0.001137 -1338810.000000 0 0 1
33.096761 -28.466505 -28.027189 51.877363 -0.710328 2.141541 -0.023060 -0.002287 -967356.000000 0 0 1
32.237481 -27.971605 -26.854359 50.426406 -0.714665 2.132402 -0.022699 0.005375 -228715.000000 0 0 1
32.157161 -28.819205 -25.756869 50.279676 -0.730711 2.108624 -0.012993 0.007873 300398.000000 0 0 1
31.443921 -28.197505 -24.663559 48.909208 -0.731020 2.099335 -0.012523 0.011997 287358.000000 0 0 1
31.325981 -29.016405 -23.399859 48.691090 -0.747142 2.072110 0.001147 0.018420 7590.790000 0 0 1
30.726921 -30.269705 -23.613959 49.173344 -0.777903 2.071700 0.008572 0.013580 18060.100000 0 0 1
30.209691 -30.995005 -22.468659 48.766345 -0.798228 2.049626 0.020345 0.001770 266942.000000 0 0 1
31.177631 -31.319405 -21.295359 49.055500 -0.787667 2.019844 0.003656 0.009769 846781.000000 0 0 1
32.372731 -32.159305 -21.463059 50.426952 -0.782091 2.010451 -0.011698 0.008839 1922110.000000 0 0 1
33.383631 -31.868005 -20.486159 50.494745 -0.762175 1.988550 -0.022091 0.010861 819966.000000 0 0 1
34.284768 -30.615905 -20.754659 50.433469 -0.728928 1.994924 -0.038881 0.014504 -505540.000000 0 0 1
33.682141 -29.434105 -20.404059 49.164812 -0.718195 1.998754 -0.042898 0.021057 -329875.000000 0 0 1
34.389637 -28.384605 -21.006659 49.291101 -0.690028 2.011057 -0.052088 0.025092 -204730.000000 0 0 1
33.762021 -27.015105 -20.674759 47.928443 -0.674840 2.016804 -0.061331 0.026971 -181399.000000 0 0 1
32.622421 -26.706205 -21.390459 47.275739 -0.686007 2.040320 -0.027757 0.019299 -981383.000000 0 0 1
31.550691 -26.225305 -20.656059 45.933490 -0.693485 2.037220 0.017198 0.017731 -290578.000000 0 0 1
30.283671 -25.764505 -21.394259 45.151132 -0.704942 2.064439 0.023513 0.006629 -28552.100000 0 0 1
29.511601 -26.865205 -21.808459 45.478376 -0.738491 2.070921 0.037451 -0.003697 -823024.000000 0 0 1
28.251191 -26.437805 -22.214159 44.615649 -0.752252 2.091973 0.034894 -0.005354 -356294.000000 0 0 1
27.351251 -27.521205 -22.846159 45.027265 -0.788495 2.102944 0.040957 -0.006513 10240.600000 0 0 1
26.810781 -28.381105 -21.858859 44.744997 -0.813843 2.081190 0.036969 -0.006404 -84037.400000 0 0 1
26.232381 -29.513105 -22.509459 45.451479 -0.844182 2.088909 0.030757 -0.005349 -223349.000000 0 0 1
25.596551 -30.437405 -21.478759 45.199072 -0.871576 2.065992 0.030748 0.004648 -614093.000000 0 0 1
26.460521 -31.091805 -20.586659 45.723845 -0.865696 2.037829 0.040657 -0.002333 -160707.000000 0 0 1
26.997451 -32.332605 -21.052759 47.090109 -0.875080 2.034288 0.042621 -0.000774 338888.000000 0 0 1
27.865031 -33.102005 -19.976859 47.657922 -0.871086 2.003329 0.018064 -0.007582 510915.000000 0 0 1
27.190691 -33.530605 -18.767559 47.072884 -0.889431 1.980886 0.014790 -0.004254 -47772.700000 0 0 1
27.223641 -32.570805 -17.748959 46.010971 -0.874587 1.966822 0.005990 -0.008030 -217290.000000 0 0 1
26.885731 -33.282605 -16.406559 45.823024 -0.891317 1.936966 0.013465 -0.005079 662383.000000 0 0 1
25.559271 -33.830605 -16.420159 45.468756 -0.923780 1.940276 0.018721 0.004090 507462.000000 0 0 1
25.129151 -34.387205 -15.171559 45.212059 -0.939716 1.913001 0.022627 0.000631 264171.000000 0 0 1
23.599001 -34.685405 -15.200359 44.621083 -0.973365 1.918409 0.043220 -0.001150 500893.000000 0 0 1
22.811701 -33.527405 -14.983559 43.231558 -0.973353 1.924728 0.035076 -0.000652 105116.000000 0 0 1
21.510001 -33.956005 -14.607159 42.767505 -1.006132 1.919360 0.045169 -0.010033 157394.000000 0 0 1
-0.485119 -7.168139 -28.946889 29.825156 1.503222 2.898311 0.002083 0.003402 112422.000000 0 0 1
-0.167519 -8.554339 -29.054439 30.288037 1.551216 2.855207 0.005511 0.001400 -73499.700000 0 0 1
-0.419919 -9.082839 -30.326029 31.659790 1.524597 2.850295 -0.015583 0.018752 -276435.000000 0 0 1
-0.224319 -10.623439 -30.243749 32.056078 1.549684 2.803726 -0.009503 0.018491 -1176760.000000 0 0 1
1.076581 -11.009639 -30.084419 32.053758 -1.473321 2.789234 -0.016650 0.013189 -1154250.000000 0 0 1
1.163381 -12.429239 -30.054299 32.543821 -1.477468 2.747909 -0.013868 0.009666 107173.000000 0 0 1
2.508581 -12.829839 -29.398639 32.174178 -1.377705 2.723177 -0.003323 0.010227 -1050820.000000 0 0 1
3.572281 -12.696439 -30.295349 33.041926 -1.296526 2.730979 0.000830 0.012004 -383234.000000 0 0 1
4.826581 -12.890739 -29.671379 32.708680 -1.212532 2.707236 0.008330 0.000942 211893.000000 0 0 1
5.224781 -14.311639 -29.262339 32.990996 -1.220758 2.661559 0.019820 -0.008464 -1378770.000000 0 0 1
4.509481 -14.886239 -28.191159 32.197468 -1.276654 2.637412 0.029797 -0.003959 -445328.000000 0 0 1
5.283881 -15.866439 -27.605969 32.276195 -1.249326 2.596934 0.030719 -0.003802 -348239.000000 0 0 1
5.049681 -17.370339 -27.966109 33.306624 -1.287887 2.567446 0.024300 -0.004989 -365404.000000 0 0 1
5.449981 -17.620539 -29.309679 34.630087 -1.270832 2.579918 0.023406 -0.017246 301801.000000 0 0 1
5.139381 -19.009739 -29.580959 35.536130 -1.306753 2.554256 0.015307 -0.013776 -291655.000000 0 0 1
5.380581 -19.611639 -31.031669 37.101637 -1.303028 2.561471 0.010762 -0.019360 565042.000000 0 0 1
6.789081 -19.650639 -31.316759 37.589608 -1.238146 2.555526 0.006862 -0.013375 958368.000000 0 0 1
6.877281 -20.252339 -32.565819 38.961350 -1.243435 2.560474 0.010772 -0.016608 -899838.000000 0 0 1
8.262981 -20.131439 -33.143849 39.649292 -1.181313 2.560613 0.003161 -0.017005 -858988.000000 0 0 1
8.635981 -18.787539 -33.307339 39.203706 -1.139934 2.586016 -0.005497 -0.014960 -484344.000000 0 0 1
9.840181 -18.654739 -33.979329 39.992790 -1.085400 2.586092 -0.009354 -0.008950 -911294.000000 0 0 1
9.948281 -17.159439 -34.479074 39.777144 -1.045395 2.619558 -0.018627 0.000556 -98742.400000 0 0 1
9.137281 -16.843039 33.682469 38.751601 -1.073733 0.517236 -0.006643 0.002478 101724.000000 0 0 1
9.419681 -15.552539 33.145619 37.805342 -1.026219 0.501746 -0.013775 0.011260 122463.000000 0 0 1
8.429381 -15.194439 32.013799 36.425386 -1.064300 0.497272 -0.006924 0.001375 13275.400000 0 0 1
8.583881 -16.014739 30.886799 35.835028 -1.078766 0.531759 -0.004473 0.002946 403587.000000 0 0 1
7.739781 -15.578539 29.786649 34.494051 -1.109693 0.528568 0.003003 0.001879 310616.000000 0 0 1
7.859081 -16.514939 28.558439 33.913018 -1.126633 0.569615 -0.003317 0.010526 -603165.000000 0 0 1
7.394281 -17.843639 28.795739 34.673699 -1.177944 0.590831 -0.003432 0.009959 316009.000000 0 0 1
7.378081 -18.651839 27.618769 34.133907 -1.194116 0.628126 -0.011970 0.009913 -61536.100000 0 0 1
6.744581 -20.051639 27.963149 35.064160 -1.246324 0.647681 -0.006918 0.008276 -250124.000000 0 0 1
7.448681 -20.699639 29.023179 36.418441 -1.225377 0.648590 -0.006509 0.012063 570432.000000 0 0 1
6.799581 -21.820239 29.577519 37.378961 -1.268715 0.657884 -0.011920 0.011535 -371972.000000 0 0 1
7.380181 -21.951939 30.978029 38.678068 -1.246470 0.641967 -0.016461 0.005001 -342131.000000 0 0 1
6.954381 -21.140839 32.081079 39.044771 -1.252992 0.606499 0.002798 -0.002050 86995.800000 0 0 1
7.161181 -19.726439 31.958599 38.233061 -1.222566 0.581046 -0.008526 0.001144 -502056.000000 0 0 1
6.560481 -18.905839 33.109189 38.687066 -1.236789 0.543661 0.001616 -0.001017 -403528.000000 0 0 1
5.165481 -19.076739 33.108739 38.558952 -1.306363 0.538162 0.016814 -0.008363 -432816.000000 0 0 1
4.558281 -18.085839 33.961415 38.746009 -1.323902 0.502225 0.017465 -0.006259 291046.000000 0 0 1
3.054381 -18.391139 34.161166 38.917200 -1.406220 0.499565 0.018549 -0.006300 14614.900000 0 0 1
2.697281 -19.505939 -34.317131 39.565420 -1.433388 2.620652 0.010412 -0.011342 29111.900000 0 0 1
2.264281 -19.059839 -33.044079 38.214075 -1.452552 2.615368 0.000165 -0.018490 -242072.000000 0 0 1
1.729381 -20.149239 -32.049859 37.896913 -1.485178 2.578694 -0.007693 0.002644 -324314.000000 0 0 1
0.526981 -20.735439 -32.524569 38.575688 -1.545387 2.573886 -0.005408 0.003345 293342.000000 0 0 1
-0.151619 -21.486339 -31.527629 38.153337 1.563740 2.543374 -0.011209 0.004326 362672.000000 0 0 1
-0.814819 -20.780839 -30.281049 36.734849 1.531606 2.539786 -0.004520 0.006445 -196749.000000 0 0 1
-1.805719 -19.829639 -30.699069 36.591092 1.479985 2.566196 0.000249 0.001185 186256.000000 0 0 1
-1.976519 -18.832839 -29.740639 35.257454 1.466228 2.574614 0.011373 0.002898 -19824.400000 0 0 1
-2.164619 -17.434439 -30.292099 35.017945 1.447271 2.616036 0.002836 0.006837 -3480.120000 0 0 1
-2.776119 -16.559539 -29.394889 33.852395 1.404696 2.622612 0.009771 0.006892 -336368.000000 0 0 1
-2.548019 -15.256339 -29.858259 33.626833 1.405310 2.663621 0.014033 0.008716 -14666.500000 0 0 1
-3.612319 -14.263139 -29.377329 32.855950 1.322749 2.677270 0.026826 0.003428 -156767.000000 0 0 1
-3.789819 -14.163639 -27.965069 31.575567 1.309347 2.658700 0.024897 0.001587 -192726.000000 0 0 1
-4.648819 -13.118839 -27.630449 30.937956 1.230241 2.674969 0.034999 0.003209 -600205.000000 0 0 1
-4.453519 -12.774239 -26.137729 29.431206 1.235340 2.663982 0.022860 -0.012692 -333708.000000 0 0 1
-4.603319 -13.855639 -25.177869 29.104885 1.250035 2.616093 0.014022 -0.004036 273501.000000 0 0 1
-4.903219 -13.379539 -23.827759 27.763568 1.219524 2.602624 0.014744 -0.008408 1269980.000000 0 0 1
-6.214919 -12.505339 -23.514759 27.348722 1.109567 2.605698 0.007763 -0.009245 662326.000000 0 0 1
-7.428019 -13.149039 -23.765859 28.158280 1.056578 2.575512 -0.003947 0.001090 -422645.000000 0 0 1
-8.464119 -12.367439 -23.171659 27.595663 0.970626 2.567499 -0.000225 -0.002902 495901.000000 0 0 1
-9.900319 -12.931839 -23.322359 28.446110 0.917400 2.531995 0.002532 0.000062 218106.000000 0 0 1
-10.046219 -13.937239 -22.342459 28.184368 0.946234 2.486063 0.007022 0.003446 528445.000000 0 0 1
-11.196119 -14.753239 -22.678759 29.280322 0.921628 2.456783 -0.008324 0.014637 800616.000000 0 0 1
-11.677919 -15.710639 -21.554359 29.116805 0.931589 2.404271 0.003787 0.012611 410948.000000 0 0 1
-10.762719 -16.786439 -21.285359 29.166541 1.000664 2.388806 0.011578 0.012893 -5056.420000 0 0 1
-11.358319 -18.083839 -21.406559 30.237020 1.009976 2.357400 -0.000662 0.022108 306789.000000 0 0 1
-11.736219 -18.537439 -22.880859 31.700302 1.006387 2.377177 -0.004719 0.026403 904234.000000 0 0 1
-12.936319 -17.955039 -23.425759 32.225734 0.946455 2.384633 -0.010881 0.023443 156164.000000 0 0 1
-13.168119 -18.251539 -24.806059 33.494157 0.945799 2.404772 -0.009667 0.024149 -188454.000000 0 0 1
-14.364519 -17.457339 -25.327079 33.949359 0.882286 2.412869 -0.004899 0.015561 -417998.000000 0 0 1
-15.595619 -17.889239 -24.804259 34.329280 0.853789 2.378265 0.008029 0.016429 -168371.000000 0 0 1
-16.783419 -17.453539 -25.419319 35.106280 0.804969 2.380478 0.014260 0.013014 286337.000000 0 0 1
-17.220819 -16.005639 -25.039759 34.347148 0.748842 2.387685 0.005929 0.010833 -315489.000000 0 0 1
-18.147019 -16.035039 -23.955159 34.062977 0.723690 2.350770 0.005381 0.013988 202332.000000 0 0 1
-18.717519 -14.806739 -23.565359 33.539695 0.669268 2.349857 -0.005127 0.005516 185479.000000 0 0 1
-19.588319 -14.944439 -22.308159 33.236914 0.651723 2.306604 -0.008966 -0.004976 180797.000000 0 0 1
-18.736619 -15.121839 -21.146259 32.045205 0.679040 2.291467 -0.004160 -0.000655 54729.800000 0 0 1
-19.357219 -15.115639 -19.889059 31.603150 0.662972 2.251497 -0.013102 -0.003810 -559648.000000 0 0 1
-19.965219 -13.798639 -19.361659 31.046517 0.604751 2.244179 -0.018055 -0.005438 615944.000000 0 0 1
-21.314119 -13.505439 -19.774259 32.057914 0.564787 2.235504 -0.018922 -0.008733 1051070.000000 0 0 1
-21.636719 -12.250239 -19.163159 31.391760 0.515179 2.227427 -0.018473 -0.001823 689416.000000 0 0 1
-23.093419 -11.717239 -19.410059 32.362788 0.469538 2.214003 -0.017002 0.007820 658565.000000 0 0 1
-23.249119 -11.128539 -20.643059 33.022746 0.446434 2.246077 -0.026073 0.001190 49270.000000 0 0 1
-24.590319 -10.719939 -20.822459 33.958440 0.411102 2.230870 -0.025547 0.006109 -206331.000000 0 0 1
-24.850319 -9.915539 -22.161759 34.741903 0.379653 2.262561 -0.022364 0.007192 -351154.000000 0 0 1
-24.575119 -10.614939 -23.390559 35.549003 0.407733 2.288930 -0.026741 0.001368 541102.000000 0 0 1
-25.130079 -9.844739 -24.475259 36.434572 0.373375 2.307377 -0.018082 -0.002122 -325000.000000 0 0 1
-24.952619 -10.309239 -25.917429 37.424948 0.391793 2.335769 -0.020366 -0.007016 -782934.000000 0 0 1
-23.806419 -9.868639 -26.555609 37.004540 0.392975 2.371191 -0.020610 -0.010720 -851787.000000 0 0 1
-22.865919 -10.910239 -26.606899 36.739769 0.445193 2.380668 -0.018542 -0.006355 -585581.000000 0 0 1
-21.950119 -10.751039 -27.818309 37.030404 0.455450 2.420718 -0.006405 -0.015330 -380007.000000 0 0 1
-22.617019 -10.916439 -29.040659 38.393463 0.449684 2.428582 0.013516 -0.007194 -227664.000000 0 0 1
-21.757719 -10.677039 -30.105869 38.649202 0.456199 2.463789 0.018714 0.000584 -257634.000000 0 0 1
-22.300519 -11.224339 -31.437109 40.144623 0.466302 2.470426 0.028090 -0.003275 704709.000000 0 0 1
-23.367919 -10.382839 -31.956969 40.928118 0.418121 2.466753 0.024681 -0.008798 661169.000000 0 0 1
-22.957119 -9.259839 -32.734609 41.040572 0.383394 2.494128 0.019270 -0.013840 -764565.000000 0 0 1
-24.098719 -8.375239 -33.242809 41.904382 0.334481 2.487009 0.031545 -0.016721 -954552.000000 0 0 1
-24.964219 -9.039539 -34.144034 43.252058 0.347413 2.480660 0.043149 -0.022670 1306650.000000 0 0 1
-26.232779 -9.488439 -33.638599 43.700623 0.347061 2.449247 0.047841 -0.016023 1090740.000000 0 0 1
-27.238689 -8.470139 -32.987799 43.610598 0.301481 2.428614 0.025312 -0.000045 -726697.000000 0 0 1
-28.567469 -8.875739 -32.870879 44.445176 0.301239 2.403246 0.002597 0.002644 -245294.000000 0 0 1
-29.232859 -8.639239 -31.655549 43.946220 0.287352 2.375067 0.010885 0.008226 -85588.700000 0 0 1
-30.639049 -9.233039 -31.572899 44.953846 0.292694 2.349476 0.001483 0.004047 -303027.000000 0 0 1
-30.631359 -10.595639 -31.815139 45.417516 0.333025 2.346899 0.003477 0.000833 -29700.900000 0 0 1
-31.921419 -11.168039 -31.847519 46.453918 0.336550 2.326186 -0.005597 0.001330 -201546.000000 0 0 1
-31.903859 -12.691539 -31.969909 46.914885 0.378613 2.320531 -0.009752 -0.003401 -1243280.000000 0 0 1
-33.165609 -13.220639 -31.803949 47.814580 0.379320 2.298493 -0.019057 -0.006004 -772345.000000 0 0 1
-33.101819 -14.595839 -31.950219 48.265779 0.415292 2.294233 -0.020922 -0.005251 958301.000000 0 0 1
-34.403367 -15.268639 -31.347459 48.983529 0.417696 2.265241 -0.027143 -0.008675 822790.000000 0 0 1
-34.565869 -15.143839 -29.998109 48.208108 0.412927 2.242426 -0.016005 -0.004170 125286.000000 0 0 1
34.313058 -16.044039 -29.524209 48.025785 -0.437375 2.232875 -0.016098 -0.001536 53164.600000 0 0 1
34.327080 -16.026339 -27.983739 47.098637 -0.436795 2.207007 -0.008821 -0.002871 -692425.000000 0 0 1
-34.678491 -16.932139 -27.435509 47.349786 0.454212 2.188816 -0.011468 -0.009670 -241060.000000 0 0 1
-34.496338 -16.716639 -26.027589 46.334423 0.451245 2.167276 -0.013174 -0.003965 -540400.000000 0 0 1
-33.214349 -16.020139 -25.616049 44.900109 0.449409 2.177925 0.009643 -0.003021 -211268.000000 0 0 1
-31.985679 -16.722739 -25.798449 44.365455 0.481736 2.191366 -0.002559 0.004666 229111.000000 0 0 1
-30.922219 -16.111039 -25.103649 42.964431 0.480320 2.194800 0.009378 0.015355 644113.000000 0 0 1
-29.540219 -16.739439 -25.518689 42.473955 0.515549 2.215308 0.015991 0.016181 601588.000000 0 0 1
-29.253519 -17.989839 -24.877959 42.406550 0.551349 2.197717 0.010557 0.010686 11673.300000 0 0 1
-29.919119 -19.113639 -25.420759 43.665774 0.568492 2.192187 -0.004812 0.009855 -205296.000000 0 0 1
-29.752619 -20.333839 -24.580959 43.622321 0.599519 2.169407 -0.005485 0.007764 -358431.000000 0 0 1
-28.494149 -20.945139 -24.658859 43.112349 0.633876 2.179699 0.001129 0.012544 -326394.000000 0 0 1
-28.527989 -22.061939 -23.774859 43.195129 0.658274 2.153647 -0.021548 0.026546 -780165.000000 0 0 1
-27.316729 -22.999139 -23.729859 42.875054 0.699798 2.157316 0.002376 0.011696 -226722.000000 0 0 1
-26.169599 -22.416939 -23.147559 41.511161 0.708315 2.162315 0.019077 0.011329 -191495.000000 0 0 1
-26.189699 -22.353639 -21.743959 40.723276 0.706539 2.134055 0.014111 0.009118 -510156.000000 0 0 1
-25.920179 -23.668339 -20.864259 40.833359 0.740019 2.107099 0.018438 0.011104 26704.100000 0 0 1
-25.880429 -23.358139 -19.470259 39.931068 0.734217 2.080131 0.006537 0.011546 -135036.000000 0 0 1
-25.685579 -24.463139 -18.653859 40.076933 0.761027 2.054941 0.006580 0.039117 -127888.000000 0 0 1
-25.716199 -24.038839 -17.149259 39.157193 0.751699 2.024124 -0.001661 0.030840 628703.000000 0 0 1
-26.912989 -23.297339 -16.834059 39.375887 0.713512 2.012546 -0.005439 0.027666 342894.000000 0 0 1
-26.743749 -22.473739 -15.691759 38.295278 0.698857 1.992984 -0.013961 0.028558 -727492.000000 0 0 1
-27.980199 -22.025639 -14.928559 38.611943 0.666879 1.967772 -0.018601 0.025062 -505557.000000 0 0 1
-28.701229 -21.118639 -15.764359 38.965016 0.634357 1.987313 -0.016104 0.026050 124140.000000 0 0 1
-29.754359 -20.529939 -14.975659 39.128897 0.603970 1.963542 -0.006691 0.014941 -67174.300000 0 0 1
-30.695159 -19.793539 -15.910359 39.838630 0.572741 1.981626 -0.008243 0.005592 -73850.700000 0 0 1
-31.632019 -20.658239 -16.593359 41.263628 0.578537 1.984639 -0.020705 0.024963 -12907.700000 0 0 1
-32.154689 -19.928739 -17.678559 41.756557 0.554835 2.007960 -0.015987 0.018532 -345194.000000 0 0 1
-32.795999 -20.869139 -18.743159 43.155585 0.566707 2.020075 -0.034206 0.028241 1277120.000000 0 0 1
-33.999279 -21.616139 -18.412559 44.297074 0.566315 1.999466 -0.038146 0.025105 862367.000000 0 0 1
-33.865469 -22.498639 -17.310759 44.189604 0.586399 1.973316 -0.037151 0.026318 -597144.000000 0 0 1
-34.720917 -23.792439 -17.388459 45.540978 0.600757 1.962561 -0.044676 0.045298 -340975.000000 0 0 1
33.777521 -23.552639 -17.318659 44.671956 -0.608903 1.968915 -0.044300 0.030741 -756800.000000 0 0 1
33.223141 -24.790539 -17.004359 44.805091 -0.641054 1.960072 -0.044957 0.025563 412980.000000 0 0 1
31.704111 -24.834239 -16.650259 43.578908 -0.664483 1.962833 -0.035388 0.012513 856717.000000 0 0 1
30.785471 -24.979739 -17.740659 43.433438 -0.681662 1.991558 -0.019208 0.007713 448818.000000 0 0 1
29.467041 -25.100059 -17.201859 42.358274 -0.705539 1.988983 0.009301 0.001969 945726.000000 0 0 1
28.349861 -24.762739 -18.248259 41.831887 -0.717963 2.022199 0.023502 -0.004276 215112.000000 0 0 1
27.982481 -23.402539 -18.426059 40.868297 -0.696503 2.038530 0.034506 -0.001871 -738136.000000 0 0 1
26.953691 -23.453439 -19.340259 40.627711 -0.716070 2.066938 0.046237 -0.007160 -716949.000000 0 0 1
33.294781 29.984061 -18.828559 48.601451 0.733126 1.968614 0.005531 -0.013351 398989.000000 0 0 1
32.295541 29.685261 -19.809259 48.131314 0.743309 1.994969 0.009969 -0.022235 425238.000000 0 0 1
32.919401 29.501361 -21.075659 48.971427 0.730695 2.015695 0.019919 -0.013716 781518.000000 0 0 1
31.875611 29.552061 -22.284659 48.846545 0.747590 2.044536 0.016928 -0.016786 193222.000000 0 0 1
30.889491 28.523161 -22.356859 47.618909 0.745590 2.059516 0.019527 -0.014983 729112.000000 0 0 1
29.975321 28.690461 -23.455659 47.663722 0.763500 2.085305 0.031770 -0.009577 943569.000000 0 0 1
28.934751 29.858961 -23.335159 47.679209 0.801116 2.082221 0.032769 -0.000456 -556873.000000 0 0 1
29.535511 31.159461 -23.473659 48.931289 0.812148 2.071140 0.036463 -0.007997 146975.000000 0 0 1
28.622381 32.250661 -23.593259 49.152698 0.844932 2.071450 0.037888 0.006338 139611.000000 0 0 1
29.305161 33.523161 -23.075459 50.150489 0.852433 2.048932 0.030842 0.003883 95827.000000 0 0 1
29.501991 33.406061 -21.700259 49.570491 0.847379 2.023908 0.037227 0.003959 958255.000000 0 0 1
30.884081 33.633361 -21.304059 50.387423 0.827985 2.007335 0.029907 -0.007039 1209210.000000 0 0 1
31.145241 33.457161 -19.787359 49.809108 0.821170 1.979330 0.017810 -0.009918 -266873.000000 0 0 1
30.789411 34.658861 -19.096259 50.138723 0.844452 1.961532 0.010629 -0.007370 139985.000000 0 0 1
30.845061 34.597861 -17.661059 49.601843 0.842680 1.934841 -0.002001 -0.020358 -432047.000000 0 0 1
30.908121 -33.339505 -17.057059 48.556954 -0.823224 1.929734 -0.003713 -0.009561 1194160.000000 0 0 1
32.144001 -32.597005 -17.285559 48.934569 -0.792395 1.931827 -0.011982 -0.004873 2160810.000000 0 0 1
33.308531 -33.007405 -16.511859 49.715073 -0.780857 1.909357 -0.013200 -0.007210 -571496.000000 0 0 1
34.493613 -32.163805 -16.717059 50.037783 -0.750460 1.911435 -0.019579 0.011348 -1676660.000000 0 0 1
-34.619979 -32.738005 -17.740659 50.843395 0.757466 1.927223 -0.028312 0.008575 -1185740.000000 0 0 1
-33.525359 -31.920705 -18.023159 49.676104 0.760884 1.942082 -0.039298 0.013929 -561039.000000 0 0 1
-32.600729 -32.674405 -19.001459 49.914724 0.786527 1.961326 -0.019602 0.002834 -675161.000000 0 0 1
-31.948089 -33.752005 -18.360059 49.969690 0.812848 1.947034 -0.014568 -0.001448 395119.000000 0 0 1
-30.891129 -34.391405 -19.075559 50.009074 0.838964 1.962152 -0.008860 0.004911 1525510.000000 0 0 1
-29.495129 -33.670205 -19.262659 48.730846 0.851400 1.977176 -0.004385 0.000813 123992.000000 0 0 1
-29.626129 -32.523505 -20.095059 48.366282 0.831984 1.999263 -0.015712 0.005804 634407.000000 0 0 1
-28.418879 -31.959005 -20.662459 47.496819 0.843964 2.020866 0.005515 0.002040 1045090.000000 0 0 1
-27.593259 -32.903205 -21.620259 48.077483 0.872947 2.037221 0.001194 0.005009 176583.000000 0 0 1
-28.267499 -33.196505 -22.843459 49.222790 0.865420 2.053395 -0.000051 0.007403 48295.300000 0 0 1
-27.563749 -34.178105 -23.560159 49.829551 0.892120 2.063279 -0.009909 0.013499 -152727.000000 0 0 1
-28.469249 34.615661 -24.650359 51.150585 -0.882522 2.073638 -0.018582 0.010163 101741.000000 0 0 1
-29.535129 33.762061 -24.174359 50.956847 -0.852078 2.065088 -0.012663 0.011096 418625.000000 0 0 1
-29.931299 32.799761 -25.158999 51.036087 -0.831093 2.086291 -0.011996 0.003959 -206534.000000 0 0 1
-30.828829 33.344161 -26.273979 52.464957 -0.824574 2.095309 -0.005595 -0.007904 -929421.000000 0 0 1
-30.285099 34.299561 -27.167349 53.213832 -0.847476 2.106599 -0.006940 -0.017839 111542.000000 0 0 1
-31.281379 -34.226705 -27.752019 54.038565 0.830329 2.110124 -0.008986 -0.016318 478957.000000 0 0 1
-30.529929 -33.312805 -28.721169 53.541807 0.828960 2.136992 -0.012762 -0.013229 324721.000000 0 0 1
-30.235059 -33.942505 -30.010889 54.469311 0.843103 2.154321 -0.006974 -0.013287 376760.000000 0 0 1
-31.406499 -34.051805 -30.820679 55.639984 0.825788 2.157874 -0.004009 -0.011262 267542.000000 0 0 1
-31.230029 34.337461 -31.999689 56.376910 -0.832756 2.174387 0.004862 -0.011002 -129725.000000 0 0 1
-30.417009 -34.501605 -33.003399 56.610772 0.848234 2.193198 0.011038 -0.023784 -420598.000000 0 0 1
-30.572579 34.141961 -34.211236 57.190600 -0.840498 2.212045 -0.002832 -0.029233 -662671.000000 0 0 1
-29.726779 34.670361 33.897020 56.874628 -0.862015 0.932292 0.009035 -0.034030 176261.000000 0 0 1
-28.383609 34.213361 33.785652 55.835953 -0.878262 0.920920 0.010890 -0.029603 48430.500000 0 0 1
-28.242079 32.863061 33.385804 54.701076 -0.860878 0.914317 0.013003 -0.031029 -420705.000000 0 0 1
-26.804789 32.297861 33.345975 53.605994 -0.878073 0.899429 0.020882 -0.025122 -392076.000000 0 0 1
-26.297789 32.145561 -34.634335 54.078165 -0.885125 2.265880 0.023666 -0.022646 533233.000000 0 0 1
-24.955619 31.664761 -34.527731 53.081110 -0.903342 2.279001 0.036696 -0.019871 285814.000000 0 0 1
-24.544619 30.235061 34.266837 51.873050 -0.888906 0.849191 0.033890 -0.018386 -671420.000000 0 0 1
-25.056519 29.219061 -34.197281 51.488219 -0.861941 2.297188 0.024795 -0.010857 53035.500000 0 0 1
-24.639719 27.932661 -34.501036 50.770767 -0.847953 2.317939 0.016872 -0.008188 -219423.000000 0 0 1
-24.607619 27.017261 -33.221819 49.387818 -0.832040 2.308611 0.024360 -0.010582 -215613.000000 0 0 1
-23.556519 27.276361 -32.317699 48.408089 -0.858446 2.301790 0.022315 -0.009198 -79023.100000 0 0 1
-23.710419 28.470361 -31.464959 48.608529 -0.876367 2.274851 0.012975 -0.002799 321642.000000 0 0 1
-22.423119 28.567961 -30.599039 47.489218 -0.905328 2.270952 0.019006 -0.003301 587777.000000 0 0 1
-21.212319 28.763661 -31.299029 47.507261 -0.935363 2.290054 0.016572 -0.004320 -352425.000000 0 0 1
-20.015419 28.708361 -30.581519 46.475975 -0.961953 2.288965 0.013021 0.000040 70681.000000 0 0 1
-19.627819 29.803261 -29.518449 46.312249 -0.988413 2.261888 0.008439 0.000181 -607039.000000 0 0 1
-19.091919 30.923261 -30.245859 47.281724 -1.017683 2.264897 0.010854 0.002107 94263.700000 0 0 1
-18.814619 31.979661 -29.307519 47.282336 -1.039001 2.239336 0.009416 -0.002924 -183444.000000 0 0 1
-18.344719 33.174561 -30.092429 48.400769 -1.065672 2.241752 -0.000327 0.010240 -1075120.000000 0 0 1
-17.179719 32.980561 -30.777569 48.271305 -1.090565 2.262169 0.009020 0.004268 -1366340.000000 0 0 1
-16.851619 34.091161 -31.553189 49.414452 -1.111711 2.263398 0.009196 0.013929 454430.000000 0 0 1
-15.387319 34.266661 -32.065889 49.388206 -1.148736 2.277410 -0.002506 0.010768 235287.000000 0 0 1
-14.479019 34.563261 -31.022479 48.648280 -1.174092 2.262291 0.002401 0.009298 641256.000000 0 0 1
-13.093519 34.326661 -31.335649 48.287501 -1.206393 2.276986 0.011582 0.022510 1204990.000000 0 0 1
-12.669319 32.831461 -31.273709 47.079309 -1.202513 2.297323 0.021653 0.004422 -597308.000000 0 0 1
-12.741519 32.333261 -29.973239 45.893149 -1.195414 2.282479 0.038991 -0.017340 98651.800000 0 0 1
-12.291519 30.979461 -29.910849 44.782444 -1.193083 2.302200 0.038755 -0.019310 -208386.000000 0 0 1
-12.113319 30.463261 -28.484239 43.429191 -1.192329 2.286141 0.040066 -0.034323 528235.000000 0 0 1
-10.827319 30.871061 -28.017649 43.072519 -1.233474 2.279008 0.033810 -0.023409 395736.000000 0 0 1
-10.852719 30.722261 -26.597029 42.059966 -1.231227 2.255392 0.032771 -0.023031 -56569.200000 0 0 1
-9.490319 31.122661 -26.043219 41.676557 -1.274820 2.245786 0.030603 -0.024108 855213.000000 0 0 1
-8.352219 30.366761 -26.549329 41.191827 -1.302388 2.271203 0.034389 -0.015973 -155931.000000 0 0 1
-7.161319 30.986261 -26.251219 41.237839 -1.343671 2.260853 0.020894 -0.021820 -1405020.000000 0 0 1
-5.950219 30.310361 -26.817049 40.905711 -1.376952 2.285749 0.003753 -0.012275 -885474.000000 0 0 1
-5.628019 29.183861 -26.046979 39.519836 -1.380288 2.290399 0.009443 -0.016218 424841.000000 0 0 1
-4.426919 28.487961 -26.441679 39.119355 -1.416633 2.313013 0.002003 -0.013063 788173.000000 0 0 1
-3.986619 27.458161 -25.408739 37.622437 -1.426615 2.312251 0.000569 -0.007315 124211.000000 0 0 1
-4.838319 26.292261 -25.463359 36.919845 -1.388812 2.331861 0.014993 -0.005234 579663.000000 0 0 1
-4.422619 25.221661 -24.600759 35.509000 -1.397211 2.336166 0.010497 -0.007069 -397287.000000 0 0 1
-5.476619 24.119261 -24.485159 34.803090 -1.347518 2.351155 0.025844 -0.005598 -443422.000000 0 0 1
-5.511919 23.270261 -25.610559 35.039792 -1.338217 2.390435 0.014949 -0.004170 58460.900000 0 0 1
-6.529219 22.302861 -25.568129 34.551086 -1.286002 2.403881 0.016502 -0.010691 -219612.000000 0 0 1
-6.648519 21.561661 -26.945629 35.145056 -1.271698 2.444478 -0.004814 0.000528 493528.000000 0 0 1
-5.637119 20.545061 -27.134189 34.498418 -1.303008 2.475973 -0.003343 -0.003131 285285.000000 0 0 1
-5.717519 19.451661 -26.217029 33.141963 -1.284913 2.483324 -0.000091 -0.000609 -263365.000000 0 0 1
-4.497919 18.522461 -26.317019 32.494589 -1.332572 2.514760 -0.002407 -0.009263 -30613.200000 0 0 1
-4.465419 17.859961 -27.592949 33.170604 -1.325795 2.553228 -0.015323 -0.007856 -313568.000000 0 0 1
-3.543619 16.775861 -27.576589 32.472373 -1.362623 2.585326 -0.014746 -0.004125 14560.000000 0 0 1
-3.033419 16.413561 -28.988629 33.450668 -1.388047 2.619161 -0.012117 0.002059 -182518.000000 0 0 1
-2.310019 17.404761 -29.663929 34.470430 -1.438844 2.607168 -0.002420 -0.010522 -33717.900000 0 0 1
-2.173819 17.107061 -31.027719 35.497836 -1.444402 2.634322 -0.006255 -0.018955 -132101.000000 0 0 1
-1.500719 18.199061 -31.868269 36.729342 -1.488521 2.621255 0.001787 0.007854 470419.000000 0 0 1
-0.125919 18.388561 -31.524139 36.495566 -1.563949 2.613520 0.012791 -0.006640 754085.000000 0 0 1
0.555581 19.538361 -32.077869 37.563891 1.542369 2.594335 0.023761 0.016035 576550.000000 0 0 1
0.148981 20.982361 -31.571319 37.908176 1.563696 2.555009 0.016529 0.013140 -92342.500000 0 0 1
0.782681 21.174161 -30.324279 36.993507 1.533849 2.531716 0.033737 -0.013959 -103399.000000 0 0 1
0.673581 22.475061 -29.844769 37.366995 1.540835 2.495917 0.029890 -0.005952 -266871.000000 0 0 1
1.629981 22.748761 -28.667619 36.633254 1.499267 2.469559 0.039042 -0.008947 741490.000000 0 0 1
2.975981 22.938761 -29.128869 37.195890 1.441781 2.470465 0.020547 -0.008423 292303.000000 0 0 1
3.876281 23.125261 -28.050649 36.560117 1.404719 2.445334 0.013143 -0.013120 330589.000000 0 0 1
4.356681 24.601461 -27.742999 37.334790 1.395523 2.408468 0.015129 -0.007325 201766.000000 0 0 1
5.099681 25.233161 -28.802239 38.630145 1.371380 2.412216 0.009224 -0.005954 412532.000000 0 0 1
5.467081 26.554961 -28.432169 39.286679 1.367755 2.379960 -0.000311 -0.008549 -425865.000000 0 0 1
6.241481 27.273161 -29.536029 40.683638 1.345820 2.383273 0.012074 -0.006012 -568409.000000 0 0 1
7.563981 26.809361 -29.583729 40.634378 1.295805 2.386265 0.015639 -0.004357 -705368.000000 0 0 1
8.356681 27.624261 -30.376129 41.900395 1.277036 2.381773 0.024567 -0.013117 98162.700000 0 0 1
9.850581 27.696061 -29.963499 41.975195 1.229082 2.365760 0.023313 -0.009815 223704.000000 0 0 1
10.581481 28.549761 -30.802469 43.311069 1.215860 2.361988 0.027393 -0.010810 332144.000000 0 0 1
11.942281 28.682661 -30.369279 43.446590 1.176267 2.344798 0.030178 -0.018161 812150.000000 0 0 1
12.781781 29.499061 -31.390199 44.932317 1.161921 2.344250 0.040773 -0.020420 -200363.000000 0 0 1
12.426381 30.848861 -31.268389 45.648432 1.187866 2.325376 0.025604 -0.015899 84283.500000 0 0 1
13.073281 31.579561 -32.268899 47.004906 1.178297 2.327462 0.052932 -0.023053 -156065.000000 0 0 1
12.535981 33.040061 -32.348369 47.908386 1.208158 2.312050 0.040703 -0.019650 7704.650000 0 0 1
11.303981 33.186361 -33.000959 48.147459 1.242501 2.325969 0.029967 -0.021992 -141256.000000 0 0 1
10.783181 34.489761 -32.940219 48.896612 1.267776 2.309961 0.013664 -0.004386 350794.000000 0 0 1
9.416681 -34.612105 -33.621869 49.164029 -1.305162 2.323852 -0.003347 0.007546 321070.000000 0 0 1
9.642281 -34.131205 34.358981 49.380688 -1.295465 0.801266 -0.004571 0.007658 424988.000000 0 0 1
8.390081 -33.775105 33.789979 48.506843 -1.327314 0.800146 -0.012740 0.006110 243071.000000 0 0 1
8.515681 -33.128605 32.371569 47.095008 -1.319194 0.812938 -0.007439 0.003113 63003.200000 0 0 1
8.767281 -31.732805 32.332139 46.143291 -1.301236 0.794432 -0.031331 -0.004626 -58569.200000 0 0 1
9.105381 -31.380905 31.005169 45.044308 -1.288394 0.811617 -0.010972 -0.004770 -478915.000000 0 0 1
8.964381 -29.849805 30.797919 43.816467 -1.279049 0.791352 -0.028430 -0.021100 -72629.300000 0 0 1
7.645981 -29.333905 30.870859 43.266025 -1.315816 0.776297 -0.032370 -0.006297 -512783.000000 0 0 1
7.199681 -29.231505 32.193589 44.076564 -1.329304 0.751887 -0.028233 0.006550 -169158.000000 0 0 1
5.646881 -29.042705 32.253119 43.767907 -1.378759 0.742305 -0.029043 -0.008803 757372.000000 0 0 1
4.811881 -30.076005 31.730849 43.983713 -1.412150 0.764942 -0.012728 -0.014442 -72667.900000 0 0 1
4.953981 -30.612305 30.429539 43.446657 -1.410358 0.794855 -0.022958 -0.022872 -1067240.000000 0 0 1
4.669281 -29.728505 29.198879 41.930427 -1.415005 0.800476 -0.022429 -0.027810 111737.000000 0 0 1
3.290181 -29.363405 29.205509 41.545115 -1.459211 0.791213 -0.008800 -0.031393 479914.000000 0 0 1
2.920781 -28.692605 28.025319 40.214612 -1.469350 0.799739 0.001836 -0.042781 69431.500000 0 0 1
1.403781 -28.871705 27.737359 40.061291 -1.522213 0.806024 0.011821 -0.049186 243585.000000 0 0 1
0.906281 -30.090005 27.235469 40.595573 -1.540686 0.835378 0.012001 -0.044383 119049.000000 0 0 1
0.603381 -31.109005 28.180949 41.979759 -1.551403 0.834837 0.026259 -0.041519 -623895.000000 0 0 1
0.545581 -32.546305 27.544469 42.641029 -1.554035 0.868514 0.009047 -0.026988 -79213.000000 0 0 1
1.786481 -33.187605 27.339199 43.035339 -1.517018 0.882434 -0.004731 -0.025668 78205.600000 0 0 1
2.494081 -32.678705 26.208569 41.964357 -1.494623 0.896249 -0.011328 -0.020730 -708006.000000 0 0 1
3.819881 -33.355805 25.921739 42.416244 -1.456774 0.913312 -0.013327 -0.017730 -440860.000000 0 0 1
4.419381 -32.903905 24.721589 41.392691 -1.437284 0.930734 -0.005887 -0.025745 690758.000000 0 0 1
5.824881 -32.673205 24.868329 41.471693 -1.394373 0.927738 -0.017159 -0.029355 446150.000000 0 0 1
6.553181 -32.248705 23.544059 40.462895 -1.370318 0.949773 -0.012016 -0.010844 -559637.000000 0 0 1
7.756581 -31.650105 23.881159 40.400538 -1.330460 0.938362 -0.008845 -0.018027 -662823.000000 0 0 1
8.566481 -31.377505 22.789959 39.715421 -1.304278 0.959620 -0.005838 -0.007610 635737.000000 0 0 1
9.862581 -30.509205 23.037959 39.482017 -1.258134 0.947758 -0.004234 -0.005642 400927.000000 0 0 1
10.908281 -31.151405 23.704859 40.636449 -1.233970 0.947962 0.011239 -0.019554 -800338.000000 0 0 1
12.011881 -30.295205 23.640359 40.261039 -1.193316 0.943229 0.015099 -0.019214 -164508.000000 0 0 1
13.298681 -30.811705 24.353389 41.464486 -1.163339 0.943039 0.056237 -0.028808 7723.400000 0 0 1
13.414081 -30.693405 25.753299 42.252279 -1.158777 0.915351 0.041823 -0.033621 162520.000000 0 0 1
13.751081 -29.409805 26.258729 41.755834 -1.133429 0.890705 0.035466 -0.028399 -783344.000000 0 0 1
-10.658719 -13.996339 26.453869 31.769686 0.919953 0.586873 0.067769 -0.017837 -1803550.000000 0 0 1
-9.330619 -14.135139 26.247949 31.238077 0.987353 0.573043 0.062026 -0.019723 -2243600.000000 0 0 1
-8.610819 -14.366439 27.420679 32.131517 1.030840 0.548344 0.047307 -0.016246 909259.000000 0 0 1
-7.072819 -14.241939 27.074789 31.399073 1.109857 0.531042 0.040079 -0.002643 918272.000000 0 0 1
-6.513019 -15.257139 26.271909 31.071094 1.167332 0.563217 0.032116 -0.007943 62915.500000 0 0 1
-6.632719 -14.889839 24.867319 29.733547 1.151730 0.580226 0.036430 -0.009898 -170298.000000 0 0 1
-5.795519 -15.820539 23.928759 29.265389 1.219649 0.613484 0.035462 -0.016289 334008.000000 0 0 1
-6.341719 -17.161839 23.750159 29.980263 1.216835 0.656402 0.046940 -0.007072 31524.900000 0 0 1
-6.444819 -17.968239 24.909479 31.382725 1.226411 0.653876 0.033748 -0.003160 36679.800000 0 0 1
-7.047719 -19.410939 24.680739 32.180643 1.222517 0.696732 0.035107 -0.000547 -550602.000000 0 0 1
-8.423819 -19.441639 24.482209 32.377718 1.161927 0.713396 0.034013 0.003489 -747544.000000 0 0 1
-8.854119 -20.694139 24.020559 32.918537 1.166509 0.752918 0.019082 0.004510 757651.000000 0 0 1
-10.396219 -20.990339 24.064759 33.582560 1.110927 0.771902 0.015109 0.001737 714181.000000 0 0 1
-10.754219 -21.073539 25.414179 34.722151 1.098928 0.749646 0.007516 -0.002093 -307577.000000 0 0 1
-12.153919 -21.012639 25.521279 35.221931 1.046403 0.760364 0.022401 0.002987 -232909.000000 0 0 1
-12.656019 -21.013239 26.965109 36.453369 1.028696 0.738149 0.021988 -0.000141 -316884.000000 0 0 1
-12.511319 -22.271139 27.651229 37.644750 1.058959 0.745821 0.020487 0.001861 -147589.000000 0 0 1
-11.430519 -22.282639 28.545749 37.974104 1.096820 0.720136 0.014752 0.004348 -224486.000000 0 0 1
-11.188019 -23.628839 29.303019 39.270354 1.128581 0.728481 0.000113 0.000253 314693.000000 0 0 1
-12.263019 -24.057239 30.169049 40.488318 1.099384 0.730067 0.006228 0.003111 576338.000000 0 0 1
-11.855219 -25.303529 30.769799 41.564352 1.132648 0.737290 -0.001044 0.005233 75536.300000 0 0 1
-12.928919 -25.879239 31.736289 42.942799 1.107480 0.739158 0.009119 -0.010045 256567.000000 0 0 1
-12.918119 -25.177699 32.977089 43.454375 1.096741 0.709189 0.020807 -0.006544 141465.000000 0 0 1
-13.974719 -25.591739 33.846422 44.674491 1.070980 0.711133 0.024000 -0.009326 -163896.000000 0 0 1
-13.887319 -25.052019 -33.978279 44.440800 1.064628 2.441176 0.019700 -0.017752 -191767.000000 0 0 1
-13.883819 -23.657639 -33.774019 43.510098 1.040092 2.459466 0.029553 -0.018490 399671.000000 0 0 1
-15.076019 -22.925339 -34.084873 43.756554 0.989087 2.463812 0.031772 -0.023033 -70098.500000 0 0 1
-14.956619 -21.406739 -33.944729 42.827486 0.960952 2.485845 0.027022 -0.020499 -169328.000000 0 0 1
-14.938519 -21.103239 -32.580549 41.593247 0.954803 2.470775 0.027378 -0.013591 211670.000000 0 0 1
-14.995519 -19.720339 -32.337249 40.736409 0.920667 2.487856 0.017490 -0.010897 -343462.000000 0 0 1
-15.023419 -19.497539 -30.789119 39.418612 0.914286 2.467191 0.041682 -0.006731 468829.000000 0 0 1
-16.259919 -19.880939 -30.161309 39.614912 0.885257 2.436208 0.041221 -0.005457 651620.000000 0 0 1
-16.346319 -19.572639 -28.776149 38.449409 0.874980 2.416467 0.024089 0.004142 281146.000000 0 0 1
-15.402019 -20.343539 -27.752359 37.699803 0.922769 2.398147 0.031963 0.003912 35053.600000 0 0 1
-14.061419 -19.968839 -27.925069 37.098349 0.957278 2.422997 0.032618 0.008420 -1045790.000000 0 0 1
-13.312219 -21.061339 -27.561249 37.153971 1.007130 2.406564 0.033157 0.017178 -203885.000000 0 0 1
-11.807619 -20.981539 -27.929279 36.873967 1.058208 2.430157 -0.000356 0.010603 -499066.000000 0 0 1
-11.121219 -20.123639 -27.035139 35.490014 1.065925 2.436833 -0.000342 0.012473 1595.130000 0 0 1
-9.717919 -20.299239 -27.113649 35.237012 1.124306 2.448799 0.004472 0.005182 291031.000000 0 0 1
-9.177519 -21.521239 -26.303749 35.203377 1.167707 2.414626 0.005997 0.005524 -783800.000000 0 0 1
-9.443819 -22.842739 -26.714089 36.395315 1.178768 2.394986 0.003327 0.000331 70333.400000 0 0 1
-9.041219 -23.718139 -25.679719 36.107364 1.206606 2.362006 0.004814 0.001206 39523.800000 0 0 1
-9.223119 -25.243609 -25.995959 37.391116 1.220500 2.339556 0.009572 -0.000159 58306.300000 0 0 1
-8.125519 -25.754389 -26.740589 38.004890 1.265180 2.351260 0.000269 -0.007259 219771.000000 0 0 1
-8.468619 -26.892619 -27.515549 39.395887 1.265722 2.344008 -0.002495 0.001702 38943.900000 0 0 1
-8.356619 -28.261199 -26.765709 39.811199 1.283296 2.308129 0.009695 0.002232 -209393.000000 0 0 1
-9.407519 -28.356229 -25.830829 39.494415 1.250461 2.283706 0.004534 0.003570 -108159.000000 0 0 1
-9.432219 -29.617069 -25.273349 40.060950 1.262480 2.253473 0.020733 0.006210 -191852.000000 0 0 1
-10.492319 -29.696379 -24.157059 39.692911 1.231167 2.225090 0.019234 0.000985 -210706.000000 0 0 1
-10.333419 -28.911599 -23.014259 38.370773 1.227532 2.214030 0.015701 -0.002068 -373957.000000 0 0 1
-10.726619 -27.553359 -23.157859 37.557081 1.199545 2.235218 0.021413 0.008422 -198519.000000 0 0 1
-10.418319 -26.718739 -21.925459 36.099281 1.199005 2.223536 0.035081 0.000118 -61016.900000 0 0 1
-11.294119 -27.080189 -20.888359 36.016903 1.175668 2.189476 0.027288 -0.003627 107272.000000 0 0 1
-11.351319 -26.013569 -19.977259 34.708055 1.159342 2.184109 0.022766 -0.001273 -3322.990000 0 0 1
-11.997719 -26.375369 -18.620159 34.442933 1.143889 2.141957 0.040975 -0.009728 -65197.300000 0 0 1
-13.366419 -26.685009 -18.689759 35.214456 1.106432 2.130271 0.058517 -0.015138 -348635.000000 0 0 1
-13.846919 -27.021339 -17.415859 35.002886 1.097243 2.091574 0.066811 -0.020678 -451423.000000 0 0 1
-15.366719 -27.136109 -17.296859 35.660704 1.055538 2.077205 0.072805 -0.027617 -1577480.000000 0 0 1
-15.994719 -25.894599 -17.347459 35.032779 1.017474 2.088836 0.072053 -0.015929 -818704.000000 0 0 1
-17.335119 -25.989619 -16.959059 35.546819 0.982562 2.068138 0.066294 -0.010622 19513.100000 0 0 1
-18.326019 -26.518969 -18.085559 36.961955 0.966100 2.082086 0.051051 -0.007633 -631691.000000 0 0 1
-18.228319 -27.914929 -18.379759 38.070072 0.992318 2.074631 0.049210 -0.010795 -12131.900000 0 0 1
-18.663519 -28.795349 -17.339259 38.446703 0.995727 2.038676 0.058923 -0.017626 826117.000000 0 0 1
-20.125519 -29.407779 -17.494259 39.697645 0.970644 2.027161 0.028091 -0.005809 1170210.000000 0 0 1
-20.342219 -30.273519 -18.579859 40.932908 0.979147 2.041945 0.024287 -0.011226 325240.000000 0 0 1
-21.594619 -30.951279 -18.434859 42.001824 0.961618 2.025177 0.011577 0.004431 509358.000000 0 0 1
-21.922019 -32.014229 -19.504159 43.426927 0.970373 2.036583 0.000374 0.000700 -157975.000000 0 0 1
-21.268419 -33.219479 -19.242459 43.887944 1.001313 2.024664 -0.006740 -0.000684 -151121.000000 0 0 1
-21.405819 -34.120121 -20.283759 45.097922 1.010497 2.037306 -0.010703 0.010165 15085.000000 0 0 1
-20.910719 33.798967 -19.959359 44.474761 -1.016755 2.036195 -0.014949 0.014797 -385824.000000 0 0 1
-21.548219 33.100717 -18.935859 43.801255 -0.993726 2.017853 -0.017789 0.006664 -265411.000000 0 0 1
-20.884619 31.864447 -18.765059 42.469256 -0.990620 2.028457 -0.023115 0.006046 -332903.000000 0 0 1
-21.737219 30.722197 -18.211059 41.809123 -0.955027 2.021475 -0.021868 -0.004380 -217288.000000 0 0 1
-22.136519 30.766037 -16.832159 41.471630 -0.947095 1.988729 -0.023617 -0.001842 -360362.000000 0 0 1
-22.958519 29.693587 -16.483159 40.993868 -0.912624 1.984593 -0.021737 -0.001554 -525604.000000 0 0 1
-22.353419 28.263167 -16.391459 39.587395 -0.901627 1.997703 -0.018537 -0.015315 -189382.000000 0 0 1
-21.746719 27.847437 -17.590059 39.469098 -0.907796 2.032715 -0.027727 -0.016455 -8874.520000 0 0 1
-21.211719 26.530997 -17.485059 38.204163 -0.896356 2.046174 -0.028443 -0.012319 -80290.900000 0 0 1
-20.450619 26.081037 -18.739859 38.074015 -0.905815 2.085406 -0.017999 -0.011804 -1054420.000000 0 0 1
-20.244619 24.648877 -18.782459 37.016111 -0.883190 2.102976 -0.004541 -0.012435 -30159.100000 0 0 1
-19.517419 24.195827 -19.917359 36.919762 -0.892017 2.140612 -0.000420 -0.004801 1368760.000000 0 0 1
-17.988119 24.631287 -20.086059 36.520165 -0.940026 2.153160 -0.014831 -0.006535 518450.000000 0 0 1
-17.148619 24.025227 -19.083959 35.149454 -0.950885 2.144728 -0.008219 -0.003509 -352921.000000 0 0 1
-15.991719 24.791897 -19.032059 35.108296 -0.997917 2.143725 0.000416 -0.011980 -1094790.000000 0 0 1
-15.980619 26.026447 -18.102859 35.503093 -1.020136 2.105859 0.001194 -0.011060 -911131.000000 0 0 1
-16.910419 26.997107 -18.441959 36.809128 -1.011206 2.095569 -0.005712 -0.012079 -375250.000000 0 0 1
-16.557119 28.247037 -17.832659 37.283200 -1.040620 2.069517 0.006164 -0.023227 -693525.000000 0 0 1
-17.544819 29.431647 -18.007859 38.708210 -1.033234 2.054680 0.003987 -0.017099 63352.000000 0 0 1
-17.641619 29.905187 -19.359959 39.753678 -1.037823 2.079446 0.001490 -0.018315 479090.000000 0 0 1
-18.415719 29.032207 -20.227659 39.889421 -1.005523 2.102605 -0.001131 -0.007914 -101505.000000 0 0 1
-18.620919 29.734727 -21.592959 41.196462 -1.011310 2.122508 0.005931 -0.010217 191125.000000 0 0 1
-19.390519 30.937237 -21.650659 42.448273 -1.010926 2.106037 -0.005827 -0.002934 138874.000000 0 0 1
-19.553119 31.146747 -23.021259 43.386895 -1.010205 2.130109 0.002372 -0.000217 37187.800000 0 0 1
-20.298619 32.424647 -23.441559 44.865335 -1.011461 2.120562 -0.006041 0.003337 -290444.000000 0 0 1
-19.533919 33.606675 -23.341459 45.341000 -1.044277 2.111568 -0.021474 0.007798 -253420.000000 0 0 1
-19.793419 34.659815 -24.284659 46.720733 -1.051915 2.117394 -0.004568 0.009557 -361567.000000 0 0 1
-18.794019 -33.540169 -24.178459 45.417573 1.060046 2.132181 0.004036 0.014079 20553.000000 0 0 1
-18.762619 -32.617019 -23.067759 44.136462 1.048782 2.120748 0.008072 0.011391 -353056.000000 0 0 1
-18.107419 -33.097219 -21.946259 43.645650 1.070184 2.097664 0.009140 0.007783 -387701.000000 0 0 1
-17.925119 -31.985539 -20.873159 42.190915 1.059993 2.088322 0.015765 -0.007144 -343270.000000 0 0 1
-16.950819 -31.040789 -21.205059 41.237305 1.070966 2.110895 0.022481 -0.005200 -244201.000000 0 0 1
-16.624819 -30.328389 -20.030159 39.967525 1.069367 2.095736 0.030529 -0.008117 -491801.000000 0 0 1
-15.281519 -29.620949 -20.034459 38.888365 1.094508 2.112012 0.038753 -0.005428 265010.000000 0 0 1
-14.113419 -30.446949 -20.085359 39.110445 1.136739 2.110119 0.040402 -0.006143 -28391.300000 0 0 1
-13.002019 -29.693509 -20.471659 38.338568 1.158072 2.134086 0.035317 -0.008917 -493579.000000 0 0 1
-11.673219 -30.506949 -20.697659 38.669511 1.205343 2.135594 0.036321 -0.003130 468088.000000 0 0 1
-11.110519 -30.965639 -19.481459 38.234038 1.226302 2.105437 0.033715 -0.004044 34602.100000 0 0 1
-10.610919 -29.982999 -18.606859 36.848162 1.230653 2.100132 0.028934 -0.005023 -1112070.000000 0 0 1
-9.998019 -30.578369 -17.350659 36.551914 1.254789 2.065403 0.018730 0.001625 -806847.000000 0 0 1
-10.828719 -31.190159 -16.457759 36.890988 1.236633 2.033220 0.031657 -0.009882 -657812.000000 0 0 1
-11.003519 -32.591519 -16.800059 38.282196 1.245194 2.025112 0.034532 -0.005504 -109527.000000 0 0 1
-12.013919 -33.202799 -15.818459 38.690874 1.223618 1.991981 0.040908 -0.005634 -435005.000000 0 0 1
-11.524919 -33.452959 -14.520759 38.246263 1.239020 1.960230 0.031296 -0.004402 5474.500000 0 0 1
-12.393319 -34.291510 -13.741359 38.965715 1.223992 1.931201 0.038770 -0.003496 -254515.000000 0 0 1
-11.900119 -34.620620 -12.320359 38.626304 1.239719 1.895431 0.033538 -0.002610 -272644.000000 0 0 1
-11.812919 -33.473069 -11.534959 37.323540 1.231533 1.884994 0.025198 -0.001673 75366.500000 0 0 1
-11.621119 -33.773019 -10.163659 37.134447 1.239392 1.848033 0.019896 -0.007338 19175.100000 0 0 1
-10.355319 -33.070379 -9.616559 35.963326 1.267338 1.841489 0.007528 -0.014453 455903.000000 0 0 1
-9.139719 -33.475559 -10.222459 36.175215 1.304266 1.857281 -0.003708 -0.008379 -440760.000000 0 0 1
-8.016319 -32.932189 -9.617859 35.231997 1.332021 1.847292 -0.013689 -0.014660 -888306.000000 0 0 1
-6.703619 -33.416019 -10.187259 35.571745 1.372813 1.861249 -0.019800 -0.017344 -569539.000000 0 0 1
-6.364419 34.670401 -9.685959 36.556262 -1.389248 1.838959 -0.033813 -0.009622 209058.000000 0 0 1
-5.174219 34.206857 -10.339059 36.107863 -1.420672 1.861199 -0.025075 -0.011339 587642.000000 0 0 1
-4.492819 33.054037 -9.518259 34.689365 -1.435701 1.848747 -0.025244 -0.016894 -135265.000000 0 0 1
-3.915619 33.646293 -8.389159 34.896749 -1.454942 1.813574 -0.015894 -0.018632 55272.800000 0 0 1
-3.227919 32.692167 -7.544959 33.706433 -1.472379 1.796552 -0.020701 -0.022032 124658.000000 0 0 1
-2.827119 33.254747 -6.200859 33.945860 -1.485986 1.754497 -0.015298 -0.009272 -129898.000000 0 0 1
-1.816119 34.271772 -6.236659 34.881923 -1.517854 1.750556 -0.014620 -0.005937 217603.000000 0 0 1
-1.301219 -34.620225 -4.976959 35.000332 1.533228 1.713477 -0.015374 -0.004394 397855.000000 0 0 1
-0.422619 33.698730 -4.185659 33.960311 -1.558256 1.694362 -0.002366 -0.013970 -360959.000000 0 0 1
0.948281 33.879038 -4.442559 34.182229 1.542813 1.701132 0.008481 -0.009922 -508709.000000 0 0 1
1.690281 32.870907 -3.771959 33.129764 1.519420 1.684898 0.006783 -0.014939 895336.000000 0 0 1
3.229081 32.941087 -4.092259 33.350993 1.473083 1.693809 0.007188 -0.007771 442461.000000 0 0 1
3.774881 34.146352 -3.724159 34.555643 1.460693 1.678779 0.008757 0.005617 -1171650.000000 0 0 1
5.118081 34.209276 -4.066259 34.828204 1.422287 1.687815 0.022772 0.000965 -478087.000000 0 0 1
5.768881 -33.778319 -3.726359 34.469415 -1.401642 1.679114 0.028912 0.008472 256883.000000 0 0 1
5.304281 -32.707629 -4.545759 33.445303 -1.410023 1.707135 0.027329 0.011285 -132831.000000 0 0 1
5.638581 -31.563369 -3.914159 32.301091 -1.394018 1.692272 0.032901 0.004215 -63699.700000 0 0 1
5.457581 -30.382859 -4.811359 31.241839 -1.393065 1.725415 0.027030 0.009349 379265.000000 0 0 1
6.310381 -30.384079 -5.982559 31.603863 -1.366020 1.761244 0.036267 0.009594 244268.000000 0 0 1
6.054481 -29.258369 -6.767059 30.634980 -1.366745 1.793527 0.032679 0.013184 -103741.000000 0 0 1
6.596781 -27.878389 -6.367759 29.347409 -1.338443 1.789515 0.036322 0.007914 115650.000000 0 0 1
6.030881 -27.346109 -5.183459 28.478930 -1.353732 1.753827 0.041933 0.002679 -158884.000000 0 0 1
6.636081 -26.094899 -4.960859 27.378668 -1.321769 1.752997 0.036949 0.009814 110014.000000 0 0 1
6.122281 -25.354899 -3.727359 26.348556 -1.333868 1.712736 0.025050 0.007213 -378392.000000 0 0 1
4.960581 -24.653639 -4.013159 25.465952 -1.372237 1.729045 0.027817 -0.002518 -667190.000000 0 0 1
4.363781 -24.047039 -2.850559 24.605454 -1.391281 1.686908 0.020947 -0.000831 77592.300000 0 1 0
3.079381 -23.283839 -3.179559 23.700830 -1.439305 1.705356 0.020973 -0.009606 530549.000000 0 1 0
2.076581 -24.070439 -3.840759 24.463231 -1.484738 1.728450 0.008904 -0.004635 -480996.000000 0 1 0
0.886581 -23.379139 -4.029159 23.740351 -1.532893 1.741340 0.010059 -0.006709 -316653.000000 0 1 0
-14.824019 22.956161 17.931359 32.684408 -0.997412 0.990082 0.009172 -0.002844 -247959.000000 0 0 1
-14.757119 22.571761 19.234859 33.124564 -0.991764 0.951229 0.011828 0.005344 290018.000000 0 0 1
-14.624319 23.654561 20.127359 34.329572 -1.017069 0.944315 0.011110 0.004310 -902090.000000 0 0 1
-14.805619 23.203661 21.594559 34.984871 -1.002852 0.905548 0.017799 -0.001165 -269718.000000 0 0 1
-13.831519 22.305661 22.119159 34.323616 -1.015736 0.870519 0.015365 0.007589 1633110.000000 0 0 1
-12.425819 22.672661 22.072559 33.994829 -1.069449 0.864144 -0.002876 0.004336 950472.000000 0 0 1
-11.916619 23.774461 22.977059 35.145071 -1.106160 0.858230 0.007709 0.024255 -690621.000000 0 0 1
-11.675319 23.216561 24.280239 35.564755 -1.104841 0.819338 -0.001302 0.023584 130866.000000 0 0 1
-11.586419 24.292061 25.249479 36.903733 -1.125747 0.817292 0.018959 0.015749 -124117.000000 0 0 1
-11.070219 23.889361 26.618319 37.440436 -1.136859 0.779947 0.006254 0.012472 1115890.000000 0 0 1
-9.696219 23.435461 26.601459 36.754253 -1.178500 0.761553 -0.022452 0.016620 703333.000000 0 0 1
-9.363919 22.652661 27.732939 37.012727 -1.178818 0.723820 -0.032600 0.025194 -547613.000000 0 0 1
-7.837719 22.457861 27.853649 36.628010 -1.235016 0.706796 -0.039068 0.018688 492051.000000 0 0 1
-7.067219 23.634661 28.245519 37.501362 -1.280240 0.717903 -0.042045 0.019712 272123.000000 0 0 1
-6.916219 24.638461 27.268519 37.395989 -1.297131 0.753669 -0.035119 0.017149 -1013470.000000 0 0 1
-5.891419 25.664461 27.721319 38.234080 -1.345150 0.759701 -0.033979 0.012307 -574878.000000 0 0 1
-4.585819 25.171561 27.762999 37.754752 -1.390590 0.744612 -0.025101 0.005645 -402489.000000 0 0 1
-3.639819 26.205261 28.110699 38.602790 -1.432783 0.755099 -0.017624 0.012431 97902.800000 0 0 1
-2.218619 25.653761 28.119809 38.128223 -1.484528 0.741426 -0.010875 0.012414 -228455.000000 0 0 1
-1.636319 25.433561 26.824209 37.001105 -1.506548 0.759824 0.004550 0.002459 -136266.000000 0 0 1
-0.305519 24.978861 26.844409 36.669594 -1.558566 0.749453 0.024224 0.010603 153040.000000 0 0 1
0.181181 24.655761 25.408109 35.404963 1.563448 0.770385 0.019632 0.004363 -135965.000000 0 0 1
-0.160019 23.427861 24.863419 34.162551 -1.563966 0.755691 0.021927 0.011937 -51420.700000 0 0 1
0.212081 23.351761 23.492959 33.125049 1.561715 0.782405 0.022627 0.011950 -56470.200000 0 0 1
-0.278119 22.059861 22.774459 31.707898 -1.558190 0.769501 0.021733 0.017774 48493.800000 0 0 1
0.387081 20.879061 23.169059 31.191190 1.552259 0.733542 0.032223 0.015084 -191847.000000 0 0 1
0.070381 19.728761 22.395359 29.845956 1.567229 0.722182 0.030131 0.011249 -553557.000000 0 0 1
0.889481 18.532561 22.736059 29.345790 1.522838 0.684455 0.029800 0.019704 -12645.400000 0 0 1
2.201581 18.629561 22.190159 29.057024 1.453165 0.701808 0.033044 0.014114 -86511.900000 0 0 1
2.949881 17.498561 22.571359 28.711804 1.403788 0.666266 0.019165 0.007355 436458.000000 0 0 1
4.374581 17.528461 21.897459 28.388072 1.326222 0.689819 0.012384 0.012916 457919.000000 0 0 1
5.337881 18.164061 22.692759 29.553128 1.284972 0.695297 0.007871 0.019962 -878192.000000 0 0 1
6.365781 18.647761 21.854159 29.425608 1.241831 0.733715 0.015734 0.011644 -344606.000000 0 0 1
7.508481 19.291161 22.639159 30.676664 1.199619 0.740705 0.014731 0.002558 -655415.000000 0 0 1
7.256981 20.534261 23.384159 31.955258 1.231088 0.749869 0.004110 0.014026 -143454.000000 0 0 1
6.817181 21.670661 22.673459 32.096374 1.266017 0.786372 0.003890 0.015054 -94069.300000 0 0 1
6.261081 22.763061 23.614959 33.391981 1.302379 0.785260 -0.005337 0.016337 48832.400000 0 0 1
5.940281 23.948961 22.909959 33.670549 1.327664 0.822467 -0.007820 0.011672 48143.600000 0 0 1
4.753781 24.542361 23.379159 34.227343 1.379469 0.818859 -0.024056 0.015754 -246003.000000 0 0 1
4.420181 25.920061 22.663559 34.713462 1.401890 0.859422 -0.009310 0.012268 72184.500000 0 0 1
4.212081 25.937061 21.246759 33.791974 1.409806 0.890850 0.003536 0.001213 -202424.000000 0 0 1
3.010081 25.308461 20.861159 32.935797 1.452417 0.884872 0.008347 0.002935 -337135.000000 0 0 1
2.716381 25.455461 19.360759 32.096701 1.464487 0.923288 0.013272 -0.004000 -843747.000000 0 0 1
2.247881 26.755361 19.159559 32.984709 1.486977 0.951009 0.011743 -0.006143 -40181.800000 0 0 1
1.654781 26.953661 17.907059 32.402174 1.509480 0.985256 0.013329 -0.007771 -651769.000000 0 0 1
0.464881 27.887061 18.065159 33.230321 1.554128 0.996035 0.005744 0.000415 -587443.000000 0 0 1
0.787781 29.264461 18.330559 34.540392 1.543883 1.011371 0.003483 0.001138 533070.000000 0 0 1
-0.395319 30.049961 18.446959 35.262540 -1.557642 1.020275 0.000310 0.006910 362075.000000 0 0 1
-0.035119 31.450061 18.949659 36.717804 -1.569680 1.028518 -0.007192 0.005207 -50270.200000 0 0 1
0.267781 31.486061 20.339859 37.485379 1.562292 0.997258 -0.010728 0.004313 -86259.300000 0 0 1
0.786181 32.782861 20.597159 38.724372 1.546819 1.009964 -0.024449 0.005201 -679.651000 0 0 1
1.358681 33.002461 22.015759 39.695114 1.529650 0.982888 -0.023004 -0.002885 250099.000000 0 0 1
0.349881 32.820961 22.983959 40.069942 1.560136 0.959907 -0.028139 -0.002332 461100.000000 0 0 1
0.967681 33.158761 24.240999 41.086079 1.541621 0.939731 -0.025143 -0.008069 101743.000000 0 0 1
0.097181 32.942761 25.492729 41.654702 1.567846 0.912208 -0.013738 0.003150 -584828.000000 0 0 1
-1.096019 33.678761 25.455499 42.230826 -1.538264 0.923827 -0.009399 0.003132 151934.000000 0 0 1
-1.989319 33.453461 26.574039 42.769978 -1.511401 0.900364 -0.001022 0.002748 343391.000000 0 0 1
-1.575019 33.786361 28.016689 43.919628 -1.524213 0.879017 0.007098 -0.007078 -1045270.000000 0 0 1
-0.505019 33.091361 28.560889 43.715187 -1.555536 0.858808 0.004009 -0.002692 -525539.000000 0 0 1
-0.022719 33.634061 29.735109 44.893511 -1.570121 0.846848 0.007249 -0.007322 -235634.000000 0 0 1
1.197581 32.799261 30.174729 44.584078 1.534300 0.827382 -0.002517 -0.003471 446928.000000 0 0 1
2.494281 32.935061 29.609919 44.358618 1.495207 0.839934 -0.022426 -0.004477 416680.000000 0 0 1
2.669181 32.430961 28.288719 43.117785 1.488678 0.855183 -0.028155 -0.005508 -1127000.000000 0 0 1
4.117781 32.104061 27.972709 42.779660 1.443229 0.858097 -0.037345 -0.001093 -657733.000000 0 0 1
4.520781 30.912161 28.587939 42.347012 1.425580 0.829713 -0.034013 -0.011100 -487136.000000 0 0 1
5.866681 30.617061 28.366519 42.148331 1.381476 0.832517 -0.040773 -0.010997 -337558.000000 0 0 1
6.325981 29.424561 29.248449 41.967781 1.359030 0.799694 -0.041166 -0.001802 -5776.260000 0 0 1
6.371481 29.721461 30.605979 43.135681 1.359619 0.781968 -0.038780 -0.011340 269706.000000 0 0 1
6.898881 28.572561 31.295779 42.934969 1.333880 0.754066 -0.037755 -0.011519 -102462.000000 0 0 1
7.031481 28.799661 32.812899 44.221585 1.331330 0.734731 -0.015085 -0.010508 -1132140.000000 0 0 1
5.811481 28.992461 33.423573 44.625904 1.372970 0.724286 -0.020184 -0.011223 -990164.000000 0 0 1
5.938581 28.890561 -34.417141 45.326271 1.368066 2.433064 -0.001526 -0.008573 -30724.300000 0 0 1
5.856081 27.533761 -33.695579 43.906648 1.361232 2.445630 0.003083 -0.003861 -507972.000000 0 0 1
6.880581 26.705961 -34.108593 43.862819 1.318638 2.461667 -0.001396 -0.010022 -436857.000000 0 0 1
6.589181 25.351061 -33.776109 42.742474 1.316506 2.481970 0.004712 -0.008060 637555.000000 0 0 1
7.825381 24.395961 -34.045789 42.608863 1.260399 2.496478 0.016446 -0.006323 405875.000000 0 0 1
8.189281 24.410761 33.837287 42.519543 1.247117 0.650460 0.000999 -0.009046 3826.030000 0 0 1
9.392881 23.767461 33.482377 42.121111 1.194435 0.651942 0.002832 -0.012142 -192152.000000 0 0 1
9.532081 22.288861 33.825352 41.615001 1.166674 0.621826 0.003933 -0.006304 -1027540.000000 0 0 1
8.981581 21.433561 32.842489 40.233014 1.173982 0.615808 -0.000212 -0.008158 76236.800000 0 0 1
8.854181 20.092561 33.398051 39.969205 1.155729 0.581582 0.004991 -0.006788 611481.000000 0 0 1
7.572581 19.863561 34.280577 40.336869 1.206575 0.555082 0.009700 -0.014148 169290.000000 0 0 1
7.639781 20.492561 -33.741799 40.209704 1.213949 2.566507 0.013114 -0.011157 -328032.000000 0 0 1
6.411781 20.591261 -33.081319 39.490310 1.268929 2.563868 0.019727 -0.009846 -439644.000000 0 0 1
6.599181 21.250161 -31.669649 38.705105 1.269691 2.529120 0.029645 -0.013748 -104966.000000 0 0 1
6.905081 22.622861 -31.723239 39.570669 1.274552 2.500906 0.026180 -0.009005 34996.300000 0 0 1
7.041981 23.225061 -30.477939 38.960207 1.276401 2.469120 0.015191 -0.008742 563581.000000 0 0 1
8.523381 23.357961 -29.997229 38.962496 1.220907 2.449481 0.015885 -0.011737 700966.000000 0 0 1
9.206781 22.160161 -29.676019 38.164167 1.177029 2.461618 0.019327 -0.015550 -851901.000000 0 0 1
10.544281 22.402861 -29.388289 38.428395 1.130889 2.441457 0.030883 -0.012171 -414368.000000 0 0 1
11.323481 21.064961 -29.219919 37.759204 1.077561 2.455692 0.033321 -0.017224 -298252.000000 0 0 1
11.516781 20.288361 -30.438549 38.350477 1.054500 2.487654 0.022433 -0.014406 369495.000000 0 0 1
10.370581 19.826461 -31.184369 38.381016 1.088865 2.519215 0.034566 -0.020318 180362.000000 0 0 1
10.531781 18.672261 -32.121409 38.618087 1.057243 2.553087 0.032141 -0.019277 -378869.000000 0 0 1
10.847481 17.387461 -31.593449 37.658168 1.013011 2.566154 0.025111 -0.018998 159457.000000 0 0 1
10.930581 16.268161 -32.513539 37.963942 0.979179 2.599115 0.016376 -0.010711 -426341.000000 0 0 1
12.016681 16.229061 -33.599199 39.200628 0.933440 2.600427 0.014132 0.004146 -376377.000000 0 0 1
11.794081 17.091561 34.573127 40.330174 0.966778 0.540887 0.020950 -0.001596 155334.000000 0 0 1
12.497081 16.591861 33.466934 39.389117 0.925247 0.555477 0.022500 -0.001548 73046.500000 0 0 1
11.626681 16.686861 32.191889 38.078193 0.962250 0.563454 0.034027 -0.005444 -383134.000000 0 0 1
11.863581 17.868061 31.486069 38.097043 0.984674 0.597988 0.036835 -0.004220 66295.800000 0 0 1
11.134781 17.994961 30.293389 36.952556 1.016688 0.609750 0.021476 -0.003595 1353870.000000 0 0 1
9.563781 18.223661 30.345099 36.665962 1.087506 0.595961 -0.001708 0.009337 1169510.000000 0 0 1
8.840081 17.098161 30.845709 36.358657 1.093626 0.557892 0.012982 0.008663 355666.000000 0 0 1
7.445881 17.368361 30.954779 36.267057 1.165793 0.548086 0.007009 0.009237 256551.000000 0 0 1
6.799781 16.425361 32.026139 36.629265 1.178296 0.506739 -0.006729 0.012206 -465622.000000 0 0 1
7.300381 16.682261 33.281736 37.937677 1.158291 0.500643 0.004135 0.008749 -8423.050000 0 0 1
7.022681 15.698261 34.228359 38.305796 1.150145 0.465593 0.017506 0.000087 -63602.000000 0 0 1
7.326981 16.173761 -33.570349 37.976881 1.145437 2.655078 0.023230 -0.007871 -31929.500000 0 0 1
6.216281 16.884061 -33.060709 37.639396 1.218023 2.643204 0.019462 -0.010249 216638.000000 0 0 1
6.189781 16.894061 -31.641429 36.399213 1.219597 2.624558 0.030832 -0.022098 195241.000000 0 0 1
5.150981 17.932761 -31.080699 36.250881 1.291088 2.600949 0.028240 -0.024583 -318614.000000 0 0 1
5.141281 17.919661 -29.677289 35.046947 1.291394 2.580711 0.039758 -0.036881 7305.810000 0 0 1
4.394281 18.984161 -29.139249 35.054299 1.343331 2.552167 0.039952 -0.037251 -383392.000000 0 0 1
2.886981 18.760061 -29.139639 34.776329 1.418104 2.564250 0.039336 -0.030868 -2102410.000000 0 0 1
2.368981 17.867061 -28.150609 33.426048 1.438976 2.572102 0.040463 -0.025361 965660.000000 0 0 1
0.943481 17.661461 -28.169439 33.261609 1.517427 2.580935 0.032660 -0.022421 1059270.000000 0 0 1
0.050881 18.903661 -28.049979 33.825320 1.568105 2.548578 0.025492 -0.027018 -1401590.000000 0 0 1
-0.073719 19.393161 -26.723979 33.019254 -1.566995 2.513833 0.018925 -0.022530 -436111.000000 0 0 1
-1.007519 20.408961 -26.662159 33.591837 -1.521470 2.487679 0.014060 -0.016100 -547328.000000 0 0 1
-1.170119 20.981961 -25.248939 32.849974 -1.515086 2.447468 0.006718 -0.015589 -181471.000000 0 0 1
-2.058619 20.193661 -24.516259 31.828742 -1.469203 2.450038 0.006678 -0.011791 -70339.100000 0 0 1
-2.425619 20.770461 -23.268859 31.284748 -1.454541 2.409499 0.015304 0.003759 -243395.000000 0 0 1
-3.381819 19.922661 -22.422059 30.184397 -1.402652 2.408093 0.016714 -0.008889 788180.000000 0 0 1
-4.743519 19.967761 -22.914159 30.761520 -1.337561 2.411177 0.021382 -0.006213 618139.000000 0 0 1
-5.453919 18.945361 -22.264259 29.738345 -1.290499 2.416853 0.011034 -0.007977 192228.000000 0 0 1
-6.953619 19.277361 -21.981059 30.052228 -1.224609 2.391211 0.033966 -0.001976 441894.000000 0 0 1
-7.292419 20.313461 -21.136659 30.208847 -1.226131 2.345752 0.019185 -0.014460 -73307.700000 0 0 1
-7.015619 21.644461 -21.618659 31.385793 -1.257352 2.330634 0.030660 -0.011896 -361959.000000 0 0 1
-7.267719 22.724561 -20.545559 31.485638 -1.261259 2.281725 0.027141 -0.014894 -261748.000000 0 0 1
-6.396819 22.826661 -19.467159 30.674843 -1.297570 2.258325 0.040103 -0.015737 -144685.000000 0 0 1
-6.924019 23.742961 -18.511059 30.892224 -1.287041 2.213316 0.036983 -0.020814 129863.000000 0 0 1
-5.983419 23.856061 -17.288259 30.063214 -1.325052 2.183478 0.026811 -0.013540 -195420.000000 0 0 1
-4.729719 24.356361 -17.623859 30.433583 -1.378995 2.188411 0.014238 -0.012975 -817894.000000 0 0 1
-3.885019 24.311561 -16.482859 29.628196 -1.412335 2.160751 0.013185 -0.013215 34318.000000 0 0 1
-2.490019 24.916361 -16.707159 30.102398 -1.471192 2.159172 0.011917 -0.005341 -232030.000000 0 0 1
-2.536019 26.328161 -16.836259 31.353836 -1.474769 2.137645 -0.008250 -0.005867 -889343.000000 0 0 1
-1.382719 26.877061 -17.342059 32.016173 -1.519396 2.143214 -0.015700 -0.001089 -975101.000000 0 0 1
-1.363519 28.407061 -17.125059 33.197710 -1.522834 2.112797 -0.028275 -0.017032 -363707.000000 0 0 1
-2.454519 29.018961 -17.770659 34.116288 -1.486414 2.118684 -0.027215 -0.018002 -26872.800000 0 0 1
-2.168419 29.531061 -19.067559 35.218708 -1.497499 2.142903 -0.027183 -0.008397 -376082.000000 0 0 1
-3.480319 29.851061 -19.800759 35.989839 -1.454731 2.153372 -0.011418 -0.013184 387471.000000 0 0 1
-4.202519 31.028061 -19.465359 36.868712 -1.436173 2.126998 -0.000611 -0.008628 439493.000000 0 0 1
-5.143819 30.937361 -18.386059 36.354179 -1.406038 2.101045 0.006328 -0.018677 250082.000000 0 0 1
-5.592719 32.295061 -17.820559 37.307128 -1.399321 2.068799 0.012393 -0.009357 14585.100000 0 0 1
-6.249919 33.067061 -18.815059 38.555135 -1.383993 2.080598 0.015368 -0.007176 -19293.200000 0 0 1
-6.781519 34.215061 -18.192559 39.339911 -1.375129 2.051548 0.015638 -0.011360 592752.000000 0 0 1
-7.752619 -34.347105 -19.200759 40.106057 1.348802 2.070026 0.021100 -0.008851 1095010.000000 0 0 1
-9.019419 34.367561 -19.249959 40.410891 -1.314144 2.067302 0.019942 -0.009398 -238232.000000 0 0 1
-9.897719 -34.303805 -20.072959 40.958998 1.289894 2.082971 0.031214 -0.012104 -66294.800000 0 0 1
28.607181 -20.924339 -26.662489 44.351855 -0.631514 2.215746 0.006326 0.008953 72904.400000 0 0 1
28.165081 -22.232939 -26.706459 44.730418 -0.668231 2.210620 0.026005 -0.011107 -646697.000000 0 0 1
26.846081 -22.324039 -26.241169 43.676924 -0.693689 2.215300 0.022926 -0.007005 -114065.000000 0 0 1
26.490781 -23.683039 -25.670269 43.836178 -0.729496 2.196411 0.010381 -0.002413 19481.800000 0 0 1
26.628081 -24.843239 -26.493099 45.034714 -0.750736 2.199729 0.005513 0.017748 -362818.000000 0 0 1
27.975881 -25.255479 -26.549499 46.101681 -0.734337 2.184489 0.010485 0.020786 -177642.000000 0 0 1
28.245481 -26.590879 -27.278799 47.423780 -0.755234 2.183661 0.016757 0.015835 -197775.000000 0 0 1
27.652981 -27.636709 -26.591739 47.282086 -0.785104 2.168089 0.026879 0.001678 -390830.000000 0 0 1
27.773581 -28.911359 -27.247869 48.473548 -0.805467 2.167741 0.022619 0.003403 759691.000000 0 0 1
26.563481 -29.279639 -28.192139 48.556281 -0.833999 2.190271 0.030134 -0.001564 79590.300000 0 0 1
26.504981 -28.517659 -29.400759 48.787042 -0.821961 2.217595 0.000648 0.002751 7001.410000 0 0 1
27.350481 -28.755149 -30.532689 50.071474 -0.810429 2.226582 -0.010238 0.011459 -330513.000000 0 0 1
27.467181 -30.219289 -31.084659 51.321608 -0.833070 2.221421 0.007301 0.015154 -1071350.000000 0 0 1
27.981181 -31.252849 -30.229949 51.706256 -0.840575 2.195242 0.015876 0.007897 251638.000000 0 0 1
29.268981 -31.155509 -29.626999 52.010557 -0.816609 2.176857 0.005166 0.006966 190866.000000 0 0 1
30.491781 -30.947609 -30.528379 53.098824 -0.792817 2.183321 -0.000835 0.000134 -801875.000000 0 0 1
30.475781 -29.735839 -31.221449 52.799358 -0.773110 2.203494 0.004386 -0.008531 -428855.000000 0 0 1
31.733681 -29.365649 -31.766999 53.651748 -0.746660 2.204454 -0.011550 -0.010421 200354.000000 0 0 1
31.809681 -27.945429 -32.355659 53.288755 -0.720820 2.223298 -0.015303 -0.003867 -139007.000000 0 0 1
31.891181 -26.837409 -31.447569 52.213442 -0.699557 2.217161 -0.028690 0.007247 -4475.160000 0 0 1
30.690181 -26.592239 -30.712949 50.914827 -0.713981 2.218331 -0.006753 0.011439 262217.000000 0 0 1
30.656481 -25.247789 -29.931099 49.730688 -0.688949 2.216629 -0.014729 0.011799 -397462.000000 0 0 1
31.401981 -25.115189 -28.764899 49.439625 -0.674617 2.191759 -0.016149 0.010364 -224341.000000 0 0 1
31.258981 -23.800439 -28.256029 48.394090 -0.650754 2.194288 -0.019498 0.015168 131696.000000 0 0 1
32.045781 -23.563239 -26.933829 48.037376 -0.634026 2.166009 -0.036939 0.019523 -17281.600000 0 0 1
31.599481 -24.336539 -25.834949 47.520931 -0.656277 2.145581 -0.024831 0.014293 415367.000000 0 0 1
30.685981 -23.676439 -24.926259 46.081684 -0.657165 2.142321 0.000274 0.009272 -87075.200000 0 0 1
31.253681 -22.563839 -24.051259 45.435476 -0.625311 2.128630 -0.005972 0.010447 -766434.000000 0 0 1
31.668981 -21.445539 -24.813859 45.591261 -0.595244 2.146312 -0.020187 0.012360 38637.400000 0 0 1
31.983281 -20.399439 -23.966059 44.871364 -0.567762 2.134246 -0.028256 0.004635 -499262.000000 0 0 1
32.106781 -19.078739 -24.743959 44.800750 -0.536164 2.155931 -0.032581 0.001639 -82608.600000 0 0 1
30.877281 -18.670139 -25.293569 44.065238 -0.543836 2.182182 -0.018114 -0.003302 79512.500000 0 0 1
31.022681 -17.480239 -25.999539 44.090152 -0.513123 2.201472 -0.021787 -0.007664 -173183.000000 0 0 1
30.061181 -17.376939 -27.179469 44.094854 -0.524125 2.234942 -0.028912 0.004622 -271066.000000 0 0 1
28.688981 -17.431539 -26.887129 43.009695 -0.545992 2.246109 -0.026516 0.002929 -136109.000000 0 0 1
27.878981 -17.393839 -28.073469 43.219242 -0.557812 2.277801 -0.027830 -0.003557 773313.000000 0 0 1
26.442781 -16.830139 -27.792759 41.891666 -0.566808 2.296208 -0.024782 0.000993 1472180.000000 0 0 1
25.501281 -17.603939 -26.970039 41.080372 -0.604197 2.286991 -0.006907 0.006437 776047.000000 0 0 1
25.888181 -17.680039 -25.645479 40.502744 -0.599183 2.256450 -0.003715 0.011091 -817753.000000 0 0 1
25.038081 -18.585339 -24.737959 39.803102 -0.638544 2.241463 0.013724 0.009921 -307421.000000 0 0 1
25.264281 -18.428939 -23.348559 39.026464 -0.630217 2.212143 0.020550 0.018113 -26638.300000 0 0 1
24.486181 -19.396039 -22.650959 38.585558 -0.669919 2.198184 0.028804 0.011368 35884.700000 0 0 1
24.255981 -18.962639 -21.174559 37.367047 -0.663527 2.173248 0.026429 0.007780 137883.000000 0 0 1
23.349081 -17.911839 -20.833959 36.056447 -0.654376 2.186845 0.017372 0.009307 169217.000000 0 0 1
23.539181 -16.631439 -21.464559 35.936403 -0.615104 2.210918 0.014531 0.009035 1169640.000000 0 0 1
24.882581 -15.878039 -20.998259 36.224050 -0.567977 2.189129 0.010917 0.006093 1352620.000000 0 0 1
24.766481 -15.197439 -19.770259 35.145467 -0.550381 2.168235 0.009621 0.003591 635220.000000 0 0 1
25.974281 -14.480239 -19.473859 35.546755 -0.508571 2.150574 -0.007218 0.009422 364954.000000 0 0 1
25.856181 -13.345539 -18.458959 34.458361 -0.476480 2.136120 -0.002625 0.004285 -411040.000000 0 0 1
25.935781 -13.833939 -17.138659 34.026111 -0.490003 2.098663 -0.010853 0.012654 205520.000000 0 0 1
25.579181 -12.869539 -16.172759 32.885828 -0.466145 2.084935 -0.012510 0.012452 -213716.000000 0 0 1
26.414981 -12.866439 -14.917059 32.951709 -0.453265 2.040581 -0.014734 0.013704 -315232.000000 0 0 1
26.068681 -14.018739 -14.116459 32.792920 -0.493399 2.015813 0.001937 0.005125 385166.000000 0 0 1
26.702681 -13.978839 -12.853059 32.766480 -0.482270 1.973886 0.005255 0.001839 -139841.000000 0 0 1
26.512781 -15.265439 -12.027859 32.872946 -0.522418 1.945384 0.001514 -0.007126 355705.000000 0 0 1
25.138081 -15.429439 -11.692559 31.728641 -0.550496 1.948210 -0.003584 -0.012309 509920.000000 0 0 1
24.920281 -16.679139 -11.095759 31.973895 -0.589823 1.925194 -0.003219 -0.010460 -616335.000000 0 0 1
23.481681 -16.936639 -10.665059 30.854215 -0.624859 1.923738 -0.000547 -0.010306 -682301.000000 0 0 1
23.053281 -16.233739 -9.572259 29.776101 -0.613528 1.898083 -0.000793 -0.008933 -987710.000000 0 0 1
21.678181 -16.216839 -9.513659 28.695629 -0.642266 1.908728 0.003300 -0.007955 -1454320.000000 0 0 1
21.263981 -15.954439 -8.097559 27.789773 -0.643695 1.866472 0.002383 -0.009745 -511074.000000 0 0 1
21.427881 -14.592539 -7.708459 27.046564 -0.597865 1.859810 0.001756 -0.000606 397930.000000 0 0 1
21.087781 -14.226839 -6.384759 26.227135 -0.593508 1.816708 -0.006689 0.008263 -333456.000000 0 0 1
21.892281 -14.954839 -5.261859 27.029731 -0.599300 1.766717 -0.009904 0.009123 470861.000000 0 0 1
23.227781 -14.473439 -5.090159 27.837384 -0.557238 1.754684 -0.005507 0.002553 598790.000000 0 0 1
23.930181 -15.153839 -4.092759 28.618929 -0.564511 1.714297 -0.016804 -0.008149 -1263400.000000 0 0 1
25.418581 -14.980239 -4.236059 29.806979 -0.532546 1.713395 -0.019197 -0.006177 -1172320.000000 0 0 1
25.831781 -13.748539 -3.673759 29.492368 -0.489101 1.695687 -0.013823 0.000012 -518205.000000 0 0 1
27.038381 -13.258939 -4.134159 30.396789 -0.455918 1.707226 -0.018396 -0.005508 -1214970.000000 0 0 1
27.596481 -12.094939 -3.334359 30.314539 -0.413064 1.681011 0.013345 -0.011387 -1612630.000000 0 0 1
28.161881 -12.518939 -2.127459 30.892418 -0.418300 1.639718 0.018927 -0.011306 182444.000000 0 0 1
28.868281 -11.544239 -1.418459 31.123289 -0.380415 1.616388 0.017390 -0.002468 270131.000000 0 0 1
30.288781 -11.196839 -1.953359 32.351122 -0.354089 1.631213 0.017087 0.001107 -612186.000000 0 0 1
30.264881 -10.663539 -3.241559 32.251850 -0.338758 1.671474 0.018306 0.002294 -707180.000000 0 0 1
31.291881 -11.057539 -4.080259 33.437995 -0.339672 1.693126 0.029217 0.003330 -927440.000000 0 0 1
31.199581 -10.848139 -5.559659 33.496355 -0.334626 1.737546 0.021606 0.001370 -339649.000000 0 0 1
30.200281 -11.629539 -6.164859 32.944023 -0.367579 1.759037 0.008315 -0.009925 71671.900000 0 0 1
30.200281 -11.502139 -7.594459 33.196867 -0.363900 1.801611 -0.002059 -0.001908 362574.000000 0 0 1
28.946881 -12.243439 -8.174359 32.475281 -0.400143 1.825243 -0.008540 -0.004113 454530.000000 0 0 1
28.797181 -13.564839 -7.781259 32.769353 -0.440218 1.810542 -0.007251 -0.011248 -234514.000000 0 0 1
27.780281 -14.223539 -8.476059 32.340325 -0.473202 1.835983 -0.005708 -0.011518 -379035.000000 0 0 1
27.802181 -15.768539 -8.327659 33.029653 -0.515929 1.825674 -0.001069 -0.020340 -373769.000000 0 0 1
28.874281 -16.383539 -8.992559 34.394921 -0.516111 1.835321 0.003300 -0.024728 131454.000000 0 0 1
28.604681 -17.795539 -9.277959 34.942660 -0.556525 1.839539 0.001621 -0.024791 -229756.000000 0 0 1
28.610481 -18.188439 -10.762459 35.569783 -0.566276 1.878187 -0.003497 -0.031679 -288248.000000 0 0 1
29.872181 -18.128539 -11.397359 36.754468 -0.545456 1.886089 0.000267 -0.017428 180157.000000 0 0 1
29.987881 -18.506339 -12.733759 37.468736 -0.552918 1.917554 -0.005797 0.002439 -280743.000000 0 0 1
29.156181 -17.698739 -13.754559 36.776571 -0.545574 1.954118 -0.004867 -0.006959 8817.610000 0 0 1
29.784281 -16.478739 -14.174859 36.872468 -0.505350 1.965386 -0.008169 0.003182 627916.000000 0 0 1
28.999081 -15.811839 -15.197959 36.358478 -0.499191 2.002042 -0.009518 0.004278 -584456.000000 0 0 1
29.752081 -14.718239 -15.990959 36.844588 -0.459396 2.019737 -0.023211 0.018390 580693.000000 0 0 1
30.812381 -15.151739 -16.864659 38.254343 -0.457019 2.027349 -0.024619 0.009339 175490.000000 0 0 1
31.999881 -15.419439 -16.186259 39.035195 -0.449030 1.998363 -0.011254 0.007684 -1450750.000000 0 0 1
33.095981 -15.735539 -17.213059 40.487536 -0.443817 2.009918 -0.001126 0.006415 -1104840.000000 0 0 1
34.392981 -15.760939 -16.722459 41.363329 -0.429702 1.986990 0.003772 0.005786 -686662.000000 0 0 1
-34.610939 -16.345439 -17.668459 42.157620 0.441212 2.003255 0.005538 0.007501 -576322.000000 0 0 1
-33.143539 -16.276939 -17.252459 40.756352 0.456506 2.007889 0.012907 0.007891 -585085.000000 0 0 1
-32.802539 -17.184239 -16.207059 40.422436 0.482560 1.983341 0.005382 -0.000087 100985.000000 0 0 1
-33.125139 -16.697539 -14.915459 39.981915 0.466902 1.953096 0.013461 -0.008545 -587138.000000 0 0 1
-32.503139 -17.447939 -13.738059 39.365199 0.492658 1.927289 0.015788 -0.013949 -79906.200000 0 0 1
-31.194739 -17.060639 -13.352959 37.979977 0.500466 1.930053 0.015590 -0.015699 113063.000000 0 0 1
-30.874539 -17.515139 -12.056859 37.488466 0.516029 1.898231 0.010858 -0.008259 -726496.000000 0 0 1
-29.416939 -17.290839 -11.692059 36.069844 0.531390 1.900910 0.013763 -0.006509 -688761.000000 0 0 1
-29.166639 -15.879539 -11.438259 35.123871 0.498566 1.902501 0.010129 -0.014314 183760.000000 0 0 1
-27.993639 -15.565839 -10.701659 33.770766 0.507476 1.893246 0.019836 -0.019362 91352.900000 0 0 1
-27.940239 -15.837139 -9.160859 33.397504 0.515666 1.848656 0.012874 -0.007815 -123025.000000 0 0 1
-27.924139 -17.198439 -8.848559 33.968233 0.552028 1.834331 0.001787 -0.004769 13286.200000 0 0 1
-28.113939 -17.410839 -7.482759 33.904610 0.554487 1.793329 0.008677 0.002299 -283312.000000 0 0 1
-28.179339 -18.898339 -7.095759 34.663701 0.590752 1.776956 -0.002857 0.000120 231194.000000 0 0 1
-29.354939 -19.646439 -7.444459 36.098684 0.589804 1.778512 -0.010762 0.000902 -22562.700000 0 0 1
-29.392039 -19.924239 -8.809759 36.585231 0.595725 1.813987 -0.010208 0.003245 -4396.550000 0 0 1
-30.617639 -20.674439 -9.386159 38.117873 0.593919 1.819596 -0.011481 0.004948 683082.000000 0 0 1
-31.813439 -19.899839 -9.485359 38.704916 0.558971 1.818387 -0.015293 0.001082 133314.000000 0 0 1
-32.903939 -20.683639 -9.830659 40.088951 0.561189 1.818544 -0.011676 -0.004684 -880233.000000 0 0 1
-34.236639 -20.070439 -10.180559 40.970889 0.530231 1.821910 0.005585 -0.014176 -620027.000000 0 0 1
-34.328839 -19.540939 -11.475559 41.134000 0.517486 1.853528 -0.000346 -0.016469 268975.000000 0 0 1
34.197481 -19.142739 -11.673359 40.892291 -0.510314 1.860289 0.012424 -0.024192 251630.000000 0 0 1
33.831381 -18.858739 -13.123459 40.895471 -0.508532 1.897479 -0.006070 -0.010321 -213368.000000 0 0 1
33.883181 -19.973239 -13.957259 41.734941 -0.532644 1.911793 -0.009898 -0.004136 -124667.000000 0 0 1
33.205381 -19.847539 -15.147459 41.544767 -0.538742 1.944006 -0.011326 0.001460 106868.000000 0 0 1
32.060881 -20.827239 -15.445859 41.234070 -0.576105 1.954751 -0.009979 -0.003645 159041.000000 0 0 1
30.938481 -20.905239 -14.560759 40.077853 -0.594233 1.942617 0.007377 -0.008806 755212.000000 0 0 1
29.786581 -21.616639 -14.959959 39.728074 -0.627778 1.956875 0.016892 -0.005871 545162.000000 0 0 1
29.047481 -21.126939 -16.235659 39.417006 -0.628830 1.995329 0.022443 -0.006149 -807494.000000 0 0 1
28.394081 -19.875339 -16.068259 38.202642 -0.610714 2.004909 0.003172 -0.001155 455183.000000 0 0 1
27.660581 -19.571939 -17.267359 38.030648 -0.615792 2.042089 0.008221 -0.004513 437530.000000 0 0 1
26.871381 -18.217939 -17.215059 36.746737 -0.595786 2.058364 0.008380 -0.002046 -1151.930000 0 0 1
25.811481 -18.127239 -16.310059 35.508413 -0.612264 2.048036 0.002304 -0.003351 -3439.740000 0 0 1
25.237981 -16.843039 -16.250859 34.419966 -0.588488 2.062507 -0.005298 0.009462 167980.000000 0 0 1
23.869481 -16.693239 -15.428559 32.961444 -0.610293 2.057912 -0.015813 0.006170 2066480.000000 0 0 1
22.659981 -17.065139 -16.111059 32.622997 -0.645480 2.087315 -0.007150 0.003268 864147.000000 0 0 1
22.404981 -16.404239 -17.369359 32.753272 -0.631991 2.129761 0.005451 0.013403 -643422.000000 0 0 1
21.403581 -17.165239 -18.335559 32.999264 -0.675947 2.159923 0.014617 0.009332 600.871000 0 0 1
20.076781 -17.178639 -17.925859 31.929911 -0.707763 2.166888 0.012941 0.011802 -896412.000000 0 0 1
19.290281 -17.719839 -18.971159 32.342117 -0.742991 2.197623 0.009885 0.002122 -85502.700000 0 0 1
17.819281 -18.012139 -18.664259 31.469326 -0.790780 2.205692 0.009685 0.010017 -268271.000000 0 0 1
17.007281 -16.902439 -18.413559 30.232420 -0.782306 2.225680 0.003899 0.015673 1079470.000000 0 0 1
15.635881 -17.340439 -18.190559 29.598446 -0.837043 2.232647 0.003308 0.013255 1231660.000000 0 0 1
14.656481 -16.191139 -17.940659 28.263628 -0.835107 2.258496 0.008974 0.015334 -172704.000000 0 0 1
14.123381 -15.496339 -19.045659 28.325669 -0.831718 2.308218 0.005952 0.016902 -242684.000000 0 0 1
12.994281 -14.765239 -18.689659 27.132397 -0.849108 2.330673 0.003177 0.010478 -203808.000000 0 0 1
12.281081 -14.136839 -19.929559 27.347074 -0.855529 2.387311 0.009802 0.008864 -102549.000000 0 0 1
12.865081 -12.986339 -20.401459 27.392970 -0.790089 2.410986 0.010557 0.004623 7020.440000 0 0 1
12.106281 -12.529239 -21.512059 27.682351 -0.802565 2.460847 0.005885 0.000011 238866.000000 0 0 1
12.514281 -11.076039 -21.994959 27.623614 -0.724506 2.491847 0.012923 0.000135 -663041.000000 0 0 1
13.655581 -11.020239 -22.777359 28.752889 -0.679003 2.485163 0.018050 0.002776 -679232.000000 0 0 1
13.960981 -9.707839 -23.137159 28.713747 -0.607602 2.507799 0.019276 0.002315 -80803.500000 0 0 1
15.115381 -9.536039 -24.136959 30.033374 -0.562819 2.504235 0.023936 0.001653 68871.800000 0 0 1
14.894381 -9.909139 -25.464039 31.119944 -0.587052 2.529165 0.027201 -0.002065 153343.000000 0 0 1
16.147781 -9.999739 -26.118529 32.294321 -0.554464 2.512846 0.037546 -0.004726 31456.400000 0 0 1
21.604781 5.084361 -7.283659 23.359559 0.231129 1.887890 0.007021 0.030116 -348104.000000 0 1 0
21.454281 6.475061 -7.328659 23.577995 0.293114 1.886859 -0.012578 0.023038 1068530.000000 0 1 0
20.748881 7.062261 -6.195759 22.776721 0.328069 1.846289 -0.021848 0.020670 -38333.500000 0 1 0
20.717981 8.606261 -6.326459 23.309366 0.393712 1.845657 -0.027376 0.019666 -627322.000000 0 1 0
19.755581 9.110661 -7.213759 22.919979 0.432103 1.890976 -0.035278 0.020954 348157.000000 0 1 0
19.940481 10.483161 -7.482559 23.738326 0.484013 1.891474 -0.002854 0.023291 -107811.000000 0 1 0
19.287981 11.449961 -6.474959 23.346368 0.535724 1.851824 -0.000586 0.018658 107250.000000 0 1 0
20.172681 11.611761 -5.375159 23.888541 0.522299 1.797750 0.001444 0.017841 383236.000000 0 1 0
19.671081 12.536961 -4.452459 23.747657 0.567416 1.759403 0.010490 0.013709 -117976.000000 0 1 0
20.546781 12.773561 -3.229059 24.408214 0.556210 1.703479 0.005235 0.000525 -391683.000000 0 1 0
21.851181 13.284561 -3.410159 25.798893 0.546249 1.703367 0.011831 -0.007103 663866.000000 0 0 1
22.514381 13.565061 -2.151259 26.373019 0.542260 1.652457 0.016986 -0.013778 -106068.000000 0 0 1
23.287981 12.401461 -1.559059 26.430228 0.489329 1.629818 0.004253 -0.010661 -316593.000000 0 0 1
24.506381 12.061961 -2.242059 27.405847 0.457386 1.652697 0.005265 -0.003490 896343.000000 0 0 1
25.219781 11.018961 -1.605959 27.568714 0.411921 1.629082 0.011787 -0.006343 -145921.000000 0 0 1
26.629181 10.759661 -2.175259 28.803044 0.383997 1.646390 0.017394 -0.001239 715.648000 0 0 1
27.510581 11.787861 -1.742859 29.980382 0.404818 1.628962 0.016101 -0.008429 -309728.000000 0 0 1
28.826181 11.480361 -2.088359 31.098371 0.379007 1.638000 0.020917 -0.004315 -496452.000000 0 0 1
29.905381 12.509261 -1.745659 32.463222 0.396177 1.624596 0.012303 0.005173 -817041.000000 0 0 1
30.003781 12.783561 -0.355859 32.615532 0.402772 1.581707 0.011876 0.002783 618797.000000 0 0 1
30.765781 13.979761 -0.059259 33.793054 0.426501 1.572550 0.015203 0.000634 906833.000000 0 0 1
32.292081 13.985061 -0.406259 35.192691 0.408695 1.582340 0.028714 -0.009574 -205565.000000 0 0 1
32.990781 15.109361 0.075041 36.286224 0.429476 1.568728 0.023383 -0.005850 461920.000000 0 0 1
33.800781 15.667461 -1.014259 37.269168 0.434043 1.598014 0.019766 0.002602 138535.000000 0 0 1
33.088881 16.624461 -2.001359 37.084393 0.465580 1.624790 -0.014002 0.024645 -176379.000000 0 0 1
32.152381 15.930561 -2.781659 35.990221 0.460018 1.648163 -0.001524 0.021798 -358780.000000 0 0 1
31.321481 16.817461 -3.505759 35.723277 0.492754 1.669091 -0.017772 0.036239 615169.000000 0 0 1
30.010681 16.125161 -4.038659 34.307034 0.493051 1.688791 0.007355 0.016668 -234985.000000 0 0 1
30.178081 15.193261 -5.110659 34.171195 0.466407 1.720920 0.002395 0.017744 1259170.000000 0 0 1
28.978081 14.878761 -5.890559 33.102952 0.474349 1.749696 0.013547 -0.003769 810737.000000 0 0 1
27.835081 14.216161 -5.125559 31.672738 0.472193 1.733340 0.014541 -0.006489 -1187340.000000 0 0 1
26.679981 14.067761 -5.874559 30.728386 0.485231 1.763157 0.022340 -0.014146 153779.000000 0 0 1
25.595281 13.524561 -5.116859 29.397524 0.486109 1.745745 0.013415 -0.002294 950220.000000 0 0 1
24.255181 13.254961 -5.871559 28.257442 0.500136 1.780109 0.008228 -0.001573 335627.000000 0 0 1
24.466381 12.105461 -6.708559 28.109620 0.459462 1.811779 0.007797 0.006328 61560.400000 0 0 1
23.474581 11.812961 -7.645859 27.368982 0.466223 1.853926 0.008090 0.000070 -635750.000000 0 0 1
23.239281 12.810761 -8.833059 27.967887 0.503806 1.892126 0.006895 0.001996 -338133.000000 0 0 1
22.624181 14.035461 -8.552259 27.964064 0.555266 1.881607 -0.000836 -0.006462 71153.000000 0 0 1
22.427381 14.763861 -9.681359 28.542735 0.582185 1.916850 0.006509 -0.009514 -1207650.000000 0 0 1
21.461181 15.969561 -9.566659 28.410036 0.639723 1.914244 0.010015 -0.012252 600339.000000 0 0 1
20.118881 15.533361 -9.325359 27.074287 0.657482 1.922434 -0.009758 -0.001808 531593.000000 0 0 1
19.894781 15.293461 -7.963559 26.326993 0.655373 1.878097 -0.010009 -0.005760 -857902.000000 0 0 1
18.466981 14.776861 -7.648759 24.857364 0.674849 1.883577 -0.009312 -0.004646 -240200.000000 0 1 0
17.451481 15.750561 -7.949059 24.815759 0.734214 1.896867 -0.005977 -0.004228 810819.000000 0 1 0
16.178781 15.147761 -7.685559 23.457950 0.752498 1.904592 0.008750 -0.007322 380440.000000 0 1 0
15.696981 15.292461 -6.210759 22.777799 0.772345 1.846961 0.017484 -0.003194 -664967.000000 0 1 0
16.330681 14.487161 -5.219659 22.445797 0.725649 1.805490 0.021857 -0.005241 461207.000000 0 1 0
15.759481 14.885361 -4.022459 22.048025 0.756882 1.754265 0.009496 0.005754 -253552.000000 0 1 0
15.715481 13.794261 -2.980759 21.122095 0.720385 1.712389 0.011213 0.009258 -856219.000000 0 1 0
16.969181 13.380861 -2.523159 21.756996 0.667713 1.687028 0.022964 0.012025 51883.800000 0 1 0
16.874581 12.465461 -1.419659 21.027473 0.636238 1.638362 0.017665 0.007091 -91088.600000 0 1 0
16.867081 13.244961 -0.094059 21.446125 0.665685 1.575182 0.025626 0.004485 -679897.000000 0 1 0
15.733781 14.039161 0.066441 21.086828 0.728541 1.567645 0.012966 0.000741 65475.400000 0 1 0
15.914781 14.924561 1.176741 21.849657 0.753300 1.516914 0.019855 0.004173 -592003.000000 0 1 0
14.664081 15.749361 1.486341 21.570509 0.821067 1.501836 0.009915 0.002623 -434553.000000 0 1 0
14.345281 16.766461 0.523341 22.072046 0.863064 1.547084 0.010658 0.004123 142548.000000 0 1 0
13.276181 17.540061 1.012741 22.021271 0.922890 1.524791 0.000602 -0.000875 -106679.000000 0 1 0
13.289781 19.041161 0.683841 23.230405 0.961447 1.541355 -0.004652 0.003848 -502847.000000 0 1 0
13.245381 19.356461 -0.661259 23.463801 0.970694 1.598982 0.015085 0.013378 141443.000000 0 1 0
12.566581 20.591561 -0.844859 24.138043 1.022854 1.605805 0.000218 0.012570 397537.000000 0 1 0
11.023581 20.530861 -0.959659 23.322876 1.078045 1.611955 -0.004065 0.004266 -121572.000000 0 1 0
10.346681 20.449461 0.262341 22.919492 1.102389 1.559350 -0.008195 -0.005438 -1006830.000000 0 1 0
8.999081 20.190961 0.030241 22.105639 1.151525 1.569428 -0.000682 -0.006573 -431235.000000 0 1 0
8.202981 20.207361 1.353141 21.850797 1.185180 1.508830 0.003491 -0.009007 -270054.000000 0 1 0
8.067081 21.453461 2.025341 23.009363 1.211126 1.482660 0.001924 -0.003093 -43332.400000 0 1 0
7.278481 21.355461 3.206041 22.788390 1.242318 1.429641 -0.003870 -0.005098 -205455.000000 0 1 0
6.649681 22.662961 3.729341 23.911003 1.285391 1.414189 -0.011036 -0.002758 -22896.800000 0 1 0
7.520581 23.659361 4.270241 25.190464 1.263027 1.400456 -0.015472 0.005394 482635.000000 0 0 1
6.777581 24.761261 4.839241 26.124202 1.303623 1.384480 -0.025435 0.005709 -161587.000000 0 0 1
7.385781 25.223261 6.158041 26.994150 1.285943 1.340645 -0.030950 0.006887 -151627.000000 0 0 1
7.066681 24.378161 7.234741 26.392692 1.288652 1.293123 -0.019898 -0.004574 -177183.000000 0 0 1
7.911681 24.775961 8.242241 27.283282 1.261702 1.263903 -0.008455 0.006034 -331843.000000 0 0 1
7.679381 23.858461 9.437741 26.781897 1.259396 1.210670 -0.003398 -0.002618 853573.000000 0 0 1
6.512681 24.201061 10.233041 27.070676 1.307917 1.183148 -0.006910 0.000472 879192.000000 0 0 1
6.164781 23.175061 11.153141 26.447694 1.310808 1.135471 -0.020944 -0.002619 362040.000000 0 0 1
4.734081 23.308061 11.763641 26.534138 1.370413 1.111475 -0.010712 -0.005869 -316357.000000 0 0 1
3.730481 23.162361 10.853541 25.849774 1.411110 1.137494 -0.016067 -0.008442 -994223.000000 0 0 1
2.487181 23.424061 11.475141 26.202129 1.465012 1.117483 -0.023209 -0.009415 553995.000000 0 0 1
1.379981 23.836661 10.423841 26.052778 1.512968 1.159165 0.004158 -0.010491 35953.700000 0 0 1
1.611981 25.025661 9.708741 26.891297 1.506472 1.201417 0.009786 -0.006278 -33173.300000 0 0 1
0.683881 25.292561 8.677741 26.748543 1.543764 1.240399 -0.002919 -0.003491 -51771.800000 0 0 1
-0.552419 26.142661 9.034441 27.665231 -1.549669 1.238131 0.008762 -0.011514 -143710.000000 0 0 1
-1.482819 25.456661 9.801041 27.318506 -1.512613 1.203847 0.005886 -0.006289 -413970.000000 0 0 1
-2.814119 25.780161 9.480841 27.611996 -1.462069 1.220305 0.015201 -0.009625 29429.600000 0 0 1
-3.927319 24.874361 10.096841 27.131234 -1.414203 1.189474 0.031832 -0.014951 326459.000000 0 0 1
-4.266819 25.140361 11.433741 27.945911 -1.402678 1.149287 0.013524 -0.011161 686555.000000 0 0 1
-5.423519 26.000461 11.549141 28.962410 -1.365152 1.160629 0.022309 -0.007361 423457.000000 0 0 1
-5.766819 26.174561 13.033341 29.803219 -1.353939 1.118187 0.001490 0.003993 -228585.000000 0 0 1
-6.668819 25.138261 13.448741 29.279241 -1.311484 1.093559 0.003785 -0.010585 312925.000000 0 0 1
-6.895119 25.260961 14.829741 30.092857 -1.304332 1.055492 -0.011345 0.016452 -691995.000000 0 0 1
-8.031019 24.423561 15.349141 29.943342 -1.253111 1.032579 -0.007530 0.006959 -611581.000000 0 0 1
-9.324219 24.843561 14.983941 30.473957 -1.211747 1.056759 -0.015134 0.013128 -167568.000000 0 0 1
-10.315819 23.899961 15.338741 30.214256 -1.163328 1.038323 -0.006528 0.009606 134692.000000 0 0 1
-11.728719 24.404061 14.982041 30.944832 -1.122785 1.065401 -0.004542 0.000629 -94905.900000 0 0 1
-12.222719 25.417461 15.823141 32.339047 -1.122562 1.059522 0.003799 0.002290 155448.000000 0 0 1
-13.639219 25.490761 15.842441 32.966500 -1.079492 1.069501 -0.000598 -0.003874 -24418.000000 0 0 1
-14.136819 26.686961 16.664241 34.492615 -1.083650 1.066576 0.010725 -0.003884 -241609.000000 0 0 1
-15.367119 26.455261 17.309841 35.151953 -1.044560 1.055918 0.020570 -0.014008 -45671.800000 0 0 1
-15.437119 27.357161 18.381041 36.394802 -1.057055 1.041361 0.027529 -0.010244 -166071.000000 0 0 1
-16.678919 27.125761 19.247441 37.208295 -1.019512 1.027116 0.025459 -0.015797 939361.000000 0 0 1
-17.905419 27.336161 18.532441 37.567554 -0.990908 1.054906 0.023836 -0.009528 1152790.000000 0 0 1
-19.093719 26.636961 18.895041 37.830152 -0.948875 1.047809 0.018864 -0.013898 660746.000000 0 0 1
-20.308919 26.805261 17.989741 38.139284 -0.922419 1.079595 0.020671 -0.008747 -114598.000000 0 0 1
-20.938619 28.071261 18.080841 39.412413 -0.929918 1.094197 0.014042 -0.008586 -29597.800000 0 0 1
-21.862919 28.330061 17.078741 39.651772 -0.913538 1.125508 0.004217 -0.010785 -509972.000000 0 0 1
-22.554119 29.738461 17.093041 41.051631 -0.921931 1.141337 -0.002053 -0.002144 -701515.000000 0 0 1
-23.726419 29.598561 17.813541 41.908711 -0.895076 1.131773 -0.013254 -0.001482 -981667.000000 0 0 1
-24.557819 30.687161 17.552041 43.044889 -0.895895 1.150795 -0.024277 0.010530 -195525.000000 0 0 1
-25.859079 30.685261 18.390941 44.141861 -0.870544 1.141058 -0.025003 0.012410 -329382.000000 0 0 1
-26.726189 29.696261 17.966141 43.805700 -0.837990 1.148197 -0.015358 0.014809 125557.000000 0 0 1
-28.017139 29.776861 18.587141 44.912174 -0.815837 1.144111 -0.002687 -0.001971 706198.000000 0 0 1
-28.418799 28.480261 19.399841 44.666623 -0.786478 1.121507 -0.000161 -0.003189 -380842.000000 0 0 1
-28.673949 27.345261 18.614541 43.777389 -0.761684 1.131604 -0.009124 -0.000473 -26649.600000 0 0 1
-28.853439 26.250761 19.483241 43.602982 -0.738201 1.107574 -0.010394 0.000659 -91297.500000 0 0 1
-28.901199 24.912261 18.772641 42.524253 -0.711408 1.113574 0.003583 -0.000075 -127743.000000 0 0 1
-29.908639 24.634661 17.818441 42.648447 -0.689004 1.139776 0.007113 -0.000398 -46145.200000 0 0 1
-29.593649 23.550561 16.937341 41.440156 -0.672173 1.149747 0.004183 0.005777 -196220.000000 0 0 1
-30.082099 22.132961 17.385141 41.195191 -0.634320 1.135125 0.000108 0.007437 215089.000000 0 0 1
-31.440479 21.816261 17.160541 41.939684 -0.606614 1.149250 0.004759 0.014114 -44750.400000 0 0 1
-31.612709 20.422161 17.073041 41.326950 -0.573566 1.144918 -0.003617 0.018502 159335.000000 0 0 1
-32.891309 19.965361 16.330941 41.798965 -0.545558 1.169402 0.001712 0.007770 -165532.000000 0 0 1
-32.950929 20.293961 14.949341 41.486038 -0.552017 1.202157 0.003070 0.002437 507824.000000 0 0 1
-34.168887 19.841761 14.339441 42.033652 -0.526105 1.222665 0.011520 -0.000706 760048.000000 0 0 1
-34.417178 20.227361 12.857141 41.940367 -0.531335 1.259222 0.024837 -0.000738 -113233.000000 0 0 1
-34.406658 21.644861 12.635541 42.567300 -0.561535 1.269418 0.012852 -0.003302 150755.000000 0 0 1
-34.208957 22.061061 11.274841 42.238196 -0.572776 1.300585 0.007930 -0.005135 -790997.000000 0 0 1
-33.023619 21.647961 10.424741 40.839550 -0.580253 1.312679 0.022667 -0.007012 -879294.000000 0 0 1
-33.122689 20.402961 9.696941 40.092693 -0.552088 1.326511 0.027993 -0.002766 228912.000000 0 0 1
-31.840459 20.224361 9.135241 38.810981 -0.565885 1.333189 0.051950 -0.005113 232904.000000 0 0 1
-31.003619 19.107961 9.829041 37.721991 -0.552329 1.307189 0.042237 -0.013700 -47644.900000 0 0 1
-30.651909 19.370261 11.175341 37.942519 -0.563577 1.271829 0.038073 -0.004721 235540.000000 0 0 1
-29.818719 18.436361 11.812241 36.994384 -0.553753 1.245807 0.021013 0.004811 76796.800000 0 0 1
-29.545689 18.784861 13.306241 37.454970 -0.566321 1.207604 0.012449 0.002689 235419.000000 0 0 1
-28.646959 19.884861 13.573341 37.420470 -0.606779 1.199606 0.006107 0.012569 170971.000000 0 0 1
-29.135079 21.186161 13.533941 38.482123 -0.628729 1.211416 -0.001080 0.020038 -598367.000000 0 0 1
-27.969979 22.125061 13.723941 38.212362 -0.669247 1.203440 -0.000528 0.015889 -297341.000000 0 0 1
-27.387549 21.916661 14.999341 38.149680 -0.674888 1.166719 0.009554 0.017403 -156666.000000 0 0 1
-26.259939 22.775261 15.127441 37.909582 -0.714453 1.160327 0.013290 0.004339 -184262.000000 0 0 1
-25.720319 22.576061 16.590041 38.032129 -0.720387 1.119412 0.026305 0.001764 -462674.000000 0 0 1
-25.090509 21.343061 16.911641 37.027875 -0.704867 1.096483 0.040452 -0.002046 208187.000000 0 0 1
-24.870419 21.116661 18.285441 37.400648 -0.703952 1.059960 0.041167 -0.003449 376621.000000 0 0 1
-23.868619 19.924461 18.595841 36.228448 -0.695577 1.031778 0.031026 0.002757 567210.000000 0 0 1
-23.436419 19.883161 19.928441 36.629887 -0.703557 0.995541 0.016899 0.001951 342654.000000 0 0 1
-22.365519 18.954561 20.063241 35.524998 -0.703035 0.970649 0.013926 0.009409 429100.000000 0 0 1
-21.619919 18.710761 21.386541 35.705709 -0.713390 0.928586 0.021853 0.002530 -108859.000000 0 0 1
-22.437819 18.072861 22.324841 36.448355 -0.678064 0.911569 0.034929 0.009898 94694.900000 0 0 1
-22.039119 18.272861 23.692741 37.161354 -0.692241 0.879464 0.047958 0.001208 -386495.000000 0 0 1
-22.800819 17.417361 24.669241 37.839309 -0.652333 0.860646 0.038773 0.010392 -265203.000000 0 0 1
-22.328619 16.082361 24.785341 37.034075 -0.624193 0.837587 0.048477 -0.007795 13188.300000 0 0 1
-23.312119 15.266561 25.364941 37.681601 -0.579796 0.832352 0.040981 -0.015353 72682.300000 0 0 1
20.021781 24.996061 33.724148 46.507988 0.895447 0.759579 0.003655 0.009890 170815.000000 0 0 1
19.807081 23.955661 32.796409 45.186266 0.879913 0.758593 -0.005043 0.001736 -138241.000000 0 0 1
19.752781 22.696261 33.423345 44.971242 0.854629 0.732932 0.010570 -0.000795 111530.000000 0 0 1
18.953381 21.649461 32.565039 43.455858 0.851702 0.723668 0.028189 -0.001742 147553.000000 0 0 1
19.642981 21.132561 31.457239 42.684772 0.821913 0.742225 0.019946 -0.005392 -85315.300000 0 0 1
18.920281 20.036861 30.960089 41.448522 0.814052 0.727329 0.025410 -0.005480 -191553.000000 0 0 1
19.504381 19.538661 29.667479 40.525788 0.786276 0.749449 0.024828 0.003495 -345571.000000 0 0 1
20.752381 18.902161 29.770379 40.917337 0.738774 0.756018 0.026464 0.002094 -390112.000000 0 0 1
21.100281 18.416961 28.487519 39.949281 0.717600 0.776897 0.020409 -0.006115 -411607.000000 0 0 1
22.322181 17.486961 28.502349 40.205192 0.664530 0.782828 0.031127 0.008328 1114700.000000 0 0 1
23.515581 18.242061 28.909189 41.490921 0.659774 0.799927 0.032935 0.003980 798462.000000 0 0 1
24.298881 17.449961 29.811099 42.233143 0.622796 0.787146 0.032334 0.010259 -268947.000000 0 0 1
25.613681 18.185161 30.111419 43.513886 0.617392 0.806547 0.011996 0.004869 -399443.000000 0 0 1
26.527681 17.980061 29.057559 43.259013 0.595660 0.834280 0.015988 0.014620 1381530.000000 0 0 1
27.811881 18.681561 29.244209 44.471623 0.591487 0.853178 -0.001985 0.012494 1656590.000000 0 0 1
28.859381 18.288061 28.209779 44.306982 0.564828 0.880599 0.003850 0.027754 -323469.000000 0 0 1
28.518981 18.884461 26.955739 43.549593 0.584884 0.903370 -0.005763 0.011317 557197.000000 0 0 1
29.592181 18.692761 26.034269 43.622238 0.563388 0.931274 0.000812 0.012802 -321590.000000 0 0 1
29.999981 19.999061 25.267019 44.027078 0.587981 0.959539 -0.007758 0.003050 117447.000000 0 0 1
28.926181 20.628761 24.561319 43.191760 0.619498 0.965923 -0.001436 -0.008160 631083.000000 0 0 1
29.449681 21.525661 23.594759 43.443647 0.631184 0.996658 -0.004451 -0.013239 147168.000000 0 0 1
30.192181 20.973661 22.390459 43.044104 0.607141 1.023741 -0.015627 -0.000792 -17396.100000 0 0 1
29.207281 20.302961 21.616659 41.623977 0.607452 1.024727 -0.006666 0.008830 321767.000000 0 0 1
29.593881 19.903661 20.381859 41.077655 0.592072 1.051604 -0.013278 0.008903 -773131.000000 0 0 1
30.474181 18.658961 20.233759 41.063823 0.549405 1.055561 -0.016363 0.004132 -111258.000000 0 0 1
29.883581 17.373661 20.511659 40.194535 0.526614 1.035252 -0.013346 0.005663 303463.000000 0 0 1
30.838181 16.338261 20.389459 40.418588 0.487207 1.042043 -0.017366 0.010529 -409479.000000 0 0 1
30.212981 14.920461 20.649759 39.520336 0.458710 1.021005 -0.017649 0.015609 82439.500000 0 0 1
29.858581 14.604761 21.979659 39.848956 0.454915 0.986546 -0.022013 0.003347 639410.000000 0 0 1
28.727181 15.308461 22.504759 39.573528 0.489613 0.965893 -0.017587 0.009193 -20671.600000 0 0 1
28.179681 14.663761 23.839159 39.716820 0.479808 0.927010 -0.017614 0.003976 272356.000000 0 0 1
27.360481 13.532361 23.558559 38.558092 0.459314 0.913487 -0.017701 0.001391 130550.000000 0 0 1
26.868481 12.958161 24.742479 38.755896 0.449372 0.878355 -0.021480 0.012161 40649.500000 0 0 1
26.287581 11.454461 24.494289 37.712223 0.410929 0.863863 -0.020725 0.015828 151101.000000 0 0 1
25.230681 11.339461 23.572359 36.343180 0.422381 0.865046 -0.026481 0.018380 36751.400000 0 0 1
25.052881 10.048261 23.081459 35.515745 0.381439 0.863352 -0.027621 0.021682 -208267.000000 0 0 1
23.847581 9.884661 22.133259 34.004335 0.392938 0.862033 -0.028926 0.019630 1163890.000000 0 0 1
22.552081 9.855661 22.812859 33.558262 0.412006 0.823308 -0.025428 0.024234 1153300.000000 0 0 1
21.583981 9.226861 22.021959 32.186486 0.403975 0.817292 -0.031277 0.040269 -711763.000000 0 0 1
20.192181 9.363161 22.623159 31.736419 0.434190 0.777249 -0.009649 0.026989 -620206.000000 0 0 1
19.913381 8.510061 23.712559 32.113071 0.403863 0.740089 0.003260 0.029771 -57348.300000 0 0 1
18.554681 8.423761 24.042659 31.516431 0.426172 0.703070 0.006429 0.036633 -388001.000000 0 0 1
18.310481 7.471461 25.245759 32.069375 0.387421 0.664503 0.015391 0.028187 -298936.000000 0 0 1
18.301981 6.081361 25.101449 31.654829 0.320801 0.655122 0.021220 0.021227 312308.000000 0 0 1
18.113281 5.484961 26.390739 32.475327 0.294037 0.622129 0.011460 0.010386 -401512.000000 0 0 1
18.347181 3.988461 26.413319 32.406640 0.214058 0.617966 0.024589 0.005536 -21726.400000 0 0 1
19.664981 3.670861 26.003849 32.808335 0.184546 0.655737 0.041292 0.011260 257384.000000 0 0 1
20.088781 2.324161 26.006039 32.943511 0.115182 0.660944 0.028219 0.011097 -449418.000000 0 0 1
21.601981 2.127761 25.907439 33.798940 0.098182 0.697397 0.025082 0.017979 -704326.000000 0 0 1
22.227581 2.438761 27.101079 35.135188 0.109281 0.689857 0.029769 0.005104 -186938.000000 0 0 1
23.617581 2.540761 26.835589 35.838449 0.107167 0.724557 0.027571 0.007403 -232643.000000 0 0 1
24.326581 3.010261 28.044359 37.246883 0.123118 0.718291 0.004829 0.002464 -1459710.000000 0 0 1
24.459781 2.145961 29.116229 38.087279 0.087510 0.700592 0.004898 -0.004101 392232.000000 0 0 1
25.291281 2.497761 30.239499 39.500823 0.098441 0.698915 0.003651 0.005282 1658340.000000 0 0 1
26.828781 2.739461 29.937539 40.293230 0.101756 0.733267 0.013074 0.002149 316213.000000 0 0 1
27.046081 3.840861 29.055629 39.880726 0.141068 0.754574 -0.006625 0.013849 136137.000000 0 0 1
28.401681 3.997661 28.648189 40.538322 0.139836 0.785982 -0.011810 0.019481 156626.000000 0 0 1
28.886781 2.998961 27.573719 40.046846 0.103447 0.811327 -0.004608 0.018777 -452993.000000 0 0 1
28.306881 3.238961 26.317609 38.786427 0.113928 0.825042 -0.023012 0.034052 47882.500000 0 0 1
28.581081 2.100561 25.493869 38.356589 0.073363 0.843765 -0.011550 0.042025 -195290.000000 0 0 1
28.201481 2.285861 23.996459 37.099579 0.080878 0.867399 -0.020396 0.032090 -126617.000000 0 0 1
28.803581 3.260561 23.213459 37.136804 0.112720 0.895563 -0.024932 0.035583 -788440.000000 0 0 1
30.172881 3.103861 22.953259 38.037992 0.102509 0.923001 -0.031716 0.032319 -130412.000000 0 0 1
30.730881 4.434961 22.312559 38.234882 0.143327 0.947684 -0.035053 0.028975 -424988.000000 0 0 1
30.165381 4.759161 21.015759 37.071039 0.156479 0.968052 -0.038203 0.022009 206186.000000 0 0 1
30.623281 5.931661 20.363359 37.250991 0.191328 0.992435 -0.020911 0.021636 -795042.000000 0 0 1
32.114981 6.077961 20.060959 38.350433 0.187044 1.020317 -0.026645 0.014100 -27947.300000 0 0 1
33.044781 5.995861 21.182759 39.706639 0.179494 1.008085 -0.018918 0.013274 746507.000000 0 0 1
33.121681 7.237061 21.943659 40.384960 0.215118 0.996359 -0.009024 0.009666 -457195.000000 0 0 1
33.954481 7.147661 23.262859 41.775070 0.207478 0.980196 -0.006103 0.010215 296119.000000 0 0 1
33.280381 6.349161 24.237389 41.657492 0.188513 0.949825 -0.009165 0.027763 167220.000000 0 0 1
34.110781 6.084061 25.306819 42.906833 0.176506 0.939975 0.010425 0.019812 -347859.000000 0 0 1
33.459181 5.094761 26.312649 42.869907 0.151107 0.909958 0.003474 0.025960 111174.000000 0 0 1
33.204781 3.806961 25.810589 42.228390 0.114153 0.913203 0.006939 0.017812 16618.400000 0 0 1
32.825481 2.967561 26.889099 42.536364 0.090159 0.886479 0.007028 0.017243 -85712.300000 0 0 1
32.887281 1.437361 26.558789 42.296673 0.043678 0.891923 0.000812 0.020967 -339191.000000 0 0 1
31.853181 0.979061 25.745449 40.968425 0.030727 0.891274 0.009662 0.015765 -310509.000000 0 0 1
31.964581 -0.381839 25.565399 40.932504 -0.011945 0.896210 0.005433 0.007830 -172596.000000 0 0 1
31.144481 -0.859839 24.334269 39.533210 -0.027601 0.907725 0.005489 0.021035 222045.000000 0 0 1
29.832581 -1.202739 24.748069 38.780103 -0.040294 0.878685 0.002947 0.022361 -180061.000000 0 0 1
29.200581 -1.888139 23.663659 37.632536 -0.064571 0.890776 0.001445 0.017636 -967666.000000 0 0 1
27.731081 -2.102239 23.871759 36.650964 -0.075663 0.861464 0.003564 0.031339 -1115500.000000 0 0 1
26.989281 -0.907339 23.755659 35.966316 -0.033606 0.849315 -0.006022 0.027692 748475.000000 0 0 1
25.574981 -1.191339 23.720159 34.901933 -0.046549 0.823548 0.008839 0.030437 968220.000000 0 0 1
24.724281 0.092761 23.588659 34.171970 0.003752 0.808903 0.017814 0.026589 -326270.000000 0 0 1
25.007881 0.886161 22.395659 33.581914 0.035420 0.840760 -0.015665 0.025607 -220924.000000 0 0 1
24.148781 1.963861 22.235959 32.885533 0.081145 0.828255 -0.016351 0.027576 -505710.000000 0 0 1
24.399781 3.024361 21.130459 32.419013 0.123321 0.860851 -0.030352 0.024822 -343330.000000 0 0 1
24.084581 2.534061 19.854659 31.316066 0.104829 0.884070 -0.008832 0.022621 263860.000000 0 0 1
24.187681 3.630661 18.965959 30.950496 0.148991 0.911218 -0.010735 0.016297 -95564.300000 0 0 1
23.721181 3.403461 17.505959 29.677206 0.142505 0.939887 -0.019300 0.013302 -79952.800000 0 0 1
24.752081 2.896961 16.675059 29.985255 0.116509 0.981100 -0.040752 0.007767 107662.000000 0 0 1
24.350481 2.838361 15.331659 28.914737 0.116039 1.011916 -0.029925 -0.003125 -293219.000000 0 0 1
23.707881 1.521861 14.846559 28.014282 0.064104 1.012238 -0.032417 0.021221 756175.000000 0 0 1
22.269181 1.461361 14.783559 26.769491 0.065529 0.985731 0.000634 0.008648 1120130.000000 0 0 1
21.864281 0.351161 14.010659 25.970535 0.016060 1.000973 0.006222 0.010075 -496147.000000 0 0 1
20.345081 0.096961 13.980559 24.685781 0.004766 0.968737 0.026007 -0.016565 -18096.000000 0 1 0
19.602981 0.995361 13.098559 23.597455 0.050732 0.982333 0.045723 -0.017769 776002.000000 0 1 0
19.736781 0.935561 11.648859 22.937125 0.047366 1.038097 0.047753 -0.012557 -837105.000000 0 1 0
19.317181 -0.461739 11.065459 22.266816 -0.023898 1.050718 0.034857 -0.005284 -523063.000000 0 1 0
20.168081 -1.545739 11.319959 23.179350 -0.076493 1.060582 0.015514 -0.008814 -104255.000000 0 1 0
21.249781 -1.499539 10.432459 23.719992 -0.070450 1.115401 0.009762 -0.006673 -483786.000000 0 1 0
22.412681 -2.464739 10.811959 25.006033 -0.109531 1.123672 0.013034 -0.009871 -79893.600000 0 0 1
22.931181 -2.037039 12.039859 25.979738 -0.088600 1.088931 0.014200 -0.016601 432638.000000 0 0 1
23.975181 -2.938539 12.434059 27.167078 -0.121958 1.095403 0.009399 -0.017873 365617.000000 0 0 1
24.273881 -2.868339 13.986359 28.161444 -0.117620 1.051062 -0.001502 -0.010125 -27665.000000 0 0 1
25.165481 -1.830939 14.345159 29.024772 -0.072628 1.053838 -0.007388 -0.009436 204515.000000 0 0 1
25.217081 -1.776139 15.778459 29.799591 -0.070318 1.012802 -0.016673 -0.005941 -455899.000000 0 0 1
26.123081 -0.657739 16.259759 30.777065 -0.025173 1.014190 -0.003361 0.001547 -1027090.000000 0 0 1
27.453181 -0.957439 15.974859 31.777193 -0.034861 1.044060 -0.007871 0.002099 -870445.000000 0 0 1
28.301981 0.019261 16.523859 32.772556 0.000681 1.042343 -0.024956 0.004658 -295816.000000 0 0 1
29.757281 -0.475439 16.434459 33.997254 -0.015976 1.066256 -0.009548 0.009630 -363305.000000 0 0 1
30.223181 -0.847239 15.180859 33.832188 -0.028025 1.105474 -0.003737 0.011784 -417394.000000 0 0 1
31.566881 -1.233839 15.248459 35.078567 -0.039067 1.121097 -0.000584 0.010135 -471485.000000 0 0 1
32.084581 -1.842739 13.926859 35.025326 -0.057371 1.161872 0.000168 0.011671 -136837.000000 0 0 1
32.389481 -0.838439 12.991459 34.907871 -0.025880 1.189457 0.003624 0.002328 -84085.700000 0 0 1
32.579381 -1.410939 11.732959 34.656445 -0.043281 1.225420 0.006994 -0.001635 -249547.000000 0 0 1
31.921381 -0.544739 10.619959 33.646023 -0.017063 1.249668 0.005865 0.008348 -92491.400000 0 0 1
32.491181 0.741561 10.445159 34.136903 0.022819 1.259830 0.011138 0.001740 336690.000000 0 0 1
31.525881 1.545761 9.805559 33.051771 0.048992 1.269590 -0.005232 0.000128 15423.900000 0 0 1
32.097681 2.825161 9.138459 33.492598 0.087791 1.294442 -0.011662 -0.001202 382709.000000 0 0 1
32.989081 2.607961 8.036659 34.053911 0.078891 1.332551 -0.009416 -0.006299 401691.000000 0 0 1
33.506181 3.873661 7.648859 34.585755 0.115099 1.347796 -0.016351 -0.003367 -115175.000000 0 0 1
34.221581 3.842061 6.269859 35.002703 0.111802 1.390699 -0.021903 0.003014 -143582.000000 0 0 1
34.411981 5.115561 5.734259 35.259540 0.147576 1.407441 -0.026083 0.006957 79528.400000 0 0 1
34.873981 4.962661 4.398159 35.498822 0.141354 1.446581 -0.034473 0.000154 -116949.000000 0 0 1
-34.650139 6.358261 3.743859 35.427053 -0.181480 1.464921 -0.030418 -0.004601 52717.900000 0 0 1
34.107881 7.220561 3.824059 35.072888 0.208618 1.461547 -0.021619 0.001597 -113619.000000 0 0 1
34.446481 8.566961 3.556759 35.673568 0.243758 1.470927 -0.021988 -0.001551 -1296080.000000 0 0 1
33.332081 9.621361 3.727259 34.892559 0.281013 1.463771 0.010970 -0.006487 -141223.000000 0 0 1
32.301481 9.502861 2.783359 33.785162 0.286121 1.488319 0.019018 -0.013388 43363.000000 0 0 1
31.383881 8.468461 3.088459 32.652740 0.263558 1.476070 0.016626 -0.003837 -801470.000000 0 0 1
30.246881 8.246361 2.017659 31.415716 0.266166 1.506528 0.040869 -0.010654 252547.000000 0 0 1
30.567181 7.735461 0.720759 31.539014 0.247861 1.547941 0.033572 -0.016787 469031.000000 0 0 1
29.440781 7.834361 -0.155141 30.465733 0.260079 1.575889 0.057727 -0.012756 158779.000000 0 0 1
29.737081 7.588861 -1.694941 30.736910 0.249865 1.625968 0.037541 -0.005792 -332598.000000 0 0 1
28.571881 7.288161 -2.432441 29.586930 0.249756 1.653103 0.031108 0.000740 764000.000000 0 0 1
28.988281 7.021361 -3.751241 30.061466 0.237637 1.695908 0.036978 -0.003130 -98665.800000 0 0 1
27.853881 6.419261 -4.640841 28.958298 0.226507 1.731750 0.026307 0.000670 -126260.000000 0 0 1
27.742581 5.033561 -4.596341 28.567707 0.179486 1.732392 0.029419 -0.001386 1150000.000000 0 0 1
26.673381 4.583861 -5.455641 27.608786 0.170189 1.769711 0.009234 0.002285 41593.400000 0 0 1
26.489981 3.104061 -5.675241 27.268345 0.116647 1.780455 0.020602 0.005738 -265453.000000 0 0 1
26.003781 2.351161 -4.527941 26.499563 0.090171 1.742507 0.011182 0.006430 226990.000000 0 0 1
26.048981 0.963361 -4.769341 26.499511 0.036966 1.751761 0.010215 0.011856 -147246.000000 0 0 1
25.945581 0.071761 -3.571841 26.190387 0.002766 1.707603 0.008952 0.012351 608797.000000 0 0 1
27.099881 0.400561 -2.787641 27.245824 0.014780 1.673290 0.028689 -0.000291 1051950.000000 0 0 1
26.833481 -0.006139 -1.426641 26.871380 -0.000229 1.623913 0.024569 0.002200 124385.000000 0 0 1
27.918281 0.584761 -0.506541 27.928998 0.020942 1.588934 0.025695 0.002605 1452940.000000 0 0 1
29.264781 0.037661 -0.613741 29.271240 0.001287 1.591765 0.029680 0.007638 1207610.000000 0 0 1
30.158981 0.681461 0.217659 30.167464 0.022592 1.563581 0.023587 0.007869 -369183.000000 0 0 1
-2.903419 -21.590539 -8.320959 23.319939 1.437122 1.935655 -0.004584 0.015578 125348.000000 0 1 0
-3.184119 -22.201039 -7.085259 23.520749 1.428346 1.876783 -0.008537 0.017965 -166042.000000 0 1 0
-2.277319 -23.273539 -6.904259 24.382629 1.473257 1.857887 -0.003644 0.013123 259917.000000 0 1 0
-2.638219 -23.872139 -5.539159 24.647951 1.460728 1.797463 -0.008232 0.015187 -83049.300000 0 1 0
-2.381319 -23.018839 -4.456159 23.566819 1.467712 1.761028 -0.014180 0.013071 137634.000000 0 1 0
-3.012619 -23.545339 -3.266059 23.960926 1.443538 1.707530 -0.000903 0.009075 210873.000000 0 1 0
-2.610819 -22.724339 -1.976559 22.959067 1.456407 1.656994 0.005171 -0.002181 1239380.000000 0 1 0
-1.245719 -22.975539 -1.563259 23.062328 1.516630 1.638632 0.013820 0.001860 483636.000000 0 1 0
-0.954119 -22.403939 -0.342959 22.426869 1.528235 1.586089 0.007056 -0.008457 -491563.000000 0 1 0
0.542081 -22.413539 -0.044859 22.420138 -1.546616 1.572797 0.015855 -0.013344 -389032.000000 0 1 0
1.217081 -21.378539 -0.667859 21.423568 -1.513928 1.601975 0.012446 -0.009686 90634.900000 0 1 0
2.434381 -20.981339 -0.037659 21.122126 -1.455287 1.572579 0.015041 -0.013077 682126.000000 0 1 0
3.266181 -19.828539 -0.645159 20.106097 -1.407541 1.602890 0.014375 -0.019554 211915.000000 0 1 0
3.857681 -20.234039 -1.847459 20.681178 -1.382404 1.660246 0.007597 -0.016114 -447221.000000 0 1 0
4.882081 -19.352039 -2.253359 20.085162 -1.323675 1.683223 0.020860 -0.016373 -422637.000000 0 1 0
5.650481 -19.962639 -3.408959 21.025125 -1.294959 1.733653 0.015719 -0.008100 -1403900.000000 0 1 0
6.449781 -21.044239 -3.047159 22.220370 -1.273399 1.708363 0.021542 -0.008657 -416513.000000 0 1 0
7.196181 -21.740539 -4.007759 23.248617 -1.251145 1.744049 0.019601 -0.004538 448837.000000 0 1 0
8.346781 -20.886639 -4.643959 22.967081 -1.190615 1.774401 0.023759 -0.003870 -529068.000000 0 1 0
7.955381 -19.867239 -5.534759 22.104950 -1.189922 1.823875 0.015980 -0.004922 -380864.000000 0 1 0
9.077381 -19.201639 -6.053059 22.084866 -1.129194 1.848431 0.019347 -0.008826 -280260.000000 0 1 0
8.679581 -17.962739 -6.902059 21.110034 -1.120679 1.903877 0.012801 -0.009970 -368476.000000 0 1 0
9.617381 -17.871739 -7.944159 21.794557 -1.077109 1.943894 0.014190 0.000036 251894.000000 0 1 0
9.275981 -16.778239 -8.796559 21.093425 -1.065762 2.000970 0.010387 0.005834 133202.000000 0 1 0
10.253381 -16.509139 -9.948759 21.832574 -1.015026 2.043937 0.017345 -0.000727 -1077990.000000 0 1 0
9.866581 -17.325939 -11.038759 22.790168 -1.053129 2.076433 0.023389 0.011118 44723.400000 0 1 0
9.108881 -16.557939 -11.917859 22.342167 -1.067860 2.133440 0.001939 0.006253 13636.700000 0 1 0
8.391181 -17.332839 -13.082459 23.280678 -1.119933 2.167532 -0.005628 0.012573 -36103.300000 0 1 0
7.289781 -18.099139 -12.689459 23.275354 -1.187905 2.147410 0.000074 0.018087 -329037.000000 0 1 0
6.646581 -18.618139 -13.817159 24.118997 -1.227904 2.180805 -0.012329 0.024401 444125.000000 0 1 0
5.514181 -19.639139 -13.435259 24.425563 -1.297069 2.153219 -0.003058 0.027836 195586.000000 0 1 0
5.957181 -20.872439 -13.089059 25.346995 -1.292779 2.113432 0.008614 0.024625 -206076.000000 0 0 1
4.879381 -21.687239 -12.631659 25.567626 -1.349493 2.087537 0.012757 0.028800 331043.000000 0 0 1
5.105781 -23.265539 -12.475459 26.888499 -1.354764 2.053268 -0.000324 0.025775 -222157.000000 0 0 1
5.311681 -23.952639 -13.690259 28.095659 -1.352570 2.079761 -0.000307 0.017720 -185455.000000 0 0 1
4.880281 -25.269479 -13.580459 29.099700 -1.380016 2.056338 -0.006046 0.008901 156924.000000 0 0 1
3.448981 -25.500009 -14.142659 29.362573 -1.436358 2.073340 -0.005232 0.001870 -926265.000000 0 0 1
2.500281 -24.837539 -13.389559 28.327284 -1.470469 2.063119 0.005586 0.006375 -1240710.000000 0 0 1
1.172081 -25.090019 -13.724959 28.622671 -1.524115 2.070897 0.004965 -0.000116 -293072.000000 0 0 1
0.562781 -26.405439 -13.226459 29.538164 -1.549486 2.035072 -0.005538 0.003386 -946809.000000 0 0 1
1.130081 -27.557259 -13.865159 30.869438 -1.529811 2.036616 -0.009457 0.006229 241254.000000 0 0 1
0.595281 -28.789409 -13.349059 31.739278 -1.550122 2.004886 -0.019846 0.015767 1543080.000000 0 0 1
-0.878119 -29.261089 -13.778859 32.354897 1.540796 2.010715 -0.023604 0.011467 1806530.000000 0 0 1
-1.913119 -28.557079 -13.083359 31.469685 1.503903 1.999558 -0.016819 0.008476 -377257.000000 0 0 1
-3.134719 -29.184949 -13.356359 32.248721 1.463798 1.997824 -0.015133 0.008468 -343498.000000 0 0 1
-4.340319 -28.426699 -12.730859 31.448217 1.419282 1.987578 -0.021976 0.007108 202956.000000 0 0 1
-4.606519 -28.564359 -11.289259 31.057849 1.410905 1.942809 -0.027004 -0.009642 -116127.000000 0 0 1
-4.853619 -29.875749 -10.849059 32.153072 1.409743 1.914970 -0.028818 -0.000738 -649879.000000 0 0 1
-5.279719 -29.889969 -9.339459 31.757065 1.395961 1.869300 -0.025391 -0.008998 306159.000000 0 0 1
-6.568919 -29.369359 -9.016059 31.416544 1.350752 1.861874 -0.011264 -0.012003 72001.000000 0 0 1
-6.698319 -27.931449 -9.106459 30.132390 1.335428 1.877812 -0.007769 -0.006699 -1986300.000000 0 0 1
-8.109619 -27.463759 -8.815559 29.962277 1.283671 1.869438 -0.006697 -0.012720 186695.000000 0 0 1
-9.167219 -27.737959 -9.757259 30.799941 1.251604 1.893145 0.012084 -0.006866 510857.000000 0 0 1
-9.400519 -29.119729 -9.986459 32.187851 1.258535 1.886258 0.012934 -0.017432 -1442380.000000 0 0 1
-10.475719 -29.461969 -11.009159 33.150413 1.229170 1.909322 0.024660 -0.014294 -319600.000000 0 0 1
-10.191719 -28.946689 -12.266859 33.049323 1.232265 1.951063 0.038181 -0.015644 -178646.000000 0 0 1
-10.895319 -29.710779 -13.183059 34.281648 1.219311 1.965518 0.041186 -0.014414 -382506.000000 0 0 1
-11.233619 -28.919209 -14.439359 34.220022 1.200288 2.006399 0.055921 -0.019196 -71963.500000 0 0 1
-12.331819 -28.010739 -14.349059 33.801934 1.156077 2.009210 0.042346 -0.031583 385383.000000 0 0 1
-12.120319 -26.830419 -13.617159 32.437640 1.146498 2.004016 0.049824 -0.017872 -829223.000000 0 0 1
-13.237219 -25.863749 -13.922159 32.217759 1.097749 2.017646 0.079573 -0.020004 -471160.000000 0 0 1
-13.045219 -25.077279 -15.087359 32.041786 1.091119 2.061067 0.066721 -0.017760 415792.000000 0 0 1
-14.071819 -24.068939 -15.179159 31.744870 1.041743 2.069356 0.082807 -0.014457 194357.000000 0 0 1
-14.001719 -23.207639 -16.476159 31.719181 1.027937 2.116990 0.077585 -0.017394 -181605.000000 0 0 1
-13.046219 -22.176939 -16.456859 30.542571 1.039040 2.139829 0.056785 -0.012688 21420.600000 0 0 1
-12.972719 -21.344239 -17.620259 30.567000 1.024672 2.185170 0.041534 0.001555 -273015.000000 0 0 1
-13.119819 -19.813539 -17.503359 29.513955 0.985917 2.205642 0.033178 0.007533 622375.000000 0 0 1
-11.931919 -19.007339 -17.325659 28.351862 1.010220 2.228239 0.043862 0.002777 613599.000000 0 0 1
-12.233619 -17.611339 -17.308859 27.557527 0.963674 2.249904 0.041093 0.006616 -309294.000000 0 0 1
-11.054119 -16.725739 -17.670959 26.724645 0.986793 2.293245 0.040796 -0.002006 -77800.600000 0 0 1
-10.269319 -16.320839 -16.537059 25.402815 1.009172 2.279688 0.033553 -0.000176 406328.000000 0 0 1
-9.008719 -15.882939 -17.043059 24.977802 1.054848 2.321739 0.033145 0.002816 56490.800000 0 1 0
-8.215019 -15.046739 -16.013059 23.458664 1.071055 2.322121 0.020184 0.006300 -106398.000000 0 1 0
-7.771519 -15.780939 -14.915159 23.062881 1.113197 2.274069 0.014344 0.007497 169917.000000 0 1 0
-6.443619 -16.280839 -15.019559 23.068877 1.193934 2.279796 0.006006 -0.000718 -190011.000000 0 1 0
-6.053419 -17.161639 -13.823959 22.853174 1.231692 2.220441 0.002029 0.006709 -508777.000000 0 1 0
-5.904219 -16.525639 -12.581759 21.592989 1.227654 2.192816 0.006500 0.003878 155810.000000 0 1 0
-5.709619 -17.420439 -11.464659 21.621976 1.254076 2.129670 0.004147 -0.000006 -42847.800000 0 1 0
-4.559219 -18.469539 -11.406159 22.181316 1.328784 2.110899 0.007074 -0.002164 -155342.000000 0 1 0
-3.299419 -17.865139 -11.599559 21.554561 1.388169 2.139035 0.002761 -0.003922 -725368.000000 0 1 0
-2.340919 -18.888339 -11.489059 22.231683 1.447490 2.113891 0.015796 0.002090 -22546.100000 0 1 0
-0.937019 -18.462439 -11.956559 22.015880 1.520087 2.144907 0.011751 0.013174 -527695.000000 0 1 0
-0.627319 -18.448739 -13.322059 22.764594 1.536806 2.195935 0.017285 0.018472 229519.000000 0 1 0
0.628381 -17.818239 -13.623959 22.438733 -1.535545 2.223281 0.016973 0.016070 797067.000000 0 1 0
1.878181 -18.710439 -13.557259 23.182048 -1.470750 2.195451 0.019611 0.010889 -571573.000000 0 1 0
2.045081 -19.679239 -14.600259 24.589070 -1.467247 2.206533 0.028391 0.018746 231759.000000 0 1 0
1.352881 -20.888539 -14.270259 25.333804 -1.506120 2.169158 0.019820 0.021443 -331256.000000 0 0 1
1.232581 -21.743039 -15.577859 26.775897 -1.514168 2.191720 0.027229 0.012608 1138390.000000 0 0 1
2.346581 -22.465039 -16.185259 27.787533 -1.466719 2.192554 0.005627 0.019792 1687750.000000 0 0 1
3.549381 -21.780839 -16.603659 27.616744 -1.409257 2.215820 -0.000229 0.020051 1502350.000000 0 0 1
4.795481 -22.680339 -16.876159 28.674015 -1.362427 2.200063 0.002876 0.019338 453668.000000 0 0 1
4.740181 -23.286239 -18.186959 29.924634 -1.369979 2.224032 0.000029 0.014615 22899.200000 0 0 1
5.926081 -23.929539 -18.624359 30.896731 -1.328033 2.217794 -0.006995 0.012788 234791.000000 0 0 1
6.078081 -23.925839 -20.139359 31.858792 -1.322020 2.255114 -0.008830 0.010998 -121669.000000 0 0 1
6.261581 -22.584139 -20.615359 31.212878 -1.300334 2.292249 0.000624 0.010366 -32147.000000 0 0 1
6.684881 -22.372539 -21.956559 32.051655 -1.280442 2.325450 0.005201 0.003072 37021.500000 0 0 1
6.870481 -20.904139 -22.293859 31.324155 -1.253252 2.362732 0.005686 -0.005962 354218.000000 0 0 1
5.680381 -20.154439 -22.373959 30.644121 -1.296080 2.389297 0.015396 -0.003585 16745.900000 0 0 1
6.090581 -18.832339 -22.607559 30.047527 -1.258003 2.422484 0.030635 -0.009280 -25845.900000 0 0 1
4.906581 -18.003239 -23.048159 29.654827 -1.304720 2.461023 0.032283 -0.009651 -1319090.000000 0 0 1
4.392481 -18.196939 -24.340359 30.706278 -1.333942 2.485995 0.025181 -0.009304 -176121.000000 0 0 1
3.435481 -17.222239 -24.650759 30.266614 -1.373901 2.522584 0.023592 -0.007030 1642290.000000 0 0 1
1.982581 -17.342139 -23.971559 29.653263 -1.456969 2.512217 0.032873 -0.002169 900980.000000 0 0 1
2.046581 -16.941639 -22.615359 28.331291 -1.450577 2.495175 0.033644 -0.003356 -454793.000000 0 0 1
0.894781 -16.225939 -22.228159 27.534937 -1.515707 2.510310 0.033123 -0.003093 -258045.000000 0 0 1
1.106081 -15.410439 -20.993359 26.065804 -1.499144 2.507144 0.020396 0.001435 288949.000000 0 0 1
2.007481 -14.311339 -21.187659 25.646857 -1.431434 2.543002 0.012621 0.007078 -3539.330000 0 0 1
2.123781 -13.625139 -19.966659 24.265661 -1.416168 2.537180 0.008425 0.003875 -132434.000000 0 1 0
3.162481 -12.486739 -19.815059 23.633800 -1.322745 2.565175 0.006156 -0.001547 229870.000000 0 1 0
4.429581 -13.085339 -19.530059 23.922175 -1.244390 2.525945 0.010330 -0.002556 611162.000000 0 1 0
5.591081 -12.243939 -19.572059 23.753730 -1.142434 2.539156 0.008935 -0.007349 852495.000000 0 1 0
5.787481 -11.170039 -18.446059 22.327601 -1.092754 2.543045 0.008482 -0.002619 -736633.000000 0 1 0
4.847781 -10.091539 -18.387159 21.527372 -1.122967 2.594671 0.005416 0.002492 -80036.000000 0 1 0
5.147881 -8.977239 -19.179059 21.792838 -1.050137 2.646790 0.011117 -0.002483 -319883.000000 0 1 0
4.598581 -9.005739 -20.607359 22.954597 -1.098683 2.685418 0.016431 -0.005021 -286654.000000 0 1 0
3.193281 -9.088939 -20.683759 22.817181 -1.232931 2.705714 0.014104 -0.014317 -315946.000000 0 1 0
2.802581 -9.062839 -22.021959 23.978244 -1.270885 2.734849 0.018208 -0.015483 36251.800000 0 1 0
1.273581 -8.994139 -22.188659 23.976095 -1.430130 2.753016 0.013402 -0.016036 -104323.000000 0 1 0
0.680281 -7.801239 -21.650659 23.023317 -1.483815 2.794541 0.009888 -0.015074 -254835.000000 0 1 0
-0.699719 -7.798239 -21.933459 23.289026 1.481308 2.798723 0.011221 -0.012695 -98672.300000 0 1 0
-1.071419 -6.784739 -23.059059 24.060358 1.414174 2.852083 0.021109 -0.008718 -316173.000000 0 1 0
-0.812119 -7.245939 -24.385559 25.452282 1.459183 2.851053 0.026645 -0.012993 -333521.000000 0 0 1
-1.332519 -6.414039 -25.363069 26.195434 1.365960 2.888828 0.011933 -0.011879 -330319.000000 0 0 1
-0.837919 -4.989739 -25.543899 26.040168 1.404420 2.946049 0.022069 -0.018331 -234619.000000 0 0 1
-1.386119 -4.517639 -26.796899 27.210369 1.273091 2.967042 0.012339 -0.011704 -11139.200000 0 0 1
-0.993519 -3.247539 -27.251239 27.462039 1.273908 3.017610 -0.002796 -0.007596 -1276710.000000 0 0 1
-1.448419 -2.018939 -26.380089 26.496851 0.948477 3.047679 0.008154 -0.010332 293206.000000 0 0 1
-2.857519 -1.850639 -26.317439 26.536727 0.574713 3.012946 -0.006139 -0.006977 199023.000000 0 0 1
-3.373719 -1.454739 -27.607219 27.850615 0.407108 3.009289 0.012271 -0.008282 -1099650.000000 0 0 1
-4.896919 -1.307739 -27.477819 27.941376 0.260963 2.959184 0.005856 -0.003771 -340651.000000 0 0 1
-5.344319 -0.250539 -26.719709 27.250089 0.046845 2.943972 0.012246 0.001767 -1541600.000000 0 0 1
-6.702619 -0.385639 -26.621569 27.455086 0.057472 2.894554 0.009696 -0.009300 -1483410.000000 0 0 1
-7.440419 0.748761 -25.830179 26.890865 -0.100297 2.859791 0.005643 0.004613 -532279.000000 0 0 1
-7.691819 1.988661 -26.533429 27.697323 -0.253002 2.850665 0.017968 0.003302 385708.000000 0 0 1
-8.547219 2.000161 -27.684759 29.043097 -0.229876 2.834546 0.010884 0.004327 -67201.000000 0 0 1
-10.000319 1.542461 -27.459289 29.264280 -0.153035 2.788538 0.005246 0.002541 -748435.000000 0 0 1
-10.878319 2.186461 -28.385649 30.477262 -0.198350 2.768958 0.006255 -0.011279 1016940.000000 0 0 1
-12.212219 1.726361 -28.086719 30.675436 -0.140433 2.727817 -0.019386 -0.004724 668604.000000 0 0 1
-13.351419 2.401361 -28.879289 31.906743 -0.177956 2.702448 -0.025746 0.004988 120153.000000 0 0 1
-14.628319 1.900461 -28.457229 32.053289 -0.129193 2.663361 -0.014581 0.004157 564038.000000 0 0 1
-15.715519 2.369061 -29.223809 33.265913 -0.149620 2.643491 -0.006943 0.003395 194666.000000 0 0 1
-16.276419 3.792061 -28.713469 33.222956 -0.228896 2.614486 -0.008477 0.009689 -519320.000000 0 0 1
-15.439019 4.964061 -28.958699 33.190532 -0.311087 2.631090 -0.005496 0.007176 653842.000000 0 0 1
-15.072319 5.295861 -30.305709 34.258677 -0.337889 2.656462 -0.009243 -0.005871 -168106.000000 0 0 1
-16.167219 5.980961 -31.172199 35.621017 -0.354330 2.636453 -0.003843 0.001006 -47549.200000 0 0 1
-16.696019 7.082561 -30.475159 35.463432 -0.401198 2.604775 0.000171 0.004471 -303777.000000 0 0 1
-17.626219 7.759361 -31.253299 36.710488 -0.414689 2.589341 -0.001803 0.001082 -846525.000000 0 0 1
-18.443919 8.726261 -30.406219 36.617809 -0.441917 2.550562 0.005578 -0.002685 -1075550.000000 0 0 1
-17.724319 9.786161 -29.945369 36.147552 -0.504478 2.547078 0.014145 -0.003172 -15085.100000 0 0 1
-18.512719 10.811561 -29.311029 36.314556 -0.528577 2.510092 0.026108 -0.012910 105233.000000 0 0 1
-8.104019 25.266961 30.822059 40.670552 -1.260426 0.710789 -0.035964 0.019867 -742131.000000 0 0 1
-9.059019 26.278261 31.022039 41.653088 -1.238820 0.730604 -0.023461 0.018117 19685.500000 0 0 1
-8.645619 27.213761 32.029389 42.909408 -1.263188 0.728097 -0.020098 0.012365 211551.000000 0 0 1
-7.389619 28.110361 31.887859 43.146662 -1.313734 0.739126 -0.017268 0.007679 213713.000000 0 0 1
-7.562019 29.036161 30.914089 43.080897 -1.316021 0.770472 0.008353 0.011886 -557329.000000 0 0 1
-6.342719 29.257261 30.299929 42.594637 -1.357309 0.779371 0.003901 0.013603 -838219.000000 0 0 1
-6.176219 30.377961 29.284519 42.644452 -1.370218 0.813838 0.036771 0.001640 -425514.000000 0 0 1
-6.100119 31.616661 29.912829 43.949995 -1.380198 0.822201 0.041836 -0.000794 268766.000000 0 0 1
-5.860519 32.643961 29.010489 44.063390 -1.393160 0.852131 0.046449 -0.000811 -138404.000000 0 0 1
-6.206719 34.006461 29.577429 45.494912 -1.390268 0.863046 0.046005 -0.004600 -155422.000000 0 0 1
-5.344019 34.365161 30.664569 46.366352 -1.416525 0.848174 0.033631 -0.009778 72274.200000 0 0 1
-5.921119 -34.146805 31.616159 46.911037 1.399102 0.831240 0.027460 -0.003557 341851.000000 0 0 1
-7.064019 -34.680905 32.553889 48.087641 1.369859 0.827158 0.016413 0.000509 375909.000000 0 0 1
-6.652419 33.767861 33.477079 48.012893 -1.376283 0.799240 0.027700 0.007028 -298045.000000 0 0 1
-6.573819 32.442261 33.031069 46.762880 -1.370872 0.786465 0.029908 0.006224 -229801.000000 0 0 1
-6.495319 31.374561 34.161018 46.835108 -1.366655 0.753368 0.023450 0.002651 605889.000000 0 0 1
-5.295319 31.587961 -34.339764 46.958056 -1.404703 2.391002 0.011040 0.000218 614535.000000 0 0 1
-5.380019 30.828461 -33.159929 45.595170 -1.398022 2.385130 0.006475 -0.000891 -129306.000000 0 0 1
-4.004819 30.630961 -32.444599 44.798955 -1.440790 2.380709 -0.018530 0.001378 1452210.000000 0 0 1
-3.097019 29.561161 -32.858899 44.307573 -1.466411 2.406262 -0.024884 0.007714 763137.000000 0 0 1
-2.797419 29.467961 -34.254760 45.272230 -1.476149 2.428954 -0.012615 0.005519 -1021990.000000 0 0 1
-2.281219 28.080761 -34.484298 44.529764 -1.489737 2.456578 -0.010120 0.000126 -415027.000000 0 0 1
-1.182219 27.700461 -33.654329 43.604209 -1.528144 2.452485 0.007394 0.009276 193331.000000 0 0 1
-0.971619 26.262661 -33.669189 42.711657 -1.533817 2.478822 0.009719 0.007461 52235.400000 0 0 1
-0.506019 25.596661 34.296819 42.798562 -1.551030 0.641240 0.006208 0.012633 -835410.000000 0 0 1
-1.446419 25.624961 33.282107 42.028912 -1.514410 0.656905 0.005403 0.015813 -432518.000000 0 0 1
-0.870719 25.600961 31.996139 40.986830 -1.536798 0.675100 0.023013 0.018988 -148693.000000 0 0 1
-0.579319 26.917561 31.252839 41.250826 -1.549278 0.711123 0.010758 0.009575 -430462.000000 0 0 1
-1.753019 27.520861 30.762689 41.313604 -1.507184 0.730840 -0.006473 0.006790 -11246.200000 0 0 1
-1.421719 28.817261 30.317539 41.852228 -1.521501 0.760640 -0.002921 0.002880 -173361.000000 0 0 1
-2.461619 29.895361 30.627139 42.869731 -1.488641 0.774997 0.003311 -0.000625 -329898.000000 0 0 1
-2.435519 30.395261 31.918229 44.142689 -1.490839 0.762561 0.012150 0.005177 75259.600000 0 0 1
-3.045319 31.712461 32.009939 45.161824 -1.475061 0.783025 0.014236 0.009287 -47793.600000 0 0 1
-2.432619 32.669361 33.038859 46.527100 -1.496472 0.781157 0.022877 0.010887 222338.000000 0 0 1
-1.098919 33.041761 32.757679 46.540640 -1.537550 0.789992 0.010311 -0.006279 -408453.000000 0 0 1
-0.378419 33.341661 33.901166 47.551011 -1.559447 0.777110 -0.003293 0.002206 -495253.000000 0 0 1
1.064681 33.740661 33.625033 47.646706 1.539252 0.787363 0.016839 -0.008168 -565206.000000 0 0 1
1.029281 -34.353905 33.079499 47.702237 -1.540844 0.804519 0.038352 -0.017663 -308777.000000 0 0 1
2.247481 -33.708705 32.861719 47.129826 -1.504221 0.799229 -0.000321 -0.010788 -523191.000000 0 0 1
2.076981 -32.260305 32.306589 45.702919 -1.506503 0.785715 0.006505 -0.011623 -133187.000000 0 0 1
1.719481 -31.353505 33.352348 45.808056 -1.516009 0.755266 0.010200 0.000546 153141.000000 0 0 1
1.752381 -30.020905 32.810159 44.506540 -1.512490 0.741881 0.018664 -0.006299 -206280.000000 0 0 1
1.394581 -29.054305 33.952463 44.708693 -1.522834 0.708382 0.016872 -0.002214 569928.000000 0 0 1
-0.000719 -29.137305 34.252117 44.968768 1.570772 0.704884 0.010930 0.005537 448924.000000 0 0 1
-0.279919 -28.447505 -33.780749 44.164215 1.560957 2.441666 0.009313 0.015729 1264570.000000 0 0 1
-1.782419 -28.344705 -33.268829 43.742591 1.507995 2.434970 -0.010042 0.016347 1225520.000000 0 0 1
-2.029119 -27.835405 -31.944249 42.418889 1.498028 2.423507 -0.010851 0.009200 161442.000000 0 0 1
-2.816019 -26.664705 -31.897709 41.670136 1.465578 2.442585 0.001686 0.002866 -161601.000000 0 0 1
-3.016419 -26.082105 -30.473419 40.224423 1.455657 2.430402 0.007067 -0.001838 338144.000000 0 0 1
-3.875119 -26.905805 -29.636059 40.214859 1.427755 2.399333 0.005369 0.006895 340569.000000 0 0 1
-4.281319 -26.351405 -28.379429 38.963036 1.409733 2.386733 0.004881 0.002602 264670.000000 0 0 1
-3.199019 -25.953005 -27.290729 37.796508 1.448153 2.377548 0.007759 0.000488 305871.000000 0 0 1
-2.487419 -24.855805 -27.828769 37.395704 1.471054 2.410088 0.003460 0.003458 -702918.000000 0 0 1
-1.400919 -24.441205 -27.076309 36.502898 1.513541 2.406484 -0.003085 0.009112 -1046440.000000 0 0 1
-0.619619 -23.370105 -27.881379 36.385670 1.544289 2.443818 0.002363 0.018235 101681.000000 0 0 1
0.107781 -23.680105 -29.044699 37.474705 -1.566245 2.457588 -0.018044 0.011793 -399249.000000 0 0 1
1.109181 -24.631405 -28.916809 38.001555 -1.525796 2.435553 -0.007744 0.016587 -1062470.000000 0 0 1
1.657581 -24.982605 -30.292119 39.300007 -1.504544 2.450879 -0.011843 0.014027 470731.000000 0 0 1
2.625181 -23.980905 -30.664089 39.016172 -1.461761 2.475000 -0.009018 0.019986 860275.000000 0 0 1
3.568981 -24.342605 -31.668719 40.102466 -1.425219 2.481108 0.000210 0.012699 -163901.000000 0 0 1
4.663881 -23.284405 -31.969739 39.824358 -1.373112 2.502720 0.011684 0.001355 -397631.000000 0 0 1
5.754181 -23.109305 -31.026849 39.112861 -1.326761 2.486948 -0.000588 -0.004364 847336.000000 0 0 1
6.682881 -24.150405 -30.911099 39.791946 -1.300832 2.460393 0.006622 -0.000967 -627229.000000 0 0 1
7.356381 -24.632505 -32.219109 41.218292 -1.280583 2.468136 0.004381 0.004521 -1437220.000000 0 0 1
6.545481 -25.488905 -33.052989 42.249588 -1.319431 2.469189 -0.013688 0.006948 219402.000000 0 0 1
6.747581 -25.325305 -34.483329 43.312826 -1.310409 2.491695 -0.014707 0.011618 3538.920000 0 0 1
6.286581 -23.976205 34.090199 42.148798 -1.314368 0.628677 -0.010050 0.006616 -1337820.000000 0 0 1
4.927781 -23.823205 34.095729 41.884924 -1.366825 0.619733 0.002713 0.002593 -1364700.000000 0 0 1
4.569881 -22.588605 33.474082 40.640412 -1.371181 0.602952 0.014391 0.000084 -65409.000000 0 0 1
3.083281 -22.149405 33.655936 40.408227 -1.432481 0.586472 0.008168 -0.008763 771346.000000 0 0 1
2.130181 -23.051405 33.072099 40.369155 -1.478648 0.610709 0.011996 -0.008045 399422.000000 0 0 1
1.667281 -24.026705 34.036832 41.696143 -1.501515 0.615809 0.017188 -0.002710 -426730.000000 0 0 1
0.317381 -24.654905 33.666680 41.730210 -1.557924 0.632131 0.010072 -0.004969 -190626.000000 0 0 1
0.354981 -25.590605 32.634539 41.473102 -1.556926 0.665052 0.021154 -0.013943 -70610.700000 0 0 1
-0.944319 -26.032205 32.299749 41.495075 1.534537 0.678684 0.014556 -0.024363 -29289.600000 0 0 1
-0.867519 -27.191405 31.288019 41.461611 1.538903 0.715712 0.014635 -0.031707 -71346.300000 0 0 1
-2.033419 -27.372705 30.514949 41.043414 1.496646 0.732538 0.011931 -0.034872 54805.100000 0 0 1
-1.962419 -28.491905 29.670109 41.181975 1.502029 0.766326 0.015727 -0.041732 -847345.000000 0 0 1
-3.173419 -28.575405 28.770539 40.673926 1.460195 0.785060 0.017880 -0.029787 -276943.000000 0 0 1
-4.297619 -28.999905 29.528279 41.609894 1.423673 0.781801 0.017472 -0.021731 -521479.000000 0 0 1
-5.497419 -29.003905 28.823569 41.258287 1.383478 0.797339 -0.001272 -0.009442 -469964.000000 0 0 1
-6.592619 -29.538705 29.794279 42.469951 1.351209 0.793243 0.004467 0.002962 -531756.000000 0 0 1
-7.761019 -29.881705 29.086569 42.416721 1.316686 0.815185 0.021833 0.007870 99380.600000 0 0 1
-8.869119 -30.356805 29.847079 43.486147 1.286545 0.814327 0.021102 0.009219 291075.000000 0 0 1
-8.633819 -31.665405 30.761199 44.983242 1.304609 0.817788 0.018301 0.011779 -719770.000000 0 0 1
-8.585819 -32.909305 30.048759 45.383549 1.315592 0.847170 0.032117 0.008045 -400278.000000 0 0 1
-9.793519 -33.364805 29.495359 45.597143 1.285287 0.867325 0.021666 0.007893 -416042.000000 0 0 1
-9.883319 34.525261 29.037979 46.183091 -1.291989 0.890842 0.040212 0.007745 -325509.000000 0 0 1
-10.007819 33.562161 30.056799 46.151774 -1.281003 0.861553 0.038865 0.008858 206586.000000 0 0 1
-9.790819 32.262561 29.602589 44.866984 -1.276156 0.850263 0.041611 -0.003625 -233083.000000 0 0 1
-10.170119 31.225761 30.666579 44.932377 -1.255935 0.819612 0.030796 0.014594 603291.000000 0 0 1
-11.581619 31.251461 30.899169 45.448282 -1.215894 0.823204 0.018342 0.024182 469899.000000 0 0 1
-12.071619 29.957461 31.297639 44.974611 -1.187742 0.801130 0.013731 0.025203 91513.200000 0 0 1
-12.188619 29.564061 32.784409 45.797528 -1.179750 0.772948 0.013620 0.007112 -51346.500000 0 0 1
-13.193119 30.302361 33.454439 47.026492 -1.160165 0.779314 0.015222 0.013045 164632.000000 0 0 1
-13.468919 29.718961 -34.593030 47.553193 -1.145276 2.385409 0.020560 0.004433 302740.000000 0 0 1
-14.548419 30.455661 -33.737239 47.722165 -1.125154 2.355974 0.007623 0.000474 336921.000000 0 0 1
-14.660219 29.861461 -32.502859 46.508759 -1.114422 2.344591 0.016112 -0.006249 -34298.500000 0 0 1
-15.746119 30.369061 -31.753799 46.674660 -1.092465 2.318998 0.015174 -0.008866 43060.300000 0 0 1
-15.839719 29.795861 -30.338999 45.377802 -1.082183 2.303103 0.038307 -0.013186 -362498.000000 0 0 1
-16.126419 28.423861 -30.266639 44.542639 -1.054726 2.317875 0.036895 -0.015336 169178.000000 0 0 1
-16.119619 27.987061 -28.929999 43.359688 -1.048236 2.301253 0.043711 -0.011927 -117177.000000 0 0 1
-16.778619 26.601361 -28.692659 42.572563 -1.008078 2.310367 0.008773 -0.012288 955817.000000 0 0 1
-18.206219 26.620761 -28.855999 43.275859 -0.970950 2.300692 0.005474 -0.003176 661736.000000 0 0 1
-18.767819 25.354161 -28.638779 42.605682 -0.933580 2.307948 -0.012342 -0.006347 160212.000000 0 0 1
-20.263719 25.207461 -29.020299 43.453563 -0.893695 2.302108 0.003208 -0.003812 272638.000000 0 0 1
-21.134419 25.642361 -27.978809 43.439706 -0.881473 2.270621 -0.000375 -0.002183 -431292.000000 0 0 1
-22.463619 25.516261 -28.361579 44.272710 -0.848936 2.266090 0.002855 -0.009825 -330186.000000 0 0 1
-23.544919 25.469661 -27.262459 44.116986 -0.824647 2.236940 0.019627 -0.010286 132085.000000 0 0 1
-23.781919 26.616161 -26.599869 44.514635 -0.841576 2.211243 0.003993 0.006523 -160767.000000 0 0 1
-24.790419 26.576261 -25.610319 44.460667 -0.820151 2.184650 0.006454 0.015426 -101130.000000 0 0 1
-24.378019 25.989461 -24.199659 43.073929 -0.817381 2.167377 -0.007226 0.012549 -756982.000000 0 0 1
-24.168119 24.599361 -24.210359 42.135116 -0.794241 2.182898 -0.003780 0.010655 467630.000000 0 0 1
-25.290829 23.727461 -23.902859 42.118465 -0.753515 2.174281 0.006209 0.001697 711385.000000 0 0 1
-25.954669 23.768861 -22.447259 41.743059 -0.741467 2.138560 -0.007040 0.005383 104194.000000 0 0 1
-25.176039 23.390961 -21.325259 40.444241 -0.748660 2.126187 -0.006825 0.003859 287408.000000 0 0 1
-24.158919 24.305361 -20.926059 40.153504 -0.788420 2.118996 -0.007783 0.009621 394763.000000 0 0 1
-23.226619 23.783261 -19.777659 38.681715 -0.797239 2.107484 0.000428 -0.007397 -269288.000000 0 0 1
-23.836419 23.871861 -18.513159 38.480874 -0.786141 2.072706 -0.003249 -0.014253 -301616.000000 0 0 1
-22.983819 23.529361 -17.469259 37.243278 -0.797126 2.059020 -0.003118 -0.012187 -833101.000000 0 0 1
-23.589819 23.434661 -16.070259 36.931235 -0.782099 2.020990 -0.014414 -0.009566 -709794.000000 0 0 1
-24.062519 24.661161 -15.585159 37.816330 -0.797684 1.995584 -0.002451 -0.016511 -5026.680000 0 0 1
-24.439219 24.580761 -14.222859 37.467038 -0.788286 1.960171 -0.022409 -0.013179 -103847.000000 0 0 1
-24.727419 25.953161 -13.476359 38.296528 -0.809579 1.930391 -0.020628 -0.014292 1379170.000000 0 0 1
-23.481319 26.735661 -13.449659 38.040258 -0.850113 1.932175 -0.016140 -0.002314 1321140.000000 0 0 1
-23.580019 27.820361 -12.514459 38.556471 -0.867708 1.901358 -0.015562 0.000227 61881.200000 0 0 1
-22.230619 28.500061 -12.138959 38.128837 -0.908358 1.894803 -0.001107 0.005088 86986.100000 0 0 1
-21.462319 27.542661 -11.422459 36.738289 -0.908843 1.886951 -0.002195 0.001055 467300.000000 0 0 1
-20.330919 28.201361 -10.797359 36.403928 -0.946168 1.871925 0.002448 0.002550 263713.000000 0 0 1
-19.482319 27.115861 -10.161959 34.901233 -0.947772 1.866239 0.014647 0.004429 -566376.000000 0 0 1
-18.844819 26.274461 -11.095759 34.184651 -0.948600 1.901367 0.005888 0.004916 -28735.800000 0 0 1
-18.316719 25.144761 -10.485759 32.828529 -0.941230 1.895903 0.009157 0.010583 -258578.000000 0 0 1
-17.754719 24.115661 -11.558759 32.099845 -0.936165 1.939158 0.002393 0.008635 -69614.500000 0 0 1
-17.388319 22.872961 -10.975459 30.756896 -0.920791 1.935685 -0.007356 0.009487 151365.000000 0 0 1
-16.795119 22.064661 -11.943959 30.192440 -0.920180 1.977511 -0.000918 0.015001 -190658.000000 0 0 1
-16.588219 20.684861 -11.338359 28.837317 -0.894868 1.974888 -0.004973 0.015643 173746.000000 0 0 1
-17.743719 19.866461 -11.251959 28.915781 -0.841779 1.970482 -0.015868 0.017896 329220.000000 0 0 1
-17.301919 18.639861 -10.724559 27.601032 -0.822606 1.969861 0.002379 0.010499 -394630.000000 0 0 1
-18.385719 17.538361 -10.803459 27.610568 -0.761815 1.972818 -0.005654 0.010395 143365.000000 0 0 1
-18.802319 17.091561 -12.113559 28.149369 -0.737773 2.015656 -0.012198 0.013047 637938.000000 0 0 1
-19.714019 17.962761 -12.816559 29.589990 -0.738951 2.018768 -0.011185 0.018907 -113835.000000 0 0 1
-20.355919 17.300461 -14.050259 30.184088 -0.704435 2.054980 0.001175 0.006308 -417236.000000 0 0 1
-19.454919 16.973761 -15.071759 29.895825 -0.717393 2.099185 0.020193 0.009304 443955.000000 0 0 1
-20.170519 16.626761 -16.284459 30.797445 -0.689389 2.127935 0.010428 0.012967 799859.000000 0 0 1
-19.151519 16.370361 -17.445659 30.645071 -0.707263 2.176427 0.030605 0.010921 60252.900000 0 0 1
-18.470419 17.520161 -17.946559 31.147895 -0.759001 2.184834 0.013646 0.004111 590614.000000 0 0 1
-17.605719 17.132461 -19.042559 31.082175 -0.771775 2.230208 0.008301 0.009859 113088.000000 0 0 1
-16.678519 18.276861 -19.483559 31.493264 -0.831092 2.237830 0.001261 0.009400 1068720.000000 0 0 1
-15.554519 18.583061 -18.581159 30.537398 -0.873882 2.224930 0.011790 0.006816 1349020.000000 0 0 1
-14.722019 19.612761 -19.062359 31.060775 -0.926889 2.231549 0.007474 0.006203 2430.610000 0 0 1
31.369081 32.047261 1.910241 44.885356 0.796092 1.528225 0.038217 -0.008002 -110291.000000 0 0 1
32.539591 31.438561 1.429841 45.268671 0.768190 1.539205 0.031437 -0.004724 -105717.000000 0 0 1
33.019661 32.115261 0.248941 46.062457 0.771514 1.565392 0.018360 0.004641 86923.100000 0 0 1
34.451095 31.798261 -0.249359 46.883574 0.745376 1.576115 0.001579 0.010380 -390534.000000 0 0 1
-34.530888 32.653361 0.363041 47.526372 -0.757459 1.563158 -0.009598 0.012456 377555.000000 0 0 1
-33.210229 32.437161 -0.190059 46.423322 -0.773623 1.574890 -0.009759 0.012546 312748.000000 0 0 1
-32.215609 33.470061 0.211541 46.455734 -0.804494 1.566243 -0.018477 0.014655 -679491.000000 0 0 1
-32.035759 33.513461 1.597241 46.389580 -0.807938 1.536358 -0.028050 0.005366 -122000.000000 0 0 1
-31.149209 34.545161 1.958141 46.556156 -0.837045 1.528724 -0.014777 0.006351 -272423.000000 0 0 1
-30.417239 34.420661 3.305641 46.053421 -0.847065 1.498956 -0.001208 0.015843 -59163.600000 0 0 1
-29.944949 -33.692005 3.839941 45.239322 0.844212 1.485813 0.003481 0.016044 215643.000000 0 0 1
-29.439689 -33.775305 5.186141 45.103908 0.853876 1.455559 0.013723 -0.001961 -440811.000000 0 0 1
-29.326609 -32.455105 5.914341 44.140268 0.835993 1.436402 0.025668 -0.005144 76318.600000 0 0 1
-30.467569 -31.868605 6.519341 44.568852 0.807870 1.423994 0.020032 -0.009740 44058.600000 0 0 1
-31.087419 -32.603505 7.526641 45.673477 0.809197 1.405249 0.023886 -0.018486 -262292.000000 0 0 1
-32.267249 -31.855005 8.311941 46.097777 0.778969 1.389494 0.038868 -0.022315 2999300.000000 0 0 1
-33.610459 -31.761305 7.683241 46.877240 0.757119 1.406152 0.025873 -0.022216 2147310.000000 0 0 1
-34.218908 -33.051305 7.489541 48.160312 0.768043 1.414650 0.007073 -0.016394 19092.300000 0 0 1
34.102129 -33.165605 7.355041 48.135322 -0.771477 1.417396 -0.001552 -0.011877 742750.000000 0 0 1
33.434931 -33.328905 8.595941 47.985422 -0.783810 1.390688 -0.011924 -0.000838 -329098.000000 0 0 1
32.063371 -33.097905 8.496541 46.858535 -0.801273 1.388464 -0.039312 0.012153 -759818.000000 0 0 1
31.346271 -33.339005 9.817141 46.802289 -0.816195 1.359469 -0.055275 0.013171 -436350.000000 0 0 1
30.004741 -32.927505 9.723441 45.596605 -0.831808 1.355897 -0.045744 0.007492 -106008.000000 0 0 1
29.333211 -32.816405 10.963541 45.360257 -0.841385 1.326680 -0.039102 0.021848 -205800.000000 0 0 1
29.465621 -31.357605 11.617441 44.570025 -0.816494 1.307095 -0.036403 0.007836 -482465.000000 0 0 1
28.873861 -30.211805 11.004041 43.215066 -0.808038 1.313327 -0.034330 0.003208 -195538.000000 0 0 1
29.548051 -29.707505 9.921341 43.058753 -0.788089 1.338293 -0.035303 0.003228 -717170.000000 0 0 1
29.062001 -28.338805 9.584141 41.707835 -0.772800 1.338932 -0.027917 0.001721 -482998.000000 0 0 1
29.370351 -27.947605 8.271041 41.377485 -0.760581 1.369548 -0.020982 -0.002022 96861.100000 0 0 1
28.873481 -26.637905 8.029241 40.096441 -0.745148 1.369185 -0.007081 0.003363 -140478.000000 0 0 1
28.992681 -26.267105 6.588641 39.672995 -0.736115 1.403950 -0.015684 0.009214 -387822.000000 0 0 1
30.258301 -25.888605 6.160141 40.295558 -0.707729 1.417321 -0.009870 0.002160 -671720.000000 0 0 1
30.150961 -25.176205 4.990341 39.595773 -0.695724 1.444428 -0.003831 0.007497 600788.000000 0 0 1
31.599111 -24.766105 4.587041 40.409216 -0.664759 1.457036 0.010761 0.002269 761673.000000 0 0 1
32.376851 -25.926405 4.217141 41.692004 -0.675210 1.469473 0.002258 0.006304 517291.000000 0 0 1
33.758561 -25.568705 4.226241 42.558903 -0.648220 1.471329 0.013120 -0.005204 377590.000000 0 0 1
34.758767 -26.693005 4.129941 44.019823 -0.654891 1.476838 0.013925 -0.007334 -250192.000000 0 0 1
34.517182 -27.566005 5.223841 44.481558 -0.673897 1.453086 -0.000769 -0.005770 -238749.000000 0 0 1
34.935112 -28.894605 5.039841 45.615351 -0.691044 1.460085 -0.001443 -0.006041 -1136060.000000 0 0 1
34.283527 -29.831205 6.064141 45.847953 -0.716066 1.438141 0.001134 -0.008216 1154370.000000 0 0 1
32.889731 -30.155505 5.907641 45.010989 -0.742056 1.439168 -0.013412 0.000847 1222890.000000 0 0 1
31.945171 -29.077805 5.971841 43.608205 -0.738444 1.433422 -0.015128 -0.000856 -88257.300000 0 0 1
30.489531 -29.497505 5.609241 42.792264 -0.768862 1.439337 -0.035823 0.003027 -35045.900000 0 0 1
30.392401 -29.895505 4.244041 42.842165 -0.777156 1.471571 -0.034919 0.003741 366542.000000 0 0 1
29.203741 -29.431905 3.600141 41.617983 -0.789289 1.484184 -0.029515 0.010442 -39131.100000 0 0 1
27.971711 -30.315205 3.788841 41.422018 -0.825583 1.479199 -0.019995 0.012538 -399820.000000 0 0 1
28.063911 -31.512905 3.029541 42.306316 -0.843225 1.499125 -0.018765 0.013309 226009.000000 0 0 1
26.814611 -32.195605 3.159441 42.018596 -0.876334 1.495534 -0.004869 0.007402 -87934.400000 0 0 1
26.862151 -33.627805 2.617441 43.119084 -0.896783 1.510056 0.000625 -0.000158 -559263.000000 0 0 1
26.848641 -33.645105 1.212741 43.061739 -0.897279 1.542630 0.004632 -0.008216 186190.000000 0 0 1
26.815341 34.416361 0.776041 43.636575 0.908902 1.553011 0.009960 -0.002016 -33015.600000 0 0 1
26.612491 34.352061 -0.762059 43.461127 0.911675 1.588331 0.002607 0.000336 -1120820.000000 0 0 1
27.684441 -34.477105 -1.414559 44.239123 -0.894241 1.602777 -0.004937 0.000571 -759856.000000 0 0 1
27.388561 -34.416705 -2.804459 44.073891 -0.898626 1.634470 -0.000485 0.003052 -75432.400000 0 0 1
28.465001 -33.785605 -3.741859 44.336496 -0.870662 1.655294 -0.012108 0.001606 226077.000000 0 0 1
28.711791 -32.396605 -3.618259 43.439599 -0.845625 1.654187 -0.016652 0.004649 249840.000000 0 0 1
29.739171 -31.935205 -4.495759 43.868981 -0.820990 1.673458 -0.019693 0.006593 86942.500000 0 0 1
29.900111 -30.385105 -4.516659 42.868070 -0.793443 1.676354 -0.019053 0.011067 122170.000000 0 0 1
28.826411 -29.689705 -5.206159 41.707849 -0.800150 1.695947 -0.024278 0.007788 607686.000000 0 0 1
29.019291 -28.351305 -5.501159 40.941159 -0.773755 1.705571 -0.013848 0.001506 -648939.000000 0 0 1
30.049971 -28.014105 -6.554559 41.602321 -0.750350 1.729008 -0.003563 -0.000198 -1419590.000000 0 0 1
31.365041 -28.243005 -6.166259 42.655080 -0.733070 1.715866 -0.007079 0.022014 -433940.000000 0 0 1
32.368361 -27.645305 -6.983159 43.136275 -0.706860 1.733398 -0.001631 0.012300 391102.000000 0 0 1
32.602491 -28.491005 -8.274159 44.080852 -0.718201 1.759621 -0.003653 -0.015237 -1568510.000000 0 0 1
31.509461 -28.447405 -9.155659 43.427262 -0.734372 1.783218 -0.007718 -0.011227 -264814.000000 0 0 1
31.268891 -29.491605 -10.066359 44.145553 -0.756156 1.800847 -0.023417 0.005521 309773.000000 0 0 1
30.889081 -30.816105 -9.357459 44.624317 -0.784216 1.782058 -0.020955 0.003508 -272229.000000 0 0 1
32.093231 -31.338805 -8.815759 45.714481 -0.773505 1.764856 -0.016701 0.010474 -93387.900000 0 0 1
31.877761 -32.482005 -8.045559 46.216916 -0.794786 1.745770 -0.012133 0.003686 600355.000000 0 0 1
33.133201 -33.406605 -7.789159 47.691522 -0.789507 1.734855 -0.012147 0.001709 450954.000000 0 0 1
32.963231 -34.560805 -7.020959 48.273364 -0.809053 1.716756 -0.008621 0.000262 -288803.000000 0 0 1
32.678181 -34.398005 -5.656959 47.781664 -0.811032 1.689466 -0.007938 0.004446 -146469.000000 0 0 1
32.562581 33.632761 -4.944359 47.073676 0.801564 1.676025 -0.008693 0.002063 -996688.000000 0 0 1
31.540731 32.822161 -5.384259 45.837782 0.805305 1.688531 -0.005285 -0.006101 -717232.000000 0 0 1
31.583751 31.469961 -5.082359 44.874516 0.783594 1.684297 -0.003768 0.003199 293991.000000 0 0 1
30.350031 30.598661 -5.501359 43.447294 0.789477 1.697759 0.000093 0.000957 381067.000000 0 0 1
30.243171 30.501961 -6.899159 43.504223 0.789658 1.730055 -0.008546 0.002918 -158735.000000 0 0 1
28.968681 30.068161 -7.306859 42.387132 0.804020 1.744046 -0.018050 0.007551 -16133.600000 0 0 1
28.924861 29.834761 -8.845059 42.485240 0.800882 1.780522 -0.018189 0.001847 -423131.000000 0 0 1
29.413061 28.563761 -9.176059 42.014482 0.770750 1.790973 -0.011050 -0.001826 -67905.900000 0 0 1
29.603631 28.301061 -10.536759 42.288868 0.762907 1.822611 -0.027499 0.003737 241839.000000 0 0 1
30.731031 29.111161 -11.230759 43.794816 0.758336 1.830134 -0.018458 0.003065 -695241.000000 0 0 1
32.010431 28.890061 -10.735159 44.435875 0.734206 1.814798 -0.027701 -0.004133 -242787.000000 0 0 1
33.022851 29.757561 -11.216459 45.845720 0.733434 1.817962 -0.016886 -0.005103 -146152.000000 0 0 1
33.386761 30.894761 -10.272959 46.633633 0.746651 1.792909 -0.000104 -0.008491 -809736.000000 0 0 1
34.181293 30.580461 -9.147859 46.767603 0.729854 1.767668 -0.008848 -0.004820 227422.000000 0 0 1
34.065742 31.625061 -8.223459 47.204285 0.748261 1.745900 -0.009344 -0.002979 1557.060000 0 0 1
-34.652730 31.573861 -7.180359 47.426553 -0.738942 1.722780 -0.011653 0.008889 1489460.000000 0 0 1
-33.335239 31.905461 -7.668059 46.776016 -0.763486 1.735471 -0.004144 0.007736 1333040.000000 0 0 1
-32.483169 30.874661 -8.198559 45.558943 -0.760016 1.751737 0.002389 -0.000652 569637.000000 0 0 1
-31.070459 31.387661 -8.607259 44.996040 -0.790477 1.763272 0.005419 0.000377 -242043.000000 0 0 1
-30.263919 31.751261 -7.519359 44.503799 -0.809377 1.740571 0.015546 0.003169 302896.000000 0 0 1
-28.976539 32.248761 -7.891859 44.067038 -0.838793 1.750855 0.010703 0.002370 -134444.000000 0 0 1
-28.964609 33.590261 -8.706259 45.200145 -0.859209 1.764623 -0.008946 0.005962 -821164.000000 0 0 1
-29.237679 -34.587105 -8.005659 45.991306 0.869017 1.745757 -0.021508 0.004655 71464.600000 0 0 1
-28.311849 -34.328405 -6.956559 45.037694 0.881154 1.725878 -0.003961 -0.007107 165466.000000 0 0 1
-28.517199 -32.945705 -6.221159 44.015371 0.857326 1.712612 -0.021045 0.002199 31773.600000 0 0 1
-29.451799 -32.734205 -5.176959 44.336639 0.838133 1.687828 -0.025986 0.000913 -148447.000000 0 0 1
-29.136949 -33.409805 -3.954159 44.506317 0.853607 1.659759 -0.017555 -0.002756 -984493.000000 0 0 1
-30.238369 -33.562405 -2.970559 45.272709 0.837451 1.636458 -0.009354 -0.000785 -1037680.000000 0 0 1
-30.556529 -32.319005 -2.408659 44.542352 0.813422 1.624898 -0.006833 0.002693 -457117.000000 0 0 1
-31.571939 -32.406305 -1.449959 45.266525 0.798439 1.602833 -0.008612 0.009226 -310908.000000 0 0 1
-32.225319 -30.990905 -1.267959 44.727118 0.765874 1.599149 0.004002 0.009100 -339205.000000 0 0 1
-33.062219 -30.992405 -0.168759 45.317413 0.753096 1.574520 -0.000844 0.006669 -525528.000000 0 0 1
-33.640169 -29.688805 0.027941 44.867437 0.723085 1.570174 0.012499 0.002792 -194673.000000 0 0 1
-34.735722 -29.602305 1.100341 45.651698 0.705779 1.546691 0.011040 0.003576 -941630.000000 0 0 1
34.028766 -30.425005 0.815841 45.654172 -0.729544 1.552925 -0.011326 0.009385 -4871.450000 0 0 1
32.985451 -30.340905 1.770641 44.852488 -0.743662 1.531309 -0.012133 0.006279 152924.000000 0 0 1
32.118271 -29.085205 1.646041 43.361757 -0.735882 1.532827 -0.016932 0.022930 -1798120.000000 0 0 1
31.493371 -28.930005 0.431841 42.766390 -0.743000 1.560698 -0.028439 0.017455 -74248.500000 0 0 1
30.826461 -27.687905 0.383441 41.437155 -0.731812 1.561543 -0.028091 0.014486 -846260.000000 0 0 1
29.504041 -27.644705 -0.372459 40.433363 -0.752875 1.580008 -0.032814 0.005996 -1227930.000000 0 0 1
28.448551 -28.253505 0.291341 40.095704 -0.781958 1.563530 -0.030241 0.012825 -375429.000000 0 0 1
28.273741 -29.628205 0.050841 40.954091 -0.808786 1.569555 -0.025245 0.013038 -567936.000000 0 0 1
27.857761 -30.063905 -1.381859 41.009789 -0.823468 1.604499 -0.022998 -0.001074 -426770.000000 0 0 1
26.475581 -30.050405 -1.646759 40.083601 -0.848556 1.611891 -0.020589 0.007519 -113419.000000 0 0 1
26.193071 -30.474405 -2.966859 40.293530 -0.860807 1.644494 -0.021117 0.005890 1077100.000000 0 0 1
24.648101 -30.607505 -3.264059 39.433518 -0.892834 1.653665 -0.018852 0.005054 1508830.000000 0 0 1
23.855001 -29.411805 -3.446559 38.026229 -0.889342 1.661557 -0.004430 0.004506 1223460.000000 0 0 1
22.516001 -29.812805 -3.833559 37.556222 -0.923946 1.673050 0.008552 0.001554 881361.000000 0 0 1
21.603801 -28.586605 -3.960959 36.050068 -0.923637 1.680892 0.014852 -0.002043 -283390.000000 0 0 1
21.784101 -27.864005 -5.224359 35.752535 -0.907251 1.717447 0.009780 0.001256 52375.900000 0 0 1
21.060501 -26.656605 -5.228059 34.372255 -0.902142 1.723490 0.001692 -0.010801 -286735.000000 0 0 1
20.398701 -26.306505 -6.576159 33.932065 -0.911221 1.765834 0.009308 -0.032450 390545.000000 0 0 1
19.111401 -26.918005 -6.692559 33.684046 -0.953400 1.770814 0.012649 -0.021261 296204.000000 0 0 1
18.453301 -26.459405 -7.900259 33.212024 -0.961804 1.810972 0.024994 -0.016826 -712550.000000 0 0 1
16.952201 -26.447205 -7.822259 32.373129 -1.000786 1.814840 0.018953 -0.009014 -1075750.000000 0 0 1
16.482601 -25.472105 -6.924659 31.120012 -0.996473 1.795189 0.001446 -0.005185 448300.000000 0 0 1
15.065201 -25.626205 -6.780759 30.490020 -1.039334 1.795064 0.008367 -0.000702 720805.000000 0 0 1
14.473401 -24.670805 -5.731059 29.171441 -1.040243 1.768544 -0.001421 0.011259 -231262.000000 0 0 1
14.817401 -25.202105 -4.455759 29.572880 -1.039289 1.722043 -0.008766 0.013895 237938.000000 0 0 1
14.409601 -24.359505 -3.389059 28.504522 -1.036621 1.689974 -0.005597 0.020284 -116301.000000 0 0 1
14.558301 -25.056305 -1.999059 29.047526 -1.044447 1.639671 0.001908 0.010193 -52428.800000 0 0 1
13.760501 -26.236905 -1.856959 29.684590 -1.087764 1.633394 0.013476 0.015012 124878.000000 0 0 1
14.503501 -27.340905 -1.462459 30.984115 -1.083072 1.618014 0.021345 0.007349 -663159.000000 0 0 1
13.770501 -28.687905 -1.527259 31.858360 -1.123268 1.618754 0.017340 0.010118 7856.990000 0 0 1
12.732201 -28.841605 -0.588459 31.532418 -1.155073 1.589459 0.036449 0.007551 143247.000000 0 0 1
11.899301 -30.012705 -0.646859 32.292015 -1.193332 1.590829 0.032183 0.001925 225562.000000 0 0 1
12.525601 -31.431605 -0.466959 33.838654 -1.191581 1.584596 0.021124 -0.001705 -348770.000000 0 0 1
13.304001 -31.810705 -1.586459 34.517159 -1.174679 1.616774 0.013643 0.002449 -233613.000000 0 0 1
14.003901 -32.999105 -1.273759 35.870219 -1.169458 1.606314 0.009589 0.004874 -1271960.000000 0 0 1
15.362501 -33.121605 -1.920259 36.561380 -1.136508 1.623342 0.006704 0.011470 -669165.000000 0 0 1
16.214801 -32.136105 -1.329259 36.019660 -1.103502 1.607708 0.002900 0.017677 28197.200000 0 0 1
17.520701 -32.118405 -1.863659 36.633866 -1.071412 1.621691 0.008483 0.013934 -207061.000000 0 0 1
18.363301 -31.015505 -1.242859 36.065455 -1.036229 1.605264 0.008680 0.011094 -251515.000000 0 0 1
18.104101 -29.719405 -1.819659 34.846989 -1.023663 1.623039 -0.009654 0.011845 413420.000000 0 0 1
18.855301 -28.721705 -1.112959 34.375826 -0.989877 1.603178 -0.003731 0.007056 -26369.900000 0 0 1
18.324301 -27.271605 -1.263259 32.880332 -0.979167 1.609226 -0.005056 0.016464 -387816.000000 0 0 1
18.532801 -26.544905 -2.467459 32.468216 -0.961301 1.646866 -0.006686 0.011439 59384.600000 0 0 1
17.614501 -26.812005 -3.504059 32.271236 -0.989542 1.679592 0.005170 0.008867 -384274.000000 0 0 1
32.033091 -29.861305 13.712441 45.889514 -0.750324 1.267346 -0.018325 -0.006606 -122611.000000 0 0 1
32.610391 -29.992305 14.979041 46.769089 -0.743602 1.244775 -0.016933 0.001823 168856.000000 0 0 1
31.681351 -30.543605 15.916741 46.797035 -0.767116 1.223749 -0.019956 0.008162 -82448.100000 0 0 1
32.307651 -30.875105 17.281841 47.913656 -0.762729 1.201792 -0.021351 0.010551 -15203.800000 0 0 1
31.425631 -31.445905 18.286841 48.071029 -0.785721 1.180554 -0.017854 0.008510 614684.000000 0 0 1
32.127531 -31.799605 19.486341 49.225102 -0.780269 1.163790 -0.027236 0.010792 372980.000000 0 0 1
32.815811 -33.238205 19.403341 50.578112 -0.791793 1.177071 -0.026311 0.013575 -198943.000000 0 0 1
33.789081 -33.388405 18.413541 50.946502 -0.779434 1.200996 -0.028428 0.021062 -166066.000000 0 0 1
34.460096 -34.610005 18.622041 52.269791 -0.787569 1.206526 -0.006725 0.010476 -703250.000000 0 0 1
-34.159937 34.567761 17.784941 51.750706 -0.791332 1.219979 -0.004614 0.009509 -531235.000000 0 0 1
-33.125469 -33.912505 18.100141 50.744160 0.797138 1.206070 -0.008660 0.013593 574735.000000 0 0 1
-32.070009 -33.885805 17.123141 49.698443 0.812922 1.219047 -0.003717 0.015870 296488.000000 0 0 1
-30.948859 -32.832205 17.370641 48.347955 0.814918 1.203296 -0.012163 0.009283 -364590.000000 0 0 1
-29.997599 -32.966505 16.362841 47.480406 0.832516 1.218959 0.003306 0.000360 -479706.000000 0 0 1
-30.233989 -31.983105 15.371841 46.618736 0.813504 1.234773 0.014555 0.002625 -82413.100000 0 0 1
-29.058089 -31.843005 14.341641 45.431621 0.831095 1.249628 0.018835 0.000128 775441.000000 0 0 1
-27.910809 -31.353905 15.018341 44.582857 0.843430 1.227213 0.010647 -0.001681 133925.000000 0 0 1
-26.739909 -31.317205 14.213741 43.563982 0.864077 1.238438 0.012378 0.001456 524915.000000 0 0 1
-25.492499 -30.673505 14.848741 42.558389 0.877382 1.214396 0.017645 -0.000264 -121015.000000 0 0 1
-24.377019 -30.858405 14.023641 41.750961 0.902205 1.228249 0.015027 0.001693 -524133.000000 0 0 1
-23.243319 -30.338705 14.723741 40.957019 0.917053 1.203072 0.009822 0.008427 450413.000000 0 0 1
-21.999419 -30.334605 13.777241 39.924617 0.943341 1.218471 0.010502 0.016516 243287.000000 0 0 1
-21.545419 -31.620405 13.452541 40.558919 0.972679 1.232714 -0.004435 0.013506 -779707.000000 0 0 1
-20.322719 -31.565805 12.808841 39.667107 0.998777 1.241995 -0.007980 0.005790 -736746.000000 0 0 1
-19.866319 -32.930605 12.303141 40.378988 1.027970 1.261182 -0.005584 0.006819 -34309.900000 0 0 1
-20.701319 -33.578105 11.349141 41.046763 1.018324 1.290653 -0.013004 0.005036 296723.000000 0 0 1
-20.251219 34.450561 11.138741 41.485233 -1.039370 1.298962 -0.014270 0.002032 402883.000000 0 0 1
-21.170919 33.614161 10.179441 41.009031 -1.008737 1.319949 -0.016957 0.005400 -8232.810000 0 0 1
-21.000619 33.996961 8.826341 40.923388 -1.017449 1.353409 -0.021450 -0.000032 -243939.000000 0 0 1
-22.147919 33.703661 8.084441 41.131804 -0.989420 1.372959 -0.010805 -0.004256 -741535.000000 0 0 1
-22.065819 34.112761 6.591541 41.158587 -0.996639 1.409954 -0.003324 -0.002538 -525721.000000 0 0 1
-21.405019 33.098061 5.828641 39.845069 -0.996734 1.423987 -0.001284 -0.011391 157677.000000 0 0 1
-19.995219 32.982161 5.850941 39.011091 -1.025799 1.420247 -0.010708 -0.009065 -124769.000000 0 0 1
-19.198319 34.179661 5.235841 39.550458 -1.059024 1.438023 -0.011487 -0.003833 -736216.000000 0 0 1
-19.104719 -34.031905 6.056641 39.494857 1.059261 1.416836 -0.007415 -0.004441 106969.000000 0 0 1
-18.394919 -34.195305 7.275241 39.504697 1.077262 1.385578 -0.011984 -0.002444 -478273.000000 0 0 1
-18.565119 -32.956605 8.227341 38.710342 1.057784 1.356627 -0.015728 -0.001967 -483339.000000 0 0 1
-17.796619 -31.885205 7.734341 37.325674 1.061720 1.362072 -0.009656 -0.005337 -229915.000000 0 0 1
-17.847319 -30.678505 8.510641 36.498335 1.043902 1.335451 -0.005832 -0.003885 14780.500000 0 0 1
-17.443619 -30.689705 10.016641 36.694290 1.053946 1.294312 -0.014386 0.001128 -492253.000000 0 0 1
-16.079919 -30.939905 10.095441 36.300956 1.091502 1.288977 -0.001307 -0.011252 -1006010.000000 0 0 1
-15.661019 -31.261105 11.405641 36.777885 1.106369 1.255475 0.005275 -0.003512 384587.000000 0 0 1
-14.308419 -32.020005 11.488941 36.905383 1.150558 1.254227 0.016099 -0.012472 672790.000000 0 0 1
-13.218119 -31.284605 10.941441 35.681372 1.171035 1.259132 0.012456 -0.007188 -699715.000000 0 0 1
-12.060319 -32.012405 10.834341 35.883538 1.210502 1.264079 0.018523 -0.002791 -819385.000000 0 0 1
-10.915319 -31.366105 10.072341 34.704881 1.235907 1.276331 0.027690 -0.006494 -104593.000000 0 0 1
-10.193019 -30.367505 10.764341 33.792810 1.246957 1.246608 0.026661 -0.002314 -79157.500000 0 0 1
-9.205919 -29.753505 9.941841 32.693427 1.270732 1.261810 0.015494 0.002107 131523.000000 0 0 1
-8.365219 -28.780605 10.756641 31.843452 1.287935 1.226220 0.009554 0.011010 -125797.000000 0 0 1
-9.066619 -27.630205 11.157641 31.146826 1.253726 1.204428 0.007483 0.005946 -152602.000000 0 0 1
-8.700419 -27.375105 12.494741 31.324307 1.263070 1.160498 0.006247 0.001917 -168443.000000 0 0 1
-9.307719 -26.069005 13.123341 30.634111 1.227862 1.128086 0.002020 -0.002789 -73875.300000 0 0 1
-8.934519 -24.810205 12.713241 29.274535 1.225139 1.121561 -0.002231 0.003146 -195176.000000 0 0 1
-9.467019 -24.438105 11.444841 28.597724 1.201210 1.159060 0.000724 0.008314 83567.600000 0 0 1
-9.009619 -23.009605 11.032441 27.061595 1.197588 1.150886 -0.010612 0.011142 -296292.000000 0 0 1
-7.736519 -23.094105 10.465241 26.508728 1.247547 1.164963 -0.015688 0.009602 -824036.000000 0 0 1
-7.212819 -21.875805 10.024041 25.120848 1.252304 1.160335 -0.013012 0.016330 112525.000000 0 0 1
-6.084019 -22.138605 8.989241 24.656431 1.302602 1.197615 -0.009850 -0.000006 378510.000000 0 1 0
-4.891219 -22.561805 9.624841 25.011930 1.357308 1.175794 -0.023779 -0.002205 -261412.000000 0 0 1
-3.837519 -22.759205 8.702441 24.666585 1.403754 1.210231 -0.019901 -0.004481 178281.000000 0 1 0
-2.655419 -23.511005 9.352041 25.441684 1.458329 1.194383 -0.014557 0.003301 -54637.500000 0 0 1
-1.959219 -22.787605 10.329541 25.096073 1.485030 1.146587 -0.007916 0.001972 -562714.000000 0 0 1
-1.107219 -23.677005 10.995841 26.129199 1.524067 1.136441 -0.008096 -0.001293 14523.300000 0 0 1
-0.170519 -23.118405 12.086041 26.087585 1.563421 1.089096 -0.004753 0.000808 -92101.100000 0 0 1
-0.852419 -22.560705 13.196041 26.150479 1.533031 1.041855 -0.006926 0.000746 79892.900000 0 0 1
-0.017419 -22.195005 14.329841 26.418987 1.570012 0.997497 -0.002084 0.002068 50068.000000 0 0 1
0.671581 -20.848505 14.330641 25.307676 -1.538595 0.968839 -0.000047 -0.003797 340423.000000 0 0 1
1.851581 -20.834005 13.514641 24.902402 -1.482156 0.997143 0.008463 -0.002683 176040.000000 0 1 0
2.100181 -19.540305 13.001241 23.564094 -1.463728 0.986348 0.003328 -0.007352 533138.000000 0 1 0
3.590481 -19.411905 12.550041 23.392673 -1.387900 1.004519 0.009901 -0.007917 690699.000000 0 1 0
3.860581 -20.259205 11.455741 23.591810 -1.382495 1.063768 0.022946 -0.001283 -406722.000000 0 1 0
5.258181 -20.299505 11.263241 23.802919 -1.317337 1.077891 0.027927 -0.002006 60891.700000 0 1 0
5.690881 -20.982605 9.993541 23.927530 -1.305949 1.139929 0.027161 -0.007424 -382181.000000 0 1 0
5.544281 -20.271105 8.731941 22.757494 -1.303819 1.177002 0.022652 -0.010474 -445098.000000 0 1 0
5.871481 -21.114305 7.635241 23.207436 -1.299568 1.235552 0.019959 -0.013682 73342.300000 0 1 0
7.322281 -21.653905 7.412141 24.030132 -1.244717 1.257231 0.034084 -0.004840 611659.000000 0 1 0
8.276681 -20.774505 6.801041 23.373867 -1.191665 1.275558 0.030711 -0.013469 162274.000000 0 1 0
8.794281 -19.684205 7.574141 22.851147 -1.150633 1.232950 0.033778 -0.010514 428909.000000 0 1 0
9.715881 -19.997605 8.801741 23.911779 -1.118531 1.193840 0.019136 0.000565 -130559.000000 0 1 0
8.936281 -20.296105 9.914541 24.291709 -1.156042 1.150375 0.034997 0.001524 -798960.000000 0 1 0
9.587981 -19.952605 11.123341 24.774272 -1.122839 1.105164 0.029241 0.007325 -51674.900000 0 1 0
8.836681 -20.136805 12.452741 25.271498 -1.157268 1.055540 0.026894 0.005166 -360588.000000 0 0 1
8.840981 -21.462705 12.894541 26.553340 -1.180054 1.063737 0.032824 -0.001679 -130399.000000 0 0 1
7.981581 -21.538805 14.015841 26.908541 -1.215917 1.022927 0.032413 -0.003126 224660.000000 0 0 1
7.912081 -22.953005 14.629641 28.345509 -1.238844 1.028483 0.030206 -0.001175 409573.000000 0 0 1
7.341081 -24.015505 13.824141 28.666057 -1.274136 1.067578 0.039188 0.000996 -76617.200000 0 0 1
7.246681 -25.256705 14.522941 30.022181 -1.291381 1.065873 0.040654 -0.001759 354098.000000 0 0 1
7.217781 -26.556205 13.609841 30.701078 -1.305414 1.111518 0.044908 -0.011518 -100253.000000 0 0 1
8.502681 -26.858105 13.155341 31.092063 -1.264201 1.133922 0.053838 -0.011450 -461603.000000 0 0 1
8.378181 -27.883805 12.142641 31.545907 -1.278911 1.175675 0.050585 -0.011557 472536.000000 0 0 1
9.767981 -28.313005 11.591641 32.115508 -1.238583 1.201525 0.052970 -0.015325 199681.000000 0 0 1
10.510081 -29.115805 12.445641 33.362942 -1.224378 1.188515 0.050303 -0.020120 -166863.000000 0 0 1
11.671181 -29.617105 11.809541 33.953713 -1.195413 1.215559 0.053287 -0.017019 391460.000000 0 0 1
12.678581 -30.448705 12.657841 35.328331 -1.176240 1.204359 0.034778 -0.019408 91123.400000 0 0 1
13.262281 -29.670205 13.715841 35.275111 -1.150448 1.171441 0.036152 -0.016625 1062640.000000 0 0 1
14.149781 -30.354705 14.704241 36.576483 -1.134595 1.157081 0.033773 -0.023126 1560250.000000 0 0 1
15.599381 -30.597805 14.189641 37.160628 -1.099323 1.179003 0.033757 -0.016506 171901.000000 0 0 1
16.189681 -29.407805 13.669641 36.246156 -1.067551 1.184097 0.033928 -0.020315 -732116.000000 0 0 1
17.501181 -29.512605 13.270241 36.788374 -1.035535 1.201758 0.028980 -0.010908 -1081150.000000 0 0 1
18.281881 -28.238805 13.014941 36.070015 -0.996249 1.201645 0.007680 -0.015990 707939.000000 0 0 1
19.657281 -28.518305 12.699141 36.891335 -0.967297 1.219377 0.000772 -0.016181 1096500.000000 0 0 1
20.457081 -27.338905 12.494441 36.359579 -0.928399 1.220011 -0.009591 -0.009850 111259.000000 0 0 1
21.855081 -27.633905 11.971241 37.210051 -0.901642 1.243250 -0.006335 -0.003938 -307644.000000 0 0 1
22.776281 -28.293805 12.806141 38.513577 -0.893019 1.231833 0.005186 -0.012632 -235066.000000 0 0 1
23.901481 -28.743505 12.119341 39.298197 -0.877115 1.257292 -0.003498 -0.014559 -443273.000000 0 0 1
24.956781 -29.416105 13.093041 40.737892 -0.867229 1.243592 0.001565 -0.010749 830188.000000 0 0 1
25.895381 -28.573005 13.780541 40.949856 -0.834518 1.227575 0.000442 -0.016998 824035.000000 0 0 1
26.964581 -28.132605 12.960641 41.067144 -0.806594 1.249711 -0.014806 -0.018937 -175861.000000 0 0 1
28.191481 -27.403805 13.561241 41.588885 -0.771231 1.238644 0.003236 -0.019587 185177.000000 0 0 1
28.090281 -25.990405 13.819441 40.688352 -0.746589 1.224261 0.020267 -0.024065 -100471.000000 0 0 1
27.223281 -25.669505 14.875141 40.265374 -0.756031 1.192403 0.028187 -0.022583 -574415.000000 0 0 1
27.916581 -25.634405 16.262241 41.242196 -0.742807 1.165479 0.014135 -0.010046 -139120.000000 0 0 1
28.336681 -26.902905 16.800041 42.532049 -0.759448 1.164731 0.014643 -0.010483 210328.000000 0 0 1
28.988581 -26.602205 18.031141 43.279755 -0.742497 1.141074 0.021386 0.002176 -54911.300000 0 0 1
29.386781 -27.908505 18.696241 44.632018 -0.759603 1.138565 0.007662 0.014040 941050.000000 0 0 1
28.269481 -28.626705 19.313341 44.627984 -0.791677 1.123241 0.004494 0.004468 906719.000000 0 0 1
28.769781 -29.781005 19.994541 45.982499 -0.802667 1.120948 0.007271 0.000995 500856.000000 0 0 1
27.702181 -30.841605 20.449441 46.225481 -0.838972 1.112540 0.004681 0.010253 -634116.000000 0 0 1
26.899481 -30.415305 21.613741 45.998116 -0.846664 1.081638 0.000772 0.016624 1347130.000000 0 0 1
25.799381 -31.315005 21.895741 46.104892 -0.881671 1.075933 -0.002688 0.015378 841440.000000 0 0 1
24.726881 -31.390905 20.801241 45.049963 -0.903595 1.090844 0.025528 0.008204 -1394140.000000 0 0 1
25.091181 -32.330105 19.788041 45.457339 -0.910804 1.120414 0.015389 0.009480 -73071.000000 0 0 1
24.414281 -32.144505 18.551841 44.424060 -0.921232 1.139985 0.030194 -0.000843 -185498.000000 0 0 1
25.050181 -31.120005 17.598741 43.654117 -0.893042 1.155850 0.034349 0.003132 97332.200000 0 0 1
26.358881 -31.418205 17.150841 44.452734 -0.872742 1.174698 0.008280 0.006945 131224.000000 0 0 1
26.803381 -30.435105 16.221141 43.678854 -0.848762 1.190309 0.020354 -0.006337 226347.000000 0 0 1
28.046281 -30.974505 15.435541 44.545143 -0.834971 1.216943 0.009704 -0.002698 -56387.100000 0 0 1
27.821981 -32.035005 14.561541 44.859142 -0.855667 1.240201 0.021549 0.003420 130325.000000 0 0 1
27.976281 -33.296905 15.220541 46.076253 -0.872015 1.234139 0.019930 -0.001041 -291100.000000 0 0 1
27.267881 -34.488505 14.577541 46.319532 -0.901791 1.250638 0.025391 -0.004769 -222648.000000 0 0 1
27.601981 -34.598605 13.203441 46.187268 -0.897412 1.280885 0.022760 0.000241 420457.000000 0 0 1
26.826881 33.726161 12.618541 44.903932 0.898847 1.285948 0.013349 -0.005984 -101246.000000 0 0 1
27.268181 33.243261 11.161541 44.421257 0.883822 1.316809 0.014299 -0.006543 -918162.000000 0 0 1
28.536681 32.702761 11.119341 44.804604 0.853323 1.320001 -0.015415 -0.002783 -689516.000000 0 0 1
28.823481 32.170461 9.824041 44.297217 0.840217 1.347161 -0.012661 -0.005865 -116125.000000 0 0 1
30.219881 31.539961 9.701941 44.745257 0.806769 1.352234 -0.033377 0.001475 -291548.000000 0 0 1
30.392281 30.471161 10.582541 44.318987 0.786694 1.329686 -0.038268 0.006311 769037.000000 0 0 1
31.761481 30.143861 10.859941 45.115212 0.759274 1.327693 -0.022009 0.007279 716196.000000 0 0 1
31.905981 29.452061 12.223541 45.109096 0.745426 1.296388 -0.025901 0.010290 -186107.000000 0 0 1
31.417481 28.107761 12.254141 43.900664 0.729853 1.287905 -0.024969 0.013329 328114.000000 0 0 1
31.676381 27.426361 13.471241 44.012189 0.713613 1.259724 -0.011374 -0.003657 -100030.000000 0 0 1
31.594581 25.858361 13.219241 42.914109 0.685886 1.257665 -0.012105 0.005547 100223.000000 0 0 1
32.688481 25.428761 12.418441 43.236285 0.661127 1.279470 -0.009060 0.012895 -112996.000000 0 0 1
32.780481 24.025461 12.131841 42.414199 0.632480 1.280713 0.009510 0.006384 -887859.000000 0 0 1
31.754481 23.535261 11.136141 41.064209 0.637822 1.296169 -0.005042 0.008701 -232636.000000 0 0 1
30.492081 23.292461 11.725641 40.122268 0.652329 1.274220 0.001206 -0.000807 -330756.000000 0 0 1
29.450681 23.348761 10.794741 39.102861 0.670341 1.291104 -0.005850 0.008898 44954.900000 0 0 1
28.057681 23.005961 11.394241 38.030730 0.686789 1.266516 -0.010884 0.010809 195343.000000 0 0 1
27.822781 23.773561 12.500041 38.672217 0.707080 1.241655 -0.004463 0.006161 72384.100000 0 0 1
26.800781 23.208861 13.320741 37.873147 0.713697 1.211389 0.008302 0.006122 189321.000000 0 0 1
23.661681 9.162461 26.226509 36.491857 0.369448 0.768873 -0.012086 0.018532 -202238.000000 0 0 1
23.368681 8.068761 27.102319 36.684273 0.332465 0.739509 -0.008190 0.005556 -953240.000000 0 0 1
22.093381 7.603961 26.928379 35.652143 0.331475 0.714671 0.003367 0.013415 -1106320.000000 0 0 1
21.629681 6.526261 27.904379 35.903893 0.293041 0.680598 0.015582 0.005069 -136485.000000 0 0 1
21.730681 6.869861 29.266719 37.093912 0.306194 0.661633 0.008310 0.002584 112533.000000 0 0 1
23.003581 6.506261 29.750769 38.165487 0.275637 0.676897 0.004876 -0.002416 -283711.000000 0 0 1
22.998981 6.240661 31.230329 39.283997 0.264965 0.651808 0.013739 -0.011407 -595589.000000 0 0 1
22.967081 7.478461 31.958899 40.059773 0.314789 0.647191 0.021655 -0.012790 119050.000000 0 0 1
22.826881 7.372061 33.306418 41.045478 0.312381 0.624165 0.030048 -0.014322 -204708.000000 0 0 1
22.858481 8.764661 34.001912 41.898204 0.366142 0.624020 0.039029 -0.005700 393303.000000 0 0 1
24.097781 9.460761 34.071930 42.791418 0.374110 0.649754 0.024357 -0.007376 18455.400000 0 0 1
24.030381 10.356161 -34.128214 43.005165 0.406909 2.487473 0.039295 -0.002117 496869.000000 0 0 1
25.164981 11.439861 -34.211167 43.983527 0.426668 2.461982 0.022376 -0.004699 138459.000000 0 0 1
24.929881 12.700661 34.414568 44.352771 0.471183 0.682611 0.013730 -0.006328 192898.000000 0 0 1
24.844381 13.692161 -33.858609 44.171529 0.503700 2.444210 0.007536 -0.009292 -721579.000000 0 0 1
24.593781 15.106061 -34.315416 44.839658 0.550812 2.442291 0.010598 0.001993 -410344.000000 0 0 1
25.740481 15.637761 34.330954 45.669753 0.545928 0.720127 -0.006625 -0.000462 -214906.000000 0 0 1
25.543381 16.931761 33.885107 45.687518 0.585365 0.735238 0.005018 0.002876 -76373.500000 0 0 1
26.000181 18.042761 -34.325849 46.688484 0.606652 2.396773 0.001240 -0.001598 -377224.000000 0 0 1
25.481281 17.965961 -32.993739 45.394474 0.614117 2.384481 0.000510 -0.014405 468955.000000 0 0 1
26.349081 17.263661 -32.080979 44.961064 0.580015 2.365317 -0.012623 -0.006991 -18075.000000 0 0 1
25.553581 16.793461 -30.828459 43.421190 0.581410 2.360275 -0.013770 -0.009434 -26390.000000 0 0 1
24.889181 15.595661 -31.104909 42.780969 0.559752 2.384846 -0.005054 -0.004531 -240897.000000 0 0 1
24.113881 15.127761 -30.042639 41.387058 0.560285 2.383130 0.003205 -0.017451 -104709.000000 0 0 1
23.493981 13.756161 -30.386919 40.799068 0.529703 2.411023 0.023657 -0.019146 72760.500000 0 0 1
22.326681 13.912661 -31.208959 40.817177 0.557261 2.441222 0.016525 -0.014451 533301.000000 0 0 1
21.737981 12.676261 -31.581729 40.381097 0.527929 2.468812 0.014378 0.003062 32272.000000 0 0 1
20.909681 11.870561 -30.551029 38.877890 0.516336 2.474817 0.021410 0.006087 -429528.000000 0 0 1
19.765181 12.597861 -30.154969 38.192809 0.567450 2.480865 0.021826 0.009029 -363222.000000 0 0 1
19.018981 11.845161 -29.259139 36.852770 0.557021 2.488070 0.022053 0.015677 -1022240.000000 0 0 1
17.752481 12.540861 -28.826759 36.102712 0.615027 2.495538 0.022879 0.000663 -550397.000000 0 0 1
16.856681 12.707361 -29.931159 36.626479 0.645959 2.527332 0.005236 0.010472 -476280.000000 0 0 1
15.715981 13.353361 -29.495309 35.989965 0.704301 2.531409 0.003271 -0.005089 -546545.000000 0 0 1
14.645081 13.585161 -30.630579 36.568666 0.747870 2.563705 -0.009651 -0.001154 526371.000000 0 0 1
13.995081 12.457961 -31.191959 36.386830 0.727356 2.600666 -0.022598 0.010221 -562807.000000 0 0 1
12.842581 12.083861 -30.505119 35.235122 0.754969 2.617461 -0.010796 0.003658 -1159770.000000 0 0 1
11.827381 11.536161 -31.464639 35.538619 0.772934 2.658074 -0.005835 0.008770 -619256.000000 0 0 1
11.509081 12.460861 -32.464139 36.628572 0.825085 2.660104 0.006660 0.008250 -172043.000000 0 0 1
10.370181 11.904861 -33.097169 36.670001 0.854186 2.696494 0.015371 0.018013 189419.000000 0 0 1
9.881581 12.790761 -34.303557 37.920749 0.913015 2.701264 0.016555 0.014544 -62570.400000 0 0 1
10.659181 12.674961 33.801257 37.640374 0.871572 0.455581 0.007531 0.015483 -200344.000000 0 0 1
10.038181 13.230661 32.670269 36.649174 0.921747 0.470299 0.008232 0.013086 -832736.000000 0 0 1
10.835681 13.280561 31.397779 35.771578 0.886432 0.499693 0.008584 0.019712 -643215.000000 0 0 1
11.123781 11.982061 30.892889 34.952523 0.822527 0.486760 0.001496 0.018441 130932.000000 0 0 1
11.315181 11.929261 29.451679 33.730431 0.811810 0.509172 0.014836 0.017658 57535.500000 0 0 1
12.125281 10.667861 28.979089 33.175493 0.721544 0.508432 0.005242 0.020816 378644.000000 0 0 1
11.392681 9.425661 29.108359 32.648627 0.691193 0.470008 0.002733 0.017955 -214183.000000 0 0 1
12.055481 8.334461 28.663109 32.192727 0.604892 0.472662 -0.008498 0.009891 -1171320.000000 0 0 1
11.301781 7.015261 28.839739 31.759639 0.555517 0.432162 -0.008107 0.010705 -759423.000000 0 0 1
10.161881 7.010961 28.049269 30.646026 0.603934 0.414628 -0.006199 0.003722 -766813.000000 0 0 1
9.278381 5.940761 28.322679 30.390050 0.569512 0.370981 -0.014661 -0.002797 20499.300000 0 0 1
9.681981 4.619661 27.603619 29.614892 0.445193 0.370667 -0.018909 0.005753 -560496.000000 0 0 1
10.639881 3.920661 28.306289 30.493026 0.353049 0.381016 -0.025175 0.007922 -438101.000000 0 0 1
10.786781 2.718161 27.675559 29.827498 0.246851 0.382180 -0.035275 0.012571 -244686.000000 0 0 1
11.218381 1.594061 28.700119 30.855955 0.141149 0.376023 -0.034790 0.009929 -201819.000000 0 0 1
10.280581 1.334661 29.700329 31.457610 0.129101 0.335827 -0.022513 0.014251 -222178.000000 0 0 1
10.760081 0.312261 30.557849 32.398441 0.029012 0.338696 -0.014892 0.012801 306884.000000 0 0 1
9.710881 -0.068439 31.621479 33.079054 -0.007048 0.297963 -0.009104 0.014976 -15854.300000 0 0 1
9.775581 0.871161 32.685839 34.127481 0.088881 0.291697 -0.019898 0.010363 142301.000000 0 0 1
8.516181 0.993561 33.372564 34.456357 0.116142 0.251477 -0.013555 0.011174 632007.000000 0 0 1
8.487281 2.306861 34.174961 35.288575 0.265391 0.251892 -0.007590 0.006889 -168114.000000 0 0 1
8.451881 3.579261 33.508246 34.742596 0.400588 0.267361 -0.016788 0.004225 89859.400000 0 0 1
9.596681 3.909961 32.734829 34.335887 0.386894 0.306582 -0.011726 0.006769 -90568.200000 0 0 1
9.537881 5.310461 32.042179 33.850752 0.508030 0.328361 -0.012680 0.012772 39458.200000 0 0 1
9.601281 6.459461 32.886189 34.862740 0.592217 0.338347 -0.010818 0.011042 25108.800000 0 0 1
9.768581 7.698161 32.188029 34.507334 0.667414 0.368724 -0.008255 0.014074 -97636.200000 0 0 1
9.743881 8.960461 33.079199 35.629573 0.743538 0.380660 -0.006214 0.013228 -97606.400000 0 0 1
8.429781 9.236961 33.531894 35.787855 0.831056 0.356961 -0.004980 0.009085 -37891.700000 0 0 1
8.144981 8.829761 -34.427311 36.462928 0.825717 2.805871 -0.000502 0.007559 -387762.000000 0 0 1
6.720781 9.105261 -33.946159 35.782906 0.934941 2.819799 0.004823 0.008192 -270965.000000 0 0 1
6.450081 8.573861 -32.693369 34.408880 0.925827 2.824492 0.011485 0.004139 -182978.000000 0 0 1
5.064581 8.759261 -32.490389 34.029399 1.046563 2.839695 0.008910 0.005035 -49776.600000 0 0 1
4.497781 7.975261 -31.280109 32.592638 1.057293 2.856833 -0.004877 0.001646 -462018.000000 0 0 1
4.779681 8.627561 -30.050399 31.627624 1.064886 2.824453 -0.002638 -0.002944 162702.000000 0 0 1
4.529381 7.911161 -28.898429 30.302161 1.050820 2.836022 -0.010738 0.001134 376603.000000 0 0 1
3.031981 7.857161 -28.445439 29.665988 1.202515 2.853744 -0.007200 0.002789 377362.000000 0 0 1
2.249081 7.064261 -29.306279 30.229458 1.262569 2.893819 -0.009554 0.007028 -544748.000000 0 0 1
0.883181 7.272561 -29.094909 30.003064 1.449948 2.894924 0.002925 0.015145 -265060.000000 0 0 1
-0.057519 6.684661 -30.191209 30.922437 -1.562192 2.923689 0.011164 0.006785 121849.000000 0 0 1
-0.046419 7.415561 -31.370119 32.234718 -1.564537 2.909460 0.007585 0.007717 122201.000000 0 0 1
-0.433419 6.571961 -32.449869 33.111516 -1.504942 2.941346 0.014893 0.002590 -359527.000000 0 0 1
-0.192919 7.184761 -33.824079 34.579276 -1.543952 2.932215 0.020991 -0.005583 1444760.000000 0 0 1
1.237681 7.250561 -34.105073 34.889231 1.401725 2.929176 0.006576 -0.003860 1587450.000000 0 0 1
1.871281 6.146561 34.515582 35.108508 1.275268 0.184044 0.014245 -0.001623 -165491.000000 0 0 1
1.844181 5.912461 32.988159 33.564517 1.268445 0.185586 0.024925 -0.009144 360446.000000 0 0 1
0.512781 5.465461 32.639699 33.098099 1.477248 0.166624 0.033113 -0.015327 708246.000000 0 0 1
0.176281 5.477061 31.253119 31.729903 1.538622 0.173575 0.057254 -0.020537 -238197.000000 0 0 1
0.838381 4.486261 30.347919 30.689177 1.386050 0.149268 0.068803 -0.034321 -469520.000000 0 0 1
0.601081 4.699761 28.983479 29.368199 1.443591 0.162041 0.068361 -0.032817 9677.330000 0 0 1
1.252381 3.788861 28.101329 28.383245 1.251559 0.141060 0.059612 -0.026484 75867.700000 0 0 1
1.340381 4.315961 26.647669 27.028178 1.269676 0.167996 0.055848 -0.028925 346466.000000 0 0 1
2.300881 5.353861 26.455469 27.089661 1.164900 0.216808 0.051913 -0.020778 171637.000000 0 0 1
2.214281 5.794561 25.144569 25.898443 1.205789 0.241873 0.047660 -0.019224 -1047810.000000 0 0 1
2.978881 7.137561 24.963199 26.133883 1.175421 0.300447 0.042740 -0.012088 4902.100000 0 0 1
4.372581 6.981461 24.804129 26.136279 1.011253 0.320650 0.021528 -0.001048 -370699.000000 0 0 1
4.801281 6.455061 23.573559 24.908488 0.931274 0.328874 0.023081 -0.014510 -807403.000000 0 1 0
6.351881 6.374061 23.603759 25.260889 0.787141 0.364227 0.020754 -0.011504 48483.900000 0 0 1
6.976281 5.459861 24.462639 26.017288 0.664061 0.347446 0.016950 -0.005867 -100217.000000 0 0 1
6.869981 4.100061 24.226639 25.513471 0.538069 0.318958 0.022590 -0.012357 -780727.000000 0 0 1
7.128781 3.495761 22.781959 24.125868 0.455916 0.335348 0.010351 -0.011336 322860.000000 0 1 0
6.166081 3.809061 21.757059 22.932490 0.553365 0.321559 0.018448 -0.014120 -230388.000000 0 1 0
4.915081 3.215661 21.945459 22.717871 0.579353 0.261513 0.015066 -0.023204 -1359610.000000 0 1 0
3.885781 3.684661 20.974759 21.647553 0.758838 0.249967 0.013678 -0.022372 -715380.000000 0 1 0
3.380881 4.987961 21.248059 22.085971 0.975120 0.276337 0.011039 -0.019814 394483.000000 0 1 0
2.140481 5.208661 20.577659 21.334288 1.180889 0.267122 0.015439 -0.013042 127881.000000 0 1 0
1.724681 6.678161 20.642459 21.764271 1.318062 0.322468 0.019460 -0.009577 308054.000000 0 1 0
2.522681 7.676061 19.933159 21.508525 1.253273 0.385112 0.012049 -0.012211 309265.000000 0 1 0
1.988381 8.946661 20.199159 22.181128 1.352102 0.425951 0.019588 -0.009303 217686.000000 0 1 0
2.970781 10.091361 19.844259 22.460092 1.284496 0.487441 0.026140 -0.010574 -180803.000000 0 1 0
3.081481 10.183561 18.418659 21.270812 1.276962 0.523825 0.007235 -0.010924 221797.000000 0 1 0
3.943781 11.239161 18.006559 21.589542 1.233323 0.584404 0.011236 -0.011732 244619.000000 0 1 0
5.469881 11.028361 18.033959 21.835018 1.110367 0.598966 0.017672 -0.015990 -243244.000000 0 1 0
5.936781 10.095861 17.105159 20.730611 1.039217 0.600389 0.015654 -0.012326 88068.200000 0 1 0
7.208881 9.573561 17.453759 21.172027 0.925379 0.601693 0.015047 -0.003170 206470.000000 0 1 0
7.081781 8.096261 17.926459 20.905956 0.852138 0.540443 0.011322 -0.004457 -188251.000000 0 1 0
6.791681 7.984761 19.318359 21.979134 0.865965 0.497159 0.016975 -0.003951 6056.380000 0 1 0
6.871181 6.634461 19.702759 21.895842 0.767872 0.451393 0.013610 -0.015835 -194244.000000 0 1 0
8.270381 6.183361 20.178559 22.667320 0.641996 0.473002 0.019049 -0.007190 376935.000000 0 1 0
9.111281 5.915661 19.025759 21.908674 0.575860 0.518805 0.015778 -0.010083 -79007.300000 0 1 0
10.302681 5.217761 19.302159 22.493190 0.468792 0.539173 0.018024 -0.008814 -120986.000000 0 1 0
10.313881 3.674261 19.176759 22.082220 0.342227 0.518779 0.013957 -0.011015 -311030.000000 0 1 0
9.701181 3.004561 20.244859 22.649385 0.300342 0.464965 0.016657 -0.009198 6236.850000 0 1 0
9.925581 1.660761 20.178559 22.548826 0.165786 0.462628 0.009662 -0.018539 -170699.000000 0 1 0
9.097781 0.874361 21.213759 23.098868 0.095813 0.406805 0.011471 -0.015194 -317395.000000 0 1 0
9.404681 1.027861 22.579059 24.480981 0.108860 0.396780 -0.002385 -0.012411 104256.000000 0 1 0
8.570581 0.128361 23.259459 24.788581 0.014976 0.353076 0.003441 -0.020385 -319192.000000 0 1 0
8.907381 0.139361 24.772179 26.325306 0.015644 0.345216 0.001691 -0.008325 456042.000000 0 0 1
10.205681 -0.369139 25.111559 27.108718 -0.036154 0.386251 -0.008892 -0.004412 602453.000000 0 0 1
10.310781 -1.763839 25.110229 27.201966 -0.169427 0.394722 -0.014757 -0.000684 -708056.000000 0 0 1
11.684381 -2.383739 25.385519 28.046953 -0.201249 0.439163 -0.019389 0.012670 -329759.000000 0 0 1
11.772881 -3.770339 25.245549 28.109677 -0.309935 0.455346 -0.012765 0.018816 -565204.000000 0 0 1
13.081781 -4.229039 25.362119 28.848828 -0.312673 0.496745 -0.013789 0.025989 -475986.000000 0 0 1
13.075681 -5.793639 25.395239 29.145460 -0.417089 0.512895 -0.007605 0.016657 -95189.600000 0 0 1
13.025481 -6.498339 24.138559 28.187969 -0.462763 0.542651 0.004796 0.007993 182998.000000 0 0 1
12.747481 -7.871239 24.364859 28.602465 -0.553169 0.551299 0.015966 0.002734 21461.000000 0 0 1
12.588781 -8.752239 23.082659 27.710797 -0.607525 0.586317 0.037644 0.002494 68029.100000 0 0 1
12.109381 -10.046139 23.293759 28.109807 -0.692541 0.594069 0.039580 0.009980 -365436.000000 0 0 1
12.057681 -10.666439 22.009359 27.268525 -0.724251 0.631515 0.038943 0.000200 -37039.800000 0 0 1
11.526581 -12.075339 22.061359 27.665492 -0.808645 0.647768 0.044113 0.002147 -391790.000000 0 0 1
10.170181 -12.106139 22.395459 27.414372 -0.872087 0.614739 0.040657 0.001577 -798188.000000 0 0 1
9.666181 -13.430139 22.328359 27.791353 -0.946946 0.637765 0.033522 0.001329 95469.400000 0 0 1
8.143881 -13.383539 22.600059 27.499174 -1.024150 0.606154 0.010390 0.009363 -62402.400000 0 0 1
7.426281 -12.609539 21.706559 26.178709 -1.038548 0.593178 0.003240 -0.002733 -1194940.000000 0 0 1
6.084681 -12.534639 22.046759 26.080646 -1.118873 0.563613 -0.016594 0.004166 -540593.000000 0 0 1
5.364881 -11.341439 21.383759 24.792647 -1.128954 0.530599 -0.028784 0.015870 -80547.600000 0 1 0
5.574281 -10.095839 22.041359 24.876095 -1.066314 0.482051 -0.012382 0.023363 -89706.300000 0 1 0
4.883381 -9.028939 21.406259 23.740200 -1.074998 0.447138 -0.017465 0.022818 -213335.000000 0 1 0
5.324981 -7.564439 21.874859 23.750487 -0.957425 0.400085 -0.009101 0.010399 -191392.000000 0 1 0
4.544581 -6.565239 21.323859 22.769773 -0.965312 0.358288 -0.021417 0.003461 -172133.000000 0 1 0
5.132281 -5.264639 21.510259 22.732091 -0.798128 0.329356 0.003662 -0.013616 -213944.000000 0 1 0
-7.750319 -15.664839 -20.769059 27.144215 1.111350 2.442051 0.023062 0.012405 220692.000000 0 0 1
-6.792519 -15.309739 -19.786459 25.923548 1.153216 2.439143 0.006560 0.006594 -126531.000000 0 0 1
-6.449519 -13.924239 -19.919459 25.144891 1.137031 2.485181 0.018414 -0.005403 105231.000000 0 0 1
-5.890919 -13.426639 -18.566559 23.657867 1.157338 2.473160 0.025929 -0.013528 327285.000000 0 1 0
-4.760019 -14.202539 -18.193059 23.566019 1.247409 2.452784 0.016319 -0.001732 -428696.000000 0 1 0
-4.155119 -13.788939 -17.047259 22.316112 1.278113 2.440130 0.013405 -0.002571 475336.000000 0 1 0
-3.083219 -14.799939 -16.492459 22.372877 1.365408 2.399659 0.008756 0.008385 680645.000000 0 1 0
-1.877919 -14.984839 -17.186459 22.878950 1.446125 2.420661 0.010146 0.002076 529566.000000 0 1 0
-0.834519 -15.655439 -16.410759 22.695863 1.517541 2.379037 0.019870 0.008267 1975450.000000 0 1 0
0.464281 -16.016239 -17.285459 23.569526 -1.541816 2.394079 0.008658 0.018090 1129790.000000 0 1 0
0.420281 -16.894639 -18.378659 24.967590 -1.545925 2.398088 0.016230 0.011065 -538137.000000 0 1 0
-0.037619 -18.157939 -17.976959 25.551579 1.568725 2.351185 0.010868 0.012970 -225697.000000 0 0 1
-0.533319 -18.822339 -19.312059 26.972588 1.542470 2.368835 0.009409 0.009631 -236434.000000 0 0 1
-1.745119 -18.247539 -19.721859 26.925264 1.475450 2.392734 0.029506 0.003424 -554699.000000 0 0 1
-1.780719 -18.386739 -21.156859 28.086577 1.474249 2.423821 0.033152 0.002506 -108422.000000 0 0 1
-2.779919 -17.367539 -21.699159 27.932290 1.412079 2.460442 0.039070 0.003421 70292.100000 0 0 1
-2.281619 -16.012939 -21.613759 26.995825 1.429263 2.499148 0.041156 0.011350 -252344.000000 0 0 1
-2.790519 -15.302839 -20.519359 25.748941 1.390425 2.492944 0.047090 -0.001875 -283768.000000 0 0 1
-2.271819 -13.880939 -20.336159 24.726524 1.408570 2.536489 0.029269 -0.018153 -264291.000000 0 1 0
-2.337819 -13.059039 -21.509759 25.271993 1.393654 2.588931 0.028409 -0.025712 620894.000000 0 0 1
-1.458919 -11.907939 -21.519459 24.637665 1.448887 2.633014 0.008429 -0.010439 439272.000000 0 1 0
-1.653719 -11.239739 -22.887059 25.551594 1.424713 2.680843 0.014808 0.000540 377192.000000 0 0 1
-2.888119 -10.530439 -22.993559 25.454570 1.303115 2.698238 0.018933 -0.003646 631963.000000 0 0 1
-3.024719 -9.998139 -24.262859 26.415867 1.277022 2.735056 0.018070 -0.010294 -541657.000000 0 0 1
-4.063019 -8.892339 -24.363359 26.251763 1.142209 2.759981 0.013969 -0.005593 -807964.000000 0 0 1
-5.393619 -9.352039 -24.420359 26.700294 1.047661 2.725339 0.002044 -0.007216 -211405.000000 0 0 1
-6.148019 -8.241939 -24.010159 26.119254 0.929897 2.736971 0.010683 -0.011909 97055.100000 0 0 1
-7.690919 -8.550639 -23.917959 26.539262 0.838282 2.693394 -0.011123 -0.010397 1092800.000000 0 0 1
-8.463519 -8.639539 -25.130389 27.889231 0.795690 2.693047 -0.015586 -0.005966 337002.000000 0 0 1
-8.624619 -7.491739 -25.941299 28.345391 0.715220 2.726765 -0.015645 -0.005860 -176541.000000 0 0 1
-9.202819 -7.907039 -27.352149 29.922453 0.709810 2.724082 -0.017810 -0.008077 157848.000000 0 0 1
-9.796719 -6.864339 -28.040219 30.485221 0.611180 2.738359 -0.009183 -0.014886 -50077.400000 0 0 1
-10.364519 -7.372339 -29.239189 31.885809 0.618273 2.731282 0.005826 -0.015612 110184.000000 0 0 1
-11.160919 -6.363739 -30.111639 32.737961 0.518205 2.738309 0.010517 -0.018772 667745.000000 0 0 1
-10.364419 -5.374639 -30.807109 32.945195 0.478390 2.779342 -0.002072 -0.014302 568113.000000 0 0 1
-11.224019 -4.800239 -31.766929 34.031730 0.404135 2.774711 0.013610 -0.024825 5809.110000 0 0 1
-10.463719 -3.743839 -32.572749 34.416416 0.343600 2.812793 0.016984 -0.021449 757858.000000 0 0 1
-9.377619 -4.225039 -33.392389 34.940554 0.423307 2.842796 0.016628 -0.009644 921640.000000 0 0 1
-8.626019 -3.177039 -34.007179 35.227688 0.352892 2.877592 0.012912 -0.005555 -173220.000000 0 0 1
-7.547819 -3.644639 34.290393 35.299915 0.449852 0.239732 0.011973 -0.009469 -27043.800000 0 0 1
-6.299119 -3.863039 -34.357211 35.142850 0.550117 2.929747 0.010784 -0.012154 -250099.000000 0 0 1
-5.270919 -4.234439 34.031555 34.696683 0.676786 0.196119 0.004212 -0.005542 -79279.700000 0 0 1
-3.852619 -3.761139 34.358169 34.777473 0.773384 0.155442 0.007158 -0.007283 -143506.000000 0 0 1
-3.692219 -2.353339 34.397039 34.674587 0.567451 0.126610 0.013964 -0.016824 399378.000000 0 0 1
-2.367119 -1.999639 -34.463502 34.602525 0.701442 3.051922 0.019176 -0.015537 696854.000000 0 0 1
-2.277519 -0.562039 -33.868579 33.949722 0.241943 3.072440 0.026794 -0.020680 -116250.000000 0 0 1
-2.800819 -0.595939 -32.564089 32.689748 0.209647 3.053883 0.010888 -0.018505 92965.500000 0 0 1
-3.281019 0.662561 -32.085009 32.259136 -0.199258 3.037644 0.018879 -0.020863 -941270.000000 0 0 1
-3.918319 0.389861 -30.688949 30.940536 -0.099171 3.013981 0.029160 -0.014996 16710.000000 0 0 1
-5.057019 -0.399339 -30.602079 31.019673 0.078804 2.977321 0.021584 -0.018085 28535.400000 0 0 1
-6.221319 -0.009639 -31.335099 31.946726 0.001549 2.945600 0.024759 -0.017271 -524120.000000 0 0 1
-7.335119 -1.031639 -31.187119 32.054713 0.139727 2.908402 0.029657 -0.025992 -389363.000000 0 0 1
-7.690619 -1.342239 -29.879369 30.882420 0.172789 2.886026 0.020761 -0.016481 219479.000000 0 0 1
-8.830419 -2.189539 -29.816689 31.173792 0.243052 2.845441 0.016408 -0.018883 277746.000000 0 0 1
-9.171419 -2.807039 -28.413969 29.989131 0.297011 2.816044 0.000659 -0.009993 -174893.000000 0 0 1
-9.617819 -1.882339 -27.463499 29.159722 0.193271 2.798830 -0.001010 -0.007132 71981.900000 0 0 1
-9.858919 -2.542339 -26.264119 28.168523 0.252374 2.771773 -0.011483 -0.000754 27220.500000 0 0 1
-10.930019 -1.903239 -25.346879 27.668608 0.172401 2.729009 -0.022101 0.009216 115169.000000 0 0 1
-10.467019 -0.700339 -24.711159 26.845676 0.066810 2.740127 -0.016154 0.007111 596451.000000 0 0 1
-11.499819 -0.007839 -23.993559 26.607081 0.000682 2.694652 -0.014863 0.006509 511257.000000 0 0 1
-10.860519 1.212161 -23.299959 25.735351 -0.111152 2.703041 -0.020824 0.005315 300695.000000 0 0 1
-10.503319 2.317161 -24.138659 26.426573 -0.217134 2.722414 -0.023564 0.007264 142507.000000 0 0 1
-9.824119 3.386161 -23.486959 25.683003 -0.331926 2.725053 -0.013719 0.009547 -408801.000000 0 0 1
-9.606019 4.594061 -24.424559 26.644700 -0.446095 2.730478 -0.001534 0.002330 -293216.000000 0 0 1
-10.715719 5.390361 -24.759359 27.511969 -0.466071 2.690448 -0.009257 0.008925 -237382.000000 0 0 1
-11.472119 4.844761 -25.823939 28.669793 -0.399588 2.692259 -0.018848 0.002940 -255274.000000 0 0 1
-12.786919 5.538861 -26.177699 29.655626 -0.408767 2.652422 -0.021392 0.008498 -226715.000000 0 0 1
-12.592019 6.786861 -26.805599 30.383557 -0.494344 2.651396 -0.012822 0.011839 6028.740000 0 0 1
-13.831319 7.347161 -27.178509 31.368097 -0.488293 2.618820 0.003224 0.006129 -450731.000000 0 0 1
-13.870019 8.903361 -27.168499 31.776950 -0.570670 2.596299 0.025604 0.001425 -340083.000000 0 0 1
-13.805119 9.350061 -25.835599 30.748709 -0.595321 2.568480 0.030470 0.008366 47376.500000 0 0 1
-13.985019 10.774761 -25.790889 31.254538 -0.656461 2.541332 0.046781 0.001768 -48899.100000 0 0 1
-13.810019 11.421661 -24.384059 30.261416 -0.691022 2.507789 0.030560 0.010610 44781.000000 0 0 1
-14.851219 11.209061 -23.458459 29.941627 -0.646539 2.471032 0.038754 0.014075 -249414.000000 0 0 1
-14.518819 11.884361 -22.275159 29.124162 -0.685949 2.441580 0.029792 0.015114 -56508.000000 0 0 1
-15.524519 11.814261 -21.101159 28.737542 -0.650508 2.395389 0.032180 0.010903 -104367.000000 0 0 1
-16.756219 12.452761 -21.289659 29.817641 -0.639117 2.365985 0.033695 0.006281 -128913.000000 0 0 1
-17.354919 12.925261 -20.097459 29.532413 -0.640139 2.319271 0.034330 0.009571 -804210.000000 0 0 1
-18.780819 13.369461 -20.313959 30.726512 -0.618647 2.293109 0.026953 0.004892 -877397.000000 0 0 1
-18.949219 14.561161 -21.029659 31.833109 -0.655193 2.292444 0.021463 0.001145 490531.000000 0 0 1
-20.331119 14.899961 -21.111959 32.879751 -0.632444 2.268026 0.021967 -0.005442 458221.000000 0 0 1
-20.573219 16.238761 -21.898259 34.153893 -0.668192 2.266811 0.012239 -0.001899 -302982.000000 0 0 1
-20.519819 16.217461 -23.307159 35.032737 -0.668818 2.298687 0.016874 -0.004939 -69142.300000 0 0 1
-20.211319 17.527561 -23.717459 35.752352 -0.714404 2.296125 0.010451 0.002700 -201410.000000 0 0 1
-20.000119 17.600861 -25.256939 36.711143 -0.721676 2.329514 0.001165 0.002174 108334.000000 0 0 1
-18.935819 16.781461 -25.754629 36.103789 -0.725154 2.365063 0.001551 -0.016166 289551.000000 0 0 1
-18.965419 16.585661 -27.184239 37.064189 -0.718559 2.394160 -0.000513 -0.021345 -373997.000000 0 0 1
-18.275519 17.731161 -27.950309 37.810163 -0.770281 2.402719 -0.018255 -0.011311 -425379.000000 0 0 1
-18.987119 18.945161 -28.216489 38.930708 -0.784292 2.381522 -0.015806 -0.024034 454233.000000 0 0 1
-18.095419 20.069561 -28.378389 39.186278 -0.837079 2.380658 -0.033929 -0.013861 -489656.000000 0 0 1
-18.755819 21.487361 -28.452579 40.286929 -0.853170 2.354981 0.003224 -0.011894 111444.000000 0 0 1
-19.537919 21.905761 -27.334019 40.109116 -0.842470 2.320595 0.017506 -0.004740 -539550.000000 0 0 1
-20.871819 21.547361 -27.496519 40.693736 -0.801322 2.312702 0.056829 -0.020345 -1317540.000000 0 0 1
-21.780119 21.970961 -26.369039 40.650005 -0.789760 2.276651 0.060489 -0.006835 -474776.000000 0 0 1
-21.481619 21.274561 -25.196429 39.356409 -0.780555 2.265570 0.017296 0.000466 -300332.000000 0 0 1
-22.363619 21.489561 -24.145459 39.305672 -0.765469 2.232294 0.014443 -0.009092 -337820.000000 0 0 1
-21.838619 20.833961 -22.820759 37.838687 -0.761859 2.218186 0.005214 0.002499 38702.200000 0 0 1
-20.718519 21.483761 -22.273059 37.241082 -0.803529 2.211897 0.008308 0.004139 103892.000000 0 0 1
-19.844719 20.698561 -21.429259 35.797436 -0.806455 2.212580 0.000871 0.004498 287347.000000 0 0 1
-20.372219 20.154361 -20.117859 35.013623 -0.780023 2.182878 0.008950 -0.002739 -664980.000000 0 0 1
-21.291219 19.060061 -20.191559 34.990012 -0.730161 2.185928 0.020779 -0.001180 556969.000000 0 0 1
-21.967419 18.811261 -18.949359 34.576137 -0.708155 2.150824 0.015875 0.001235 251613.000000 0 0 1
-23.125519 19.736861 -18.545359 35.612689 -0.706503 2.118527 -0.002411 -0.004529 -391604.000000 0 0 1
-24.301819 19.684161 -19.338159 36.769675 -0.680801 2.124601 0.002751 -0.002969 84616.700000 0 0 1
-25.221709 20.684861 -19.017059 37.757736 -0.686890 2.098626 0.000676 -0.007535 -1269040.000000 0 0 1
-26.565099 20.378361 -19.714359 38.854060 -0.654362 2.102955 0.006199 -0.000690 -289564.000000 0 0 1
-27.292929 19.282961 -19.256859 38.568940 -0.615087 2.093569 0.014939 0.000472 -5066.030000 0 0 1
-27.815189 19.422761 -17.942059 38.377674 -0.609570 2.057272 0.001062 -0.005213 -1052700.000000 0 0 1
-28.539109 18.113961 -17.543959 38.083944 -0.565549 2.049541 -0.010936 -0.002645 -239879.000000 0 0 1
-27.701079 17.038561 -17.312259 36.842593 -0.551439 2.059971 -0.010817 -0.003243 -577029.000000 0 0 1
-28.544939 16.031061 -16.884359 36.835988 -0.511711 2.046952 -0.020532 -0.000429 -5369.960000 0 0 1
-27.777489 14.836761 -16.263359 35.443126 -0.490577 2.047506 -0.009138 0.002013 -494879.000000 0 0 1
-27.216089 15.146961 -15.016159 34.577897 -0.507854 2.020025 -0.011149 0.004040 288187.000000 0 0 1
-28.136429 15.339861 -13.920359 34.939181 -0.499147 1.980586 -0.026600 0.009687 185411.000000 0 0 1
-27.455239 15.903761 -12.696359 34.174805 -0.525031 1.951434 -0.021954 -0.001397 -496855.000000 0 0 1
-27.002889 17.248861 -12.774659 34.494509 -0.568446 1.950170 -0.022981 0.000453 315508.000000 0 0 1
-28.002289 18.296061 -12.816259 35.820811 -0.578746 1.936694 -0.017005 0.002462 146870.000000 0 0 1
-27.405259 19.674861 -12.949959 36.136544 -0.622654 1.937309 -0.008041 -0.003310 -128450.000000 0 0 1
-26.772249 20.068361 -11.764759 35.466914 -0.643242 1.908913 -0.023092 -0.014047 -62351.500000 0 0 1
-25.593639 20.802861 -12.064359 35.118971 -0.682506 1.921468 -0.016547 -0.016151 268009.000000 0 0 1
-24.954219 21.405261 -10.769559 34.595977 -0.708994 1.887352 -0.027149 -0.001987 -493006.000000 0 0 1
-25.687359 22.420261 -10.163059 35.578031 -0.717590 1.860487 -0.002965 -0.007653 -326312.000000 0 0 1
-25.323169 23.757761 -10.444859 36.260022 -0.753515 1.862991 0.003509 -0.011455 -57530.800000 0 0 1
-26.068159 24.808561 -9.531159 37.227095 -0.760645 1.829707 0.022648 0.003770 172654.000000 0 0 1
-25.752179 24.710361 -8.175359 36.614384 -0.764756 1.795977 0.018928 0.001265 -240794.000000 0 0 1
-26.699729 25.388161 -7.419859 37.583089 -0.760224 1.769527 0.023117 -0.005761 -362282.000000 0 0 1
-26.680369 24.946561 -5.946159 37.007159 -0.751827 1.732172 0.016796 -0.006942 -180462.000000 0 0 1
-27.048349 23.588061 -5.872959 36.366213 -0.717168 1.733002 0.011676 -0.002970 -402720.000000 0 0 1
-26.841979 22.932461 -4.623759 35.605740 -0.707014 1.701024 -0.004142 -0.004407 48089.800000 0 0 1
-27.090679 21.364761 -4.790759 34.832589 -0.667775 1.708770 -0.018435 0.004621 870475.000000 0 0 1
-26.039689 20.692761 -5.544859 33.719449 -0.671478 1.735988 -0.021415 -0.002669 835360.000000 0 0 1
-26.109329 20.912561 -6.977759 34.171938 -0.675327 1.776438 -0.020893 -0.002869 -365071.000000 0 0 1
-27.044049 19.957861 -7.769459 34.497265 -0.635761 1.797965 -0.019422 -0.003430 -212761.000000 0 0 1
-26.553929 18.658261 -7.890959 33.399238 -0.612506 1.809313 -0.031861 -0.000273 140526.000000 0 0 1
-27.028499 18.037561 -9.043759 33.729556 -0.588478 1.842243 -0.033337 0.003609 -407650.000000 0 0 1
-26.355759 16.709261 -9.290359 32.559733 -0.565037 1.860150 -0.021694 0.004543 -91950.000000 0 0 1
-26.863849 15.769861 -8.348559 32.249858 -0.530827 1.832650 -0.042443 0.012717 369511.000000 0 0 1
-26.461399 14.434961 -8.725059 31.379936 -0.499390 1.852555 -0.031211 -0.001734 34928.700000 0 0 1
-27.138039 13.405061 -7.813459 31.260501 -0.458803 1.823422 -0.029594 0.000073 106166.000000 0 0 1
-28.506939 13.164761 -8.081159 32.423165 -0.432631 1.822692 -0.021778 0.003251 56386.300000 0 0 1
-28.989569 12.210861 -7.127059 32.253607 -0.398661 1.793605 -0.009207 -0.003250 365271.000000 0 0 1
-29.874259 11.062161 -7.776559 32.792036 -0.354636 1.810225 -0.005346 -0.002684 -9476.810000 0 0 1
-29.169159 10.112961 -8.550659 32.034756 -0.333732 1.840990 0.005730 0.001983 -229072.000000 0 0 1
-29.778899 8.869161 -8.678159 32.260739 -0.289468 1.843152 -0.006919 0.012910 -683609.000000 0 0 1
-28.854509 7.782161 -9.244259 31.282599 -0.263435 1.870784 0.013867 0.011022 -395174.000000 0 0 1
-28.291049 8.083461 -10.481259 31.234317 -0.278310 1.913005 0.008953 0.001481 176868.000000 0 0 1
-27.490559 6.999261 -10.945959 30.406159 -0.249309 1.939055 0.025926 -0.005460 141619.000000 0 0 1
-26.671609 7.343161 -12.236659 30.249505 -0.268661 1.987255 0.020047 -0.005468 -176586.000000 0 0 1
-25.507159 8.111561 -12.140259 29.390448 -0.307898 1.996617 0.028751 -0.012166 9126.490000 0 0 1
-24.896219 8.281861 -13.384159 29.454145 -0.321140 2.042502 0.026636 -0.004496 -215932.000000 0 0 1
-30.421489 26.641161 -34.184508 52.950911 -0.719246 2.272590 -0.020200 -0.008891 2205.620000 0 0 1
-30.745479 28.016961 -34.367130 53.956781 -0.738998 2.261316 -0.017271 -0.016202 229862.000000 0 0 1
-30.949309 28.303961 33.515489 53.686702 -0.740783 0.896588 -0.010652 -0.019927 -176658.000000 0 0 1
-31.137739 29.840361 33.302236 54.488942 -0.764125 0.913253 -0.001541 -0.018576 -10839.000000 0 0 1
-31.387549 30.072961 31.931229 53.936672 -0.764012 0.937242 0.020114 -0.019238 99573.600000 0 0 1
-31.724919 31.419661 31.755259 54.791076 -0.780564 0.952596 0.028784 -0.021946 -91534.000000 0 0 1
-31.611249 31.800461 30.239029 54.082708 -0.788382 0.977466 0.041152 -0.028596 158181.000000 0 0 1
-30.302089 31.669261 29.690969 52.940649 -0.807456 0.975402 0.023310 -0.022297 235226.000000 0 0 1
-30.133439 32.550461 28.616359 52.786861 -0.823938 0.997849 0.032476 -0.013564 -832069.000000 0 0 1
-28.698989 32.553561 28.165799 51.736627 -0.848244 0.995114 0.020453 -0.009524 -1058780.000000 0 0 1
-28.302009 31.332961 27.501359 50.389313 -0.836180 0.993479 0.038142 -0.015972 6634.040000 0 0 1
-27.146819 31.244061 26.697759 49.253543 -0.855453 0.997925 0.003332 0.000859 -15129.200000 0 0 1
-27.223899 32.100161 25.416059 49.168456 -0.867411 1.027550 -0.001727 -0.010210 -258077.000000 0 0 1
-27.098759 33.517361 25.589659 50.125711 -0.890894 1.035019 -0.006559 -0.011196 -568635.000000 0 0 1
-27.852999 34.122661 24.656409 50.478550 -0.886218 1.060480 -0.006563 -0.001676 -634226.000000 0 0 1
-28.139249 -33.784105 25.134249 50.644975 0.876306 1.051484 -0.000795 -0.004685 -254149.000000 0 0 1
-28.777969 -33.974405 26.380869 51.753086 0.868018 1.035908 0.006324 -0.019323 52454.700000 0 0 1
-28.713779 -32.816005 27.109199 51.344717 0.851970 1.014571 0.008863 -0.021777 -144295.000000 0 0 1
-29.014409 -32.950705 28.642859 52.421353 0.848837 0.992740 0.022815 -0.025254 -988896.000000 0 0 1
-30.337419 -33.233305 28.911169 53.485206 0.830920 0.999711 0.022888 -0.025200 -1139460.000000 0 0 1
-30.573369 -33.438105 30.288449 54.499797 0.830122 0.981527 0.010633 -0.026158 -10841.100000 0 0 1
-32.035869 -33.661205 30.709309 55.699509 0.810133 0.986828 0.018147 -0.029630 81839.000000 0 0 1
-32.155679 -34.087105 32.051549 56.773411 0.814547 0.970906 0.005260 -0.030473 -259473.000000 0 0 1
-33.538939 -34.251105 32.302669 57.805372 0.795903 0.977837 0.007883 -0.025568 257536.000000 0 0 1
-33.965969 -34.672605 33.765056 59.126606 0.795693 0.962995 0.002437 -0.019622 -93011.600000 0 0 1
-33.688779 33.333761 33.946221 58.295964 -0.780101 0.949231 -0.011204 -0.016652 20227.000000 0 0 1
-34.683258 32.636961 -34.576003 58.852354 -0.755011 2.198767 -0.005866 -0.013815 133911.000000 0 0 1
-34.153160 31.311761 -34.023169 57.484265 -0.742022 2.204172 -0.013500 -0.004367 324893.000000 0 0 1
-33.147709 31.457761 -33.031199 56.386358 -0.759246 2.196665 -0.013778 -0.006344 -112942.000000 0 0 1
-32.655269 30.218761 -32.599319 55.156647 -0.746665 2.203133 -0.021039 -0.009949 22032.300000 0 0 1
-31.888779 30.226161 -31.259859 53.923036 -0.758638 2.189172 -0.018730 -0.003102 72477.000000 0 0 1
-32.638059 30.398761 -30.056869 53.784225 -0.749889 2.163785 -0.015416 -0.005187 -368295.000000 0 0 1
-33.200069 31.660261 -29.898409 54.758849 -0.761662 2.148380 -0.021499 0.000225 -55129.300000 0 0 1
-33.971459 31.888661 -28.579999 54.660434 -0.753784 2.121004 -0.012513 0.000439 19434.700000 0 0 1
-33.304869 31.569161 -27.395699 53.444836 -0.758649 2.109004 -0.019032 -0.007218 -512680.000000 0 0 1
-34.249410 31.232261 -26.412669 53.348901 -0.739354 2.088738 0.006228 -0.005076 -148353.000000 0 0 1
-33.609259 30.928361 -25.053059 52.094160 -0.743882 2.072499 0.009717 -0.006471 -190895.000000 0 0 1
-33.390819 32.140961 -24.310059 52.335142 -0.766328 2.053875 0.011268 -0.007454 -67242.500000 0 0 1
-33.000239 31.912361 -22.963759 51.329804 -0.768641 2.034626 0.004293 -0.012713 545741.000000 0 0 1
-34.179597 31.422261 -21.984759 51.370545 -0.743392 2.013035 0.007659 -0.013586 1383950.000000 0 0 1
34.578874 32.334461 -21.808359 52.123127 0.751869 2.002480 0.011257 -0.023260 657811.000000 0 0 1
34.870314 33.586661 -21.224159 52.862723 0.766649 1.983946 0.014367 -0.028872 -515936.000000 0 0 1
-34.812489 33.516661 -19.657159 52.169721 -0.766436 1.957127 0.014519 -0.024829 -27395.500000 0 0 1
-33.697409 32.729761 -19.307459 50.789079 -0.770832 1.960755 0.015248 -0.027239 -114034.000000 0 0 1
-33.631379 32.706061 -17.910659 50.215015 -0.771450 1.935507 0.024897 -0.019578 -102852.000000 0 0 1
-32.332629 31.997961 -17.465259 48.726827 -0.780196 1.937384 0.022438 -0.015887 -144124.000000 0 0 1
-32.238559 31.453561 -16.182059 47.859275 -0.773074 1.915712 0.013378 -0.010090 -99956.800000 0 0 1
-31.024649 30.753461 -15.958859 46.507950 -0.781008 1.921057 0.007511 -0.008062 -7732.260000 0 0 1
-30.749769 30.549361 -14.476759 45.698887 -0.782129 1.893135 0.014918 -0.006727 -651130.000000 0 0 1
-31.705379 29.802461 -13.780059 45.643266 -0.754470 1.877490 0.013140 -0.005443 -152821.000000 0 0 1
-31.328109 29.404761 -12.446359 44.732563 -0.753740 1.852757 0.022167 -0.005299 -638037.000000 0 0 1
-32.484959 28.816161 -11.686259 44.969015 -0.725621 1.833688 0.020471 -0.006378 -366772.000000 0 0 1
-32.023159 28.320561 -10.414359 43.999952 -0.724117 1.809754 0.018559 -0.007295 290529.000000 0 0 1
-32.849839 27.260661 -9.973859 43.837580 -0.692683 1.800325 0.023704 -0.008695 -71621.300000 0 0 1
-32.138989 26.309561 -8.934059 42.484409 -0.685991 1.782668 0.013914 -0.001103 281595.000000 0 0 1
-31.771319 26.896061 -7.684259 42.330398 -0.702489 1.753339 0.011902 -0.008423 1116720.000000 0 0 1
-30.577739 27.731361 -7.704459 41.992680 -0.736622 1.755313 0.022604 -0.014814 461257.000000 0 0 1
-30.131539 28.152761 -6.319259 41.718349 -0.751461 1.722856 0.019834 -0.014376 -363824.000000 0 0 1
-29.386609 27.271861 -5.530559 40.471153 -0.748091 1.707880 0.026467 -0.016132 99214.900000 0 0 1
-29.404819 27.718961 -4.167959 40.624574 -0.755894 1.673574 0.013191 -0.012431 -228116.000000 0 0 1
-28.615039 26.858461 -3.200959 39.375672 -0.753744 1.652179 0.013607 -0.012102 -140745.000000 0 0 1
-29.267709 25.592761 -3.019059 38.996191 -0.718511 1.648293 0.006818 -0.002319 89459.900000 0 0 1
-28.683189 24.767061 -2.024759 37.950392 -0.712262 1.624174 -0.012747 -0.000021 -461002.000000 0 0 1
-29.489269 23.564961 -1.671659 37.785167 -0.674194 1.615052 -0.017829 -0.002672 -1217090.000000 0 0 1
-29.665199 22.698161 -2.761559 37.454729 -0.653123 1.644594 -0.015808 0.004080 60399.100000 0 0 1
-30.712159 21.780461 -2.523459 37.735832 -0.616861 1.637718 -0.010437 0.005699 -118995.000000 0 0 1
-30.983009 20.801761 -3.711359 37.502457 -0.591267 1.669922 -0.017825 0.006533 1417.120000 0 0 1
-30.066379 19.726961 -3.897159 36.170817 -0.580661 1.678749 -0.025410 0.007426 -2145.080000 0 0 1
-30.342479 19.006861 -5.023359 36.154680 -0.559613 1.710188 -0.014562 0.009291 190876.000000 0 0 1
-29.189249 18.037461 -5.476959 34.747076 -0.553513 1.729080 -0.019859 0.013824 297082.000000 0 0 1
-29.035039 16.925861 -4.623959 33.924906 -0.527785 1.707522 -0.029588 0.009051 77330.000000 0 0 1
-28.294259 15.955761 -5.336959 32.918604 -0.513469 1.733641 -0.036060 0.007831 -135920.000000 0 0 1
-27.734429 14.913761 -4.285559 31.780258 -0.493378 1.706058 -0.027553 -0.001570 248828.000000 0 0 1
-28.719209 14.034761 -3.726659 32.181601 -0.454558 1.686858 0.007911 -0.011821 500435.000000 0 0 1
-28.175279 12.829861 -3.272759 31.131377 -0.427301 1.676118 0.023391 -0.015657 -87129.100000 0 0 1
-29.217799 11.874461 -2.617459 31.647017 -0.386022 1.653599 0.032029 -0.016659 -271597.000000 0 0 1
-30.259109 11.518161 -3.489559 32.564685 -0.363716 1.678160 0.002677 -0.004531 -121084.000000 0 0 1
-31.128019 10.682761 -2.762159 33.025815 -0.330593 1.654530 0.000855 0.006665 447661.000000 0 0 1
-32.349509 10.296661 -3.712359 34.151040 -0.308155 1.679716 -0.002207 0.005807 764440.000000 0 0 1
-31.893419 9.511561 -4.781959 33.623312 -0.289832 1.713502 -0.000784 -0.002959 -178455.000000 0 0 1
-32.999509 9.075161 -5.484259 34.661264 -0.268375 1.729688 -0.002294 0.011047 -691525.000000 0 0 1
-32.773619 8.158461 -6.680459 34.428173 -0.243975 1.766076 -0.000364 0.003739 -514936.000000 0 0 1
-32.504679 6.841161 -6.339659 33.816370 -0.207439 1.759385 -0.002947 0.005194 419870.000000 0 0 1
-32.211789 6.055061 -7.532359 33.630336 -0.185808 1.796688 -0.009696 0.011671 -500901.000000 0 0 1
-31.104139 5.023461 -7.272759 32.335671 -0.160122 1.797652 -0.004900 0.010159 -523448.000000 0 0 1
-29.827129 5.567261 -7.049259 31.150346 -0.184528 1.799072 0.003763 0.001164 71809.100000 0 0 1
-29.028759 4.459461 -6.615559 30.105170 -0.152431 1.792353 -0.002735 -0.004187 -574637.000000 0 0 1
-27.555689 4.765261 -6.355259 28.677744 -0.171238 1.794261 0.026681 -0.003295 -495431.000000 0 0 1
-26.901259 4.935961 -7.584859 28.382592 -0.181466 1.841320 0.033185 0.001882 917441.000000 0 0 1
-25.475019 5.006161 -7.435459 27.006004 -0.194040 1.849725 0.049188 -0.009336 1076950.000000 0 0 1
-24.622419 5.558061 -8.613259 26.671029 -0.222011 1.899635 0.049159 -0.006459 224235.000000 0 0 1
-24.888919 4.750361 -9.734859 27.143907 -0.188594 1.937606 0.045825 -0.011116 500737.000000 0 0 1
-23.806119 4.794161 -10.644659 26.514600 -0.198726 1.983911 0.046544 -0.014407 -121558.000000 0 0 1
-24.010619 3.982661 -11.934459 27.107245 -0.164374 2.026694 0.048152 -0.021315 392829.000000 0 0 1
-25.049419 4.599661 -12.734159 28.474358 -0.181600 2.034445 0.042803 -0.012897 936546.000000 0 0 1
-25.334089 3.758761 -13.873559 29.127650 -0.147293 2.067241 0.035744 -0.013012 125119.000000 0 0 1
-26.260389 4.551661 -14.833159 30.501610 -0.171623 2.078655 0.016925 -0.009452 -287693.000000 0 0 1
-25.570709 5.481661 -15.652159 30.477858 -0.211176 2.110123 0.014865 -0.005957 17738.100000 0 0 1
-26.284259 6.399561 -16.429259 31.650232 -0.238828 2.116580 0.036468 -0.004996 -695078.000000 0 0 1
-27.065419 5.905061 -17.675959 32.861013 -0.214811 2.138741 -0.008376 0.008799 1268690.000000 0 0 1
-28.367449 5.400461 -17.258859 33.641423 -0.188124 2.109500 -0.006158 0.004301 1153930.000000 0 0 1
-28.966499 4.511861 -18.197959 34.504792 -0.154520 2.126338 0.003079 0.014568 305354.000000 0 0 1
-30.321359 3.898561 -17.757459 35.354079 -0.127873 2.097024 0.006299 0.012190 -73012.800000 0 0 1
-30.259719 2.825361 -16.878959 34.763954 -0.093100 2.077766 0.006689 0.004316 217367.000000 0 0 1
-29.887879 1.585861 -17.412559 34.626543 -0.053011 2.097709 0.013636 -0.003888 -183682.000000 0 0 1
-29.884839 0.431561 -16.397559 34.090611 -0.014440 2.072590 0.006392 -0.001659 -1280010.000000 0 0 1
-29.366969 -0.778739 -16.897759 33.890405 0.026511 2.092779 0.016173 0.007930 336585.000000 0 0 1
-29.777969 -1.887239 -16.171259 33.938160 0.063292 2.067457 0.013421 -0.005464 -412609.000000 0 0 1
-29.498829 -3.225539 -16.926859 34.162897 0.108912 2.089178 0.025924 -0.002122 -332291.000000 0 0 1
-30.326179 -3.502639 -18.033459 35.456329 0.114989 2.104366 0.026071 -0.002158 -26983.400000 0 0 1
-29.962629 -4.652339 -18.745259 35.648115 0.154041 2.124500 0.038015 -0.001544 131999.000000 0 0 1
-31.004629 -5.098339 -19.821759 37.150803 0.162979 2.133587 0.058377 -0.005753 164229.000000 0 0 1
-30.644559 -6.250739 -20.528759 37.411103 0.201215 2.151646 0.056398 0.000273 145294.000000 0 0 1
-31.589649 -6.547439 -21.565559 38.805260 0.204372 2.160047 0.053043 -0.002568 6520.180000 0 0 1
-31.244399 -7.721939 -22.584559 39.317974 0.242291 2.182677 0.050519 -0.002243 11300.500000 0 0 1
-30.051429 -7.463539 -23.306759 38.755616 0.243433 2.216021 0.056001 -0.007478 52756.500000 0 0 1
-29.929629 -8.331039 -24.395659 39.501102 0.271482 2.236477 0.051819 0.000023 229005.000000 0 0 1
-28.585549 -8.256439 -25.179189 38.978121 0.281180 2.273106 0.046095 -0.000674 -160991.000000 0 0 1
-28.465119 -7.025039 -25.850079 39.087603 0.241960 2.293396 0.047471 -0.005160 127879.000000 0 0 1
-28.807109 -7.078639 -27.228379 40.265882 0.240952 2.313409 0.045201 -0.001062 1337660.000000 0 0 1
-30.315209 -7.266039 -27.733069 41.724457 0.235245 2.297851 0.046739 0.000558 1087360.000000 0 0 1
-30.810649 -8.543739 -27.431329 42.128011 0.270502 2.279885 0.037306 -0.001546 -642175.000000 0 0 1
-32.132149 -8.519339 -27.918209 43.410604 0.259171 2.269361 0.030262 0.001681 172265.000000 0 0 1
-32.891169 -9.835939 -27.455599 43.958896 0.290580 2.245383 0.022513 -0.007516 -567515.000000 0 0 1
-32.370639 -11.026739 -28.034579 44.219733 0.328312 2.257490 0.020322 0.005221 -271999.000000 0 0 1
-33.221199 -12.147639 -28.137569 45.198849 0.350556 2.242766 0.006922 0.006387 45743.000000 0 0 1
-34.458587 -11.926939 -29.077649 46.638565 0.333218 2.243967 -0.006435 0.005101 110145.000000 0 0 1
34.438070 -11.069939 -28.517209 46.062516 -0.311013 2.238390 -0.006069 0.005018 60107.000000 0 0 1
33.553991 -10.619739 -29.558809 45.960552 -0.306522 2.269381 -0.018112 -0.000886 365856.000000 0 0 1
32.524771 -9.547639 -29.085339 44.665144 -0.285529 2.279943 -0.008147 0.002137 947010.000000 0 0 1
31.491361 -10.160539 -28.275039 43.524938 -0.312101 2.277892 -0.015496 0.004396 1098540.000000 0 0 1
30.496101 -9.269439 -27.760159 42.267731 -0.295081 2.287323 -0.013156 0.000106 235538.000000 0 0 1
29.469991 -9.727439 -26.752149 40.972929 -0.318819 2.282233 -0.032438 0.012670 -529536.000000 0 0 1
29.954251 -10.007839 -25.485239 40.582156 -0.322444 2.249766 -0.037676 0.015496 312815.000000 0 0 1
28.922061 -10.551539 -24.651159 39.439830 -0.349822 2.245969 -0.032674 0.018889 346425.000000 0 0 1
29.330081 -10.650839 -23.166859 38.863831 -0.348330 2.209435 -0.033376 0.012924 -44252.200000 0 0 1
30.340641 -11.575539 -22.878259 39.723574 -0.364474 2.184546 -0.041106 0.015709 18038.100000 0 0 1
30.721511 -11.570039 -21.524059 39.255091 -0.360182 2.151141 -0.025864 0.013498 285339.000000 0 0 1
31.663991 -12.723939 -21.021359 40.079976 -0.382094 2.122907 -0.023460 0.015130 1229360.000000 0 0 1
32.995211 -12.672339 -21.555059 41.399187 -0.366695 2.118425 -0.016913 0.016975 928470.000000 0 0 1
33.969871 -13.468239 -20.901659 42.097802 -0.377465 2.090361 -0.006268 0.017689 311941.000000 0 0 1
-34.546370 -13.453639 -21.645659 42.930020 0.371367 2.099261 0.007296 0.004790 -124690.000000 0 0 1
-33.813509 -12.212939 -21.524159 41.902251 0.346604 2.110259 0.018485 0.007884 287049.000000 0 0 1
-34.114019 -11.198239 -22.429759 42.335103 0.317177 2.129178 0.024018 0.008005 -732023.000000 0 0 1
-33.653819 -11.292739 -23.901259 42.794575 0.323750 2.163386 0.024039 0.004434 66067.500000 0 0 1
-34.315696 -12.205539 -24.758859 44.040246 0.341729 2.167824 0.017280 0.008986 1311190.000000 0 0 1
34.139531 -11.956239 -24.955959 43.946093 -0.336868 2.174720 0.010491 0.013336 951317.000000 0 0 1
33.459671 -13.083839 -25.826349 44.246319 -0.372752 2.194068 -0.003912 0.001224 -43127.100000 0 0 1
33.337791 -14.349539 -25.101459 44.129365 -0.406460 2.175861 -0.005500 -0.002283 845592.000000 0 0 1
32.253121 -14.321139 -24.162059 42.768726 -0.417873 2.171165 -0.016172 -0.000145 -223671.000000 0 0 1
-28.397819 8.474761 -20.154259 35.839250 -0.290016 2.168023 -0.003863 0.006964 -3090.660000 0 0 1
-27.221659 7.744061 -20.394559 34.884484 -0.277160 2.195222 -0.007223 0.011301 -706799.000000 0 0 1
-26.207559 8.593061 -20.816459 34.554331 -0.316839 2.217335 -0.002264 0.000949 -375448.000000 0 0 1
-24.945619 7.791861 -21.225159 33.667556 -0.302752 2.252908 -0.006317 0.009127 -149586.000000 0 0 1
-24.358919 7.153161 -20.122859 32.395279 -0.285627 2.241027 0.001519 0.004038 964771.000000 0 0 1
-23.094719 6.509661 -20.427059 31.512005 -0.274740 2.276055 0.011196 -0.006065 1850000.000000 0 0 1
-21.810019 7.265261 -19.926159 30.422241 -0.321555 2.284961 0.019515 -0.005271 532312.000000 0 0 1
-21.432919 8.335861 -20.762459 30.982838 -0.370925 2.305177 0.021635 0.001202 -278750.000000 0 0 1
-20.233319 8.911261 -20.318459 30.027280 -0.414863 2.314022 0.029653 0.005402 -322103.000000 0 0 1
-19.600819 9.881361 -21.328759 30.606361 -0.466946 2.341825 0.021016 0.007054 -173780.000000 0 0 1
-19.093919 9.179261 -22.478759 30.889014 -0.448123 2.385798 0.030303 0.003592 373185.000000 0 0 1
-18.286119 10.026761 -23.303859 31.272798 -0.501557 2.411601 0.030655 0.006954 503932.000000 0 0 1
-17.330119 9.228861 -24.236659 31.191674 -0.489334 2.460719 0.032840 0.006584 201754.000000 0 0 1
-18.041719 8.588461 -25.271429 32.216617 -0.444291 2.472560 0.024810 0.008182 260943.000000 0 0 1
-17.145419 7.807861 -26.020659 32.124800 -0.427328 2.514926 0.019074 0.012515 -289299.000000 0 0 1
-17.943219 6.827961 -26.968209 33.103843 -0.363611 2.522930 0.010842 0.014349 248592.000000 0 0 1
-18.354319 5.711961 -26.176259 32.476207 -0.301705 2.508182 0.013052 0.018279 124329.000000 0 0 1
-19.005619 4.725161 -26.922599 33.292146 -0.243679 2.512696 0.006561 0.016764 -1181370.000000 0 0 1
-19.296219 3.504261 -26.044579 32.602822 -0.179646 2.496168 -0.004703 0.022130 -38521.700000 0 0 1
-18.250019 2.589761 -25.751019 31.668360 -0.140963 2.520334 -0.009161 0.021558 195090.000000 0 0 1
-17.125119 3.045361 -25.048859 30.495725 -0.175990 2.534639 -0.007431 0.015164 -119751.000000 0 0 1
-16.148219 1.918561 -24.556759 29.453018 -0.118255 2.556680 -0.010898 0.009366 353186.000000 0 0 1
-16.635819 1.096361 -23.498759 28.812222 -0.065808 2.524532 -0.024034 0.008350 35567.900000 0 0 1
-17.905919 0.488761 -23.652859 29.670162 -0.027289 2.493428 -0.025138 0.013069 107473.000000 0 0 1
-18.535619 -0.184139 -22.424259 29.093821 0.009934 2.450824 0.006902 0.011248 -20704.300000 0 0 1
-17.867819 -1.395839 -22.064659 28.426334 0.077962 2.459420 -0.008421 0.015668 160892.000000 0 0 1
-18.475119 -2.138839 -21.000659 28.052314 0.115256 2.416782 0.010759 0.005710 -628928.000000 0 0 1
-17.752319 -3.458639 -20.646259 27.447678 0.192417 2.422197 -0.014349 0.004416 -138574.000000 0 0 1
-17.931119 -4.442239 -21.647359 28.458156 0.242850 2.435146 -0.018450 0.000821 319450.000000 0 0 1
-18.333719 -5.652339 -21.046559 28.478620 0.299057 2.402426 -0.010535 0.005878 -224337.000000 0 0 1
-18.493319 -6.807239 -22.089959 29.602493 0.352700 2.413161 -0.027566 0.005621 -124765.000000 0 0 1
-17.240119 -7.074139 -22.683559 29.356583 0.389380 2.453865 -0.021000 0.006274 103532.000000 0 0 1
-17.327619 -7.736339 -23.924259 30.536330 0.419918 2.471024 -0.022343 -0.000746 1275.590000 0 0 1
-15.899319 -7.894339 -24.490759 30.247416 0.460860 2.514405 -0.010125 -0.008889 -715540.000000 0 0 1
-15.891019 -8.359939 -25.809499 31.441108 0.484293 2.533753 -0.015211 -0.016918 117453.000000 0 0 1
-14.619419 -8.470639 -26.419939 31.360681 0.525142 2.572619 -0.004939 -0.013739 26077.300000 0 0 1
-13.477719 -9.331039 -25.852809 30.611843 0.605560 2.576495 0.014709 -0.015444 -646391.000000 0 0 1
-12.943119 -8.804639 -24.643059 29.194628 0.597352 2.575673 -0.000634 -0.008229 169095.000000 0 0 1
-11.975419 -9.697539 -24.087859 28.595067 0.680680 2.572477 0.003280 -0.001962 -13575.800000 0 0 1
-11.226919 -9.035639 -22.950359 27.099916 0.677673 2.580886 0.004692 -0.004069 -374220.000000 0 0 1
-11.989819 -8.853539 -21.761359 26.376081 0.636050 2.541072 0.001422 0.003031 508519.000000 0 0 1
-11.232519 -8.047439 -20.844359 25.008359 0.621675 2.556201 0.004267 0.001583 -419276.000000 0 0 1
-11.800019 -7.888639 -19.396059 24.034936 0.589290 2.509841 -0.005947 0.004597 342035.000000 0 1 0
-12.899319 -6.991539 -19.249959 24.204028 0.496687 2.490332 -0.007875 0.007792 3297.190000 0 1 0
-14.158919 -7.513139 -19.559859 25.288541 0.487850 2.455090 -0.005936 0.003921 -501350.000000 0 0 1
-15.233919 -6.403839 -19.265759 25.382098 0.397940 2.432617 -0.023470 0.017515 -255653.000000 0 0 1
-15.273719 -5.992539 -17.887659 24.272728 0.373888 2.399335 -0.024236 0.015143 365101.000000 0 1 0
-14.996719 -4.616039 -17.727759 23.674518 0.298600 2.417064 -0.026972 0.014515 -480564.000000 0 1 0
-14.620419 -4.123139 -16.310559 22.288814 0.274874 2.391730 -0.025344 0.011297 -664113.000000 0 1 0
-15.644419 -3.926339 -15.409859 22.307571 0.245895 2.333378 -0.014697 0.002897 105510.000000 0 1 0
-16.412019 -2.670239 -15.655559 22.838149 0.161287 2.326087 -0.030537 0.000333 1386360.000000 0 1 0
-17.655719 -2.493939 -14.665759 23.087412 0.140326 2.259099 -0.014456 -0.005774 629305.000000 0 1 0
-17.413319 -2.490539 -13.247559 22.020996 0.142061 2.216283 0.000110 -0.020961 68681.400000 0 1 0
-18.360219 -1.755839 -12.531559 22.298443 0.095343 2.167589 0.006510 -0.022593 -278549.000000 0 1 0
-17.695919 -0.505539 -11.901059 21.331580 0.028560 2.162659 -0.008943 -0.015311 7493.160000 0 1 0
-17.399419 0.412161 -12.858559 21.639135 -0.023684 2.207101 -0.000050 -0.013991 213212.000000 0 1 0
-16.444719 1.332761 -12.438459 20.662049 -0.080868 2.216794 0.001524 -0.006327 -1318590.000000 0 1 0
-15.953219 2.318261 -13.534559 21.049081 -0.144306 2.269205 0.003624 0.001129 297749.000000 0 1 0
-15.167919 1.779161 -14.600759 21.128496 -0.116764 2.333731 -0.000968 -0.011273 434347.000000 0 1 0
-13.986719 1.129561 -14.196959 19.961409 -0.080585 2.362029 -0.000559 -0.005607 -1523230.000000 0 1 0
-13.519319 0.057761 -15.220659 20.357892 -0.004272 2.415319 -0.007434 -0.004620 -122502.000000 0 1 0
-13.208919 0.618461 -16.488259 21.135768 -0.046787 2.465641 -0.011239 -0.006665 157119.000000 0 1 0
-12.665919 -0.327739 -17.386759 21.513537 0.025870 2.511847 -0.038805 0.004113 -216621.000000 0 1 0
-12.044119 0.347861 -18.618859 22.177550 -0.028874 2.567226 -0.031528 -0.002882 -431370.000000 0 1 0
-10.989919 1.196961 -18.265159 21.350107 -0.108487 2.597325 -0.028164 -0.006604 -461551.000000 0 1 0
-10.579719 1.878261 -19.422959 22.197064 -0.175703 2.636281 -0.032399 0.001289 -898238.000000 0 1 0
-9.229519 2.512961 -19.266859 21.510714 -0.265830 2.680769 -0.029830 0.004532 -1286140.000000 0 1 0
-8.130619 1.628261 -19.478259 21.169808 -0.197648 2.739122 -0.027140 0.012082 452891.000000 0 1 0
-6.876319 2.315461 -19.520559 20.825401 -0.324804 2.785723 -0.015213 0.017644 579208.000000 0 1 0
-6.619819 3.435761 -20.588759 21.898024 -0.478741 2.794045 -0.011468 0.025029 -974087.000000 0 1 0
-6.319119 2.955161 -21.908359 22.992182 -0.437438 2.833327 -0.018015 0.031945 228700.000000 0 1 0
-5.998819 3.973461 -22.794559 23.903266 -0.585025 2.835828 -0.003897 0.022012 -413809.000000 0 1 0
-5.461819 3.415461 -24.128059 24.973187 -0.558839 2.880694 0.003169 0.013762 309718.000000 0 1 0
-4.203719 2.766561 -23.962959 24.485679 -0.582064 2.934593 0.022737 0.000632 230993.000000 0 1 0
-3.794119 2.079061 -25.145329 25.514807 -0.501283 2.971205 0.024702 -0.000215 -176286.000000 0 0 1
-2.437719 1.391261 -24.921659 25.079218 -0.518614 3.029441 0.021759 -0.007418 -213145.000000 0 0 1
-1.378719 2.316861 -24.643959 24.790995 -1.034002 3.032626 0.023768 -0.010078 227898.000000 0 1 0
-0.071519 1.808061 -24.699759 24.765950 -1.531261 3.068464 0.017179 -0.009442 89806.400000 0 1 0
0.343781 0.848761 -23.546459 23.564259 1.185954 3.102721 0.014013 -0.021766 -1052380.000000 0 1 0
-0.045819 -0.448539 -23.805459 23.809728 1.468998 3.122655 0.012803 -0.017215 -201133.000000 0 1 0
0.460281 -1.268539 -22.809259 22.849143 -1.222726 3.082499 0.013274 -0.012836 -1017570.000000 0 1 0
0.021781 -2.791139 -22.856959 23.026756 -1.562993 3.020077 0.020744 -0.016384 1161900.000000 0 1 0
-1.267819 -3.068239 -22.229859 22.476389 1.178956 2.993346 0.011858 -0.007288 1915580.000000 0 1 0
-2.481219 -2.818139 -22.969159 23.274033 0.848890 2.979555 0.023797 -0.012263 422280.000000 0 1 0
-2.973319 -1.403239 -22.865659 23.100824 0.440952 2.998783 0.016007 -0.009005 -1837740.000000 0 1 0
-3.536519 -1.113339 -21.568159 21.884514 0.304990 2.971354 0.006319 -0.005013 379912.000000 0 1 0
-4.402219 0.003161 -21.523259 21.968846 -0.000718 2.939842 -0.001350 -0.004794 677101.000000 0 1 0
-5.798119 -0.229939 -22.167059 22.913960 0.039637 2.885567 -0.003158 0.001372 -166291.000000 0 1 0
-6.648519 -1.243239 -21.645559 22.677713 0.184860 2.838728 0.006954 0.009075 -962860.000000 0 1 0
-7.920719 -1.049339 -22.131659 23.529752 0.131713 2.795136 -0.020148 0.022542 -729922.000000 0 1 0
-8.882519 -2.217839 -21.812159 23.655617 0.244683 2.744194 -0.014026 0.016638 -14158.900000 0 1 0
-8.639519 -3.275039 -22.719559 24.526425 0.362340 2.755347 -0.002220 0.011118 -51085.800000 0 1 0
-8.982319 -4.503439 -22.106459 24.282885 0.464741 2.714978 -0.015925 0.011253 -171142.000000 0 1 0
-9.881819 -5.268939 -23.111259 25.681556 0.489850 2.690375 -0.010680 0.006206 522405.000000 0 0 1
-11.164319 -4.668439 -23.301259 26.256142 0.396060 2.662599 -0.023911 0.006449 428686.000000 0 0 1
-11.958419 -5.410039 -24.217859 27.545907 0.424851 2.644939 -0.026800 -0.002249 121055.000000 0 0 1
-13.458719 -5.056339 -24.246459 28.188551 0.359378 2.606365 -0.039431 -0.009691 -26454.200000 0 0 1
-13.733419 -3.708039 -24.582159 28.401389 0.263713 2.616997 -0.043999 -0.007887 -1297200.000000 0 0 1
-15.055819 -3.377639 -24.435959 28.899865 0.220687 2.578370 -0.031252 -0.009007 -1079820.000000 0 0 1
-15.324819 -2.025839 -25.010859 29.402332 0.131431 2.588002 -0.034640 -0.005404 -276647.000000 0 0 1
-15.352719 -2.061939 -26.428329 30.633546 0.133506 2.611431 -0.030044 -0.002340 126525.000000 0 0 1
-15.668519 -0.801339 -27.074169 31.291456 0.051099 2.616396 -0.031464 0.000709 -357292.000000 0 0 1
-17.136419 -0.680939 -27.528359 32.433487 0.039715 2.584439 -0.032023 0.011238 -151515.000000 0 0 1
-17.455519 -1.469839 -28.707729 33.630184 0.084007 2.593711 -0.025523 -0.002798 120598.000000 0 0 1
-17.049419 -0.835039 -29.965169 34.486103 0.048938 2.623783 -0.022059 -0.004171 -143347.000000 0 0 1
-17.158719 -1.835139 -31.157469 35.617092 0.106546 2.635798 -0.011617 -0.010242 -171074.000000 0 0 1
-18.462719 -2.253339 -31.454569 36.542296 0.121447 2.607580 -0.011326 -0.007394 -319885.000000 0 0 1
-18.537319 -3.138639 -32.537319 37.578722 0.167724 2.617632 -0.001575 -0.014516 -697659.000000 0 0 1
-19.972519 -3.630639 -32.811179 38.583111 0.179818 2.587546 -0.005061 -0.018905 216632.000000 0 0 1
-20.881919 -2.581239 -33.188139 39.295927 0.122987 2.576557 -0.005718 -0.013823 282493.000000 0 0 1
-21.557519 -2.083339 -32.068969 38.697360 0.096342 2.547599 -0.016788 0.006062 -1128680.000000 0 0 1
-22.535719 -1.009939 -32.532079 39.588063 0.044785 2.535298 -0.004297 0.005757 -504220.000000 0 0 1
-21.948019 0.234961 -32.959129 39.598925 -0.010705 2.554083 -0.009490 0.003368 254120.000000 0 0 1
-22.938119 1.181161 -33.329059 40.476890 -0.051448 2.538190 -0.012115 0.002983 -223062.000000 0 0 1
-22.541319 2.451061 -34.093032 40.944518 -0.108311 2.554698 -0.012257 -0.000414 -440690.000000 0 0 1
-21.815819 3.515961 -33.504809 40.135572 -0.159792 2.558549 -0.021073 0.002895 717649.000000 0 0 1
-22.601119 4.336361 -32.616229 39.917828 -0.189561 2.527132 -0.011547 0.004342 -305446.000000 0 0 1
-23.655319 5.298161 -33.169389 41.083488 -0.220337 2.510470 -0.032065 0.000429 82064.500000 0 0 1
-24.832719 4.581161 -33.541289 41.984152 -0.182430 2.496266 -0.021742 -0.014832 342046.000000 0 0 1
-25.851629 5.415761 -34.054659 43.097064 -0.206508 2.481907 -0.005549 -0.020397 -884988.000000 0 0 1
-27.056369 4.609161 -34.440524 44.039086 -0.168734 2.468736 0.004710 -0.016027 -1024270.000000 0 0 1
-26.879849 3.514561 33.933577 43.432316 -0.130013 0.674054 -0.000134 -0.013402 615268.000000 0 0 1
-28.182179 3.012861 33.648204 43.994479 -0.106502 0.700022 0.006498 -0.015288 152392.000000 0 0 1
-28.319249 1.478461 33.324853 43.757417 -0.052160 0.705046 0.010786 0.005588 -432138.000000 0 0 1
-28.073639 0.726261 34.473930 44.464688 -0.025864 0.683590 0.012571 0.005868 418226.000000 0 0 1
-28.352149 -0.662939 34.205767 44.433302 0.023378 0.692233 0.003676 0.011261 -676666.000000 0 0 1
-28.280429 -1.412839 -33.744669 44.050896 0.049917 2.443451 -0.013623 0.022013 -223846.000000 0 0 1
-27.080499 -1.739839 -33.086809 42.791557 0.064159 2.454682 0.001301 0.011095 499901.000000 0 0 1
-26.290729 -0.625839 -32.598959 41.884200 0.023800 2.462769 0.002193 0.013671 -246280.000000 0 0 1
-26.281689 -0.449039 -31.023019 40.661487 0.017084 2.438673 0.018071 0.013247 -380370.000000 0 0 1
-25.490479 -1.383539 -30.333449 39.645893 0.054223 2.442008 0.015903 0.007848 291418.000000 0 0 1
-25.434869 -1.117639 -28.961169 38.560744 0.043913 2.420452 0.025979 0.002076 58768.400000 0 0 1
-24.267119 -1.747539 -28.145279 37.203544 0.071889 2.428774 0.015999 0.005330 38568.500000 0 0 1
-24.498219 -3.098639 -27.793139 37.178258 0.125816 2.415184 0.006939 -0.002735 676726.000000 0 0 1
-23.435519 -3.542839 -26.931349 35.875797 0.150038 2.419892 0.005152 -0.000624 448382.000000 0 0 1
-23.710619 -4.962839 -26.382009 35.816666 0.206330 2.398803 0.004465 -0.008322 -103319.000000 0 0 1
-24.569719 -4.852939 -25.283889 35.587879 0.195007 2.360953 0.028155 -0.009384 -177670.000000 0 0 1
-24.908319 -6.050239 -24.607059 35.532198 0.238286 2.335785 0.026773 -0.007540 265122.000000 0 0 1
-25.967779 -5.754339 -23.497859 35.490665 0.218071 2.294395 0.025586 -0.003831 256890.000000 0 0 1
-26.160929 -6.904139 -22.717059 35.328828 0.258027 2.269228 0.025422 -0.003564 -121076.000000 0 0 1
-27.183909 -6.618539 -21.800159 35.468534 0.238826 2.232718 0.035875 0.003923 -204639.000000 0 0 1
-27.791889 -7.799039 -20.982259 35.685701 0.273586 2.199348 0.026098 0.003881 -282684.000000 0 0 1
-26.847959 -8.220339 -20.031359 34.491190 0.297118 2.190467 0.012746 0.004724 112895.000000 0 0 1
-27.416729 -9.085039 -19.129059 34.642977 0.319981 2.155770 0.012469 0.006902 146730.000000 0 0 1
-28.290149 -8.375739 -18.003459 34.563131 0.287843 2.118685 0.028872 -0.003876 98720.800000 0 0 1
-27.547339 -7.695739 -17.012759 33.279336 0.272419 2.107389 0.023439 -0.007931 -126275.000000 0 0 1
-28.285249 -6.961839 -16.051759 33.259306 0.241333 2.074445 0.026452 -0.010619 -272461.000000 0 0 1
-27.462649 -6.082039 -15.064259 31.907995 0.217948 2.062485 0.018133 -0.012528 -19815.700000 0 0 1
-27.104309 -4.824139 -15.612559 31.649137 0.176140 2.086677 0.020512 -0.013496 586989.000000 0 0 1
-26.234629 -4.150139 -14.679159 30.347275 0.156893 2.075680 0.020258 -0.017202 240937.000000 0 0 1
-14.062719 21.004461 -4.988359 25.764921 -0.980827 1.765637 0.036174 -0.001190 98780.900000 0 0 1
-14.381219 20.771261 -6.324659 26.043541 -0.965215 1.816098 0.070511 -0.007468 534508.000000 0 0 1
-15.230219 19.594961 -6.516859 25.659141 -0.910081 1.827587 0.049937 -0.015729 190152.000000 0 0 1
-15.239219 18.973061 -7.983359 25.611420 -0.894105 1.887789 0.061991 -0.020825 -900176.000000 0 0 1
-13.994319 18.470961 -8.360459 24.635637 -0.922424 1.917037 0.050704 -0.018438 -304355.000000 0 1 0
-14.076219 17.410261 -9.325959 24.253466 -0.890893 1.965485 0.033041 -0.014830 -473139.000000 0 1 0
-14.666819 16.091261 -8.811459 23.487998 -0.831676 1.955352 0.031071 -0.018308 -53978.300000 0 1 0
-16.010019 16.212661 -8.397559 24.283535 -0.791687 1.923901 0.027163 -0.012220 62539.100000 0 1 0
-16.387019 15.235261 -7.355259 23.553076 -0.748992 1.888393 0.048409 -0.018105 617293.000000 0 1 0
-17.837519 15.513661 -6.822759 24.604894 -0.715832 1.851772 0.051295 -0.022063 121357.000000 0 1 0
-18.739519 15.395661 -7.864759 25.496085 -0.687750 1.884380 0.042770 -0.009219 -414787.000000 0 0 1
-20.075119 15.523961 -7.363059 26.423823 -0.658243 1.853187 0.012661 -0.015524 3554.250000 0 0 1
-20.956019 14.994561 -8.471159 27.124751 -0.621070 1.888413 0.011840 -0.001557 -767414.000000 0 0 1
-21.133819 13.553061 -8.354359 26.459763 -0.570233 1.892031 0.024319 -0.007321 60286.400000 0 0 1
-21.775419 12.984161 -9.468959 27.063231 -0.537677 1.928242 0.011489 -0.003720 183125.000000 0 0 1
-22.429619 11.601161 -9.088259 26.837868 -0.477333 1.916263 0.012916 0.000576 226288.000000 0 0 1
-21.435919 10.641061 -8.727859 25.473640 -0.460774 1.920504 0.018457 -0.000505 -31672.300000 0 0 1
-21.988019 9.640261 -7.935659 25.286010 -0.413193 1.890027 0.022120 -0.007003 -564328.000000 0 0 1
-21.125719 8.489261 -7.353559 23.925684 -0.382096 1.883203 0.038890 0.004334 -179686.000000 0 1 0
-20.435619 7.706861 -8.312459 23.368937 -0.360636 1.934465 0.005150 0.004938 180526.000000 0 1 0
-19.650119 6.742461 -7.675059 22.147110 -0.330538 1.924686 0.023512 0.005148 -396245.000000 0 1 0
-19.316319 5.543761 -8.594059 21.856608 -0.279487 1.974908 0.008143 -0.001660 -664551.000000 0 1 0
-20.226519 4.465061 -8.656959 22.449761 -0.217268 1.966670 0.012537 0.005809 628772.000000 0 1 0
-19.872219 3.615661 -9.728759 22.419341 -0.179977 2.019663 -0.005389 0.010618 143908.000000 0 1 0
-20.897419 2.408361 -9.646959 23.142302 -0.114741 2.000778 -0.006306 0.009819 584297.000000 0 1 0
-20.513219 1.448061 -8.666559 22.315875 -0.070475 1.969646 -0.011172 0.000716 305422.000000 0 1 0
-21.518819 0.541561 -8.313659 23.075307 -0.025162 1.939368 -0.001044 0.003431 -443627.000000 0 1 0
-21.477119 -0.819739 -9.077759 23.331187 0.038149 1.970432 -0.008671 -0.010801 15523.000000 0 1 0
-20.451619 -1.691539 -8.643959 22.267646 0.082521 1.969457 -0.004667 -0.005545 129108.000000 0 1 0
-20.545619 -3.048639 -9.194459 22.714637 0.147309 1.987536 -0.009219 -0.007068 72742.100000 0 1 0
-21.430719 -4.115939 -8.471959 23.409202 0.189747 1.941109 -0.008451 -0.006617 -176289.000000 0 1 0
-20.930919 -4.516739 -7.185259 22.586107 0.212534 1.894550 -0.031345 0.001121 305984.000000 0 1 0
-21.865419 -5.297839 -6.446059 23.403318 0.237712 1.849837 -0.025480 0.004328 -369810.000000 0 1 0
-22.034819 -6.769739 -6.790059 24.030554 0.298076 1.857258 -0.014848 -0.001710 92191.100000 0 1 0
-20.971819 -7.554339 -6.236459 23.146893 0.345745 1.843597 -0.020115 -0.004913 1042370.000000 0 1 0
-21.165219 -8.880039 -6.659059 23.899051 0.397252 1.853167 -0.010643 -0.003647 -118284.000000 0 1 0
-20.181719 -9.923839 -6.024959 23.282708 0.457005 1.832549 -0.006235 0.003159 1234550.000000 0 1 0
-18.792119 -9.750739 -6.415159 22.121820 0.478632 1.865015 -0.016530 -0.002066 1904860.000000 0 1 0
-17.929219 -10.524139 -5.514659 21.508739 0.530793 1.830083 0.000117 -0.004300 526742.000000 0 1 0
-17.306719 -11.753939 -6.216659 21.824858 0.596598 1.859639 0.000752 0.000618 -157669.000000 0 1 0
-16.237719 -11.671139 -7.170259 21.243625 0.623211 1.915083 -0.006047 -0.005898 556157.000000 0 1 0
-16.545319 -10.995739 -8.376959 21.559854 0.586559 1.969848 -0.005166 -0.013889 -210959.000000 0 1 0
-15.516119 -11.206739 -9.507659 21.371395 0.625513 2.031834 0.000436 -0.012688 223054.000000 0 1 0
-15.843919 -12.357239 -10.113759 22.494871 0.662386 2.037117 0.015266 -0.011627 -295890.000000 0 1 0
-14.872019 -12.613039 -11.061259 22.419124 0.703393 2.086773 0.013437 0.000449 -216712.000000 0 1 0
-15.052919 -13.973339 -11.775759 23.675157 0.748222 2.091383 0.024461 -0.002802 253121.000000 0 1 0
-15.904419 -13.953439 -12.925959 24.793737 0.720149 2.119216 0.017369 -0.003451 288469.000000 0 1 0
-15.880819 -15.242939 -13.524259 25.835115 0.764906 2.121731 0.014002 -0.000250 3815.540000 0 0 1
-16.164119 -15.202139 -15.065859 26.820959 0.754739 2.167259 0.024147 0.002768 2593.270000 0 0 1
-16.311319 -16.437339 -15.735859 27.997544 0.789246 2.167652 0.027928 0.007872 244251.000000 0 0 1
-16.719819 -16.259239 -17.049559 28.889490 0.771433 2.202059 0.023938 0.005846 -580301.000000 0 0 1
-16.835819 -17.576239 -17.820759 30.165351 0.806911 2.202808 0.021321 -0.004571 -933463.000000 0 0 1
-17.895919 -18.365439 -17.458059 31.021558 0.798346 2.168532 -0.000028 0.002310 -1079920.000000 0 0 1
-18.925919 -18.293039 -18.425759 32.129959 0.768396 2.181539 -0.003516 0.002065 886561.000000 0 0 1
-20.343319 -18.092239 -17.751259 32.500568 0.726897 2.148597 -0.008917 0.000912 625909.000000 0 0 1
-20.479419 -16.754039 -17.310559 31.618979 0.685675 2.150139 -0.028874 -0.000907 210549.000000 0 0 1
-20.287319 -16.651139 -15.936159 30.704998 0.687275 2.116487 -0.027195 -0.001485 -277010.000000 0 0 1
-20.304119 -15.178539 -15.386559 29.654535 0.641937 2.116313 -0.012246 -0.008964 420553.000000 0 0 1
-21.639619 -14.701539 -15.247759 30.280398 0.596753 2.098502 -0.006531 -0.007190 802323.000000 0 0 1
-21.573119 -13.377939 -14.832659 29.400280 0.555083 2.099608 -0.006501 -0.006218 -160734.000000 0 0 1
-22.962419 -12.787439 -14.528759 30.031252 0.508114 2.075774 0.005813 -0.012980 -25247.000000 0 0 1
-23.595619 -13.321839 -13.335959 30.200537 0.513975 2.028155 0.015036 -0.014355 1452490.000000 0 0 1
-24.861919 -12.655539 -13.105759 30.822696 0.470848 2.009977 0.032348 -0.017563 728327.000000 0 0 1
-25.560809 -12.976739 -11.773559 30.989795 0.469774 1.960503 0.042011 -0.022477 757673.000000 0 0 1
-26.606929 -11.981939 -11.467559 31.352838 0.423130 1.945244 0.042492 -0.033940 1048220.000000 0 0 1
-27.114569 -12.183239 -10.171159 31.417887 0.422292 1.900474 0.030701 -0.018619 8272.530000 0 0 1
-27.999169 -11.109439 -9.501459 31.585611 0.377725 1.876345 0.029804 -0.020991 224215.000000 0 0 1
-27.245049 -9.918239 -9.124159 30.395961 0.349126 1.875674 0.027019 -0.016712 391554.000000 0 0 1
-27.931329 -8.947039 -8.347359 30.494049 0.309996 1.848073 0.020161 -0.022728 -399019.000000 0 0 1
-26.965969 -7.925839 -7.704659 29.143510 0.285870 1.838347 0.015424 -0.011522 10489.200000 0 0 1
-26.278839 -8.488239 -6.599559 28.393340 0.312428 1.805375 0.004705 -0.012593 345606.000000 0 0 1
-25.480059 -7.584539 -5.807059 27.211772 0.289314 1.785853 -0.006386 -0.004946 163849.000000 0 0 1
-26.255559 -6.398339 -5.128259 27.506220 0.239035 1.758334 -0.000303 -0.007787 -623836.000000 0 0 1
-27.157749 -6.757139 -4.110959 28.286078 0.243859 1.716648 0.003158 -0.006465 17178.500000 0 0 1
-26.690879 -7.119939 -2.786059 27.764342 0.260685 1.671312 0.020290 -0.004983 -666080.000000 0 0 1
-25.975029 -6.100039 -1.921659 26.750801 0.230663 1.642694 0.012135 0.002467 -209978.000000 0 0 1
-26.809869 -5.053039 -1.500659 27.323145 0.186291 1.625747 0.015795 0.003118 -227313.000000 0 0 1
-26.191089 -4.254939 -0.570859 26.540601 0.161051 1.592307 0.000231 -0.001924 -814253.000000 0 0 1
-27.096199 -3.110139 -0.020959 27.274116 0.114281 1.571565 0.018058 -0.006423 466237.000000 0 0 1
-28.103039 -3.448439 0.925441 28.328942 0.122097 1.538123 0.025678 -0.007937 423355.000000 0 0 1
-27.605709 -3.586239 2.258641 27.929156 0.129186 1.489838 0.012957 -0.003340 658209.000000 0 0 1
-28.792189 -3.952839 3.233441 29.241584 0.136436 1.459993 -0.001860 0.000727 727280.000000 0 0 1
-29.277159 -5.291039 3.202741 29.923313 0.178793 1.463559 0.008381 0.002726 -453879.000000 0 0 1
-30.172609 -5.570339 4.214141 30.970534 0.182560 1.434304 0.002167 -0.004785 -415667.000000 0 0 1
-30.930539 -6.897039 4.033241 31.945804 0.219395 1.444206 0.003575 0.003979 -641810.000000 0 0 1
-30.079539 -8.020039 4.189741 31.411043 0.260566 1.437013 0.005233 0.008398 34490.400000 0 0 1
-30.718359 -9.195539 3.893941 32.300747 0.290860 1.449950 0.010003 0.005597 -136576.000000 0 0 1
-29.826409 -10.398439 4.331041 31.882599 0.335456 1.434532 0.005342 0.009829 167919.000000 0 0 1
-29.658129 -10.500039 5.730141 31.979524 0.340266 1.390642 -0.001346 0.010246 97416.500000 0 0 1
-28.804369 -11.578439 6.013841 31.621483 0.382202 1.379449 0.003758 0.013613 -255125.000000 0 0 1
-28.934279 -12.033739 7.490641 32.219762 0.394137 1.336163 0.012467 -0.002330 -4826.870000 0 0 1
-28.387799 -11.033139 8.350741 31.580566 0.370691 1.303187 0.010657 0.005153 479094.000000 0 0 1
-28.566979 -11.422739 9.652041 32.244583 0.380384 1.266797 0.017848 0.003121 -275096.000000 0 0 1
-28.787519 -10.214739 10.549941 32.316612 0.340973 1.238245 0.016958 0.002776 444670.000000 0 0 1
-27.698219 -9.253339 10.522841 31.041034 0.322420 1.224945 0.021098 0.001890 922659.000000 0 0 1
-27.651919 -8.412139 11.643741 31.160382 0.295320 1.187832 0.020278 0.002683 -373844.000000 0 0 1
-26.783259 -7.169439 11.592941 30.052289 0.261552 1.174766 0.016928 0.005033 -441270.000000 0 0 1
-27.131509 -6.178139 10.656041 29.796634 0.223893 1.205072 0.013971 -0.000272 149200.000000 0 0 1
-26.163559 -5.137939 10.549041 28.674248 0.193910 1.194055 0.016216 -0.002331 -167553.000000 0 0 1
-26.468599 -4.255439 9.378441 28.401596 0.159409 1.234272 0.015836 -0.009093 -187976.000000 0 0 1
-26.220799 -4.866339 8.172241 27.892599 0.183503 1.273444 0.015054 -0.004127 216284.000000 0 0 1
-26.475299 -3.979539 7.141941 27.708943 0.149194 1.310105 0.006675 -0.016115 -660118.000000 0 0 1
-25.667359 -4.326139 5.937941 26.698089 0.166977 1.346510 0.000412 -0.005112 -455740.000000 0 0 1
-24.317919 -3.897339 5.972741 25.342140 0.158915 1.332874 0.021371 -0.019201 375626.000000 0 0 1
-23.718819 -4.328839 4.783741 24.580590 0.180520 1.374932 0.035063 -0.008905 -971510.000000 0 1 0
-22.285619 -3.867139 4.623741 23.086415 0.171815 1.369153 0.038163 -0.010021 -686608.000000 0 1 0
-22.106719 -2.473039 4.427441 22.680943 0.111405 1.374330 0.021301 -0.009672 1157870.000000 0 1 0
-20.701719 -2.184539 4.278441 21.251787 0.105135 1.368089 0.011556 -0.001407 367814.000000 0 1 0
-20.340819 -0.754439 4.761041 20.904201 0.037073 1.341025 0.000941 -0.006263 -676081.000000 0 1 0
-20.561619 0.287461 3.785941 20.909236 -0.013980 1.388727 0.001024 -0.002525 1978720.000000 0 1 0
-21.926819 0.816661 3.670241 22.246865 -0.037228 1.405061 0.002978 -0.012902 1327640.000000 0 1 0
-21.992219 2.106961 2.793141 22.268781 -0.095513 1.445037 0.022464 -0.006940 -85318.000000 0 1 0
-21.158419 3.152561 3.309641 21.646502 -0.147910 1.417299 -0.007518 -0.008333 598789.000000 0 1 0
-21.354919 4.418661 2.601741 21.961926 -0.204036 1.452051 0.005679 -0.000718 413091.000000 0 1 0
-20.365119 4.497661 1.378741 20.901386 -0.217362 1.504784 -0.001332 0.004270 -105055.000000 0 1 0
-20.798019 5.253361 0.262941 21.452844 -0.247414 1.558539 0.019777 0.008201 291186.000000 0 1 0
-21.847719 4.701261 -0.501059 22.353428 -0.211951 1.593213 0.037263 0.001622 -440590.000000 0 1 0
-21.405519 3.703761 -1.535659 21.777794 -0.171332 1.641370 0.037083 0.004533 -366207.000000 0 1 0
-21.008819 2.478961 -0.909359 21.174103 -0.117453 1.613756 -0.001398 0.006867 460039.000000 0 1 0
-20.563419 1.535561 -1.904659 20.708449 -0.074536 1.662901 -0.008024 0.005875 -260105.000000 0 1 0
-19.738319 0.418461 -1.154159 19.776461 -0.021197 1.629190 -0.011536 0.003563 -154984.000000 0 1 0
-20.504719 -0.388539 -0.292159 20.510481 0.018946 1.585041 -0.013683 -0.002767 180392.000000 0 1 0
-19.690919 -1.009839 0.694741 19.729033 0.051240 1.535575 -0.007179 -0.007166 -276922.000000 0 1 0
-19.157819 -2.425739 0.290441 19.312964 0.125949 1.555757 -0.004096 -0.001558 -302037.000000 0 1 0
-18.350719 -3.125839 1.194141 18.653303 0.168719 1.506735 0.005627 -0.001808 165247.000000 0 1 0
-17.805119 -4.317439 0.740241 18.336044 0.237891 1.530415 0.008759 -0.001976 -573497.000000 0 1 0
-18.721019 -5.527039 0.547341 19.527526 0.287077 1.542763 0.006041 -0.001491 -461508.000000 0 1 0
-19.326219 -5.960739 1.729241 20.298360 0.299170 1.485502 0.037525 -0.008503 227186.000000 0 1 0
-20.154619 -7.056239 1.492441 21.406227 0.336769 1.501020 0.001682 -0.004659 -105090.000000 0 1 0
-21.036419 -7.548539 2.673441 22.509079 0.344521 1.451744 0.020294 -0.002594 -46973.800000 0 1 0
-20.188619 -8.136139 3.620441 22.065464 0.383095 1.405974 0.022704 -0.001525 595860.000000 0 1 0
-20.918419 -8.719939 4.685941 23.142507 0.394951 1.366905 0.028449 -0.001567 152724.000000 0 1 0
-20.016419 -9.491739 5.662841 22.865212 0.442793 1.320530 0.020057 0.004513 -169468.000000 0 1 0
-19.549619 -10.679439 5.189641 22.872918 0.499978 1.341913 0.016581 0.009742 124834.000000 0 1 0
-18.473319 -11.198739 5.946141 22.406067 0.544974 1.302197 0.011015 0.004542 44340.900000 0 1 0
-18.008119 -12.541639 5.391741 22.597697 0.608335 1.329876 0.005618 0.001832 233415.000000 0 1 0
-18.849619 -13.653739 5.761641 23.977682 0.626883 1.328130 0.010982 0.007929 736920.000000 0 1 0
-18.210919 -14.845139 5.282241 24.081482 0.683927 1.349649 -0.000295 0.006696 69712.400000 0 1 0
-18.753519 -16.160339 5.832741 25.433676 0.711261 1.339406 0.004394 -0.006530 272594.000000 0 0 1
-17.934919 -17.241639 5.355541 25.448325 0.765692 1.358763 -0.006720 -0.002126 289263.000000 0 0 1
-18.459219 -18.420639 5.769241 26.708554 0.784352 1.353073 0.004541 0.001604 -206839.000000 0 0 1
-17.617319 -19.650539 5.329941 26.924373 0.839901 1.371520 -0.005177 0.002053 -533564.000000 0 0 1
-17.458819 -19.791239 3.916141 26.680323 0.847932 1.423484 -0.008843 -0.002311 441248.000000 0 0 1
-16.687419 -20.936039 3.517941 27.003029 0.897847 1.440145 -0.011965 0.002103 254197.000000 0 0 1
-15.181419 -20.915339 3.853841 26.130040 0.942931 1.422769 -0.008165 0.009055 -340842.000000 0 0 1
-14.606319 -22.195239 3.995641 26.868910 0.988760 1.421534 -0.008742 0.009874 -267076.000000 0 0 1
-13.206519 -22.233639 4.082641 26.180428 1.034809 1.414215 -0.008215 0.011913 -306801.000000 0 0 1
-12.598219 -23.627139 4.102141 27.088455 1.080935 1.418776 0.004157 0.018398 -306207.000000 0 0 1
-12.686219 -24.310139 2.878641 27.571898 1.089823 1.466201 0.008437 0.020147 56764.000000 0 0 1
-12.297119 -25.651889 3.054141 28.610598 1.123777 1.463844 -0.002406 0.012205 -240495.000000 0 0 1
18.031681 19.655061 -24.880659 36.476158 0.828447 2.321437 0.040597 -0.002383 445335.000000 0 0 1
16.971381 20.000261 -25.794139 36.788256 0.867140 2.347807 0.024093 -0.006245 413118.000000 0 0 1
17.201281 19.513961 -27.092049 37.558725 0.848305 2.376510 0.027512 -0.004425 -639007.000000 0 0 1
16.234181 19.875261 -28.170449 38.107070 0.885893 2.402744 0.017344 0.000692 -726613.000000 0 0 1
16.173481 21.261561 -28.442849 39.020906 0.920488 2.387529 0.016793 0.008010 -200449.000000 0 0 1
15.246481 21.548561 -29.428329 39.532546 0.955027 2.410444 -0.002989 0.009639 -489819.000000 0 0 1
14.960981 23.058061 -29.610759 40.401759 0.995237 2.393382 0.018349 0.005505 -764877.000000 0 0 1
14.301581 23.632261 -28.524719 39.707412 1.026583 2.372257 0.018794 0.001196 112434.000000 0 0 1
14.032681 25.002261 -28.771599 40.618150 1.059352 2.357945 0.021671 0.006970 -156554.000000 0 0 1
13.042781 25.567361 -27.735439 39.913139 1.099074 2.339070 0.011371 0.001832 -180931.000000 0 0 1
11.706981 25.133361 -27.941669 39.363385 1.134886 2.360066 0.017736 -0.002380 -162126.000000 0 0 1
10.954181 25.928061 -27.048699 39.037041 1.171059 2.336297 0.009558 0.004426 -1324000.000000 0 0 1
9.523181 25.432261 -26.754949 38.122410 1.212505 2.348741 0.015007 0.004752 -541620.000000 0 0 1
8.875481 26.189261 -25.857189 37.858232 1.244046 2.322659 0.005716 0.004185 -369138.000000 0 0 1
8.434681 27.456261 -26.372749 38.993743 1.272743 2.313569 0.012182 -0.000816 -1454920.000000 0 0 1
8.012481 28.453361 -25.305659 38.912337 1.296304 2.278808 0.006847 0.000558 -424016.000000 0 0 1
8.973081 28.855061 -24.352259 38.809319 1.269305 2.249115 0.003976 0.002260 -180936.000000 0 0 1
8.352481 29.596061 -23.338059 38.605126 1.295734 2.219975 0.021864 -0.003798 -80013.900000 0 0 1
9.249881 30.077961 -22.173259 38.495421 1.272445 2.184620 0.014539 0.000073 -37671.500000 0 0 1
10.165081 31.108461 -22.418059 39.669063 1.254971 2.171384 0.001438 -0.000980 -497281.000000 0 0 1
11.063081 31.278861 -21.396659 39.478803 1.230836 2.143586 -0.005484 0.005460 -847756.000000 0 0 1
12.241581 32.162861 -21.786159 40.730120 1.207114 2.135175 -0.014029 0.021364 290036.000000 0 0 1
13.312281 31.449461 -22.458859 40.874023 1.170374 2.152521 -0.017985 0.020234 210583.000000 0 0 1
14.147081 32.440461 -23.024359 42.221375 1.159567 2.147573 -0.004964 0.023465 -177087.000000 0 0 1
15.383481 31.849661 -23.738259 42.597621 1.120839 2.161887 -0.000023 0.023207 -283031.000000 0 0 1
16.214181 31.265961 -22.778159 41.944064 1.092388 2.144874 -0.015067 0.028990 -337868.000000 0 0 1
17.326681 30.723061 -23.481559 42.373387 1.057296 2.158148 0.006624 0.021314 649160.000000 0 0 1
18.455781 30.083361 -22.597559 41.907924 1.020518 2.140306 -0.002743 0.023037 701748.000000 0 0 1
19.311881 30.934861 -21.823859 42.499355 1.012718 2.110067 0.015281 0.023382 -7048.120000 0 0 1
20.256181 30.118361 -21.207959 42.038150 0.978730 2.099591 0.019534 0.022469 -29310.100000 0 0 1
20.841981 30.711761 -19.871359 42.100729 0.974556 2.062349 0.033581 0.014025 140108.000000 0 0 1
21.949081 31.559261 -20.036659 43.349934 0.963105 2.051279 0.042114 0.007387 -110309.000000 0 0 1
22.473681 32.070661 -18.809959 43.444311 0.959564 2.018578 0.035317 0.006485 152839.000000 0 0 1
23.710381 32.981861 -18.986959 44.838487 0.947504 2.008049 0.030064 0.007440 189612.000000 0 0 1
24.845081 32.341661 -19.507559 45.208472 0.915744 2.016954 0.024282 0.011763 -618245.000000 0 0 1
26.012981 33.025061 -19.113459 46.180669 0.903617 1.997513 0.018381 0.006588 103810.000000 0 0 1
27.350481 32.392161 -19.528659 46.676219 0.869589 2.002463 0.028366 -0.002312 -30955.100000 0 0 1
27.566781 31.131761 -18.888059 45.671356 0.846057 1.997162 0.016323 0.007790 -493329.000000 0 0 1
28.769981 30.625961 -19.409659 46.286026 0.816636 2.003516 0.008965 -0.002149 -156874.000000 0 0 1
29.290881 29.501261 -18.455759 45.485109 0.788977 1.988600 0.004153 -0.011619 -181293.000000 0 0 1
29.695881 30.056561 -17.244159 45.635548 0.791434 1.958288 -0.004104 -0.006864 -69191.100000 0 0 1
30.054681 29.001761 -16.367159 44.858331 0.767571 1.944282 -0.004516 -0.006751 -726380.000000 0 0 1
30.567981 29.530461 -15.005759 45.073522 0.768136 1.910192 -0.002212 -0.009207 -350078.000000 0 0 1
31.908581 29.902861 -14.813959 46.171333 0.752961 1.897421 -0.026821 0.004302 -338335.000000 0 0 1
32.312881 31.111661 -15.436459 47.437770 0.766461 1.902236 -0.016567 -0.004425 290014.000000 0 0 1
33.791681 31.535561 -15.187959 48.652270 0.750876 1.888277 -0.010947 -0.011327 579869.000000 0 0 1
34.076481 31.722861 -13.823959 48.565917 0.749644 1.859431 -0.006279 -0.011022 92672.400000 0 0 1
-34.400939 31.938561 -13.686959 48.896105 -0.748297 1.854506 0.007782 -0.013744 188204.000000 0 0 1
-33.847639 32.349261 -12.316459 48.413144 -0.762767 1.828027 0.002923 -0.000942 -465852.000000 0 0 1
-34.133639 33.609761 -11.779559 49.330309 -0.777665 1.811915 0.012380 -0.014350 523589.000000 0 0 1
-33.272239 33.935861 -10.674159 48.709570 -0.795272 1.791728 -0.009613 -0.002590 255535.000000 0 0 1
-33.823539 -34.180205 -9.931959 49.101548 0.790643 1.774476 -0.005303 0.002454 -102043.000000 0 0 1
-32.958839 -33.551805 -9.006959 47.886678 0.794313 1.760012 -0.012966 0.008991 -188455.000000 0 0 1
-32.710039 -34.257505 -7.801959 48.004102 0.808502 1.734047 -0.018011 0.008402 108737.000000 0 0 1
-32.426439 -33.383005 -6.562359 46.999612 0.799933 1.710880 -0.015485 0.013861 250974.000000 0 0 1
-33.599439 -32.672105 -6.181959 47.271612 0.771406 1.701947 -0.020728 0.017772 269149.000000 0 0 1
-33.273539 -31.527805 -5.372159 46.151825 0.758465 1.687463 -0.006242 0.016403 293001.000000 0 0 1
-34.532739 -30.723305 -4.941559 46.484949 0.727088 1.677302 -0.005211 0.018747 78402.300000 0 0 1
34.668981 -31.515305 -3.968859 47.020257 -0.737784 1.655304 -0.010098 0.012451 313356.000000 0 0 1
33.348581 -31.076805 -3.670159 45.731452 -0.750151 1.651137 -0.008911 0.010549 6099.630000 0 0 1
33.248981 -29.994305 -2.568759 44.852554 -0.733981 1.628099 -0.014367 0.014867 -443234.000000 0 0 1
34.015381 -28.921505 -3.006759 44.749751 -0.704638 1.638037 -0.004040 0.016946 201722.000000 0 0 1
33.589981 -27.767305 -2.242459 43.638729 -0.690784 1.622206 -0.017188 0.015344 57508.400000 0 0 1
34.022981 -26.364305 -2.771059 43.131411 -0.659246 1.635087 -0.013489 0.010221 -282651.000000 0 0 1
33.432981 -26.010805 -3.982859 42.546320 -0.661181 1.664546 0.002487 0.001471 68594.900000 0 0 1
33.055981 -24.690305 -3.947059 41.447416 -0.641530 1.666171 0.011998 -0.006512 -236335.000000 0 0 1
32.644081 -24.180705 -5.317159 40.970901 -0.637547 1.700942 0.018128 -0.012259 -447122.000000 0 0 1
33.770281 -24.091205 -6.145459 41.935483 -0.619653 1.717872 0.016038 -0.013092 50661.600000 0 0 1
33.312481 -23.733505 -7.422859 41.570416 -0.619033 1.750320 0.004768 -0.016325 -327091.000000 0 0 1
34.413281 -23.579005 -8.465559 42.566525 -0.600705 1.771010 0.003791 -0.020815 -240391.000000 0 0 1
-34.875339 -24.841305 -8.793959 43.711708 0.618926 1.773360 -0.008760 -0.004336 220313.000000 0 0 1
-34.007339 -24.737905 -9.935059 43.210744 0.628898 1.802793 0.005640 -0.004307 262998.000000 0 0 1
-33.721639 -26.094205 -10.554559 43.925564 0.658567 1.813454 -0.004106 0.003760 86695.700000 0 0 1
-32.911839 -27.030105 -9.842859 43.711527 0.687587 1.797922 -0.001534 0.006756 507718.000000 0 0 1
-33.691239 -27.946005 -9.050159 44.698816 0.692456 1.774676 -0.010333 0.001617 -85468.200000 0 0 1
-32.812839 -28.993405 -8.389959 44.583532 0.723680 1.760110 -0.013639 0.005948 -35283.300000 0 0 1
-32.118939 -29.813505 -9.334959 44.806392 0.748190 1.780674 -0.016553 0.006600 240453.000000 0 0 1
-31.154539 -30.647505 -8.727259 44.565007 0.777194 1.767902 -0.021410 0.003210 26916.100000 0 0 1
-30.542639 -31.682305 -9.696959 45.062759 0.803711 1.787681 -0.025140 0.011309 -621931.000000 0 0 1
-29.966539 -31.071505 -10.757159 44.487620 0.803499 1.815018 -0.027194 0.024427 -181985.000000 0 0 1
-29.723839 -32.004905 -11.820259 45.249741 0.822334 1.835085 -0.025654 0.025461 -327265.000000 0 0 1
-29.833239 -31.281505 -13.188559 45.193946 0.809091 1.866927 -0.030201 0.024343 -71862.800000 0 0 1
-28.917339 -30.236105 -13.548559 43.977244 0.807688 1.883972 -0.026631 0.034981 18250.500000 0 0 1
-29.273039 -29.896905 -14.855659 44.400747 0.795941 1.911957 -0.033423 0.042142 16915.100000 0 0 1
-28.307739 -28.927505 -15.544959 43.356365 0.796226 1.937499 -0.029077 0.029170 -17249.300000 0 0 1
-27.128939 -29.550505 -15.992159 43.185192 0.828096 1.950145 -0.014883 0.024671 -106390.000000 0 0 1
-26.207939 -28.701905 -16.650059 42.283328 0.830786 1.975530 0.008525 0.031176 394275.000000 0 0 1
-24.900039 -29.352305 -17.151259 42.139476 0.867281 1.989976 0.019036 0.018542 -145587.000000 0 0 1
-25.053839 -30.093705 -18.400159 43.265364 0.876534 2.010074 0.003553 0.023516 -110475.000000 0 0 1
-25.256739 -29.358005 -19.620059 43.413615 0.860352 2.039728 0.012371 0.027605 62325.600000 0 0 1
-24.041339 -28.528905 -20.105359 42.380536 0.870555 2.065080 0.020851 0.017231 129279.000000 0 0 1
-23.707739 -27.469105 -19.229959 41.065800 0.858764 2.058130 0.015939 0.018207 -410360.000000 0 0 1
-22.387339 -27.034505 -19.438459 40.123697 0.879153 2.076546 0.033696 -0.003130 -32578.500000 0 0 1
-22.110039 -25.787305 -18.595359 38.725008 0.862022 2.071668 0.022324 0.003526 -79559.900000 0 0 1
-22.361739 -25.993505 -17.175859 38.349964 0.860363 2.035180 0.021834 0.010517 208514.000000 0 0 1
-21.837139 -24.893205 -16.411359 36.957610 0.850703 2.030920 0.020930 0.007164 -85017.500000 0 0 1
-22.156439 -24.791605 -14.909659 36.439393 0.841469 1.992333 -0.000852 0.018140 -270506.000000 0 0 1
-23.470139 -24.364405 -14.567059 36.833013 0.804091 1.977397 -0.025693 0.035777 277502.000000 0 0 1
-23.553539 -24.337205 -13.178759 36.342102 0.801760 1.941885 -0.035832 0.038092 -410551.000000 0 0 1
-24.975039 -24.480005 -12.646959 37.188288 0.775389 1.917797 -0.040546 0.046067 -837059.000000 0 0 1
-25.581239 -25.796005 -12.714959 38.490308 0.789578 1.907462 -0.016904 0.039938 117650.000000 0 0 1
-26.790839 -25.918305 -12.007659 39.162373 0.768846 1.882428 -0.022808 0.038909 -11027.900000 0 0 1
-28.027339 -25.321705 -12.775059 39.873833 0.734726 1.896934 -0.023308 0.034964 -647791.000000 0 0 1
-28.319139 -23.922705 -12.561059 39.141405 0.701441 1.897492 -0.023502 0.036602 203215.000000 0 0 1
-28.874439 -23.570705 -11.288259 38.945297 0.684612 1.864865 -0.018173 0.031108 586317.000000 0 0 1
-30.375039 -24.014305 -11.008159 40.255551 0.668979 1.847781 -0.019345 0.022806 1218190.000000 0 0 1
-31.448939 -23.203105 -11.490459 40.736353 0.635649 1.856746 -0.008747 0.012466 429840.000000 0 0 1
-31.555439 -23.033405 -12.913759 41.146672 0.630535 1.890038 -0.007768 0.022128 -107205.000000 0 0 1
-33.039539 -22.765305 -13.335459 42.281257 0.603327 1.891673 -0.020538 0.013969 708973.000000 0 0 1
-33.915939 -23.831005 -12.985559 43.437684 0.612502 1.874385 -0.021190 0.014381 -277381.000000 0 0 1
34.664581 -23.459805 -13.397159 43.948601 -0.594962 1.880564 -0.014714 0.001250 -270462.000000 0 0 1
33.655281 -24.610005 -13.223959 43.740180 -0.631385 1.877932 -0.025019 0.003975 -167085.000000 0 0 1
33.884981 -25.705905 -14.122859 44.815629 -0.648997 1.891393 -0.041353 0.015520 -99661.300000 0 0 1
33.159881 -26.785405 -13.597959 44.743045 -0.679458 1.879593 -0.035764 0.000286 129498.000000 0 0 1
33.223381 -28.102305 -14.448059 45.850616 -0.702085 1.891371 -0.037956 -0.002023 521768.000000 0 0 1
32.378881 -28.047605 -15.613159 45.594197 -0.713842 1.920306 -0.032849 -0.002851 82762.200000 0 0 1
32.386581 -29.190805 -16.388059 46.578559 -0.733546 1.930329 -0.035525 0.005440 -257633.000000 0 0 1
31.394581 -29.062505 -17.555659 46.243379 -0.746843 1.960199 -0.031759 0.005509 468653.000000 0 0 1
30.031081 -29.261805 -17.173959 45.310748 -0.772425 1.959540 0.012635 -0.001195 198732.000000 0 0 1
29.231081 -29.008605 -18.303259 45.066224 -0.781578 1.989024 0.019316 -0.004730 -43795.400000 0 0 1
27.710381 -29.020205 -18.076359 44.009002 -0.808483 1.994064 0.027605 -0.013532 130547.000000 0 0 1
27.275481 -27.961705 -17.217759 42.687938 -0.797821 1.985960 0.023056 -0.015478 -579288.000000 0 0 1
25.875381 -27.925905 -17.181159 41.768214 -0.823493 1.994726 0.036736 -0.011627 -193076.000000 0 0 1
25.251181 -26.796905 -16.307359 40.269420 -0.815087 1.987727 0.029632 -0.014444 -219907.000000 0 0 1
25.402581 -25.495605 -16.819359 39.726664 -0.787226 2.007966 0.036309 -0.019018 -124007.000000 0 0 1
25.249081 -24.611905 -15.741959 38.614391 -0.772620 1.990698 0.030451 -0.010215 25795.600000 0 0 1
25.273281 -23.076705 -16.064959 37.806824 -0.739999 2.009672 0.026360 -0.009944 780353.000000 0 0 1
23.939081 -22.645705 -16.370259 36.795284 -0.757641 2.031860 0.034680 -0.006467 385526.000000 0 0 1
23.712481 -21.229005 -16.266159 35.742696 -0.730194 2.043270 0.027066 -0.004458 -512506.000000 0 0 1
22.270081 -20.770105 -16.415759 34.595244 -0.750562 2.065203 0.020701 -0.000746 -734797.000000 0 0 1
21.432981 -21.199305 -15.376159 33.840944 -0.779917 2.042456 0.014995 -0.000663 -1008000.000000 0 0 1
20.200181 -20.595605 -15.337259 32.671972 -0.795091 2.059443 0.014676 -0.000874 -715070.000000 0 0 1
20.230581 -19.252005 -14.507059 31.470158 -0.760618 2.049894 0.024481 -0.001602 -375113.000000 0 0 1
20.206881 -19.378305 -13.091759 30.906810 -0.764470 2.008199 0.021344 -0.006511 79544.100000 0 0 1
19.822781 -18.167805 -12.481759 29.644664 -0.741863 2.005394 0.010569 -0.004987 -296032.000000 0 0 1
18.995481 -18.353405 -11.183859 28.683697 -0.768209 1.971323 0.011022 0.001426 -211640.000000 0 0 1
19.636181 -18.730905 -9.957859 28.906493 -0.761807 1.922487 0.001638 -0.010946 26834.400000 0 0 1
18.668881 -18.836205 -8.920859 27.980555 -0.789859 1.895284 0.011829 -0.023178 -39895.800000 0 0 1
19.072281 -19.590005 -7.619059 28.382570 -0.798788 1.842571 0.016246 -0.028946 -154377.000000 0 0 1
20.128881 -18.915705 -6.967259 28.487163 -0.754337 1.817878 0.013673 -0.024585 -259831.000000 0 0 1
20.691181 -19.688505 -5.974659 29.179766 -0.760572 1.777008 0.004974 -0.013916 -188486.000000 0 0 1
21.984681 -19.096405 -5.349059 29.607623 -0.715207 1.752459 -0.003890 -0.014917 679303.000000 0 0 1
22.993781 -19.050305 -6.378859 30.533882 -0.691878 1.781257 -0.011476 -0.028258 206630.000000 0 0 1
24.059881 -18.191705 -6.089359 30.771680 -0.647394 1.770000 -0.012248 -0.030303 -131717.000000 0 0 1
24.970881 -17.871605 -7.297159 31.562441 -0.621184 1.804105 -0.021805 -0.036286 -139487.000000 0 0 1
25.815581 -18.920705 -7.739859 32.929359 -0.632479 1.808060 -0.006027 -0.043400 357.760000 0 0 1
25.261781 -19.801505 -8.648359 33.242312 -0.664817 1.833985 0.008929 -0.045395 -239855.000000 0 0 1
26.076081 -21.171705 -8.656859 34.686370 -0.681967 1.823038 0.018295 -0.050339 1025610.000000 0 0 1
27.441481 -20.978005 -9.026259 35.701329 -0.652694 1.826397 0.005367 -0.043598 298553.000000 0 0 1
28.225681 -22.082905 -8.620259 36.859905 -0.663898 1.806848 0.017343 -0.042427 -65937.800000 0 0 1
-29.160849 30.617661 4.175741 42.488035 -0.809764 1.472357 -0.000485 0.000933 4686.030000 0 0 1
-28.203569 31.154261 3.277341 42.151753 -0.835068 1.492967 -0.005082 0.000700 70548.700000 0 0 1
-27.155719 31.758761 4.013141 41.978057 -0.863371 1.475049 -0.001150 -0.000007 7652.520000 0 0 1
-26.569229 33.010961 3.263541 42.500567 -0.893098 1.493932 0.009591 -0.002835 -498631.000000 0 0 1
-25.814629 32.606161 2.130141 41.642458 -0.901131 1.519621 0.016656 -0.012525 122931.000000 0 0 1
-25.203929 33.682461 1.473841 42.094161 -0.928397 1.535776 0.021399 -0.017437 -640472.000000 0 0 1
-23.983519 34.364261 2.098141 41.958477 -0.961467 1.520770 0.030153 -0.019343 -1182230.000000 0 0 1
-22.774319 33.949061 1.560341 40.910182 -0.979911 1.532646 0.022064 -0.021593 -676345.000000 0 0 1
-21.677819 34.548361 2.228841 40.847091 -1.010428 1.516204 0.018422 -0.013267 328176.000000 0 0 1
-20.277019 34.052861 1.826541 39.674817 -1.033724 1.524742 0.012984 -0.015551 779.319000 0 0 1
-19.851619 34.682361 0.639341 39.967008 -1.050930 1.554799 0.022387 -0.021690 750898.000000 0 0 1
-18.489219 34.282761 0.367541 38.952458 -1.076193 1.561361 0.017198 -0.018547 536916.000000 0 0 1
-17.904919 -34.326105 -0.870059 38.724987 1.090009 1.593266 0.022808 -0.016695 -7013.010000 0 0 1
-17.735419 -32.891705 -0.892959 37.379228 1.076278 1.594688 0.029012 -0.018593 211049.000000 0 0 1
-16.900019 -32.437505 0.157741 36.576321 1.090488 1.566484 0.025767 -0.015957 -268830.000000 0 0 1
-16.938719 -30.848405 0.077841 35.193044 1.068648 1.568584 0.025495 -0.022771 -410965.000000 0 0 1
-16.101719 -30.366405 -0.934159 34.383958 1.083244 1.597968 0.020741 -0.013702 16394.500000 0 0 1
-16.223419 -28.950705 -0.956459 33.200263 1.060018 1.599609 0.009856 -0.006896 121605.000000 0 0 1
-15.306319 -28.375205 -2.061159 32.306099 1.076108 1.634641 0.014305 0.000445 -251222.000000 0 0 1
-15.755619 -28.575405 -3.356059 32.803299 1.066902 1.673284 0.017302 -0.007793 -44256.100000 0 0 1
-14.880819 -28.029705 -4.310559 32.026302 1.082740 1.705800 0.019661 -0.001911 -135415.000000 0 0 1
-15.503219 -28.105005 -5.727459 32.604369 1.066712 1.747378 0.035444 -0.004279 521584.000000 0 0 1
-16.624219 -27.234005 -5.905959 32.448976 1.022749 1.753824 0.025234 0.004120 138538.000000 0 0 1
-17.015419 -27.161205 -7.313659 32.874688 1.011148 1.795144 0.037653 0.001986 272786.000000 0 0 1
-17.780619 -25.904705 -7.646259 32.336812 0.969266 1.809514 0.017832 0.007721 215581.000000 0 0 1
-16.900819 -24.820605 -7.514059 30.954179 0.972992 1.815994 0.028679 0.008138 783387.000000 0 0 1
-17.674019 -23.626105 -7.766559 30.510379 0.928531 1.828183 0.017766 0.016390 446524.000000 0 0 1
-16.820119 -22.419005 -7.425259 28.994183 0.927128 1.829776 0.015907 0.012214 401841.000000 0 0 1
-15.593319 -22.376405 -8.131159 28.459986 0.962178 1.860538 0.042819 0.005791 -161575.000000 0 0 1
-14.651019 -21.451905 -7.632859 27.075766 0.971591 1.856578 0.046325 0.008737 1362290.000000 0 0 1
-13.384319 -21.331205 -8.577159 26.603157 1.010435 1.899072 0.040920 0.005037 1002050.000000 0 0 1
-13.872619 -20.789705 -9.768559 26.834420 0.982367 1.943388 0.044447 0.014412 165460.000000 0 0 1
-12.799319 -20.561505 -10.665659 26.464208 1.014004 1.985613 0.037721 0.011613 262547.000000 0 0 1
-13.197919 -19.608305 -11.733159 26.388211 0.978368 2.031565 0.046744 0.008768 655520.000000 0 0 1
-14.094919 -20.242905 -12.712759 27.749886 0.962565 2.046675 0.049378 0.019686 383923.000000 0 0 1
-14.306219 -19.290405 -13.707359 27.652835 0.932678 2.089431 0.041176 0.001284 622602.000000 0 0 1
-15.610519 -19.559705 -14.559959 28.952768 0.897218 2.097731 0.053634 0.002947 1103770.000000 0 0 1
-16.797319 -19.291305 -13.806859 29.067743 0.854396 2.065748 0.053024 0.000534 105727.000000 0 0 1
-17.905119 -19.636505 -14.586659 30.314291 0.831485 2.072798 0.033101 0.012010 -36853.200000 0 0 1
-19.330919 -19.541105 -13.998459 30.846330 0.790805 2.041836 0.006960 0.010191 467613.000000 0 0 1
-20.333919 -20.040605 -14.855759 32.183655 0.778133 2.050587 0.012918 0.003769 -29247.400000 0 0 1
-21.628819 -20.006305 -14.284659 32.743083 0.746448 2.022240 -0.002512 0.004641 23998.100000 0 0 1
-22.676619 -20.730805 -15.136059 34.250483 0.740601 2.028537 -0.006320 0.005395 -414449.000000 0 0 1
-22.882619 -20.060805 -16.340659 34.540806 0.719782 2.063583 -0.010654 -0.008036 215222.000000 0 0 1
-23.606019 -20.935105 -17.187559 35.929583 0.725505 2.069592 -0.009262 0.000030 -157166.000000 0 0 1
-23.852319 -20.379605 -18.612159 36.478403 0.707047 2.106242 -0.005605 0.000908 708895.000000 0 0 1
-22.630019 -20.272105 -19.369359 36.031209 0.730493 2.138351 0.000564 -0.001149 607494.000000 0 0 1
-22.788919 -19.935405 -20.721559 36.689756 0.718708 2.170960 -0.004145 -0.001546 6004.110000 0 0 1
-21.647419 -19.170305 -21.445559 36.000324 0.724785 2.208939 -0.010126 -0.000856 -239540.000000 0 0 1
-20.467819 -19.844705 -21.702959 35.829629 0.769942 2.221475 -0.004914 0.000738 -1026920.000000 0 0 1
-19.616119 -19.181205 -22.564259 35.522620 0.774189 2.259074 0.001202 0.000958 -765005.000000 0 0 1
-18.267919 -19.869405 -22.662459 35.243399 0.827366 2.269241 0.020439 0.005716 -918790.000000 0 0 1
-18.350019 -21.077405 -23.375059 36.433138 0.854463 2.267363 0.019373 0.008631 -509504.000000 0 0 1
-17.086019 -21.628305 -23.569059 36.265909 0.902192 2.278244 0.021811 0.014473 -473002.000000 0 0 1
-17.156119 -22.947405 -24.333659 37.590461 0.928815 2.274880 0.032765 0.016379 -63661.800000 0 0 1
-17.259219 -22.805505 -25.708689 38.456578 0.922957 2.303003 0.043529 0.012404 108652.000000 0 0 1
-17.238619 -24.097205 -26.299599 39.617094 0.949824 2.296744 0.039276 -0.000146 -75347.400000 0 0 1
-17.179919 -24.035805 -27.784909 40.557005 0.950230 2.325514 0.032066 0.004036 -192535.000000 0 0 1
-15.909019 -23.759505 -28.321489 40.245716 0.980776 2.351408 0.037324 -0.001497 -188536.000000 0 0 1
-15.773119 -23.907705 -29.715579 41.272088 0.987597 2.374587 0.048757 -0.015619 446912.000000 0 0 1
-14.301219 -23.693205 -30.206889 40.967657 1.027734 2.399913 0.016161 -0.014359 512156.000000 0 0 1
-13.394419 -24.694905 -29.866879 41.003405 1.073810 2.386780 0.020019 -0.013066 -2690.340000 0 0 1
-12.200119 -24.617105 -30.638039 41.152572 1.110679 2.410580 0.020654 -0.008767 962992.000000 0 0 1
-11.227319 -25.816305 -30.250959 41.323780 1.160577 2.392119 0.006926 -0.000644 -279464.000000 0 0 1
-11.715419 -27.014005 -30.834449 42.635322 1.161597 2.379241 0.007766 0.008007 194175.000000 0 0 1
-10.908119 -28.154805 -30.719489 43.073972 1.201170 2.364820 0.017679 0.015474 142735.000000 0 0 1
-9.539619 -28.251705 -31.460029 43.346240 1.245152 2.382970 0.017304 0.002489 -10408.100000 0 0 1
-8.610219 -27.385305 -30.907409 42.182445 1.266172 2.393089 0.012007 -0.002277 -434784.000000 0 0 1
-7.691519 -26.914205 -31.892929 42.434571 1.292437 2.421249 0.015716 -0.000290 -444362.000000 0 0 1
-6.599419 -25.990705 -31.393919 41.287373 1.322137 2.434688 0.021835 -0.004395 -881682.000000 0 0 1
-6.909419 -24.654305 -31.141039 40.315495 1.297554 2.453460 0.032592 -0.009673 71577.800000 0 0 1
-7.810219 -24.381905 -30.072479 39.494693 1.260795 2.436314 0.023097 -0.005426 25348.900000 0 0 1
-8.295419 -22.913605 -29.937599 38.601905 1.223445 2.458378 0.013463 -0.007847 340278.000000 0 0 1
-9.127319 -22.447405 -31.050209 39.386665 1.184605 2.478908 0.004658 -0.012949 434025.000000 0 0 1
-9.485919 -21.068105 -30.825089 38.523159 1.147734 2.498375 0.002666 -0.009275 -133601.000000 0 0 1
-10.251919 -20.511405 -32.035619 39.396706 1.107296 2.520348 -0.004887 -0.007094 -222665.000000 0 0 1
-10.704019 -19.205905 -31.879379 38.726446 1.062343 2.537810 -0.003278 -0.010432 69361.800000 0 0 1
-11.297019 -18.810605 -33.095739 39.708808 1.029960 2.556138 0.009753 -0.008054 107838.000000 0 0 1
-12.250119 -17.519905 -33.048699 39.360246 0.960600 2.567429 0.006713 -0.009655 -6060.730000 0 0 1
-11.749219 -16.236705 -33.265589 38.836505 0.944393 2.599352 0.017043 -0.012521 129546.000000 0 0 1
-10.772619 -15.848305 -32.272059 37.532704 0.973802 2.605749 -0.021018 -0.001398 519964.000000 0 0 1
-10.577919 -14.300805 -32.294559 36.869281 0.933937 2.638137 -0.004634 -0.004524 -157122.000000 0 0 1
-9.928919 -13.698405 -33.424999 37.462785 0.943604 2.673031 0.004531 -0.013915 86253.300000 0 0 1
-10.605119 -13.847105 34.583258 38.732578 0.917214 0.467112 0.017652 -0.017744 -481252.000000 0 0 1
-11.088719 -12.595905 33.952066 37.872936 0.848948 0.459052 0.027911 -0.019455 269997.000000 0 0 1
-12.223619 -11.957205 34.570240 38.568032 0.774381 0.459342 0.019054 -0.010695 193411.000000 0 0 1
-13.014919 -11.445405 33.509082 37.725906 0.721320 0.477330 0.009561 -0.016182 378615.000000 0 0 1
-14.165119 -10.568805 34.078518 38.388743 0.641010 0.478424 0.011991 -0.015867 565608.000000 0 0 1
-13.636419 -9.339205 -34.597786 38.342919 0.600501 2.695930 0.012301 -0.018545 485491.000000 0 0 1
-14.481219 -8.996105 -33.508959 37.596355 0.555881 2.670961 0.012403 -0.012789 659454.000000 0 0 1
-13.653619 -8.082905 -32.542599 36.204632 0.534514 2.687939 0.013142 -0.025609 132344.000000 0 0 1
-13.440019 -6.722105 -32.915779 36.183826 0.463772 2.713314 0.012758 -0.027599 -129480.000000 0 0 1
-14.603619 -5.922305 -33.019259 36.587031 0.385270 2.696302 0.005218 -0.026455 -120565.000000 0 0 1
-15.033819 -5.335605 -31.646059 35.439489 0.341039 2.674676 0.001649 -0.023727 -378339.000000 0 0 1
-15.543319 -6.280205 -30.766589 35.037390 0.383989 2.642688 -0.001427 -0.028562 -366652.000000 0 0 1
-16.060919 -5.647905 -29.587099 34.135734 0.338149 2.619442 0.006963 -0.030068 276077.000000 0 0 1
-15.067919 -4.979905 -28.546209 32.660797 0.319196 2.634213 -0.001921 -0.022330 321176.000000 0 0 1
-14.536019 -3.831305 -29.127029 32.777409 0.257712 2.665148 -0.004798 -0.021876 -176131.000000 0 0 1
-13.384019 -3.332305 -28.479509 31.643619 0.244015 2.690584 -0.009327 -0.014684 6977.010000 0 0 1
-12.948519 -2.024305 -29.101019 31.916003 0.155080 2.718443 -0.011730 -0.003603 -185830.000000 0 0 1
-12.603619 -2.031305 -30.498249 33.062374 0.159794 2.745164 -0.004327 -0.013000 172166.000000 0 0 1
-12.794819 -0.764305 -31.057989 33.598961 0.059665 2.750186 0.009462 -0.016454 14864.000000 0 0 1
-12.906819 -0.764305 -32.587709 35.058935 0.059148 2.763884 0.002438 -0.014189 186833.000000 0 0 1
-14.129819 -1.331305 -33.071179 35.987873 0.093942 2.736215 0.002070 -0.015354 577611.000000 0 0 1
-14.135519 -1.469305 -34.492970 37.305988 0.103572 2.750770 -0.007093 -0.002510 -14701.700000 0 0 1
-15.535519 -1.831305 34.233174 37.637962 0.117337 0.428624 -0.006500 -0.006890 44687.400000 0 0 1
-15.562019 -2.118305 32.816969 36.381549 0.135289 0.446365 0.003047 -0.013045 1184870.000000 0 0 1
-16.873919 -1.895305 32.227579 36.427162 0.111853 0.484919 0.003248 -0.009473 1183800.000000 0 0 1
-16.860919 -1.918305 30.683379 35.063374 0.113285 0.505188 0.013024 -0.004875 46432.600000 0 0 1
-16.264619 -0.753305 30.131169 34.248980 0.046282 0.495422 0.011641 0.014003 -70825.900000 0 0 1
-16.414119 -0.698305 28.723089 33.089678 0.042517 0.519560 0.011293 0.001471 3698.400000 0 0 1
-15.648619 0.512695 28.108389 32.174892 -0.032751 0.508219 0.000606 0.005753 -38038.200000 0 0 1
-16.029819 1.796695 28.588089 32.824717 -0.111619 0.513701 0.001153 0.008228 -962139.000000 0 0 1
-17.323919 2.198695 28.335379 33.284323 -0.126242 0.552313 0.002955 0.002196 -875982.000000 0 0 1
-17.548419 2.853695 26.956289 32.291363 -0.161207 0.583057 0.006509 -0.001838 -509196.000000 0 0 1
-16.955019 4.122695 26.823139 31.999220 -0.238526 0.576742 -0.001938 0.004059 -158490.000000 0 0 1
-17.490719 4.789695 25.730369 31.478855 -0.267289 0.613938 0.010434 0.003587 -179201.000000 0 0 1
-17.836919 6.292695 25.879639 32.054787 -0.339159 0.631138 0.015645 0.003218 293533.000000 0 0 1
-16.722219 7.180695 25.794099 31.567872 -0.405600 0.614434 -0.000823 0.005004 216897.000000 0 0 1
-16.367219 7.367695 24.410959 30.299566 -0.422978 0.634018 0.000156 0.012294 -319308.000000 0 0 1
-15.162419 8.301695 24.170159 29.715546 -0.500936 0.620850 -0.021014 0.006494 324224.000000 0 0 1
-13.940519 7.680695 24.537079 29.247212 -0.503581 0.575437 -0.044161 0.018297 49638.600000 0 0 1
-12.822819 8.490695 24.243599 28.710080 -0.584873 0.565300 -0.025765 0.013597 -326772.000000 0 0 1
-11.501619 8.072695 24.884299 28.577683 -0.611983 0.514051 -0.024948 0.025883 -306248.000000 0 0 1
-10.471219 8.937695 24.435539 28.046825 -0.706551 0.513072 -0.017188 0.020312 75622.000000 0 0 1
-9.302219 8.803695 25.223629 28.289005 -0.757871 0.469840 -0.007303 0.011674 -4085.350000 0 0 1
-8.966419 10.118695 25.949179 29.259948 -0.845701 0.480314 0.008827 -0.000365 -460716.000000 0 0 1
-9.837619 10.316695 27.052649 30.578731 -0.809164 0.484971 -0.006667 -0.000394 263261.000000 0 0 1
-9.789419 11.591695 27.634459 31.525600 -0.869492 0.502104 -0.005372 0.004739 -411794.000000 0 0 1
-10.450219 12.805695 26.872719 31.548945 -0.886339 0.551425 -0.020914 0.000739 454291.000000 0 0 1
-11.864119 12.708695 26.734319 31.890313 -0.819755 0.576600 -0.020859 -0.003734 576613.000000 0 0 1
-12.250519 11.977695 25.538079 30.752786 -0.774138 0.590915 -0.024536 0.006219 -391287.000000 0 0 1
-13.744819 11.992695 25.163909 31.080011 -0.717426 0.627242 -0.030777 0.004097 -22067.800000 0 0 1
-14.156519 13.180695 24.545199 31.250673 -0.749718 0.667407 -0.034095 -0.005161 -1201860.000000 0 0 1
-15.451319 13.124695 24.087359 31.483357 -0.704159 0.699627 -0.017235 0.009709 -968721.000000 0 0 1
-15.721019 12.629695 22.610459 30.296741 -0.676789 0.728310 -0.014602 0.006034 -480470.000000 0 0 1
-15.624019 11.244695 22.442159 29.566935 -0.623829 0.708976 -0.017520 0.004814 30999.400000 0 0 1
-15.690819 10.907695 21.068559 28.444047 -0.607473 0.736682 -0.014471 0.004116 -456001.000000 0 0 1
-15.871619 9.383695 20.774559 27.776687 -0.533942 0.725883 -0.012815 -0.005922 -284932.000000 0 0 1
-17.157919 8.918695 21.027259 28.567165 -0.479362 0.743559 0.003265 -0.002399 -779767.000000 0 0 1
-17.502019 7.553695 20.789859 28.206333 -0.407439 0.742081 -0.002198 0.006671 -85734.600000 0 0 1
-18.938119 7.298695 21.259959 29.392332 -0.367855 0.762203 0.018551 0.008386 -67087.800000 0 0 1
-19.025619 7.555695 22.679959 30.552303 -0.378032 0.734252 0.007157 0.001601 189364.000000 0 0 1
-20.401419 7.560695 23.059059 31.703347 -0.354905 0.756361 -0.007774 0.011820 502186.000000 0 0 1
-20.743419 8.315695 24.367259 33.063628 -0.381268 0.742204 0.008505 0.001914 -838173.000000 0 0 1
-20.875319 9.754695 24.263079 33.460873 -0.437134 0.759591 0.011406 -0.004771 397784.000000 0 0 1
-19.726519 10.490695 23.809959 32.651254 -0.488768 0.753614 0.012879 -0.001431 1294330.000000 0 0 1
-18.392019 10.367695 24.646969 32.453483 -0.513305 0.708321 0.018268 -0.005609 19452.200000 0 0 1
-18.299319 10.907695 25.977279 33.595564 -0.537526 0.686869 0.028609 -0.004362 129515.000000 0 0 1
-19.015019 10.104695 26.920649 34.473137 -0.488456 0.674664 -0.003819 -0.003865 -368080.000000 0 0 1
-29.903519 -14.227439 21.434359 39.447081 0.444083 0.996350 0.005177 0.006639 34917.500000 0 0 1
-29.233339 -15.468639 21.564459 39.482816 0.486690 0.993007 0.002293 0.005744 233024.000000 0 0 1
-29.904409 -16.523939 20.871859 40.036842 0.504805 1.022404 -0.003325 0.010688 -5695.150000 0 0 1
-29.585289 -16.695239 19.362559 39.101522 0.513762 1.052746 -0.006132 0.006607 141977.000000 0 0 1
-30.075849 -15.664339 18.506559 38.631864 0.480171 1.071225 -0.000159 -0.002911 -48475.800000 0 0 1
-29.431819 -15.769939 17.261159 37.588170 0.491886 1.093682 -0.000210 -0.006813 -1113030.000000 0 0 1
-29.854739 -14.676939 16.261259 37.028996 0.456914 1.116145 -0.001475 0.001779 1040200.000000 0 0 1
-31.180659 -14.839539 15.673559 37.922366 0.444200 1.144714 0.017384 -0.000184 1492000.000000 0 0 1
-32.276829 -14.596939 16.536559 39.093760 0.424717 1.134046 0.012239 -0.004233 -753430.000000 0 0 1
-32.615149 -13.134439 16.962459 39.038269 0.382840 1.121304 0.002094 -0.001503 -559553.000000 0 0 1
-33.776029 -13.218439 17.775359 40.391963 0.373032 1.115118 -0.006908 -0.003531 210068.000000 0 0 1
-34.185995 -11.925639 18.261359 40.550960 0.335646 1.103660 -0.000225 0.005393 -236083.000000 0 0 1
34.389286 -11.891239 19.038059 41.066681 -0.332913 1.088755 -0.003492 0.021383 -566049.000000 0 0 1
34.702625 -12.506739 20.299859 42.104335 -0.345907 1.067709 -0.003752 0.011334 336760.000000 0 0 1
33.848536 -12.083739 21.357659 41.807771 -0.342892 1.034619 -0.006041 0.005954 -1155560.000000 0 0 1
34.319443 -12.446239 22.774659 43.028109 -0.347907 1.013024 -0.001606 -0.004496 218200.000000 0 0 1
-34.410297 -11.794239 23.362259 43.231560 0.330204 0.999886 -0.004521 -0.000186 1480690.000000 0 0 1
-33.198159 -12.434639 22.889459 42.197930 0.358383 0.997468 -0.003967 -0.001234 285441.000000 0 0 1
-31.892129 -11.666639 23.130959 41.088436 0.350694 0.972839 0.008791 0.004827 -46978.300000 0 0 1
-31.775779 -10.561039 22.233159 40.193893 0.320875 0.984658 0.018800 0.005504 -98258.700000 0 0 1
-30.534509 -9.896839 22.324759 39.098574 0.313436 0.963089 0.015870 -0.001397 -166711.000000 0 0 1
-30.567569 -8.454739 21.708559 38.433324 0.269845 0.970561 0.014210 0.007202 87619.800000 0 0 1
-30.736149 -8.396639 20.286759 37.772569 0.266678 1.003829 0.013744 0.013609 -685142.000000 0 0 1
-32.048429 -8.539439 19.872559 38.664485 0.260404 1.030985 0.008904 0.008593 -1055700.000000 0 0 1
-32.216269 -8.641339 18.335059 38.062253 0.262060 1.068189 0.012236 0.004526 -55044.600000 0 0 1
-33.588789 -8.604339 17.998359 39.066383 0.250774 1.091999 0.002575 0.009214 166839.000000 0 0 1
-33.686189 -8.579839 16.579359 38.512960 0.249396 1.125763 0.012102 0.014923 1176670.000000 0 0 1
34.702279 -8.555039 16.029559 39.171209 -0.241707 1.149200 0.001119 0.021756 1530650.000000 0 0 1
33.965639 -9.771939 16.220859 38.887938 -0.280135 1.140524 -0.004930 0.023751 341261.000000 0 0 1
32.575271 -9.638039 16.003059 37.551804 -0.287663 1.130553 -0.004818 0.020987 153444.000000 0 0 1
31.807071 -10.960839 16.086759 37.290932 -0.331859 1.124769 -0.003524 0.014789 -329819.000000 0 0 1
31.681981 -11.575939 17.354259 37.933107 -0.350309 1.095619 -0.017257 0.014177 286948.000000 0 0 1
30.832371 -12.722239 17.227559 37.540368 -0.391343 1.094031 -0.022743 0.016240 134473.000000 0 0 1
30.354661 -13.111539 18.628359 37.951728 -0.407738 1.057739 -0.026451 0.013342 -380031.000000 0 0 1
31.247301 -13.984039 19.235159 39.267525 -0.420796 1.058880 -0.013648 0.004814 -268495.000000 0 0 1
31.069021 -14.039839 20.636759 39.853193 -0.424426 1.026496 -0.017944 0.007924 -185399.000000 0 0 1
31.972441 -15.223239 21.213059 41.279267 -0.444375 1.031082 -0.025293 0.004252 237876.000000 0 0 1
31.925791 -15.258539 22.630459 42.002581 -0.445842 1.001799 -0.023244 -0.001512 33391.900000 0 0 1
32.412111 -16.512939 23.096859 43.089291 -0.471193 1.005077 -0.018774 0.007668 -35598.400000 0 0 1
32.749391 -16.518539 24.603689 44.167027 -0.467155 0.979955 -0.008217 -0.002001 437894.000000 0 0 1
33.877348 -15.709739 24.944169 44.907485 -0.434208 0.981884 -0.005568 0.000730 659915.000000 0 0 1
34.240267 -15.635239 26.351549 45.948457 -0.428356 0.960022 -0.009855 0.003211 -79323.100000 0 0 1
-34.573060 -14.537739 26.657109 46.013517 0.398047 0.952887 -0.006066 -0.002625 91159.400000 0 0 1
-33.264369 -14.899839 26.238449 44.910796 0.421124 0.946859 -0.009499 -0.000913 197121.000000 0 0 1
-32.414169 -13.759739 26.376969 43.997196 0.401445 0.927902 0.001708 -0.002922 -410389.000000 0 0 1
-30.943939 -14.133139 26.293299 42.995471 0.428440 0.912795 0.006462 0.000842 -1217450.000000 0 0 1
-30.549779 -14.376439 24.928669 41.969150 0.439845 0.934804 -0.002142 0.004700 -939706.000000 0 0 1
-29.265699 -14.834239 24.754439 41.101314 0.469138 0.924444 0.010865 -0.006329 -922356.000000 0 0 1
-28.866129 -16.250239 25.307969 41.687132 0.512733 0.918399 0.008367 -0.003676 -593250.000000 0 0 1
-28.823179 -16.315539 26.690239 42.536353 0.515087 0.892498 0.011559 -0.010895 74771.500000 0 0 1
-28.893799 -17.705839 26.958109 43.302286 0.549771 0.898791 0.010714 -0.011197 -362498.000000 0 0 1
-28.524349 -18.127839 28.396669 44.143265 0.566130 0.872016 0.011097 -0.009495 -109702.000000 0 0 1
-27.220369 -17.691239 28.710899 43.338714 0.576324 0.846676 0.021076 -0.004841 -73630.600000 0 0 1
-26.822299 -18.192339 29.937449 44.120831 0.595982 0.825032 0.030037 -0.014698 -330910.000000 0 0 1
-25.611199 -17.500639 30.541769 43.531661 0.599443 0.793157 0.028507 -0.011335 -349820.000000 0 0 1
-25.897029 -16.260439 31.245669 43.718987 0.560674 0.774611 0.041109 -0.020243 506942.000000 0 0 1
-24.831219 -15.359539 30.919209 42.526490 0.553953 0.756770 0.032443 -0.017611 337495.000000 0 0 1
-24.908719 -13.947939 31.600829 42.586402 0.510459 0.734687 0.041771 -0.017673 203183.000000 0 0 1
-24.359119 -13.892739 32.952889 43.269709 0.518318 0.705065 0.051510 -0.014127 441719.000000 0 0 1
-24.012619 -12.596139 33.338306 42.973378 0.483105 0.682831 0.052186 -0.009950 -319776.000000 0 0 1
-23.368719 -12.588339 -34.513398 43.540073 0.494113 2.485991 0.054683 -0.012200 650114.000000 0 0 1
-21.950019 -12.808239 -34.490642 42.842253 0.528212 2.506575 0.022836 -0.009105 771032.000000 0 0 1
-21.485419 -14.158339 -34.524862 43.058656 0.582658 2.501114 0.024639 -0.005416 -299273.000000 0 0 1
-21.429019 -14.894039 -33.132169 42.175536 0.607390 2.474426 0.022729 -0.004898 -280458.000000 0 0 1
-20.361319 -14.521039 -32.279839 40.834200 0.619509 2.482437 0.001930 0.000108 11185.400000 0 0 1
-20.348919 -15.448839 -31.174949 40.306607 0.649361 2.455055 0.017735 -0.000951 -532119.000000 0 0 1
-19.087719 -15.345639 -30.337479 38.989643 0.677147 2.462417 0.013365 0.001871 -483413.000000 0 0 1
-18.931519 -14.247139 -29.402399 37.760885 0.645139 2.463303 -0.003979 0.001398 -32076.400000 0 0 1
-19.536319 -14.538539 -28.175469 37.241024 0.639766 2.428849 -0.005200 0.000630 -151609.000000 0 0 1
-19.522019 -13.359839 -27.155549 36.014141 0.600143 2.424964 -0.013403 0.002175 1026550.000000 0 0 1
-18.181119 -12.935239 -26.788179 34.863735 0.618380 2.447084 0.000685 0.001922 1037400.000000 0 0 1
-18.183519 -11.757939 -25.984199 33.824075 0.574000 2.446846 -0.014802 -0.011162 4480.230000 0 0 1
-16.804019 -11.571139 -25.330119 32.525086 0.603030 2.463526 -0.003420 0.006800 -366818.000000 0 0 1
-16.543519 -12.610239 -24.386259 32.053015 0.651293 2.435357 0.001488 0.004974 499739.000000 0 0 1
-15.266219 -12.511139 -23.748159 30.879784 0.686537 2.448153 0.017953 -0.001041 648923.000000 0 0 1
-14.131219 -13.237239 -24.529459 31.250763 0.752745 2.473369 -0.003830 0.006401 -251540.000000 0 0 1
-13.541419 -12.400339 -25.522779 31.441225 0.741440 2.517959 -0.002051 -0.006353 167025.000000 0 0 1
-12.609319 -13.101439 -26.338839 32.005891 0.804536 2.537358 -0.018347 0.009949 356850.000000 0 0 1
-11.944619 -12.233539 -27.414889 32.309589 0.797347 2.583953 -0.016098 0.018754 972.733000 0 0 1
-12.926119 -11.725439 -28.333789 33.277230 0.736731 2.589534 0.000476 0.000528 594349.000000 0 0 1
-12.357819 -10.780539 -29.258609 33.541048 0.717336 2.630729 0.005974 -0.014929 134364.000000 0 0 1
-11.471019 -11.240939 -30.417489 34.397189 0.775268 2.655792 0.002808 -0.007613 -46953.700000 0 0 1
-11.024919 -10.143239 -31.176409 34.589053 0.743771 2.693644 0.007846 -0.012053 -137074.000000 0 0 1
-10.387219 -10.606439 -32.350289 35.593989 0.795840 2.711362 0.014150 -0.014924 -137969.000000 0 0 1
-10.008319 -9.334439 -33.142849 35.857309 0.750573 2.749989 0.010060 -0.010811 25816.700000 0 0 1
-8.797119 -8.772539 -32.675789 34.957888 0.783999 2.778263 -0.002179 -0.009315 -191557.000000 0 0 1
-8.490719 -7.493639 -33.188709 35.067611 0.723100 2.812762 0.005645 -0.011645 -213832.000000 0 0 1
-7.001319 -7.152839 -33.010639 34.494693 0.796103 2.847196 0.009560 -0.008020 -167113.000000 0 0 1
-6.510419 -7.194239 -31.657619 33.111138 0.835254 2.844193 -0.006211 -0.002385 -108260.000000 0 0 1
-6.845319 -6.063739 -30.849089 32.175978 0.724927 2.853408 -0.012357 -0.000365 81842.100000 0 0 1
-6.028219 -4.742539 -31.194619 32.123750 0.666593 2.900495 -0.004846 -0.001009 -95706.000000 0 0 1
-4.724219 -4.773639 -30.690019 31.416287 0.790601 2.926153 0.008471 -0.001578 -515704.000000 0 0 1
-4.121919 -3.522339 -31.075299 31.544750 0.707123 2.968855 0.020839 -0.011945 -98126.500000 0 0 1
-2.636919 -3.480339 -30.653609 30.963040 0.922410 3.000099 -0.001023 -0.003872 -1078960.000000 0 0 1
-1.900919 -4.363339 -31.507269 31.864717 1.159934 2.991668 -0.007106 -0.004762 1413270.000000 0 0 1
-0.449119 -4.351239 -31.442069 31.744900 1.467944 3.003356 -0.013384 0.004424 1752970.000000 0 0 1
0.274781 -2.971939 -31.497589 31.638679 -1.478600 3.047118 -0.013717 0.005319 -1229710.000000 0 0 1
0.216881 -2.277839 -30.361729 30.447827 -1.475869 3.066372 -0.005465 -0.009490 -213052.000000 0 0 1
0.712181 -0.956039 -30.451119 30.474446 -0.930549 3.102463 -0.007671 0.004406 -58923.600000 0 0 1
0.745681 -0.059239 -29.144439 29.154037 -0.079276 3.115932 -0.000084 -0.005080 365514.000000 0 0 1
-0.468019 0.594161 -28.831909 28.841828 -0.903602 3.115365 0.009691 -0.007156 54833.200000 0 0 1
-0.106119 1.955961 -28.658489 28.725355 -1.516595 3.073348 0.019888 -0.009109 -221562.000000 0 0 1
-1.285919 2.835661 -28.314809 28.485487 -1.145051 3.032069 0.016378 -0.003131 -316867.000000 0 0 1
-2.239019 2.885161 -29.375619 29.601762 -0.910833 3.017905 0.010822 -0.006158 34708.500000 0 0 1
-3.274419 3.778261 -29.016059 29.443654 -0.856717 2.970960 0.036472 -0.006753 -197264.000000 0 0 1
-4.332319 3.971961 -30.119849 30.687958 -0.742031 2.948876 0.040608 -0.007601 -400288.000000 0 0 1
-3.954219 4.596761 -31.322799 31.904291 -0.860400 2.950377 0.041899 -0.008142 -222631.000000 0 0 1
-4.990019 4.741561 -32.256499 32.982789 -0.759873 2.931347 0.044691 -0.003960 -964057.000000 0 0 1
-4.564819 5.555661 -33.458799 34.222714 -0.882992 2.929907 0.043761 0.001460 -129653.000000 0 0 1
-3.919019 4.928161 -34.508204 35.077936 -0.898971 2.961115 0.049708 -0.004462 520290.000000 0 0 1
-2.723919 4.187961 -34.256368 34.618745 -0.994128 2.996776 0.039028 -0.004381 -360704.000000 0 0 1
-2.191319 3.510361 33.748727 34.001487 -1.012741 0.122008 0.030130 -0.013318 -137434.000000 0 0 1
-3.074119 2.495361 33.270327 33.505099 -0.681854 0.118451 0.028890 -0.017806 233726.000000 0 0 1
-2.756019 1.836061 32.001299 32.172191 -0.587680 0.103117 0.042544 -0.023103 -175698.000000 0 0 1
-2.550919 2.763661 30.742239 30.971443 -0.825407 0.121734 0.054620 -0.027478 230731.000000 0 0 1
-3.760119 3.401361 30.327459 30.748374 -0.735345 0.165652 0.046659 -0.028131 350109.000000 0 0 1
-3.578019 4.456161 29.356139 29.907231 -0.894267 0.192269 0.047646 -0.029286 -658316.000000 0 0 1
-4.872319 5.117861 28.981709 29.830713 -0.809972 0.239152 0.049935 -0.017742 -500235.000000 0 0 1
-4.666319 6.029361 27.914329 28.936784 -0.912153 0.266624 0.047987 -0.008251 -33694.500000 0 0 1
-5.933219 6.558661 27.554449 28.939018 -0.835424 0.310583 0.030029 -0.002918 -3557.640000 0 0 1
-5.913819 7.362661 26.235519 27.883409 -0.894097 0.345516 0.032971 -0.002007 9483.460000 0 0 1
-5.314619 8.652061 26.381559 28.268180 -1.019957 0.367412 0.051511 0.000105 41954.900000 0 0 1
-5.293719 9.298261 25.145439 27.327170 -1.053239 0.402301 0.042429 0.003050 -213897.000000 0 0 1
-4.603919 10.644661 25.258319 27.793660 -1.162582 0.430446 0.047944 -0.001747 -492698.000000 0 0 1
-4.467319 11.494561 24.068059 27.043545 -1.200116 0.473508 0.049354 -0.002309 172697.000000 0 0 1
-3.961219 12.771861 24.376489 27.803325 -1.270052 0.501740 0.047981 0.000975 -902582.000000 0 0 1
-2.429819 12.882161 24.405929 27.703853 -1.384368 0.492914 0.046111 0.000229 -664620.000000 0 0 1
-1.751719 12.248161 25.469479 28.315726 -1.428741 0.452214 0.042877 -0.000525 -43793.800000 0 0 1
-1.937419 12.935661 26.657089 29.693186 -1.422128 0.456159 0.040616 0.002858 -537329.000000 0 0 1
-1.064019 12.317661 27.836739 30.458840 -1.484629 0.417974 0.026960 0.002365 -332183.000000 0 0 1
0.266481 12.599261 27.562619 30.306936 1.549649 0.428839 0.015547 0.017668 -1003050.000000 0 0 1
1.108081 12.239761 28.657659 31.181742 1.480511 0.405127 0.018958 0.001599 141038.000000 0 0 1
2.524381 12.815061 28.488999 31.340411 1.376301 0.429875 0.005871 0.008019 -102004.000000 0 0 1
2.740981 14.156261 28.780629 32.190640 1.379540 0.464450 -0.003692 0.013331 -12259.600000 0 0 1
4.129981 14.387661 28.674899 32.346737 1.291262 0.481103 0.001461 0.010614 -91427.400000 0 0 1
4.593681 15.851061 28.850649 33.237298 1.288721 0.519595 -0.004332 0.012160 -406548.000000 0 0 1
4.394681 16.330661 30.173419 34.589578 1.307918 0.510855 -0.005172 0.019331 -62435.400000 0 0 1
3.185181 16.980361 30.515969 35.067113 1.385371 0.515155 -0.009419 0.020384 -277935.000000 0 0 1
3.043381 18.409561 29.905859 35.249603 1.406963 0.557836 0.002396 0.024931 -141718.000000 0 0 1
3.767781 19.462861 30.501099 36.377413 1.379573 0.576340 0.011849 0.023017 310789.000000 0 0 1
4.999581 19.771061 29.864539 36.163260 1.323115 0.599132 0.002553 0.022903 143278.000000 0 0 1
5.976981 20.746761 30.544889 37.405115 1.290300 0.615306 0.006377 0.014651 140020.000000 0 0 1
5.509781 22.128661 30.643609 38.197724 1.326770 0.639764 0.004989 0.007633 319395.000000 0 0 1
6.413181 22.906161 31.431439 39.417718 1.297810 0.647832 -0.013615 -0.004080 -106843.000000 0 0 1
6.677281 24.313461 30.840309 39.835350 1.302771 0.685355 -0.012818 -0.005332 -211226.000000 0 0 1
7.425081 24.271461 29.658029 39.036321 1.273919 0.707861 -0.024067 0.004844 -40935.500000 0 0 1
7.521881 25.585661 29.142959 39.503377 1.284864 0.741090 -0.032021 0.011184 1286.050000 0 0 1
8.285281 25.606761 27.781979 38.680621 1.257869 0.769526 -0.024714 0.006644 219093.000000 0 0 1
7.475381 25.024861 26.787969 37.412836 1.280516 0.772726 -0.019054 0.000718 442901.000000 0 0 1
8.042481 25.370361 25.535399 36.883510 1.263814 0.806089 -0.003265 0.002362 -304737.000000 0 0 1
28.103131 2.339261 6.913941 29.035508 0.083047 1.330366 0.012259 0.005325 68222.500000 0 0 1
28.539031 2.930661 8.127541 29.818149 0.102331 1.294733 0.004288 -0.000776 22359.600000 0 0 1
27.458161 3.104161 9.005841 29.063579 0.112573 1.255743 0.004786 0.001802 -808387.000000 0 0 1
27.693661 3.858561 10.376441 29.824451 0.138439 1.215448 -0.000332 0.000487 -329020.000000 0 0 1
27.728441 5.306261 10.330041 30.062146 0.189079 1.220024 0.002863 -0.002439 -187784.000000 0 0 1
28.864341 5.854061 9.725341 31.016165 0.200099 1.251859 0.006175 -0.012469 -507070.000000 0 0 1
28.789921 7.401261 9.587741 31.234004 0.251629 1.258794 -0.003994 -0.016735 -396275.000000 0 0 1
27.787471 7.777561 8.706941 30.140419 0.272911 1.277740 0.018922 -0.008656 -395540.000000 0 0 1
27.915211 9.104561 8.291241 30.510600 0.315272 1.295586 0.017960 -0.016980 17905.700000 0 0 1
27.278821 9.426761 6.910141 29.677398 0.332723 1.335797 0.022328 -0.007464 -349005.000000 0 0 1
25.886371 9.529661 7.012741 28.462206 0.352738 1.321845 0.025400 -0.007061 -580878.000000 0 0 1
25.334831 9.696961 5.730541 27.725869 0.365550 1.362610 0.027724 -0.010713 1436520.000000 0 0 1
23.820201 10.208061 5.866141 26.571001 0.404871 1.348190 0.008193 -0.004804 1360190.000000 0 0 1
23.631801 11.491361 6.376841 27.040294 0.452601 1.332726 0.001072 -0.004835 387330.000000 0 0 1
22.302401 11.995061 6.298341 26.094974 0.493457 1.327027 0.000341 -0.000719 296642.000000 0 0 1
22.028801 13.441561 6.760941 26.676843 0.547872 1.314563 0.000794 0.009361 -174630.000000 0 0 1
22.156301 14.411761 5.754841 27.050300 0.576698 1.356412 -0.009286 0.020236 526432.000000 0 0 1
21.607701 15.636061 6.240441 27.392011 0.626412 1.340958 0.003772 0.008995 -79277.800000 0 0 1
21.377301 16.807461 5.230141 27.691770 0.666288 1.380785 0.024464 0.004685 -664545.000000 0 0 1
20.182001 16.551961 4.575941 26.499431 0.686898 1.397246 0.025036 0.002347 -295552.000000 0 0 1
20.092701 17.474561 3.530241 26.861488 0.715819 1.438991 0.029989 0.001394 1824200.000000 0 0 1
18.546001 17.646561 3.112541 25.788431 0.760552 1.449806 0.017505 0.008561 1524480.000000 0 0 1
17.795901 18.396761 4.016541 25.908831 0.801998 1.415143 0.015064 0.005328 -70301.900000 0 0 1
16.444101 18.345961 3.622241 24.901875 0.840011 1.424818 0.005952 0.003732 134724.000000 0 1 0
15.421801 19.261361 4.337541 25.052869 0.895653 1.396784 0.008872 -0.001053 806311.000000 0 0 1
14.032001 18.946161 4.200541 23.947831 0.933322 1.394480 0.007705 -0.005612 731124.000000 0 1 0
13.345501 20.193261 4.294241 24.582732 0.986804 1.395210 0.006487 -0.000512 1722110.000000 0 1 0
11.748601 20.082561 4.359141 23.671523 1.041468 1.385588 0.000133 -0.000020 1816320.000000 0 1 0
11.311701 19.605661 5.628741 23.324220 1.047490 1.327064 -0.005352 0.002420 233842.000000 0 1 0
9.989501 19.100661 5.503141 22.246572 1.088924 1.320831 0.000293 -0.002899 231643.000000 0 1 0
9.298001 18.597761 6.756941 21.862886 1.107187 1.256592 0.009768 -0.002013 -453137.000000 0 1 0
9.024601 19.661061 7.620641 22.936323 1.140476 1.232106 0.001608 -0.001639 -436621.000000 0 1 0
8.425301 19.090561 8.708041 22.611174 1.155173 1.175457 0.006671 0.003877 -243380.000000 0 1 0
7.264501 19.947961 9.325941 23.187654 1.221552 1.156884 0.008827 0.001680 1475020.000000 0 1 0
6.071301 19.973961 8.485341 22.534880 1.275710 1.184735 0.001088 -0.013700 728361.000000 0 1 0
6.032701 20.962761 7.496141 23.065623 1.290586 1.239793 -0.006636 -0.013447 -1696950.000000 0 1 0
4.821301 21.198661 6.633041 22.729395 1.347166 1.274660 -0.015305 -0.000233 -184855.000000 0 1 0
3.642301 21.755861 7.251341 23.219944 1.404918 1.253194 -0.024483 0.013150 583209.000000 0 1 0
3.777801 23.008661 7.818041 24.592520 1.408058 1.247279 -0.009277 0.009020 -1007560.000000 0 1 0
3.836501 24.152261 6.755841 25.371083 1.413266 1.301264 -0.014301 0.004672 -1297550.000000 0 0 1
2.682901 24.250561 6.012041 25.128317 1.460612 1.329199 -0.008920 0.003924 -638183.000000 0 0 1
2.794701 25.256561 5.006741 25.899260 1.460592 1.376256 -0.007889 0.007126 -104139.000000 0 0 1
1.477401 25.337961 4.193841 25.725149 1.512554 1.407040 -0.007750 0.004358 71993.600000 0 0 1
0.495601 25.981761 4.986341 26.460558 1.551724 1.381219 -0.000697 0.002807 -393645.000000 0 0 1
-0.651299 26.186861 4.196341 26.528950 -1.545930 1.411949 -0.002008 0.003462 5046.740000 0 0 1
-1.706599 27.135561 4.808641 27.611124 -1.507987 1.395748 0.005579 0.003548 475241.000000 0 0 1
-2.708599 27.540861 3.889841 27.945776 -1.472763 1.431150 0.020320 0.003926 414736.000000 0 0 1
-3.789399 28.289761 4.410341 28.881157 -1.437639 1.417490 0.013633 0.000941 11375.700000 0 0 1
-4.706199 28.838961 3.313441 29.407701 -1.409033 1.457884 0.009514 -0.003418 -585241.000000 0 0 1
-4.109799 29.776361 2.535641 30.165404 -1.433641 1.486639 0.007108 0.004913 -189835.000000 0 0 1
-4.818299 30.031061 1.345241 30.444873 -1.411708 1.526596 0.008470 0.007440 -255716.000000 0 0 1
-4.103399 31.123061 0.530641 31.396885 -1.439708 1.553894 0.003827 0.006829 -357724.000000 0 0 1
-4.087199 32.430561 1.061441 32.704329 -1.445428 1.538335 0.001647 0.011886 198643.000000 0 0 1
-3.059499 32.656961 2.020341 32.862127 -1.477383 1.509278 0.009897 0.002037 -307133.000000 0 0 1
-2.410499 34.047561 1.873041 34.184137 -1.500116 1.515976 -0.000502 0.000627 -363473.000000 0 0 1
-1.446599 34.188361 0.838941 34.229235 -1.528509 1.546284 -0.017556 0.004737 799616.000000 0 0 1
-0.488499 -34.107105 0.948041 34.123775 1.556475 1.543010 -0.021537 0.004120 256889.000000 0 0 1
0.654501 -34.354005 1.896941 34.412562 -1.551747 1.515645 -0.026506 0.008685 -1179450.000000 0 0 1
0.275401 -34.194105 3.272141 34.351413 -1.562742 1.475397 -0.024392 0.007732 70921.600000 0 0 1
1.284501 -34.666505 4.135841 34.935965 -1.533760 1.452135 -0.031615 0.007017 -137108.000000 0 0 1
1.106501 -34.307405 5.609441 34.780572 -1.538555 1.408808 -0.031083 0.000670 -505350.000000 0 0 1
0.030201 34.324061 6.093341 34.860736 1.569916 1.395103 -0.025540 0.000868 -426278.000000 0 0 1
-0.214799 34.388961 7.527441 35.203823 -1.564550 1.355308 -0.013145 -0.008190 310324.000000 0 0 1
0.937301 33.907961 8.485741 34.966215 1.543161 1.325665 -0.018997 0.002546 453493.000000 0 0 1
1.347101 32.538561 8.386941 33.629056 1.529420 1.318740 -0.016460 -0.001983 -430821.000000 0 0 1
2.429001 32.249461 9.201841 33.624421 1.495619 1.293594 -0.018959 0.008670 -588940.000000 0 0 1
2.712601 30.750361 9.363741 32.258682 1.482810 1.276287 -0.015136 0.003484 -424532.000000 0 0 1
1.908601 29.992861 10.198641 31.736836 1.507247 1.243641 -0.006504 -0.004933 -7638.260000 0 0 1
2.485301 28.700661 10.257341 30.579695 1.484418 1.228735 -0.001177 -0.004754 3380.520000 0 0 1
2.205901 27.906961 11.548141 30.282405 1.491916 1.179542 -0.002831 -0.013163 -710951.000000 0 0 1
2.791101 28.407361 12.701841 31.242682 1.472858 1.152117 -0.001498 -0.007833 -425759.000000 0 0 1
2.745601 27.578261 13.834041 30.975466 1.471567 1.107820 0.001238 -0.012255 485412.000000 0 0 1
1.333501 27.087461 14.389741 30.701359 1.521607 1.082977 -0.000104 -0.016102 1249400.000000 0 0 1
0.498601 28.113961 14.912041 31.827856 1.553063 1.083180 0.002418 -0.011981 367473.000000 0 0 1
-0.154799 28.892661 13.905041 32.064934 -1.565439 1.122254 0.013789 -0.012595 -852101.000000 0 0 1
-0.911199 30.154561 14.416641 33.436019 -1.540588 1.125006 -0.005460 -0.009037 -437677.000000 0 0 1
-2.067999 29.763361 15.088241 33.433356 -1.501426 1.102583 -0.005911 -0.005674 -532633.000000 0 0 1
-2.657299 30.943661 15.599441 34.755057 -1.485131 1.105330 -0.012199 0.004250 -291530.000000 0 0 1
-4.023099 30.788361 16.296941 35.067061 -1.440863 1.087459 -0.015120 0.018048 -266364.000000 0 0 1
-4.987899 30.267161 15.416541 34.331471 -1.407469 1.105095 -0.007952 0.009903 -877896.000000 0 0 1
-6.158399 30.033261 16.108541 34.632467 -1.368547 1.087017 0.002345 0.014517 -1207070.000000 0 0 1
-7.207399 29.324961 15.233041 33.822263 -1.329796 1.103600 -0.010839 0.002266 269283.000000 0 0 1
-8.447999 29.079261 15.908741 34.206142 -1.288063 1.087066 -0.013734 0.004058 -439600.000000 0 0 1
-9.270399 28.401361 15.030341 33.443815 -1.255293 1.104680 -0.000695 0.004049 86896.000000 0 0 1
-10.596399 27.956761 15.759041 33.796620 -1.208499 1.085704 -0.007204 0.008518 424075.000000 0 0 1
-11.321499 29.034861 16.359741 35.197168 -1.199003 1.087384 -0.003550 0.001282 82948.300000 0 0 1
-10.844999 29.548561 17.562641 36.044110 -1.219038 1.061854 0.007160 -0.004508 -1121960.000000 0 0 1
-11.720099 30.685561 18.091041 37.500002 -1.205954 1.067372 0.019744 -0.001029 158050.000000 0 0 1
-12.883399 30.151161 18.738541 37.765161 -1.166985 1.051596 0.015009 -0.003881 260317.000000 0 0 1
-13.725499 31.207061 19.103041 39.079357 -1.156440 1.060052 0.020873 0.008576 -348342.000000 0 0 1
-14.706899 30.766261 20.187441 39.628127 -1.124887 1.036283 0.014583 0.003753 -157054.000000 0 0 1
-14.214299 30.947661 21.465141 40.256134 -1.140234 1.008401 0.017865 -0.001987 69967.600000 0 0 1
-15.211899 30.417161 22.319541 40.678833 -1.107061 0.990015 0.022051 -0.007293 256658.000000 0 0 1
-14.767499 30.370561 23.791541 41.309653 -1.118214 0.957053 0.046672 -0.015961 74812.800000 0 0 1
-13.614999 29.528161 24.015141 40.422859 -1.138762 0.934652 0.039844 -0.015219 828468.000000 0 0 1
-13.094299 29.520661 25.308341 41.029773 -1.153308 0.906089 0.042367 -0.004792 -16420.700000 0 0 1
-12.639299 30.862061 25.973841 42.271256 -1.182092 0.909100 0.044956 -0.004849 -646559.000000 0 0 1
-13.739799 31.613861 26.415841 43.428274 -1.160812 0.916925 0.035285 0.000917 121268.000000 0 0 1
-13.323199 32.886161 26.935741 44.548192 -1.185875 0.921479 0.032361 0.004449 127955.000000 0 0 1
-14.496699 33.603161 27.646941 45.865892 -1.163510 0.923818 0.036410 0.006469 180483.000000 0 0 1
-14.889799 33.110961 28.943241 46.430088 -1.148197 0.897748 -0.017009 0.010396 -467158.000000 0 0 1
-14.048299 33.437661 29.970441 47.049540 -1.173054 0.880199 0.002085 0.020076 -661639.000000 0 0 1
-14.478199 32.881861 31.320741 47.663654 -1.156030 0.853805 -0.014476 0.015103 292772.000000 0 0 1
-15.750999 33.385061 31.726941 48.674994 -1.129964 0.860825 -0.020462 0.022209 213221.000000 0 0 1
-16.217299 32.763561 32.915841 49.192523 -1.111173 0.837768 -0.028487 0.026381 145389.000000 0 0 1
-17.604799 33.216661 33.392641 50.282641 -1.083438 0.844509 -0.030112 0.022791 35783.400000 0 0 1
-17.555499 34.567261 33.926841 51.518168 -1.100877 0.851918 -0.018760 0.018306 -208118.000000 0 0 1
-18.867999 -34.304705 34.050741 51.887061 1.067944 0.854962 -0.002123 0.001967 87311.700000 0 0 1
-18.923299 -32.783505 34.319141 51.094549 1.047295 0.834323 0.005438 0.004840 16466.000000 0 0 1
-18.488099 -32.356405 -33.644176 50.206348 1.051680 2.305164 0.008048 0.005897 -146670.000000 0 0 1
-19.480899 -32.636005 -32.649176 50.105718 1.032649 2.280496 0.023480 0.004288 481890.000000 0 0 1
-19.219999 -31.834105 -31.312676 48.613808 1.027620 2.270657 0.032222 0.002769 30110.200000 0 0 1
-19.279999 -30.457605 -31.576476 47.921372 1.006457 2.290182 0.055184 -0.005023 -30213.000000 0 0 1
-18.912399 -29.705905 -30.450276 46.554688 1.003860 2.283756 0.043047 -0.005769 -74036.500000 0 0 1
-19.244299 -28.182405 -30.641976 45.864166 0.971675 2.302452 0.047848 -0.013883 996980.000000 0 0 1
-20.618899 -27.812805 -30.408176 46.079803 0.932857 2.291485 0.048761 -0.009434 663053.000000 0 0 1
-20.857599 -26.417605 -30.420876 45.369141 0.902470 2.305705 0.046581 -0.010971 988977.000000 0 0 1
-22.185799 -25.982705 -29.664976 45.247336 0.864061 2.285797 0.056131 -0.013298 1029870.000000 0 0 1
-22.142999 -26.238705 -28.269076 44.473843 0.869851 2.259626 0.051451 -0.010855 -155863.000000 0 0 1
-21.519399 -25.265705 -27.517276 43.111957 0.865302 2.263051 0.057852 -0.014836 -332072.000000 0 0 1
-21.256899 -25.596205 -26.028876 42.243625 0.877750 2.234656 0.055896 -0.004260 298776.000000 0 0 1
-22.466399 -25.659405 -25.271876 42.447755 0.851648 2.208515 0.044941 -0.007165 501346.000000 0 0 1
-22.330199 -26.138605 -23.948976 41.897708 0.863811 2.179258 0.037738 0.004536 -1545130.000000 0 0 1
-23.602399 -25.920605 -23.192476 42.033819 0.832175 2.155266 0.027063 0.005858 142115.000000 0 0 1
-24.785999 -26.609205 -23.652976 43.380397 0.820858 2.147479 0.023181 0.004246 491914.000000 0 0 1
-24.801699 -28.029505 -23.555076 44.222381 0.846419 2.132526 0.030380 0.008290 -549401.000000 0 0 1
-26.224899 -28.648705 -23.514776 45.403065 0.829540 2.115204 0.001983 0.007596 557469.000000 0 0 1
-26.972599 -28.462805 -22.328676 45.124518 0.812274 2.088428 0.006625 0.019579 -492166.000000 0 0 1
-28.000099 -27.535905 -22.489976 45.255172 0.777040 2.090887 0.016797 0.021631 -532374.000000 0 0 1
-28.607299 -27.196905 -21.122876 44.768572 0.760130 2.062154 0.014016 0.032276 -241593.000000 0 0 1
-29.396399 -28.193205 -20.538376 45.616115 0.764509 2.037835 -0.017929 0.033805 -211447.000000 0 0 1
-29.933299 -27.826705 -19.321076 45.206547 0.748943 2.012406 -0.027841 0.048066 -458698.000000 0 0 1
-30.711999 -29.017005 -18.623676 46.174178 0.757028 1.985955 -0.034985 0.039908 207816.000000 0 0 1
-32.067099 -29.275005 -18.932776 47.368500 0.739913 1.981976 -0.037957 0.031188 210167.000000 0 0 1
-33.002899 -28.274705 -18.584676 47.265637 0.708391 1.974902 -0.051273 0.040728 -609431.000000 0 0 1
-33.314599 -27.942105 -17.048876 46.704260 0.697917 1.944471 -0.037461 0.045402 -399572.000000 0 0 1
-32.525899 -26.834505 -16.616176 45.322423 0.689812 1.946171 -0.040805 0.045410 228249.000000 0 0 1
-32.823499 -26.348305 -15.309276 44.788271 0.676401 1.919643 -0.039176 0.042151 -137821.000000 0 0 1
-32.393199 -27.034505 -14.028976 44.463423 0.695470 1.891798 -0.010486 0.037235 202591.000000 0 0 1
-33.170599 -28.233005 -13.869376 45.713792 0.705159 1.879051 -0.021465 0.034705 516671.000000 0 0 1
-32.769199 -28.957005 -12.725276 45.544058 0.723717 1.853972 -0.031023 0.017422 -13787.500000 0 0 1
-33.481999 -30.343305 -12.593976 46.908087 0.736261 1.842613 -0.023070 0.014857 20839.500000 0 0 1
-33.067699 -31.243105 -13.594376 47.480642 0.757034 1.861174 -0.027498 0.007489 24774.700000 0 0 1
-33.499799 -32.545005 -13.410676 48.592799 0.770942 1.850406 -0.025695 0.000269 -376426.000000 0 0 1
-32.910799 -33.443605 -14.490876 49.107849 0.793428 1.870338 -0.023948 0.018243 -86372.500000 0 0 1
-31.542599 -33.786705 -14.396276 48.412083 0.819735 1.872733 -0.024148 0.016003 12270.500000 0 0 1
-31.094099 -34.651405 -15.423776 49.045445 0.839453 1.890704 -0.003570 -0.004445 73641.300000 0 0 1
-29.591099 34.389961 -15.405276 47.912682 -0.860262 1.898139 -0.013669 0.005702 -106778.000000 0 0 1
-29.105199 33.682961 -16.510676 47.479015 -0.858177 1.925963 0.008593 -0.001261 -311948.000000 0 0 1
-27.876899 33.048661 -16.214676 46.176306 -0.870082 1.929592 0.000187 -0.000954 -320199.000000 0 0 1
8.928681 20.397261 -8.786559 23.936859 1.158185 1.946656 -0.000925 -0.007421 -509343.000000 0 1 0
7.533981 20.342561 -9.014959 23.491491 1.216104 1.964655 0.007534 -0.012220 115791.000000 0 1 0
7.193881 20.432861 -10.369659 24.016319 1.232275 2.017257 0.020326 -0.013623 -110388.000000 0 1 0
7.239781 19.228661 -11.296159 23.446941 1.210703 2.073476 0.016342 -0.008460 246813.000000 0 1 0
8.527081 18.713361 -11.657659 23.638993 1.143239 2.086508 0.024102 -0.012179 405700.000000 0 1 0
8.417681 17.417661 -12.163459 22.851302 1.120611 2.132097 0.023631 -0.028137 -473201.000000 0 1 0
9.741081 17.040761 -12.813759 23.440747 1.051495 2.149148 0.035893 -0.028270 -684893.000000 0 1 0
9.577681 16.038961 -13.800459 23.225695 1.032474 2.207054 0.040435 -0.034152 -595825.000000 0 1 0
10.744381 15.637161 -14.432059 23.837929 0.968777 2.221095 0.047133 -0.037781 -819936.000000 0 1 0
10.517881 14.474761 -15.468159 23.651817 0.942417 2.283649 0.047573 -0.034745 -474282.000000 0 1 0
10.412281 13.129961 -14.938659 22.449388 0.900328 2.298876 0.061729 -0.037354 792935.000000 0 1 0
11.594581 12.530161 -14.388159 22.326181 0.824160 2.271103 0.064150 -0.033668 -139671.000000 0 1 0
12.624881 11.970161 -15.360259 23.207971 0.758784 2.294084 0.061030 -0.027917 -467245.000000 0 1 0
13.200681 12.876061 -16.306459 24.616083 0.772950 2.294856 0.045193 -0.021257 545311.000000 0 1 0
14.091381 12.168161 -17.176359 25.330978 0.712290 2.315940 0.035503 -0.018100 207008.000000 0 0 1
14.595681 13.002161 -18.364959 26.820921 0.727721 2.325023 0.018330 -0.012772 34745.100000 0 0 1
15.490981 13.990461 -17.892859 27.492870 0.734545 2.279458 0.001137 -0.008360 -130093.000000 0 0 1
16.280981 14.447161 -18.995459 28.889760 0.725790 2.288312 0.004914 -0.005594 240278.000000 0 0 1
17.420981 15.403761 -18.514959 29.724908 0.724021 2.243211 -0.005818 0.001759 -164003.000000 0 0 1
17.073181 16.669561 -17.967459 29.869673 0.773437 2.216209 -0.006310 -0.001178 -336729.000000 0 0 1
16.470281 17.532561 -18.861759 30.568395 0.816629 2.235765 0.000023 0.004600 -487639.000000 0 0 1
16.409081 19.007461 -18.464559 31.168597 0.858633 2.204842 0.000378 0.002137 -364115.000000 0 0 1
17.620581 19.693461 -18.494959 32.254934 0.840893 2.181445 -0.002090 0.008433 -503743.000000 0 0 1
17.321681 21.037861 -18.076759 32.701704 0.881974 2.156490 -0.008534 0.012342 492465.000000 0 0 1
18.449581 22.136561 -18.025759 33.990327 0.875993 2.129775 -0.002866 0.017065 515988.000000 0 0 1
19.411481 22.054161 -16.998159 33.943026 0.849044 2.095302 -0.002107 0.015114 -213250.000000 0 0 1
19.201281 23.048561 -15.999059 33.998459 0.876208 2.060746 -0.001827 0.018982 310101.000000 0 0 1
20.478081 23.440861 -15.189159 34.634323 0.852756 2.024790 0.003066 0.019415 60644.900000 0 0 1
20.911381 22.503761 -14.192059 33.839617 0.822060 2.003572 0.008495 0.018688 463993.000000 0 0 1
21.980481 23.009761 -13.372359 34.516817 0.808272 1.968623 0.007528 0.021257 704201.000000 0 0 1
23.425781 23.071061 -13.906559 35.699208 0.777769 1.970937 0.017599 0.012525 -316030.000000 0 0 1
23.660981 23.931261 -15.024259 36.854791 0.791077 1.990687 0.018315 0.016264 -808470.000000 0 0 1
24.982281 24.323761 -15.130159 38.008965 0.772043 1.980206 0.007182 0.009205 -937823.000000 0 0 1
25.318381 24.881761 -16.490159 39.141382 0.776701 2.005672 0.012085 0.012932 -385559.000000 0 0 1
25.716981 23.943661 -17.482959 39.246858 0.749705 2.032486 0.004474 0.003410 54158.600000 0 0 1
25.770881 24.473861 -18.779959 40.196953 0.759590 2.056916 0.011440 0.006726 -618855.000000 0 0 1
26.060781 23.383561 -19.848259 40.248088 0.731305 2.086501 0.006375 -0.000077 -826782.000000 0 0 1
27.409581 23.018261 -19.880359 40.943304 0.698536 2.077798 0.002985 0.000468 -666653.000000 0 0 1
27.637081 22.254961 -21.043259 41.254215 0.677938 2.106083 -0.006392 -0.001795 739643.000000 0 0 1
29.190481 22.250061 -21.249959 42.411203 0.651287 2.095603 0.010483 -0.008192 625912.000000 0 0 1
29.668581 23.425161 -21.823259 43.648797 0.668343 2.094365 -0.002063 -0.009196 -89610.800000 0 0 1
31.069081 23.347161 -22.018359 44.667503 0.644435 2.086261 0.001880 -0.012696 15890.700000 0 0 1
31.698081 24.566661 -22.694759 46.079727 0.659323 2.085769 0.007489 -0.016817 -228483.000000 0 0 1
31.618181 24.783461 -24.145259 46.871343 0.664807 2.111966 0.008611 -0.016491 659765.000000 0 0 1
30.290281 24.988461 -24.637159 46.356379 0.689780 2.131135 0.001056 -0.013127 186591.000000 0 0 1
30.293281 25.385261 -26.120149 47.374640 0.697476 2.154781 0.012312 -0.012935 -468990.000000 0 0 1
30.556981 26.787861 -26.343269 48.428157 0.719765 2.145953 0.015026 -0.011028 891268.000000 0 0 1
29.486881 27.601061 -26.953969 48.557298 0.752377 2.159275 0.022421 -0.005172 1038340.000000 0 0 1
29.198981 27.222461 -28.387769 48.984776 0.750381 2.188939 0.009434 0.003206 -27110.700000 0 0 1
28.625081 25.929261 -28.478929 47.987199 0.736023 2.206159 0.005492 -0.009182 -159485.000000 0 0 1
28.344981 25.569461 -29.792679 48.423538 0.733963 2.233502 0.009423 -0.013431 -301926.000000 0 0 1
27.475881 24.316661 -29.961719 47.370124 0.724476 2.255576 0.011203 -0.013433 527768.000000 0 0 1
26.107081 24.480961 -29.585229 46.434717 0.753265 2.261573 0.004963 -0.013047 214892.000000 0 0 1
25.379681 23.311861 -29.905019 45.627637 0.742956 2.285528 0.016566 -0.017832 277465.000000 0 0 1
23.931881 23.368961 -29.349969 44.500157 0.773498 2.291013 0.010771 -0.007935 -26579.700000 0 0 1
23.964781 23.313561 -27.952189 43.579327 0.771625 2.267130 0.003481 -0.001315 206669.000000 0 0 1
22.769381 23.476561 -27.202239 42.538870 0.800689 2.264602 0.008021 -0.006163 -117229.000000 0 0 1
23.016281 23.450261 -25.718529 41.726570 0.794738 2.234906 0.010242 -0.000155 -196241.000000 0 0 1
23.464681 22.265861 -25.118209 40.954661 0.759189 2.231050 0.004238 -0.002578 292094.000000 0 0 1
23.886281 22.480961 -23.753859 40.499307 0.755099 2.197558 0.002811 0.002696 -25826.800000 0 0 1
24.402981 21.230061 -23.011559 39.695753 0.715979 2.189155 0.022688 0.009075 -244599.000000 0 0 1
25.698381 20.872061 -23.414759 40.549977 0.682132 2.186373 -0.007804 0.010112 -304870.000000 0 0 1
26.019081 19.535461 -23.024859 39.859390 0.644021 2.186646 0.028243 0.006698 385000.000000 0 0 1
27.324181 18.858561 -23.550359 40.704737 0.604104 2.187765 0.037903 -0.003907 -306591.000000 0 0 1
28.412681 19.075861 -22.736459 41.086683 0.591262 2.157210 0.034035 -0.015641 -952000.000000 0 0 1
29.561781 18.485561 -23.292359 41.930286 0.558829 2.159763 0.005287 -0.009032 -459811.000000 0 0 1
30.799681 18.447761 -22.413459 42.323792 0.539654 2.128891 0.010974 0.000047 -307643.000000 0 0 1
31.408381 19.718361 -22.332259 43.290068 0.560614 2.112825 -0.012396 -0.003925 -452825.000000 0 0 1
32.630981 19.727061 -21.646459 43.846403 0.543758 2.087122 -0.015102 -0.008243 -277550.000000 0 0 1
32.736481 20.683161 -20.472859 43.801921 0.563480 2.057140 0.000854 -0.013045 -322857.000000 0 0 1
31.956681 20.196261 -19.386959 42.484969 0.563609 2.044657 0.003089 -0.006863 119297.000000 0 0 1
31.902081 21.181861 -18.396359 42.483409 0.586130 2.018642 -0.010145 -0.003404 -3542.730000 0 0 1
30.936681 20.861561 -17.215359 41.093206 0.593290 2.003068 0.007276 -0.012550 -93627.200000 0 0 1
31.342381 19.719661 -16.475359 40.529586 0.561592 1.989419 0.012166 -0.014249 254093.000000 0 0 1
31.149181 20.012861 -15.162159 40.008463 0.571074 1.959483 0.020199 -0.013435 -117845.000000 0 0 1
31.802081 18.899561 -14.246259 39.642422 0.536208 1.938388 0.013550 -0.007212 715235.000000 0 0 1
33.245281 18.820861 -14.314659 40.796850 0.515136 1.929303 0.002712 -0.012619 908131.000000 0 0 1
33.803981 17.864061 -13.479259 40.540403 0.486156 1.909738 -0.003281 -0.002846 -115122.000000 0 0 1
33.816181 18.094061 -12.002359 40.186886 0.491309 1.874088 0.006743 -0.006139 -167235.000000 0 0 1
34.746181 19.154561 -11.659859 41.353919 0.503818 1.856625 0.003547 -0.009587 430108.000000 0 0 1
34.582581 19.607361 -10.336359 41.076074 0.515780 1.825170 -0.001038 -0.005691 -239147.000000 0 0 1
33.385581 20.543661 -10.043959 40.466284 0.551626 1.821624 -0.009138 -0.005746 283180.000000 0 0 1
32.080381 19.989961 -10.118259 39.129638 0.557247 1.832351 0.024893 -0.014129 -349791.000000 0 0 1
31.108381 20.968961 -10.251659 38.891197 0.593105 1.837547 0.012068 -0.004552 -1189900.000000 0 0 1
29.740881 20.335161 -10.325759 37.478795 0.599733 1.849916 -0.003284 -0.007740 -946432.000000 0 0 1
29.420681 19.981861 -11.656659 37.426314 0.596614 1.887521 0.008377 -0.013922 784630.000000 0 0 1
28.215481 19.174561 -11.654959 36.050177 0.596887 1.900009 0.007464 -0.015266 835174.000000 0 0 1
27.830281 18.638861 -13.090859 35.962512 0.590123 1.943370 0.024741 -0.005773 -17662.100000 0 0 1
28.844081 17.800661 -13.621959 36.529472 0.552923 1.952932 0.037537 -0.000361 -70310.100000 0 0 1
28.359781 16.873761 -14.564959 36.071305 0.536727 1.986444 0.031624 -0.000227 -220917.000000 0 0 1
29.404681 16.228261 -15.519359 36.997868 0.504296 2.003654 0.023923 -0.010197 313626.000000 0 0 1
30.304081 15.418461 -14.772959 37.071641 0.470656 1.980674 0.012034 -0.005705 546728.000000 0 0 1
31.566881 15.202361 -15.378059 38.263095 0.448813 1.984391 0.005906 -0.005293 487709.000000 0 0 1
32.502181 14.153361 -14.711959 38.381651 0.410696 1.964171 -0.005143 -0.008886 -260214.000000 0 0 1
33.085381 14.585061 -13.532859 38.607055 0.415203 1.928931 0.001754 -0.001857 -89102.400000 0 0 1
33.561481 13.493861 -12.797359 38.369645 0.382284 1.910840 -0.002966 0.004597 -94528.400000 0 0 1
34.581881 13.812961 -11.656259 39.020158 0.380013 1.874152 0.008667 0.003532 1947.680000 0 0 1
-34.063139 14.226261 -12.191859 38.875768 -0.395623 1.889790 -0.006891 0.005959 -288189.000000 0 0 1
-33.178339 14.658961 -11.181759 37.956805 -0.416033 1.869825 -0.018385 0.002344 322763.000000 0 0 1
-31.744139 15.105861 -11.720759 37.057436 -0.444152 1.892609 -0.004764 -0.005585 1202670.000000 0 0 1
-30.853639 14.131361 -12.187859 36.058096 -0.429497 1.915594 -0.014899 -0.002878 130206.000000 0 0 1
-30.590839 13.055561 -11.323059 35.134865 -0.403377 1.898927 -0.001836 0.006954 -492343.000000 0 0 1
-29.593739 11.914561 -11.784859 34.009249 -0.382749 1.924654 0.006685 0.001197 536259.000000 0 0 1
-30.105939 11.260861 -12.945559 34.652013 -0.357930 1.953670 -0.012988 0.002760 516420.000000 0 0 1
-29.276839 10.140261 -13.204359 33.679568 -0.333426 1.973664 0.004444 0.001713 -228518.000000 0 0 1
-29.352439 9.504561 -14.601059 34.133462 -0.313154 2.012814 0.003742 -0.001537 -420612.000000 0 0 1
-30.499539 8.752961 -14.862659 35.039047 -0.279476 2.008846 -0.016551 0.004677 -37742.800000 0 0 1
-30.224439 7.972861 -16.014459 35.121875 -0.257913 2.044256 -0.001180 -0.005563 -446711.000000 0 0 1
-31.390139 7.325861 -16.763159 36.331977 -0.229277 2.050356 -0.005630 -0.003932 -972316.000000 0 0 1
-32.133739 6.568061 -15.932859 36.463305 -0.201620 2.023008 0.004531 0.002755 -857496.000000 0 0 1
-33.162439 5.920561 -16.606059 37.557444 -0.176671 2.028792 -0.004511 0.001441 -762931.000000 0 0 1
-33.862439 4.943161 -15.691259 37.647247 -0.144954 2.000715 -0.005322 0.006101 -222274.000000 0 0 1
34.805381 4.452961 -16.228459 38.660138 0.127248 2.003991 -0.003117 0.004830 419229.000000 0 0 1
33.905581 4.125761 -15.148159 37.364114 0.121089 1.988235 0.001888 0.007301 772218.000000 0 0 1
32.871081 2.985661 -15.386359 36.416510 0.090581 2.007010 0.007291 0.004685 308105.000000 0 0 1
33.507281 1.727961 -15.592759 36.998079 0.051524 2.005838 0.019829 -0.005605 967110.000000 0 0 1
32.548881 0.617361 -15.531159 36.069761 0.018965 2.015939 0.025395 -0.005555 578635.000000 0 0 1
32.190481 0.127561 -14.100759 35.143630 0.003963 1.983658 0.024423 -0.010091 -51165.000000 0 0 1
33.248381 -0.239639 -13.188259 35.769295 -0.007207 1.948410 0.022712 -0.008676 534597.000000 0 0 1
32.907581 -0.018239 -11.803459 34.960419 -0.000554 1.915187 0.019899 -0.001458 -150706.000000 0 0 1
33.147381 1.388461 -11.179259 35.009321 0.041863 1.895811 0.016530 -0.001786 -186859.000000 0 0 1
32.131481 2.233761 -11.659059 34.254276 0.069408 1.918105 0.010366 0.008847 255955.000000 0 0 1
32.190981 3.522861 -11.083759 34.227467 0.109003 1.900567 0.012705 0.008879 -257119.000000 0 0 1
31.134881 4.578161 -11.478659 33.497761 0.145997 1.920553 0.008136 0.006093 -140544.000000 0 0 1
31.274981 4.902761 -12.867259 34.172033 0.155498 1.956859 0.002948 0.012429 835968.000000 0 0 1
30.240381 5.793261 -13.314459 33.545750 0.189280 1.978938 0.006614 0.004820 97211.300000 0 0 1
30.581981 6.377561 -14.655959 34.506927 0.205593 2.009455 -0.018663 0.014520 -429662.000000 0 0 1
30.414281 5.458861 -15.739559 34.677967 0.177593 2.041909 -0.015071 0.015165 72271.900000 0 0 1
30.850781 6.123661 -16.882959 35.697398 0.195946 2.063428 -0.012874 0.014429 -792381.000000 0 0 1
29.811581 7.098161 -17.534259 35.306720 0.233748 2.090504 -0.007380 0.013557 446582.000000 0 0 1
28.645581 6.603461 -18.161859 34.554712 0.226565 2.124213 -0.010254 0.005001 -32761.400000 0 0 1
27.773881 5.883261 -17.356959 33.275595 0.208741 2.119536 -0.015500 0.011239 -2010290.000000 0 0 1
26.353881 5.842261 -17.894059 32.386053 0.218157 2.156185 -0.014245 0.007813 -788033.000000 0 0 1
26.173581 5.116261 -19.132259 32.821880 0.193040 2.193104 -0.008190 0.001960 -239695.000000 0 0 1
24.893781 5.302461 -19.661859 32.162169 0.209867 2.228543 -0.006623 -0.004732 -391445.000000 0 0 1
24.498581 4.151061 -20.652659 32.310124 0.167847 2.264255 0.003136 0.016417 -110068.000000 0 0 1
24.158881 2.951761 -19.941359 31.464619 0.121579 2.257215 0.003330 -0.002112 211350.000000 0 0 1
23.842181 1.809061 -20.721859 31.640445 0.075731 2.284869 -0.010086 0.000600 -676693.000000 0 0 1
22.929181 0.853561 -19.905459 30.376030 0.037209 2.285378 -0.016417 -0.003390 -112685.000000 0 0 1
21.650381 1.419261 -19.760859 29.346973 0.065460 2.309530 -0.012235 -0.007144 -262072.000000 0 0 1
20.741781 0.580861 -19.086159 28.192913 0.027997 2.314454 -0.017325 -0.002229 -675632.000000 0 0 1
19.427881 1.273861 -18.792659 27.059736 0.065475 2.338504 -0.015395 -0.008555 -1660550.000000 0 0 1
18.725081 1.514661 -19.985759 27.429061 0.080714 2.387122 -0.010209 -0.009990 -695022.000000 0 0 1
17.591581 2.290461 -19.910659 26.667288 0.129474 2.413782 -0.006433 -0.012994 189050.000000 0 0 1
16.334681 1.727161 -19.139059 25.221191 0.105344 2.432339 -0.003962 -0.015358 -531347.000000 0 0 1
16.523581 1.678861 -17.721259 24.287658 0.101256 2.388592 -0.013738 -0.020669 291547.000000 0 1 0
15.314381 1.753761 -16.969159 22.925058 0.114021 2.404166 -0.023517 -0.019641 -52390.600000 0 1 0
14.782681 3.200661 -16.683659 22.519244 0.213223 2.405150 -0.003242 -0.015828 -124260.000000 0 1 0
14.309181 3.874261 -17.857359 23.208788 0.264414 2.448733 0.007380 -0.008883 626104.000000 0 1 0
13.260781 4.803061 -17.581459 22.539419 0.347502 2.465513 0.028850 -0.020194 -78319.800000 0 1 0
-19.460719 -21.884739 -17.485559 34.108740 0.843960 2.109055 0.018900 -0.012110 81724.400000 0 0 1
-19.161919 -22.774739 -18.540959 35.066152 0.871335 2.127914 0.031284 -0.010334 498252.000000 0 0 1
-20.070219 -22.593639 -19.652259 36.048543 0.844476 2.147377 0.027385 -0.002762 268587.000000 0 0 1
-19.782419 -23.312039 -20.986759 37.084219 0.867120 2.172347 0.029199 0.005427 -153702.000000 0 0 1
-19.828319 -24.745939 -20.931459 37.995390 0.895278 2.154232 0.028729 0.003013 -90680.900000 0 0 1
-19.145919 -25.223269 -22.037559 38.580222 0.921523 2.178780 0.030925 0.002512 -301196.000000 0 0 1
-18.873219 -26.720179 -21.830559 39.328611 0.955836 2.159256 0.032048 0.016461 -348825.000000 0 0 1
-20.057219 -27.449039 -21.655159 40.307414 0.939757 2.137970 0.031584 0.014989 -286739.000000 0 0 1
-19.792619 -28.803529 -21.745559 41.161394 0.968740 2.127393 0.036752 0.002778 722635.000000 0 0 1
-21.093619 -29.632249 -22.090359 42.555785 0.952164 2.116584 0.028264 0.008474 772306.000000 0 0 1
-21.685819 -29.554629 -23.377959 43.477348 0.937774 2.138508 0.017848 0.011458 202435.000000 0 0 1
-20.859119 -30.042919 -24.435759 43.986204 0.963899 2.159799 0.016559 0.007233 -169939.000000 0 0 1
-21.277319 -29.566359 -25.856239 44.670336 0.947006 2.188081 0.023175 0.009266 218170.000000 0 0 1
-22.557819 -30.027759 -26.255489 45.824362 0.926507 2.180908 0.020067 0.006305 306951.000000 0 0 1
-22.979019 -29.364819 -27.478199 46.318239 0.906795 2.205884 0.022620 0.014617 -52862.600000 0 0 1
-22.436019 -29.828829 -28.863169 47.182799 0.925915 2.229043 0.028853 -0.008266 -509112.000000 0 0 1
-23.084519 -30.983419 -29.314449 48.499527 0.930464 2.219843 0.019446 0.000532 77039.400000 0 0 1
-22.882019 -31.160029 -30.718719 49.377868 0.937394 2.242238 0.041028 -0.002786 149081.000000 0 0 1
-23.691419 -32.423059 -31.233529 50.873091 0.939764 2.231851 0.015972 -0.007321 297818.000000 0 0 1
-23.282419 -33.660329 -30.668429 51.143341 0.965671 2.213868 0.011197 -0.017082 -5708.740000 0 0 1
-24.085419 34.628532 -31.130409 52.424660 -0.963072 2.206585 0.013626 -0.011477 -72405.700000 0 0 1
-23.307719 33.283587 -31.085319 51.159984 -0.959885 2.223844 0.014979 -0.012225 53929.900000 0 0 1
-22.328819 33.261067 -32.078879 51.321820 -0.979579 2.245996 0.020397 -0.017195 -679319.000000 0 0 1
-21.581719 32.086807 -32.110949 50.263772 -0.978694 2.263797 0.015269 -0.002724 -6874.090000 0 0 1
-20.396619 32.114697 -33.105139 50.431399 -1.004954 2.286885 0.009204 -0.003845 106266.000000 0 0 1
-20.735119 31.764367 -34.442106 51.236499 -0.992470 2.307997 0.015031 -0.004811 76674.800000 0 0 1
-20.393619 30.432457 34.515844 50.332669 -0.980402 0.815157 -0.002649 0.003661 16881.100000 0 0 1
-20.507719 30.173807 32.973819 49.176192 -0.973857 0.835881 -0.001815 0.007396 303548.000000 0 0 1
-19.530419 30.940147 32.262589 48.781191 -1.007728 0.848148 -0.008598 0.007167 498807.000000 0 0 1
-19.545819 30.752447 30.846329 47.741471 -1.004621 0.868317 0.007358 0.008910 -78738.600000 0 0 1
-18.896919 31.930007 30.051739 47.746475 -1.036411 0.890013 -0.012346 0.010834 125825.000000 0 0 1
-19.818119 32.983177 29.907829 48.735265 -1.029748 0.910084 0.005480 0.007966 637428.000000 0 0 1
-19.124919 34.249930 29.621329 49.155298 -1.061532 0.924032 -0.021136 0.009278 835261.000000 0 0 1
-20.170419 -33.972279 29.637829 49.389902 1.034999 0.927197 -0.013614 -0.000602 386433.000000 0 0 1
-20.482219 -33.591619 30.943649 50.054246 1.023244 0.904343 -0.003020 0.004808 -446036.000000 0 0 1
-21.548019 -32.687679 31.062989 49.977102 0.987974 0.900084 0.022272 -0.004375 -315390.000000 0 0 1
-21.310819 -31.187489 30.938509 48.826241 0.971358 0.884540 0.025787 0.001209 -326494.000000 0 0 1
-20.939519 -30.880819 29.563009 47.603150 0.974937 0.900740 0.017444 0.004423 61454.900000 0 0 1
-20.812819 -29.470189 29.363369 46.517447 0.955899 0.887654 0.025605 0.000582 402928.000000 0 0 1
-22.089119 -28.786679 28.744469 46.290891 0.916291 0.900838 0.029521 0.002730 932472.000000 0 0 1
-23.215619 -28.480099 29.586479 47.174577 0.886884 0.892882 0.024450 0.002818 1314420.000000 0 0 1
-24.255119 -29.473889 29.522839 48.255766 0.882226 0.912463 0.008041 0.009967 384324.000000 0 0 1
-25.274059 -29.621699 28.372119 48.178836 0.864431 0.941109 -0.012995 0.012592 -133921.000000 0 0 1
-24.786919 -30.131509 27.127049 47.520269 0.882411 0.963253 -0.004665 0.017581 310004.000000 0 0 1
-25.876749 -30.272629 26.203109 47.672226 0.863528 0.988849 -0.008693 0.017637 241782.000000 0 0 1
-25.506999 -30.667849 24.749839 46.943354 0.877012 1.015462 -0.008245 0.002766 -273059.000000 0 0 1
-24.975419 -29.539019 24.084659 45.567488 0.868917 1.013906 -0.019109 0.003113 88382.900000 0 0 1
-24.724519 -29.706699 22.706459 44.826031 0.876675 1.039622 0.004422 -0.004564 194423.000000 0 0 1
-23.314519 -30.217429 22.288459 44.197683 0.913640 1.042237 -0.011972 -0.003277 -56572.100000 0 0 1
-23.196519 -31.596069 22.587059 45.238980 0.937511 1.048025 -0.011621 -0.013380 -450835.000000 0 0 1
-22.073919 -32.242019 22.102459 44.892364 0.970459 1.056016 -0.011645 0.008250 -821776.000000 0 0 1
-21.454719 -33.121309 23.201659 45.778194 0.995996 1.039295 -0.003693 0.003003 -244305.000000 0 0 1
-20.678519 -32.431799 24.144159 45.413248 1.003188 1.010243 0.000447 -0.000788 -328778.000000 0 0 1
-19.699619 -33.267389 24.673939 45.864991 1.036161 1.002771 -0.007384 -0.001768 -239056.000000 0 0 1
-18.889519 -32.501979 25.773499 45.579226 1.044330 0.969798 0.003524 -0.004204 -589375.000000 0 0 1
-18.124719 -31.398039 25.284269 44.199961 1.047268 0.961802 0.014874 -0.003780 157386.000000 0 0 1
-17.607519 -30.550579 26.287189 43.981575 1.047956 0.930184 0.016980 0.002465 292367.000000 0 0 1
-16.532319 -31.133729 27.279189 44.573319 1.082650 0.912200 0.000566 -0.000509 -212898.000000 0 0 1
-17.056019 -32.228369 28.099179 46.034111 1.084044 0.914232 -0.015958 0.010760 -10739.800000 0 0 1
-16.143119 -32.624629 29.089639 46.595856 1.111306 0.896565 -0.009432 0.009084 -341443.000000 0 0 1
-16.553919 -32.178799 30.509579 47.332248 1.095667 0.870318 -0.005849 0.011062 51897.200000 0 0 1
-16.314519 -30.774169 30.619419 46.376307 1.083331 0.849660 0.001609 0.004987 156467.000000 0 0 1
-16.829219 -30.323869 31.877929 47.105859 1.064136 0.827485 0.002451 0.012543 54862.000000 0 0 1
-16.523019 -28.834719 32.220099 46.288076 1.050447 0.800876 0.011041 0.001479 -173428.000000 0 0 1
-17.199319 -27.855749 31.460159 45.403754 1.017650 0.805296 0.025778 -0.001238 1518.750000 0 0 1
-17.260419 -27.849339 29.980889 44.411276 1.015961 0.829732 0.019856 0.001860 672201.000000 0 0 1
-15.913219 -27.613719 29.165019 43.201231 1.048001 0.829700 0.013491 0.004341 860885.000000 0 0 1
-15.500719 -26.239909 29.108569 42.143966 1.037220 0.808349 0.018075 0.003251 299333.000000 0 0 1
-14.589219 -26.145509 28.011659 41.001049 1.061831 0.818669 0.022392 0.006106 58441.200000 0 0 1
-14.563519 -24.757939 27.346149 39.659343 1.039071 0.809962 0.025866 0.013333 -90812.600000 0 0 1
-15.601019 -24.626039 26.362919 39.304416 1.006096 0.835595 0.043801 0.001905 507097.000000 0 0 1
-15.575119 -23.447239 25.561619 38.023068 0.984460 0.833531 0.028079 0.005803 -140714.000000 0 0 1
-16.130419 -22.185539 26.253819 37.969087 0.942133 0.807299 0.033802 0.008857 -369211.000000 0 0 1
-16.138819 -21.119639 25.295389 36.692742 0.918293 0.810158 0.021149 0.012160 240869.000000 0 0 1
-16.652519 -19.944639 25.859239 36.657813 0.875112 0.787778 0.020511 0.012647 -153278.000000 0 0 1
-16.408219 -18.773439 24.913529 35.247065 0.852526 0.785796 0.009057 0.002424 538908.000000 0 0 1
-15.008819 -18.467739 24.914799 34.453871 0.888356 0.762466 0.012692 0.003097 602804.000000 0 0 1
-14.861919 -17.184239 24.296579 33.264071 0.857740 0.751867 0.018562 0.006641 6744.250000 0 0 1
-13.426719 -16.684439 24.611499 32.624732 0.893169 0.716085 0.035225 0.002247 427195.000000 0 0 1
-12.557119 -16.943439 23.510059 31.582974 0.933003 0.731175 0.016077 0.004486 152004.000000 0 0 1
-11.248619 -16.443439 23.711959 30.970552 0.970835 0.698777 0.033886 -0.003053 -218099.000000 0 0 1
-10.590219 -15.720839 22.523159 29.437904 0.977980 0.699588 0.037406 -0.003090 45165.000000 0 0 1
-10.004419 -16.501139 21.485359 28.879000 1.025767 0.731791 0.039996 0.001906 -434837.000000 0 0 1
-8.817719 -17.143339 21.838559 29.130206 1.095733 0.723206 0.034919 0.004453 -797331.000000 0 0 1
-8.432319 -18.431339 20.980959 29.172228 1.141724 0.768132 0.031276 0.004052 152740.000000 0 0 1
-8.080319 -18.049539 19.599659 27.842845 1.149878 0.789868 0.033523 0.002152 -59278.600000 0 0 1
-7.764319 -19.239839 18.883859 28.054522 1.187230 0.832386 0.024126 -0.000933 45079.200000 0 0 1
-7.502319 -19.023539 17.344459 26.814363 1.195153 0.867370 0.007202 -0.005786 683660.000000 0 0 1
-6.226919 -18.371939 17.226359 25.943209 1.244012 0.844637 0.002847 -0.000439 392578.000000 0 0 1
-5.940919 -18.185539 15.862359 24.852018 1.255042 0.878544 0.002239 0.006433 218188.000000 0 1 0
-5.123919 -16.962439 15.448359 23.508098 1.277437 0.853764 -0.006073 0.004840 313751.000000 0 1 0
-5.947319 -15.808139 15.608659 22.997785 1.210958 0.824802 0.010056 -0.000901 479240.000000 0 1 0
-5.234419 -14.601139 15.332259 21.809873 1.226575 0.791195 0.009465 -0.010335 -13325.500000 0 1 0
-5.381519 -13.690439 16.596359 22.177195 1.196265 0.725222 -0.001711 0.001602 56268.200000 0 1 0
-4.691719 -14.079239 17.774459 23.155314 1.249133 0.695679 -0.003666 0.003113 191440.000000 0 1 0
-5.355719 -15.131739 18.496759 24.490474 1.230616 0.714740 0.011757 -0.001148 370712.000000 0 1 0
-6.582819 -14.705839 19.388259 25.209121 1.149913 0.693369 0.054292 -0.004401 235485.000000 0 0 1
-6.332219 -13.688939 20.286859 25.279254 1.137531 0.639306 0.047147 -0.010813 -1032170.000000 0 0 1
-7.449119 -13.252239 20.945359 25.880867 1.058709 0.627839 0.051681 -0.004719 -664680.000000 0 0 1
-7.076819 -12.116439 21.947359 26.049492 1.042174 0.568842 0.040102 -0.002704 -383426.000000 0 0 1
-6.825819 -10.779839 21.451359 24.959117 1.006320 0.536584 0.022465 -0.001349 295561.000000 0 1 0
-6.473619 -9.839739 22.491359 25.388766 0.988884 0.482412 0.022649 -0.009407 482769.000000 0 0 1
-5.076119 -10.047239 23.158059 25.748975 1.102977 0.452452 0.026633 -0.000745 133970.000000 0 0 1
-4.988519 -11.212639 24.002059 26.957512 1.152190 0.472647 0.031902 0.002905 -273305.000000 0 0 1
-3.662819 -11.420639 24.418189 27.204691 1.260441 0.456564 0.017833 0.008907 -602014.000000 0 0 1
-3.557019 -12.755739 25.179049 28.449003 1.298848 0.484175 0.007438 0.006158 117069.000000 0 0 1
-2.358119 -12.978739 25.930609 29.093038 1.391066 0.470593 -0.008677 0.014518 579670.000000 0 0 1
-2.380719 -14.181939 26.762199 30.381088 1.404477 0.493071 -0.015339 0.013291 -17789.800000 0 0 1
-2.490619 -15.621939 26.153109 30.565230 1.412696 0.543993 -0.011167 0.000329 102411.000000 0 0 1
-1.293619 -15.996939 25.501069 30.131048 1.490105 0.561723 -0.019677 0.001934 69518.400000 0 0 1
-1.543819 -17.186639 24.832949 30.239697 1.481210 0.607279 -0.008259 0.005491 24417.200000 0 0 1
-0.243919 -18.063239 24.662769 30.571102 1.557294 0.632191 -0.006386 -0.005356 852229.000000 0 0 1
0.302381 -18.686039 25.826079 31.878611 -1.554616 0.626409 0.000517 -0.011435 127478.000000 0 0 1
0.786081 -17.822139 26.791469 32.187410 -1.526718 0.587446 0.001468 -0.005180 -1055890.000000 0 0 1
1.079081 -18.625739 28.060859 33.697097 -1.512926 0.586761 0.001420 -0.001612 270016.000000 0 0 1
2.231481 -19.512639 28.018969 34.216739 -1.456930 0.611361 -0.001298 -0.014709 1005730.000000 0 0 1
3.018581 -19.597339 29.174789 35.275145 -1.417967 0.596933 0.004964 -0.007713 771248.000000 0 0 1
3.930181 -18.333539 29.558929 35.004218 -1.359621 0.565279 0.013672 -0.000737 -165210.000000 0 0 1
3.129181 -17.263739 29.940949 34.702866 -1.391486 0.530053 0.001085 -0.008960 -52469.100000 0 0 1
3.920481 -16.251639 30.589769 34.860004 -1.334083 0.500165 -0.002826 -0.020921 120624.000000 0 0 1
3.210681 -15.012639 31.207029 34.778822 -1.360105 0.457182 -0.003229 -0.014586 -295525.000000 0 0 1
2.570981 -15.409639 32.394449 35.964806 -1.405477 0.449358 0.003393 -0.016810 -197288.000000 0 0 1
1.934581 -14.387239 33.118429 36.160276 -1.437133 0.413105 -0.005880 0.003426 24829.900000 0 0 1
1.169781 -14.960239 34.335701 37.471556 -1.492762 0.412020 -0.017313 0.006712 473956.000000 0 0 1
1.983481 -15.101139 -33.773959 37.049411 -1.440197 2.717937 -0.001801 0.003673 468551.000000 0 0 1
1.169381 -15.728239 -32.782559 36.379130 -1.496584 2.693180 -0.003267 0.000869 518248.000000 0 0 1
1.851481 -15.771739 -31.399649 35.186839 -1.453939 2.673364 0.012318 0.001511 420741.000000 0 0 1
0.961981 -16.236839 -30.380689 34.460798 -1.511619 2.650041 0.015744 0.001254 226114.000000 0 0 1
1.637181 -16.310739 -29.145089 33.438851 -1.470757 2.629240 0.020615 -0.000787 31782.100000 0 0 1
1.130781 -17.450839 -28.191729 33.175051 -1.506089 2.586378 0.020315 -0.004292 162120.000000 0 0 1
1.794281 -18.695639 -28.528279 34.155659 -1.475116 2.559371 0.025129 -0.003409 509909.000000 0 0 1
1.510281 -19.689439 -27.553719 33.899297 -1.494241 2.519758 0.022512 -0.002125 -1259750.000000 0 0 1
2.243581 -20.966739 -27.873039 34.950595 -1.464195 2.493933 0.019312 -0.004016 -553072.000000 0 0 1
3.612981 -21.069439 -27.591909 34.903987 -1.400968 2.482436 0.014407 -0.000528 -191119.000000 0 0 1
3.956581 -20.958739 -26.217939 33.797982 -1.384213 2.458659 0.018871 -0.004522 -621547.000000 0 0 1
5.216181 -21.791439 -25.804449 34.175209 -1.335849 2.426547 0.006795 -0.004742 207602.000000 0 0 1
5.074381 -23.201839 -25.878559 35.125126 -1.355481 2.399053 0.006647 -0.003625 174723.000000 0 0 1
5.179381 -23.774439 -27.175559 36.476855 -1.356293 2.411344 -0.007833 -0.001609 -284413.000000 0 0 1
4.740881 -25.225429 -27.337969 37.498837 -1.385023 2.387708 0.009095 0.005258 36528.400000 0 0 1
5.549881 -26.128779 -26.592729 37.692008 -1.361502 2.353963 0.008564 0.008731 122810.000000 0 0 1
5.129581 -27.448919 -26.863429 38.747897 -1.386050 2.336837 0.009057 0.011478 -338407.000000 0 0 1
5.600181 -28.559039 -25.892659 38.953954 -1.377162 2.297887 0.008139 0.006028 634295.000000 0 0 1
7.001181 -28.835669 -25.919529 39.399674 -1.332609 2.288772 0.010303 0.005178 465840.000000 0 0 1
7.465581 -29.988779 -25.164679 39.853768 -1.326810 2.254186 0.019870 -0.001034 898689.000000 0 0 1
8.977881 -30.221299 -25.508079 40.553561 -1.282029 2.251059 0.030392 -0.004873 751554.000000 0 0 1
9.183281 -30.715309 -26.834739 41.807488 -1.280275 2.267723 0.027196 0.003083 -918161.000000 0 0 1
10.512981 -30.822389 -27.200349 42.431137 -1.242088 2.266658 0.019844 0.009460 -702557.000000 0 0 1
10.846081 -30.840569 -28.712989 43.511078 -1.232624 2.291483 0.031566 0.001659 -109455.000000 0 0 1
10.406681 -31.994249 -29.356259 44.651102 -1.256323 2.288237 0.038280 -0.007165 37426.000000 0 0 1
10.246381 -31.688669 -30.717749 45.307175 -1.258062 2.315819 0.020003 0.017871 -49651.600000 0 0 1
-33.566889 -4.617939 -5.890959 34.391347 0.136716 1.742937 0.043854 -0.004818 -103622.000000 0 0 1
-33.553649 -3.895939 -4.660959 34.099124 0.115593 1.707914 0.043643 -0.002166 120385.000000 0 0 1
-32.625539 -2.833439 -4.722159 33.087051 0.086630 1.714005 0.041499 -0.011383 -375545.000000 0 0 1
-33.093419 -1.491739 -5.378159 33.560755 0.045046 1.731742 0.050669 -0.006201 -620821.000000 0 0 1
-34.106021 -0.890939 -4.632959 34.430782 0.026117 1.705764 0.024410 0.002544 23336.700000 0 0 1
-34.549720 0.314861 -5.283459 34.952785 -0.009113 1.722538 0.019028 -0.007020 -31637.600000 0 0 1
34.467222 1.168461 -4.320459 34.756597 0.033888 1.695425 0.030531 -0.007491 172087.000000 0 0 1
-34.594714 1.845561 -3.371659 34.807591 -0.053298 1.667814 0.012472 -0.000830 156095.000000 0 0 1
34.493124 2.534761 -2.477859 34.674781 0.073354 1.642317 0.010584 -0.006657 -445187.000000 0 0 1
-34.709652 3.839661 -2.058459 34.981998 -0.110174 1.629674 -0.004769 -0.014399 -426086.000000 0 0 1
-34.732360 4.718061 -3.129859 35.190808 -0.135014 1.659854 0.001860 -0.020834 785360.000000 0 0 1
-33.447609 4.982561 -3.718659 34.020536 -0.147879 1.680321 -0.001974 -0.007341 584833.000000 0 0 1
-32.747989 6.264061 -3.099759 33.485485 -0.188998 1.663499 -0.000500 -0.007852 -121037.000000 0 0 1
-32.441609 6.224061 -1.728759 33.078475 -0.189551 1.623082 -0.003542 -0.020277 381336.000000 0 0 1
-32.465099 7.559261 -1.236659 33.356475 -0.228767 1.607879 0.003534 -0.028034 -624707.000000 0 0 1
-31.617179 7.744661 -0.005259 32.551894 -0.240221 1.570958 0.009926 -0.021861 -170187.000000 0 0 1
-30.216529 7.688361 -0.271759 31.180497 -0.249155 1.579512 0.023672 -0.028937 696225.000000 0 0 1
-29.358359 8.015761 0.786241 30.443125 -0.266535 1.544967 0.019501 -0.023983 88503.700000 0 0 1
-29.050359 9.521261 0.908541 30.584362 -0.316717 1.541086 0.019116 -0.016030 -733172.000000 0 0 1
-30.260119 10.145461 1.223241 31.939028 -0.323497 1.532488 0.014134 -0.018733 18816.900000 0 0 1
-30.097649 11.546461 1.286941 32.262136 -0.366318 1.530896 0.019778 -0.009217 488549.000000 0 0 1
-31.472329 12.311461 1.341941 33.821300 -0.372883 1.531109 0.019850 -0.020167 124380.000000 0 0 1
-32.147249 12.117961 0.132741 34.355614 -0.360481 1.566933 0.016615 -0.009414 838504.000000 0 0 1
-33.494619 12.620161 0.191241 35.793778 -0.360332 1.565453 0.012441 0.002388 1034440.000000 0 0 1
-34.583829 11.538861 0.436741 36.460626 -0.322035 1.558818 0.022963 -0.016746 -113382.000000 0 0 1
-34.702346 10.629561 -0.610759 36.298945 -0.297233 1.587623 0.023081 -0.002962 -341446.000000 0 0 1
34.033793 9.880761 -0.329659 35.440615 0.282554 1.580098 0.038494 -0.002613 -220560.000000 0 0 1
33.635011 8.783061 -1.381959 34.790314 0.255425 1.610529 0.023476 -0.019173 -379561.000000 0 0 1
33.000081 9.298461 -2.468859 34.373856 0.274650 1.642682 0.021489 -0.011783 3810.440000 0 0 1
32.890831 8.372761 -3.527459 34.122615 0.249268 1.674357 0.009163 -0.016131 -201594.000000 0 0 1
32.289471 8.884061 -4.855459 33.839503 0.268495 1.714778 0.014458 -0.005024 656026.000000 0 0 1
30.891261 9.200661 -4.818159 32.590441 0.289474 1.719180 0.027937 -0.007381 896973.000000 0 0 1
30.407021 9.717261 -6.070059 32.493964 0.309316 1.758706 0.028682 -0.005062 -1341590.000000 0 0 1
29.021491 10.222461 -5.938359 31.337035 0.338667 1.761449 0.034248 0.003531 -1728960.000000 0 0 1
28.007001 9.286661 -5.751159 30.061770 0.320175 1.763294 0.027395 0.000845 118477.000000 0 0 1
26.761751 9.868261 -6.086059 29.165288 0.353276 1.781016 0.007208 0.012037 -219769.000000 0 0 1
25.640581 8.847661 -6.332359 27.853533 0.332271 1.800147 -0.000646 0.015960 -384032.000000 0 0 1
25.825511 8.095161 -7.524959 28.091167 0.303756 1.841984 0.003886 0.014944 399650.000000 0 0 1
24.899891 7.008761 -7.624159 26.967668 0.274378 1.857420 -0.006710 0.012724 -35732.100000 0 0 1
25.180061 6.127261 -8.861659 27.388096 0.238699 1.900284 0.000065 0.005592 -657388.000000 0 0 1
26.254821 5.262361 -8.663659 28.143686 0.197813 1.883715 0.008308 0.003561 141562.000000 0 0 1
26.374951 4.289161 -9.659459 28.413731 0.161211 1.917668 0.004431 0.006004 -738925.000000 0 0 1
27.343421 3.176561 -9.315459 29.060815 0.115654 1.897107 0.012388 0.009772 -398187.000000 0 0 1
28.720041 3.465061 -9.475759 30.440720 0.120069 1.887342 0.030571 0.001565 686479.000000 0 0 1
29.608971 2.882761 -8.523559 30.945962 0.097055 1.849837 0.031336 -0.000453 -17953.700000 0 0 1
29.711341 1.298861 -8.295759 30.875078 0.043688 1.842827 0.035663 -0.000360 -1404310.000000 0 0 1
28.599971 0.710861 -7.721159 29.632414 0.024850 1.834403 0.035037 -0.003200 -170824.000000 0 0 1
28.911001 -0.585939 -7.270559 29.816947 -0.020264 1.817120 0.031148 -0.008140 -229705.000000 0 0 1
28.770681 -1.691939 -8.309759 29.994447 -0.058740 1.851512 0.021246 -0.002777 -399422.000000 0 0 1
29.582301 -1.728439 -9.455459 31.104754 -0.058362 1.879672 0.026487 -0.009035 188103.000000 0 0 1
29.371781 -2.953539 -10.143659 31.214079 -0.100220 1.901777 0.011523 -0.006679 -179279.000000 0 0 1
30.356221 -3.077939 -11.312259 32.541375 -0.101049 1.925835 0.016184 -0.011125 -713612.000000 0 0 1
31.687191 -3.358439 -10.994759 33.708188 -0.105593 1.903050 0.023495 -0.011911 -516758.000000 0 0 1
32.377881 -3.680239 -12.182059 34.788991 -0.113179 1.928549 0.004635 -0.029254 -753223.000000 0 0 1
33.820893 -3.967539 -11.786459 36.034911 -0.116777 1.904013 -0.000243 -0.020346 -1093310.000000 0 0 1
33.932700 -5.141639 -10.992659 36.037524 -0.150381 1.880770 -0.004774 -0.015442 391766.000000 0 0 1
-34.626722 -5.467639 -10.538059 36.605404 0.156609 1.862811 0.007657 -0.008097 410169.000000 0 0 1
-34.477853 -6.826439 -9.881159 36.509723 0.195467 1.844859 0.013224 -0.009277 49941.400000 0 0 1
34.769710 -6.928439 -8.577859 36.476234 -0.196690 1.808183 0.015672 0.000599 600892.000000 0 0 1
34.649990 -8.291239 -8.222259 36.564628 -0.234869 1.797605 0.009069 0.008725 -800383.000000 0 0 1
34.152377 -8.491339 -6.782259 35.839737 -0.243690 1.761183 0.023344 0.016780 -319133.000000 0 0 1
-34.732664 -8.105239 -5.839059 36.140662 0.229258 1.733072 0.019792 0.018427 500501.000000 0 0 1
-34.825302 -8.845939 -4.578659 36.221767 0.248748 1.697542 0.027696 0.005367 12170.100000 0 0 1
-34.271193 -10.312939 -4.655659 36.090809 0.292302 1.700155 0.025719 0.002156 -297895.000000 0 0 1
34.773088 -11.064939 -5.522759 36.906658 -0.308073 1.721002 0.012538 -0.003032 274536.000000 0 0 1
-34.401351 -12.065139 -6.162759 36.972965 0.337313 1.738261 0.006521 -0.003014 -925378.000000 0 0 1
34.710637 -12.553139 -7.361659 37.637796 -0.347016 1.767658 0.002489 -0.009702 -283308.000000 0 0 1
34.677225 -11.597439 -8.362559 37.509238 -0.322746 1.795632 0.007511 0.000307 234915.000000 0 0 1
34.083196 -12.184239 -9.507059 37.423310 -0.343328 1.827652 -0.003296 0.006109 -78734.500000 0 0 1
34.256314 -11.351939 -10.827959 37.677663 -0.319994 1.862291 -0.019332 -0.005049 -367869.000000 0 0 1
33.512631 -10.144339 -10.859959 36.659825 -0.293934 1.871546 -0.019591 0.002024 478163.000000 0 0 1
33.336421 -9.772339 -12.237359 36.831624 -0.285154 1.909486 -0.015265 -0.001126 -103294.000000 0 0 1
32.720291 -8.326639 -12.343059 35.948595 -0.249190 1.921281 -0.015215 0.000987 -110216.000000 0 0 1
32.716691 -7.915139 -13.688459 36.337380 -0.237369 1.957033 -0.014594 0.000067 119344.000000 0 0 1
31.904671 -6.812739 -13.871059 35.450356 -0.210375 1.972820 -0.018983 -0.005631 -504042.000000 0 0 1
32.010981 -6.061439 -15.238359 35.967368 -0.187139 2.008291 -0.017683 -0.009854 -1109960.000000 0 0 1
33.096841 -5.246739 -15.354259 36.860310 -0.157219 2.000446 0.000148 -0.003056 -806535.000000 0 0 1
32.816661 -4.030939 -16.036159 36.746974 -0.122220 2.022383 0.013168 -0.010849 -206392.000000 0 0 1
33.962750 -3.006439 -16.137159 37.721545 -0.088292 2.012850 0.024332 -0.013701 -280344.000000 0 0 1
34.800184 -3.144039 -17.272959 38.978108 -0.090101 2.029900 0.028226 -0.014507 544151.000000 0 0 1
-33.782549 -2.546039 -17.138359 37.966647 0.075223 2.039136 0.022867 -0.005870 582838.000000 0 0 1
-33.615109 -1.041139 -16.990059 37.679193 0.030962 2.038585 0.010438 -0.001105 -673477.000000 0 0 1
-33.916439 -0.304839 -18.154959 38.471032 0.008988 2.062255 0.017234 -0.006075 201816.000000 0 0 1
-33.744309 1.022761 -17.714259 38.125049 -0.030300 2.054019 0.010999 -0.004020 -71117.700000 0 0 1
-33.965869 2.131161 -18.783059 38.871910 -0.062662 2.075107 0.008874 -0.002448 718338.000000 0 0 1
-32.810539 2.229261 -19.641959 38.305451 -0.067839 2.109207 0.009489 0.002134 870255.000000 0 0 1
-33.058199 3.305261 -20.505859 39.041766 -0.099652 2.123780 0.008910 0.001992 -553019.000000 0 0 1
-32.114229 3.447061 -21.662759 38.890629 -0.106928 2.161587 0.010039 0.007258 -774083.000000 0 0 1
-30.769939 3.658761 -21.313559 37.609087 -0.118351 2.173307 0.015169 0.007175 -126437.000000 0 0 1
-30.076729 4.276961 -22.399559 37.744433 -0.141255 2.206139 0.022514 0.010406 652124.000000 0 0 1
-28.643709 4.747861 -21.974459 36.412650 -0.164262 2.218660 0.013698 0.010336 516822.000000 0 0 1
-27.716859 3.720161 -21.782059 35.447453 -0.133423 2.232534 0.020534 0.019643 -172135.000000 0 0 1
-26.488679 4.181061 -21.266159 34.225442 -0.156552 2.241268 -0.001918 0.035539 114916.000000 0 0 1
-25.712089 3.032861 -20.551359 33.055531 -0.117412 2.241736 0.003945 0.028504 -305180.000000 0 0 1
-26.364759 2.542661 -19.406859 32.835831 -0.096144 2.203128 0.014021 0.016855 287934.000000 0 0 1
-25.618329 1.525561 -18.701759 31.755029 -0.059479 2.200541 0.014426 0.013890 -144377.000000 0 0 1
-24.729419 2.079961 -17.572659 30.408366 -0.083911 2.186936 0.017925 0.002716 -835394.000000 0 0 1
-23.697519 2.807761 -18.127959 29.967963 -0.117934 2.220451 0.024920 0.001622 -724402.000000 0 0 1
-23.025419 3.414061 -17.006359 28.827798 -0.147201 2.201767 0.025026 -0.007816 -347210.000000 0 0 1
-21.980419 4.457361 -17.419159 28.397781 -0.200075 2.231153 0.032029 -0.006162 589810.000000 0 0 1
-20.733919 3.826961 -17.759359 27.566934 -0.182521 2.270808 0.046333 -0.012998 -248099.000000 0 0 1
-19.686819 4.712661 -17.791659 26.950383 -0.234960 2.291833 0.039649 -0.010465 -1235170.000000 0 0 1
-18.403719 4.051661 -18.264859 26.243435 -0.216698 2.340578 0.038852 -0.010474 -935736.000000 0 0 1
-17.859319 3.161961 -17.328859 25.084709 -0.175232 2.333410 0.042722 -0.012165 -64528.400000 0 0 1
-16.614819 2.658461 -17.764159 24.468039 -0.158661 2.383305 0.018082 -0.013577 -538719.000000 0 1 0
-16.415519 1.129261 -17.540659 24.050347 -0.068684 2.388140 -0.006052 -0.010132 -390107.000000 0 1 0
-17.381919 0.287661 -18.070259 25.074850 -0.016548 2.375540 0.008014 -0.010563 1431370.000000 0 0 1
-18.715519 0.386061 -17.447659 25.589851 -0.020625 2.321043 0.015970 -0.013385 1118480.000000 0 0 1
-19.759519 -0.607239 -17.919959 26.682058 0.030722 2.307177 0.019755 -0.010987 -115657.000000 0 0 1
-19.515419 -1.887039 -17.353959 26.183437 0.096395 2.295327 -0.004462 -0.014972 456373.000000 0 0 1
-20.687519 -2.618139 -17.623359 27.302213 0.125887 2.272464 0.026041 -0.005711 -21368.000000 0 0 1
-20.889219 -3.788639 -16.701759 27.012256 0.179418 2.237378 0.031499 -0.011402 -208907.000000 0 0 1
-21.240019 -3.349339 -15.392759 26.444158 0.156402 2.192087 0.028430 -0.018152 583023.000000 0 0 1
-21.780319 -4.523439 -14.743959 26.687602 0.204774 2.156115 0.030092 -0.023382 10473.300000 0 0 1
-22.249719 -4.352239 -13.270559 26.269749 0.193170 2.100370 0.021043 -0.012521 -361706.000000 0 0 1
-23.303719 -3.437239 -13.144959 26.975319 0.146442 2.079787 0.022587 -0.023406 174689.000000 0 0 1
-23.614319 -3.065039 -11.832759 26.590312 0.129074 2.031974 0.014968 -0.019663 -240297.000000 0 0 1
-24.504819 -1.802139 -11.808259 27.261123 0.073410 2.018785 0.025443 -0.019630 -10350.500000 0 0 1
-24.989219 -1.443439 -10.487859 27.139266 0.057698 1.967571 0.026615 -0.017000 668135.000000 0 0 1
-25.417049 -0.077239 -10.471359 27.489665 0.003039 1.961587 0.029382 -0.015174 -298515.000000 0 0 1
-26.045329 0.333061 -9.110059 27.594624 -0.012787 1.907247 0.036624 -0.008143 -697338.000000 0 0 1
-25.084279 0.423161 -8.106459 26.365030 -0.016868 1.883330 0.026838 -0.011677 321705.000000 0 0 1
-25.593569 0.835761 -6.832259 26.503000 -0.032644 1.831532 0.032628 -0.009539 54987.300000 0 0 1
-24.435319 1.160961 -5.853959 25.153558 -0.047476 1.805679 0.013793 -0.002701 274637.000000 0 0 1
-23.799319 2.429961 -6.069559 24.681001 -0.101750 1.819265 0.017568 -0.006066 608095.000000 0 1 0
-22.604219 2.512261 -5.301359 23.353085 -0.110687 1.799802 0.011475 0.001322 -212998.000000 0 1 0
-22.059119 3.924961 -5.304059 23.024836 -0.176086 1.803247 0.023839 0.002555 -316967.000000 0 1 0
-22.638519 4.906161 -4.419859 23.581944 -0.213417 1.759337 0.029674 -0.001263 671806.000000 0 1 0
-22.092819 6.199661 -4.710159 23.424646 -0.273582 1.773254 0.024546 -0.004597 -192923.000000 0 1 0
-22.749319 7.378161 -3.920459 24.235073 -0.313621 1.733278 0.031788 -0.003180 -246813.000000 0 1 0
-22.373319 7.430761 -2.552559 23.712806 -0.320664 1.678650 0.039181 0.002614 648552.000000 0 1 0
-21.005219 7.670761 -2.278559 22.477803 -0.350137 1.672340 0.037835 -0.001690 -173741.000000 0 1 0
-20.485819 9.113161 -2.349359 22.544134 -0.418565 1.675197 0.032599 -0.007620 -637695.000000 0 1 0
-20.368919 9.632661 -3.685959 22.831279 -0.441742 1.732949 0.025729 -0.013563 447729.000000 0 1 0
-20.105919 11.004361 -3.692459 23.215904 -0.500783 1.730523 0.060730 -0.013540 -635408.000000 0 1 0
-19.792219 11.637061 -5.104559 23.520409 -0.531521 1.789564 0.051854 -0.017471 -1083290.000000 0 1 0
-18.596419 11.252161 -5.690759 22.468259 -0.544140 1.826866 0.027681 -0.002977 -286084.000000 0 1 0
-18.584519 11.758561 -7.042359 23.092053 -0.564122 1.880702 0.023338 -0.002489 579623.000000 0 1 0
-17.252519 11.609461 -7.873459 22.235565 -0.592315 1.932740 0.027384 -0.001932 441621.000000 0 1 0
-16.901319 10.302161 -8.315059 21.469264 -0.547410 1.968498 0.016159 0.009403 287395.000000 0 1 0
-17.882719 9.578861 -9.038759 22.209128 -0.491758 1.989946 0.020846 0.000501 -359948.000000 0 1 0
-18.063719 10.090361 -10.483959 23.195403 -0.509421 2.039785 0.039522 0.005858 141138.000000 0 1 0
-17.006119 9.801161 -11.385459 22.691397 -0.522834 2.096420 0.030829 0.002702 175824.000000 0 1 0
-17.292819 10.502561 -12.561259 23.814504 -0.545797 2.126407 0.038501 0.000972 -203513.000000 0 1 0
-16.129319 10.391661 -13.566459 23.498731 -0.572338 2.186248 0.027129 0.009920 122590.000000 0 1 0
-15.961319 9.163461 -14.231159 23.264965 -0.521161 2.229003 0.016801 0.007598 25685.200000 0 1 0
-15.813119 7.980261 -13.445059 22.237556 -0.467369 2.220073 0.011611 0.001418 -436891.000000 0 1 0
-15.631919 6.648561 -14.265159 22.182313 -0.402141 2.269319 0.013083 -0.007114 199818.000000 0 1 0
-14.473719 6.546061 -15.090859 21.910579 -0.424742 2.330557 0.019737 -0.007202 620778.000000 0 1 0
-14.469419 5.339861 -15.842359 22.110145 -0.353539 2.369597 0.009742 -0.013428 -120530.000000 0 1 0
31.303441 -16.364439 28.426209 45.340375 -0.481696 0.893163 -0.020491 0.004512 -900153.000000 0 0 1
30.503471 -15.308839 28.723129 44.607628 -0.465144 0.871203 -0.025723 0.008420 -535942.000000 0 0 1
29.556481 -15.550139 29.746439 44.724077 -0.484321 0.843155 -0.021580 0.002898 145943.000000 0 0 1
30.104121 -15.434739 31.197089 46.018992 -0.473765 0.825870 -0.031716 -0.000731 60067.000000 0 0 1
30.513251 -14.124839 31.537469 46.099691 -0.433537 0.817407 -0.029959 0.002116 69544.400000 0 0 1
30.272581 -13.939039 32.887809 46.822366 -0.431511 0.792039 -0.032042 -0.001964 -284562.000000 0 0 1
30.526661 -12.496439 33.351892 46.908280 -0.388550 0.779874 -0.016649 0.000170 -151620.000000 0 0 1
30.314811 -12.382339 -34.556284 47.607214 -0.387777 2.383084 -0.018957 -0.011791 -6096.840000 0 0 1
30.481381 -11.055639 -34.115384 47.065923 -0.347945 2.381602 -0.008734 -0.007359 -221371.000000 0 0 1
30.288351 -10.787739 -32.640759 45.816794 -0.342159 2.363736 -0.001801 -0.006725 354019.000000 0 0 1
28.914781 -10.792739 -32.263579 44.648475 -0.357245 2.378372 0.011102 -0.005398 327171.000000 0 0 1
28.786701 -10.326539 -30.912369 43.484320 -0.344427 2.361553 0.002105 0.001148 115089.000000 0 0 1
27.392151 -10.760539 -30.379929 42.297272 -0.374313 2.372077 0.004148 0.008104 184801.000000 0 0 1
27.140501 -10.517739 -29.025809 41.106292 -0.369710 2.354794 -0.004848 0.003467 297040.000000 0 0 1
26.136541 -11.422639 -28.565769 40.368287 -0.412022 2.356933 0.009062 0.003366 -644371.000000 0 0 1
25.706401 -11.289139 -27.097539 39.019743 -0.413800 2.338461 0.009545 0.006240 -561039.000000 0 0 1
24.810521 -10.212339 -26.718099 37.864371 -0.390478 2.354103 -0.000895 -0.002210 674242.000000 0 0 1
23.546101 -10.160739 -27.351859 37.493782 -0.407385 2.388393 0.008000 -0.006883 81662.200000 0 0 1
22.588401 -11.370239 -27.218379 37.153174 -0.466337 2.392929 0.009158 0.001502 -1099950.000000 0 0 1
23.007701 -12.375039 -28.125509 38.386718 -0.493479 2.393060 0.005495 -0.003457 -71926.000000 0 0 1
22.379701 -13.569439 -27.822529 38.197825 -0.545059 2.386751 0.007510 -0.007498 254349.000000 0 0 1
23.229501 -14.759039 -28.429369 39.568522 -0.566013 2.372417 0.009073 -0.001001 475729.000000 0 0 1
23.099001 -14.796839 -29.849079 40.539830 -0.569727 2.398368 0.017292 -0.015599 -533542.000000 0 0 1
24.193201 -15.402039 -30.409019 41.800026 -0.566916 2.385450 0.010455 -0.010046 -1016220.000000 0 0 1
24.290001 -15.142839 -31.913739 42.869528 -0.557461 2.410490 0.034734 -0.021065 -694928.000000 0 0 1
23.338401 -15.848439 -32.640919 43.142596 -0.596541 2.428867 0.053172 -0.023748 -365332.000000 0 0 1
23.598601 -16.117939 -33.997019 44.412602 -0.599228 2.442585 0.074648 -0.022995 -266829.000000 0 0 1
23.595701 -14.939439 34.278844 44.215191 -0.564433 0.683649 0.044672 -0.021476 809631.000000 0 0 1
22.337001 -14.230839 34.211655 43.265410 -0.567251 0.658781 0.061766 -0.022906 849731.000000 0 0 1
22.423801 -13.164239 33.296870 42.246960 -0.530855 0.663002 0.050589 -0.018317 321047.000000 0 0 1
21.346801 -11.988339 33.583951 41.560654 -0.511705 0.629927 0.056171 -0.021904 853387.000000 0 0 1
20.010101 -12.210139 33.222111 40.659566 -0.547885 0.614469 0.043819 -0.015226 -79980.300000 0 0 1
19.684201 -12.562339 31.915009 39.545517 -0.568031 0.631666 0.036707 -0.003679 -467342.000000 0 0 1
18.148301 -12.844139 31.827649 38.824374 -0.615897 0.609760 0.031278 0.000749 184272.000000 0 0 1
17.423001 -11.711939 32.059669 38.321702 -0.591831 0.579762 0.026042 0.002036 -409916.000000 0 0 1
16.184601 -11.950639 32.703889 38.396659 -0.636033 0.551503 0.017215 0.001902 62705.200000 0 0 1
15.412101 -10.671339 33.016399 37.966998 -0.605607 0.516389 0.018693 -0.000597 -819943.000000 0 0 1
14.769601 -10.044739 31.922789 36.580081 -0.597242 0.510127 0.007032 0.008081 -69242.900000 0 0 1
14.122701 -8.808739 32.104869 36.163064 -0.557685 0.478296 0.016264 0.008786 464220.000000 0 0 1
12.913001 -8.862239 33.075659 36.596231 -0.601474 0.442230 0.011148 0.006280 -1595720.000000 0 0 1
12.050701 -9.927439 32.863029 36.383404 -0.689089 0.443530 0.007474 0.008354 96035.900000 0 0 1
10.842101 -9.955039 33.600190 36.682785 -0.742771 0.412887 0.000890 0.008990 -315593.000000 0 0 1
9.768601 -8.993939 33.217103 35.772789 -0.744134 0.380288 -0.001930 0.007595 -1849420.000000 0 0 1
9.996101 -7.653439 33.517972 35.804352 -0.653437 0.359302 0.004861 0.008920 174699.000000 0 0 1
9.277801 -6.850239 32.593839 34.574003 -0.636002 0.340084 -0.000770 0.019168 -69800.300000 0 0 1
9.740101 -5.368739 32.527739 34.376543 -0.503764 0.329454 -0.000405 0.018096 -88532.700000 0 0 1
9.609001 -4.693639 33.761743 35.414947 -0.454375 0.306753 -0.003999 0.007896 503266.000000 0 0 1
10.152601 -3.344439 33.720805 35.374472 -0.318222 0.306973 -0.015414 0.008129 -445200.000000 0 0 1
9.981101 -2.622939 -34.221026 35.743262 -0.256980 2.848697 -0.020338 0.001776 -1202990.000000 0 0 1
8.705301 -2.219939 -33.915139 35.084855 -0.249688 2.882647 -0.015793 0.017773 -1106250.000000 0 0 1
8.676101 -1.561739 -32.651999 33.821100 -0.178097 2.877895 -0.017416 0.013588 888799.000000 0 0 1
7.162801 -1.352139 -32.272159 33.085136 -0.186577 2.919450 -0.007074 0.013701 908280.000000 0 0 1
6.490401 -0.543739 -33.247039 33.878998 -0.083581 2.948141 0.001110 0.014918 685548.000000 0 0 1
5.291501 -0.005239 -32.650319 33.076326 -0.000990 2.980924 0.009105 0.017892 1211720.000000 0 0 1
4.447801 0.994161 -33.559829 33.867881 0.219903 3.006615 0.010761 0.018868 277818.000000 0 0 1
5.073301 2.256161 -33.617039 34.072481 0.418448 2.977906 0.012657 0.015354 142083.000000 0 0 1
4.467301 3.168961 -34.552478 34.983894 0.616986 2.984384 0.011554 0.010353 -694707.000000 0 0 1
5.407801 4.254761 34.348887 35.031319 0.666629 0.197708 0.013335 0.011032 -663144.000000 0 0 1
4.892001 5.174261 33.368067 34.119387 0.813431 0.210246 0.024984 -0.006607 -100828.000000 0 0 1
5.855101 6.181561 33.142489 34.218686 0.812514 0.251463 0.023269 -0.001562 -81335.200000 0 0 1
5.374901 7.292561 32.200139 33.450261 0.935642 0.274254 0.027287 -0.006974 17181.700000 0 0 1
4.265301 7.984761 32.767759 33.995224 1.080180 0.269542 0.026105 -0.003196 112412.000000 0 0 1
3.959101 9.280661 32.197159 33.741105 1.167574 0.303684 0.019114 -0.004036 28370.500000 0 0 1
3.710401 9.393761 30.613979 32.237021 1.194620 0.318670 0.022013 -0.009170 -63448.000000 0 0 1
2.571401 8.657261 30.214179 31.535010 1.282073 0.290449 0.037942 -0.016919 -215955.000000 0 0 1
2.378101 8.686461 28.855359 30.228161 1.303573 0.302531 0.039315 -0.009067 -35801.400000 0 0 1
1.116701 7.976661 28.337609 29.460045 1.431704 0.276928 0.040132 -0.010952 448119.000000 0 0 1
-0.108199 8.519461 28.822899 30.055822 -1.558097 0.287418 0.040117 -0.006903 -247073.000000 0 0 1
-1.200399 8.036861 28.079719 29.231878 -1.422531 0.281695 0.053771 -0.010310 453680.000000 0 0 1
-2.563299 8.380361 28.736609 30.043196 -1.273963 0.296004 0.046921 -0.004868 198415.000000 0 0 1
-2.848799 9.738661 28.682319 30.424211 -1.286212 0.340024 0.038735 -0.004427 810372.000000 0 0 1
-4.130699 10.111461 29.269779 31.241387 -1.182970 0.357167 0.033772 0.007356 984623.000000 0 0 1
-4.217699 11.539861 29.895329 32.321635 -1.220390 0.389938 0.028615 0.011565 -156128.000000 0 0 1
-4.409399 12.688861 29.068909 32.022671 -1.236349 0.432883 0.025422 0.007709 624761.000000 0 0 1
-5.720099 12.764661 28.502839 31.750086 -1.149507 0.456219 0.025223 0.002780 435369.000000 0 0 1
-6.025899 14.154561 27.887119 31.848932 -1.168315 0.504107 0.025631 0.003327 207284.000000 0 0 1
-5.117599 14.500661 26.858089 30.948601 -1.231521 0.519981 0.026141 0.010065 144560.000000 0 0 1
-5.361799 15.874361 26.526469 31.375114 -1.245063 0.563367 0.011624 0.012281 584286.000000 0 0 1
-4.138199 16.504461 25.777289 30.886737 -1.325129 0.583436 0.035171 0.008196 433204.000000 0 0 1
-3.973299 16.103561 24.434459 29.532263 -1.328894 0.596366 0.041262 0.006645 544288.000000 0 0 1
-2.914799 16.795761 23.704759 29.197761 -1.398964 0.623450 0.042414 0.009137 891431.000000 0 0 1
-2.852699 16.469261 22.188159 27.779288 -1.399285 0.645614 0.035453 0.011009 -22301.300000 0 0 1
-2.230999 15.202861 21.961559 26.803254 -1.425088 0.610500 0.035851 -0.002246 103264.000000 0 0 1
-2.083999 15.011261 20.531959 25.519450 -1.432849 0.635860 0.029806 -0.004504 355140.000000 0 0 1
-1.178699 13.779161 20.120359 24.414820 -1.485462 0.602177 0.028711 -0.008282 139231.000000 0 1 0
-1.731599 12.491661 20.366359 23.954720 -1.433054 0.554427 0.036030 -0.002615 -261351.000000 0 1 0
-1.179399 11.573161 19.517659 22.721533 -1.469239 0.537495 0.030364 -0.008798 -620157.000000 0 1 0
-1.957499 10.249161 19.314159 21.952536 -1.382078 0.495325 0.024091 -0.005113 -674883.000000 0 1 0
-1.974299 9.426061 20.487959 22.638572 -1.364330 0.439411 0.032521 -0.012049 -56853.600000 0 1 0
-2.850999 9.765361 21.522259 23.805422 -1.286741 0.441549 0.040115 -0.004223 -1552290.000000 0 1 0
-4.329199 9.821661 21.317759 23.867422 -1.155636 0.466442 0.031788 0.004223 -1673230.000000 0 1 0
-4.959599 8.582961 21.073159 23.288256 -1.046829 0.439690 0.022992 -0.001656 -180571.000000 0 1 0
-6.342799 8.822661 20.930859 23.583284 -0.947484 0.478841 0.015773 0.004114 49367.400000 0 1 0
-7.173299 7.500761 21.003059 23.427465 -0.807710 0.458959 0.014533 0.002933 35002.900000 0 1 0
-7.151799 6.802861 22.292359 24.379836 -0.760398 0.416830 0.011773 0.001151 -21128.800000 0 1 0
-7.974499 5.672161 22.337059 24.386682 -0.618261 0.412919 0.012283 0.000771 -93304.600000 0 1 0
-7.846499 4.821161 23.622059 25.353753 -0.550966 0.371735 0.006007 -0.003988 -305913.000000 0 0 1
-8.479499 5.420061 24.710909 26.681604 -0.568743 0.386749 -0.013953 0.008255 -40430.100000 0 0 1
-8.543499 4.495161 25.784049 27.532073 -0.484348 0.358257 -0.014657 0.016039 -302151.000000 0 0 1
-9.520799 4.954061 26.872209 28.936205 -0.479788 0.379983 -0.025512 0.019886 -249635.000000 0 0 1
-9.006499 6.040361 27.671909 29.720995 -0.590767 0.373500 -0.011642 0.023606 98625.800000 0 0 1
-9.978799 6.525561 28.585339 30.972261 -0.579142 0.395164 -0.007813 0.019865 270775.000000 0 0 1
-9.486899 7.814761 29.286479 31.761133 -0.689051 0.397361 0.007584 0.015728 156162.000000 0 0 1
-8.337899 7.639561 30.075319 32.131111 -0.741718 0.359654 0.013955 0.010219 -170892.000000 0 0 1
-7.986599 8.774061 30.831699 33.035792 -0.832346 0.367352 0.027206 0.006730 -343056.000000 0 0 1
-6.981299 8.443361 31.894119 33.723341 -0.879903 0.330876 0.034053 0.005433 -293053.000000 0 0 1
-5.639899 8.212761 31.488609 33.027116 -0.969036 0.306429 0.043463 -0.000850 -347302.000000 0 0 1
-5.011499 7.705761 32.637289 33.907027 -0.994170 0.274531 0.052541 -0.004317 -108020.000000 0 0 1
-3.496799 7.516661 32.385889 33.430130 -1.135369 0.250601 0.032567 -0.000492 182654.000000 0 0 1
-2.874699 8.763861 32.169549 33.465640 -1.253838 0.279219 0.017716 0.004593 451378.000000 0 0 1
-1.437799 8.697761 32.137819 33.325031 -1.406971 0.267727 0.014652 -0.002586 1224820.000000 0 0 1
-0.766599 10.041361 31.695069 33.256488 -1.494600 0.307646 0.015786 -0.000272 61974.900000 0 0 1
-0.910499 11.072261 32.629629 34.469068 -1.488749 0.328166 0.006862 -0.006558 -20711.400000 0 0 1
-0.965399 12.379761 32.061819 34.382419 -1.492972 0.369505 0.013750 0.003887 -103868.000000 0 0 1
-1.312499 13.466361 33.141769 35.797240 -1.473638 0.387599 -0.001636 -0.004265 47971.800000 0 0 1
-0.166699 13.804861 33.923764 36.625452 -1.558722 0.386498 -0.007726 0.006480 -45499.900000 0 0 1
-0.495599 14.688561 -34.330549 37.344156 -1.537069 2.737099 0.000739 0.006831 -14818.900000 0 0 1
0.719401 15.306061 -33.602279 36.931100 1.523830 2.713752 -0.011403 0.003732 139443.000000 0 0 1
1.485001 16.109561 -34.502564 38.107087 1.478875 2.703142 -0.006354 0.005672 -44235.600000 0 0 1
2.750001 16.390161 -33.965789 37.813684 1.404561 2.686546 0.004056 0.003338 -277150.000000 0 0 1
3.518601 17.417661 34.463913 38.775208 1.371466 0.476048 0.015972 0.007550 -148367.000000 0 0 1
3.035901 18.778261 34.609161 39.492199 1.410512 0.502556 0.006321 0.010145 385986.000000 0 0 1
3.663401 19.639761 33.654886 39.138115 1.386386 0.535722 0.008558 0.015464 52543.400000 0 0 1
3.166001 21.109161 33.790906 39.968057 1.421924 0.563393 0.009058 0.010985 124012.000000 0 0 1
3.629601 21.706861 -34.282870 40.739133 1.405119 2.570890 0.013114 0.007592 -66328.200000 0 0 1
3.075701 22.972561 -34.149744 41.272309 1.437702 2.545303 0.007386 0.006027 -98996.100000 0 0 1
3.471501 23.654461 -32.849749 40.628695 1.425078 2.512456 0.013014 0.000582 -249537.000000 0 0 1
3.038401 24.979361 -32.650049 41.221670 1.449754 2.484973 0.007713 -0.000975 46437.000000 0 0 1
3.027801 25.390261 -31.296269 40.413975 1.452106 2.456550 0.007409 0.002802 98647.000000 0 0 1
2.481501 26.843661 -31.111279 41.166147 1.478616 2.427594 0.003903 -0.001876 881894.000000 0 0 1
3.511001 27.829761 -31.351079 42.067955 1.445299 2.411704 -0.011815 -0.003604 722924.000000 0 0 1
2.975301 29.130061 -30.944319 42.602391 1.469011 2.383795 -0.012137 -0.000416 281621.000000 0 0 1
3.942301 30.384961 -30.748789 43.408243 1.441772 2.357972 -0.013901 0.007032 156152.000000 0 0 1
4.781601 30.101961 -29.642549 42.516732 1.413266 2.342277 -0.005357 -0.002511 -369797.000000 0 0 1
5.362301 31.308361 -29.264679 43.190151 1.401168 2.315260 0.006670 -0.006364 -1050640.000000 0 0 1
6.514901 31.257161 -28.265889 42.642872 1.365309 2.295417 0.014077 -0.014442 -193942.000000 0 0 1
7.679801 30.595861 -28.749899 42.680707 1.324869 2.309871 0.015856 -0.015786 289535.000000 0 0 1
8.813301 31.327361 -29.149579 43.689538 1.296555 2.301237 0.028213 -0.022213 -154883.000000 0 0 1
8.614401 32.501761 -30.108219 45.133992 1.311709 2.301086 0.021385 -0.015378 -1396170.000000 0 0 1
8.058501 33.623361 -29.435489 45.408346 1.335564 2.276067 0.015942 -0.012737 31739.500000 0 0 1
7.701101 -34.651005 -30.271219 46.651321 -1.352103 2.276911 0.018521 -0.009309 -310999.000000 0 0 1
6.434601 34.594961 -31.111549 46.969606 1.386900 2.294782 -0.000637 0.009473 -724979.000000 0 0 1
6.584001 33.842261 -32.275719 47.226790 1.378647 2.323233 -0.009625 0.004189 722483.000000 0 0 1
5.360501 33.783161 -33.042879 47.559108 1.413434 2.338903 -0.026678 0.014242 732056.000000 0 0 1
5.409201 32.788361 -34.220111 47.700650 1.407296 2.370849 -0.028786 0.005462 207963.000000 0 0 1
6.258201 33.312361 34.035976 48.034635 1.385097 0.783325 -0.017842 -0.004269 65450.500000 0 0 1
6.163501 32.625861 32.776949 46.655803 1.384082 0.791855 -0.026102 -0.005186 -738511.000000 0 0 1
5.311801 33.353361 31.732069 46.342056 1.412864 0.816555 -0.038180 -0.005040 -87212.900000 0 0 1
5.807701 34.555861 31.192779 46.912966 1.404285 0.843426 -0.032711 -0.005982 104774.000000 0 0 1
4.911601 -34.355705 30.182879 45.993961 -1.428795 0.854977 -0.043530 -0.014163 277768.000000 0 0 1
17.392481 -22.323739 29.917629 41.181455 -0.908928 0.757606 0.040179 0.018098 61168.100000 0 0 1
16.377581 -21.303339 29.997899 40.273209 -0.915384 0.730471 0.022150 0.025956 1414430.000000 0 0 1
15.016681 -21.743739 30.132389 40.078071 -0.966393 0.719945 0.015529 0.028749 918775.000000 0 0 1
14.593081 -22.233439 31.495789 41.222185 -0.989965 0.701230 0.013584 0.016390 -729377.000000 0 0 1
15.084881 -23.545939 31.830629 42.369256 -1.001017 0.720816 0.042561 0.005251 328011.000000 0 0 1
14.787681 -23.751039 33.186039 43.406227 -1.013916 0.700460 0.029591 -0.000740 114105.000000 0 0 1
15.659681 -24.848039 33.883785 44.841516 -1.008454 0.714174 0.037422 -0.012794 -89020.800000 0 0 1
15.353881 -26.187289 33.549029 45.244371 -1.040503 0.735482 0.045125 -0.018559 -80566.800000 0 0 1
16.057581 -27.187219 34.299026 46.619888 -1.037295 0.744072 0.036995 -0.014732 112722.000000 0 0 1
15.838881 -28.651319 33.892043 47.121532 -1.065794 0.768078 0.034394 -0.005503 -104549.000000 0 0 1
16.349481 -29.070429 32.631919 46.660878 -1.058476 0.796320 0.029766 -0.013491 454030.000000 0 0 1
15.784081 -30.391389 32.301549 47.076149 -1.091781 0.814606 0.038307 -0.007817 564380.000000 0 0 1
16.579481 -31.091429 31.120009 47.010755 -1.080904 0.847344 0.047664 -0.018458 742042.000000 0 0 1
17.737081 -31.792139 31.593519 48.202641 -1.061902 0.856043 0.035590 -0.017386 -85317.000000 0 0 1
18.562581 -32.161709 30.559119 48.091628 -1.047337 0.882224 0.024778 -0.020551 -934327.000000 0 0 1
19.776381 -32.924019 31.061839 49.395689 -1.029886 0.890740 0.008482 -0.013270 -187654.000000 0 0 1
20.825881 -32.137359 31.629759 49.668590 -0.995809 0.880435 0.000821 -0.011090 -800482.000000 0 0 1
21.930581 -32.909759 31.826079 50.763195 -0.982989 0.893162 0.001380 -0.005143 -1683200.000000 0 0 1
23.113281 -32.007899 32.134319 50.905244 -0.945384 0.887623 -0.005431 -0.008737 -792098.000000 0 0 1
23.749681 -31.622389 30.946009 50.216315 -0.926630 0.906819 -0.004056 -0.005192 -554147.000000 0 0 1
24.400781 -30.386249 31.015859 49.806684 -0.894216 0.898576 -0.006941 0.004317 63650.700000 0 0 1
25.414981 -30.254319 29.857099 49.524655 -0.872110 0.923699 -0.003391 0.005301 883358.000000 0 0 1
26.666181 -30.921049 30.099749 50.726634 -0.859150 0.935555 -0.007196 0.005511 117965.000000 0 0 1
27.612981 -30.833499 29.104439 50.598911 -0.840444 0.957949 -0.009654 -0.009941 296895.000000 0 0 1
28.848681 -31.739599 29.432339 52.018373 -0.833076 0.969385 -0.009324 -0.004579 380115.000000 0 0 1
28.466081 -33.078119 29.277189 52.551247 -0.860197 0.979886 -0.014929 -0.009375 492048.000000 0 0 1
29.508081 -34.018559 29.602149 53.891339 -0.856281 0.989278 -0.002848 -0.010483 -222621.000000 0 0 1
28.951481 34.078628 30.199939 53.959035 0.866564 0.976793 -0.014277 -0.010624 -410260.000000 0 0 1
28.221981 34.145829 31.432609 54.317831 0.880097 0.953688 -0.014306 -0.001276 -257402.000000 0 0 1
27.023381 -34.561410 31.526229 54.024599 -0.907193 0.947699 -0.026721 0.003555 -497797.000000 0 0 1
25.840181 34.429808 30.564329 52.794932 0.926964 0.953386 -0.017061 0.000735 -97151.500000 0 0 1
25.416881 33.085287 30.839419 51.881826 0.915734 0.934256 -0.020398 -0.002181 405814.000000 0 0 1
23.989581 33.008057 30.891299 51.179138 0.942323 0.922798 -0.017893 -0.006115 648083.000000 0 0 1
23.392181 31.613217 30.861939 49.990488 0.933759 0.905419 -0.001867 -0.007522 -432004.000000 0 0 1
23.370181 31.013557 29.600059 48.827959 0.925029 0.919508 -0.011629 -0.018450 42218.900000 0 0 1
22.722981 29.762367 29.591669 47.726295 0.918723 0.902017 0.016848 -0.031835 -491852.000000 0 0 1
22.115281 29.417797 28.194619 46.361935 0.926166 0.917079 0.017946 -0.023924 30353.900000 0 0 1
21.050081 30.270947 27.792559 46.172096 0.963172 0.924875 0.031868 -0.027263 -271186.000000 0 0 1
20.259381 29.581987 26.881649 44.812493 0.970307 0.927458 0.033921 -0.018856 -366640.000000 0 0 1
18.967081 30.350427 26.587189 44.584495 1.012243 0.931872 0.042231 -0.013793 -14214.800000 0 0 1
19.295181 31.577657 25.897319 45.167727 1.022299 0.960197 0.045822 -0.025832 421450.000000 0 0 1
18.081881 32.240037 25.567979 44.945478 1.059660 0.965669 0.056956 -0.024715 -163572.000000 0 0 1
18.309781 33.607295 24.852999 45.632992 1.071942 0.994851 0.062601 -0.023049 -26375.800000 0 0 1
18.904881 33.519402 23.575859 45.130544 1.057270 1.021142 0.069006 -0.022485 -462192.000000 0 0 1
20.263481 33.839126 23.645859 45.987191 1.031246 1.030741 0.070392 -0.019064 -502487.000000 0 0 1
20.873881 34.051110 22.190859 45.690603 1.020861 1.063659 0.068018 -0.015197 1198.380000 0 0 1
20.676381 -34.030889 21.620859 45.310878 -1.024824 1.073368 0.089679 -0.014057 223975.000000 0 0 1
20.966981 -33.949159 20.226959 44.735775 -1.017536 1.101630 0.091789 -0.012767 170204.000000 0 0 1
20.286681 -32.689069 19.617559 43.185336 -1.015371 1.099250 0.072327 -0.016028 14160.200000 0 0 1
20.968881 -31.521559 20.016959 42.825008 -0.983794 1.084434 0.068773 -0.005165 227480.000000 0 0 1
20.475781 -30.358449 19.382259 41.431449 -0.977413 1.083979 0.073956 -0.020599 -154356.000000 0 0 1
21.268181 -29.888419 18.153459 40.929222 -0.952337 1.111260 0.055189 -0.017897 -206399.000000 0 0 1
20.766481 -30.481599 16.973159 40.601265 -0.972745 1.139504 0.052901 -0.011953 486653.000000 0 0 1
21.416781 -29.840299 15.896459 40.022736 -0.948281 1.162348 0.038920 -0.001349 -88326.900000 0 0 1
21.129881 -30.512499 14.512959 39.851103 -0.965122 1.198045 0.036710 -0.018618 -239841.000000 0 0 1
21.868281 -31.710819 14.350759 41.106472 -0.967074 1.214173 0.048515 -0.016978 110741.000000 0 0 1
22.006781 -32.055459 12.987459 40.994206 -0.969173 1.248430 0.039797 -0.015391 304850.000000 0 0 1
20.709281 -32.297509 12.122859 40.236390 -1.000630 1.264750 0.043293 -0.009685 603945.000000 0 0 1
19.979381 -33.436509 12.550959 40.923128 -1.032194 1.259077 0.049037 -0.017875 -715108.000000 0 0 1
18.730681 -33.531559 11.965759 40.229134 -1.061375 1.268786 0.042510 -0.013635 -398837.000000 0 0 1
17.653081 -34.173002 12.884559 40.563989 -1.093973 1.247562 0.033956 -0.014694 -114415.000000 0 0 1
17.332081 -33.514639 14.055059 40.263839 -1.093523 1.214214 0.038287 -0.016475 160583.000000 0 0 1
18.245581 -33.650079 15.145159 41.165579 -1.073950 1.194038 0.042300 -0.014429 -851723.000000 0 0 1
17.876281 -32.712659 16.339959 40.702257 -1.070672 1.157696 0.042462 -0.013298 678484.000000 0 0 1
16.480481 -32.628999 16.642559 40.165067 -1.103087 1.143563 0.045905 -0.027631 689872.000000 0 0 1
15.705981 -33.786719 16.943659 40.930524 -1.135657 1.143995 0.041800 -0.019076 -592118.000000 0 0 1
15.911681 -34.449463 18.333859 42.143534 -1.138103 1.120721 0.031675 -0.017248 -640205.000000 0 0 1
17.022881 34.093765 18.282559 42.266006 1.107712 1.123467 0.018471 -0.009015 -486873.000000 0 0 1
17.210881 33.403868 19.511959 42.340871 1.095034 1.091866 0.027772 -0.005850 724608.000000 0 0 1
18.112881 32.111577 19.523759 41.718186 1.057222 1.083780 0.029351 -0.001970 573319.000000 0 0 1
17.395781 31.045817 18.967159 40.326283 1.060060 1.081118 0.017311 -0.001974 290812.000000 0 0 1
18.303381 29.943067 18.747659 39.787884 1.022129 1.080157 0.012629 -0.003515 397556.000000 0 0 1
17.667981 28.559557 18.466759 38.325279 1.016786 1.068040 0.009715 0.010840 11899.800000 0 0 1
17.118981 28.021077 19.659759 38.272005 1.022377 1.031322 0.010387 0.003961 -54281.800000 0 0 1
16.747481 26.644227 19.481759 37.012591 1.009641 1.016488 0.008090 0.009376 -288221.000000 0 0 1
16.456781 25.938067 20.793359 37.094107 1.005420 0.975738 0.012515 0.011076 -437984.000000 0 0 1
15.311481 26.226477 21.551259 37.238774 1.042361 0.953624 0.011715 0.016575 -483431.000000 0 0 1
14.391681 25.159057 21.357859 36.003566 1.051199 0.935750 0.010062 0.017301 -830992.000000 0 0 1
13.207881 25.464697 22.251159 36.304449 1.092321 0.911065 -0.005021 0.013107 -419247.000000 0 0 1
12.420481 26.552507 21.740659 36.496030 1.133263 0.932660 0.005956 0.006848 454234.000000 0 0 1
11.187481 26.756967 22.425459 36.660554 1.174772 0.912582 -0.006842 0.010265 538266.000000 0 0 1
10.285181 27.859427 21.761959 36.817326 1.217137 0.938400 -0.011337 0.000768 276235.000000 0 0 1
10.922181 29.134257 21.753959 37.964901 1.212121 0.960632 -0.011005 0.000069 -198708.000000 0 0 1
10.558881 29.909287 20.697159 37.873841 1.231425 0.992645 -0.004111 -0.001430 -449764.000000 0 0 1
11.022181 31.384097 20.691859 39.174010 1.233050 1.014313 0.014761 -0.011408 -14978.100000 0 0 1
10.526481 32.369407 21.666659 40.348847 1.256385 1.003939 0.003528 -0.014908 -67643.700000 0 0 1
10.961481 32.083397 22.976659 40.956383 1.241574 0.975199 -0.006415 -0.007398 -243981.000000 0 0 1
10.366481 33.078157 23.963759 42.141312 1.267098 0.965930 -0.022080 -0.021298 292779.000000 0 0 1
8.983681 32.842217 24.198789 41.771990 1.303787 0.952919 -0.019406 -0.022964 32932.300000 0 0 1
8.606181 33.363677 25.491339 42.860351 1.318349 0.933837 -0.020280 -0.021360 297291.000000 0 0 1
7.151581 33.132747 26.008759 42.724461 1.358211 0.916305 -0.009400 -0.022768 -399669.000000 0 0 1
6.072281 33.722198 25.378869 42.639726 1.392638 0.933290 -0.013515 -0.017396 -300521.000000 0 0 1
5.584581 33.182217 24.178559 41.434886 1.404058 0.947726 -0.015875 -0.018143 -73313.800000 0 0 1
4.705381 31.893697 24.335269 40.392497 1.424320 0.924204 -0.020122 -0.024570 -416775.000000 0 0 1
5.503381 30.901917 24.895019 40.062172 1.394552 0.900256 -0.023009 -0.017472 -274063.000000 0 0 1
4.920381 29.593147 24.721149 38.872866 1.406036 0.881559 -0.028604 -0.010500 -1269220.000000 0 0 1
5.840681 28.459067 25.125539 38.409957 1.368376 0.857750 -0.027862 0.001646 391169.000000 0 0 1
7.054181 28.291987 24.383569 38.009952 1.326444 0.874338 -0.040505 -0.001753 1097390.000000 0 0 1
8.056381 29.291107 24.564419 39.067696 1.302388 0.890832 -0.036351 -0.000762 -422123.000000 0 0 1
9.301481 29.040997 25.455459 39.722506 1.260832 0.875215 -0.036238 -0.004428 -186006.000000 0 0 1
9.172881 28.975987 26.861409 40.562111 1.264209 0.847007 -0.039598 0.002241 -407012.000000 0 0 1
10.398481 28.972037 27.522629 41.291675 1.226202 0.841236 -0.016917 -0.006005 -614008.000000 0 0 1
10.950781 30.426687 27.782899 42.633231 1.225323 0.861009 -0.007593 -0.019340 188324.000000 0 0 1
10.076481 31.219557 28.618409 43.534004 1.258590 0.853459 -0.011088 -0.013175 387933.000000 0 0 1
10.405481 32.560997 28.509579 44.511669 1.261485 0.875651 -0.024829 -0.006350 -101072.000000 0 0 1
9.607381 33.472152 29.508409 45.644637 1.291284 0.867833 -0.010238 -0.010425 7104.010000 0 0 1
9.879481 33.299047 30.898999 46.488480 1.282379 0.843759 0.006893 -0.028863 223038.000000 0 0 1
9.411681 32.041517 31.413159 45.847847 1.285098 0.815972 0.006123 -0.017777 -438800.000000 0 0 1
9.784081 31.884897 32.891239 46.842379 1.273061 0.792358 0.022401 -0.026087 -486776.000000 0 0 1
9.674181 30.544837 33.381966 46.270212 1.264071 0.764892 0.019729 -0.018318 34689.700000 0 0 1
9.955181 30.474537 -34.483915 47.084428 1.255053 2.392614 0.049237 -0.023073 -46295.700000 0 0 1
9.792881 29.031827 -33.894699 45.690241 1.245466 2.406602 0.038298 -0.015342 -1080500.000000 0 0 1
10.972581 28.371047 -34.115412 45.707496 1.201762 2.413411 0.048572 -0.003114 -721015.000000 0 0 1
10.854781 27.012127 -33.821699 44.624977 1.188697 2.430899 0.048212 -0.013938 -219353.000000 0 0 1
12.193481 26.346757 -34.139956 44.814832 1.137343 2.436884 0.046518 -0.013643 -135511.000000 0 0 1
12.245081 24.881947 -34.132083 43.977862 1.113467 2.459285 0.039670 -0.009791 -149273.000000 0 0 1
12.511781 24.304627 -32.884219 42.762500 1.095387 2.448066 0.047789 -0.005910 -122029.000000 0 0 1
12.557981 22.783127 -32.928029 41.964614 1.067035 2.472947 0.034016 -0.015606 435356.000000 0 0 1
13.750181 22.299227 -33.549369 42.566221 1.018245 2.478624 0.019085 0.004831 473846.000000 0 0 1
13.657581 20.892027 -33.557179 41.822130 0.991809 2.502066 0.021177 0.010488 840690.000000 0 0 1
14.998381 20.229827 -34.085475 42.379440 0.932822 2.505281 0.031997 0.005925 1985030.000000 0 0 1
16.074581 20.379527 -33.105289 42.067534 0.902946 2.476656 0.012799 0.006001 1451010.000000 0 0 1
17.386981 20.089427 -33.596999 42.832820 0.857384 2.472484 0.016250 -0.000273 291198.000000 0 0 1
18.462181 20.537627 -32.616389 42.737280 0.838565 2.439022 0.008047 0.006460 -425622.000000 0 0 1
18.771581 21.891527 -32.769369 43.651377 0.861975 2.419927 -0.005120 0.005987 161397.000000 0 0 1
19.881581 22.271327 -31.963279 43.737175 0.842030 2.390295 -0.003759 0.014495 304705.000000 0 0 1
19.509881 22.665527 -30.498069 42.714093 0.860081 2.365998 -0.001352 0.012721 -20693.200000 0 0 1
18.786981 23.838727 -30.398389 42.956927 0.903362 2.356960 -0.009020 0.024221 57485.500000 0 0 1
18.171981 24.183327 -29.148679 42.008329 0.926383 2.337658 -0.001644 0.023267 -213754.000000 0 0 1
19.205181 24.700127 -28.083479 42.043038 0.909905 2.302274 0.002480 0.012807 358661.000000 0 0 1
20.060081 25.696987 -28.619619 43.380002 0.907973 2.291272 0.007484 0.009803 -363986.000000 0 0 1
19.508281 26.978607 -28.814899 44.030860 0.944733 2.284218 0.008236 0.008059 -1205080.000000 0 0 1
20.378281 27.902577 -29.610599 45.504018 0.939999 2.279335 0.010455 0.007302 -1290040.000000 0 0 1
20.505281 27.668247 -31.032149 46.357229 0.933008 2.304215 0.016426 0.009697 -69662.500000 0 0 1
21.125881 26.444097 -31.429769 46.188997 0.896734 2.319187 0.012992 0.007469 -696755.000000 0 0 1
22.553281 26.294857 -30.938349 46.446221 0.861845 2.299779 0.030183 0.001248 -1084320.000000 0 0 1
23.481381 27.240527 -31.487909 47.800732 0.859376 2.289930 0.029321 0.001281 662481.000000 0 0 1
24.797581 26.978507 -30.986239 47.988612 0.827496 2.272736 0.016736 -0.011196 922030.000000 0 0 1
25.982681 27.792387 -31.590909 49.452017 0.819039 2.263759 0.004511 0.003979 272951.000000 0 0 1
25.961581 29.039937 -31.021669 49.796240 0.841308 2.243333 0.008811 0.007507 -213062.000000 0 0 1
27.078581 29.826207 -31.344739 51.042579 0.833645 2.232029 0.006807 0.004783 -43247.700000 0 0 1
27.265881 31.142847 -30.520769 51.427838 0.851677 2.206157 0.003408 0.017932 55083.300000 0 0 1
27.594381 30.901427 -29.154549 50.659015 0.841873 2.184019 0.010263 0.010053 456217.000000 0 0 1
26.637181 31.572857 -28.332689 50.091177 0.869987 2.171984 0.018892 0.009549 -124197.000000 0 0 1
27.042881 31.489227 -26.841989 49.430569 0.861217 2.144831 0.033174 0.011431 -131982.000000 0 0 1
26.951081 30.227287 -26.199259 48.233296 0.842634 2.145014 0.026420 0.015744 571091.000000 0 0 1
25.631481 29.793827 -25.860469 47.046879 0.860356 2.152771 0.026892 0.012450 324274.000000 0 0 1
25.263681 29.889337 -24.341959 46.088578 0.869072 2.127224 0.037796 0.013631 -172800.000000 0 0 1
25.186681 31.182907 -23.778259 46.606311 0.891373 2.106207 0.044247 0.016819 97490.900000 0 0 1
24.476981 31.182487 -22.551659 45.607537 0.905294 2.088024 0.044175 0.019706 277120.000000 0 0 1
3.190481 -26.397199 -19.947759 33.240102 -1.450515 2.214436 -0.005421 0.008209 -176983.000000 0 0 1
3.013681 -27.489699 -19.072459 33.593519 -1.461603 2.174557 -0.002521 0.011504 172825.000000 0 0 1
3.052981 -27.073169 -17.730359 32.506042 -1.458503 2.147720 0.001661 0.007874 -208800.000000 0 0 1
2.795881 -28.151279 -16.673059 32.837514 -1.471805 2.103361 -0.005988 -0.002685 585781.000000 0 0 1
3.929881 -28.984019 -16.357759 33.512588 -1.436030 2.080717 -0.001631 -0.001559 604899.000000 0 0 1
3.622981 -29.884089 -15.304859 33.770156 -1.450151 2.041156 -0.006208 -0.004349 -398173.000000 0 0 1
4.898181 -30.473619 -14.747459 34.207034 -1.411424 2.016534 0.013701 0.000609 -576857.000000 0 0 1
5.878881 -29.599609 -14.272459 33.382648 -1.374734 2.012567 0.000690 0.006159 -1129470.000000 0 0 1
7.180581 -30.054159 -14.299559 34.048357 -1.336271 2.004217 0.012096 0.003573 -521630.000000 0 0 1
7.617481 -30.891429 -13.080159 34.400537 -1.329031 1.960843 0.015253 -0.002131 -865288.000000 0 0 1
8.102581 -30.151769 -11.975059 33.439244 -1.308272 1.937043 0.016729 0.001404 39873.300000 0 0 1
8.106881 -30.882209 -10.729659 33.683199 -1.314079 1.894992 0.022827 0.001958 61688.500000 0 0 1
9.301281 -31.859869 -10.544559 34.824600 -1.286747 1.878416 0.029584 0.002856 -956230.000000 0 0 1
10.468381 -31.245349 -10.222659 34.501617 -1.247512 1.871608 0.025384 0.001379 -1190360.000000 0 0 1
11.563781 -32.143649 -10.270459 35.670962 -1.225459 1.862853 0.035138 -0.000761 919113.000000 0 0 1
12.761081 -31.762729 -9.301859 35.471689 -1.188771 1.836132 0.037073 0.006890 851672.000000 0 0 1
13.638181 -30.797129 -9.873559 35.099150 -1.153913 1.855950 0.032246 -0.012495 1369600.000000 0 0 1
14.809481 -30.461059 -9.062359 35.061705 -1.118268 1.832233 0.022239 -0.005769 2030890.000000 0 0 1
16.039681 -29.943209 -9.938459 35.392656 -1.079021 1.855430 0.040101 -0.022345 831062.000000 0 0 1
16.090081 -28.581149 -10.308559 34.380796 -1.058057 1.875316 0.024420 -0.016750 266211.000000 0 0 1
15.000181 -28.240689 -11.164459 33.870150 -1.082537 1.906703 0.019423 -0.014560 140587.000000 0 0 1
14.745381 -26.734129 -11.175159 32.511907 -1.066759 1.921677 0.014852 -0.007259 -310484.000000 0 0 1
13.819281 -26.311489 -10.136459 31.400872 -1.087178 1.899491 0.010393 -0.003843 757346.000000 0 0 1
13.323081 -24.960339 -10.318659 30.116403 -1.080499 1.920507 -0.007446 0.006750 801136.000000 0 0 1
12.505881 -24.646939 -11.656259 29.995617 -1.101245 1.969907 -0.005231 0.002959 -56713.300000 0 0 1
13.358481 -24.155639 -12.659359 30.367800 -1.065640 2.000793 -0.002053 0.001561 94176.500000 0 0 1
12.712681 -24.188639 -13.960959 30.685679 -1.086907 2.043131 0.002876 0.000494 -96048.400000 0 0 1
13.460681 -23.517039 -15.102159 31.021223 -1.050933 2.079257 0.003456 0.000168 -567187.000000 0 0 1
14.478081 -24.306539 -15.615159 32.314948 -1.033585 2.075123 0.002499 -0.007100 -497260.000000 0 0 1
14.957181 -23.748239 -16.822459 32.721419 -1.008736 2.110768 -0.004131 -0.006623 52375.000000 0 0 1
16.024281 -24.650039 -17.549959 34.240372 -0.994371 2.108950 0.004057 -0.010213 657922.000000 0 0 1
17.273781 -24.854839 -16.962059 34.696656 -0.963443 2.081587 0.024151 -0.011776 -363323.000000 0 0 1
18.283881 -23.872939 -17.020359 34.553005 -0.917207 2.085856 0.014251 -0.008330 332046.000000 0 0 1
19.666081 -24.414039 -16.544959 35.447647 -0.892696 2.056401 0.017329 -0.003280 504332.000000 0 0 1
20.245381 -25.275159 -17.506759 36.812983 -0.895446 2.066396 0.027062 -0.007039 -71163.600000 0 0 1
21.301281 -26.087919 -17.005059 37.729247 -0.886064 2.038360 0.038367 -0.008860 306353.000000 0 0 1
21.893481 -27.115199 -17.956559 39.204547 -0.891545 2.046566 0.035487 -0.012113 -399435.000000 0 0 1
22.655281 -26.474809 -18.931759 39.655879 -0.862985 2.068491 0.045366 -0.012351 -545142.000000 0 0 1
23.003281 -27.344249 -19.950059 40.925099 -0.871406 2.079995 0.036659 -0.014047 -270114.000000 0 0 1
23.933781 -26.761669 -21.014059 41.600522 -0.841122 2.100340 0.045716 -0.014031 -348636.000000 0 0 1
23.442781 -25.618609 -21.697659 40.947106 -0.829718 2.129273 0.050780 -0.012056 -231566.000000 0 0 1
23.623281 -24.423639 -20.983959 39.936200 -0.802054 2.124025 0.056313 -0.004417 -149578.000000 0 0 1
23.077581 -23.078739 -21.550659 39.110534 -0.785423 2.154382 0.079953 -0.005163 260810.000000 0 0 1
23.757181 -22.648839 -22.756759 39.940501 -0.761519 2.177018 0.055655 -0.003786 362296.000000 0 0 1
23.190581 -23.323039 -23.849859 40.627367 -0.788246 2.198193 0.037036 -0.008823 312613.000000 0 0 1
22.360281 -22.392539 -24.809359 40.210847 -0.786119 2.235698 0.031975 -0.004326 357812.000000 0 0 1
23.134481 -21.544339 -25.613259 40.686629 -0.749823 2.251738 0.022056 -0.000535 -27578.000000 0 0 1
22.273581 -20.743439 -26.400239 40.291132 -0.749843 2.285293 0.012330 0.002678 185064.000000 0 0 1
22.917381 -20.139339 -27.700099 41.207946 -0.720967 2.307976 0.008413 0.004833 989764.000000 0 0 1
21.959181 -19.389739 -28.542349 40.900285 -0.723337 2.343191 0.003047 -0.000071 1219960.000000 0 0 1
22.577181 -18.955039 -29.750449 41.882118 -0.698405 2.360774 0.014280 -0.008162 306628.000000 0 0 1
21.676681 -17.893239 -30.453479 41.442259 -0.690074 2.396229 0.038914 -0.011443 76221.000000 0 0 1
20.403881 -18.315539 -30.891149 41.304242 -0.731515 2.415678 0.030106 -0.016285 55548.400000 0 0 1
19.701081 -17.309539 -31.562409 41.035818 -0.720870 2.448295 0.035035 -0.020875 -295343.000000 0 0 1
18.370181 -17.787839 -32.148489 41.077927 -0.769294 2.469663 0.026751 -0.016473 -357633.000000 0 0 1
18.586681 -18.750939 -33.156339 42.384021 -0.789797 2.469120 0.031372 -0.015959 204010.000000 0 0 1
17.382581 -19.368139 -33.540129 42.452552 -0.839373 2.481706 0.025532 -0.016377 -253847.000000 0 0 1
17.551881 -20.217939 34.493782 43.665256 -0.855868 0.660053 0.049550 -0.011300 -300278.000000 0 0 1
18.327281 -21.366639 -34.601716 44.606067 -0.861819 2.458648 0.049269 -0.005066 -23301.800000 0 0 1
18.539481 -22.010039 33.458242 44.131713 -0.870778 0.710333 0.035730 -0.003821 306930.000000 0 0 1
19.437181 -23.283939 33.671910 45.318245 -0.875199 0.733240 0.017918 -0.001962 304174.000000 0 0 1
18.783581 -24.231439 34.484488 46.142881 -0.911378 0.726744 0.024090 -0.005282 77818.300000 0 0 1
19.006081 -24.003439 -33.358099 45.278681 -0.901071 2.399016 0.025528 -0.009077 -146496.000000 0 0 1
18.198181 -24.944239 -32.437729 44.783871 -0.940509 2.380840 0.014618 -0.008111 -247740.000000 0 0 1
18.592981 -26.337559 -32.469769 45.756440 -0.956089 2.359758 0.012773 -0.010977 50937.100000 0 0 1
19.822181 -26.573769 -31.813089 45.947325 -0.929905 2.335581 -0.007391 -0.011337 47137.900000 0 0 1
20.004781 -28.091739 -31.720869 46.856703 -0.951980 2.314443 -0.002807 -0.012696 -807740.000000 0 0 1
18.987781 -28.699499 -30.993839 46.312149 -0.986305 2.303979 -0.008691 -0.009448 -608806.000000 0 0 1
19.033881 -30.071399 -31.082049 47.251153 -1.006496 2.288697 -0.007526 -0.000194 -390115.000000 0 0 1
17.810581 -30.898499 -30.652419 47.026639 -1.047894 2.280765 0.002083 0.000136 963961.000000 0 0 1
16.634981 -31.023129 -31.492229 47.232590 -1.078600 2.300633 0.006788 -0.006079 744535.000000 0 0 1
16.845881 -31.641349 -32.753709 48.556813 -1.081565 2.311143 0.013670 -0.002272 -391084.000000 0 0 1
15.554981 -32.143909 -33.438579 48.921640 -1.120098 2.323361 0.029005 -0.010138 242466.000000 0 0 1
14.636881 -31.188689 -33.932439 48.356830 -1.132008 2.348590 0.023609 -0.005146 417145.000000 0 0 1
13.393681 -31.863919 -34.212083 48.632979 -1.172879 2.351071 0.010731 0.000026 1214410.000000 0 0 1
12.389281 -30.894799 34.295345 47.792819 -1.189415 0.770470 0.008172 0.010748 587219.000000 0 0 1
11.771081 -29.925169 -34.130043 46.892792 -1.196035 2.385950 0.007729 0.004323 -577389.000000 0 0 1
10.841081 -29.187589 34.461051 46.443605 -1.215161 0.734751 -0.003884 0.012945 -625836.000000 0 0 1
10.200781 -28.132379 -33.927589 45.239009 -1.222942 2.418803 -0.002562 0.012902 -128778.000000 0 0 1
9.575781 -28.722099 -32.834859 44.662988 -1.248991 2.396713 -0.012603 0.013524 -763624.000000 0 0 1
8.784581 -27.844489 -32.103719 43.395082 -1.265192 2.403571 0.000293 0.007580 -120172.000000 0 0 1
7.894981 -28.689489 -31.114709 43.052789 -1.302256 2.378513 -0.012664 0.012511 -120238.000000 0 0 1
6.787181 -29.270749 -31.739059 43.705954 -1.342947 2.383568 -0.017946 0.017936 -515733.000000 0 0 1
7.014681 -30.494079 -32.408339 45.048807 -1.344695 2.373742 -0.014591 0.018591 -605648.000000 0 0 1
5.862381 -31.031739 -33.285389 45.883041 -1.384081 2.382470 -0.005375 0.013202 409843.000000 0 0 1
4.747581 -31.458079 -32.502959 45.481783 -1.421009 2.366901 -0.001944 0.012315 -696595.000000 0 0 1
3.716881 -31.852559 -33.302599 46.232713 -1.454631 2.375068 0.012681 0.021153 -803316.000000 0 0 1
2.575681 -32.545639 -32.520869 46.081012 -1.491820 2.354253 0.005371 0.022180 -26134.500000 0 0 1
1.736681 -31.638809 -31.874149 44.944317 -1.515961 2.359148 -0.002361 0.022155 -89977.500000 0 0 1
0.688081 -32.172379 -31.076789 44.735916 -1.549412 2.338760 -0.012895 0.024316 213692.000000 0 0 1
-0.082019 -30.952439 -30.554349 43.492855 1.568146 2.349721 -0.008188 0.017993 -138317.000000 0 0 1
-1.087819 -31.289259 -29.612889 43.094364 1.536044 2.328374 -0.020822 0.020162 231155.000000 0 0 1
-1.891719 -30.174609 -29.253309 42.069486 1.508186 2.339713 -0.009057 0.015366 382991.000000 0 0 1
-2.667719 -30.264019 -27.907829 41.253781 1.482875 2.313784 -0.001369 0.012677 -403845.000000 0 0 1
-1.746419 -30.391439 -26.887659 40.615708 1.513395 2.294282 -0.009948 0.018738 -286470.000000 0 0 1
-2.348919 -30.444929 -25.601179 39.847603 1.493796 2.268523 -0.004962 0.009837 452228.000000 0 0 1
-1.270619 -30.571589 -24.483059 39.187456 1.529258 2.245630 -0.017605 0.011792 254382.000000 0 0 1
-1.839819 -30.486179 -23.210959 38.360665 1.510520 2.220652 0.002400 0.002450 -394657.000000 0 0 1
-0.942419 -30.920709 -22.209759 38.082171 1.540327 2.193466 -0.002530 0.002787 104258.000000 0 0 1
-1.529919 -30.878169 -20.755459 37.236958 1.521290 2.162034 -0.018920 0.009580 -218399.000000 0 0 1
-1.615819 -29.553359 -20.224759 35.847633 1.516176 2.170244 -0.014759 0.009460 -177133.000000 0 0 1
-0.418419 -28.996379 -19.717759 35.067864 1.556367 2.167930 -0.008235 0.011313 -896632.000000 0 0 1
-0.578819 -27.602989 -19.052359 33.544782 1.549830 2.174831 0.001269 0.007059 -129432.000000 0 0 1
-1.191419 -27.685969 -17.771359 32.920412 1.527790 2.141029 -0.002084 0.013444 59143.500000 0 0 1
-1.338119 -26.358999 -17.335659 31.577087 1.520075 2.151958 0.004303 0.010645 261950.000000 0 0 1
-2.151019 -26.289969 -16.000559 30.851373 1.489159 2.116048 -0.005921 0.014522 73111.900000 0 0 1
-2.189019 -24.964239 -15.480959 29.456156 1.483334 2.124169 0.000193 0.012822 66099.600000 0 0 1
-3.002119 -24.871839 -14.315759 28.854151 1.450674 2.089946 -0.009164 0.014924 67974.200000 0 0 1
-2.779319 -23.610739 -13.427659 27.303729 1.453621 2.084939 -0.005346 0.014662 -246915.000000 0 0 1
-1.502719 -23.640639 -12.844759 26.946721 1.507317 2.067662 0.006506 0.003600 -487563.000000 0 0 1
-1.398219 -22.487439 -12.001559 25.527972 1.508698 2.060239 0.007998 0.004788 -152007.000000 0 0 1
-0.228019 -22.477539 -11.030659 25.039313 1.560652 2.026989 0.001392 0.000355 -201984.000000 0 0 1
-0.061619 -21.295139 -10.278159 23.645872 1.567903 2.020468 -0.000811 -0.000653 724258.000000 0 1 0
1.146281 -21.430739 -9.468259 23.457162 -1.517360 1.986289 -0.001136 -0.006662 1315640.000000 0 1 0
1.819681 -20.036639 -9.279959 22.156168 -1.480227 2.002967 0.006312 0.000823 -615770.000000 0 1 0
2.443581 -19.531839 -10.452459 22.287165 -1.446335 2.058943 0.008979 0.020472 -10383.000000 0 1 0
3.254881 -18.415739 -10.191059 21.297685 -1.395858 2.069748 0.008854 0.012523 1059340.000000 0 1 0
4.686081 -18.615239 -9.546459 21.438781 -1.324187 2.032294 0.015520 -0.006023 570703.000000 0 1 0
4.618281 -19.069739 -8.231559 21.277735 -1.333192 1.968023 0.019510 -0.014866 -496659.000000 0 1 0
5.677681 -19.905139 -7.912859 22.159963 -1.292938 1.935935 0.023682 -0.012547 -750035.000000 0 1 0
5.188581 -21.067539 -7.056559 22.815731 -1.329319 1.885237 0.029075 -0.008101 45798.200000 0 1 0
4.337681 -21.944439 -7.782359 23.684150 -1.375645 1.905606 0.013570 -0.010071 212774.000000 0 1 0
3.969981 -23.088039 -7.006259 24.452116 -1.400512 1.861399 0.014361 -0.004462 -160643.000000 0 1 0
2.917681 -24.016739 -7.596359 25.357864 -1.449903 1.875034 0.012140 -0.006784 -278432.000000 0 0 1
3.441581 -24.708039 -8.701359 26.420547 -1.432397 1.906401 0.014217 -0.002951 -13656.900000 0 0 1
2.567181 -25.698619 -9.174959 27.407833 -1.471231 1.912143 -0.001019 0.000789 -142791.000000 0 0 1
3.125781 -26.434859 -10.380259 28.571350 -1.453098 1.942615 -0.001278 0.004236 -400650.000000 0 0 1
4.205781 -27.278219 -10.077659 29.382802 -1.417820 1.920882 0.008066 0.008174 -158678.000000 0 0 1
4.477081 -27.976549 -11.272359 30.492583 -1.412112 1.949456 0.012035 0.010021 106287.000000 0 0 1
4.618081 -29.535639 -11.103159 31.889822 -1.415696 1.926417 0.009000 0.005566 -407921.000000 0 0 1
3.367281 -30.154049 -11.195459 32.341050 -1.459588 1.924281 -0.000510 0.007885 -277768.000000 0 0 1
3.453881 -31.577249 -11.077859 33.641803 -1.461851 1.906346 0.008868 0.005975 -706500.000000 0 0 1
2.268381 -32.335349 -11.615359 34.433079 -1.500759 1.914877 0.004449 0.000142 -658188.000000 0 0 1
2.068681 -32.208879 -13.027359 34.805221 -1.506657 1.954431 -0.000856 -0.005023 -42105.500000 0 0 1
1.183081 -33.197579 -13.472759 35.846815 -1.535174 1.956102 -0.004940 -0.006214 -496089.000000 0 0 1
0.917681 -32.958459 -14.981159 36.215152 -1.542960 1.997279 -0.017329 -0.003995 -210094.000000 0 0 1
0.079381 -31.901909 -15.359359 35.406892 -1.568308 2.019498 -0.012150 -0.005189 -144766.000000 0 0 1
-0.380019 -32.124179 -16.680459 36.198688 1.558967 2.049696 -0.019461 -0.002026 -735016.000000 0 0 1
-1.645119 -31.356779 -17.021759 35.716863 1.518380 2.067551 -0.016234 0.009253 -463304.000000 0 0 1
-2.764219 -31.829849 -16.304759 35.869560 1.484170 2.042671 -0.015018 0.006626 -495241.000000 0 0 1
-3.951719 -31.394119 -16.933059 35.887815 1.445580 2.062165 -0.008063 0.018464 472135.000000 0 0 1
-5.219119 -31.756299 -16.105259 35.987235 1.407903 2.034794 -0.013576 0.008958 80006.100000 0 0 1
-5.533519 -30.841169 -15.041959 34.757130 1.393265 2.018363 -0.019583 0.008602 -106237.000000 0 0 1
-6.868519 -30.821759 -14.586659 34.784019 1.351533 2.003525 -0.016759 0.014069 156077.000000 0 0 1
-7.428419 -31.930019 -13.732259 35.542685 1.342216 1.967478 -0.014139 -0.001196 -151137.000000 0 0 1
-7.606219 -33.180959 -14.425059 36.971785 1.345455 1.971606 -0.007888 -0.000161 -153417.000000 0 0 1
-8.390819 -34.054985 -13.642559 37.633326 1.329218 1.941759 -0.003498 -0.003356 -7749.390000 0 0 1
-8.899519 34.077656 -14.429559 38.061795 -1.315348 1.959629 0.009216 -0.000361 -264453.000000 0 0 1
-7.865619 33.112237 -14.561459 37.017891 -1.337575 1.975083 -0.007525 -0.001357 92723.900000 0 0 1
-8.318919 31.885227 -15.095859 36.245787 -1.315584 2.000373 0.007426 -0.016817 -182954.000000 0 0 1
-7.053219 -21.980439 -2.953759 23.272565 1.260290 1.698060 0.010491 0.003923 279314.000000 0 1 0
-7.087719 -21.024739 -3.993259 22.543769 1.245648 1.748870 0.005398 0.010843 568681.000000 0 1 0
-5.916819 -21.148939 -4.816059 22.482900 1.298002 1.786679 0.001086 0.011882 772788.000000 0 1 0
-5.973319 -20.086339 -5.931259 21.778921 1.281743 1.846620 0.003613 0.007640 214603.000000 0 1 0
-6.911419 -20.428239 -6.928659 22.651423 1.244558 1.881661 -0.004011 0.011000 -135438.000000 0 1 0
-7.064519 -19.337439 -7.895759 22.049648 1.220532 1.937018 -0.006191 0.008183 -535162.000000 0 1 0
-7.954919 -19.612539 -9.043659 23.015651 1.185469 1.974618 -0.005717 0.001614 -368762.000000 0 1 0
-7.308019 -20.281939 -10.141459 23.824638 1.224956 2.010500 -0.001530 0.003943 -357240.000000 0 1 0
-8.176319 -20.570039 -11.197959 24.806712 1.192458 2.039139 0.002972 0.008605 -212795.000000 0 1 0
-7.569919 -21.369139 -12.397159 25.838601 1.230344 2.071214 -0.003875 0.008919 -155895.000000 0 0 1
-6.603819 -20.704639 -13.191259 25.422466 1.262043 2.116339 0.005431 0.005728 -365202.000000 0 0 1
-6.164419 -21.478339 -14.287059 26.522427 1.291303 2.139664 0.001650 0.006933 -396620.000000 0 0 1
-5.087019 -20.754139 -15.050959 26.137012 1.330427 2.184438 0.000645 0.006791 -707295.000000 0 0 1
-3.836619 -20.619139 -14.410359 25.446551 1.386829 2.172805 -0.001685 0.011050 -162552.000000 0 0 1
-2.879119 -20.045339 -15.293459 25.377053 1.428142 2.217613 0.005407 0.015133 11014.100000 0 0 1
-2.841419 -18.511339 -15.539559 24.335596 1.418489 2.263412 0.010450 0.014451 -784227.000000 0 1 0
-3.945019 -17.938039 -16.224859 24.506784 1.354318 2.294355 0.010834 0.012969 -147350.000000 0 1 0
-3.961219 -18.104639 -17.644459 25.588984 1.355395 2.331641 0.022290 0.008213 -294170.000000 0 0 1
-5.383219 -17.993339 -18.255059 26.191343 1.280093 2.341985 0.023964 0.010880 32017.200000 0 0 1
-6.146819 -19.137039 -18.037559 27.006724 1.260005 2.302168 0.013474 0.014315 -1150570.000000 0 0 1
-7.365919 -19.031039 -18.700659 27.679448 1.201505 2.312595 0.012899 0.015449 -324785.000000 0 0 1
-8.346119 -20.066939 -18.055659 28.255027 1.176647 2.264026 0.024217 0.012962 8944.570000 0 0 1
-7.979119 -21.387039 -18.351959 29.289352 1.213708 2.247946 0.015393 0.019083 -37312.100000 0 0 1
-8.766419 -22.315539 -17.659559 29.777397 1.196478 2.205641 0.025902 0.007510 -43141.500000 0 0 1
-8.309919 -23.734639 -17.971359 30.908859 1.234017 2.191282 0.016683 0.007981 -691253.000000 0 0 1
-8.373819 -23.905739 -19.415059 31.914725 1.233868 2.224766 0.003323 0.005842 319144.000000 0 0 1
-7.517419 -24.941839 -19.900459 32.781629 1.278058 2.223154 0.004285 0.002915 752645.000000 0 0 1
-5.977219 -24.685939 -19.779759 32.192570 1.333238 2.232447 -0.001008 0.015780 -26055.500000 0 0 1
-5.437719 -23.638339 -20.590259 31.816640 1.344692 2.274641 0.005651 0.013222 -13967.100000 0 0 1
-5.408119 -22.342939 -19.990459 30.464292 1.333313 2.286559 0.023309 0.013291 -297492.000000 0 0 1
-4.328019 -22.131539 -18.888759 29.416355 1.377675 2.268054 0.025931 0.014269 586571.000000 0 0 1
-3.026719 -22.382639 -19.405759 29.777962 1.436385 2.280596 0.022874 0.010715 767951.000000 0 0 1
-1.958319 -22.163839 -18.447559 28.902996 1.482669 2.263029 0.013255 0.011764 816577.000000 0 0 1
-0.621019 -22.827839 -18.783959 29.569122 1.543599 2.259136 0.017379 0.011653 502322.000000 0 0 1
0.167081 -22.084339 -19.754059 29.630538 -1.563231 2.300541 0.018974 0.006996 408584.000000 0 0 1
1.506781 -22.562439 -19.836959 30.080541 -1.504113 2.290899 0.012729 0.007811 1419430.000000 0 0 1
2.458081 -21.759839 -20.840759 30.230282 -1.458309 2.331457 0.024836 0.009793 825131.000000 0 0 1
2.064581 -22.042939 -22.173059 31.333659 -1.477407 2.356954 0.018292 0.004423 8847.870000 0 0 1
1.279381 -21.008039 -22.774559 31.010563 -1.509972 2.395598 0.008373 0.003533 -248166.000000 0 0 1
0.762381 -21.500239 -24.161459 32.351470 -1.535352 2.414098 0.015658 0.001181 73106.400000 0 0 1
0.113681 -20.549039 -24.962359 32.332573 -1.565264 2.452856 0.020081 0.007435 440454.000000 0 0 1
-1.219619 -20.260239 -24.490559 31.808053 1.510671 2.449557 0.031589 0.002168 461402.000000 0 0 1
-1.834119 -19.064939 -25.313389 31.742771 1.474888 2.493860 0.033124 -0.000524 117520.000000 0 0 1
-1.263019 -17.818539 -24.986059 30.714796 1.500032 2.520918 0.042280 -0.003038 321939.000000 0 0 1
-1.933319 -16.789139 -25.748079 30.798969 1.456148 2.560757 0.029234 -0.001834 297099.000000 0 0 1
-1.355219 -15.376539 -25.453879 29.768683 1.482888 2.596454 0.038672 -0.003329 678663.000000 0 0 1
0.000181 -15.215039 -25.879149 30.020455 -1.570784 2.610098 0.043742 -0.011449 282962.000000 0 0 1
0.616881 -13.993539 -25.453859 29.053375 -1.526742 2.638523 0.038340 -0.015468 313400.000000 0 0 1
0.197681 -12.661339 -26.111849 29.020290 -1.555185 2.690059 0.022597 -0.003091 -90486.400000 0 0 1
1.020181 -11.567339 -25.741509 28.239500 -1.482829 2.717816 0.014250 -0.004102 132924.000000 0 0 1
0.588481 -10.342539 -26.330809 28.295334 -1.513959 2.766765 0.011811 0.000134 -525741.000000 0 0 1
1.551581 -9.139439 -26.051699 27.651903 -1.402632 2.799726 0.019405 -0.005358 151573.000000 0 0 1
2.857781 -9.177439 -26.549849 28.236267 -1.268921 2.794233 0.022991 0.000121 -500990.000000 0 0 1
2.992581 -9.450339 -27.956519 29.661952 -1.264123 2.800843 0.015439 0.010532 -859641.000000 0 0 1
4.433781 -9.124139 -28.407319 30.164285 -1.118460 2.798603 0.006890 0.019394 -684312.000000 0 0 1
4.752581 -7.764339 -28.544409 29.960895 -1.021524 2.832869 -0.003345 0.014168 -293318.000000 0 0 1
6.009881 -7.531939 -29.110069 30.663413 -0.897325 2.821932 -0.007039 0.019712 -306704.000000 0 0 1
7.247681 -7.629039 -28.155939 30.058077 -0.811027 2.783931 -0.000258 0.007666 -296162.000000 0 0 1
7.512481 -8.942539 -27.778309 30.133715 -0.872087 2.743585 -0.005471 0.004809 -35945.800000 0 0 1
8.077481 -9.800539 -28.778929 31.456685 -0.881480 2.725994 -0.005336 -0.004240 -498666.000000 0 0 1
8.738981 -11.082539 -28.146249 31.486565 -0.903085 2.676797 0.010642 -0.014598 -223753.000000 0 0 1
7.829381 -12.002439 -27.603189 31.101347 -0.992795 2.662739 0.010528 -0.006419 -433379.000000 0 0 1
8.335581 -13.163339 -27.023939 31.193728 -1.006292 2.618595 0.010761 0.000162 -170761.000000 0 0 1
9.097281 -14.246039 -27.865749 32.591565 -1.002489 2.596345 0.017862 -0.011372 -170353.000000 0 0 1
8.293081 -14.783839 -28.892549 33.498007 -1.059581 2.611016 0.022352 -0.019244 -211658.000000 0 0 1
8.963581 -15.601939 -29.852919 34.856320 -1.049325 2.599162 0.015626 -0.020546 -234921.000000 0 0 1
7.996281 -16.054639 -30.941789 35.764315 -1.108697 2.616262 0.011414 -0.019943 -531465.000000 0 0 1
7.544381 -15.088939 -31.822169 36.017276 -1.107153 2.654132 0.006274 -0.016423 335344.000000 0 0 1
6.692581 -15.773339 -32.749839 36.961342 -1.169521 2.659564 0.008513 -0.012047 88870.100000 0 0 1
5.879281 -14.812839 -33.683999 37.263896 -1.192961 2.699670 0.015862 -0.002971 429590.000000 0 0 1
6.621681 -14.032039 -34.607642 37.926688 -1.129883 2.720121 0.018986 0.004608 -185950.000000 0 0 1
5.723881 -13.044439 34.283954 37.125594 -1.157296 0.393797 -0.013238 0.005713 -159349.000000 0 0 1
6.379181 -11.867339 33.490798 36.099325 -1.077569 0.382484 0.003234 0.008592 -173840.000000 0 0 1
6.693281 -12.276139 32.200229 35.104962 -1.071625 0.409661 0.007814 0.007070 -85788.300000 0 0 1
7.046781 -11.226439 31.336269 34.024283 -1.010261 0.400164 0.006153 0.008992 -308399.000000 0 0 1
7.488681 -11.807839 29.935539 33.040005 -1.005600 0.436967 -0.001650 0.015303 186012.000000 0 0 1
6.434081 -12.402239 29.199639 32.370231 -1.092235 0.446296 0.001745 0.019483 130707.000000 0 0 1
6.658081 -12.248239 27.862089 31.155183 -1.072884 0.463931 0.006709 0.015785 -81674.600000 0 0 1
5.700081 -13.093139 26.986929 30.532205 -1.160193 0.486694 0.002709 0.004639 -132798.000000 0 0 1
5.777281 -14.533839 27.220489 31.393701 -1.192442 0.521509 0.005237 0.006341 150600.000000 0 0 1
5.290081 -15.423539 26.179609 30.842218 -1.240382 0.557040 -0.014632 0.003485 368449.000000 0 0 1
3.742781 -15.572639 26.087119 30.611326 -1.334927 0.550611 -0.011190 -0.003603 237221.000000 0 0 1
3.130081 -14.481139 25.455629 29.453180 -1.357922 0.527090 -0.018408 0.003928 663326.000000 0 0 1
1.699881 -14.550139 25.314929 29.247936 -1.454494 0.524591 -0.015215 0.003329 914370.000000 0 0 1
1.092281 -13.211139 24.965759 28.266878 -1.488305 0.488120 -0.024592 0.009380 -750551.000000 0 0 1
1.535181 -12.730539 23.744059 26.985250 -1.450785 0.495165 -0.031985 0.014801 -80259.400000 0 0 1
0.760581 -11.661439 23.229559 26.003462 -1.505667 0.466105 -0.022691 0.023831 47200.300000 0 0 1
-0.663719 -12.030739 22.780659 25.770868 1.515684 0.486511 -0.014158 0.021282 -998126.000000 0 0 1
-0.689319 -12.926539 21.681759 25.252114 1.517521 0.538241 -0.011878 0.016970 -365072.000000 0 0 1
-2.006919 -13.048139 21.214559 24.986780 1.418183 0.556647 -0.002629 0.003133 -48675.800000 0 1 0
-2.102619 -13.976339 19.965459 24.461779 1.421475 0.616011 -0.001986 -0.001376 4860.780000 0 1 0
-1.721219 -15.378239 20.111359 25.375571 1.459335 0.655820 -0.000341 -0.005394 10480.200000 0 0 1
-1.853519 -16.044039 18.896659 24.858207 1.455779 0.707209 -0.000169 0.002185 -267870.000000 0 1 0
-2.402919 -17.459939 19.079959 25.974378 1.434031 0.745766 -0.000429 0.002866 -93994.500000 0 0 1
-2.336219 -18.190339 17.902759 25.629185 1.443064 0.797455 -0.001382 -0.000206 34791.600000 0 0 1
-2.998919 -19.459739 17.926259 26.627537 1.417890 0.832238 -0.000699 -0.003829 -179703.000000 0 0 1
-2.531119 -20.462139 16.786759 26.587609 1.447724 0.887471 0.000041 -0.001708 562715.000000 0 0 1
-1.261319 -21.050739 17.081759 27.138737 1.510950 0.889985 -0.012824 -0.004194 156668.000000 0 0 1
-1.327619 -22.143739 17.961659 28.543457 1.510913 0.890177 -0.010310 -0.007518 1091040.000000 0 0 1
0.061181 -22.861839 18.331959 29.304064 -1.568120 0.894925 -0.015733 -0.004925 1369250.000000 0 0 1
0.487181 -23.661939 17.254759 29.289100 -1.550210 0.940828 0.013751 -0.000324 -191486.000000 0 0 1
1.779881 -24.214539 17.461659 29.906879 -1.497424 0.947312 0.007311 0.020730 489864.000000 0 0 1
2.837281 -23.562139 16.531159 28.922375 -1.450956 0.962379 0.014191 -0.003830 -168626.000000 0 0 1
3.249981 -22.303939 16.925559 28.186923 -1.426101 0.926701 0.005301 -0.002958 -119192.000000 0 0 1
4.233681 -21.734139 16.066759 27.357588 -1.378411 0.943093 0.006591 -0.013415 147345.000000 0 0 1
4.810081 -20.477839 16.695359 26.855424 -1.340087 0.899916 0.013120 -0.005426 -933237.000000 0 0 1
5.620381 -20.756139 17.799559 27.914697 -1.306356 0.879364 0.001421 0.004518 -118481.000000 0 0 1
6.152681 -19.558339 18.467959 27.594377 -1.266017 0.837577 0.006231 0.007180 388182.000000 0 0 1
7.295281 -18.870339 17.703159 26.883316 -1.201894 0.851948 0.012218 -0.002975 -926550.000000 0 0 1
6.833381 -18.127439 16.612359 25.519985 -1.210305 0.861955 0.008367 -0.004580 -150074.000000 0 0 1
7.835381 -17.517339 15.805159 24.860680 -1.150196 0.881818 0.013089 0.000807 -138349.000000 0 1 0
7.308181 -16.534139 14.756859 23.335641 -1.154610 0.886182 0.013168 -0.006396 -141974.000000 0 1 0
6.415581 -17.137239 13.834359 22.939794 -1.212583 0.923449 0.012563 -0.001203 160918.000000 0 1 0
5.965381 -16.170639 12.892759 21.524372 -1.217383 0.928564 0.011240 -0.014842 30885.800000 0 1 0
6.517081 -16.450439 11.474759 21.089319 -1.193601 0.995477 0.022865 -0.009812 1255530.000000 0 1 0
7.941681 -16.198239 11.374859 21.326994 -1.114954 1.008234 0.022204 0.001404 977435.000000 0 1 0
8.413281 -16.574339 10.092459 21.150644 -1.101080 1.073364 0.019542 0.005791 -923619.000000 0 1 0
9.767681 -15.974739 9.885059 21.173433 -1.022004 1.085058 0.010066 0.004541 -863188.000000 0 1 0
10.377881 -16.523839 8.739859 21.380430 -1.010003 1.149681 0.014791 0.006243 -201470.000000 0 1 0
11.728181 -16.133839 8.592859 21.718384 -0.942224 1.164022 0.020916 0.007385 96712.800000 0 1 0
12.573581 -17.189039 7.871859 22.705157 -0.939248 1.216747 0.004877 0.008877 -143606.000000 0 1 0
12.820781 -18.341439 8.684159 24.004071 -0.960738 1.200621 -0.005195 0.011560 272598.000000 0 1 0
13.558581 -19.344039 7.967359 24.930018 -0.959455 1.245501 -0.002086 0.012735 131944.000000 0 1 0
13.841481 -20.574839 8.764459 26.300691 -0.978602 1.231058 0.002357 0.010928 -396933.000000 0 0 1
12.702281 -21.348439 9.086959 26.451401 -1.034063 1.220119 0.016917 0.004984 -53465.000000 0 0 1
13.124681 -22.652439 9.384159 27.811017 -1.045666 1.226615 0.014175 0.000872 -187545.000000 0 0 1
12.057181 -23.480639 10.063259 28.248632 -1.096411 1.206557 0.023864 -0.006971 -304170.000000 0 0 1
12.017481 -22.986639 11.378659 28.324535 -1.089073 1.157397 0.030974 -0.008929 232803.000000 0 0 1
11.092681 -23.630339 12.308059 28.860506 -1.131906 1.130213 0.034798 0.000781 356279.000000 0 0 1
11.383181 -25.114779 12.625059 30.326903 -1.145246 1.141425 0.030427 -0.011635 326650.000000 0 0 1
12.479681 -25.328759 13.521359 31.306798 -1.112999 1.124200 0.006760 -0.011503 219968.000000 0 0 1
12.489481 -26.586719 14.108359 32.586601 -1.131629 1.123034 0.022598 -0.024091 -351157.000000 0 0 1
13.598081 -26.730829 15.137459 33.594459 -1.100210 1.103366 0.032711 -0.023405 -308480.000000 0 0 1
13.415481 -25.974469 16.311759 33.477181 -1.094046 1.061858 0.031438 -0.021350 229258.000000 0 0 1
14.138081 -26.636449 17.371859 34.801828 -1.082829 1.048161 0.033396 -0.024137 -94288.600000 0 0 1
14.001881 -26.061029 18.804759 35.054941 -1.077777 1.004587 0.034950 -0.021626 -235933.000000 0 0 1
14.450881 -24.763339 19.171959 34.490795 -1.042553 0.981402 0.010074 -0.019648 987993.000000 0 0 1
15.875681 -24.746039 19.427159 35.239441 -1.000388 0.986886 0.013278 -0.018966 793437.000000 0 0 1
16.505681 -23.393539 19.695259 34.750517 -0.956345 0.968226 -0.007267 -0.013980 -414257.000000 0 0 1
16.501681 -22.463339 18.591159 33.504302 -0.937221 0.982567 -0.012188 -0.014877 277656.000000 0 0 1
15.244981 -21.857539 18.302159 32.328478 -0.961770 0.968991 -0.009657 -0.009725 -402028.000000 0 0 1
15.189781 -20.687039 17.291959 30.946646 -0.937442 0.977898 -0.026574 -0.008305 329701.000000 0 0 1
15.993281 -19.559639 17.696659 30.846981 -0.885375 0.959790 -0.028858 -0.006679 322366.000000 0 0 1
17.383581 -19.717439 17.529959 31.595344 -0.848221 0.982641 -0.023228 -0.009762 -570007.000000 0 0 1
18.180581 -18.434239 17.724159 31.376751 -0.792326 0.970506 -0.009263 -0.001361 -607994.000000 0 0 1
18.264181 -18.263039 19.118359 32.134569 -0.785367 0.933597 -0.016592 -0.002028 149989.000000 0 0 1
18.744481 -16.984739 19.474859 31.923456 -0.736186 0.914674 -0.010005 -0.003211 -302344.000000 0 0 1
19.378481 -16.939239 20.892759 33.150727 -0.718335 0.888940 0.001227 0.000351 37720.200000 0 0 1
20.516981 -17.767439 20.972859 34.299989 -0.713702 0.912900 0.007586 0.003673 -169019.000000 0 0 1
21.042981 -17.750939 22.287959 35.421124 -0.700741 0.890237 0.013685 0.014546 -59135.800000 0 0 1
32.787651 -0.885739 -7.846059 33.724994 -0.027008 1.805596 0.048185 -0.005663 -118754.000000 0 0 1
33.908358 -1.062039 -8.697359 35.022118 -0.031311 1.821762 0.021978 -0.005381 240178.000000 0 0 1
34.618394 -2.243839 -8.352259 35.682324 -0.064726 1.807061 0.028204 -0.020901 145324.000000 0 0 1
-33.857909 -2.293839 -9.016359 35.112881 0.067646 1.830487 0.010999 -0.013151 35144.000000 0 0 1
-33.057129 -3.339039 -8.537659 34.304731 0.100667 1.822317 0.024792 -0.019540 75808.200000 0 0 1
-31.705189 -3.131439 -8.906459 33.080960 0.098448 1.843392 0.032474 -0.022801 833809.000000 0 0 1
-30.568609 -4.058239 -8.283159 31.929921 0.131987 1.833215 0.034037 -0.018469 539430.000000 0 0 1
-30.319439 -3.594539 -7.000759 31.324107 0.118005 1.796194 0.034444 -0.014500 663300.000000 0 0 1
-29.222489 -4.275439 -6.376159 30.214047 0.145276 1.783428 0.032073 -0.012184 288159.000000 0 0 1
-29.039499 -3.900939 -4.907659 29.708499 0.133533 1.736751 0.037325 -0.013729 -387081.000000 0 0 1
-28.615709 -2.568039 -4.845959 29.136522 0.089503 1.737892 0.037414 -0.016775 498193.000000 0 0 1
-28.498069 -2.180539 -3.497259 28.794539 0.076367 1.692553 0.035340 -0.010575 -296696.000000 0 0 1
-28.110959 -0.718439 -3.332759 28.316946 0.025552 1.688765 0.057351 -0.010914 -288009.000000 0 0 1
-26.744389 -0.412939 -3.536059 26.980300 0.015439 1.702235 0.032509 -0.001844 386677.000000 0 0 1
-26.468049 0.707761 -2.778259 26.622871 -0.026734 1.675343 0.039763 -0.004142 172696.000000 0 0 1
-25.036119 0.575461 -2.171959 25.136742 -0.022981 1.657310 0.015627 -0.001917 150342.000000 0 0 1
-24.891119 -0.279639 -1.035359 24.914212 0.011234 1.612365 0.017274 -0.005725 -638037.000000 0 1 0
-23.588819 -0.236339 -0.591159 23.597409 0.010019 1.595851 -0.002876 -0.005328 -1413670.000000 0 1 0
-23.447219 -1.129539 0.666841 23.483880 0.048136 1.542397 -0.013593 -0.008043 -543892.000000 0 1 0
-23.589819 -2.507639 0.345541 23.725244 0.105904 1.556232 -0.006349 -0.004015 321721.000000 0 1 0
-22.743019 -3.282439 1.139841 23.006924 0.143338 1.521233 -0.015066 -0.003431 -571038.000000 0 1 0
-23.015619 -4.777339 0.954041 23.525558 0.204663 1.530232 -0.009627 0.000890 -1254340.000000 0 1 0
-24.168219 -5.159939 1.607441 24.765129 0.210343 1.505843 -0.009817 0.002682 -542171.000000 0 1 0
-24.438719 -6.558439 1.461141 25.345592 0.262185 1.513116 -0.004022 0.002369 121678.000000 0 0 1
-25.682139 -7.174339 2.198341 26.755861 0.272407 1.488541 0.003223 -0.002656 307986.000000 0 0 1
-25.688879 -7.141139 3.623341 26.908046 0.271140 1.435730 0.000706 -0.000621 434480.000000 0 0 1
-26.786869 -7.956239 4.057641 28.236546 0.288721 1.426595 -0.001775 0.009054 322301.000000 0 0 1
-26.873679 -8.261539 5.560841 28.659564 0.298251 1.375527 0.006557 0.004684 333294.000000 0 0 1
-25.779399 -9.122539 5.943341 27.984307 0.340118 1.356785 0.005150 0.017380 615732.000000 0 0 1
-25.631209 -9.366339 7.311641 28.251500 0.350352 1.309011 -0.000341 0.011235 209138.000000 0 0 1
-25.039219 -8.118739 8.159241 27.558114 0.313545 1.270217 0.004837 0.012443 58561.600000 0 0 1
-23.718019 -7.778839 7.801841 26.151931 0.316917 1.267856 0.008712 0.007409 -232364.000000 0 0 1
-23.344719 -6.459539 8.141541 25.553595 0.269948 1.246537 0.007732 0.000524 -295135.000000 0 0 1
-21.868719 -6.241539 7.743941 24.024286 0.278018 1.242598 0.002173 0.000066 -545125.000000 0 1 0
-21.026919 -6.778439 8.697441 23.742873 0.311851 1.195747 0.016355 -0.005371 -909436.000000 0 1 0
-19.725019 -6.692339 8.164741 22.372456 0.327095 1.197221 0.015173 -0.005167 -856158.000000 0 1 0
-18.721219 -7.044639 9.224441 22.027285 0.359903 1.138702 0.027171 -0.001436 -699529.000000 0 1 0
-18.428519 -5.977239 10.117041 21.856171 0.313641 1.089542 0.015490 -0.002886 174314.000000 0 1 0
-17.428919 -6.252239 11.072941 21.574701 0.344429 1.031844 0.009569 0.001903 -105596.000000 0 1 0
-17.009419 -5.057639 11.856841 21.342088 0.289018 0.981758 -0.011909 -0.001352 -297062.000000 0 1 0
-17.942619 -4.725039 12.866041 22.578720 0.257496 0.964497 -0.012735 0.002377 129376.000000 0 1 0
-18.176419 -3.324839 13.145641 22.676963 0.180920 0.952446 -0.001115 0.004543 403957.000000 0 1 0
-19.431119 -3.140139 14.072341 24.196273 0.160218 0.950113 -0.001305 0.002590 534047.000000 0 1 0
-19.270519 -3.778639 15.329341 24.912240 0.193627 0.907987 0.000834 0.012170 39939.600000 0 1 0
-20.449819 -3.759839 16.106541 26.301182 0.181826 0.911718 -0.002541 0.013099 -120408.000000 0 0 1
-20.480919 -4.898739 17.101941 27.128252 0.234775 0.888714 0.004174 0.028418 -72142.500000 0 0 1
-21.356819 -4.701939 18.200041 28.451071 0.216704 0.876693 0.000531 0.022020 220801.000000 0 0 1
-21.150319 -5.714639 19.170341 29.111769 0.263890 0.851961 0.002569 0.016423 -371479.000000 0 0 1
-21.855619 -5.509339 20.507841 30.472815 0.246934 0.832555 -0.009918 0.029728 -613325.000000 0 0 1
-21.414119 -4.346039 21.171941 30.425378 0.200232 0.801173 -0.013502 0.024098 289123.000000 0 0 1
-22.178419 -4.071339 22.321141 31.728401 0.181551 0.790477 -0.012628 0.011564 -62597.700000 0 0 1
-21.932819 -2.598039 22.844341 31.775183 0.117905 0.768525 -0.005394 0.007705 -24946.900000 0 0 1
-22.673919 -1.674339 22.095041 31.703326 0.073710 0.799687 0.001338 0.009123 -56906.800000 0 0 1
-22.689419 -0.434039 22.759641 32.140308 0.019127 0.783945 0.002005 -0.003585 -717725.000000 0 0 1
-23.686519 0.561161 22.226841 32.486898 -0.023687 0.817319 0.002236 -0.000754 -640784.000000 0 0 1
-24.989119 0.209061 22.637541 33.718808 -0.008366 0.834751 0.003364 -0.002877 -593969.000000 0 0 1
-25.900229 1.136561 22.121941 34.080697 -0.043854 0.864389 -0.002205 -0.001340 -28603.500000 0 0 1
-27.051289 1.316861 23.149741 35.628877 -0.048642 0.863545 -0.001020 -0.000744 -218875.000000 0 0 1
-26.611829 1.930061 24.290741 36.082609 -0.072400 0.832271 -0.001217 0.003867 199031.000000 0 0 1
-27.676419 1.999861 25.230841 37.504386 -0.072133 0.832885 -0.008022 0.002491 109852.000000 0 0 1
-27.294249 2.822561 26.495341 38.143754 -0.103046 0.802907 0.000783 0.003538 160837.000000 0 0 1
-26.392239 2.280761 27.446841 38.145527 -0.086204 0.767671 -0.008617 -0.001740 233349.000000 0 0 1
-26.132229 3.192461 28.487341 38.789352 -0.121563 0.745997 -0.014521 -0.008985 218504.000000 0 0 1
-25.002319 2.733761 29.484041 38.754330 -0.108908 0.706261 -0.007389 -0.014899 369499.000000 0 0 1
-25.367889 1.650761 30.359241 39.597201 -0.064981 0.697109 -0.009144 -0.009752 12820.200000 0 0 1
-24.482219 1.552061 31.437641 39.876224 -0.063311 0.662624 0.002189 -0.017826 -296371.000000 0 0 1
-24.788319 0.368761 32.324841 40.736864 -0.014875 0.654252 -0.009750 -0.020634 -106482.000000 0 0 1
-24.557519 -0.875639 31.674641 40.088918 0.035642 0.659808 -0.005423 -0.018013 204718.000000 0 0 1
-25.126469 -1.949039 32.443441 41.081810 0.077414 0.660431 0.002554 -0.012138 191780.000000 0 0 1
-25.938439 -3.051939 31.594841 40.992084 0.117122 0.690771 -0.003354 -0.011200 755050.000000 0 0 1
-27.214269 -2.691039 31.098641 41.412361 0.098563 0.721296 -0.000287 -0.001161 55302.700000 0 0 1
-27.119599 -1.737339 30.011041 40.486462 0.063975 0.735849 -0.005679 0.001396 51496.700000 0 0 1
-28.496709 -1.116139 29.598141 41.101802 0.039147 0.766824 -0.004674 -0.002566 782584.000000 0 0 1
-29.119129 -0.498739 30.720241 42.330906 0.017126 0.758721 0.001187 -0.001133 35884.000000 0 0 1
-30.466239 -0.205039 30.351541 43.005230 0.006730 0.787295 -0.006983 -0.005539 822521.000000 0 0 1
-31.472129 -0.076439 31.547741 44.561875 0.002429 0.784200 -0.004086 0.004508 -318782.000000 0 0 1
-31.659469 -1.280939 32.222041 45.190958 0.040438 0.777001 -0.004651 0.000831 -193435.000000 0 0 1
-32.228849 -1.020539 33.476241 46.480092 0.031655 0.766666 0.016879 -0.003488 -171823.000000 0 0 1
-32.371409 -2.328739 34.309941 47.228204 0.071814 0.757623 0.016904 -0.001581 -68577.800000 0 0 1
-33.164369 -3.338039 33.727841 47.419249 0.100314 0.779494 0.013834 -0.002128 -2179.670000 0 0 1
-33.035729 -4.605139 34.369241 47.893752 0.138506 0.770426 0.006980 0.005136 -255520.000000 0 0 1
-34.265589 -5.441739 34.012041 48.585616 0.157495 0.795338 -0.001389 0.007246 78869.300000 0 0 1
34.387197 -4.990239 34.559341 49.007447 -0.144113 0.788112 0.002581 -0.006026 624386.000000 0 0 1
33.246961 -5.683139 34.002341 47.893817 -0.169301 0.781365 -0.000614 -0.010327 1232760.000000 0 0 1
31.851591 -5.175239 34.536041 47.265686 -0.161072 0.751480 0.017669 -0.010651 537890.000000 0 0 1
31.414531 -5.629939 -33.452876 46.234878 -0.177332 2.379716 0.020681 -0.015168 187320.000000 0 0 1
31.055851 -6.990939 -33.310276 46.075087 -0.221418 2.378868 0.010757 -0.009804 191402.000000 0 0 1
29.601421 -7.361439 -33.769076 45.505884 -0.243741 2.406967 0.011084 -0.007304 767023.000000 0 0 1
28.583481 -7.008039 -32.824676 44.086136 -0.240435 2.410669 0.016273 -0.014344 -1875.710000 0 0 1
27.339451 -7.330239 -33.387776 43.771242 -0.261958 2.438396 0.033107 -0.012482 -688981.000000 0 0 1
26.137611 -6.851239 -32.576876 42.324544 -0.256355 2.449155 0.030419 -0.020823 -675264.000000 0 0 1
24.930711 -7.269639 -33.152876 42.112958 -0.283727 2.477112 0.018374 -0.012896 913202.000000 0 0 1
23.805501 -6.906839 -32.255276 40.679346 -0.282383 2.486375 0.020109 -0.013078 1147490.000000 0 0 1
22.470401 -7.558439 -32.683776 40.376703 -0.324484 2.514047 0.032528 -0.017955 -102497.000000 0 0 1
22.375701 -8.944239 -32.632676 40.565539 -0.380274 2.505534 0.041743 -0.022307 223792.000000 0 0 1
22.491801 -9.555739 -31.354376 39.752864 -0.401747 2.479541 0.036586 -0.024883 -524982.000000 0 0 1
22.461201 -11.145939 -31.479576 40.245512 -0.460628 2.468967 0.053760 -0.026442 -600727.000000 0 0 1
21.250401 -11.587639 -32.001776 40.124389 -0.499220 2.494043 0.064420 -0.031833 -247253.000000 0 0 1
21.254001 -13.014439 -32.003376 40.562597 -0.549436 2.479955 0.061943 -0.030655 -142599.000000 0 0 1
20.075001 -13.534939 -32.889376 40.840070 -0.593213 2.507013 0.049208 -0.024579 1367230.000000 0 0 1
18.722201 -13.240739 -32.473476 39.753800 -0.615556 2.526751 0.043762 -0.021908 1034720.000000 0 0 1
18.339601 -11.988739 -33.037276 39.642559 -0.578977 2.555990 0.036775 -0.018773 -59192.400000 0 0 1
16.993001 -11.479039 -32.415276 38.357275 -0.594104 2.577526 0.024518 -0.023080 1202490.000000 0 0 1
15.778201 -11.979539 -32.998976 38.488874 -0.649392 2.600923 0.014044 -0.009510 177522.000000 0 0 1
14.682301 -11.390539 -32.351776 37.308870 -0.659810 2.620215 0.024922 -0.011718 252763.000000 0 0 1
13.319201 -11.916639 -32.902876 37.443380 -0.729877 2.644006 0.008531 0.000410 -366673.000000 0 0 1
13.183201 -13.299739 -32.916376 37.870406 -0.789799 2.624347 0.005959 0.001607 765397.000000 0 0 1
11.985201 -13.809039 -33.536376 38.197161 -0.855988 2.642424 -0.014717 -0.004740 560559.000000 0 0 1
10.641901 -13.613039 -32.794376 37.067992 -0.907287 2.656665 -0.020518 0.007161 -546119.000000 0 0 1
10.121101 -12.325039 -32.955576 36.611655 -0.883272 2.690885 -0.000637 0.006462 -606502.000000 0 0 1
9.136301 -12.179239 -31.975776 35.415479 -0.927197 2.697209 0.006366 -0.002987 -280109.000000 0 0 1
7.925701 -11.351639 -32.475976 35.303902 -0.961280 2.738616 -0.002645 0.007131 -256509.000000 0 0 1
8.192801 -9.921339 -32.607476 35.054279 -0.880535 2.765753 -0.005632 0.010446 216703.000000 0 0 1
7.073101 -9.148139 -32.967476 34.936681 -0.912628 2.804242 -0.001415 0.013984 -235790.000000 0 0 1
7.493901 -7.680039 -33.214676 34.904961 -0.797664 2.829115 0.003713 0.019147 155257.000000 0 0 1
7.949101 -7.020539 -32.038976 33.748662 -0.723448 2.821927 -0.012516 0.022221 173628.000000 0 0 1
8.359001 -5.719539 -32.316076 33.866131 -0.600068 2.837871 -0.011028 0.018798 -42587.600000 0 0 1
8.861201 -4.955439 -31.092176 32.707808 -0.509901 2.825973 -0.008124 0.018210 -388655.000000 0 0 1
7.769101 -4.514739 -30.328776 31.631890 -0.526417 2.853557 0.008999 0.019808 -167530.000000 0 0 1
8.075401 -3.688239 -29.207176 30.526617 -0.428432 2.846507 0.008825 0.015981 -106220.000000 0 0 1
6.793301 -3.123939 -28.555176 29.517893 -0.431020 2.885493 0.010023 0.013384 -309901.000000 0 0 1
6.159201 -2.174539 -29.423076 30.139373 -0.339394 2.923140 0.013075 0.023735 504439.000000 0 0 1
4.863201 -1.705339 -29.065376 29.518723 -0.337264 2.966108 0.017217 0.011978 768283.000000 0 0 1
3.696601 -2.729639 -29.045776 29.407021 -0.636048 2.984688 0.001863 0.007516 -664904.000000 0 0 1
3.661801 -3.576139 -27.873376 28.339419 -0.773564 2.959987 0.012414 -0.004968 -268030.000000 0 0 1
2.680101 -4.578239 -28.019776 28.517557 -1.041181 2.954476 0.012221 -0.004453 180754.000000 0 0 1
2.788101 -5.612839 -26.866776 27.588062 -1.109763 2.912422 0.006250 -0.010935 93605.400000 0 0 1
2.469001 -5.095839 -25.565676 26.185251 -1.119615 2.923624 0.006757 -0.017846 30327.600000 0 0 1
2.749801 -6.070639 -24.539976 25.428812 -1.145478 2.876416 0.017108 -0.021165 -127061.000000 0 0 1
2.661401 -5.441339 -23.168476 23.947224 -1.115900 2.885870 0.020620 -0.026918 308940.000000 0 1 0
3.733101 -4.533439 -22.928376 23.668514 -0.881914 2.890852 0.020650 -0.022007 364956.000000 0 1 0
3.446301 -3.921039 -21.689376 22.308756 -0.849747 2.905400 0.021349 -0.021272 -96039.200000 0 1 0
4.255901 -2.608939 -21.401376 21.975854 -0.549936 2.912438 0.019902 -0.024118 -152751.000000 0 1 0
5.613601 -2.773039 -21.117176 22.025835 -0.458825 2.853353 0.014144 -0.017129 -642486.000000 0 1 0
6.258601 -1.596339 -20.730376 21.713288 -0.249738 2.839555 0.017001 -0.012471 -806563.000000 0 1 0
7.694801 -1.792539 -20.311476 21.794018 -0.228873 2.770619 0.015341 -0.011202 -1359010.000000 0 1 0
8.547301 -2.046139 -21.411776 23.145350 -0.234968 2.752097 0.024746 -0.014375 684091.000000 0 1 0
9.759001 -2.769539 -21.123176 23.432819 -0.276523 2.693870 0.021480 -0.012535 1041740.000000 0 1 0
10.893901 -2.025039 -20.400976 23.215893 -0.183790 2.644034 0.012240 -0.013055 -750735.000000 0 1 0
10.648001 -1.856739 -19.001476 21.860547 -0.172639 2.624405 0.009137 -0.023109 878741.000000 0 1 0
11.875401 -1.589539 -18.298776 21.872288 -0.133061 2.561878 0.011998 -0.021174 490600.000000 0 1 0
12.314401 -0.099039 -18.289376 22.048936 -0.008042 2.548991 0.019236 -0.024173 -454471.000000 0 1 0
12.666101 0.364961 -19.576676 23.319725 0.028806 2.567140 0.011634 -0.019619 118442.000000 0 1 0
12.501801 1.762261 -19.596476 23.311424 0.140038 2.569257 0.016694 -0.031596 -367596.000000 0 1 0
12.844601 2.357961 -20.971876 24.705533 0.181555 2.584647 0.012080 -0.019928 -209244.000000 0 1 0
14.216201 2.534361 -21.235376 25.680042 0.176419 2.544407 0.004484 -0.019641 -157454.000000 0 0 1
14.419501 3.627561 -22.087576 26.625969 0.246459 2.549098 0.011253 -0.021011 272566.000000 0 0 1
15.837401 3.578561 -22.729376 27.933026 0.222225 2.521302 0.015060 -0.017318 319701.000000 0 0 1
15.846801 2.537361 -23.714476 28.634519 0.158770 2.546645 0.003431 -0.013772 -638630.000000 0 0 1
16.664801 1.508461 -23.394876 28.763019 0.090272 2.520712 -0.001626 -0.007405 -1258550.000000 0 0 1
8.958381 27.095261 2.899141 28.684679 1.251485 1.469554 -0.025632 0.010249 148451.000000 0 0 1
8.813681 27.552661 4.223541 29.234712 1.261198 1.425819 -0.027205 0.009326 455215.000000 0 0 1
10.103781 27.831761 4.756841 29.988679 1.222560 1.411502 -0.016147 0.002766 -32447.200000 0 0 1
10.147281 28.551761 6.152641 30.919660 1.229319 1.370471 -0.025965 -0.000557 -218257.000000 0 0 1
10.161481 27.671961 7.286241 30.365810 1.218871 1.328483 -0.020373 -0.000402 144404.000000 0 0 1
10.183981 28.459461 8.429341 31.380060 1.227153 1.298835 -0.017241 -0.002355 -551544.000000 0 0 1
10.063581 27.651961 9.743841 30.997565 1.221760 1.251033 -0.012852 -0.007562 109432.000000 0 0 1
11.174181 26.969661 10.312741 30.960904 1.178003 1.231218 -0.004466 0.000369 81902.100000 0 0 1
11.745981 25.937261 9.514741 30.020658 1.145566 1.248295 -0.009015 -0.004051 -469932.000000 0 0 1
12.974181 25.270261 10.119841 30.155044 1.096473 1.228561 -0.002688 -0.003147 -980038.000000 0 0 1
13.973281 26.163161 10.463141 31.452200 1.080256 1.231665 -0.002332 -0.004910 -770646.000000 0 0 1
15.099581 25.364861 10.747641 31.414731 1.033843 1.221623 0.007623 -0.000951 772059.000000 0 0 1
16.430681 26.182761 11.044141 32.824950 1.010374 1.227646 0.006934 -0.000751 424305.000000 0 0 1
16.918781 26.913161 9.939941 33.307144 1.009581 1.267746 0.014034 -0.009741 -284838.000000 0 0 1
18.314281 26.974261 9.861341 34.062732 0.974335 1.277086 0.022369 -0.014175 63148.400000 0 0 1
19.076381 27.893161 10.937341 35.518477 0.970952 1.257776 0.026281 -0.012218 -428363.000000 0 0 1
18.976381 29.292761 10.730941 36.514682 0.995956 1.272513 0.035339 -0.030970 611409.000000 0 0 1
17.703481 29.872561 11.036741 36.436147 1.035811 1.263055 0.027383 -0.023197 346466.000000 0 0 1
17.821581 31.453161 11.327941 37.884461 1.055292 1.267138 0.028415 -0.016135 -996955.000000 0 0 1
18.202781 32.188161 10.229441 38.367440 1.056122 1.300914 0.041205 -0.029691 -51507.800000 0 0 1
17.311381 32.349461 9.123141 37.807450 1.079436 1.327086 0.041791 -0.030458 417273.000000 0 0 1
15.854581 32.816261 9.385441 37.634575 1.120734 1.318753 0.030991 -0.024177 -173643.000000 0 0 1
15.912181 34.180361 9.773241 38.948823 1.135098 1.317160 0.034339 -0.023898 325088.000000 0 0 1
14.642981 -34.575205 9.929141 38.838763 -1.170188 1.312276 0.041079 -0.016352 207615.000000 0 0 1
14.816981 -33.082405 10.263541 37.673979 -1.149706 1.294878 0.041162 -0.010559 101211.000000 0 0 1
15.511981 -32.328405 9.224841 37.024924 -1.123418 1.318992 0.048435 -0.011133 514666.000000 0 0 1
15.828581 -31.009005 9.635641 36.124063 -1.098823 1.300790 0.037997 -0.003509 104281.000000 0 0 1
16.629181 -30.284605 8.521341 35.585112 -1.068647 1.328983 0.039641 -0.000868 -298049.000000 0 0 1
15.828381 -30.083605 7.410941 34.791996 -1.086451 1.356145 0.038658 -0.012382 -280843.000000 0 0 1
16.531981 -29.588605 6.321141 34.478236 -1.061277 1.386416 0.031241 -0.002127 -161431.000000 0 0 1
15.779481 -29.732005 4.980041 34.026239 -1.082873 1.423910 0.036352 -0.000543 -240428.000000 0 0 1
15.531581 -31.015805 4.499741 34.977962 -1.106538 1.441794 0.028328 -0.002635 89945.300000 0 0 1
15.479781 -30.832305 3.111741 34.640115 -1.105499 1.480844 0.035457 0.010076 -275110.000000 0 0 1
15.627081 -32.123205 2.272141 35.794812 -1.118029 1.507277 0.003281 0.005396 -155455.000000 0 0 1
16.850381 -32.810605 2.437741 36.965034 -1.096356 1.504801 0.017695 0.004117 -37001.300000 0 0 1
16.972981 -34.008105 1.696541 38.046176 -1.107880 1.526190 0.023263 0.002220 312649.000000 0 0 1
18.392481 -34.666205 1.696441 39.279855 -1.083001 1.527594 0.029710 0.000817 485522.000000 0 0 1
18.803581 34.187361 2.900341 39.124958 1.067941 1.496598 0.040744 -0.017068 755267.000000 0 0 1
20.220481 33.947761 2.906941 39.620306 1.033592 1.497360 0.035612 -0.010111 842028.000000 0 0 1
20.809181 33.477161 4.287241 39.650003 1.014650 1.462457 0.041252 -0.019596 -365313.000000 0 0 1
20.257181 32.271861 4.723041 38.394447 1.010255 1.447470 0.048640 -0.027517 -491471.000000 0 0 1
21.146581 31.484061 5.422441 38.312229 0.979345 1.428787 0.034933 -0.029716 -268181.000000 0 0 1
20.443581 30.573761 6.542341 37.356353 0.981412 1.394755 0.043194 -0.034638 207333.000000 0 0 1
19.535181 29.690861 5.936641 36.033516 0.988851 1.405288 0.042736 -0.028166 -93074.400000 0 0 1
18.676481 29.117861 6.931341 35.280367 1.000484 1.373045 0.040940 -0.036046 -50610.800000 0 0 1
17.165581 29.170461 6.648541 34.493131 1.038907 1.376833 0.042169 -0.028466 -252369.000000 0 0 1
16.657181 30.509561 6.466541 35.356911 1.071056 1.386868 0.033235 -0.031409 178172.000000 0 0 1
16.903081 31.026561 5.175541 35.709213 1.071959 1.425348 0.044025 -0.030446 -729947.000000 0 0 1
16.767181 32.568661 5.127641 36.988495 1.095359 1.431720 0.050306 -0.027061 1988620.000000 0 0 1
15.402681 33.059761 5.404441 36.870020 1.134795 1.423685 0.032113 -0.021949 1731670.000000 0 0 1
15.546681 34.437161 5.448641 38.174665 1.146737 1.427578 0.040333 -0.028655 87668.400000 0 0 1
14.248981 -34.161505 5.810641 37.467392 -1.175631 1.415083 0.034507 -0.017690 -130840.000000 0 0 1
13.311681 -34.332805 4.782541 37.132399 -1.200917 1.441641 0.013137 -0.006924 -323026.000000 0 0 1
12.460081 -33.200905 4.700841 35.772218 -1.211768 1.439005 0.015791 -0.004545 -594393.000000 0 0 1
11.370781 -33.278605 3.682641 35.359893 -1.241549 1.466460 0.014801 -0.004122 -661258.000000 0 0 1
10.537681 -32.145605 3.562041 34.015743 -1.254024 1.465887 0.019728 -0.007131 -278281.000000 0 0 1
9.984181 -32.038105 2.302241 33.636652 -1.268700 1.502298 0.021148 0.000012 -512505.000000 0 0 1
9.313081 -30.616905 2.132641 32.072987 -1.275508 1.504254 0.035993 -0.001110 -38269.300000 0 0 1
8.910581 -30.213005 0.851941 31.511108 -1.284002 1.543757 0.043007 0.003366 884221.000000 0 0 1
7.709981 -30.816605 0.327341 31.768130 -1.325640 1.560492 0.032351 -0.001470 382138.000000 0 0 1
8.117081 -31.363405 -1.046359 32.413655 -1.317546 1.603083 0.051691 -0.008525 906200.000000 0 0 1
9.198381 -32.328805 -0.938459 33.625028 -1.293596 1.598709 0.037793 -0.006754 502000.000000 0 0 1
9.391681 -33.038505 -2.130459 34.413447 -1.293837 1.632744 0.035793 0.005996 95227.400000 0 0 1
10.583481 -34.035905 -2.159859 35.708793 -1.269324 1.631319 0.008710 0.006157 -56300.000000 0 0 1
10.592881 34.356361 -1.122259 35.969823 1.271721 1.602001 -0.000576 0.003361 -468075.000000 0 0 1
11.704981 33.541061 -1.278459 35.547768 1.235035 1.606769 0.001984 0.002958 -542975.000000 0 0 1
11.799781 32.387761 -0.265459 34.471327 1.221414 1.578497 -0.005172 0.003883 -446456.000000 0 0 1
11.830581 32.780461 1.158741 34.869241 1.224441 1.537559 -0.000460 0.003308 165783.000000 0 0 1
12.940081 33.524861 1.625041 35.972250 1.202430 1.525606 0.001194 0.001016 241596.000000 0 0 1
14.306281 32.790061 1.803241 35.820517 1.159394 1.520434 0.021845 0.000445 -85706.000000 0 0 1
14.943681 32.633861 0.569741 35.897174 1.141376 1.554924 0.025931 -0.003319 -332267.000000 0 0 1
15.619181 31.392961 0.597641 35.068989 1.109121 1.553754 0.039164 -0.003089 -212841.000000 0 0 1
16.158681 30.912161 -0.767859 34.889171 1.089131 1.592807 0.046300 -0.003301 626152.000000 0 0 1
17.374481 31.567861 -1.153159 36.051799 1.067657 1.602788 0.031765 0.009810 367623.000000 0 0 1
17.159781 32.650261 -2.074359 36.943208 1.086908 1.626976 0.043367 0.001401 -292033.000000 0 0 1
18.447381 33.170561 -2.740659 38.053951 1.063254 1.642879 0.030605 0.006287 -161649.000000 0 0 1
19.088881 34.050361 -1.811859 39.078067 1.059846 1.617178 0.013387 0.013038 -285177.000000 0 0 1
20.120181 -34.683005 -2.540459 40.176939 -1.045125 1.634070 0.004492 0.016392 -1385260.000000 0 0 1
21.143881 -33.941305 -1.638259 40.021991 -1.013669 1.611742 0.001744 0.014748 250286.000000 0 0 1
22.108481 34.546661 -1.035359 41.028389 1.001512 1.596034 0.009192 0.009159 1276170.000000 0 0 1
22.868881 33.558661 -1.836659 40.651479 0.972622 1.615992 0.016194 0.013543 21605.800000 0 0 1
23.862381 34.105761 -2.917059 41.726795 0.960300 1.640762 0.001626 0.011461 -853874.000000 0 0 1
23.211081 -34.648405 -4.066859 41.902334 -0.980556 1.668005 0.012476 0.002397 655851.000000 0 0 1
24.060481 -33.803405 -4.883359 41.778273 -0.952210 1.687952 0.004371 0.003332 246432.000000 0 0 1
23.380581 -33.324405 -6.206959 41.178804 -0.958994 1.722105 0.002563 0.002251 27989.100000 0 0 1
22.281781 -32.465105 -5.985659 39.828243 -0.969304 1.721655 0.006088 -0.000013 184323.000000 0 0 1
21.734381 -32.137505 -7.271159 39.472424 -0.976159 1.756063 0.009334 -0.006593 -104219.000000 0 0 1
20.729181 -30.986305 -7.162459 37.962493 -0.981195 1.760606 0.016942 -0.010992 -516041.000000 0 0 1
19.560581 -31.205005 -6.449459 37.389359 -1.010874 1.744158 0.029089 -0.004494 -525210.000000 0 0 1
18.874281 -29.970305 -6.216659 35.959762 -1.008777 1.744547 0.027800 -0.011763 1081350.000000 0 0 1
17.634981 -30.092505 -5.254359 35.272648 -1.040715 1.720317 0.011298 0.003151 1220770.000000 0 0 1
16.416981 -30.696305 -5.653559 35.266742 -1.079683 1.731800 0.011470 -0.001211 311188.000000 0 0 1
15.354481 -30.351305 -4.777059 34.347956 -1.102446 1.710327 0.001828 0.006259 -94404.300000 0 0 1
14.107881 -31.193105 -4.851959 34.577212 -1.146052 1.711583 0.008962 -0.000270 -450889.000000 0 0 1
14.436781 -32.578805 -4.867559 35.965154 -1.153667 1.706554 0.003123 0.015136 51459.300000 0 0 1
13.211881 -33.269905 -5.025459 36.148245 -1.192782 1.710272 0.018881 0.013274 117149.000000 0 0 1
13.353881 34.555661 -5.273759 37.419679 1.202029 1.712203 0.014385 0.011723 -197281.000000 0 0 1
13.590281 33.795761 -4.070659 36.652687 1.188455 1.682086 0.014494 0.002990 130284.000000 0 0 1
14.048781 32.446461 -4.272759 35.614569 1.162183 1.691058 0.016879 0.006040 54513.100000 0 0 1
12.999481 31.455261 -4.821759 34.375417 1.178904 1.711528 0.019183 -0.002808 316975.000000 0 0 1
11.976881 30.994461 -3.930459 33.459689 1.202051 1.688537 0.006402 -0.005258 279333.000000 0 0 1
12.240181 29.787361 -3.204859 32.363251 1.180913 1.669987 0.010019 -0.005643 -24578.600000 0 0 1
10.938981 29.141161 -2.613459 31.236177 1.211693 1.654562 0.001501 -0.000038 551162.000000 0 0 1
10.295381 29.897561 -1.613859 31.661705 1.239159 1.621790 -0.005483 -0.005885 -28709.300000 0 0 1
9.410381 29.049461 -0.867159 30.547969 1.257520 1.599187 -0.016842 0.003887 -149666.000000 0 0 1
8.396581 29.842561 -0.059959 31.001365 1.296525 1.572730 -0.018208 0.009329 838774.000000 0 0 1
7.367081 28.977761 0.518841 29.904075 1.321838 1.553445 -0.024897 0.005936 297061.000000 0 0 1
6.201681 29.629461 0.876341 30.284217 1.364467 1.541855 -0.011797 0.015046 -120693.000000 0 0 1
5.087681 28.767461 1.559641 29.255492 1.395751 1.517460 -0.014513 0.014132 482854.000000 0 0 1
4.469181 27.928461 0.607741 28.290314 1.412119 1.549312 -0.016235 0.004804 -125908.000000 0 0 1
3.351081 27.293461 1.186541 27.524001 1.448628 1.527674 -0.010644 0.003933 233684.000000 0 0 1
2.736581 26.147761 0.305041 26.292344 1.466518 1.559194 -0.005260 0.001501 -589132.000000 0 0 1
1.571181 25.601761 0.799341 25.662380 1.509503 1.539643 -0.009142 -0.001786 -866327.000000 0 0 1
1.101981 24.725761 -0.128059 24.750637 1.526258 1.575970 -0.010748 0.002767 -702867.000000 0 1 0
-0.210619 23.998261 0.151141 23.999661 -1.562020 1.564499 -0.014968 0.007719 -569565.000000 0 1 0
-1.265319 24.917161 0.282941 24.950872 -1.520059 1.559456 -0.008745 0.000175 -278669.000000 0 1 0
-2.371719 24.178661 0.815841 24.308400 -1.473018 1.537228 -0.012277 0.009646 -79925.000000 0 1 0
-3.588319 25.085761 1.089141 25.364496 -1.428718 1.527844 0.001988 0.002037 -684243.000000 0 0 1
-4.676419 24.396561 1.719741 24.900173 -1.381410 1.501676 -0.004183 -0.002501 247928.000000 0 1 0
-5.764519 25.225061 2.002641 25.952725 -1.346131 1.493555 -0.010506 -0.000946 -44300.700000 0 0 1
-6.658419 25.759261 0.876841 26.620348 -1.317847 1.537852 -0.009381 0.004937 -753986.000000 0 0 1
-6.054419 26.855061 0.216341 27.529931 -1.349056 1.562938 -0.017438 0.000087 12379.600000 0 0 1
-6.728719 26.976761 -0.990859 27.820911 -1.326358 1.606419 -0.024189 0.004161 -255534.000000 0 0 1
-6.491719 28.277561 -1.740659 29.065319 -1.345135 1.630720 -0.015035 0.008482 269697.000000 0 0 1
-7.081319 29.462361 -1.196759 30.325040 -1.334919 1.610271 -0.003431 0.000018 50162.600000 0 0 1
-6.872919 30.481161 -2.149859 31.320282 -1.349024 1.639491 -0.007530 -0.000875 -139094.000000 0 0 1
-6.988219 31.953161 -1.629259 32.748957 -1.355484 1.620567 -0.005513 -0.003383 -538850.000000 0 0 1
-7.154819 32.972761 -2.587359 33.839161 -1.357117 1.647332 -0.003411 -0.001175 633842.000000 0 0 1
-6.046619 33.167261 -3.500859 33.895203 -1.390470 1.674266 -0.011066 -0.000086 -29098.800000 0 0 1
-4.812319 33.828061 -2.948159 34.295594 -1.429486 1.656866 -0.016102 -0.002323 -1196690.000000 0 0 1
-4.805419 -34.191705 -3.149959 34.671126 1.431167 1.661774 -0.011839 -0.000590 215870.000000 0 0 1
-3.782219 -33.584005 -2.373259 33.879535 1.458649 1.640904 -0.014611 0.002304 240358.000000 0 0 1
-3.929219 -32.062705 -2.441359 32.394691 1.448856 1.646231 -0.010605 -0.001496 -167580.000000 0 0 1
-5.008919 -31.640405 -1.662359 32.077530 1.413792 1.622643 -0.015591 -0.001856 -358067.000000 0 0 1
-5.437719 -30.309005 -1.915259 30.852435 1.393276 1.632914 -0.008767 0.007212 -99904.700000 0 0 1
-6.792319 -29.873105 -1.336859 30.664722 1.347225 1.614406 0.007533 0.005538 -57025.500000 0 0 1
-6.815119 -29.550105 0.019941 30.325813 1.344130 1.570139 -0.006206 0.007973 -479275.000000 0 0 1
-7.952119 -28.809005 0.355641 29.888483 1.301474 1.558897 -0.013153 0.007962 -385044.000000 0 0 1
-7.883519 -28.266705 1.797841 29.400488 1.298810 1.509608 -0.005269 0.010099 173692.000000 0 0 1
-7.018619 -27.157105 1.967641 28.118339 1.317885 1.500762 0.007750 0.008713 -148750.000000 0 0 1
-7.095519 -26.670905 3.276541 27.792432 1.310779 1.452628 0.004695 0.006693 294326.000000 0 0 1
-8.225819 -25.621905 3.550241 27.143145 1.260145 1.439624 -0.001132 0.011364 284298.000000 0 0 1
-7.859219 -24.355605 3.193141 25.790676 1.258659 1.446668 0.007330 0.008311 -186749.000000 0 0 1
-8.722119 -23.307805 3.688741 25.158218 1.212714 1.423644 0.008793 0.005990 503503.000000 0 0 1
-8.002319 -21.896705 3.829641 23.625599 1.220418 1.407981 0.002955 0.005608 807269.000000 0 1 0
-7.030219 -21.910305 4.887341 23.523850 1.260310 1.361511 -0.004577 0.002895 -170494.000000 0 1 0
-6.520119 -20.651805 5.219741 22.276775 1.264984 1.334284 -0.006312 0.002248 212301.000000 0 1 0
-7.462719 -19.572405 5.931241 21.770412 1.206525 1.294863 -0.000368 -0.001056 383578.000000 0 1 0
-7.889519 -19.874905 7.207041 22.565411 1.192914 1.245716 0.000020 -0.000946 245051.000000 0 1 0
-8.898719 -18.984705 7.684041 22.330488 1.132475 1.219511 0.003227 -0.006930 -128690.000000 0 1 0
-26.307029 29.254761 -5.608659 39.741136 -0.838402 1.712399 0.031311 0.001816 -175529.000000 0 0 1
-25.686359 30.196061 -4.799759 39.932804 -0.865923 1.691284 0.022550 -0.009982 -758645.000000 0 0 1
-24.445419 29.745061 -4.353559 38.746621 -0.882885 1.683394 0.010029 -0.001502 938.554000 0 0 1
-23.625819 30.717061 -3.415959 38.902261 -0.915156 1.658718 0.008554 -0.017944 69968.300000 0 0 1
-24.156019 30.849861 -2.117159 39.239133 -0.906496 1.624778 0.007719 -0.025744 -233661.000000 0 0 1
-23.487919 31.776661 -1.347559 39.538013 -0.934271 1.604886 0.017216 -0.031554 -370808.000000 0 0 1
-22.202119 31.349061 -0.625359 38.419901 -0.954573 1.587074 0.011716 -0.028821 25755.000000 0 0 1
-21.148219 31.152361 -1.551059 37.684513 -0.974397 1.611967 0.009866 -0.024530 386891.000000 0 0 1
-19.885619 30.999661 -0.883959 36.840171 -1.000435 1.594793 0.002695 -0.020746 352037.000000 0 0 1
-18.762119 30.448561 -1.756659 35.808069 -1.018557 1.619874 0.019069 -0.015154 -578433.000000 0 0 1
-17.603719 30.235561 -1.011259 35.001467 -1.043554 1.599692 0.015380 -0.007982 393694.000000 0 0 1
-16.546919 29.553661 -1.768859 33.916784 -1.060389 1.622973 0.014452 -0.006216 1438110.000000 0 0 1
-15.128319 29.779561 -1.160059 33.422059 -1.100761 1.605513 0.015119 -0.002983 329646.000000 0 0 1
-15.010719 29.227161 0.137341 32.856772 -1.096338 1.566616 0.011529 -0.007343 76137.300000 0 0 1
-13.995819 29.928861 0.852041 33.050653 -1.133373 1.545014 0.010328 -0.003599 204536.000000 0 0 1
-13.569119 29.254861 2.154041 32.320393 -1.136506 1.504100 0.007349 -0.003402 -483457.000000 0 0 1
-14.501919 29.326961 3.194241 32.872169 -1.111566 1.473471 -0.014750 0.004305 -569727.000000 0 0 1
-14.161319 28.655661 4.392841 32.264329 -1.111808 1.434220 -0.010586 -0.003355 780457.000000 0 0 1
-12.950419 29.259061 5.243541 32.423768 -1.154103 1.408364 0.006503 -0.000515 772618.000000 0 0 1
-13.137419 30.470861 6.026041 33.725040 -1.163731 1.391150 -0.007848 -0.010832 -399834.000000 0 0 1
-13.245319 31.656261 5.262041 34.716659 -1.174520 1.418639 -0.010116 0.000357 15523.100000 0 0 1
-12.713019 32.932361 5.959941 35.800589 -1.202387 1.403542 -0.000136 -0.001723 464895.000000 0 0 1
-13.695819 33.454961 6.885841 36.799792 -1.182229 1.382571 -0.001723 0.000082 623762.000000 0 0 1
-13.308019 34.602061 7.599941 37.843957 -1.203634 1.368598 0.020849 -0.007829 -368005.000000 0 0 1
-14.506519 -34.317605 8.398841 38.192638 1.170864 1.349077 0.006510 -0.005141 -252896.000000 0 0 1
-14.778519 34.251761 9.563741 38.510426 -1.163460 1.319828 -0.007981 -0.005284 -39889.100000 0 0 1
-16.005319 34.473361 10.220841 39.357953 -1.136130 1.308096 0.007967 -0.009541 -474193.000000 0 0 1
-16.164019 33.665661 11.591141 39.102517 -1.123168 1.269844 0.003817 -0.006363 563408.000000 0 0 1
-15.349319 34.121661 12.709441 39.514798 -1.148075 1.243338 0.009770 -0.007237 464615.000000 0 0 1
-13.993619 33.732461 12.603841 38.633627 -1.177562 1.238473 0.009467 -0.003708 -915917.000000 0 0 1
-13.178619 33.948861 13.832341 38.955549 -1.200512 1.207797 0.036070 -0.000144 -715285.000000 0 0 1
-13.362519 33.035261 14.930941 38.637008 -1.186423 1.174026 0.024269 -0.000420 21349.800000 0 0 1
-12.632419 31.840761 14.745241 37.293890 -1.193106 1.164315 0.007405 0.003549 -331705.000000 0 0 1
-13.352319 30.608861 14.098441 36.248487 -1.159457 1.171317 0.000053 -0.006947 -71751.700000 0 0 1
-13.410719 30.736261 12.686841 35.854164 -1.159380 1.209117 -0.005550 -0.006120 416596.000000 0 0 1
-14.482519 29.974061 12.136941 35.432937 -1.120704 1.221185 -0.014175 -0.005489 217485.000000 0 0 1
-14.540019 29.936761 10.611541 34.931742 -1.118661 1.262139 -0.007193 -0.000495 -167433.000000 0 0 1
-13.655419 28.957861 10.108241 33.573870 -1.130157 1.264977 -0.010600 -0.000981 36030.800000 0 0 1
-13.879119 28.585761 8.794741 32.971551 -1.118795 1.300790 -0.010065 0.005834 -279991.000000 0 0 1
-13.232519 27.193961 8.428241 31.395005 -1.117928 1.299004 0.000865 0.006989 334476.000000 0 0 1
-11.882619 27.288461 8.021441 30.825318 -1.160112 1.307544 0.003301 0.002657 71724.900000 0 0 1
-11.352619 26.058961 7.674341 29.442264 -1.159939 1.307093 0.013205 -0.002769 251228.000000 0 0 1
-10.121819 26.218961 6.731441 28.899783 -1.202374 1.335713 0.023019 -0.008450 145480.000000 0 0 1
-10.513519 26.515261 5.405841 29.031298 -1.193304 1.383496 0.020518 -0.009217 571056.000000 0 0 1
-9.432319 26.337361 4.492941 28.333933 -1.226893 1.411553 0.028655 0.002336 102558.000000 0 0 1
-9.713819 26.694561 3.029141 28.568051 -1.221803 1.464564 0.019034 0.000563 -152334.000000 0 0 1
-9.796719 28.020261 2.767741 29.812265 -1.234451 1.477823 0.019512 0.003636 124653.000000 0 0 1
-9.864519 28.387161 1.399841 30.084867 -1.236351 1.524250 0.010375 0.001192 -94958.900000 0 0 1
-9.525019 29.876761 1.225141 31.382285 -1.262173 1.531747 0.026238 -0.000219 -83878.900000 0 0 1
-10.445919 30.803461 1.725641 32.572201 -1.243851 1.517793 0.022583 -0.005476 -337461.000000 0 0 1
-10.003219 32.144261 1.512741 33.698758 -1.269098 1.525891 0.023710 0.002012 -14483.000000 0 0 1
-10.587219 33.362861 2.329741 35.079872 -1.263512 1.504335 0.015317 0.008125 267973.000000 0 0 1
-11.873419 33.809961 1.928741 35.886092 -1.233070 1.517024 0.009442 0.011429 -1730.320000 0 0 1
-11.868819 34.656261 0.824741 36.641581 -1.240843 1.548286 0.004550 0.001693 -862856.000000 0 0 1
-13.257219 -34.249405 0.434941 36.728256 1.201478 1.558954 0.009175 -0.001451 -544570.000000 0 0 1
-14.004619 34.187461 -0.330459 36.946191 -1.182006 1.579741 0.008832 -0.004446 -151849.000000 0 0 1
-13.903619 34.250461 -1.719459 37.004881 -1.185180 1.617279 0.012964 -0.008195 136038.000000 0 0 1
-12.572119 33.974461 -2.495659 36.311851 -1.216376 1.639579 0.009440 -0.007731 268309.000000 0 0 1
-12.276819 32.613561 -2.640559 34.947635 -1.210770 1.646426 0.003841 -0.002732 251620.000000 0 0 1
-10.917019 32.413261 -3.023559 34.335735 -1.245923 1.658969 -0.005300 0.004164 520487.000000 0 0 1
-10.453819 30.929361 -3.023259 32.787922 -1.244861 1.663134 -0.015213 -0.007951 -158398.000000 0 0 1
-10.819119 30.165661 -4.152059 32.315012 -1.226430 1.699639 -0.011319 -0.004271 839681.000000 0 0 1
-9.657319 29.913561 -5.004259 31.829665 -1.258519 1.728671 -0.016826 0.000986 851517.000000 0 0 1
-10.036619 29.131661 -6.352959 31.460252 -1.239006 1.774131 -0.005819 -0.002853 -281502.000000 0 0 1
-10.649419 27.891861 -6.238759 30.500625 -1.206068 1.776795 -0.000237 0.005744 -40282.600000 0 0 1
-10.488119 27.198361 -7.519759 30.104788 -1.202751 1.823256 -0.001215 0.008397 -169577.000000 0 0 1
-11.032619 25.743461 -7.547559 29.007070 -1.165914 1.834023 0.019475 0.000744 -51815.600000 0 0 1
-10.298619 24.884461 -6.728359 27.759120 -1.178401 1.815618 -0.009491 0.003764 -197693.000000 0 0 1
-10.801619 23.592161 -6.807159 26.825407 -1.141435 1.827360 0.024296 -0.006754 -258699.000000 0 0 1
-10.108419 22.549361 -5.881759 25.401750 -1.149374 1.804466 0.008857 -0.004117 -178321.000000 0 0 1
-8.754019 22.371761 -6.249359 24.823034 -1.197814 1.825291 0.012101 -0.007838 83897.400000 0 1 0
-8.036119 21.304761 -5.668059 23.464845 -1.210100 1.814765 0.021141 -0.001610 -217453.000000 0 1 0
-7.911619 21.179361 -4.101259 22.977802 -1.213295 1.750246 0.010137 -0.008626 134405.000000 0 1 0
-9.101619 20.988561 -3.301059 23.113982 -1.161625 1.714103 0.010040 -0.010663 579771.000000 0 1 0
-9.683419 19.698161 -3.429859 22.215987 -1.113899 1.725803 0.016103 -0.013533 510764.000000 0 1 0
-11.049819 19.542761 -2.671259 22.608707 -1.056193 1.689225 0.025831 -0.020007 543481.000000 0 1 0
-10.960019 19.617461 -1.222659 22.504704 -1.061308 1.625152 0.018072 -0.018823 86729.400000 0 1 0
-10.798619 18.310161 -0.697559 21.268727 -1.037940 1.603600 0.026702 -0.024933 -612424.000000 0 1 0
-10.558119 18.316861 0.854541 21.159195 -1.047899 1.530399 0.014170 -0.020456 8077.790000 0 1 0
-11.760919 18.551161 1.566141 22.020844 -1.005771 1.499615 0.022502 -0.014584 237074.000000 0 1 0
-11.533219 18.498261 2.940541 21.996536 -1.013294 1.436713 0.014413 -0.015985 363701.000000 0 1 0
-12.802619 18.527461 3.873741 22.851252 -0.966131 1.400454 0.014790 -0.013255 563099.000000 0 1 0
-13.384619 17.255661 4.103041 22.220279 -0.911071 1.385078 0.001520 -0.006751 191805.000000 0 1 0
-14.540719 17.408961 4.895541 23.204973 -0.874932 1.358230 -0.001117 -0.005673 -60966.600000 0 1 0
-15.143919 16.067961 5.455541 22.743803 -0.814995 1.328565 -0.009714 0.001946 -375626.000000 0 1 0
-14.325419 15.495861 6.461841 22.070223 -0.824627 1.273658 -0.011018 0.001019 407172.000000 0 1 0
-14.796119 15.788461 7.798241 23.000287 -0.817833 1.224890 -0.014325 0.005439 -203896.000000 0 1 0
-13.648819 15.508661 8.861041 22.479477 -0.849098 1.165617 -0.029852 0.007009 819305.000000 0 1 0
-12.550519 16.378461 8.791041 22.428819 -0.916956 1.168043 -0.019764 0.002406 60245.600000 0 1 0
-11.649919 16.110861 7.696941 21.319553 -0.944728 1.201427 -0.017464 -0.001658 -1105340.000000 0 1 0
-10.675019 17.256561 7.549241 21.650311 -1.016808 1.214624 -0.001139 -0.010174 287297.000000 0 1 0
-9.610119 17.175261 8.539941 21.454011 -1.060664 1.161397 0.015474 -0.009488 713264.000000 0 1 0
-8.894019 18.398261 8.566941 22.158341 -1.120503 1.173828 0.016970 -0.010998 -394926.000000 0 1 0
-7.612819 18.421961 9.388541 22.033347 -1.178923 1.130612 0.019161 -0.011105 -1339340.000000 0 1 0
-6.599519 17.589661 8.876441 20.778379 -1.211856 1.129407 0.010940 -0.009922 37100.400000 0 1 0
-5.391419 17.924661 9.581041 21.027535 -1.278622 1.097702 0.012047 -0.006451 485797.000000 0 1 0
-4.573819 19.018361 8.865841 21.476057 -1.334783 1.145243 0.015425 -0.009169 -1702180.000000 0 1 0
-5.005619 20.361661 9.067641 22.844596 -1.329741 1.162630 0.023800 -0.013398 157276.000000 0 1 0
-4.369119 21.253461 8.157741 23.180758 -1.368049 1.211176 0.024535 -0.021444 250105.000000 0 1 0
-2.987519 21.894661 8.465941 23.663762 -1.435184 1.204929 0.020971 -0.011590 -164352.000000 0 1 0
-1.933219 20.971861 8.488141 22.706934 -1.478875 1.187680 0.005533 0.005887 69891.300000 0 1 0
-0.721019 21.707561 8.218141 23.222315 -1.537593 1.209070 0.000344 0.006475 824156.000000 0 1 0
0.507681 20.772961 8.072041 22.291961 1.546362 1.200271 -0.002761 0.013932 232341.000000 0 1 0
0.980481 20.250061 9.281841 22.297509 1.522415 1.141454 -0.004094 0.012738 -46369.200000 0 1 0
2.310781 19.777661 9.105841 21.895477 1.454486 1.141889 -0.005180 0.007584 727499.000000 0 1 0
3.114681 19.433761 10.430841 22.274981 1.411876 1.083458 -0.012107 -0.002777 -261593.000000 0 1 0
3.345381 18.075761 10.760241 21.300411 1.387792 1.041222 -0.003371 -0.003167 167515.000000 0 1 0
4.009481 18.006061 12.012341 22.013417 1.351697 0.993593 -0.010317 0.001584 89931.100000 0 1 0
5.525181 18.270361 12.053341 22.574693 1.277128 1.007553 0.008699 -0.002747 -329473.000000 0 1 0
6.382681 17.392561 11.281241 21.691155 1.219077 1.023846 -0.003736 -0.005885 340878.000000 0 1 0
7.390681 17.001061 12.205141 22.195128 1.160723 0.988550 0.005836 0.003619 -773479.000000 0 1 0
8.584881 16.257561 11.613341 21.745762 1.084958 1.007412 -0.000028 -0.003823 -305955.000000 0 1 0
9.512881 17.142661 11.039341 22.499618 1.064180 1.057966 0.011888 -0.022366 -494170.000000 0 1 0
10.638681 16.449061 10.576241 22.262301 0.996698 1.075748 0.021054 -0.025300 -56832.000000 0 1 0
11.727581 17.353161 9.972041 23.197197 0.976485 1.126435 0.022820 -0.020053 153336.000000 0 1 0
12.663181 16.783561 9.061441 22.894405 0.924422 1.163865 0.021645 -0.021617 326777.000000 0 1 0
13.437981 17.875761 8.487641 23.919913 0.926181 1.208058 0.023734 -0.006879 157399.000000 0 1 0
14.545481 17.358261 7.559741 23.875300 0.873335 1.248617 0.014649 -0.009072 -373239.000000 0 1 0
15.698281 16.938761 8.252541 24.524724 0.823388 1.227600 0.029043 -0.011362 -871797.000000 0 1 0
16.722681 16.795261 7.355041 24.815832 0.787564 1.269891 0.042498 -0.004639 -107600.000000 0 1 0
18.124081 16.590561 8.043341 25.853904 0.741252 1.254438 0.036113 -0.010134 505985.000000 0 0 1
18.300681 15.343961 8.622941 25.391085 0.697742 1.224299 0.035116 -0.013900 -71009.300000 0 0 1
19.392681 15.424461 9.492841 26.534960 0.671915 1.204941 0.036632 -0.012060 -310190.000000 0 0 1
19.757781 14.138261 10.307641 26.391434 0.621106 1.169548 0.032245 -0.019781 -160305.000000 0 0 1
20.427281 13.172061 9.552041 26.115484 0.572730 1.196345 0.038541 -0.025099 223210.000000 0 0 1
20.418581 12.008261 10.402341 25.871326 0.531627 1.157009 0.034899 -0.025915 -497745.000000 0 0 1
21.340581 10.865261 9.977341 25.942661 0.470930 1.176030 0.034121 -0.018054 -124008.000000 0 0 1
22.711681 11.171861 10.293841 27.323874 0.457146 1.184528 0.023270 -0.021355 1044990.000000 0 0 1
23.618881 10.354461 9.607441 27.520344 0.413164 1.214182 0.040167 -0.020263 -389778.000000 0 0 1
23.799981 8.866061 10.116541 27.338445 0.356598 1.191735 0.047665 -0.026520 -1038250.000000 0 0 1
22.709381 8.043561 9.842741 26.024881 0.340408 1.182940 0.044213 -0.018361 -65591.000000 0 0 1
22.763181 6.753561 10.433341 25.935065 0.288415 1.156783 0.042168 -0.015806 -57706.700000 0 0 1
23.760381 5.894161 9.590941 26.292261 0.243158 1.197398 0.045968 -0.016278 203689.000000 0 0 1
23.387381 5.755761 8.198341 25.442311 0.241310 1.242709 0.053503 -0.011985 146983.000000 0 0 1
24.418981 5.331361 7.346141 26.051408 0.214955 1.284932 0.037402 -0.009241 -391207.000000 0 0 1
23.975481 5.200661 5.866541 25.224728 0.213607 1.336076 0.029511 -0.011866 -195985.000000 0 0 1
23.140781 4.053261 5.731841 24.182198 0.173398 1.331492 0.031260 -0.007272 589355.000000 0 1 0
23.088281 3.722961 4.364741 23.790337 0.159873 1.386284 0.032174 -0.004784 -388571.000000 0 1 0
22.201081 2.516661 4.107641 22.717709 0.112876 1.388984 0.031428 -0.001818 -425774.000000 0 1 0
22.747681 1.292761 4.539641 23.232231 0.056769 1.374128 0.028470 0.000217 545348.000000 0 1 0
21.990281 0.215161 3.922841 22.338475 0.009784 1.394272 0.020132 0.004983 128324.000000 0 1 0
22.466381 -1.175439 4.395141 22.922417 -0.052272 1.377862 0.015425 0.002936 -882278.000000 0 1 0
22.162981 -1.599539 5.679441 22.934958 -0.072047 1.320560 0.005481 -0.000346 592971.000000 0 1 0
22.280781 -3.008639 5.769241 23.211404 -0.134221 1.319611 -0.002805 0.000686 -824178.000000 0 1 0
21.753381 -3.502639 7.131541 23.158950 -0.159646 1.257770 0.000114 -0.001138 -348990.000000 0 1 0
21.834781 -4.851439 7.423341 23.566929 -0.218637 1.250350 -0.004848 -0.002745 618491.000000 0 1 0
21.370881 -5.091539 8.757641 23.650256 -0.233886 1.191467 -0.011989 -0.003311 10045.100000 0 1 0
21.476881 -6.530239 9.196141 24.258389 -0.295176 1.181982 -0.004628 -0.009414 244047.000000 0 1 0
20.614481 -7.409039 8.468441 23.485425 -0.345033 1.201904 0.018083 -0.009274 390335.000000 0 1 0
20.415381 -8.641939 9.127741 23.974707 -0.400434 1.180217 0.015849 -0.004216 -118581.000000 0 1 0
-25.384169 -33.015805 5.032341 41.949063 0.915341 1.450544 0.018451 -0.016268 124855.000000 0 0 1
-25.953029 -34.121105 5.746141 43.253065 0.920536 1.437553 0.023811 -0.019587 241981.000000 0 0 1
-25.925609 -33.879505 7.210241 43.265987 0.917619 1.403366 0.020449 0.005284 -277453.000000 0 0 1
-26.576609 34.333961 7.970941 44.143776 -0.912073 1.389233 0.024287 0.010893 220941.000000 0 0 1
-27.959329 34.210961 7.670641 44.843647 -0.885618 1.398898 0.032080 -0.006943 104069.000000 0 0 1
-28.508839 32.942561 7.975941 44.289749 -0.857423 1.389723 0.037435 -0.005920 83946.200000 0 0 1
-30.048309 32.835161 7.986241 45.219782 -0.829687 1.393256 0.042079 -0.008646 -45755.400000 0 0 1
-30.690779 32.999561 6.758341 45.569399 -0.821632 1.421938 0.021165 -0.004043 510231.000000 0 0 1
-32.102469 32.917061 7.033841 46.514260 -0.797926 1.418995 0.008692 -0.002105 839602.000000 0 0 1
-32.972969 32.890261 5.767741 46.928166 -0.784142 1.447579 0.001968 0.006508 -263082.000000 0 0 1
-32.618059 31.731361 5.102441 45.791396 -0.771620 1.459136 -0.002315 0.007426 320557.000000 0 0 1
-33.087829 31.742561 3.762441 46.005984 -0.764651 1.488923 0.004211 0.010776 -26035.700000 0 0 1
-32.553569 30.509861 2.911841 44.710908 -0.753002 1.505624 0.003028 0.013324 -97936.900000 0 0 1
-32.886159 29.251161 3.562041 44.156744 -0.726965 1.490040 0.011849 0.007460 601970.000000 0 0 1
-32.466689 28.086661 2.758841 43.018108 -0.713191 1.506620 -0.004331 0.009514 -152873.000000 0 0 1
-32.965049 26.739361 3.335741 42.577166 -0.681498 1.492370 0.008365 0.007267 573523.000000 0 0 1
-34.374440 26.500561 3.150241 43.517880 -0.656767 1.498343 0.017693 0.007906 799642.000000 0 0 1
-34.866899 25.703761 4.228741 43.523169 -0.635256 1.473482 0.020275 0.006787 449386.000000 0 0 1
33.610261 25.126861 3.842741 42.139951 0.641960 1.479479 0.036303 0.004036 -7466.900000 0 0 1
33.520421 24.146561 2.850041 41.410117 0.624256 1.501917 0.015173 -0.007287 38869.500000 0 0 1
33.930226 22.822761 3.187741 41.015855 0.592125 1.492998 0.013888 -0.007152 -566324.000000 0 0 1
33.400131 21.645461 2.335541 39.869155 0.575014 1.512183 0.003660 -0.009919 -145288.000000 0 0 1
32.012661 21.404261 2.438741 38.586271 0.589353 1.507552 0.010245 -0.020678 241347.000000 0 0 1
31.568441 20.647461 3.551441 37.887951 0.579220 1.476923 0.003231 -0.011601 -319742.000000 0 0 1
31.877571 19.178361 3.517141 37.367892 0.541614 1.476535 0.005559 -0.015864 -520260.000000 0 0 1
31.100631 18.583761 2.492241 36.315516 0.538606 1.502115 0.013376 -0.026789 365287.000000 0 0 1
31.299841 17.225361 2.281941 35.799447 0.503099 1.507011 0.001090 -0.016757 -400080.000000 0 0 1
30.483221 16.201261 3.148041 34.664359 0.488514 1.479856 0.014533 -0.014317 808464.000000 0 0 1
29.061881 16.349061 2.958041 33.475883 0.512435 1.482318 0.015524 -0.013941 858573.000000 0 0 1
28.350461 15.392661 3.723041 32.473739 0.497408 1.455896 0.009566 -0.011653 -1139670.000000 0 0 1
26.864741 15.589661 3.683841 31.278148 0.525810 1.452745 -0.001038 -0.009286 -1299630.000000 0 0 1
26.251611 15.197661 2.466541 30.433531 0.524778 1.489661 0.010227 -0.009514 293437.000000 0 0 1
24.839711 15.299261 2.621741 29.290821 0.552043 1.481169 0.002253 -0.002024 -92542.100000 0 0 1
24.247301 14.761161 1.334441 28.418378 0.546847 1.523822 0.004697 -0.004909 -871181.000000 0 0 1
24.633101 15.439561 0.176041 29.072336 0.559879 1.564741 0.019366 -0.011390 302946.000000 0 0 1
25.845461 14.916261 -0.344059 29.842940 0.523436 1.582326 0.022129 -0.004839 -816001.000000 0 0 1
26.442141 15.741061 -1.575359 30.813140 0.536958 1.621945 0.031307 -0.005338 167110.000000 0 0 1
27.021131 16.994261 -1.329559 31.948618 0.561417 1.612424 0.035393 -0.020764 23587.200000 0 0 1
27.959061 17.023861 -0.300659 32.735475 0.546927 1.579981 0.027269 -0.016652 -1084840.000000 0 0 1
28.813751 18.305661 -0.227759 34.137682 0.565979 1.577468 0.045985 -0.011719 996737.000000 0 0 1
29.955071 18.361761 -1.139859 35.153376 0.549907 1.603227 0.012042 -0.005744 1310350.000000 0 0 1
30.709801 19.557161 -1.130859 36.425997 0.567067 1.601847 0.012952 0.005043 245457.000000 0 0 1
30.026711 20.666161 -2.022759 36.507330 0.602803 1.626232 0.015585 0.005135 110770.000000 0 0 1
30.920481 21.675761 -2.465959 37.841719 0.611408 1.636008 -0.037857 0.011884 387662.000000 0 0 1
30.273261 22.752761 -3.141259 38.000342 0.644511 1.653555 0.000766 0.008123 -278090.000000 0 0 1
31.218031 23.948261 -3.351159 39.488162 0.654374 1.655763 -0.024540 0.019120 -202474.000000 0 0 1
31.410151 24.732361 -2.159959 40.036892 0.667011 1.624772 -0.007236 0.021701 142793.000000 0 0 1
32.455451 24.306061 -1.320959 40.569519 0.642800 1.603362 -0.001132 0.026729 -462512.000000 0 0 1
32.461721 25.193161 -0.064459 41.090910 0.659990 1.572365 0.001104 0.007041 -231275.000000 0 0 1
32.948961 26.472361 -0.325159 42.267312 0.676832 1.578489 0.025819 0.008819 -460543.000000 0 0 1
33.847035 26.867461 0.657341 43.219375 0.670943 1.555586 0.016504 0.004988 -416693.000000 0 0 1
34.512836 28.220561 0.258241 44.582537 0.685431 1.565004 0.003255 0.008523 -171204.000000 0 0 1
-34.770373 28.196861 -1.014659 44.778023 -0.681379 1.593458 -0.013246 0.008548 -307481.000000 0 0 1
34.179836 28.436861 -2.038559 44.509235 0.693938 1.616613 -0.013904 0.005656 -392674.000000 0 0 1
34.581279 27.888461 -3.411659 44.556375 0.678668 1.647441 -0.018745 0.007789 74361.200000 0 0 1
-34.374481 28.650861 -4.175359 44.943413 -0.694832 1.663833 -0.016316 0.009221 15304.700000 0 0 1
-34.102287 28.096761 -5.496559 44.526465 -0.689143 1.694557 -0.020187 0.002675 446043.000000 0 0 1
34.652266 28.108161 -6.627059 45.108383 0.681502 1.718244 -0.027978 0.006849 -405191.000000 0 0 1
33.545091 27.382661 -6.283859 43.755801 0.684598 1.714907 -0.029435 0.013037 -1417390.000000 0 0 1
32.527071 27.670461 -7.236559 43.313191 0.704895 1.738659 -0.032153 0.010666 -214980.000000 0 0 1
31.467801 26.603961 -6.935159 41.786238 0.701838 1.737535 -0.037399 0.016835 -736062.000000 0 0 1
31.699141 25.290461 -7.473459 41.234640 0.673415 1.753046 -0.038555 0.015348 -502921.000000 0 0 1
32.629611 24.537961 -6.766959 41.383509 0.644790 1.735052 -0.037996 0.017792 -224481.000000 0 0 1
32.632631 23.068661 -7.261759 40.617544 0.615355 1.750547 -0.037665 0.023540 321157.000000 0 0 1
31.708151 22.273861 -6.501959 39.291312 0.612378 1.737042 -0.031973 0.021574 395588.000000 0 0 1
31.903751 20.887161 -6.677759 38.713244 0.579667 1.744156 -0.012506 0.009275 358556.000000 0 0 1
30.779591 19.986361 -6.023859 37.190385 0.575910 1.733487 -0.003128 0.009386 1178050.000000 0 0 1
29.618901 19.856161 -6.859559 36.312532 0.590575 1.760842 -0.001827 0.000805 -86966.300000 0 0 1
28.548271 19.304961 -6.179859 35.012512 0.594589 1.748230 0.035063 -0.011058 -372893.000000 0 0 1
27.325441 18.957861 -7.069259 34.000804 0.606540 1.780239 0.034309 -0.013596 93152.500000 0 0 1
27.380581 17.792261 -7.845959 33.583029 0.576244 1.806604 0.033981 -0.011729 -94503.900000 0 0 1
26.271281 17.833061 -8.716359 32.926785 0.596359 1.838709 0.039614 -0.010685 -71515.800000 0 0 1
26.242931 16.604361 -9.702259 32.535059 0.564130 1.873612 0.033148 -0.013768 -311325.000000 0 0 1
25.337111 16.649561 -10.759459 32.170531 0.581365 1.911819 0.011158 -0.012954 -66730.600000 0 0 1
25.599221 15.559661 -11.526359 32.097977 0.546148 1.938099 0.009448 -0.002604 -32616.200000 0 0 1
24.887351 15.731361 -12.895359 32.142592 0.563691 1.983614 0.012245 0.002022 -920815.000000 0 0 1
23.512401 15.574161 -12.840459 30.988141 0.585030 1.998043 0.014908 0.006459 -783299.000000 0 0 1
22.935001 15.666561 -14.112859 31.154906 0.599283 2.040913 0.007119 0.008587 -575591.000000 0 0 1
22.774001 14.383561 -15.028859 30.844911 0.563316 2.079722 0.008433 0.003382 -244916.000000 0 0 1
23.956701 13.700561 -15.437959 31.622136 0.519493 2.080824 0.021056 -0.002295 300949.000000 0 0 1
24.530901 14.287261 -16.581959 32.876318 0.527392 2.099453 0.037075 -0.011677 -276089.000000 0 0 1
25.945331 13.819861 -16.984759 33.950417 0.489428 2.094720 0.054666 -0.007590 114743.000000 0 0 1
26.003381 12.451661 -17.470359 33.711024 0.446583 2.115587 0.056992 -0.006770 -595055.000000 0 0 1
27.328621 12.273761 -17.849059 34.872448 0.422120 2.108120 0.055056 0.001813 -543642.000000 0 0 1
27.506621 10.873161 -18.463659 34.867557 0.376442 2.128851 0.021824 0.003422 -592726.000000 0 0 1
26.904741 10.616361 -19.712759 35.002358 0.375835 2.169030 0.037838 -0.008784 -163141.000000 0 0 1
27.028001 9.315761 -20.195059 35.001952 0.331919 2.185810 0.012503 -0.000282 426319.000000 0 0 1
28.453721 8.994461 -20.752459 36.348028 0.306169 2.178444 0.005841 0.001316 -304369.000000 0 0 1
28.808801 9.787361 -21.878159 37.475236 0.327501 2.194201 0.009509 -0.002587 195598.000000 0 0 1
29.375961 8.973161 -22.916259 38.322573 0.296458 2.211779 -0.008459 0.002200 213210.000000 0 0 1
30.881791 8.689661 -22.679859 39.288309 0.274292 2.186175 -0.015958 0.004693 -382240.000000 0 0 1
31.781291 9.739261 -22.958059 40.397724 0.297360 2.175236 -0.020899 0.010584 148477.000000 0 0 1
33.102591 9.218661 -23.090859 41.399916 0.271606 2.162470 -0.047436 0.018441 158928.000000 0 0 1
34.085346 10.403361 -23.009859 42.420447 0.296234 2.144116 -0.024831 0.015274 -480881.000000 0 0 1
34.149031 10.865461 -21.702859 41.895449 0.308049 2.115336 -0.040264 0.014780 169693.000000 0 0 1
34.779721 12.140161 -21.643459 42.725307 0.335836 2.102001 -0.058661 0.017663 -154107.000000 0 0 1
34.424135 12.860261 -20.319659 41.991617 0.357528 2.075900 -0.069414 0.025795 -267205.000000 0 0 1
-34.878767 12.224561 -19.211359 41.653866 -0.337109 2.050160 -0.054212 0.026606 285113.000000 0 0 1
34.635187 12.948961 -18.050459 41.147185 0.357777 2.024926 -0.041024 0.023754 -239532.000000 0 0 1
-34.783331 12.275361 -16.723659 40.499943 -0.339264 1.996466 -0.047858 0.021185 39880.800000 0 0 1
34.272161 11.143561 -16.376259 39.584616 0.314367 1.997314 -0.050302 0.014381 402787.000000 0 0 1
-34.903660 10.297061 -15.498959 39.553921 -0.286876 1.973431 -0.045591 0.005225 -65353.000000 0 0 1
34.352071 8.895061 -15.231059 38.615697 0.253373 1.976240 -0.009442 0.017563 -23161.600000 0 0 1
33.202921 8.914661 -14.405759 37.275073 0.262304 1.967599 -0.003215 0.013374 338373.000000 0 0 1
33.418461 8.518961 -13.083959 36.885718 0.249602 1.933407 -0.007136 0.014901 -331893.000000 0 0 1
32.272141 8.909061 -12.122959 35.606581 0.269352 1.918213 0.000545 0.009885 -137940.000000 0 0 1
32.369361 10.298361 -11.916959 35.997857 0.308025 1.908209 0.007568 0.006582 519361.000000 0 0 1
31.415691 10.937061 -11.048659 35.051930 0.335017 1.891472 0.000142 0.011311 95642.100000 0 0 1
31.498421 10.647761 -9.523259 34.586382 0.325982 1.849747 0.014311 0.013668 223127.000000 0 0 1
32.559721 11.225861 -8.749759 35.534683 0.332015 1.819586 0.015785 0.013148 487702.000000 0 0 1
32.455191 12.649261 -8.568559 35.871485 0.371635 1.811997 0.027466 0.010963 -580719.000000 0 0 1
32.162291 12.989461 -7.092459 35.403983 0.383840 1.772490 0.027756 0.005792 345878.000000 0 0 1
33.297401 12.735761 -6.248059 36.193297 0.365317 1.744296 0.030397 0.009619 786423.000000 0 0 1
33.162051 13.377461 -5.009459 36.107794 0.383431 1.709982 0.022220 0.010921 -272799.000000 0 0 1
34.411450 13.272561 -4.126259 37.112461 0.368120 1.682209 0.017708 0.005678 -733027.000000 0 0 1
-34.424996 14.094561 -4.503359 37.470218 -0.388608 1.691273 0.015335 0.010880 -95291.600000 0 0 1
-33.317899 13.891461 -3.604859 36.277405 -0.395021 1.670330 0.008344 -0.000859 698756.000000 0 0 1
-32.359149 15.090661 -3.476759 35.873812 -0.436366 1.667865 0.008064 0.001639 220473.000000 0 0 1
-32.910829 16.045961 -2.588059 36.705498 -0.453645 1.641364 0.008807 0.004121 803449.000000 0 0 1
-31.992249 17.134361 -2.341359 36.367187 -0.491704 1.635222 0.004980 0.003897 267793.000000 0 0 1
-32.507209 18.106861 -1.250159 37.230900 -0.508210 1.604381 -0.005872 0.006711 -202419.000000 0 0 1
-33.619519 18.814361 -1.725459 38.564614 -0.510204 1.615553 -0.025293 0.011827 -133493.000000 0 0 1
-34.230157 19.604761 -0.748159 39.453898 -0.520129 1.589760 -0.032670 0.011796 -392621.000000 0 0 1
34.612170 20.481561 -1.428559 40.243477 0.534327 1.606302 -0.030978 0.017735 -379796.000000 0 0 1
-34.665169 21.611261 -2.018859 40.899833 -0.557469 1.620177 -0.034778 0.015338 319019.000000 0 0 1
34.597024 21.908761 -3.267259 41.080687 0.564514 1.650413 -0.042170 0.022618 -171130.000000 0 0 1
-34.790522 23.236161 -3.825859 42.011151 -0.588847 1.661990 -0.028194 0.004034 -1072140.000000 0 0 1
-33.453899 23.192461 -4.163159 40.919256 -0.606192 1.672713 -0.023851 0.010860 -1084720.000000 0 0 1
-33.111929 24.447961 -4.757859 41.433559 -0.635999 1.685881 -0.014395 0.003157 107765.000000 0 0 1
-31.615169 24.423961 -5.136759 40.279462 -0.657771 1.698673 0.002563 -0.005101 85435.900000 0 0 1
-31.288579 23.554061 -6.219059 39.654075 -0.645291 1.728279 -0.007224 0.005720 -200455.000000 0 0 1
-29.991299 23.821361 -6.711059 38.884104 -0.671241 1.744256 0.006297 0.005254 -749132.000000 0 0 1
-29.647499 22.939861 -7.971559 38.324368 -0.658531 1.780329 0.000493 -0.007678 -420960.000000 0 0 1
-30.473579 23.060561 -9.090559 39.281888 -0.647800 1.804332 0.010461 -0.017048 -337197.000000 0 0 1
-29.793669 22.725261 -10.295859 38.860068 -0.651614 1.838945 0.004010 -0.016421 425279.000000 0 0 1
-30.670619 22.757861 -11.616759 39.919371 -0.638367 1.866074 0.009474 -0.010426 184869.000000 0 0 1
-31.187799 24.033361 -11.980459 41.155955 -0.656556 1.866172 0.024702 -0.012537 460815.000000 0 0 1
-31.918819 24.036561 -13.220159 42.087289 -0.645452 1.890318 0.036042 -0.010470 -218395.000000 0 0 1
-32.273599 25.450061 -13.663859 43.312721 -0.667734 1.891748 0.021669 -0.010071 768676.000000 0 0 1
-31.103819 26.274161 -13.850159 43.007046 -0.701423 1.898684 0.015669 -0.010870 880617.000000 0 0 1
-30.237949 25.979861 -14.968159 42.583242 -0.709800 1.929973 0.019114 -0.012975 -384021.000000 0 0 1
-28.862039 26.629861 -14.821159 41.974201 -0.745195 1.931681 0.007157 -0.011537 117082.000000 0 0 1
-27.904489 25.988961 -13.907859 40.589594 -0.749870 1.920528 0.005983 -0.013126 537630.000000 0 0 1
-28.275479 25.555461 -12.609559 40.144555 -0.734912 1.890309 0.010228 -0.005655 -1339090.000000 0 0 1
-28.548429 26.602761 -11.542059 40.693228 -0.750134 1.858380 0.021619 -0.002826 23358.700000 0 0 1
-27.398409 27.304961 -11.117159 40.247049 -0.783690 1.850658 0.021203 -0.001060 -112135.000000 0 0 1
-27.751689 28.369861 -10.256159 40.990170 -0.796413 1.823694 0.003463 -0.004821 -180634.000000 0 0 1
-26.559709 29.255361 -9.926559 40.741022 -0.833657 1.816924 0.002291 0.000505 -56952.700000 0 0 1
-26.939939 30.384961 -9.205359 41.638261 -0.845422 1.793717 -0.013257 0.007841 -583050.000000 0 0 1
-25.800569 31.085961 -8.814959 41.348638 -0.878043 1.785631 0.002921 0.000078 -528844.000000 0 0 1
33.627331 -25.327769 34.219045 54.251602 -0.645540 0.888281 -0.016264 -0.001906 -223680.000000 0 0 1
33.215671 -24.079339 -34.481235 53.591519 -0.627268 2.269739 -0.013013 -0.014083 355913.000000 0 0 1
32.107401 -24.211139 -33.599959 52.402497 -0.646099 2.266844 -0.010678 -0.005124 374189.000000 0 0 1
31.547771 -22.836439 -33.122919 51.126241 -0.626566 2.275575 -0.020575 -0.003937 124052.000000 0 0 1
31.083541 -22.053039 -34.195324 51.203938 -0.617058 2.302081 -0.025790 -0.005714 -298279.000000 0 0 1
30.489141 -20.925339 -33.670349 50.011498 -0.601486 2.309395 -0.027213 0.001074 -12733.300000 0 0 1
30.078111 -19.927539 34.524501 49.937368 -0.585131 0.807432 -0.027077 0.006538 -221145.000000 0 0 1
31.194341 -19.592139 33.751654 49.961115 -0.560802 0.829074 -0.018518 -0.015018 -230517.000000 0 0 1
30.839671 -19.130339 32.429759 48.669749 -0.555224 0.841530 -0.018494 -0.005657 -413350.000000 0 0 1
32.013051 -19.057339 31.459249 48.761685 -0.536956 0.869559 -0.027301 -0.000907 337462.000000 0 0 1
32.978841 -17.993939 31.613359 49.099799 -0.499475 0.871265 -0.031786 -0.010190 891424.000000 0 0 1
33.996927 -17.951339 30.630379 49.155485 -0.485818 0.898055 -0.016993 -0.006212 -207991.000000 0 0 1
34.730973 -16.604339 30.710599 49.245157 -0.445962 0.897423 0.000926 -0.012753 -253940.000000 0 0 1
-34.118254 -16.614739 29.700469 48.189445 0.453173 0.906726 0.002843 -0.009823 1322690.000000 0 0 1
-33.111219 -15.583739 29.947779 47.287157 0.439892 0.884964 0.000334 -0.015847 1534000.000000 0 0 1
-31.877529 -16.118339 30.802099 47.167224 0.468144 0.859204 0.019776 -0.019438 532821.000000 0 0 1
-30.970209 -15.079639 31.184859 46.465522 0.453119 0.835051 0.016847 -0.019104 -155232.000000 0 0 1
-30.027909 -15.570739 32.075429 46.614980 0.478371 0.811939 0.016980 -0.019919 -707117.000000 0 0 1
-29.000169 -14.540739 32.486229 45.910761 0.464768 0.784707 0.038772 -0.019438 -318687.000000 0 0 1
-29.304449 -13.977639 33.714443 46.805863 0.445063 0.766556 0.035492 -0.014063 -215495.000000 0 0 1
-28.195349 -13.315839 34.228192 46.301818 0.441219 0.738854 0.043309 -0.018660 -436047.000000 0 0 1
-28.309979 -12.789039 -33.609149 45.766683 0.424308 2.395517 0.028298 -0.009455 -268838.000000 0 0 1
-28.193279 -13.758339 -32.599689 45.242597 0.454002 2.375396 0.041799 -0.007583 106246.000000 0 0 1
-28.365529 -13.155539 -31.321179 44.257063 0.434259 2.357048 0.049125 -0.004360 -482609.000000 0 0 1
-28.588319 -14.217839 -30.260469 43.990168 0.461510 2.329377 0.055920 -0.005331 506646.000000 0 0 1
-29.876399 -14.845339 -30.310659 45.074597 0.461158 2.308318 0.040281 -0.005673 444944.000000 0 0 1
-30.041219 -15.632539 -29.135419 44.673524 0.479810 2.281260 0.028649 -0.001517 507597.000000 0 0 1
-31.347359 -16.468239 -29.067229 45.812265 0.483719 2.258139 0.011868 -0.001452 131233.000000 0 0 1
-31.226509 -17.677739 -29.856629 46.679927 0.515130 2.264778 0.017811 -0.002713 205871.000000 0 0 1
-32.367449 -18.517839 -29.931389 47.816839 0.519662 2.247157 0.002762 -0.001858 -3286.650000 0 0 1
-32.085729 -19.822339 -30.795809 48.690871 0.553400 2.255542 0.011947 -0.003211 571796.000000 0 0 1
-33.202369 -20.732039 -30.751539 49.778227 0.558178 2.236701 -0.028476 -0.002279 199530.000000 0 0 1
-32.845029 -21.985639 -31.300289 50.416984 0.589875 2.240595 -0.027275 -0.004200 -605722.000000 0 0 1
-33.942059 -23.001139 -31.561819 51.742286 0.595574 2.226833 -0.019368 -0.003768 -429817.000000 0 0 1
-34.471650 -23.601339 -30.419609 51.678530 0.600356 2.200161 -0.031358 0.009698 -336293.000000 0 0 1
34.479990 -24.657939 -30.578269 52.267717 -0.620813 2.195715 -0.022105 0.008437 -147333.000000 0 0 1
-34.905232 -26.077969 -31.047359 53.501160 0.641647 2.189908 -0.029434 0.014285 -253059.000000 0 0 1
-34.490859 -26.109099 -32.419599 54.058623 0.647957 2.213937 -0.015927 0.008100 -367649.000000 0 0 1
-33.885869 -27.378609 -32.550119 54.381528 0.679579 2.212487 -0.015677 0.005360 -347574.000000 0 0 1
-34.130796 -28.005939 -33.963159 55.702244 0.687145 2.226512 -0.010940 -0.012291 198942.000000 0 0 1
34.399767 -28.438049 -34.092677 56.163843 -0.690807 2.223104 -0.009187 -0.006294 -445553.000000 0 0 1
34.234416 -29.734599 34.607512 57.042278 -0.715170 0.918894 -0.003174 -0.003387 -79173.200000 0 0 1
34.923950 -30.971029 -34.047309 57.776346 -0.725482 2.200982 -0.003129 -0.006376 -218512.000000 0 0 1
34.449523 -31.350919 -32.746259 56.938276 -0.738342 2.183545 0.005197 -0.015617 58730.300000 0 0 1
-34.539959 -32.295169 -32.164009 57.188374 0.751824 2.168109 -0.003933 -0.018306 -523110.000000 0 0 1
34.885749 -32.628329 -30.734229 56.799790 -0.751974 2.142538 -0.004644 -0.018994 51345.500000 0 0 1
33.777151 -33.499749 -30.789339 56.666679 -0.781275 2.145208 0.006389 -0.011271 61082.600000 0 0 1
33.284531 -33.798019 -29.486169 55.853382 -0.793053 2.126947 0.010814 -0.011210 -342946.000000 0 0 1
32.200551 34.491860 -29.458679 55.627130 0.819741 2.128895 0.016083 -0.013317 -718016.000000 0 0 1
31.108851 -34.406781 -30.165459 55.331204 -0.835694 2.147400 0.020522 -0.012486 -381058.000000 0 0 1
29.881221 34.423846 -29.638909 54.372359 0.855923 2.147316 0.021946 0.000197 797723.000000 0 0 1
28.681901 -34.535082 -30.513999 54.281005 -0.877724 2.167778 0.008562 0.001886 -305986.000000 0 0 1
28.684401 34.194669 -31.785039 54.793786 0.872808 2.189629 0.008428 0.006238 -661555.000000 0 0 1
27.605261 34.507518 -32.596209 54.912039 0.896069 2.206331 0.002488 0.019577 -483330.000000 0 0 1
27.540441 33.895348 -33.966639 55.327236 0.888471 2.231817 -0.004523 0.004446 -94138.900000 0 0 1
27.173241 32.515087 -33.945609 54.294754 0.874656 2.246197 -0.009134 0.008977 58317.200000 0 0 1
26.959061 32.036537 34.016620 53.946836 0.871252 0.888524 -0.001006 0.005147 15500.700000 0 0 1
26.949801 30.525197 34.044933 53.076708 0.847526 0.874437 -0.004913 -0.002889 -486038.000000 0 0 1
28.259881 30.039387 34.165502 53.556206 0.815912 0.878980 -0.002983 -0.001620 -380918.000000 0 0 1
28.240551 28.635167 34.241349 52.820181 0.792336 0.865496 -0.002122 -0.004323 -59447.100000 0 0 1
29.626911 28.086477 34.575511 53.498318 0.758713 0.868082 0.016311 -0.010894 -256692.000000 0 0 1
30.092721 28.397867 -33.406999 53.179303 0.756430 2.250028 0.015202 -0.006597 136931.000000 0 0 1
31.282661 27.662677 -33.128729 53.304233 0.724063 2.241456 0.026524 -0.012761 369512.000000 0 0 1
31.868301 27.762397 -31.707519 52.836598 0.716651 2.214429 0.021593 -0.008487 94180.900000 0 0 1
32.753411 28.846467 -31.375129 53.752240 0.722058 2.194073 0.011852 -0.008074 366434.000000 0 0 1
32.269351 30.203147 -31.489669 54.269147 0.752336 2.189832 0.008837 -0.004243 507765.000000 0 0 1
31.195521 30.694687 -30.434199 53.306330 0.777306 2.178435 0.015456 0.004702 819993.000000 0 0 1
31.716031 30.620277 -29.118699 52.833764 0.767822 2.154524 0.007123 0.003560 -94783.800000 0 0 1
30.673421 30.895537 -28.231669 51.888535 0.789006 2.146092 0.013238 0.007653 -370974.000000 0 0 1
31.186621 31.236947 -26.847839 51.663901 0.786204 2.117253 0.016270 0.002685 -72442.100000 0 0 1
31.830161 32.481527 -26.898539 52.836920 0.795526 2.104919 0.016469 -0.001753 -42974.200000 0 0 1
32.248861 32.843417 -25.590019 52.664297 0.794532 2.078198 0.010393 -0.004229 15722.300000 0 0 1
32.462741 34.312511 -25.420239 53.641089 0.813093 2.064505 0.019089 -0.009826 197024.000000 0 0 1
31.222701 -34.366379 -25.341609 52.897091 -0.833291 2.070396 0.026827 -0.001412 367117.000000 0 0 1
31.330191 -32.949529 -25.168869 51.968493 -0.810585 2.076371 0.023677 -0.000384 -442618.000000 0 0 1
31.835481 -32.044349 -26.352119 52.295051 -0.788668 2.098919 0.016093 -0.004689 1675570.000000 0 0 1
33.216981 -32.163239 -26.770139 53.427353 -0.769282 2.095616 0.015502 -0.009676 1749820.000000 0 0 1
34.308707 -31.698029 -25.947639 53.433439 -0.745867 2.077853 0.022520 -0.007548 66893.300000 0 0 1
-34.250492 -32.270369 -26.460149 53.987150 0.755640 2.083023 -0.003728 -0.008664 -823800.000000 0 0 1
-34.058749 -33.637239 -26.090969 54.517895 0.779172 2.069829 0.004441 -0.010516 -160759.000000 0 0 1
-33.733579 -34.024899 -24.747159 53.926524 0.789698 2.047559 0.001714 -0.008571 -1082150.000000 0 0 1
-32.525059 -33.539309 -24.004759 52.526119 0.800749 2.045423 -0.014447 -0.004823 -846181.000000 0 0 1
-32.505399 -32.123279 -23.833559 51.541678 0.779486 2.051511 -0.044603 -0.003334 -513689.000000 0 0 1
-31.838539 -31.733879 -22.672059 50.346339 0.783752 2.037922 -0.023577 -0.008110 -457552.000000 0 0 1
-31.568479 -30.182299 -22.601959 49.177114 0.762954 2.048345 -0.035398 0.009227 -66008.700000 0 0 1
-32.599749 -29.219849 -22.748859 49.336130 0.730779 2.050030 -0.049918 0.016291 -505377.000000 0 0 1
-33.044979 -29.079719 -24.073659 50.171124 0.721657 2.071258 -0.048370 0.014350 62351.300000 0 0 1
-34.293388 -28.184369 -24.326659 50.617995 0.687929 2.072127 -0.057563 0.017699 205879.000000 0 0 1
-34.191906 -26.869789 -23.823659 49.584662 0.666055 2.071980 -0.068152 0.024565 -57810.700000 0 0 1
34.593683 -26.044479 -24.229259 49.619500 -0.645334 2.080938 -0.053609 0.024249 312287.000000 0 0 1
-34.899165 -25.366309 -25.541809 50.137664 0.628517 2.105323 -0.049843 0.028104 -346791.000000 0 0 1
-33.817679 -24.491339 -25.591339 48.973235 0.626795 2.120644 -0.059572 0.017952 -711447.000000 0 0 1
-33.636489 -24.054839 -26.907669 49.336308 0.620816 2.147654 -0.038042 0.011252 38537.200000 0 0 1
-32.393899 -23.148739 -27.065269 48.143095 0.620459 2.167820 -0.029873 -0.002596 -228691.000000 0 0 1
-32.331959 -21.904439 -26.402889 47.140986 0.595455 2.165283 -0.032025 0.019160 265986.000000 0 0 1
-33.371409 -20.951039 -26.694139 47.593844 0.560620 2.166237 -0.041844 0.017467 498778.000000 0 0 1
-34.511316 -20.807639 -25.656649 47.772925 0.542565 2.137737 -0.042724 0.014614 -276211.000000 0 0 1
-34.309687 -20.136239 -24.431159 46.685161 0.530729 2.121536 -0.034965 0.010806 -436672.000000 0 0 1
-33.326009 -20.639539 -23.584459 45.747570 0.554506 2.112428 -0.049508 0.021058 -309977.000000 0 0 1
-33.838559 -21.967139 -22.927959 46.403605 0.575795 2.087594 -0.033035 0.023830 -267306.000000 0 0 1
-34.675154 -21.734939 -21.875859 46.403955 0.559904 2.061699 -0.035825 0.020768 -891019.000000 0 0 1
34.658537 -22.914639 -21.447359 46.757717 -0.584177 2.047318 -0.032049 0.026430 429439.000000 0 0 1
33.471541 -22.700739 -20.434259 45.312543 -0.595952 2.038640 -0.041537 0.021177 499022.000000 0 0 1
32.347451 -21.995739 -20.901359 44.351290 -0.597165 2.061525 -0.001789 0.018379 -561536.000000 0 0 1
31.303741 -22.034339 -19.977159 43.180125 -0.613331 2.051775 0.015747 0.012774 -899625.000000 0 0 1
29.994551 -21.550239 -20.521559 42.251867 -0.623016 2.077955 0.013444 0.007526 -1322470.000000 0 0 1
29.442581 -22.327339 -21.550359 42.776087 -0.648814 2.098782 0.011422 0.009892 -443043.000000 0 0 1
28.320141 -21.824539 -22.217459 42.094612 -0.656578 2.126802 0.047061 0.001552 -463070.000000 0 0 1
28.475011 -20.470939 -22.952059 41.912798 -0.623304 2.150307 0.016267 -0.003592 -829944.000000 0 0 1
28.526631 -19.338239 -22.125259 40.954404 -0.595740 2.141520 0.022935 0.006882 -164510.000000 0 0 1
28.432371 -18.119439 -22.900859 40.757369 -0.567383 2.167456 0.011518 0.001791 -382476.000000 0 0 1
29.124691 -16.858539 -22.358659 40.402569 -0.524715 2.157233 0.010369 0.002560 -646166.000000 0 0 1
28.615471 -16.302039 -21.152859 39.141348 -0.517837 2.141735 -0.001717 0.002172 -144039.000000 0 0 1
29.480531 -15.896239 -20.095659 39.059283 -0.494523 2.111211 -0.011494 0.004286 12247.600000 0 0 1
30.368141 -17.041539 -19.440059 39.881749 -0.511375 2.079955 0.005123 -0.001731 576684.000000 0 0 1
31.434641 -17.395039 -20.337659 41.283706 -0.505428 2.085908 0.002961 -0.003753 -132690.000000 0 0 1
32.324861 -18.229839 -19.661759 41.997719 -0.513496 2.058007 0.001999 0.002090 -586736.000000 0 0 1
33.488981 -18.649739 -20.554159 43.494805 -0.508119 2.062996 -0.012793 0.003456 -256374.000000 0 0 1
34.443925 -17.627139 -20.713159 43.887754 -0.473014 2.062306 -0.017065 0.001174 -25754.900000 0 0 1
-34.325107 -18.035839 -21.477859 44.326097 0.483793 2.076636 -0.026574 0.008997 25747.100000 0 0 1
-33.301969 -16.955839 -21.851859 43.290014 0.470944 2.099921 -0.018284 0.004519 182821.000000 0 0 1
-32.466599 -16.492239 -20.792659 41.933383 0.470008 2.089609 -0.008894 0.000929 -472481.000000 0 0 1
-31.670989 -15.455839 -21.208459 41.130685 0.454012 2.112546 -0.001620 0.005408 -1337170.000000 0 0 1
-30.656499 -15.105939 -20.164059 39.681224 0.457829 2.103833 0.004365 -0.000691 -389488.000000 0 0 1
-29.543299 -15.978839 -19.948859 39.065160 0.495800 2.106744 0.000987 -0.003562 556968.000000 0 0 1
-29.799039 -17.187239 -19.248459 39.419374 0.523165 2.080936 -0.012180 0.000582 -696570.000000 0 0 1
-28.753729 -18.241539 -19.495759 39.237932 0.565335 2.090773 -0.016153 -0.005969 -253473.000000 0 0 1
-29.306559 -19.519439 -19.174859 40.094365 0.587571 2.069450 -0.017702 0.001860 644573.000000 0 0 1
-28.299509 -20.533439 -19.235459 39.905979 0.627686 2.073754 -0.017358 0.003045 250578.000000 0 0 1
-28.959279 -21.875739 -19.059659 40.993394 0.646946 2.054368 -0.019494 0.029627 -311550.000000 0 0 1
-29.581599 -22.363439 -20.226259 42.240927 0.647325 2.070119 -0.026498 0.025990 7474.390000 0 0 1
-30.224639 -23.582939 -19.852759 43.171933 0.662585 2.048626 -0.036456 0.039630 -261046.000000 0 0 1
-31.149829 -24.183339 -20.904159 44.633279 0.660156 2.058223 -0.057067 0.040566 -190310.000000 0 0 1
-30.560519 -24.685839 -22.140059 45.094547 0.679460 2.083999 -0.050574 0.024526 -103974.000000 0 0 1
-31.415859 -25.537979 -22.840359 46.484691 0.682558 2.084438 -0.049079 0.026656 -445082.000000 0 0 1
-31.097449 -25.581429 -24.359759 47.062285 0.688383 2.114848 -0.044002 0.023527 640608.000000 0 0 1
-29.797869 -26.140509 -24.632859 46.669229 0.720109 2.126826 -0.017308 0.012575 476435.000000 0 0 1
-29.747809 -26.545369 -25.977769 47.586061 0.728571 2.148273 -0.004588 0.012222 -588505.000000 0 0 1
-28.264769 -26.600989 -26.295469 46.882421 0.755083 2.166246 0.010407 0.002329 -547467.000000 0 0 1
-27.679439 -25.326579 -26.501259 45.933687 0.741039 2.185781 0.013898 -0.002991 820007.000000 0 0 1
-26.248489 -25.426649 -26.352519 45.054998 0.769496 2.195549 0.024750 -0.001989 1366990.000000 0 0 1
-25.378529 -24.182839 -26.717409 44.076063 0.761277 2.222027 0.034372 0.001858 274131.000000 0 0 1
-25.426619 -23.840639 -28.088379 44.764339 0.753218 2.249099 0.034942 -0.003942 -200352.000000 0 0 1
-24.441719 -22.878639 -28.346419 43.867405 0.752378 2.273370 0.052135 -0.013009 -89651.100000 0 0 1
-24.382419 -22.306439 -29.765039 44.475129 0.740963 2.303997 0.031941 -0.008484 -187432.000000 0 0 1
-23.847919 -23.189039 -30.714079 45.274821 0.771391 2.316368 0.039993 -0.014117 59867.300000 0 0 1
-23.841219 -22.680839 -32.055189 45.938647 0.760461 2.343094 0.031401 -0.015049 -526608.000000 0 0 1
-23.130319 -23.722439 -32.917669 46.704803 0.798035 2.352941 0.031383 -0.023803 27527.500000 0 0 1
-23.879319 -24.935339 -32.977809 47.744412 0.807028 2.333274 0.023311 -0.024053 331924.000000 0 0 1
-23.141419 -25.949469 -33.681529 48.408115 0.842537 2.340305 0.031381 -0.013412 403613.000000 0 0 1
-19.341919 -14.370439 -11.826259 26.841754 0.638986 2.027054 0.001002 0.009407 33919.000000 0 0 1
-19.444619 -13.793139 -10.579259 26.081883 0.616977 1.988450 0.003857 0.009975 -312506.000000 0 0 1
-18.851119 -14.604339 -9.652859 25.726039 0.659135 1.955428 -0.001922 -0.002519 -466657.000000 0 0 1
-19.020619 -14.173939 -8.156259 25.084040 0.640414 1.901974 0.005846 -0.015620 369166.000000 0 0 1
-20.258719 -14.659139 -7.608759 26.138080 0.626388 1.866171 0.028394 -0.015278 768722.000000 0 0 1
-20.634919 -14.095939 -6.390659 25.794106 0.599301 1.821160 0.019535 -0.019303 -150528.000000 0 0 1
-21.783019 -14.942739 -5.783359 27.041313 0.601255 1.786332 0.032969 -0.021321 -578910.000000 0 0 1
-21.603019 -16.253139 -5.323159 27.553420 0.645007 1.765213 0.026287 -0.022993 310006.000000 0 0 1
-20.847519 -16.213139 -4.108659 26.727626 0.660995 1.725132 0.028208 -0.019601 -147344.000000 0 0 1
-20.468619 -17.615739 -3.592259 27.243035 0.710628 1.703041 0.013687 -0.006878 132826.000000 0 0 1
-21.610519 -18.337039 -3.159659 28.517450 0.703636 1.681822 0.026368 -0.010890 180834.000000 0 0 1
-21.267519 -19.565339 -2.565659 29.011936 0.743736 1.659347 -0.000017 0.002794 230113.000000 0 0 1
-22.460219 -20.475239 -2.061659 30.462227 0.739199 1.638527 -0.000695 -0.009050 430619.000000 0 0 1
-23.066619 -21.168839 -3.104459 31.461505 0.742523 1.669632 -0.024416 -0.006396 208969.000000 0 0 1
-24.013819 -22.140539 -2.626659 32.768373 0.744833 1.651041 -0.018836 -0.004522 440410.000000 0 0 1
-24.202719 -23.222139 -3.720059 33.747269 0.764725 1.681254 -0.020813 -0.003742 -609787.000000 0 0 1
-23.025719 -23.964139 -3.845759 33.455247 0.805366 1.686003 -0.021863 0.000953 -655566.000000 0 0 1
-23.101819 -24.884339 -4.909959 34.307901 0.822528 1.714404 -0.014280 0.008585 -236911.000000 0 0 1
-21.780319 -24.810139 -5.693459 33.501355 0.850338 1.741572 -0.005634 0.012514 42282.900000 0 0 1
-21.379219 -23.565039 -6.292059 32.434119 0.833994 1.766029 -0.009924 0.020342 209737.000000 0 0 1
-20.899619 -22.580039 -5.349759 31.229347 0.824027 1.742951 -0.013242 0.015917 -671291.000000 0 0 1
-20.796719 -21.136239 -5.901059 30.233534 0.793495 1.767240 -0.006878 0.023019 245972.000000 0 0 1
-19.734319 -20.890339 -6.816659 29.535004 0.813847 1.803695 -0.003748 0.023541 197780.000000 0 0 1
-19.850219 -19.580039 -7.353859 28.835540 0.778546 1.828673 -0.004970 0.023049 204649.000000 0 0 1
-18.668519 -19.214939 -8.281659 28.041279 0.799821 1.870606 0.009298 0.018293 32461.500000 0 0 1
-18.607419 -19.888739 -9.538959 28.858096 0.818670 1.907679 -0.003950 0.014993 846285.000000 0 0 1
-17.339319 -19.654239 -10.205959 28.126548 0.847893 1.942130 0.028757 0.018854 946817.000000 0 0 1
-17.020319 -18.250139 -10.889259 27.227464 0.820252 1.982244 0.031714 0.015950 -233014.000000 0 0 1
-16.633319 -17.265739 -10.002559 25.977379 0.804052 1.966057 0.023000 0.001314 -291064.000000 0 0 1
-15.344319 -17.246439 -9.452659 24.944750 0.843696 1.959451 0.023794 0.008051 -485581.000000 0 1 0
-15.200319 -16.099739 -8.464759 23.704502 0.814126 1.935952 0.007620 0.002308 -283655.000000 0 1 0
-15.873719 -16.438439 -7.310259 23.992439 0.802873 1.880409 -0.010555 0.013402 -24759.000000 0 1 0
-16.038119 -15.317139 -6.493359 23.108434 0.762408 1.855627 -0.011837 0.009713 -248004.000000 0 1 0
-16.824919 -15.598539 -5.188659 23.522638 0.747592 1.793207 -0.003994 0.006474 42508.200000 0 1 0
-16.921419 -14.470739 -4.370559 22.690053 0.707490 1.764628 -0.022014 0.005660 336.852000 0 1 0
-17.536519 -14.762839 -3.155959 23.139382 0.699734 1.707612 -0.011867 0.006626 -554047.000000 0 1 0
-18.280219 -13.618839 -2.532459 22.935835 0.640296 1.681437 -0.003742 0.006990 -185181.000000 0 1 0
-19.572019 -13.368939 -3.044959 23.896950 0.599269 1.698564 0.011693 -0.008695 319210.000000 0 1 0
-20.302619 -12.396339 -2.307559 23.899589 0.548161 1.667499 0.010467 -0.002231 160121.000000 0 1 0
-21.827019 -12.437639 -2.576059 25.253706 0.517938 1.672981 0.014959 -0.006952 13601.600000 0 0 1
-22.132719 -11.955439 -3.838859 25.446544 0.495265 1.722234 0.014346 -0.016777 265947.000000 0 0 1
-23.535019 -11.885239 -3.998859 26.667337 0.467641 1.721317 0.016466 -0.013275 -78558.500000 0 0 1
-24.012119 -11.111439 -5.270859 26.978285 0.433400 1.767435 0.016014 -0.020349 -220194.000000 0 0 1
-23.718919 -11.748539 -6.480759 27.250973 0.459899 1.810915 0.013887 -0.024822 634045.000000 0 0 1
-24.323819 -11.081039 -7.629159 27.796432 0.427471 1.848830 0.020407 -0.025946 -231752.000000 0 0 1
-23.550419 -11.467539 -8.878259 27.657732 0.453142 1.897586 0.042597 -0.031627 -596839.000000 0 0 1
-22.280019 -10.889739 -8.792359 26.311428 0.454621 1.911516 0.020487 -0.026280 -1000750.000000 0 0 1
-21.470519 -11.380239 -9.767559 26.189659 0.487390 1.952988 0.006004 -0.025035 -579646.000000 0 0 1
-20.110319 -10.653839 -9.857759 24.801303 0.487179 1.979554 -0.002588 -0.018271 -223279.000000 0 1 0
-20.318919 -9.346839 -10.306259 24.626019 0.431144 2.002601 -0.000588 -0.024307 421411.000000 0 1 0
-19.391319 -8.440239 -9.746259 23.286271 0.410528 2.002635 -0.002496 -0.018179 -216766.000000 0 1 0
-19.403719 -7.045939 -10.451159 23.138200 0.348318 2.039448 0.003128 -0.020010 -186333.000000 0 1 0
-18.848319 -7.164539 -11.737659 23.331575 0.363248 2.097956 0.007036 -0.016529 463325.000000 0 1 0
-19.065719 -5.924539 -12.324859 23.462820 0.301283 2.123856 0.012781 -0.024939 -378413.000000 0 1 0
-18.279019 -5.881439 -13.641259 23.554146 0.311298 2.188475 0.021873 -0.013963 -301886.000000 0 1 0
-18.877619 -6.571039 -14.718459 24.822894 0.334969 2.205500 0.012387 -0.013982 194709.000000 0 1 0
-18.070619 -6.475439 -15.851759 24.894916 0.344086 2.261068 0.005318 -0.009847 -300522.000000 0 1 0
-18.540019 -7.385939 -17.017259 26.227304 0.379107 2.276852 0.000604 -0.003534 1000680.000000 0 0 1
-19.844719 -7.032639 -17.553459 27.411581 0.340575 2.265772 0.003221 -0.002698 1300790.000000 0 0 1
-20.165819 -7.960439 -18.549459 28.532635 0.375972 2.278530 0.003705 -0.002605 87544.800000 0 0 1
-21.634519 -7.836139 -19.046059 29.869882 0.347507 2.262220 -0.009315 0.003110 -118117.000000 0 0 1
-21.801119 -6.706039 -19.880459 30.257105 0.298415 2.287696 -0.004263 0.000030 535981.000000 0 0 1
-23.044219 -6.695939 -20.563759 31.602845 0.282782 2.279293 -0.005884 -0.005851 1073150.000000 0 0 1
-24.287319 -6.028539 -19.850059 31.941227 0.243300 2.241396 0.008422 -0.000369 215088.000000 0 0 1
-24.166419 -4.613139 -19.691259 31.512577 0.188621 2.245761 0.021913 -0.007530 270523.000000 0 0 1
-25.167479 -4.230339 -18.771659 31.680797 0.166531 2.204986 0.037543 0.001134 -246902.000000 0 0 1
-25.240499 -2.700039 -18.369859 31.334082 0.106567 2.197228 0.026318 -0.002363 -46121.800000 0 0 1
-25.564629 -1.884739 -19.475759 32.193286 0.073591 2.220516 0.037323 0.000928 669219.000000 0 0 1
-26.930279 -1.895139 -19.903959 33.541005 0.070256 2.206100 0.037594 0.006959 431309.000000 0 0 1
-27.252749 -0.792439 -21.008959 34.419713 0.029069 2.227331 0.034187 0.010193 -317253.000000 0 0 1
-26.488699 -0.901839 -22.225259 34.589400 0.034033 2.268612 0.034359 0.014490 305681.000000 0 0 1
-26.855219 -1.932839 -23.144359 35.504929 0.071849 2.280835 0.044171 0.013908 131367.000000 0 0 1
-26.118859 -1.805639 -24.523359 35.872695 0.069022 2.323510 0.050295 0.010486 -330521.000000 0 0 1
-26.540729 -0.677739 -25.294139 36.669648 0.025530 2.331987 0.043399 0.011620 55248.000000 0 0 1
-26.176639 0.647461 -24.940359 36.161542 -0.024729 2.331861 0.031623 0.021210 1434740.000000 0 0 1
-24.655419 0.852861 -24.446359 34.730988 -0.034577 2.351638 0.028374 0.016234 1419550.000000 0 0 1
-23.774219 0.530461 -25.484639 34.856300 -0.022309 2.390780 0.017484 0.018714 354733.000000 0 0 1
-22.392719 0.532061 -25.072159 33.620382 -0.023756 2.412445 0.008813 0.018127 1117320.000000 0 0 1
-21.484419 -0.015939 -26.209889 33.890098 0.000742 2.454950 -0.009967 0.016663 -129106.000000 0 0 1
-21.541119 0.710561 -27.431339 34.885571 -0.032974 2.475632 -0.027187 0.020209 368062.000000 0 0 1
-20.845719 0.053761 -28.511139 35.319002 -0.002579 2.510268 -0.036478 0.015944 47184.400000 0 0 1
-20.667319 0.894461 -29.774409 36.255393 -0.043252 2.534379 -0.030989 0.028121 -652052.000000 0 0 1
-19.831719 1.988261 -29.589879 35.676479 -0.099923 2.548819 -0.024579 0.020638 82409.700000 0 0 1
-19.836019 2.958661 -30.641629 36.621452 -0.148064 2.562049 -0.026198 0.017942 -18621.300000 0 0 1
-19.126719 2.434061 -31.971459 37.335375 -0.126579 2.598920 -0.024860 0.014499 -604589.000000 0 0 1
-17.735519 2.533061 -31.911369 36.596454 -0.141865 2.630028 -0.032468 0.015613 -581611.000000 0 0 1
-17.176119 2.057461 -33.096289 37.344565 -0.119218 2.659963 -0.030676 0.010996 177920.000000 0 0 1
-15.628519 1.994961 -33.130529 36.685997 -0.126962 2.697693 -0.015014 0.002856 151366.000000 0 0 1
-15.021319 3.251361 -33.185459 36.571656 -0.213161 2.707874 -0.007156 0.004746 1188590.000000 0 0 1
-13.623519 3.173161 -33.575309 36.372662 -0.228838 2.746840 -0.004379 0.008260 1284760.000000 0 0 1
-12.940219 4.518861 -33.887269 36.554293 -0.335971 2.757235 -0.002375 0.012585 -357980.000000 0 0 1
-12.829719 5.326361 -32.708329 35.535990 -0.393505 2.739971 0.010846 -0.003762 196736.000000 0 0 1
-12.320019 6.618061 -32.943689 35.789219 -0.492947 2.740134 0.017615 0.004734 -418966.000000 0 0 1
-11.863519 7.305561 -31.672049 34.601054 -0.551957 2.727171 0.023440 -0.007510 60746.800000 0 0 1
-10.626319 6.903261 -31.089639 33.572895 -0.576121 2.754562 0.037346 -0.012348 383577.000000 0 0 1
-10.764819 5.783261 -30.277579 32.650562 -0.492992 2.757989 0.025643 -0.008770 -1665000.000000 0 0 1
-9.595019 4.977761 -29.891659 31.786062 -0.478563 2.794605 0.035972 -0.013546 -1348390.000000 0 0 1
-9.014019 4.232661 -30.990849 32.551508 -0.439004 2.830683 0.038821 -0.008841 375708.000000 0 0 1
-9.729719 3.064761 -31.334869 32.953515 -0.305151 2.826866 0.036727 -0.007448 -282574.000000 0 0 1
-9.290319 2.361561 -32.653459 34.031388 -0.248924 2.856054 0.039720 -0.016764 53731.300000 0 0 1
-9.975619 1.096961 -32.830049 34.329701 -0.109524 2.844926 0.038532 -0.016044 403917.000000 0 0 1
-9.796419 0.482161 -34.111803 35.493906 -0.049178 2.861612 0.034216 -0.008884 -558866.000000 0 0 1
-10.369919 1.198761 33.903098 35.473826 -0.115089 0.298694 0.030326 -0.002585 569064.000000 0 0 1
-11.748119 0.867161 33.689896 35.690046 -0.073679 0.336374 -0.004877 0.005684 275750.000000 0 0 1
-12.109219 1.037961 32.335779 34.544365 -0.085508 0.359522 -0.016774 0.016949 109305.000000 0 0 1
-13.626619 1.030161 32.056529 34.847769 -0.075456 0.402966 -0.004707 0.025540 134569.000000 0 0 1
-14.361319 2.186961 32.372219 35.482261 -0.151120 0.421810 -0.007099 0.033602 89462.900000 0 0 1
-15.716619 2.012861 32.043389 35.746923 -0.127379 0.459226 -0.006282 0.030346 -189547.000000 0 0 1
-16.587319 3.246461 31.824089 36.034030 -0.193276 0.488223 -0.008037 0.022787 -333937.000000 0 0 1
-16.935919 4.022661 32.913179 37.232842 -0.233201 0.486483 -0.017409 0.018328 332995.000000 0 0 1
-16.081719 5.138761 33.069309 37.129607 -0.309286 0.472034 -0.008047 0.016677 -695521.000000 0 0 1
-16.374119 5.887361 34.401796 38.551995 -0.345160 0.468275 -0.009967 0.011848 107819.000000 0 0 1
-17.672519 6.455561 34.259133 39.085552 -0.350229 0.502219 -0.015806 0.007810 424063.000000 0 0 1
-18.641219 5.786761 -34.194190 39.372887 -0.300996 2.622905 -0.027043 0.007749 -79423.700000 0 0 1
-20.056119 6.368061 -34.374045 40.303536 -0.307445 2.592271 -0.027977 0.003110 -433011.000000 0 0 1
-20.191419 7.676361 -33.832609 40.140570 -0.363304 2.573360 -0.019117 -0.001508 275390.000000 0 0 1
-19.759019 8.709661 34.539364 40.733827 -0.415172 0.558731 -0.022618 -0.002976 -514567.000000 0 0 1
-19.814819 10.130161 -34.141044 40.753626 -0.472600 2.563932 -0.006973 -0.007075 -603015.000000 0 0 1
-18.904119 10.440161 -33.065409 39.492834 -0.504584 2.563032 0.005450 -0.009960 487417.000000 0 0 1
-18.759419 11.877961 -32.915809 39.704562 -0.564455 2.548146 0.011520 -0.019491 -78797.200000 0 0 1
-17.802519 12.416961 -33.986429 40.326021 -0.609035 2.573245 -0.001809 -0.030531 -1104790.000000 0 0 1
-18.374719 12.378061 34.009178 40.589049 -0.592819 0.577389 0.003771 -0.024430 -137013.000000 0 0 1
-17.548419 12.615061 32.881419 39.348119 -0.623280 0.581474 0.003761 -0.015194 18616.600000 0 0 1
-18.305819 12.132261 31.608869 38.489159 -0.585289 0.607214 0.007051 -0.005465 25491.700000 0 0 1
-18.527319 10.733961 31.495489 38.084712 -0.525104 0.597072 -0.004280 -0.001262 591026.000000 0 0 1
-17.369419 10.054461 31.002319 36.931459 -0.524730 0.574516 -0.007132 -0.001076 575131.000000 0 0 1
-17.555619 8.521761 31.161199 36.767383 -0.451912 0.559496 0.001496 0.004491 359710.000000 0 0 1
-18.498419 7.930261 30.268009 36.348768 -0.405000 0.586811 0.001545 0.006120 349161.000000 0 0 1
-18.755319 6.613661 30.628239 36.518372 -0.339015 0.575891 0.001514 0.000089 20280.500000 0 0 1
-19.372519 5.665961 29.533509 35.771857 -0.284538 0.599519 -0.002388 0.000132 46424.700000 0 0 1
-20.645019 6.084561 29.108529 36.201452 -0.286608 0.636685 0.017591 -0.012815 -452024.000000 0 0 1
-21.269619 5.121961 28.316449 35.783410 -0.236312 0.657817 0.010529 -0.010050 -547150.000000 0 0 1
-22.725819 5.450361 28.010899 36.479854 -0.235385 0.695325 -0.002200 -0.001400 -630858.000000 0 0 1
-22.884119 6.292761 26.920969 35.889000 -0.268351 0.722556 0.000271 -0.006938 -459530.000000 0 0 1
-24.193719 6.740161 26.817299 36.741439 -0.271702 0.752632 0.006195 -0.006398 -949829.000000 0 0 1
-24.559519 7.436861 25.442119 36.135554 -0.294033 0.789677 0.004940 -0.002315 -198475.000000 0 0 1
-24.616419 6.621961 24.310339 35.225148 -0.262785 0.809112 0.000475 -0.005482 782015.000000 0 0 1
-25.671849 5.649061 24.222949 35.745027 -0.216597 0.826221 -0.005462 -0.005522 56363.000000 0 0 1
-25.613919 4.873661 22.891859 34.696723 -0.188026 0.850284 -0.000213 0.005016 -67556.800000 0 0 1
-26.101759 5.642861 21.804159 34.475572 -0.212910 0.886081 -0.000063 0.014243 24498.500000 0 0 1
-26.293459 4.769361 20.696859 33.800189 -0.179439 0.911792 0.011411 0.014884 -164943.000000 0 0 1
-27.139019 5.497961 19.594059 33.921690 -0.199880 0.954979 0.018003 0.010599 -681269.000000 0 0 1
-28.429469 5.707561 20.026159 35.240006 -0.198128 0.966383 0.026314 0.009339 -1214120.000000 0 0 1
-29.238629 6.277261 19.042759 35.453182 -0.211480 1.003772 0.032227 0.012490 245466.000000 0 0 1
-30.732779 6.461961 19.434059 36.931603 -0.207244 1.016650 0.026290 0.012926 369486.000000 0 0 1
-30.970919 7.465061 20.379159 37.818449 -0.236523 1.001703 0.034260 -0.012401 -998127.000000 0 0 1
-32.287279 7.376661 20.769659 39.092995 -0.224614 1.010676 0.033173 -0.005366 -984518.000000 0 0 1
-32.803179 8.582561 21.595959 40.200676 -0.255902 1.003678 0.028467 0.002433 -48414.600000 0 0 1
-32.079779 8.905161 22.771959 40.335793 -0.270776 0.970897 0.029286 0.017002 -166794.000000 0 0 1
-32.852419 9.728961 23.545859 41.573328 -0.287913 0.968702 0.022391 0.026775 -298886.000000 0 0 1
0.114281 32.985261 12.458841 35.259938 1.567332 1.209654 -0.019701 0.000769 -227906.000000 0 0 1
-0.426119 33.130761 13.725841 35.864016 -1.557935 1.178059 -0.018904 -0.001136 52889.100000 0 0 1
-0.128719 34.419561 14.238541 37.248608 -1.567057 1.178559 -0.028898 0.007133 -92976.400000 0 0 1
-0.153319 34.494561 15.775541 37.931068 -1.566352 1.141864 -0.033800 0.011629 -64982.000000 0 0 1
-1.392419 34.495161 16.437141 38.236561 -1.530453 1.126436 -0.023637 0.011751 -352459.000000 0 0 1
-1.263119 34.583661 17.830541 38.930108 -1.534289 1.095036 -0.025111 0.010204 300547.000000 0 0 1
-2.619119 -34.559605 18.554441 39.312763 1.495155 1.079272 -0.028850 0.010132 -310421.000000 0 0 1
-3.467219 33.730361 18.604341 38.676613 -1.468364 1.068975 -0.022123 0.007051 -776374.000000 0 0 1
-4.485719 34.041361 19.525241 39.499000 -1.439779 1.053741 -0.014592 0.002081 -518550.000000 0 0 1
-5.585019 32.982861 19.454441 38.698021 -1.403057 1.044049 -0.007113 0.008551 -473585.000000 0 0 1
-6.416119 33.178761 18.348941 38.453614 -1.379774 1.073364 -0.002147 0.004153 -97064.300000 0 0 1
-7.588319 32.384561 18.426441 38.024678 -1.340630 1.064900 0.001592 0.003349 -268741.000000 0 0 1
-8.540419 32.559861 17.263541 37.830056 -1.314276 1.096914 0.005327 0.000438 -279807.000000 0 0 1
-9.492319 33.575561 17.584741 39.072312 -1.295272 1.103968 0.018543 -0.000424 -3277.540000 0 0 1
-10.143319 34.230761 16.525841 39.341268 -1.282717 1.137281 0.010693 -0.006231 147747.000000 0 0 1
-11.314819 -34.212505 16.934941 39.815987 1.251398 1.131470 0.017954 -0.004585 95646.300000 0 0 1
-12.345919 34.428661 17.552741 40.569116 -1.226486 1.123352 0.024621 0.005690 -309863.000000 0 0 1
-13.491019 -34.121605 17.682241 40.730249 1.194279 1.121724 0.023663 -0.000100 929120.000000 0 0 1
-14.571719 -34.610505 18.736141 41.967428 1.172301 1.108008 0.025296 0.010821 830904.000000 0 0 1
-14.241319 -34.183805 20.058141 42.115041 1.176053 1.074388 0.018691 0.002685 -78808.500000 0 0 1
-15.300419 -34.476405 20.915841 43.130010 1.153115 1.064492 0.018299 0.007294 -96915.700000 0 0 1
-15.025319 -33.737305 22.266741 43.125094 1.151806 1.028237 0.015436 0.002698 -19496.800000 0 0 1
-15.075019 -32.319305 22.232041 42.024485 1.134355 1.013344 0.023121 0.006634 -24745.500000 0 0 1
-14.834019 -31.820205 23.523441 42.260216 1.134567 0.980469 0.020241 0.004353 166517.000000 0 0 1
-14.733619 -30.247305 23.604741 41.099426 1.117518 0.959008 0.029158 0.002437 -31729.200000 0 0 1
-14.714519 -29.699505 24.950841 41.486409 1.110798 0.925516 0.031026 -0.008324 -170801.000000 0 0 1
-14.589519 -28.277105 24.968541 40.445974 1.094472 0.905451 0.024978 -0.002157 919259.000000 0 0 1
-15.963419 -27.557505 24.642341 40.267751 1.045754 0.912257 0.034680 0.001686 317308.000000 0 0 1
-16.884519 -27.511205 25.662641 41.237417 1.020341 0.899100 0.046709 -0.004770 -135868.000000 0 0 1
-18.057619 -26.848405 25.182541 41.000913 0.978713 0.909431 0.049738 0.000659 193847.000000 0 0 1
-19.259419 -26.735805 26.169241 42.077995 0.946536 0.899601 0.033712 0.006134 451697.000000 0 0 1
-19.969519 -27.961705 26.426241 43.347259 0.950621 0.915189 0.030839 0.003479 334024.000000 0 0 1
-20.659519 -28.601605 25.358441 43.450179 0.945247 0.947615 0.035595 0.003520 -876338.000000 0 0 1
-22.068619 -28.112505 25.052941 43.646154 0.905262 0.959413 0.044528 0.014552 -796574.000000 0 0 1
-22.037419 -26.715905 24.616041 42.489256 0.881068 0.952868 0.045199 0.005221 132879.000000 0 0 1
-23.329719 -26.372505 24.169441 42.707689 0.846542 0.969239 0.030938 0.008202 -232779.000000 0 0 1
-23.518819 -24.910905 23.700341 41.658063 0.814135 0.965597 0.024645 0.019542 -122439.000000 0 0 1
-23.786419 -24.074405 24.827541 41.973533 0.791415 0.937873 0.016214 0.023935 189349.000000 0 0 1
-24.314319 -22.812005 24.525841 41.389498 0.753531 0.936561 0.004324 0.026108 109420.000000 0 0 1
-24.734719 -21.980305 25.769841 41.940730 0.726504 0.909127 0.007685 0.027031 22442.100000 0 0 1
-25.800109 -22.565005 26.485741 43.316504 0.718608 0.912909 -0.006317 0.034528 3305.830000 0 0 1
-26.015679 -21.847005 27.682341 43.822588 0.698521 0.887064 -0.008705 0.025735 -397284.000000 0 0 1
-27.381999 -22.264405 28.304441 45.239573 0.682680 0.894823 -0.009279 0.025475 27009.300000 0 0 1
-28.511609 -21.733305 27.678941 45.292076 0.651302 0.913320 -0.012837 0.023233 88864.300000 0 0 1
-29.033589 -22.496305 26.557941 45.325018 0.659208 0.944751 -0.016943 0.030603 13999.100000 0 0 1
-30.541389 -22.863105 26.738241 46.587891 0.642601 0.959498 -0.032885 0.030611 578479.000000 0 0 1
-31.181689 -23.559305 25.646341 46.744769 0.647043 0.990052 -0.034849 0.030282 369447.000000 0 0 1
-30.537269 -24.771305 25.204741 46.705688 0.681523 1.000775 -0.039788 0.029224 -779853.000000 0 0 1
-31.057759 -25.216005 23.803841 46.551629 0.681959 1.034050 -0.046049 0.027371 -378539.000000 0 0 1
-32.312739 -25.828905 23.748841 47.699611 0.674339 1.049640 -0.050324 0.023766 -378242.000000 0 0 1
-32.624949 -26.216405 22.448641 47.493459 0.676914 1.078480 -0.041375 0.024671 -479473.000000 0 0 1
-33.746639 -27.233405 22.368741 48.794001 0.678992 1.094566 -0.028189 0.013830 -925032.000000 0 0 1
-33.610689 -28.520505 22.996641 49.718639 0.703654 1.089943 -0.031892 0.011933 -173517.000000 0 0 1
-32.540639 -29.299205 22.544341 49.250217 0.733029 1.095332 -0.042697 0.013117 -701354.000000 0 0 1
-32.975179 -30.469005 21.625941 49.833764 0.745917 1.121911 -0.034616 0.014138 -224784.000000 0 0 1
-33.238479 -30.072505 20.277641 49.196898 0.735433 1.145958 -0.042483 0.018750 492467.000000 0 0 1
-33.504099 -31.180305 19.398241 49.709434 0.749489 1.169912 -0.025338 0.015307 -359809.000000 0 0 1
-34.031229 -30.857705 17.998241 49.338212 0.736530 1.197386 -0.027131 0.021210 -1261330.000000 0 0 1
-33.061889 -30.289505 17.182041 48.018383 0.741664 1.204862 -0.013171 0.011870 -107935.000000 0 0 1
-33.540259 -29.778405 15.919641 47.593459 0.726056 1.229730 -0.006960 0.013164 -64454.400000 0 0 1
-34.163800 -30.728505 14.859641 48.293014 0.732509 1.258024 -0.002389 0.000119 -327209.000000 0 0 1
-33.289989 -31.719105 14.359341 48.171731 0.761239 1.268109 0.006584 -0.008509 -236787.000000 0 0 1
-33.768549 -32.524605 13.255241 48.722338 0.766636 1.295267 0.010608 -0.012332 28540.100000 0 0 1
-33.942939 -31.795905 11.878541 48.002108 0.752750 1.320740 0.022622 -0.020247 291370.000000 0 0 1
34.747917 -31.068005 11.610441 48.035830 -0.729544 1.326675 0.010637 -0.017445 256100.000000 0 0 1
34.846908 -30.521305 10.300341 47.454758 -0.719322 1.351999 -0.002078 -0.018845 -218853.000000 0 0 1
33.771561 -29.498105 9.862541 45.912158 -0.717957 1.354296 0.011179 -0.015945 -132490.000000 0 0 1
33.720301 -28.279705 10.483141 45.240432 -0.697871 1.336950 0.014385 -0.023178 136637.000000 0 0 1
32.651401 -27.513805 9.962241 43.844837 -0.700213 1.341579 0.001120 -0.020791 -422759.000000 0 0 1
32.936681 -26.628505 8.686041 43.235975 -0.679888 1.368521 0.001765 -0.020178 -41587.300000 0 0 1
33.425571 -25.330905 8.960241 42.886006 -0.648494 1.360314 0.016122 -0.030184 -2339.480000 0 0 1
33.882225 -24.653805 7.827641 42.627306 -0.629031 1.386119 0.021329 -0.028293 -174177.000000 0 0 1
34.374367 -23.186805 8.086341 42.244691 -0.593432 1.378191 0.031202 -0.036146 -567797.000000 0 0 1
33.451901 -22.197605 8.413941 41.018993 -0.585854 1.364207 0.021936 -0.033192 -895843.000000 0 0 1
33.948443 -20.917305 8.102241 40.690008 -0.552209 1.370335 0.034185 -0.028470 105535.000000 0 0 1
33.084051 -19.819105 8.784241 39.553941 -0.539723 1.346846 0.042889 -0.020826 -231401.000000 0 0 1
33.260071 -19.836205 10.193041 40.045043 -0.537766 1.313425 0.034310 -0.034856 -458626.000000 0 0 1
32.530381 -18.952005 10.999641 39.222395 -0.527523 1.286541 0.034732 -0.020214 -361650.000000 0 0 1
32.856841 -19.113705 12.492341 40.012052 -0.526875 1.253273 0.029050 -0.034571 -384181.000000 0 0 1
33.950114 -18.353505 12.908441 40.695076 -0.495599 1.248022 0.001556 -0.022451 -92155.100000 0 0 1
34.447151 -18.820105 14.174141 41.733785 -0.500034 1.224270 0.004332 -0.018680 797979.000000 0 0 1
-34.072492 -18.156705 14.617741 41.282914 0.489608 1.208859 0.000279 -0.013992 318367.000000 0 0 1
-32.871269 -18.405805 13.968841 40.179877 0.510440 1.215725 0.001543 -0.020221 -294768.000000 0 0 1
-31.820929 -17.735205 14.635541 39.259497 0.508464 1.188783 0.001264 -0.012783 -77487.600000 0 0 1
-30.472559 -17.871205 13.896741 37.961510 0.530411 1.196009 0.014696 -0.014191 -172205.000000 0 0 1
-30.098489 -19.244805 13.835041 38.310441 0.568883 1.201317 0.006414 -0.006588 -225462.000000 0 0 1
-28.890339 -19.331305 13.129741 37.158325 0.589704 1.209651 -0.017259 0.003810 -412072.000000 0 0 1
-28.288749 -20.733005 12.988841 37.400813 0.632471 1.216119 -0.033174 -0.009994 -283380.000000 0 0 1
-28.913689 -21.480805 11.968241 37.956095 0.638960 1.250005 -0.022574 -0.006599 -357346.000000 0 0 1
-28.008369 -21.981605 11.014141 37.268901 0.665418 1.270784 -0.027135 0.001872 -508865.000000 0 0 1
-28.633859 -22.789305 9.819841 37.890362 0.672228 1.308639 -0.011393 -0.006823 372669.000000 0 0 1
-29.280549 -23.997205 10.206741 39.209615 0.686555 1.307451 -0.004068 -0.009548 -452438.000000 0 0 1
-30.576269 -23.859205 10.706241 40.234233 0.662624 1.301454 0.005277 -0.015287 -694658.000000 0 0 1
-31.381579 -25.172305 10.937041 41.690134 0.676042 1.305349 0.027488 -0.021548 17926.700000 0 0 1
-31.807539 -25.770405 9.742941 42.080378 0.680928 1.337144 0.032476 -0.020866 -73053.200000 0 0 1
-32.373499 -27.047805 9.920341 43.336363 0.696011 1.339833 0.037021 -0.018153 27250.900000 0 0 1
-32.636119 -27.692605 8.565541 43.650488 0.703638 1.373285 0.036275 -0.017738 1249030.000000 0 0 1
-31.370259 -27.907105 7.876541 42.719311 0.727042 1.385356 0.031410 -0.022519 1222480.000000 0 0 1
-31.591989 -28.499205 6.622841 43.059499 0.733975 1.416377 0.026534 -0.016196 -112340.000000 0 0 1
-30.273919 -28.858205 5.914241 42.240791 0.761461 1.430322 0.027562 -0.014831 137337.000000 0 0 1
-29.647629 -27.760005 5.239441 40.951819 0.752529 1.442503 0.032287 -0.012113 187217.000000 0 0 1
-28.383579 -28.221405 4.764341 40.308488 0.782533 1.452322 0.030833 -0.011946 460987.000000 0 0 1
-27.505909 -27.106405 4.110441 38.835910 0.778083 1.464756 0.035473 -0.010138 76894.200000 0 0 1
-28.029089 -26.502005 2.931641 38.685664 0.757402 1.494943 0.032996 -0.003383 -754112.000000 0 0 1
-27.183749 -25.564805 2.391741 37.392992 0.754716 1.506790 0.023161 -0.015588 -1070540.000000 0 0 1
-27.571389 -24.845105 1.062941 37.129376 0.733433 1.542164 0.018595 -0.010132 -444092.000000 0 0 1
-27.214399 -25.682505 -0.037059 37.419459 0.756446 1.571787 0.015043 -0.008835 -24520.200000 0 0 1
-27.338259 -25.098405 -1.310559 37.135265 0.742709 1.606095 0.003106 -0.008040 699363.000000 0 0 1
-28.822869 -24.957405 -1.821859 38.170001 0.713646 1.618545 0.011206 -0.006895 754606.000000 0 0 1
-29.485089 -23.774505 -1.378159 37.901146 0.678585 1.607166 0.012914 -0.003488 29923.200000 0 0 1
-30.811989 -23.874305 -1.885559 39.024562 0.659209 1.619132 0.019562 -0.004405 191906.000000 0 0 1
-31.695249 -22.634205 -1.691959 38.984083 0.620140 1.614211 0.016589 -0.005076 -113511.000000 0 0 1
-31.897709 -22.429405 -0.324159 38.995475 0.612848 1.579109 0.021451 -0.011835 -437796.000000 0 0 1
-32.664149 -21.309605 -0.159759 39.000915 0.578050 1.574893 0.018687 -0.001226 -571454.000000 0 0 1
-32.710579 -20.932505 1.345141 38.858218 0.569264 1.536173 0.021276 -0.007846 66702.200000 0 0 1
-33.575589 -21.793805 2.088341 40.083055 0.575740 1.518672 0.038328 -0.013459 427325.000000 0 0 1
-33.547009 -21.421605 3.458241 39.953052 0.568287 1.484130 0.041943 -0.020547 -306979.000000 0 0 1
-34.677263 -22.257605 4.145441 41.413744 0.570625 1.470530 0.054663 -0.014801 1225690.000000 0 0 1
33.866898 -22.004505 3.684041 40.555359 -0.576189 1.479831 0.032993 -0.003269 355130.000000 0 0 1
33.245111 -20.843205 4.169941 39.459663 -0.560004 1.464923 0.036327 -0.016021 -734530.000000 0 0 1
31.978771 -20.590205 3.338241 38.180390 -0.572055 1.483251 0.016220 0.000431 -92309.200000 0 0 1
30.999981 -21.612505 3.451641 37.947504 -0.608829 1.479712 0.006994 0.006986 260498.000000 0 0 1
29.781051 -21.085205 2.925141 36.606739 -0.616080 1.490804 -0.000247 0.010804 523673.000000 0 0 1
28.505711 -21.943905 2.937041 36.093445 -0.656058 1.489333 -0.011967 0.027833 24842.300000 0 0 1
28.437851 -23.061605 2.008841 36.668576 -0.681381 1.515985 -0.029716 0.024988 -164633.000000 0 0 1
27.274571 -23.841105 2.179641 36.291202 -0.718328 1.510700 -0.036855 0.032204 43724.500000 0 0 1
27.155611 -25.082805 1.289041 36.989673 -0.745739 1.535941 -0.040189 0.032133 -154334.000000 0 0 1
27.058121 -24.773505 -0.060159 36.686129 -0.741349 1.572436 -0.043712 0.021587 40546.200000 0 0 1
26.330361 -25.822205 -0.653359 36.884971 -0.775655 1.588511 -0.026063 0.009134 -617969.000000 0 0 1
25.620521 -25.356405 -1.899859 36.096646 -0.780217 1.623453 -0.014784 -0.003356 -615847.000000 0 0 1
26.456241 -24.939505 -2.952959 36.477823 -0.755896 1.651837 -0.021992 -0.013999 -157972.000000 0 0 1
26.717741 -25.925105 -3.941159 37.436366 -0.770342 1.676268 -0.006047 -0.018325 -395521.000000 0 0 1
25.646061 -26.250005 -5.031859 37.041906 -0.797035 1.707060 -0.005858 -0.023363 127446.000000 0 0 1
25.272861 -25.179005 -5.921559 36.163029 -0.783538 1.735283 0.002182 -0.037627 527450.000000 0 0 1
24.152101 -24.508405 -5.348259 34.822260 -0.792720 1.724994 0.004770 -0.039295 -375486.000000 0 0 1
23.467901 -23.385705 -6.114259 33.690024 -0.783644 1.753293 0.009567 -0.048757 -331578.000000 0 0 1
22.790701 -23.858405 -7.251059 33.781909 -0.808282 1.787123 0.006979 -0.033232 479498.000000 0 0 1
21.624601 -23.155105 -7.673759 32.598602 -0.819563 1.808428 0.010442 -0.031751 496182.000000 0 0 1
21.948101 -21.851305 -8.444659 32.101572 -0.783188 1.836989 0.008492 -0.031993 -177026.000000 0 0 1
22.442601 -22.016505 -9.821159 32.937091 -0.775814 1.873581 0.015359 -0.032580 278127.000000 0 0 1
22.210501 -20.867905 -10.586359 32.262157 -0.754242 1.905125 0.008174 -0.026129 -675932.000000 0 0 1
23.049301 -20.964305 -11.820759 33.324206 -0.738062 1.933411 -0.003038 -0.007916 -579429.000000 0 0 1
24.380801 -20.554605 -11.646059 33.949167 -0.700454 1.920952 0.004835 -0.012748 -587813.000000 0 0 1
24.898791 -20.303205 -12.902259 34.621355 -0.684079 1.952678 0.001122 -0.015300 -1122650.000000 0 0 1
26.345221 -20.671805 -13.114159 35.963528 -0.665311 1.944055 -0.003654 -0.015384 -874904.000000 0 0 1
26.695451 -22.050305 -13.369759 37.116216 -0.690392 1.939293 -0.009434 -0.013774 78018.000000 0 0 1
27.213901 -22.752005 -12.284259 37.538689 -0.696336 1.904180 0.001795 -0.020549 -284678.000000 0 0 1
27.661231 -24.190105 -12.591559 38.843947 -0.718554 1.900917 -0.002991 -0.017330 -279441.000000 0 0 1
28.896361 -24.271005 -13.258259 39.998285 -0.698620 1.908658 -0.006856 -0.021933 -34609.700000 0 0 1
29.249851 -25.633205 -13.369359 41.126083 -0.719596 1.901895 -0.000985 -0.010322 -139887.000000 0 0 1
-3.770119 -9.386839 -28.183059 29.943469 1.188878 2.796987 -0.006420 0.001495 62826.500000 0 0 1
-3.558819 -8.109439 -27.577729 28.964794 1.157254 2.830867 -0.006862 0.005720 278288.000000 0 0 1
-4.343819 -7.123939 -28.261789 29.467745 1.023239 2.854515 -0.016284 0.002437 78737.200000 0 0 1
-4.322319 -5.792839 -27.497399 28.431433 0.929765 2.884557 -0.015837 0.000554 -324036.000000 0 0 1
-5.025319 -5.821839 -26.287799 27.389706 0.858698 2.856976 -0.019731 0.000632 96826.600000 0 0 1
-4.885819 -4.657339 -25.521289 26.398830 0.761461 2.883029 -0.008042 0.007298 -63104.700000 0 0 1
-5.478819 -4.763239 -24.082659 25.153138 0.715645 2.848800 -0.011063 0.012369 -166279.000000 0 0 1
-4.724019 -5.550239 -23.205159 24.322847 0.865642 2.837262 -0.018857 0.004966 207993.000000 0 1 0
-5.196619 -5.409739 -21.870959 23.121612 0.805489 2.811184 -0.017981 0.005453 -216246.000000 0 1 0
-4.738419 -6.400139 -20.815559 22.286809 0.933492 2.776206 -0.002684 -0.003506 -381987.000000 0 1 0
-5.285219 -7.682639 -21.013959 22.990062 0.968208 2.723944 -0.005030 0.001719 711217.000000 0 1 0
-4.433819 -8.671139 -20.405759 22.610670 1.098125 2.696298 0.002496 -0.003298 -553871.000000 0 1 0
-5.033719 -10.114439 -20.352459 23.277946 1.109009 2.634837 0.003713 0.002070 -180815.000000 0 1 0
-6.034419 -10.245739 -19.399159 22.753389 1.038528 2.591705 0.002730 -0.003102 763417.000000 0 1 0
-7.345019 -9.719139 -19.719959 23.179468 0.923640 2.588209 0.005354 -0.006429 503846.000000 0 1 0
-8.392819 -9.849739 -18.584759 22.646192 0.865093 2.533356 -0.000624 0.000447 -88731.700000 0 1 0
-8.951119 -11.164939 -18.543659 23.423187 0.895009 2.484350 0.008765 -0.001352 238145.000000 0 1 0
-9.769119 -11.344639 -17.371959 22.932978 0.859881 2.430287 0.010253 -0.001624 294067.000000 0 1 0
-10.791419 -12.512039 -17.556759 24.109036 0.859100 2.386522 0.032227 0.003181 -82066.300000 0 1 0
-11.876219 -12.273039 -18.419859 25.118982 0.801829 2.393966 0.032258 -0.000641 4278.580000 0 0 1
-11.575319 -12.099539 -19.817759 25.944757 0.807537 2.440045 0.026391 0.000606 -427645.000000 0 0 1
-12.896219 -11.903339 -20.644359 27.095968 0.745383 2.437035 0.008532 0.005341 979847.000000 0 0 1
-13.789619 -12.996939 -20.861959 28.183246 0.755814 2.404202 0.009764 0.009220 108757.000000 0 0 1
-14.585219 -13.297539 -19.762359 27.930341 0.739249 2.356834 0.010953 0.005326 -544587.000000 0 0 1
-15.756319 -14.288839 -20.073459 29.246816 0.736594 2.327250 0.007951 0.008951 -45896.300000 0 0 1
-15.421719 -15.688739 -20.137759 29.824407 0.793981 2.312047 0.009261 0.012281 -143224.000000 0 0 1
-15.969419 -16.381639 -21.258359 31.229765 0.798140 2.319525 -0.001212 0.009393 -301756.000000 0 0 1
-15.354019 -17.793039 -21.456659 31.823361 0.858848 2.310735 0.005663 0.008569 -279218.000000 0 0 1
-15.621619 -18.731439 -20.434759 31.819509 0.875677 2.268172 0.018647 0.016886 205784.000000 0 0 1
-15.086519 -20.024939 -20.849559 32.608363 0.925131 2.264505 0.021100 0.015835 258692.000000 0 0 1
-15.828519 -21.203939 -20.115059 33.238000 0.929546 2.220792 0.025928 0.005855 212676.000000 0 0 1
-15.253419 -22.415039 -20.503859 33.992778 0.973278 2.218282 0.033887 0.013510 460413.000000 0 0 1
-15.969519 -23.508139 -19.868859 34.676068 0.974086 2.180939 0.045833 0.008189 392572.000000 0 0 1
-15.428719 -24.856539 -20.333759 35.628004 1.015287 2.178184 0.044640 0.009925 10745.200000 0 0 1
-15.724319 -25.193669 -21.713659 36.789375 1.012817 2.202122 0.028044 0.012353 694967.000000 0 0 1
-14.959019 -26.402409 -22.050359 37.511035 1.055315 2.199178 0.026795 0.006966 469772.000000 0 0 1
-15.088319 -26.772479 -23.577459 38.733959 1.057590 2.225221 0.033335 0.001097 155966.000000 0 0 1
-16.253719 -27.447689 -24.036459 39.941336 1.036154 2.216542 0.033341 0.004118 -25466.300000 0 0 1
-16.054919 -28.826569 -24.158959 40.894826 1.062634 2.202795 0.029894 0.013941 -254346.000000 0 0 1
-17.067419 -29.607879 -24.999859 42.342841 1.047874 2.202370 0.029320 0.009289 -418509.000000 0 0 1
-17.114719 -29.525019 -26.451119 43.177564 1.045461 2.230158 0.027649 0.010745 90989.700000 0 0 1
-17.326719 -28.207189 -27.026699 42.735268 1.019953 2.255471 0.055284 -0.001690 459829.000000 0 0 1
-16.071519 -27.804669 -27.858669 42.514689 1.046699 2.285338 0.048340 -0.006998 -436271.000000 0 0 1
-16.244419 -28.330409 -29.168119 43.786669 1.050172 2.299820 0.042913 -0.003773 607650.000000 0 0 1
-15.032519 -27.999099 -29.845019 43.596460 1.078072 2.324816 0.017977 0.006897 73482.200000 0 0 1
-15.161119 -28.215179 -31.351039 44.820124 1.077726 2.345474 0.020598 -0.000857 -77835.200000 0 0 1
-15.238719 -29.590739 -31.582369 45.883291 1.095235 2.329966 -0.005156 0.004633 97051.100000 0 0 1
-15.678419 -29.802349 -32.886469 47.069232 1.086503 2.344351 0.000337 0.009531 -69156.000000 0 0 1
-15.793819 -31.269049 -33.376119 48.385570 1.103082 2.332002 -0.004169 0.014257 -598612.000000 0 0 1
-14.628919 -31.766119 -33.986959 48.766843 1.139229 2.341901 -0.005623 0.026533 -199313.000000 0 0 1
-15.023419 -32.904579 34.514889 49.996920 1.142488 0.808837 -0.015544 0.032722 157074.000000 0 0 1
-13.859719 -33.661569 33.838524 49.701496 1.180213 0.821894 -0.018718 0.022372 169034.000000 0 0 1
-13.082619 -34.538808 34.634450 50.632295 1.208716 0.817511 -0.005719 0.019173 -278005.000000 0 0 1
-12.145119 34.205990 33.803330 49.600593 -1.229622 0.820971 -0.000873 0.014590 -503069.000000 0 0 1
-11.142019 33.348259 34.557237 49.299631 -1.248346 0.794049 0.017893 0.011423 -130859.000000 0 0 1
-10.219219 34.096860 -33.953629 49.192247 -1.279604 2.332594 0.023108 0.018045 112693.000000 0 0 1
-9.195319 33.307367 -33.327619 48.006924 -1.301431 2.338139 0.017899 0.006326 691186.000000 0 0 1
-8.413919 34.195944 -32.335499 47.809425 -1.329539 2.313581 0.023645 0.004791 -58286.800000 0 0 1
-9.296919 34.597881 -31.332669 47.593930 -1.308284 2.289399 0.014468 0.002966 53624.500000 0 0 1
-8.735719 -33.621909 -30.657759 46.331887 1.316595 2.293879 0.007199 0.003290 625810.000000 0 0 1
-9.769719 -32.856379 -29.735889 45.378542 1.281776 2.285356 0.005404 0.007771 603036.000000 0 0 1
-10.044719 -33.395929 -28.443429 45.002367 1.278627 2.254983 0.017905 0.005825 42861.400000 0 0 1
-10.493919 34.609873 -28.287469 45.914557 -1.276401 2.234565 0.032648 -0.002174 -109349.000000 0 0 1
-10.843919 34.423133 -26.833919 44.973346 -1.265619 2.210132 0.041983 -0.006839 -176276.000000 0 0 1
-9.723419 34.550637 -26.006289 44.324016 -1.296467 2.197813 0.035172 -0.009581 -459085.000000 0 0 1
-10.030719 34.235102 -24.653259 43.364048 -1.285778 2.175500 0.036457 -0.017426 429185.000000 0 0 1
-8.869519 34.421625 -23.614959 42.675320 -1.318609 2.157193 0.035299 -0.019372 503628.000000 0 0 1
-7.823619 33.471818 -23.702159 41.753610 -1.341181 2.174466 0.023012 -0.023875 -301586.000000 0 0 1
-7.101419 33.545377 -22.528259 41.027368 -1.362180 2.152087 0.027053 -0.016625 -224152.000000 0 0 1
-6.133119 32.353467 -22.205159 39.716886 -1.383453 2.164079 0.012360 -0.011327 426169.000000 0 0 1
-5.085319 32.195337 -23.145959 39.976688 -1.414139 2.188281 -0.003436 -0.017754 -22468.600000 0 0 1
-4.494019 30.892447 -23.042259 38.800582 -1.426337 2.206649 -0.013557 -0.014557 1382890.000000 0 0 1
-2.922319 30.897657 -23.323359 38.822470 -1.476496 2.215260 -0.025737 -0.013195 1295390.000000 0 0 1
-2.448419 31.102727 -24.699059 39.792184 -1.492238 2.240433 -0.028992 -0.006694 147532.000000 0 0 1
-3.027719 32.197347 -25.383119 41.111299 -1.477036 2.236261 -0.022134 -0.010372 -390870.000000 0 0 1
-2.189419 32.421847 -26.699639 42.057585 -1.503370 2.258592 -0.019922 0.009783 174272.000000 0 0 1
-1.144719 33.375197 -26.643839 42.721286 -1.536511 2.244221 -0.022184 -0.002141 -259839.000000 0 0 1
-1.566719 -34.636982 -26.491359 43.634473 1.525595 2.223227 -0.020341 0.001682 -907583.000000 0 0 1
-0.685919 -33.511079 -27.035449 43.062494 1.550331 2.249544 -0.028709 0.013652 224659.000000 0 0 1
0.479181 -33.433359 -26.180599 42.466962 -1.556465 2.235078 -0.014271 0.004637 175240.000000 0 0 1
1.156081 -32.293059 -26.637549 41.877645 -1.535012 2.260204 -0.014624 0.012125 -967858.000000 0 0 1
2.340981 -31.820089 -25.845639 41.060873 -1.497359 2.251638 -0.006868 0.009623 -1003270.000000 0 0 1
2.086781 -31.315909 -24.552259 39.847888 -1.504258 2.234641 -0.013004 0.009456 303515.000000 0 0 1
3.282081 -30.774699 -24.011759 39.171657 -1.464549 2.230633 -0.017140 0.009424 51443.500000 0 0 1
3.100081 -30.036869 -22.685759 37.768607 -1.467951 2.215112 -0.015571 0.008904 -205890.000000 0 0 1
3.026481 -30.949979 -21.601759 37.864188 -1.473320 2.177919 -0.011838 0.003280 322959.000000 0 0 1
2.640781 -30.297819 -20.382159 36.610981 -1.483855 2.161231 -0.005203 0.006139 -657808.000000 0 0 1
2.271781 -31.253499 -19.217259 36.759287 -1.498235 2.120913 -0.000962 0.005882 -626135.000000 0 0 1
1.090381 -31.980219 -19.378859 37.409404 -1.536714 2.115332 -0.001957 0.004855 -462995.000000 0 0 1
1.322881 -33.329999 -19.813059 38.796857 -1.531127 2.106780 -0.003432 0.008277 -205348.000000 0 0 1
1.765381 -34.383337 -18.752459 39.204402 -1.519497 2.069543 -0.015154 -0.000893 514261.000000 0 0 1
3.135881 -34.192269 -18.397559 38.954014 -1.479339 2.062682 -0.013008 0.002988 401990.000000 0 0 1
3.708081 34.161394 -17.610859 38.612084 1.462674 2.044401 -0.001034 -0.003307 159122.000000 0 0 1
4.725881 33.260367 -18.342859 38.275925 1.429654 2.070570 0.009630 -0.009738 809365.000000 0 0 1
5.985381 33.924691 -18.615659 39.156764 1.396162 2.066230 0.026467 -0.016451 339270.000000 0 0 1
6.862981 32.983647 -19.158859 38.756720 1.365651 2.087868 0.028472 -0.017796 -1027990.000000 0 0 1
8.187381 33.539670 -19.592459 39.696437 1.331368 2.086971 0.026359 -0.011114 -802658.000000 0 0 1
9.041581 33.797912 -18.497359 39.575261 1.309398 2.057140 0.020535 -0.004518 -704634.000000 0 0 1
10.226981 34.401797 -18.882159 40.553800 1.281836 2.055117 0.017502 0.008622 95488.900000 0 0 1
11.311181 34.652518 -17.767459 40.551478 1.255283 2.024331 -0.000018 0.011527 406829.000000 0 0 1
12.097481 33.529675 -17.484859 39.702751 1.224533 2.026834 -0.002420 0.008088 287236.000000 0 0 1
12.985381 33.720614 -16.356459 39.664010 1.203211 1.995856 -0.015167 0.002329 372978.000000 0 0 1
13.977681 32.582397 -16.035159 38.911624 1.165547 1.995545 -0.008031 0.004998 288476.000000 0 0 1
13.396981 31.445907 -15.407759 37.492975 1.168051 1.994293 -0.009131 0.009403 -359874.000000 0 0 1
14.378181 30.515157 -15.035659 36.932072 1.130468 1.990091 -0.010977 0.013549 -246038.000000 0 0 1
13.926181 29.410007 -14.039959 35.440196 1.128557 1.978126 -0.019466 0.022458 -263251.000000 0 0 1
13.944881 29.921917 -12.714459 35.375674 1.134682 1.938435 -0.005705 0.013797 -49402.300000 0 0 1
12.869681 29.569227 -11.862559 34.361143 1.160285 1.923282 0.014265 0.015798 46747.300000 0 0 1
12.662381 28.082597 -11.460359 32.868039 1.147196 1.926956 0.000405 0.020116 -661035.000000 0 0 1
12.010881 27.283767 -12.409459 32.290244 1.156104 1.965256 -0.009901 0.018135 -50436.000000 0 0 1
11.611381 25.969537 -11.989359 30.870467 1.150344 1.969665 0.009916 0.012706 676458.000000 0 0 1
10.535081 25.848807 -10.852259 29.948627 1.183785 1.941598 0.007145 0.002468 -754800.000000 0 0 1
9.375881 26.563767 -10.984759 30.235836 1.231489 1.942607 0.012249 0.012357 -700947.000000 0 0 1
8.848881 26.920887 -9.716659 29.957475 1.253222 1.901119 -0.000363 0.017207 364216.000000 0 0 1
7.744381 28.011487 -9.735359 30.649568 1.301062 1.894030 -0.000664 0.016893 567787.000000 0 0 1
8.309681 29.228487 -10.235459 32.064308 1.293804 1.895699 0.004077 0.011204 259827.000000 0 0 1
7.281581 30.180067 -10.339059 32.722378 1.334050 1.892268 0.006411 0.005727 151091.000000 0 0 1
7.821481 31.478157 -10.966959 34.239219 1.327255 1.896847 0.016988 0.001546 10612.800000 0 0 1
8.851981 31.998427 -10.131159 34.711630 1.300908 1.866974 -0.004300 0.005307 -258338.000000 0 0 1
9.190781 33.292467 -10.492159 36.096318 1.301443 1.865725 0.024114 -0.000506 -374725.000000 0 0 1
10.259281 33.419539 -11.580059 36.826841 1.272944 1.890669 0.008611 -0.001057 -625425.000000 0 0 1
11.582381 33.296027 -11.106959 36.961351 1.236029 1.876015 -0.002178 0.009507 -656482.000000 0 0 1
12.447081 33.754374 -12.078859 37.949788 1.217512 1.894716 0.018441 0.004359 -944637.000000 0 0 1
13.901981 33.749089 -11.635159 38.309829 1.180055 1.879383 0.019726 0.005364 -395582.000000 0 0 1
14.352581 -34.671847 -10.693359 39.018989 -1.178318 1.848404 0.034445 0.000077 -8294.600000 0 0 1
15.725081 34.589680 -10.383159 39.389518 1.144109 1.837551 0.024381 -0.004378 265888.000000 0 0 1
16.330281 -33.898859 -9.258659 38.749626 -1.121867 1.812066 0.045121 -0.014870 73312.000000 0 0 1
16.351081 -34.544895 -7.963259 39.039994 -1.128713 1.776215 0.034922 -0.012492 155864.000000 0 0 1
16.845681 -33.689159 -6.892959 38.291635 -1.107123 1.751795 0.024016 -0.011195 -994168.000000 0 0 1
17.223281 -34.426149 -5.580659 38.896592 -1.106912 1.714767 0.016798 0.001602 40293.700000 0 0 1
18.254081 34.022736 -5.755159 39.036904 1.078357 1.718764 0.013083 -0.002700 318838.000000 0 0 1
19.557781 34.524102 -6.102959 40.145567 1.055376 1.723409 0.010658 0.002219 -283947.000000 0 0 1
20.252581 33.538837 -7.112359 39.819672 1.027547 1.750374 0.003149 0.008210 224202.000000 0 0 1
20.512181 32.225567 -6.683559 38.780236 1.003957 1.744006 0.014954 0.017345 88200.800000 0 0 1
21.203181 32.104197 -5.431759 38.855609 0.987111 1.711049 0.008833 0.013666 -622986.000000 0 0 1
21.491681 30.673637 -4.934659 37.777179 0.959630 1.701796 0.002080 0.005943 -630550.000000 0 0 1
22.360281 30.104077 -5.843459 37.952386 0.931941 1.725379 0.005052 0.010856 -718361.000000 0 0 1
22.519781 28.705307 -5.565259 36.906738 0.905568 1.722166 0.007632 0.018002 -560834.000000 0 0 1
23.501481 27.981797 -6.483959 37.112563 0.872204 1.746408 -0.004179 0.021947 -123952.000000 0 0 1
24.830881 28.456707 -6.221759 38.276195 0.853336 1.734070 -0.002470 0.016470 -864491.000000 0 0 1
25.660481 27.757317 -7.014459 38.446477 0.824632 1.754271 -0.014146 0.017577 -1037270.000000 0 0 1
26.502081 26.745867 -6.202959 38.159906 0.789976 1.734073 -0.008108 0.019675 -801464.000000 0 0 1
27.407781 27.445427 -5.390659 39.159892 0.786084 1.708892 -0.000627 0.013769 -447711.000000 0 0 1
27.914381 26.556787 -4.417759 38.781338 0.760480 1.684959 -0.002529 0.018664 48483.100000 0 0 1
29.197281 27.142767 -3.767559 40.042546 0.748948 1.665025 -0.001609 0.013411 74946.800000 0 0 1
28.999881 28.308457 -3.041359 40.640026 0.773334 1.645703 0.015437 -0.003790 50428.900000 0 0 1
30.038381 28.394557 -2.084759 41.387213 0.757274 1.621190 0.024271 -0.006601 311156.000000 0 0 1
29.814081 29.723777 -1.306259 42.119932 0.783881 1.601814 0.037075 -0.007743 274248.000000 0 0 1
30.163581 30.920877 -2.010259 43.243305 0.797795 1.617300 0.009701 -0.004279 274954.000000 0 0 1
29.455581 32.046907 -1.460859 43.551919 0.827507 1.604346 0.022365 -0.006873 155724.000000 0 0 1
32.162211 23.272561 19.713359 44.324220 0.626390 1.109897 -0.012308 0.002832 141916.000000 0 0 1
32.326781 22.936661 21.093559 44.900439 0.617090 1.081749 -0.024284 -0.001348 -36912.600000 0 0 1
33.206701 23.842261 21.722959 46.292822 0.622702 1.082354 -0.012184 -0.000466 26021.700000 0 0 1
32.984401 23.912461 23.250559 46.908048 0.627284 1.052199 -0.015222 -0.002197 438637.000000 0 0 1
31.734001 24.527261 23.567559 46.519493 0.657998 1.039540 -0.019548 -0.004702 467052.000000 0 0 1
31.492831 24.467661 24.948489 47.041386 0.660513 1.011781 -0.008779 -0.007506 -600859.000000 0 0 1
30.209661 25.079561 25.484079 46.808613 0.692876 0.995085 -0.004194 -0.009722 -467809.000000 0 0 1
30.060971 26.462561 25.240009 47.339066 0.721822 1.008447 -0.006214 -0.006340 348049.000000 0 0 1
28.788891 26.909361 25.687089 47.039776 0.751666 0.993129 -0.007464 -0.011802 226860.000000 0 0 1
28.788111 28.468961 25.935729 48.082212 0.779824 1.001067 -0.009154 -0.010723 -138942.000000 0 0 1
28.872841 29.166561 24.683549 47.891615 0.790459 1.029317 -0.011504 -0.011618 2935.110000 0 0 1
28.490561 30.485261 24.878809 48.580020 0.819208 1.033145 -0.010652 -0.008786 -173258.000000 0 0 1
28.655211 31.249961 23.559059 48.504747 0.828685 1.063625 -0.004558 -0.007139 -360709.000000 0 0 1
29.995721 31.627761 23.370359 49.459400 0.811876 1.078653 -0.020936 -0.001502 -501967.000000 0 0 1
30.167961 32.561061 22.313559 49.681219 0.823529 1.105000 -0.019904 -0.000799 -83424.200000 0 0 1
31.634011 32.879561 21.978759 50.644270 0.804703 1.121887 -0.021399 -0.010274 -14900.500000 0 0 1
32.237851 33.746961 22.921359 51.995434 0.808265 1.114269 -0.015352 -0.000637 -649340.000000 0 0 1
33.546531 34.016861 22.536459 52.824318 0.792359 1.130033 -0.013225 0.007314 -566692.000000 0 0 1
34.139594 -34.120505 23.348959 53.618044 -0.785119 1.120238 -0.010140 0.005745 -74651.200000 0 0 1
33.643371 -32.878305 22.900159 52.318989 -0.773898 1.117754 -0.018430 0.004626 191621.000000 0 0 1
34.103322 -31.817505 23.720359 52.326338 -0.750737 1.100314 -0.006858 -0.002392 -648837.000000 0 0 1
33.165371 -30.574505 23.576959 50.898086 -0.744773 1.089172 -0.011375 0.005527 812441.000000 0 0 1
31.855971 -30.848905 24.099259 50.470111 -0.769339 1.072994 -0.015347 0.007133 724712.000000 0 0 1
31.002691 -31.185905 22.984359 49.618628 -0.788344 1.089171 -0.017920 0.015381 -286440.000000 0 0 1
30.166391 -32.485205 23.119059 49.997906 -0.822393 1.090096 -0.023706 0.010829 164832.000000 0 0 1
29.227991 -32.531405 24.172659 49.968842 -0.838836 1.065857 -0.015884 0.001883 65074.600000 0 0 1
28.684321 -33.839505 24.398999 50.628189 -0.867664 1.067946 -0.023848 0.002473 -378656.000000 0 0 1
27.733311 -33.843105 25.578479 50.682846 -0.884297 1.041788 -0.023853 0.002956 -298690.000000 0 0 1
27.373801 34.193661 25.878269 50.874515 0.895719 1.037159 -0.019804 -0.012576 -198979.000000 0 0 1
26.518041 33.993761 26.956569 50.847211 0.908317 1.012021 -0.018397 -0.013200 -843555.000000 0 0 1
26.302451 32.475961 27.279219 49.906540 0.890045 0.992490 -0.015077 -0.010507 728685.000000 0 0 1
25.468051 31.784061 26.325179 48.496012 0.895273 0.996991 -0.022555 -0.002045 229759.000000 0 0 1
24.114101 32.180761 26.262939 48.029504 0.927722 0.992249 -0.020132 -0.003965 -356349.000000 0 0 1
23.451401 31.842761 24.881009 46.722524 0.936007 1.009213 0.004895 -0.011550 176751.000000 0 0 1
23.779201 32.731561 23.802559 46.940040 0.942511 1.038998 0.014285 -0.017921 1403110.000000 0 0 1
25.150721 32.691161 23.304059 47.374571 0.915030 1.056513 -0.006883 -0.008054 1102360.000000 0 0 1
25.396661 33.404261 21.991059 47.375539 0.920747 1.088081 0.007593 -0.003319 1420880.000000 0 0 1
26.774941 33.552961 21.531459 48.023977 0.897282 1.105880 0.001116 0.001008 1284030.000000 0 0 1
26.766341 34.324161 20.366959 48.056197 0.908488 1.133143 -0.000225 0.000685 978866.000000 0 0 1
28.112301 -34.659005 19.604259 48.742949 -0.889317 1.156881 -0.001361 -0.001416 943278.000000 0 0 1
28.679691 33.604261 18.918659 48.059200 0.864300 1.166194 0.000150 0.001021 -548445.000000 0 0 1
29.850601 34.120261 18.348259 48.907149 0.852043 1.186221 -0.008186 0.003479 -394025.000000 0 0 1
30.789371 33.016761 17.798159 48.526965 0.820293 1.195263 -0.019369 0.003116 12417.900000 0 0 1
31.410111 32.265461 18.868559 48.822921 0.798830 1.173996 -0.013129 -0.002634 264990.000000 0 0 1
32.306361 31.330961 18.274559 48.572519 0.770072 1.185070 0.005993 -0.009265 181945.000000 0 0 1
33.408051 30.799161 19.197259 49.327690 0.744788 1.171057 0.018972 -0.020107 -132036.000000 0 0 1
34.317649 31.741261 19.710859 50.731910 0.746417 1.171761 0.029562 -0.015006 145481.000000 0 0 1
-34.653256 31.117561 20.617159 50.933466 -0.731692 1.154051 0.024835 -0.012660 -261095.000000 0 0 1
-33.651549 32.084761 21.203459 51.102302 -0.761568 1.142939 0.015954 -0.010251 -556072.000000 0 0 1
-32.683239 32.460761 20.237659 50.313596 -0.781983 1.156845 0.017857 -0.009017 1456010.000000 0 0 1
-31.513009 33.244361 20.692559 50.263697 -0.812128 1.146500 0.011471 0.001049 1453500.000000 0 0 1
-31.693519 34.630361 21.341759 51.567545 -0.829650 1.144106 -0.002480 0.002967 -465344.000000 0 0 1
-32.095039 34.565661 22.696359 52.345020 -0.822444 1.122322 0.007736 0.002648 215728.000000 0 0 1
-31.955249 -33.584605 23.425559 51.940547 0.810254 1.102903 -0.006064 0.009070 -203756.000000 0 0 1
-31.966789 -33.795605 24.986389 52.804717 0.813200 1.077894 0.002395 -0.004275 233260.000000 0 0 1
-33.223739 -34.137105 25.580189 54.069444 0.798957 1.077992 0.010825 0.004829 126869.000000 0 0 1
-33.190049 34.445361 26.768489 54.814362 -0.803956 1.060601 0.014079 -0.001733 -460058.000000 0 0 1
-34.468388 34.632661 27.547649 56.092459 -0.787775 1.057431 0.003428 -0.007063 -537082.000000 0 0 1
-34.495306 33.753061 28.689879 56.145386 -0.774523 1.034457 0.014138 -0.014852 391509.000000 0 0 1
34.156288 33.805561 29.456469 56.366227 0.780238 1.020909 0.017722 -0.021161 773061.000000 0 0 1
34.054781 32.692761 30.455689 56.179122 0.764995 0.997841 0.017988 -0.013850 -48711.800000 0 0 1
33.807611 31.357361 29.980359 55.000551 0.747815 0.994298 0.007291 -0.014721 441972.000000 0 0 1
-34.911778 30.705361 29.427489 55.023891 -0.721380 1.006510 0.007779 -0.016945 -4885.220000 0 0 1
34.705343 29.268161 29.044259 53.894852 0.700611 1.001658 0.019470 -0.016400 -506084.000000 0 0 1
33.710951 29.017061 28.083509 52.603246 0.710708 1.007621 0.008701 -0.011248 -16726.200000 0 0 1
33.507031 27.653661 27.792019 51.573660 0.689984 1.001689 0.016738 -0.016444 23068.000000 0 0 1
33.124971 26.616761 28.869869 51.372999 0.676887 0.974036 0.014347 -0.017073 -527381.000000 0 0 1
34.201927 26.168661 29.663819 52.292569 0.653109 0.967614 0.012167 -0.014559 -131452.000000 0 0 1
33.976253 24.798961 30.110089 51.729988 0.630507 0.949533 0.007359 -0.006593 30567.900000 0 0 1
34.491038 23.668761 29.095979 50.955058 0.601424 0.963058 0.005715 -0.005802 204192.000000 0 0 1
33.690461 23.465661 27.904439 49.642141 0.608378 0.973859 -0.023980 -0.007560 -18178.000000 0 0 1
34.202576 22.697661 26.857159 49.054123 0.585893 0.991422 -0.022445 -0.007200 -754631.000000 0 0 1
34.078687 21.122361 26.965789 48.318370 0.554860 0.978719 -0.021923 -0.009905 417805.000000 0 0 1
32.729881 20.617361 27.017789 47.183489 0.562133 0.961109 -0.011424 0.004922 727265.000000 0 0 1
32.495371 19.378961 27.612639 46.839632 0.537739 0.940339 0.001692 0.006904 -1314730.000000 0 0 1
32.460631 19.505261 29.196909 47.818483 0.541073 0.914006 0.001096 -0.002132 395222.000000 0 0 1
31.292491 20.093561 29.808499 47.660443 0.570816 0.895108 -0.006964 -0.004894 719199.000000 0 0 1
31.140761 21.502761 29.523479 47.997412 0.604323 0.908276 0.000633 -0.010237 -494618.000000 0 0 1
30.000851 22.325061 30.143999 48.032490 0.639745 0.892362 0.003990 -0.015052 853366.000000 0 0 1
28.646341 22.146561 29.652119 46.800974 0.658124 0.884626 0.001048 -0.015819 1407350.000000 0 0 1
28.223481 22.882061 28.490899 46.172339 0.681259 0.905801 -0.001035 -0.019809 -63131.900000 0 0 1
28.021771 24.344561 28.765679 46.961065 0.715292 0.911522 -0.005151 -0.016909 -493741.000000 0 0 1
29.254151 25.037261 28.704519 48.027276 0.707882 0.930203 0.000421 -0.011835 18965.800000 0 0 1
29.213741 26.325461 29.334489 49.061032 0.733441 0.929895 -0.005373 -0.011529 -202914.000000 0 0 1
29.586121 26.432661 30.797149 50.224382 0.729165 0.910702 -0.005789 -0.012801 -802407.000000 0 0 1
30.866741 25.942561 31.004459 50.863038 0.698935 0.915281 0.006085 -0.010057 -969788.000000 0 0 1
31.235291 25.764561 32.376709 51.843103 0.689713 0.896288 0.014399 -0.013658 -165545.000000 0 0 1
30.317331 24.875561 33.253660 51.417312 0.687120 0.867493 0.018787 -0.014371 -446250.000000 0 0 1
30.641411 24.836961 34.621042 52.482257 0.681152 0.850415 0.014257 -0.017941 47039.900000 0 0 1
29.930701 23.881561 -33.902159 51.142274 0.673456 2.295480 0.009133 -0.020997 -634645.000000 0 0 1
30.750251 23.340961 -32.706759 50.597534 0.649268 2.273666 0.005243 -0.016531 -221701.000000 0 0 1
30.946501 24.238361 -31.675879 50.483120 0.664434 2.249077 0.000282 -0.017441 -5245.600000 0 0 1
31.484001 23.540161 -30.617779 49.828003 0.642019 2.232509 0.001967 -0.019013 -756627.000000 0 0 1
32.356561 24.349661 -29.707019 50.223102 0.645126 2.203716 0.004360 -0.005319 -470996.000000 0 0 1
32.868671 23.669361 -28.605319 49.586817 0.624102 2.185692 -0.003309 -0.011738 -43660.100000 0 0 1
33.746701 24.549861 -27.885339 50.190912 0.628928 2.159863 0.006760 -0.006833 -21840.300000 0 0 1
34.344982 23.782361 -26.722119 49.590827 0.605644 2.139870 -0.006697 -0.009083 -520180.000000 0 0 1
-34.694069 22.800061 -27.278439 49.675290 -0.581402 2.152125 -0.017621 0.001754 -186228.000000 0 0 1
-34.922625 21.597161 -26.624079 48.937395 -0.553860 2.146045 -0.028283 0.006501 -353623.000000 0 0 1
-33.846479 20.563861 -27.031109 47.949321 -0.545962 2.169707 -0.027691 0.014575 -739397.000000 0 0 1
-32.646819 20.789561 -26.401589 46.851516 -0.567041 2.169432 -0.034993 0.009384 -1422170.000000 0 0 1
-31.677469 19.846561 -26.762219 45.973518 -0.559691 2.192133 -0.036078 0.014580 -723822.000000 0 0 1
-30.386739 20.033561 -26.007739 44.733656 -0.582876 2.191233 -0.007590 0.002885 -798689.000000 0 0 1
-30.485569 19.843861 -24.585459 43.904368 -0.577026 2.165155 -0.005388 -0.002563 116851.000000 0 0 1
-29.211119 19.639361 -23.993559 42.599118 -0.591910 2.169099 0.017024 0.001482 181355.000000 0 0 1
-29.154079 19.933361 -22.519259 41.885752 -0.599719 2.138426 0.000067 0.006277 -286931.000000 0 0 1
-30.021429 19.212861 -21.706059 41.732160 -0.569293 2.117797 -0.030408 0.014092 -430073.000000 0 0 1
-30.596259 20.015861 -20.726159 42.027841 -0.579317 2.086507 -0.027938 0.013465 -593619.000000 0 0 1
-31.454509 19.108161 -19.776559 41.780620 -0.545905 2.063878 -0.027560 0.009315 242858.000000 0 0 1
-32.067449 19.753961 -18.662459 42.033649 -0.552111 2.030841 -0.025515 0.003332 387929.000000 0 0 1
-33.147639 20.604861 -19.019559 43.417391 -0.556157 2.024239 -0.029059 0.005025 -855866.000000 0 0 1
-34.243905 20.652761 -17.947659 43.832636 -0.542701 1.992657 -0.017163 -0.009389 -735990.000000 0 0 1
-33.987909 21.172261 -16.672959 43.375455 -0.557113 1.965340 -0.004949 -0.012614 384241.000000 0 0 1
34.779293 20.958861 -15.792559 43.569232 0.542347 1.941714 -0.006660 -0.001155 -104404.000000 0 0 1
-34.930541 21.679661 -14.415259 43.565469 -0.555466 1.908040 0.002798 -0.004681 -135053.000000 0 0 1
34.857948 23.123661 -14.472459 44.263216 0.585716 1.903885 0.003969 -0.010056 1049880.000000 0 0 1
33.504541 23.609561 -14.525959 43.485275 0.613852 1.911386 0.004585 -0.002584 691963.000000 0 0 1
33.386921 25.106061 -14.823459 44.325340 0.644763 1.911790 -0.003454 -0.009686 -62394.100000 0 0 1
33.981122 26.001961 -13.916159 44.994201 0.653151 1.885240 -0.007089 -0.000354 -53428.800000 0 0 1
33.710861 27.336661 -14.223459 45.672990 0.681361 1.887483 -0.018178 0.003880 -35162.400000 0 0 1
34.851415 28.074661 -14.967259 47.189263 0.678118 1.893546 0.019568 0.000029 138817.000000 0 0 1
-34.850328 27.665461 -16.287759 47.383691 -0.670971 1.921695 0.034076 -0.002752 35628.900000 0 0 1
-33.642789 28.266361 -16.709959 47.011138 -0.698772 1.934188 0.038123 -0.009583 -383599.000000 0 0 1
-33.421489 27.965061 -18.222659 47.234583 -0.696745 1.966861 0.031630 -0.015103 -106300.000000 0 0 1
-32.908319 26.696761 -18.561259 46.262240 -0.681561 1.983643 0.022176 -0.017876 -379078.000000 0 0 1
-31.583659 26.376861 -18.252059 45.015597 -0.695805 1.988279 0.028677 -0.010926 -451013.000000 0 0 1
-31.153579 24.998861 -18.812059 44.151807 -0.676227 2.010948 0.023554 -0.011715 -70331.100000 0 0 1
-30.977219 25.030461 -20.230759 44.669852 -0.679617 2.040806 0.009675 -0.008331 141406.000000 0 0 1
-30.418129 23.834761 -20.712459 43.844776 -0.664643 2.062813 0.013536 -0.009824 -9155.880000 0 0 1
-30.094439 23.857061 -22.232459 44.374732 -0.670298 2.095569 -0.003452 0.001353 630939.000000 0 0 1
-31.306999 23.915261 -23.001059 45.619257 -0.652335 2.099247 0.000456 -0.004487 685401.000000 0 0 1
-31.075219 23.564361 -24.320859 45.961424 -0.648792 2.128404 -0.001550 -0.002809 -611332.000000 0 0 1
-31.942169 24.122761 -25.404069 47.408612 -0.646822 2.136315 -0.018275 0.004952 -749773.000000 0 0 1
-31.811969 25.494561 -25.509549 48.090655 -0.675603 2.129924 -0.021016 0.007557 183372.000000 0 0 1
-32.606789 26.027761 -26.575459 49.466171 -0.673662 2.137964 -0.015300 0.001578 -182646.000000 0 0 1
-32.269669 27.489061 -26.999289 50.258746 -0.705570 2.137917 -0.017826 0.012034 -192950.000000 0 0 1
-30.923379 27.681961 -27.384689 49.723913 -0.730145 2.154041 -0.031491 0.013620 -276940.000000 0 0 1
-30.595859 29.005061 -27.562719 50.369669 -0.758714 2.149822 -0.028978 0.005938 -173585.000000 0 0 1
-29.139539 29.284461 -27.913799 49.858525 -0.787879 2.165013 -0.027512 0.011455 -1303560.000000 0 0 1
-28.177749 28.865161 -27.013869 48.548246 -0.797448 2.160884 -0.050286 0.019946 618452.000000 0 0 1
-26.848289 28.955361 -27.607559 48.181125 -0.823139 2.180952 -0.016276 0.024139 1505430.000000 0 0 1
-26.168129 30.371061 -27.659299 48.705329 -0.859598 2.174737 -0.019971 0.014152 -761599.000000 0 0 1
-25.598499 30.967061 -26.502459 48.131303 -0.880023 2.153913 -0.028392 0.018420 -436491.000000 0 0 1
-26.435359 31.153861 -25.411069 48.115628 -0.867149 2.127187 -0.030276 0.026266 -282866.000000 0 0 1
-25.676159 31.717561 -24.138259 47.412281 -0.890274 2.104951 -0.048594 0.022971 287308.000000 0 0 1
-25.380389 33.067461 -24.319659 48.260407 -0.916168 2.098934 -0.030350 0.020827 -726406.000000 0 0 1
-24.086719 33.372861 -23.904559 47.595649 -0.945625 2.096986 -0.026727 0.023924 -555375.000000 0 0 1
-23.626319 -34.537205 -24.151259 48.314643 0.970833 2.094250 -0.025684 0.029253 -130091.000000 0 0 1
-24.140919 -33.598405 -23.221559 47.443414 0.947753 2.082264 -0.034017 0.016731 101232.000000 0 0 1
-23.742919 -32.294105 -23.592559 46.510689 0.936829 2.102787 -0.016924 0.006321 -39227.000000 0 0 1
16.021081 8.068261 -25.344089 31.049875 0.466526 2.525665 0.028187 -0.014227 517244.000000 0 0 1
14.608481 7.843461 -25.287269 30.238610 0.492739 2.561219 0.021611 -0.015927 732778.000000 0 0 1
14.177181 6.562661 -25.739399 30.109428 0.433532 2.596081 0.031240 -0.019771 -21375.800000 0 0 1
12.684081 6.308461 -25.483789 29.156579 0.461527 2.634237 0.009901 -0.022920 -219201.000000 0 0 1
12.371281 6.218861 -24.122259 27.813777 0.465794 2.620503 0.016626 -0.031794 293266.000000 0 0 1
11.033881 5.757261 -23.988959 27.025224 0.480920 2.663015 0.015664 -0.029499 199810.000000 0 0 1
10.467581 5.923861 -22.582959 25.586176 0.514987 2.652210 0.031379 -0.035840 -230619.000000 0 0 1
11.152781 5.088061 -21.695559 24.919273 0.428010 2.627285 0.025285 -0.033313 238598.000000 0 1 0
10.702381 5.249461 -20.306659 23.546936 0.456014 2.610770 0.034533 -0.032369 40002.800000 0 1 0
10.912781 6.725561 -19.705359 23.507937 0.552320 2.564849 0.030016 -0.032593 -284808.000000 0 1 0
10.656081 6.953561 -18.354359 22.333530 0.578161 2.535411 0.030527 -0.025452 -367774.000000 0 1 0
11.031281 8.233161 -17.949359 22.619761 0.641159 2.487377 0.037491 -0.021641 987186.000000 0 1 0
12.566081 8.426161 -17.656559 23.252111 0.590685 2.433114 0.036697 -0.020689 595459.000000 0 1 0
13.034681 7.811661 -16.489359 22.423735 0.539903 2.396984 0.037277 -0.024510 -835307.000000 0 1 0
14.369581 8.141761 -16.339459 23.232543 0.515496 2.350826 0.017294 -0.020887 -898303.000000 0 1 0
15.030881 7.646061 -15.033859 22.592179 0.470576 2.298887 0.034713 -0.020019 305419.000000 0 1 0
16.456081 7.545761 -14.956759 23.482882 0.429933 2.261295 0.032715 -0.021767 1095590.000000 0 1 0
16.989081 7.810161 -13.659159 23.155995 0.430905 2.201701 0.033867 -0.025179 -38010.300000 0 1 0
17.432381 9.289161 -13.534959 23.945178 0.489595 2.171530 0.034574 -0.021012 -356053.000000 0 1 0
16.310681 10.128961 -13.337359 23.377752 0.555719 2.177929 0.041383 -0.014086 599541.000000 0 1 0
16.647281 11.526561 -13.386359 24.273199 0.605606 2.154942 0.031305 -0.011694 122818.000000 0 1 0
15.386481 12.425261 -13.175159 23.763748 0.679324 2.158465 0.037270 -0.013668 341151.000000 0 1 0
14.874081 12.386561 -11.830159 22.685190 0.694401 2.119396 0.062117 -0.016057 473659.000000 0 1 0
15.414181 13.478761 -11.003859 23.245621 0.718512 2.063913 0.055211 -0.011147 119965.000000 0 1 0
15.048581 14.968461 -11.264159 24.029063 0.782729 2.058697 0.051824 -0.014482 -417274.000000 0 1 0
13.753381 15.251061 -10.834259 23.219206 0.836989 2.056248 0.057945 -0.021330 -319902.000000 0 1 0
13.476481 16.640661 -10.987559 24.067688 0.890077 2.044885 0.035564 -0.013220 255120.000000 0 1 0
12.236481 17.029261 -10.116159 23.282265 0.947725 2.020280 0.027669 -0.020071 143542.000000 0 1 0
12.349281 16.815561 -8.744759 22.621641 0.937357 1.967702 0.025977 -0.014166 636790.000000 0 1 0
11.339581 17.550961 -8.020559 22.381950 0.997171 1.937296 0.023240 0.004895 504338.000000 0 1 0
11.417681 17.125261 -6.516659 21.589462 0.982760 1.877423 0.007477 -0.000498 -94174.000000 0 1 0
12.186581 18.042761 -5.813159 22.535457 0.976753 1.831702 -0.006706 0.006631 51581.900000 0 1 0
12.616381 17.513661 -4.559159 22.060991 0.946527 1.778958 -0.010713 0.000835 20981.800000 0 1 0
13.698181 18.277461 -3.763759 23.148901 0.927642 1.734110 -0.010368 -0.000427 1031030.000000 0 1 0
14.992081 18.301461 -4.424059 24.068200 0.884473 1.755661 -0.007475 -0.007022 1492200.000000 0 1 0
15.693881 19.549661 -4.241759 25.425964 0.894369 1.738408 0.004744 -0.003339 -321938.000000 0 0 1
17.053081 19.599261 -4.914759 26.440376 0.854755 1.757765 0.001662 0.003520 -851787.000000 0 0 1
18.083181 18.881961 -4.337359 26.501747 0.807004 1.735199 0.007687 -0.012896 -301521.000000 0 0 1
18.456981 17.739161 -5.083659 26.099455 0.765569 1.766830 0.000554 -0.015544 -301161.000000 0 0 1
19.617881 16.865861 -4.586859 26.274661 0.710109 1.746269 0.021841 -0.025871 658297.000000 0 0 1
20.913581 17.298361 -5.032359 27.603185 0.691069 1.754132 0.029631 -0.033175 548636.000000 0 0 1
21.937381 16.466161 -4.598659 27.812422 0.643884 1.736905 0.036147 -0.032465 -173802.000000 0 0 1
23.393081 16.805661 -4.977959 29.230918 0.622971 1.741928 0.051219 -0.030491 185421.000000 0 0 1
23.856481 17.995261 -4.355159 30.198154 0.646256 1.715520 0.060599 -0.028811 1146820.000000 0 0 1
25.292481 18.106061 -4.287559 31.399398 0.621296 1.707773 0.053000 -0.016289 774438.000000 0 0 1
25.786681 19.360961 -3.565159 32.442412 0.644021 1.680911 0.059495 -0.012806 -477153.000000 0 0 1
25.614381 20.509461 -4.337659 33.099091 0.675168 1.702225 0.054412 -0.013507 261517.000000 0 0 1
26.059481 21.602861 -3.566359 34.036731 0.692165 1.675769 0.070756 0.008023 -272077.000000 0 0 1
25.939981 22.973661 -4.349559 34.922634 0.724828 1.695669 0.035589 0.010135 -55715.600000 0 0 1
26.876481 23.446461 -5.302559 36.058271 0.717343 1.718387 0.022748 0.019656 11558.700000 0 0 1
27.129081 22.540961 -6.399559 35.847403 0.693288 1.750281 0.026087 0.016195 216042.000000 0 0 1
28.087381 23.102761 -7.499059 37.133199 0.688330 1.774145 -0.002037 0.025823 42665.800000 0 0 1
27.553481 24.163161 -8.265159 37.568145 0.719936 1.792615 -0.007577 0.019959 1066980.000000 0 0 1
28.539081 25.077261 -8.893259 39.018434 0.720921 1.800742 -0.026775 0.021961 789186.000000 0 0 1
29.537181 24.596061 -9.966159 39.708130 0.694373 1.824494 -0.029664 0.012743 -94581.500000 0 0 1
28.917181 24.383261 -11.220359 39.454318 0.700539 1.859165 -0.027473 0.015132 -266623.000000 0 0 1
29.721581 23.689061 -12.146859 39.901005 0.672929 1.880131 -0.033889 0.009061 -313665.000000 0 0 1
29.150881 23.303261 -13.542459 39.701562 0.674376 1.918890 -0.024196 0.010090 -147800.000000 0 0 1
29.057981 24.263761 -14.521759 40.545997 0.695728 1.937088 -0.014829 0.003089 150848.000000 0 0 1
28.895881 23.516861 -15.752659 40.449486 0.683128 1.970820 -0.007910 -0.001120 -80488.700000 0 0 1
28.868381 24.386861 -17.019559 41.445962 0.701444 1.993957 -0.002610 0.000943 -860143.000000 0 0 1
30.185481 24.695861 -17.367959 42.693030 0.685703 1.989756 -0.006236 0.003853 -548410.000000 0 0 1
30.205781 25.465161 -18.525259 43.635408 0.700449 2.009257 0.002324 -0.008252 -1093530.000000 0 0 1
31.599881 25.962361 -18.727159 44.981142 0.687772 2.000205 -0.000746 -0.015471 -1224480.000000 0 0 1
32.477581 24.870461 -18.767059 45.005951 0.653520 2.000928 0.004960 -0.015362 -543547.000000 0 0 1
33.814181 25.294461 -18.922659 46.273919 0.642247 1.992074 0.014294 -0.018913 -376282.000000 0 0 1
34.906181 24.248861 -18.925659 46.525577 0.607151 1.989722 0.012917 -0.018751 -494231.000000 0 0 1
34.847881 23.339661 -20.027759 46.478228 0.590140 2.016293 0.002966 -0.012596 254429.000000 0 0 1
-34.287439 23.823161 -21.154659 46.804819 -0.607232 2.039776 0.006271 -0.017744 -43948.100000 0 0 1
-34.488639 22.816061 -22.320159 46.991790 -0.584454 2.065738 -0.006521 -0.011324 -59124.800000 0 0 1
-34.127239 21.483361 -22.104659 45.987163 -0.561834 2.072215 -0.022982 -0.004458 70909.700000 0 0 1
-33.970039 20.798461 -23.366359 46.179284 -0.549385 2.101328 -0.037359 0.001296 -42908.800000 0 0 1
-33.526139 19.325761 -23.306659 45.173968 -0.522915 2.112891 -0.052624 0.011721 -157480.000000 0 0 1
-34.501639 18.496961 -22.723759 45.264444 -0.492123 2.096732 -0.047919 0.010487 -192068.000000 0 0 1
-34.195639 17.132461 -22.866059 44.561414 -0.464458 2.109631 -0.061156 0.017953 103042.000000 0 0 1
34.421981 16.219461 -22.647459 44.281498 0.440339 2.107659 -0.052055 0.015932 672254.000000 0 0 1
33.552681 16.240361 -23.796859 44.224679 0.450787 2.138966 -0.017491 0.011411 400739.000000 0 0 1
32.632381 15.141561 -23.720859 43.090815 0.434439 2.153742 -0.003979 0.014354 -52303.700000 0 0 1
32.940181 13.759561 -24.389759 43.234724 0.395683 2.170169 -0.039610 0.007625 -486233.000000 0 0 1
33.095781 13.759761 -25.804939 44.165106 0.394015 2.194793 -0.043998 0.018170 207649.000000 0 0 1
33.391781 12.462761 -26.291649 44.289753 0.357217 2.206356 -0.036668 0.017263 -759473.000000 0 0 1
33.263081 12.306361 -27.808799 45.068929 0.354354 2.235757 -0.012982 0.008044 358294.000000 0 0 1
31.934381 12.104361 -28.310589 44.360001 0.362307 2.262955 -0.017853 0.006373 374520.000000 0 0 1
31.163581 13.182961 -28.654339 44.339941 0.400196 2.273446 -0.004951 0.005857 -357959.000000 0 0 1
31.451781 13.718861 -30.107199 45.649371 0.411308 2.290992 0.006286 -0.005159 -493677.000000 0 0 1
32.759381 14.176961 -30.328649 46.840049 0.408425 2.275088 -0.000606 0.002003 -405352.000000 0 0 1
32.985681 14.158061 -31.765319 47.932675 0.405438 2.295224 0.003335 -0.005836 -213390.000000 0 0 1
34.506581 14.314661 -32.048719 49.221276 0.393232 2.279849 0.016141 -0.013936 616077.000000 0 0 1
-34.491239 13.266261 -31.645479 48.652601 -0.367184 2.278957 0.000928 -0.011568 115153.000000 0 0 1
-34.227039 13.189261 -30.261259 47.551978 -0.367810 2.260596 -0.012762 -0.008775 -1039160.000000 0 0 1
-33.066139 12.246061 -29.879909 46.218443 -0.354688 2.273775 -0.011511 -0.014836 -161340.000000 0 0 1
-33.274339 10.944361 -30.302249 46.316163 -0.317767 2.283984 -0.014362 -0.015667 361404.000000 0 0 1
-32.208139 10.049961 -29.969339 45.127898 -0.302458 2.297083 -0.007192 -0.020867 334767.000000 0 0 1
-32.639439 8.636661 -30.381109 45.419562 -0.258680 2.303523 -0.001301 -0.015447 -624555.000000 0 0 1
-32.525539 8.369261 -31.785289 46.241321 -0.251850 2.328670 -0.001622 -0.017762 485056.000000 0 0 1
-33.167639 7.160961 -32.308149 46.852834 -0.212638 2.331687 0.001054 -0.014410 1253070.000000 0 0 1
-34.589539 6.713061 -31.763129 47.438357 -0.191695 2.304421 0.005528 -0.003076 831817.000000 0 0 1
-34.340039 5.765761 -30.721219 46.435714 -0.166350 2.293728 0.001167 -0.010358 164419.000000 0 0 1
34.290481 5.280961 -30.322539 46.077999 0.152806 2.289049 -0.006465 0.001429 -495272.000000 0 0 1
34.300481 4.440261 -28.994119 45.132005 0.128736 2.268460 0.001499 -0.002640 -189708.000000 0 0 1
-34.813739 3.293261 -29.281689 45.609859 -0.094316 2.267905 0.021690 0.002465 248555.000000 0 0 1
34.802981 2.259061 -28.369839 44.957742 0.064819 2.253681 0.029083 -0.000997 -171200.000000 0 0 1
-33.994839 1.145061 -28.294079 44.243814 -0.033671 2.264649 0.051475 -0.008054 25680.700000 0 0 1
-32.952039 1.378061 -27.383779 42.867321 -0.041796 2.263738 0.060902 -0.012925 -31490.400000 0 0 1
-31.891839 0.451961 -27.455199 42.084220 -0.014171 2.281526 0.057896 -0.010339 149549.000000 0 0 1
-30.786839 0.640861 -26.394729 40.557636 -0.020813 2.279428 0.058209 -0.006377 -67429.000000 0 0 1
-31.087039 0.332461 -25.060059 39.931454 -0.010694 2.249233 0.045156 0.000030 443172.000000 0 0 1
-29.921339 0.494561 -24.250459 38.517734 -0.016527 2.251824 0.054158 0.006707 415577.000000 0 0 1
-30.264339 0.206161 -22.798859 37.891433 -0.006812 2.216410 0.031128 0.014733 -311030.000000 0 0 1
-30.525239 -1.133039 -22.492259 37.933833 0.037101 2.205494 0.051217 0.002513 66034.900000 0 0 1
-30.887239 -1.329939 -21.143959 37.454736 0.043031 2.170648 0.036151 0.009447 541013.000000 0 0 1
-32.425239 -1.311539 -20.841959 38.568167 0.040426 2.141700 0.035782 0.006621 816163.000000 0 0 1
-33.198939 -2.460439 -21.215759 39.475710 0.073977 2.138193 0.050946 -0.010096 224327.000000 0 0 1
-34.561239 -2.247939 -20.881659 40.442257 0.064951 2.113359 0.042805 -0.011118 477460.000000 0 0 1
34.504081 -3.594039 -20.804659 40.450990 -0.103788 2.111008 0.044066 -0.007559 48296.100000 0 0 1
34.084581 -4.200639 -22.023659 40.797617 -0.122623 2.141028 0.040576 -0.008638 -353536.000000 0 0 1
-34.868139 -5.070839 -22.582459 41.850543 0.144417 2.140756 0.039876 -0.010449 -609476.000000 0 0 1
34.404381 -6.085739 -23.583959 42.153301 -0.175077 2.164555 0.030008 -0.012626 43156.500000 0 0 1
33.650281 -7.197639 -23.019459 41.401001 -0.210720 2.160377 0.029256 -0.003066 924818.000000 0 0 1
32.900481 -7.937839 -23.998459 41.489480 -0.236744 2.187590 0.031840 0.003105 -13665.900000 0 0 1
31.544481 -7.433239 -24.473359 40.610991 -0.231421 2.217588 0.011901 0.006144 -894061.000000 0 0 1
31.562681 -6.218539 -25.231349 40.883909 -0.194530 2.235907 0.012936 0.005383 -778181.000000 0 0 1
30.292981 -5.841539 -25.642459 40.116380 -0.190496 2.264256 -0.031670 0.009255 -635628.000000 0 0 1
30.225181 -4.787539 -26.751699 40.646470 -0.157091 2.289163 -0.008356 -0.014812 -64684.300000 0 0 1
30.450581 -5.195039 -28.087189 41.750647 -0.168979 2.308698 -0.005833 -0.011245 298293.000000 0 0 1
30.180181 -4.091039 -28.945019 42.016592 -0.134733 2.330760 0.003037 -0.014598 -18455.200000 0 0 1
29.766781 -4.467939 -30.404329 42.783723 -0.148986 2.361221 0.007395 -0.006933 -28709.800000 0 0 1
29.585781 -3.357939 -31.176949 43.111441 -0.113015 2.379179 0.013610 -0.022069 156068.000000 0 0 1
28.894781 -3.752139 -32.361929 43.546313 -0.129133 2.408579 0.028168 -0.025408 -727132.000000 0 0 1
28.476181 -2.612939 -33.313319 43.903275 -0.091503 2.432248 0.036408 -0.018835 -219476.000000 0 0 1
27.534281 -1.670039 -32.741119 42.812458 -0.060579 2.441460 0.028635 -0.019404 1553450.000000 0 0 1
26.238281 -2.143239 -32.300229 41.669481 -0.081503 2.457754 0.029566 -0.023265 950985.000000 0 0 1
25.269481 -2.591239 -33.463429 42.012644 -0.102187 2.492295 0.032470 -0.024098 -496226.000000 0 0 1
25.749481 -3.754139 -34.062049 42.864350 -0.144775 2.489223 0.039237 -0.029122 -182109.000000 0 0 1
25.084581 -3.903339 34.001558 42.433221 -0.154369 0.641338 0.039702 -0.021478 -561698.000000 0 0 1
25.822981 -4.906539 33.107779 42.273225 -0.187768 0.671024 0.025641 -0.020950 458659.000000 0 0 1
27.116481 -4.584039 32.608399 42.657059 -0.167467 0.700637 0.022125 -0.016960 366878.000000 0 0 1
27.098181 -3.569239 31.589589 41.772635 -0.130961 0.713269 0.031266 -0.019407 -470364.000000 0 0 1
27.872481 -2.318039 32.136409 42.602785 -0.082975 0.716169 0.020343 -0.024576 636718.000000 0 0 1
29.266881 -2.570139 32.347979 43.698372 -0.087593 0.737345 0.013399 -0.019353 320257.000000 0 0 1
29.816881 -1.425239 32.952479 44.462834 -0.047763 0.736053 0.015403 -0.014562 -1507080.000000 0 0 1
31.209581 -1.728339 33.399481 45.744403 -0.055322 0.752280 0.014661 -0.012106 -1238970.000000 0 0 1
32.035181 -1.885639 32.251249 45.496720 -0.058794 0.782902 0.019762 -0.014410 -698794.000000 0 0 1
33.355181 -2.162439 32.633719 46.714065 -0.064740 0.797379 0.019596 -0.013015 -257375.000000 0 0 1
34.156481 -2.678239 31.417719 46.485602 -0.078251 0.828667 0.003938 -0.006977 -24167.100000 0 0 1
34.612281 -1.678839 30.504519 46.166592 -0.048466 0.848980 0.001167 0.001328 -365023.000000 0 0 1
-34.124739 -2.124739 29.833939 45.377045 0.062184 0.853343 0.000772 -0.000831 -206152.000000 0 0 1
-33.840539 -1.469139 28.485719 44.258068 0.043386 0.871567 0.003542 -0.002312 203391.000000 0 0 1
-34.819539 -1.752639 27.506019 44.407805 0.050292 0.902823 0.015155 -0.011134 -49188.400000 0 0 1
-34.316039 -1.234739 26.264579 43.231276 0.035966 0.917841 0.003866 -0.005856 -464155.000000 0 0 1
-25.733179 15.415561 12.538441 32.512283 -0.539724 1.174881 0.025387 0.008933 -204460.000000 0 0 1
-26.806119 14.731261 13.144841 33.292115 -0.502496 1.164910 0.009427 0.005161 751627.000000 0 0 1
-27.725459 15.694061 13.728041 34.690975 -0.515084 1.163941 0.014120 0.008489 1119750.000000 0 0 1
-29.015279 15.063261 14.370041 35.711151 -0.478849 1.156663 0.018239 0.001911 1464140.000000 0 0 1
-29.997749 15.961661 14.969041 37.131008 -0.488993 1.155850 0.019307 -0.004750 917759.000000 0 0 1
-31.090279 15.178261 15.470541 37.898848 -0.454163 1.150308 0.015684 0.010100 121478.000000 0 0 1
-32.043589 16.028661 16.313041 39.367815 -0.463819 1.143540 0.023608 0.005858 -124644.000000 0 0 1
-31.463369 16.466561 17.537741 39.606358 -0.482158 1.112076 0.021539 0.013498 102086.000000 0 0 1
-32.471949 16.609561 18.495041 40.894639 -0.472809 1.101498 0.017296 0.013366 -2291.300000 0 0 1
-31.883369 16.639861 19.917041 41.111102 -0.481012 1.065041 0.008319 0.014195 -328984.000000 0 0 1
-31.077259 15.565561 20.298441 40.250583 -0.464341 1.042223 0.012172 0.012390 -534493.000000 0 0 1
-29.939799 15.984661 20.995241 39.908659 -0.490393 1.016809 0.008876 0.010058 -304601.000000 0 0 1
-30.117269 16.546461 22.435641 41.038924 -0.502383 0.992388 0.021511 0.001832 -652390.000000 0 0 1
-30.656329 17.882861 22.473841 42.008104 -0.528075 1.006303 0.002210 0.005046 270.288000 0 0 1
-30.813599 18.420261 23.771641 43.056647 -0.538798 0.985914 0.001432 -0.003754 -1188090.000000 0 0 1
-31.831659 17.833561 24.693941 44.057702 -0.510676 0.975818 -0.021873 0.002679 115686.000000 0 0 1
-33.157959 17.747261 24.140941 44.690050 -0.491436 1.000138 -0.003267 0.000006 750020.000000 0 0 1
-34.049189 18.819461 24.263041 45.849913 -0.504924 1.013158 -0.014076 -0.000510 -1538930.000000 0 0 1
34.426170 18.299861 24.168941 45.871384 0.488582 1.015865 -0.033376 -0.004709 -1178450.000000 0 0 1
34.099577 17.440861 25.328241 45.918238 0.472780 0.986522 -0.020915 0.000484 694119.000000 0 0 1
33.196291 16.372661 24.871241 44.594130 0.458199 0.979154 -0.009739 0.001471 701649.000000 0 0 1
32.792041 15.479661 26.064241 44.657391 0.441043 0.947581 0.007341 -0.003118 135656.000000 0 0 1
32.004111 16.170761 27.066141 44.925857 0.467856 0.924214 -0.005366 -0.002882 286537.000000 0 0 1
31.632971 15.482561 28.216741 45.128030 0.455167 0.895332 -0.013400 0.006779 -124570.000000 0 0 1
30.552131 14.387061 28.216241 44.006551 0.440099 0.874758 -0.012684 0.009480 102441.000000 0 0 1
31.043781 13.248661 27.555641 43.572431 0.403372 0.886136 -0.013636 0.006602 632388.000000 0 0 1
29.983421 12.288061 27.548641 42.531513 0.388950 0.866204 -0.012965 0.006883 347325.000000 0 0 1
30.483021 10.894461 27.173841 42.264897 0.343247 0.872464 -0.002204 0.012230 -128606.000000 0 0 1
31.463831 10.398661 28.064841 43.425110 0.319195 0.868095 0.008917 0.006843 -95449.100000 0 0 1
31.737171 9.053461 27.668341 43.066812 0.277883 0.873103 -0.003740 0.013472 -62917.600000 0 0 1
32.802631 8.420361 28.581241 44.314811 0.251272 0.869827 0.005527 0.018627 216297.000000 0 0 1
34.156033 8.801461 28.434241 45.305699 0.252197 0.892319 0.007620 0.016295 133205.000000 0 0 1
-34.885380 7.985961 29.269641 46.232858 -0.225042 0.885255 0.001287 0.021901 37282.200000 0 0 1
-33.546419 8.699961 29.455041 45.482425 -0.253751 0.866348 0.000323 0.016395 -477613.000000 0 0 1
-32.797899 8.966961 28.312341 44.245872 -0.266879 0.876446 -0.002774 0.024876 282247.000000 0 0 1
-31.517629 9.483661 28.694041 43.665189 -0.292282 0.853781 0.005298 0.024738 678437.000000 0 0 1
-30.709599 10.073461 27.513741 42.444788 -0.316964 0.865546 0.006619 0.019512 -36796.400000 0 0 1
-30.222189 9.166461 26.551241 41.259825 -0.294484 0.871717 0.003735 0.010728 -109454.000000 0 0 1
-29.531879 9.866661 25.597241 40.307588 -0.322442 0.882726 0.002831 0.004752 -240985.000000 0 0 1
-28.899789 9.046061 24.429341 38.907862 -0.303354 0.891974 0.009070 0.003217 14440.200000 0 0 1
-27.840489 9.617961 23.737941 37.829722 -0.332631 0.892465 -0.000253 -0.001787 -649107.000000 0 0 1
-27.305689 8.732061 22.847241 36.658505 -0.309512 0.897911 -0.005003 0.005171 -17971.300000 0 0 1
-26.210409 9.365861 21.937641 35.439596 -0.343193 0.903308 -0.017079 0.013241 -533596.000000 0 0 1
-25.042219 9.632661 22.716741 35.156098 -0.367210 0.868244 -0.005802 -0.002567 574790.000000 0 0 1
-24.010019 10.347761 22.034741 34.191914 -0.406922 0.870502 -0.010952 0.007257 781273.000000 0 0 1
-23.246119 9.629461 20.880141 32.696924 -0.392721 0.878123 -0.008952 0.013077 -352668.000000 0 0 1
-24.139019 9.425661 19.768841 32.593595 -0.372267 0.919113 -0.011254 0.015066 316408.000000 0 0 1
-23.648119 8.617661 18.744341 31.382287 -0.349456 0.930678 -0.009071 0.015072 -601162.000000 0 0 1
-23.604719 7.076261 18.965241 31.095604 -0.291256 0.914861 -0.014618 0.026654 -570840.000000 0 0 1
-22.597519 6.725161 19.881541 30.840741 -0.289259 0.870229 -0.000152 0.023946 166136.000000 0 0 1
-22.596919 5.404661 20.408441 30.924676 -0.234767 0.850057 0.006626 0.019416 -459437.000000 0 0 1
-22.552619 4.179061 19.435641 30.063754 -0.183224 0.867834 -0.000632 0.021050 416843.000000 0 0 1
-23.757819 3.961961 18.647741 30.460948 -0.165244 0.911975 0.008054 0.017022 1230600.000000 0 0 1
-23.624919 3.122561 17.532041 29.584787 -0.131411 0.936509 0.011868 0.015116 -187127.000000 0 0 1
-23.630619 1.577161 17.895541 29.684070 -0.066643 0.923707 0.005430 0.017731 -294716.000000 0 0 1
-22.330219 1.144061 18.190241 28.824164 -0.051189 0.887857 -0.023444 0.023058 27787.900000 0 0 1
-22.356019 -0.134239 18.809841 29.216771 0.006005 0.871339 -0.010675 0.010173 728250.000000 0 0 1
-20.966619 -0.859139 19.041841 28.336001 0.040954 0.833888 0.000846 0.022114 837558.000000 0 0 1
-20.089819 -0.235139 19.946241 28.310928 0.011704 0.789019 -0.015654 0.018424 294335.000000 0 0 1
-19.121619 -1.179839 20.440741 28.015214 0.061624 0.753016 -0.024862 0.021017 828540.000000 0 0 1
-18.208919 -0.592239 21.591141 28.250537 0.032513 0.700882 -0.018405 0.016765 472941.000000 0 0 1
-18.814819 -0.569539 22.873041 29.622589 0.030262 0.688581 -0.018740 0.008194 -47759.400000 0 0 1
-17.841319 -0.754439 23.893041 29.828833 0.042261 0.641824 -0.007800 0.006035 -507971.000000 0 0 1
-18.342219 -0.890539 25.351341 31.303683 0.048513 0.626897 0.002698 0.010269 -106985.000000 0 0 1
-18.860719 0.276661 25.922441 32.058949 -0.014668 0.629050 -0.009781 -0.000168 -724679.000000 0 0 1
-20.255519 0.294861 25.881541 32.866810 -0.014556 0.664107 0.015150 -0.009233 -714297.000000 0 0 1
-20.937219 1.508861 26.573341 33.864233 -0.071942 0.668581 0.004827 -0.015674 -454778.000000 0 0 1
-20.800719 2.619661 25.733641 33.192662 -0.125281 0.683636 0.003097 -0.006226 367924.000000 0 0 1
-22.004419 3.069161 25.106441 33.525328 -0.138585 0.724426 0.005160 -0.004692 -397541.000000 0 0 1
-21.845919 4.149361 24.068141 32.767923 -0.187702 0.745862 0.011310 0.001005 111502.000000 0 0 1
-21.222419 3.880761 22.802641 31.391270 -0.180863 0.757726 0.006408 0.005703 719394.000000 0 0 1
-19.950519 3.243961 22.780941 30.455176 -0.161190 0.725730 -0.011984 0.016783 -198260.000000 0 0 1
-19.554519 2.618261 21.464041 29.153723 -0.133104 0.743304 -0.012755 0.019410 -190649.000000 0 0 1
-19.106319 3.495161 20.408341 28.173888 -0.180932 0.760675 -0.012507 0.022437 348486.000000 0 0 1
-18.766319 2.698061 19.308741 27.060705 -0.142793 0.776266 -0.012621 0.015995 -105488.000000 0 0 1
-18.332019 3.503861 18.068241 25.976938 -0.188856 0.801612 -0.006481 0.011577 144983.000000 0 0 1
-16.969019 3.891561 18.097141 25.111718 -0.225435 0.766035 -0.006279 0.002477 145546.000000 0 0 1
-16.736919 4.612561 16.890641 24.221766 -0.268917 0.799126 0.005139 0.004733 836923.000000 0 1 0
-15.218619 5.038561 16.748141 23.183910 -0.319720 0.763524 0.015144 0.001592 755438.000000 0 1 0
-14.755719 5.974361 17.697241 23.803709 -0.384710 0.732559 0.008848 -0.000083 414148.000000 0 1 0
-15.355219 7.313661 17.744241 24.579066 -0.444507 0.764216 0.002805 -0.015092 -377229.000000 0 1 0
-14.784619 8.187361 16.614941 23.699665 -0.505737 0.793910 -0.009327 -0.009969 -94819.900000 0 1 0
-15.239919 7.873461 15.284941 22.975551 -0.476866 0.842941 -0.006629 -0.011167 976241.000000 0 1 0
-16.642619 8.075761 15.068241 23.858889 -0.451775 0.887237 0.000269 -0.010085 442913.000000 0 1 0
-17.063119 7.536761 13.731541 23.162643 -0.415929 0.936226 -0.003481 -0.007137 -269601.000000 0 1 0
-17.105419 6.105761 13.640841 22.714494 -0.342852 0.926627 0.009945 -0.010395 590347.000000 0 1 0
-17.659519 5.597061 12.400341 22.292469 -0.306927 0.980922 0.015951 -0.012990 338459.000000 0 1 0
-17.276619 4.067061 12.429741 21.668434 -0.231199 0.959861 0.000602 -0.004756 238927.000000 0 1 0
-17.960819 3.377061 13.475141 22.706276 -0.185854 0.935452 -0.001610 0.001121 536646.000000 0 1 0
-17.534819 2.010761 13.503141 22.222688 -0.114174 0.917725 -0.002550 -0.004785 109421.000000 0 1 0
-18.369519 1.133561 14.554841 23.464177 -0.061631 0.901671 0.004918 -0.000856 1265950.000000 0 1 0
-19.730519 1.010961 14.126341 24.287218 -0.051194 0.950057 0.010425 0.003831 416680.000000 0 1 0
-20.649819 0.657861 15.114641 25.598832 -0.031847 0.939189 -0.005871 0.010118 1673080.000000 0 0 1
-22.072519 0.314661 14.405841 26.359502 -0.014255 0.992600 0.000593 0.009264 1643500.000000 0 0 1
-22.062019 -0.992539 13.802541 26.042810 0.044958 1.012202 0.012549 0.000117 126284.000000 0 0 1
-23.366619 -1.404839 13.484741 27.015009 0.060049 1.048170 0.024628 -0.005641 -330693.000000 0 0 1
-23.400019 -2.517539 12.450041 26.625221 0.107175 1.084219 0.015042 -0.005903 -315905.000000 0 0 1
-22.935019 -3.669239 13.080141 26.656491 0.158640 1.057912 0.020132 -0.003426 61879.900000 0 0 1
-22.800819 -4.672539 12.081141 26.223347 0.202130 1.092011 0.024313 -0.002343 42418.200000 0 0 1
-22.482019 -6.114339 12.624841 26.499301 0.265543 1.074216 0.024203 -0.002521 838621.000000 0 0 1
-23.680419 -6.551639 13.278341 27.928490 0.269917 1.075331 0.024122 -0.002721 913702.000000 0 0 1
-23.575619 -7.940139 13.593441 28.348497 0.324862 1.070698 0.027991 -0.000778 -131663.000000 0 0 1
-24.270319 -8.387139 14.913941 29.695423 0.332724 1.044620 0.013643 0.009618 -207351.000000 0 0 1
-25.642779 -8.159239 14.818841 30.720080 0.308059 1.067423 0.017850 0.002950 -10967.100000 0 0 1
-26.470489 -8.437739 15.968041 32.044665 0.308578 1.049153 0.014987 0.010861 498501.000000 0 0 1
-27.955939 -7.998039 15.774441 33.080752 0.278651 1.073733 0.009460 0.001149 232929.000000 0 0 1
-28.747359 -8.631639 14.771641 33.453209 0.291694 1.113458 0.007281 0.003730 591473.000000 0 0 1
-29.065649 -10.021639 14.934041 34.179976 0.332029 1.118621 0.011800 0.005789 -343913.000000 0 0 1
-29.758199 -10.423439 16.277141 35.484416 0.336916 1.094251 0.015339 0.007078 -666010.000000 0 0 1
-28.793229 -10.579139 17.297241 35.215945 0.352107 1.057357 0.014941 0.017954 62861.000000 0 0 1
-29.220639 -11.204839 18.492341 36.350527 0.366164 1.037096 0.023142 0.015314 -465382.000000 0 0 1
-28.149889 -11.198139 19.596941 36.081223 0.378612 0.996631 0.014318 0.023052 913031.000000 0 0 1
-27.024439 -11.984339 19.139041 35.217149 0.417404 0.996245 0.012116 0.024356 1157880.000000 0 0 1
-25.777639 -11.813939 19.809341 34.589967 0.429736 0.961012 -0.001090 0.021885 1215320.000000 0 0 1
-24.644019 -12.807039 19.374141 33.863037 0.479268 0.961693 0.013125 0.019318 519919.000000 0 0 1
-24.229319 -12.754139 18.006541 32.771382 0.484538 0.989079 0.009152 0.018287 -172261.000000 0 0 1
-23.080919 -13.511139 17.776941 32.113850 0.529601 0.984163 0.012245 0.006110 -453974.000000 0 0 1
-22.691119 -13.425839 16.268941 30.980937 0.534278 1.017931 0.014712 -0.001894 -637819.000000 0 0 1
-21.989119 -12.315539 15.832441 29.763401 0.510545 1.009903 0.021305 -0.003893 -253879.000000 0 0 1
-22.041419 -12.250839 14.438941 29.058393 0.507293 1.050780 0.007475 -0.001749 -267380.000000 0 0 1
-20.795119 -11.590239 13.854641 27.544903 0.508472 1.043749 0.013284 -0.003822 -827121.000000 0 0 1
-20.759219 -10.189339 14.036541 27.051660 0.456288 1.025257 0.015190 0.001978 365800.000000 0 0 1
-19.527119 -9.473639 13.897341 25.771967 0.451700 1.001259 0.021243 0.003577 124335.000000 0 0 1
-18.997219 -9.499839 12.491541 24.641020 0.463699 1.039164 0.017434 0.018969 -530015.000000 0 1 0
-18.376819 -10.697239 12.005541 24.418669 0.527158 1.056808 0.010273 0.005414 215417.000000 0 1 0
-18.155119 -10.445439 10.665241 23.504529 0.522093 1.099824 0.015000 0.003858 -813959.000000 0 1 0
-17.427419 -11.648039 9.924941 23.192589 0.589184 1.128589 -0.002394 -0.008966 1406410.000000 0 1 0
-15.987919 -11.678239 9.983641 22.173586 0.630866 1.103752 0.005978 -0.017880 1207440.000000 0 1 0
-15.444419 -11.751139 11.310441 22.462089 0.650419 1.043111 0.015770 -0.015993 -1028880.000000 0 1 0
-13.957119 -12.142439 11.335141 21.696207 0.715981 1.021077 0.021441 -0.014320 -176379.000000 0 1 0
-13.793219 -13.491139 10.924841 22.172412 0.774327 1.055581 0.020890 -0.019885 89062.000000 0 1 0
-12.428319 -13.803139 10.765341 21.468170 0.837761 1.045516 0.028602 -0.024205 -92898.000000 0 1 0
-12.081319 -15.263539 10.548041 22.140349 0.901251 1.074221 0.029068 -0.020806 -402807.000000 0 1 0
-12.418819 -15.773339 9.266541 22.110949 0.903829 1.138350 0.015803 -0.023661 103513.000000 0 1 0
-12.391619 -17.180439 9.352141 23.155609 0.945942 1.155040 0.008446 -0.011263 -260404.000000 0 1 0
-12.680519 -18.017839 8.072841 23.465056 0.957541 1.219584 0.004246 -0.011086 -454318.000000 0 1 0
-11.741919 -17.912039 7.027841 22.541170 0.990542 1.253733 0.005481 -0.019241 -551087.000000 0 1 0
-12.182219 -18.376739 5.792641 22.796177 0.985395 1.313873 0.001356 -0.013907 -581909.000000 0 1 0
-11.115919 -18.432939 4.705241 22.033524 1.028140 1.355590 0.003435 -0.005258 -275502.000000 0 1 0
-11.613819 -19.072739 3.519641 22.606150 1.023842 1.414466 0.008108 -0.002737 998870.000000 0 1 0
-10.563819 -19.233439 2.515241 22.087233 1.068535 1.456671 0.009528 -0.006748 581455.000000 0 1 0
-10.852619 -20.138939 1.374541 22.918236 1.076525 1.510784 0.010151 0.003323 -218564.000000 0 1 0
-10.837419 -21.565339 1.692741 24.194604 1.105120 1.500776 0.005626 0.003804 -68753.600000 0 1 0
-11.265119 -22.532139 0.680341 25.200457 1.107182 1.543796 0.006324 0.002822 -576429.000000 0 0 1
-10.403019 -22.633039 -0.529359 24.915005 1.139956 1.592045 0.023432 0.009301 -662231.000000 0 1 0
-10.360919 -21.686639 -1.535359 24.083527 1.125102 1.634591 0.020603 0.000931 417205.000000 0 1 0
-11.485619 -21.638739 -2.415759 24.616871 1.082821 1.669089 0.035292 0.008022 514702.000000 0 1 0
-12.692519 -20.737039 -2.136959 24.406790 1.021549 1.658464 0.040637 0.011449 -298865.000000 0 1 0
-13.444619 -21.009339 -1.006559 24.963238 1.001529 1.611129 0.030526 0.017785 -179338.000000 0 1 0
-14.441019 -20.022639 -0.848259 24.701592 0.945961 1.605143 0.026613 0.026819 -199478.000000 0 1 0
26.116481 -21.147039 -4.711059 33.933198 -0.680640 1.710080 0.006565 0.001583 -313454.000000 0 0 1
24.935481 -21.028839 -3.946859 32.856780 -0.700609 1.691210 0.021163 -0.006410 -4264.670000 0 0 1
24.841681 -22.032639 -2.949959 33.335395 -0.725543 1.659406 -0.001259 -0.003022 860076.000000 0 0 1
23.446881 -22.104939 -2.180459 32.297662 -0.755947 1.638359 -0.009824 -0.009694 1182760.000000 0 0 1
22.444481 -22.659839 -3.023959 32.036969 -0.790173 1.665327 0.004148 -0.021381 -637759.000000 0 0 1
21.305081 -22.979139 -2.290159 31.419614 -0.823183 1.643750 0.006618 -0.019499 -514011.000000 0 0 1
20.216981 -23.567539 -3.197759 31.215075 -0.861773 1.673419 0.009541 -0.024465 -901.708000 0 0 1
19.493881 -22.642639 -3.989659 30.143289 -0.859987 1.703542 0.010828 -0.026525 120414.000000 0 0 1
18.429881 -23.255439 -4.744159 30.049676 -0.900647 1.729337 0.017135 -0.019267 623116.000000 0 0 1
17.568081 -22.146039 -5.383959 28.776232 -0.900164 1.759003 -0.000904 -0.007240 20361.600000 0 0 1
16.661881 -21.360139 -4.582159 27.474898 -0.908342 1.738355 0.000247 0.000939 583374.000000 0 0 1
17.203881 -20.637939 -3.498559 27.094980 -0.875898 1.700280 -0.002345 -0.008380 -283981.000000 0 0 1
16.078281 -20.209739 -2.503959 25.946377 -0.898762 1.667452 0.016698 -0.005291 7241.610000 0 0 1
15.504481 -21.302739 -1.850259 26.412480 -0.941645 1.640906 0.012612 -0.003958 -198817.000000 0 0 1
14.952381 -20.802239 -0.666259 25.627149 -0.947573 1.596797 0.030910 0.006422 -579578.000000 0 0 1
14.764581 -21.789839 0.511941 26.325881 -0.975269 1.551349 0.029574 0.007067 -575510.000000 0 0 1
13.750681 -22.751839 0.417541 26.587624 -1.027165 1.555091 0.034369 0.006212 -170721.000000 0 0 1
13.074481 -22.900439 1.671541 26.422835 -1.052028 1.507493 0.043042 0.002276 -27186.000000 0 0 1
12.102081 -24.080739 1.587741 26.997468 -1.105101 1.511952 0.034986 0.002368 -15279.800000 0 0 1
12.673181 -25.305979 1.991141 28.371936 -1.106511 1.500559 0.037467 -0.001786 237733.000000 0 0 1
11.799681 -26.322469 1.588641 28.889940 -1.149379 1.515779 0.034786 0.001924 85393.000000 0 0 1
12.207381 -27.662319 2.249841 30.319727 -1.155201 1.496524 0.037511 -0.006026 7596.990000 0 0 1
12.014181 -27.707589 3.619041 30.416254 -1.161659 1.451530 0.060134 -0.012502 107016.000000 0 0 1
12.305481 -28.984219 4.119341 31.756555 -1.169300 1.440714 0.058599 -0.011584 -354681.000000 0 0 1
11.647581 -29.132549 5.503041 31.853650 -1.190451 1.397165 0.065077 -0.014414 -23884.800000 0 0 1
11.930881 -30.328909 6.179341 33.171869 -1.196007 1.383419 0.039991 -0.011490 -201872.000000 0 0 1
11.469381 -30.323259 7.504141 33.277002 -1.209191 1.343335 0.029672 -0.009216 -290356.000000 0 0 1
12.218981 -31.366439 8.307941 34.672451 -1.199326 1.328830 0.027060 -0.004026 -188124.000000 0 0 1
11.728281 -31.718809 9.598541 35.153484 -1.216629 1.294238 0.026087 -0.007938 -298680.000000 0 0 1
10.931481 -32.881269 9.590641 35.953519 -1.249838 1.300776 0.013650 -0.008280 29759.900000 0 0 1
10.678081 -33.379089 11.046941 36.745339 -1.261181 1.265438 0.005440 -0.006221 -1276820.000000 0 0 1
11.825981 -33.821559 11.639841 37.672770 -1.234426 1.256684 0.007812 -0.010286 -1183610.000000 0 0 1
11.822781 -34.279386 12.983141 38.515145 -1.238677 1.226970 0.010859 -0.008373 -167315.000000 0 0 1
10.716981 34.134368 13.447441 38.220969 1.266578 1.211267 0.005091 -0.005201 143065.000000 0 0 1
11.026381 32.829167 12.912041 36.960196 1.246763 1.213919 -0.000070 -0.007847 385004.000000 0 0 1
9.904281 31.986877 13.091541 35.953352 1.270523 1.198102 0.002322 -0.003361 14425.300000 0 0 1
9.949381 30.782877 12.125441 34.548546 1.258183 1.212191 -0.001447 -0.005231 -10179.400000 0 0 1
9.565681 31.101697 10.734141 34.264261 1.272417 1.252157 -0.002632 -0.000580 160629.000000 0 0 1
10.481381 31.910987 10.046441 35.058543 1.253441 1.280160 -0.010105 -0.005822 -231301.000000 0 0 1
9.960881 32.174887 8.641841 34.772459 1.270569 1.319639 -0.016711 0.001195 -508589.000000 0 0 1
8.746781 32.868667 8.617641 35.087308 1.310711 1.322652 -0.013751 0.002830 -205829.000000 0 0 1
8.142081 33.023907 7.332441 34.794204 1.329066 1.358467 -0.022498 0.003758 -228180.000000 0 0 1
8.561781 34.257976 6.549841 35.913973 1.325892 1.387394 -0.012614 0.005010 -538110.000000 0 0 1
8.128081 -33.820389 6.937441 35.468472 -1.334939 1.373933 -0.011156 0.007065 -166545.000000 0 0 1
8.685681 -32.743399 6.263941 34.450083 -1.311503 1.387953 0.008909 -0.002708 -677759.000000 0 0 1
7.872081 -31.487109 6.437241 33.088454 -1.325809 1.375001 0.018172 -0.001185 -290942.000000 0 0 1
7.757781 -30.925549 7.733941 32.808331 -1.325015 1.332826 0.030492 -0.000200 -131136.000000 0 0 1
7.060481 -29.718119 7.773841 31.519035 -1.337539 1.321585 0.033511 0.000250 26103.300000 0 0 1
7.970181 -28.495339 7.511341 30.527502 -1.298065 1.322192 0.060104 -0.009240 190636.000000 0 0 1
8.609481 -27.826579 8.601941 30.371616 -1.270740 1.283643 0.061401 -0.010471 -198482.000000 0 0 1
9.400781 -26.765759 8.223941 29.536651 -1.233031 1.288635 0.078310 -0.016828 -267912.000000 0 0 1
8.685481 -25.578889 7.511241 28.038115 -1.243455 1.299590 0.047797 -0.013471 -68696.200000 0 0 1
8.607181 -25.841629 6.147341 27.922449 -1.249279 1.348820 0.046358 -0.008968 55735.000000 0 0 1
7.718481 -24.862939 5.557541 26.620048 -1.269788 1.360476 0.050048 -0.005651 651886.000000 0 0 1
7.489681 -25.135659 4.082041 26.543544 -1.281203 1.416397 0.063322 -0.008869 195232.000000 0 0 1
6.672581 -26.267189 3.801341 27.366745 -1.322031 1.431442 0.027450 -0.009751 -338018.000000 0 0 1
7.340181 -27.516379 3.905641 28.745146 -1.310110 1.434503 0.036065 -0.010024 87063.900000 0 0 1
6.464281 -28.751009 3.548041 29.681578 -1.349637 1.450973 0.029961 -0.005811 106166.000000 0 0 1
5.367581 -28.904809 4.440041 29.732354 -1.387189 1.420902 0.009035 -0.003257 264424.000000 0 0 1
4.351881 -29.736579 3.841441 30.297849 -1.425480 1.443665 0.005785 0.005084 485501.000000 0 0 1
4.445681 -31.309689 4.039341 31.880668 -1.429749 1.443753 0.002569 0.006559 -607808.000000 0 0 1
5.445481 -31.815319 3.214441 32.437639 -1.401280 1.471537 0.008772 0.001013 -388585.000000 0 0 1
5.705881 -33.145719 3.610841 33.826527 -1.400322 1.463847 -0.004991 0.007441 -155754.000000 0 0 1
6.816281 -33.870129 2.836841 34.665473 -1.372201 1.488870 -0.002936 0.004484 -247279.000000 0 0 1
6.471981 -34.261723 1.518941 34.900707 -1.384098 1.527261 0.000486 -0.000789 -162622.000000 0 0 1
7.381181 34.133238 1.055941 34.938157 1.357829 1.540569 -0.004182 0.000347 -791037.000000 0 0 1
7.046081 33.549845 -0.333959 34.283391 1.363787 1.580538 0.013201 0.001328 599567.000000 0 0 1
5.941881 32.654697 -0.423759 33.193595 1.390805 1.583563 -0.008068 0.004975 394359.000000 0 0 1
4.679281 33.277497 -0.171359 33.605310 1.431098 1.575896 -0.002742 -0.001300 55698.700000 0 0 1
3.529781 32.230757 0.030441 32.423479 1.461715 1.569857 0.003872 0.000358 338765.000000 0 0 1
3.383381 31.410527 -1.086259 31.610891 1.463495 1.605167 0.004383 0.002057 -324377.000000 0 0 1
2.362981 30.484107 -0.864559 30.587774 1.493436 1.599065 -0.008971 -0.002389 -148389.000000 0 0 1
2.307281 29.370997 -1.904159 29.522954 1.492401 1.635339 -0.000738 -0.000100 54518.500000 0 0 1
2.008581 29.863037 -3.212759 30.102445 1.503638 1.677727 0.010321 -0.011218 -50630.300000 0 0 1
1.950981 28.933477 -4.243759 29.308052 1.503468 1.716106 0.008219 -0.025497 -238940.000000 0 0 1
1.594581 29.620327 -5.612959 30.189597 1.517014 1.757808 0.017256 -0.030145 -452894.000000 0 0 1
0.314181 30.193937 -5.669759 30.723260 1.560391 1.756403 0.019899 -0.019827 -245744.000000 0 0 1
0.090281 30.846227 -6.877159 31.603689 1.567870 1.790158 0.014159 -0.019954 -139268.000000 0 0 1
-0.236119 30.052567 -8.139259 31.136154 -1.562940 1.835278 0.021312 -0.021926 -184281.000000 0 0 1
-1.600119 29.661287 -8.290359 30.839623 -1.516902 1.842966 0.002938 -0.016866 456314.000000 0 0 1
-1.997419 29.195947 -9.602659 30.799416 -1.502489 1.887863 0.010357 -0.019843 46750.000000 0 0 1
-2.036619 30.366447 -10.665959 32.249521 -1.503829 1.907876 0.004620 -0.023132 -595403.000000 0 0 1
-0.745319 30.764667 -11.057959 32.700133 -1.546575 1.915760 0.010684 -0.026660 -371241.000000 0 0 1
-0.659219 31.996857 -11.779159 34.102522 -1.550197 1.923466 -0.007018 -0.023138 951.263000 0 0 1
-0.882119 33.279877 -10.935859 35.041709 -1.544296 1.888179 -0.005326 -0.007154 67712.500000 0 0 1
0.061881 33.399755 -9.865659 34.826408 1.568944 1.858010 -0.009234 -0.017526 17331.600000 0 0 1
-0.178619 34.369361 -8.873959 35.496930 -1.565599 1.823469 -0.003616 -0.004649 -764916.000000 0 0 1
0.983381 34.459556 -7.895559 35.366197 1.542267 1.795945 0.009594 -0.007666 -40278.100000 0 0 1
2.067081 -34.095430 -8.331459 35.159414 -1.510244 1.810034 0.013043 -0.002202 -128412.000000 0 0 1
2.739981 -33.539379 -7.251459 34.423554 -1.489283 1.783040 0.023593 -0.007184 -1888850.000000 0 0 1
4.007281 -32.787489 -7.574159 33.888724 -1.449180 1.796201 0.003940 0.001267 -385959.000000 0 0 1
4.926081 -33.541149 -8.340159 34.911792 -1.424972 1.812021 0.017355 0.002318 -32689.500000 0 0 1
5.649081 -34.477787 -7.580759 35.750494 -1.408392 1.784465 0.031165 0.004148 -1337500.000000 0 0 1
6.213681 33.752768 -8.449959 35.344886 1.388741 1.812206 0.025359 0.003134 -173016.000000 0 0 1
5.301381 32.753247 -8.831259 34.334690 1.410330 1.830931 0.019500 0.000146 -252277.000000 0 0 1
4.246581 33.139497 -9.702759 34.790850 1.443348 1.853433 0.022240 -0.003656 134401.000000 0 0 1
3.227781 31.995097 -9.863459 33.636180 1.470253 1.868410 0.016426 -0.012193 -218643.000000 0 0 1
3.685581 31.012997 -10.727359 33.022200 1.452511 1.901653 0.029661 -0.011094 -155026.000000 0 0 1
2.843881 29.905727 -10.820459 31.929962 1.475987 1.916524 0.023399 -0.016185 357043.000000 0 0 1
3.582681 28.966617 -11.840359 31.497533 1.447738 1.956179 0.023862 -0.017108 537059.000000 0 0 1
3.482081 29.380987 -13.188959 32.393146 1.452832 1.990131 0.028340 -0.009314 223152.000000 0 0 1
4.599181 28.937467 -13.951259 32.452536 1.413179 2.015175 0.036215 -0.016493 305383.000000 0 0 1
4.514181 29.572937 -15.398759 33.646073 1.419320 2.046168 0.034654 -0.004856 -313289.000000 0 0 1
3.386481 29.009917 -15.990459 33.297722 1.454587 2.071710 0.015941 -0.003074 -248469.000000 0 0 1
3.256281 29.483107 -17.318559 34.348063 1.460796 2.099261 0.035663 0.000622 -257752.000000 0 0 1
2.289081 28.698067 -18.169459 34.043328 1.491201 2.133785 0.016944 -0.005973 -628818.000000 0 0 1
2.731781 27.363277 -18.369859 33.070580 1.471292 2.159730 0.034437 0.005691 -166374.000000 0 0 1
1.805981 26.576937 -19.066859 32.758819 1.502948 2.192028 -0.003075 -0.000920 -313607.000000 0 0 1
2.498081 25.531177 -19.968559 32.508841 1.473262 2.232232 0.010946 0.003161 128168.000000 0 0 1
2.752981 24.372527 -19.201759 31.149743 1.458319 2.235002 0.014149 0.001010 133418.000000 0 0 1
3.678581 23.567027 -19.946959 31.093695 1.415956 2.267263 0.023790 0.009032 140332.000000 0 0 1
4.348481 22.519827 -19.058559 29.820807 1.380048 2.264127 0.021255 0.008226 -38748.000000 0 0 1
3.490981 21.464027 -18.588859 28.608339 1.409565 2.278079 0.027737 0.012202 126664.000000 0 0 1
4.274281 20.574627 -17.825559 27.556039 1.365965 2.274287 0.032012 0.006932 442199.000000 0 0 1
3.455581 19.321927 -17.405259 26.233965 1.393825 2.296234 0.030712 -0.004307 -169989.000000 0 0 1
2.370081 19.604827 -16.582159 25.786324 1.450487 2.269284 0.027375 -0.013051 -372613.000000 0 0 1
1.587681 18.432127 -16.264059 24.632979 1.484872 2.291955 0.008689 -0.008926 540109.000000 0 1 0
2.230081 17.386227 -15.237059 23.225462 1.443226 2.286369 0.006449 -0.003870 1253720.000000 0 1 0
3.301281 16.494827 -15.725959 23.027886 1.373266 2.322534 0.012485 -0.015171 1049880.000000 0 1 0
2.835681 15.339727 -16.517759 22.719698 1.388001 2.384774 0.013373 -0.020365 96005.500000 0 1 0
2.614881 15.570527 -18.027159 23.963668 1.404411 2.422298 -0.007066 -0.012337 -266023.000000 0 1 0
3.875481 15.755827 -18.631059 24.705906 1.329613 2.425100 0.003588 -0.010052 -436792.000000 0 1 0
3.874681 16.339827 -19.947859 26.075279 1.337966 2.441854 -0.006733 0.005334 -521572.000000 0 0 1
4.179081 15.367127 -21.114059 26.446489 1.305268 2.495378 -0.013152 0.002498 -58063.600000 0 0 1
3.247781 14.386427 -21.479059 26.055082 1.348765 2.539887 -0.018170 0.002758 -69423.700000 0 0 1
2.070081 14.843927 -22.137559 26.733853 1.432234 2.546456 -0.009802 0.008906 611287.000000 0 0 1
1.277881 13.663527 -22.828759 26.636013 1.477543 2.600339 -0.003572 0.016865 507866.000000 0 0 1
0.652281 12.722127 -21.911259 25.345241 1.519570 2.614974 -0.004387 0.015767 141934.000000 0 0 1
-0.119619 11.801027 -22.611959 25.506454 -1.560660 2.660563 0.001732 0.021173 -289048.000000 0 0 1
-0.784819 10.745627 -21.709959 24.236475 -1.497890 2.680924 -0.001476 0.017265 -1097950.000000 0 1 0
-1.673319 11.340927 -20.795759 23.746162 -1.424306 2.637789 0.003799 0.014235 -203251.000000 0 1 0
-2.008219 10.464227 -19.718359 22.413091 -1.381189 2.646174 -0.004500 0.014242 -102046.000000 0 1 0
-3.097819 9.456427 -20.032059 22.367473 -1.254225 2.680549 -0.004125 0.011527 -823453.000000 0 1 0
-2.617819 8.515827 -20.964459 22.778955 -1.272559 2.739754 0.001356 0.015305 242045.000000 0 1 0
-3.644919 7.713027 -21.552759 23.179681 -1.129335 2.764700 0.001767 0.024766 541970.000000 0 1 0
-2.972619 6.480927 -22.272359 23.385826 -1.140754 2.831768 0.003571 0.016352 408050.000000 0 1 0
-2.554619 5.489327 -21.372659 22.213719 -1.135227 2.865536 0.010337 0.010088 -18900.000000 0 1 0
-2.109219 4.379627 -22.065659 22.594761 -1.121979 2.924756 0.017671 0.004596 -337383.000000 0 1 0
-1.427419 3.266127 -21.191859 21.489532 -1.158774 2.974955 0.017167 0.001067 67077.100000 0 1 0
-0.065219 3.595827 -21.003859 21.309536 -1.552661 2.972011 0.006204 -0.000181 -321439.000000 0 1 0
0.432681 2.670127 -20.055059 20.236654 1.410148 3.007525 0.007825 -0.001311 -733952.000000 0 1 0
1.932781 2.469927 -20.128159 20.371032 0.906802 2.987021 0.002872 -0.003958 -696285.000000 0 1 0
2.419181 1.974227 -21.358459 21.585499 0.684465 2.996426 0.011188 -0.006934 546091.000000 0 1 0
3.856481 1.956727 -21.334059 21.767942 0.469539 2.941599 0.014907 -0.004480 750521.000000 0 1 0
4.408081 1.414527 -22.677959 23.145666 0.310514 2.940220 0.012994 0.003995 -977563.000000 0 1 0
5.776481 1.258927 -22.551459 23.313535 0.214585 2.885203 0.016645 -0.000946 -938101.000000 0 1 0
6.403881 0.753127 -23.750459 24.610184 0.117067 2.876492 0.021190 -0.001036 -633928.000000 0 1 0
7.895381 0.902427 -23.533859 24.839362 0.113804 2.815940 0.009942 -0.011274 -738919.000000 0 1 0
8.378581 2.255827 -23.375959 24.934410 0.263001 2.786166 0.008646 -0.024666 55364.500000 0 1 0
9.772981 2.284627 -23.614959 25.659247 0.229646 2.739718 0.007747 -0.019017 -210624.000000 0 0 1
13.611581 -22.040239 21.960659 33.960533 -1.017552 0.867609 0.015063 0.015374 -491952.000000 0 0 1
12.499781 -22.845239 22.279159 34.271131 -1.070144 0.863100 0.003898 0.028076 -227396.000000 0 0 1
11.227581 -22.254239 22.197159 33.376992 -1.103544 0.843244 -0.010472 0.019992 462187.000000 0 0 1
10.671281 -21.856339 20.780859 31.990935 -1.116596 0.863757 -0.002966 0.007805 -435835.000000 0 0 1
11.117581 -20.569339 20.318559 30.976477 -1.075282 0.855376 -0.001692 -0.000451 36535.100000 0 0 1
10.881781 -20.400439 18.932659 29.883719 -1.080780 0.884671 0.021904 -0.005880 75587.300000 0 0 1
11.313381 -19.000939 18.564359 28.873235 -1.033757 0.872438 0.021818 -0.010668 -382103.000000 0 0 1
10.489981 -18.036839 19.143359 28.316699 -1.044026 0.828415 0.024051 -0.012924 -378406.000000 0 0 1
10.810481 -16.720739 18.717659 27.327648 -0.996863 0.816282 0.020828 -0.010695 -62670.800000 0 0 1
9.775081 -15.683139 19.220959 26.663802 -1.013430 0.765749 0.027495 -0.007473 556107.000000 0 0 1
8.452881 -15.886939 18.749959 25.988593 -1.081827 0.764875 0.013475 -0.004037 -295883.000000 0 0 1
7.560881 -14.935939 19.263359 25.521093 -1.102185 0.715445 -0.002946 0.000120 -597161.000000 0 0 1
6.146581 -15.109239 18.747659 24.850438 -1.184434 0.716027 -0.018582 0.008889 -839764.000000 0 1 0
5.990881 -14.860939 17.365359 23.628243 -1.187595 0.745217 -0.024091 0.003115 -83925.000000 0 1 0
4.668181 -14.913439 16.863659 22.990989 -1.267439 0.747354 -0.020307 -0.000868 1066.010000 0 1 0
4.041181 -16.328339 16.634159 23.656734 -1.328177 0.790983 -0.027792 -0.002373 186420.000000 0 1 0
2.668781 -16.225739 16.256459 23.122921 -1.407778 0.791126 -0.014126 -0.001771 22596.600000 0 1 0
2.097281 -17.503439 16.245159 23.972362 -1.451544 0.826218 -0.011406 -0.005245 218507.000000 0 1 0
0.567881 -17.409939 16.026159 23.669944 -1.538190 0.827025 -0.007758 -0.001510 97215.900000 0 1 0
0.226381 -17.237739 14.685959 22.646595 -1.557664 0.865205 -0.004232 -0.005404 -297771.000000 0 1 0
-1.166819 -17.433339 14.587159 22.761107 1.503966 0.875151 0.001152 -0.000327 -247275.000000 0 1 0
-1.608819 -18.069639 13.271159 22.477184 1.481996 0.939207 -0.006221 -0.002615 -1072970.000000 0 1 0
-2.892719 -18.571139 13.334759 23.044974 1.416274 0.953735 -0.008314 0.011191 -684870.000000 0 1 0
-2.935819 -19.715139 12.506559 23.531251 1.422971 1.010441 -0.000890 0.001516 -179845.000000 0 1 0
-4.363319 -20.253439 12.582059 24.239401 1.358604 1.025028 -0.000465 0.004436 -156302.000000 0 1 0
-4.660619 -20.963439 13.764359 25.507738 1.352033 1.000817 -0.011845 0.005653 -58470.000000 0 0 1
-6.022619 -21.344039 13.650359 26.041740 1.295778 1.019053 -0.009918 -0.000545 407756.000000 0 0 1
-6.547519 -22.173939 14.884559 27.497339 1.283675 0.998803 -0.009726 -0.000729 -42274.800000 0 0 1
-7.937419 -22.364239 14.865759 28.002725 1.229749 1.011171 -0.008987 0.008442 -483260.000000 0 0 1
-8.437519 -23.138639 15.882359 29.305932 1.221130 0.998040 -0.005620 0.007374 -180615.000000 0 0 1
-9.853119 -22.677539 16.257559 29.591603 1.160917 0.989153 0.003359 0.011078 -116535.000000 0 0 1
-9.827319 -21.432539 16.969259 29.049710 1.140877 0.946969 -0.004347 0.009297 -431003.000000 0 0 1
-11.031719 -20.799239 16.657859 28.840794 1.083133 0.955036 0.016461 0.006658 -468371.000000 0 0 1
-11.243019 -19.467139 17.384659 28.418328 1.047057 0.912537 0.013225 0.012211 -480785.000000 0 0 1
-11.612019 -19.812139 18.732959 29.635850 1.040655 0.886530 0.012430 0.007742 89083.800000 0 0 1
-11.947019 -18.674739 19.520359 29.538476 1.001666 0.848852 0.024068 0.001006 -61618.700000 0 0 1
-12.481119 -19.096839 20.906759 30.944469 0.991916 0.828988 0.030198 0.005520 87683.800000 0 0 1
-13.714019 -19.788239 20.835159 31.839481 0.964758 0.857432 0.024432 0.008189 263324.000000 0 0 1
-14.101819 -20.415439 22.081259 33.214958 0.966310 0.843572 0.015437 0.021465 -351552.000000 0 0 1
-15.473719 -21.076639 21.996259 34.168642 0.937507 0.871400 0.019781 0.007461 -1038630.000000 0 0 1
-15.445519 -22.213339 21.164159 34.349936 0.963214 0.906972 0.021079 0.006130 476287.000000 0 0 1
-16.719419 -22.381739 20.575659 34.696382 0.929211 0.935992 0.020541 0.003808 402995.000000 0 0 1
-17.880219 -23.001939 21.397159 36.147335 0.910029 0.937329 0.024786 0.001786 -423479.000000 0 0 1
-18.347519 -22.239139 22.502659 36.572946 0.880990 0.908053 0.028212 0.007966 -48598.800000 0 0 1
-19.145119 -23.074939 23.319159 37.983833 0.878210 0.909775 0.026651 0.005752 107272.000000 0 0 1
-19.872219 -22.185039 24.382349 38.491297 0.840335 0.884791 0.025479 0.009186 522829.000000 0 0 1
-20.964619 -21.349939 24.000059 38.358024 0.794504 0.894786 0.013128 0.016399 565361.000000 0 0 1
-20.933719 -20.212339 24.844279 38.262219 0.767868 0.864111 0.016806 0.013022 515801.000000 0 0 1
-21.851219 -19.023339 24.380189 37.864981 0.716324 0.871249 0.009929 0.014311 -97084.900000 0 0 1
-21.357919 -18.479039 23.219159 36.561796 0.713257 0.882702 0.016090 0.016739 -330397.000000 0 0 1
-22.317219 -17.892539 22.386559 36.322985 0.675799 0.906736 0.002788 0.018123 -326745.000000 0 0 1
-21.645119 -17.425139 21.067359 34.870908 0.677805 0.922094 0.007785 0.020302 -175284.000000 0 0 1
-20.837719 -16.303439 21.147059 33.870500 0.663917 0.896497 0.004780 0.025246 -666648.000000 0 0 1
-20.496319 -15.920839 19.822959 32.657647 0.660412 0.918525 0.012329 0.022852 182794.000000 0 0 1
-19.522619 -14.726839 19.632259 31.359815 0.646278 0.894342 0.010874 0.008516 159271.000000 0 0 1
-19.461919 -14.481239 18.223259 30.340727 0.639702 0.926520 0.008609 0.005946 -39857.800000 0 0 1
-18.895719 -13.247839 17.893759 29.201713 0.611466 0.911243 0.025939 -0.006654 -427500.000000 0 0 1
-18.525919 -13.189039 16.384459 28.028752 0.618684 0.946460 0.019011 -0.013359 170230.000000 0 0 1
-17.952219 -11.971339 15.886959 26.795346 0.588126 0.936141 0.020101 -0.006479 247582.000000 0 0 1
-16.562319 -11.836839 16.118759 25.966046 0.620514 0.901081 0.016940 -0.011482 -188644.000000 0 0 1
-15.924919 -10.604839 15.426859 24.577502 0.587491 0.892224 0.016251 -0.013939 -25259.800000 0 1 0
-16.347919 -9.316239 15.888659 24.627144 0.517973 0.869552 0.002964 -0.002476 172777.000000 0 1 0
-15.825519 -8.310439 15.088559 23.391773 0.483548 0.869725 -0.015799 0.008779 -833532.000000 0 1 0
-16.151719 -6.953739 15.642059 23.535219 0.406542 0.843807 -0.002588 0.017840 202302.000000 0 1 0
-15.400719 -6.409939 16.725559 23.622315 0.394402 0.784077 -0.017074 0.009436 -498868.000000 0 1 0
-14.043319 -6.207739 16.479359 22.523767 0.416217 0.750067 -0.005610 0.002297 -697489.000000 0 1 0
-13.222319 -6.074039 17.818859 23.005117 0.430625 0.684776 -0.000947 0.002482 107210.000000 0 1 0
-13.230119 -7.246339 18.673159 24.004840 0.501087 0.679493 0.012480 -0.000253 94039.800000 0 1 0
-12.692919 -8.477739 18.177059 23.735790 0.588864 0.698499 0.010485 0.000127 -615069.000000 0 1 0
-12.849419 -9.633239 19.191159 25.024137 0.643311 0.696790 0.029053 -0.004279 -98917.900000 0 0 1
-14.121119 -10.176139 19.462059 26.109989 0.624440 0.729680 0.027254 -0.000036 95057.500000 0 0 1
-14.982319 -9.325539 20.225459 26.842219 0.556754 0.717435 0.021187 0.002810 -475471.000000 0 0 1
-16.316019 -10.012939 20.690059 28.187763 0.550423 0.746591 0.002562 0.017234 778695.000000 0 0 1
-17.336719 -10.251739 19.749459 28.208174 0.534021 0.795213 0.011164 0.012718 383553.000000 0 0 1
-17.870019 -9.031539 19.173659 27.722472 0.467960 0.807055 0.004536 0.013297 -708939.000000 0 0 1
-18.943219 -9.210439 18.052459 27.741107 0.452557 0.862228 0.019452 0.009841 659341.000000 0 0 1
-20.233519 -9.301539 18.654559 29.050069 0.430899 0.873494 0.014786 0.014950 -116884.000000 0 0 1
-21.244519 -9.526539 17.726659 29.262928 0.421542 0.920061 0.022001 0.016454 415831.000000 0 0 1
-22.693619 -9.599039 18.317159 30.702772 0.400162 0.931543 0.011065 0.020935 488869.000000 0 0 1
-23.048819 -8.388439 18.896559 30.962782 0.349041 0.914358 0.012933 0.023671 756482.000000 0 0 1
-24.474219 -8.286239 18.976259 32.058502 0.326456 0.937350 -0.001290 0.030509 605172.000000 0 0 1
-25.016719 -7.067039 19.796459 32.675358 0.275319 0.919959 0.012308 0.023555 -269630.000000 0 0 1
-24.962319 -7.331839 21.164759 33.538340 0.285682 0.887875 0.012948 0.014430 49823.700000 0 0 1
-25.676459 -6.353739 21.834059 34.298348 0.242581 0.880725 0.014709 0.007522 -681331.000000 0 0 1
-25.803869 -6.549339 23.352859 35.413126 0.248563 0.850722 0.015096 0.002109 365011.000000 0 0 1
-24.734419 -6.223439 24.266159 35.204675 0.246494 0.810291 0.014644 0.001012 369138.000000 0 0 1
-23.599019 -7.054839 24.245549 34.561989 0.290490 0.793284 0.003086 0.010346 -158956.000000 0 0 1
-22.644419 -6.767539 25.411689 34.703360 0.290412 0.749170 -0.003833 0.011471 -3076.780000 0 0 1
-21.938119 -5.514839 25.303639 33.940664 0.246279 0.729473 -0.012628 0.010569 345357.000000 0 0 1
-21.159019 -5.320539 26.477869 34.308742 0.246348 0.689203 -0.000289 -0.005792 -304004.000000 0 0 1
-20.457819 -3.979039 26.340459 33.588315 0.192101 0.669366 0.008529 -0.011812 262505.000000 0 0 1
-19.407119 -3.725539 27.304049 33.705000 0.189660 0.626492 -0.000042 -0.016337 202462.000000 0 0 1
-19.744019 -3.556639 28.650839 34.976371 0.178226 0.610872 0.006755 -0.017046 -319725.000000 0 0 1
-20.518419 -2.270239 29.004499 35.600849 0.110196 0.618561 0.020072 -0.028462 526634.000000 0 0 1
-21.811819 -2.197739 28.422959 35.894987 0.100420 0.656986 0.019279 -0.028264 -189176.000000 0 0 1
-22.527919 -1.068939 28.898829 36.657770 0.047414 0.662688 0.009177 -0.024928 835333.000000 0 0 1
-23.828219 -0.720639 28.097389 36.847885 0.030234 0.703591 0.010464 -0.019186 143589.000000 0 0 1
-23.576619 -0.163739 26.769059 35.671645 0.006945 0.722084 0.007086 -0.016663 551125.000000 0 0 1
-24.742619 -0.125939 25.920739 35.834310 0.005090 0.762155 0.003800 -0.013471 52348.400000 0 0 1
-25.388539 -1.443539 25.520579 36.027235 0.056797 0.783611 0.002662 -0.008323 -180202.000000 0 0 1
-26.383109 -1.844039 26.462729 37.413165 0.069781 0.785110 -0.001057 -0.004231 317920.000000 0 0 1
-26.827729 -3.221439 26.375209 37.759189 0.119507 0.797482 -0.007621 -0.003730 -606887.000000 0 0 1
-25.805209 -4.250739 26.723979 37.391826 0.163258 0.774600 0.009643 -0.018037 -752269.000000 0 0 1
-25.506119 -4.310539 28.061169 38.165063 0.167418 0.744749 0.013009 -0.020819 123802.000000 0 0 1
-24.636719 -5.457039 28.218959 37.855737 0.217981 0.729610 0.011180 -0.018048 265985.000000 0 0 1
-24.207419 -6.003039 29.629849 38.729363 0.243080 0.699679 0.007615 -0.019948 -753063.000000 0 0 1
-25.220379 -6.603739 30.342549 40.004339 0.256092 0.709817 0.015393 -0.019306 -634046.000000 0 0 1
-24.861819 -7.349539 31.512599 40.806490 0.287429 0.688429 0.026979 -0.011047 93472.300000 0 0 1
-26.102709 -8.050639 32.151899 42.188965 0.299165 0.704257 0.016642 -0.016039 581588.000000 0 0 1
-26.776129 -8.953539 31.282029 42.138964 0.322697 0.734219 0.013888 -0.019009 741945.000000 0 0 1
-28.140719 -9.179939 31.635759 43.324272 0.315331 0.752169 0.016955 -0.013023 493511.000000 0 0 1
-28.933539 -9.997639 30.616509 43.295185 0.332694 0.785327 0.017063 -0.026032 -69994.200000 0 0 1
-28.593949 -11.381439 30.461679 43.302020 0.378813 0.790528 0.028882 -0.023154 -170309.000000 0 0 1
-29.614879 -11.959339 29.742429 43.642627 0.383803 0.820987 0.022696 -0.017082 -648758.000000 0 0 1
-29.040649 -13.245139 29.124469 43.209116 0.427907 0.831138 0.026813 -0.016453 358419.000000 0 0 1
-28.045599 -12.790939 28.195819 41.775207 0.427896 0.829911 0.032114 -0.011539 131011.000000 0 0 1
-27.032659 -13.750339 27.985639 41.267814 0.470549 0.825558 0.025422 -0.007095 -1822590.000000 0 0 1
-25.762789 -13.163139 27.590259 39.977643 0.472358 0.809111 0.021988 -0.007787 -1863060.000000 0 0 1
-24.968819 -12.459739 28.577419 39.941906 0.462857 0.773493 0.014764 -0.009065 249239.000000 0 0 1
-25.332049 -11.184139 29.081889 40.156618 0.415764 0.760906 0.017064 -0.007974 -775490.000000 0 0 1
-24.988119 -9.992639 28.135009 38.933760 0.380416 0.763185 0.011099 -0.005716 471583.000000 0 0 1
-23.599919 -9.816939 27.844029 37.797069 0.394200 0.742661 0.004043 0.001962 276703.000000 0 0 1
-23.069719 -10.627239 26.807839 36.929803 0.431681 0.758435 0.006135 0.003950 -533889.000000 0 0 1
-23.557119 -10.499539 25.346399 36.161003 0.419277 0.794093 0.013100 0.017097 -556150.000000 0 0 1
-24.871719 -10.968739 25.212909 37.075685 0.415355 0.822981 0.015288 0.007242 -514877.000000 0 0 1
-25.300899 -10.755139 23.897359 36.426532 0.401946 0.855233 0.000484 0.018257 819960.000000 0 0 1
-26.751059 -11.379939 23.696959 37.505573 0.402211 0.886891 0.017682 0.006458 1899820.000000 0 0 1
-27.932439 -10.740139 24.188859 38.479509 0.367077 0.891023 0.023945 0.000647 556827.000000 0 0 1
-28.021519 -10.863039 25.605229 39.482134 0.369830 0.865149 0.021952 -0.008628 -1114480.000000 0 0 1
-29.431459 -10.787839 26.180749 40.841399 0.351334 0.874951 0.023770 -0.012428 -828579.000000 0 0 1
-30.083629 -9.565139 25.865449 40.811004 0.307844 0.884358 0.020895 -0.018758 287155.000000 0 0 1
-31.489489 -9.487039 26.058069 41.959680 0.292627 0.900745 0.023069 -0.012079 571879.000000 0 0 1
-32.031329 -9.497739 27.495839 43.269322 0.288256 0.882195 0.014324 -0.008456 -384250.000000 0 0 1
-32.221659 -10.808839 28.025129 44.050813 0.323657 0.881233 0.006305 -0.015761 270288.000000 0 0 1
-33.070289 -10.688239 29.171399 45.374585 0.312601 0.872516 -0.004835 -0.012189 -289737.000000 0 0 1
-33.629509 -11.999839 29.782739 46.496791 0.342742 0.875604 -0.011860 -0.008515 28714.900000 0 0 1
-34.699635 -12.622839 29.117059 47.023439 0.348893 0.903069 -0.015118 -0.009108 -690836.000000 0 0 1
33.927197 -12.229539 29.562009 46.631842 -0.345966 0.884153 -0.012339 0.001963 -420083.000000 0 0 1
32.742281 -12.881239 28.755939 45.441031 -0.374815 0.885608 -0.015046 0.000032 298497.000000 0 0 1
32.637741 -12.249039 27.538709 44.425686 -0.359036 0.902203 -0.006964 0.006994 -356443.000000 0 0 1
31.637421 -12.893339 26.823609 43.435822 -0.386985 0.905178 -0.017715 0.015254 -481430.000000 0 0 1
31.455661 -12.447039 25.324239 42.257597 -0.376795 0.928192 -0.013121 0.017350 -110500.000000 0 0 1
31.087731 -11.100239 25.165429 41.508567 -0.342952 0.919434 -0.010601 0.014138 111837.000000 0 0 1
31.184741 -10.693939 23.810759 40.666948 -0.330356 0.945292 -0.008630 0.010639 -379069.000000 0 0 1
31.000441 -9.190239 23.604059 40.032979 -0.288201 0.940214 -0.021940 0.034072 -56088.600000 0 0 1
29.662471 -8.712039 23.557659 38.868047 -0.285672 0.919657 -0.035024 0.027228 34805.400000 0 0 1
29.604441 -7.342539 23.296259 38.380353 -0.243116 0.918536 -0.032539 0.038392 1282770.000000 0 0 1
28.123471 -6.725339 23.407659 37.203203 -0.234728 0.890293 -0.027072 0.031891 1557150.000000 0 0 1
27.224141 -7.035939 22.370059 35.931572 -0.252911 0.898769 -0.024058 0.030842 67827.700000 0 0 1
26.485931 -8.203839 22.702059 35.835611 -0.300371 0.884721 -0.030722 0.026815 -280514.000000 0 0 1
13.803481 -17.237139 26.431719 34.442573 -0.895568 0.695998 -0.015714 0.017918 -134664.000000 0 0 1
13.069881 -18.397639 26.116549 34.516214 -0.953117 0.712629 -0.030760 0.028110 -254848.000000 0 0 1
13.891181 -19.481039 26.222329 35.497695 -0.951358 0.739649 -0.011186 0.035394 -1059460.000000 0 0 1
13.216681 -20.892839 25.991889 35.871572 -1.006755 0.760369 -0.029353 0.023573 406522.000000 0 0 1
12.507881 -21.525639 27.049119 36.762142 -1.044413 0.743968 -0.027663 0.020662 -23652.900000 0 0 1
11.426981 -20.806039 27.552099 36.367366 -1.068556 0.711160 -0.020128 0.022907 -957735.000000 0 0 1
10.793481 -21.474339 28.798129 37.509715 -1.105053 0.695472 -0.034204 0.028438 -143531.000000 0 0 1
11.468981 -21.084639 29.984929 38.408274 -1.072610 0.675028 -0.032623 0.024509 152845.000000 0 0 1
10.815581 -20.190039 30.896429 38.460419 -1.079007 0.637929 -0.024631 0.022136 -297184.000000 0 0 1
10.684381 -18.716939 30.314869 37.195041 -1.052094 0.618025 -0.021491 0.026529 344750.000000 0 0 1
11.862481 -17.918839 30.294349 37.142305 -0.986023 0.616980 -0.034072 0.037955 -33039.000000 0 0 1
11.573781 -16.671839 29.826109 36.076300 -0.963966 0.597489 -0.024864 0.030460 170039.000000 0 0 1
12.675581 -15.579739 30.014439 36.114612 -0.887821 0.589734 -0.034497 0.019519 168424.000000 0 0 1
12.118081 -14.278539 29.860119 35.247004 -0.867062 0.560165 -0.010368 0.020457 202283.000000 0 0 1
12.793681 -13.248539 30.580429 35.698245 -0.802863 0.542081 -0.009875 0.021657 -213743.000000 0 0 1
12.232481 -11.858839 30.257029 34.723961 -0.769890 0.512831 0.001836 0.016319 491.500000 0 0 1
12.443981 -11.310739 28.923139 33.456441 -0.737728 0.526639 0.016417 0.021279 47257.500000 0 0 1
13.785581 -11.264939 28.490549 33.595423 -0.685113 0.558505 0.013745 0.028070 -242163.000000 0 0 1
14.251681 -10.288239 27.345889 32.507782 -0.625271 0.571278 0.015098 0.018709 196123.000000 0 0 1
14.264581 -8.890439 27.706189 32.406035 -0.557342 0.545303 0.015649 0.015695 388312.000000 0 0 1
15.570581 -8.501639 28.134239 33.260431 -0.499772 0.562589 0.013274 0.011588 -43949.500000 0 0 1
15.829981 -6.998439 27.913789 32.844270 -0.416265 0.555033 0.008904 0.007286 -1100160.000000 0 0 1
17.185581 -6.741339 27.973869 33.516074 -0.373822 0.583317 0.010317 0.000973 -911455.000000 0 0 1
17.467481 -5.455539 27.539359 33.064968 -0.302726 0.586494 0.015850 0.004502 -212363.000000 0 0 1
18.990581 -5.307539 27.421049 33.774637 -0.272529 0.623426 0.025358 0.001240 -1184930.000000 0 0 1
19.548881 -6.037639 26.372829 33.378705 -0.299555 0.659809 0.020124 0.009967 613551.000000 0 0 1
20.922781 -5.759139 26.077169 33.925642 -0.268605 0.694058 0.017914 0.013759 1946140.000000 0 0 1
21.997581 -6.180139 27.233959 35.549630 -0.273886 0.698072 0.031204 0.001579 321055.000000 0 0 1
22.088681 -5.263339 28.289439 36.275404 -0.233920 0.676367 0.034381 0.004251 -221960.000000 0 0 1
23.226681 -5.548939 29.060209 37.613364 -0.234508 0.687865 0.033482 -0.008093 -72130.400000 0 0 1
23.904881 -4.282239 29.646229 38.323359 -0.177257 0.686323 0.041456 -0.008818 14700.400000 0 0 1
24.525881 -3.406539 28.666589 37.880030 -0.138013 0.712434 0.028953 -0.001097 221821.000000 0 0 1
24.808781 -2.186139 29.276529 38.436571 -0.087893 0.704888 0.022439 -0.010149 -451142.000000 0 0 1
25.747881 -1.308939 28.395299 38.353093 -0.050793 0.737183 0.019114 -0.007084 -206488.000000 0 0 1
27.091081 -1.664639 28.557759 39.398519 -0.061369 0.759989 0.015421 -0.006439 -729897.000000 0 0 1
27.911681 -0.853839 27.773879 39.385014 -0.030581 0.788107 0.006923 0.010286 59858.300000 0 0 1
29.389481 -0.795739 28.222109 40.753678 -0.027069 0.805841 -0.000980 0.000060 -65217.900000 0 0 1
29.569681 0.019561 29.372219 41.678456 0.000662 0.788748 -0.002089 0.007553 -386240.000000 0 0 1
30.931681 -0.035639 29.682979 42.870146 -0.001152 0.805996 0.002614 0.000608 -79645.600000 0 0 1
31.438881 1.168761 30.604589 43.890889 0.037159 0.799189 0.016316 -0.009821 -45049.300000 0 0 1
31.369281 2.420461 29.971859 43.453455 0.077008 0.809658 0.006478 0.003676 104075.000000 0 0 1
31.716781 3.534361 30.815979 44.362940 0.110977 0.802886 0.004048 0.003345 -47923.800000 0 0 1
31.627581 4.948861 30.048729 43.905822 0.155214 0.817029 0.002459 0.009982 -185604.000000 0 0 1
31.729181 6.108861 30.889319 44.701333 0.190204 0.807903 0.002651 0.010033 -56679.200000 0 0 1
30.516881 6.453661 31.508069 44.336082 0.208408 0.780354 0.003107 0.006897 -389251.000000 0 0 1
30.673481 7.450661 32.639459 45.406047 0.238287 0.768671 0.008126 0.002575 -188026.000000 0 0 1
31.157681 6.739061 33.753635 46.427620 0.213008 0.756830 0.000702 0.006155 14516.900000 0 0 1
31.396781 7.591461 -34.410538 47.196115 0.237238 2.387798 0.002486 -0.002244 -416094.000000 0 0 1
31.650481 6.790061 -33.095029 46.294047 0.211329 2.367259 0.015192 -0.005817 423388.000000 0 0 1
30.493581 6.151361 -32.525489 45.006723 0.199055 2.378469 0.009045 -0.006146 672288.000000 0 0 1
30.448281 4.768461 -32.845699 45.040826 0.155347 2.388011 0.024755 -0.006731 -64778.500000 0 0 1
30.803781 3.715261 -31.765429 44.404038 0.120031 2.367953 0.018260 -0.005331 -303402.000000 0 0 1
30.756981 2.421961 -32.247319 44.628997 0.078583 2.378301 0.022968 -0.003857 299958.000000 0 0 1
31.140981 1.530861 -31.221279 44.123378 0.049120 2.356879 0.005908 0.001419 -57439.700000 0 0 1
31.113681 0.049461 -31.593899 44.342283 0.001590 2.363852 0.012108 -0.008175 -589971.000000 0 0 1
32.164481 -0.261939 -32.480389 45.712122 -0.008144 2.361065 0.006443 -0.013985 -5620.000000 0 0 1
32.718981 -1.556239 -32.323269 46.018989 -0.047528 2.349546 0.008920 -0.014197 285930.000000 0 0 1
33.674881 -1.705539 -31.134879 45.894304 -0.050604 2.316384 0.007897 -0.010278 -1058020.000000 0 0 1
32.983781 -1.945639 -29.972699 44.610290 -0.058919 2.307539 0.011115 -0.008294 -381888.000000 0 0 1
33.811681 -2.048139 -28.846939 44.492365 -0.060501 2.276221 0.017370 -0.010601 -271679.000000 0 0 1
33.142481 -1.561839 -27.541699 43.120860 -0.047090 2.263616 0.017108 -0.015321 -168762.000000 0 0 1
32.844681 -0.179239 -27.482059 42.826029 -0.005457 2.267527 0.011503 -0.019033 202013.000000 0 0 1
32.114381 0.177061 -26.335229 41.532025 0.005513 2.257633 0.009459 -0.016703 -234871.000000 0 0 1
31.562181 1.617761 -26.384859 41.169761 0.051211 2.266440 0.003531 -0.009650 403478.000000 0 0 1
30.692581 1.849961 -27.526689 41.269547 0.060201 2.300968 0.007084 -0.012127 645596.000000 0 0 1
30.162781 3.158861 -27.472689 40.920904 0.104347 2.306840 -0.000050 0.003777 -21686.500000 0 0 1
29.207881 3.379561 -28.664809 41.063281 0.115195 2.343487 0.006876 0.002570 -378620.000000 0 0 1
28.749681 4.679561 -28.808839 40.968178 0.161354 2.350685 -0.001569 0.004730 20424.600000 0 0 1
27.811481 4.801961 -29.845529 41.076671 0.170975 2.384129 0.026781 0.001659 -917414.000000 0 0 1
26.597981 5.568961 -29.369019 40.012563 0.206394 2.394982 0.022342 -0.006023 -434883.000000 0 0 1
25.462281 4.767261 -29.005219 38.889038 0.185086 2.412600 0.019030 0.000125 726475.000000 0 0 1
24.601581 5.583161 -28.222369 37.853819 0.223163 2.412174 0.020423 -0.008429 -1188610.000000 0 0 1
23.237281 5.030961 -27.994459 36.728348 0.213213 2.437506 0.011519 0.002564 -1465820.000000 0 0 1
22.476981 4.756061 -29.113539 37.086830 0.208521 2.473509 0.020010 -0.001043 550551.000000 0 0 1
21.125781 4.459761 -28.744059 35.950091 0.208050 2.497350 0.029790 -0.003820 463771.000000 0 0 1
20.138081 4.296861 -29.898889 36.303566 0.210218 2.538490 0.009481 0.002587 -280366.000000 0 0 1
20.339681 3.092861 -30.551449 36.832858 0.150904 2.548940 0.004661 0.000263 246867.000000 0 0 1
19.532981 2.921261 -31.723169 37.368845 0.148455 2.584735 -0.010782 -0.006179 -41854.300000 0 0 1
19.972081 3.744261 -32.915139 38.682165 0.185324 2.588516 -0.007819 -0.006239 -376872.000000 0 0 1
21.036481 3.146461 -33.606139 39.771929 0.148471 2.577308 0.008520 -0.006311 -356431.000000 0 0 1
21.238381 3.852061 34.495964 40.692490 0.179422 0.559118 0.008453 -0.023170 397499.000000 0 0 1
22.587981 3.466861 33.786769 40.789481 0.152294 0.594693 0.020318 -0.012268 631853.000000 0 0 1
22.685481 2.145661 33.367675 40.405899 0.094302 0.599156 0.032225 -0.015038 351156.000000 0 0 1
24.000781 1.673661 33.666658 41.379735 0.069621 0.620475 0.026987 -0.021103 323372.000000 0 0 1
24.231781 0.122461 33.598992 41.425674 0.005054 0.624823 0.018740 -0.008870 -350498.000000 0 0 1
23.962181 -0.599139 32.398409 40.301390 -0.024998 0.636968 0.023234 -0.011942 460517.000000 0 0 1
22.611481 -0.706639 31.978819 39.171715 -0.031241 0.615690 0.027093 -0.014255 127137.000000 0 0 1
21.707381 -1.768139 32.649119 39.246677 -0.081274 0.588282 0.030260 -0.017245 -335930.000000 0 0 1
21.887981 -3.076039 32.162379 39.025176 -0.139621 0.602106 0.031264 -0.018756 74311.800000 0 0 1
21.165681 -3.979039 32.947979 39.362268 -0.185826 0.578937 0.039933 -0.011345 -364773.000000 0 0 1
21.274981 -5.437239 32.480849 39.207065 -0.250214 0.594473 0.037212 -0.009989 -72048.000000 0 0 1
22.526081 -5.967739 32.865799 40.288944 -0.258976 0.616768 0.042478 -0.005224 -53299.800000 0 0 1
22.533781 -7.338039 32.563339 40.273927 -0.314816 0.629119 0.045523 -0.004516 -74384.500000 0 0 1
23.913081 -8.020639 32.412669 41.070028 -0.323617 0.661283 0.027328 -0.003666 193249.000000 0 0 1
24.560681 -7.763739 31.171939 40.437513 -0.306165 0.690595 0.036932 -0.001221 -231732.000000 0 0 1
25.642081 -8.621639 30.931959 41.093005 -0.324355 0.718596 0.018062 0.002334 -230782.000000 0 0 1
26.195981 -8.500739 29.502169 40.359261 -0.313785 0.751026 0.010010 0.011850 -475847.000000 0 0 1
25.363281 -8.900439 28.464709 39.150396 -0.337493 0.756765 0.005259 0.018241 -498916.000000 0 0 1
25.902281 -8.688539 27.213789 38.561758 -0.323641 0.787358 -0.001466 0.028604 -31416.600000 0 0 1
25.036181 -9.510639 26.198979 37.465306 -0.363038 0.796398 -0.012145 0.023258 875026.000000 0 0 1
23.710181 -9.050639 25.946179 36.294503 -0.364649 0.774345 -0.003050 0.014624 168988.000000 0 0 1
23.205781 -9.723239 24.834839 35.352778 -0.396778 0.791911 -0.004114 0.016424 710487.000000 0 0 1
21.781681 -9.120739 24.487469 34.018607 -0.396552 0.767245 -0.011998 0.017062 573166.000000 0 0 1
20.799681 -9.690039 25.287539 34.146496 -0.435976 0.736893 -0.003253 0.022273 -96007.400000 0 0 1
19.516581 -9.108839 25.037329 33.026288 -0.436673 0.710397 0.008895 0.021340 944961.000000 0 0 1
18.511181 -9.186839 26.230909 33.393449 -0.460672 0.667276 0.016886 0.010435 -85458.400000 0 0 1
17.993281 -10.491039 26.574229 33.764030 -0.527865 0.664772 0.008931 0.020476 268091.000000 0 0 1
18.856581 -11.299339 27.354599 35.093016 -0.539850 0.676948 0.004624 0.020076 -244451.000000 0 0 1
18.103981 -12.336739 28.225099 35.729616 -0.598159 0.660047 0.005710 0.009505 276415.000000 0 0 1
17.404581 -13.322139 27.437449 35.117125 -0.653309 0.674030 0.008944 0.015573 1032310.000000 0 0 1
16.339081 -14.001439 28.114339 35.403699 -0.708503 0.653259 -0.007923 0.018812 112659.000000 0 0 1
16.773281 -15.288439 28.739509 36.620195 -0.739119 0.668424 0.009700 0.019783 132692.000000 0 0 1
15.750381 -16.063139 29.411219 37.028621 -0.795229 0.652969 0.001741 0.019604 625028.000000 0 0 1
16.268881 -17.291939 29.960679 38.227345 -0.815872 0.670116 0.012972 0.018046 83584.000000 0 0 1
16.674781 -18.368339 28.938749 38.116865 -0.833688 0.708696 0.011520 0.022761 -369101.000000 0 0 1
17.835981 -18.106739 28.211159 37.971644 -0.792931 0.733324 0.015739 0.020576 -211198.000000 0 0 1
18.180181 -19.209739 27.446669 38.116305 -0.812927 0.766883 0.007389 0.028615 -172658.000000 0 0 1
19.255181 -18.697039 26.466569 37.693773 -0.770693 0.792388 0.014009 0.017283 286864.000000 0 0 1
20.552581 -18.526139 27.060849 38.702919 -0.733589 0.796527 0.038517 0.009615 537698.000000 0 0 1
21.361681 -17.865739 26.103059 38.169042 -0.696513 0.817728 0.026807 0.006919 246704.000000 0 0 1
22.836481 -17.684839 26.554579 39.235240 -0.658942 0.827383 0.031114 0.000761 204905.000000 0 0 1
23.549581 -18.884139 26.589529 40.226814 -0.675891 0.848659 0.033598 -0.007578 -148623.000000 0 0 1
24.924681 -18.684139 26.820079 41.105394 -0.643260 0.859956 0.034964 -0.015502 -263711.000000 0 0 1
25.703281 -19.967639 27.002159 42.290446 -0.660466 0.878258 0.011577 -0.006852 -285777.000000 0 0 1
25.368281 -20.576739 28.221709 43.167311 -0.681485 0.858234 0.018892 0.001240 541275.000000 0 0 1
26.282881 -21.665939 28.477419 44.397817 -0.689405 0.874455 0.012173 0.003762 406105.000000 0 0 1
25.697181 -22.733739 29.413939 45.192342 -0.724285 0.862078 0.019450 0.012161 -237691.000000 0 0 1
25.603681 -22.278539 30.740949 45.791787 -0.716065 0.834808 0.022429 0.001377 -345490.000000 0 0 1
25.055881 -23.349539 31.500089 46.532287 -0.750162 0.827184 0.024228 0.008206 -65798.300000 0 0 1
24.542181 -23.072439 32.939759 47.113521 -0.754541 0.796578 0.019322 0.002509 -37201.500000 0 0 1
24.106681 -24.283439 33.431084 47.837797 -0.789051 0.797018 0.004565 -0.001311 -114285.000000 0 0 1
23.896381 -24.244439 -34.453036 48.433888 -0.792628 2.362201 0.011008 -0.001745 -433898.000000 0 0 1
23.639681 -25.627749 -33.761249 48.532854 -0.825729 2.340103 0.003102 -0.003058 -454472.000000 0 0 1
22.435581 -26.247049 -34.051219 48.494828 -0.863531 2.349226 0.002113 0.002592 -989340.000000 0 0 1
22.121481 -26.644159 33.886912 48.451976 -0.877877 0.796250 0.003580 -0.001205 181175.000000 0 0 1
20.721181 -27.318919 33.799760 48.146801 -0.921882 0.792574 0.015323 -0.009474 399853.000000 0 0 1
20.738081 -28.723809 34.141680 49.201418 -0.945469 0.803882 0.003253 -0.005483 132064.000000 0 0 1
19.498081 -29.396789 34.065439 49.038765 -0.985147 0.802844 0.014974 -0.003586 -2665.440000 0 0 1
19.837681 -30.858689 34.324508 50.239070 -0.999460 0.818628 0.006239 -0.002784 76413.100000 0 0 1
20.287081 -31.164239 -33.628449 50.136294 -0.993737 2.306003 -0.002057 -0.001594 606735.000000 0 0 1
21.118281 -32.348689 -33.725109 51.281599 -0.992432 2.288485 -0.021369 0.012017 132962.000000 0 0 1
21.709881 -32.830919 -32.421879 50.993788 -0.986544 2.259842 -0.014486 0.012800 -963108.000000 0 0 1
22.631181 -33.903359 -32.669879 52.239153 -0.982203 2.246428 -0.019269 0.012488 215720.000000 0 0 1
23.238981 -34.434093 -31.505859 52.138049 -0.977127 2.219655 -0.018596 0.017903 -241216.000000 0 0 1
24.172881 -33.482789 -30.820119 51.529652 -0.945491 2.211930 -0.021527 0.015279 -1419940.000000 0 0 1
24.538081 -33.850339 -29.503729 51.170625 -0.943554 2.185327 -0.003396 0.018678 -256959.000000 0 0 1
25.396981 -32.898259 -28.928989 50.637817 -0.913372 2.178876 0.002476 0.017627 -30059.900000 0 0 1
25.863481 -33.154159 -27.457069 50.219603 -0.908309 2.149262 0.007483 0.015812 -107826.000000 0 0 1
26.740781 -34.211043 -27.325509 51.304466 -0.907350 2.132483 0.014461 0.022423 -541016.000000 0 0 1
27.432181 -34.225482 -26.107409 51.044147 -0.895133 2.107688 0.014579 0.017601 294459.000000 0 0 1
-25.336679 -30.844605 9.837541 41.110998 0.883124 1.329160 0.022318 -0.002979 -414174.000000 0 0 1
-25.479929 -32.215405 10.244741 42.332184 0.901614 1.326361 0.021499 -0.005224 -5328.900000 0 0 1
-24.452619 -32.660505 11.110441 42.285707 0.928134 1.304928 0.006195 -0.002379 220374.000000 0 0 1
-24.651019 -34.140505 11.602441 43.679096 0.945427 1.301940 -0.002561 0.003215 135409.000000 0 0 1
-24.464619 34.277361 10.616541 43.430013 -0.950918 1.323842 -0.002349 0.003271 -56323.200000 0 0 1
-24.741619 33.042861 11.209041 42.774069 -0.928081 1.305648 -0.005765 0.001098 -101135.000000 0 0 1
-24.634219 31.752461 10.294141 41.485333 -0.910974 1.320037 -0.008345 0.007481 -293451.000000 0 0 1
-25.806719 31.630661 9.534941 41.921362 -0.886449 1.341340 0.001786 -0.000150 -204788.000000 0 0 1
-25.941719 30.555461 8.627241 41.000467 -0.866881 1.358794 0.004839 -0.000866 233131.000000 0 0 1
-24.919319 30.681861 7.409141 40.214978 -0.888670 1.385499 0.002531 0.006057 541977.000000 0 0 1
-23.682319 30.045261 7.618841 39.007905 -0.903279 1.374217 -0.005828 -0.000771 -484947.000000 0 0 1
-22.922519 30.121861 6.436941 38.395346 -0.920297 1.402352 -0.012463 -0.005481 -757654.000000 0 0 1
-21.643319 29.316461 6.589541 37.031206 -0.934848 1.391898 0.009841 -0.002417 -681466.000000 0 0 1
-21.752019 27.923161 6.757341 36.034912 -0.908995 1.382157 0.000936 -0.000194 216423.000000 0 0 1
-22.319019 27.204461 5.578941 35.627881 -0.883729 1.413560 -0.002770 -0.000971 -90002.200000 0 0 1
-22.589719 25.732561 5.989541 34.761109 -0.850346 1.397626 -0.008048 0.005714 -64044.800000 0 0 1
-23.510019 25.579661 7.085341 35.457610 -0.827534 1.369616 -0.009998 -0.000131 666361.000000 0 0 1
-23.752819 24.231061 7.607841 34.773840 -0.795365 1.350232 -0.007014 -0.003726 -90444.700000 0 0 1
-24.297919 23.182561 6.581241 34.221817 -0.761912 1.377279 -0.006490 -0.012892 -653823.000000 0 0 1
-25.557139 23.475161 6.036441 35.223418 -0.742962 1.398570 -0.004335 -0.018494 -135510.000000 0 0 1
-25.789089 22.836861 4.803441 34.780345 -0.724760 1.432246 -0.005252 -0.016204 -89661.600000 0 0 1
-25.608999 23.739461 3.583941 35.103098 -0.747532 1.468521 -0.007936 -0.022008 -117114.000000 0 0 1
-24.328319 24.336361 3.515941 34.590279 -0.785563 1.468975 -0.005994 -0.022970 346940.000000 0 0 1
-24.226719 25.050461 2.274641 34.923252 -0.802113 1.505618 -0.002977 -0.023394 -288760.000000 0 0 1
-22.915219 25.832861 2.158841 34.599199 -0.845178 1.508360 0.009752 -0.022431 -214786.000000 0 0 1
-22.652519 26.304461 0.863341 34.724727 -0.859855 1.545931 0.008335 -0.026282 -394985.000000 0 0 1
-21.461319 27.052461 0.950041 34.544557 -0.900140 1.543291 0.014641 -0.023975 -782123.000000 0 0 1
-20.984219 27.453061 -0.471259 34.557634 -0.918163 1.584434 0.026102 -0.022526 -52443.700000 0 0 1
-20.551919 26.482061 -1.375259 33.549549 -0.910818 1.611800 0.025602 -0.022923 -343390.000000 0 0 1
-19.567819 25.608461 -0.919259 32.241865 -0.918322 1.599312 0.022295 -0.024447 -805772.000000 0 0 1
-19.048319 24.542161 -1.945159 31.127797 -0.910770 1.633327 0.033050 -0.027180 386747.000000 0 0 1
-20.153019 23.791461 -2.477559 31.278045 -0.868006 1.650090 0.020281 -0.021413 287937.000000 0 0 1
-19.887019 22.587461 -3.196659 30.263931 -0.848891 1.676620 0.022121 -0.015256 -301980.000000 0 0 1
-21.137019 22.215661 -3.998159 30.924011 -0.810274 1.700449 0.007159 -0.006661 -9302.090000 0 0 1
-21.534619 23.122461 -5.032059 31.995463 -0.820940 1.728726 -0.000029 -0.000458 245309.000000 0 0 1
-22.713619 22.582061 -5.623759 32.518989 -0.782494 1.744608 0.004623 -0.004843 383280.000000 0 0 1
-22.995019 23.087261 -7.017659 33.332267 -0.787400 1.782920 -0.007937 0.003395 -103434.000000 0 0 1
-22.081819 22.551061 -7.937259 32.544695 -0.795911 1.817169 -0.017832 0.000101 -61227.700000 0 0 1
-21.909219 23.384861 -9.045859 33.297044 -0.817966 1.845926 -0.008770 -0.001623 -413477.000000 0 0 1
-21.080219 22.734461 -10.170159 32.629181 -0.823136 1.887766 -0.016765 -0.004822 -500113.000000 0 0 1
-21.640319 21.722361 -10.941359 32.555763 -0.787290 1.913549 -0.017762 -0.006230 -218286.000000 0 0 1
-20.808019 21.440461 -12.044459 32.213910 -0.800367 1.953996 -0.027808 0.000084 111493.000000 0 0 1
-21.587819 21.694161 -13.381659 33.402685 -0.787855 1.982986 -0.025393 0.000068 174265.000000 0 0 1
-22.631719 20.745961 -13.507359 33.541591 -0.741953 1.985266 -0.037097 -0.000522 -76618.900000 0 0 1
-22.617819 20.084261 -14.722559 33.640705 -0.726137 2.023770 -0.013662 -0.006173 252216.000000 0 0 1
-23.845619 19.137361 -14.925759 34.023968 -0.676295 2.024930 -0.008365 -0.012640 418287.000000 0 0 1
-23.676919 18.302361 -16.102159 33.983120 -0.658062 2.064429 -0.006436 -0.008080 629925.000000 0 0 1
-24.800519 17.407761 -16.230259 34.373204 -0.612007 2.062556 0.018228 -0.009156 138982.000000 0 0 1
-24.592019 16.346561 -17.323059 34.235447 -0.586647 2.101335 0.023124 -0.009113 136062.000000 0 0 1
-23.462119 15.510061 -17.045259 32.887290 -0.584117 2.115650 0.031781 -0.008908 494165.000000 0 0 1
-23.140819 14.645761 -18.104959 32.829641 -0.564258 2.154936 0.030121 -0.013345 68531.300000 0 0 1
-22.420819 13.317861 -17.670559 31.500908 -0.535993 2.166334 0.020788 -0.008117 216699.000000 0 0 1
-21.091419 13.538261 -17.251459 30.426063 -0.570649 2.173651 0.021384 -0.007755 77769.600000 0 0 1
-20.376819 12.325661 -17.114459 29.326462 -0.544005 2.193932 0.020189 -0.006354 394283.000000 0 0 1
-19.045019 12.364161 -16.303959 27.953610 -0.575818 2.193521 0.024103 -0.003352 590037.000000 0 0 1
-18.063619 13.206461 -16.912259 28.048698 -0.631300 2.218003 0.023043 0.003728 489076.000000 0 0 1
-17.189619 13.723561 -15.915359 27.149913 -0.673742 2.197160 0.029590 0.010690 153638.000000 0 0 1
-16.247719 14.888861 -16.304559 27.413595 -0.741784 2.207766 0.018153 0.017187 -259154.000000 0 0 1
-15.338919 14.577561 -17.346059 27.361898 -0.759954 2.257446 0.032757 0.012594 198411.000000 0 0 1
-14.478219 15.691561 -17.545959 27.635205 -0.825594 2.258693 0.022845 0.009121 -455249.000000 0 0 1
-13.524119 15.552461 -18.706759 27.833858 -0.855044 2.307819 0.010220 0.008458 -789044.000000 0 0 1
-12.701319 14.451261 -18.499959 26.691027 -0.849758 2.336598 0.009493 0.006341 -562571.000000 0 0 1
-11.925019 14.278561 -19.682159 27.082665 -0.874975 2.384366 0.013537 0.004456 590893.000000 0 0 1
-11.011019 13.014961 -19.525859 25.920858 -0.868613 2.423843 0.007411 -0.002333 194309.000000 0 0 1
-11.696119 11.963561 -20.115559 26.164130 -0.796701 2.447793 0.012124 0.010526 14123.100000 0 0 1
-11.058719 10.725761 -20.047859 25.283470 -0.770115 2.486388 -0.003292 0.022360 -550418.000000 0 0 1
-11.702219 9.814461 -21.039959 25.998951 -0.697888 2.513691 -0.001668 0.020557 -224633.000000 0 0 1
-11.444919 10.054161 -22.444259 27.125948 -0.720799 2.545275 -0.003036 0.017035 -217228.000000 0 0 1
-10.690219 9.029761 -23.037359 26.954355 -0.701395 2.595731 -0.004269 0.033862 -559667.000000 0 0 1
-10.822119 8.764461 -24.511759 28.191494 -0.680728 2.624932 -0.001136 0.013898 -339957.000000 0 0 1
-10.205219 9.609861 -25.442529 29.048549 -0.755362 2.638016 -0.006378 0.000593 -329859.000000 0 0 1
-9.962819 8.741361 -26.574959 29.696760 -0.720187 2.678953 -0.003392 0.000447 -319693.000000 0 0 1
-9.301019 9.481861 -27.733399 30.749895 -0.795026 2.694950 0.011006 -0.000694 417151.000000 0 0 1
-8.008119 10.065461 -27.600009 30.450024 -0.898742 2.705487 0.006104 0.003007 292307.000000 0 0 1
-7.823019 11.155561 -26.755109 30.024690 -0.959221 2.670568 -0.007947 0.005434 -624662.000000 0 0 1
-6.373319 11.620961 -26.900489 29.988368 -1.069157 2.683801 -0.003432 0.008806 -392318.000000 0 0 1
-5.975319 12.090661 -28.188089 31.248310 -1.111792 2.695333 -0.005909 0.007888 -176340.000000 0 0 1
-4.589519 12.284961 -28.277469 31.170486 -1.213264 2.707346 0.003466 0.001404 -202090.000000 0 0 1
-4.001019 12.679061 -29.651849 32.496136 -1.265125 2.720085 0.003891 0.002140 627738.000000 0 0 1
-2.623719 13.060461 -29.573919 32.435724 -1.372545 2.718370 -0.000296 -0.004377 497084.000000 0 0 1
-1.947619 13.088761 -30.803739 33.525799 -1.423079 2.735844 -0.000271 -0.000233 -78353.300000 0 0 1
-0.459019 12.767561 -30.637789 33.194810 -1.534860 2.746522 0.002346 -0.009532 -410239.000000 0 0 1
-0.134119 11.411561 -30.224279 32.307100 -1.559044 2.780554 -0.006218 0.002329 747862.000000 0 0 1
1.265781 11.088361 -30.120239 32.121375 1.457134 2.786749 0.005927 -0.004311 869768.000000 0 0 1
1.745181 10.436961 -31.382439 33.118473 1.405117 2.816375 0.001409 -0.003540 -594056.000000 0 0 1
1.827581 11.323661 -32.485089 34.450636 1.410781 2.802167 0.004940 -0.010486 167686.000000 0 0 1
1.981881 10.614161 -33.679339 35.367868 1.386202 2.831345 -0.003054 -0.003557 -106259.000000 0 0 1
1.871481 11.482061 34.318891 36.237087 1.409225 0.326828 0.000640 -0.002620 -406912.000000 0 0 1
2.979481 12.325561 34.127897 36.407556 1.333614 0.355752 -0.004972 -0.002101 -182728.000000 0 0 1
2.871681 12.927861 32.847679 35.416750 1.352214 0.383230 0.007090 0.002374 -71431.200000 0 0 1
4.268381 13.325761 32.329869 35.228049 1.260812 0.408467 0.014074 0.004009 -83279.000000 0 0 1
5.027081 12.257861 31.899429 34.541284 1.181604 0.393648 0.002806 0.005502 -478042.000000 0 0 1
6.344581 12.574761 31.539149 34.541225 1.103516 0.420004 0.009814 0.007535 -202650.000000 0 0 1
7.226881 11.468361 30.966519 33.803497 1.008496 0.412617 -0.003943 0.016272 -272398.000000 0 0 1
6.782481 10.934261 29.739479 32.403653 1.015587 0.408339 -0.002787 0.009426 -101544.000000 0 0 1
7.672181 9.968161 29.244399 31.834910 0.914826 0.406206 0.005160 0.008375 2636.570000 0 0 1
7.085181 9.160161 28.062689 30.358242 0.912438 0.391377 0.005862 0.008211 132913.000000 0 0 1
6.363981 8.044661 28.545199 30.332247 0.901517 0.344974 0.006121 0.001176 -122577.000000 0 0 1
5.967581 7.251361 27.416839 28.980637 0.882211 0.330008 0.013359 -0.002409 -92457.900000 0 0 1
5.179181 5.947461 27.792269 28.889556 0.854337 0.276496 0.028110 -0.023592 59155.500000 0 0 1
5.938681 4.915761 28.405819 29.433369 0.691436 0.265014 0.015779 -0.011949 -81038.600000 0 0 1
5.220781 4.335661 29.467279 30.238635 0.693041 0.226354 0.016667 -0.012064 -427701.000000 0 0 1
5.931481 3.201261 30.181709 30.925169 0.494906 0.219716 0.027353 -0.002827 -96232.900000 0 0 1
5.934581 1.983961 29.477699 30.134533 0.322625 0.209172 0.030011 -0.009786 -1003380.000000 0 0 1
7.098681 1.827461 28.770449 29.689554 0.251966 0.249472 0.025454 -0.008133 -1195870.000000 0 0 1
7.164981 0.461061 28.026399 28.931446 0.064261 0.250787 0.014746 -0.005369 -77630.300000 0 0 1
7.437781 -0.590939 28.967019 29.912506 -0.079284 0.252097 -0.006570 0.000458 114375.000000 0 0 1
7.505481 -1.855739 28.366579 29.401340 -0.242390 0.266093 0.008075 -0.002900 -579374.000000 0 0 1
7.968781 -2.975739 29.296879 30.506780 -0.357389 0.282578 -0.000178 0.009936 -471346.000000 0 0 1
9.314581 -2.978439 29.663839 31.234210 -0.309486 0.318447 -0.006220 0.003362 -640051.000000 0 0 1
10.121581 -3.671239 28.750429 30.700351 -0.347956 0.358326 -0.017285 0.020229 -322644.000000 0 0 1
11.602981 -3.808839 29.172339 31.625335 -0.317181 0.396455 -0.020813 0.018838 277477.000000 0 0 1
12.308481 -4.932039 28.677589 31.594744 -0.381112 0.433099 -0.014554 0.018554 71709.200000 0 0 1
12.502681 -5.940839 29.632179 32.705911 -0.443583 0.437015 0.000231 0.017451 -451767.000000 0 0 1
11.976581 -7.254539 29.075979 32.271960 -0.544620 0.448803 0.004623 0.019368 -141520.000000 0 0 1
10.564381 -7.129839 29.117959 31.785158 -0.593677 0.412587 0.002224 0.019111 -36147.600000 0 0 1
9.910481 -8.407539 28.994099 31.773607 -0.703534 0.421390 0.002312 0.023370 -365973.000000 0 0 1
8.456481 -8.189139 28.637179 30.962269 -0.769339 0.390009 0.004221 0.016927 -293998.000000 0 0 1
7.650681 -7.526339 29.622509 31.506694 -0.777206 0.347587 -0.001536 0.019235 296382.000000 0 0 1
6.308981 -7.269839 29.273349 30.815301 -0.856042 0.317684 -0.011080 0.025221 175649.000000 0 0 1
5.477081 -6.579739 30.384699 31.567726 -0.876600 0.274635 -0.013176 0.016547 102644.000000 0 0 1
5.244881 -7.353639 31.549199 32.816714 -0.951242 0.278838 -0.021542 0.011975 -99397.700000 0 0 1
4.809381 -6.595039 32.656639 33.661265 -0.940713 0.244928 -0.025206 0.017121 -306401.000000 0 0 1
5.724381 -5.499739 33.192939 34.128974 -0.765387 0.234745 -0.017232 0.023915 -359193.000000 0 0 1
5.667981 -4.270339 32.467009 33.233544 -0.645683 0.215194 -0.005312 0.015324 -159308.000000 0 0 1
6.483681 -3.272939 33.048709 33.837367 -0.467477 0.216326 -0.012916 0.021575 -290040.000000 0 0 1
6.338581 -1.903239 32.328209 32.998682 -0.291698 0.201928 -0.009077 0.028000 -71745.300000 0 0 1
5.061481 -1.342339 32.542579 32.961188 -0.259239 0.159543 0.001279 0.021516 -58211.100000 0 0 1
5.021181 -0.061539 31.866759 32.259981 -0.012255 0.156295 0.015188 0.008885 -107011.000000 0 0 1
3.616681 0.495561 31.563839 31.774233 0.136173 0.115142 0.013075 0.004080 -31524.400000 0 0 1
2.899481 0.769061 32.747119 32.884225 0.259271 0.091348 0.010275 0.003559 -408771.000000 0 0 1
1.577381 1.193061 32.492179 32.552315 0.647556 0.060794 0.019066 0.002027 -135141.000000 0 0 1
0.800081 1.001561 33.799269 33.823569 0.896767 0.037909 0.015603 -0.002482 -339768.000000 0 0 1
1.295881 1.908361 -34.464194 34.541306 0.974266 3.074760 0.010281 0.002117 408488.000000 0 0 1
0.429881 2.066561 -33.334769 33.401531 1.365704 3.078356 0.002023 0.004774 27883.300000 0 0 1
0.983481 3.112361 -32.353159 32.517394 1.264733 3.041045 0.003302 0.017201 115608.000000 0 0 1
2.062481 2.665561 -31.543599 31.723141 0.912267 3.035150 -0.004431 0.013601 -52767.500000 0 0 1
2.716881 3.804361 -31.052379 31.402306 0.950637 2.992166 -0.009810 0.018093 -433876.000000 0 0 1
3.839481 3.448861 -30.090149 30.529548 0.731854 2.971727 -0.006456 0.016915 -229004.000000 0 0 1
3.317881 2.624361 -29.060009 29.366302 0.669214 2.997036 -0.001790 0.003434 909652.000000 0 0 1
4.393581 2.349961 -28.158459 28.595885 0.491147 2.966458 0.009799 -0.003157 469004.000000 0 0 1
3.842281 1.723661 -26.838709 27.167083 0.421692 2.985954 0.007869 -0.004915 122994.000000 0 0 1
3.539581 0.365361 -26.976069 27.209748 0.102857 3.010441 0.014805 -0.003375 -65471.400000 0 0 1
3.018081 -0.212339 -25.789719 25.966584 -0.070240 3.024811 0.018444 -0.006732 -238012.000000 0 0 1
3.515681 -1.662639 -25.488629 25.783611 -0.441751 2.990182 0.025128 -0.008835 1214950.000000 0 0 1
4.944981 -1.674739 -25.278199 25.811721 -0.326550 2.937920 0.025994 -0.012713 898257.000000 0 0 1
5.435481 -2.969139 -24.936159 25.693817 -0.499961 2.898142 0.027298 -0.017629 590116.000000 0 0 1
6.884081 -2.899439 -24.345759 25.465924 -0.398631 2.843891 0.028252 -0.015946 74844.900000 0 0 1
7.866881 -2.647239 -25.258759 26.587602 -0.324602 2.824097 0.014580 -0.003641 -1187560.000000 0 0 1
9.131181 -2.850139 -24.678859 26.467864 -0.302550 2.771817 0.010041 0.000305 -23163.500000 0 0 1
-28.216139 -4.626239 18.094859 33.837501 0.162511 1.006576 0.011671 0.001849 1527130.000000 0 0 1
-29.644269 -4.323439 18.140859 35.022358 0.144823 1.026309 0.010839 0.009808 1204450.000000 0 0 1
-30.262399 -5.031139 19.155859 36.167279 0.164744 1.012613 0.014016 0.004852 148020.000000 0 0 1
-31.744479 -4.637239 19.354159 37.467311 0.145054 1.027966 0.015425 0.007536 315058.000000 0 0 1
-32.652979 -5.043939 18.342059 37.790071 0.153260 1.064013 0.010608 0.015114 215895.000000 0 0 1
-33.976189 -4.766839 18.766359 39.106015 0.139390 1.070274 0.002740 0.025802 390600.000000 0 0 1
34.853494 -4.886339 17.609859 39.354155 -0.139289 1.106860 0.000397 0.022555 -536610.000000 0 0 1
33.549431 -4.837439 18.061859 38.408279 -0.143201 1.081212 -0.002822 0.025157 -802249.000000 0 0 1
32.613351 -4.952739 16.979559 37.100751 -0.150711 1.095434 -0.003896 0.022960 -194115.000000 0 0 1
31.349861 -5.664739 17.429459 36.313759 -0.178765 1.070178 -0.005246 0.028972 -687983.000000 0 0 1
30.732391 -4.808739 18.372359 36.126824 -0.155213 1.037294 -0.000211 0.021749 35365.100000 0 0 1
29.608181 -5.398139 18.982659 35.582659 -0.180338 1.008086 -0.017171 0.015756 44980.100000 0 0 1
28.883111 -4.673739 20.132459 35.516107 -0.160425 0.968114 -0.017183 0.020157 -29438.400000 0 0 1
28.173261 -3.491739 19.783459 34.602170 -0.123309 0.962171 -0.011663 0.017635 -115748.000000 0 0 1
28.932461 -2.347139 19.646859 35.051326 -0.080947 0.975787 0.000949 0.012350 -1047890.000000 0 0 1
28.063131 -1.149739 19.950659 34.451270 -0.040947 0.953175 -0.011219 0.018210 -504460.000000 0 0 1
28.577361 0.130961 19.692259 34.705443 0.004583 0.967438 -0.015921 0.011657 -146833.000000 0 0 1
27.586181 1.053261 20.047759 34.117728 0.038162 0.942700 -0.017734 0.013872 37325.700000 0 0 1
27.931801 2.515561 19.477959 34.145343 0.089819 0.963752 -0.030938 0.017486 -209358.000000 0 0 1
27.886991 2.563161 18.048459 33.316677 0.091655 0.998309 -0.041769 0.011076 118286.000000 0 0 1
28.062571 3.858061 17.550059 33.322622 0.136624 1.016117 -0.051909 0.018103 -215595.000000 0 0 1
27.786741 3.882961 16.023959 32.310178 0.138842 1.051878 -0.043642 0.015138 -346974.000000 0 0 1
27.691291 5.137661 15.397959 32.098291 0.183448 1.070469 -0.053686 0.015171 126498.000000 0 0 1
27.273971 4.946361 14.052959 31.077671 0.179408 1.101579 -0.028031 0.016470 -270720.000000 0 0 1
26.832851 6.274361 13.505159 30.688089 0.229704 1.115111 -0.013661 0.013237 -677864.000000 0 0 1
25.743341 6.760961 14.213459 30.173708 0.256829 1.080311 -0.012093 0.010778 -738513.000000 0 0 1
25.198651 7.866661 13.573259 29.683156 0.302599 1.095872 0.005461 -0.007636 -1126390.000000 0 0 1
23.933901 8.340261 14.263859 29.083488 0.335312 1.058196 -0.003117 -0.008439 -432872.000000 0 0 1
22.738001 7.644261 13.974459 27.762149 0.324318 1.043309 0.014748 -0.004848 391682.000000 0 0 1
22.559601 6.372961 14.575859 27.604454 0.275320 1.014522 0.011502 -0.002798 -679523.000000 0 0 1
21.164001 5.811561 14.231559 26.157723 0.267991 0.995519 0.036040 -0.004023 -302820.000000 0 0 1
20.916001 5.629961 12.868359 25.194647 0.262938 1.034730 0.038147 -0.007947 1127230.000000 0 0 1
19.642301 5.008061 12.632359 23.884664 0.249644 1.013504 0.044311 -0.006329 373581.000000 0 1 0
19.405401 4.796761 11.078759 22.854265 0.242329 1.064711 0.049351 -0.010057 -371189.000000 0 1 0
20.366501 3.976961 10.493359 23.253412 0.192843 1.102618 0.037531 -0.011202 271568.000000 0 1 0
20.042601 3.853961 9.156159 22.369491 0.189970 1.149094 0.044904 -0.007683 -168001.000000 0 1 0
21.085201 3.144161 8.269659 22.866104 0.148026 1.200753 0.035391 -0.002385 -863885.000000 0 1 0
21.267101 1.770361 8.591859 23.005300 0.083053 1.188046 0.020505 -0.006723 566682.000000 0 1 0
22.112501 1.078761 7.713159 23.443960 0.048746 1.235548 0.007644 0.001219 -288423.000000 0 1 0
23.645501 1.278061 7.789859 24.928399 0.053998 1.252984 0.024489 0.000199 -337091.000000 0 1 0
24.323801 0.832861 8.939859 25.928017 0.034227 1.218776 0.009771 0.006016 370285.000000 0 0 1
24.281601 1.768461 10.053459 26.340001 0.072703 1.179183 0.011593 0.003516 -757996.000000 0 0 1
24.796901 1.216661 11.395159 27.316958 0.049026 1.140494 -0.003243 0.007580 -537838.000000 0 0 1
26.187151 1.096061 11.351759 28.562750 0.041831 1.162079 0.002403 0.000762 -359677.000000 0 0 1
26.672511 0.589461 12.593559 29.502001 0.022096 1.129766 -0.004591 -0.004478 -196949.000000 0 0 1
28.200121 0.631461 12.765759 30.961431 0.022388 1.145806 -0.008399 -0.001474 -196419.000000 0 0 1
28.723501 1.938261 12.921659 31.555755 0.067378 1.148905 -0.016450 0.004124 -306357.000000 0 0 1
30.116591 1.797361 12.836859 32.787567 0.059609 1.168518 -0.018048 0.003351 -632261.000000 0 0 1
30.857751 3.037661 13.306259 33.741439 0.098125 1.165426 -0.024372 0.002984 -930743.000000 0 0 1
30.518921 4.221961 12.515059 33.254416 0.137467 1.184951 -0.016323 -0.005980 278885.000000 0 0 1
31.324021 5.327761 12.856159 34.276233 0.168473 1.186319 -0.020926 -0.009167 425451.000000 0 0 1
32.777451 5.347561 12.292759 35.412846 0.161723 1.216290 -0.024772 -0.004447 571195.000000 0 0 1
33.593891 4.319161 12.966059 36.267387 0.127868 1.205193 -0.021758 -0.003997 1123550.000000 0 0 1
34.914034 4.379861 12.384159 37.303356 0.124795 1.232389 -0.019414 0.000684 788012.000000 0 0 1
-33.929749 3.385561 12.970559 36.481849 -0.099452 1.207310 0.003305 0.009891 -394290.000000 0 0 1
-33.982109 2.031261 12.642059 36.314341 -0.059703 1.215222 -0.001962 0.013237 436860.000000 0 0 1
34.717448 1.315661 13.053459 37.113676 0.037878 1.211393 0.009986 0.016304 272347.000000 0 0 1
34.455792 1.157661 14.569559 37.427448 0.033586 1.170952 0.008143 0.023034 -818042.000000 0 0 1
-34.483980 0.363161 15.207559 37.690139 -0.010531 1.155469 0.011385 0.022505 -270859.000000 0 0 1
-34.933769 -0.040039 16.482059 38.626779 0.001146 1.129955 0.017276 0.013437 -311524.000000 0 0 1
-33.918909 -0.895739 17.240059 38.059353 0.026402 1.100693 0.015161 0.011250 -175512.000000 0 0 1
-32.709289 -0.225339 17.539759 37.115920 0.006889 1.078595 0.015895 0.014164 20698.000000 0 0 1
-31.760199 -1.010239 18.236059 36.637203 0.031798 1.049797 0.025590 0.006443 161870.000000 0 0 1
-31.783609 -1.012539 19.782359 37.450831 0.031846 1.014291 0.020923 0.002884 -205059.000000 0 0 1
-32.861729 -1.700439 20.364559 38.697545 0.051699 1.016613 0.012881 0.001828 -74881.500000 0 0 1
-32.781959 -1.469339 21.752159 39.369686 0.044792 0.985423 0.008929 0.000914 217572.000000 0 0 1
-33.450549 -2.518939 22.653159 40.477770 0.075162 0.976840 0.003546 0.010355 175812.000000 0 0 1
-32.758769 -3.740139 22.600159 39.973651 0.113680 0.969907 0.012151 0.000293 266927.000000 0 0 1
-33.565169 -4.776439 23.138959 41.046880 0.141354 0.971913 0.008163 0.004254 273570.000000 0 0 1
-33.820699 -4.765939 24.699599 42.150018 0.139996 0.944692 0.009061 -0.006762 197678.000000 0 0 1
-32.634079 -5.027739 25.433389 41.678754 0.152862 0.914453 0.011641 -0.012841 -280163.000000 0 0 1
-32.753229 -4.808639 26.824399 42.608044 0.145773 0.889807 0.015507 -0.020667 428261.000000 0 0 1
-31.444869 -4.239939 27.467059 41.966608 0.134029 0.857278 0.009267 -0.012975 526152.000000 0 0 1
-31.138469 -2.846439 27.217339 41.454674 0.091159 0.854552 0.001728 -0.004417 -120057.000000 0 0 1
-30.635769 -2.529939 25.898379 40.195484 0.082394 0.870675 0.003429 -0.003775 -246306.000000 0 0 1
-30.431369 -1.023939 25.683159 39.833922 0.033635 0.870092 -0.002267 -0.006581 1349980.000000 0 0 1
-31.693419 -0.330439 25.416519 40.627348 0.010426 0.894894 0.020005 -0.019254 555743.000000 0 0 1
-31.501019 0.928561 24.824459 40.117704 -0.029469 0.903594 -0.001710 -0.003935 109076.000000 0 0 1
-32.766739 1.807461 24.589049 41.006675 -0.055106 0.927751 0.030151 -0.002811 -73705.800000 0 0 1
-33.664249 1.333561 23.625859 41.149013 -0.039593 0.959226 0.019953 0.010378 -344308.000000 0 0 1
-34.703809 2.256161 23.343459 41.885101 -0.064921 0.979640 0.014351 0.024099 165919.000000 0 0 1
-34.364319 3.656061 22.752059 41.375468 -0.105992 0.988561 0.018695 0.023726 -644713.000000 0 0 1
-33.795389 3.673461 21.471859 40.207752 -0.108272 1.007445 0.030942 0.005670 -269282.000000 0 0 1
-34.705852 3.419961 20.433959 40.419537 -0.098224 1.040781 0.009401 0.008160 -296745.000000 0 0 1
-34.014309 2.791461 19.246959 39.181767 -0.081884 1.057304 0.019358 0.007432 408705.000000 0 0 1
-33.051629 3.652161 18.590659 38.096733 -0.110052 1.061016 0.026937 0.006604 630190.000000 0 0 1
-32.616819 3.105861 17.348359 37.073829 -0.094936 1.083837 0.027992 0.016055 142449.000000 0 0 1
-31.631659 3.925161 16.484259 35.884530 -0.123459 1.093511 0.022595 0.016457 599628.000000 0 0 1
-32.274079 5.111761 16.019159 36.391753 -0.157081 1.114990 0.018008 0.007009 386533.000000 0 0 1
-31.305849 5.745761 15.241159 35.289699 -0.181516 1.124213 0.016492 0.007755 135310.000000 0 0 1
-31.920659 7.058361 14.698359 35.843977 -0.217620 1.148271 0.025062 -0.007524 410650.000000 0 0 1
-31.043049 7.694061 13.793359 34.829961 -0.242955 1.163618 0.024017 -0.002250 30181.500000 0 0 1
-31.496489 9.007661 13.597659 35.469185 -0.278554 1.177359 0.013082 -0.010961 -393451.000000 0 0 1
-30.858769 9.771861 12.431459 34.674112 -0.306674 1.204111 0.008882 -0.009500 -101166.000000 0 0 1
-31.307529 11.080661 12.182059 35.374355 -0.340171 1.219223 0.008848 -0.008126 356569.000000 0 0 1
-30.355549 11.652161 11.293759 34.420651 -0.366512 1.236494 -0.000445 -0.010230 -23840.100000 0 0 1
-30.559489 13.205061 11.165259 35.112946 -0.407877 1.247197 0.010949 -0.002794 -299863.000000 0 0 1
-29.775949 13.738961 10.170359 34.333692 -0.432303 1.270063 -0.003505 0.002122 -217918.000000 0 0 1
-29.836469 15.139461 10.138759 34.960157 -0.469562 1.276560 0.003302 0.001386 -71990.600000 0 0 1
-29.082569 15.818961 8.981959 34.303220 -0.498173 1.305868 0.007604 -0.000192 -209730.000000 0 0 1
-27.676879 15.745061 9.026759 33.096812 -0.517229 1.294559 0.007883 0.009253 54437.300000 0 0 1
-27.086689 16.678861 8.136759 32.834128 -0.551926 1.320373 0.005055 -0.005123 580227.000000 0 0 1
-25.569569 16.857961 8.506459 31.786059 -0.582884 1.299878 0.019834 0.003869 578733.000000 0 0 1
-25.203569 17.554861 9.716259 32.214883 -0.608388 1.264418 0.014958 0.007916 284559.000000 0 0 1
-25.527559 18.917061 9.787559 33.246169 -0.637745 1.271972 0.008258 0.003876 -469416.000000 0 0 1
-25.633769 19.349161 11.246459 34.028855 -0.646586 1.233965 0.018509 0.019732 312919.000000 0 0 1
-24.412719 19.318461 11.996559 33.363171 -0.669431 1.202984 0.011631 0.026282 653222.000000 0 0 1
-24.497119 19.859661 13.294359 34.223602 -0.681228 1.171841 0.023793 0.013431 51819.300000 0 0 1
-25.079029 18.996061 14.434359 34.614430 -0.648251 1.140650 0.017352 0.018231 233031.000000 0 0 1
-24.124719 18.060961 14.885659 33.612248 -0.642636 1.112006 0.026041 0.015248 314183.000000 0 0 1
-24.670919 17.276261 15.878659 34.047838 -0.610906 1.085621 0.020850 0.019020 -703778.000000 0 0 1
-23.697019 16.178061 16.219459 32.959812 -0.599024 1.056298 0.017919 0.010726 -629714.000000 0 0 1
-22.559219 16.654161 16.883559 32.731239 -0.635933 1.028827 0.022107 0.006578 -126517.000000 0 0 1
-21.554919 15.678361 17.167159 31.703894 -0.628859 0.998595 0.005400 -0.014393 140056.000000 0 0 1
-21.871219 14.540161 18.117259 31.906137 -0.586715 0.966929 0.007523 0.000443 -672455.000000 0 0 1
-21.990119 14.962061 19.465659 32.959680 -0.597450 0.939006 0.019605 0.003615 208822.000000 0 0 1
-22.269719 13.829061 20.234659 33.115325 -0.555704 0.913428 0.013025 0.001680 -513253.000000 0 0 1
-22.241519 13.950261 21.764259 34.102462 -0.560192 0.878636 0.011607 -0.000857 -318544.000000 0 0 1
-20.964719 13.892661 22.354859 33.649148 -0.585230 0.844171 0.007385 0.004828 -40329.000000 0 0 1
-20.272519 15.142361 22.405159 33.797297 -0.641540 0.846074 0.013340 0.015856 -2056110.000000 0 0 1
-18.815419 14.866461 22.621759 32.966280 -0.668688 0.814532 0.019487 0.008199 -1450900.000000 0 0 1
-18.190019 14.227761 21.551959 31.587860 -0.663777 0.819911 0.006188 -0.000091 -343430.000000 0 0 1
-17.848419 15.112361 20.520759 31.113519 -0.702579 0.850583 0.007627 0.007601 -967580.000000 0 0 1
-16.645419 14.612161 19.597259 29.574276 -0.720441 0.846451 -0.000567 0.000602 1308890.000000 0 0 1
-15.342719 14.542961 20.143559 29.200337 -0.758644 0.809528 -0.004559 0.001409 327004.000000 0 0 1
-14.837919 15.775261 20.647859 29.922513 -0.816008 0.809246 -0.013620 0.004219 -1430220.000000 0 0 1
-13.766619 15.596261 21.701259 30.061733 -0.847629 0.764267 -0.038003 0.022137 -1118940.000000 0 0 1
-12.590419 14.937661 21.373959 28.956838 -0.870460 0.740500 -0.007998 0.010228 -652751.000000 0 0 1
-11.945719 14.544061 22.538159 29.363217 -0.883174 0.695764 0.022558 0.010829 -533181.000000 0 0 1
-10.545719 14.008661 22.214659 28.300987 -0.925506 0.668192 0.003958 0.010857 -853837.000000 0 0 1
-10.168119 12.811561 22.970859 28.199062 -0.899929 0.618763 0.018606 0.009196 1462180.000000 0 0 1
-8.963019 12.164761 22.449959 27.061371 -0.935796 0.592416 0.021787 0.016609 2116220.000000 0 0 1
-7.564919 12.885961 22.611959 27.103075 -1.039941 0.583944 0.011486 0.023391 521212.000000 0 0 1
-7.196319 13.772661 21.521759 26.545420 -1.089305 0.625360 0.003523 0.023113 -85672.200000 0 0 1
-6.243019 14.766161 21.851759 27.101922 -1.170797 0.632959 0.011693 0.021194 -305549.000000 0 0 1
-6.689619 15.920461 22.764359 28.573206 -1.173007 0.648976 0.010357 0.012184 508669.000000 0 0 1
-7.725519 16.843961 22.302559 28.996669 -1.140771 0.693299 -0.014189 0.027786 504042.000000 0 0 1
-7.355319 17.498761 21.072559 28.361243 -1.172885 0.733247 -0.006371 0.022533 -1573550.000000 0 0 1
-8.384819 17.613461 19.957359 27.907622 -1.126495 0.773997 -0.006400 0.028164 1018610.000000 0 0 1
-9.603219 18.392461 20.098559 28.886961 -1.089603 0.801311 -0.020778 0.033535 1122440.000000 0 0 1
-10.493519 17.888861 21.111559 29.594310 -1.040292 0.776507 -0.019881 0.022037 -683992.000000 0 0 1
-11.824419 18.647761 21.106159 30.545471 -1.005685 0.807959 -0.019079 0.019898 -311385.000000 0 0 1
-12.588419 18.489661 19.931259 29.959822 -0.973049 0.842946 -0.005685 0.023847 873018.000000 0 0 1
-13.777919 19.343861 20.007859 31.053670 -0.951887 0.870690 0.000638 0.020043 1066970.000000 0 0 1
-14.573819 19.323561 18.686759 30.577625 -0.924613 0.913315 0.014063 0.022303 -464411.000000 0 0 1
-15.264919 18.165261 18.437559 30.048927 -0.871940 0.910204 0.018260 0.021699 -120319.000000 0 0 1
-15.895919 18.196561 17.147959 29.628493 -0.852778 0.953582 0.028541 0.000786 -839684.000000 0 0 1
-16.876019 17.024061 16.812359 29.279243 -0.789765 0.959161 0.024536 -0.012146 1226420.000000 0 0 1
-18.109519 16.958061 17.537359 30.382387 -0.752575 0.955475 0.025480 -0.007645 580084.000000 0 0 1
-18.938519 18.114561 17.502459 31.514138 -0.763165 0.981971 0.032999 -0.004907 -978825.000000 0 0 1
32.842751 -10.095039 12.175241 36.452608 -0.298209 1.230250 0.005365 0.016686 -842958.000000 0 0 1
31.567631 -10.546739 11.846141 35.328177 -0.322440 1.228855 -0.014666 0.023693 -442310.000000 0 0 1
31.270071 -11.716539 12.578441 35.683495 -0.358498 1.210555 0.007339 0.011706 679357.000000 0 0 1
29.844801 -12.257039 12.167941 34.481966 -0.389690 1.210151 -0.004788 0.017222 772279.000000 0 0 1
28.853711 -11.369239 12.654941 33.495429 -0.375350 1.183365 -0.004231 0.022478 1286610.000000 0 0 1
27.458611 -11.745439 12.697641 32.452438 -0.404198 1.168786 -0.000515 0.017330 1436520.000000 0 0 1
27.079351 -12.500139 13.961941 32.931452 -0.432468 1.132972 -0.020699 0.010944 -836378.000000 0 0 1
27.181211 -11.658139 15.102241 33.208555 -0.405173 1.098683 -0.013646 0.010205 -26860.700000 0 0 1
26.787101 -12.219939 16.340641 33.673317 -0.427987 1.064125 -0.009439 0.004787 -392416.000000 0 0 1
25.264041 -12.112039 16.535541 32.533020 -0.447047 1.037622 -0.019639 0.001225 -339036.000000 0 0 1
24.811511 -10.762539 16.829641 31.854045 -0.409277 1.014157 -0.023333 0.008182 203430.000000 0 0 1
24.607701 -9.973539 15.690941 30.841791 -0.385068 1.037057 -0.018078 0.002014 -540697.000000 0 0 1
24.251301 -8.483639 15.939241 30.235032 -0.336516 1.015520 0.008127 -0.013732 -497363.000000 0 0 1
25.320821 -7.723839 16.397941 31.139913 -0.296073 1.016213 -0.014463 -0.004827 -653377.000000 0 0 1
25.035591 -6.410039 16.464041 30.642031 -0.250652 1.003561 -0.004622 -0.000290 332743.000000 0 0 1
26.255081 -5.402939 16.440541 31.445388 -0.202953 1.020631 -0.005972 0.001926 618690.000000 0 0 1
26.707411 -5.115039 15.086341 31.097381 -0.189230 1.064282 0.008728 0.005415 -96460.300000 0 0 1
27.899731 -4.403039 15.202041 32.076219 -0.156526 1.077042 0.000926 0.008696 -646065.000000 0 0 1
28.238691 -3.518839 14.025841 31.725859 -0.123972 1.112863 0.003539 0.005629 -375524.000000 0 0 1
28.511191 -4.274739 12.893841 31.581839 -0.148823 1.150241 -0.008409 0.015792 263605.000000 0 0 1
28.719321 -3.436739 11.765541 31.225607 -0.119100 1.184466 -0.002249 0.013624 -133204.000000 0 0 1
29.180391 -4.201339 10.505741 31.297238 -0.142995 1.228473 0.012062 0.013145 186293.000000 0 0 1
30.525241 -4.652739 10.528241 32.623338 -0.151258 1.242193 0.001813 0.014361 179586.000000 0 0 1
30.655081 -5.428339 9.401741 32.520664 -0.175261 1.277509 0.008104 0.012845 -412709.000000 0 0 1
31.889571 -6.328639 9.273741 33.808264 -0.195909 1.292930 0.004530 0.014427 -78353.300000 0 0 1
33.043121 -5.517839 9.096541 34.713707 -0.165462 1.305656 0.003589 0.013304 206518.000000 0 0 1
34.206763 -6.336639 8.902141 35.909661 -0.183169 1.320280 0.007799 0.002721 489071.000000 0 0 1
-34.423150 -5.544939 8.488441 35.885279 0.159710 1.331989 0.007307 0.002454 -233055.000000 0 0 1
-34.593258 -4.914839 7.211341 35.677059 0.141131 1.367266 0.003286 -0.000709 260641.000000 0 0 1
-33.704949 -3.807039 7.010541 34.636178 0.112475 1.366983 -0.000673 0.001407 -31199.700000 0 0 1
-33.789129 -3.146939 5.634541 34.399949 0.092867 1.406260 -0.004080 -0.006044 -542711.000000 0 0 1
-33.229839 -3.838539 4.555741 33.759611 0.115005 1.435437 0.001103 -0.005030 61454.200000 0 0 1
-33.322929 -2.966239 3.425141 33.629567 0.088781 1.468770 -0.005457 -0.000955 -209178.000000 0 0 1
-32.588779 -3.465139 2.153041 32.843131 0.105931 1.505194 0.011054 0.007009 -28041.800000 0 0 1
-33.063919 -4.640139 1.513041 33.422192 0.139428 1.525510 0.010554 0.014093 374791.000000 0 0 1
-34.085394 -4.456339 0.515541 34.379337 0.130003 1.555800 0.008379 0.015687 59653.900000 0 0 1
-33.522599 -4.709639 -0.927259 33.864512 0.139578 1.598181 0.026459 0.016402 -787980.000000 0 0 1
-33.270389 -6.087139 -1.198459 33.843882 0.180958 1.606215 0.021736 0.012825 242299.000000 0 0 1
-32.471739 -6.271039 -2.365659 33.156238 0.190774 1.642206 0.023446 0.008800 -185460.000000 0 0 1
-30.974029 -6.061339 -2.079859 31.629987 0.193249 1.636600 0.026196 0.005983 -1233850.000000 0 0 1
-30.523569 -7.068839 -1.295359 31.358168 0.227574 1.612117 0.021597 0.008513 -956274.000000 0 0 1
-29.591249 -6.579239 -0.428659 30.316862 0.218779 1.584936 0.021432 -0.004509 -1144810.000000 0 0 1
-29.051009 -7.725839 0.419641 30.063696 0.259924 1.556837 0.002181 0.001408 -531880.000000 0 0 1
-28.224499 -8.641039 -0.225459 29.518481 0.297093 1.578434 0.004023 0.000129 278997.000000 0 0 1
-27.944849 -9.730239 0.620841 29.596918 0.335065 1.549818 0.014218 0.002658 -148887.000000 0 0 1
-27.660109 -11.085939 -0.070459 29.799071 0.381189 1.573161 0.009895 -0.000667 219374.000000 0 0 1
-26.473109 -11.071239 -0.874959 28.708246 0.396103 1.601279 0.012659 -0.007401 656536.000000 0 0 1
-26.048019 -12.314839 -1.382459 28.845550 0.441631 1.618741 0.009938 0.003849 -428005.000000 0 0 1
-27.013849 -13.141939 -2.246959 30.124864 0.452780 1.645454 0.016242 0.001909 -882056.000000 0 0 1
-28.022629 -13.756539 -1.519959 31.254126 0.456348 1.619448 0.025367 -0.007182 -164276.000000 0 0 1
-28.558249 -14.809239 -2.292359 32.251233 0.478387 1.641934 0.024624 -0.005394 -586160.000000 0 0 1
-29.238089 -15.871639 -1.424359 33.298702 0.497330 1.613585 0.028971 -0.005510 -500407.000000 0 0 1
-28.469329 -16.605239 -0.504259 32.961962 0.528025 1.586095 0.012353 0.004010 -113854.000000 0 0 1
-29.213529 -17.453639 0.367641 34.032263 0.538543 1.559993 0.014417 0.007128 -15329.100000 0 0 1
-29.260559 -18.926039 -0.038459 34.847909 0.574130 1.571900 0.010072 0.000125 -474952.000000 0 0 1
-28.064289 -19.616439 0.148841 34.240782 0.610043 1.566449 0.023372 -0.003809 -293919.000000 0 0 1
-28.165799 -21.045239 -0.001259 35.159839 0.641701 1.570832 0.030745 -0.008180 190824.000000 0 0 1
-29.012449 -21.742239 1.155941 36.273728 0.643124 1.538924 0.030542 -0.009352 114472.000000 0 0 1
-28.373489 -22.013139 2.411041 35.992309 0.659831 1.503758 0.040090 -0.015240 430652.000000 0 0 1
-29.371319 -22.453539 3.354641 37.122627 0.652699 1.480306 0.040137 -0.013544 141537.000000 0 0 1
-28.892219 -22.645239 4.737341 37.013640 0.664774 1.442455 0.022536 -0.016208 -401637.000000 0 0 1
-28.422749 -21.439439 5.281941 35.991681 0.646251 1.423510 0.006622 -0.012315 137817.000000 0 0 1
-27.497549 -21.572739 6.354741 35.522964 0.665239 1.390937 -0.000754 -0.013341 227071.000000 0 0 1
-27.082889 -20.217739 6.936641 34.501548 0.641266 1.368364 -0.004420 -0.005755 84421.700000 0 0 1
-26.242809 -20.301239 8.075641 34.147347 0.658430 1.332040 -0.002422 -0.004368 -106440.000000 0 0 1
-25.889699 -18.997139 8.516541 33.221970 0.633034 1.311549 -0.000720 -0.007452 185027.000000 0 0 1
-25.030319 -19.048139 9.808741 32.947835 0.650506 1.268508 -0.004358 0.000476 -2390.220000 0 0 1
-25.740809 -19.336239 10.974241 34.013429 0.644262 1.242274 -0.006724 0.000390 -354962.000000 0 0 1
-24.882919 -19.602239 12.048241 33.890523 0.667245 1.207342 0.000060 0.018084 -393609.000000 0 0 1
-24.433219 -18.370139 12.877741 33.170475 0.644685 1.172087 -0.001365 0.004610 -349311.000000 0 0 1
-23.456319 -17.555939 12.236441 31.751226 0.642510 1.175171 -0.003458 0.002737 262962.000000 0 0 1
-23.029719 -16.393439 12.960241 31.097920 0.618627 1.140923 0.001854 0.007793 54158.400000 0 0 1
-22.242219 -16.624239 14.267341 31.219203 0.641847 1.096171 0.017811 0.004302 -757678.000000 0 0 1
-22.936219 -17.273439 15.310441 32.539998 0.645487 1.080926 0.012078 -0.008562 -165825.000000 0 0 1
-22.068519 -17.724439 16.370941 32.698364 0.676662 1.046429 0.023639 -0.006192 -241814.000000 0 0 1
-22.860119 -18.553639 17.339541 34.168439 0.681784 1.038547 0.009472 0.016668 -100703.000000 0 0 1
-23.728119 -17.773039 18.150841 34.761438 0.642879 1.021421 0.014280 0.004156 -5315.430000 0 0 1
-24.496019 -18.583339 19.008141 36.148373 0.649000 1.017098 0.006402 0.010499 -281392.000000 0 0 1
-25.571749 -17.788939 19.777541 36.898670 0.607799 1.005109 0.014274 0.013485 -314266.000000 0 0 1
-25.047419 -16.994939 20.827141 36.741951 0.596157 0.968120 0.016120 0.015528 276632.000000 0 0 1
-26.024179 -16.142839 21.409141 37.365766 0.555214 0.960682 0.016101 0.009498 -50788.400000 0 0 1
-25.430599 -15.369939 22.592441 37.327855 0.543639 0.920725 0.008100 0.012614 -127625.000000 0 0 1
-24.605419 -14.318939 22.201941 36.102422 0.527036 0.908447 -0.002094 0.016069 20469.300000 0 0 1
-23.634219 -14.046039 23.211341 35.981021 0.536225 0.869643 -0.008973 0.021896 641962.000000 0 0 1
-22.358419 -13.305439 22.685241 34.518890 0.536807 0.853721 -0.006893 0.029142 416930.000000 0 0 1
-22.599119 -11.924939 22.318441 33.926939 0.485540 0.852851 -0.005262 0.028814 661668.000000 0 0 1
-21.378419 -11.429639 21.775241 32.585803 0.490970 0.838952 -0.010319 0.028558 264513.000000 0 0 1
-21.218319 -9.885639 22.120541 32.206541 0.435998 0.813673 -0.008672 0.025788 47262.700000 0 0 1
-20.926919 -9.576739 23.472941 32.872919 0.429179 0.775529 -0.012230 0.024866 275456.000000 0 0 1
-19.529519 -9.624639 23.702641 32.184639 0.457891 0.742977 -0.010602 0.029481 420783.000000 0 0 1
-18.936719 -9.768739 25.189541 32.993038 0.476257 0.702111 -0.013842 0.015525 392396.000000 0 0 1
-19.054419 -11.154039 25.553941 33.771103 0.529599 0.712575 -0.014815 0.022112 154141.000000 0 0 1
-18.538819 -11.271139 26.896841 34.556714 0.546263 0.678780 -0.014243 0.012273 -609738.000000 0 0 1
-18.499119 -12.722939 27.462841 35.472500 0.602463 0.685345 -0.016002 -0.001665 447268.000000 0 0 1
-19.499919 -13.124239 28.401541 36.866516 0.592402 0.691346 -0.003726 0.001968 -144485.000000 0 0 1
-20.792619 -13.342539 27.904041 37.269181 0.570515 0.724673 -0.019984 0.010270 -79.296800 0 0 1
-21.878519 -13.749439 28.940741 38.797979 0.561073 0.728860 -0.017766 0.008511 69477.100000 0 0 1
-21.774419 -14.958839 29.668441 39.725415 0.601942 0.727502 -0.008118 0.007947 -43432.300000 0 0 1
-20.707419 -14.999539 30.612641 39.886303 0.626886 0.695868 -0.015504 0.004409 -55653.400000 0 0 1
-21.023219 -15.916739 31.773641 41.290224 0.648031 0.692708 -0.003082 -0.001821 -802504.000000 0 0 1
-21.127019 -17.259939 31.331841 41.544442 0.684997 0.716397 0.005138 0.000848 29860.300000 0 0 1
-21.345419 -18.266239 32.345241 42.842701 0.707820 0.715178 0.016755 -0.003901 876779.000000 0 0 1
-22.811119 -18.435139 32.920641 44.090476 0.679700 0.727768 0.026218 -0.005839 783795.000000 0 0 1
-23.235419 -17.441739 33.849241 44.607960 0.643919 0.709303 0.038263 -0.002290 -153156.000000 0 0 1
-24.568919 -17.710739 34.228541 45.704432 0.624589 0.724379 0.040514 -0.010803 -234165.000000 0 0 1
-25.170189 -16.485839 -34.317876 45.640310 0.579864 2.421766 0.043725 -0.008771 -182076.000000 0 0 1
-24.622419 -16.159239 -33.048376 44.267140 0.580778 2.413683 0.055989 -0.013701 42696.900000 0 0 1
-25.265399 -15.018639 -32.513276 43.829363 0.536318 2.406569 0.064266 -0.015794 -252279.000000 0 0 1
-24.629219 -14.541139 -31.180176 42.311305 0.533332 2.399303 0.057350 -0.006934 -152279.000000 0 0 1
-24.952519 -15.414639 -30.099276 42.026250 0.553375 2.369141 0.062354 0.000759 248373.000000 0 0 1
-24.245519 -15.157039 -28.890376 40.647692 0.558706 2.361361 0.071541 -0.000239 -330155.000000 0 0 1
-24.828419 -15.921639 -27.669876 40.442194 0.570211 2.324280 0.048356 0.000957 -837379.000000 0 0 1
-26.126879 -15.620539 -27.290676 40.882711 0.538854 2.301691 0.056054 -0.000687 -523082.000000 0 0 1
-26.372029 -14.406439 -26.646076 40.162704 0.499981 2.296221 0.037252 0.003028 -489173.000000 0 0 1
-25.590769 -14.191339 -25.284076 38.672549 0.506329 2.283391 0.011002 0.005378 768884.000000 0 0 1
-24.175619 -13.937639 -25.340876 37.694540 0.522973 2.308066 -0.003795 0.001038 1294350.000000 0 0 1
-23.457419 -14.170039 -24.138276 36.519815 0.543410 2.292899 -0.015021 0.004656 -55003.800000 0 0 1
-22.908119 -15.586339 -24.032376 36.677936 0.597440 2.285279 -0.008916 0.000910 -835040.000000 0 0 1
-21.889819 -15.836039 -24.966576 36.786876 0.626287 2.316762 0.003686 0.010659 -18899.100000 0 0 1
-21.615919 -17.233239 -25.089076 37.332214 0.673060 2.307769 0.024640 0.014502 221057.000000 0 0 1
-20.736819 -17.573139 -26.342776 37.851985 0.703004 2.340527 0.025094 0.015730 171345.000000 0 0 1
-21.364219 -17.418139 -27.597776 39.005880 0.683998 2.356791 0.035772 0.010954 75885.100000 0 0 1
-22.211719 -18.491039 -27.937076 40.196507 0.694241 2.339234 0.046065 -0.000450 -384544.000000 0 0 1
-22.745219 -18.416639 -29.410076 41.490603 0.680623 2.358644 0.042739 -0.000964 520620.000000 0 0 1
-21.764119 -18.747639 -30.408776 41.831143 0.711076 2.384653 0.049440 -0.002743 835057.000000 0 0 1
-22.372719 -18.501339 -31.666376 42.960418 0.690965 2.399574 0.034294 -0.002761 -79048.000000 0 0 1
-21.512919 -18.970939 -32.840376 43.602666 0.722691 2.423670 0.038907 -0.005482 -113348.000000 0 0 1
-20.180519 -18.473439 -32.879176 42.773374 0.741264 2.447576 0.037467 0.000485 1109170.000000 0 0 1
-19.117119 -19.415939 -32.597276 42.485590 0.793153 2.445346 0.029400 -0.004810 751607.000000 0 0 1
-18.950119 -20.576839 -33.621176 43.736676 0.826530 2.447631 0.030485 -0.004216 -894955.000000 0 0 1
-18.476319 -20.188039 34.385441 43.946443 0.829641 0.672222 0.026853 -0.006531 52542.200000 0 0 1
-18.333119 -21.177139 33.428241 43.612175 0.857256 0.697440 0.017717 -0.012338 -26583.100000 0 0 1
-19.628019 -21.659039 32.707041 43.864834 0.834551 0.729313 0.019949 -0.009478 164365.000000 0 0 1
-20.449719 -22.421939 33.580141 45.261023 0.831369 0.734864 0.023703 -0.012831 -219831.000000 0 0 1
-21.606319 -22.911739 32.938441 45.571062 0.814713 0.762961 0.030354 -0.005494 -85972.700000 0 0 1
-21.419019 -24.192439 32.111341 45.554217 0.846129 0.788509 0.028775 0.008132 -685550.000000 0 0 1
-20.968619 -25.232579 32.881441 46.449491 0.877429 0.784280 0.026221 0.008123 -212093.000000 0 0 1
-20.918519 -26.435659 32.099541 46.548996 0.901383 0.809879 0.035339 0.016862 -137409.000000 0 0 1
-20.405919 -27.672279 32.828141 47.537810 0.935399 0.808521 0.029203 0.006356 287676.000000 0 0 1
-21.332519 -28.082629 33.853441 48.885232 0.921158 0.805836 0.031275 0.000140 415492.000000 0 0 1
-20.797019 -29.085869 -34.573476 49.737602 0.950060 2.339380 0.034856 -0.010593 -815556.000000 0 0 1
-21.838619 -29.851959 -33.728776 50.056918 0.939199 2.310147 0.038909 -0.018991 -1442510.000000 0 0 1
-22.542119 -30.809749 -34.537276 51.480202 0.939140 2.306197 0.039479 -0.011075 1133450.000000 0 0 1
-23.723219 -30.257469 34.096241 51.389291 0.905860 0.845324 0.036634 -0.008232 676770.000000 0 0 1
-24.799719 -29.571589 -34.272976 51.615326 0.872938 2.296962 0.029563 -0.007855 -1693080.000000 0 0 1
-25.942139 -29.107839 34.357741 51.968406 0.842841 0.848476 0.018988 0.001127 81908.500000 0 0 1
-26.844619 -28.713769 -33.838076 51.866458 0.819028 2.281553 0.008514 0.007752 671905.000000 0 0 1
-27.896179 -27.618989 -34.256076 52.100711 0.780405 2.288289 -0.000275 -0.006452 -329253.000000 0 0 1
-28.920819 -28.202019 34.313441 53.001697 0.772815 0.866625 0.002247 -0.002195 -999608.000000 0 0 1
-30.030139 -27.368149 34.112741 53.051899 0.739054 0.872378 -0.007691 -0.008576 22581.400000 0 0 1
