# x y z rho theta phi s1 s2 stress_xx np intf bulk
-0.657618 -10.812100 -14.280380 17.923818 1.510049 2.492655 -0.002129 0.001260 -194879.000000 1 0 0
2.120982 -13.583900 -13.101680 18.991444 -1.415908 2.332110 -0.002541 0.011429 1278920.000000 1 0 0
2.205382 -11.254000 -14.729080 18.667138 -1.377284 2.480038 -0.002764 0.009274 -315485.000000 1 0 0
-5.524018 -6.215000 -16.457380 18.438719 0.844192 2.673753 0.015289 -0.007574 -82225.800000 1 0 0
4.559182 -14.205300 -11.558380 18.872542 -1.260232 2.229945 -0.000739 0.010547 1041380.000000 1 0 0
14.041182 -10.783800 -7.907580 19.390074 -0.654930 1.990857 0.039798 -0.016951 503044.000000 1 0 0
7.056282 10.886800 -10.821980 16.894638 0.995723 2.266020 0.032338 -0.010194 1280930.000000 1 0 0
5.683282 -4.202900 -12.614480 14.459916 -0.636760 2.630838 0.011912 -0.002207 1434970.000000 1 0 0
13.686582 0.468000 -10.018980 16.968250 0.034181 2.202418 0.013046 -0.005003 8709.760000 1 0 0
14.165182 4.999900 -10.416580 18.279948 0.339319 2.177103 0.006116 -0.007108 -135211.000000 1 0 0
4.157782 4.316300 -13.579080 14.842810 0.804102 2.725955 0.010854 -0.000212 3557280.000000 1 0 0
10.366382 -4.974700 -13.693480 17.880741 -0.447429 2.443116 0.030272 -0.009648 -1023330.000000 1 0 0
2.488582 -7.553800 -11.961380 14.364106 -1.252547 2.554811 0.001570 0.003119 1529460.000000 1 0 0
-5.609618 -2.015500 -15.215480 16.341386 0.344930 2.768216 0.008409 -0.010397 206491.000000 1 0 0
10.739582 0.027200 -9.634680 14.427973 0.002533 2.302016 0.013300 -0.005009 1626770.000000 1 0 0
-1.568818 -9.596900 -16.876380 19.477523 1.408758 2.618852 0.011408 -0.005569 711174.000000 1 0 0
8.848682 1.764700 -17.937080 20.078650 0.196848 2.675522 0.028029 -0.007477 -183169.000000 1 0 0
16.567882 -6.083400 -9.017680 19.819713 -0.351898 2.043152 0.065003 -0.010578 207150.000000 1 0 0
10.084282 7.518900 -9.924280 16.022420 0.640683 2.238774 0.012708 -0.002954 2076170.000000 1 0 0
13.905882 -2.309700 -10.560380 17.613344 -0.164593 2.213756 0.029616 -0.007996 -252778.000000 1 0 0
7.240582 -1.857100 -13.639880 15.553816 -0.251073 2.640270 0.016382 -0.005243 1052020.000000 1 0 0
-2.769718 6.671100 -13.741980 15.524720 -1.177271 2.657651 0.006880 -0.000976 2128290.000000 1 0 0
11.295582 1.597100 -13.912580 17.991687 0.140460 2.454792 0.006164 -0.004453 1095810.000000 1 0 0
-2.392318 10.736800 -12.855080 16.919076 -1.351563 2.433799 0.008769 0.005342 166947.000000 1 0 0
2.866382 -1.028100 -15.206080 15.507998 -0.344382 2.943946 0.012455 -0.004066 920453.000000 1 0 0
-9.108818 0.536900 -15.228880 17.753243 -0.058875 2.601787 0.023276 -0.008863 -2039700.000000 1 0 0
2.521782 -1.666800 -18.014680 18.266535 -0.584042 2.975342 0.020778 -0.010977 -676715.000000 1 0 0
1.070382 7.881500 -13.192380 15.404631 1.435813 2.599034 0.013197 -0.002563 -957764.000000 1 0 0
9.535482 -9.147500 -9.956380 16.544838 -0.764635 2.216526 0.026162 0.000722 -967297.000000 1 0 0
3.933382 7.310200 -13.555080 15.894990 1.077160 2.592100 0.014632 -0.004844 1150620.000000 1 0 0
-2.708618 9.180500 -15.483880 18.203536 -1.283896 2.587917 0.007732 0.002225 1037700.000000 1 0 0
5.526982 -7.655600 -15.279380 17.961492 -0.945488 2.588063 0.015209 -0.002314 121483.000000 1 0 0
4.271782 7.197300 -16.409180 18.420381 1.035151 2.669935 0.026205 -0.007462 -586590.000000 1 0 0
-0.188718 5.092100 -13.492880 14.423000 -1.533752 2.780500 0.014342 -0.004678 3075630.000000 1 0 0
8.999682 4.364500 -16.684780 19.453149 0.451545 2.601557 0.024560 -0.001036 -1040210.000000 1 0 0
5.361082 0.315900 -14.366280 15.337242 0.058857 2.783858 0.008729 -0.001119 1856630.000000 1 0 0
6.277882 8.025700 -11.671080 15.493152 0.906990 2.423870 0.012039 -0.001698 333641.000000 1 0 0
2.791282 -8.408700 -14.940680 17.370130 -1.250290 2.606333 0.003880 -0.000732 -196280.000000 1 0 0
3.949982 11.553800 -13.841780 18.457723 1.241376 2.418735 0.039992 -0.013442 -998283.000000 1 0 0
0.585082 -4.520000 -13.779780 14.513961 -1.442069 2.822166 0.005326 0.002193 -750053.000000 1 0 0
8.468182 -0.075400 -11.596480 14.359462 -0.008904 2.510841 0.005602 -0.003227 537749.000000 1 0 0
-1.012018 -5.098000 -16.287280 17.096470 1.374831 2.832695 0.002329 -0.004865 491780.000000 1 0 0
4.454782 0.908400 -11.675780 12.529729 0.201158 2.770264 0.007928 -0.003878 1845250.000000 1 0 0
-2.903418 -7.284000 -15.612480 17.471006 1.191496 2.676148 0.008980 -0.002697 2629450.000000 1 0 0
11.473982 -3.815000 -11.368180 16.596446 -0.320993 2.325368 0.025528 -0.007520 107884.000000 1 0 0
6.514182 -7.025500 -12.547480 15.787067 -0.823145 2.489466 0.013526 -0.000210 -602531.000000 1 0 0
3.424182 -3.956400 -14.703080 15.606367 -0.857384 2.799696 0.014261 -0.001309 3840360.000000 1 0 0
-0.409518 -1.472000 -18.310580 18.374217 1.299453 3.058342 0.021859 -0.015289 709674.000000 1 0 0
14.955782 2.874800 -8.528080 17.454742 0.189904 2.081261 0.007484 -0.003525 -654404.000000 1 0 0
7.030982 4.300700 -14.356080 16.553784 0.548962 2.620425 0.014138 0.000572 2312640.000000 1 0 0
10.112382 -9.763300 -14.168780 19.958372 -0.767837 2.360176 0.044526 -0.007005 -598197.000000 1 0 0
9.018882 -3.215900 -15.494580 18.214397 -0.342519 2.588069 0.033824 -0.015782 131851.000000 1 0 0
-5.246918 -2.059400 -18.115180 18.971849 0.374022 2.839935 0.010588 -0.007000 -1002550.000000 1 0 0
5.053482 -9.089300 -11.154280 15.250279 -1.063372 2.391191 -0.000252 0.003866 2310210.000000 1 0 0
-2.431418 4.033400 -17.205780 17.838694 -1.028305 2.874416 0.022963 -0.004898 1447670.000000 1 0 0
9.752482 9.206500 -14.387280 19.668868 0.756608 2.391279 0.056006 -0.013892 -943411.000000 1 0 0
9.803682 9.986000 -11.561180 18.151949 0.794611 2.261281 0.023897 -0.008399 -168804.000000 1 0 0
12.125082 -6.021300 -9.676880 16.640783 -0.460923 2.191387 0.030468 -0.005700 762446.000000 1 0 0
8.239882 6.912400 -13.669080 17.393122 0.698012 2.474930 0.017718 -0.000585 705278.000000 1 0 0
4.113382 -4.107000 -17.520980 18.460014 -0.784622 2.821262 0.030333 -0.012136 491656.000000 1 0 0
9.390182 -7.556900 -12.406180 17.297270 -0.677640 2.370620 0.031501 -0.005850 2056320.000000 1 0 0
12.122082 -8.708600 -8.880880 17.368207 -0.622974 2.107528 0.037485 -0.006302 274147.000000 1 0 0
-2.971418 -2.496900 -13.931380 14.461922 0.698839 2.869887 0.006201 -0.004666 -2227010.000000 1 0 0
-0.347918 6.158500 -17.721480 18.764302 -1.514362 2.806638 0.031973 -0.008066 2102670.000000 1 0 0
1.123982 -8.502800 -17.434280 19.429747 -1.439369 2.684407 0.005147 -0.007324 944965.000000 1 0 0
0.011382 8.505800 -16.031280 18.148022 1.569458 2.653785 0.020587 -0.005543 -1123220.000000 1 0 0
1.751182 3.378200 -15.037780 15.511728 1.092555 2.893758 0.020064 -0.003065 1620040.000000 1 0 0
-1.891818 -0.436200 -15.820880 15.939558 0.226611 3.019488 0.019861 -0.008971 1586950.000000 1 0 0
14.256082 -4.413000 -8.496380 17.172621 -0.300197 2.088359 0.033206 -0.007930 -234042.000000 1 0 0
0.530282 0.733400 -14.590980 14.619021 0.944770 3.079646 0.015158 -0.005227 1798470.000000 1 0 0
8.857782 2.694500 -12.591180 15.628770 0.295302 2.507553 0.004267 0.000288 1526970.000000 1 0 0
6.135982 1.035700 -17.014180 18.116437 0.167215 2.790964 0.026600 -0.003144 -9436.050000 1 0 0
15.385982 1.509300 -12.302580 19.757528 0.097783 2.242957 0.020304 -0.011993 504524.000000 1 0 0
8.869682 -11.319900 -11.960880 18.704920 -0.906168 2.264580 0.033693 -0.000821 689229.000000 1 0 0
-4.594418 0.768900 -15.169080 15.868235 -0.165819 2.843642 0.012134 -0.008877 896508.000000 1 0 0
2.463682 5.123000 -17.365980 18.272715 1.122540 2.825244 0.028010 -0.004702 1014960.000000 1 0 0
5.888082 -11.676900 -12.466680 18.067585 -1.103754 2.332289 0.003678 0.003495 597764.000000 1 0 0
12.800982 7.087900 -8.687580 17.016977 0.505679 2.106591 0.010550 -0.005430 -718374.000000 1 0 0
-5.007518 3.670800 -15.721780 16.903384 -0.632570 2.765472 0.016615 -0.002700 1410190.000000 1 0 0
-0.463918 -4.284500 -19.059980 19.541111 1.462938 2.919227 0.016289 -0.013179 -1210090.000000 1 0 0
9.800482 4.385200 -10.290880 14.872177 0.420729 2.334990 0.002026 -0.000711 187895.000000 1 0 0
13.384382 3.533800 -12.844080 18.883851 0.258134 2.318780 0.006725 -0.009434 42666.200000 1 0 0
-6.256518 5.793900 -17.348580 19.330974 -0.747027 2.684750 0.018596 0.007376 -1676380.000000 1 0 0
-10.213618 3.326800 -15.389780 18.767816 -0.314885 2.532223 0.029447 -0.003901 -669178.000000 1 0 0
10.730582 13.624500 -8.179180 19.174759 0.903666 2.011482 0.055587 -0.010553 1161770.000000 1 0 0
7.503582 13.448900 -12.266280 19.688532 1.061883 2.243390 0.056435 -0.017940 -85086.300000 1 0 0
5.358382 15.215800 -11.116580 19.591099 1.232199 2.174178 0.038913 -0.016774 468560.000000 1 0 0
14.221682 9.346900 -9.935980 19.706458 0.581440 2.099251 0.054271 -0.008858 -1600060.000000 1 0 0
8.505382 -17.239100 -2.062580 19.333451 -1.112461 1.677684 0.031558 -0.003824 554048.000000 1 0 0
0.724782 -16.101100 -0.001180 16.117405 -1.525812 1.570870 0.009790 -0.005752 1802640.000000 1 0 0
-9.057418 -11.645300 7.635320 16.611681 0.909755 1.093212 0.033347 -0.014513 156326.000000 1 0 0
2.087082 -15.958800 -2.536080 16.293278 -1.440755 1.727084 0.011948 -0.006938 3747420.000000 1 0 0
-1.270918 -11.007300 -9.450880 14.563483 1.455844 2.276992 0.006230 0.000301 359657.000000 1 0 0
-4.846318 -12.609400 -13.000280 18.748095 1.203861 2.337019 0.030599 -0.001977 349371.000000 1 0 0
-8.285618 -17.924900 -1.508180 19.804750 1.137810 1.647023 0.024068 -0.012048 -800463.000000 1 0 0
-11.374318 -7.087100 -8.795380 16.029998 0.557217 2.151584 0.020901 -0.009871 1847090.000000 1 0 0
-13.541318 -11.478000 -4.781580 18.384105 0.703115 1.833915 0.009298 -0.002095 464590.000000 1 0 0
-5.673418 -13.445900 9.697020 17.521761 1.171517 0.984323 0.015160 -0.015738 1009920.000000 1 0 0
0.184382 -14.086100 -3.720280 14.570268 -1.557707 1.828989 0.007394 -0.003462 1588740.000000 1 0 0
-14.562218 -11.609900 1.894220 18.719937 0.673069 1.469436 0.011401 -0.000742 1200710.000000 1 0 0
-3.952818 -16.524200 -7.498280 18.571434 1.335995 1.986412 0.008371 -0.008381 818115.000000 1 0 0
0.524082 -15.278200 -9.268280 17.877334 -1.536507 2.115819 0.008500 0.000771 -338896.000000 1 0 0
4.575382 -14.215000 -2.540380 15.147735 -1.259398 1.739300 0.007773 0.000352 406850.000000 1 0 0
-3.487018 -18.098700 -2.497380 18.599977 1.380462 1.705471 0.014571 -0.014808 1258480.000000 1 0 0
-0.927318 -13.625800 0.632520 13.671958 1.502845 1.524516 0.006390 -0.002239 3651250.000000 1 0 0
-8.495818 -11.314500 -10.527580 17.635952 0.926733 2.210476 0.018864 -0.003862 2378700.000000 1 0 0
-3.740818 -14.168200 -0.392380 14.658976 1.312658 1.597567 -0.000106 0.000414 3906580.000000 1 0 0
-1.609118 -14.933500 -7.259480 16.682288 1.463458 2.021013 -0.000380 -0.000364 434778.000000 1 0 0
-14.153518 -7.915700 -1.866580 16.323741 0.509936 1.685395 0.009925 -0.003743 1395470.000000 1 0 0
-10.732518 -7.310900 -11.664680 17.455686 0.597991 2.302644 0.021998 -0.007750 -858257.000000 1 0 0
-9.380118 -14.627400 6.939120 18.710928 1.000582 1.190862 0.023250 -0.009516 -435513.000000 1 0 0
-2.565018 -14.325800 -12.362480 19.095518 1.393625 2.274967 0.021306 -0.003265 416825.000000 1 0 0
2.365682 -17.785100 -4.731080 18.555036 -1.438558 1.828619 0.023097 -0.013200 211493.000000 1 0 0
-6.615118 -9.668900 -9.197280 14.894206 0.970777 2.236366 0.012613 -0.004786 1942530.000000 1 0 0
-10.977818 -15.311700 0.341020 18.843486 0.948781 1.552698 0.015033 -0.005543 -551486.000000 1 0 0
-12.517518 -11.031700 4.133520 17.189318 0.722388 1.327946 0.030477 -0.009088 2556860.000000 1 0 0
-17.006818 -8.905700 -1.602480 19.264249 0.482392 1.654077 0.009794 -0.001229 -387868.000000 1 0 0
-1.357018 -19.247200 -4.055980 19.716673 1.500408 1.777989 0.020468 -0.012034 -1153870.000000 1 0 0
3.273282 -14.250200 -8.814280 17.072613 -1.345012 2.113300 0.002199 0.000436 1492300.000000 1 0 0
-4.257818 -8.054900 -13.058580 15.922844 1.084532 2.532410 0.008012 -0.001863 1043180.000000 1 0 0
5.631282 -16.538600 1.234920 17.514613 -1.242616 1.500230 0.023315 -0.004137 4880210.000000 1 0 0
-2.760218 -13.808700 -3.228080 14.447128 1.373507 1.796140 0.002419 -0.001687 -1221020.000000 1 0 0
-0.408718 -13.994900 3.604320 14.457365 1.541600 1.318832 0.001187 0.001719 -3034830.000000 1 0 0
1.189782 -16.151900 6.988220 17.639010 -1.497267 1.163444 0.026707 -0.012287 3051310.000000 1 0 0
-5.547218 -10.259900 -14.622280 18.704231 1.075145 2.468285 0.027933 -0.006638 479754.000000 1 0 0
-0.246718 -17.314600 -5.955880 18.311984 1.556548 1.902067 0.016140 -0.009197 1219630.000000 1 0 0
-6.488318 -13.411100 -1.225080 14.948468 1.120191 1.652842 -0.000094 -0.000959 1967550.000000 1 0 0
-1.735018 -17.879100 -0.196880 17.964166 1.474058 1.581756 0.017808 -0.008179 2301890.000000 1 0 0
-9.484718 -9.807000 -4.870980 14.486669 0.802102 1.913717 0.011746 -0.004672 381809.000000 1 0 0
-0.800618 -16.686300 4.830220 17.389785 1.522853 1.289333 0.021151 -0.009511 1918090.000000 1 0 0
-6.870418 -9.879900 -6.319380 13.592264 0.963169 2.054346 0.008297 -0.002112 3266900.000000 1 0 0
-6.071318 -14.572400 -8.541080 17.948978 1.176035 2.066730 0.017109 -0.008879 107282.000000 1 0 0
-5.755918 -12.217900 -10.256880 16.959106 1.130530 2.220312 0.020369 -0.004890 669492.000000 1 0 0
-10.728218 -12.223600 -8.736180 18.461634 0.850459 2.063724 0.018457 -0.012206 203783.000000 1 0 0
4.026882 -16.967000 6.532620 18.621761 -1.337772 1.212365 0.037725 -0.014798 983096.000000 1 0 0
-6.622518 -14.413100 -4.071080 16.375863 1.140088 1.822034 0.009533 -0.008118 -104055.000000 1 0 0
-2.872918 -12.187000 -7.161880 14.424603 1.339287 2.090364 0.007030 -0.002005 2913180.000000 1 0 0
-6.962118 -12.806700 4.439220 15.237760 1.072856 1.275179 -0.000704 -0.000862 1287070.000000 1 0 0
2.638082 -16.375900 2.344220 16.751864 -1.411073 1.430398 0.017318 -0.009023 3329470.000000 1 0 0
-6.081218 -12.008900 7.285320 15.305907 1.102048 1.074717 0.005058 -0.004375 1913480.000000 1 0 0
-11.119018 -12.771100 -1.082780 16.967792 0.854442 1.634654 0.015455 0.002248 -322609.000000 1 0 0
-14.228318 -8.738700 4.675320 17.339796 0.550778 1.297788 0.035238 -0.014998 392808.000000 1 0 0
-7.910418 -15.573700 4.568720 18.055139 1.100821 1.314972 0.013003 0.002126 635084.000000 1 0 0
-16.379918 -9.225500 1.151120 18.834454 0.512936 1.509640 -0.002697 -0.000275 122050.000000 1 0 0
-6.673118 -17.078100 2.380920 18.489478 1.198297 1.441666 0.012617 -0.002475 920165.000000 1 0 0
-11.473618 -15.007300 -4.651780 19.455129 0.918057 1.812238 0.023480 -0.000347 -445406.000000 1 0 0
-10.203718 -10.031800 -12.606380 19.070231 0.776903 2.293014 0.024868 0.002224 858752.000000 1 0 0
-4.332918 -16.046600 -4.535980 17.229123 1.307065 1.837211 0.001605 -0.007522 614290.000000 1 0 0
-11.806518 -8.358900 0.023020 14.466016 0.616068 1.569205 0.006383 -0.002338 3576530.000000 1 0 0
-9.514918 -11.173200 3.543120 15.097277 0.865383 1.333901 0.007409 0.000071 2682510.000000 1 0 0
-14.030318 -12.945600 -0.564280 19.098608 0.745209 1.600346 0.006272 0.005342 793734.000000 1 0 0
5.549482 -14.865500 -7.052180 17.364132 -1.213506 1.989017 0.008718 -0.011242 166351.000000 1 0 0
-7.376218 -10.539700 -1.194880 12.919815 0.960170 1.663413 0.000749 0.001935 253434.000000 1 0 0
-11.574118 -8.215400 -6.016780 15.416052 0.617278 1.971746 0.015050 -0.005135 -1612940.000000 1 0 0
-14.418018 -6.656700 -9.180580 18.343227 0.432535 2.094960 0.034662 -0.016736 1752420.000000 1 0 0
-3.919118 -16.577200 1.366920 17.088930 1.338643 1.490722 0.007095 -0.004312 1201590.000000 1 0 0
-7.988518 -15.514400 0.217720 17.451660 1.095292 1.558320 0.017659 -0.006384 527169.000000 1 0 0
1.080182 -18.618100 3.607920 18.995198 -1.512843 1.379697 0.022324 -0.013380 1936120.000000 1 0 0
-14.032018 -8.621900 -4.627380 17.106939 0.550973 1.844706 0.012257 -0.008259 565871.000000 1 0 0
-3.227918 -14.418400 11.168620 18.521549 1.350553 0.923531 0.000171 -0.013579 1543020.000000 1 0 0
-10.787118 -12.177400 -3.874080 16.723023 0.845865 1.804582 0.013682 -0.005356 1523920.000000 1 0 0
-9.852218 -10.730000 0.548520 14.577379 0.828020 1.533159 0.004667 0.002141 562930.000000 1 0 0
-0.084018 -13.230200 -11.137680 17.294311 1.564446 2.270523 0.005581 -0.000415 1583640.000000 1 0 0
-5.900618 -12.661100 -6.326280 15.334359 1.134681 1.996054 0.003416 -0.006396 2905900.000000 1 0 0
1.716282 -15.743900 9.877720 18.665084 -1.462213 1.013129 0.029227 -0.015677 1349070.000000 1 0 0
-8.904018 -15.959100 -5.233580 19.009597 1.061887 1.849711 0.024873 -0.004919 -834309.000000 1 0 0
-3.236718 -15.479300 5.929320 16.889106 1.364666 1.212079 0.000459 -0.002087 -1677650.000000 1 0 0
-17.596818 -5.453700 -6.484280 19.530406 0.300538 1.909229 0.040713 -0.016337 535671.000000 1 0 0
18.870882 5.663700 -2.771080 19.896396 0.291575 1.710526 0.026143 -0.000233 675314.000000 1 0 0
12.926982 -12.561000 -5.849780 18.950079 -0.771040 1.884616 0.050085 -0.008877 429834.000000 1 0 0
11.061182 -13.451300 -1.645780 17.492736 -0.882597 1.665019 0.037159 -0.006265 2686590.000000 1 0 0
18.800882 -2.954000 4.611320 19.582225 -0.155846 1.333079 0.056754 -0.011188 242926.000000 1 0 0
8.698382 -16.916900 4.987720 19.665216 -1.095867 1.314364 0.029979 -0.017173 121814.000000 1 0 0
18.112082 -0.982800 6.655320 19.321146 -0.054209 1.219135 0.070538 -0.015565 208200.000000 1 0 0
17.950382 -4.159000 -5.220380 19.151132 -0.227677 1.846879 0.062948 -0.015933 697981.000000 1 0 0
5.291082 -11.710400 14.809220 19.607193 -1.146424 0.714692 0.000323 0.005023 -181234.000000 1 0 0
16.076682 -8.799800 -0.816980 18.345671 -0.500817 1.615344 0.047089 -0.009193 922000.000000 1 0 0
13.918782 -12.612300 -1.521880 18.844594 -0.736194 1.651644 0.044430 0.000490 -124149.000000 1 0 0
11.222682 -1.841900 13.803220 17.884911 -0.162673 0.689160 0.026836 -0.004792 -2080840.000000 1 0 0
16.971382 -6.067900 -1.562680 18.091135 -0.343374 1.657282 0.044150 -0.011770 62144.000000 1 0 0
17.815082 3.634700 -0.938980 18.206314 0.201262 1.622394 0.024334 0.001911 1672270.000000 1 0 0
9.834982 -10.985000 9.417720 17.495443 -0.840578 1.002383 0.018241 -0.012039 1339130.000000 1 0 0
9.145982 -11.037700 4.229520 14.945522 -0.878850 1.283880 0.012201 -0.009535 -828359.000000 1 0 0
14.075982 -10.009900 6.683220 18.520172 -0.618159 1.201605 0.020043 -0.015244 318357.000000 1 0 0
16.159682 -0.491400 -4.822480 16.871073 -0.030400 1.860682 0.019048 -0.003548 -345631.000000 1 0 0
15.705082 -0.510900 -1.790080 15.815024 -0.032519 1.684228 0.017025 0.000128 1247090.000000 1 0 0
12.888382 -5.191600 -0.386780 13.900097 -0.382929 1.598626 0.014192 -0.004977 304100.000000 1 0 0
14.387182 -7.435000 1.014220 16.226487 -0.476981 1.508252 0.026615 -0.006190 1595700.000000 1 0 0
15.558282 2.448000 3.561020 16.147250 0.156064 1.348434 0.027482 -0.002069 2054580.000000 1 0 0
15.934282 -6.972000 4.911020 18.072859 -0.412450 1.295601 0.037504 -0.014918 -1709410.000000 1 0 0
13.794882 -12.065500 3.195820 18.603449 -0.718624 1.398154 0.021344 -0.002511 2079810.000000 1 0 0
14.055782 -0.854900 9.093420 16.762641 -0.060747 0.997408 0.036641 -0.013067 957320.000000 1 0 0
14.161882 -2.816100 -1.639580 14.531949 -0.196290 1.683863 0.008635 -0.001161 104697.000000 1 0 0
15.043882 1.941300 9.071420 17.674209 0.128333 1.031820 0.047570 -0.010968 -1095420.000000 1 0 0
14.408482 -10.059400 -3.026480 17.831306 -0.609489 1.741350 0.047182 -0.008790 1720210.000000 1 0 0
7.469182 -12.638200 6.047220 15.877079 -1.037020 1.180051 0.009501 -0.011802 -893001.000000 1 0 0
12.369882 -4.508500 6.949520 14.887457 -0.349511 1.085123 0.019702 -0.008495 2685160.000000 1 0 0
14.934582 -8.948600 -5.755380 18.336946 -0.539821 1.890060 0.057878 -0.012174 -226651.000000 1 0 0
14.318982 -4.572600 4.593720 15.717639 -0.309103 1.274202 0.023603 -0.008958 855370.000000 1 0 0
17.131382 -4.200900 0.871820 17.660461 -0.240472 1.521411 0.026093 -0.009759 -824034.000000 1 0 0
10.194482 -14.360000 1.068120 17.643071 -0.953442 1.510219 0.030960 -0.008193 -765605.000000 1 0 0
16.460382 -2.475600 8.498220 18.689369 -0.149279 1.098751 0.058273 -0.016440 738390.000000 1 0 0
16.132282 -2.596900 3.208620 16.652016 -0.159606 1.376897 0.025598 -0.007227 2152010.000000 1 0 0
7.841582 -15.276800 2.698520 17.382550 -1.096565 1.414923 0.016290 -0.007183 3591270.000000 1 0 0
16.611282 -6.924400 7.823620 19.623736 -0.394947 1.160718 0.048045 -0.015562 139004.000000 1 0 0
10.365282 -8.557200 5.174820 14.402899 -0.690135 1.203289 0.010581 -0.009519 1799190.000000 1 0 0
10.972482 -11.768800 2.167720 16.235733 -0.820400 1.436881 0.020616 -0.006001 -620827.000000 1 0 0
12.267582 -7.186900 12.044720 18.633850 -0.529946 0.867954 0.020928 -0.017015 -472810.000000 1 0 0
15.378082 -9.853200 4.249820 18.751851 -0.569831 1.342175 0.030804 -0.007693 -114237.000000 1 0 0
7.374182 -10.222100 7.723220 14.782355 -0.945855 1.021060 0.006162 -0.007891 67221.200000 1 0 0
15.238482 -3.271600 -4.442080 16.206380 -0.211483 1.848444 0.034753 -0.005186 293850.000000 1 0 0
11.923582 -8.917800 9.798320 17.824310 -0.642164 0.988771 0.017505 -0.013661 -2578770.000000 1 0 0
17.020282 -6.543000 2.351020 18.385541 -0.367007 1.442572 0.042113 -0.011705 1126450.000000 1 0 0
17.640982 3.949700 1.994420 18.187415 0.220261 1.460916 0.028830 0.004943 1844060.000000 1 0 0
14.752782 -4.795300 8.632620 17.752791 -0.314272 1.062982 0.042543 -0.015943 -131720.000000 1 0 0
12.937782 -12.564700 6.009620 19.009824 -0.770770 1.249146 0.016948 -0.007570 116005.000000 1 0 0
18.169082 0.707000 -0.976680 18.209044 0.038893 1.624459 0.029408 0.001960 -822908.000000 1 0 0
11.748882 -2.042000 10.924820 16.172745 -0.172085 0.829143 0.019060 -0.001557 2769870.000000 1 0 0
5.797182 -12.398100 10.521720 17.263452 -1.133414 0.915392 0.005207 -0.004887 -995993.000000 1 0 0
10.728382 -4.938300 10.983720 16.128456 -0.431388 0.821649 0.012905 -0.006369 711221.000000 1 0 0
17.882582 1.355500 5.005220 18.619246 0.075655 1.298629 0.050394 -0.002656 -746712.000000 1 0 0
12.356182 -7.639200 7.187320 16.207719 -0.553730 1.111352 0.019986 -0.014255 -1309460.000000 1 0 0
10.435282 -7.840500 14.259820 19.331606 -0.644362 0.741224 0.012877 -0.012441 -544646.000000 1 0 0
14.236882 -0.257300 3.702620 14.712729 -0.018071 1.316400 0.015311 -0.003580 1948700.000000 1 0 0
11.786882 -7.704300 2.552820 14.310965 -0.578925 1.391454 0.016512 -0.005851 2590350.000000 1 0 0
9.287582 6.045100 3.473820 11.613347 0.576994 1.267023 0.007383 -0.001516 1587680.000000 1 0 0
-4.115318 14.860300 -9.829580 18.286197 -1.300633 2.138315 0.014064 0.000044 824846.000000 1 0 0
8.846882 -6.387200 9.153320 14.242433 -0.625321 0.872806 0.003192 -0.006296 439880.000000 1 0 0
5.875282 -10.564300 -8.573980 14.820139 -1.063248 2.187729 0.002844 -0.000750 614601.000000 1 0 0
5.419382 1.076600 0.620620 5.560030 0.196104 1.458942 -0.002418 0.000730 4819260.000000 1 0 0
-0.618018 10.009400 10.904320 14.814662 -1.509131 0.743581 0.003315 -0.000041 238755.000000 1 0 0
-6.284218 -5.162100 1.114220 8.208542 0.687677 1.434637 0.006458 -0.004138 3163340.000000 1 0 0
-1.001918 3.949100 -10.888480 11.625757 -1.322331 2.783544 0.011733 -0.003616 1534120.000000 1 0 0
10.952982 5.706400 1.183920 12.406953 0.480299 1.475227 0.005268 -0.001248 1300750.000000 1 0 0
-10.181418 -1.750700 -13.662980 17.129018 0.170285 2.494187 0.018878 -0.010286 972740.000000 1 0 0
7.382482 10.917000 -5.988480 14.475628 0.976197 1.997304 -0.002783 -0.001433 1390490.000000 1 0 0
-12.415418 -2.934500 -9.560980 15.942592 0.232100 2.213939 0.021962 -0.005631 71225.800000 1 0 0
-3.754518 -8.662600 2.494520 9.765228 1.161818 1.312484 0.002773 0.000618 -143413.000000 1 0 0
8.035982 -6.651300 -6.043080 12.055522 -0.691398 2.095863 0.007790 -0.006681 1851610.000000 1 0 0
14.370782 3.153200 -4.294980 15.326738 0.215995 1.854828 0.019898 -0.002594 271488.000000 1 0 0
-2.508318 -4.897400 9.780420 11.221978 1.097457 0.512459 -0.001602 -0.002464 1620030.000000 1 0 0
3.508382 -1.947200 -4.639780 6.134158 -0.506684 2.428564 -0.002612 0.001557 -1643410.000000 1 0 0
-3.994618 8.336400 -3.417080 9.855403 -1.123945 1.924870 0.002370 -0.002643 643988.000000 1 0 0
5.844882 0.115200 11.684820 13.065639 0.019707 0.463895 -0.001659 -0.000296 1010780.000000 1 0 0
7.074882 4.847900 12.346420 15.032969 0.600742 0.607129 0.006362 0.003205 483450.000000 1 0 0
1.120882 -14.406600 12.431320 19.061590 -1.493149 0.860358 0.008468 -0.005837 702160.000000 1 0 0
3.055182 8.776300 -9.085880 12.996569 1.235800 2.344932 0.004661 0.002312 52955.100000 1 0 0
-4.481118 -8.868900 -4.568080 10.936415 1.102948 2.001703 0.007324 -0.000057 1611780.000000 1 0 0
5.750682 -6.578700 -4.108880 9.655699 -0.852456 2.010354 0.001686 -0.003068 1768030.000000 1 0 0
-3.150518 3.462200 8.662320 9.846237 -0.832497 0.495440 0.001052 -0.004344 2755810.000000 1 0 0
-3.837218 3.222400 -11.086380 12.166180 -0.698528 2.717095 0.007078 -0.004680 1144540.000000 1 0 0
3.054582 -6.105500 8.588420 10.971260 -1.106909 0.671626 -0.004917 -0.000119 -89371.900000 1 0 0
-5.147418 -8.642900 10.550320 14.577547 1.033643 0.761593 0.001073 -0.006297 1834260.000000 1 0 0
-13.272218 -2.592300 6.488320 14.999003 0.192889 1.123440 0.023411 -0.011584 -322062.000000 1 0 0
3.919982 -5.945500 -8.420680 11.028286 -0.987898 2.439594 0.002796 -0.001100 2385880.000000 1 0 0
2.948482 -0.453700 12.361120 12.716000 -0.152678 0.236808 -0.001970 0.000574 2196850.000000 1 0 0
1.469082 -1.416700 -7.608480 7.877450 -0.767249 2.879523 0.002786 -0.002914 -269524.000000 1 0 0
3.599982 -3.564000 3.369820 6.084213 -0.780376 0.983800 -0.003474 0.000375 1648350.000000 1 0 0
1.447982 0.518800 -11.791180 11.891078 0.344042 3.011879 0.009725 -0.006229 1693500.000000 1 0 0
4.193882 3.610000 -10.648680 12.000631 0.710718 2.662348 -0.000465 -0.000627 556436.000000 1 0 0
2.776982 3.193400 3.450620 5.460422 0.855033 0.886752 -0.008026 0.003628 590580.000000 1 0 0
-5.309918 0.886200 2.579420 5.969421 -0.165371 1.123970 0.006356 -0.005513 2368130.000000 1 0 0
-9.382918 -9.260000 5.711020 14.366715 0.778805 1.161987 0.016421 -0.007383 -1251990.000000 1 0 0
-3.056418 3.771500 -0.571680 4.888018 -0.889747 1.688020 0.004476 -0.005715 1175330.000000 1 0 0
-15.916718 -6.584100 5.038520 17.946559 0.392226 1.286220 0.054189 -0.019140 1020100.000000 1 0 0
1.036682 6.797300 -8.073880 10.604977 1.419449 2.436157 0.003482 -0.002363 1719350.000000 1 0 0
-1.490918 6.526500 -9.441880 11.574418 -1.346209 2.524828 0.007844 -0.001639 -1546420.000000 1 0 0
2.085782 -0.339000 5.274020 5.681610 -0.161120 0.381085 -0.004221 0.001938 2382990.000000 1 0 0
-3.437418 -0.553200 -6.317880 7.213701 0.159567 2.637922 0.006271 -0.006610 255552.000000 1 0 0
1.964782 -1.153000 -2.498080 3.380855 -0.530682 2.402218 0.001086 0.002439 1154790.000000 1 0 0
2.486382 -8.615000 -7.674880 11.802716 -1.289821 2.278728 -0.000909 0.001561 2820140.000000 1 0 0
-2.464018 13.976900 -5.576480 15.248680 -1.396297 1.945184 0.008120 0.002449 1387300.000000 1 0 0
6.863982 -5.148700 -8.375780 11.990707 -0.643568 2.344127 0.009023 -0.004703 3912870.000000 1 0 0
-14.168718 -4.964100 -2.220880 15.176534 0.336992 1.717660 0.008713 -0.008335 1590400.000000 1 0 0
-2.754518 6.830400 -6.743980 9.986141 -1.187471 2.312214 0.006265 -0.003137 -2827480.000000 1 0 0
-5.640318 -1.149500 -8.093380 9.931634 0.201047 2.523369 0.010972 -0.005891 -453566.000000 1 0 0
-5.646318 -10.596300 3.478720 12.500559 1.081210 1.288788 -0.001935 -0.000106 -2567410.000000 1 0 0
8.078082 -7.579800 6.534020 12.860878 -0.753586 1.037872 0.006143 -0.008313 950596.000000 1 0 0
8.747482 -5.889900 13.107720 16.823248 -0.592598 0.677498 0.009633 -0.005384 -1041570.000000 1 0 0
-4.689618 9.385400 -0.717180 10.516302 -1.107411 1.639046 0.000414 0.001015 -90222.400000 1 0 0
2.725982 6.683000 12.093420 14.083475 1.183500 0.538077 0.004963 -0.004285 1451840.000000 1 0 0
6.012482 -2.840200 10.943420 12.805277 -0.441312 0.546012 -0.000021 0.000318 722112.000000 1 0 0
-9.698418 -6.482200 -1.065480 11.713816 0.589186 1.661882 0.003224 -0.004780 -16735.700000 1 0 0
0.875882 -13.317400 6.258320 14.740654 -1.505121 1.132318 0.002537 -0.003436 475895.000000 1 0 0
-0.534818 -3.106400 8.653920 9.210107 1.400301 0.349304 -0.002389 -0.000593 753225.000000 1 0 0
4.194082 0.747800 3.415620 5.460401 0.176445 0.894992 -0.006600 0.003331 544403.000000 1 0 0
-10.175718 5.424800 8.264120 14.186944 -0.489785 0.948976 0.000427 -0.009005 -122645.000000 1 0 0
9.330282 7.944800 -0.033580 12.254596 0.705368 1.573537 0.001179 -0.002090 145680.000000 1 0 0
4.242382 2.876200 8.194420 9.665342 0.595786 0.558946 -0.005717 0.000245 2359770.000000 1 0 0
1.383882 2.731500 -9.683680 10.156273 1.101852 2.835333 0.008630 -0.004592 2792850.000000 1 0 0
-1.257918 -10.168500 3.065620 10.694801 1.447714 1.280072 0.000337 0.000408 -2669440.000000 1 0 0
-9.923218 9.477000 9.083320 16.455713 -0.762402 0.986052 0.002306 -0.004963 134289.000000 1 0 0
9.816882 -2.037600 -7.707880 12.646517 -0.204655 2.226209 0.014176 -0.004220 348413.000000 1 0 0
-5.156318 -1.859900 6.625120 8.598782 0.346178 0.691215 0.002133 -0.006411 1250010.000000 1 0 0
3.170882 -7.887100 -4.949180 9.836423 -1.188538 2.098034 -0.003873 -0.001597 2700000.000000 1 0 0
-5.164418 4.941400 -13.105980 14.928341 -0.763333 2.642310 0.007980 -0.006619 1660820.000000 1 0 0
-5.783818 9.570300 5.593120 12.503047 -1.027184 1.107007 -0.001593 -0.001857 500909.000000 1 0 0
-0.497318 -1.699000 -9.414880 9.579869 1.286039 2.955732 0.004930 -0.003964 -103353.000000 1 0 0
-16.770118 0.000100 6.383220 17.943867 -0.000006 1.207098 0.033814 -0.013125 -92165.300000 1 0 0
-5.987918 -2.911000 4.069320 7.803105 0.452503 1.022188 0.001030 -0.006100 2517350.000000 1 0 0
1.010982 -5.746900 -5.130480 7.769863 -1.396660 2.292021 0.002045 -0.000726 1080420.000000 1 0 0
-6.982318 1.322600 -8.458180 11.047301 -0.187203 2.442821 0.005824 -0.001901 -94481.500000 1 0 0
7.915282 1.917900 4.728020 9.417229 0.237722 1.044817 0.004349 0.000134 -227377.000000 1 0 0
0.427582 -8.134400 -0.507480 8.161423 -1.518280 1.633017 0.000541 0.001791 1958470.000000 1 0 0
5.469682 5.513400 -3.376580 8.468547 0.789379 1.980917 -0.005036 0.000001 -599940.000000 1 0 0
-0.663918 -0.342600 -1.289180 1.490016 0.476387 2.616370 0.002438 -0.002287 290342.000000 1 0 0
9.043882 6.361700 -6.333780 12.742833 0.613021 2.090988 -0.000302 -0.002997 2004350.000000 1 0 0
-14.971218 -7.087100 2.482620 16.748963 0.442127 1.422023 0.011908 -0.006598 1540270.000000 1 0 0
-6.488518 6.740100 8.946520 12.944884 -0.804414 0.807753 0.002719 -0.002680 -520207.000000 1 0 0
-9.410118 -3.197500 -9.750380 13.922796 0.327554 2.346639 0.009952 -0.003696 1199630.000000 1 0 0
14.921382 3.516500 -1.330180 15.387748 0.231445 1.657348 0.008872 0.000387 2468990.000000 1 0 0
12.074882 1.656000 -5.724880 13.465488 0.136294 2.009926 0.011559 -0.001963 431250.000000 1 0 0
1.643282 -9.302500 12.815220 15.920639 -1.395951 0.635216 -0.005617 -0.001657 343402.000000 1 0 0
-3.700218 6.363000 7.954820 10.837829 -1.044075 0.746623 -0.001283 -0.003190 1318870.000000 1 0 0
-4.137918 13.125100 -12.355080 18.494286 -1.265392 2.302379 0.005190 0.003749 648636.000000 1 0 0
-10.284818 7.759900 6.517420 14.438500 -0.646375 1.102472 -0.003446 -0.004416 -588585.000000 1 0 0
8.115182 -9.293100 -7.285780 14.328310 -0.852959 2.104225 0.012190 -0.002720 -384777.000000 1 0 0
5.798282 -3.853400 -0.321980 6.969393 -0.586554 1.617012 0.000346 -0.000066 -2115450.000000 1 0 0
-1.597218 -4.453700 4.150820 6.294113 1.226457 0.850674 -0.001829 -0.000006 845848.000000 1 0 0
9.864382 -2.125200 -2.559780 10.410330 -0.212198 1.819233 0.003637 -0.001623 -2246560.000000 1 0 0
13.590782 6.990800 1.345220 15.342433 0.475084 1.483004 0.011850 -0.000305 1421740.000000 1 0 0
5.463282 -3.740000 -3.315380 7.404512 -0.600295 2.035045 0.000765 -0.001185 -1843800.000000 1 0 0
-12.217118 -6.045400 1.991920 13.775797 0.459503 1.425692 0.004496 -0.004398 528808.000000 1 0 0
3.724882 -5.775800 -0.285080 6.878654 -0.998006 1.612252 -0.000824 0.001424 -420161.000000 1 0 0
-5.252018 3.772000 -8.659480 10.807325 -0.622837 2.500195 0.004597 -0.004364 311063.000000 1 0 0
-1.679218 -9.242600 7.219320 11.847532 1.391074 0.915553 -0.004708 -0.002542 865949.000000 1 0 0
-7.300018 -7.356100 2.654120 10.697982 0.789225 1.320083 0.007369 -0.004905 -2561220.000000 1 0 0
-5.816618 13.020900 -8.479080 16.591314 -1.150678 2.107209 0.013684 -0.005038 2345800.000000 1 0 0
9.191682 -13.786600 -4.178580 17.088531 -0.982763 1.817827 0.026290 -0.006453 2125550.000000 1 0 0
-6.472918 -5.209800 -6.704580 10.676708 0.677698 2.249730 0.008467 -0.003646 400544.000000 1 0 0
3.409282 0.331300 -6.248780 7.126024 0.096872 2.640162 0.001302 -0.002444 2096740.000000 1 0 0
-3.664418 5.814100 5.042120 8.523772 -1.008421 0.937834 0.001833 -0.002721 -50420.100000 1 0 0
-2.630318 -10.778100 -2.878580 11.461773 1.331432 1.824661 0.005857 0.002016 2037000.000000 1 0 0
-12.569418 -0.545600 1.731420 12.699834 0.043380 1.434036 0.004374 -0.005123 704002.000000 1 0 0
8.359082 -11.921600 -6.094680 15.784294 -0.959285 1.967221 0.017962 -0.007836 1037620.000000 1 0 0
6.126082 3.955900 0.953420 7.354388 0.573380 1.440791 -0.002196 0.000182 -1478650.000000 1 0 0
3.408882 -4.764100 -11.023880 12.483712 -0.949720 2.653142 0.005729 -0.000668 -509633.000000 1 0 0
-7.582518 4.077100 8.659820 12.211053 -0.493349 0.782464 0.005340 -0.006587 2132910.000000 1 0 0
8.179082 8.714500 4.026220 12.611516 0.817081 1.245859 0.006820 -0.001185 1253740.000000 1 0 0
0.249182 10.607300 -6.293780 12.336473 1.547309 2.106186 0.001805 0.000626 3862480.000000 1 0 0
5.335382 8.077500 3.245420 10.210047 0.987058 1.247319 0.003549 -0.000428 2928750.000000 1 0 0
8.041482 6.693100 -3.760780 11.117845 0.694141 1.915869 -0.002059 -0.001716 579911.000000 1 0 0
10.506482 2.513700 -8.192080 13.557840 0.234838 2.219598 0.005166 -0.003892 858482.000000 1 0 0
3.304182 -12.559800 -0.246080 12.989486 -1.313549 1.589742 0.002638 -0.003094 -1538010.000000 1 0 0
0.566282 2.080400 5.321120 5.741346 1.305037 0.384977 -0.003499 0.001481 638157.000000 1 0 0
-4.894518 13.300000 1.511120 14.252361 -1.218169 1.464571 -0.001836 0.002404 1793290.000000 1 0 0
8.197882 4.060900 -8.091280 12.213312 0.459928 2.294943 -0.004797 0.001712 112448.000000 1 0 0
-13.855518 -0.549600 -3.531480 14.309046 0.039646 1.820174 0.011604 -0.003990 36837.100000 1 0 0
-8.564818 0.030400 -0.470980 8.577812 -0.003549 1.625731 0.003156 -0.005171 271430.000000 1 0 0
1.845882 -3.820200 -1.166980 4.400347 -1.120687 1.839210 -0.000093 0.001748 -1591370.000000 1 0 0
8.033582 -5.694400 -0.291380 9.851372 -0.616624 1.600378 0.006315 -0.002197 1643410.000000 1 0 0
-2.286018 -1.098100 7.335520 7.761543 0.447808 0.332862 0.001358 -0.002025 1092270.000000 1 0 0
-5.836318 8.820300 -11.670880 15.750230 -0.986246 2.405351 0.004615 0.003015 -887907.000000 1 0 0
-6.185418 9.124400 -8.834280 14.126521 -0.975058 2.246400 0.008582 -0.001922 1732240.000000 1 0 0
-1.590418 14.063100 -8.440180 16.478375 -1.458183 2.108538 0.017634 -0.000011 327432.000000 1 0 0
-1.511318 7.245900 9.764020 12.252478 -1.365169 0.648647 0.000007 -0.003480 1542540.000000 1 0 0
10.035882 2.338100 -4.006280 11.056035 0.228891 1.941597 0.001329 -0.001778 -2275430.000000 1 0 0
-3.004618 -7.473000 -6.969880 10.651417 1.188513 2.284135 0.007138 -0.001733 1628400.000000 1 0 0
-5.590018 -4.959900 -1.586980 7.639857 0.725742 1.780044 0.005312 -0.003110 634630.000000 1 0 0
5.664382 7.433700 -8.865780 12.882049 0.919668 2.329839 0.000938 0.002267 -2053680.000000 1 0 0
-9.547618 5.229100 -7.360680 13.140781 -0.501065 2.165351 0.006863 -0.003891 924401.000000 1 0 0
-0.458618 6.161500 -5.314780 8.149926 -1.496500 2.281182 0.005690 -0.003846 -1009680.000000 1 0 0
-8.198418 2.742600 -6.273980 10.681701 -0.322825 2.198587 0.006797 -0.000377 932280.000000 1 0 0
3.680382 1.406800 -1.975280 4.407497 0.365105 2.035507 -0.003763 -0.000685 1521310.000000 1 0 0
-6.770618 12.456400 -3.387880 14.576725 -1.072922 1.805358 0.006823 0.000515 1341320.000000 1 0 0
-6.531118 3.142900 -2.344380 7.617706 -0.448510 1.883628 0.005362 -0.003692 -1425620.000000 1 0 0
12.096082 3.973100 -0.898680 12.763555 0.317360 1.641265 0.005280 -0.002699 1094580.000000 1 0 0
2.235482 12.428500 -5.489980 13.769708 1.392832 1.980895 0.009244 -0.002512 433985.000000 1 0 0
-9.126418 -1.466700 -4.269180 10.181779 0.159347 2.003466 0.004940 -0.002214 -176705.000000 1 0 0
-1.232918 5.695300 3.455820 6.774896 -1.357606 1.035505 0.002128 -0.001003 1371350.000000 1 0 0
11.481882 2.731800 12.001720 16.832635 0.233580 0.777024 0.020228 0.002251 56315.700000 1 0 0
-6.980218 -2.364700 -5.751380 9.348456 0.326637 2.233464 0.008634 -0.003718 -149128.000000 1 0 0
7.427982 -7.262200 10.753020 14.951317 -0.774113 0.768143 0.001640 -0.003841 -598589.000000 1 0 0
-5.493518 -1.936300 -10.972680 12.422871 0.338874 2.653576 0.008612 -0.003189 -175488.000000 1 0 0
0.808682 -6.238700 4.498220 7.733649 -1.441892 0.950050 -0.005725 0.001226 2791720.000000 1 0 0
-4.718318 -9.363600 7.471020 12.874613 1.104034 0.951711 -0.004319 -0.004590 1097240.000000 1 0 0
-8.804718 9.244000 1.663320 12.874053 -0.809732 1.441235 -0.000793 -0.000333 891876.000000 1 0 0
-8.090018 7.198700 -9.117580 14.156269 -0.727165 2.270599 0.008426 -0.001654 -305009.000000 1 0 0
-1.276818 -10.753900 -0.091880 10.829823 1.452619 1.579280 0.003110 0.003221 862182.000000 1 0 0
-4.068618 10.270100 7.812220 13.529944 -1.193603 0.955253 -0.000930 0.000383 1380260.000000 1 0 0
-7.478118 11.925200 2.007720 14.218424 -1.010699 1.429117 -0.004473 -0.003242 2557770.000000 1 0 0
-8.222718 -8.265900 -2.832180 11.998310 0.788017 1.809094 0.006284 -0.003499 -64809.600000 1 0 0
5.424882 4.611800 -8.100280 10.784831 0.704564 2.420494 -0.001482 0.002525 1017640.000000 1 0 0
-8.894018 -0.184700 -10.285880 13.599155 0.020764 2.428530 0.013508 -0.005158 -733854.000000 1 0 0
-15.191818 -2.231700 -1.463380 15.424439 0.145858 1.665813 0.006580 -0.006274 324904.000000 1 0 0
-7.143918 -5.768200 8.668820 12.627594 0.679254 0.814134 0.005015 -0.006771 -723981.000000 1 0 0
8.076782 3.446800 -1.004180 8.838733 0.403355 1.684654 -0.000964 0.000126 1125700.000000 1 0 0
11.866382 7.139600 -5.926380 15.063429 0.541644 1.975154 0.005369 -0.004043 321017.000000 1 0 0
3.722082 13.325700 -9.508680 16.788185 1.298422 2.172917 0.015699 -0.008973 699790.000000 1 0 0
-9.768418 5.399800 -0.482080 11.171940 -0.504976 1.613961 0.002893 -0.003075 1166570.000000 1 0 0
11.229082 -1.321000 -5.154880 12.426186 -0.117103 1.998563 0.015216 -0.004262 -577869.000000 1 0 0
10.556382 1.721300 -1.244880 10.767999 0.161635 1.686665 0.004182 -0.001422 7345.230000 1 0 0
14.592582 5.062500 4.694520 16.143446 0.333931 1.275733 0.023033 -0.010929 2681310.000000 1 0 0
0.825082 -0.716100 10.316420 10.374106 -0.714803 0.105506 -0.000406 -0.000024 1395430.000000 1 0 0
-7.983418 1.349300 -12.631080 15.003325 -0.167431 2.571564 0.008607 -0.006953 881461.000000 1 0 0
3.124982 -11.574200 -7.927780 14.372798 -1.307089 2.155056 -0.002667 0.000725 -271586.000000 1 0 0
2.911982 5.054400 -6.722980 8.900846 1.048115 2.426937 -0.001542 0.001276 -1086830.000000 1 0 0
6.474182 8.026500 0.524220 10.325431 0.892043 1.520005 0.001615 -0.002739 516711.000000 1 0 0
-8.997818 -5.423000 6.685720 12.452651 0.542404 1.004048 0.005717 -0.006254 -1532720.000000 1 0 0
-0.361318 -6.877800 -11.807580 13.669442 1.518311 2.613548 0.002472 0.004386 3355790.000000 1 0 0
6.372382 -13.310200 -4.655680 15.473979 -1.124285 1.876403 0.010940 -0.004913 2745910.000000 1 0 0
-3.281218 -0.332900 9.997720 10.527660 0.101110 0.318641 0.001785 -0.001635 64677.500000 1 0 0
8.580682 8.517800 6.921620 13.931613 0.781721 1.050856 0.005898 -0.001585 461500.000000 1 0 0
-7.897918 5.733100 -2.603480 10.100676 -0.627898 1.831492 0.004338 -0.004837 196661.000000 1 0 0
-5.377918 5.784200 -6.383280 10.155060 -0.821780 2.250524 0.005610 -0.002539 -1537960.000000 1 0 0
3.353782 -13.627800 2.614520 14.275871 -1.329493 1.386614 0.011940 -0.006304 -1545160.000000 1 0 0
-11.235118 -7.018200 6.507120 14.758917 0.558359 1.114202 0.022399 -0.011885 75956.400000 1 0 0
-12.918318 -3.820500 -6.747080 15.066594 0.287547 2.035119 0.016115 -0.007985 -360291.000000 1 0 0
6.074682 0.361500 -7.326680 9.524321 0.059439 2.448479 -0.001071 0.001003 1110040.000000 1 0 0
-1.434118 2.207000 -2.543580 3.660238 -0.994559 2.339108 0.004330 -0.005398 2597380.000000 1 0 0
7.612582 0.942400 -4.997680 9.155126 0.123168 2.148246 -0.001781 0.000949 293301.000000 1 0 0
3.655282 -4.448200 10.902220 12.329070 -0.882937 0.485869 -0.004908 0.001770 286382.000000 1 0 0
5.996682 -2.590400 2.075220 6.853970 -0.407761 1.263192 -0.001083 -0.000145 -861165.000000 1 0 0
-6.368418 7.653500 1.107520 10.017954 -0.876791 1.460016 -0.001117 -0.003387 2079350.000000 1 0 0
6.074282 -3.448400 7.897320 10.543055 -0.516335 0.724163 0.001699 -0.002777 355725.000000 1 0 0
6.790082 -2.258000 -7.944580 10.692059 -0.321040 2.408391 0.006318 -0.003901 2757750.000000 1 0 0
12.109482 -8.154100 -5.910280 15.749930 -0.592626 1.955471 0.028790 -0.009108 -166759.000000 1 0 0
5.578982 -9.574900 9.947320 14.891371 -1.043219 0.839289 -0.002403 -0.003019 1912320.000000 1 0 0
-6.631118 7.572800 -4.464680 11.011467 -0.851599 1.988275 0.007686 -0.002949 -333677.000000 1 0 0
-1.213218 -7.505300 9.634320 12.272797 1.410534 0.668077 -0.002267 -0.001658 -406816.000000 1 0 0
10.071582 -9.188200 0.693120 13.650648 -0.739564 1.519999 0.012748 -0.004460 980764.000000 1 0 0
11.065482 6.181600 9.738120 15.983993 0.509451 0.915692 0.017129 -0.007920 1259360.000000 1 0 0
-15.355618 -4.246600 -4.988480 16.694717 0.269807 1.874238 0.017574 -0.010830 2052150.000000 1 0 0
-4.677518 -4.634900 7.777520 10.190745 0.780822 0.702554 0.001284 -0.005381 -898357.000000 1 0 0
2.888082 10.936700 -11.121380 15.863087 1.312617 2.347715 0.014258 -0.002064 -1298870.000000 1 0 0
9.946482 -1.435400 1.535720 10.166184 -0.143323 1.419154 0.006339 -0.001166 1116560.000000 1 0 0
-1.581318 -2.648900 0.606920 3.144136 1.032607 1.376545 0.002116 -0.002263 1441600.000000 1 0 0
1.625482 3.051700 0.898720 3.572500 1.081373 1.316498 -0.007236 0.000179 -435658.000000 1 0 0
-8.994418 -2.375400 4.340120 10.265414 0.258202 1.134274 0.003890 -0.006654 3252720.000000 1 0 0
9.905582 4.836800 -2.750280 11.361304 0.454236 1.815300 -0.000408 -0.001858 341156.000000 1 0 0
2.512882 8.480200 2.445220 9.176462 1.282716 1.301071 0.001589 -0.001706 1198760.000000 1 0 0
-8.169118 -0.116600 2.497920 8.543283 0.014272 1.274077 0.004087 -0.008590 1109180.000000 1 0 0
6.893782 2.145600 13.659320 15.450076 0.301734 0.486245 0.002641 0.000747 36710.500000 1 0 0
6.775082 4.397200 3.752120 8.905925 0.575690 1.135911 -0.001568 0.000465 1196000.000000 1 0 0
-0.308918 3.440600 7.821320 8.550216 -1.481250 0.415905 -0.002832 -0.002690 -72940.300000 1 0 0
2.674282 -10.166900 9.341020 14.063154 -1.313585 0.844347 0.000658 -0.004931 2487930.000000 1 0 0
1.373782 -4.551900 6.842720 8.332460 -1.277685 0.607264 -0.006785 0.000912 -81457.000000 1 0 0
-0.140318 10.681300 -1.954580 10.859569 -1.557660 1.751769 0.005201 -0.000920 2977860.000000 1 0 0
8.779182 5.534100 7.969420 13.084798 0.562449 0.915922 0.003940 -0.001632 -704795.000000 1 0 0
2.626982 11.408000 -2.883380 12.056425 1.344466 1.812294 0.005612 -0.006671 957694.000000 1 0 0
1.576282 2.459000 -6.676480 7.287437 1.000756 2.729197 0.001607 -0.003011 513567.000000 1 0 0
-13.651018 -2.310400 3.574020 14.299016 0.167659 1.318169 0.006302 -0.004375 1570540.000000 1 0 0
-0.950718 -10.670200 -5.347380 11.972949 1.481931 2.033782 0.003528 -0.000165 1306510.000000 1 0 0
-5.674918 2.862800 0.515220 6.376972 -0.467214 1.489914 0.008364 -0.004509 2037880.000000 1 0 0
3.763882 7.327200 -4.977880 9.624654 1.096260 2.114374 -0.002221 -0.001641 -1013470.000000 1 0 0
3.036882 9.845900 -6.472980 12.168150 1.271613 2.131711 0.003772 -0.000745 886158.000000 1 0 0
-12.228618 1.675400 -2.542380 12.601975 -0.136159 1.773935 0.007770 -0.003791 786129.000000 1 0 0
-2.548618 9.618400 -5.719080 11.476801 -1.311776 2.092452 0.001601 -0.000518 863391.000000 1 0 0
-1.364118 3.300300 1.769120 3.985296 -1.178850 1.110837 0.000934 -0.002285 810105.000000 1 0 0
12.818982 3.783400 9.611320 16.462620 0.286993 0.947362 0.030352 -0.007251 293971.000000 1 0 0
-2.552318 -9.523200 11.486820 15.137790 1.308940 0.709301 -0.005920 -0.006987 1180750.000000 1 0 0
-0.450518 -8.903400 -7.499280 11.649580 1.520239 2.270170 0.003980 0.001489 2226590.000000 1 0 0
2.356682 7.627300 -0.510280 7.999377 1.271122 1.634630 0.000630 -0.002185 559660.000000 1 0 0
-11.852818 -1.372700 -5.514080 13.144531 0.115298 2.003687 0.010124 -0.001125 -99399.000000 1 0 0
-6.172218 -7.126600 -10.959080 14.456353 0.857040 2.431161 0.006768 -0.002803 1983880.000000 1 0 0
-4.731118 -2.245700 -1.389280 5.418187 0.443176 1.830103 0.005181 -0.004982 -790313.000000 1 0 0
-10.612518 3.627300 4.585120 12.116360 -0.329346 1.182703 0.000770 -0.007071 2460210.000000 1 0 0
6.722282 9.321700 -3.567980 12.033854 0.946021 1.871817 -0.000585 -0.000258 -1154870.000000 1 0 0
1.218882 -2.608800 -11.565280 11.918356 -1.133715 2.897576 0.005212 -0.003214 -1262510.000000 1 0 0
1.251482 8.849300 7.560820 11.706507 1.430306 0.868641 0.001668 0.000575 571100.000000 1 0 0
10.339582 0.418700 10.431320 14.693355 0.040473 0.781391 0.013270 -0.000067 1501740.000000 1 0 0
-5.297818 -0.790500 -3.924080 6.640043 0.148120 2.203060 0.005169 -0.005051 -1113370.000000 1 0 0
11.684582 5.647600 5.372320 14.045877 0.450229 1.178313 0.005970 -0.003147 3365940.000000 1 0 0
9.950182 -3.510300 3.687020 11.176871 -0.339156 1.234620 0.014196 -0.009434 -2903340.000000 1 0 0
7.263382 -1.623200 -3.430980 8.195311 -0.219865 2.002756 0.001187 0.000403 -2170200.000000 1 0 0
2.339882 9.372400 10.443620 14.226247 1.326141 0.746442 0.003143 -0.001249 2463210.000000 1 0 0
2.455882 -10.843600 6.449020 12.853205 -1.348072 1.045182 -0.005228 -0.004317 1192420.000000 1 0 0
5.846382 -7.534000 -1.320880 9.627360 -0.910862 1.708431 0.002813 -0.002948 1065360.000000 1 0 0
-0.246618 -5.601400 -2.316780 6.066628 1.526797 1.962636 0.002188 0.001396 1238500.000000 1 0 0
7.742082 -5.053800 2.624020 9.610734 -0.578320 1.294255 0.005354 -0.005952 1885870.000000 1 0 0
-2.634118 -12.499800 4.704320 13.613016 1.363102 1.217945 -0.001801 0.001319 -869424.000000 1 0 0
4.789682 -10.258300 -1.089180 11.373658 -1.133971 1.666707 0.001049 -0.002513 1930790.000000 1 0 0
1.011682 0.220200 1.079020 1.495417 0.214315 0.764756 -0.004411 0.001126 -1957130.000000 1 0 0
-1.708118 8.527300 2.520020 9.054447 -1.373101 1.288753 0.000851 -0.001488 753319.000000 1 0 0
-7.565318 0.688800 -3.013780 8.172598 -0.090797 1.948478 0.002467 -0.001535 -354917.000000 1 0 0
4.486782 -6.338800 12.950720 15.100753 -0.954836 0.540171 -0.002986 -0.001994 -1264490.000000 1 0 0
-5.167618 13.018400 8.468120 16.367409 -1.192924 1.027013 0.002830 -0.003952 2529290.000000 1 0 0
0.636382 6.209300 8.248020 10.343607 1.468664 0.647818 -0.002447 0.000335 -85787.500000 1 0 0
7.964882 -0.554700 -0.738980 8.018299 -0.069531 1.663089 0.001169 -0.000419 4588700.000000 1 0 0
2.348182 -9.276600 -2.439480 9.875238 -1.322874 1.820410 -0.000937 0.000890 1273160.000000 1 0 0
-7.207118 12.094900 4.906120 14.909700 -1.033411 1.235493 -0.004216 -0.005148 -46911.300000 1 0 0
-15.039218 0.191700 0.202820 15.041808 -0.012746 1.557312 0.008016 -0.004561 443206.000000 1 0 0
6.768882 -0.532500 3.975120 7.867839 -0.078507 1.041140 -0.001642 0.000409 654061.000000 1 0 0
-4.185818 -5.034200 5.055320 8.271669 0.877155 0.913270 0.001927 -0.004727 11799.200000 1 0 0
2.882282 5.181800 6.807320 9.027635 1.063181 0.716585 -0.005268 0.000140 -649929.000000 1 0 0
2.058082 -7.310200 1.796420 7.803964 -1.296364 1.338520 -0.003586 0.000767 1987790.000000 1 0 0
-2.421218 6.343200 -1.761080 7.014263 -1.206162 1.824583 0.002435 -0.003348 1708630.000000 1 0 0
2.606282 -3.826200 -6.641380 8.095705 -0.972822 2.532834 0.000922 -0.001970 -1019820.000000 1 0 0
-5.102318 0.968700 -12.291480 13.343632 -0.187622 2.741820 0.007644 -0.004222 748481.000000 1 0 0
-7.532018 6.381300 -11.942280 15.494204 -0.702880 2.450826 0.013359 -0.004213 2976360.000000 1 0 0
-1.025918 11.224000 -9.010880 14.430060 -1.479646 2.245226 0.006844 0.002808 1959340.000000 1 0 0
4.637682 5.901700 -0.590280 7.529049 0.904761 1.649277 -0.002730 -0.000705 35365.500000 1 0 0
-2.756118 13.273700 3.646720 14.038727 -1.366068 1.308021 -0.000630 -0.000395 1321790.000000 1 0 0
1.447882 -7.782200 10.348720 13.029006 -1.386849 0.652970 -0.005683 -0.001795 -1780410.000000 1 0 0
12.924682 -0.275100 -1.180780 12.981422 -0.021282 1.661881 0.009640 -0.002305 1081890.000000 1 0 0
-1.054218 3.116500 -5.478180 6.390181 -1.244609 2.600761 0.006939 -0.005730 1299010.000000 1 0 0
6.449582 1.162900 7.262520 9.782312 0.178390 0.734131 0.000493 -0.000419 550475.000000 1 0 0
5.475382 -6.155000 6.829220 10.700564 -0.843767 0.878624 -0.000322 -0.001697 1424460.000000 1 0 0
12.215282 -4.886500 2.558820 13.402931 -0.380534 1.378702 0.015878 -0.007803 -1429650.000000 1 0 0
4.408282 -9.162300 13.850120 17.181575 -1.122356 0.633259 -0.005009 -0.000109 348363.000000 1 0 0
-2.755618 -4.362100 -1.456380 5.361193 1.007380 1.845906 0.006097 -0.002477 2732480.000000 1 0 0
-9.304018 -5.195600 -7.575480 13.074667 0.509289 2.188790 0.009868 -0.004016 2157710.000000 1 0 0
-10.578518 -3.128000 7.770820 13.493520 0.287501 0.957101 0.006613 -0.009253 -12881.100000 1 0 0
12.122382 -0.687900 1.602820 12.247219 -0.056685 1.439548 0.012620 -0.003619 1586040.000000 1 0 0
-7.676718 4.602600 4.493720 10.015460 -0.540091 1.105510 0.002252 -0.006600 2228380.000000 1 0 0
-1.177918 10.511500 7.012420 12.690672 -1.459202 0.985358 0.000441 0.002172 2111450.000000 1 0 0
7.423282 -9.927300 1.841520 12.531863 -0.928728 1.423315 0.008623 -0.007630 2653740.000000 1 0 0
-4.307418 -1.677000 1.668720 4.914347 0.371273 1.224346 0.003550 -0.003323 1915490.000000 1 0 0
6.763882 -14.964700 -1.002580 16.452888 -1.146289 1.631771 0.021949 -0.004562 -1197700.000000 1 0 0
-10.531918 1.643000 2.438720 10.934720 -0.154755 1.345879 0.000729 -0.005434 2186790.000000 1 0 0
-2.982918 8.302700 -11.351780 14.376910 -1.225886 2.480927 0.003492 0.003866 -716792.000000 1 0 0
-1.327318 -5.109800 -6.833980 8.635689 1.316654 2.483835 0.000877 -0.001774 -926569.000000 1 0 0
12.826982 -0.383900 6.393820 14.337356 -0.029920 1.108555 0.017682 -0.006983 2757060.000000 1 0 0
6.005782 -13.285900 3.723920 15.048327 -1.146246 1.320734 0.010300 -0.007546 664057.000000 1 0 0
-5.506718 3.450500 -4.937780 8.161591 -0.559748 2.220565 0.005813 -0.003462 2960170.000000 1 0 0
-4.489518 8.089600 3.444020 9.872116 -1.064142 1.214438 0.000984 -0.001452 395407.000000 1 0 0
13.919382 6.113000 -4.052180 15.733344 0.413813 1.831286 0.020478 -0.002278 904303.000000 1 0 0
-6.599018 -8.496400 5.374420 12.025816 0.910435 1.107492 0.008680 -0.005191 1374110.000000 1 0 0
1.606882 11.399600 2.649520 11.813251 1.430759 1.344588 0.004233 -0.003869 1683610.000000 1 0 0
-7.460918 7.189100 6.072020 12.009075 -0.766846 1.040697 0.001172 -0.004810 -2045970.000000 1 0 0
-17.401018 -4.127300 5.270820 18.644345 0.232884 1.284185 0.052649 -0.019529 -758290.000000 1 0 0
7.458582 -13.075600 -8.564680 17.319224 -1.052411 2.088077 0.015733 -0.004906 -1611260.000000 1 0 0
-2.375418 12.699700 -2.829880 13.226232 -1.385888 1.786423 0.000670 0.001929 1696580.000000 1 0 0
-5.508518 13.945200 -5.740880 16.055220 -1.194598 1.936462 0.012106 0.002026 3700760.000000 1 0 0
-5.564218 2.343100 7.471220 9.605715 -0.398564 0.679656 0.004548 -0.006440 -426342.000000 1 0 0
-7.550618 5.024200 1.510720 9.194384 -0.587127 1.405739 0.002977 -0.002913 2272470.000000 1 0 0
10.694682 -5.662400 -5.084780 13.126080 -0.486936 1.968584 0.014573 -0.006444 2065240.000000 1 0 0
-9.517118 -0.726000 6.841620 11.743525 0.076136 0.948889 0.000574 -0.008558 544812.000000 1 0 0
-11.296218 -4.527100 -2.559880 12.435923 0.381163 1.778124 0.003518 -0.006865 -973157.000000 1 0 0
6.515582 -4.252900 13.502220 15.583642 -0.578290 0.522778 0.003225 -0.006288 -285349.000000 1 0 0
0.201682 10.228800 -11.660980 15.512817 1.551082 2.421432 0.007641 0.003836 -1309750.000000 1 0 0
-11.758218 -3.245600 1.486020 12.288119 0.269322 1.449568 0.003482 -0.004699 2087290.000000 1 0 0
5.188582 6.031900 5.386420 9.608263 0.860416 0.975683 -0.001536 0.001401 -4772770.000000 1 0 0
-7.146118 -0.072400 8.085520 10.791102 0.010131 0.723827 0.002754 -0.006524 262506.000000 1 0 0
1.751082 2.151900 9.655020 10.045714 0.887735 0.279808 -0.002899 -0.001566 2735780.000000 1 0 0
10.416482 -4.975000 -2.110380 11.734881 -0.445574 1.751618 0.009292 -0.004581 3984120.000000 1 0 0
-9.630318 -2.396300 -1.656980 10.061355 0.243876 1.736238 0.002898 -0.004310 -1542910.000000 1 0 0
-2.002318 -5.177000 -9.843380 11.300564 1.201745 2.628137 0.004306 -0.000948 1556890.000000 1 0 0
7.689382 -1.482300 6.564520 10.218450 -0.190436 0.873147 0.006164 -0.004428 3768850.000000 1 0 0
1.561882 -11.921900 -2.693380 12.321748 -1.440529 1.791163 0.000802 0.000360 -2229130.000000 1 0 0
-0.667118 -1.490600 4.811320 5.080918 1.149982 0.327222 -0.002158 -0.000620 2000410.000000 1 0 0
7.560782 1.597700 9.868220 12.533947 0.208250 0.664347 0.001927 -0.000062 612546.000000 1 0 0
-3.824518 10.682900 -7.995380 13.880828 -1.227009 2.184625 0.007951 0.003424 1524780.000000 1 0 0
-9.593318 12.640500 6.454520 17.131107 -0.921601 1.184487 -0.000700 -0.002997 320350.000000 1 0 0
-2.558918 -2.454400 -11.107480 11.659685 0.764553 2.832598 0.006407 -0.003996 -1869320.000000 1 0 0
1.127582 -11.789600 11.166820 16.277714 -1.475444 0.814793 -0.003412 -0.001151 720713.000000 1 0 0
1.420982 3.413800 -1.937380 4.174525 1.176363 2.053410 -0.001579 -0.001583 2751790.000000 1 0 0
-1.883318 -9.389500 -12.029280 15.375734 1.372846 2.469234 0.002033 0.001354 -898087.000000 1 0 0
1.307282 -2.683500 1.529420 3.353995 -1.117477 1.097302 0.002701 -0.000150 2689540.000000 1 0 0
-1.101618 -2.192200 -6.590880 7.032710 1.105137 2.785239 0.004975 -0.005454 804419.000000 1 0 0
1.745982 5.854600 4.020420 7.313588 1.280970 0.988768 -0.005019 0.001461 -552307.000000 1 0 0
-11.038418 8.507500 3.668620 14.411211 -0.656629 1.313396 -0.011089 0.000038 1565420.000000 1 0 0
-16.426918 -1.618400 3.914620 16.964289 0.098204 1.337941 0.031618 -0.012987 -235583.000000 1 0 0
-12.253018 0.202400 6.806720 14.018162 -0.016517 1.063788 0.001703 -0.003937 -448220.000000 1 0 0
-5.095018 3.080000 4.640020 7.548205 -0.543731 0.908768 0.005032 -0.004745 348950.000000 1 0 0
5.226582 -6.045400 3.915820 8.899307 -0.857913 1.115182 -0.002065 -0.003081 815827.000000 1 0 0
9.882482 3.402600 6.212120 12.158600 0.331593 1.034537 0.002266 0.000519 1002920.000000 1 0 0
-12.226718 5.765100 3.221920 13.896395 -0.440602 1.336814 -0.000423 -0.000935 819329.000000 1 0 0
-4.875518 12.207800 -1.208180 13.200786 -1.190827 1.662448 0.001000 0.005089 2189730.000000 1 0 0
-1.733918 -12.136300 10.305420 16.015553 1.428886 0.871782 -0.000128 -0.005814 1986670.000000 1 0 0
5.177282 6.473000 13.896320 16.180596 0.896161 0.537822 0.002049 -0.000935 379958.000000 1 0 0
12.897382 -3.733400 -6.007280 14.709458 -0.281768 1.991492 0.009319 -0.005462 2473990.000000 1 0 0
3.573082 -2.572600 6.362520 7.737367 -0.624020 0.605336 -0.006411 0.001956 663905.000000 1 0 0
7.276782 -11.787600 -0.667280 13.868826 -1.017735 1.618929 0.012658 -0.002882 80084.800000 1 0 0
-6.111918 -6.555800 -4.016680 9.821801 0.820424 1.992106 0.006661 -0.004075 -632510.000000 1 0 0
0.307382 -8.986900 5.082320 10.329029 -1.536606 1.056362 -0.003739 -0.002519 1434820.000000 1 0 0
-10.295818 2.522200 -0.318680 10.605042 -0.240242 1.600851 0.003757 -0.002558 -877943.000000 1 0 0
-1.798018 8.837400 -0.353380 9.025374 -1.370080 1.609960 0.004116 -0.002377 517313.000000 1 0 0
-3.496018 2.286100 -6.707280 7.901646 -0.579123 2.584595 0.008999 -0.006950 122624.000000 1 0 0
-12.785018 2.916800 6.433920 14.606839 -0.224303 1.114671 0.003439 -0.006624 -1260750.000000 1 0 0
11.373382 1.638800 7.910220 13.950306 0.143106 0.967903 0.016037 -0.007246 -1499410.000000 1 0 0
5.998082 2.667300 -3.267180 7.332526 0.418431 2.032611 -0.004971 0.001623 1532570.000000 1 0 0
10.477482 -2.262300 6.360420 12.463971 -0.212656 1.035258 0.018642 -0.005182 2364150.000000 1 0 0
-1.062118 10.892700 4.165320 11.710205 -1.473596 1.207133 0.002498 -0.000368 2298040.000000 1 0 0
-1.585118 -12.161100 7.455420 14.352290 1.441184 1.024579 -0.006539 -0.000594 22129.000000 1 0 0
8.068082 8.669400 -7.753880 14.155391 0.821309 2.150491 -0.001270 -0.000375 3542590.000000 1 0 0
-4.694518 -5.947900 -8.761080 11.583287 0.902630 2.428520 0.006966 -0.002987 395381.000000 1 0 0
-8.508018 -5.366300 -11.754980 15.471364 0.562712 2.433786 0.010506 -0.003911 1153520.000000 1 0 0
6.025282 -0.641500 -9.951280 11.650902 -0.106069 2.594655 0.007329 -0.000947 -813062.000000 1 0 0
-11.105918 -5.484500 -5.324080 13.482099 0.458704 1.976755 0.006661 -0.007248 -806270.000000 1 0 0
3.915082 8.901700 -2.722680 10.098570 1.156446 1.843785 0.003873 -0.005836 590954.000000 1 0 0
11.737982 -10.406100 -4.087180 16.210249 -0.725324 1.825683 0.032773 -0.009422 781310.000000 1 0 0
4.083982 -11.267000 4.079220 12.659551 -1.223053 1.242718 0.002622 -0.006231 1305040.000000 1 0 0
-0.944218 0.831400 3.176020 3.416120 -0.721946 0.377157 0.002517 -0.001025 -803895.000000 1 0 0
-10.601218 -5.087900 4.525920 12.599861 0.447467 1.203382 0.008937 -0.005266 2623600.000000 1 0 0
4.654482 -8.661800 2.768220 10.215382 -1.077711 1.296380 -0.000194 -0.003711 4608880.000000 1 0 0
-3.683918 -5.651300 2.598920 7.229304 0.993107 1.203067 0.003042 -0.003084 781818.000000 1 0 0
9.961482 5.227400 12.246220 16.629093 0.483260 0.743013 0.018391 0.000648 1640800.000000 1 0 0
1.668382 -12.379100 -5.381580 13.600994 -1.436829 1.977600 -0.000888 0.000328 1806570.000000 1 0 0
9.859682 -10.643000 -1.785180 14.617580 -0.823585 1.693228 0.016569 -0.005779 2312850.000000 1 0 0
9.650882 -4.499400 -9.270380 14.118218 -0.436257 2.287132 0.017103 -0.004382 1938590.000000 1 0 0
-7.455418 -3.066700 -13.159580 15.432513 0.390243 2.591963 0.009624 -0.004675 2307980.000000 1 0 0
0.459982 6.175200 -2.514180 6.683246 1.496445 1.956479 0.001432 -0.002979 2128790.000000 1 0 0
-5.843118 -9.432300 0.941220 11.135359 1.016177 1.486170 0.003109 0.000911 -92516.200000 1 0 0
-8.962218 -4.075200 0.632520 9.865531 0.426763 1.506638 0.001600 -0.005728 2123480.000000 1 0 0
1.875182 3.863800 12.148920 12.885709 1.118961 0.339800 0.000798 -0.002948 500765.000000 1 0 0
6.539882 4.390000 9.588720 12.409097 0.591180 0.687686 -0.005886 0.002982 1397620.000000 1 0 0
-8.289818 9.870900 -3.625380 13.390263 -0.872240 1.844966 0.003176 -0.003767 2431210.000000 1 0 0
16.491482 2.225500 -6.071480 17.713969 0.134138 1.920640 0.032298 -0.001085 -855869.000000 1 0 0
-10.939918 2.571100 -5.109780 12.345130 -0.230831 1.997542 0.005800 0.000982 1969110.000000 1 0 0
-13.801918 3.914600 1.544220 14.429195 -0.276369 1.463570 0.000960 -0.000585 49947.700000 1 0 0
-17.373718 10.432900 3.670520 20.595247 -0.540786 1.391617 0.052602 -0.009210 -1546650.000000 1 0 0
-14.359318 2.810200 -1.130480 14.675327 -0.193263 1.647905 0.007309 -0.000346 282388.000000 1 0 0
-14.452118 4.970600 5.168920 16.133453 -0.331262 1.244660 0.001707 -0.001464 443311.000000 1 0 0
-17.478718 7.520400 3.157920 19.288195 -0.406318 1.406333 0.031537 -0.000899 -121871.000000 1 0 0
-14.908218 12.643300 -3.329080 19.829039 -0.703376 1.739484 0.043192 -0.009724 -1593970.000000 1 0 0
-8.617418 12.476100 -9.569480 17.930084 -0.966330 2.133779 0.012959 -0.009227 1425860.000000 1 0 0
-12.530018 8.743900 -9.872380 18.191235 -0.609272 2.144444 0.011514 -0.000822 -45151.500000 1 0 0
-13.884718 -3.459600 -12.128080 18.757520 0.244194 2.273878 0.027757 -0.004564 -1073810.000000 1 0 0
-14.806418 5.835700 -7.596180 17.634834 -0.375439 2.016118 0.019741 0.000923 1903770.000000 1 0 0
-10.970618 13.357100 -8.222980 19.141160 -0.883183 2.014843 0.017848 -0.016072 563483.000000 1 0 0
-10.883218 13.481300 3.937120 17.767690 -0.891631 1.347353 0.002018 -0.006536 -1016890.000000 1 0 0
-15.196618 3.150000 3.103420 15.826905 -0.204388 1.373432 0.001951 0.001326 -63523.500000 1 0 0
-11.261118 9.510400 -12.416180 19.272312 -0.701312 2.270838 0.025194 -0.005829 513961.000000 1 0 0
-13.208618 11.403900 -8.886180 19.582664 -0.712204 2.041797 0.023941 -0.024549 1058750.000000 1 0 0
-8.912318 14.588300 -3.478380 17.445545 -1.022384 1.771527 0.015590 -0.009063 428754.000000 1 0 0
-16.784318 8.275700 -4.005380 19.137493 -0.458081 1.781650 0.034453 -0.003168 -1525340.000000 1 0 0
-16.907818 6.720700 0.304020 18.197103 -0.378341 1.554089 0.027662 0.004913 291351.000000 1 0 0
-10.527818 2.793500 -12.510280 16.587517 -0.259368 2.425229 0.018204 -0.006869 335162.000000 1 0 0
-16.989918 0.837000 2.348320 17.171852 -0.049225 1.433612 0.020466 -0.003780 456620.000000 1 0 0
-12.660118 1.149000 -6.928980 14.477899 -0.090509 2.069845 0.013749 -0.003605 142145.000000 1 0 0
-12.314018 8.971200 -5.288980 16.127330 -0.629622 1.904931 0.013205 -0.002086 -1656380.000000 1 0 0
-9.576718 13.828900 1.323220 16.873142 -0.965112 1.492294 0.016580 -0.010103 -845810.000000 1 0 0
-12.248118 11.060200 2.833820 16.744401 -0.734477 1.400738 -0.000840 -0.002721 -581535.000000 1 0 0
-12.596918 6.767100 -3.576680 14.740035 -0.492965 1.815894 0.003748 0.000538 1605590.000000 1 0 0
-15.854318 3.735300 -9.380980 18.796666 -0.231382 2.093329 0.022337 -0.001824 -1730860.000000 1 0 0
-15.205518 5.826200 -4.694180 16.946614 -0.365908 1.851465 0.014838 0.002969 2455130.000000 1 0 0
-18.106318 5.188400 7.533220 20.285651 -0.279074 1.190326 0.040054 -0.005542 338872.000000 1 0 0
-15.704918 10.113700 -2.015480 18.788122 -0.572134 1.678277 0.030629 -0.001278 -1350450.000000 1 0 0
-8.826318 9.889500 -8.333680 15.657469 -0.842144 2.132052 0.009331 -0.005426 2295410.000000 1 0 0
-17.019918 4.167900 -1.231180 17.566013 -0.240158 1.640943 0.014000 0.002882 1059260.000000 1 0 0
-10.174418 5.360400 -4.489980 12.345550 -0.484897 1.943025 0.004112 -0.002148 173355.000000 1 0 0
-18.287918 2.622200 6.295120 19.518002 -0.142414 1.242396 0.041120 -0.006350 -1862020.000000 1 0 0
-10.414518 10.099600 -5.698980 15.586612 -0.770048 1.945109 0.005212 -0.005778 929437.000000 1 0 0
-15.378418 0.405900 -5.787180 16.436300 -0.026388 1.930608 0.013186 -0.000723 1113190.000000 1 0 0
-16.386318 -4.223800 -8.843580 19.093476 0.252272 2.052368 0.040576 -0.017947 -1549090.000000 1 0 0
-10.039818 9.678600 -1.093180 13.988148 -0.767081 1.649027 -0.003413 0.000895 1278700.000000 1 0 0
-17.368418 -2.948700 -3.191480 17.903696 0.168170 1.750012 0.023864 -0.009814 69078.900000 1 0 0
-11.957418 5.047600 -11.514980 17.350876 -0.399438 2.296490 0.018355 -0.002792 -595107.000000 1 0 0
-16.434718 6.871500 5.913420 18.769284 -0.396019 1.250278 0.029215 -0.000856 -402125.000000 1 0 0
-12.092218 6.020100 -8.775680 16.108256 -0.461925 2.146940 0.014124 0.000986 2103750.000000 1 0 0
-14.473118 8.362100 -0.005780 16.715140 -0.523912 1.571142 0.022844 0.000613 1222160.000000 1 0 0
-14.851618 11.867400 4.065820 19.440592 -0.674170 1.360100 0.024851 -0.010431 1351240.000000 1 0 0
-17.361718 4.079300 -4.037880 18.285908 -0.230774 1.793451 0.019658 -0.000574 178321.000000 1 0 0
-13.827718 13.521300 -0.775080 19.355415 -0.774195 1.610852 0.037639 -0.006605 173076.000000 1 0 0
-10.183718 6.908200 -13.024980 17.918746 -0.596053 2.384581 0.007094 -0.007107 1140900.000000 1 0 0
-15.851618 -1.254400 -8.230580 17.905021 0.078969 2.048431 0.016733 -0.009632 -186380.000000 1 0 0
-11.547318 11.868100 0.025720 16.558775 -0.799097 1.569243 0.017984 -0.007858 2720740.000000 1 0 0
-11.996718 7.375200 -0.889780 14.110511 -0.551208 1.633896 -0.001184 0.003616 1596580.000000 1 0 0
-11.526318 0.157400 -11.699480 16.424330 -0.013655 2.363603 0.017102 -0.005078 2167370.000000 1 0 0
-19.096318 -1.190500 -4.772180 19.719543 0.062261 1.815226 0.023622 -0.008344 -364763.000000 1 0 0
-18.023518 1.457800 -5.028780 18.768618 -0.080708 1.842046 0.011922 0.001238 1222700.000000 1 0 0
-13.356318 -0.128000 -9.457180 16.365998 0.009583 2.186895 0.016690 -0.004352 579972.000000 1 0 0
-6.171118 11.268000 -13.187980 18.411229 -1.069746 2.369283 -0.003820 0.005582 -2256960.000000 1 0 0
16.288782 5.794300 7.015920 18.658013 0.341764 1.185291 0.052785 -0.018505 211284.000000 1 0 0
14.747482 10.089100 -5.560980 18.713702 0.599991 1.872514 0.050161 -0.013391 333871.000000 1 0 0
2.318382 16.843100 4.364620 17.553199 1.434010 1.319509 0.018225 -0.010228 3071340.000000 1 0 0
-3.978518 18.236400 -5.831380 19.555048 -1.355998 1.873606 0.028402 -0.007092 1496820.000000 1 0 0
5.398482 14.470500 5.736620 16.475672 1.213720 1.215160 0.014822 -0.011335 -108131.000000 1 0 0
9.819982 6.048800 15.063420 18.971732 0.552078 0.653447 0.028558 -0.000541 -1170360.000000 1 0 0
4.690682 12.726900 -1.181480 13.615152 1.217680 1.657682 0.006417 -0.007826 2783910.000000 1 0 0
3.499082 13.782700 12.945120 19.229730 1.322174 0.832292 0.020758 -0.012506 -48231.800000 1 0 0
-0.855718 12.364200 9.196620 15.433195 -1.501697 0.932412 0.002598 -0.000986 -635318.000000 1 0 0
-7.842218 13.988100 8.429920 18.117143 -1.059825 1.086822 0.007881 -0.004789 2642340.000000 1 0 0
11.449782 12.786900 -4.145880 17.657594 0.840511 1.807802 0.040545 -0.007538 -28746.400000 1 0 0
-5.863718 16.046200 0.920220 17.108785 -1.220445 1.516984 0.001654 -0.000452 -95674.400000 1 0 0
3.193682 10.632400 6.826720 13.032714 1.278998 1.019474 0.004677 0.001485 850262.000000 1 0 0
-1.233418 15.434800 2.538820 15.690761 -1.491054 1.408278 0.006319 -0.004852 -1746580.000000 1 0 0
9.922382 8.920800 9.434520 16.341496 0.732295 0.955335 0.024359 -0.008945 2193740.000000 1 0 0
7.204682 12.300700 6.192520 15.542263 1.040948 1.160991 0.015202 -0.007716 -514553.000000 1 0 0
11.839982 14.002000 -1.498480 18.398006 0.868867 1.652335 0.038857 -0.008432 926421.000000 1 0 0
9.605682 15.903300 -1.185880 18.616938 1.027437 1.634538 0.024470 -0.014795 -120539.000000 1 0 0
10.164482 13.711900 3.012120 17.332217 0.932894 1.396122 0.024180 -0.008298 1170730.000000 1 0 0
-6.132818 14.496300 6.179420 16.909743 -1.170569 1.196696 -0.005673 -0.005024 638978.000000 1 0 0
-1.013518 18.197000 -6.217680 19.256624 -1.515157 1.899573 0.035372 -0.004190 1539980.000000 1 0 0
-3.599118 15.663800 5.415620 16.959871 -1.344944 1.245785 -0.004497 -0.007327 2736290.000000 1 0 0
7.062582 12.302900 10.553220 17.680833 1.049670 0.931198 0.020711 -0.010937 2832980.000000 1 0 0
1.372382 14.596700 6.246020 15.936117 1.477052 1.168056 0.010417 -0.003629 -264959.000000 1 0 0
17.360482 7.804400 -1.606580 19.101730 0.422479 1.655002 0.031540 0.001016 52261.200000 1 0 0
2.030782 16.151700 -3.346780 16.619339 1.445721 1.773562 0.013112 -0.005854 2153700.000000 1 0 0
6.759882 11.197300 0.565620 13.091808 1.027656 1.527579 0.008278 -0.005395 846666.000000 1 0 0
12.604682 9.205000 3.192420 15.931151 0.630763 1.369042 0.016585 -0.000296 -337786.000000 1 0 0
6.064582 14.286600 -3.536580 15.918338 1.169354 1.794836 0.003683 -0.007020 1121820.000000 1 0 0
3.059382 16.387400 1.469920 16.735213 1.386230 1.482849 0.019444 -0.018255 208519.000000 1 0 0
2.895382 18.815100 -2.419380 19.189701 1.418108 1.697210 0.026881 -0.019657 125238.000000 1 0 0
3.964582 11.925100 10.707120 16.509643 1.249835 0.865135 0.014698 -0.010570 1364010.000000 1 0 0
8.025982 11.590300 3.326520 14.485067 0.965139 1.339077 0.009545 -0.002284 1019160.000000 1 0 0
0.685282 12.478500 0.104920 12.497743 1.515934 1.562401 0.009676 -0.005324 -561948.000000 1 0 0
11.934482 9.805500 -4.671880 16.137105 0.687780 1.864513 0.027886 -0.002268 1096900.000000 1 0 0
-1.382218 16.565800 9.938920 19.367973 -1.487551 1.031931 0.008150 0.001041 -426371.000000 1 0 0
8.175182 14.869100 -7.876280 18.707205 1.068099 2.005376 0.018856 -0.003402 1867670.000000 1 0 0
14.419682 7.643400 -1.418180 16.381698 0.487411 1.657476 0.018826 0.001293 896331.000000 1 0 0
12.496482 8.262400 5.982120 16.131183 0.584193 1.190881 0.018878 -0.009377 -125569.000000 1 0 0
-3.049818 14.206000 10.153220 17.725679 -1.359321 0.960882 0.010105 -0.008106 1138750.000000 1 0 0
-4.637318 17.111000 -3.053280 17.989262 -1.306140 1.741350 0.023431 -0.004818 577544.000000 1 0 0
-7.197118 16.432500 -1.722780 18.022029 -1.157982 1.666536 0.018198 -0.004813 76168.300000 1 0 0
8.315782 11.228700 -1.905380 14.102000 0.933350 1.706325 0.007856 -0.004883 -1235080.000000 1 0 0
8.552782 12.922300 -4.158780 16.044668 0.986127 1.832990 0.020474 -0.005157 2266830.000000 1 0 0
2.549482 14.854800 -7.371080 16.777895 1.400825 2.025652 0.008021 -0.003547 -791276.000000 1 0 0
11.372182 11.390900 9.710920 18.798433 0.786220 1.027943 0.034138 -0.014948 105748.000000 1 0 0
8.646882 15.720000 1.532420 18.006534 1.067910 1.485590 0.013273 -0.011877 700756.000000 1 0 0
6.044682 9.985900 7.746320 14.009348 1.026473 0.984909 0.008603 0.001036 3168960.000000 1 0 0
14.406582 11.314000 2.582120 18.499285 0.665735 1.430760 0.030253 -0.001664 1226830.000000 1 0 0
12.120682 12.643600 1.132320 17.551458 0.806511 1.506237 0.037798 -0.003536 2437200.000000 1 0 0
5.151582 15.763900 8.284920 18.538587 1.254941 1.107498 0.025497 -0.011849 -1173230.000000 1 0 0
11.652682 14.999500 5.174020 19.686047 0.910318 1.304846 0.041280 -0.014186 1458280.000000 1 0 0
5.981782 16.768000 1.786320 17.892414 1.228132 1.470793 0.011610 -0.022877 1794500.000000 1 0 0
-0.733118 16.108100 -4.196580 16.661922 -1.525315 1.825405 0.015117 -0.003826 924722.000000 1 0 0
16.057282 6.438800 2.477420 17.476614 0.381359 1.428561 0.014145 -0.006580 -1237420.000000 1 0 0
7.588582 16.716600 -3.089380 18.616540 1.144658 1.737516 0.009067 -0.015551 -1817620.000000 1 0 0
14.827682 8.238900 7.465920 18.533202 0.507165 1.156178 0.048351 -0.019794 749436.000000 1 0 0
1.998582 12.937000 8.619220 15.673265 1.417522 0.988514 0.010482 -0.002873 2088670.000000 1 0 0
15.974782 7.399400 -5.844080 18.549880 0.433771 1.891302 0.030698 -0.001581 108261.000000 1 0 0
-3.032118 16.846000 0.716120 17.131675 -1.392713 1.528983 0.002676 -0.005711 1124750.000000 1 0 0
-3.035218 18.494900 4.442620 19.261639 -1.408135 1.338055 0.004639 -0.013536 1105740.000000 1 0 0
-1.040418 18.928900 0.819520 18.975177 -1.515887 1.527594 0.016258 -0.016896 -393889.000000 1 0 0
6.928982 16.998200 -5.991480 19.309257 1.183729 1.886295 0.013172 -0.005138 183092.000000 1 0 0
10.989482 10.017500 0.762720 14.889619 0.739162 1.519549 0.014762 -0.000282 -1314090.000000 1 0 0
9.198182 8.842000 14.224520 19.108230 0.765657 0.731133 0.031694 -0.008822 1404090.000000 1 0 0
6.340282 12.437000 -8.309580 16.245838 1.099346 2.107714 0.019929 -0.007066 2033340.000000 1 0 0
6.354182 9.151700 13.395620 17.423314 0.963895 0.693782 0.017041 -0.009150 1304730.000000 1 0 0
16.672182 9.433800 2.892120 19.373244 0.514924 1.420952 0.029849 -0.005159 -813386.000000 1 0 0
2.589082 14.643800 -0.802580 14.892560 1.395801 1.624714 0.011734 -0.010144 284016.000000 1 0 0
9.162382 12.937300 8.224020 17.859380 0.954579 1.092252 0.026156 -0.016129 3168640.000000 1 0 0
7.196982 9.426000 10.575420 15.889793 0.918696 0.842569 0.010323 -0.007170 1325000.000000 1 0 0
4.317382 15.779100 -5.386980 17.223221 1.303719 1.888909 0.016588 -0.007930 2027440.000000 1 0 0
0.211382 16.376600 -8.132180 18.285789 1.557890 2.031666 0.016617 -0.000550 -410490.000000 1 0 0
-2.466818 15.610500 -1.955480 15.924723 -1.414069 1.693902 0.004656 -0.000355 -828063.000000 1 0 0
13.229682 10.477300 7.727820 18.561182 0.669816 1.141377 0.038657 -0.018794 1185390.000000 1 0 0
-1.093618 15.933200 7.030820 17.449793 -1.502266 1.156094 0.009684 -0.004479 2577740.000000 1 0 0
13.465382 13.281100 6.719720 20.071341 0.778508 1.229412 0.049375 -0.018368 -1072040.000000 1 0 0
5.342782 17.301500 4.555820 18.671976 1.271282 1.324316 0.016425 -0.018396 2286530.000000 1 0 0
10.740482 9.465200 -1.877680 14.438616 0.722367 1.701211 0.010965 -0.001501 440029.000000 1 0 0
3.142182 12.713100 4.721720 13.920878 1.328492 1.224748 0.009209 -0.002588 2733150.000000 1 0 0
-0.280618 17.938600 3.512620 18.281428 -1.555154 1.377453 0.012153 -0.011353 2377080.000000 1 0 0
-7.729218 15.891200 -5.870280 18.620721 -1.118101 1.891522 0.031674 -0.008706 2151420.000000 1 0 0
-12.379318 -9.060700 8.296320 17.440548 0.631831 1.075046 0.043122 -0.017451 1061310.000000 1 0 0
-13.189518 -11.597400 6.926020 18.879429 0.721254 1.195170 0.050974 -0.013148 -8530.200000 1 0 0
-6.405718 -12.194800 12.212220 18.408821 1.087128 0.845457 0.022910 -0.019067 -1508270.000000 1 0 0
-1.830818 -10.597100 14.322520 17.910472 1.399719 0.644046 0.005380 -0.006782 338808.000000 1 0 0
-8.860518 2.763200 10.980520 14.377617 -0.302297 0.701735 0.004355 -0.005579 1471330.000000 1 0 0
0.448482 10.065000 15.109720 18.160644 1.526267 0.588087 0.010636 -0.010723 -534939.000000 1 0 0
0.989082 -6.729600 16.683820 18.017093 -1.424866 0.387122 0.014177 -0.015513 2040360.000000 1 0 0
6.022482 2.340300 17.714920 18.856449 0.370635 0.349739 0.007034 -0.008972 153043.000000 1 0 0
-5.117518 -2.885800 17.574120 18.530152 0.513457 0.322624 0.030507 -0.024146 1703190.000000 1 0 0
-4.385218 8.147000 13.080320 16.021814 -1.077010 0.615635 -0.002515 0.002255 -145624.000000 1 0 0
0.103782 -4.880300 18.657120 19.285129 -1.549534 0.255901 0.029422 -0.026111 -30855.800000 1 0 0
-11.714318 2.051000 11.195120 16.332867 -0.173328 0.815595 0.022379 -0.008432 -869224.000000 1 0 0
-3.380218 -6.153300 14.336920 15.963591 1.068464 0.455364 0.016069 -0.010681 821509.000000 1 0 0
-7.360918 -2.297000 14.501920 16.424524 0.302478 0.488702 0.008246 -0.009547 -311110.000000 1 0 0
-6.179018 -1.108500 10.546020 12.273042 0.177509 0.536930 0.002778 -0.004395 2118650.000000 1 0 0
-3.985118 2.413400 11.133620 12.069099 -0.544529 0.396315 0.000997 -0.001556 -55598.600000 1 0 0
-6.500018 6.234700 13.544220 16.265534 -0.764567 0.586840 -0.004502 -0.001887 -169111.000000 1 0 0
-9.021818 5.384500 12.508220 16.335287 -0.538086 0.698640 0.010677 -0.007617 -940642.000000 1 0 0
-12.342118 -2.321800 15.943120 20.295362 0.185947 0.667204 0.033710 -0.002472 783451.000000 1 0 0
-3.590418 -7.596100 16.966020 18.932450 1.129254 0.459815 0.029486 -0.014473 -1138310.000000 1 0 0
-0.543318 -5.316900 14.495520 15.449424 1.468963 0.353241 0.009746 -0.003866 1054820.000000 1 0 0
-14.280618 -2.264500 13.715220 19.929156 0.157262 0.811793 0.040160 -0.007853 -427370.000000 1 0 0
-6.485418 1.416200 12.201820 13.890669 -0.214992 0.498254 0.004330 -0.002778 459152.000000 1 0 0
2.210182 -2.193300 14.578520 14.907337 -0.781565 0.210423 0.001878 -0.000878 1513460.000000 1 0 0
-12.619518 3.902000 9.117120 16.049913 -0.299879 0.966664 0.006144 -0.011115 -659691.000000 1 0 0
-9.048118 -3.033300 12.505720 15.730937 0.323466 0.651828 0.005077 -0.003669 702729.000000 1 0 0
-7.086018 -7.241100 15.229820 18.291872 0.796222 0.587010 0.016528 -0.015154 -940391.000000 1 0 0
-3.116518 6.089800 19.452320 20.620162 -1.097785 0.338168 0.021798 -0.006745 -138756.000000 1 0 0
0.556482 5.430000 16.159220 17.056229 1.468670 0.325757 0.008420 -0.003608 614207.000000 1 0 0
3.406182 1.509700 16.758720 17.167876 0.417204 0.218760 -0.006195 -0.006695 1360320.000000 1 0 0
-11.738518 11.375500 7.978820 18.189458 -0.769694 1.116700 0.004558 -0.007611 -8780.500000 1 0 0
0.588882 -9.415400 15.542820 18.181743 -1.508333 0.545518 0.001572 0.000320 727927.000000 1 0 0
-2.526918 -3.635000 18.785020 19.299625 0.963324 0.231445 0.038375 -0.035751 1438080.000000 1 0 0
-12.965018 2.398000 13.835820 19.112091 -0.182892 0.761314 0.035635 -0.014220 -638462.000000 1 0 0
-5.414018 -0.501700 15.715020 16.629045 0.092403 0.333097 0.019646 -0.004696 2135590.000000 1 0 0
-4.456518 -5.975700 11.644320 13.826053 0.930006 0.569443 0.000158 -0.001831 1272720.000000 1 0 0
2.338182 1.904600 13.989520 14.310879 0.683559 0.212321 -0.003091 -0.000272 734354.000000 1 0 0
0.032482 3.354000 14.250420 14.639837 1.561112 0.231165 0.007107 -0.001873 130064.000000 1 0 0
-13.117418 6.993200 12.174820 19.214519 -0.489794 0.884565 0.032802 -0.010764 -673839.000000 1 0 0
0.889782 1.486600 18.297520 18.379361 1.031455 0.094406 0.011748 -0.007675 1884870.000000 1 0 0
-2.070518 6.393100 12.502820 14.194339 -1.257589 0.493181 -0.000858 -0.001234 1267440.000000 1 0 0
-13.382118 -2.698000 10.930120 17.487933 0.198945 0.895653 0.036014 -0.014158 -985373.000000 1 0 0
-2.655318 3.582800 13.449720 14.169761 -0.932997 0.320161 0.003115 -0.000049 -259789.000000 1 0 0
3.468482 6.121000 16.312420 17.764910 1.055258 0.407188 -0.001672 -0.003303 720586.000000 1 0 0
-3.804218 12.334000 12.353920 17.866700 -1.271620 0.807303 0.009659 -0.006027 -224135.000000 1 0 0
3.728582 -1.461500 17.050820 17.514815 -0.373567 0.230692 0.013169 -0.012607 -284167.000000 1 0 0
-15.833818 0.244200 9.146520 18.287380 -0.015421 1.047019 0.036396 -0.010242 -777674.000000 1 0 0
-4.745918 4.620100 15.252720 16.628726 -0.771965 0.409673 0.001092 -0.003061 1069660.000000 1 0 0
-8.024418 -8.091800 10.516820 15.507160 0.789579 0.825498 0.019885 -0.015996 1836250.000000 1 0 0
-2.631518 -0.326500 14.766520 15.002720 0.123442 0.177681 0.011211 -0.002150 2972680.000000 1 0 0
-1.844418 1.074400 17.231320 17.363024 -0.527463 0.123247 0.012279 -0.009814 866317.000000 1 0 0
-0.705918 -2.387700 14.426620 14.639904 1.283337 0.170905 0.008597 -0.000765 -375495.000000 1 0 0
5.177182 -8.140100 16.461220 19.079733 -1.004319 0.530094 0.002880 -0.009024 243917.000000 1 0 0
-4.547118 9.938600 10.665820 15.271272 -1.141706 0.797604 -0.002304 -0.002039 -1272590.000000 1 0 0
-6.289018 2.118700 15.225020 16.608488 -0.324947 0.411052 0.010575 -0.002173 -463446.000000 1 0 0
-4.916218 6.838100 17.395020 19.326550 -0.947468 0.450893 0.009480 0.002542 -767388.000000 1 0 0
-4.143818 9.175500 15.776420 18.715139 -1.146598 0.568004 0.010899 -0.002535 -783200.000000 1 0 0
-4.779618 -9.685600 18.601520 21.509815 1.112381 0.526060 0.042577 -0.015585 -727451.000000 1 0 0
-6.809818 -4.067400 11.010620 13.570229 0.538421 0.624286 0.007645 -0.004569 590393.000000 1 0 0
-2.350218 -0.767200 19.556320 19.711970 0.315532 0.125751 0.031702 -0.017873 -1488500.000000 1 0 0
-5.663018 -4.519900 15.221220 16.857782 0.673608 0.444282 0.019312 -0.013676 1462270.000000 1 0 0
-12.953818 -0.048200 9.753120 16.215026 0.003721 0.925436 0.020906 -0.008083 365329.000000 1 0 0
-14.568318 8.712200 10.318520 19.864797 -0.538965 1.024604 0.026301 -0.012853 -2270640.000000 1 0 0
-8.490418 10.315100 12.889520 18.564165 -0.882124 0.803318 0.012958 -0.012375 -2475460.000000 1 0 0
-10.520118 7.082600 10.703620 16.595288 -0.592542 0.869800 0.015409 -0.008263 802742.000000 1 0 0
-9.838518 -6.514400 14.802020 18.929703 0.584857 0.673014 0.023787 -0.016263 -1059550.000000 1 0 0
-0.830818 -13.410800 14.513920 19.778617 1.508924 0.746870 0.007103 -0.007601 2306340.000000 1 0 0
3.776182 -5.595500 17.007620 18.298314 -0.977143 0.377840 0.008087 -0.017549 1600350.000000 1 0 0
-7.394018 9.236200 10.444420 15.781787 -0.895722 0.847576 0.000513 -0.003324 555846.000000 1 0 0
-10.292718 -6.650700 11.798220 17.010874 0.573668 0.804364 0.032086 -0.022279 435887.000000 1 0 0
-10.872418 -3.910200 10.645820 15.710908 0.345240 0.826293 0.019215 -0.008242 -1029360.000000 1 0 0
-10.057618 -10.176100 9.781620 17.331728 0.791254 0.971119 0.045241 -0.023540 -469683.000000 1 0 0
-9.775418 -3.629000 15.217520 18.447259 0.355468 0.600735 0.023343 -0.016739 1171740.000000 1 0 0
5.606482 -3.348600 16.056520 17.333712 -0.538412 0.386279 0.009499 -0.012195 -121009.000000 1 0 0
-11.369718 0.425400 15.304020 19.069989 -0.037398 0.639292 0.029036 -0.011515 -679163.000000 1 0 0
-3.189018 3.223500 18.890220 19.426816 -0.790775 0.235582 0.022889 -0.009272 -20114.200000 1 0 0
0.433682 7.303700 13.963620 15.764352 1.511488 0.482642 0.006090 -0.004636 1214460.000000 1 0 0
-13.116818 -7.265900 12.043620 19.232603 0.505861 0.894116 0.055826 -0.029491 -579911.000000 1 0 0
-1.509818 -1.035200 12.139920 12.277167 0.601027 0.149666 0.004993 -0.000211 513705.000000 1 0 0
2.041482 -4.851300 13.264720 14.270794 -1.172479 0.377738 0.001087 -0.001153 2239050.000000 1 0 0
-14.570818 -4.106400 8.667320 17.444016 0.274699 1.050814 0.044134 -0.019456 -1754090.000000 1 0 0
8.024182 0.912600 16.046820 17.964430 0.113245 0.466262 0.019413 -0.009293 998137.000000 1 0 0
-1.337518 11.377100 13.380320 17.614208 -1.453771 0.708049 0.008526 -0.002620 -635486.000000 1 0 0
2.889982 -12.402200 -13.880780 18.837267 -1.341860 2.399238 -0.001853 0.013122 -280338.000000 1 0 0
0.880482 -10.860000 -13.930680 17.685551 -1.489898 2.477842 -0.006046 0.008483 -2182640.000000 1 0 0
3.273482 -14.530200 -12.451980 19.413763 -1.349208 2.267117 0.000715 0.012544 440947.000000 1 0 0
-5.104518 -10.147500 -16.163080 19.755329 1.104726 2.529005 0.029151 -0.012196 -603144.000000 1 0 0
-1.028518 -12.154400 -15.049280 19.371839 1.486376 2.460466 0.010342 -0.001466 -229895.000000 1 0 0
5.797082 -15.117900 -12.040180 20.177289 -1.204631 2.210203 -0.000683 0.011147 217325.000000 1 0 0
2.057882 -11.995800 -16.145480 20.219066 -1.400900 2.495641 -0.004320 0.007576 -504640.000000 1 0 0
1.251282 -14.518900 -14.082180 20.265043 -1.484826 2.339077 0.015135 0.015710 -125626.000000 1 0 0
-1.037018 -10.731300 -15.839480 19.160515 1.474461 2.543965 0.003204 -0.003168 -217102.000000 1 0 0
-5.709718 -5.548700 -15.042380 17.019464 0.771097 2.654792 0.013876 -0.006261 -360602.000000 1 0 0
-6.475218 -7.491800 -16.275580 19.051248 0.858054 2.595009 0.022278 -0.013141 427483.000000 1 0 0
4.955582 -12.679100 -11.626880 17.902562 -1.198206 2.277662 -0.003214 0.012458 -94898.800000 1 0 0
-1.905618 -15.542900 -13.156880 20.452790 1.448801 2.269572 0.018105 0.001726 -30562.000000 1 0 0
15.966682 -7.557700 -8.877780 19.770401 -0.442095 2.036491 0.051100 -0.003941 789357.000000 1 0 0
19.317282 -3.683100 -4.483280 20.169839 -0.188402 1.794945 0.068007 -0.024329 1194660.000000 1 0 0
15.032282 -11.626300 -8.877780 20.975112 -0.658324 2.007829 0.052883 -0.021953 805420.000000 1 0 0
17.886382 -3.357600 -6.606880 19.360966 -0.185559 1.919040 0.070316 -0.012872 678442.000000 1 0 0
9.484482 -9.245700 -15.532580 20.413217 -0.772650 2.435508 0.054311 -0.015135 -31295.000000 1 0 0
1.275882 1.898000 -15.330680 15.500324 0.978956 2.993508 0.018731 -0.006801 -366096.000000 1 0 0
4.818982 -4.356900 -13.984080 15.419457 -0.735082 2.706691 0.011676 0.001133 827947.000000 1 0 0
13.191882 -5.574900 -8.640180 16.725967 -0.399837 2.113640 0.025220 -0.005830 -1266630.000000 1 0 0
2.931182 1.076400 -12.172780 12.566903 0.351936 2.890486 0.008823 -0.006539 50053.100000 1 0 0
0.672882 6.362400 -13.058880 14.541914 1.465429 2.686037 0.015847 -0.001681 66002.600000 1 0 0
3.203082 -1.068300 -16.750280 17.087214 -0.321921 2.942677 0.017199 -0.004233 56956.100000 1 0 0
13.156682 4.249900 -11.423880 17.935021 0.312442 2.261344 -0.003282 -0.007257 1079190.000000 1 0 0
-3.879118 9.386200 -16.576980 19.440797 -1.178895 2.591910 0.007538 0.001264 161666.000000 1 0 0
-0.250418 -5.063900 -17.699380 18.411243 1.521385 2.862608 0.007770 -0.007221 576889.000000 1 0 0
-0.450818 -8.673700 -17.557780 19.588567 1.518868 2.682214 0.008967 -0.005215 -1433800.000000 1 0 0
5.538782 -10.106900 -12.277680 16.839506 -1.069475 2.387802 0.001671 0.002316 524864.000000 1 0 0
1.757482 -9.867600 -18.026180 20.625262 -1.394538 2.634141 0.008698 -0.007363 -296657.000000 1 0 0
11.200682 8.547300 -14.229980 20.025083 0.651836 2.361158 0.057642 -0.025388 -456782.000000 1 0 0
11.021382 -3.755400 -12.905180 17.381529 -0.328400 2.407539 0.024192 -0.009488 614985.000000 1 0 0
4.902082 7.512100 -12.316180 15.236481 0.992625 2.512115 0.005739 -0.000631 -87562.300000 1 0 0
9.758782 -5.981500 -12.575380 17.004480 -0.549876 2.403173 0.031076 -0.007841 -719778.000000 1 0 0
-3.297218 0.322300 -15.967780 16.307837 -0.097439 2.937019 0.017250 -0.008732 -1313490.000000 1 0 0
-0.789618 10.709600 -12.826480 16.728348 -1.497200 2.444561 0.006368 0.005293 -822871.000000 1 0 0
6.655782 -5.429100 -12.378280 15.066399 -0.684239 2.534977 0.017947 -0.003482 364006.000000 1 0 0
18.112382 -6.050000 -8.521580 20.911198 -0.322374 1.990525 0.076180 -0.015558 1086960.000000 1 0 0
13.051282 4.654100 -13.954480 19.665302 0.342543 2.359725 0.001958 -0.014264 513413.000000 1 0 0
14.190382 0.800400 -11.517180 18.293524 0.056345 2.251805 0.010602 -0.003127 13429.500000 1 0 0
15.010782 6.132500 -11.187380 19.699964 0.387846 2.174734 0.018440 -0.014280 132928.000000 1 0 0
8.245182 1.502300 -11.711880 14.401669 0.180226 2.520479 -0.000136 0.000913 781168.000000 1 0 0
10.000682 1.172700 -8.822480 13.387495 0.116729 2.290297 0.004122 -0.003234 100431.000000 1 0 0
-0.136418 -5.753300 -12.998480 14.215469 1.547089 2.724794 0.001168 0.001743 473938.000000 1 0 0
10.626282 -5.781400 -9.093580 15.133924 -0.498276 2.215390 0.022150 -0.006359 835623.000000 1 0 0
10.224082 8.477200 -11.189780 17.366806 0.692259 2.270930 0.022618 -0.008791 602982.000000 1 0 0
8.616082 8.125100 -14.622180 18.816542 0.756079 2.460828 0.040938 -0.008156 353568.000000 1 0 0
8.641482 10.616700 -10.651780 17.345027 0.887606 2.232056 0.032654 -0.008115 -114105.000000 1 0 0
7.259082 1.843400 -17.782480 19.295310 0.248687 2.742969 0.029658 -0.006016 -1237990.000000 1 0 0
12.266082 2.444900 -13.016680 18.051822 0.196744 2.376146 0.006047 -0.004188 -1368870.000000 1 0 0
2.806582 -0.678200 -19.210180 19.425959 -0.237101 2.992406 0.027381 -0.016435 -383177.000000 1 0 0
10.246482 -2.170200 -15.344580 18.578383 -0.208715 2.542659 0.028601 -0.014443 363549.000000 1 0 0
8.279182 -0.735800 -13.076680 15.494703 -0.088641 2.575392 0.009117 -0.005099 739801.000000 1 0 0
0.600982 4.399300 -14.737980 15.392306 1.435028 2.848968 0.019636 -0.004874 -442383.000000 1 0 0
3.988282 -7.705600 -15.667680 17.909742 -1.093182 2.635847 0.015185 -0.004449 -1921710.000000 1 0 0
11.502882 -5.819200 -14.465480 19.376003 -0.468349 2.413683 0.047790 -0.012164 -364215.000000 1 0 0
-5.948418 4.308300 -16.849580 18.380791 -0.626834 2.730526 0.022732 -0.005939 327272.000000 1 0 0
11.415282 7.708400 -9.063480 16.488625 0.593935 2.152778 0.018927 -0.007730 -1735670.000000 1 0 0
9.626882 6.142400 -13.350780 17.568417 0.567926 2.434003 0.014378 -0.001432 111482.000000 1 0 0
12.139882 0.625200 -10.122380 15.818666 0.051454 2.265166 0.012216 -0.002493 -2674000.000000 1 0 0
5.530782 -7.263600 -13.774680 16.525473 -0.920015 2.556285 0.014100 -0.000791 -453787.000000 1 0 0
8.831782 -10.360300 -10.681180 17.303867 -0.864874 2.236066 0.027744 0.001541 280372.000000 1 0 0
10.292782 4.818100 -15.940280 19.576720 0.437807 2.522227 0.029738 -0.003305 -1206650.000000 1 0 0
9.913482 -0.272100 -10.957780 14.779178 -0.027441 2.406001 0.008746 -0.003323 -497989.000000 1 0 0
-1.714318 5.452800 -13.934980 15.061726 -1.266188 2.752336 0.013432 -0.005771 1321370.000000 1 0 0
1.327582 -0.643200 -14.920480 14.993229 -0.451163 3.043043 0.011087 -0.003434 306908.000000 1 0 0
11.491682 -10.530700 -14.505980 21.292671 -0.741789 2.320287 0.074155 -0.017176 416673.000000 1 0 0
9.557782 -7.869400 -10.854280 16.464934 -0.688818 2.290599 0.026870 -0.000876 -246951.000000 1 0 0
14.099282 -1.045900 -9.605980 17.092645 -0.074045 2.167592 0.019860 -0.002633 975092.000000 1 0 0
3.956882 11.289400 -12.284480 17.146892 1.233680 2.369462 0.030032 -0.009421 -275342.000000 1 0 0
-1.318418 2.975200 -16.816980 17.128948 -1.153665 2.950446 0.023198 -0.011608 -602732.000000 1 0 0
6.232282 -0.473900 -17.571980 18.650480 -0.075894 2.799853 0.025855 -0.003658 249513.000000 1 0 0
6.282382 -6.672300 -16.280180 18.682403 -0.815488 2.628882 0.020938 -0.000739 51767.600000 1 0 0
-1.625418 -5.125500 -19.806080 20.523001 1.263705 2.876497 0.011856 -0.016024 -275094.000000 1 0 0
-0.066618 -4.288500 -15.228980 15.821426 1.555263 2.867068 0.005107 -0.002206 472874.000000 1 0 0
0.516982 0.975500 -12.990580 13.037410 1.083464 3.056810 0.012687 -0.005666 351909.000000 1 0 0
15.879982 0.549900 -13.498380 20.849040 0.034615 2.275009 0.032749 -0.014765 750883.000000 1 0 0
-0.283618 7.019300 -16.380280 17.823148 -1.530413 2.736448 0.025674 -0.004458 50023.500000 1 0 0
-4.967018 -0.515500 -18.346280 19.013759 0.103414 2.875840 0.016739 -0.014937 -182078.000000 1 0 0
10.400682 -8.531400 -13.233180 18.869977 -0.686981 2.347991 0.033342 -0.010367 949206.000000 1 0 0
4.343182 8.470100 -17.368980 19.806244 1.096988 2.640264 0.048611 -0.018065 -275342.000000 1 0 0
9.431782 0.637600 -16.992980 19.445473 0.067499 2.633920 0.024643 -0.002269 -613167.000000 1 0 0
3.377582 4.959100 -18.661280 19.602146 0.972876 2.830507 0.033169 -0.001501 -471941.000000 1 0 0
1.515582 -8.234300 -15.900480 17.970141 -1.388776 2.656921 -0.003767 -0.002355 260820.000000 1 0 0
4.513382 7.803000 -14.966280 17.471318 1.046398 2.599479 0.021196 -0.002458 781240.000000 1 0 0
-5.678518 -0.424600 -15.179380 16.212324 0.074634 2.782701 0.009695 -0.008025 -308242.000000 1 0 0
2.891682 3.350600 -13.899680 14.587305 0.858784 2.833328 0.011748 -0.002755 1143620.000000 1 0 0
-2.354118 -10.416900 -18.051880 20.974367 1.348540 2.607368 0.023150 -0.010184 279737.000000 1 0 0
6.174082 -9.125600 -15.501680 19.018358 -0.975971 2.523681 0.015772 -0.003472 252503.000000 1 0 0
-1.775718 5.444600 -17.630580 18.537373 -1.255531 2.827519 0.025572 -0.001661 416806.000000 1 0 0
10.005682 -12.418400 -11.767980 19.819578 -0.892581 2.206514 0.048840 -0.001940 -136428.000000 1 0 0
10.866382 3.539700 -9.369280 14.778063 0.314908 2.257510 0.003907 -0.004388 -1082150.000000 1 0 0
4.792182 -0.469600 -10.981780 11.991040 -0.097681 2.728372 0.009477 -0.005633 913517.000000 1 0 0
6.389182 9.637700 -11.615080 16.389539 0.985381 2.358434 0.023560 -0.007240 287790.000000 1 0 0
10.966982 -9.628200 -9.480580 17.402825 -0.720485 2.146914 0.038551 -0.006359 -1564520.000000 1 0 0
3.263982 -2.391000 -14.518880 15.072105 -0.632233 2.869813 0.012835 -0.003036 -184962.000000 1 0 0
9.223782 -4.529500 -14.641480 17.887634 -0.456476 2.529635 0.033365 -0.012384 -664338.000000 1 0 0
-4.000218 -6.681400 -16.605480 18.340797 1.031326 2.703082 0.007564 -0.007464 -585621.000000 1 0 0
5.861082 -7.699600 -11.282480 14.863730 -0.920154 2.432666 0.005298 0.000165 351253.000000 1 0 0
5.539282 6.273700 -16.696380 18.676511 0.847489 2.676940 0.023702 -0.018135 -1185000.000000 1 0 0
9.203882 1.283400 -19.421880 21.530629 0.138548 2.695311 0.039684 -0.011012 646379.000000 1 0 0
13.153282 5.758100 -9.475280 17.203066 0.412636 2.154107 0.001732 -0.008052 404431.000000 1 0 0
-1.407418 -0.705000 -17.340980 17.412279 0.464381 3.051066 0.021837 -0.010765 487210.000000 1 0 0
-0.306718 -0.572500 -19.625480 19.636224 1.078958 3.108511 0.031640 -0.016294 -220546.000000 1 0 0
2.887582 6.426300 -16.536880 17.975090 1.148493 2.738848 0.029031 -0.007068 -581409.000000 1 0 0
7.830882 3.895300 -15.666080 17.942189 0.461588 2.632408 0.020514 0.001494 562344.000000 1 0 0
3.104282 -9.968400 -14.800680 18.112584 -1.268903 2.527244 0.001247 0.003073 -368911.000000 1 0 0
9.028782 -10.658700 -13.420280 19.370873 -0.867999 2.336171 0.037548 -0.005332 141205.000000 1 0 0
3.820482 0.198200 -14.813780 15.299786 0.051832 2.888867 0.012040 -0.005286 -595508.000000 1 0 0
-1.052218 -2.836300 -18.828180 19.069665 1.215552 2.982281 0.022617 -0.010082 296440.000000 1 0 0
9.419082 10.035600 -13.075280 18.984081 0.817078 2.330559 0.050815 -0.014111 154185.000000 1 0 0
4.730682 2.157100 -10.674480 11.873372 0.427816 2.688338 0.000562 -0.001496 -49579.500000 1 0 0
-0.209118 7.062500 -19.047980 20.316205 -1.541195 2.786389 0.036057 -0.007768 209448.000000 1 0 0
1.012882 -1.685200 -17.654580 17.763728 -1.029609 3.030681 0.021364 -0.008894 -3580230.000000 1 0 0
-4.472618 -2.199700 -14.150480 15.002636 0.457078 2.802929 0.009167 -0.006736 -4208830.000000 1 0 0
9.963282 5.964300 -10.435980 15.612480 0.539410 2.302903 0.005839 0.001417 46922.400000 1 0 0
8.362582 5.535800 -17.631380 20.284068 0.584746 2.624425 0.042671 -0.009039 241063.000000 1 0 0
11.606382 0.061100 -13.465880 17.777563 0.005264 2.430218 0.011377 -0.002552 545277.000000 1 0 0
6.738482 12.097700 -11.825380 18.209918 1.062591 2.277581 0.045857 -0.016887 121598.000000 1 0 0
-0.977318 0.619700 -15.098480 15.142764 -0.565103 3.065097 0.019343 -0.006339 -618936.000000 1 0 0
-4.152918 -2.795800 -19.039180 19.686382 0.592521 2.884465 0.007559 -0.011629 54145.500000 1 0 0
5.775382 -12.085900 -14.017480 19.388496 -1.125016 2.378901 0.006065 0.004527 -136021.000000 1 0 0
2.092282 -4.704400 -14.129980 15.038795 -1.152317 2.792164 0.003778 0.000916 -1149350.000000 1 0 0
11.754882 1.750500 -15.451280 19.493167 0.147830 2.485942 0.017577 -0.005563 499723.000000 1 0 0
9.753582 2.085000 -13.778080 17.009264 0.210598 2.515006 0.007518 -0.000982 993087.000000 1 0 0
-2.320418 -4.216400 -16.457780 17.147038 1.067699 2.857096 0.003914 -0.006899 -1441890.000000 1 0 0
-2.980018 10.183600 -14.285080 17.794655 -1.286115 2.502729 0.010754 0.002712 173927.000000 1 0 0
3.557482 5.790500 -13.778480 15.363336 1.019881 2.683374 0.014202 -0.002622 -88724.500000 1 0 0
-5.146118 -2.593300 -16.638680 17.608334 0.466789 2.808183 0.013021 -0.008094 401265.000000 1 0 0
-4.305518 6.194100 -13.545080 15.503985 -0.963367 2.633454 0.007333 -0.002392 680921.000000 1 0 0
5.892782 -1.175000 -14.124580 15.349569 -0.196815 2.739372 0.013807 -0.001180 -1422550.000000 1 0 0
6.709282 -2.990800 -12.646080 14.624729 -0.419331 2.615360 0.012402 -0.004254 1009880.000000 1 0 0
3.190282 -3.094600 -18.349280 18.879898 -0.770175 2.903948 0.024973 -0.011366 381517.000000 1 0 0
7.405282 -11.911400 -12.054180 18.493862 -1.014576 2.280743 0.016194 -0.000326 -1415010.000000 1 0 0
-6.084318 -5.310300 -17.657180 19.416339 0.717574 2.712631 0.034562 -0.010846 213213.000000 1 0 0
0.489182 8.681100 -11.909380 14.745648 1.514506 2.510959 0.009178 0.001945 238333.000000 1 0 0
0.452082 8.582600 -14.504580 16.859663 1.518171 2.606679 0.015649 -0.001670 246239.000000 1 0 0
7.695982 -2.459700 -15.051780 17.083160 -0.309348 2.648956 0.020842 -0.011682 -343184.000000 1 0 0
14.300782 1.459200 -8.913280 16.914142 0.101684 2.125830 0.007537 -0.002707 673555.000000 1 0 0
2.748182 10.808900 -14.620580 18.388752 1.321820 2.489940 0.024258 -0.004452 -221522.000000 1 0 0
6.268582 1.156300 -15.421880 16.687317 0.182409 2.749647 0.017955 -0.000563 828467.000000 1 0 0
16.541982 -5.716700 -10.564380 20.443188 -0.332738 2.113868 0.066261 -0.011763 545917.000000 1 0 0
4.847782 -4.157000 -11.252880 12.938661 -0.708835 2.625410 0.006769 -0.000864 -1729160.000000 1 0 0
8.806282 -3.515400 -17.071180 19.527771 -0.379810 2.634582 0.027011 -0.014531 468145.000000 1 0 0
13.407682 -9.649200 -8.821280 18.726665 -0.623810 2.061282 0.047254 -0.014928 -433052.000000 1 0 0
2.294482 -7.834400 -13.514580 15.788805 -1.285891 2.598200 -0.000263 0.003624 527394.000000 1 0 0
-6.728618 -2.393500 -18.565380 19.891619 0.341761 2.774366 0.012809 -0.009865 -1468140.000000 1 0 0
-1.451518 -6.562900 -15.788580 17.159774 1.353130 2.739113 0.003413 -0.001598 1287830.000000 1 0 0
1.606682 -7.370900 -18.489480 19.969288 -1.356177 2.754196 0.021176 -0.006713 45176.800000 1 0 0
5.252082 10.953700 -14.586580 18.982524 1.123699 2.447167 0.058457 -0.021866 -108735.000000 1 0 0
5.562882 -3.453500 -17.199680 18.403840 -0.555582 2.777845 0.029723 -0.012963 102767.000000 1 0 0
3.982282 13.141400 -14.147880 19.715919 1.276559 2.371127 0.045690 -0.016080 219086.000000 1 0 0
9.895882 10.198900 -15.662480 21.148506 0.800476 2.404752 0.085103 -0.026569 309807.000000 1 0 0
2.566482 3.882600 -16.376080 17.024612 0.986712 2.864688 0.021958 -0.003789 1066850.000000 1 0 0
16.700882 1.795000 -11.371680 20.284393 0.107068 2.165921 0.038191 -0.011927 1152900.000000 1 0 0
10.101082 -3.738500 -10.569280 15.090325 -0.354476 2.346756 0.022135 -0.004472 -266096.000000 1 0 0
14.631982 -2.064000 -11.989980 19.029309 -0.140136 2.252452 0.035420 -0.008048 407828.000000 1 0 0
-2.616118 -8.787600 -16.012680 18.451881 1.281446 2.621569 0.009178 -0.000804 -678987.000000 1 0 0
13.954482 8.137400 -8.891980 18.439418 0.527929 2.073991 0.035952 -0.006886 -42334.900000 1 0 0
-8.431418 -0.119500 -16.451380 18.486509 0.014172 2.667950 0.017610 -0.015753 -824025.000000 1 0 0
-3.452518 4.048900 -15.932580 16.797636 -0.864734 2.819267 0.016340 -0.005454 710939.000000 1 0 0
15.135082 3.957000 -9.665680 18.388962 0.255722 2.124245 0.008072 -0.004024 527067.000000 1 0 0
5.429582 1.043500 -12.958780 14.088976 0.189873 2.738320 0.008162 -0.002500 514904.000000 1 0 0
7.871582 -7.723300 -12.929080 16.993301 -0.775890 2.435394 0.025252 -0.004352 -1573460.000000 1 0 0
3.096382 -6.043800 -11.953480 13.747756 -1.097338 2.624957 0.003368 0.000897 -497005.000000 1 0 0
-3.244818 3.505500 -18.482080 19.089386 -0.823997 2.888674 0.028974 -0.012119 -84262.600000 1 0 0
0.925282 5.166900 -17.754780 18.514460 1.393596 2.854137 0.032425 -0.017244 -339465.000000 1 0 0
6.347682 7.294500 -10.288080 14.119043 0.854691 2.387170 0.003758 0.003240 279829.000000 1 0 0
9.766582 3.678400 -11.733780 15.703450 0.360200 2.414651 0.006417 -0.001709 130629.000000 1 0 0
4.741182 1.656000 -17.513480 18.219307 0.336033 2.862332 0.018901 -0.001268 -226732.000000 1 0 0
2.616982 8.132900 -13.227180 15.746458 1.259482 2.568098 0.016396 -0.005510 -2289430.000000 1 0 0
14.528982 -3.592300 -9.831580 17.906867 -0.242389 2.152011 0.036231 -0.005795 462361.000000 1 0 0
-1.294118 9.374700 -16.220580 18.779429 -1.433620 2.613445 0.016012 0.000980 -1480630.000000 1 0 0
-5.179718 2.079000 -15.840580 16.795110 -0.381690 2.802829 0.013822 -0.008257 359254.000000 1 0 0
4.535982 4.257800 -12.020080 13.534634 0.753775 2.663987 0.005882 -0.000361 387694.000000 1 0 0
9.450182 3.211400 -17.700680 20.320756 0.327581 2.628161 0.024700 -0.003617 822894.000000 1 0 0
-4.367718 14.323200 -13.390180 20.088005 -1.274813 2.300402 0.013068 -0.001907 -323347.000000 1 0 0
15.645182 -5.063900 -8.122080 18.340747 -0.313030 2.029564 0.045993 -0.006731 334266.000000 1 0 0
1.072382 9.178700 -17.003680 19.352614 1.454490 2.643770 0.018922 -0.004155 -630006.000000 1 0 0
0.414182 -3.218100 -12.859680 13.262696 -1.442796 2.894440 0.004833 -0.000950 606864.000000 1 0 0
7.587982 3.540600 -13.078780 15.529578 0.436578 2.572119 0.005609 0.001517 277582.000000 1 0 0
-2.919818 7.649400 -15.019280 17.106064 -1.206160 2.642483 0.007544 -0.000825 152617.000000 1 0 0
12.260082 -5.175800 -11.029280 17.284199 -0.399469 2.262842 0.035596 -0.008784 -507099.000000 1 0 0
0.828782 -4.324300 -19.991180 20.470314 -1.381436 2.924806 0.028689 -0.015656 -778141.000000 1 0 0
3.340282 -4.487100 -16.206980 17.145196 -0.930877 2.809243 0.018488 -0.005703 392529.000000 1 0 0
-5.695618 4.143200 -14.386080 16.017662 -0.628903 2.686314 0.010980 -0.002209 574977.000000 1 0 0
12.416482 -7.571300 -9.982480 17.639261 -0.547578 2.172350 0.032615 -0.000596 229375.000000 1 0 0
-2.047118 -1.806300 -15.067180 15.312522 0.722985 2.962343 0.012842 -0.004152 1025210.000000 1 0 0
7.189382 5.874300 -14.203080 16.968267 0.685069 2.562643 0.018269 -0.001790 -171688.000000 1 0 0
4.259282 -5.516400 -18.350880 19.629747 -0.913293 2.778634 0.034649 -0.015562 127015.000000 1 0 0
7.621782 7.518200 -12.335580 16.333445 0.778557 2.426808 0.013832 -0.004809 -588424.000000 1 0 0
12.351182 -2.595200 -10.868680 16.655779 -0.207105 2.281737 0.026271 -0.009584 -320777.000000 1 0 0
7.379182 -0.753200 -10.674280 12.998457 -0.101719 2.534300 0.005050 -0.002703 -2529450.000000 1 0 0
5.455682 4.073500 -14.521780 16.038702 0.641355 2.703167 0.007775 -0.001153 285143.000000 1 0 0
14.829482 2.865700 -12.954680 19.898480 0.190890 2.279748 0.014994 -0.017957 163579.000000 1 0 0
-6.526718 6.801300 -16.152480 18.701828 -0.805997 2.613331 0.013441 0.013776 457706.000000 1 0 0
-11.366118 3.847100 -16.322880 20.258955 -0.326367 2.507673 0.060362 -0.021888 -539871.000000 1 0 0
-5.067418 6.292000 -18.261680 19.968900 -0.892787 2.725082 0.019481 0.018479 -781092.000000 1 0 0
-9.926318 1.788200 -15.722080 18.679220 -0.178236 2.571199 0.035302 -0.013828 39157.400000 1 0 0
-7.628218 5.732300 -18.153380 20.508393 -0.644435 2.657652 0.023989 0.000111 -498301.000000 1 0 0
-8.796418 4.031700 -15.698380 18.441007 -0.429763 2.589208 0.019618 0.004203 -286975.000000 1 0 0
9.040982 13.427800 -11.890580 20.085593 0.978213 2.204329 0.079728 -0.025412 -1560740.000000 1 0 0
13.753182 8.932100 -11.416980 19.981988 0.575993 2.178963 0.029357 -0.011323 208608.000000 1 0 0
8.417882 16.005700 -8.955880 20.180460 1.086620 2.030620 0.044955 -0.013434 -338106.000000 1 0 0
7.305182 13.618600 -13.854380 20.755139 1.078445 2.301664 0.073360 -0.021413 289197.000000 1 0 0
4.680082 16.039000 -12.299780 20.746982 1.286885 2.205385 0.059373 -0.026226 259093.000000 1 0 0
11.073082 10.926700 -11.275380 19.213019 0.778744 2.197973 0.061931 -0.017948 -165782.000000 1 0 0
15.801482 9.556000 -9.848280 20.928272 0.543907 2.060736 0.070846 -0.002706 -392386.000000 1 0 0
13.521082 10.692700 -9.425980 19.646948 0.669116 2.071187 0.089738 -0.010119 83629.700000 1 0 0
10.486282 12.027900 -8.045480 17.870709 0.853765 2.037791 0.041416 -0.002655 397794.000000 1 0 0
5.509782 16.124300 -9.765580 19.639687 1.241529 2.091208 0.035555 -0.021747 -335232.000000 1 0 0
6.821582 14.698200 -11.543380 19.895243 1.136271 2.189780 0.049019 -0.008770 85159.100000 1 0 0
10.676982 14.080600 -9.764680 20.189359 0.922020 2.075622 0.065253 -0.007255 -670006.000000 1 0 0
8.459582 -18.559600 -1.148480 20.428957 -1.143124 1.627044 0.051710 -0.005432 -265415.000000 1 0 0
7.574982 -17.458500 -3.353780 19.324270 -1.161424 1.745232 0.039637 -0.006302 -234143.000000 1 0 0
4.499182 -18.333100 5.845320 19.761401 -1.330139 1.270509 0.039325 -0.000327 93857.000000 1 0 0
9.997582 -17.008200 -2.652880 19.906489 -1.039389 1.704461 0.051100 -0.010963 -92590.000000 1 0 0
-9.686618 -12.247900 -9.974780 18.529379 0.901641 2.139242 0.024334 -0.008911 472682.000000 1 0 0
-5.106218 -7.012500 -12.180380 14.953605 0.941420 2.522740 0.004244 -0.001601 872918.000000 1 0 0
-10.830318 -9.571000 -5.638480 15.514261 0.723749 1.942753 0.012736 -0.003743 -1547130.000000 1 0 0
-4.595418 -11.418000 -14.020280 18.656282 1.188161 2.421136 0.027647 -0.007610 453432.000000 1 0 0
-2.895218 -15.511600 7.449520 17.449567 1.386271 1.129715 0.001842 -0.001343 116582.000000 1 0 0
-4.852018 -12.080500 -11.539380 17.396490 1.188877 2.296038 0.023258 -0.002234 -16250.300000 1 0 0
-14.383518 -12.762600 -4.287180 19.701510 0.725758 1.790158 0.023063 -0.006726 7150.190000 1 0 0
-3.182318 -12.252100 -3.215680 13.060693 1.316675 1.819565 0.004423 -0.000550 545297.000000 1 0 0
-2.384418 -17.361100 -1.557580 17.593161 1.434308 1.659446 0.009310 -0.009480 -151894.000000 1 0 0
-5.700018 -12.148400 3.748720 13.932937 1.132092 1.298385 -0.004358 0.001319 -257416.000000 1 0 0
-8.885818 -10.692800 -11.961280 18.340283 0.877431 2.281261 0.020888 0.001559 598145.000000 1 0 0
-9.877618 -12.083100 -7.389880 17.267860 0.885491 2.013026 0.013525 -0.006259 175579.000000 1 0 0
-10.768918 -14.989500 6.257320 19.488683 0.947808 1.243932 0.048773 -0.017386 -1202250.000000 1 0 0
-9.475218 -15.572800 0.717820 18.243002 1.024189 1.531438 0.017989 -0.000645 -2982600.000000 1 0 0
-14.914318 -7.764400 -8.156680 18.688345 0.479992 2.022455 0.033907 -0.011984 411022.000000 1 0 0
-2.360518 -16.504300 5.067520 17.425376 1.428735 1.275720 0.011053 -0.008215 -721044.000000 1 0 0
4.358582 -15.709400 5.602820 17.238738 -1.300153 1.239770 0.031741 -0.010625 -469766.000000 1 0 0
4.186282 -14.645100 -10.049280 18.248067 -1.292372 2.154004 -0.001887 0.002082 45874.800000 1 0 0
-7.546118 -14.048300 -0.240080 15.948551 1.077868 1.585850 0.000727 -0.000211 291710.000000 1 0 0
2.918682 -14.628700 9.633920 17.757533 -1.373865 0.997355 0.028504 -0.017467 706786.000000 1 0 0
2.356582 -17.166400 10.269420 20.141990 -1.434370 1.035784 0.051220 -0.015913 -568590.000000 1 0 0
-8.239918 -17.428100 -5.262280 19.983156 1.129149 1.837275 0.029335 -0.000111 -316329.000000 1 0 0
-6.497118 -9.109000 -7.699380 13.581859 0.951224 2.173518 0.011373 -0.003132 329162.000000 1 0 0
-6.034218 -13.071700 -4.782580 15.170834 1.138318 1.891515 0.003304 -0.006200 540595.000000 1 0 0
2.303282 -19.393500 -4.869280 20.127664 -1.452584 1.815140 0.022803 -0.015610 44950.800000 1 0 0
-5.325918 -12.955000 8.236520 16.249237 1.180750 1.039227 0.006671 -0.007648 489388.000000 1 0 0
2.257382 -17.522600 3.405320 17.992595 -1.442675 1.380386 0.022368 -0.010485 796774.000000 1 0 0
-17.682918 -9.947300 -2.644280 20.460367 0.512418 1.700398 0.026474 -0.009904 455920.000000 1 0 0
-3.443718 -15.686900 2.570620 16.264874 1.354696 1.412084 0.002427 0.002253 -3286.550000 1 0 0
-10.263518 -10.428300 -14.160980 20.362284 0.793362 2.339844 0.040628 -0.004589 -73938.500000 1 0 0
6.000382 -14.583200 -5.551080 16.717919 -1.180451 1.909266 0.004652 -0.008375 357736.000000 1 0 0
-7.278318 -12.314000 -10.732180 17.882623 1.036976 2.214480 0.020771 -0.006299 -1870900.000000 1 0 0
-7.154318 -14.284400 3.972920 16.462456 1.106470 1.327058 0.003138 0.001283 919477.000000 1 0 0
3.283782 -14.982800 -3.054280 15.639570 -1.355038 1.767351 0.008166 -0.004301 -322604.000000 1 0 0
-7.482118 -11.427800 7.802520 15.730735 0.991103 1.051805 0.019091 -0.014362 -528686.000000 1 0 0
-12.606018 -12.267300 -0.952680 17.615503 0.771781 1.624905 0.012043 0.004138 -1100270.000000 1 0 0
-1.904018 -13.700400 3.966820 14.389646 1.432705 1.291508 -0.003014 0.003847 -2717270.000000 1 0 0
-3.028018 -13.975000 5.360720 15.271111 1.357421 1.212118 -0.002913 0.001764 -23265.800000 1 0 0
-14.368118 -10.158100 -4.539680 18.172466 0.615401 1.823281 0.006136 -0.008313 534248.000000 1 0 0
-6.152118 -8.651700 -10.395680 14.858353 0.952668 2.345707 0.011066 -0.004206 476397.000000 1 0 0
0.877082 -19.523100 2.247420 19.671594 -1.525901 1.456299 0.029468 -0.016948 164297.000000 1 0 0
6.428482 -14.123100 -8.105680 17.506838 -1.143647 2.052174 0.009700 -0.003542 -2826990.000000 1 0 0
-3.902718 -16.737700 -5.908680 18.174001 1.341720 1.901932 0.002575 -0.010029 -203674.000000 1 0 0
-3.722718 -13.685300 -13.198680 19.373983 1.305200 2.320276 0.033623 -0.004120 -1834430.000000 1 0 0
-8.149618 -14.815800 -4.352380 17.460453 1.067905 1.822723 0.011252 -0.006448 -413759.000000 1 0 0
-4.457618 -14.402200 10.128820 18.162784 1.270638 0.979222 0.010995 -0.008393 319634.000000 1 0 0
-0.255018 -12.053600 -10.063880 15.704649 1.549642 2.266365 0.005305 0.000291 548902.000000 1 0 0
2.463282 -17.133400 6.837620 18.611131 -1.428004 1.194591 0.033401 -0.016207 -509754.000000 1 0 0
-2.811918 -19.161500 -3.467580 19.674707 1.425088 1.747967 0.016291 -0.014273 -1283800.000000 1 0 0
0.652882 -15.419600 -3.056880 15.733240 -1.528481 1.766334 0.005043 -0.006113 458649.000000 1 0 0
6.034182 -17.835400 0.389920 18.832549 -1.244559 1.550090 0.021872 -0.010593 -657070.000000 1 0 0
-6.954218 -16.706800 3.946520 18.521699 1.176360 1.356075 0.013188 -0.001050 399158.000000 1 0 0
-5.322718 -13.558800 -9.494580 17.387336 1.196715 2.148454 0.019810 -0.006549 -405840.000000 1 0 0
5.734382 -15.235700 -2.174180 16.423664 -1.210818 1.703567 0.015555 -0.002139 -971510.000000 1 0 0
-8.693118 -10.207800 -0.390580 13.413502 0.865365 1.599919 0.001688 0.002876 -1557540.000000 1 0 0
-7.313818 -18.275700 -2.749080 19.875880 1.190123 1.709554 0.020079 -0.019243 109476.000000 1 0 0
7.997582 -15.978700 -1.247680 17.911920 -1.106737 1.640509 0.024835 -0.002666 39460.200000 1 0 0
-8.136618 -10.142200 -9.533280 16.123034 0.894683 2.203445 0.016725 -0.003817 458792.000000 1 0 0
-9.014118 -15.517900 -6.737780 19.169174 1.044550 1.929959 0.022957 -0.004829 -167319.000000 1 0 0
-11.567518 -10.651400 -11.947780 19.748652 0.744190 2.220552 0.042996 0.005834 801654.000000 1 0 0
6.564282 -16.291400 2.548720 17.748112 -1.187767 1.426693 0.024251 -0.004652 797285.000000 1 0 0
-2.273118 -11.113800 -6.132780 12.895527 1.369048 2.066413 0.006261 -0.001136 -280357.000000 1 0 0
-12.397318 -15.119400 -3.362480 19.839255 0.884002 1.741105 0.023604 -0.009437 -546113.000000 1 0 0
-0.253718 -19.360800 -2.929780 19.582864 1.557692 1.720970 0.037663 -0.023696 -755132.000000 1 0 0
-5.849018 -15.587800 -4.722580 17.305875 1.211824 1.847191 0.005085 -0.009157 -2706360.000000 1 0 0
1.975182 -16.121500 -0.956980 16.270216 -1.448885 1.629648 0.012509 -0.008526 -200311.000000 1 0 0
-13.118818 -11.906300 5.354020 18.507536 0.736984 1.277313 0.038429 -0.010551 251973.000000 1 0 0
2.008982 -15.239700 -8.829880 17.727133 -1.439727 2.092202 0.007993 0.001819 -2514240.000000 1 0 0
-11.870918 -16.602300 -0.016680 20.409688 0.950063 1.571614 0.043535 -0.015263 305673.000000 1 0 0
-7.695518 -16.577700 -0.909480 18.299407 1.136189 1.620517 0.019794 -0.008475 415696.000000 1 0 0
-3.052218 -14.454900 -1.780480 14.880534 1.362699 1.690735 0.002296 -0.002577 20220.000000 1 0 0
-1.727618 -10.600200 -13.073280 16.919207 1.409237 2.453862 0.005786 -0.001391 581950.000000 1 0 0
1.518882 -19.584700 4.765920 20.213398 -1.493397 1.332775 0.038062 -0.016978 -37192.000000 1 0 0
-17.296818 -9.366200 2.463220 19.823549 0.496293 1.446217 0.031371 -0.013189 -5628.940000 1 0 0
-2.737418 -15.674900 -8.086080 17.848828 1.397903 2.040959 0.001050 -0.003416 -860569.000000 1 0 0
-10.298418 -12.148800 0.101120 15.926738 0.867645 1.564447 0.006416 0.002488 127263.000000 1 0 0
-6.930918 -11.450500 -6.542780 14.898307 1.026493 2.025463 0.008371 -0.004838 303116.000000 1 0 0
-2.258718 -13.602400 -6.698080 15.329429 1.406245 2.022993 0.001023 -0.000572 674225.000000 1 0 0
-14.197218 -14.502700 -0.926780 20.316206 0.796042 1.616430 0.035353 -0.002155 -6707.340000 1 0 0
-9.527918 -11.318300 -4.409180 15.437811 0.871073 1.860438 0.009868 -0.005826 1264110.000000 1 0 0
9.350782 -15.004600 -5.236280 18.438920 -1.013497 1.858739 0.028168 -0.010920 110393.000000 1 0 0
-5.612218 -10.931900 -9.357080 15.445335 1.096502 2.221591 0.014051 -0.003408 -180921.000000 1 0 0
-10.371118 -16.117700 -4.687980 19.731131 0.999031 1.810684 0.023377 -0.000903 -2453200.000000 1 0 0
2.224182 -17.390600 -3.198480 17.821623 -1.443591 1.751246 0.019114 -0.008144 307990.000000 1 0 0
-0.395818 -14.542400 -8.194980 16.697179 1.543585 2.083804 0.006154 -0.000375 -277810.000000 1 0 0
-0.401718 -18.316800 -7.161780 19.671239 1.548868 1.943434 0.020014 -0.007071 150518.000000 1 0 0
-1.645418 -9.817600 -10.495080 14.465109 1.404741 2.382622 0.003410 0.001388 281071.000000 1 0 0
-5.161718 -17.403700 1.993220 18.262120 1.282473 1.461433 0.012871 -0.006101 -639414.000000 1 0 0
0.235782 -12.852400 -2.737580 13.142836 -1.552453 1.780627 0.001300 -0.001394 -609200.000000 1 0 0
2.667482 -14.965500 3.089020 15.512050 -1.394407 1.370319 0.017955 -0.004969 -859548.000000 1 0 0
-9.266618 -12.985100 6.866220 17.367441 0.950978 1.164347 0.023755 -0.013649 -759447.000000 1 0 0
-0.977318 -17.834900 -4.643180 18.455296 1.516053 1.825120 0.015171 -0.012597 67140.200000 1 0 0
-9.741618 -17.607600 -2.071480 20.229131 1.065452 1.673377 0.034047 -0.012690 -824294.000000 1 0 0
1.312782 -16.222400 1.466520 16.341369 -1.490048 1.480933 0.013310 -0.009103 196433.000000 1 0 0
-0.382118 -18.021400 4.017220 18.467673 1.549596 1.351516 0.026384 -0.014605 1218360.000000 1 0 0
-17.360818 -9.309500 -0.111780 19.699678 0.492215 1.576471 0.010906 -0.001265 1064360.000000 1 0 0
-14.867018 -7.230300 -10.576580 19.625736 0.452653 2.139943 0.055416 -0.018710 600556.000000 1 0 0
2.872182 -12.708800 -9.004580 15.838103 -1.348531 2.175525 -0.001800 0.001842 582351.000000 1 0 0
-11.450518 -14.561900 1.688920 18.601499 0.904444 1.479876 0.024012 -0.006848 80666.000000 1 0 0
-2.074418 -15.458400 10.632720 18.876442 1.437400 0.972446 0.005792 -0.007188 599895.000000 1 0 0
-7.072618 -15.841800 1.472820 17.411311 1.150896 1.486105 0.013773 -0.004917 -796618.000000 1 0 0
-12.378318 -15.339500 -6.002080 20.604563 0.891828 1.866380 0.013712 0.003174 508980.000000 1 0 0
1.101182 -13.855300 -5.066580 14.793653 -1.491486 1.920355 0.005827 -0.002244 1140370.000000 1 0 0
5.795082 -16.368700 -7.451180 18.895433 -1.230532 1.976143 0.023401 -0.014671 167939.000000 1 0 0
-6.551718 -12.838000 5.992920 15.609431 1.098913 1.176748 0.008399 -0.003679 -319067.000000 1 0 0
-2.570818 -13.703000 0.661720 13.957765 1.385342 1.523370 0.002229 -0.001505 2623610.000000 1 0 0
-4.270418 -15.581800 0.146420 16.157054 1.303300 1.561734 0.001202 -0.002715 150964.000000 1 0 0
-17.573318 -7.439100 -2.102980 19.198548 0.400445 1.680555 0.005313 -0.004416 478289.000000 1 0 0
1.212882 -12.914500 -12.004780 17.673996 -1.477155 2.317515 0.002759 0.008464 -298845.000000 1 0 0
1.327482 -17.069300 -5.710180 18.047974 -1.493182 1.892717 0.022732 -0.010756 -175668.000000 1 0 0
-12.811118 -6.487900 -9.144380 17.024608 0.468776 2.137824 0.025051 -0.006871 52493.100000 1 0 0
-11.684018 -13.494800 -8.699180 19.857030 0.857191 2.024270 0.033088 -0.014958 188410.000000 1 0 0
-4.218218 -9.860900 3.504820 11.283372 1.166580 1.254953 0.000973 -0.000572 -3197570.000000 1 0 0
-7.045018 -14.300900 9.625220 18.622376 1.113064 1.027614 0.022796 -0.016660 -536079.000000 1 0 0
-5.353918 -15.907000 -8.006780 18.595850 1.246130 2.015918 0.013781 -0.011220 -77541.300000 1 0 0
-0.250918 -13.554600 2.097520 13.718226 1.552287 1.417294 0.002694 -0.002054 568327.000000 1 0 0
-10.913018 -13.500000 -4.803180 18.011511 0.890971 1.840736 0.018401 -0.004212 -322149.000000 1 0 0
-9.663518 -10.515800 6.654720 15.755981 0.827608 1.134747 0.033443 -0.011454 -279927.000000 1 0 0
-15.482618 -7.948000 -4.908380 18.082433 0.474270 1.845690 0.020159 -0.007652 784271.000000 1 0 0
-14.544818 -7.377200 5.471420 17.202071 0.469395 1.247106 0.044191 -0.016996 673229.000000 1 0 0
-1.685218 -19.495900 -0.095680 19.568833 1.484571 1.575686 0.032404 -0.014114 -318484.000000 1 0 0
-15.137818 -12.074000 -1.328580 19.408765 0.673279 1.639302 0.007470 0.002833 302223.000000 1 0 0
-4.434218 -12.115900 -6.767980 14.569245 1.219954 2.053910 0.003268 -0.002512 375082.000000 1 0 0
-7.560018 -18.362000 2.052520 19.963210 1.180227 1.467799 0.026889 -0.005783 -114833.000000 1 0 0
-2.461418 -11.704600 -8.641680 14.755842 1.363522 2.196471 0.005530 -0.000996 40551.300000 1 0 0
-1.191018 -20.487800 -5.106480 21.148159 1.512729 1.814669 0.030079 -0.007121 -255818.000000 1 0 0
-5.345718 -8.896200 -13.830380 17.291573 1.029716 2.497814 0.019326 -0.006119 105766.000000 1 0 0
-8.348118 -19.224900 -0.541580 20.966191 1.161130 1.596630 0.027816 -0.002977 -134478.000000 1 0 0
-17.169018 -7.402300 5.669420 19.537440 0.407062 1.276379 0.065100 -0.025747 346665.000000 1 0 0
-3.477318 -14.689000 -4.311180 15.698559 1.338346 1.848994 0.001165 -0.002609 -2018220.000000 1 0 0
-3.064518 -14.811500 -10.904480 18.646166 1.366774 2.195443 0.012926 -0.004780 -416146.000000 1 0 0
-0.112718 -16.752000 6.273220 17.888418 1.564068 1.212493 0.029408 -0.011666 -404019.000000 1 0 0
-11.027318 -11.644600 3.905620 16.506130 0.812618 1.331915 0.024407 -0.006080 1208420.000000 1 0 0
-0.130818 -14.766700 -0.187080 14.768465 1.561938 1.583464 0.004958 -0.000822 832526.000000 1 0 0
-7.329718 -9.518800 -2.420880 12.255325 0.914602 1.769641 0.002112 -0.000148 -118511.000000 1 0 0
-10.989018 -14.321800 -0.881880 18.073467 0.916319 1.619610 0.011098 -0.006202 48434.100000 1 0 0
0.218982 -14.691500 -10.684280 18.167057 -1.555892 2.199520 0.005845 0.003830 79251.700000 1 0 0
-1.380618 -14.111800 -3.906580 14.707494 1.473272 1.839642 -0.000017 -0.001146 -2986290.000000 1 0 0
-11.300418 -8.088500 -7.582980 15.831136 0.621232 2.070302 0.016167 -0.004853 608267.000000 1 0 0
-0.211018 -17.370300 -0.211480 17.372869 1.558649 1.582970 0.013961 -0.009462 149991.000000 1 0 0
-12.799418 -9.474500 4.531820 16.556831 0.637218 1.293545 0.033157 -0.011656 4650.890000 1 0 0
4.035682 -16.731500 1.584220 17.284084 -1.334115 1.479010 0.018683 -0.011875 2432370.000000 1 0 0
-3.837218 -17.993800 -8.107280 20.105449 1.360691 1.985849 0.019922 -0.011633 -68071.200000 1 0 0
-13.188318 -11.224900 2.677420 17.524232 0.705147 1.417412 0.014051 -0.004484 915198.000000 1 0 0
-8.412518 -12.133700 4.211020 15.353496 0.964569 1.292965 0.016052 -0.006023 26519.700000 1 0 0
-8.300718 -9.350200 -5.821080 13.791778 0.844786 2.006523 0.010798 -0.003979 -805894.000000 1 0 0
3.868582 -17.384100 -5.133780 18.534524 -1.351829 1.851451 0.005491 -0.006985 -406399.000000 1 0 0
-2.503518 -13.027500 11.369020 17.471061 1.380939 0.862245 -0.003959 -0.005463 322563.000000 1 0 0
0.037582 -16.770200 -9.493680 19.270988 -1.568555 2.085918 0.014603 -0.004046 -38362.800000 1 0 0
-7.098918 -10.731600 -14.544180 19.418936 0.986381 2.417301 0.033589 0.000580 25344.100000 1 0 0
-4.537518 -18.824200 -1.577380 19.427499 1.334262 1.652079 0.024536 -0.017423 -1308950.000000 1 0 0
-2.640318 -17.473800 1.050620 17.703355 1.420829 1.511416 0.020919 -0.008750 130260.000000 1 0 0
4.024782 -14.582900 -7.409580 16.845229 -1.301507 2.026242 0.006798 -0.005139 -523004.000000 1 0 0
-0.973018 -15.905900 -6.183980 17.093450 1.509699 1.940967 0.002437 -0.002633 -51450.200000 1 0 0
-9.525318 -15.080000 8.472320 19.746349 1.007428 1.127347 0.042346 -0.019898 -627652.000000 1 0 0
-7.160118 -12.024700 -1.722080 14.100577 1.033728 1.693230 0.000502 0.000223 746369.000000 1 0 0
-7.436318 -15.017200 -9.276880 19.153998 1.111007 2.076395 0.027290 -0.011753 243680.000000 1 0 0
-5.022918 -13.199900 -0.561180 14.134426 1.207189 1.610510 -0.000315 0.000363 1369300.000000 1 0 0
-6.524018 -13.792600 -7.236780 16.886966 1.128974 2.013675 0.012304 -0.006983 651711.000000 1 0 0
5.884682 -15.301400 0.279320 16.396352 -1.203649 1.553760 0.012794 -0.000571 -324057.000000 1 0 0
-14.208318 -12.937200 1.011420 19.242412 0.738606 1.518210 0.002451 0.001145 836663.000000 1 0 0
0.818282 -15.270200 11.126120 18.911349 -1.517261 0.941804 0.019032 -0.009637 -160082.000000 1 0 0
-9.220218 -10.884600 1.990820 14.403135 0.867995 1.432131 0.004964 0.001526 324332.000000 1 0 0
-9.507418 -8.890200 -3.536180 13.488189 0.751862 1.836065 0.004810 -0.003143 -400842.000000 1 0 0
-12.223718 -7.084300 -12.202980 18.668672 0.525250 2.283208 0.036724 -0.009478 -666833.000000 1 0 0
-13.277518 -8.549500 -0.678180 15.806530 0.572081 1.613715 0.011846 -0.002542 1120720.000000 1 0 0
-11.128918 -9.785700 0.509420 14.828090 0.721262 1.536435 0.006451 0.000858 488511.000000 1 0 0
-15.640018 -12.042200 2.955420 19.958939 0.656154 1.422175 0.037176 -0.007016 -473573.000000 1 0 0
-10.325018 -12.434800 -2.396080 16.339261 0.877832 1.717973 0.014455 -0.003734 760413.000000 1 0 0
-3.369418 -8.944800 -12.106280 15.424800 1.210545 2.473264 0.004173 0.001286 -2298320.000000 1 0 0
-0.211518 -15.531300 3.857520 16.004577 1.557178 1.327373 0.015214 -0.006758 -717057.000000 1 0 0
-15.622318 -7.785700 1.188020 17.495295 0.462343 1.502839 -0.001231 -0.004618 714724.000000 1 0 0
-6.238518 -13.409700 -13.214380 19.833281 1.135354 2.299996 0.035808 -0.008108 -80654.400000 1 0 0
-15.193718 -10.346400 1.111720 18.415564 0.597837 1.510391 0.001623 -0.002382 1254660.000000 1 0 0
-10.056718 -8.412500 -12.538280 18.141560 0.696607 2.333856 0.022873 -0.001515 209835.000000 1 0 0
-13.171918 -11.649400 -6.310580 18.682382 0.724136 1.915356 0.014864 -0.005364 -350272.000000 1 0 0
-12.173818 -11.411700 -3.940580 17.145172 0.753096 1.802706 0.011857 -0.001726 -1329830.000000 1 0 0
-11.714218 -10.975900 -8.944080 18.376340 0.752870 2.079124 0.023282 -0.012861 605377.000000 1 0 0
-13.095618 -8.358200 -5.845980 16.599103 0.568066 1.930703 0.012713 -0.010124 -3592320.000000 1 0 0
-13.398318 -8.150300 -3.224180 16.010549 0.546506 1.773561 0.011356 -0.006357 215480.000000 1 0 0
-4.336818 -16.991400 -3.241180 17.833141 1.320896 1.753563 0.004965 -0.012340 43040.300000 1 0 0
-15.453718 -8.855300 -1.843680 17.906225 0.520345 1.673942 0.007413 -0.001608 -2194800.000000 1 0 0
-9.343418 -15.665300 3.843820 18.640709 1.032998 1.363101 0.019161 -0.002547 -695621.000000 1 0 0
4.796682 -16.822800 7.925120 19.204746 -1.293037 1.145419 0.048602 -0.034776 -90569.800000 1 0 0
-8.172218 -15.404300 6.181220 18.500948 1.083035 1.230143 0.018212 -0.002773 199238.000000 1 0 0
0.844282 -15.934200 8.530620 18.093729 -1.517860 1.079841 0.024300 -0.013560 449232.000000 1 0 0
-10.762518 -7.734300 -10.125380 16.678565 0.623122 2.223189 0.020231 -0.010645 897440.000000 1 0 0
-4.768818 -15.832900 5.745920 17.505369 1.278242 1.236359 0.007940 -0.010553 -1758600.000000 1 0 0
-1.422118 -13.243800 -12.017580 17.939980 1.463826 2.304839 0.009208 -0.000975 90405.800000 1 0 0
-6.357318 -14.459000 -2.490080 15.989956 1.156558 1.727161 0.005051 -0.003304 154844.000000 1 0 0
-17.829318 -6.944700 -7.058380 20.394465 0.371431 1.924200 0.056169 -0.021013 367356.000000 1 0 0
-17.168718 -4.209600 -10.261380 20.439705 0.240447 2.096743 0.056751 -0.016757 798166.000000 1 0 0
-15.206818 -5.296100 -8.821580 18.360727 0.335134 2.071975 0.025979 -0.024429 -224142.000000 1 0 0
-16.265818 -5.435300 -5.562280 18.029373 0.322490 1.884425 0.027337 -0.012060 656970.000000 1 0 0
-15.066018 -4.540500 -12.337880 19.995608 0.292716 2.235759 0.050030 -0.011879 31558.200000 1 0 0
-18.829918 -5.056800 -5.533580 20.267155 0.262361 1.847340 0.048096 -0.018241 -308763.000000 1 0 0
-17.475418 -4.456300 -7.709080 19.613230 0.249683 1.974748 0.042156 -0.021541 666627.000000 1 0 0
12.429282 -7.823800 8.768920 17.105345 -0.561804 1.032537 0.020941 -0.012901 418033.000000 1 0 0
16.093882 -3.302300 1.721820 16.519167 -0.202381 1.466375 0.024626 -0.009478 520055.000000 1 0 0
11.962582 -2.210900 12.479620 17.427919 -0.182756 0.772640 0.023149 -0.004140 -61820.100000 1 0 0
9.806482 -10.017800 5.243920 14.967368 -0.796057 1.212844 0.011994 -0.008334 409718.000000 1 0 0
16.903582 -1.881900 7.173820 18.459044 -0.110875 1.171647 0.053188 -0.018168 -60621.600000 1 0 0
5.208082 -12.701500 9.049720 16.442313 -1.181668 0.987962 0.010095 -0.006196 -79346.000000 1 0 0
15.125082 -8.969700 -2.075880 17.706860 -0.535282 1.688302 0.034719 -0.008101 247000.000000 1 0 0
11.104582 -8.404400 6.535120 15.383545 -0.647865 1.132042 0.015256 -0.012979 -2175780.000000 1 0 0
20.109082 -3.349100 3.792020 20.735743 -0.165032 1.386888 0.082077 -0.014489 -59648.000000 1 0 0
13.575082 -8.449000 6.631220 17.310157 -0.556721 1.177665 0.022303 -0.016006 -1696200.000000 1 0 0
8.382782 -10.954900 8.720620 16.319622 -0.917633 1.007041 0.010031 -0.009636 -214664.000000 1 0 0
16.751582 0.086100 -0.723180 16.767406 0.005140 1.613940 0.021736 0.001636 -1749310.000000 1 0 0
12.473482 -12.207000 2.227020 17.594267 -0.774601 1.443879 0.015387 -0.003952 -833721.000000 1 0 0
10.440782 -11.601100 3.591720 16.015489 -0.837991 1.344607 0.014705 -0.006824 -1253870.000000 1 0 0
16.404382 2.982800 2.339620 16.836706 0.179864 1.431386 0.018111 0.002294 -420320.000000 1 0 0
18.357382 -3.264500 0.327020 18.648254 -0.175991 1.553259 0.040160 -0.009296 1019340.000000 1 0 0
13.663382 -11.734700 -0.183480 18.011798 -0.709606 1.580983 0.043293 -0.000414 -229900.000000 1 0 0
17.054682 -7.537800 -0.994180 18.672680 -0.416163 1.624064 0.052587 -0.011213 517041.000000 1 0 0
10.196582 -5.681500 9.684320 15.166930 -0.508352 0.878229 0.012211 -0.008486 392930.000000 1 0 0
11.434382 -13.194600 6.022720 18.469318 -0.856746 1.238628 0.019655 -0.010340 278398.000000 1 0 0
13.124282 -1.582300 10.229820 16.715252 -0.119984 0.912203 0.028351 -0.003547 904933.000000 1 0 0
15.552382 -2.053800 -1.448980 15.754181 -0.131297 1.662901 0.013069 -0.002470 -307668.000000 1 0 0
10.652382 -12.204600 8.763020 18.417818 -0.853204 1.074934 0.020527 -0.022475 308494.000000 1 0 0
14.649482 1.188800 3.107320 15.022516 0.080972 1.362448 0.020448 -0.000921 1079420.000000 1 0 0
14.797182 -5.904200 5.227320 16.767261 -0.379651 1.253754 0.028472 -0.013390 -999023.000000 1 0 0
14.345982 -3.350300 -3.159380 15.066963 -0.229424 1.782053 0.014905 -0.002967 837363.000000 1 0 0
14.115982 0.701400 9.392220 16.969581 0.049648 0.984267 0.037847 -0.009833 -363288.000000 1 0 0
15.486282 -3.532300 4.359320 16.471361 -0.224256 1.302944 0.027583 -0.010242 -897532.000000 1 0 0
18.614482 4.878500 -4.177980 19.691476 0.256316 1.784593 0.032423 -0.008584 786295.000000 1 0 0
18.073582 -5.731200 -5.507480 19.744198 -0.307073 1.853488 0.061492 -0.012080 626392.000000 1 0 0
17.384982 0.021800 5.698120 18.294989 0.001254 1.254069 0.053767 -0.009976 585006.000000 1 0 0
16.978382 -6.360800 3.908120 18.547200 -0.358456 1.358493 0.039460 -0.021733 -317533.000000 1 0 0
9.625182 -6.487000 14.219420 18.355304 -0.593036 0.684593 0.012163 -0.009332 -1399750.000000 1 0 0
8.671182 -12.291300 5.074420 15.874986 -0.956407 1.245438 0.012857 -0.010887 -1858650.000000 1 0 0
17.011682 -10.118200 -0.706880 19.805933 -0.536572 1.606494 0.057991 -0.006168 348648.000000 1 0 0
15.152182 -8.756200 0.516620 17.507900 -0.523999 1.541284 0.045757 -0.010370 666268.000000 1 0 0
10.027882 -12.815800 1.493620 16.341176 -0.906841 1.479266 0.023031 -0.008650 -242249.000000 1 0 0
16.784182 -8.198500 8.740820 20.623435 -0.454378 1.133127 0.046674 -0.011622 477980.000000 1 0 0
18.951682 -0.276200 -1.981580 19.056998 -0.014573 1.674966 0.045985 -0.001454 -638470.000000 1 0 0
13.345382 -1.195400 7.679320 15.443450 -0.089336 1.050365 0.019710 -0.010668 -56881.200000 1 0 0
12.816782 -9.735700 -3.063980 16.384191 -0.649620 1.758912 0.030602 -0.007531 115971.000000 1 0 0
8.899182 -15.173200 1.440220 17.649240 -1.040358 1.489103 0.027619 -0.003117 -442389.000000 1 0 0
11.419982 -8.205400 11.117620 17.926127 -0.623043 0.901810 0.020690 -0.014605 539517.000000 1 0 0
13.929382 -4.059300 -0.690180 14.525217 -0.283567 1.618330 0.012648 -0.005191 -1253550.000000 1 0 0
7.175782 -13.153400 10.697020 18.410052 -1.071379 0.950787 0.019211 -0.004746 -736280.000000 1 0 0
15.505882 -6.630300 1.757420 16.955287 -0.404070 1.466960 0.031974 -0.008094 -423404.000000 1 0 0
15.797882 -6.091800 -2.725980 17.149754 -0.368039 1.730425 0.048790 -0.010832 870294.000000 1 0 0
11.308282 -8.546100 3.847220 14.687211 -0.647163 1.305761 0.015788 -0.010818 693312.000000 1 0 0
10.703382 -14.488900 -0.452680 18.019310 -0.934547 1.595921 0.040552 -0.007997 754950.000000 1 0 0
13.473882 -12.839100 4.556020 19.161036 -0.761279 1.330722 0.013218 -0.003890 118622.000000 1 0 0
12.863882 -10.992800 6.348820 18.072870 -0.707128 1.211848 0.011258 -0.011156 -26554.700000 1 0 0
10.866882 -10.457900 1.320820 15.139398 -0.766222 1.483441 0.012739 -0.004070 716258.000000 1 0 0
13.839582 -7.437300 11.901520 19.710242 -0.493113 0.922506 0.039981 -0.020644 -615939.000000 1 0 0
15.220082 -1.802900 -5.015880 16.126388 -0.117906 1.887079 0.020663 -0.003789 -444985.000000 1 0 0
12.937582 -11.651300 -7.149080 18.821349 -0.733134 1.960418 0.049015 -0.009037 222973.000000 1 0 0
17.781082 -5.248300 1.843620 18.630900 -0.287012 1.471679 0.051267 -0.013416 402137.000000 1 0 0
10.735382 -9.718500 9.117020 17.111917 -0.735723 1.008905 0.013223 -0.012813 -611085.000000 1 0 0
16.390282 1.963400 9.964220 19.281648 0.119222 1.027720 0.066421 -0.008463 306932.000000 1 0 0
18.266882 3.640700 0.580120 18.635187 0.196728 1.539661 0.025011 0.004221 685192.000000 1 0 0
13.269982 -4.032300 5.687620 14.990026 -0.295000 1.181619 0.025579 -0.013776 -306906.000000 1 0 0
12.005782 -6.093200 6.806020 15.086013 -0.469647 1.102745 0.019373 -0.011601 82910.600000 1 0 0
16.762682 -10.304700 3.563320 19.996789 -0.551188 1.391645 0.038058 -0.002437 -68520.000000 1 0 0
16.269682 -8.055000 -5.562580 18.987571 -0.459714 1.868117 0.059562 -0.012843 604615.000000 1 0 0
13.973582 -0.224100 5.289120 14.942757 -0.016036 1.208996 0.021684 -0.006358 219978.000000 1 0 0
18.264182 -4.220100 5.452820 19.522367 -0.227074 1.287719 0.056490 -0.010698 274047.000000 1 0 0
13.767282 -13.435200 7.124320 20.513376 -0.773191 1.216105 0.024046 -0.007662 255543.000000 1 0 0
15.019982 -13.743000 -1.259780 20.397474 -0.741031 1.632597 0.044919 0.002219 230675.000000 1 0 0
17.859882 -5.948600 8.062320 20.478335 -0.321514 1.166143 0.066283 -0.011743 -85963.100000 1 0 0
14.317082 3.361200 9.301720 17.401106 0.230593 1.006824 0.038588 -0.013678 -635241.000000 1 0 0
18.890682 3.781900 3.063220 19.507535 0.197587 1.413116 0.058209 0.003007 1478820.000000 1 0 0
14.719682 -10.472700 8.099220 19.797571 -0.618387 1.149327 0.015909 -0.017393 -103903.000000 1 0 0
14.958082 -4.729500 10.227320 18.727265 -0.306237 0.993072 0.046307 -0.017634 130256.000000 1 0 0
17.837082 -7.819700 1.947720 19.573012 -0.413162 1.471121 0.067548 -0.010587 -579676.000000 1 0 0
18.348682 -5.720600 -2.324880 19.359867 -0.302221 1.691174 0.045854 -0.014124 14409.000000 1 0 0
14.421282 -12.932900 -5.346480 20.095226 -0.731040 1.840097 0.062804 -0.016556 -33461.800000 1 0 0
15.516182 -1.418800 9.247620 18.118591 -0.091186 1.035153 0.057272 -0.016619 -872998.000000 1 0 0
13.077582 -9.885000 10.163820 19.288328 -0.647250 1.015798 0.020084 -0.023693 -2431580.000000 1 0 0
16.576182 2.218600 4.788520 17.396031 0.133052 1.291931 0.035069 -0.002521 -844223.000000 1 0 0
14.966682 2.439200 -0.124680 15.164656 0.161555 1.579018 0.007212 0.004522 -1191680.000000 1 0 0
15.045582 -9.971600 -6.948980 19.341424 -0.585293 1.938292 0.055341 -0.017146 1061630.000000 1 0 0
16.079782 -0.047400 -3.293880 16.413753 -0.002948 1.772846 0.017244 0.000993 -46547.000000 1 0 0
11.959682 2.652200 13.538120 18.257843 0.218230 0.735499 0.036197 -0.000841 -139572.000000 1 0 0
17.664682 -3.048300 9.394520 20.238333 -0.170882 1.088072 0.060651 -0.021402 -5243.050000 1 0 0
7.932582 -18.264700 4.517220 20.418874 -1.161065 1.347723 0.047986 -0.014067 -252502.000000 1 0 0
6.972382 -11.192200 6.516920 14.708830 -1.013660 1.111785 0.009907 -0.011417 -217732.000000 1 0 0
17.996982 2.216300 -1.577980 18.201466 0.122531 1.657601 0.026325 0.004450 233095.000000 1 0 0
17.680082 -2.386800 3.568620 18.193877 -0.134188 1.373372 0.037688 -0.008686 189851.000000 1 0 0
12.639282 -13.415400 -1.985880 18.538288 -0.815177 1.678125 0.042241 -0.002577 -678396.000000 1 0 0
15.276982 -8.252100 4.264420 17.879279 -0.495261 1.329963 0.028524 -0.007448 -613726.000000 1 0 0
11.808482 -2.845400 14.920920 19.239812 -0.236455 0.683253 0.038251 -0.010439 164402.000000 1 0 0
12.201682 -13.954100 -6.109180 19.517173 -0.852297 1.889163 0.050316 -0.022250 -347853.000000 1 0 0
10.628582 -11.973600 -1.314980 16.064340 -0.844836 1.652745 0.032821 -0.007437 -483253.000000 1 0 0
13.323582 -7.985100 2.109720 15.675796 -0.539920 1.435802 0.020298 -0.004209 583793.000000 1 0 0
8.742482 -7.771300 9.997520 15.387478 -0.726655 0.863583 0.006128 -0.004846 -652696.000000 1 0 0
15.573982 -3.667500 7.928220 17.856543 -0.231275 1.110744 0.049068 -0.019612 -1122370.000000 1 0 0
10.232082 -17.266600 5.311720 20.761631 -1.035840 1.312077 0.031919 -0.018510 -20822.800000 1 0 0
15.191982 -6.224400 8.185920 18.345265 -0.388854 1.108266 0.040219 -0.014442 108139.000000 1 0 0
16.554482 -4.947100 -0.477780 17.284471 -0.290390 1.598442 0.027654 -0.007386 -746229.000000 1 0 0
14.198282 -10.541100 3.411320 18.009528 -0.638633 1.380227 0.028872 -0.007022 -39115.800000 1 0 0
14.979982 -9.860600 -4.506580 18.491635 -0.582154 1.816985 0.054672 -0.017952 437564.000000 1 0 0
13.683082 -6.573900 -0.155280 15.181140 -0.447878 1.581025 0.021191 -0.006008 322110.000000 1 0 0
17.705982 -0.882400 -4.940780 18.403579 -0.049795 1.842599 0.038558 -0.009922 -380126.000000 1 0 0
14.335982 0.286200 -1.669980 14.435758 0.019961 1.686740 0.012514 0.000255 -1712290.000000 1 0 0
4.731882 -12.737100 11.730520 17.950753 -1.215094 0.858619 0.001262 -0.002794 409636.000000 1 0 0
11.805282 -7.547300 13.525320 19.474616 -0.568827 0.803057 0.019636 -0.012804 -513439.000000 1 0 0
11.990582 -5.690400 11.601620 17.628167 -0.443099 0.852464 0.019386 -0.009466 294121.000000 1 0 0
13.259182 -4.417900 8.305020 16.257217 -0.321627 1.034622 0.030035 -0.012285 -1666040.000000 1 0 0
15.464082 -1.151700 3.188420 15.831306 -0.074339 1.368010 0.022936 -0.003291 268694.000000 1 0 0
15.314182 -10.354500 5.749520 19.359670 -0.594531 1.269263 0.027571 -0.011931 18191.800000 1 0 0
13.676482 -7.963200 -5.768280 16.844339 -0.527270 1.920316 0.039492 -0.011319 -1586000.000000 1 0 0
9.682282 -2.127100 13.663820 16.881087 -0.216255 0.627640 0.013731 -0.001889 -1556390.000000 1 0 0
9.599482 -9.097400 13.637920 18.997515 -0.758551 0.770045 0.014942 -0.009407 34015.800000 1 0 0
20.278282 6.465400 -2.964780 21.489533 0.308645 1.709202 0.076342 -0.007392 1031990.000000 1 0 0
11.242582 -3.504900 10.456220 15.748413 -0.302204 0.844702 0.016900 -0.001648 1014760.000000 1 0 0
10.327382 -13.969000 -3.010580 17.630978 -0.934174 1.742392 0.035085 -0.006973 1566410.000000 1 0 0
14.930082 -12.855600 2.418020 19.849952 -0.710876 1.448678 0.026896 0.005526 -539172.000000 1 0 0
11.486482 -0.312100 14.232620 18.292188 -0.027164 0.679207 0.046468 -0.005359 165122.000000 1 0 0
19.095782 -1.843700 5.698220 20.012941 -0.096252 1.282075 0.080613 -0.010370 792121.000000 1 0 0
18.938782 -0.236900 7.846420 20.501216 -0.012508 1.178047 0.085804 -0.017833 550535.000000 1 0 0
18.928082 0.708200 0.417020 18.945916 0.037398 1.548783 0.048014 -0.003768 -193050.000000 1 0 0
18.595782 0.963100 3.626920 18.970641 0.051745 1.378426 0.049192 -0.003353 229434.000000 1 0 0
16.685682 -3.896500 -4.260680 17.656389 -0.229412 1.814513 0.040853 -0.009456 -545956.000000 1 0 0
10.648782 -8.145100 15.762920 20.693208 -0.652960 0.704796 0.026865 -0.015109 205496.000000 1 0 0
16.670382 -7.349400 6.291920 19.274428 -0.415232 1.238263 0.045362 -0.015561 769655.000000 1 0 0
18.835682 2.264400 5.931620 19.876985 0.119644 1.267763 0.062105 -0.002807 361986.000000 1 0 0
15.581882 1.843400 7.570020 17.421204 0.117757 1.121281 0.055518 -0.009599 404190.000000 1 0 0
8.729482 -15.770900 3.905020 18.443815 -1.065256 1.357457 0.021376 -0.012577 258866.000000 1 0 0
11.345482 -15.009200 1.982720 18.918965 -0.923529 1.465803 0.032274 -0.005732 3728.640000 1 0 0
7.949282 -16.264400 6.239020 19.148033 -1.116186 1.238906 0.022463 -0.011217 -59648.800000 1 0 0
14.640282 -11.595200 -2.547480 18.848771 -0.669848 1.706365 0.045543 -0.005008 877938.000000 1 0 0
13.677782 -4.798000 3.139120 14.830934 -0.337377 1.357523 0.018906 -0.006056 -1693430.000000 1 0 0
-1.080818 10.159500 -5.509980 11.607906 -1.464810 2.065391 -0.000026 0.002221 -667717.000000 1 0 0
8.340882 -1.701100 -8.112780 11.759305 -0.201188 2.332151 0.006368 -0.004549 -1445400.000000 1 0 0
2.920382 -10.123000 7.769020 13.090509 -1.289933 0.935414 0.000630 -0.007336 678448.000000 1 0 0
-6.217218 1.209500 8.281120 10.425624 -0.192140 0.652934 0.001969 -0.006288 -558732.000000 1 0 0
7.173182 -6.238700 -7.298780 11.985329 -0.715835 2.225566 0.007167 -0.004314 -5814.360000 1 0 0
-11.356118 -4.548900 -4.101380 12.902528 0.380996 1.894283 0.006433 -0.006896 292963.000000 1 0 0
2.095982 -3.328700 2.812320 4.835548 -1.008846 0.950111 -0.002367 0.001122 1202290.000000 1 0 0
-3.628718 -4.235300 8.922320 10.522032 0.862380 0.558661 -0.002150 -0.003524 -2070440.000000 1 0 0
-4.916218 -1.056800 -2.415480 5.578582 0.211740 2.018606 0.005233 -0.004279 -628628.000000 1 0 0
5.059882 -5.229700 -3.667380 8.148733 -0.801901 2.037624 0.002132 -0.001532 177992.000000 1 0 0
2.697182 14.287000 -8.808980 16.999744 1.384207 2.115522 0.019665 -0.007164 -437441.000000 1 0 0
5.531882 -5.504200 13.747820 15.808241 -0.782890 0.516280 0.000430 -0.005728 -1494430.000000 1 0 0
-4.754818 -0.858600 9.807520 10.933112 0.178650 0.457754 0.005894 -0.003572 -2183130.000000 1 0 0
-1.082318 11.741300 -2.729280 12.102831 -1.478876 1.798260 -0.000063 0.000351 701169.000000 1 0 0
3.159782 9.500000 -10.471580 14.487519 1.249698 2.378642 0.009989 0.002120 6445.140000 1 0 0
-10.695318 2.649600 1.245320 11.088780 -0.242845 1.458254 0.000966 -0.003639 139979.000000 1 0 0
5.548382 -8.906200 -0.662580 10.513988 -1.013651 1.633857 0.002714 -0.003454 707429.000000 1 0 0
-7.024618 5.329400 9.471620 12.940608 -0.649030 0.749646 0.006278 -0.004552 -74059.300000 1 0 0
-5.525118 -1.815000 5.105920 7.738965 0.317394 0.850287 0.003608 -0.007765 562853.000000 1 0 0
6.640682 -3.804400 -7.541180 10.744371 -0.520249 2.348819 0.006549 -0.002949 583334.000000 1 0 0
6.170682 4.943400 11.049820 13.587238 0.675418 0.621081 0.001081 0.001961 171950.000000 1 0 0
3.846382 -9.876400 3.402920 11.131837 -1.199416 1.260131 -0.002717 -0.002931 1450680.000000 1 0 0
-6.567018 6.673400 -5.787280 11.006935 -0.793433 2.124434 0.004184 -0.004415 -29421.500000 1 0 0
-11.107818 8.318300 5.248020 14.836423 -0.642777 1.209245 -0.006500 -0.002290 300325.000000 1 0 0
-9.141218 -5.549500 5.067020 11.833576 0.545613 1.128307 0.006628 -0.005654 -876796.000000 1 0 0
3.345782 9.842500 -8.014780 13.126529 1.243119 2.227588 0.004781 -0.000809 630054.000000 1 0 0
-8.013018 -8.603500 6.118420 13.253820 0.820919 1.090959 0.008073 -0.004724 -1484630.000000 1 0 0
-7.756618 -5.699000 -7.484180 12.192485 0.633655 2.231706 0.007582 -0.002977 288693.000000 1 0 0
9.272982 -1.375200 6.899220 11.639527 -0.147229 0.936339 0.011867 -0.005735 729971.000000 1 0 0
-4.110818 -0.422300 -4.855880 6.376264 0.102370 2.436507 0.008079 -0.007241 -1307100.000000 1 0 0
9.121682 1.183100 -4.593580 10.281332 0.128982 2.033969 -0.001866 0.000494 -3033830.000000 1 0 0
-2.042518 -10.602300 10.455920 15.030200 1.380479 0.801457 -0.006112 -0.005486 432885.000000 1 0 0
-12.793018 0.217500 -2.629680 13.062306 -0.017000 1.773500 0.008971 -0.003205 -649515.000000 1 0 0
-9.792518 -5.072400 -6.049480 12.578508 0.477934 2.072520 0.007980 -0.006285 -1591620.000000 1 0 0
-5.606018 8.240900 -0.193180 9.968811 -0.973437 1.590176 0.000303 -0.001032 333077.000000 1 0 0
6.290682 9.637300 0.411620 11.516061 0.992495 1.535046 0.005556 -0.005370 336722.000000 1 0 0
-0.545118 -12.192000 -0.088880 12.204504 1.526115 1.578079 0.005723 0.001659 47443.600000 1 0 0
6.168082 4.762300 2.347820 8.138611 0.657488 1.278158 -0.000935 -0.000316 233013.000000 1 0 0
3.529782 -7.493300 -8.285180 11.715508 -1.130569 2.356323 0.002532 -0.001938 936611.000000 1 0 0
-6.405518 -9.865400 4.642820 12.645654 0.994919 1.194856 0.002132 -0.001577 -2119040.000000 1 0 0
0.016682 6.613300 -9.293680 11.406512 1.568274 2.523128 0.008186 -0.000780 -3820150.000000 1 0 0
-17.319218 -2.872900 4.323020 18.080304 0.164383 1.329356 0.050646 -0.016507 310897.000000 1 0 0
-8.267418 0.806700 -9.264580 12.443208 -0.097268 2.410656 0.009428 -0.004095 559632.000000 1 0 0
-9.974318 -5.935700 -11.956480 16.663643 0.536808 2.371030 0.012990 -0.000317 -881158.000000 1 0 0
2.251082 9.459500 6.470320 11.679664 1.337171 0.983657 0.001823 0.001228 -721135.000000 1 0 0
-11.364818 1.658100 -1.182080 11.545809 -0.144875 1.673358 0.004754 -0.004372 -947349.000000 1 0 0
-6.051218 -5.299200 -3.061180 8.606369 0.719240 1.934446 0.008712 -0.004098 576158.000000 1 0 0
-6.816718 -8.224100 1.364420 10.768710 0.878697 1.443753 0.003718 -0.000902 268983.000000 1 0 0
-0.033818 11.067000 -7.753680 13.512927 -1.567741 2.181931 0.008359 0.000926 924391.000000 1 0 0
-3.026718 9.266900 -4.251380 10.635351 -1.255103 1.982030 0.004693 -0.002231 -507411.000000 1 0 0
3.419882 -4.768100 9.375420 11.060238 -0.948592 0.559221 -0.001853 0.000064 -699806.000000 1 0 0
-9.037118 1.549600 -0.388980 9.177258 -0.169819 1.613194 -0.000012 -0.003759 -1752160.000000 1 0 0
2.625182 3.605700 -10.349180 11.269347 0.941482 2.734682 0.003633 -0.003331 759260.000000 1 0 0
-13.699618 0.301800 1.047020 13.742885 -0.022026 1.494536 0.005690 -0.004266 -949603.000000 1 0 0
9.422782 -12.469700 -5.054680 16.426565 -0.923686 1.883586 0.029734 -0.009076 -1428400.000000 1 0 0
-4.674518 9.368400 -8.317280 13.371432 -1.107976 2.242115 0.008102 -0.002494 104902.000000 1 0 0
-2.388818 7.192900 8.423920 11.331667 -1.250149 0.732662 0.000211 -0.001649 -116476.000000 1 0 0
-10.695418 -1.370000 -4.419180 11.653241 0.127398 1.959753 0.005606 -0.004665 -1938100.000000 1 0 0
2.705482 -7.111600 9.754420 12.371063 -1.207272 0.662451 -0.005550 -0.001651 -2111300.000000 1 0 0
-16.187418 -6.529400 3.434420 17.789346 0.383402 1.376516 0.037680 -0.012540 945870.000000 1 0 0
-10.813618 -0.056100 6.194620 12.462375 0.005188 1.050582 0.000575 -0.007427 -1420260.000000 1 0 0
-8.424918 9.844100 9.385920 15.999407 -0.862925 0.943891 -0.000071 -0.004416 -1231120.000000 1 0 0
0.249182 -6.118600 -3.741680 7.176317 -1.530094 2.119279 -0.000197 0.001862 808391.000000 1 0 0
4.897982 1.531900 -2.949880 5.919353 0.303123 2.092485 -0.004187 0.001393 -691703.000000 1 0 0
0.264182 5.315800 3.806420 6.543420 1.521140 0.949958 -0.001857 0.000965 -1709150.000000 1 0 0
5.975182 -11.262700 -1.445080 12.831191 -1.083025 1.683658 0.001818 -0.002501 -1589310.000000 1 0 0
6.361282 -13.503500 5.289020 15.836166 -1.130548 1.230270 0.014357 -0.010145 -262574.000000 1 0 0
8.258682 -8.238800 -6.107180 13.167433 -0.784193 2.053087 0.009344 -0.004736 731732.000000 1 0 0
-13.179518 -1.344400 -4.691380 14.054044 0.101655 1.911139 0.010996 -0.002087 -3400650.000000 1 0 0
-6.734118 -1.581800 -7.080780 9.898883 0.230711 2.367865 0.008905 -0.002938 -1057680.000000 1 0 0
-5.682718 13.023500 -4.445880 14.888609 -1.159357 1.874032 0.006353 0.000806 833575.000000 1 0 0
-4.308618 6.801500 -6.799080 10.538125 -1.006122 2.272067 0.006858 -0.002161 -3998370.000000 1 0 0
-9.333418 -3.721600 -8.207880 12.974294 0.379419 2.255736 0.009069 -0.001972 845110.000000 1 0 0
-2.085018 -6.284900 9.150720 11.295262 1.250471 0.626409 -0.002745 -0.000301 -455980.000000 1 0 0
7.483982 -5.897000 9.902720 13.742214 -0.667350 0.766121 0.003559 -0.002929 593288.000000 1 0 0
9.600482 -4.899200 12.123820 16.222158 -0.471860 0.726714 0.009730 -0.003853 -90923.300000 1 0 0
-6.500218 2.773700 -8.970180 11.419737 -0.403317 2.474297 0.005277 -0.002808 409654.000000 1 0 0
7.419382 5.401600 8.747820 12.678677 0.629297 0.809358 -0.001638 0.001506 -884385.000000 1 0 0
12.626482 3.283400 11.099920 17.129418 0.254406 0.865836 0.029968 -0.003501 -1192230.000000 1 0 0
-7.470418 -7.316300 -3.832780 11.136678 0.774976 1.922139 0.007069 -0.006166 -1744270.000000 1 0 0
2.320482 1.389300 -5.770280 6.372670 0.539472 2.703289 0.000347 -0.001465 -6048.690000 1 0 0
12.793782 6.750100 -7.141680 16.132213 0.485489 2.029400 0.006803 -0.005654 78812.600000 1 0 0
0.775182 -7.849700 0.989420 7.949695 -1.472362 1.446013 -0.000915 0.000639 966673.000000 1 0 0
-10.330918 -5.916400 -8.567480 14.667426 0.520096 2.194587 0.012642 -0.006602 -200919.000000 1 0 0
-6.716218 0.189500 3.081820 7.391963 -0.028208 1.140748 0.004855 -0.007399 668135.000000 1 0 0
10.907582 -7.971000 1.237820 13.566296 -0.631084 1.479427 0.012092 -0.005536 -152303.000000 1 0 0
6.236482 0.994000 10.448220 12.208482 0.158055 0.543669 0.000636 0.000162 -1297460.000000 1 0 0
-12.994218 5.248800 1.902620 14.142828 -0.383893 1.435858 0.000350 0.001052 67578.100000 1 0 0
2.007282 7.390200 3.564720 8.446979 1.305581 1.135134 -0.001958 0.000431 -34482.100000 1 0 0
10.110882 -9.328700 -0.887880 13.785605 -0.745183 1.635247 0.011983 -0.006143 684978.000000 1 0 0
6.765382 -11.770300 -9.151380 16.372480 -1.049124 2.163914 0.002266 -0.002098 -429660.000000 1 0 0
10.217082 3.715400 11.802020 16.046203 0.348779 0.744389 0.015783 0.000542 -396973.000000 1 0 0
-11.025518 -3.067300 -1.957380 11.610414 0.271339 1.740194 0.000786 -0.003862 -834563.000000 1 0 0
12.428382 1.089600 6.838520 14.227342 0.087447 1.069389 0.017155 -0.006795 -184071.000000 1 0 0
-9.588318 8.885700 3.053320 13.424391 -0.747384 1.341343 -0.003287 -0.000296 922218.000000 1 0 0
-6.583918 7.607900 -8.796880 13.364626 -0.857426 2.289250 0.007576 -0.002359 -934331.000000 1 0 0
8.414782 5.628900 12.098020 15.775143 0.589568 0.696793 0.012364 0.003011 -1939450.000000 1 0 0
1.335882 4.837500 -2.692880 5.695401 1.301360 2.063281 -0.000731 -0.002102 581093.000000 1 0 0
1.168682 0.653600 9.539020 9.632544 0.509927 0.139463 -0.001096 -0.001219 691141.000000 1 0 0
2.540882 12.586500 -3.950080 13.434254 1.371600 1.869237 0.006951 -0.006308 453830.000000 1 0 0
2.085382 0.691200 13.014320 13.198450 0.320055 0.167233 -0.000212 -0.000639 -461362.000000 1 0 0
-12.172518 -1.862800 0.805520 12.340547 0.151855 1.505476 0.002060 -0.003413 297735.000000 1 0 0
3.244082 8.720600 -1.265180 9.390080 1.214657 1.705943 0.003641 -0.003742 -103341.000000 1 0 0
3.612282 -2.858800 -5.879580 7.469323 -0.669482 2.476993 -0.000608 -0.000209 -884725.000000 1 0 0
-7.773318 -7.145500 9.264320 14.046717 0.743341 0.850595 0.007990 -0.008760 128063.000000 1 0 0
-7.043718 10.866300 -3.520380 13.419520 -0.995676 1.836235 0.007251 -0.000422 198902.000000 1 0 0
0.484782 0.507300 2.547020 2.641908 0.808092 0.268825 -0.006203 0.000800 -2000960.000000 1 0 0
-7.097318 4.600600 -1.929680 8.675316 -0.575121 1.795106 0.005228 -0.004219 -974916.000000 1 0 0
-6.847718 -3.930500 -5.918680 9.867667 0.521073 2.214054 0.005720 -0.003808 104550.000000 1 0 0
3.042882 -6.097900 13.553620 15.170502 -1.107945 0.465896 -0.005373 -0.001346 -1022480.000000 1 0 0
-5.432918 -0.546300 -11.789680 12.992752 0.100217 2.707862 0.007293 -0.005425 -521186.000000 1 0 0
11.828882 2.424600 -0.617580 12.090597 0.202173 1.621898 0.004014 -0.001733 -1058670.000000 1 0 0
6.165082 -10.857800 10.731820 16.464265 -1.054388 0.860808 0.002777 -0.004253 734503.000000 1 0 0
-8.234918 6.417500 -10.509080 14.813472 -0.661993 2.359481 0.006092 -0.003020 274207.000000 1 0 0
2.714182 7.931700 11.058620 13.877021 1.241092 0.648648 0.003915 -0.002016 808572.000000 1 0 0
-6.071818 -10.021600 -0.478380 11.727246 1.026070 1.611600 0.004899 0.004903 -353558.000000 1 0 0
11.237882 4.190900 5.857320 13.347727 0.356951 1.116505 0.008007 -0.004495 159732.000000 1 0 0
-7.901618 10.504100 1.493020 13.228787 -0.925862 1.457694 -0.004277 0.000895 -41803.400000 1 0 0
4.270282 -2.792200 -3.568180 6.226042 -0.579090 2.181087 -0.002186 0.000537 -4654390.000000 1 0 0
6.374782 6.543400 6.207220 11.044614 0.798450 0.973978 -0.000394 0.001557 -5467860.000000 1 0 0
-0.220718 10.423400 -10.130380 14.536870 -1.549624 2.341827 0.004127 0.001878 -185646.000000 1 0 0
14.026482 6.500900 -2.502180 15.660932 0.434002 1.731256 0.015182 -0.000648 767705.000000 1 0 0
1.475682 9.543800 -6.255380 11.506152 1.417389 2.145582 0.002235 -0.001110 83045.800000 1 0 0
0.648082 7.422200 7.232620 10.383634 1.483701 0.800232 -0.001732 0.002086 211668.000000 1 0 0
12.303182 6.163200 1.839820 13.883020 0.464402 1.437882 0.010013 -0.000055 -1070610.000000 1 0 0
-6.834618 6.733800 -3.132480 10.092993 -0.777968 1.886370 0.002909 -0.004660 -491935.000000 1 0 0
0.985782 10.020000 11.011420 14.920574 1.472731 0.740691 0.005002 -0.003570 202887.000000 1 0 0
-3.699218 13.721100 -10.920180 17.922141 -1.307457 2.225989 0.006844 0.003504 381914.000000 1 0 0
-10.118918 -5.494700 -2.233080 11.729062 0.497463 1.762354 0.002415 -0.006381 -800617.000000 1 0 0
-4.074718 3.937200 -12.466580 13.693812 -0.768236 2.714999 0.007668 -0.005628 327443.000000 1 0 0
-3.301918 8.549000 2.545520 9.511453 -1.202213 1.299867 0.001724 0.001383 -2562990.000000 1 0 0
7.030882 9.023200 6.987820 13.404516 0.908867 1.022419 0.008418 0.001247 392218.000000 1 0 0
-1.404418 -2.185100 -8.167580 8.570672 0.999552 2.833681 0.004011 -0.005050 -903445.000000 1 0 0
0.939282 -1.397000 4.856720 5.140193 -0.978865 0.333655 -0.002242 0.000897 -672012.000000 1 0 0
2.740382 -8.911300 -6.081880 11.131497 -1.272457 2.148816 -0.001557 -0.000737 478011.000000 1 0 0
5.216782 3.979300 8.817220 10.990587 0.651635 0.639738 -0.001226 0.001245 -871113.000000 1 0 0
6.125282 -7.556100 -2.889680 10.147117 -0.889601 1.859572 0.002704 -0.003726 655254.000000 1 0 0
1.832682 2.216500 -8.235380 8.723135 0.879905 2.805604 0.003149 -0.002443 270197.000000 1 0 0
-5.362318 10.808500 -0.601380 12.080554 -1.110257 1.620598 -0.001709 0.001452 526684.000000 1 0 0
-5.353018 3.236200 -3.391080 7.115281 -0.543763 2.067569 0.004890 -0.003245 118636.000000 1 0 0
1.976682 13.749600 -6.382980 15.287289 1.428012 2.001527 0.006248 -0.000727 414218.000000 1 0 0
-5.307218 -2.583600 2.633020 6.463308 0.453039 1.151213 -0.000730 -0.005173 954887.000000 1 0 0
10.351082 -3.427200 -1.774380 11.047127 -0.319735 1.732114 0.005377 -0.000889 10174.000000 1 0 0
2.347382 -3.308900 7.047420 8.131737 -0.953780 0.522336 -0.007013 0.000993 -1469730.000000 1 0 0
-2.972018 9.908100 -11.585980 15.531847 -1.279378 2.412756 0.005878 0.004793 -2460270.000000 1 0 0
0.371982 -1.949100 9.277620 9.487444 -1.382216 0.210703 -0.001708 -0.000755 -67754.500000 1 0 0
9.328282 2.531600 4.955120 10.861816 0.265007 1.097080 0.005867 -0.001740 -1725970.000000 1 0 0
13.512482 2.046400 -5.087280 14.582707 0.150303 1.927148 0.014535 -0.003755 -1014840.000000 1 0 0
-6.401218 3.651300 7.726320 10.677247 -0.518376 0.761757 0.003660 -0.004944 -1097740.000000 1 0 0
10.661982 -0.011700 1.833420 10.818476 -0.001097 1.400503 0.009932 -0.000264 1680290.000000 1 0 0
15.321382 6.652700 -4.630980 17.333468 0.409646 1.841251 0.024787 -0.001043 335400.000000 1 0 0
8.143382 -5.008700 -9.359380 13.379079 -0.551422 2.345569 0.013324 -0.002847 358373.000000 1 0 0
4.452682 5.692600 -2.176280 7.547732 0.907011 1.863285 -0.002624 -0.002191 -123195.000000 1 0 0
-1.483618 -10.612500 1.488520 10.818594 1.431897 1.432769 -0.000942 0.002211 -719692.000000 1 0 0
-2.830118 12.286900 -12.728080 17.915957 -1.344409 2.360909 0.005659 0.003532 361217.000000 1 0 0
8.372982 4.155800 -9.658480 13.441121 0.460711 2.372550 0.000848 0.000265 -1897640.000000 1 0 0
4.159682 7.666700 -9.021180 12.548424 1.073679 2.373028 0.003284 0.001459 -4020710.000000 1 0 0
-1.709718 -4.994900 -2.480580 5.833133 1.241004 2.010042 0.004742 -0.000569 -559988.000000 1 0 0
-3.212418 -8.969500 7.313420 12.010732 1.226880 0.916114 -0.002415 0.000148 -3594190.000000 1 0 0
1.078082 7.199200 -1.417080 7.416121 1.422151 1.763060 0.002465 -0.004609 573266.000000 1 0 0
0.483082 -0.587900 -2.322180 2.443669 -0.882959 2.824945 0.000960 -0.000051 -1667270.000000 1 0 0
4.162782 -6.663600 7.609220 10.937666 -1.012409 0.801417 -0.001067 -0.001519 -515872.000000 1 0 0
-14.053118 3.677200 5.996120 15.715132 -0.255926 1.179323 0.002350 -0.000460 -1620540.000000 1 0 0
4.211682 6.514700 12.652920 14.841696 0.996893 0.549999 0.005719 -0.003393 -1323380.000000 1 0 0
8.239482 10.116400 -7.134080 14.870296 0.887296 2.071170 0.009063 -0.003364 566815.000000 1 0 0
12.458782 5.374800 9.555420 16.595655 0.407285 0.957240 0.034564 -0.007825 470505.000000 1 0 0
7.504582 4.151700 0.274020 8.580818 0.505314 1.538857 0.000584 -0.000445 -2417040.000000 1 0 0
-10.949518 -7.470900 -1.012780 13.294060 0.598750 1.647053 0.003345 -0.005848 -1047130.000000 1 0 0
10.458082 6.839400 0.185020 12.497323 0.579170 1.555991 0.002895 -0.002478 -503552.000000 1 0 0
14.600582 3.624100 4.048720 15.578935 0.243299 1.307894 0.021660 -0.006228 319645.000000 1 0 0
2.143482 5.695100 8.176320 10.192197 1.210822 0.639803 -0.003670 0.001194 -266265.000000 1 0 0
4.275282 0.260500 11.788120 12.542155 0.060856 0.348518 0.000996 0.000247 -1398950.000000 1 0 0
-1.415918 -1.629600 -0.620980 2.246339 0.855446 1.850885 0.004511 -0.003385 -422587.000000 1 0 0
3.104682 -5.231600 -9.562980 11.333988 -1.035209 2.575016 0.001938 -0.000789 215947.000000 1 0 0
-4.025018 -5.335000 -1.395180 6.827117 0.924450 1.776605 0.005730 -0.004003 130867.000000 1 0 0
-0.941418 -8.423600 8.374120 11.915082 1.459499 0.791447 -0.004806 0.001590 -491436.000000 1 0 0
3.926382 8.660100 -5.876580 11.178014 1.145129 2.124365 0.000973 -0.000960 -138162.000000 1 0 0
-14.137518 -1.794200 -2.567980 14.480439 0.126236 1.749081 0.006665 -0.007078 -492310.000000 1 0 0
8.867982 -10.504500 -6.614280 15.255633 -0.869675 2.019239 0.010629 -0.006992 360446.000000 1 0 0
14.922982 6.117600 1.482820 16.196270 0.389050 1.479115 0.008136 -0.001720 -1799020.000000 1 0 0
-5.701018 0.425300 -8.442680 10.196143 -0.074463 2.546376 0.010211 -0.005102 -1318930.000000 1 0 0
-7.957418 -4.585200 -13.098680 15.997500 0.522748 2.530106 0.011237 -0.003548 485784.000000 1 0 0
0.825182 -10.505100 12.081520 16.031256 -1.492407 0.717240 -0.003240 -0.001719 -329593.000000 1 0 0
0.131882 11.590600 3.298920 12.051650 1.559418 1.293525 0.004202 -0.001664 1005680.000000 1 0 0
5.116382 -13.143700 -3.660780 14.571737 -1.199578 1.824742 0.006228 -0.004564 631809.000000 1 0 0
-7.465518 1.507000 -6.979280 10.330313 -0.199185 2.312590 0.004425 -0.000527 735570.000000 1 0 0
1.410282 2.742700 4.137020 5.160061 1.095858 0.640598 -0.006347 0.002015 -1433030.000000 1 0 0
17.286282 5.486200 2.180820 18.266633 0.307318 1.451123 0.020518 -0.003415 -161646.000000 1 0 0
2.452982 -8.288400 -3.605480 9.365585 -1.283056 1.965973 -0.003730 0.000903 553973.000000 1 0 0
-0.317818 -9.541500 -0.577880 9.564266 1.537500 1.631254 0.004470 0.003116 -1027750.000000 1 0 0
0.768082 11.876800 -5.490780 13.107135 1.506216 2.003047 0.004657 -0.000911 -1493960.000000 1 0 0
6.088782 -4.989400 7.668520 10.989703 -0.686484 0.798487 0.002047 -0.001998 -814770.000000 1 0 0
-5.932718 -1.931500 -9.428880 11.306265 0.314745 2.557027 0.010375 -0.003539 -221991.000000 1 0 0
2.129082 -1.111400 11.104520 11.361274 -0.481100 0.213001 -0.004825 0.000328 -661408.000000 1 0 0
18.074382 2.317700 -5.925380 19.161554 0.127535 1.885182 0.038937 -0.004835 -666937.000000 1 0 0
-8.841518 4.685400 7.807320 12.691716 -0.487305 0.908219 0.004793 -0.009324 1863.350000 1 0 0
11.446382 -7.087300 -4.972580 14.351865 -0.554399 1.924608 0.017974 -0.008293 100920.000000 1 0 0
10.823682 0.563800 8.898720 14.023451 0.052042 0.883357 0.011648 -0.002299 13445.600000 1 0 0
-8.509218 -7.444000 -1.550180 11.411529 0.718726 1.707061 0.004275 -0.003625 -420793.000000 1 0 0
10.335782 -10.400600 -3.290380 15.027557 -0.788524 1.791541 0.025274 -0.007079 530869.000000 1 0 0
7.641382 -13.728500 -3.772080 16.158311 -1.062895 1.806416 0.021013 -0.008993 -1093850.000000 1 0 0
1.657282 -1.081000 -11.720680 11.886526 -0.577971 2.974351 0.009850 -0.005850 245140.000000 1 0 0
-11.831418 -2.699400 -6.344380 13.693808 0.224316 2.052515 0.011639 -0.006238 623097.000000 1 0 0
2.715682 -12.151200 -6.501080 14.046019 -1.350919 2.051994 -0.001534 0.001036 -198828.000000 1 0 0
-5.516518 1.434800 1.111120 5.807341 -0.254454 1.378279 0.005445 -0.005069 684382.000000 1 0 0
0.063782 6.825500 -3.919180 7.870927 1.561452 2.092008 0.004324 -0.004716 1021710.000000 1 0 0
5.560782 -11.775300 3.734820 13.547283 -1.129601 1.291491 0.002038 -0.006921 -2262790.000000 1 0 0
-4.272418 -9.323700 1.122820 10.317251 1.141118 1.461751 0.005091 0.002472 -1088700.000000 1 0 0
7.151082 -6.331900 -4.790580 10.685532 -0.724716 2.035686 0.007604 -0.004623 -791158.000000 1 0 0
-6.946218 -5.893200 2.328220 9.402147 0.703567 1.320567 0.006404 -0.005487 -211914.000000 1 0 0
-6.318718 -0.858200 6.992020 9.463142 0.134993 0.739406 0.003638 -0.008160 -1116240.000000 1 0 0
4.193582 -5.077700 3.142620 7.296933 -0.880472 1.125554 -0.002646 -0.000977 -280691.000000 1 0 0
-2.494818 10.625200 -8.791180 14.014416 -1.340172 2.248872 0.002450 0.001837 -1624810.000000 1 0 0
-2.260518 -4.862200 2.738320 6.020741 1.135607 1.098633 0.000380 -0.000279 703630.000000 1 0 0
15.080582 5.039400 6.237420 17.079956 0.322499 1.196960 0.036376 -0.019268 834586.000000 1 0 0
6.863482 0.345500 0.141820 6.873635 0.050296 1.550162 -0.000338 0.000001 4928470.000000 1 0 0
-9.727618 9.239300 0.401320 13.422082 -0.759658 1.540892 -0.005947 0.000673 -2230240.000000 1 0 0
7.117782 10.418000 -2.553380 12.873123 0.971421 1.770470 0.002646 -0.003767 -668625.000000 1 0 0
1.544082 -4.285500 -5.538180 7.170854 -1.224972 2.453279 0.002058 -0.000894 -1049440.000000 1 0 0
0.930982 -8.158500 -7.821380 11.340275 -1.457176 2.331870 -0.001101 0.001728 1135820.000000 1 0 0
-10.444118 0.145400 -10.476680 14.793971 -0.013921 2.357702 0.011601 -0.002920 -1513900.000000 1 0 0
5.709282 -2.498000 0.521220 6.253605 -0.412438 1.487352 -0.002298 0.001052 457608.000000 1 0 0
-3.348318 5.259800 -1.107580 6.332730 -1.003908 1.746598 0.004768 -0.006235 689014.000000 1 0 0
-0.376618 4.559100 -5.125480 6.870064 -1.488375 2.412922 0.005690 -0.003969 -427223.000000 1 0 0
3.999382 -9.632000 10.099620 14.518016 -1.177240 0.801457 -0.000706 -0.002916 -1441610.000000 1 0 0
7.350982 -13.421300 -0.840280 15.325609 -1.069713 1.625652 0.018027 -0.003800 512681.000000 1 0 0
12.983882 -0.077900 0.398620 12.990233 -0.006000 1.540105 0.008754 -0.002856 409521.000000 1 0 0
9.235482 2.394800 -0.623680 9.561285 0.253716 1.636072 0.002703 -0.000872 301096.000000 1 0 0
-0.783818 -5.810400 4.407620 7.335000 1.436707 0.926167 -0.004342 0.000090 1437620.000000 1 0 0
11.384582 -3.810800 3.260720 12.440385 -0.323010 1.305591 0.016049 -0.007923 -3877740.000000 1 0 0
1.681882 -8.041400 11.914120 14.472011 -1.364616 0.603679 -0.005943 -0.000656 192804.000000 1 0 0
9.447182 -5.895100 -6.009280 12.653573 -0.557884 2.065656 0.008867 -0.007930 -1284980.000000 1 0 0
3.215982 6.367700 -0.092080 7.134327 1.103120 1.583703 -0.002325 -0.000299 -1497000.000000 1 0 0
6.321282 -1.354700 11.362220 13.072637 -0.211114 0.517294 0.000522 0.000434 206664.000000 1 0 0
-4.935118 -7.571700 -3.718980 9.773272 0.993168 1.961161 0.006370 -0.003677 -248905.000000 1 0 0
-3.528318 -8.506900 -5.821580 10.895282 1.177631 2.134501 0.007798 0.000562 320762.000000 1 0 0
9.806282 5.287400 2.207420 11.357485 0.494502 1.375193 0.004850 -0.003070 12540.500000 1 0 0
8.832482 -1.428300 0.308920 8.952553 -0.160322 1.536283 0.003525 -0.000082 1493930.000000 1 0 0
-4.033618 9.532800 9.234020 13.871246 -1.170510 0.842371 -0.002041 -0.000109 -91289.900000 1 0 0
-14.362918 -3.662100 -6.092480 16.025689 0.249650 1.960776 0.017970 -0.009244 -435750.000000 1 0 0
10.591782 6.185700 -5.964080 13.638877 0.528579 2.023374 -0.002355 -0.003258 -896981.000000 1 0 0
-1.888818 4.432300 2.739520 5.542372 -1.167953 1.053782 0.003258 -0.002726 380937.000000 1 0 0
6.929182 -3.704600 2.627920 8.285142 -0.490972 1.248037 0.001629 -0.003535 -2108520.000000 1 0 0
8.298782 -11.046400 -1.654180 13.915065 -0.926486 1.689955 0.016944 -0.005280 -413316.000000 1 0 0
4.478582 0.514400 1.852320 4.873745 0.114357 1.180934 -0.002784 0.002184 765132.000000 1 0 0
-10.955618 2.257800 3.868320 11.835841 -0.203241 1.237848 0.002753 -0.006385 -126393.000000 1 0 0
-0.810018 -3.066900 4.418720 5.439402 1.312576 0.622619 -0.001648 -0.001020 227089.000000 1 0 0
8.729782 -8.773200 -8.640180 15.094067 -0.787879 2.180253 0.016330 -0.000812 -731926.000000 1 0 0
12.159382 -4.795700 0.973720 13.107152 -0.375672 1.496439 0.012362 -0.006070 237987.000000 1 0 0
2.860282 4.830800 3.525620 6.629316 1.036211 1.010045 -0.006813 0.000666 -658762.000000 1 0 0
6.048182 7.511200 1.964020 9.841544 0.892879 1.369883 0.000590 -0.001185 -120499.000000 1 0 0
-1.736518 -1.315300 -10.303480 10.531250 0.648243 2.933235 0.005307 -0.003495 927378.000000 1 0 0
-1.080018 -8.769300 5.842620 10.592604 1.448254 0.986545 -0.008855 -0.001097 -325304.000000 1 0 0
-4.192318 -0.241600 2.427220 4.850289 0.057566 1.046703 0.004889 -0.006023 278952.000000 1 0 0
-8.419018 6.158900 -8.017880 13.156684 -0.631586 2.226119 0.006774 -0.005299 -75916.600000 1 0 0
6.462482 11.226000 -9.351680 15.976253 1.048458 2.196106 0.018816 -0.006101 166907.000000 1 0 0
-11.127018 -5.786000 3.174720 12.937047 0.479516 1.322867 0.007162 -0.003263 824831.000000 1 0 0
1.554982 -6.458900 3.072820 7.319671 -1.334542 1.137568 -0.005139 0.001288 741433.000000 1 0 0
10.063082 2.162500 7.191220 12.556100 0.211675 0.960967 0.008398 -0.002471 -1055540.000000 1 0 0
-4.062718 -2.519200 -10.691380 11.711433 0.555052 2.721132 0.006558 -0.005790 -3229010.000000 1 0 0
-8.359518 11.785100 5.988320 15.640655 -0.953836 1.177897 -0.001593 -0.002371 -529599.000000 1 0 0
6.908182 6.001200 -2.935880 9.610243 0.715256 1.881254 -0.002179 -0.000947 -3881740.000000 1 0 0
3.821882 -9.919900 -2.320780 10.881049 -1.203049 1.785734 -0.003662 -0.002080 -1147590.000000 1 0 0
8.460582 -12.816400 -7.374480 17.035977 -0.987328 2.018478 0.018767 -0.008650 501916.000000 1 0 0
-1.186518 9.321900 3.806020 10.138611 -1.444194 1.185970 0.000508 -0.001574 101771.000000 1 0 0
0.453182 -13.167700 4.716020 13.994090 -1.536394 1.227067 0.003440 -0.001934 -1315920.000000 1 0 0
-11.013718 -7.021100 -5.101880 14.022376 0.567528 1.943182 0.011846 -0.008406 189653.000000 1 0 0
3.675382 10.319900 -3.334180 11.451005 1.228658 1.866245 0.007270 -0.004294 -646109.000000 1 0 0
11.680182 -8.145200 -7.451580 16.071620 -0.608947 2.052905 0.029944 -0.005745 209724.000000 1 0 0
11.617082 -4.720000 -5.987780 13.895629 -0.385924 2.016298 0.013412 -0.005662 372236.000000 1 0 0
1.271682 -10.397000 -2.719980 10.821880 -1.449088 1.824862 -0.001180 0.001080 -1162660.000000 1 0 0
2.453682 -12.054100 -4.019980 12.941489 -1.369984 1.886649 -0.000970 0.001127 -1048150.000000 1 0 0
-7.531118 -5.714700 7.112820 11.830796 0.649117 0.925779 0.006606 -0.005074 -2698040.000000 1 0 0
-7.304018 -0.920200 9.415720 11.952039 0.125325 0.663580 0.001906 -0.005801 247366.000000 1 0 0
16.264782 2.678600 -7.610780 18.156046 0.163222 2.003346 0.024668 -0.001261 17566.400000 1 0 0
-2.030218 6.324700 -5.449480 8.591883 -1.260188 2.257846 0.004072 -0.002578 -1493390.000000 1 0 0
7.570382 1.342100 8.326120 11.332969 0.175460 0.745600 0.007407 -0.001177 -910413.000000 1 0 0
7.854782 8.263000 -3.730680 11.995530 0.810720 1.887048 0.000125 0.001056 -978125.000000 1 0 0
7.909582 0.573000 3.924720 8.848346 0.072317 1.111236 -0.001557 -0.002581 277206.000000 1 0 0
-7.071918 5.761500 5.421320 10.611202 -0.683641 1.034559 0.004955 -0.008077 173761.000000 1 0 0
-6.021518 -2.044700 -4.570580 7.831327 0.327349 2.193986 0.007371 -0.004711 -1717150.000000 1 0 0
-15.197218 -2.240400 3.107220 15.672576 0.146367 1.371216 0.016898 -0.006767 -138078.000000 1 0 0
1.085582 1.341100 -10.475980 10.617118 0.890307 2.978357 0.008015 -0.005526 628833.000000 1 0 0
1.454782 -9.139400 9.577920 13.318467 -1.412944 0.768224 -0.005840 -0.002654 -941696.000000 1 0 0
-0.197118 -6.784500 -1.173680 6.888093 1.541750 1.742024 0.000621 0.002437 464840.000000 1 0 0
-0.327018 -10.245300 -8.400880 13.253222 1.538888 2.257349 0.002836 0.000831 -145878.000000 1 0 0
-4.402518 6.540600 3.808520 8.755937 -0.978349 1.120798 0.001885 -0.002398 -153004.000000 1 0 0
10.863082 -1.207200 -8.603280 13.909720 -0.110675 2.237640 0.017013 -0.005594 548753.000000 1 0 0
3.133782 -1.060100 6.231920 7.055581 -0.326197 0.488024 -0.006764 0.001709 492172.000000 1 0 0
1.996682 -12.346800 6.763720 14.218935 -1.410468 1.075055 0.000080 -0.005667 -58537.000000 1 0 0
2.977082 -4.909800 -1.371680 5.903445 -1.025717 1.805292 -0.000212 0.000687 -2337090.000000 1 0 0
-0.929318 9.393100 -1.591080 9.572121 -1.472181 1.737792 0.004111 -0.004242 -122003.000000 1 0 0
4.500382 -2.578000 2.580320 5.792890 -0.520210 1.109143 -0.002253 0.000697 -1724670.000000 1 0 0
17.573582 6.612200 -2.644380 18.961664 0.359873 1.710712 0.015263 -0.004708 594833.000000 1 0 0
-7.081718 3.462400 -5.398080 9.553964 -0.454745 2.171241 0.004379 -0.002682 623818.000000 1 0 0
-13.756918 -6.070500 2.387420 15.225096 0.415569 1.413338 0.007998 -0.003909 -597875.000000 1 0 0
6.693782 -6.042500 3.277520 9.594824 -0.734307 1.222186 0.002743 -0.006018 -410879.000000 1 0 0
-4.742618 2.063800 3.481320 6.234684 -0.410445 0.978365 0.007751 -0.005642 194173.000000 1 0 0
6.841582 -12.039800 -5.463080 14.886547 -1.054052 1.946558 0.013737 -0.005890 1058360.000000 1 0 0
2.994482 -12.316400 3.436120 13.132690 -1.332294 1.306069 0.002415 -0.006063 153800.000000 1 0 0
3.360782 11.368200 -6.053780 13.310863 1.283353 2.042944 0.004549 -0.001165 665527.000000 1 0 0
-5.398318 -8.352500 6.441720 11.849129 0.997018 0.996022 0.003759 -0.003619 -58052.500000 1 0 0
-4.039918 6.599300 6.391620 10.036160 -1.021474 0.880379 0.002522 -0.003513 267983.000000 1 0 0
4.291982 4.329100 -7.052580 9.322076 0.789704 2.428812 -0.002211 0.002111 -1902280.000000 1 0 0
-0.295918 -2.710800 1.591820 3.157514 1.462064 1.042414 0.001023 -0.000557 -316762.000000 1 0 0
-13.203518 -1.018600 6.484920 14.745326 0.076994 1.115426 0.010876 -0.007293 -122810.000000 1 0 0
-0.455418 -9.276800 -5.942980 11.026579 1.521744 2.140009 0.002642 0.001899 501798.000000 1 0 0
2.072382 -1.724000 -3.979580 4.806662 -0.693888 2.546203 0.002075 0.001284 -797078.000000 1 0 0
11.385982 -2.056800 1.091820 11.621664 -0.178716 1.476711 0.010179 -0.004161 1408940.000000 1 0 0
0.550582 -4.249100 -1.968480 4.715178 -1.441938 2.001464 0.002267 0.000289 -1182120.000000 1 0 0
1.078782 -7.454600 -11.232580 13.524263 -1.427080 2.550891 -0.003159 0.001955 874678.000000 1 0 0
-4.484318 4.165800 -9.996580 11.721545 -0.748592 2.592193 0.005844 -0.004277 335545.000000 1 0 0
-1.013318 5.656100 -2.147680 6.134396 -1.393522 1.928479 0.003675 -0.003733 -438108.000000 1 0 0
-11.335318 1.657700 -3.854280 12.086889 -0.145213 1.895345 0.007565 -0.001411 -136279.000000 1 0 0
-1.734118 -11.245900 4.188120 12.125089 1.417801 1.218121 0.002778 -0.000134 -376942.000000 1 0 0
-3.583818 -5.239300 -9.600880 11.509601 0.970872 2.557409 0.002817 0.002086 -1274760.000000 1 0 0
-12.812218 -3.877600 -8.354580 15.779345 0.293885 2.128764 0.019463 -0.004221 -142684.000000 1 0 0
11.283882 4.454400 0.370720 12.136931 0.375979 1.540247 0.007425 -0.001408 76792.000000 1 0 0
-8.817418 -2.356300 -2.979080 9.600726 0.261131 1.886302 0.006261 -0.004636 -377402.000000 1 0 0
-2.551518 -6.032700 -6.386780 9.148480 1.170665 2.343571 0.005142 -0.001751 -395604.000000 1 0 0
-0.062718 2.808100 -1.922080 3.403491 -1.548465 2.170912 0.002854 -0.003524 16677.700000 1 0 0
7.989582 5.975800 -5.176980 11.240317 0.642187 2.049436 -0.000935 -0.000103 -334651.000000 1 0 0
-9.733718 -0.940700 -1.030780 9.833245 0.096344 1.675815 0.000672 -0.003915 91781.200000 1 0 0
6.205782 0.557100 -8.900580 10.864733 0.089531 2.530842 0.003209 -0.000346 377195.000000 1 0 0
-4.081218 2.413000 7.906320 9.218937 -0.533957 0.540178 0.001294 -0.003351 -2362550.000000 1 0 0
-10.146418 -3.321000 1.509920 10.782333 0.316318 1.430298 0.001706 -0.004602 1323160.000000 1 0 0
-1.843018 -8.181600 -7.820480 11.467136 1.349231 2.321277 0.004381 -0.001490 -128960.000000 1 0 0
-9.284918 -9.762500 4.223820 14.119376 0.810466 1.266994 0.007020 -0.004120 -232878.000000 1 0 0
-1.089518 -10.717000 7.448720 13.096739 1.469482 0.965816 -0.001892 -0.003658 50065.500000 1 0 0
9.440182 3.771800 -3.795780 10.851334 0.380116 1.928152 -0.000753 -0.000996 -956095.000000 1 0 0
12.956282 -0.887200 2.969720 13.321846 -0.068370 1.345986 0.013910 -0.003761 -139100.000000 1 0 0
6.405282 11.941000 -6.789980 15.156482 1.078446 2.035314 0.004809 -0.001243 825582.000000 1 0 0
-11.895718 -0.160500 -6.506480 13.559799 0.013491 2.071264 0.010844 -0.000609 296074.000000 1 0 0
-7.587118 -6.634100 -11.536780 15.319039 0.718484 2.423559 0.011704 -0.003048 -1347530.000000 1 0 0
4.137982 6.056500 6.542920 9.829236 0.971414 0.842420 -0.002696 0.001752 -3259410.000000 1 0 0
-4.229618 -1.448600 -7.388080 8.635499 0.329968 2.597404 0.005749 -0.006157 -925962.000000 1 0 0
9.581482 9.243900 0.830720 13.339587 0.767468 1.508481 0.009043 -0.002001 -1227460.000000 1 0 0
-9.049218 3.840500 4.913020 10.989793 -0.401363 1.107328 0.003346 -0.007620 1254520.000000 1 0 0
-6.981018 7.843500 -12.224580 16.115070 -0.843512 2.431928 0.008463 -0.000961 -135601.000000 1 0 0
11.169282 -3.453900 7.262120 13.763018 -0.299905 1.014959 0.017881 -0.008384 522528.000000 1 0 0
11.888982 6.821700 6.416320 15.134485 0.520919 1.132990 0.017634 -0.007655 322329.000000 1 0 0
-10.143818 -0.525700 -14.677980 17.849832 0.051778 2.536244 0.026822 -0.011060 79270.500000 1 0 0
1.675482 -12.910000 12.141320 17.801320 -1.441736 0.820240 0.009393 -0.002072 240491.000000 1 0 0
2.912382 3.093100 13.050420 13.724529 0.815481 0.314721 -0.003839 -0.000445 -1274960.000000 1 0 0
-2.567018 -1.354900 10.998820 11.375384 0.485648 0.258022 0.006184 -0.002005 -222285.000000 1 0 0
2.580582 -10.117000 -8.320480 13.350786 -1.321048 2.243650 -0.004381 0.002098 -1036190.000000 1 0 0
13.918182 3.514200 -7.527980 16.209129 0.247321 2.053785 0.013536 -0.006489 -2989040.000000 1 0 0
7.306982 -1.594200 5.052620 9.025653 -0.214809 0.976644 0.001960 -0.002474 372361.000000 1 0 0
-1.286418 8.792500 10.083420 13.440174 -1.425518 0.722364 0.002182 -0.001751 123608.000000 1 0 0
-12.148318 -4.742800 0.983320 13.078330 0.372210 1.495538 0.001769 -0.004820 -67850.600000 1 0 0
-4.817118 4.837100 -5.221680 8.594656 -0.787468 2.223768 0.007341 -0.003405 3831.380000 1 0 0
-11.255318 0.338400 1.882420 11.416664 -0.030057 1.405156 0.001328 -0.005543 -1673500.000000 1 0 0
-1.372718 2.345500 -4.160780 4.969690 -1.041288 2.562997 0.004746 -0.006156 595899.000000 1 0 0
3.129582 -9.777500 13.138120 16.673451 -1.261021 0.663297 -0.003082 -0.000638 -1924890.000000 1 0 0
8.897082 4.664900 -1.574880 10.168559 0.482912 1.726300 -0.000094 -0.002985 -1506940.000000 1 0 0
4.053782 2.267400 3.854520 6.035857 0.509978 0.878114 -0.008206 0.004434 974102.000000 1 0 0
-5.415818 -3.233200 7.431920 9.747723 0.538205 0.703742 0.003393 -0.006414 129418.000000 1 0 0
1.819882 -5.850900 7.640320 9.793849 -1.269239 0.675948 -0.005241 -0.000663 -889322.000000 1 0 0
-5.903318 -6.201500 -9.766780 12.988371 0.810026 2.421832 0.006486 -0.002605 -186857.000000 1 0 0
-11.666918 -5.800600 5.569320 14.169731 0.461392 1.166857 0.011697 -0.008598 -1569770.000000 1 0 0
10.502282 6.217000 4.459620 12.993738 0.534492 1.220461 0.004249 -0.000960 -1131450.000000 1 0 0
1.464282 -3.719500 0.359520 4.013484 -1.195753 1.481098 0.003744 0.000765 -622774.000000 1 0 0
8.818382 4.415700 6.874720 12.021815 0.464238 0.962033 0.003439 0.000629 148111.000000 1 0 0
-7.955418 11.965000 3.515520 14.792186 -0.984024 1.330840 -0.003498 -0.003209 -342942.000000 1 0 0
-6.206118 13.121100 -6.959480 16.097004 -1.128991 2.017890 0.014465 -0.004769 637510.000000 1 0 0
4.419782 -6.902500 -1.121780 8.272688 -1.001259 1.706816 -0.001364 -0.002206 -1259400.000000 1 0 0
-1.819918 -8.224300 10.922920 13.793527 1.353020 0.656903 -0.006346 -0.002728 -205199.000000 1 0 0
11.533082 8.759700 -5.826580 15.610681 0.649571 1.953299 0.017428 -0.003193 236173.000000 1 0 0
-3.369318 -2.927200 -1.981780 4.883468 0.715297 1.988666 0.006632 -0.003468 -1079990.000000 1 0 0
-2.116718 6.029400 4.755820 7.965675 -1.233172 0.930991 0.001672 -0.000969 -686900.000000 1 0 0
0.300282 -11.600300 -5.717080 12.936079 -1.544916 2.028566 -0.001608 -0.002603 655471.000000 1 0 0
-8.883418 6.301200 -1.485180 10.992088 -0.616955 1.706324 0.003970 -0.003418 -499564.000000 1 0 0
2.894782 -0.031200 3.922220 4.874889 -0.010778 0.635835 -0.005941 0.002619 -794744.000000 1 0 0
-10.166518 3.965700 -1.064480 10.964396 -0.371921 1.668035 0.006063 -0.003757 82149.200000 1 0 0
6.380682 5.489300 13.637220 16.025582 0.710443 0.552975 0.010789 0.000994 -747824.000000 1 0 0
-8.817218 -1.553700 5.685020 10.605507 0.174421 1.005052 0.002107 -0.008641 -682112.000000 1 0 0
12.893982 -1.847400 -1.579580 13.121079 -0.142308 1.691474 0.009937 -0.002216 -2060830.000000 1 0 0
5.006682 -5.604000 5.446920 9.281197 -0.841633 0.943600 -0.000275 -0.003919 258032.000000 1 0 0
-9.059218 -1.295700 3.164720 9.683167 0.142062 1.237852 0.001642 -0.008312 571532.000000 1 0 0
1.882882 5.542800 5.610520 8.108379 1.243328 0.806622 -0.001862 -0.000563 -954773.000000 1 0 0
9.266682 3.129900 -7.376780 12.250900 0.325728 2.216978 0.001310 -0.002260 -771322.000000 1 0 0
2.306782 -2.378000 -1.516380 3.643561 -0.800599 2.000037 0.000286 0.001293 30294.500000 1 0 0
-6.297618 0.418500 -3.932180 7.436207 -0.066356 2.127969 0.001581 -0.002467 -2129040.000000 1 0 0
-4.056818 4.242000 5.014120 7.719698 -0.807709 0.863840 0.003468 -0.004835 45298.800000 1 0 0
-6.454818 1.785900 -12.451580 14.138457 -0.269925 2.648111 0.010801 -0.005981 -1506120.000000 1 0 0
-0.158918 3.098300 6.286320 7.010173 -1.519549 0.458444 -0.002619 -0.001614 1105640.000000 1 0 0
-8.842618 9.457800 -2.148080 13.124638 -0.819001 1.735204 0.000928 0.000396 366086.000000 1 0 0
-1.331818 -3.676300 -6.092480 7.239284 1.223231 2.571009 0.002734 -0.001781 218990.000000 1 0 0
-3.280818 6.975900 -2.960180 8.257700 -1.131184 1.937430 0.004294 -0.001297 728877.000000 1 0 0
7.022582 -0.347600 -4.285380 8.234195 -0.049457 2.118159 -0.000621 0.001146 -240128.000000 1 0 0
-4.978718 -10.877800 6.922920 13.821758 1.141561 1.046191 -0.002553 -0.003337 733585.000000 1 0 0
9.656082 8.393500 -1.500180 12.881820 0.715561 1.687518 0.003710 -0.000563 -543985.000000 1 0 0
13.621482 4.566700 -4.301080 14.996626 0.323481 1.861684 0.006136 -0.006764 488787.000000 1 0 0
4.725382 1.097700 -6.798080 8.351531 0.228250 2.521788 -0.002418 0.000837 666251.000000 1 0 0
8.965582 -4.751600 3.612520 10.770778 -0.487345 1.228766 0.008280 -0.006981 -91619.900000 1 0 0
-8.776518 -3.259600 -0.666980 9.386007 0.355611 1.641917 0.001805 -0.004382 104826.000000 1 0 0
-8.596918 -4.341400 -10.543780 14.280268 0.467636 2.401411 0.007656 -0.006523 -78885.100000 1 0 0
10.421382 -1.117400 10.695420 14.974838 -0.106814 0.775279 0.014881 0.001053 1677300.000000 1 0 0
2.209882 -11.473300 10.045220 15.408654 -1.380516 0.860682 0.001664 -0.005367 -122709.000000 1 0 0
-6.285618 -10.453100 2.034420 12.365887 1.029410 1.405526 0.001355 0.000412 -1024490.000000 1 0 0
-3.708818 -1.217900 6.718720 7.770445 0.317286 0.526342 0.004787 -0.003205 -2199900.000000 1 0 0
4.831382 -7.562600 3.905120 9.786988 -1.002298 1.160358 -0.003488 -0.002624 374360.000000 1 0 0
11.668082 -9.545000 -5.373980 16.004088 -0.685647 1.913238 0.033925 -0.007426 -40610.000000 1 0 0
11.273882 1.269000 11.453220 16.121011 0.112089 0.780655 0.012268 0.003944 349656.000000 1 0 0
-10.238218 -3.484100 4.378120 11.667390 0.328010 1.186136 0.006659 -0.004476 1043260.000000 1 0 0
2.041982 8.857600 8.975220 12.774245 1.344220 0.791748 0.000275 -0.000702 -130107.000000 1 0 0
6.558382 8.768200 4.052320 11.675401 0.928593 1.216339 0.005558 -0.000034 1119810.000000 1 0 0
-4.226918 3.537700 0.520820 5.536552 -0.696866 1.476588 0.007221 -0.004441 -658354.000000 1 0 0
4.792582 6.947500 4.205920 9.430077 0.966930 1.108493 0.000569 0.000335 -1582750.000000 1 0 0
-8.275418 13.010400 1.083720 15.457280 -1.004282 1.500628 -0.000869 -0.004003 -704455.000000 1 0 0
8.830582 8.211600 -9.112280 15.114337 0.749094 2.217915 0.002382 -0.003364 24910.100000 1 0 0
6.918782 1.999100 6.028620 9.392028 0.281278 0.873840 -0.003318 0.000438 153545.000000 1 0 0
11.562582 -6.219100 3.063920 13.481769 -0.493478 1.341529 0.015720 -0.006703 173806.000000 1 0 0
11.402982 4.626300 -2.236380 12.507279 0.385419 1.750569 0.004271 -0.002888 -107349.000000 1 0 0
-3.944118 14.300400 -6.032180 16.013891 -1.301682 1.957011 0.013445 0.001585 -471442.000000 1 0 0
7.319582 -2.922600 7.111020 10.615294 -0.379890 0.836743 0.004785 -0.004578 -926834.000000 1 0 0
-8.076318 -0.502100 0.950720 8.147570 0.062090 1.453842 0.002434 -0.006007 331374.000000 1 0 0
-3.242918 1.115700 10.620120 11.160119 -0.331357 0.312352 0.002526 -0.000131 23297.900000 1 0 0
7.058082 -1.261700 -1.870480 7.409933 -0.176891 1.825986 0.001365 0.000214 -1507240.000000 1 0 0
-7.814018 5.291800 3.073720 9.925209 -0.595272 1.255931 0.003504 -0.004287 888970.000000 1 0 0
9.447382 -2.278600 2.834120 10.123106 -0.236668 1.287038 0.005521 -0.003743 -1011040.000000 1 0 0
0.231882 3.409800 1.588520 3.768806 1.502896 1.135707 -0.001196 0.000301 -1547150.000000 1 0 0
-7.590918 -3.101900 4.057720 9.149258 0.387926 1.111293 0.003220 -0.005579 466887.000000 1 0 0
-2.328518 8.374200 -6.707880 10.979293 -1.299589 2.228066 0.003102 -0.002476 -409838.000000 1 0 0
4.464982 9.808900 7.418620 13.083826 1.143629 0.967929 0.005014 0.000728 1118860.000000 1 0 0
-11.808618 -3.143600 6.770120 13.969975 0.260178 1.064868 0.017064 -0.013135 -1298870.000000 1 0 0
-4.665018 2.309100 -5.649080 7.681565 -0.459625 2.397064 0.007623 -0.005108 -611535.000000 1 0 0
-2.749418 2.781700 -1.845180 4.324563 -0.791234 2.011609 0.005937 -0.003367 446468.000000 1 0 0
2.465482 5.227000 11.451820 12.827482 1.130059 0.467369 0.000492 -0.002385 603930.000000 1 0 0
-0.694918 1.592800 4.526820 4.848919 -1.159404 0.366540 -0.000487 -0.001539 -341722.000000 1 0 0
4.976582 1.565800 7.682020 9.286093 0.304827 0.596582 -0.007771 0.002644 -776145.000000 1 0 0
3.339182 -8.271300 1.915720 9.123296 -1.187098 1.359241 -0.001431 -0.001761 2156690.000000 1 0 0
5.088382 6.418500 -4.680680 9.433851 0.900481 2.089964 -0.001713 -0.000486 -1633810.000000 1 0 0
-4.093618 3.000200 -7.977680 9.455279 -0.632465 2.574987 0.008494 -0.009459 -905355.000000 1 0 0
-8.721518 -2.053600 -13.055780 15.834632 0.231251 2.540128 0.011476 -0.006295 342212.000000 1 0 0
-7.907118 8.030600 1.168820 11.330454 -0.793146 1.467455 0.001858 -0.003669 -1295410.000000 1 0 0
7.367982 0.905700 -6.549880 9.899918 0.122310 2.293760 -0.001387 0.000873 313731.000000 1 0 0
8.934982 8.891300 5.398420 13.712478 0.782948 1.166158 0.007924 -0.000337 188230.000000 1 0 0
9.440282 -1.105400 -1.359480 9.601511 -0.116563 1.712864 0.003933 -0.000454 1787280.000000 1 0 0
5.318182 0.039300 4.301920 6.840403 0.007390 0.890661 -0.006758 0.001647 -1736460.000000 1 0 0
-4.202018 -7.263700 -8.005180 11.597466 1.046339 2.332634 0.008915 -0.003612 -539958.000000 1 0 0
-2.173418 7.325100 -0.526580 7.658859 -1.282362 1.639605 0.002363 -0.003737 128975.000000 1 0 0
13.554082 -3.457600 -7.434780 15.841215 -0.249770 2.059330 0.020326 -0.005530 1379590.000000 1 0 0
-4.737318 -4.994000 1.605320 7.068187 0.811769 1.341678 0.005543 -0.002588 690790.000000 1 0 0
-8.936018 1.280200 2.582220 9.389313 -0.142295 1.292189 0.002941 -0.007512 988284.000000 1 0 0
-1.243218 11.215800 10.095420 15.141244 -1.460402 0.840957 0.002299 -0.004923 42890.700000 1 0 0
-8.549518 0.371300 7.478120 11.364612 -0.043402 0.852613 -0.001769 -0.007766 -513189.000000 1 0 0
-6.160918 12.823600 -1.964980 14.361851 -1.122922 1.708046 0.002426 0.002467 739065.000000 1 0 0
-13.031418 -0.872000 3.268220 13.463265 0.066816 1.325596 0.003957 -0.006188 685329.000000 1 0 0
-6.751218 12.830300 8.724720 16.920883 -1.086414 1.029067 0.004320 -0.002996 886018.000000 1 0 0
-8.021018 0.997700 -14.203580 16.342394 -0.123750 2.624226 0.009397 -0.004980 -829275.000000 1 0 0
7.256982 2.886500 3.676620 8.632103 0.378569 1.130813 -0.001050 0.000350 -300049.000000 1 0 0
-1.611818 0.664700 -2.020380 2.668655 -0.391143 2.429625 0.004551 -0.005164 94973.500000 1 0 0
-6.274918 9.555900 -10.357480 15.426186 -0.989758 2.306922 0.007148 0.000375 -369115.000000 1 0 0
-10.052818 13.594000 5.296120 17.717361 -0.934047 1.267233 -0.005975 -0.003551 232821.000000 1 0 0
-5.703718 8.277300 2.400420 10.334801 -0.967437 1.336390 -0.002185 -0.002147 -634019.000000 1 0 0
-2.478818 -10.771200 -1.234680 11.121498 1.344601 1.682043 0.004780 0.002800 661912.000000 1 0 0
-2.330818 -12.422200 8.833920 15.420179 1.385320 0.960780 -0.006820 -0.002208 592379.000000 1 0 0
-14.575218 -6.365500 -1.631580 15.988078 0.411768 1.673024 0.009905 -0.007736 492064.000000 1 0 0
-2.466918 -9.228600 3.239320 10.086919 1.309591 1.243863 0.000162 -0.000100 -1620150.000000 1 0 0
4.705882 -2.724100 7.455420 9.227639 -0.524739 0.630141 -0.003727 0.001222 -1162330.000000 1 0 0
-15.084218 -1.309200 -0.208480 15.142362 0.086576 1.584565 0.009046 -0.007966 222754.000000 1 0 0
5.509982 8.757700 -2.729280 10.700756 1.009212 1.828701 -0.000388 -0.002379 -1723840.000000 1 0 0
-5.580818 -5.684100 8.469520 11.627007 0.794566 0.754761 0.001585 -0.003709 -3197880.000000 1 0 0
3.370482 3.640400 7.032820 8.606579 0.823879 0.614356 -0.004897 0.001563 443071.000000 1 0 0
3.340982 2.332500 9.403320 10.248177 0.609482 0.408896 -0.001281 -0.001798 432461.000000 1 0 0
9.891582 -3.169000 5.217320 11.623527 -0.310042 1.105309 0.016794 -0.008673 -735605.000000 1 0 0
6.469482 10.026000 -5.018880 12.944652 0.997753 1.968951 0.002370 -0.000927 46384.300000 1 0 0
-4.558118 12.005700 -8.535280 15.419607 -1.207944 2.157398 0.007597 0.000539 123811.000000 1 0 0
-3.396318 -7.159800 2.070720 8.190580 1.127871 1.315205 0.001083 -0.000420 970325.000000 1 0 0
-7.432718 -4.021000 1.124820 8.525196 0.495897 1.438470 0.003992 -0.005235 1756050.000000 1 0 0
-1.949518 -3.955400 -10.906080 11.763860 1.112865 2.757352 0.004211 -0.001937 -627358.000000 1 0 0
-5.230418 8.222700 -4.432480 10.705931 -1.004258 1.997663 0.010005 -0.003311 -2358360.000000 1 0 0
-10.967118 -3.209100 -10.154980 15.287238 0.284664 2.297324 0.020892 -0.003163 -456630.000000 1 0 0
4.678582 -11.348000 -7.846980 14.568505 -1.179747 2.139602 0.002258 -0.000629 -2122900.000000 1 0 0
-9.328718 -3.985000 7.274320 12.482826 0.403712 0.948692 0.003784 -0.007243 -453787.000000 1 0 0
-5.783518 -9.644000 -5.100680 12.347986 1.030597 1.996628 0.006632 -0.002227 840345.000000 1 0 0
4.955482 4.469700 -9.599080 11.690909 0.733903 2.534083 -0.003165 0.002875 -238225.000000 1 0 0
-3.322818 -7.227000 -14.089080 16.179395 1.139841 2.627631 0.002789 -0.000056 -16916.900000 1 0 0
0.581082 -0.765700 -8.746480 8.799140 -0.921630 3.032133 0.005380 -0.006054 -295665.000000 1 0 0
-7.753618 2.259300 -2.794380 8.545852 -0.283536 1.903910 0.003998 -0.003913 -688851.000000 1 0 0
-2.317118 7.576900 -12.541480 14.834661 -1.274015 2.578142 0.006663 0.000275 -451200.000000 1 0 0
-9.814418 8.838800 7.614620 15.245643 -0.733143 1.047819 -0.004129 -0.004593 -274949.000000 1 0 0
-10.638518 -3.027300 -14.467680 18.211436 0.277232 2.488862 0.022445 -0.000764 -422925.000000 1 0 0
-3.276118 4.889800 8.009520 9.939593 -0.980496 0.633738 0.000523 -0.004591 -98364.100000 1 0 0
8.657482 -2.315600 -3.554680 9.641045 -0.261350 1.948409 0.004154 0.000164 -4879980.000000 1 0 0
1.888982 -8.490900 -1.158580 8.775303 -1.351890 1.703210 0.000388 0.001827 681065.000000 1 0 0
-13.626218 -2.966700 5.002420 14.815510 0.214375 1.226380 0.023944 -0.014657 365784.000000 1 0 0
7.001782 2.770100 -1.994380 7.789477 0.376732 1.829715 -0.001985 -0.000623 565937.000000 1 0 0
-11.157818 4.287800 8.729120 14.801340 -0.366887 0.940045 0.004257 -0.010090 -2860990.000000 1 0 0
-1.800418 -2.502100 7.890220 8.470984 0.947061 0.372444 -0.001158 -0.001172 -509879.000000 1 0 0
2.950882 12.012500 -9.962180 15.882471 1.329915 2.248805 0.010906 -0.004172 769042.000000 1 0 0
3.508682 -5.059700 -7.149680 9.435536 -0.964476 2.430639 0.001892 -0.001731 260628.000000 1 0 0
8.343382 -13.846700 -9.609780 18.806674 -1.028501 2.107117 0.019437 0.003049 14848.600000 1 0 0
-6.415318 -5.685000 -0.438380 8.582990 0.725116 1.621894 0.004010 -0.003928 -770090.000000 1 0 0
-1.159818 -4.014300 9.769120 10.625229 1.289534 0.404176 -0.002619 -0.000669 750198.000000 1 0 0
2.835082 3.143400 1.870020 4.627702 0.836924 1.154810 -0.007915 0.001782 -1041940.000000 1 0 0
-9.228918 13.373200 7.815320 18.030381 -0.966742 1.122476 0.005352 -0.008148 985426.000000 1 0 0
3.974882 -11.088400 0.031920 11.779360 -1.226594 1.568087 0.001049 -0.003677 251877.000000 1 0 0
-12.545618 -1.453500 -9.057180 15.541484 0.115343 2.192935 0.017856 -0.001940 335467.000000 1 0 0
-4.188318 1.061600 -13.648680 14.316266 -0.248239 2.835004 0.011489 -0.007166 1052100.000000 1 0 0
3.985682 -3.116800 4.884220 7.032475 -0.663668 0.803039 -0.005015 0.002571 170988.000000 1 0 0
1.789282 -1.220500 1.037820 2.401712 -0.598623 1.123958 -0.002604 0.001046 519113.000000 1 0 0
8.122482 -8.918800 7.337120 14.119243 -0.832093 1.024351 0.010157 -0.008679 -1093650.000000 1 0 0
0.019482 2.350900 -6.421380 6.838219 1.562510 2.790632 0.004418 -0.006119 -688407.000000 1 0 0
-3.701618 -9.676400 -3.411880 10.907595 1.205431 1.888934 0.008918 0.001768 550004.000000 1 0 0
-9.400818 2.208700 -5.425580 11.076582 -0.230762 2.082685 0.004638 0.000290 -445102.000000 1 0 0
8.967082 -7.702700 5.177820 12.905424 -0.709694 1.157956 0.010600 -0.009545 2119980.000000 1 0 0
-5.496718 -4.296200 4.619020 8.366994 0.663416 0.985973 0.002255 -0.005064 -1665670.000000 1 0 0
-0.132118 -12.333100 10.371520 16.114938 1.560084 0.871608 -0.000224 -0.005117 -746234.000000 1 0 0
-14.323618 -8.366400 3.174920 16.889133 0.528645 1.381685 0.026276 -0.009208 -1519890.000000 1 0 0
10.845882 -1.415000 -3.592880 11.512783 -0.129732 1.888175 0.008411 -0.000698 -955198.000000 1 0 0
-13.669018 2.842700 2.757920 14.231273 -0.205044 1.375769 -0.000116 -0.002622 -1842180.000000 1 0 0
-6.395118 6.039800 1.039920 8.857661 -0.756832 1.453122 0.002869 -0.003192 930489.000000 1 0 0
7.019182 -6.928200 -0.379180 9.869785 -0.778875 1.609224 0.004217 -0.004290 53999.000000 1 0 0
-6.933618 7.804000 10.072720 14.506452 -0.844388 0.803264 0.002710 -0.002480 232201.000000 1 0 0
-12.577918 -5.079600 -1.908780 13.698533 0.383821 1.710593 0.006740 -0.007553 -2089200.000000 1 0 0
-9.375418 -5.574100 0.249920 10.910157 0.536398 1.547887 0.003273 -0.004383 -1170260.000000 1 0 0
-1.794818 1.813000 2.205020 3.372010 -0.790438 0.858044 0.005051 -0.002063 231819.000000 1 0 0
-7.153618 7.276800 7.612720 12.731048 -0.793934 0.929837 0.001886 -0.005128 -382128.000000 1 0 0
5.586382 7.170400 -0.449580 9.100792 0.908937 1.620217 0.000076 -0.002567 -2305810.000000 1 0 0
0.021682 -3.998100 7.427020 8.434803 -1.565373 0.493836 -0.002906 0.000504 -1388370.000000 1 0 0
6.481382 0.708300 13.016120 14.557794 0.108850 0.464379 0.002239 0.000903 238740.000000 1 0 0
5.817982 6.176900 -7.925680 11.611176 0.815312 2.322098 -0.003200 0.002743 -689039.000000 1 0 0
9.960882 5.316000 9.026320 14.455223 0.490233 0.896391 0.008410 -0.006314 -1911090.000000 1 0 0
-1.187818 -5.018000 -8.445980 9.895748 1.338363 2.593454 0.005534 -0.001502 920768.000000 1 0 0
9.982582 -3.552800 -8.029980 13.294920 -0.341921 2.219293 0.015092 -0.007664 480341.000000 1 0 0
8.427082 -5.513900 1.217120 10.143973 -0.579397 1.450522 0.008887 -0.004973 1129290.000000 1 0 0
15.750682 3.243700 -5.043080 16.853433 0.203101 1.874684 0.023447 -0.002462 -929774.000000 1 0 0
-6.964618 3.555800 1.236120 7.916919 -0.472054 1.414018 0.004166 -0.004570 1519580.000000 1 0 0
-1.729618 3.805900 0.337820 4.194112 -1.144242 1.490163 0.005555 -0.004591 -220227.000000 1 0 0
-2.710718 10.008800 6.980720 12.500181 -1.306308 0.978281 -0.002306 0.002764 751524.000000 1 0 0
5.466682 -5.776000 -8.858180 11.904375 -0.812904 2.410000 0.005505 -0.003361 97013.000000 1 0 0
-1.218118 -0.819600 6.177020 6.349105 0.592265 0.233354 -0.000219 -0.002635 304700.000000 1 0 0
-5.679018 4.993400 -7.743780 10.823651 -0.721244 2.368064 0.005643 -0.003147 -261597.000000 1 0 0
6.703982 -1.270800 2.564920 7.289521 -0.187336 1.211235 -0.002833 0.002064 -820157.000000 1 0 0
8.779782 7.502600 3.212820 11.987317 0.707119 1.299461 0.005316 -0.001103 -39332.700000 1 0 0
-5.237018 -4.903600 -7.689080 10.516350 0.752531 2.390810 0.007873 -0.005254 763526.000000 1 0 0
-2.141518 7.867400 -10.061480 12.950501 -1.305034 2.460552 0.007758 -0.000164 602477.000000 1 0 0
-2.865818 -2.325100 1.562620 4.007591 0.681606 1.170257 0.002601 -0.000385 22278.200000 1 0 0
5.930282 -2.053800 -9.258280 11.184905 -0.333396 2.545878 0.005786 -0.002788 970900.000000 1 0 0
1.092482 -7.585900 5.286420 9.310512 -1.427765 0.966977 -0.005721 -0.000232 872901.000000 1 0 0
1.730482 12.034500 1.230720 12.220410 1.427982 1.469915 0.007276 -0.006806 641193.000000 1 0 0
-1.215918 6.995000 2.495620 7.525729 -1.398689 1.232785 0.000944 -0.000412 739749.000000 1 0 0
8.652782 7.857500 -6.550780 13.398644 0.737266 2.081640 0.001535 -0.002625 -49209.500000 1 0 0
3.778782 -10.979900 5.599420 12.891505 -1.239339 1.121480 0.006046 -0.005329 17308.400000 1 0 0
7.884282 -6.995900 12.294620 16.194511 -0.725767 0.708737 0.005584 -0.006373 195042.000000 1 0 0
-8.690818 0.027000 -3.927980 9.537300 -0.003107 1.995285 0.004107 -0.001880 -846647.000000 1 0 0
-3.170018 -5.050100 11.262320 12.743327 1.010248 0.486912 0.000849 -0.004145 1486120.000000 1 0 0
-8.192018 0.102400 -11.658280 14.249040 -0.012499 2.529035 0.010783 -0.005665 -1532320.000000 1 0 0
1.416982 -5.001900 5.331220 7.446391 -1.294741 0.772817 -0.006868 0.000959 -554670.000000 1 0 0
6.696782 3.697900 -7.749780 10.889465 0.504523 2.362679 -0.004317 0.002714 -791106.000000 1 0 0
16.350482 4.271900 -1.182180 16.940630 0.255558 1.640637 0.016665 0.004236 525904.000000 1 0 0
7.882382 7.399400 0.105620 10.811763 0.753804 1.561027 0.001926 -0.003741 -2565830.000000 1 0 0
5.448182 -10.378300 13.919620 18.197462 -1.087381 0.699878 -0.001037 0.000457 259434.000000 1 0 0
-5.255518 -9.194900 8.990720 13.892433 1.051544 0.866934 -0.001880 -0.006536 503078.000000 1 0 0
-12.607918 -3.247100 2.864720 13.330787 0.252067 1.354212 0.005636 -0.004443 -363824.000000 1 0 0
-2.062018 -1.207900 -5.882180 6.349093 0.529902 2.755692 0.005523 -0.007139 -1306790.000000 1 0 0
-2.500318 12.896000 -4.430580 13.863205 -1.379289 1.896096 0.006089 0.004839 201045.000000 1 0 0
3.994082 -0.509100 -5.019180 6.434597 -0.126780 2.465510 -0.000920 0.000721 -332673.000000 1 0 0
-8.808018 3.810900 -7.284580 12.048620 -0.408343 2.220058 0.008229 -0.002561 554675.000000 1 0 0
-4.531818 7.942600 -11.340780 14.568307 -1.052297 2.462998 0.007373 0.001816 -1241650.000000 1 0 0
-10.037618 -6.441900 7.426820 14.050249 0.570572 1.013858 0.007759 -0.006033 -420743.000000 1 0 0
8.085582 5.251600 4.116320 10.483321 0.576025 1.167281 0.000909 0.000016 -1073220.000000 1 0 0
-6.587918 -7.504800 4.112220 10.799678 0.850367 1.180165 0.009366 -0.004204 -731506.000000 1 0 0
-4.131618 11.820900 8.203320 14.969916 -1.234551 0.990840 -0.001147 -0.000788 188416.000000 1 0 0
-7.233718 9.919500 -7.871980 14.583937 -0.940713 2.140961 0.005860 -0.004294 1959460.000000 1 0 0
13.059682 5.533200 4.543020 14.893308 0.400757 1.260818 0.008767 -0.007311 372689.000000 1 0 0
5.340082 4.029800 -3.767180 7.677721 0.646459 2.083648 -0.003927 0.001378 521309.000000 1 0 0
-2.875218 -4.120400 5.029520 7.109194 0.961548 0.784889 0.000828 -0.002283 -1272090.000000 1 0 0
12.433582 -2.342800 -5.340280 13.733217 -0.186242 1.970189 0.011404 -0.005665 -1610520.000000 1 0 0
-5.387418 9.779800 7.103920 13.233837 -1.067284 1.004157 -0.002570 0.000633 -1024180.000000 1 0 0
1.811882 3.834700 -0.473380 4.267543 1.129393 1.681951 -0.005005 -0.000370 260418.000000 1 0 0
-0.135618 9.576900 7.770620 12.333610 -1.556636 0.889197 0.001445 0.001166 -571030.000000 1 0 0
-5.437718 2.159200 5.908420 8.315068 -0.377985 0.780491 0.005749 -0.006136 870799.000000 1 0 0
8.835482 0.908600 10.550420 13.791397 0.102475 0.699755 0.014991 0.002105 -1290400.000000 1 0 0
0.429782 -2.760800 -10.215480 10.590693 -1.416363 2.874611 0.003350 -0.002516 -1872110.000000 1 0 0
1.267182 10.586300 -2.732180 11.006376 1.451663 1.821655 0.004177 -0.003520 -728734.000000 1 0 0
2.320582 -4.294000 11.789320 12.759765 -1.075335 0.392528 -0.003131 0.000819 -21061.700000 1 0 0
6.483782 -3.105600 9.434520 11.861464 -0.446690 0.651141 0.002698 -0.001447 480141.000000 1 0 0
-10.567718 -8.181200 5.634020 14.503478 0.658791 1.171837 0.015816 -0.007749 -436840.000000 1 0 0
-3.008818 0.810900 -7.020780 7.681270 -0.263253 2.723865 0.008489 -0.006122 552332.000000 1 0 0
11.128582 2.688200 -5.000080 12.492900 0.237018 1.982568 0.002338 -0.004569 -3241780.000000 1 0 0
-2.017618 -4.092000 -0.026080 4.562448 1.112713 1.576513 0.002573 -0.001351 1412640.000000 1 0 0
-1.395518 -6.416000 -10.659480 12.519467 1.356626 2.589507 0.001666 0.000648 1116160.000000 1 0 0
0.266682 6.888200 -6.612980 9.552483 1.532100 2.335438 0.004970 -0.001645 -2357840.000000 1 0 0
2.093682 3.851400 -6.190180 7.585191 1.072868 2.525405 -0.000351 -0.000857 -1814650.000000 1 0 0
1.628382 -14.690700 6.387520 16.101823 -1.460403 1.162882 0.015651 -0.007695 175830.000000 1 0 0
-1.613918 5.383500 -10.529380 11.935437 -1.279532 2.651299 0.010270 -0.001994 -3867.150000 1 0 0
13.659182 4.309000 -0.799380 14.345025 0.305584 1.626550 0.007901 -0.000973 -791187.000000 1 0 0
-2.354118 3.355800 -6.333480 7.544285 -0.959059 2.567172 0.008771 -0.006674 -1235120.000000 1 0 0
5.752682 7.904200 14.245620 17.277367 0.941655 0.601434 0.013031 -0.002319 674639.000000 1 0 0
15.997082 0.723900 -5.891380 17.062796 0.045221 1.923330 0.025971 -0.003557 -151047.000000 1 0 0
6.103882 -8.141900 10.507520 14.627231 -0.927495 0.769364 -0.004688 -0.001166 579905.000000 1 0 0
-0.043318 -5.883100 -6.327080 8.639716 1.563433 2.392526 0.001347 -0.001857 -1036770.000000 1 0 0
8.575782 5.539000 -7.575080 12.712450 0.573480 2.209156 -0.000557 -0.000385 -529326.000000 1 0 0
-15.998218 -0.757000 5.209920 16.842188 0.047283 1.256300 0.026649 -0.016187 -145268.000000 1 0 0
-0.178318 4.061400 -12.246780 12.903891 -1.526919 2.821088 0.011771 -0.004048 767106.000000 1 0 0
-11.492218 3.670400 5.888220 13.424383 -0.309142 1.116732 0.003778 -0.007155 -1265350.000000 1 0 0
5.223682 -9.646900 -9.662280 14.618796 -1.074512 2.292879 -0.000954 0.002384 -39187.200000 1 0 0
1.491182 11.082000 -11.781280 16.242934 1.437041 2.382291 0.010015 0.000575 -4212850.000000 1 0 0
5.960282 2.413600 1.288820 6.558314 0.384764 1.372992 -0.001662 0.001304 -257597.000000 1 0 0
5.639782 4.629700 4.883020 8.779814 0.687356 0.981033 -0.004240 0.002133 201303.000000 1 0 0
0.407582 -1.579200 -6.349080 6.555213 -1.318215 2.890150 0.002785 -0.003420 1582230.000000 1 0 0
12.590882 6.803500 -4.554080 15.018574 0.495405 1.878877 0.007290 -0.004604 -485883.000000 1 0 0
7.352282 3.283700 12.631720 14.979956 0.420042 0.567511 0.005945 0.002333 -409632.000000 1 0 0
-2.417218 -0.137900 8.655520 8.987768 0.056987 0.272752 -0.002859 -0.001630 765178.000000 1 0 0
2.287982 -15.171000 13.314120 20.314032 -1.421112 0.856064 0.018141 -0.005983 1147370.000000 1 0 0
18.945182 4.560900 -1.634980 19.554919 0.236246 1.654504 0.030778 -0.001505 1272680.000000 1 0 0
-0.362518 -13.173500 7.287820 15.059377 1.543285 1.065646 -0.002184 -0.003595 -478940.000000 1 0 0
4.328882 1.482100 -0.491780 4.601922 0.329866 1.677865 -0.004178 0.000645 665088.000000 1 0 0
2.758582 -0.523700 -7.410180 7.924317 -0.187611 2.779391 0.000372 -0.001751 -311706.000000 1 0 0
7.321882 -11.239800 0.884120 13.443390 -0.993420 1.504983 0.008585 -0.005233 253825.000000 1 0 0
-11.881018 -7.454900 1.325820 14.088716 0.560369 1.476552 0.005560 -0.001825 115504.000000 1 0 0
0.191682 -6.854700 10.077820 12.189590 -1.542840 0.597479 -0.005430 -0.001847 -1355090.000000 1 0 0
-4.618718 -7.157800 10.575520 13.579701 0.997753 0.678087 -0.000319 -0.002251 -1003000.000000 1 0 0
11.777982 0.754800 -1.717680 11.926483 0.063998 1.715321 0.004137 -0.001914 655927.000000 1 0 0
6.589082 -9.643900 -7.509180 13.885554 -0.971409 2.142173 0.002509 -0.001843 -1485490.000000 1 0 0
-11.061718 4.781100 3.586220 12.573047 -0.407970 1.281549 -0.000144 -0.004463 -587763.000000 1 0 0
6.064982 -9.053800 2.071020 11.092539 -0.980571 1.382990 0.003630 -0.006591 1790950.000000 1 0 0
11.541982 -1.194700 5.783720 12.965187 -0.103142 1.108398 0.020280 -0.007603 637836.000000 1 0 0
-6.504218 3.624200 4.223920 8.560443 -0.508360 1.054775 0.003916 -0.006835 -2446320.000000 1 0 0
9.490282 6.271200 -3.176180 11.810229 0.583932 1.843083 0.001652 -0.002205 635432.000000 1 0 0
-2.355018 6.625200 10.938620 13.003568 -1.229262 0.571295 -0.000941 -0.004473 18982.600000 1 0 0
1.733682 9.807200 2.763220 10.335483 1.395828 1.300152 0.001982 -0.001472 -133399.000000 1 0 0
2.926082 6.153900 -5.616180 8.830284 1.126953 2.260118 -0.002517 0.000028 -1663770.000000 1 0 0
11.927482 0.034700 -5.540280 13.151453 0.002909 2.005639 0.012310 -0.004491 174488.000000 1 0 0
-2.665518 -12.499300 6.295420 14.246747 1.360690 1.113098 -0.003692 0.001753 391621.000000 1 0 0
10.806082 1.741600 -2.765880 11.289582 0.159794 1.818310 0.002595 -0.001723 264403.000000 1 0 0
-9.012118 5.274300 0.903320 10.481054 -0.529500 1.484503 0.003079 -0.003325 -41834.500000 1 0 0
1.191982 -10.118800 5.769720 11.708997 -1.453538 1.055538 -0.005324 -0.004126 -171549.000000 1 0 0
9.219582 -5.772200 -1.352680 10.961237 -0.559376 1.694518 0.010153 -0.005795 577826.000000 1 0 0
-7.795818 8.646700 -4.476380 12.473098 -0.837101 1.937867 0.004929 -0.004823 -433593.000000 1 0 0
-7.392818 0.015600 -1.551980 7.553982 -0.002110 1.777722 0.004657 -0.003214 -1582890.000000 1 0 0
4.073782 8.855600 2.678120 10.108891 1.139638 1.302668 0.004334 -0.003868 93366.500000 1 0 0
-1.329218 -10.505200 -3.823780 11.258212 1.444936 1.917334 0.004465 0.002448 -335753.000000 1 0 0
3.212182 7.805500 -3.600180 9.176341 1.180392 1.973963 0.001667 -0.005502 -749408.000000 1 0 0
-4.411818 1.739000 -11.105080 12.075225 -0.375469 2.738006 0.007784 -0.005384 -348272.000000 1 0 0
1.354282 2.865700 11.007220 11.454484 1.129322 0.280371 -0.001891 -0.001595 511895.000000 1 0 0
2.174782 5.662100 -8.013580 10.050200 1.204076 2.493697 0.001742 0.000203 244508.000000 1 0 0
15.506882 6.154500 3.957220 17.146453 0.377821 1.337907 0.018114 -0.007804 70796.800000 1 0 0
-4.567218 9.058300 4.698420 11.179778 -1.103792 1.137064 -0.000530 -0.000890 -327204.000000 1 0 0
-0.962918 -8.200400 -12.446580 14.936236 1.453908 2.555873 -0.000306 0.002264 -920945.000000 1 0 0
14.196782 -4.244800 -5.186380 15.699219 -0.290537 1.907480 0.022904 -0.005661 1975130.000000 1 0 0
-6.006318 -6.228800 -5.589480 10.301267 0.803580 2.144327 0.007512 -0.002764 428698.000000 1 0 0
-8.967118 2.540300 -12.219180 15.367846 -0.276057 2.489991 0.015941 -0.006107 40615.800000 1 0 0
10.461782 5.496500 13.717920 18.106400 0.483752 0.711125 0.023140 -0.000519 373897.000000 1 0 0
-0.536018 10.805400 5.644920 12.202832 -1.521230 1.089881 0.000700 0.002051 401663.000000 1 0 0
0.378082 11.128000 -0.536280 11.147328 1.536834 1.618923 0.005615 -0.003501 25196.400000 1 0 0
-1.391518 -0.628400 3.676220 3.980678 0.424178 0.393648 0.001698 -0.001357 248189.000000 1 0 0
-4.909418 6.686500 8.898520 12.165333 -0.937466 0.750328 0.000039 -0.003422 -2157650.000000 1 0 0
3.480582 -8.731200 -11.408880 14.782113 -1.191465 2.452468 -0.002491 0.003861 1532800.000000 1 0 0
6.758182 -3.734200 11.998020 14.267787 -0.504795 0.571821 0.007684 -0.002657 -765597.000000 1 0 0
-2.412218 -1.871800 -12.608480 12.972903 0.659913 2.904007 0.007023 -0.005702 1027350.000000 1 0 0
-16.084318 -5.032000 5.468620 17.718130 0.303205 1.257028 0.044709 -0.017234 555344.000000 1 0 0
-8.990118 7.281100 5.848720 12.963185 -0.680749 1.102710 -0.005304 -0.003791 -5612130.000000 1 0 0
-12.922418 1.405200 6.051420 14.338172 -0.108316 1.135091 0.001948 -0.007028 267213.000000 1 0 0
-3.615518 3.611500 10.169120 11.380945 -0.784842 0.465669 0.002041 -0.003135 531559.000000 1 0 0
2.074182 -12.271300 -1.200880 12.503166 -1.403352 1.666991 0.001315 0.001957 -2493990.000000 1 0 0
10.222782 -5.046600 -3.721780 11.992710 -0.458564 1.886344 0.013690 -0.003846 438568.000000 1 0 0
2.970982 -13.413800 1.063220 13.779957 -1.352828 1.493563 0.002074 -0.001841 419762.000000 1 0 0
10.032982 -1.683300 -6.154880 11.890196 -0.166228 2.114891 0.012785 -0.002636 168183.000000 1 0 0
11.899082 -5.473700 -1.601780 13.195273 -0.431147 1.692487 0.014042 -0.004249 1064510.000000 1 0 0
1.484882 0.966400 6.007120 6.262930 0.576956 0.286797 -0.004304 0.000450 354604.000000 1 0 0
-10.864918 11.707500 6.652020 17.302063 -0.822709 1.176169 -0.000270 -0.004303 51216.800000 1 0 0
4.844982 -14.015200 2.953620 15.120303 -1.237962 1.374191 0.011092 -0.008219 -3938430.000000 1 0 0
5.341082 -3.460000 -1.744680 6.598687 -0.574833 1.838376 -0.000037 0.000737 -1515410.000000 1 0 0
1.945282 -2.928100 -7.793080 8.549269 -0.984400 2.717833 0.002513 -0.002309 -431781.000000 1 0 0
-2.917518 14.855300 -8.805580 17.513712 -1.376869 2.097611 0.013429 -0.001962 -1663140.000000 1 0 0
-2.220918 6.151100 -8.068680 10.386150 -1.224302 2.460475 0.008951 -0.004396 -439287.000000 1 0 0
2.550882 -3.445000 -11.402880 12.181983 -0.933429 2.782013 0.004373 -0.000310 -1189230.000000 1 0 0
14.768882 2.725400 -2.771680 15.271866 0.182484 1.753297 0.021571 0.002704 583198.000000 1 0 0
-3.498318 13.137200 2.259920 13.781563 -1.310545 1.406071 -0.003512 0.000196 -1007020.000000 1 0 0
7.894382 -4.899700 13.938020 16.751021 -0.555470 0.587967 0.008998 -0.008793 -1946690.000000 1 0 0
-11.613518 7.190300 2.920920 13.968035 -0.554368 1.360127 -0.007691 0.002677 959605.000000 1 0 0
-2.449118 11.701100 4.073020 12.629466 -1.364468 1.242425 0.000673 0.000979 472748.000000 1 0 0
1.792482 1.497000 0.661920 2.427372 0.695812 1.294609 -0.006254 0.001765 -1683900.000000 1 0 0
-6.915818 8.503500 5.424120 12.229437 -0.888004 1.111263 -0.000651 -0.003133 -1888050.000000 1 0 0
-1.167518 9.093600 1.099720 9.233961 -1.443106 1.451418 0.002248 -0.001584 443625.000000 1 0 0
4.852882 12.989000 -8.439680 16.232461 1.213241 2.117561 0.015395 -0.012637 -1398360.000000 1 0 0
8.839682 6.941100 7.173420 13.333296 0.665664 1.002724 0.000527 -0.000149 -1473010.000000 1 0 0
7.287582 -13.730800 2.861220 15.806021 -1.082855 1.388772 0.018295 -0.009707 -51093.900000 1 0 0
4.190382 -13.460000 -1.160680 14.144896 -1.268986 1.652945 0.000909 0.004269 -3333000.000000 1 0 0
12.190182 -11.843100 -4.597280 17.606662 -0.770957 1.834969 0.035300 -0.008713 -867110.000000 1 0 0
3.071982 -0.064200 -2.081680 3.711413 -0.020896 2.166252 -0.001265 0.001755 845942.000000 1 0 0
-13.574918 -3.190600 -10.621480 17.529238 0.230846 2.221730 0.023718 -0.008620 219058.000000 1 0 0
-6.684118 13.622400 4.981720 15.970747 -1.114640 1.253575 0.001960 -0.007514 -60997.600000 1 0 0
7.297682 -4.327900 -0.572280 8.503786 -0.535295 1.638144 0.002672 0.001213 -1222460.000000 1 0 0
11.740282 2.014700 -7.268180 13.954199 0.169950 2.118654 0.013158 -0.004269 -781615.000000 1 0 0
-7.453718 -4.518500 9.628920 12.988104 0.544971 0.735695 0.008370 -0.006172 141673.000000 1 0 0
1.018682 3.050300 8.582820 9.165524 1.248481 0.358500 -0.004707 -0.000594 -1942400.000000 1 0 0
1.645982 8.125200 -8.776880 12.073183 1.370924 2.384700 0.003707 0.001054 -757782.000000 1 0 0
-8.560818 -2.175700 -5.578880 10.447257 0.248877 2.134126 0.007469 -0.003756 -215292.000000 1 0 0
6.539782 -0.398100 7.113120 9.670765 -0.060799 0.744350 -0.000180 -0.001325 1953150.000000 1 0 0
-10.786518 6.362700 7.139820 14.415615 -0.532942 1.052635 -0.002391 -0.006424 193172.000000 1 0 0
-6.059718 11.008300 4.948920 13.505357 -1.067594 1.195615 -0.007568 -0.000361 -620828.000000 1 0 0
6.097682 -1.225100 -6.926980 9.309439 -0.198273 2.409955 0.001333 0.000100 -366988.000000 1 0 0
4.528082 -5.687900 11.493720 13.600049 -0.898444 0.564000 -0.002751 -0.001756 -1262830.000000 1 0 0
-8.897418 -7.407300 2.664420 11.879869 0.694260 1.344592 0.007662 -0.002484 -1248030.000000 1 0 0
-1.280418 12.774900 -9.352680 15.884274 -1.470901 2.200371 0.014926 0.000141 794713.000000 1 0 0
-4.608418 9.239800 -2.304980 10.579431 -1.108143 1.790432 0.000425 -0.001546 485060.000000 1 0 0
-3.192818 9.596200 -0.253880 10.116600 -1.249601 1.595894 0.001782 -0.003689 -1818250.000000 1 0 0
-3.530218 10.698600 -6.394880 12.954419 -1.252076 2.087072 0.011131 0.001769 642339.000000 1 0 0
4.852482 -4.872100 0.330820 6.884285 -0.787416 1.522723 -0.000756 -0.000838 -2444120.000000 1 0 0
-2.251918 2.982000 -10.985880 11.604009 -0.923994 2.813726 0.010685 -0.003601 -95900.600000 1 0 0
-3.662718 11.945100 -2.266080 12.697875 -1.273269 1.750219 -0.000311 0.002952 -250731.000000 1 0 0
-0.150318 0.280200 0.060620 0.323701 -1.078401 1.382413 -0.002191 -0.000756 -2228840.000000 1 0 0
-4.805818 -1.606900 0.132920 5.069091 0.322679 1.544572 0.003720 -0.003776 148099.000000 1 0 0
2.561882 2.426900 -2.544580 4.350629 0.758348 2.195524 -0.006317 0.000462 1390490.000000 1 0 0
6.055282 -9.739400 8.418420 14.226459 -1.014552 0.937576 0.002499 -0.006011 -835252.000000 1 0 0
-4.092518 -5.447900 6.580920 9.472952 0.926521 0.802785 0.004460 -0.004272 25868.700000 1 0 0
-6.318918 5.355800 -12.134380 14.692056 -0.703088 2.542618 0.008099 -0.004243 -527549.000000 1 0 0
-13.083018 2.978900 7.962020 15.602339 -0.223875 1.035252 0.007346 -0.008226 633604.000000 1 0 0
4.737782 -7.503400 -4.964780 10.168413 -1.007595 2.080886 -0.000926 -0.003171 664180.000000 1 0 0
-5.987818 2.508000 -0.997180 6.567983 -0.396650 1.723210 0.005955 -0.004199 -608768.000000 1 0 0
-6.786818 -2.879000 -14.591680 16.348293 0.401197 2.673767 0.009994 -0.008695 -693466.000000 1 0 0
2.740082 -6.229000 0.889920 6.862977 -1.156381 1.440761 -0.003549 0.002063 144435.000000 1 0 0
4.929282 -7.878300 13.054420 16.024460 -1.011709 0.618661 -0.004564 -0.000628 30562.800000 1 0 0
-10.039418 -1.699400 7.993820 12.945232 0.167683 0.905222 0.007205 -0.007462 -526049.000000 1 0 0
-4.410418 13.145800 -0.008480 13.865926 -1.247097 1.571408 -0.004144 0.002980 721901.000000 1 0 0
6.844182 2.187200 -4.488480 8.471902 0.309313 2.129170 -0.003022 0.002323 -1684510.000000 1 0 0
5.053082 4.474300 -0.056080 6.749529 0.724723 1.579105 -0.004367 -0.000899 -1641860.000000 1 0 0
-5.867818 12.095900 1.985220 13.589819 -1.119133 1.424190 -0.003762 -0.000012 681841.000000 1 0 0
6.510182 -7.314500 6.533620 11.771685 -0.843513 0.982399 0.004233 -0.006103 -1256430.000000 1 0 0
-0.285218 5.046600 7.697420 9.208680 -1.514339 0.581049 -0.001627 -0.002437 -856037.000000 1 0 0
-5.824718 -3.378500 -1.543180 6.908184 0.525605 1.796082 0.003868 -0.005359 -877666.000000 1 0 0
2.274782 -6.635000 -5.330380 8.809700 -1.240509 2.220635 -0.000775 0.000827 -960199.000000 1 0 0
-14.489418 -4.940300 -3.813580 15.776350 0.328598 1.814942 0.012556 -0.013031 312709.000000 1 0 0
-12.394918 -5.233700 -6.237180 14.829971 0.399535 2.004880 0.014940 -0.012193 -463336.000000 1 0 0
-14.805918 -3.779500 -1.289280 15.334995 0.249932 1.654970 0.007766 -0.007802 464332.000000 1 0 0
11.878982 2.946900 8.629820 14.975587 0.243168 0.956652 0.019168 -0.007098 -1108280.000000 1 0 0
8.780882 -6.561100 7.562420 13.316986 -0.641709 0.966871 0.007680 -0.010351 68863.300000 1 0 0
-8.779518 -1.752200 -9.896680 13.345202 0.196990 2.406235 0.006015 -0.003312 -336130.000000 1 0 0
-8.731418 5.159400 -3.851380 10.848512 -0.533702 1.933726 0.004325 -0.003623 -724321.000000 1 0 0
-4.114918 -6.240300 4.049020 8.501086 0.987834 1.074361 0.002137 -0.002488 -1613510.000000 1 0 0
0.037582 -9.411100 3.556520 10.060768 -1.566803 1.209482 -0.004488 -0.000920 -378765.000000 1 0 0
8.015982 -10.399000 3.257720 13.528041 -0.914089 1.327594 0.011694 -0.008511 439177.000000 1 0 0
-0.015918 6.575000 9.658020 11.683673 -1.568375 0.597712 -0.002292 -0.003738 1383110.000000 1 0 0
0.040482 3.568100 -9.765080 10.396623 1.559451 2.791250 0.009621 -0.004351 -519139.000000 1 0 0
4.426582 -3.112700 11.063120 12.315687 -0.612859 0.454923 -0.000865 -0.001184 -1162220.000000 1 0 0
8.594782 -9.009900 1.267020 12.516146 -0.808974 1.469392 0.009736 -0.005770 -558078.000000 1 0 0
-0.240618 -0.335800 11.469020 11.476457 0.949048 0.036004 0.004644 0.000068 -1394430.000000 1 0 0
10.800382 6.197500 11.268020 16.793615 0.520949 0.835280 0.022439 -0.005387 467587.000000 1 0 0
-6.443018 -2.910800 -11.891280 13.834298 0.424330 2.605186 0.008920 -0.003866 654342.000000 1 0 0
-1.635318 2.905400 8.503220 9.133475 -1.058137 0.373667 0.002628 -0.005302 32912.200000 1 0 0
-1.672018 13.600000 -6.880780 15.332996 -1.448468 2.036170 0.013951 0.001261 272221.000000 1 0 0
7.539782 3.185500 9.786220 12.757971 0.399745 0.696539 0.002001 0.000958 7931.820000 1 0 0
6.447482 8.497000 -8.014680 13.341819 0.921690 2.215196 0.005824 -0.002073 1669070.000000 1 0 0
6.669282 -2.991900 -4.025780 8.344920 -0.421697 2.074215 0.003177 0.000030 -1560220.000000 1 0 0
2.041482 8.198500 0.933520 8.500265 1.326753 1.460752 0.001374 -0.001621 641521.000000 1 0 0
-17.704218 6.001300 6.255420 19.712565 -0.326820 1.247882 0.035760 -0.005777 -514710.000000 1 0 0
-14.608318 3.073400 -10.113280 18.031284 -0.207363 2.166238 0.025259 -0.002872 -1038230.000000 1 0 0
-18.329118 0.114000 -4.236680 18.812736 -0.006220 1.797947 0.023667 -0.003475 335279.000000 1 0 0
-12.959318 7.953600 0.248920 15.207421 -0.550458 1.554427 -0.002315 0.004895 -1007740.000000 1 0 0
-12.563118 -4.064500 -12.761880 18.363488 0.312898 2.339160 0.029781 -0.005018 -850305.000000 1 0 0
-17.339618 -0.742300 -8.541680 19.343569 0.042783 2.028152 0.031506 -0.012084 -457338.000000 1 0 0
-16.639918 -2.081600 -2.121880 16.903323 0.124450 1.696659 0.019244 -0.009060 -331956.000000 1 0 0
-15.405218 3.962300 1.748920 16.002478 -0.251748 1.461287 0.005491 0.000379 -333108.000000 1 0 0
-13.260018 5.753900 4.463420 15.128039 -0.409409 1.271296 -0.001945 -0.001167 -348835.000000 1 0 0
-9.944518 14.114800 2.840320 17.498241 -0.957026 1.407755 0.013263 -0.011129 -124780.000000 1 0 0
-11.872018 2.445600 -6.408980 13.711339 -0.203155 2.057169 0.011835 0.001151 314788.000000 1 0 0
-15.865318 10.628200 4.090520 19.529447 -0.590239 1.359780 0.027923 -0.006843 -1136860.000000 1 0 0
-12.743418 1.018200 -8.537880 15.372926 -0.079731 2.159621 0.013895 -0.002635 579141.000000 1 0 0
-12.223118 14.376300 3.964120 19.282035 -0.866170 1.363734 0.027557 -0.012916 160922.000000 1 0 0
-10.567518 11.151600 -1.054180 15.399413 -0.812284 1.639306 0.004028 -0.002335 318256.000000 1 0 0
-17.159718 5.635800 8.786220 20.085214 -0.317333 1.118039 0.033506 -0.009083 849072.000000 1 0 0
-11.707418 12.013900 -8.766880 18.927642 -0.798318 2.052375 0.012127 -0.028961 -319404.000000 1 0 0
-17.241618 -0.563400 3.032020 17.515250 0.032665 1.396812 0.029299 -0.007766 319951.000000 1 0 0
-12.960818 14.876300 -0.931780 19.752350 -0.854100 1.617987 0.035288 -0.014761 30004.100000 1 0 0
-16.448518 4.818700 -10.467680 20.083475 -0.284982 2.119063 0.035835 -0.003279 887186.000000 1 0 0
-11.836418 7.551700 -9.062280 16.710892 -0.567897 2.143966 0.006468 -0.000033 -170610.000000 1 0 0
-14.807518 13.556500 -2.026180 20.177876 -0.741321 1.671382 0.056075 -0.015216 293803.000000 1 0 0
-11.940518 10.521700 -5.407180 16.808324 -0.722317 1.898317 0.018718 -0.006462 512350.000000 1 0 0
-17.717218 2.830500 -0.735780 17.956974 -0.158421 1.611782 0.024758 -0.000975 -377929.000000 1 0 0
-9.365518 15.296900 0.677520 17.949014 -1.021419 1.533040 0.022451 -0.014726 72240.300000 1 0 0
-8.157118 13.197200 -3.448380 15.893269 -1.017178 1.789507 0.006312 -0.002096 -1301520.000000 1 0 0
-17.880518 11.639600 2.757320 21.512695 -0.577054 1.442271 0.096200 0.005089 -779958.000000 1 0 0
-8.129818 15.631300 -7.324980 19.081059 -1.091199 1.964799 0.042993 -0.017397 -218686.000000 1 0 0
-6.214518 15.341700 -5.553980 17.459516 -1.185924 1.894528 0.010957 -0.000030 927047.000000 1 0 0
-17.406018 5.270000 -0.150980 18.186950 -0.293995 1.579098 0.033352 0.003908 744197.000000 1 0 0
-5.448118 12.253200 -12.191580 18.123397 -1.152419 2.308646 -0.002247 0.000791 -940009.000000 1 0 0
-11.143718 3.689200 -11.363480 16.337727 -0.319700 2.339962 0.015302 -0.004810 123601.000000 1 0 0
-11.969418 10.945800 1.276920 16.269850 -0.740758 1.492232 0.005168 -0.002017 354143.000000 1 0 0
-13.030018 0.059200 -11.051580 17.085734 -0.004543 2.274218 0.025009 -0.006727 1960930.000000 1 0 0
-14.345018 -2.087700 -12.800880 19.339095 0.144520 2.294170 0.051978 -0.015192 136281.000000 1 0 0
-18.746518 -2.283300 -3.703080 19.244693 0.121202 1.764425 0.022734 -0.008229 1265680.000000 1 0 0
-18.375118 4.783700 -5.135980 19.669953 -0.254683 1.834966 0.041082 -0.000920 539952.000000 1 0 0
-8.387718 15.574800 -2.334680 17.843176 -1.076791 1.702017 0.022821 -0.006207 166800.000000 1 0 0
-16.186918 9.261700 -5.123180 19.340175 -0.519706 1.838895 0.030018 -0.002081 170887.000000 1 0 0
-18.273718 1.798600 2.144720 18.486848 -0.098109 1.454521 0.043062 -0.008181 -151343.000000 1 0 0
-15.712918 -2.785600 -8.624980 18.139616 0.175458 2.066303 0.020619 -0.011040 -31464.100000 1 0 0
-9.821918 10.311700 -7.170380 15.944140 -0.809720 2.037247 0.010749 -0.008807 45819.000000 1 0 0
-14.028418 11.814100 -7.592680 19.849893 -0.699922 1.963302 0.030118 -0.021691 -249913.000000 1 0 0
-11.047618 6.421800 -3.804780 13.332882 -0.526544 1.860187 0.002898 -0.001590 -955689.000000 1 0 0
-13.128718 4.855900 -12.581780 18.821376 -0.354264 2.302964 0.037493 -0.011464 -111446.000000 1 0 0
-17.553618 9.101600 2.813120 19.972037 -0.478340 1.429473 0.035415 -0.004192 828165.000000 1 0 0
-13.351718 8.486700 -6.423880 17.075090 -0.566204 1.956503 0.003648 -0.004748 -189371.000000 1 0 0
-15.892918 6.934500 -3.782680 17.747699 -0.411425 1.785580 0.015645 0.004465 -432543.000000 1 0 0
-14.930618 -0.346700 -9.200980 17.541425 0.023217 2.122958 0.022962 -0.011124 281244.000000 1 0 0
-10.000518 5.859200 -5.960280 13.033247 -0.529980 2.045768 0.004329 -0.000694 665775.000000 1 0 0
-12.933518 12.169800 -0.781180 17.776112 -0.754985 1.614756 0.025236 -0.011221 780769.000000 1 0 0
-10.667018 3.498600 -13.901980 17.868703 -0.316927 2.462284 0.020348 -0.006137 350543.000000 1 0 0
-11.005518 6.288500 -11.804480 17.320867 -0.519121 2.320631 0.009665 -0.006472 -724185.000000 1 0 0
-5.811318 11.577700 -14.719680 19.608252 -1.105597 2.419899 0.005675 -0.003076 -293751.000000 1 0 0
-15.556218 13.234000 3.517120 20.724498 -0.704912 1.400263 0.040128 -0.013814 149966.000000 1 0 0
-15.028318 11.119800 -3.077880 18.946600 -0.637021 1.733970 0.037969 -0.003670 766718.000000 1 0 0
-18.238118 7.865500 -4.425680 20.348997 -0.407167 1.790037 0.044495 -0.003345 -1378280.000000 1 0 0
-4.327118 16.315000 -10.534380 19.896641 -1.311542 2.128755 0.019677 -0.004308 -21124.200000 1 0 0
-15.864718 4.377100 -4.520980 17.067148 -0.269204 1.838890 0.013878 0.002781 -130793.000000 1 0 0
-18.735418 -1.776700 -6.224880 19.822253 0.094548 1.890236 0.035393 -0.012055 326417.000000 1 0 0
-10.829218 8.554700 -5.590280 14.889798 -0.668592 1.955672 0.004261 -0.002232 -1310630.000000 1 0 0
-11.327818 13.556400 -6.641380 18.873351 -0.874718 1.930388 0.024306 -0.008394 92955.300000 1 0 0
-9.445818 10.594000 -4.495880 14.888561 -0.842631 1.877553 -0.000848 -0.002255 266623.000000 1 0 0
-11.063418 6.279400 -0.218180 12.723116 -0.516242 1.587946 -0.000093 0.001276 -1110320.000000 1 0 0
-14.570218 9.265000 -1.303780 17.315638 -0.566389 1.646163 0.027302 -0.000207 -228801.000000 1 0 0
-18.753118 3.317000 4.880120 19.659540 -0.175067 1.319942 0.047909 -0.007655 611260.000000 1 0 0
-14.658318 13.608000 0.623320 20.010809 -0.748257 1.539642 0.028398 0.004579 282623.000000 1 0 0
-16.943618 2.570200 -9.161980 19.432808 -0.150544 2.061753 0.028181 -0.001254 275190.000000 1 0 0
-9.139518 8.414700 -8.849280 15.252794 -0.744131 2.189739 0.007061 0.000018 -1644940.000000 1 0 0
-17.642918 4.666200 -2.616080 18.436102 -0.258560 1.713177 0.019939 0.004180 729998.000000 1 0 0
-13.609518 5.830800 -4.421680 15.452135 -0.404777 1.861006 0.008363 0.003514 726343.000000 1 0 0
-12.188618 9.524200 3.257320 15.807686 -0.663297 1.363250 -0.008212 0.002706 742657.000000 1 0 0
-17.683818 2.525400 -3.950880 18.294932 -0.141849 1.788466 0.025097 0.000616 841167.000000 1 0 0
-11.356218 1.444200 -12.573080 17.003875 -0.126494 2.403011 0.022320 -0.002509 311066.000000 1 0 0
-11.176818 11.931000 3.604120 16.740959 -0.818024 1.353810 -0.000492 -0.004761 -295158.000000 1 0 0
-16.197018 13.100000 -4.124880 21.236008 -0.680078 1.766279 0.050814 -0.012806 -335487.000000 1 0 0
-11.046718 4.034900 -4.571980 12.617980 -0.350202 1.941572 0.004766 -0.000049 284547.000000 1 0 0
-11.360718 14.723300 -8.988880 20.655301 -0.913605 2.021040 0.036101 -0.017507 138878.000000 1 0 0
-15.388718 7.039300 -0.168280 16.923141 -0.429018 1.580740 0.017113 0.006271 593674.000000 1 0 0
-12.857218 8.304300 -3.956880 15.809059 -0.573478 1.823778 0.007595 -0.001775 766466.000000 1 0 0
-19.332018 1.924000 -5.827480 20.282708 -0.099197 1.862216 0.049539 -0.003741 156277.000000 1 0 0
-13.017618 9.854900 -8.840980 18.567185 -0.647994 2.067081 0.020553 -0.014752 746342.000000 1 0 0
-16.520418 10.918400 -0.939480 19.824689 -0.584002 1.618203 0.038614 -0.003718 124056.000000 1 0 0
-10.952518 6.694000 -14.405080 19.294394 -0.548602 2.413724 0.032225 -0.016456 -358371.000000 1 0 0
-13.610918 13.013700 -4.189580 19.291606 -0.762971 1.789712 0.035070 -0.010097 -403844.000000 1 0 0
-17.932918 7.813900 -0.203480 19.562413 -0.410923 1.581198 0.049917 0.000739 -409857.000000 1 0 0
-12.834918 6.640700 -2.041180 14.594535 -0.477465 1.711116 -0.000165 0.004968 188043.000000 1 0 0
-13.849118 8.190500 -10.680080 19.311822 -0.534079 2.156797 0.022891 -0.004231 569227.000000 1 0 0
-14.950818 1.325500 -0.911980 15.037142 -0.088426 1.631482 0.006369 -0.001845 -900133.000000 1 0 0
-13.439718 2.718900 -2.429180 13.925493 -0.199609 1.746135 0.006991 -0.001089 -117806.000000 1 0 0
-11.443818 9.341800 -10.823080 18.313090 -0.684612 2.203097 0.014255 -0.005127 -631480.000000 1 0 0
-15.388118 4.399900 -8.012480 17.898412 -0.278498 2.034948 0.018819 -0.002371 937410.000000 1 0 0
-18.162418 10.306700 5.032520 21.480870 -0.516160 1.334319 0.082415 -0.025495 -119086.000000 1 0 0
-15.467118 6.184200 -6.212780 17.778490 -0.380359 1.927786 0.019413 0.002029 600808.000000 1 0 0
-7.714618 11.274700 -12.869680 18.768667 -0.970725 2.326362 0.007433 0.001881 -1966670.000000 1 0 0
-16.774118 9.171100 -2.710880 19.308780 -0.500338 1.711658 0.036127 -0.001581 563121.000000 1 0 0
-20.701518 -1.036800 -4.627480 21.237735 0.050041 1.790448 0.051784 -0.014164 852033.000000 1 0 0
-15.512418 4.276300 4.179820 16.625064 -0.268988 1.316653 0.009381 -0.000167 92277.700000 1 0 0
-7.027918 12.484100 -9.374280 17.120792 -1.058065 2.150215 0.009308 -0.006745 -433777.000000 1 0 0
-17.213518 1.496200 5.920420 18.264589 -0.086702 1.240686 0.029678 -0.011023 264673.000000 1 0 0
-10.399318 14.119500 -3.144380 17.815533 -0.935977 1.748222 0.031181 -0.014675 -518910.000000 1 0 0
-10.131418 8.492000 -12.838680 18.428006 -0.697595 2.341575 0.002636 -0.006529 -82280.800000 1 0 0
-13.729918 11.578200 2.977020 18.205165 -0.700581 1.406533 0.022070 -0.007272 -1234000.000000 1 0 0
-16.873818 6.730600 1.918320 18.267640 -0.379539 1.465590 0.021835 0.003886 885500.000000 1 0 0
-9.410118 13.197400 -8.389880 18.251350 -0.951380 2.048437 0.023851 -0.012057 -1321970.000000 1 0 0
-5.581118 9.819900 -12.862680 17.118057 -1.053976 2.420993 0.000518 0.003598 -668880.000000 1 0 0
-15.969318 1.722000 3.187320 16.375085 -0.107417 1.374901 0.006753 -0.000433 -439224.000000 1 0 0
-18.643218 -5.025900 4.747220 19.883796 0.263323 1.329720 0.070280 -0.015436 215152.000000 1 0 0
-5.417618 14.440100 -9.002380 17.858049 -1.211869 2.099145 0.015172 -0.005020 -235581.000000 1 0 0
-15.479018 -0.939200 -6.685480 16.887207 0.060601 1.977833 0.020249 -0.005965 670756.000000 1 0 0
-9.040518 10.938500 -9.498480 17.076384 -0.880113 2.160645 0.005769 -0.007042 175203.000000 1 0 0
-16.706418 1.275800 -5.985880 17.792213 -0.076218 1.913922 0.006403 -0.000140 1026360.000000 1 0 0
-11.142618 8.610200 -1.505580 14.161930 -0.657888 1.677309 -0.001300 -0.000168 -982246.000000 1 0 0
-10.779118 10.966900 -12.906580 20.075908 -0.794033 2.269060 0.027883 0.000665 -121105.000000 1 0 0
-14.018918 11.788200 -10.240280 20.984639 -0.699174 2.080581 0.041005 -0.009983 257353.000000 1 0 0
-13.178918 5.810500 -7.635280 16.301635 -0.415255 2.058247 0.011221 0.002944 792507.000000 1 0 0
-8.854918 15.147400 -4.959880 18.233313 -1.041790 1.846291 0.023010 -0.015350 1189890.000000 1 0 0
-8.710518 6.262200 -13.051580 16.894734 -0.623314 2.453602 0.013381 -0.003894 721744.000000 1 0 0
-16.426918 7.437400 4.385120 18.557689 -0.425144 1.332244 0.027688 0.001911 734201.000000 1 0 0
-12.623318 5.309400 -10.093280 17.012119 -0.398140 2.205948 0.015546 -0.002022 272760.000000 1 0 0
-12.617818 9.162000 -13.258380 20.467932 -0.628039 2.275442 0.057648 -0.017346 -143134.000000 1 0 0
-10.769518 5.182800 -8.353080 14.581423 -0.448533 2.180784 0.008094 -0.002145 -592758.000000 1 0 0
-17.664118 -4.383400 -2.562180 18.379337 0.243239 1.710657 0.017342 -0.013004 95583.500000 1 0 0
-9.005818 13.125000 -10.980380 19.337506 -0.969421 2.174661 0.026019 -0.004623 230749.000000 1 0 0
-15.117018 5.982800 6.188520 17.395859 -0.376851 1.207083 0.014927 -0.006505 -3319.490000 1 0 0
-16.340518 -3.114300 -4.420980 17.212102 0.188329 1.830561 0.015544 -0.010425 233409.000000 1 0 0
-11.163718 -1.212000 -12.502180 16.804823 0.108142 2.409779 0.018396 -0.005571 445601.000000 1 0 0
-15.530718 6.945800 -8.551880 19.041586 -0.420548 2.036572 0.024380 0.003890 735988.000000 1 0 0
-14.946918 9.323500 1.194520 17.656865 -0.557717 1.503093 0.028249 -0.003197 -110369.000000 1 0 0
-19.663818 5.396700 7.908720 21.870939 -0.267853 1.200804 0.072083 -0.016247 577597.000000 1 0 0
-16.389218 0.507700 0.935520 16.423746 -0.030968 1.513804 0.017954 -0.001589 -636891.000000 1 0 0
-17.639918 3.677600 7.277520 19.433316 -0.205538 1.186953 0.031111 -0.001861 755589.000000 1 0 0
-15.413918 3.975400 -1.432280 15.982619 -0.252409 1.660532 0.008241 0.000560 151001.000000 1 0 0
-10.841018 13.177600 0.625120 17.075350 -0.882375 1.534179 0.017577 -0.013763 -642399.000000 1 0 0
-13.512018 3.264500 0.131020 13.901394 -0.237057 1.561371 0.005026 -0.001241 -742128.000000 1 0 0
-15.066718 0.183900 -4.243780 15.654057 -0.012205 1.845330 0.013274 -0.000492 -379638.000000 1 0 0
-18.940418 6.897300 3.563520 20.469755 -0.349231 1.395818 0.047534 0.001961 1399030.000000 1 0 0
-14.102018 1.273200 -6.317380 15.504749 -0.090041 1.990454 0.013259 -0.000167 -523108.000000 1 0 0
-14.144618 12.145800 5.475120 19.431099 -0.709516 1.285157 0.021095 -0.010205 96018.100000 1 0 0
17.710082 5.475800 6.332820 19.589180 0.299868 1.241601 0.055130 -0.017172 -17220.500000 1 0 0
18.441382 7.805900 -0.401980 20.029434 0.400414 1.590867 0.035918 0.001646 405578.000000 1 0 0
16.413482 5.261200 8.541020 19.236206 0.310194 1.110730 0.058078 -0.015948 164654.000000 1 0 0
11.776682 12.331800 10.936020 20.257345 0.808420 1.000532 0.047066 -0.017986 812691.000000 1 0 0
-2.292518 16.048300 -0.470480 16.218043 -1.428905 1.599810 0.003596 -0.006546 -59864.500000 1 0 0
15.048582 12.541800 3.348820 19.873881 0.694790 1.401485 0.046016 -0.006527 319101.000000 1 0 0
13.522882 11.699800 6.771120 19.120714 0.713244 1.208818 0.041827 -0.011015 832282.000000 1 0 0
-0.744518 16.007500 8.557220 18.166463 -1.524319 1.080321 0.008798 0.001767 436423.000000 1 0 0
0.639282 12.784700 9.483220 15.930747 1.520834 0.933185 0.003972 -0.003815 -720488.000000 1 0 0
0.707582 15.481200 -4.005280 16.006576 1.525122 1.823711 0.013597 -0.002414 -180407.000000 1 0 0
5.339582 10.352900 13.555420 17.872970 1.094623 0.709894 0.019031 -0.013882 -103297.000000 1 0 0
-1.346018 16.397800 -2.749780 16.681154 -1.488895 1.736396 0.010278 -0.001377 -384819.000000 1 0 0
8.499582 10.061300 3.239520 13.563448 0.869341 1.329623 0.009248 -0.001447 417173.000000 1 0 0
12.712382 13.517000 -4.787980 19.163473 0.816065 1.823321 0.059342 -0.019597 302770.000000 1 0 0
2.360682 11.666000 7.737520 14.196393 1.371137 0.994366 0.008510 -0.000507 348582.000000 1 0 0
-0.360418 15.026100 -8.754080 17.393893 -1.546815 2.098192 0.018006 0.000287 -720781.000000 1 0 0
2.335082 15.847600 0.190020 16.019836 1.424503 1.558935 0.017171 -0.012644 -559472.000000 1 0 0
1.791682 13.348900 5.363220 14.497151 1.437374 1.191841 0.012227 -0.001166 1020320.000000 1 0 0
17.415482 9.259600 -2.270480 19.854326 0.488675 1.685404 0.024607 0.000853 240329.000000 1 0 0
-7.243718 14.991900 7.282520 18.173156 -1.120699 1.158483 0.006934 -0.008500 -1163.200000 1 0 0
8.533282 15.917400 -0.028080 18.060490 1.078689 1.572351 0.010719 -0.016820 -723587.000000 1 0 0
15.579482 10.362000 2.121520 18.830617 0.586921 1.457893 0.031682 -0.001660 10722.100000 1 0 0
14.095682 7.434500 8.646920 18.130892 0.485351 1.073653 0.044539 -0.020167 -1383370.000000 1 0 0
4.222782 18.214900 -1.758480 18.780488 1.342989 1.664567 0.026903 -0.025595 -546397.000000 1 0 0
-0.464918 17.557200 -4.828780 18.215063 -1.544322 1.839102 0.024230 -0.003751 554943.000000 1 0 0
1.382682 13.598800 -0.766480 13.690386 1.469468 1.626812 0.009243 -0.008004 -362766.000000 1 0 0
10.322882 14.636100 4.289820 18.416836 0.956520 1.335708 0.029162 -0.017576 1500560.000000 1 0 0
-1.748318 15.333100 -5.166980 16.274466 -1.457264 1.893878 0.013417 -0.000385 118302.000000 1 0 0
15.101282 8.704000 -6.200280 18.500049 0.522867 1.912560 0.043895 -0.010405 546928.000000 1 0 0
-2.485418 18.302000 0.919020 18.492839 -1.435822 1.521080 0.014228 -0.013693 -1373410.000000 1 0 0
-3.761118 19.309100 3.281920 19.943880 -1.378420 1.405487 0.010335 -0.019100 -421374.000000 1 0 0
1.869482 17.590100 -2.695680 17.893386 1.464913 1.722024 0.018722 -0.010428 213508.000000 1 0 0
2.815282 12.098200 3.345420 12.864062 1.342163 1.307713 0.008827 -0.003173 -423726.000000 1 0 0
-2.594918 15.967100 1.948120 16.293466 -1.409688 1.450945 0.002302 -0.008884 -1412520.000000 1 0 0
11.767682 12.841000 -2.630880 17.615083 0.828986 1.720711 0.026512 0.000419 484419.000000 1 0 0
7.266482 11.624100 4.735220 14.503233 1.012109 1.238204 0.009066 -0.002667 -110874.000000 1 0 0
7.134382 15.659400 2.045020 17.329117 1.143297 1.452510 0.011026 -0.016772 -243579.000000 1 0 0
5.456682 12.294000 10.341520 16.966580 1.153069 0.915338 0.015084 -0.000840 -551549.000000 1 0 0
-1.390218 14.053100 3.345420 14.512552 -1.472191 1.338185 0.002828 -0.001000 -412379.000000 1 0 0
4.599982 15.963900 1.641620 16.694336 1.290247 1.472303 0.010946 -0.019286 -542726.000000 1 0 0
7.293682 13.140400 11.867920 19.149815 1.064078 0.902384 0.029774 -0.015088 441120.000000 1 0 0
0.501282 17.334400 -9.370380 19.711335 1.541886 2.066193 0.019007 -0.002902 389578.000000 1 0 0
10.056482 9.645100 15.324620 20.712430 0.764521 0.737911 0.050345 -0.017269 -83316.500000 1 0 0
13.419582 7.506500 -0.162780 15.377230 0.510008 1.581382 0.006601 0.001513 178211.000000 1 0 0
12.461182 13.634300 -0.080780 18.471105 0.830323 1.575170 0.040176 -0.007834 639137.000000 1 0 0
9.391482 12.404100 3.409020 15.927430 0.922749 1.355093 0.015028 -0.002138 -212139.000000 1 0 0
-0.773418 12.881500 0.636920 12.920406 -1.510827 1.521481 0.005206 -0.005407 -6078.090000 1 0 0
15.947182 7.507600 -0.975080 17.652973 0.439999 1.626060 0.023758 0.000997 -1701080.000000 1 0 0
-4.247518 18.389800 -2.205280 19.002353 -1.343806 1.687111 0.024248 -0.006753 112270.000000 1 0 0
11.477682 9.115100 -3.260080 15.015004 0.671169 1.789661 0.016709 0.000773 342448.000000 1 0 0
14.677882 9.805500 7.919120 19.346847 0.588957 1.149084 0.042225 -0.019020 261646.000000 1 0 0
4.392082 13.725600 4.709920 15.161326 1.261101 1.254916 0.011879 -0.002753 626546.000000 1 0 0
2.082182 15.899800 5.616020 16.990550 1.440581 1.233923 0.012826 -0.002778 419566.000000 1 0 0
6.185582 18.298300 5.477620 20.077189 1.244815 1.294465 0.025770 -0.025257 -480765.000000 1 0 0
10.601782 17.062300 -0.819680 20.104520 1.014821 1.611579 0.044865 -0.024875 -1476430.000000 1 0 0
10.047682 13.530800 -4.366280 17.409849 0.932062 1.824296 0.036312 -0.012340 1045000.000000 1 0 0
16.638182 7.945500 2.276420 18.578002 0.445524 1.447955 0.021243 -0.004522 611134.000000 1 0 0
3.994382 13.976000 -0.488280 14.543798 1.292415 1.604376 0.010479 -0.009719 -141213.000000 1 0 0
5.587882 13.120600 -2.477780 14.474597 1.168175 1.742825 0.004641 -0.008447 4620.380000 1 0 0
-6.200618 16.847400 -2.905780 18.185877 -1.218136 1.731266 0.020967 -0.004339 -939192.000000 1 0 0
18.134582 9.968500 2.606620 20.857337 0.502609 1.445495 0.049192 -0.009824 -669271.000000 1 0 0
7.871082 12.944100 9.294120 17.773134 1.024455 1.020511 0.030698 -0.011878 2608080.000000 1 0 0
-2.681818 15.853400 6.721320 17.426950 -1.403219 1.174846 0.003253 -0.001512 723569.000000 1 0 0
11.184282 15.996200 6.380420 20.534759 0.960618 1.254853 0.039859 -0.017518 61364.600000 1 0 0
13.511482 11.826400 1.307820 18.003729 0.718992 1.498091 0.039686 -0.004034 851629.000000 1 0 0
17.511782 7.817600 -5.542280 19.962320 0.419872 1.852130 0.038293 0.007338 643722.000000 1 0 0
9.513682 9.348800 7.923220 15.514110 0.776657 1.034785 0.018608 -0.006496 -242806.000000 1 0 0
-2.113818 14.042300 -1.981080 14.338030 -1.421386 1.709409 0.003602 -0.000206 469821.000000 1 0 0
10.923982 11.644000 0.777020 15.984989 0.817292 1.522168 0.019185 0.004043 -63349.800000 1 0 0
11.727382 9.741200 -0.653180 15.259394 0.693145 1.613615 0.013430 0.002996 -970997.000000 1 0 0
-0.229718 16.351700 11.032620 19.726874 -1.556749 0.977293 0.010441 -0.004718 -68294.200000 1 0 0
2.124882 19.893600 -1.460880 20.060025 1.464387 1.643686 0.037640 -0.029487 -54082.100000 1 0 0
9.350582 14.364900 1.843120 17.238933 0.993766 1.463675 0.017654 -0.011216 -844455.000000 1 0 0
8.468282 11.643900 -5.084380 15.269025 0.942001 1.910265 0.011526 -0.003364 -660687.000000 1 0 0
10.505882 10.136800 10.203820 17.811406 0.767521 0.960780 0.019941 -0.011468 199939.000000 1 0 0
-5.196518 15.733800 5.772320 17.546394 -1.251799 1.235579 -0.008014 -0.004491 1526570.000000 1 0 0
14.400682 9.110400 -2.045380 17.162826 0.564072 1.690255 0.028415 0.001090 -757251.000000 1 0 0
12.134582 9.534100 6.949920 16.924790 0.665958 1.147645 0.021549 -0.012086 -1267770.000000 1 0 0
3.148482 12.918600 9.723820 16.472882 1.331740 0.939375 0.011992 -0.006152 -211886.000000 1 0 0
8.438782 12.615600 -2.611080 15.400784 0.981238 1.741161 0.011068 -0.006784 -1124190.000000 1 0 0
9.412882 16.957900 2.229620 19.522907 1.064066 1.456341 0.018478 -0.019303 -63089.200000 1 0 0
9.615982 14.392400 -7.302880 18.786706 0.981782 1.970045 0.043177 -0.011257 484726.000000 1 0 0
6.323182 11.511000 7.255020 15.004035 1.068478 1.066104 0.012647 -0.004478 -882274.000000 1 0 0
5.399582 16.961200 -5.536280 18.641035 1.262592 1.872340 0.020551 -0.006962 -889642.000000 1 0 0
-4.086518 17.299400 -4.546680 18.347784 -1.338826 1.821211 0.022658 -0.001002 392363.000000 1 0 0
-0.284218 18.538300 -0.526980 18.547966 -1.555466 1.599212 0.013414 -0.010033 -361274.000000 1 0 0
6.491982 15.627400 -2.764380 17.146523 1.177065 1.732724 0.006941 -0.010352 -148627.000000 1 0 0
-1.000418 20.566500 0.899520 20.610456 -1.522192 1.527139 0.023875 -0.016606 -41172.100000 1 0 0
-1.441218 18.722100 4.227920 19.247583 -1.493968 1.349331 0.010464 -0.013018 -273009.000000 1 0 0
7.300982 13.807600 -4.481880 16.249351 1.084402 1.850238 0.006830 -0.004173 -477346.000000 1 0 0
-1.033618 11.915200 7.712720 14.231177 -1.484265 0.998030 0.002009 0.001714 565386.000000 1 0 0
7.657682 10.886000 10.915920 17.213436 0.957763 0.883886 0.019693 -0.011230 91318.400000 1 0 0
1.561282 16.104500 -7.355680 17.773535 1.474151 1.997482 0.014766 -0.001930 -676919.000000 1 0 0
8.922482 7.364700 14.752420 18.747890 0.690044 0.665053 0.026434 -0.002696 520333.000000 1 0 0
11.363182 11.319700 -4.781280 16.736730 0.783481 1.860508 0.039002 -0.003925 -224343.000000 1 0 0
-3.421618 16.926200 4.417920 17.824750 -1.371335 1.320333 -0.001427 -0.008512 -906480.000000 1 0 0
3.958582 15.326100 -6.852880 17.248817 1.318030 1.979364 0.021815 -0.008989 -1001230.000000 1 0 0
-4.417818 14.139500 9.334620 17.509360 -1.267961 1.008510 0.009144 -0.008224 -74135.700000 1 0 0
6.287182 17.769800 0.573020 18.857964 1.230729 1.540406 0.013421 -0.024077 -219582.000000 1 0 0
9.760182 10.684000 -2.181880 14.634535 0.830555 1.720445 0.018288 -0.000437 -1355060.000000 1 0 0
7.347582 18.112900 -2.363980 19.688893 1.185425 1.691153 0.019931 -0.013474 -74631.600000 1 0 0
3.616982 10.361100 10.529720 15.208877 1.234930 0.806069 0.008090 -0.002745 978512.000000 1 0 0
-0.104218 18.405700 2.002620 18.514619 -1.565134 1.462420 0.015626 -0.016065 277619.000000 1 0 0
-0.947718 17.114600 -7.387480 18.665009 -1.515478 1.977728 0.026485 -0.003260 -534233.000000 1 0 0
10.085382 8.842200 12.859720 18.581491 0.719811 0.806441 0.032681 -0.011542 459146.000000 1 0 0
3.691482 11.479800 5.597720 13.294635 1.259676 1.136193 0.007937 -0.002139 767384.000000 1 0 0
13.245282 13.863300 8.174820 20.843614 0.808192 1.167777 0.050995 -0.022271 109671.000000 1 0 0
-0.590718 17.412500 6.688120 18.662129 -1.536884 1.204265 0.009476 -0.007082 -271531.000000 1 0 0
12.262282 13.670900 5.729120 19.237460 0.839662 1.268398 0.038076 -0.012655 -64097.500000 1 0 0
4.881182 14.495000 -4.568280 15.962460 1.245975 1.861043 0.010821 -0.005880 -691202.000000 1 0 0
3.736582 17.607400 4.498420 18.553122 1.361682 1.325894 0.017367 -0.012240 1360910.000000 1 0 0
7.055082 11.816300 2.031520 13.911369 1.032539 1.424239 0.011536 -0.002767 839523.000000 1 0 0
6.501982 8.718700 11.863420 16.094478 0.930020 0.742011 0.014420 -0.006246 544619.000000 1 0 0
-5.497518 14.759200 1.769420 15.848897 -1.214236 1.458920 0.000756 0.000067 3615.290000 1 0 0
6.817182 13.802800 5.962320 16.508801 1.112042 1.201285 0.015349 -0.006095 -599297.000000 1 0 0
5.750782 15.824700 4.962720 17.553381 1.222229 1.284166 0.011169 -0.015749 746206.000000 1 0 0
1.148382 17.980800 4.293620 18.521963 1.507016 1.336856 0.021775 -0.008281 1311380.000000 1 0 0
7.126782 18.336100 -6.919380 20.853810 1.200091 1.909012 0.018375 -0.003251 349666.000000 1 0 0
-2.478518 18.832900 -5.978680 19.913960 -1.439943 1.875725 0.034501 -0.003733 311871.000000 1 0 0
13.531282 9.830900 -4.585180 17.342608 0.628311 1.838366 0.030531 -0.008602 -1346380.000000 1 0 0
-1.709018 18.127400 9.895120 20.722856 -1.476796 1.072992 0.016867 -0.003672 -372775.000000 1 0 0
3.418682 11.780600 -1.545180 12.363555 1.288358 1.696103 0.007249 -0.007231 732423.000000 1 0 0
4.376182 14.011200 -10.797680 18.222365 1.268062 2.205018 0.027647 -0.019686 91175.200000 1 0 0
11.604482 13.382400 2.457620 17.882743 0.856433 1.432930 0.036410 -0.007615 -762625.000000 1 0 0
15.978382 6.380900 -7.067680 18.600448 0.379942 1.960564 0.022590 -0.005331 353476.000000 1 0 0
2.413482 16.009000 2.966520 16.459441 1.421165 1.389574 0.019240 -0.011490 238725.000000 1 0 0
13.397682 10.575300 3.563720 17.436598 0.668206 1.364964 0.022037 0.001950 -233629.000000 1 0 0
-5.050418 19.441200 -5.753180 20.894163 -1.316635 1.849749 0.026544 -0.014178 341445.000000 1 0 0
5.579182 12.113800 0.046020 13.336924 1.139192 1.567346 0.007464 -0.007496 -30691.300000 1 0 0
4.793282 15.326400 9.756820 18.790147 1.267687 1.024821 0.023218 -0.008001 -134406.000000 1 0 0
7.817282 9.603200 13.896120 18.612724 0.887560 0.727871 0.023721 -0.013235 223222.000000 1 0 0
-5.117818 13.591800 7.020020 16.131019 -1.210679 1.120550 -0.005268 -0.000975 -1220140.000000 1 0 0
-4.599118 16.884400 0.475420 17.506024 -1.304860 1.543635 0.009728 -0.007805 -1996850.000000 1 0 0
-0.788518 16.438500 3.641320 16.855422 -1.522865 1.353047 0.012440 -0.009140 -1894760.000000 1 0 0
7.789482 17.038400 -4.673480 19.308664 1.141994 1.815265 0.011622 -0.010754 305414.000000 1 0 0
3.068482 16.376900 -4.585080 17.281244 1.385577 1.839333 0.015471 -0.006509 350363.000000 1 0 0
9.478782 14.484700 8.121420 19.120965 0.991334 1.132123 0.027996 -0.012208 85738.000000 1 0 0
12.782682 10.958900 9.160820 19.168074 0.708731 1.072510 0.038445 -0.022033 -606172.000000 1 0 0
3.610382 12.370000 12.175820 17.728574 1.286819 0.813732 0.019672 -0.010267 638769.000000 1 0 0
-3.454218 19.077000 5.848720 20.250212 -1.391670 1.277799 0.016771 -0.018959 -26019.300000 1 0 0
-2.665718 15.736400 10.396020 19.047770 -1.402991 0.993469 0.011301 -0.003791 -103602.000000 1 0 0
2.005682 14.301300 7.716620 16.373642 1.431460 1.080051 0.012321 -0.003130 58379.800000 1 0 0
4.307882 17.091500 7.842420 19.291987 1.323891 1.152163 0.025993 -0.015209 439290.000000 1 0 0
-1.894318 13.504700 9.333320 16.525018 -1.431435 0.970606 0.004760 -0.002010 -1591400.000000 1 0 0
5.939082 17.653600 3.117420 18.884930 1.246267 1.404963 0.012599 -0.022859 810451.000000 1 0 0
7.294082 15.609900 -6.767480 18.511385 1.133672 1.945057 0.015358 -0.000591 -233556.000000 1 0 0
11.036382 7.757700 9.375220 16.427975 0.612683 0.963455 0.022235 -0.010508 502552.000000 1 0 0
8.984782 16.225400 -2.600880 18.728440 1.065080 1.710120 0.024570 -0.023251 -1574940.000000 1 0 0
14.284282 11.100000 -6.688280 19.286881 0.660607 1.924931 0.059989 -0.015970 277294.000000 1 0 0
10.935882 6.458400 16.136720 20.535291 0.533457 0.666801 0.042622 -0.013133 -354779.000000 1 0 0
8.486782 8.538200 10.126220 15.731073 0.788418 0.871462 0.012155 -0.006522 1430540.000000 1 0 0
16.306282 9.446500 4.430320 19.358691 0.525072 1.339896 0.033020 -0.009328 -160603.000000 1 0 0
-3.387418 14.183100 4.778120 15.344880 -1.336353 1.254149 -0.006657 -0.002904 -1558940.000000 1 0 0
4.829382 14.672700 12.870220 20.106059 1.252824 0.876146 0.024577 -0.005010 -600837.000000 1 0 0
15.998582 10.707600 -4.735680 19.825085 0.589813 1.812002 0.055086 -0.010279 698238.000000 1 0 0
14.866782 13.741800 6.159620 21.161266 0.746095 1.275441 0.056492 -0.016031 -1032010.000000 1 0 0
6.260682 9.530100 9.273620 14.697583 0.989559 0.888003 0.010615 -0.004066 169411.000000 1 0 0
10.475682 12.121300 8.601520 18.183838 0.858095 1.078068 0.031472 -0.016591 223653.000000 1 0 0
8.038582 11.496900 -0.353280 14.032901 0.960610 1.595974 0.007137 -0.004497 -122597.000000 1 0 0
7.403582 13.637000 -8.580180 17.731336 1.073417 2.075901 0.019022 -0.006424 66514.300000 1 0 0
2.680582 15.156800 -2.311180 15.564564 1.395750 1.719837 0.014078 -0.008684 512621.000000 1 0 0
12.167682 14.071100 -7.562580 20.080860 0.857813 1.956927 0.061842 -0.012727 508466.000000 1 0 0
-8.165218 14.695000 9.839520 19.478962 -1.063629 1.041257 0.023895 -0.013074 320153.000000 1 0 0
11.487682 9.459900 2.117020 15.031244 0.688896 1.429485 0.020819 0.000478 -1981130.000000 1 0 0
11.972282 8.731800 4.555720 15.502724 0.630144 1.272528 0.015406 -0.002595 -937.774000 1 0 0
14.081982 8.049900 6.077320 17.321574 0.519310 1.212315 0.023475 -0.011900 -1964670.000000 1 0 0
16.206382 7.418900 7.124920 19.195087 0.429302 1.190512 0.063476 -0.022708 798063.000000 1 0 0
13.555182 8.098500 2.512020 15.988711 0.538540 1.413031 0.013434 0.001782 -2090900.000000 1 0 0
-4.257118 17.303600 -7.116080 19.187919 -1.329562 1.950734 0.028762 -0.014746 191310.000000 1 0 0
3.322082 19.672600 -3.717780 20.294563 1.403506 1.755028 0.035346 -0.012716 525816.000000 1 0 0
-0.171818 14.861200 6.300720 16.142610 -1.559235 1.169821 0.010631 -0.001915 -1479190.000000 1 0 0
6.684382 16.191600 8.163920 19.326108 1.179279 1.134672 0.033633 -0.009966 -1077360.000000 1 0 0
12.762882 15.193700 -2.135880 19.957496 0.872130 1.678023 0.055654 -0.017219 432220.000000 1 0 0
12.793282 15.807000 4.380620 20.801902 0.890384 1.358620 0.053926 -0.014778 116207.000000 1 0 0
2.990982 18.022200 1.396920 18.322037 1.406334 1.494480 0.023650 -0.021119 -502469.000000 1 0 0
10.334482 14.492700 -1.262080 17.844683 0.951344 1.641581 0.024887 -0.005598 -619751.000000 1 0 0
-6.552518 15.683400 -0.509180 17.004817 -1.175040 1.600744 0.009587 -0.003710 -342296.000000 1 0 0
-3.945918 15.768300 -2.454880 16.438856 -1.325588 1.720691 0.012644 -0.000996 -1230330.000000 1 0 0
-6.732018 16.975100 1.803320 18.350097 -1.193240 1.472364 0.005540 -0.008134 -909351.000000 1 0 0
-0.007718 19.369500 -6.556080 20.448955 -1.570398 1.897167 0.036834 -0.010029 -131152.000000 1 0 0
4.842282 14.636400 7.228020 17.026925 1.251293 1.132381 0.022612 -0.008914 -304915.000000 1 0 0
8.643982 12.346800 6.805420 16.537098 0.960004 1.146670 0.023457 -0.009938 -1296530.000000 1 0 0
-7.733118 17.453800 -5.595580 19.893385 -1.153727 1.855922 0.041909 -0.014903 413418.000000 1 0 0
-7.896118 17.776000 -1.212580 19.488592 -1.152775 1.633057 0.045048 -0.010827 271806.000000 1 0 0
-13.658418 -9.097200 9.313220 18.869221 0.587576 1.054610 0.062469 -0.024845 868147.000000 1 0 0
-12.481418 -12.801700 7.695420 19.465067 0.798065 1.164353 0.054796 -0.018440 -274706.000000 1 0 0
-3.806518 -15.065300 12.497120 19.940683 1.323308 0.893466 0.009850 -0.012438 111317.000000 1 0 0
-2.230318 -14.072300 15.039220 20.716710 1.413614 0.758387 0.022988 -0.004528 289665.000000 1 0 0
-6.862018 -13.659300 12.783320 19.926792 1.105255 0.874326 0.021339 -0.019092 384780.000000 1 0 0
-9.840118 -11.542400 9.020420 17.647178 0.864842 1.034270 0.044387 -0.018616 472105.000000 1 0 0
-10.657018 -10.679700 11.212020 18.797272 0.786461 0.931700 0.072023 -0.029571 455392.000000 1 0 0
-5.921818 -12.256900 10.734920 17.336033 1.120726 0.903040 0.020629 -0.013205 692443.000000 1 0 0
-12.384818 -10.291100 7.272020 17.668411 0.693327 1.146606 0.034195 -0.015967 -769405.000000 1 0 0
-7.711518 -11.278900 12.333620 18.406501 0.971086 0.836495 0.030734 -0.020774 -197442.000000 1 0 0
-14.737918 -11.571700 7.453320 20.165874 0.665630 1.192217 0.067236 -0.009770 992916.000000 1 0 0
-10.954918 -9.115100 9.043720 16.878512 0.693984 1.005326 0.039927 -0.023192 -545936.000000 1 0 0
-5.177918 -11.734900 13.107620 18.339259 1.155250 0.774558 0.016567 -0.020821 -656073.000000 1 0 0
3.770482 -12.230500 14.819320 19.580958 -1.271756 0.712358 -0.002040 -0.006053 -435106.000000 1 0 0
6.303482 -12.731600 14.158320 20.057057 -1.111072 0.787100 0.005903 -0.000119 -405187.000000 1 0 0
6.692382 -8.365600 15.975420 19.235001 -0.896063 0.590721 0.006548 -0.009322 -487286.000000 1 0 0
0.690282 -1.675600 14.440320 14.553589 -1.180022 0.124844 0.006920 -0.001387 -1995090.000000 1 0 0
-0.200918 -6.283400 15.686120 16.898989 1.538831 0.381175 0.013263 -0.009551 380293.000000 1 0 0
-1.456818 -4.672100 18.344920 18.986493 1.268538 0.260703 0.034778 -0.033842 -1381140.000000 1 0 0
-5.240218 12.578700 13.019620 18.846593 -1.176067 0.808173 0.012042 -0.004536 -332283.000000 1 0 0
-4.055418 8.825900 11.710120 15.214133 -1.140078 0.692446 -0.001520 0.002496 -34534.600000 1 0 0
-0.682718 -3.845200 15.062720 15.560758 1.395077 0.253686 0.007791 -0.005991 87805.500000 1 0 0
-4.484018 9.201400 14.217520 17.518848 -1.117345 0.623987 0.000721 -0.004531 431138.000000 1 0 0
-13.400318 -2.720600 17.104920 21.898595 0.200303 0.674376 0.036204 0.001023 371582.000000 1 0 0
-0.260618 0.880000 17.303020 17.327343 -1.282869 0.052992 0.010514 -0.007936 188348.000000 1 0 0
-3.403318 -7.320900 15.396520 17.384791 1.135640 0.482944 0.016660 -0.011876 270717.000000 1 0 0
-7.467018 5.515300 12.543320 15.604799 -0.636179 0.637121 -0.000865 -0.001730 -2571460.000000 1 0 0
-9.924218 10.026400 13.430720 19.478271 -0.790520 0.809966 0.025771 -0.011142 -1664160.000000 1 0 0
-5.556118 2.248100 11.208820 12.710706 -0.384480 0.491044 0.004216 -0.003864 -1855740.000000 1 0 0
-7.089118 -7.335200 16.803320 19.657373 0.802457 0.545612 0.017251 -0.024207 -504585.000000 1 0 0
-4.778518 3.009100 18.648520 19.484769 -0.561982 0.294036 0.012478 -0.006591 -36451.600000 1 0 0
0.910682 -8.341200 16.640420 18.636215 -1.462048 0.467034 0.014118 -0.007029 621231.000000 1 0 0
-15.351918 -3.485800 13.736020 20.892832 0.223274 0.853365 0.075606 -0.022696 671607.000000 1 0 0
-14.426218 2.282300 13.181820 19.674477 -0.156905 0.836593 0.038878 -0.007799 -293651.000000 1 0 0
-5.502118 1.036200 16.109120 17.054347 -0.186147 0.334497 0.018160 -0.005151 237305.000000 1 0 0
4.454682 5.771700 15.131420 16.796326 0.913479 0.449011 -0.000434 -0.001917 -206781.000000 1 0 0
-1.112518 -11.948900 13.922220 18.380482 1.477958 0.711404 0.004199 -0.005393 -174079.000000 1 0 0
-5.935118 -3.974000 16.693320 18.157236 0.590013 0.404306 0.027345 -0.020544 5859.540000 1 0 0
-12.840718 -1.637000 9.865220 16.275330 0.126801 0.919591 0.020547 -0.009416 -1063480.000000 1 0 0
-14.337718 10.292400 10.198520 20.384147 -0.622609 1.046832 0.014028 -0.008554 346319.000000 1 0 0
-3.560918 -3.293400 17.645920 18.300413 0.746389 0.268250 0.027799 -0.026719 -671818.000000 1 0 0
-8.024618 9.090100 11.908820 16.995423 -0.847573 0.794408 -0.001452 -0.006741 -368509.000000 1 0 0
-4.368618 10.617900 16.429920 20.044123 -1.180468 0.609931 0.015651 -0.003929 321969.000000 1 0 0
-12.440218 12.704700 8.497820 19.707394 -0.795916 1.124974 0.013119 -0.012840 -206831.000000 1 0 0
-12.612818 3.083300 10.475520 16.683118 -0.239756 0.891930 0.016608 -0.010840 -217454.000000 1 0 0
-10.071518 -3.459200 13.677820 17.334483 0.330840 0.661531 0.018680 -0.008607 -681673.000000 1 0 0
-4.308918 -6.364500 17.675820 19.274549 0.975658 0.410165 0.035782 -0.021148 -623961.000000 1 0 0
0.883282 -3.705600 17.956220 18.355857 -1.336799 0.209051 0.019404 -0.023200 -1483710.000000 1 0 0
-5.964118 1.747200 13.693220 15.037542 -0.284978 0.426057 0.005018 -0.001027 -849038.000000 1 0 0
-10.528018 8.590900 10.227720 17.007321 -0.684423 0.925580 0.013626 -0.011932 -508501.000000 1 0 0
4.595182 2.473800 17.137320 17.914327 0.493852 0.295604 -0.000331 -0.006194 -2908620.000000 1 0 0
0.522282 -5.368900 13.365120 14.412643 -1.473822 0.383611 0.004108 -0.000614 -1004530.000000 1 0 0
-4.086118 5.961900 20.721420 21.945793 -0.969956 0.335611 0.043826 -0.010757 -70132.100000 1 0 0
-10.797518 10.812400 9.087320 17.778464 -0.786087 1.034283 0.009358 -0.008165 -480773.000000 1 0 0
0.572782 4.187100 13.019920 13.688615 1.434843 0.313858 0.003956 -0.001437 -2378340.000000 1 0 0
-3.174218 7.139500 13.403920 15.514934 -1.152442 0.527761 -0.002697 0.002316 101021.000000 1 0 0
0.587682 8.876100 14.060520 16.638171 1.504683 0.564089 0.005800 -0.005629 251118.000000 1 0 0
-4.216818 -6.639600 13.063820 15.248909 1.004966 0.541949 0.012853 -0.006706 -123489.000000 1 0 0
-5.096218 8.177500 16.560720 19.159864 -1.013492 0.526951 0.008150 0.001875 47577.700000 1 0 0
1.579382 -10.631000 15.944620 19.228716 -1.423311 0.593106 0.006747 0.002068 55340.900000 1 0 0
-14.910818 -0.940100 14.398620 20.749374 0.062965 0.803863 0.036854 -0.010666 53942.200000 1 0 0
-13.492818 -5.287900 8.474420 16.787907 0.373508 1.041654 0.047918 -0.019522 -341032.000000 1 0 0
-13.881318 -1.919600 12.212720 18.588340 0.137415 0.853951 0.031084 -0.010328 109573.000000 1 0 0
9.401582 1.289500 16.863520 19.350216 0.136307 0.512564 0.039736 -0.012015 1100560.000000 1 0 0
4.968782 -6.650300 16.980920 18.901506 -0.929121 0.454707 0.004373 -0.009954 164200.000000 1 0 0
-6.159618 -2.641400 10.963320 12.849602 0.405106 0.548700 0.005544 -0.004282 -300226.000000 1 0 0
0.582382 -6.279900 18.161620 19.225523 -1.478323 0.334234 0.028070 -0.020813 -10368.100000 1 0 0
-8.425518 11.808100 12.207820 18.959205 -0.951043 0.871212 0.008009 -0.008491 35982.000000 1 0 0
-6.555618 -5.777500 14.813020 17.198290 0.722390 0.532958 0.015634 -0.013026 -1000260.000000 1 0 0
-4.542818 -8.871900 17.210320 19.888261 1.097559 0.524947 0.036204 -0.015710 133335.000000 1 0 0
2.423782 -6.119700 16.333420 17.609828 -1.193689 0.383081 0.006076 -0.013125 -852092.000000 1 0 0
2.128282 5.265300 16.111620 17.083245 1.186667 0.338891 0.001062 -0.003059 -1710810.000000 1 0 0
0.978682 -8.790300 14.158520 16.694037 -1.459916 0.558373 -0.002614 -0.003056 -453073.000000 1 0 0
-9.887618 -2.736700 11.181120 15.174715 0.270021 0.742433 0.002710 -0.006093 -78210.000000 1 0 0
-1.253018 10.197400 12.338720 16.056183 -1.448533 0.694347 0.001742 -0.002354 -410674.000000 1 0 0
-12.271818 -3.726000 11.408320 17.164800 0.294777 0.843792 0.025916 -0.007304 -1273880.000000 1 0 0
-1.732518 6.747900 19.917720 21.100979 -1.319476 0.336476 0.030776 -0.007680 -416385.000000 1 0 0
0.196682 -13.414500 15.796620 20.724881 -1.556136 0.704083 0.011722 -0.005366 258474.000000 1 0 0
4.133482 -8.573100 15.330720 18.044797 -1.121534 0.555585 -0.001735 -0.004475 -243128.000000 1 0 0
4.401382 -4.378800 16.192620 17.342058 -0.782826 0.366131 0.009401 -0.010984 -820842.000000 1 0 0
8.060282 1.795900 14.707120 16.866913 0.219228 0.511623 0.008675 0.001115 372309.000000 1 0 0
-6.351218 -0.118700 11.822220 13.420765 0.018687 0.493057 0.005684 -0.005010 89582.600000 1 0 0
-3.588218 -10.761100 18.725120 21.893074 1.248947 0.544669 0.045664 -0.014193 150078.000000 1 0 0
3.221282 -1.468700 13.554220 14.008947 -0.427780 0.255488 -0.000840 -0.000389 596698.000000 1 0 0
-2.625418 8.753600 16.111120 18.522595 -1.279409 0.515981 0.013065 -0.000469 -721473.000000 1 0 0
-3.380418 3.968700 14.813620 15.704176 -0.865276 0.338386 0.001302 -0.003129 -793002.000000 1 0 0
-4.863318 -8.733900 19.884020 22.255496 1.062723 0.465843 0.064998 -0.030423 -194933.000000 1 0 0
-5.851218 -2.810900 19.009620 20.087398 0.447842 0.329063 0.040395 -0.032444 -300375.000000 1 0 0
-6.634018 -8.497400 11.123820 15.490493 0.907928 0.769719 0.013547 -0.014099 -1631320.000000 1 0 0
-11.861218 2.592700 12.732120 17.593108 -0.215201 0.761649 0.037173 -0.016025 -319403.000000 1 0 0
-11.600118 -7.504300 11.618020 18.051472 0.574204 0.871597 0.050448 -0.022810 -1279300.000000 1 0 0
-11.036218 -7.328500 15.502220 20.391759 0.586183 0.707145 0.037033 -0.029196 61278.400000 1 0 0
0.093182 5.631300 17.672220 18.547980 1.554251 0.308520 0.012975 -0.002516 -44040.300000 1 0 0
-2.198718 -0.053300 13.225320 13.406949 0.024237 0.164791 0.006335 0.000249 115197.000000 1 0 0
-6.237918 -10.322500 18.517920 22.099298 1.027219 0.577296 0.051401 -0.014173 -396084.000000 1 0 0
0.278782 2.630500 19.251620 19.432501 1.465210 0.136548 0.014398 -0.010184 -336144.000000 1 0 0
-0.847518 10.905400 14.766220 18.376269 -1.493237 0.637564 0.014155 -0.008818 -749983.000000 1 0 0
-13.013018 -2.685800 14.594520 19.737076 0.203535 0.738548 0.041251 -0.002256 -529679.000000 1 0 0
-13.864718 8.298700 11.726020 19.964929 -0.539351 0.943039 0.034863 -0.011087 353384.000000 1 0 0
-18.030418 -0.806800 6.911420 19.326527 0.044717 1.205086 0.066183 -0.018184 -607790.000000 1 0 0
-2.169918 -7.868500 17.641220 19.437965 1.301712 0.433348 0.040500 -0.020600 -1289710.000000 1 0 0
5.625382 2.731100 14.416820 15.714596 0.451977 0.409259 0.001847 0.000554 -1810470.000000 1 0 0
-14.089318 -6.766200 10.876120 19.041542 0.447712 0.962855 0.062787 -0.030043 243732.000000 1 0 0
3.136482 7.706000 16.241920 18.248833 1.184255 0.473396 0.008750 -0.015946 -126063.000000 1 0 0
0.911982 2.141500 14.659020 14.842661 1.168196 0.157468 0.005496 -0.003741 -2105240.000000 1 0 0
-14.422918 0.523800 9.787620 17.438246 -0.036301 0.974873 0.026802 -0.007077 -2562960.000000 1 0 0
-9.541818 -5.170300 15.548420 18.961320 0.496570 0.609373 0.022156 -0.012975 -20000.500000 1 0 0
-2.557518 0.036700 18.184120 18.363128 -0.014349 0.139743 0.021520 -0.014141 241434.000000 1 0 0
6.813582 3.755100 17.458420 19.113401 0.503703 0.419206 0.021560 -0.013823 -164371.000000 1 0 0
-4.206518 -0.722300 14.660220 15.268875 0.170051 0.283303 0.017720 -0.001312 717930.000000 1 0 0
4.957382 -9.019200 17.769920 20.535132 -1.068224 0.524963 0.009902 -0.006539 -287573.000000 1 0 0
1.868682 6.829700 13.436520 15.188049 1.303722 0.484995 0.006640 -0.003495 -963946.000000 1 0 0
-3.718918 -0.653900 20.357120 20.704354 0.174052 0.183402 0.042100 -0.022896 -1091700.000000 1 0 0
-10.658318 1.499200 16.281320 19.517395 -0.139743 0.584124 0.027977 -0.013207 -370397.000000 1 0 0
-3.806318 7.135700 18.454220 20.148561 -1.080772 0.413033 0.015991 -0.000021 -807480.000000 1 0 0
-12.653118 1.087700 14.666520 19.400807 -0.085752 0.713654 0.040822 -0.015026 -642412.000000 1 0 0
-16.037318 -4.690000 8.545120 18.767279 0.284509 1.098065 0.068608 -0.024538 -1771720.000000 1 0 0
-2.382018 0.878500 15.772820 15.975845 -0.353328 0.159595 0.011007 -0.000859 -172802.000000 1 0 0
-13.633418 -8.712500 12.544620 20.473037 0.568642 0.911275 0.070757 -0.036063 696241.000000 1 0 0
6.076482 -3.148600 14.544420 16.074124 -0.478071 0.439806 0.003888 -0.008933 607636.000000 1 0 0
-15.662318 0.212500 7.553220 17.389781 -0.013567 1.121482 0.032046 -0.014172 857547.000000 1 0 0
-14.149218 5.808000 12.253620 19.598072 -0.389510 0.895349 0.044688 -0.018913 -574297.000000 1 0 0
0.462382 9.578900 16.630420 19.197395 1.522563 0.523079 0.012987 -0.011421 -299312.000000 1 0 0
-10.339318 -5.370300 10.804520 15.889596 0.479051 0.823069 0.019920 -0.016523 -234330.000000 1 0 0
-3.241718 -10.966700 14.953820 18.825355 1.283384 0.652868 0.017244 -0.011671 -1616180.000000 1 0 0
-3.586718 2.618300 12.662620 13.418718 -0.630577 0.337294 0.004175 0.000122 -2321800.000000 1 0 0
-12.402118 -7.742200 7.391720 16.382665 0.558070 1.102696 0.042727 -0.018062 728501.000000 1 0 0
-8.086218 -1.944500 13.118020 15.532239 0.235990 0.565040 0.010781 -0.006416 -901052.000000 1 0 0
-9.839218 6.230100 9.534820 15.051151 -0.564467 0.884735 0.002123 -0.006601 -620133.000000 1 0 0
-17.911518 -3.607500 6.719020 19.467454 0.198748 1.218407 0.072533 -0.027087 618150.000000 1 0 0
-1.232318 -0.131000 20.470920 20.508396 0.105906 0.060464 0.026648 -0.019149 -1377000.000000 1 0 0
-2.795218 2.559500 20.294820 20.645677 -0.741406 0.184622 0.033069 -0.010163 -354056.000000 1 0 0
-3.891518 11.310200 11.171820 16.366860 -1.239413 0.819498 0.004117 -0.005609 -742792.000000 1 0 0
-4.113818 -4.835600 14.896420 16.192895 0.865875 0.402880 0.019579 -0.012746 485275.000000 1 0 0
-0.202718 -14.303700 13.309720 19.539334 1.556625 0.821429 0.009194 -0.010745 -265541.000000 1 0 0
-12.209318 0.351800 8.405320 14.827023 -0.028806 0.968068 0.008455 -0.005942 -597569.000000 1 0 0
-7.851318 1.938500 15.467020 17.453644 -0.242060 0.481768 0.016094 -0.000198 -1206030.000000 1 0 0
3.533882 -2.060000 18.536420 18.982381 -0.527772 0.217191 0.018451 -0.014364 -476921.000000 1 0 0
-2.196218 4.812600 12.554120 13.623157 -1.142676 0.398799 -0.001040 -0.000283 -451823.000000 1 0 0
-10.233618 -6.133600 13.320020 17.882140 0.539947 0.730444 0.016175 -0.018577 -48590.800000 1 0 0
2.387882 -3.765200 14.314120 14.992423 -1.005610 0.301955 0.002332 -0.000598 -516420.000000 1 0 0
6.793782 1.133700 16.988720 18.331867 0.165350 0.385178 0.007204 -0.007274 -1406770.000000 1 0 0
-1.892918 -5.862400 13.899620 15.203628 1.258473 0.417192 0.005117 -0.003546 -2260460.000000 1 0 0
-12.968518 3.692900 14.787220 20.012042 -0.277416 0.739336 0.031294 -0.004479 273340.000000 1 0 0
-13.195218 -6.313400 13.328720 19.789583 0.446269 0.831833 0.043594 -0.030061 -313906.000000 1 0 0
-9.647718 6.771300 11.993820 16.816084 -0.611970 0.776694 0.012371 -0.006013 -547220.000000 1 0 0
-1.103418 -2.376000 12.871520 13.135407 1.136031 0.200786 0.002893 0.001301 409921.000000 1 0 0
0.034182 6.698300 15.381620 16.776848 1.565693 0.410714 0.008956 -0.002978 366763.000000 1 0 0
-16.432718 -1.104000 9.788820 19.159176 0.067082 1.034541 0.056987 -0.009935 30505.500000 1 0 0
-1.331218 2.753300 13.709620 14.046582 -1.120436 0.219479 0.006522 0.000681 -1630550.000000 1 0 0
-11.069818 -3.261900 16.082020 19.794247 0.286556 0.622438 0.021812 -0.014505 -487772.000000 1 0 0
-5.175218 -1.374900 16.996420 17.819975 0.259672 0.305207 0.030469 -0.012719 190743.000000 1 0 0
-12.023918 6.617700 11.098120 17.650406 -0.503133 0.890821 0.029496 -0.007286 -613450.000000 1 0 0
-2.726318 4.715900 18.809220 19.582116 -1.046626 0.281893 0.018684 -0.001998 230412.000000 1 0 0
5.168882 -1.891200 16.514620 17.407660 -0.350753 0.321703 0.008804 -0.009214 -160499.000000 1 0 0
-8.000518 -4.181400 12.082520 15.082430 0.481596 0.641667 0.011803 -0.006406 -1132200.000000 1 0 0
-11.871118 -0.806700 16.157020 20.065480 0.067851 0.634759 0.048410 -0.009063 516897.000000 1 0 0
2.065782 2.075000 17.412120 17.656585 0.787624 0.166599 0.001056 -0.005590 -1090470.000000 1 0 0
-8.904118 -7.413000 11.643220 16.425604 0.694268 0.782936 0.024074 -0.019802 -183084.000000 1 0 0
-7.282518 6.793600 14.822720 17.857802 -0.750678 0.591614 0.004033 -0.004184 -496175.000000 1 0 0
-5.822918 3.527200 15.763920 17.171158 -0.544633 0.407672 0.007249 -0.002980 722019.000000 1 0 0
-9.401418 4.121600 11.594220 15.485483 -0.413167 0.724674 0.005875 -0.007330 -39673.900000 1 0 0
-10.442518 -0.029300 14.064620 17.517436 0.002806 0.638665 0.017805 -0.005328 -232373.000000 1 0 0
8.130582 -0.634000 15.789720 17.771425 -0.077820 0.476754 0.016204 -0.008218 322378.000000 1 0 0
-8.588318 -7.433200 14.755620 18.620956 0.713425 0.656030 0.027127 -0.015163 -2584980.000000 1 0 0
-0.189018 4.161400 15.571820 16.119384 -1.525406 0.261394 0.007654 -0.006041 76988.600000 1 0 0
-8.138618 2.887700 9.614420 12.923350 -0.340957 0.731823 0.002252 -0.006328 -372252.000000 1 0 0
-1.979118 -9.666900 12.984720 16.308550 1.368855 0.649823 -0.004356 -0.005249 322619.000000 1 0 0
-6.112318 10.163500 10.636320 15.930739 -1.029349 0.839735 0.003747 -0.004261 -1995020.000000 1 0 0
-8.456718 -2.803400 15.534120 17.907652 0.320099 0.520728 0.016934 -0.014313 -1115210.000000 1 0 0
4.065782 5.727000 17.740020 19.079764 0.953436 0.376976 0.001536 -0.009049 98043.500000 1 0 0
-6.808018 -0.981400 15.096320 16.589488 0.143167 0.427529 0.015825 -0.006736 -402110.000000 1 0 0
-0.939518 -9.894800 15.496720 18.410271 1.476129 0.570292 0.001575 -0.003729 167118.000000 1 0 0
-4.399218 5.719800 16.347320 17.869082 -0.915170 0.415689 0.005041 -0.001064 212991.000000 1 0 0
3.760882 0.081500 17.341020 17.744347 0.021667 0.213619 0.003618 -0.009246 -477414.000000 1 0 0
1.451782 0.355000 19.269820 19.327691 0.239821 0.077404 0.010489 -0.009679 -431078.000000 1 0 0
-6.328018 6.451700 18.070520 20.204255 -0.795076 0.463727 0.009456 0.003929 -348995.000000 1 0 0
-12.310418 0.564500 11.085120 16.575432 -0.045823 0.838246 0.022165 -0.007838 -252455.000000 1 0 0
-5.419018 5.203600 13.915120 15.813721 -0.765122 0.495061 -0.000745 0.000008 -1600420.000000 1 0 0
-8.698318 -9.447500 9.985120 16.267102 0.826661 0.909902 0.034330 -0.017425 -1638790.000000 1 0 0
6.851282 -3.756400 16.991720 18.702116 -0.501519 0.431007 0.010853 -0.013035 -303541.000000 1 0 0
-16.779618 1.479400 9.433620 19.306408 -0.087939 1.060282 0.048933 -0.015184 -77164.900000 1 0 0
-4.166018 -9.548200 11.447520 15.478034 1.159381 0.738324 -0.001643 -0.005766 589663.000000 1 0 0
-11.079818 -3.882300 9.085620 14.845306 0.337026 0.912184 0.016457 -0.008701 -573207.000000 1 0 0
3.631382 -5.143100 18.536620 19.576636 -0.956009 0.327422 0.009552 -0.021789 -454814.000000 1 0 0
2.549182 -1.871200 16.094920 16.402627 -0.633208 0.194003 0.008965 -0.007892 -989857.000000 1 0 0
-3.344218 -4.306300 20.036620 20.765215 0.910495 0.265686 0.044932 -0.039371 -357574.000000 1 0 0
-6.212518 -3.349900 14.250120 15.902299 0.494527 0.459883 0.015596 -0.007267 -456971.000000 1 0 0
-9.560618 4.986400 13.977020 17.652951 -0.480743 0.657100 0.029333 -0.008216 175232.000000 1 0 0
-5.841418 -5.195400 11.668820 14.045487 0.726932 0.590275 0.002139 -0.002042 -307158.000000 1 0 0
6.038482 2.094900 19.294120 20.325229 0.333933 0.319892 0.022077 -0.020595 20518.400000 1 0 0
-2.834918 11.831100 13.509420 18.180102 -1.335615 0.733123 0.011502 -0.011184 -1998140.000000 1 0 0
3.255282 1.322300 15.188520 15.589627 0.385841 0.227333 -0.003345 -0.002651 -376318.000000 1 0 0
-5.765818 7.458900 12.829920 15.921265 -0.912730 0.633711 -0.007709 -0.001730 -1395940.000000 1 0 0
-1.763818 -1.553300 15.264720 15.444593 0.722019 0.152768 0.012906 -0.002444 -192384.000000 1 0 0
-7.533818 10.319700 14.184320 19.090562 -0.940191 0.733252 0.025037 -0.012430 133904.000000 1 0 0
-10.235218 2.024900 10.675920 14.927665 -0.195314 0.773919 0.006062 -0.006963 -1751790.000000 1 0 0
-13.714718 5.081100 9.122620 17.237554 -0.354807 1.013104 0.014945 -0.012965 517229.000000 1 0 0
0.375182 -4.880900 20.235420 20.819130 -1.494080 0.237357 0.034116 -0.030451 -149717.000000 1 0 0
-14.380718 -2.993700 7.547820 16.514747 0.205243 1.096137 0.034475 -0.014912 362472.000000 1 0 0
-2.354018 2.516400 17.757920 18.089151 -0.818726 0.191662 0.013679 -0.006923 61178.900000 1 0 0
-6.208218 -8.415400 14.616820 17.972544 0.935200 0.621019 0.012738 -0.008305 -484690.000000 1 0 0
-7.964418 1.932000 12.001720 14.532923 -0.237982 0.599124 0.002549 -0.004344 -816976.000000 1 0 0
-14.520818 -3.478900 10.164420 18.063010 0.235148 0.973124 0.038139 -0.017254 -220552.000000 1 0 0
-0.621318 6.990000 12.829320 14.623186 -1.482143 0.500532 0.004415 -0.003546 -941013.000000 1 0 0
-1.890818 -2.261200 19.239820 19.464298 0.874368 0.152020 0.035896 -0.028647 -42533.000000 1 0 0
-12.828818 10.262600 7.509620 18.063608 -0.674719 1.142049 0.006922 -0.010685 244491.000000 1 0 0
-19.526718 1.997600 7.025120 20.847912 -0.101946 1.227100 0.068120 -0.012429 -579167.000000 1 0 0
-16.293018 8.144200 6.904020 19.479628 -0.463534 1.208500 0.033848 -0.001355 405171.000000 1 0 0
-12.530118 7.256100 13.600520 19.865271 -0.524905 0.816689 0.042585 -0.007297 63955.900000 1 0 0
-16.105418 8.462700 10.544520 21.028283 -0.483805 1.045529 0.035594 -0.001724 -1600250.000000 1 0 0
1.757282 10.943600 14.818820 18.505346 1.411579 0.642190 0.015363 -0.018629 -444764.000000 1 0 0
2.182882 14.621600 12.496420 19.357600 1.422599 0.869045 0.012143 -0.006843 425900.000000 1 0 0
-3.262018 13.679600 11.665620 18.271806 -1.336709 0.878315 0.004089 -0.008387 203036.000000 1 0 0
8.901282 4.931400 15.721720 18.727626 0.505917 0.574446 0.029380 0.000284 -606971.000000 1 0 0
-0.480118 12.671700 12.913220 18.098446 -1.532925 0.776317 0.010984 -0.005452 1629.570000 1 0 0
3.327182 13.436600 14.477620 20.030323 1.328058 0.762972 0.014977 -0.012112 91876.800000 1 0 0
-2.920118 -4.123900 -13.824480 14.719032 0.954657 2.791162 0.002357 -0.004052 -281980.000000 1 0 0
5.819782 -11.545800 16.317620 20.819224 -1.103906 0.670073 0.001212 -0.000393 117138.000000 1 0 0
7.972882 -13.523000 7.250820 17.291985 -1.038074 1.138104 0.007882 -0.010938 -371322.000000 1 0 0
-0.067718 15.470500 1.439320 15.537458 -1.566419 1.478028 0.009349 -0.006247 -2156390.000000 1 0 0
-13.973218 7.903500 9.082620 18.444786 -0.514755 1.055926 0.019453 -0.009753 350930.000000 1 0 0
-15.388318 -9.799900 5.110620 18.946156 0.567068 1.297669 0.046182 -0.018144 -214107.000000 1 0 0
9.675382 -11.138800 11.001420 18.404269 -0.855591 0.930087 0.020248 -0.011961 27006.200000 1 0 0
-4.406618 -10.741800 -16.412280 20.103918 1.181501 2.525898 0.028629 -0.019525 5236.880000 1 0 0
-1.764418 -12.633700 -14.686980 19.453302 1.432034 2.426430 0.017865 -0.003129 -123842.000000 1 0 0
5.726582 -15.531600 -12.892480 20.981906 -1.217556 2.232494 0.015654 0.005202 149251.000000 1 0 0
2.884382 -11.997200 -16.613980 20.694850 -1.334853 2.502785 0.005100 0.002431 239934.000000 1 0 0
0.502782 -14.073900 -14.462080 20.186115 -1.535087 2.369478 0.020798 0.009009 271298.000000 1 0 0
-6.617118 -5.551900 -14.761180 17.102698 0.698085 2.612154 0.021623 -0.002979 -255914.000000 1 0 0
-6.255818 -8.178400 -16.894380 19.784883 0.917815 2.594237 0.023943 -0.018036 4882.610000 1 0 0
-2.492818 -16.275600 -13.301780 21.167113 1.418815 2.250313 0.022673 -0.003954 286165.000000 1 0 0
16.340882 -8.146000 -9.523080 20.592979 -0.462450 2.051545 0.061685 -0.007883 90812.200000 1 0 0
19.362582 -2.760700 -4.260480 20.017061 -0.141625 1.785279 0.075800 -0.021361 151693.000000 1 0 0
15.970882 -11.582200 -8.738280 21.577163 -0.627444 1.987751 0.067287 -0.020109 224835.000000 1 0 0
18.406082 -3.714000 -7.317780 20.152606 -0.199108 1.942409 0.152841 -0.012965 -272971.000000 1 0 0
8.867782 -9.874200 -15.889080 20.702663 -0.839045 2.445712 0.055622 -0.003302 163771.000000 1 0 0
-4.725018 9.103700 -16.249680 19.216016 -1.092047 2.578545 0.006803 -0.007017 508290.000000 1 0 0
2.585882 -9.636500 -18.429780 20.957236 -1.308630 2.645396 0.019047 -0.001777 251309.000000 1 0 0
11.375182 8.045900 -15.017680 20.485653 0.615622 2.393640 0.059964 -0.038021 400324.000000 1 0 0
18.573482 -6.875700 -8.430880 21.525083 -0.354546 1.973250 0.068860 -0.012070 88760.200000 1 0 0
12.186382 5.036100 -13.862180 19.131917 0.391882 2.381189 0.005572 -0.010059 134936.000000 1 0 0
15.596882 6.751000 -10.767380 20.119026 0.408495 2.135522 0.000738 -0.018530 209560.000000 1 0 0
3.652582 -0.279500 -19.043580 19.392716 -0.076372 2.951552 0.032410 -0.013789 147041.000000 1 0 0
10.061882 -1.462500 -14.738380 17.905313 -0.144340 2.537696 0.015924 -0.007929 -157243.000000 1 0 0
12.336482 -5.741000 -14.016780 19.535045 -0.435560 2.371031 0.045310 -0.010215 215538.000000 1 0 0
10.378282 6.481900 -12.878780 17.764761 0.558286 2.381776 0.028900 -0.005282 646882.000000 1 0 0
10.779482 5.477800 -16.420180 20.391808 0.470162 2.506867 0.034470 -0.014455 422564.000000 1 0 0
11.927482 -10.053200 -15.202080 21.781527 -0.700334 2.343306 0.083856 -0.023538 306363.000000 1 0 0
-1.372618 2.229700 -17.403280 17.599142 -1.018980 2.992262 0.023667 -0.012545 273142.000000 1 0 0
6.416182 -1.055200 -16.843380 18.054924 -0.163000 2.773170 0.025032 -0.003392 31663.800000 1 0 0
6.946282 -6.106400 -15.903980 18.397705 -0.721141 2.614861 0.018082 -0.003264 219053.000000 1 0 0
-1.967018 -4.786700 -20.625180 21.264518 1.180900 2.895756 0.019632 -0.017564 346689.000000 1 0 0
16.132082 -0.339500 -13.279380 20.897398 -0.021042 2.259395 0.026987 -0.009772 -5091.190000 1 0 0
-4.154618 -0.234400 -18.750680 19.206869 0.056359 2.923208 0.021101 -0.015007 217976.000000 1 0 0
3.526682 8.953300 -17.417980 19.899374 1.195562 2.636858 0.050199 -0.031046 -26454.400000 1 0 0
10.083882 0.144500 -17.476780 20.177795 0.014329 2.618222 0.039826 -0.003402 -181214.000000 1 0 0
4.273082 4.692800 -18.489180 19.548181 0.832177 2.810926 0.034967 -0.001186 391863.000000 1 0 0
-1.997918 -11.285900 -18.195080 21.504050 1.395584 2.579466 0.029599 -0.008279 216585.000000 1 0 0
6.548782 -9.124700 -16.374680 19.856406 -0.948291 2.540388 0.036699 -0.004686 172681.000000 1 0 0
10.483982 -12.283300 -10.958280 19.516076 -0.864265 2.166994 0.038404 -0.000133 185035.000000 1 0 0
6.140582 6.826900 -17.181080 19.480832 0.838275 2.650775 0.045310 -0.009959 253727.000000 1 0 0
8.467982 1.198400 -20.016580 21.767094 0.140588 2.737806 0.040048 -0.016277 53812.300000 1 0 0
-0.997018 -0.749800 -20.253480 20.291863 0.644807 3.080076 0.034587 -0.015889 143170.000000 1 0 0
-0.907718 6.867500 -19.661480 20.846110 -1.439382 2.802848 0.034994 -0.012794 225513.000000 1 0 0
8.776582 5.851600 -18.425880 21.231643 0.588046 2.621655 0.049099 -0.012845 -35828.700000 1 0 0
12.393782 -0.121400 -12.966580 17.937468 -0.009795 2.378753 0.016849 -0.005045 -97267.400000 1 0 0
-4.063218 -2.362100 -19.879680 20.427701 0.526584 2.909437 -0.000741 -0.016435 415475.000000 1 0 0
5.337382 -11.464800 -14.587480 19.306058 -1.135091 2.427352 -0.001536 0.002548 -127740.000000 1 0 0
11.502982 2.632100 -15.699880 19.640081 0.224946 2.497058 0.026408 -0.006283 -131310.000000 1 0 0
-2.972418 -4.495900 -17.089680 17.919419 0.986630 2.836091 0.007374 -0.005810 300711.000000 1 0 0
-6.771518 -4.713800 -17.384380 19.242922 0.608118 2.698469 0.031114 -0.019870 13127.200000 1 0 0
2.743182 10.844700 -15.569880 19.171691 1.323042 2.518588 0.021705 -0.007955 300744.000000 1 0 0
16.823282 -6.517800 -10.990480 21.125700 -0.369621 2.117931 0.060972 -0.015243 -66517.200000 1 0 0
9.582082 -3.223600 -17.535380 20.240984 -0.324526 2.618604 0.025686 -0.019319 148781.000000 1 0 0
-7.165018 -1.650600 -18.965580 20.340974 0.226419 2.771747 0.009924 -0.005945 493149.000000 1 0 0
1.297882 -7.682200 -19.332280 20.843171 -1.403430 2.758496 0.025494 -0.013116 272300.000000 1 0 0
5.676382 10.326200 -14.013180 18.309040 1.068178 2.442412 0.050616 -0.019664 350519.000000 1 0 0
6.218082 -3.505800 -17.885580 19.257444 -0.513382 2.761855 0.037227 -0.016886 538012.000000 1 0 0
4.734182 13.465900 -14.629380 20.439220 1.232725 2.368494 0.055684 -0.021697 117700.000000 1 0 0
10.129182 11.098500 -15.465480 21.562887 0.831029 2.370611 0.110615 -0.026409 86342.100000 1 0 0
17.230582 1.014000 -11.261980 20.609545 0.058781 2.148910 0.050683 -0.006856 26110.100000 1 0 0
14.845882 -2.781900 -12.574280 19.653287 -0.185237 2.265041 0.037606 -0.005182 103131.000000 1 0 0
-8.904118 -0.094900 -17.275080 19.435039 0.010658 2.665653 0.037332 -0.022317 335926.000000 1 0 0
-3.380418 4.127000 -19.187580 19.915386 -0.884518 2.870411 0.036156 -0.013243 68037.000000 1 0 0
4.624382 2.469300 -17.036580 17.824910 0.490456 2.843076 0.020533 -0.004055 456753.000000 1 0 0
-5.176818 14.231700 -13.879480 20.542169 -1.221923 2.312653 0.010748 -0.005683 334797.000000 1 0 0
0.879782 9.215700 -17.933180 20.181727 1.475619 2.665048 0.023856 -0.009411 261579.000000 1 0 0
1.057682 -5.244600 -20.046980 20.748637 -1.371795 2.880789 0.026040 0.000955 433849.000000 1 0 0
3.710482 -6.235400 -18.060280 19.463340 -1.034012 2.759571 0.027897 -0.017237 -22836.400000 1 0 0
-7.456718 6.982700 -16.083680 19.053753 -0.752582 2.575721 0.021629 0.003298 170353.000000 1 0 0
-11.814818 3.202800 -16.857780 20.833449 -0.264721 2.513533 0.069022 -0.027324 308793.000000 1 0 0
-4.641818 7.019000 -17.822480 19.709227 -0.986503 2.700465 0.011384 0.027729 324309.000000 1 0 0
-8.090318 4.969300 -17.826580 20.197380 -0.550816 2.652200 0.025966 -0.006910 169937.000000 1 0 0
-8.060218 3.796000 -15.146180 17.572237 -0.440143 2.609876 -0.000762 -0.011719 285449.000000 1 0 0
9.646982 13.500200 -12.618580 20.845820 0.950352 2.220976 0.092031 -0.034569 510190.000000 1 0 0
14.391382 8.873700 -12.118280 20.801614 0.552535 2.192677 0.077414 -0.015983 -210241.000000 1 0 0
8.728982 15.686400 -9.794780 20.449841 1.063001 2.070273 0.049468 -0.017168 6119.880000 1 0 0
8.134882 13.885000 -14.232780 21.483518 1.040827 2.294945 0.085351 -0.031984 192738.000000 1 0 0
4.111282 15.492800 -12.829480 20.531075 1.311407 2.245776 0.051381 -0.027990 160269.000000 1 0 0
11.061282 11.331800 -10.416080 18.954059 0.797478 2.152614 0.068608 -0.038306 146232.000000 1 0 0
16.056082 10.469700 -9.901080 21.574146 0.577829 2.047590 0.078885 -0.016139 231633.000000 1 0 0
13.249782 11.250800 -10.145280 20.126200 0.703989 2.099116 0.082084 -0.016998 -89551.700000 1 0 0
11.306782 11.630200 -7.778880 17.989326 0.799498 2.017967 0.056908 -0.006305 352787.000000 1 0 0
6.142682 16.832200 -9.796980 20.421467 1.220878 2.071154 0.063583 -0.017883 40610.100000 1 0 0
11.278582 13.653100 -10.362980 20.518404 0.880353 2.100245 0.091510 -0.033920 75090.300000 1 0 0
8.892382 -19.268400 -1.609880 21.282326 -1.138420 1.646513 0.053211 -0.009402 208067.000000 1 0 0
7.463382 -16.781700 -4.010980 18.799348 -1.152331 1.785807 0.036535 -0.018532 353037.000000 1 0 0
3.799082 -18.729900 5.340320 19.843417 -1.370676 1.298314 0.046296 -0.022106 41412.900000 1 0 0
10.620582 -17.725000 -2.677280 20.836032 -1.030975 1.699645 0.055890 -0.013077 769468.000000 1 0 0
-3.344618 -14.826700 7.930720 17.143915 1.348929 1.089874 0.019156 -0.030076 65890.900000 1 0 0
-15.266418 -12.585000 -3.984680 20.182255 0.689418 1.769537 0.023173 -0.010720 242606.000000 1 0 0
-9.498218 -12.923900 -7.162380 17.565393 0.937007 1.990791 0.018393 -0.003273 255705.000000 1 0 0
-11.452818 -15.000800 6.916620 20.100514 0.918723 1.219515 0.051492 -0.017168 190387.000000 1 0 0
-15.005418 -7.401200 -7.283580 18.248038 0.458221 1.981379 0.059643 -0.027138 -51413.500000 1 0 0
4.410382 -14.851000 6.006420 16.615678 -1.282117 1.200930 0.027494 -0.020858 140931.000000 1 0 0
2.746982 -13.941100 9.001320 16.820343 -1.376247 1.006117 0.019169 -0.012064 320322.000000 1 0 0
3.157782 -17.333700 9.787220 20.154861 -1.390597 1.063746 0.045523 -0.015979 260645.000000 1 0 0
-7.290918 -17.407800 -5.300280 19.603111 1.174163 1.844584 -0.018976 -0.010340 -151434.000000 1 0 0
2.371782 -19.825400 -4.025880 20.368592 -1.451729 1.769758 0.038279 -0.017448 182034.000000 1 0 0
-18.414618 -10.361600 -2.202180 21.244070 0.512529 1.674644 0.036105 -0.012945 -279269.000000 1 0 0
-4.097618 -15.103300 2.937220 15.922544 1.305867 1.385265 -0.001726 0.004668 56216.400000 1 0 0
-10.660718 -9.847600 -14.799380 20.727947 0.745771 2.365965 0.037651 0.003990 115508.000000 1 0 0
0.625782 -20.410900 2.473420 20.569741 -1.540147 1.450259 0.032883 -0.014656 278357.000000 1 0 0
5.539782 -18.620100 0.595520 19.435842 -1.281620 1.540151 0.017342 -0.000585 171545.000000 1 0 0
-7.725218 -18.998700 -3.207980 20.758631 1.184598 1.725955 0.026129 -0.018848 165832.000000 1 0 0
-9.283018 -16.250100 -7.280080 20.080831 1.051778 1.941787 0.035688 -0.000206 57387.400000 1 0 0
-11.927418 -11.387300 -12.428880 20.649721 0.762236 2.216663 0.041131 0.011941 316788.000000 1 0 0
-13.205418 -15.590600 -3.527980 20.733946 0.868040 1.741783 0.021871 0.012056 188779.000000 1 0 0
-0.271818 -20.185100 -2.457980 20.336023 1.557331 1.691961 0.049369 -0.023198 400491.000000 1 0 0
-12.373218 -16.472200 -0.812480 20.617712 0.926555 1.610213 0.046824 -0.014715 230176.000000 1 0 0
0.878982 -20.270000 4.918820 20.876789 -1.527460 1.332948 0.047262 -0.019548 155710.000000 1 0 0
-18.086818 -8.838700 2.472620 20.282245 0.454552 1.448582 0.060117 -0.009167 54940.900000 1 0 0
-14.911318 -14.934400 -0.472680 21.109409 0.786172 1.593190 0.046781 -0.009535 -7431.740000 1 0 0
9.924582 -15.651400 -4.842680 19.155031 -1.005679 1.826385 0.037465 -0.007964 75379.100000 1 0 0
0.192882 -19.055100 -7.099980 20.335776 -1.560674 1.927447 0.030368 -0.010753 143234.000000 1 0 0
-9.906818 -17.648500 -3.006080 20.460966 1.059288 1.718248 0.021049 0.015922 420666.000000 1 0 0
-14.512718 -6.744400 -11.311980 19.597623 0.435030 2.186107 0.046630 -0.016385 -156821.000000 1 0 0
-12.012218 -15.060600 2.270420 19.397677 0.897525 1.453481 0.035037 -0.014895 107233.000000 1 0 0
-2.453618 -16.301400 10.413620 19.498702 1.421402 1.007392 0.015209 -0.016244 463877.000000 1 0 0
-12.958018 -14.630100 -6.253480 20.519651 0.845933 1.880478 0.037505 -0.003821 270345.000000 1 0 0
5.036082 -16.929700 -7.342280 19.128145 -1.281662 1.964755 0.014774 -0.013775 44181.200000 1 0 0
-17.510418 -7.193400 -3.018480 19.169533 0.389788 1.728917 -0.000100 -0.007251 -126057.000000 1 0 0
-12.594918 -13.268900 -8.551680 20.194725 0.811451 2.008059 0.059416 -0.037771 193128.000000 1 0 0
-7.771418 -13.959200 10.133320 18.919259 1.062806 1.005568 0.039030 -0.011283 494576.000000 1 0 0
-16.109318 -8.378800 -5.477880 18.966328 0.479615 1.863792 0.046237 -0.004303 396795.000000 1 0 0
-0.871618 -19.866700 0.225420 19.887089 1.526951 1.559461 0.029044 -0.007022 267901.000000 1 0 0
-14.741518 -11.220800 -1.460880 18.583673 0.650612 1.649488 -0.005219 -0.004393 153328.000000 1 0 0
-7.098318 -19.007900 1.530820 20.347722 1.213394 1.495492 0.029932 -0.015959 100297.000000 1 0 0
-2.068618 -20.743400 -5.365480 21.525710 1.471401 1.822712 0.032466 -0.008438 218705.000000 1 0 0
-9.263318 -19.376400 -0.336580 21.479461 1.124844 1.586467 0.040924 -0.021284 168901.000000 1 0 0
-17.848918 -7.718800 5.086220 20.100582 0.408166 1.314977 0.071874 -0.021876 168783.000000 1 0 0
-2.962418 -15.749400 -10.792980 19.321179 1.384872 2.163504 0.016974 -0.002034 29021.500000 1 0 0
-2.925518 -18.240000 -8.210580 20.215585 1.411761 1.989034 0.010508 -0.005479 257666.000000 1 0 0
4.391182 -18.019500 -5.608780 19.376359 -1.331765 1.864464 0.015446 0.016948 689234.000000 1 0 0
0.722882 -17.420700 -9.395180 19.805877 -1.529325 2.065037 0.023367 -0.001743 -70402.500000 1 0 0
-7.626818 -9.985900 -14.283780 19.024010 0.918548 2.420113 0.027976 -0.020612 251399.000000 1 0 0
-5.251718 -19.324200 -1.954680 20.120289 1.305436 1.668100 0.029047 -0.018957 284012.000000 1 0 0
-10.254218 -15.586900 8.810520 20.633122 0.988906 1.129614 0.051842 -0.028404 176106.000000 1 0 0
-7.358318 -14.971300 -10.222580 19.564913 1.113976 2.120572 0.032864 -0.015232 332021.000000 1 0 0
-12.585418 -7.841700 -12.647880 19.489841 0.557216 2.276996 0.042189 -0.004820 339666.000000 1 0 0
-15.657918 -12.991500 2.987420 20.563904 0.692595 1.425005 0.049918 -0.007707 25334.800000 1 0 0
-6.312018 -14.320100 -12.953180 20.314815 1.155636 2.262204 0.024700 -0.003775 447493.000000 1 0 0
-13.840218 -11.440000 -6.952480 19.255187 0.690737 1.940212 0.018502 -0.013512 252540.000000 1 0 0
-11.328318 -10.219000 -8.519080 17.473794 0.733961 2.080060 0.007349 -0.010198 277852.000000 1 0 0
-9.480918 -14.979200 3.201320 18.014236 1.006509 1.392137 0.012584 0.001131 343374.000000 1 0 0
5.462482 -17.496200 7.999820 19.998821 -1.268176 1.159264 0.066195 -0.042129 269752.000000 1 0 0
-5.015018 -16.684500 5.404120 18.240819 1.278808 1.270016 0.013702 0.004064 330743.000000 1 0 0
-18.700818 -7.298400 -6.924480 21.235246 0.372092 1.902955 0.057714 -0.020436 62996.300000 1 0 0
-17.123118 -5.028100 -10.741580 20.829415 0.285615 2.112612 0.071759 -0.005401 -202076.000000 1 0 0
-15.689418 -4.201500 -12.969580 20.785102 0.261653 2.244628 0.063253 -0.015463 191029.000000 1 0 0
-19.601218 -4.932000 -6.073980 21.105109 0.246500 1.862722 0.066250 -0.016703 48271.100000 1 0 0
5.210382 -13.590900 8.715820 16.965440 -1.204705 1.031258 0.023602 -0.010027 250868.000000 1 0 0
19.897282 -3.884700 3.036520 20.499102 -0.192812 1.422120 0.062248 -0.010499 -49036.700000 1 0 0
18.050782 -2.443800 -0.040480 18.215502 -0.134567 1.573019 0.035106 -0.012079 236143.000000 1 0 0
14.429482 -11.287000 0.155920 18.320224 -0.663804 1.562285 0.043541 0.001934 87954.400000 1 0 0
11.196382 -13.854800 5.382420 18.608732 -0.891122 1.277362 0.021125 0.000918 522350.000000 1 0 0
10.667182 -12.129500 7.816120 17.944505 -0.849457 1.120123 0.042892 -0.043131 -306235.000000 1 0 0
17.720882 4.817500 -4.494780 18.906110 0.265439 1.810837 0.012069 -0.000943 -89080.600000 1 0 0
18.162882 -6.297200 -4.749780 19.801652 -0.333738 1.813026 0.016257 -0.019482 -127969.000000 1 0 0
17.901782 -10.009700 -0.393180 20.513958 -0.509838 1.589964 0.075755 -0.007747 459116.000000 1 0 0
17.477582 -8.727900 8.364720 21.251133 -0.463149 1.166238 0.074765 -0.017838 32744.200000 1 0 0
19.523782 0.100600 -2.639780 19.701691 0.005153 1.705188 0.048420 -0.000414 177493.000000 1 0 0
7.381382 -13.284600 11.615220 19.127957 -1.063638 0.918217 0.015291 -0.002930 412115.000000 1 0 0
16.111682 -6.332400 -3.589780 17.679709 -0.374485 1.775263 0.047872 -0.009849 217597.000000 1 0 0
14.230682 -6.930100 11.199820 19.390063 -0.453180 0.955003 0.047601 -0.047438 359419.000000 1 0 0
17.125582 2.437300 9.593720 19.780431 0.141370 1.064421 0.112794 -0.020207 415340.000000 1 0 0
16.746382 -9.974700 2.672620 19.674319 -0.537202 1.434532 0.033368 -0.011230 361095.000000 1 0 0
16.464182 -7.441400 -6.261280 19.121907 -0.424495 1.904389 0.067231 -0.004850 159122.000000 1 0 0
18.685782 -4.988800 5.087020 19.998108 -0.260898 1.313595 0.146936 -0.027007 -220474.000000 1 0 0
13.343782 -13.361600 7.971520 20.497170 -0.786065 1.171350 0.018904 -0.014919 237246.000000 1 0 0
15.250082 -14.181400 -2.070480 20.927589 -0.749103 1.669894 0.051021 -0.004529 112484.000000 1 0 0
18.626182 -6.342200 8.462720 21.419052 -0.328186 1.164617 0.083148 -0.017191 369155.000000 1 0 0
19.667382 3.336100 2.746320 20.136478 0.168027 1.433985 0.067582 0.003557 266360.000000 1 0 0
15.661182 -10.415100 8.211820 20.522692 -0.586866 1.159134 0.040590 -0.031073 431553.000000 1 0 0
14.169582 -4.550200 10.725920 18.344665 -0.310723 0.946300 0.043203 -0.013495 -66604.700000 1 0 0
18.750282 -7.592000 1.818520 20.310552 -0.384724 1.481141 0.073258 -0.013893 106790.000000 1 0 0
18.781382 -4.988700 -1.901080 19.525407 -0.259624 1.668315 0.047402 -0.017566 247861.000000 1 0 0
14.796982 -13.684100 -5.790380 20.969830 -0.746344 1.850561 0.074688 -0.020481 527028.000000 1 0 0
13.881582 -9.396400 10.295120 19.671811 -0.595052 1.020026 0.031191 -0.023421 341271.000000 1 0 0
14.206682 2.478400 0.443920 14.428075 0.172715 1.540024 0.001162 0.001708 -171834.000000 1 0 0
12.886982 2.858800 13.545120 18.913416 0.218301 0.772505 0.034120 -0.009278 182552.000000 1 0 0
18.049782 -3.720200 8.844220 20.441495 -0.203261 1.123355 0.063318 -0.024606 -16826.300000 1 0 0
7.133682 -18.414000 5.009120 20.372926 -1.201194 1.322378 0.036208 -0.028114 382051.000000 1 0 0
12.746482 -2.761800 15.046120 19.911958 -0.213373 0.714177 0.035614 0.000040 296690.000000 1 0 0
11.399482 -13.923300 -6.617180 19.172729 -0.884736 1.923179 0.038606 -0.018541 211168.000000 1 0 0
10.279282 -18.212500 5.387120 21.595829 -1.056959 1.318682 0.005500 0.001992 487979.000000 1 0 0
18.186382 -0.620200 -5.717180 19.073942 -0.034089 1.875214 0.048736 -0.008422 332898.000000 1 0 0
4.164782 -13.475500 11.541920 18.224994 -1.271046 0.884984 0.008068 -0.011954 130816.000000 1 0 0
9.261382 -2.513300 14.422820 17.323614 -0.264992 0.587096 0.016798 -0.005749 423810.000000 1 0 0
8.680082 -9.094500 13.877120 18.725069 -0.808709 0.736091 0.002217 -0.014850 416485.000000 1 0 0
21.053082 5.935800 -3.112180 22.094154 0.274811 1.712126 0.093121 -0.004318 524322.000000 1 0 0
14.709882 -13.616800 1.894020 20.134179 -0.746829 1.476587 0.027882 0.007889 199604.000000 1 0 0
11.094582 0.004900 15.037920 18.687664 0.000442 0.635630 0.036290 -0.009667 -38503.300000 1 0 0
19.663482 0.345900 7.652520 21.102920 0.017589 1.199710 0.117287 -0.022016 227159.000000 1 0 0
19.840182 0.967700 0.473520 19.869410 0.048736 1.546962 0.063154 -0.006709 137687.000000 1 0 0
18.244982 0.125800 3.347120 18.549889 0.006895 1.389364 0.047707 -0.001071 143445.000000 1 0 0
9.900282 -8.460200 16.255920 20.828958 -0.707125 0.675414 0.009829 -0.005684 61997.600000 1 0 0
18.822382 3.177800 5.671020 19.913335 0.167254 1.282014 0.046820 0.007859 62925.300000 1 0 0
16.123882 2.552700 7.245220 17.860264 0.157015 1.153094 0.061712 -0.013554 99654.200000 1 0 0
11.375282 -15.951100 2.102920 19.704236 -0.951309 1.463868 0.015714 0.001919 172110.000000 1 0 0
8.606582 -16.068000 6.896320 19.488794 -1.079049 1.209101 0.023103 -0.012468 459497.000000 1 0 0
6.206882 6.693200 7.130120 11.582871 0.823079 0.907682 0.001099 0.001711 -960814.000000 1 0 0
18.444182 3.068800 -6.374480 19.754477 0.164873 1.899362 0.036749 -0.003528 258853.000000 1 0 0
14.092382 4.412400 -7.272280 16.460576 0.303436 2.028400 0.012676 -0.006487 309701.000000 1 0 0
-10.440818 -3.872200 -14.080980 17.952120 0.355146 2.472465 0.016210 -0.002678 -208923.000000 1 0 0
7.785382 -14.310000 -10.223280 19.232882 -1.072531 2.131228 0.008933 0.008092 156828.000000 1 0 0
1.971182 -15.817800 13.933620 21.171540 -1.446818 0.852464 0.017009 -0.009443 339262.000000 1 0 0
-9.267018 -7.859500 1.915120 12.301100 0.703399 1.414474 0.008632 0.000982 298781.000000 1 0 0
-13.829118 3.183400 -9.581180 17.122429 -0.226254 2.164662 0.022239 -0.001462 276732.000000 1 0 0
-12.751718 -4.774100 -13.364680 19.079126 0.358235 2.346876 0.032388 -0.009485 226138.000000 1 0 0
-17.998018 -1.406500 -8.708780 20.043696 0.077989 2.020268 0.062206 -0.024000 475520.000000 1 0 0
-12.099918 15.283000 4.219520 19.944484 -0.901122 1.357622 0.029203 -0.017493 470750.000000 1 0 0
-17.437218 6.477300 9.128720 20.720654 -0.355667 1.114572 0.037213 -0.010085 230093.000000 1 0 0
-13.154818 15.577400 -0.320680 20.391358 -0.869515 1.586523 0.051767 -0.019090 115323.000000 1 0 0
-15.845718 5.524800 -10.668980 19.885606 -0.335482 2.137102 0.023095 -0.005196 -10241.700000 1 0 0
-18.544118 3.074600 -0.336880 18.800292 -0.164305 1.588716 0.064319 -0.002877 -248132.000000 1 0 0
-9.822118 15.442600 -0.142680 18.302138 -1.004297 1.578592 0.025555 -0.016607 -31317.400000 1 0 0
-18.689618 11.350900 2.351720 21.992620 -0.545797 1.463659 0.142884 -0.026652 -6980.490000 1 0 0
-8.748218 16.284000 -7.631480 19.998487 -1.077812 1.962326 0.059546 -0.026134 101552.000000 1 0 0
-15.141418 -1.728200 -12.428080 19.664852 0.113645 2.254921 0.061766 -0.035203 9073.370000 1 0 0
-19.245718 5.008400 -4.829280 20.464694 -0.254588 1.809024 0.071949 -0.003971 60699.300000 1 0 0
-16.710918 10.051000 -5.194080 20.180581 -0.541495 1.831106 0.035253 0.011946 45680.800000 1 0 0
-19.134318 1.424900 2.293620 19.323902 -0.074331 1.451822 0.059788 -0.017328 471692.000000 1 0 0
-13.717218 11.427200 -6.782680 19.098370 -0.694574 1.933865 0.024056 -0.020421 31063.500000 1 0 0
-13.711418 4.105800 -12.599780 19.068693 -0.290946 2.292624 0.076783 -0.034731 155381.000000 1 0 0
-14.159918 8.957300 -6.590980 18.004931 -0.564032 1.945574 0.015659 -0.011294 439714.000000 1 0 0
-6.447718 11.316800 -15.374980 20.150262 -1.052918 2.438763 0.011172 -0.020954 583.882000 1 0 0
-14.872118 13.884100 3.407720 20.629122 -0.751053 1.404846 0.040963 -0.021457 133527.000000 1 0 0
-18.679418 8.576900 -4.874780 21.124568 -0.430448 1.803659 0.063022 -0.009991 192735.000000 1 0 0
-4.800918 16.359200 -11.356680 20.485273 -1.285342 2.158417 0.019484 0.000887 74312.400000 1 0 0
-19.382818 -2.405400 -6.521480 20.591486 0.123468 1.893053 0.042840 -0.017294 -44705.600000 1 0 0
-12.262018 13.690400 -6.531980 19.505151 -0.840381 1.912279 0.054924 -0.012103 211741.000000 1 0 0
-19.152518 2.636900 4.350620 19.816662 -0.136819 1.349450 0.051785 -0.013742 52027.000000 1 0 0
-15.479818 13.140900 0.526220 20.312187 -0.703858 1.544887 0.051016 0.002186 -45948.800000 1 0 0
-17.389918 2.502400 -8.326080 19.442090 -0.142918 2.013352 0.013703 -0.007644 225325.000000 1 0 0
-16.181618 13.949200 -4.550480 21.843347 -0.711442 1.780657 0.023469 0.027852 138030.000000 1 0 0
-11.021318 15.494600 -8.550280 20.848486 -0.952526 1.993377 0.045008 -0.016297 111179.000000 1 0 0
-19.246318 1.962600 -6.772880 20.497426 -0.101621 1.907551 0.054523 -0.009857 84952.200000 1 0 0
-17.007218 10.469900 -0.257980 19.973253 -0.551822 1.583713 0.042487 -0.000240 52093.100000 1 0 0
-11.888618 6.800600 -14.283280 19.788873 -0.519596 2.377172 0.043624 -0.023404 328737.000000 1 0 0
-12.818018 12.597600 -3.872380 18.384680 -0.776726 1.783017 0.035877 -0.008094 438066.000000 1 0 0
-18.787418 7.427400 -0.051680 20.202377 -0.376482 1.573354 0.052506 -0.001801 -28277.100000 1 0 0
-14.691418 8.609100 -10.546780 20.029702 -0.530058 2.125342 0.028150 0.004057 644330.000000 1 0 0
-18.475618 11.156900 5.318220 22.228548 -0.543261 1.329201 0.087319 -0.031208 147912.000000 1 0 0
-8.170618 11.738000 -13.562480 19.709909 -0.962704 2.329670 0.006511 -0.008061 335449.000000 1 0 0
-21.194618 -1.836500 -4.768280 21.801859 0.086433 1.791288 0.056874 -0.026373 335280.000000 1 0 0
-10.955618 13.873800 -3.874280 18.097457 -0.902391 1.786545 0.027652 0.006426 461165.000000 1 0 0
-18.752518 -5.059100 3.804120 19.791987 0.263509 1.377388 0.063757 -0.014943 -114650.000000 1 0 0
-11.417518 11.372900 -13.481180 21.010588 -0.783440 2.267428 0.045650 -0.000664 245962.000000 1 0 0
-14.720518 11.188900 -10.466480 21.246937 -0.649927 2.085884 0.043709 -0.013434 214863.000000 1 0 0
-12.503618 9.344900 -14.183580 21.091268 -0.641819 2.308359 0.059058 -0.018200 360685.000000 1 0 0
-18.021818 -4.932400 -3.250080 18.965166 0.267148 1.743017 -0.002592 -0.012630 -361254.000000 1 0 0
-9.344818 12.551100 -11.657380 19.512823 -0.930798 2.211078 0.022113 -0.001639 -60935.800000 1 0 0
-15.657318 7.815400 -8.190880 19.321558 -0.462970 2.008570 0.017883 0.001826 114194.000000 1 0 0
-14.604618 8.961500 2.003420 17.251581 -0.550365 1.454404 0.025158 0.000679 49043.700000 1 0 0
-20.076918 6.056400 7.364020 22.225918 -0.292979 1.233088 0.083572 -0.022136 245591.000000 1 0 0
-18.986318 6.079600 4.045020 20.342173 -0.309893 1.370613 0.045272 0.002671 75410.500000 1 0 0
-14.576718 12.839600 5.959220 20.318670 -0.722122 1.273132 0.038134 -0.016009 72973.100000 1 0 0
17.889482 6.001300 5.561920 19.671912 0.323668 1.284153 0.044080 -0.017358 176045.000000 1 0 0
18.292282 8.378500 0.341220 20.122705 0.429515 1.553839 0.045212 0.004989 -157285.000000 1 0 0
15.744182 5.558200 9.146320 19.037542 0.339373 1.069645 0.025967 0.004787 -60847.600000 1 0 0
12.026682 13.220800 10.713220 20.837555 0.832659 1.030803 0.052291 -0.022172 95376.900000 1 0 0
15.319082 12.372200 4.243520 20.143313 0.679378 1.358540 0.044377 -0.008426 213553.000000 1 0 0
5.180282 10.488300 14.482120 18.616432 1.112032 0.679445 0.020334 -0.007515 289415.000000 1 0 0
12.531882 14.345100 -5.217280 19.749683 0.852760 1.838140 0.046457 0.020563 257389.000000 1 0 0
18.114682 9.196400 -2.910580 20.522839 0.469770 1.713098 0.058471 -0.007583 -53651.700000 1 0 0
14.140682 7.837700 9.505920 18.755024 0.506113 1.039274 0.039862 -0.019899 101149.000000 1 0 0
4.971582 18.799600 -1.761680 19.525499 1.312263 1.661144 0.028325 -0.023486 455925.000000 1 0 0
-4.681418 19.115700 3.147220 19.930646 -1.330624 1.412224 0.014887 -0.021335 328013.000000 1 0 0
6.829882 12.890900 12.658520 19.314779 1.083577 0.856111 0.033956 -0.008239 -134400.000000 1 0 0
0.516582 17.011300 -10.263680 19.874464 1.540439 2.113468 0.018987 0.003341 -3513.550000 1 0 0
10.723582 9.013500 15.566620 20.941777 0.698971 0.732764 0.051530 -0.030327 19394.800000 1 0 0
-1.326418 12.128300 0.808720 12.227390 -1.461864 1.504608 0.001323 -0.000205 465922.000000 1 0 0
-4.751818 19.162500 -2.431180 19.892004 -1.327725 1.693322 0.029006 -0.002620 -40928.900000 1 0 0
6.338082 18.055800 6.383420 20.172537 1.233206 1.248821 0.032804 -0.028966 -22938.100000 1 0 0
11.298282 17.135500 -1.461480 20.576988 0.987877 1.641881 0.050922 -0.027443 330023.000000 1 0 0
18.536482 10.483300 3.296620 21.549209 0.514703 1.417212 0.055662 -0.009453 320478.000000 1 0 0
11.828382 16.603300 6.725320 21.466488 0.951789 1.252137 0.053788 -0.006975 30687.600000 1 0 0
18.044982 8.050800 -6.293180 20.737427 0.419649 1.879128 0.045473 0.013198 472725.000000 1 0 0
0.128282 15.471800 11.033420 19.003405 1.562505 0.951328 0.006730 -0.002420 367278.000000 1 0 0
1.328382 20.227200 -1.856880 20.355643 1.505217 1.662145 0.042495 -0.015494 312284.000000 1 0 0
14.504682 9.757500 -1.357680 17.533907 0.592177 1.648306 0.034398 -0.006347 -50074.100000 1 0 0
9.908882 17.437600 1.576720 20.118197 1.054051 1.492343 0.030719 -0.025911 143595.000000 1 0 0
0.509282 18.016000 -0.535480 18.031150 1.542536 1.600498 0.016223 0.002497 55893.900000 1 0 0
-0.106818 20.802200 1.119320 20.832566 -1.565661 1.517041 0.031457 -0.016821 283847.000000 1 0 0
6.186482 17.316500 -0.255780 18.390192 1.227669 1.584705 0.016358 -0.030496 -151300.000000 1 0 0
8.143382 18.584400 -2.147380 20.403574 1.157812 1.676237 0.025344 -0.021765 40838.600000 1 0 0
10.466182 9.700400 12.714720 19.112896 0.747444 0.842977 0.041592 -0.014915 95863.900000 1 0 0
13.460282 14.777200 8.319920 21.651002 0.832002 1.176375 0.060050 -0.021157 147320.000000 1 0 0
0.307482 17.589200 6.942120 18.912100 1.553317 1.194936 0.011507 -0.007844 278830.000000 1 0 0
7.438382 18.165900 -7.800480 21.122901 1.182153 1.949041 0.035946 -0.010197 -53791.700000 1 0 0
-1.315118 18.498200 9.114220 20.663541 -1.499821 1.113998 0.039165 -0.017629 244662.000000 1 0 0
16.098182 6.836600 -7.892580 19.188105 0.401601 1.994705 0.044305 -0.003058 -118511.000000 1 0 0
-5.398918 19.549700 -6.630280 21.337753 -1.301349 1.886757 0.033512 -0.019745 228100.000000 1 0 0
3.989282 15.724800 10.068820 19.093581 1.322344 1.015329 0.020682 -0.003893 187477.000000 1 0 0
8.918782 14.965500 7.523320 18.976596 1.033356 1.163147 0.027134 -0.008099 69854.100000 1 0 0
-2.737118 19.484900 6.319820 20.666235 -1.431236 1.260013 0.016506 -0.015982 134630.000000 1 0 0
4.640282 17.856700 8.296820 20.229463 1.316557 1.148194 0.024649 -0.016333 140140.000000 1 0 0
13.714782 11.782600 -6.353080 19.164721 0.709763 1.908688 -0.008726 -0.019026 -89263.200000 1 0 0
11.727482 6.894200 15.843420 20.882475 0.531450 0.709490 0.055756 -0.012940 309816.000000 1 0 0
17.088382 9.580800 4.952620 20.207250 0.510992 1.323183 0.049714 -0.015946 132195.000000 1 0 0
5.227382 14.764800 12.012620 19.738994 1.230524 0.916535 0.020094 -0.030314 384815.000000 1 0 0
16.012782 10.459200 -3.818780 19.503516 0.578606 1.767869 0.062588 -0.016824 76279.700000 1 0 0
15.508382 13.959600 6.825520 21.953771 0.732888 1.254652 0.058476 0.002089 374677.000000 1 0 0
12.606282 14.789500 -8.002980 21.016549 0.864922 1.961451 0.089988 -0.019556 238231.000000 1 0 0
-8.465718 15.574400 9.642520 20.179408 -1.072906 1.072603 0.032563 -0.013033 235306.000000 1 0 0
-3.728218 17.498400 -7.880780 19.549944 -1.360875 1.985709 0.011572 0.032673 29569.400000 1 0 0
2.763982 19.525000 -4.472280 20.220448 1.430170 1.793817 0.038735 -0.024093 139557.000000 1 0 0
7.150682 16.322800 8.981220 19.955660 1.157900 1.103965 0.036342 -0.019762 454890.000000 1 0 0
13.627582 15.352400 -1.776080 20.604893 0.844846 1.657100 0.081032 -0.025036 298681.000000 1 0 0
12.691482 16.739800 4.232520 21.429158 0.922092 1.371977 0.063277 -0.026658 294662.000000 1 0 0
3.262882 18.467600 0.603120 18.763326 1.395920 1.538647 0.040005 -0.018001 58565.400000 1 0 0
-7.319418 17.523100 1.296220 19.034524 -1.175124 1.502645 0.008147 0.002144 234428.000000 1 0 0
0.157582 20.021100 -5.884780 20.868635 1.562926 1.856666 0.043038 -0.000425 204541.000000 1 0 0
-7.702418 17.924300 -6.420280 20.538446 -1.164935 1.888723 0.059698 -0.019848 92534.000000 1 0 0
-7.432918 18.579100 -1.419880 20.061089 -1.190231 1.641633 0.046794 -0.012511 45866.500000 1 0 0
-14.492218 -8.902300 8.901920 19.196862 0.550854 1.088610 0.073715 -0.024411 371600.000000 1 0 0
-13.063918 -13.524300 7.898320 20.395002 0.802712 1.173130 0.060434 -0.015420 124018.000000 1 0 0
-4.101018 -15.952000 12.324920 20.571541 1.319161 0.928389 0.040183 -0.015438 75974.500000 1 0 0
-2.532118 -14.778800 14.480420 20.844834 1.401109 0.802826 0.030558 -0.032118 350249.000000 1 0 0
-7.497518 -13.590600 13.486120 20.561922 1.066672 0.855451 0.024533 -0.019127 143334.000000 1 0 0
-10.055618 -11.233300 11.696220 19.081511 0.840661 0.910994 0.063426 -0.020265 -203610.000000 1 0 0
-7.684418 -10.538800 12.928620 18.364798 0.940770 0.789797 0.030695 -0.014310 450707.000000 1 0 0
-15.413618 -11.895700 6.869420 20.646458 0.657286 1.231613 0.074399 -0.019700 390752.000000 1 0 0
-4.695718 -12.428300 13.542520 18.971354 1.209552 0.775829 0.021178 -0.015573 325468.000000 1 0 0
3.303482 -12.298000 13.994820 18.921120 -1.308372 0.738261 0.003129 0.001003 583762.000000 1 0 0
6.534382 -13.387600 14.805520 21.003081 -1.116720 0.788484 0.016420 0.002416 309332.000000 1 0 0
7.176182 -8.999000 16.492420 20.111676 -0.897617 0.609312 0.014813 -0.011588 514830.000000 1 0 0
-5.286018 13.286800 13.651220 19.769594 -1.192154 0.808594 0.010870 0.000308 495519.000000 1 0 0
-13.714518 -1.928900 17.525620 22.337323 0.139730 0.668763 0.050720 -0.015092 189754.000000 1 0 0
-10.237818 9.135300 13.329620 19.129699 -0.728550 0.799867 0.022529 -0.010946 433842.000000 1 0 0
-7.285518 -8.191300 17.165320 20.367238 0.843857 0.568349 0.019995 -0.016991 172816.000000 1 0 0
-5.003318 2.152700 18.304120 19.097332 -0.406313 0.289227 0.021406 -0.007026 552074.000000 1 0 0
-15.459518 -3.957300 14.553720 21.597863 0.250597 0.831389 0.061752 -0.015041 181930.000000 1 0 0
-14.662518 3.027900 12.642620 19.595751 -0.203644 0.869549 0.041188 -0.002417 344872.000000 1 0 0
-13.473118 10.616000 10.423020 20.071465 -0.667343 1.024770 -0.046373 0.027915 -105648.000000 1 0 0
-4.849818 11.221300 15.876020 20.037123 -1.162845 0.656177 0.031651 -0.001747 207881.000000 1 0 0
-13.162618 12.977700 7.944520 20.119409 -0.778324 1.164872 0.019889 -0.026410 103427.000000 1 0 0
-4.181218 -6.411300 18.616020 20.128178 0.992901 0.390093 0.047572 -0.026448 243219.000000 1 0 0
1.786382 -3.737700 18.249420 18.713708 -1.124955 0.223219 0.033693 -0.015558 -397750.000000 1 0 0
-4.532218 6.786000 20.877520 22.415656 -0.981956 0.372608 0.040962 -0.012949 239634.000000 1 0 0
2.133382 -10.465300 16.698320 19.821900 -1.369699 0.569042 0.012353 -0.004115 337014.000000 1 0 0
-14.935818 -0.229400 13.768720 20.315239 0.015358 0.826094 0.030160 -0.010698 -26524.600000 1 0 0
-13.930918 -6.130800 8.480320 17.423347 0.414579 1.062463 0.050414 -0.013692 68056.500000 1 0 0
9.930582 0.575800 17.200020 19.869290 0.057918 0.524332 0.035769 0.018547 594444.000000 1 0 0
-7.562018 12.186100 12.089220 18.757249 -1.015407 0.870415 0.013336 -0.007934 67852.000000 1 0 0
-1.626918 7.384700 20.614720 21.957853 -1.353951 0.351576 0.041958 0.001565 356318.000000 1 0 0
0.533782 -14.250600 16.096120 21.504641 -1.533357 0.725006 0.004176 0.020623 515412.000000 1 0 0
-3.711118 -11.408400 18.040820 21.665529 1.256296 0.586836 0.039677 -0.011410 488134.000000 1 0 0
-2.372918 8.812300 17.025020 19.316797 -1.307762 0.492067 0.022332 -0.004173 460291.000000 1 0 0
-5.702318 -8.438900 20.218120 22.638548 0.976553 0.466643 0.117727 -0.055331 56520.000000 1 0 0
-6.798718 -2.743100 18.999320 20.364708 0.383497 0.368265 0.038675 -0.032779 458637.000000 1 0 0
-10.797318 -8.196900 15.804420 20.821886 0.649338 0.708976 0.051031 -0.026418 158464.000000 1 0 0
-0.152518 6.521300 17.895820 19.047598 -1.547413 0.349536 0.017097 -0.002152 143177.000000 1 0 0
-6.305018 -11.191400 18.896220 22.848803 1.057738 0.597026 0.063966 -0.020622 501904.000000 1 0 0
0.433082 3.508900 18.924320 19.251748 1.447994 0.184695 0.015617 -0.007510 138948.000000 1 0 0
-18.063618 -1.080000 7.820720 19.713558 0.059718 1.162858 0.043461 -0.015879 -35653.000000 1 0 0
-2.054018 -8.809000 17.573820 19.765035 1.341717 0.475341 0.030862 -0.015688 160124.000000 1 0 0
5.826682 3.472300 14.976020 16.440446 0.537422 0.425275 0.002098 -0.003153 371907.000000 1 0 0
-14.959918 -7.115200 11.026520 19.899984 0.443952 0.983519 0.122124 -0.001236 5949.350000 1 0 0
3.387782 8.233900 16.990720 19.182250 1.180464 0.482684 0.019506 -0.005840 81175.000000 1 0 0
6.352082 4.438700 17.929820 19.532778 0.609906 0.407953 0.026026 -0.022063 479587.000000 1 0 0
5.755082 -9.089300 18.281120 21.211687 -1.006343 0.531906 0.027736 0.002037 75478.900000 1 0 0
-4.472618 -0.608700 19.780620 20.289104 0.135264 0.224354 0.036014 -0.021404 614211.000000 1 0 0
-11.308118 2.017600 16.741120 20.302939 -0.176563 0.601361 0.049476 -0.019890 246935.000000 1 0 0
-16.574918 -4.070200 9.024020 19.306149 0.240799 1.084430 0.061673 -0.025176 23305.200000 1 0 0
-13.101918 -9.460900 12.299920 20.309035 0.625405 0.920229 0.078190 -0.039395 -50559.900000 1 0 0
-14.732918 5.835800 13.002720 20.498443 -0.377145 0.883658 0.050476 -0.020058 371775.000000 1 0 0
1.364682 9.494800 16.915520 19.446038 1.428045 0.515858 0.025171 -0.017722 52745.400000 1 0 0
-3.913418 -10.298700 14.881620 18.515957 1.207657 0.637278 0.024065 -0.013473 681638.000000 1 0 0
-18.361018 -4.296500 7.194120 20.182722 0.229865 1.206331 0.109828 -0.016143 -202638.000000 1 0 0
-0.466118 -0.659900 20.659520 20.675311 0.955823 0.039087 0.032764 -0.034654 325620.000000 1 0 0
-1.917318 2.656000 20.644820 20.903086 -0.945535 0.157359 0.023220 -0.003640 53574.200000 1 0 0
-8.171118 2.250400 16.305520 18.376655 -0.268746 0.479349 0.017647 0.006867 474536.000000 1 0 0
2.876482 -1.658300 19.092320 19.378874 -0.522963 0.172183 0.015882 -0.006540 122766.000000 1 0 0
-12.925618 4.512900 14.309420 19.803973 -0.335912 0.763308 0.039243 -0.004813 59571.300000 1 0 0
-12.890818 -5.426200 13.177520 19.216240 0.398423 0.815164 0.014793 -0.023259 -163278.000000 1 0 0
-17.237618 -0.859900 10.230520 20.063361 0.049844 1.035716 0.060811 -0.013124 155870.000000 1 0 0
-7.494418 7.711900 14.703420 18.216209 -0.799699 0.631469 0.011633 -0.008019 7141.170000 1 0 0
-9.812518 0.663700 13.905820 17.032259 -0.067535 0.615577 0.023189 -0.008498 224721.000000 1 0 0
7.537882 -0.928900 15.108320 16.909874 -0.122613 0.465803 0.009793 -0.008889 122752.000000 1 0 0
4.066182 6.441000 18.366720 19.883579 1.007682 0.393134 0.006165 -0.003331 -9041.280000 1 0 0
1.609482 0.623100 20.167520 20.241234 0.369374 0.085370 0.010395 -0.004795 181907.000000 1 0 0
-7.040518 6.704600 17.495320 20.015163 -0.760964 0.507210 0.012795 -0.009164 507076.000000 1 0 0
7.511582 -3.075000 17.038720 18.873194 -0.388556 0.444560 0.001383 0.002066 353556.000000 1 0 0
-16.602518 2.290400 8.971720 19.010032 -0.137090 1.079299 0.044464 -0.018197 114371.000000 1 0 0
3.707782 -5.829400 19.189120 20.394898 -1.004291 0.345582 0.015879 -0.025382 85389.700000 1 0 0
-4.014918 -3.753200 20.419720 21.146419 0.751720 0.262921 0.050772 -0.039475 303499.000000 1 0 0
-9.739718 5.715100 14.559720 18.425795 -0.530644 0.659691 0.025610 -0.005759 -58943.100000 1 0 0
6.719382 2.568100 19.757620 21.026383 0.365062 0.349166 0.048558 -0.025311 74506.300000 1 0 0
-7.589218 11.121500 14.690920 19.927547 -0.971986 0.741855 0.028481 -0.012219 264883.000000 1 0 0
-14.485618 4.969600 9.666520 18.109988 -0.330489 1.007747 0.022809 -0.010362 398117.000000 1 0 0
0.614982 -5.702000 20.648520 21.430174 -1.463358 0.270918 0.031934 -0.022273 -151886.000000 1 0 0
-5.831518 -8.292600 13.753320 17.085890 0.957913 0.635202 0.001412 -0.005990 184799.000000 1 0 0
-12.932318 10.165500 6.570320 17.713028 -0.666179 1.190784 -0.002662 -0.013533 173126.000000 1 0 0
-19.468818 2.025000 7.972920 21.135349 -0.103640 1.183991 0.048404 -0.011333 39414.700000 1 0 0
-15.505818 8.663900 6.792120 19.016478 -0.509537 1.205560 0.016260 -0.012438 89206.600000 1 0 0
-13.194018 7.554800 14.210920 20.811232 -0.520023 0.819142 0.052255 -0.010754 137378.000000 1 0 0
-16.560518 9.243800 10.836620 21.843327 -0.509104 1.051687 0.040739 -0.010289 363861.000000 1 0 0
2.148782 10.902400 13.954220 17.838157 1.376198 0.672498 0.013723 -0.057414 374232.000000 1 0 0
1.680182 15.006600 13.204620 20.059487 1.459298 0.852274 0.015049 -0.013120 581460.000000 1 0 0
8.084782 5.337600 15.987920 18.694043 0.583515 0.544780 0.016575 -0.020210 183223.000000 1 0 0
-0.480818 13.346600 13.581820 19.048064 -1.534786 0.776988 0.005422 0.010838 166467.000000 1 0 0
3.830182 12.647800 14.642620 19.724184 1.276742 0.734197 0.025416 -0.012224 156100.000000 1 0 0
-3.746218 -4.579400 -13.712180 14.934154 0.885141 2.734248 0.004809 -0.006398 70592.000000 1 0 0
5.186582 -11.819700 16.970720 21.321615 -1.157288 0.650238 -0.037855 0.016787 327289.000000 1 0 0
8.853282 -13.389500 7.581920 17.752319 -0.986580 1.129519 0.008755 -0.013529 23763.000000 1 0 0
-0.457918 15.334200 0.583920 15.352144 -1.540943 1.532752 0.007649 -0.004835 -642460.000000 1 0 0
-14.602518 7.397200 8.582420 18.482696 -0.468890 1.087897 0.032397 -0.007976 -99230.500000 1 0 0
-16.018318 -10.033700 4.439020 19.415627 0.559598 1.340125 0.047820 -0.016184 188923.000000 1 0 0
8.893182 -10.659600 11.248420 17.867364 -0.875495 0.889821 -0.004483 -0.004006 139218.000000 1 0 0
-26.087618 6.058200 31.105617 41.046621 -0.228181 0.710843 0.092785 -0.025517 104722.000000 0 0 1
-25.028218 5.129500 30.869067 40.070223 -0.202149 0.691368 0.092255 -0.026665 991619.000000 0 0 1
-23.939918 5.433400 31.773477 40.152153 -0.223179 0.657820 0.086779 -0.024192 922241.000000 0 0 1
-22.538818 4.843700 31.471717 39.011905 -0.211685 0.632215 0.088615 -0.026669 152116.000000 0 0 1
-22.468718 3.511000 31.845577 39.131972 -0.155008 0.620136 0.060768 -0.020821 -219101.000000 0 0 1
-21.213818 2.978700 31.534397 38.122395 -0.139501 0.596711 0.065036 -0.018025 -259872.000000 0 0 1
-20.919118 1.678900 32.275627 38.498628 -0.080085 0.576533 0.056368 -0.017417 -228705.000000 0 0 1
-21.762918 0.624400 31.930713 38.646927 -0.028683 0.598439 0.066719 -0.020273 8944.340000 0 0 1
-21.683718 -0.402400 32.889134 39.395948 0.018556 0.582963 0.057102 -0.015717 1989.100000 0 0 1
-22.332318 -1.813600 32.631755 39.583495 0.081032 0.601694 0.065187 -0.023915 -260009.000000 0 0 1
-21.620918 -2.577000 31.685937 38.446114 0.118630 0.602070 0.093633 -0.025534 200194.000000 0 0 1
-21.910518 -3.989000 31.787607 38.812819 0.180086 0.611134 0.093660 -0.031528 180312.000000 0 0 1
-23.345018 -4.533600 31.555807 39.513446 0.191812 0.645815 0.062145 -0.021417 337191.000000 0 0 1
-24.403318 -4.292500 32.480692 40.852697 0.174117 0.651676 0.043277 -0.020359 349848.000000 0 0 1
-24.408518 -4.775300 33.853552 42.007645 0.193200 0.633619 0.037098 -0.019562 -386821.000000 0 0 1
-25.677888 -4.378700 -33.285660 42.266561 0.168900 2.477567 0.043038 -0.017104 111079.000000 0 0 1
-25.807248 -4.984700 -32.015410 41.422793 0.190802 2.454185 0.047949 -0.025737 296476.000000 0 0 1
-26.981628 -4.532800 -31.362080 41.618922 0.166442 2.424247 0.064215 -0.024569 -85754.800000 0 0 1
-27.051338 -5.003700 -29.917220 40.642982 0.182903 2.398084 0.059205 -0.021127 -356948.000000 0 0 1
-27.142808 -6.406000 -29.785850 40.803992 0.231770 2.389080 0.055560 -0.024841 557696.000000 0 0 1
-26.712548 -6.913600 -28.529120 39.689656 0.253257 2.372878 0.056858 -0.017695 -255196.000000 0 0 1
-27.003188 -8.432200 -28.542430 40.186372 0.302672 2.360652 0.049404 -0.006040 -476890.000000 0 0 1
-28.363888 -8.642300 -28.290020 40.982005 0.295757 2.332705 0.048942 -0.003654 -389267.000000 0 0 1
-28.629678 -10.014800 -28.254690 41.452168 0.336501 2.320773 0.050685 0.003292 58940.100000 0 0 1
-30.004108 -10.364400 -27.658990 42.103290 0.332600 2.287538 0.078161 0.007410 92320.500000 0 0 1
-30.040588 -10.869100 -26.286370 41.370854 0.347160 2.259302 0.086021 0.002407 -180353.000000 0 0 1
-31.379468 -11.026400 -25.862140 42.131969 0.337912 2.231708 0.082136 -0.001452 117255.000000 0 0 1
-31.437658 -11.698200 -24.470380 41.520763 0.356233 2.201054 0.087226 0.003738 120600.000000 0 0 1
-30.940378 -10.969900 -23.333280 40.275150 0.340722 2.188723 0.087382 -0.000683 226285.000000 0 0 1
-30.958018 -11.901500 -22.265480 39.947418 0.367021 2.162011 0.095816 -0.006688 -162837.000000 0 0 1
-30.566248 -11.171000 -20.997980 38.729859 0.350388 2.143808 0.112375 -0.018294 15324.100000 0 0 1
-30.390938 -11.933900 -19.736480 38.151747 0.374180 2.114507 0.111931 -0.016717 104946.000000 0 0 1
-29.213578 -12.716900 -19.671080 37.444681 0.410569 2.123908 0.109846 -0.018146 -210421.000000 0 0 1
-28.878828 -13.036600 -18.228480 36.554304 0.424038 2.092858 0.110748 -0.026148 -3639.680000 0 0 1
-28.434098 -11.861300 -17.591180 35.477289 0.395203 2.089602 0.109210 -0.027283 18501.100000 0 0 1
-28.121078 -12.037200 -16.228880 34.627529 0.404450 2.058581 0.111085 -0.037280 -77129.600000 0 0 1
-27.738268 -10.753300 -15.507580 33.548920 0.369832 2.051313 0.111311 -0.026958 -158784.000000 0 0 1
-26.432908 -10.346200 -15.852980 32.512451 0.373082 2.080132 0.102003 -0.023842 102585.000000 0 0 1
-26.413148 -8.986500 -15.542780 31.937276 0.327943 2.079065 0.111741 -0.033077 80588.800000 0 0 1
-25.004018 -8.339100 -15.677180 30.667825 0.321910 2.107369 0.112080 -0.023374 1148480.000000 0 0 1
-23.994118 -9.003000 -14.877080 29.632739 0.358961 2.096762 0.084148 -0.022904 568589.000000 0 0 1
-22.718418 -8.418700 -14.915580 28.451284 0.354879 2.122630 0.136478 -0.056275 286568.000000 0 0 1
-21.617518 -9.048000 -14.028080 27.312460 0.396394 2.110189 0.118165 -0.027310 223390.000000 0 0 1
-20.913818 -10.172700 -14.541880 27.428779 0.452717 2.129596 0.105442 -0.015234 289580.000000 0 0 1
-19.826518 -10.446100 -13.689180 26.260341 0.484916 2.119155 0.112608 -0.010186 26310.300000 0 0 1
-18.805218 -11.529900 -14.088380 26.173599 0.550012 2.139176 0.103473 -0.008419 547770.000000 0 0 1
-17.915618 -11.288000 -15.197680 26.064493 0.562233 2.193311 0.115297 -0.022237 788082.000000 0 0 1
-18.612518 -11.161300 -16.461080 27.239083 0.540174 2.219707 0.112798 -0.028872 -100640.000000 0 0 1
-17.891018 -10.543100 -17.703680 27.288565 0.532512 2.276748 0.117648 -0.025142 112666.000000 0 0 1
-18.717618 -10.548300 -18.882080 28.603301 0.513186 2.291797 0.091029 -0.017579 602731.000000 0 0 1
-17.944218 -10.468100 -20.029180 28.857307 0.528101 2.337933 0.084742 -0.023931 -591897.000000 0 0 1
-18.819518 -10.882100 -21.160480 30.337441 0.524262 2.342704 0.101328 -0.020047 -469505.000000 0 0 1
-19.895318 -9.998700 -21.373580 30.864666 0.465698 2.335736 0.098214 -0.026627 -51521.900000 0 0 1
-20.752318 -10.559700 -22.376080 32.293265 0.470698 2.336303 0.103292 -0.017093 1104640.000000 0 0 1
-22.019218 -9.690800 -22.750280 33.110917 0.414596 2.328277 0.085735 -0.012772 830243.000000 0 0 1
-21.651118 -8.553700 -23.484880 33.067753 0.376249 2.360586 0.085360 -0.032612 -351783.000000 0 0 1
-22.542018 -8.243900 -24.500180 34.298153 0.350604 2.366462 0.083068 -0.023141 -472323.000000 0 0 1
-21.948918 -7.565800 -25.774030 34.688571 0.331946 2.408356 0.081808 -0.027331 29168.800000 0 0 1
-20.915218 -8.390800 -26.297050 34.632163 0.381525 2.433071 0.090041 -0.032615 210311.000000 0 0 1
-20.297118 -7.702100 -27.364820 34.930341 0.362682 2.470932 0.083399 -0.047367 -246272.000000 0 0 1
-19.066718 -8.397400 -27.956090 34.865442 0.414860 2.501145 0.097217 -0.049129 -511871.000000 0 0 1
-19.428318 -9.536100 -28.735410 35.973887 0.456289 2.496070 0.099989 -0.046104 497273.000000 0 0 1
-18.322418 -10.159700 -29.388410 36.091677 0.506288 2.522269 0.097494 -0.040045 113667.000000 0 0 1
-18.734818 -11.288800 -30.378030 37.433343 0.542298 2.517551 0.087213 -0.027940 -79367.800000 0 0 1
-19.349318 -10.804800 -31.570210 38.572244 0.509275 2.529539 0.092145 -0.025410 945810.000000 0 0 1
-20.100318 -11.911900 -32.196680 39.781181 0.534977 2.513832 0.080600 -0.019688 635744.000000 0 0 1
-20.648318 -11.717200 -33.596670 41.138572 0.516153 2.526415 0.090566 -0.022577 520892.000000 0 0 1
-19.594318 -11.587200 33.344016 40.373555 0.534039 0.599022 0.087895 -0.024882 490959.000000 0 0 1
-20.042018 -11.369200 32.019355 39.448452 0.516004 0.623781 0.081230 -0.022658 -134989.000000 0 0 1
-19.490818 -12.471300 31.004247 38.687061 0.569210 0.641145 0.090163 -0.022818 275409.000000 0 0 1
-18.087318 -12.294300 30.798137 37.773353 0.596985 0.617480 0.095710 -0.024991 618330.000000 0 0 1
-17.497118 -13.179400 29.868397 37.040072 0.645567 0.632790 0.083880 -0.020548 17767.500000 0 0 1
-17.485218 -14.705100 30.166537 37.841681 0.699247 0.648191 0.079272 -0.014905 622748.000000 0 0 1
-18.833018 -15.297600 30.134827 38.688590 0.682181 0.677875 0.074761 -0.012759 1677760.000000 0 0 1
-18.876118 -16.529600 30.753607 39.690300 0.719220 0.684335 0.084207 -0.016120 -208853.000000 0 0 1
-19.109218 -16.390700 32.309649 40.960111 0.708969 0.661930 0.063713 -0.019255 -738337.000000 0 0 1
-18.004218 -16.058800 33.085012 40.946978 0.728348 0.630053 0.077465 -0.012031 -396548.000000 0 0 1
-18.413518 -15.322000 -33.686180 41.334974 0.694014 2.523449 0.069993 -0.001255 29772.300000 0 0 1
-17.229418 -14.995800 -32.771110 39.945870 0.716196 2.532885 0.059509 -0.003865 -333737.000000 0 0 1
-16.441218 -13.936400 -33.237030 39.613597 0.703128 2.566296 0.059553 -0.007951 758392.000000 0 0 1
-15.257718 -13.612000 -32.430930 38.338620 0.728455 2.579061 0.064333 -0.003639 1069290.000000 0 0 1
-15.457618 -13.198000 -30.927770 37.008812 0.706707 2.560178 0.085592 -0.004943 -532567.000000 0 0 1
-15.841918 -14.356600 -30.220570 37.018390 0.736253 2.525888 0.061229 -0.005717 -93238.700000 0 0 1
-16.320418 -14.066300 -28.909390 36.055093 0.711353 2.501117 0.049094 -0.004487 -244585.000000 0 0 1
-16.472118 -15.388300 -28.058290 35.991640 0.751394 2.464788 0.040950 -0.005338 282204.000000 0 0 1
-15.345118 -16.099100 -27.535020 35.395353 0.809372 2.462157 0.067775 -0.019093 379853.000000 0 0 1
-14.519018 -16.636800 -28.591730 36.125781 0.853268 2.483973 0.072499 -0.020454 -356191.000000 0 0 1
-13.172418 -17.145800 -28.063440 35.426653 0.915711 2.485130 0.087466 -0.020561 -36345.000000 0 0 1
-12.291318 -16.080600 -27.662440 34.276418 0.918170 2.509918 0.073488 -0.026715 -693566.000000 0 0 1
-11.283918 -16.557500 -26.869520 33.517887 0.972595 2.500842 0.090262 -0.033465 -498460.000000 0 0 1
-9.874318 -15.999000 -27.139870 33.015795 1.017838 2.535758 0.079514 -0.040424 149634.000000 0 0 1
-9.639218 -14.611100 -26.946010 32.132324 0.987619 2.565495 0.083804 -0.036315 907231.000000 0 0 1
-8.209118 -14.373700 -26.875040 31.563597 1.051882 2.589553 0.093298 -0.044064 1171290.000000 0 0 1
-7.828018 -12.943900 -27.237290 31.155937 1.026880 2.634633 0.088703 -0.049003 -340056.000000 0 0 1
-7.949418 -12.646700 -28.614310 32.278647 1.009629 2.660474 0.088181 -0.038005 67233.100000 0 0 1
-7.915418 -11.265400 -28.954710 32.061477 0.958307 2.697730 0.075461 -0.044229 -76165.100000 0 0 1
-6.891018 -10.855400 -30.052610 32.687692 1.005180 2.737313 0.061779 -0.024462 -737836.000000 0 0 1
-5.578118 -10.959900 -29.550080 32.006906 1.100009 2.747228 0.067989 -0.028293 -490477.000000 0 0 1
-4.666618 -10.500000 -30.486580 32.580039 1.152576 2.781159 0.068332 -0.026908 -538559.000000 0 0 1
-4.583218 -8.971300 -30.770130 32.377323 1.098486 2.825189 0.053021 -0.027360 -733271.000000 0 0 1
-3.386118 -8.632200 -31.495950 32.832538 1.196975 2.855276 0.063095 -0.033765 810605.000000 0 0 1
-3.573218 -7.353000 -31.983650 33.011943 1.118449 2.891344 0.063229 -0.033252 393986.000000 0 0 1
-2.277318 -6.677400 -32.526390 33.282727 1.242118 2.927999 0.076484 -0.039918 310946.000000 0 0 1
-1.869518 -7.157300 -33.789980 34.590242 1.315300 2.926069 0.079108 -0.036447 -1003950.000000 0 0 1
-0.684218 -6.600100 33.726651 34.373194 1.467497 0.194262 0.086277 -0.032169 -574672.000000 0 0 1
-0.010418 -7.321600 32.509937 33.324195 1.569373 0.221516 0.063952 -0.022777 117222.000000 0 0 1
-0.534418 -7.016000 31.227827 32.010734 1.494772 0.221621 0.050626 -0.015342 73621.400000 0 0 1
0.192282 -7.743000 30.264417 31.239814 -1.545968 0.250546 0.043708 -0.018568 61265.800000 0 0 1
-0.086018 -7.281300 28.851947 29.756673 1.558983 0.247222 0.043025 -0.011223 173852.000000 0 0 1
0.702782 -6.140100 28.562067 29.223046 -1.456835 0.213092 0.042109 -0.010671 86934.500000 0 0 1
0.620882 -5.788200 27.200107 27.816085 -1.463938 0.210841 0.045681 -0.013570 68801.100000 0 0 1
-0.402918 -4.651600 26.856867 27.259697 1.484393 0.172128 0.042120 -0.005643 530509.000000 0 0 1
-1.731318 -5.094400 27.072697 27.602198 1.243195 0.196188 0.035692 -0.002132 -612228.000000 0 0 1
-2.659118 -4.242000 26.474127 26.943365 1.010864 0.186904 0.039791 -0.017028 -495915.000000 0 0 1
-4.088818 -4.707600 26.753177 27.470210 0.855627 0.228983 0.044361 -0.008634 -411848.000000 0 0 1
-4.496418 -5.928200 26.154907 27.192656 0.921890 0.277157 0.050886 -0.007566 408077.000000 0 0 1
-5.777518 -6.317500 26.692617 28.031881 0.830014 0.310360 0.041246 -0.007884 1097550.000000 0 0 1
-6.008618 -7.858400 26.531737 28.315915 0.918010 0.356883 0.060647 -0.012803 233894.000000 0 0 1
-5.278718 -8.498300 27.572697 29.331546 1.014970 0.348062 0.058538 -0.013484 35203.800000 0 0 1
-5.639818 -9.848700 27.668517 29.905707 1.050733 0.389255 0.049427 -0.017404 63711.600000 0 0 1
-4.912018 -10.617900 28.798617 31.084210 1.137500 0.385871 0.044464 -0.017902 10499.600000 0 0 1
-5.193818 -12.004200 28.705327 31.544768 1.162450 0.427544 0.061835 -0.023776 -22394.300000 0 0 1
-4.667118 -12.707400 29.780187 32.712682 1.218815 0.426653 0.062462 -0.020023 -305242.000000 0 0 1
-5.079118 -14.202300 29.817157 33.415051 1.227344 0.468322 0.076750 -0.030871 -136456.000000 0 0 1
-6.462418 -14.441900 29.922007 33.847568 1.150042 0.486398 0.086551 -0.034004 -381985.000000 0 0 1
-6.649918 -15.829200 29.839477 34.426435 1.173080 0.522126 0.091629 -0.030107 125532.000000 0 0 1
-6.655118 -16.502600 31.256817 35.966860 1.187468 0.517528 0.093906 -0.028281 -405626.000000 0 0 1
-7.830118 -16.173900 31.941919 36.649584 1.119933 0.512443 0.098399 -0.025403 -318247.000000 0 0 1
-7.997518 -16.736700 33.213540 38.042301 1.125031 0.509336 0.100757 -0.021374 -722046.000000 0 0 1
-9.456718 -16.968400 33.586296 38.799426 1.062355 0.524371 0.102458 -0.020035 -255687.000000 0 0 1
-9.918218 -18.224000 33.018187 38.995973 1.072387 0.561030 0.090684 -0.019333 507058.000000 0 0 1
-10.749118 -18.063000 31.846017 38.157363 1.033995 0.583396 0.086631 -0.022324 24021.800000 0 0 1
-11.382818 -19.419900 31.446697 38.672934 1.040629 0.621261 0.079785 -0.021015 296290.000000 0 0 1
-12.517718 -19.847000 32.204120 39.845979 1.008101 0.629682 0.082181 -0.019338 478714.000000 0 0 1
-12.809618 -21.196700 31.995556 40.461118 1.027205 0.658726 0.069373 -0.017903 -96382.200000 0 0 1
-12.190618 -22.149800 33.057779 41.617804 1.067668 0.652912 0.068346 -0.018342 972744.000000 0 0 1
-10.747418 -22.263700 33.028265 41.255856 1.121058 0.642548 0.063003 -0.020254 1043970.000000 0 0 1
-10.080118 -22.828800 -33.813310 42.025027 1.154989 2.505797 0.053316 -0.019544 131003.000000 0 0 1
-10.365518 -24.304500 -33.573690 42.724061 1.167668 2.474827 0.061495 -0.010225 -286068.000000 0 0 1
-9.829218 -25.064140 33.292286 42.815897 1.197065 0.680007 0.061593 -0.017931 -50305.900000 0 0 1
-10.175418 -26.396720 33.311902 43.703648 1.202869 0.704057 0.064469 -0.014683 -1637610.000000 0 0 1
-9.617218 -27.137650 32.105434 43.124261 1.230219 0.731031 0.043021 -0.009597 1302690.000000 0 0 1
-8.174318 -27.209720 31.995324 42.788890 1.278955 0.726132 0.067947 -0.023916 1203950.000000 0 0 1
-7.489818 -27.741970 33.117351 43.846018 1.307102 0.714669 0.055754 -0.018959 -1053790.000000 0 0 1
-5.948918 -27.662440 33.229637 43.644118 1.358969 0.705362 0.071845 -0.031771 489279.000000 0 0 1
-5.428218 -26.459760 33.847139 43.303733 1.368454 0.673535 0.076424 -0.023796 84301.100000 0 0 1
-5.480018 -25.276990 33.019782 41.943568 1.357302 0.664471 0.070385 -0.024537 -192161.000000 0 0 1
-5.038318 -24.032200 33.804293 41.781115 1.364141 0.628210 0.089292 -0.031127 920895.000000 0 0 1
-3.659618 -24.059300 -33.708900 41.575626 1.419845 2.516289 0.086589 -0.036458 863404.000000 0 0 1
-3.271018 -22.811600 -33.196770 40.411561 1.428374 2.534775 0.079753 -0.032326 -86943.100000 0 0 1
34.879810 -16.255500 2.120520 38.540097 -0.436115 1.515747 0.141123 -0.053011 -30296.300000 0 0 1
35.566900 -16.012400 3.343720 39.148203 -0.423024 1.485280 0.141813 -0.050395 467690.000000 0 0 1
34.898410 -16.558100 4.478920 38.886121 -0.443012 1.455360 0.127278 -0.058798 -72389.700000 0 0 1
35.895520 -16.596100 5.621820 39.944008 -0.433072 1.429585 0.105664 -0.039939 201984.000000 0 0 1
36.968700 -17.527700 5.586320 41.293002 -0.442732 1.435095 0.118258 -0.037434 458505.000000 0 0 1
-36.308128 -17.257600 6.737220 40.761441 0.443701 1.404750 0.108809 -0.026436 408905.000000 0 0 1
-34.999724 -18.085400 6.689020 39.960047 0.476942 1.402612 0.094289 -0.034298 -158385.000000 0 0 1
-35.171108 -19.450000 7.015920 40.798683 0.505152 1.397973 0.100643 -0.037966 -704733.000000 0 0 1
-33.972408 -20.119200 7.220120 40.137724 0.534681 1.389928 0.083937 -0.026897 -590331.000000 0 0 1
-34.088645 -21.638300 7.339020 41.037946 0.565591 1.390994 0.090131 -0.025885 -128980.000000 0 0 1
-34.227353 -22.280300 6.085820 41.291170 0.577043 1.422869 0.103812 -0.025943 172113.000000 0 0 1
-34.531228 -23.651400 6.264620 42.320680 0.600539 1.422223 0.112552 -0.029291 -165134.000000 0 0 1
-33.988398 -24.650800 5.223420 42.310250 0.627486 1.447025 0.105657 -0.019341 81126.700000 0 0 1
-34.489213 -24.455800 3.910320 42.460365 0.616798 1.478572 0.110429 -0.019773 -61479.200000 0 0 1
-33.935998 -25.354230 3.003820 42.467775 0.641655 1.500005 0.095749 -0.013438 13825.400000 0 0 1
-34.438391 -25.017300 1.601320 42.596154 0.628249 1.533194 0.086511 -0.016122 342365.000000 0 0 1
-35.643878 -25.704750 1.240820 43.963165 0.624783 1.542569 0.075199 -0.016591 550455.000000 0 0 1
-36.076422 -25.380390 -0.127380 44.109961 0.613083 1.573684 0.066298 -0.017828 424792.000000 0 0 1
-36.995898 -24.106100 -0.162880 44.156846 0.577491 1.574485 0.077841 -0.023185 -1041860.000000 0 0 1
35.809660 -24.294400 0.211120 43.273482 -0.596103 1.565918 0.055848 -0.015708 -989685.000000 0 0 1
35.032470 -23.120200 0.363720 41.975587 -0.583349 1.562131 0.078462 -0.022065 702055.000000 0 0 1
33.490560 -23.310200 0.370220 40.805883 -0.608052 1.561723 0.041425 -0.009366 432282.000000 0 0 1
33.026280 -23.514600 -0.935480 40.553011 -0.618732 1.593866 0.039525 -0.012662 -292780.000000 0 0 1
31.629810 -23.414700 -1.085180 39.368397 -0.637247 1.598365 0.026485 -0.004505 185692.000000 0 0 1
31.107520 -23.156100 -2.520780 38.861769 -0.639900 1.635707 0.019748 0.000971 -32869.700000 0 0 1
31.496700 -21.854000 -2.893280 38.444902 -0.606587 1.646125 0.047261 -0.011454 94395.800000 0 0 1
31.265120 -21.579400 -4.243980 38.225510 -0.604123 1.682051 0.045206 -0.031011 -37860.800000 0 0 1
31.426910 -20.126700 -4.674380 37.610963 -0.569617 1.695401 0.062222 -0.030797 512184.000000 0 0 1
30.310960 -19.377800 -4.194480 36.219430 -0.568817 1.686864 0.064149 -0.032353 232375.000000 0 0 1
30.476050 -17.970200 -4.365780 35.647970 -0.532774 1.693574 0.068199 -0.032273 -104085.000000 0 0 1
29.547770 -17.172000 -3.446780 34.348633 -0.526452 1.671312 0.087110 -0.030142 -193692.000000 0 0 1
29.944220 -16.951400 -2.094180 34.473060 -0.515119 1.631582 0.090321 -0.026064 -89486.700000 0 0 1
30.378860 -18.003700 -1.241880 35.334836 -0.534989 1.605950 0.073029 -0.017754 -572843.000000 0 0 1
29.443240 -19.163700 -0.937780 35.143011 -0.576986 1.597484 0.058251 -0.021258 -206852.000000 0 0 1
28.392550 -18.885200 -0.020580 34.099679 -0.586949 1.571400 0.051734 -0.000985 91626.300000 0 0 1
27.716350 -20.062700 0.261420 34.216609 -0.626559 1.563156 0.040681 0.004238 -426583.000000 0 0 1
26.601150 -19.882400 1.316420 33.236486 -0.641852 1.531178 0.048657 0.008944 -502713.000000 0 0 1
25.764050 -21.006400 1.418020 33.272600 -0.684023 1.528165 0.051967 0.005758 362123.000000 0 0 1
24.932150 -20.895600 2.616720 32.635647 -0.697544 1.490530 0.057968 0.002039 1281740.000000 0 0 1
23.456850 -20.399900 2.363020 31.176331 -0.715808 1.494928 0.050494 -0.006000 422139.000000 0 0 1
23.352450 -19.066900 1.933120 30.209610 -0.684712 1.506762 0.093843 -0.019812 219527.000000 0 0 1
23.496450 -18.138400 3.008320 29.835125 -0.657410 1.469793 0.125704 -0.025407 -271981.000000 0 0 1
23.330550 -16.651700 2.563120 28.777826 -0.619881 1.481612 0.114131 -0.015469 179589.000000 0 0 1
21.973150 -16.372800 2.283420 27.497307 -0.640375 1.487659 0.105176 -0.012469 -59327.400000 0 0 1
21.934950 -15.178600 1.530520 26.718429 -0.605325 1.513482 0.125425 -0.027002 -32690.900000 0 0 1
20.565150 -14.910200 0.886420 25.417026 -0.627323 1.535914 0.091850 -0.013073 156627.000000 0 0 1
19.561250 -14.710500 1.873220 24.546899 -0.644794 1.494410 0.080630 -0.012602 243106.000000 0 1 0
18.449250 -13.897900 1.613520 23.154479 -0.645613 1.501055 0.078055 -0.010542 -5332.330000 0 1 0
18.669650 -12.438700 2.053720 22.527647 -0.587716 1.479505 0.090281 -0.016096 -492243.000000 0 1 0
19.661650 -11.739400 1.357220 22.939835 -0.538263 1.511597 0.096165 -0.017874 188794.000000 0 1 0
20.013450 -10.521500 2.066420 22.704851 -0.484012 1.479658 0.092760 -0.017814 83070.000000 0 1 0
21.039350 -9.649000 1.305220 23.183206 -0.429997 1.514466 0.103047 -0.021417 188157.000000 0 1 0
20.469850 -9.186600 0.087620 22.436935 -0.421845 1.566891 0.106610 -0.020925 784044.000000 0 1 0
21.468250 -8.532700 -0.652080 23.110992 -0.378312 1.599015 0.117839 -0.017813 -344021.000000 0 1 0
21.025150 -8.345700 -2.072180 22.715668 -0.377865 1.662146 0.145452 -0.018039 -90857.900000 0 1 0
21.876850 -7.670600 -3.013780 23.377715 -0.337233 1.700073 0.142660 -0.026801 723999.000000 0 1 0
22.904650 -8.457000 -3.631580 24.684656 -0.353699 1.718451 0.134228 -0.024330 -320762.000000 0 1 0
22.447050 -9.593300 -4.553480 24.832149 -0.403880 1.755210 0.114603 -0.026877 -386593.000000 0 1 0
21.723350 -9.223300 -5.706280 24.280339 -0.401515 1.808032 0.112288 -0.034731 93930.000000 0 1 0
20.352350 -9.002100 -5.524480 22.929803 -0.416443 1.814120 0.102903 -0.025638 -625108.000000 0 1 0
19.544750 -8.893400 -6.857380 22.541373 -0.427027 1.879909 0.101416 -0.032736 -224494.000000 0 1 0
19.451650 -9.982900 -7.766880 23.202358 -0.474165 1.912131 0.091592 -0.025621 1217160.000000 0 1 0
20.693850 -10.360200 -8.412680 24.624020 -0.464161 1.919463 0.091416 -0.018285 603018.000000 0 1 0
20.730250 -11.685400 -9.164580 25.500615 -0.513292 1.938407 0.078537 -0.020206 -399597.000000 0 0 1
19.817350 -11.809200 -10.224680 25.233483 -0.537401 1.987997 0.105136 -0.033896 43966.400000 0 0 1
19.738550 -13.091100 -10.743880 26.008042 -0.585616 1.996650 0.096309 -0.026982 -504361.000000 0 0 1
18.426650 -13.304600 -11.481880 25.463452 -0.625359 2.038588 0.107644 -0.029782 -376750.000000 0 0 1
18.180250 -14.657000 -11.685480 26.113207 -0.678513 2.034756 0.101719 -0.035740 171876.000000 0 0 1
17.085550 -14.905200 -12.552380 25.916081 -0.717348 2.076413 0.114741 -0.037541 -232908.000000 0 0 1
16.936150 -16.365200 -12.911880 26.858325 -0.768255 2.072295 0.107311 -0.031136 -228378.000000 0 0 1
16.186350 -17.144000 -12.008980 26.459975 -0.814122 2.041883 0.097688 -0.030421 90442.900000 0 0 1
16.376750 -18.562700 -12.321680 27.651322 -0.847881 2.032651 0.091766 -0.030670 -873381.000000 0 0 1
15.355650 -19.357100 -11.584080 27.288903 -0.900165 2.009204 0.077049 -0.025697 -602789.000000 0 0 1
14.057350 -19.279600 -12.130180 26.766646 -0.940786 2.041129 0.060317 -0.018163 -223481.000000 0 0 1
13.177250 -20.113700 -11.417780 26.618914 -0.990818 2.014110 0.048959 -0.011487 -52289.400000 0 0 1
11.701450 -20.112600 -11.823780 26.100621 -1.043869 2.040932 0.041334 -0.020111 513063.000000 0 0 1
10.838550 -21.068100 -11.145280 26.183130 -1.095653 2.010495 0.047139 -0.022354 459288.000000 0 0 1
9.491450 -20.916500 -11.556280 25.712550 -1.144805 2.036936 0.034408 -0.013873 638730.000000 0 0 1
8.466650 -21.650200 -10.621680 25.558471 -1.198016 1.999381 0.026395 -0.003080 336150.000000 0 0 1
8.558650 -23.063000 -10.722180 26.835007 -1.215450 1.981833 0.053429 -0.017344 -553610.000000 0 0 1
7.548450 -23.574000 -9.925880 26.669002 -1.260910 1.952162 0.053438 -0.024310 -471601.000000 0 0 1
7.619350 -25.106530 -9.888680 28.038872 -1.276149 1.931227 0.060243 -0.025928 584166.000000 0 0 1
8.898750 -25.437550 -9.353580 28.526237 -1.234275 1.904870 0.069585 -0.020931 -131025.000000 0 0 1
9.228750 -26.711920 -9.724180 29.887392 -1.238143 1.902189 0.059852 -0.020833 1210960.000000 0 0 1
10.725250 -27.084490 -9.345380 30.593083 -1.193750 1.881232 0.049484 -0.012616 1239780.000000 0 0 1
11.003350 -27.015130 -7.997780 30.246578 -1.184010 1.838398 0.054036 -0.013484 366076.000000 0 0 1
12.345250 -27.449310 -7.724180 31.073023 -1.148153 1.822012 0.069133 -0.004257 469866.000000 0 0 1
12.608250 -27.622460 -6.192080 30.988871 -1.142592 1.771967 0.068291 -0.011240 78886.200000 0 0 1
12.140850 -28.824120 -5.602380 31.774468 -1.172145 1.748040 0.071819 -0.015840 -230288.000000 0 0 1
10.746550 -28.970790 -5.621280 31.406907 -1.215586 1.750748 0.077969 -0.018233 -377412.000000 0 0 1
10.117250 -30.056470 -4.663980 32.054685 -1.246101 1.716815 0.080195 -0.024723 343714.000000 0 0 1
10.506050 -31.448040 -5.017580 33.534049 -1.248377 1.720987 0.099235 -0.030579 -173249.000000 0 0 1
9.903150 -31.974950 -6.183980 34.039851 -1.270450 1.753480 0.109739 -0.033233 154399.000000 0 0 1
10.182550 -33.455610 -6.362080 35.544876 -1.275344 1.750753 0.099745 -0.032653 -77943.200000 0 0 1
9.658450 33.836782 -5.318980 35.587990 1.292748 1.720818 0.093508 -0.031512 -158775.000000 0 0 1
9.866450 32.457032 -5.422280 34.354140 1.275688 1.729294 0.098254 -0.026520 -92119.300000 0 0 1
9.403450 31.527164 -4.297480 33.179140 1.280932 1.700685 0.095460 -0.023091 -560494.000000 0 0 1
8.028050 31.360754 -4.384380 32.667557 1.320188 1.705415 0.096078 -0.029111 -1078580.000000 0 0 1
7.622550 30.385504 -3.457480 31.517238 1.325007 1.680719 0.073598 -0.026498 908469.000000 0 0 1
6.141750 29.852814 -3.618680 30.692124 1.367893 1.688974 0.069884 -0.027917 1085010.000000 0 0 1
5.886350 29.149884 -4.787680 30.121201 1.371542 1.730421 0.076288 -0.032071 -44097.000000 0 0 1
5.367750 29.966774 -5.799980 30.991290 1.393553 1.759055 0.077472 -0.035793 -363387.000000 0 0 1
5.698250 29.355294 -7.177280 30.752507 1.379068 1.806357 0.077913 -0.038763 -125151.000000 0 0 1
4.970150 28.248284 -7.658880 29.687142 1.396634 1.831734 0.083899 -0.032225 -295407.000000 0 0 1
5.166650 26.954024 -7.022680 28.328991 1.381410 1.821306 0.072973 -0.032083 -241814.000000 0 0 1
4.256050 25.772874 -7.436980 27.159965 1.407137 1.848160 0.068798 -0.030988 172095.000000 0 0 1
2.920150 25.838804 -6.930380 26.910988 1.458260 1.831261 0.072999 -0.029911 523467.000000 0 0 1
1.892350 26.343984 -7.767580 27.530380 1.499087 1.856826 0.069751 -0.031447 381267.000000 0 0 1
1.556450 25.443784 -8.995880 27.032102 1.509700 1.910052 0.064898 -0.026393 -637148.000000 0 0 1
2.529850 25.535324 -10.027880 27.550160 1.472046 1.943341 0.052474 -0.025809 147236.000000 0 0 1
2.206350 24.793324 -11.245480 27.313691 1.482040 1.995132 0.065504 -0.021966 -349880.000000 0 0 1
2.113750 23.238584 -11.227480 25.895097 1.480087 2.019253 0.072321 -0.017145 -260417.000000 0 0 1
1.065850 22.817054 -10.398080 25.097292 1.524117 1.997982 0.084961 -0.019893 -210497.000000 0 0 1
0.956450 21.382354 -10.412580 23.802136 1.526095 2.023573 0.044660 -0.018787 -386536.000000 0 1 0
-0.122850 20.735254 -9.517980 22.815736 -1.564872 2.001123 0.055724 -0.012645 218944.000000 0 1 0
-1.427950 20.872354 -10.073580 23.220061 -1.502489 2.019537 0.063232 -0.018757 -552429.000000 0 1 0
-2.272650 20.071554 -9.352880 22.260022 -1.458049 2.004423 0.061586 -0.018555 -1018860.000000 0 1 0
-3.690950 20.070154 -9.881580 22.673329 -1.388926 2.021750 0.050193 -0.029654 -200569.000000 0 1 0
-4.718350 19.417554 -9.137480 21.972660 -1.332422 1.999681 0.048850 -0.032880 452281.000000 0 1 0
-5.832650 19.173454 -9.966880 22.382579 -1.275487 2.032302 0.047659 -0.027193 -232073.000000 0 1 0
-6.862450 18.139954 -9.457680 21.577740 -1.209131 2.024511 0.053018 -0.025836 -22348.800000 0 1 0
-7.920450 18.603254 -8.665380 21.997805 -1.168285 1.975689 0.070893 -0.021727 -642069.000000 0 1 0
-9.143550 18.712654 -9.316980 22.816092 -1.116287 1.991443 0.078356 -0.029256 -761434.000000 0 1 0
-10.295050 18.943854 -8.343580 23.118672 -1.072995 1.940031 0.089334 -0.032401 -416001.000000 0 1 0
-10.654250 17.774354 -7.674480 22.098379 -1.030806 1.925473 0.073919 -0.027311 -22789.200000 0 1 0
-11.375450 18.126954 -6.483180 22.361104 -1.010370 1.864951 0.087463 -0.025008 143440.000000 0 1 0
-11.855650 16.880554 -5.665880 21.391862 -0.958511 1.838857 0.061316 -0.029248 2402.420000 0 1 0
-12.872550 17.329454 -4.796780 22.113833 -0.931911 1.789447 0.080767 -0.024369 -97542.000000 0 1 0
-13.478150 16.224054 -4.189980 21.504334 -0.877584 1.766894 0.077746 -0.020435 -172062.000000 0 1 0
-14.743250 16.647454 -3.424180 22.499470 -0.845985 1.723579 0.071618 -0.021048 -950145.000000 0 1 0
-15.931550 16.744554 -4.121080 23.477174 -0.810274 1.747246 0.109112 -0.037273 -601697.000000 0 1 0
-16.942550 16.986354 -3.145180 24.196661 -0.786689 1.701149 0.113749 -0.034627 -863343.000000 0 1 0
-18.317250 17.118754 -3.739480 25.348710 -0.751590 1.718858 0.119334 -0.040612 -1164010.000000 0 0 1
-18.323950 18.121054 -4.750380 26.205073 -0.779831 1.753081 0.117259 -0.039932 -107061.000000 0 0 1
-19.602550 18.429754 -5.249380 27.412986 -0.754571 1.763479 0.093935 -0.035281 -74334.900000 0 0 1
-19.617850 19.321454 -6.492580 28.290144 -0.777787 1.802360 0.091648 -0.022993 -124893.000000 0 0 1
-19.224250 20.627454 -6.225780 28.876011 -0.820594 1.788107 0.089010 -0.033700 171063.000000 0 0 1
-19.702750 21.542054 -7.221980 30.073501 -0.829963 1.813311 0.086886 -0.022190 -233041.000000 0 0 1
-19.699550 23.033564 -6.824280 31.067477 -0.863260 1.792262 0.087264 -0.027386 189326.000000 0 0 1
-18.444350 23.661674 -6.588280 30.716027 -0.908679 1.786966 0.097842 -0.025792 431380.000000 0 0 1
-17.942750 23.394644 -5.240080 29.945118 -0.916529 1.746691 0.089961 -0.029463 -876903.000000 0 0 1
-16.511350 23.870764 -5.174180 29.482371 -0.965664 1.747211 0.074682 -0.023193 -1279470.000000 0 0 1
-16.262550 24.536704 -3.945280 29.699926 -0.985486 1.704028 0.061930 -0.034282 1233000.000000 0 0 1
-14.905250 25.056974 -3.885280 29.412818 -1.034169 1.703278 0.072192 -0.034729 1336890.000000 0 0 1
-14.653050 26.337674 -4.857980 30.528428 -1.063088 1.730605 0.074879 -0.026772 -449325.000000 0 0 1
-15.336750 27.493174 -4.492880 31.800574 -1.061955 1.712554 0.092322 -0.035249 -270014.000000 0 0 1
-14.926650 28.585784 -5.243280 32.671760 -1.089570 1.731977 0.072913 -0.038234 -254757.000000 0 0 1
-15.404650 30.018964 -4.753380 34.073980 -1.096673 1.710755 0.076755 -0.028540 191935.000000 0 0 1
-16.768750 30.205924 -5.059480 34.916861 -1.064010 1.716209 0.104145 -0.035303 47746.100000 0 0 1
-17.359350 31.452154 -4.765780 36.239450 -1.066473 1.702686 0.106492 -0.028950 5320.680000 0 0 1
12.527782 -8.648200 18.454967 23.923263 -0.604201 0.689721 0.049073 -0.014438 -30038.100000 0 1 0
12.580882 -9.999200 18.783367 24.719981 -0.671558 0.707721 0.042513 -0.014905 -82003.500000 0 1 0
13.393782 -10.676200 17.849867 24.738480 -0.672971 0.764769 0.065053 -0.015775 -146631.000000 0 1 0
13.887382 -11.989900 18.461167 26.027520 -0.712203 0.782300 0.111275 -0.029481 -315311.000000 0 0 1
15.101782 -11.785600 19.181967 27.109261 -0.662682 0.784729 0.104898 -0.020591 727914.000000 0 0 1
15.632282 -12.978800 19.840167 28.398059 -0.692920 0.797294 0.112655 -0.021100 245249.000000 0 0 1
16.379682 -13.967100 18.887667 28.637700 -0.706065 0.850592 0.118649 -0.027233 -391100.000000 0 0 1
15.554782 -14.501600 17.841867 27.759320 -0.750372 0.872734 0.124754 -0.032172 454692.000000 0 0 1
16.134382 -15.553500 17.124967 28.204506 -0.767069 0.918301 0.135181 -0.032173 108516.000000 0 0 1
15.158682 -15.815700 15.923667 27.082932 -0.806607 0.942262 0.129565 -0.035063 1119750.000000 0 0 1
13.802782 -16.078500 16.320467 26.746824 -0.861410 0.914504 0.151021 -0.041391 708910.000000 0 0 1
12.854382 -16.103900 15.293867 25.660731 -0.897144 0.932282 0.145420 -0.040870 -262721.000000 0 0 1
12.689082 -17.419800 14.501567 25.976098 -0.941244 0.978502 0.113393 -0.022558 -982962.000000 0 0 1
13.775182 -17.943900 13.812867 26.505367 -0.916075 1.022616 0.109144 -0.024520 -420984.000000 0 0 1
13.418582 -19.142200 13.115967 26.805051 -0.959403 1.059498 0.095304 -0.021627 -467766.000000 0 0 1
14.567882 -20.046200 12.658567 27.826474 -0.942365 1.098524 0.093045 -0.023447 -571220.000000 0 0 1
15.158582 -20.706600 13.751767 29.114550 -0.938873 1.078860 0.086930 -0.016046 66826.700000 0 0 1
15.600782 -22.003400 13.337067 30.090054 -0.954044 1.111588 0.058773 -0.021009 -40660.700000 0 0 1
16.402682 -22.761300 14.459567 31.562697 -0.946353 1.094915 0.060452 -0.024535 -400785.000000 0 0 1
17.690982 -22.267900 14.567067 31.953555 -0.899442 1.097433 0.042553 -0.019971 -867683.000000 0 0 1
18.458582 -22.934100 15.549167 33.293675 -0.893103 1.084867 0.043553 -0.029548 1174560.000000 0 0 1
19.993282 -22.549900 15.665267 33.965128 -0.845421 1.091431 0.021413 -0.016752 1157570.000000 0 0 1
20.853482 -23.155300 14.742267 34.472744 -0.837654 1.128905 0.024918 -0.017900 -1532040.000000 0 0 1
22.049082 -22.506500 14.828567 34.822277 -0.795664 1.130911 0.021716 -0.009490 -1174920.000000 0 0 1
23.275882 -23.309600 14.364067 35.936480 -0.786122 1.159599 0.014731 -0.018407 -92817.700000 0 0 1
23.503382 -24.453000 15.185967 37.161429 -0.805197 1.149823 0.022536 -0.019717 247485.000000 0 0 1
24.599182 -25.255420 14.777867 38.227495 -0.798560 1.173879 0.030825 -0.025073 70654.900000 0 0 1
25.020682 -26.412670 15.780967 39.657314 -0.812455 1.161533 0.038136 -0.021194 -179051.000000 0 0 1
25.506082 -25.930250 17.000567 40.149189 -0.793644 1.133563 0.046829 -0.012366 -15853.800000 0 0 1
26.196782 -26.936240 17.676467 41.524570 -0.799314 1.131075 0.070112 -0.012056 -9115.620000 0 0 1
26.605282 -26.555440 19.106667 42.167489 -0.784461 1.100541 0.073534 -0.011462 146889.000000 0 0 1
25.451982 -26.348210 19.898367 41.689046 -0.802698 1.073212 0.080836 -0.001868 232229.000000 0 0 1
25.783382 -25.807660 21.185967 42.186056 -0.785869 1.044652 0.091239 0.000736 642799.000000 0 0 1
24.501882 -25.726690 22.082167 41.830932 -0.809778 1.014681 0.081972 -0.004181 482784.000000 0 0 1
23.910082 -26.947780 22.281367 42.359582 -0.845056 1.016900 0.089506 -0.002413 -516997.000000 0 0 1
22.640882 -26.861280 22.879667 41.923944 -0.870449 0.993522 0.086434 -0.002380 65319.600000 0 0 1
21.988582 -28.280390 22.956957 42.547621 -0.909914 1.000883 0.089619 -0.001316 176299.000000 0 0 1
22.841582 -29.160010 23.698997 43.973703 -0.906310 1.001623 0.099001 -0.008267 524422.000000 0 0 1
22.694382 -30.526260 23.332587 44.623953 -0.931508 1.020580 0.105231 -0.010713 -117807.000000 0 0 1
23.834882 -31.412440 23.886497 46.102145 -0.921705 1.026144 0.097305 -0.005623 -18157.600000 0 0 1
23.795782 -31.634430 25.293167 46.975746 -0.925881 1.002223 0.086148 -0.009137 322627.000000 0 0 1
25.080382 -31.950830 25.798377 48.118992 -0.905289 1.004942 0.082870 -0.009207 -512476.000000 0 0 1
25.045782 -32.403750 27.257607 49.196254 -0.912782 0.983565 0.080567 -0.016929 -80787.200000 0 0 1
24.428082 -33.625280 27.526557 49.850797 -0.942519 0.985821 0.068079 -0.014201 572952.000000 0 0 1
23.062082 -33.791770 27.150707 49.100960 -0.971928 0.984888 0.074961 -0.007796 -121498.000000 0 0 1
22.378982 32.960835 27.548787 48.437291 0.974333 0.965809 0.113535 -0.029094 -91049.500000 0 0 1
22.005282 32.894206 28.949367 49.033938 0.981200 0.939249 0.098240 -0.026314 221330.000000 0 0 1
21.347782 31.720894 29.342677 48.196843 0.978430 0.916238 0.097312 -0.028113 -408973.000000 0 0 1
21.078082 31.771864 30.884347 49.067095 0.985045 0.889976 0.089825 -0.028331 40536.000000 0 0 1
22.258782 31.844334 31.660847 50.119101 0.960750 0.887036 0.077049 -0.029878 167925.000000 0 0 1
22.002082 32.419627 32.897392 51.160162 0.974533 0.872351 0.074066 -0.027755 466374.000000 0 0 1
23.346882 32.389654 33.686603 52.239390 0.946238 0.869968 0.046773 -0.021747 449018.000000 0 0 1
23.743082 31.105994 -33.859850 51.747524 0.918840 2.284090 0.041412 -0.014125 -118041.000000 0 0 1
24.947682 31.224614 -33.143990 51.921936 0.896681 2.263140 0.032723 -0.013064 72684.500000 0 0 1
25.645282 30.011804 -32.477050 51.118956 0.863692 2.259223 0.031182 0.002329 41398.600000 0 0 1
26.025682 29.033414 -33.473770 51.388409 0.839971 2.280208 0.035638 0.003942 172000.000000 0 0 1
24.973182 28.133464 -33.775710 50.556406 0.844836 2.302421 0.046108 -0.006529 -67302.500000 0 0 1
25.062282 27.598474 32.750515 49.622475 0.833522 0.849986 0.067935 -0.011378 -256481.000000 0 0 1
26.236182 26.860454 32.531388 49.680101 0.797155 0.856856 0.069937 -0.017711 241811.000000 0 0 1
26.239882 26.059204 31.357767 48.486319 0.781943 0.867501 0.083904 -0.029989 -53552.500000 0 0 1
27.420382 25.051604 31.430797 48.655475 0.740285 0.868481 0.073836 -0.024126 -10442.900000 0 0 1
27.272482 24.042654 32.359742 48.672276 0.722540 0.843504 0.078252 -0.023318 190575.000000 0 0 1
28.090882 24.252924 33.480845 49.982687 0.712207 0.836791 0.076739 -0.030206 -714239.000000 0 0 1
27.901482 23.161544 -33.280630 49.219408 0.692838 2.313346 0.063109 -0.033508 140212.000000 0 0 1
26.767482 23.419364 -32.438500 48.137522 0.718784 2.310232 0.069294 -0.031912 1209100.000000 0 0 1
25.462282 23.094044 -32.912550 47.590951 0.736664 2.334459 0.051442 -0.021965 184727.000000 0 0 1
25.174582 21.616054 -32.746350 46.619061 0.709492 2.349594 0.044085 -0.015496 -831356.000000 0 0 1
25.093582 21.255354 -31.370380 45.448638 0.702775 2.332614 0.021688 -0.025326 245151.000000 0 0 1
25.047282 19.857454 -31.241680 44.695944 0.670335 2.344770 0.022952 -0.019462 -263579.000000 0 0 1
24.860282 19.279654 -29.789560 43.326165 0.659635 2.328927 0.026431 -0.010893 -977597.000000 0 0 1
23.613682 19.497954 -29.243120 42.343078 0.690220 2.333147 0.022263 -0.014981 -846745.000000 0 0 1
23.511482 18.762354 -28.050640 41.129723 0.673525 2.321296 0.028462 -0.010917 -662373.000000 0 0 1
22.187182 18.890654 -27.328420 39.949598 0.705319 2.324128 0.037885 -0.014408 -881540.000000 0 0 1
22.071882 18.079854 -26.134790 38.692071 0.686300 2.312379 0.046290 -0.012700 -5076.090000 0 0 1
22.727582 18.634654 -24.998280 38.583770 0.686766 2.275616 0.053210 -0.005536 3045.180000 0 0 1
22.893282 17.717254 -23.834380 37.497748 0.658626 2.259610 0.080611 -0.012877 502092.000000 0 0 1
23.947582 16.775454 -24.105380 37.894220 0.611066 2.260259 0.083086 -0.016301 569175.000000 0 0 1
24.017882 15.818054 -23.053680 36.858400 0.582394 2.246525 0.101701 -0.016049 -369230.000000 0 0 1
25.116282 14.762354 -23.261580 37.280770 0.531371 2.244592 0.124443 -0.019951 -130206.000000 0 0 1
26.404282 15.266854 -22.954580 38.172971 0.524233 2.215962 0.144572 -0.029455 529016.000000 0 0 1
27.461782 14.303954 -22.801780 38.453527 0.480202 2.205538 0.136501 -0.035645 636475.000000 0 0 1
27.386682 13.309054 -21.623480 37.346167 0.452359 2.188300 0.131513 -0.024623 -349297.000000 0 0 1
26.260082 12.447254 -21.717180 36.278946 0.442631 2.212569 0.125704 -0.017876 32406.900000 0 0 1
25.789182 11.976254 -20.471080 35.036805 0.434757 2.194781 0.098477 -0.018030 -1165360.000000 0 0 1
24.346682 11.574054 -20.581180 33.916141 0.443763 2.222857 0.110499 -0.020008 -986055.000000 0 0 1
23.471882 12.663354 -20.697680 33.759202 0.494755 2.230772 0.128929 -0.020664 -274558.000000 0 0 1
22.114282 12.304454 -20.822980 32.772512 0.507746 2.259296 0.102069 -0.019266 -87075.000000 0 0 1
21.109682 13.450054 -20.717880 32.492356 0.567289 2.262205 0.094433 -0.021432 -463941.000000 0 0 1
21.221182 14.378854 -21.742580 33.612941 0.595514 2.274245 0.089906 -0.013200 -108214.000000 0 0 1
20.550582 15.586154 -21.480780 33.566032 0.648874 2.265237 0.072357 -0.011921 -374016.000000 0 0 1
19.221482 15.694454 -22.240780 33.323169 0.684725 2.301544 0.058671 0.001008 413472.000000 0 0 1
18.101182 14.992754 -21.676980 31.973848 0.691746 2.315780 0.037940 -0.008388 882671.000000 0 0 1
16.986882 14.920054 -22.548680 31.931257 0.720712 2.354861 0.035458 -0.019709 104784.000000 0 0 1
15.949082 13.879754 -22.092680 30.579524 0.716136 2.378159 0.015539 -0.011653 56788.300000 0 0 1
14.793282 13.987354 -22.882980 30.628713 0.757403 2.414498 0.024775 -0.014821 -276852.000000 0 0 1
13.632082 13.371954 -22.373980 29.414925 0.775766 2.435085 0.046767 -0.018753 -188886.000000 0 0 1
12.430982 13.390754 -23.316080 29.622309 0.822550 2.476909 0.056930 -0.018477 -534058.000000 0 0 1
11.828682 14.663254 -23.205180 29.889950 0.891990 2.459657 0.059666 -0.012564 -144046.000000 0 0 1
11.294382 15.087354 -24.435780 30.859337 0.928192 2.484619 0.064137 -0.027075 -523334.000000 0 0 1
11.160482 16.694054 -24.511180 31.686681 0.981505 2.455218 0.064546 -0.034905 593611.000000 0 0 1
12.346882 17.509754 -24.279080 32.380715 0.956627 2.418557 0.044144 -0.022760 801988.000000 0 0 1
13.464582 17.342054 -25.136770 33.375126 0.910605 2.423647 0.050819 -0.023792 -169683.000000 0 0 1
13.354482 17.593154 -26.629720 34.597735 0.921514 2.449160 0.078416 -0.034918 -495442.000000 0 0 1
14.548582 17.411454 -27.377250 35.557472 0.874736 2.449549 0.068124 -0.035930 320965.000000 0 0 1
14.194982 17.058554 -28.704110 36.282471 0.876767 2.483449 0.090991 -0.043387 -677616.000000 0 0 1
15.280682 17.313954 -29.697750 37.619524 0.847698 2.480666 0.070912 -0.040881 -655097.000000 0 0 1
16.510282 16.656454 -29.568980 37.740581 0.789805 2.471042 0.044533 -0.036339 90225.800000 0 0 1
17.370382 16.906554 -30.699190 39.115240 0.771867 2.473234 0.036738 -0.024701 316997.000000 0 0 1
18.658482 16.053454 -30.573230 39.250156 0.710492 2.463758 0.043472 -0.020202 -39705.700000 0 0 1
19.804182 16.853754 -30.293550 39.924351 0.705086 2.432225 0.045168 -0.023108 504114.000000 0 0 1
20.931782 15.961454 -30.239040 40.091234 0.651483 2.425316 0.061554 -0.015875 445735.000000 0 0 1
22.174682 16.435654 -31.018200 41.520790 0.637839 2.414413 0.062905 -0.016403 -242708.000000 0 0 1
21.943782 16.701654 -32.391470 42.540359 0.650574 2.436311 0.060005 -0.020314 105479.000000 0 0 1
23.131182 17.035254 -33.072700 43.807020 0.634781 2.426395 0.050453 -0.021058 -114602.000000 0 0 1
22.885282 17.851154 33.558439 44.368555 0.662444 0.713071 0.029572 -0.003371 -315183.000000 0 0 1
24.058182 18.239654 32.903495 44.655583 0.648695 0.742429 0.024592 -0.009823 -100349.000000 0 0 1
23.759082 19.176254 31.876197 44.139717 0.679063 0.763868 0.056955 -0.005452 -106.005000 0 0 1
24.718182 20.408254 31.773287 45.133437 0.690179 0.789803 0.072660 -0.008375 -263632.000000 0 0 1
26.039982 20.066754 31.480147 45.516535 0.656564 0.807067 0.050013 -0.011393 -659699.000000 0 0 1
26.766382 21.248454 31.270667 46.322680 0.670979 0.829748 0.058576 -0.023275 -766953.000000 0 0 1
28.260882 21.033654 31.090067 46.986002 0.639822 0.847729 0.061309 -0.018188 -674796.000000 0 0 1
28.886082 20.630954 32.280415 47.979863 0.620205 0.832822 0.049790 -0.023929 247330.000000 0 0 1
30.304482 20.722654 32.120828 48.780505 0.599781 0.852003 0.042459 -0.015529 599139.000000 0 0 1
31.040682 19.794654 33.130508 49.527597 0.567680 0.838028 0.031222 -0.014882 -96985.900000 0 0 1
31.123882 20.332554 -33.501670 50.044687 0.578676 2.304244 0.030218 -0.020858 -45663.400000 0 0 1
29.972982 20.102954 -32.715800 48.711723 0.590791 2.307190 0.029392 -0.029248 -388999.000000 0 0 1
30.087182 20.388754 -31.245340 47.929230 0.595572 2.280891 0.049043 -0.032773 -516046.000000 0 0 1
30.912682 19.515254 -30.573860 47.657108 0.563119 2.267298 0.056957 -0.041793 -471194.000000 0 0 1
31.290982 20.015654 -29.285360 47.300997 0.569073 2.238428 0.049319 -0.042893 115594.000000 0 0 1
32.699082 19.512854 -28.868910 47.784887 0.538019 2.219486 0.080557 -0.029440 506072.000000 0 0 1
33.750582 20.069354 -29.677740 49.220413 0.536467 2.217998 0.042801 -0.033745 263416.000000 0 0 1
34.975382 19.633354 -29.113890 49.561724 0.511514 2.198672 0.076132 -0.025795 -137063.000000 0 0 1
36.190282 20.477054 -29.491850 50.978579 0.514905 2.187703 0.071298 -0.032314 -406443.000000 0 0 1
36.846382 20.288554 -30.693610 52.070903 0.503323 2.201184 0.054423 -0.030213 -286640.000000 0 0 1
-36.159187 21.152754 -30.813800 52.004001 -0.529309 2.204989 0.052751 -0.044772 278454.000000 0 0 1
-35.163687 20.665754 -31.931940 51.799682 -0.531327 2.235023 0.059477 -0.050910 381915.000000 0 0 1
-34.305187 19.543254 -31.654960 50.604557 -0.517833 2.246614 0.089376 -0.041960 540831.000000 0 0 1
-33.757087 19.113554 -32.888340 50.857760 -0.515202 2.274011 0.104849 -0.030371 -557114.000000 0 0 1
-32.805887 17.950254 -32.687770 49.668181 -0.500665 2.289119 0.084071 -0.015819 -575325.000000 0 0 1
-33.439587 16.736554 -32.506760 49.548034 -0.464049 2.286390 0.089356 -0.017325 34132.200000 0 0 1
-32.512187 15.701154 -32.628840 48.664255 -0.449900 2.305664 0.079466 -0.006345 -395247.000000 0 0 1
-33.305387 14.394954 -32.691720 48.838633 -0.407963 2.304173 0.077105 -0.001846 -19896.500000 0 0 1
-32.753187 13.143654 -33.029620 48.337177 -0.381621 2.323093 0.076826 -0.006946 277671.000000 0 0 1
-33.881387 12.276654 -33.007240 48.868625 -0.347627 2.312341 0.083592 -0.006488 482272.000000 0 0 1
-33.573587 10.749154 -33.153390 48.392947 -0.309854 2.325520 0.075505 -0.002147 5561.380000 0 0 1
-32.972787 10.278254 33.581391 48.172160 -0.302173 0.799435 0.065404 -0.005203 303191.000000 0 0 1
-33.397787 8.934954 33.369647 48.049755 -0.261409 0.803098 0.082631 -0.018248 412283.000000 0 0 1
-32.512387 8.163454 32.282234 46.538586 -0.246002 0.804230 0.091356 -0.021081 236699.000000 0 0 1
-31.267887 7.812754 32.819043 45.997929 -0.244852 0.776330 0.073854 -0.005390 -591521.000000 0 0 1
-30.598787 6.928054 31.993783 44.809440 -0.222662 0.775607 0.084929 -0.012508 -206786.000000 0 0 1
20.944882 -4.249100 -31.353000 37.944085 -0.200154 2.543294 0.100069 -0.045127 -543903.000000 0 0 1
22.141282 -4.414700 -32.063350 39.214594 -0.196807 2.528093 0.105561 -0.046081 570305.000000 0 0 1
23.251282 -3.546800 -31.744620 39.508516 -0.151375 2.503928 0.095695 -0.040944 1035220.000000 0 0 1
22.900182 -2.032100 -32.010400 39.410829 -0.088505 2.518750 0.101032 -0.032925 -665112.000000 0 0 1
23.910782 -1.156200 -31.568840 39.618859 -0.048317 2.492799 0.083095 -0.022978 132470.000000 0 0 1
23.726482 0.166500 -32.052880 39.879328 0.007017 2.504362 0.083634 -0.026015 -323348.000000 0 0 1
24.756182 1.085300 -31.398570 39.998958 0.043811 2.473468 0.078164 -0.013023 402111.000000 0 0 1
26.101382 0.743900 -31.731400 41.094005 0.028493 2.453039 0.077672 -0.020949 428155.000000 0 0 1
27.073982 1.503300 -31.024620 41.204217 0.055469 2.423326 0.077376 -0.020921 -1410950.000000 0 0 1
28.450482 1.304500 -31.503760 42.469030 0.045819 2.406555 0.063485 -0.024164 -1700570.000000 0 0 1
28.570982 1.852900 -32.810490 43.546096 0.064762 2.424114 0.071048 -0.025163 -355569.000000 0 0 1
29.504082 1.151200 -33.568920 44.706694 0.038999 2.420175 0.063595 -0.018122 -796051.000000 0 0 1
30.398082 2.020100 33.469914 45.258804 0.066357 0.738435 0.065382 -0.025199 -225243.000000 0 0 1
29.696982 2.784600 32.486169 44.102335 0.093494 0.742754 0.082718 -0.019820 240398.000000 0 0 1
29.584582 4.184200 32.919859 44.457531 0.140500 0.737014 0.083160 -0.013284 -225151.000000 0 0 1
28.890582 5.073000 31.923257 43.353148 0.173822 0.743131 0.093472 -0.010054 -406702.000000 0 0 1
28.977382 6.418500 32.293629 43.860737 0.217981 0.743245 0.098810 -0.011797 87084.300000 0 0 1
28.250782 7.160500 31.347727 42.802563 0.248234 0.748986 0.086165 -0.012193 -102518.000000 0 0 1
28.479882 8.671500 31.465807 43.317382 0.295560 0.757725 0.074290 -0.008197 280769.000000 0 0 1
29.753882 9.105800 31.022357 43.938545 0.296986 0.786906 0.079560 -0.013731 18161.900000 0 0 1
29.990782 10.414600 31.375737 44.635723 0.334232 0.791289 0.074411 -0.014952 -13235.300000 0 0 1
31.312482 11.051800 30.879687 45.344998 0.339302 0.821677 0.077254 -0.006355 -386487.000000 0 0 1
32.414082 10.474400 31.534967 46.420253 0.312552 0.823938 0.077689 -0.014899 336151.000000 0 0 1
33.727482 10.685200 31.031297 47.060152 0.306806 0.850781 0.080300 -0.013825 509057.000000 0 0 1
34.274082 12.109300 30.947497 47.739872 0.339619 0.865509 0.085958 -0.006501 -994866.000000 0 0 1
34.648482 12.470900 32.307686 48.988031 0.345490 0.850641 0.076799 -0.010704 60645.300000 0 0 1
34.904882 13.863600 32.548713 49.698782 0.378075 0.856720 0.084052 0.000262 1043630.000000 0 0 1
33.701982 14.937100 32.414328 49.087974 0.417194 0.849536 0.068184 -0.002343 475591.000000 0 0 1
33.478382 15.258500 31.041457 48.137261 0.427643 0.869965 0.069453 -0.011637 401688.000000 0 0 1
32.602382 16.403900 30.967987 47.864595 0.466165 0.867164 0.063823 -0.013918 1125090.000000 0 0 1
31.063682 16.120000 30.960647 46.726528 0.478680 0.846521 0.058419 0.000428 480456.000000 0 0 1
30.585782 15.398600 29.800867 45.394918 0.466409 0.854653 0.057660 -0.001976 642853.000000 0 0 1
29.262682 14.904400 30.009367 44.486041 0.471085 0.830402 0.042834 -0.007136 446845.000000 0 0 1
28.458982 14.283000 28.883177 42.990181 0.465151 0.834086 0.043625 0.004022 -76493.300000 0 0 1
28.572782 12.862300 28.807657 42.564348 0.422986 0.827386 0.062830 0.001352 139058.000000 0 0 1
27.610782 12.286800 27.941467 41.158794 0.418688 0.824574 0.046927 -0.007962 166390.000000 0 0 1
27.520982 10.700000 27.944827 40.654739 0.370809 0.812935 0.052510 -0.001119 244951.000000 0 0 1
28.518882 10.097800 27.104097 40.619260 0.340300 0.840256 0.074863 -0.004945 383452.000000 0 0 1
28.311582 8.671800 27.001407 40.072706 0.297225 0.831443 0.077459 -0.004084 362706.000000 0 0 1
29.525682 7.967400 26.327917 40.353495 0.263569 0.860007 0.093301 -0.009063 244855.000000 0 0 1
29.744982 8.172800 24.938927 39.667477 0.268145 0.890916 0.092873 -0.009233 -20844.600000 0 0 1
30.690282 7.235300 24.452277 39.901840 0.231525 0.911184 0.100955 0.000086 193321.000000 0 0 1
31.343182 7.606900 23.072037 39.655755 0.238094 0.949846 0.117807 -0.008424 81155.700000 0 0 1
32.280282 8.654000 23.151347 40.655789 0.261930 0.964962 0.117799 -0.018962 239198.000000 0 0 1
31.709682 9.977500 23.008897 40.428502 0.304844 0.965354 0.125468 -0.031108 134889.000000 0 0 1
31.188682 10.325900 21.552967 39.292346 0.319720 0.990193 0.119418 -0.010310 568688.000000 0 0 1
32.229982 10.310000 20.574467 39.602734 0.309602 1.024506 0.125433 -0.023071 518862.000000 0 0 1
31.631382 10.266000 19.297867 38.449223 0.313826 1.044996 0.126851 -0.033072 -561637.000000 0 0 1
32.557582 10.923400 18.233767 38.881706 0.323708 1.082689 0.127077 -0.061615 185817.000000 0 0 1
33.714782 10.213100 17.902067 39.515540 0.294139 1.100625 0.137199 -0.048825 219140.000000 0 0 1
34.752882 10.065300 18.874567 40.808361 0.281911 1.089964 0.114415 -0.032494 -916492.000000 0 0 1
36.069482 9.573700 18.309767 41.568147 0.259442 1.114668 0.114006 -0.031836 -675630.000000 0 0 1
36.111282 8.180000 18.316067 41.308781 0.222763 1.111415 0.101664 -0.018203 -31728.600000 0 0 1
-36.843987 7.671500 17.709367 41.592703 -0.205283 1.130972 0.105274 -0.016297 -333608.000000 0 0 1
-36.942587 6.231500 17.304067 41.267627 -0.167108 1.138107 0.112022 -0.016373 -166789.000000 0 0 1
36.342782 6.051100 16.164967 40.233317 0.164987 1.157336 0.109303 -0.016046 -126894.000000 0 0 1
36.406882 4.709200 15.704467 39.928284 0.128635 1.166560 0.136942 -0.015526 205426.000000 0 0 1
35.094582 3.885100 15.850067 38.703337 0.110255 1.148861 0.126640 -0.014911 120221.000000 0 0 1
35.087982 3.129900 17.091067 39.154404 0.088966 1.119087 0.132924 -0.004195 -303168.000000 0 0 1
33.838182 2.536100 17.213067 38.049232 0.074808 1.101354 0.108101 -0.010555 -483925.000000 0 0 1
33.734682 1.634700 18.459667 38.489743 0.048420 1.070598 0.113437 -0.022781 28767.700000 0 0 1
34.377082 0.390900 18.394867 38.991123 0.011370 1.079498 0.136447 -0.020297 -83188.100000 0 0 1
33.977982 -0.391800 19.513367 39.184541 -0.011530 1.049521 0.146339 -0.027333 252172.000000 0 0 1
34.676382 -1.770800 19.592167 39.867784 -0.051022 1.057067 0.139419 -0.023489 157887.000000 0 0 1
34.333382 -2.445300 20.771567 40.202221 -0.071102 1.027831 0.140721 -0.021524 24984.500000 0 0 1
35.056682 -3.658900 20.839967 40.947072 -0.103994 1.036833 0.109884 -0.023104 -32668.100000 0 0 1
34.747082 -4.567100 22.032867 41.396441 -0.130689 1.009551 0.115105 -0.024448 -160889.000000 0 0 1
35.118582 -4.060500 23.262367 42.319501 -0.115111 0.988810 0.112507 -0.025059 355305.000000 0 0 1
34.619582 -4.901600 24.316167 42.588932 -0.140650 0.963133 0.107991 -0.024058 166244.000000 0 0 1
34.882782 -4.243300 25.686237 43.526967 -0.121050 0.939586 0.091203 -0.017645 260404.000000 0 0 1
34.069282 -4.816000 26.722467 43.566043 -0.140429 0.910465 0.093070 -0.024301 287463.000000 0 0 1
34.233682 -4.102400 27.947307 44.382729 -0.119266 0.889644 0.092310 -0.021650 -153243.000000 0 0 1
33.359782 -4.614900 29.100057 44.508265 -0.137465 0.858184 0.075769 -0.022690 45208.500000 0 0 1
33.679982 -5.895500 29.602517 45.226177 -0.173289 0.857217 0.074948 -0.032891 -126893.000000 0 0 1
32.722482 -6.046300 30.629817 45.227251 -0.182714 0.826788 0.075558 -0.037706 65152.600000 0 0 1
32.617182 -7.498800 31.218157 45.767739 -0.225977 0.820166 0.068622 -0.032387 30421.400000 0 0 1
33.744282 -7.841900 31.999993 47.161123 -0.228339 0.825044 0.063480 -0.039672 -411773.000000 0 0 1
34.615482 -8.674300 31.282507 47.455983 -0.245534 0.851055 0.058645 -0.028956 50447.400000 0 0 1
35.949282 -8.820000 32.077893 48.980961 -0.240593 0.856739 0.064843 -0.023042 296823.000000 0 0 1
35.712182 -9.433500 33.303237 49.733856 -0.258255 0.837087 0.036845 -0.032182 447091.000000 0 0 1
36.941482 -9.633400 -33.924460 51.071954 -0.255093 2.297284 0.020226 -0.031106 245115.000000 0 0 1
36.763582 -9.950900 -32.414800 50.013005 -0.264339 2.275919 0.027327 -0.033211 -325798.000000 0 0 1
36.246282 -8.922600 -31.546360 48.873086 -0.241367 2.272441 0.020827 -0.032580 367115.000000 0 0 1
36.961682 -7.717100 -31.582180 49.225539 -0.205830 2.267354 0.017789 -0.024807 -94315.900000 0 0 1
36.279382 -6.597700 -30.742570 48.008633 -0.179892 2.265757 0.021397 -0.023286 -220796.000000 0 0 1
36.504482 -6.639500 -29.360890 47.315135 -0.179915 2.240226 0.011701 -0.016413 98585.400000 0 0 1
35.705882 -5.759000 -28.615310 46.118457 -0.159913 2.240143 0.025738 -0.021372 -325986.000000 0 0 1
36.273782 -5.734000 -27.195510 45.697503 -0.156778 2.208212 0.030418 -0.022502 326490.000000 0 0 1
-36.580087 -5.067000 -27.129810 45.823617 0.137642 2.204395 0.026387 -0.021319 162046.000000 0 0 1
-36.186687 -4.784700 -25.779770 44.687428 0.131460 2.185714 0.027881 -0.019089 611324.000000 0 0 1
-34.666987 -4.459600 -25.652370 43.355877 0.127938 2.203925 0.065932 -0.019185 -327545.000000 0 0 1
-34.396587 -3.980200 -24.337180 42.323345 0.115203 2.183437 0.080369 -0.022390 759121.000000 0 0 1
-32.996387 -3.913700 -24.045980 41.015701 0.118058 2.197234 0.109566 -0.019988 1027810.000000 0 0 1
-32.102887 -2.887900 -24.819680 40.681099 0.089716 2.226988 0.122658 -0.025220 -470291.000000 0 0 1
-31.862087 -3.203700 -26.156490 41.347530 0.100212 2.255703 0.114859 -0.016041 -555791.000000 0 0 1
-30.948187 -2.378100 -26.777050 40.993366 0.076691 2.282605 0.124385 -0.016698 -588188.000000 0 0 1
-30.506987 -2.926500 -28.150720 41.613744 0.095636 2.313764 0.105526 -0.021593 -95370.300000 0 0 1
-31.514287 -3.154200 -29.128820 43.030076 0.099756 2.314395 0.096748 -0.022975 -249974.000000 0 0 1
-31.094187 -4.068700 -30.117440 43.479455 0.130112 2.335997 0.067977 -0.018786 276812.000000 0 0 1
-32.236887 -4.509200 -31.136080 45.044481 0.138975 2.333986 0.052051 -0.019283 1352620.000000 0 0 1
-33.352587 -5.355000 -30.729320 45.665766 0.159199 2.308943 0.052816 -0.017073 1484770.000000 0 0 1
-34.262887 -4.836000 -29.752120 45.634647 0.140218 2.280967 0.056171 -0.023488 -109966.000000 0 0 1
-35.270487 -3.729600 -30.166010 46.560770 0.105351 2.275601 0.068061 -0.024384 -978190.000000 0 0 1
-34.792187 -2.488900 -30.672810 46.449028 0.071415 2.292087 0.081486 -0.016241 -342439.000000 0 0 1
-34.173187 -1.625400 -29.717480 45.316413 0.047528 2.286008 0.096853 -0.014878 -332101.000000 0 0 1
-33.888787 -0.196300 -30.302250 45.461135 0.005792 2.300371 0.091959 -0.017455 221329.000000 0 0 1
-35.059787 0.485500 -30.721600 46.618034 -0.013847 2.290294 0.111295 -0.010902 155313.000000 0 0 1
-34.731387 1.773000 -31.295320 46.784718 -0.051005 2.303554 0.114354 -0.004608 323679.000000 0 0 1
-35.982687 2.523700 -31.823390 48.102505 -0.070022 2.293713 0.091100 -0.004452 162999.000000 0 0 1
-36.381587 2.242100 -33.139370 49.263219 -0.061549 2.308648 0.085437 -0.007242 -285754.000000 0 0 1
36.567182 2.961000 -33.423410 49.629131 0.080798 2.309681 0.071364 -0.009168 -488778.000000 0 0 1
35.650582 2.345600 33.417559 48.920334 0.065699 0.818795 0.057686 -0.005691 -178717.000000 0 0 1
36.055182 2.529200 32.084924 48.330274 0.070033 0.844817 0.065099 -0.008043 264749.000000 0 0 1
37.055182 1.606000 31.685977 48.781830 0.043314 0.863811 0.056683 -0.010846 -36221.500000 0 0 1
-36.952487 1.714200 30.202477 47.755779 -0.046356 0.886102 0.074472 -0.015867 -251457.000000 0 0 1
-36.382987 2.903000 29.753917 47.089752 -0.079621 0.886852 0.087339 -0.017305 -165539.000000 0 0 1
-36.171987 2.890300 28.386297 46.071123 -0.079735 0.906963 0.108650 -0.025834 132091.000000 0 0 1
-35.340187 4.177500 28.124167 45.358010 -0.117662 0.901992 0.095153 -0.027241 -121026.000000 0 0 1
-35.061587 4.303000 26.721317 44.292883 -0.122116 0.923180 0.104454 -0.023543 340128.000000 0 0 1
-34.428687 5.572900 26.438927 43.765381 -0.160476 0.922153 0.092533 -0.019412 -76821.200000 0 0 1
-33.571987 5.595800 25.164987 42.328098 -0.165162 0.934125 0.103136 -0.016847 -418411.000000 0 0 1
-32.292687 5.013500 25.285517 41.319610 -0.154022 0.912273 0.098375 -0.018271 -102692.000000 0 0 1
-31.433387 5.264800 24.216947 40.027946 -0.165950 0.921029 0.096888 -0.021639 -288138.000000 0 0 1
-31.738687 4.681600 22.825267 39.373271 -0.146448 0.952418 0.114586 -0.026283 -319391.000000 0 0 1
-31.427487 3.289700 22.805567 38.969257 -0.104296 0.945646 0.120861 -0.027542 -197925.000000 0 0 1
-32.152287 2.786800 21.732967 38.908324 -0.086459 0.978137 0.143911 -0.025104 -196707.000000 0 0 1
-31.853987 1.317400 21.434167 38.416605 -0.041334 0.978895 0.135482 -0.028691 -102977.000000 0 0 1
-30.631787 1.110500 20.767967 37.024965 -0.036237 0.975302 0.111826 -0.022187 77203.700000 0 0 1
-30.841487 1.204700 19.353667 36.430935 -0.039041 1.010730 0.127401 -0.028328 -770833.000000 0 0 1
-29.537787 1.215300 18.569267 34.910965 -0.041121 1.009949 0.112051 -0.029229 -941565.000000 0 0 1
-28.931287 -0.015900 18.830167 34.519485 0.000550 0.993818 0.118595 -0.028159 746432.000000 0 0 1
-27.644987 -0.187000 18.184167 33.089941 0.006764 0.988986 0.108545 -0.029303 626972.000000 0 0 1
-27.540787 -0.343900 16.630767 32.174456 0.012486 1.027578 0.144122 -0.014725 -866083.000000 0 0 1
-27.812687 0.841000 15.985367 32.090260 -0.030229 1.049347 0.134153 -0.024313 269292.000000 0 0 1
-27.843687 0.679800 14.612167 31.452320 -0.024410 1.087634 0.147986 -0.017832 -154323.000000 0 0 1
-27.525487 2.018800 13.891967 30.898458 -0.073212 1.104478 0.142751 -0.025385 -360087.000000 0 0 1
-26.147287 2.258800 13.923167 29.709214 -0.086174 1.083036 0.122855 -0.035769 -271663.000000 0 0 1
-25.753287 3.562900 13.556567 29.320753 -0.137475 1.090148 0.123342 -0.038129 -396138.000000 0 0 1
-24.251287 3.597400 13.288167 27.886226 -0.147265 1.074111 0.112844 -0.038762 -244083.000000 0 0 1
-23.410187 3.776100 14.423767 27.755015 -0.159924 1.024318 0.080311 -0.030960 124630.000000 0 0 1
-22.052687 3.901700 14.078767 26.452901 -0.175114 1.009575 0.073064 -0.024285 -142105.000000 0 0 1
-21.232287 4.558600 15.210867 26.513418 -0.211491 0.959775 0.056212 -0.027032 -402363.000000 0 0 1
-21.474387 5.933800 15.374567 27.069108 -0.269593 0.966753 0.049700 -0.022717 288396.000000 0 0 1
-21.072387 6.397300 16.635067 27.598848 -0.294744 0.923860 0.039109 -0.014770 -333243.000000 0 0 1
-21.278987 7.914800 16.767267 28.223759 -0.356097 0.934671 0.051903 -0.020764 -582753.000000 0 0 1
-20.446887 8.585800 15.833067 27.248434 -0.397549 0.950762 0.043917 -0.022362 685869.000000 0 0 1
-20.460287 10.015300 15.920167 27.791749 -0.455212 0.960832 0.043167 -0.017978 -250227.000000 0 0 1
-19.833487 10.708400 17.135067 28.313381 -0.495068 0.920788 0.046947 -0.013553 -222678.000000 0 0 1
-20.588687 10.484900 18.308367 29.479204 -0.471024 0.900701 0.058892 -0.020739 631214.000000 0 0 1
-19.917387 11.066200 19.427767 29.943300 -0.507136 0.864766 0.059595 -0.007367 -40871.300000 0 0 1
-12.344618 -33.802355 -19.629280 40.991431 1.220645 2.070155 0.158028 -0.043648 -305767.000000 0 0 1
-13.497818 33.935900 -18.918880 41.131015 -1.192236 2.048754 0.192671 -0.041142 -168785.000000 0 0 1
-14.549518 -33.198055 -19.164980 41.001168 1.157745 2.057172 0.176699 -0.062486 788548.000000 0 0 1
-15.907218 -33.594955 -18.498080 41.519147 1.128572 2.032564 0.161277 -0.045762 127405.000000 0 0 1
-16.566318 33.361100 -19.090280 41.855044 -1.109892 2.044409 0.155676 -0.054727 171413.000000 0 0 1
-17.349318 32.588800 -18.184080 41.154459 -1.081589 2.028456 0.145377 -0.051334 1371270.000000 0 0 1
-18.823518 33.069000 -17.838680 42.025018 -1.053317 2.009181 0.134091 -0.047810 604726.000000 0 0 1
-18.825018 -33.839055 -17.040180 42.306391 1.063121 1.985349 0.150595 -0.043649 -199332.000000 0 0 1
-20.064218 -33.589655 -16.446780 42.442129 1.032340 1.968726 0.103273 -0.039510 -397714.000000 0 0 1
-20.452418 33.723300 -15.164180 42.255352 -1.025628 1.937853 0.098774 -0.039690 -417026.000000 0 0 1
-20.310918 32.329000 -15.185880 41.089033 -1.009858 1.949358 0.108922 -0.041820 175443.000000 0 0 1
-20.876718 31.844700 -13.984980 40.564787 -0.990509 1.922776 0.103344 -0.038379 100473.000000 0 0 1
-21.087318 30.328200 -13.792480 39.429776 -0.963229 1.928152 0.106747 -0.040495 480658.000000 0 0 1
-19.871718 29.629400 -13.519180 38.151733 -0.980023 1.933018 0.123557 -0.044027 425963.000000 0 0 1
-20.047418 28.276600 -13.384480 37.156553 -0.954072 1.939299 0.118415 -0.045249 1456700.000000 0 0 1
-18.685118 27.565900 -12.880780 35.706120 -0.975102 1.939862 0.109911 -0.041770 2368210.000000 0 0 1
-17.519318 27.840600 -13.722680 35.641794 -1.009131 1.966022 0.126984 -0.047641 428724.000000 0 0 1
-16.519018 26.957000 -13.288180 34.294803 -1.021024 1.968681 0.133116 -0.053793 -122894.000000 0 0 1
-15.095918 27.331800 -13.752280 34.118019 -1.066173 1.985676 0.111752 -0.054047 65207.000000 0 0 1
-15.059718 27.345200 -15.174180 34.710385 -1.067396 2.023241 0.089098 -0.046768 -136651.000000 0 0 1
-13.749518 27.586900 -15.634980 34.562102 -1.108424 2.040221 0.119034 -0.045580 -96961.100000 0 0 1
-13.693918 27.819100 -17.135280 35.426594 -1.113369 2.075655 0.138673 -0.058132 -91130.700000 0 0 1
-13.797818 26.609800 -17.850480 34.886973 -1.092440 2.107919 0.108471 -0.056010 224917.000000 0 0 1
-14.146918 26.878500 -19.158080 35.911295 -1.086309 2.133510 0.093270 -0.052986 -163897.000000 0 0 1
-13.490418 25.810800 -20.078280 35.374088 -1.089181 2.174382 0.072130 -0.031120 -2195.580000 0 0 1
-12.173618 26.105800 -20.500280 35.354933 -1.134455 2.189331 0.057327 -0.023559 4323.810000 0 0 1
-11.705418 25.143400 -21.396480 35.028799 -1.135090 2.227899 0.059146 -0.019578 318036.000000 0 0 1
-10.395218 25.417300 -22.177780 35.298068 -1.182571 2.250163 0.079096 -0.025421 -101082.000000 0 0 1
-10.546818 26.312300 -23.257980 36.667508 -1.189573 2.257891 0.074574 -0.018556 2034.880000 0 0 1
-9.409718 26.422500 -24.096580 36.977513 -1.228675 2.280561 0.076627 -0.027911 -68382.300000 0 0 1
-9.623918 27.192300 -25.395560 38.431438 -1.230633 2.292683 0.078476 -0.025054 229844.000000 0 0 1
-10.383718 26.443700 -26.357010 38.752843 -1.196623 2.318738 0.075320 -0.020933 597544.000000 0 0 1
-11.084718 27.370200 -27.288300 40.207588 -1.185994 2.316767 0.092508 -0.011715 301788.000000 0 0 1
-12.005918 26.598600 -28.217170 40.593550 -1.146800 2.339376 0.061558 -0.002665 -301197.000000 0 0 1
-12.592018 27.389600 -29.219830 41.982706 -1.139874 2.340604 0.073050 -0.001457 -158223.000000 0 0 1
-13.858118 26.864800 -29.569680 42.286297 -1.094552 2.345177 0.053706 0.010215 -58427.500000 0 0 1
-14.123918 27.056100 -31.092430 43.568989 -1.089686 2.365472 0.060301 -0.003499 88452.600000 0 0 1
-13.233618 26.531900 -32.090850 43.690881 -1.108124 2.395722 0.059478 -0.003779 251735.000000 0 0 1
-13.075618 25.109700 -32.019390 42.740030 -1.090695 2.417599 0.045652 -0.003067 -183303.000000 0 0 1
-12.315718 24.495300 -33.188410 43.048429 -1.104928 2.451136 0.041682 -0.001614 22191.400000 0 0 1
-12.983518 24.487400 33.461209 43.449477 -1.083272 0.691771 0.043010 0.000702 245793.000000 0 0 1
-12.283618 23.672900 32.497991 42.040610 -1.092152 0.687217 0.037427 -0.004754 -29931.600000 0 0 1
-12.857018 23.649400 31.033087 41.081012 -1.072841 0.714514 0.042088 0.003144 511012.000000 0 0 1
-14.111818 22.947100 30.929707 41.016577 -1.019441 0.716547 0.040971 -0.009418 580202.000000 0 0 1
-14.446918 22.729100 29.598127 40.017179 -1.004601 0.738268 0.059478 -0.007381 -460620.000000 0 0 1
-15.640418 21.796700 29.585697 39.937856 -0.948383 0.736546 0.057067 -0.013834 -287040.000000 0 0 1
-15.308918 20.407200 29.622287 39.093436 -0.927185 0.710968 0.032708 -0.014500 169733.000000 0 0 1
-16.515018 19.703200 29.805887 39.361820 -0.873199 0.711737 0.036123 -0.017752 87147.500000 0 0 1
-16.186118 18.199400 29.825027 38.506374 -0.843882 0.684796 0.023943 -0.020623 -20728.400000 0 0 1
-15.761618 17.756700 28.574877 37.151751 -0.844850 0.693303 0.035642 -0.017830 7275.720000 0 0 1
-15.360618 16.406100 28.553197 36.337223 -0.818298 0.666834 0.018684 -0.017737 -81795.800000 0 0 1
-14.898718 16.011200 27.120147 34.840102 -0.821374 0.678655 0.025424 -0.015769 -205299.000000 0 0 1
-13.758018 16.774200 26.819567 34.495595 -0.883866 0.680151 0.011065 -0.020659 -90207.400000 0 0 1
-13.137218 16.190000 25.662707 33.064742 -0.889118 0.682283 -0.000348 -0.014804 -261714.000000 0 0 1
-12.038318 16.987600 24.984337 32.522558 -0.954286 0.694747 0.014313 -0.008515 -361564.000000 0 0 1
-12.411018 18.062400 24.093447 32.569585 -0.968768 0.738093 0.017110 -0.010798 -247263.000000 0 0 1
-12.910518 19.251100 24.663217 33.846132 -0.980049 0.754394 0.015227 -0.011071 281231.000000 0 0 1
-11.895418 20.118100 25.508637 34.596669 -1.036814 0.741709 0.007241 -0.016699 433136.000000 0 0 1
-11.534918 19.585300 26.770397 35.118264 -1.038536 0.703948 0.013675 -0.014388 284350.000000 0 0 1
-12.613818 19.628800 27.699477 36.216837 -0.999628 0.700029 0.026829 -0.012188 275552.000000 0 0 1
-12.126618 19.186500 29.085317 36.893527 -1.007151 0.662660 0.032408 -0.013360 200605.000000 0 0 1
-11.176418 20.051900 29.694297 37.533216 -1.062309 0.658114 0.029007 -0.021835 55459.500000 0 0 1
-11.166818 19.834300 31.086477 38.528773 -1.058023 0.632016 0.037236 -0.021929 -423399.000000 0 0 1
-10.109118 20.679300 31.777687 39.238363 -1.116107 0.626878 0.023363 -0.017179 719247.000000 0 0 1
-8.776118 20.142000 31.672537 38.546985 -1.159887 0.606478 0.031574 -0.023563 1279490.000000 0 0 1
-7.783818 20.957500 32.308230 39.289011 -1.215177 0.605316 0.042326 -0.022624 617599.000000 0 0 1
-6.468518 20.299200 32.758419 39.077017 -1.262310 0.576631 0.046996 -0.022410 -455441.000000 0 0 1
-6.601718 19.548700 -33.955150 39.732689 -1.245115 2.595557 0.044804 -0.026486 68210.700000 0 0 1
-5.422218 19.097400 -33.318090 38.784098 -1.294152 2.604238 0.042062 -0.021936 -33196.000000 0 0 1
-4.632218 18.023600 33.838379 38.617917 -1.319232 0.502803 0.031336 -0.021996 -720239.000000 0 0 1
-5.259918 16.793000 33.821238 38.125421 -1.267255 0.479762 0.030823 -0.020564 80286.700000 0 0 1
-5.018718 16.167300 32.565358 36.702475 -1.269804 0.479383 0.031074 -0.019580 -42804.900000 0 0 1
-5.675518 14.753600 32.593789 36.224789 -1.203560 0.451566 0.037221 -0.019624 -340533.000000 0 0 1
-5.083718 13.771300 33.350591 36.438370 -1.217162 0.414643 0.048125 -0.020696 -311634.000000 0 0 1
-5.722118 12.484200 33.219288 35.946057 -1.141021 0.392011 0.054716 -0.026458 -215021.000000 0 0 1
-4.957818 11.241300 33.686323 35.856871 -1.155422 0.349727 0.068972 -0.033742 -10810.500000 0 0 1
-5.136518 10.863200 -32.867090 34.994836 -1.129115 2.791084 0.069603 -0.037339 -174853.000000 0 0 1
-4.311818 9.751300 -32.612010 34.310681 -1.154465 2.825610 0.095060 -0.038873 151187.000000 0 0 1
-4.293818 9.514600 -31.093510 32.798946 -1.146872 2.817699 0.089400 -0.035815 -220013.000000 0 0 1
-5.394418 8.762800 -30.680900 32.360532 -1.018982 2.817991 0.089550 -0.031848 -321194.000000 0 0 1
-5.606618 8.817000 -29.307010 31.113896 -1.004406 2.799119 0.114270 -0.038301 -905208.000000 0 0 1
-6.727918 7.992900 -28.810420 30.646234 -0.871119 2.793710 0.095162 -0.036539 -1301430.000000 0 0 1
-6.268018 6.721500 -28.371610 29.823060 -0.820295 2.828324 0.098741 -0.027564 -135694.000000 0 0 1
-7.296418 5.908700 -27.915170 29.451777 -0.680693 2.817143 0.104912 -0.046585 -929515.000000 0 0 1
-6.992718 5.451400 -26.458370 27.904502 -0.662167 2.818241 0.101162 -0.046362 -27238.900000 0 0 1
-7.127018 6.401200 -25.412540 27.158184 -0.731797 2.781100 0.075491 -0.034945 -238321.000000 0 0 1
-5.973018 7.174900 -25.289710 26.957848 -0.876557 2.787959 0.085918 -0.038554 -752473.000000 0 0 1
-6.027218 8.294700 -24.228180 26.308442 -0.942417 2.741251 0.055231 -0.017933 20386.500000 0 0 1
-6.235218 7.796300 -22.923180 25.002649 -0.896198 2.730864 0.050535 -0.016962 -519769.000000 0 0 1
-7.566018 7.979400 -22.529480 25.069761 -0.811984 2.687528 0.051596 -0.013972 -325109.000000 0 0 1
-7.682518 7.958800 -21.022080 23.754819 -0.803060 2.657206 0.046267 -0.012925 -248455.000000 0 1 0
-7.050818 9.073100 -20.478980 23.482415 -0.910168 2.630271 0.033539 -0.006143 -130117.000000 0 1 0
-7.017318 9.052700 -19.057980 22.235124 -0.911384 2.600432 0.030595 -0.010709 -664093.000000 0 1 0
-8.236318 9.500500 -18.262980 22.172796 -0.856552 2.538642 0.030882 -0.000424 -793223.000000 0 1 0
-8.006318 9.541200 -16.866280 20.966808 -0.872646 2.505508 0.024173 0.006066 -241283.000000 0 1 0
-9.078218 9.910700 -16.037880 20.924857 -0.829210 2.444094 0.026929 0.000161 88763.700000 0 1 0
-9.646418 11.337600 -16.220780 22.016091 -0.865818 2.399076 0.047675 -0.009514 117994.000000 0 1 0
-8.630018 12.193500 -15.733580 21.695719 -0.954884 2.382111 0.025422 -0.010564 420405.000000 0 1 0
-8.906118 13.455600 -16.293980 22.931766 -0.986108 2.361064 0.050310 -0.017705 151673.000000 0 1 0
-7.803518 14.455000 -15.915880 22.872629 -1.075780 2.340397 0.045572 -0.016222 -211370.000000 0 1 0
-7.478018 14.615100 -14.525480 21.920572 -1.097861 2.295137 0.036564 -0.009233 489271.000000 0 1 0
-8.420318 15.313800 -13.685780 22.197180 -1.068067 2.235156 0.043610 -0.020245 -190278.000000 0 1 0
-7.735318 16.176200 -12.577080 21.901770 -1.124747 2.182483 0.032523 -0.018928 229519.000000 0 1 0
-7.286318 17.473600 -12.998380 22.964647 -1.175730 2.172463 0.035807 -0.015451 561554.000000 0 1 0
-6.077518 17.460600 -13.764380 23.049229 -1.235842 2.210769 0.033803 -0.017952 -36652.400000 0 1 0
-5.574918 18.745400 -14.376880 24.272709 -1.281725 2.204715 0.042062 -0.012156 -56457.100000 0 1 0
-5.007018 19.519500 -13.326480 24.159391 -1.319697 2.155086 0.047607 -0.025767 -272090.000000 0 1 0
-5.107718 20.851600 -13.651680 25.441037 -1.330571 2.137200 0.058913 -0.018082 -96085.800000 0 0 1
-4.622718 21.821100 -12.574480 25.605614 -1.362037 2.084129 0.057429 -0.015108 -652335.000000 0 0 1
-4.755218 23.218700 -12.708280 26.892759 -1.368788 2.062983 0.064340 -0.016997 432652.000000 0 0 1
-6.035318 23.858000 -12.776480 27.728463 -1.323026 2.049660 0.076061 -0.019316 798820.000000 0 0 1
-6.988518 23.833400 -11.538380 27.386211 -1.285568 2.005698 0.068706 -0.024763 62525.200000 0 0 1
-7.361118 22.509600 -11.212880 26.202993 -1.254737 2.012991 0.064402 -0.030285 -134119.000000 0 0 1
-8.173518 22.386100 -10.044980 25.862047 -1.220719 1.969698 0.071795 -0.032859 39369.100000 0 0 1
-7.700818 22.885000 -8.654280 25.649998 -1.246198 1.914949 0.072435 -0.028702 -136494.000000 0 0 1
-7.691918 24.275900 -8.605380 26.880058 -1.263950 1.896674 0.059882 -0.023383 -191213.000000 0 0 1
-7.371718 24.668700 -7.266980 26.752495 -1.280414 1.845890 0.066272 -0.024252 82523.600000 0 0 1
-7.214118 26.194700 -7.193080 28.105982 -1.302055 1.829603 0.078240 -0.028572 83464.300000 0 0 1
-6.098718 26.783600 -7.833780 28.564378 -1.346910 1.848606 0.070323 -0.025968 -79471.500000 0 0 1
-6.184318 26.893900 -9.256080 29.106746 -1.344773 1.894420 0.066095 -0.025130 -364950.000000 0 0 1
-5.584318 28.158500 -9.798180 30.332986 -1.375019 1.899716 0.055597 -0.024476 30609.600000 0 0 1
-6.408418 29.302500 -9.677980 31.517735 -1.355488 1.882903 0.049204 -0.024229 227446.000000 0 0 1
-7.371818 29.395500 -10.744480 32.154051 -1.325083 1.911506 0.060747 -0.023279 -126409.000000 0 0 1
-8.366118 30.542000 -10.586980 33.389966 -1.303433 1.893436 0.052542 -0.026463 -339398.000000 0 0 1
-9.428718 30.067500 -9.783580 32.995056 -1.266923 1.871839 0.055410 -0.023480 234921.000000 0 0 1
-10.581918 30.906600 -9.885080 34.130774 -1.240923 1.864630 0.046068 -0.030810 597476.000000 0 0 1
-11.764718 30.570100 -8.958680 33.958763 -1.203423 1.837767 0.069461 -0.039647 194883.000000 0 0 1
-12.430718 29.391300 -9.345580 33.252235 -1.170673 1.855686 0.081676 -0.043697 -722130.000000 0 0 1
-13.617718 29.179100 -8.663980 33.345565 -1.134147 1.833636 0.099799 -0.041835 -743360.000000 0 0 1
-14.482418 28.015900 -9.091780 32.822120 -1.093692 1.851469 0.113172 -0.041146 -72582.600000 0 0 1
-14.137718 26.768000 -8.570480 31.461946 -1.084877 1.846691 0.091087 -0.045220 -168446.000000 0 0 1
-15.081718 25.901400 -9.161380 31.341213 -1.043512 1.867439 0.124023 -0.044124 -124349.000000 0 0 1
-15.143718 24.427400 -8.835480 30.068186 -1.015838 1.869047 0.105699 -0.040131 -336382.000000 0 0 1
-14.026018 23.666300 -9.186880 29.003822 -1.035793 1.893094 0.104023 -0.040337 -246322.000000 0 0 1
-14.266418 22.318100 -8.754280 27.897414 -1.002029 1.889992 0.096822 -0.034752 276235.000000 0 0 1
-13.319718 21.285100 -9.438180 26.824422 -1.011639 1.930343 0.103413 -0.035693 33601.500000 0 0 1
-13.469618 21.234400 -10.819580 27.375056 -1.005516 1.977120 0.108788 -0.027138 223776.000000 0 0 1
-12.585718 20.305400 -11.397580 26.469122 -1.015930 2.015953 0.104233 -0.020633 -148431.000000 0 0 1
-12.887618 20.137100 -12.873180 27.153495 -1.001488 2.064726 0.116651 -0.009841 -738322.000000 0 0 1
-14.116418 19.548800 -13.099980 27.441544 -0.945384 2.068464 0.126093 -0.014450 -794379.000000 0 0 1
-14.191818 19.176000 -14.444280 27.888419 -0.933673 2.115227 0.126121 -0.014658 -690044.000000 0 0 1
-15.596718 18.778000 -14.812780 28.553272 -0.877682 2.116216 0.112469 -0.016079 -771748.000000 0 0 1
-16.507918 19.839300 -14.927180 29.814927 -0.876797 2.095159 0.110845 -0.016530 -69719.000000 0 0 1
-17.839918 19.338000 -14.979680 30.275597 -0.825671 2.088375 0.093444 -0.009675 203024.000000 0 0 1
-18.805718 20.304700 -15.669180 31.803445 -0.823706 2.085972 0.073668 -0.012660 -239454.000000 0 0 1
-19.371318 21.318700 -14.845980 32.405834 -0.833221 2.046683 0.080325 -0.020549 301040.000000 0 0 1
-19.984218 22.279600 -15.692480 33.793542 -0.839656 2.053712 0.071304 -0.024346 -46478.600000 0 0 1
-20.308718 23.579100 -14.935080 34.517743 -0.859778 2.018258 0.076179 -0.018152 285487.000000 0 0 1
-21.469018 23.446200 -14.117480 34.784282 -0.829390 1.988714 0.070985 -0.018045 471747.000000 0 0 1
-21.813818 24.614400 -13.428780 35.525251 -0.845646 1.958439 0.071960 -0.027976 8961.180000 0 0 1
-26.506548 -0.860600 4.045120 26.827239 0.032456 1.419435 0.210534 -0.049266 -267336.000000 0 0 1
-26.982428 -0.128200 5.090820 27.458775 0.004751 1.384319 0.199511 -0.042351 -691751.000000 0 0 1
-28.308318 -0.533100 5.265420 28.798780 0.018830 1.386927 0.177340 -0.042172 -729418.000000 0 0 1
-28.859858 0.211200 6.491020 29.581571 -0.007318 1.349568 0.193264 -0.035733 -550867.000000 0 0 1
-28.972768 1.559700 6.160320 29.661482 -0.053781 1.361586 0.210821 -0.037631 160489.000000 0 0 1
-29.354848 2.350400 7.316520 30.344076 -0.079898 1.327278 0.214544 -0.033481 181066.000000 0 0 1
-28.192008 2.928700 8.219620 29.511502 -0.103513 1.288541 0.212227 -0.029560 569864.000000 0 0 1
-27.420748 1.873500 8.822920 28.866093 -0.068218 1.260175 0.183595 -0.035614 726086.000000 0 0 1
-26.398588 2.437500 9.651620 28.213129 -0.092073 1.221649 0.178864 -0.038934 138529.000000 0 0 1
-25.440408 1.378600 10.216320 27.449738 -0.054136 1.189437 0.162708 -0.036404 -705175.000000 0 0 1
-24.534118 0.712900 9.383420 26.276981 -0.029049 1.205639 0.162324 -0.037305 30645.200000 0 0 1
-25.040818 -0.357300 8.619220 26.485113 0.014268 1.239323 0.151147 -0.028550 22220.600000 0 0 1
-23.892618 -1.135900 7.896120 25.189208 0.047506 1.251949 0.144647 -0.039924 654724.000000 0 0 1
-22.963518 -1.717700 8.819920 24.658967 0.074662 1.205018 0.145539 -0.053731 -280740.000000 0 1 0
-21.886718 -2.284100 8.166020 23.471886 0.103984 1.215459 0.158687 -0.048352 -458060.000000 0 1 0
-20.629818 -2.421200 9.064220 22.663003 0.116830 1.159327 0.132127 -0.041235 -88541.300000 0 1 0
-20.031018 -1.191200 9.393020 22.156026 0.059398 1.132995 0.118280 -0.038216 584246.000000 0 1 0
-20.620018 -0.564100 10.527520 23.158844 0.027350 1.098897 0.127609 -0.036706 -593591.000000 0 1 0
-20.212418 0.923800 10.771220 22.921920 -0.045673 1.081608 0.089481 -0.023857 -366228.000000 0 1 0
-20.567318 2.028800 9.963020 22.943242 -0.098324 1.121595 0.097881 -0.016141 -717271.000000 0 1 0
-21.923318 2.263700 10.004220 24.204145 -0.102891 1.144692 0.119630 -0.021303 -1788120.000000 0 1 0
-22.207918 3.673300 9.564320 24.457330 -0.163921 1.169012 0.107162 -0.020224 -361194.000000 0 1 0
-22.327118 4.564600 10.672720 25.164315 -0.201663 1.132805 0.091750 -0.022311 539206.000000 0 0 1
-22.532018 5.881100 10.170220 25.410875 -0.255315 1.159027 0.072141 -0.018467 -99172.500000 0 0 1
-22.629418 6.932600 11.329620 26.239508 -0.297275 1.124334 0.063786 -0.026640 -139336.000000 0 0 1
-23.693518 6.631200 12.192720 27.459389 -0.272892 1.110708 0.074768 -0.024932 96759.000000 0 0 1
-23.727818 7.653100 13.191920 28.206489 -0.312003 1.084120 0.089315 -0.024710 -260447.000000 0 0 1
-24.425818 7.075300 14.405320 29.226592 -0.281948 1.055395 0.112424 -0.033218 820106.000000 0 0 1
-25.857538 7.097500 14.172820 30.329121 -0.267887 1.084561 0.126953 -0.044518 709657.000000 0 0 1
-26.558108 6.858100 15.342220 31.428496 -0.252709 1.060813 0.122384 -0.044884 -711301.000000 0 0 1
-28.051428 6.797900 15.008420 32.532241 -0.237754 1.091292 0.129137 -0.040114 -486781.000000 0 0 1
-28.523708 5.711800 14.273020 32.402865 -0.197633 1.114656 0.152599 -0.034112 312102.000000 0 0 1
-29.837008 5.863400 13.752220 33.372894 -0.194042 1.146063 0.168329 -0.024029 -515868.000000 0 0 1
-30.191708 4.720700 12.783620 33.124692 -0.155102 1.174587 0.181826 -0.022087 -600227.000000 0 0 1
-30.956148 3.688900 13.329420 33.905229 -0.118606 1.166755 0.172937 -0.031605 -3364.570000 0 0 1
-31.302988 2.822000 12.295220 33.749269 -0.089908 1.197904 0.171464 -0.016053 -329933.000000 0 0 1
-32.529528 1.944000 12.533720 34.914803 -0.059690 1.203621 0.151862 -0.006562 -274663.000000 0 0 1
-32.157788 0.741700 13.159620 34.754123 -0.023060 1.182460 0.141360 -0.009141 445420.000000 0 0 1
-33.310348 -0.072200 13.356720 35.888529 0.002167 1.189448 0.124173 -0.016124 313506.000000 0 0 1
-33.174648 -1.080300 14.445620 36.199451 0.032553 1.160309 0.105402 -0.021002 -32849.500000 0 0 1
-32.791498 -2.365300 13.993420 35.730838 0.072007 1.168389 0.100259 -0.017389 119572.000000 0 0 1
-32.849518 -3.356900 14.996320 36.266365 0.101837 1.144496 0.094576 -0.016102 -229682.000000 0 0 1
-32.906518 -4.862900 14.517620 36.293912 0.146717 1.159278 0.086482 -0.013560 334383.000000 0 0 1
-33.985858 -5.120500 13.606720 36.964860 0.149541 1.193833 0.061219 -0.016586 522619.000000 0 0 1
-34.019678 -6.477900 13.163320 37.048275 0.188164 1.207559 0.056818 -0.014650 -1029140.000000 0 0 1
-35.164395 -6.751300 12.174720 37.819817 0.189684 1.243046 0.054324 -0.003635 1259570.000000 0 0 1
-36.476378 -6.982800 12.765220 39.271319 0.189145 1.239730 0.043440 -0.007219 1023490.000000 0 0 1
37.023270 -5.789900 13.253420 39.747938 -0.155129 1.230850 0.055856 -0.018749 -416885.000000 0 0 1
35.538560 -5.678700 12.781920 38.191810 -0.158450 1.229534 0.082243 -0.015944 544753.000000 0 0 1
34.714870 -6.658700 13.419720 37.809382 -0.189509 1.207956 0.078651 -0.012704 -543184.000000 0 0 1
33.391760 -6.343800 13.095120 36.424382 -0.187744 1.203048 0.104723 -0.020431 154282.000000 0 0 1
32.293190 -7.383600 13.545820 35.789061 -0.224779 1.182631 0.114251 -0.026632 510170.000000 0 0 1
32.034630 -7.410100 14.919920 36.107217 -0.227317 1.144818 0.119371 -0.023081 86584.900000 0 0 1
31.010690 -8.379000 15.070320 35.482180 -0.263896 1.132134 0.113785 -0.019728 91698.100000 0 0 1
30.494320 -8.540600 16.549420 35.731341 -0.273075 1.089236 0.117767 -0.027404 17095.900000 0 0 1
31.437590 -9.116200 17.425420 37.081969 -0.282237 1.081600 0.087539 -0.024483 -65093.800000 0 0 1
30.926420 -9.198100 18.732720 37.309024 -0.289087 1.044775 0.090276 -0.032474 -289373.000000 0 0 1
32.020520 -9.572200 19.759820 38.825136 -0.290484 1.036839 0.089144 -0.022036 545364.000000 0 0 1
32.978840 -8.574200 20.100320 39.561896 -0.254360 1.037851 0.089357 -0.024075 369591.000000 0 0 1
34.174250 -8.588800 19.310620 40.181425 -0.246224 1.069474 0.039769 -0.015152 69458.200000 0 0 1
35.292670 -7.941900 20.139920 41.403656 -0.221343 1.062799 0.032956 -0.015831 -238594.000000 0 0 1
35.582270 -8.671800 21.352620 42.393778 -0.239051 1.042951 0.024919 -0.011439 -55564.900000 0 0 1
36.767170 -8.122200 21.901320 43.559875 -0.217417 1.043977 0.011393 -0.007914 226129.000000 0 0 1
-36.883438 -8.682900 23.291720 44.477916 0.231205 1.019644 0.021548 -0.005184 -184603.000000 0 0 1
36.631370 -8.070200 24.392620 44.743550 -0.216844 0.994210 0.036536 -0.012567 -37111.500000 0 0 1
36.241320 -9.052100 25.311320 45.122463 -0.244765 0.975267 0.045694 -0.022510 -296250.000000 0 0 1
35.753680 -8.587600 26.645920 45.410104 -0.235723 0.943715 0.058773 -0.022754 775438.000000 0 0 1
36.842210 -7.938200 27.334120 46.556606 -0.212220 0.943305 0.052928 -0.031685 788548.000000 0 0 1
36.311450 -7.159500 28.432620 46.671123 -0.194672 0.915729 0.057878 -0.030733 643389.000000 0 0 1
-36.650088 -6.417800 29.212320 47.305145 0.173352 0.905199 0.061756 -0.029155 925539.000000 0 0 1
-35.997118 -7.157100 30.219420 47.541876 0.196265 0.881962 0.056914 -0.030475 -1131580.000000 0 0 1
-34.694883 -6.769000 30.435220 46.646081 0.192680 0.859956 0.036724 -0.038627 -724433.000000 0 0 1
-34.060418 -7.482000 31.672820 47.109022 0.216234 0.833444 0.027965 -0.028788 -38541.400000 0 0 1
-33.830668 -8.888900 31.539920 47.098760 0.256939 0.837052 0.030696 -0.029198 104310.000000 0 0 1
-33.446718 -9.423100 32.778420 47.769264 0.274617 0.814569 0.023520 -0.023429 -452053.000000 0 0 1
-33.539198 -10.994100 32.776220 48.166676 0.316761 0.822386 0.032806 -0.026197 304576.000000 0 0 1
-34.895183 -11.428500 32.695520 49.165856 0.316500 0.843296 0.027827 -0.027403 237456.000000 0 0 1
-35.095192 -12.818100 32.979120 49.835716 0.350185 0.847637 0.027763 -0.018318 8493.890000 0 0 1
-36.581048 -13.210600 32.945820 50.971758 0.346558 0.867999 0.030405 -0.022370 -33227.400000 0 0 1
-36.812698 -14.549300 33.193620 51.659203 0.376383 0.872975 0.028925 -0.029714 -1055210.000000 0 0 1
35.929710 -14.740500 33.202420 51.094296 -0.389319 0.863440 0.024756 -0.021846 -1031160.000000 0 0 1
35.499130 -16.193800 33.483520 51.415693 -0.427977 0.861590 0.025851 -0.019420 -183873.000000 0 0 1
35.676280 -16.607000 -33.085528 51.412465 -0.435662 2.269899 0.037832 -0.028790 -58218.400000 0 0 1
35.644120 -18.024900 -33.105428 51.878413 -0.468190 2.262870 0.036853 -0.038833 -437484.000000 0 0 1
36.050450 -18.651200 -31.736728 51.523996 -0.477442 2.234401 0.039621 -0.025388 282676.000000 0 0 1
35.126380 -18.423600 -30.672528 50.140758 -0.483051 2.229040 0.046533 -0.018798 194907.000000 0 0 1
35.510980 -19.121100 -29.482628 49.958698 -0.493937 2.202029 0.040550 -0.013325 -51450.000000 0 0 1
34.319380 -19.127500 -28.466628 48.518347 -0.508460 2.197797 0.028961 -0.010456 500025.000000 0 0 1
33.222470 -19.915600 -28.843128 48.293785 -0.540024 2.210856 0.037560 -0.006373 192863.000000 0 0 1
32.259940 -19.261000 -29.679728 47.880853 -0.538252 2.239369 0.025314 0.000044 -1831.580000 0 0 1
30.922270 -20.033000 -29.837628 47.410884 -0.574862 2.251502 0.012544 -0.001151 582558.000000 0 0 1
29.944800 -19.326300 -30.605328 46.977474 -0.573133 2.280342 0.004159 0.002397 6052.120000 0 0 1
28.703450 -19.991300 -30.579228 46.461052 -0.608358 2.289181 0.012247 -0.001552 -267667.000000 0 0 1
27.786950 -19.350600 -31.591928 46.309937 -0.608300 2.321543 0.019341 0.006881 -315024.000000 0 0 1
28.225850 -19.621000 -32.867228 47.559825 -0.607459 2.333766 0.011168 0.003298 -63286.700000 0 0 1
27.146850 -19.389500 -33.728228 47.439409 -0.620222 2.361680 0.033559 -0.001682 -140248.000000 0 0 1
27.585850 -19.653900 32.751120 47.115717 -0.619042 0.802208 0.037267 -0.009681 340489.000000 0 0 1
28.609150 -18.751400 32.310020 47.053542 -0.580186 0.813905 0.042151 -0.006368 489493.000000 0 0 1
28.911050 -18.790700 30.901620 46.301721 -0.576339 0.840089 0.050557 -0.013942 178635.000000 0 0 1
27.866850 -18.086000 29.976620 44.746647 -0.575682 0.836697 0.055941 -0.009281 67135.000000 0 0 1
27.857150 -16.666900 30.102420 44.271459 -0.539168 0.823101 0.066150 -0.014483 108480.000000 0 0 1
26.951750 -16.016100 29.247220 42.875543 -0.536181 0.820108 0.079184 -0.016417 -221104.000000 0 0 1
26.698950 -14.569500 29.700820 42.511680 -0.499533 0.797286 0.093013 -0.027073 -385712.000000 0 0 1
27.792350 -13.687300 29.759320 42.957817 -0.457617 0.805492 0.086555 -0.019949 -272159.000000 0 0 1
27.508450 -12.419600 30.279820 42.753114 -0.424087 0.783783 0.104423 -0.023240 44278.400000 0 0 1
28.756750 -11.523600 30.521920 43.489443 -0.381133 0.792842 0.093915 -0.025950 102229.000000 0 0 1
29.493630 -11.175100 29.382520 43.105563 -0.362184 0.820793 0.085886 -0.026206 -327633.000000 0 0 1
30.651210 -10.471000 29.737320 43.970976 -0.329188 0.828076 0.070042 -0.028678 -158133.000000 0 0 1
31.305710 -9.743500 28.518020 43.454122 -0.301734 0.854920 0.074494 -0.030990 -229664.000000 0 0 1
30.758430 -8.534200 28.160720 42.566885 -0.270651 0.847894 0.069808 -0.028885 -309876.000000 0 0 1
31.340700 -7.951100 27.026520 42.141336 -0.248457 0.874565 0.076993 -0.027171 56035.600000 0 0 1
30.981800 -6.422800 26.893020 41.525400 -0.204413 0.866329 0.080339 -0.034684 -140365.000000 0 0 1
29.655580 -6.190400 26.507020 40.254150 -0.205788 0.851984 0.095282 -0.027510 -464048.000000 0 0 1
29.527880 -4.864200 26.244820 39.803853 -0.163266 0.850837 0.107283 -0.024230 686054.000000 0 0 1
28.018050 -4.514600 26.049520 38.522334 -0.159759 0.828179 0.094186 -0.015252 494383.000000 0 0 1
27.464550 -4.951500 24.829020 37.353702 -0.178371 0.843704 0.123120 -0.025018 -258506.000000 0 0 1
26.076350 -4.745400 24.776520 36.281824 -0.180011 0.819084 0.126747 -0.024511 -237770.000000 0 0 1
25.424850 -5.166500 23.469720 34.984903 -0.200477 0.835438 0.127891 -0.024488 -236942.000000 0 0 1
25.869150 -4.284700 22.495120 34.548545 -0.164140 0.861742 0.137957 -0.019581 235124.000000 0 0 1
25.380150 -4.611700 21.202620 33.391180 -0.179744 0.882818 0.134417 -0.016678 56562.100000 0 0 1
25.829350 -3.469200 20.177920 32.959659 -0.133513 0.911956 0.146459 -0.021358 572118.000000 0 0 1
25.004050 -2.286500 20.201320 32.226137 -0.091192 0.893278 0.128848 -0.014871 435559.000000 0 0 1
25.515550 -1.297700 19.329120 32.036576 -0.050815 0.923107 0.137640 -0.028156 -132025.000000 0 0 1
24.402350 -0.373300 18.814520 30.815584 -0.015297 0.914039 0.086504 -0.026165 895094.000000 0 0 1
23.258150 -1.125700 18.321720 29.629279 -0.048363 0.904135 0.103025 -0.026423 1638710.000000 0 0 1
22.232950 -0.251800 17.742620 28.445879 -0.011325 0.897287 0.103390 -0.030356 1135420.000000 0 0 1
21.078950 -1.006400 17.051120 27.130714 -0.047708 0.891198 0.082759 -0.028910 16014.000000 0 0 1
21.516350 -1.646000 15.875520 26.789826 -0.076351 0.936520 0.109408 -0.031608 -95633.800000 0 0 1
20.528750 -2.548300 15.461820 25.826174 -0.123501 0.928934 0.098015 -0.029953 -217008.000000 0 0 1
20.730750 -3.084500 14.043020 25.228645 -0.147705 0.980473 0.109653 -0.034032 -251525.000000 0 0 1
19.783050 -4.084100 13.721720 24.419962 -0.203584 0.974108 0.101186 -0.029007 403966.000000 0 1 0
20.003250 -4.563000 12.411520 23.979091 -0.224275 1.026756 0.107812 -0.027222 -464493.000000 0 1 0
18.871650 -5.427700 11.829920 22.924792 -0.280053 1.028585 0.084125 -0.025888 -285599.000000 0 1 0
18.867350 -6.786800 12.238120 23.490618 -0.345300 1.022799 0.097145 -0.034964 750839.000000 0 1 0
17.618650 -7.439600 12.027820 22.592763 -0.399545 1.009393 0.080449 -0.024001 193338.000000 0 1 0
17.641050 -8.949400 12.283220 23.284671 -0.469475 1.015113 0.101231 -0.036786 174428.000000 0 1 0
18.418050 -9.657300 11.296620 23.666466 -0.482929 1.073187 0.082694 -0.040733 782728.000000 0 1 0
18.031550 -10.969700 11.411520 23.993622 -0.546545 1.075143 0.081525 -0.037902 -133288.000000 0 1 0
18.649550 -11.767500 10.303820 24.340265 -0.562888 1.133685 0.072601 -0.036564 -59414.500000 0 1 0
18.089050 -11.373700 9.057420 23.208008 -0.561300 1.169870 0.069376 -0.033910 809130.000000 0 1 0
18.928650 -11.886500 8.015420 23.745097 -0.560727 1.226472 0.100444 -0.043792 397228.000000 0 1 0
18.784950 -11.066400 6.705420 22.810134 -0.532374 1.272422 0.103575 -0.033323 -88830.300000 0 1 0
19.229550 -9.725500 6.749620 22.581371 -0.468243 1.267254 0.099452 -0.025035 554059.000000 0 1 0
19.472450 -9.305300 5.413120 22.250096 -0.445787 1.325045 0.070770 -0.034212 -628426.000000 0 1 0
20.226950 -8.015200 5.299220 22.393184 -0.377281 1.331886 0.108493 -0.022323 -500586.000000 0 1 0
20.551450 -7.616600 4.006720 22.280675 -0.354918 1.389983 0.094099 -0.025704 764482.000000 0 1 0
21.309250 -6.413900 3.955720 22.602433 -0.292366 1.394877 0.127191 -0.023053 -427910.000000 0 1 0
21.794050 -6.072100 2.558120 22.768289 -0.271722 1.458204 0.128775 -0.028897 -155060.000000 0 1 0
20.746550 -5.953500 1.596720 21.642851 -0.279454 1.496953 0.080349 -0.036740 747119.000000 0 1 0
21.104050 -5.153100 0.490920 21.729620 -0.239490 1.548202 0.075732 -0.033580 -234132.000000 0 1 0
-26.230328 -14.804700 0.349920 30.121947 0.513840 1.559179 0.137401 -0.031501 -1160150.000000 0 0 1
-25.283228 -14.131900 -0.375780 28.967110 0.509684 1.583769 0.148864 -0.027789 -388737.000000 0 0 1
-24.009718 -14.730700 -0.536180 28.173526 0.550309 1.589829 0.142643 -0.019621 353256.000000 0 0 1
-23.048618 -14.401700 0.613820 27.185006 0.558484 1.548215 0.152073 -0.040108 -641132.000000 0 0 1
-23.603318 -14.827100 1.859320 27.935938 0.560882 1.504191 0.136305 -0.020590 -361724.000000 0 0 1
-22.677518 -14.708400 2.885420 27.183313 0.575383 1.464449 0.113923 -0.006901 -342631.000000 0 0 1
-23.145218 -15.275700 4.208720 28.049269 0.583369 1.420180 0.114228 -0.003682 -183700.000000 0 0 1
-23.090718 -16.712500 4.304220 28.827335 0.626505 1.420926 0.142384 -0.018373 367202.000000 0 0 1
-23.679218 -17.309200 5.473420 29.837428 0.631221 1.386310 0.141753 -0.025253 80927.900000 0 0 1
-23.746718 -18.798200 5.381420 30.760992 0.669606 1.394948 0.107473 -0.016452 -4066.610000 0 0 1
-24.205218 -19.493300 6.497420 31.750556 0.677985 1.364701 0.099281 -0.019935 7519.880000 0 0 1
-24.601918 -20.819800 6.135420 32.807954 0.702323 1.382679 0.100739 -0.024635 -94276.400000 0 0 1
-25.013718 -21.641600 7.408020 33.895777 0.713246 1.350465 0.086459 -0.017928 615209.000000 0 0 1
-23.934518 -22.074500 8.242020 33.586837 0.744993 1.322870 0.085073 -0.014036 462403.000000 0 0 1
-24.470618 -23.056300 9.117520 34.835805 0.755649 1.305984 0.071119 -0.010563 114730.000000 0 0 1
-23.486518 -23.287200 10.241520 34.623676 0.781137 1.270508 0.085673 -0.020048 -183581.000000 0 0 1
-23.446018 -22.205800 11.181720 34.173735 0.758238 1.237455 0.071368 -0.022625 102674.000000 0 0 1
-22.696018 -22.683100 12.284020 34.358833 0.785113 1.205184 0.081040 -0.025492 -158337.000000 0 0 1
-22.962618 -21.752500 13.478320 34.381946 0.758342 1.167973 0.063472 -0.019410 1531730.000000 0 0 1
-24.297918 -21.994200 14.046620 35.657274 0.735674 1.165888 0.056148 -0.018234 1554870.000000 0 0 1
-24.550618 -21.188600 15.189020 35.810556 0.712026 1.132774 0.048647 -0.004466 -516566.000000 0 0 1
-25.961328 -21.345800 15.771320 37.126383 0.688141 1.132054 0.049991 -0.007119 -94413.000000 0 0 1
-27.017568 -21.047400 14.832920 37.322347 0.661821 1.162085 0.049735 -0.008534 725687.000000 0 0 1
-27.479928 -22.187400 14.065120 38.016507 0.679239 1.191815 0.042646 -0.006737 -155952.000000 0 0 1
-28.617768 -22.982200 14.765920 39.562489 0.676613 1.188308 0.040325 -0.012252 -249616.000000 0 0 1
-28.253848 -23.655300 15.956920 40.155653 0.697040 1.162140 0.038500 -0.007466 -666280.000000 0 0 1
-29.170808 -24.581300 16.410120 41.526719 0.700222 1.164543 0.035308 -0.009024 -537693.000000 0 0 1
-28.981558 -26.035950 15.883320 42.072334 0.731910 1.183675 0.048350 -0.010972 74904.700000 0 0 1
-29.552118 -26.203850 14.560420 42.094837 0.725418 1.217603 0.054343 -0.023319 53004.900000 0 0 1
-30.774838 -26.898920 14.701320 43.436982 0.718295 1.225525 0.080470 -0.031847 -70024.900000 0 0 1
-31.572538 -27.273580 13.428120 43.829074 0.712473 1.259414 0.113250 -0.039718 54804.500000 0 0 1
-31.014468 -28.366760 12.765020 43.926257 0.740839 1.275941 0.099402 -0.039258 166004.000000 0 0 1
-31.842298 -28.703830 11.663020 44.428233 0.733609 1.305170 0.106145 -0.027016 222236.000000 0 0 1
-31.292368 -29.865830 10.778320 44.579730 0.762077 1.326600 0.091428 -0.025641 50425.700000 0 0 1
-31.439458 -31.136650 11.373920 45.686941 0.780559 1.319197 0.096611 -0.025349 -27542.600000 0 0 1
-30.888558 -32.190550 10.585520 45.851802 0.806036 1.337831 0.089129 -0.029366 -295972.000000 0 0 1
-30.928278 -33.623180 11.207320 47.039140 0.827122 1.330227 0.101843 -0.030565 122438.000000 0 0 1
-32.226538 33.974949 11.517820 48.223512 -0.811802 1.329623 0.102274 -0.029503 -114790.000000 0 0 1
-32.255428 32.618548 11.940920 47.402193 -0.790995 1.316147 0.114848 -0.031484 84828.600000 0 0 1
-33.604968 32.241384 12.654120 48.258963 -0.764693 1.305482 0.126093 -0.027398 1708440.000000 0 0 1
-34.824498 32.086451 11.897620 48.824578 -0.744500 1.324637 0.091558 -0.026510 1002580.000000 0 0 1
-35.272047 33.251611 11.175020 49.746035 -0.755921 1.344221 0.107030 -0.027591 -759689.000000 0 0 1
-36.676938 33.189117 10.553720 50.577627 -0.735518 1.360588 0.099670 -0.008225 -124225.000000 0 0 1
-36.838068 32.446244 9.406620 49.982862 -0.722094 1.381470 0.080729 -0.006302 403798.000000 0 0 1
35.926410 32.224598 8.996220 49.092399 0.731134 1.386504 0.074788 -0.008574 294758.000000 0 0 1
35.704950 31.603944 7.593320 48.283654 0.724545 1.412876 0.068358 -0.009915 -98078.100000 0 0 1
35.678640 30.195724 7.612420 47.357112 0.702357 1.409351 0.092628 -0.014931 134623.000000 0 0 1
35.666050 29.640634 6.296620 46.800446 0.693395 1.435845 0.111240 -0.010779 -118066.000000 0 0 1
35.655450 28.068054 6.267720 45.808417 0.666889 1.433541 0.122453 -0.010212 -142966.000000 0 0 1
34.520090 27.407784 6.767320 44.593944 0.671051 1.418454 0.120143 -0.018213 -28074.800000 0 0 1
34.759740 26.925204 8.084620 44.705338 0.659066 1.388953 0.101398 -0.012391 655614.000000 0 0 1
33.745140 25.777174 8.498820 43.306202 0.652324 1.373265 0.088903 -0.013726 550360.000000 0 0 1
33.955960 24.675544 7.612020 42.659495 0.628417 1.391399 0.101331 -0.019826 518902.000000 0 0 1
32.873210 23.740284 7.681120 41.270433 0.625455 1.383588 0.095794 -0.019990 -181275.000000 0 0 1
33.204310 22.437554 7.017120 40.684272 0.594259 1.397452 0.084918 -0.023454 533904.000000 0 0 1
34.284810 21.594754 7.436820 41.195727 0.562089 1.389277 0.101470 -0.023231 -88043.400000 0 0 1
35.570400 22.102854 7.194320 42.491738 0.555994 1.400666 0.102836 -0.027457 -455704.000000 0 0 1
36.593830 20.924954 7.130920 42.752920 0.519438 1.403219 0.086933 -0.022182 -21347.300000 0 0 1
36.468690 20.086054 5.985620 42.062365 0.503438 1.428008 0.100471 -0.025951 -35797.700000 0 0 1
-36.893478 18.909054 6.209520 41.919437 -0.473622 1.422119 0.106076 -0.030563 -371777.000000 0 0 1
36.747690 17.646454 5.432720 41.125473 0.447687 1.438308 0.101194 -0.030538 -344425.000000 0 0 1
-36.937848 17.589554 4.095720 41.116566 -0.444421 1.471018 0.118744 -0.024598 10876.300000 0 0 1
36.687590 16.486454 3.394220 40.364628 0.422333 1.486608 0.109084 -0.023525 -936757.000000 0 0 1
-36.669008 16.140254 2.106320 40.119329 -0.414641 1.518271 0.135408 -0.014140 -231401.000000 0 0 1
-35.537042 15.339654 2.306220 38.775057 -0.407492 1.511284 0.143280 -0.028381 645891.000000 0 0 1
-34.314033 16.065254 2.535320 37.973321 -0.437872 1.503981 0.145949 -0.028636 460881.000000 0 0 1
-33.007978 15.255054 2.648520 36.458990 -0.432922 1.498088 0.128723 -0.021768 144011.000000 0 0 1
-32.945548 14.472554 3.848920 36.189476 -0.413909 1.464240 0.134410 -0.027398 -51758.000000 0 0 1
-31.599608 14.081654 3.986420 34.824126 -0.419212 1.456072 0.121735 -0.027503 88545.000000 0 0 1
-31.287508 13.245154 5.280520 34.383516 -0.400461 1.416609 0.131068 -0.015563 38112.000000 0 0 1
-31.748948 11.922254 5.093020 34.293946 -0.359223 1.421734 0.153733 -0.024763 264851.000000 0 0 1
-31.422638 11.064654 6.214220 33.888424 -0.338565 1.386380 0.160077 -0.014767 -56691.500000 0 0 1
-31.867168 9.627354 6.069920 33.838533 -0.293390 1.390441 0.174007 -0.040719 238268.000000 0 0 1
-33.257308 9.400354 6.240520 35.119216 -0.275469 1.392152 0.167253 -0.016492 138312.000000 0 0 1
-33.578508 8.067854 5.984620 35.048854 -0.235799 1.399205 0.196635 -0.029330 727837.000000 0 0 1
-35.122894 7.784254 6.091020 36.487159 -0.218104 1.403075 0.175268 -0.022755 826478.000000 0 0 1
-35.582992 7.561754 7.420520 37.126723 -0.209395 1.369571 0.171264 -0.025616 -278339.000000 0 0 1
-36.532848 6.527454 7.375220 37.837158 -0.176808 1.374620 0.132050 -0.021433 -72501.800000 0 0 1
-36.920208 6.013354 8.792420 38.426148 -0.161457 1.339938 0.112198 -0.025697 233484.000000 0 0 1
36.448780 6.890154 9.624320 38.322517 0.186832 1.316938 0.108232 -0.028505 90373.300000 0 0 1
-36.806228 7.744254 10.326220 39.003881 -0.207381 1.302853 0.133241 -0.032991 -345704.000000 0 0 1
36.584580 8.637754 11.315720 39.256691 0.231858 1.278398 0.103271 -0.033355 -537863.000000 0 0 1
36.054490 7.991154 12.473920 38.979270 0.218115 1.245052 0.090608 -0.040626 332079.000000 0 0 1
35.464960 8.914454 13.319620 38.918417 0.246258 1.221492 0.109769 -0.040433 -838647.000000 0 0 1
34.960630 8.271954 14.613120 38.784200 0.232335 1.184478 0.129041 -0.047064 -1463990.000000 0 0 1
33.733500 7.680754 14.577620 37.542643 0.223873 1.172016 0.118290 -0.047790 -1146300.000000 0 0 1
33.447260 7.231654 15.885920 37.727688 0.212933 1.136174 0.111301 -0.034921 222820.000000 0 0 1
31.916210 7.108754 16.148520 36.468528 0.219154 1.112069 0.104891 -0.015373 174254.000000 0 0 1
31.119990 8.317354 16.149820 36.033996 0.261163 1.106065 0.077363 -0.027410 99663.700000 0 0 1
29.741350 8.081154 16.175420 34.806568 0.265309 1.087474 0.075514 -0.025909 -79162.300000 0 0 1
29.078760 7.383054 17.401720 34.682901 0.248644 1.045190 0.075334 -0.027528 -806110.000000 0 0 1
28.820850 8.337854 18.415020 35.203326 0.281611 1.020307 0.099360 -0.032619 -35552.700000 0 0 1
28.008650 7.854554 19.463520 35.000101 0.273410 0.981112 0.088366 -0.029016 -69674.600000 0 0 1
28.549250 6.787554 20.469720 35.779044 0.233415 0.961714 0.092906 -0.027811 125781.000000 0 0 1
27.603450 6.695754 21.537620 35.646215 0.237973 0.922029 0.072677 -0.018502 174277.000000 0 0 1
27.823050 5.591054 22.357120 36.127867 0.198309 0.903540 0.079005 -0.012106 -345347.000000 0 0 1
26.903050 5.376754 23.581720 36.177080 0.197258 0.860786 0.091207 0.000495 276501.000000 0 0 1
25.606050 4.898854 23.245620 34.928891 0.189032 0.842616 0.046539 -0.004955 -92617.300000 0 0 1
24.640350 5.789754 23.759620 34.715812 0.230784 0.817011 0.057208 0.007171 -1228210.000000 0 0 1
23.263050 5.443354 23.280620 33.358460 0.229856 0.798346 0.044661 0.001850 -1388330.000000 0 0 1
23.234550 5.505754 21.847520 32.364668 0.232672 0.829774 0.056682 0.000569 607617.000000 0 0 1
21.952750 5.212854 21.300920 31.029442 0.233140 0.814167 0.065615 -0.007073 -424549.000000 0 0 1
21.480950 3.734254 21.407920 30.556094 0.172120 0.794544 0.079836 -0.013403 185426.000000 0 0 1
20.135050 3.412254 21.098720 29.363578 0.167873 0.769105 0.074076 -0.023821 965175.000000 0 0 1
19.080550 3.980154 21.886920 29.307785 0.205649 0.727566 0.085750 -0.020134 -147425.000000 0 0 1
17.723350 3.905154 21.185820 27.896350 0.216874 0.708333 0.119702 -0.023956 -558619.000000 0 0 1
16.881950 2.824554 21.403820 27.406237 0.165777 0.674557 0.099854 -0.028745 -109567.000000 0 0 1
15.788650 2.767054 20.509620 26.030416 0.173494 0.663389 0.112351 -0.033178 -500272.000000 0 0 1
14.738650 1.721554 20.841020 25.583973 0.116279 0.618736 0.118271 -0.033739 -984097.000000 0 0 1
15.131950 0.360354 20.848420 25.763586 0.023810 0.627972 0.084287 -0.033872 -195463.000000 0 0 1
14.253550 -0.443946 21.566320 25.854727 -0.031136 0.584235 0.085703 -0.039564 -514803.000000 0 0 1
14.531550 -2.008046 21.504620 26.031651 -0.137316 0.598654 0.052577 -0.023064 -114664.000000 0 0 1
14.052750 -2.558946 20.271220 24.798192 -0.180122 0.613831 0.059068 -0.020521 131338.000000 0 1 0
14.560950 -3.847046 20.033520 25.063179 -0.258301 0.644632 0.057405 -0.018979 -470411.000000 0 0 1
13.945650 -4.425446 18.688720 23.734658 -0.307284 0.664213 0.053249 -0.019345 -52268.100000 0 1 0
12.587950 -4.754546 18.855620 23.164554 -0.361141 0.619815 0.049712 -0.016540 -483605.000000 0 1 0
12.131050 -4.884446 17.535220 21.874737 -0.382780 0.640797 0.051909 -0.018403 59971.500000 0 1 0
10.593350 -4.990846 17.388820 20.964223 -0.440286 0.592670 0.042079 -0.013305 -3936.940000 0 1 0
10.021850 -5.902446 18.257720 21.647648 -0.532261 0.567208 0.038543 -0.004166 -1782570.000000 0 1 0
8.736750 -6.125446 17.850420 20.796379 -0.611472 0.538766 0.039047 -0.022514 -1474130.000000 0 1 0
7.934950 -6.901146 18.895420 21.624665 -0.715829 0.507854 0.040752 -0.026625 -497348.000000 0 1 0
7.809550 -8.305046 18.704420 21.904752 -0.816137 0.547367 0.033749 -0.027448 -123995.000000 0 1 0
8.796450 -9.033446 19.422520 23.156315 -0.798689 0.575800 0.042638 -0.021881 253722.000000 0 1 0
8.925650 -10.443046 18.810720 23.293081 -0.863581 0.630782 0.061912 -0.032681 158840.000000 0 1 0
9.188250 -10.451646 17.444120 22.314976 -0.849638 0.673373 0.053114 -0.021767 111358.000000 0 1 0
9.608550 -11.780946 17.014320 22.816704 -0.886615 0.729218 0.055352 -0.026190 303637.000000 0 1 0
9.506750 -11.961046 15.492420 21.759136 -0.899228 0.778459 0.046508 -0.019283 113024.000000 0 1 0
10.042750 -13.168446 15.004920 22.347537 -0.919256 0.834653 0.035103 -0.015575 53160.100000 0 1 0
9.821750 -13.201546 13.588720 21.340124 -0.931156 0.880496 0.031850 -0.017580 -264961.000000 0 1 0
10.553450 -14.394546 12.960220 22.057778 -0.938163 0.942759 0.058420 -0.020971 819558.000000 0 1 0
11.919850 -14.276446 12.543120 22.432779 -0.875116 0.977445 0.032651 -0.022743 520606.000000 0 1 0
12.131150 -13.487646 11.388220 21.418985 -0.838298 1.010204 0.004933 -0.024652 -1299750.000000 0 1 0
13.529950 -13.157246 10.922620 21.805419 -0.771433 1.046143 0.024908 -0.030601 -777835.000000 0 1 0
14.256150 -14.183746 10.309320 22.598640 -0.782852 1.097085 0.032426 -0.027759 -56053.800000 0 1 0
15.545650 -13.723646 9.939620 22.995689 -0.723229 1.123823 0.044923 -0.037339 -367969.000000 0 1 0
16.446650 -14.811946 9.383720 24.040387 -0.733150 1.169805 0.045131 -0.041763 -176029.000000 0 1 0
17.078250 -15.582446 10.418020 25.357728 -0.739632 1.147419 0.052352 -0.029700 -13954.400000 0 0 1
16.229850 -16.533446 10.986820 25.641238 -0.794664 1.127984 0.067936 -0.025144 -276221.000000 0 0 1
16.723550 -17.103146 12.326520 26.909809 -0.796619 1.094976 0.067959 -0.019628 -112504.000000 0 0 1
17.830650 -17.964646 12.164620 28.082709 -0.789142 1.122788 0.090545 -0.032857 -69142.400000 0 0 1
18.052450 -18.624746 13.436220 29.211369 -0.801000 1.092840 0.072132 -0.030859 -759435.000000 0 0 1
19.229350 -19.585646 13.478520 30.578357 -0.794577 1.114322 0.043853 -0.028481 16106.400000 0 0 1
20.320650 -18.894246 12.854020 30.580176 -0.749040 1.136978 0.057455 -0.030895 -227201.000000 0 0 1
21.451150 -19.720446 12.630020 31.757916 -0.743387 1.161791 0.045356 -0.032478 132893.000000 0 0 1
22.325550 -18.934246 11.637020 31.501684 -0.703389 1.192423 0.085132 -0.031003 -791565.000000 0 0 1
22.159850 -19.140446 10.230320 31.017335 -0.712419 1.234677 0.082167 -0.035213 -220424.000000 0 0 1
20.939150 -18.781346 9.622620 29.728467 -0.731127 1.241176 0.082576 -0.037344 -179178.000000 0 0 1
20.500850 -17.316746 9.702820 28.535929 -0.701400 1.223857 0.133059 -0.040771 -407747.000000 0 0 1
21.360050 -16.422846 9.032520 28.417389 -0.655461 1.247333 0.136320 -0.039378 -116809.000000 0 0 1
20.936250 -15.076346 9.079220 27.350594 -0.624094 1.232419 0.140940 -0.052437 80940.800000 0 0 1
-35.540705 24.564100 8.214520 43.977438 -0.604764 1.382903 0.120952 -0.017924 -109689.000000 0 0 1
-34.594748 23.884600 9.008320 42.993262 -0.604261 1.359703 0.123582 -0.030790 760075.000000 0 0 1
-33.679578 24.812900 9.716720 42.946579 -0.634957 1.342569 0.121936 -0.018805 224358.000000 0 0 1
-32.544108 23.948400 10.250020 41.685822 -0.634400 1.322361 0.141835 -0.034042 -564072.000000 0 0 1
-31.708388 23.470600 9.219120 40.512753 -0.637201 1.341224 0.138803 -0.029959 -461503.000000 0 0 1
-30.696418 22.633300 9.637220 39.337163 -0.635341 1.323287 0.138622 -0.028269 -168492.000000 0 0 1
-30.002408 21.819600 8.485320 38.055750 -0.628789 1.345935 0.125165 -0.034853 110856.000000 0 0 1
-30.910608 20.971800 7.799120 38.158988 -0.596127 1.364961 0.128059 -0.042920 -99986.500000 0 0 1
-30.322728 20.060100 6.917020 37.009737 -0.584454 1.382793 0.114864 -0.034867 -638045.000000 0 0 1
-31.279868 19.247100 6.044020 37.221112 -0.551607 1.407693 0.117848 -0.024340 -841257.000000 0 0 1
-32.092268 18.409500 6.766220 37.611236 -0.520814 1.389913 0.110771 -0.026368 -373685.000000 0 0 1
-33.087838 17.881300 5.941220 38.076817 -0.495458 1.414124 0.086292 -0.024169 -159177.000000 0 0 1
-33.849608 16.629500 6.506720 38.271055 -0.456644 1.399950 0.109043 -0.012576 257885.000000 0 0 1
-34.721440 16.959200 7.595520 39.381275 -0.454354 1.376709 0.091544 -0.022893 204785.000000 0 0 1
-35.260437 15.887600 8.299020 39.554873 -0.423335 1.359415 0.095094 -0.033603 32393.700000 0 0 1
-36.216568 16.428600 9.421720 40.869396 -0.425861 1.338172 0.093908 -0.036209 676589.000000 0 0 1
36.685620 16.999500 8.882720 41.397106 0.433927 1.354541 0.114042 -0.026847 470546.000000 0 0 1
35.971540 17.398300 10.036620 41.199348 0.450497 1.324709 0.127030 -0.023236 501798.000000 0 0 1
34.859570 18.483500 9.804020 40.656466 0.487536 1.327253 0.103060 -0.016605 1684460.000000 0 0 1
33.624920 18.113400 9.127320 39.268798 0.494118 1.336219 0.092954 -0.022516 1069860.000000 0 0 1
32.787310 19.223200 8.994620 39.056911 0.530285 1.338415 0.087989 -0.020825 -445424.000000 0 0 1
31.460750 19.095300 8.246220 37.714843 0.545519 1.350369 0.079017 -0.025411 -479967.000000 0 0 1
30.813910 20.362300 8.216820 37.836972 0.583941 1.351888 0.067941 -0.026070 16075.300000 0 0 1
29.480670 20.308400 7.740420 36.625880 0.603218 1.357853 0.052908 -0.030903 154772.000000 0 0 1
29.137970 19.919000 6.272920 35.848813 0.599641 1.394908 0.038694 -0.011361 -790537.000000 0 0 1
29.422930 18.553500 5.925220 35.285258 0.562602 1.402074 0.044807 -0.020418 221788.000000 0 0 1
29.101590 18.208400 4.554620 34.629365 0.559091 1.438889 0.048119 -0.023483 811983.000000 0 0 1
27.624450 18.376400 4.025920 33.421705 0.587002 1.450045 0.065461 -0.011601 222643.000000 0 0 1
26.645450 17.632100 4.723920 32.298396 0.584577 1.424011 0.068744 -0.022753 901435.000000 0 0 1
25.270750 17.972100 4.541520 31.340590 0.618191 1.425376 0.089732 -0.020462 664432.000000 0 0 1
24.761650 19.294100 5.127720 31.807155 0.661924 1.408877 0.095988 -0.016968 -845774.000000 0 0 1
25.386650 20.355100 4.504520 32.849700 0.675840 1.433238 0.081297 -0.023727 -205632.000000 0 0 1
24.781450 21.551200 4.808020 33.191739 0.715792 1.425429 0.081242 -0.016263 126280.000000 0 0 1
25.677350 22.835900 4.542020 34.661716 0.726894 1.439380 0.051737 -0.009796 740305.000000 0 0 1
26.859750 22.963200 5.333320 35.737921 0.707349 1.421003 0.041897 -0.018272 555030.000000 0 0 1
27.606650 24.088000 4.933620 36.968899 0.717437 1.436944 0.042155 -0.011472 -641643.000000 0 0 1
28.889550 24.292600 5.796320 38.188137 0.699175 1.418424 0.041429 -0.013623 214741.000000 0 0 1
29.896060 23.277600 5.630020 38.305589 0.661566 1.423285 0.037203 -0.018526 835508.000000 0 0 1
30.468420 23.003900 4.318120 38.420700 0.646699 1.458168 0.040488 -0.016225 -566045.000000 0 0 1
31.326100 24.203100 3.783720 39.767212 0.657820 1.475505 0.068081 -0.029827 -508393.000000 0 0 1
30.662070 25.451900 3.579220 40.009656 0.692814 1.481218 0.054590 -0.026071 -293599.000000 0 0 1
31.476700 26.338100 2.840420 41.140566 0.696751 1.501700 0.112540 -0.025178 -982797.000000 0 0 1
30.928850 27.751000 2.670020 41.639414 0.731295 1.506630 0.095059 -0.019462 -146896.000000 0 0 1
29.693200 28.048600 2.076320 40.898914 0.756924 1.520007 0.116062 -0.019798 470941.000000 0 0 1
28.578150 27.510700 2.827920 39.768661 0.766369 1.499627 0.073700 -0.017634 -116256.000000 0 0 1
27.185150 28.026700 2.397320 39.118735 0.800639 1.509475 0.036035 -0.012750 -245356.000000 0 0 1
26.987250 29.308500 2.846420 39.942483 0.826608 1.499473 0.035161 -0.024582 716850.000000 0 0 1
25.716150 29.785400 2.378220 39.422663 0.858585 1.510433 0.021490 -0.015234 639853.000000 0 0 1
25.554250 31.289700 2.805020 40.496088 0.885956 1.501474 0.040342 -0.028880 -19272.400000 0 0 1
25.294850 31.526800 4.211020 40.638667 0.894637 1.466989 0.027314 -0.039172 -167424.000000 0 0 1
26.488750 31.516900 4.938820 41.465176 0.871866 1.451405 0.042757 -0.038603 -475022.000000 0 0 1
26.270850 31.145000 6.453220 41.253032 0.870087 1.413721 0.034245 -0.040044 218249.000000 0 0 1
25.717350 29.844700 6.736020 39.968264 0.859546 1.401454 0.040032 -0.042238 26508.900000 0 0 1
26.628850 28.811300 6.580420 39.780505 0.824744 1.404614 0.048305 -0.041767 -206927.000000 0 0 1
25.983650 27.479400 7.073120 38.474622 0.813368 1.385906 0.060529 -0.040740 597221.000000 0 0 1
24.951350 27.009800 6.199220 37.289804 0.824993 1.403777 0.046821 -0.044756 69396.900000 0 0 1
24.212650 25.969300 6.728920 36.137727 0.820389 1.383501 0.065585 -0.038645 126686.000000 0 0 1
23.013250 25.707400 5.729020 34.975731 0.840640 1.406255 0.081297 -0.026383 103532.000000 0 0 1
23.317150 25.412500 4.405320 34.769117 0.828371 1.443753 0.067932 -0.027711 53731.300000 0 0 1
23.289850 26.558700 3.530920 35.499987 0.850880 1.471169 0.064595 -0.028102 -213756.000000 0 0 1
23.570050 26.306400 2.072720 35.381776 0.840206 1.512181 0.057920 -0.014315 480911.000000 0 0 1
24.917250 25.941300 1.774720 36.013470 0.805531 1.521497 0.022505 0.008437 556925.000000 0 0 1
24.893550 25.741000 0.338320 35.810646 0.802133 1.561349 0.031365 0.001683 403953.000000 0 0 1
26.155150 25.047400 -0.287480 36.215284 0.763767 1.578735 0.059473 -0.002593 -313978.000000 0 0 1
27.304250 25.904400 -0.307980 37.638476 0.759096 1.578979 0.069928 0.007189 789514.000000 0 0 1
28.493450 25.357500 -0.846480 38.152274 0.727230 1.592985 0.073928 0.012895 -23042.300000 0 0 1
29.146120 24.333900 0.029120 37.968880 0.695658 1.570029 0.064995 0.006703 -1265320.000000 0 0 1
28.425150 23.102000 -0.008780 36.629109 0.682456 1.571036 0.061208 0.000741 626752.000000 0 0 1
29.053960 22.149000 0.854120 36.543677 0.651352 1.547422 0.063348 -0.003589 898733.000000 0 0 1
27.953750 21.117900 1.350820 35.059985 0.646985 1.532258 0.070804 -0.011383 820482.000000 0 0 1
27.569150 20.049400 0.463920 34.091813 0.628775 1.557188 0.086638 -0.022591 819094.000000 0 0 1
26.273550 19.628400 0.880220 32.807748 0.641629 1.543963 0.099198 -0.019644 116544.000000 0 0 1
25.646150 18.363300 0.262420 31.543694 0.621401 1.562477 0.097049 -0.025144 -317979.000000 0 0 1
24.360550 18.078100 0.760920 30.345232 0.638429 1.545718 0.107256 -0.028554 -115435.000000 0 0 1
23.794650 17.152500 -0.113880 29.332688 0.624586 1.574679 0.118553 -0.047172 788255.000000 0 0 1
22.276950 16.823200 0.187820 27.916265 0.646811 1.564068 0.105165 -0.034637 396866.000000 0 0 1
21.702750 15.967700 -0.773180 26.955048 0.634316 1.599484 0.106352 -0.032418 447335.000000 0 0 1
20.427450 15.472400 -0.370880 25.628372 0.648241 1.585268 0.117717 -0.031871 342592.000000 0 0 1
19.213350 16.271100 -0.862280 25.192162 0.702671 1.605031 0.120798 -0.041564 -485998.000000 0 0 1
19.323950 17.625800 -0.377580 26.157722 0.739472 1.585232 0.098875 -0.034441 866548.000000 0 0 1
18.162150 18.327300 -0.876380 25.817081 0.789924 1.604749 0.077219 -0.037446 833732.000000 0 0 1
18.106650 19.776600 -0.413080 26.816698 0.829451 1.586201 0.081265 -0.029165 -137618.000000 0 0 1
17.642850 19.899100 0.922420 26.610058 0.845425 1.536125 0.091031 -0.026717 96083.800000 0 0 1
17.716150 21.204600 1.443520 27.669130 0.874789 1.518602 0.100668 -0.029622 251143.000000 0 0 1
16.579050 22.197300 1.041320 27.724887 0.929285 1.533228 0.086151 -0.034536 -678476.000000 0 0 1
15.312350 21.967100 1.523220 26.820547 0.962047 1.513973 0.074877 -0.034679 -563391.000000 0 0 1
14.424150 22.932700 0.965220 27.108974 1.009342 1.535184 0.063463 -0.033140 1056810.000000 0 0 1
12.950950 23.064100 1.504320 26.494203 1.059152 1.513987 0.052237 -0.032583 923081.000000 0 0 1
12.697850 23.397800 2.868820 26.775410 1.073579 1.463446 0.052693 -0.016730 -108218.000000 0 0 1
11.325650 23.249800 3.165720 26.054660 1.117498 1.448992 0.041817 -0.018971 207245.000000 0 0 1
11.005050 23.462500 4.674420 26.333443 1.132215 1.392342 0.051269 -0.015185 71941.300000 0 0 1
11.615550 22.508200 5.519820 25.923126 1.094385 1.356223 0.054421 -0.035306 660.873000 0 0 1
10.895450 22.365500 6.689620 25.761938 1.117478 1.308115 0.039653 -0.027301 -625373.000000 0 0 1
11.569050 21.319400 7.587620 25.415186 1.073611 1.267627 0.050320 -0.026008 1289690.000000 0 0 1
12.778250 21.663700 8.339420 26.498028 1.037876 1.250636 0.054368 -0.018364 1170410.000000 0 0 1
13.948550 21.538200 7.582020 26.757114 0.996097 1.283496 0.069054 -0.021701 -1309010.000000 0 0 1
15.267450 21.761800 8.267120 27.839113 0.959017 1.269288 0.075344 -0.020745 -1005630.000000 0 0 1
15.642350 20.588400 9.053020 27.395666 0.921075 1.234011 0.085907 -0.021189 -527819.000000 0 0 1
17.003950 20.608300 9.341120 28.303584 0.880936 1.234458 0.078810 -0.032202 -523291.000000 0 0 1
17.336550 21.394600 10.608420 29.509718 0.889792 1.203076 0.064880 -0.016143 -671284.000000 0 0 1
16.727650 20.790200 11.684420 29.130265 0.893261 1.158069 0.073754 -0.029841 -83336.500000 0 0 1
16.697950 21.519800 12.861120 30.121948 0.910903 1.129659 0.074469 -0.024634 59137.400000 0 0 1
17.701550 20.955400 13.916620 30.759486 0.869373 1.101304 0.078497 -0.015480 306163.000000 0 0 1
19.046950 21.174200 13.561120 31.544207 0.838238 1.126405 0.074940 -0.015925 -110757.000000 0 0 1
19.961550 20.613900 14.487820 32.144879 0.801474 1.103243 0.058477 -0.015240 89908.800000 0 0 1
21.415550 21.053900 14.372320 33.293484 0.776883 1.124436 0.063153 -0.018651 -327516.000000 0 0 1
22.281050 20.488500 13.434720 33.116695 0.743511 1.153076 0.076336 -0.022050 420584.000000 0 0 1
23.504250 21.224400 13.347620 34.366901 0.734472 1.171917 0.089660 -0.018618 211863.000000 0 0 1
24.447250 20.797900 12.222720 34.345532 0.704915 1.206946 0.099532 -0.015117 -126259.000000 0 0 1
23.943350 21.308200 10.993120 33.884688 0.727230 1.240390 0.104184 -0.020486 395442.000000 0 0 1
24.604050 20.777100 9.845720 33.674699 0.701268 1.274084 0.102822 -0.034552 -444884.000000 0 0 1
24.632450 21.727500 8.610820 33.955678 0.722819 1.314407 0.099301 -0.028728 -12345.600000 0 0 1
25.188050 22.994600 8.974820 35.266654 0.739906 1.313482 0.084424 -0.021680 364747.000000 0 0 1
26.595550 23.095700 8.849820 36.318782 0.715082 1.324648 0.058236 -0.024298 -244667.000000 0 0 1
27.122550 24.354600 9.557220 37.684476 0.731679 1.314384 0.062885 -0.026077 -1048580.000000 0 0 1
28.346150 24.787200 9.097620 38.738562 0.718517 1.333736 0.044672 -0.022897 -703062.000000 0 0 1
28.753650 25.919300 9.800620 39.932877 0.733603 1.322836 0.060186 -0.029574 203153.000000 0 0 1
29.954170 26.635800 9.124620 41.109328 0.726826 1.346972 0.063073 -0.033840 54369.700000 0 0 1
29.660570 27.336000 7.930220 41.108329 0.744636 1.376669 0.061050 -0.037984 -374029.000000 0 0 1
30.818860 27.697300 7.246420 42.064868 0.732103 1.397665 0.091647 -0.030111 -502687.000000 0 0 1
30.569490 28.554800 6.050720 42.266790 0.751336 1.427147 0.139115 -0.019702 -110177.000000 0 0 1
30.291240 29.905000 6.344120 43.036218 0.778982 1.422844 0.132085 -0.030134 99286.300000 0 0 1
30.169850 30.639500 5.130620 43.304989 0.793121 1.452041 0.166704 -0.033154 -119203.000000 0 0 1
30.489240 32.082200 5.423020 44.590026 0.810851 1.448875 0.106874 -0.026918 -21846.600000 0 0 1
29.469670 32.697700 6.170320 44.448553 0.837276 1.431527 0.091645 -0.034751 -84755.000000 0 0 1
29.588740 -33.989555 6.063120 45.470263 -0.854507 1.437055 0.075772 -0.027008 269716.000000 0 0 1
28.340650 -33.126455 6.453620 44.070440 -0.863101 1.423829 0.073125 -0.032896 658183.000000 0 0 1
27.267050 -33.419555 5.572220 43.490324 -0.886435 1.442318 0.057851 -0.030745 1277910.000000 0 0 1
25.974750 -32.880155 6.056820 42.337658 -0.902193 1.427244 0.044845 -0.031218 1561010.000000 0 0 1
24.882750 -33.174155 5.030420 41.772969 -0.927254 1.450081 0.051191 -0.031973 -644141.000000 0 0 1
25.099750 -32.547955 3.777620 41.275140 -0.913888 1.479145 0.043786 -0.013306 -214799.000000 0 0 1
24.139250 -32.694855 2.743220 40.733060 -0.934813 1.503399 0.046789 -0.016193 -174538.000000 0 0 1
24.499950 -31.899955 1.448220 40.248627 -0.915859 1.534807 0.044278 -0.010816 27951.000000 0 0 1
24.430950 -30.526855 1.616720 39.132773 -0.895866 1.529471 0.044833 -0.006143 146323.000000 0 0 1
25.242850 -29.943255 0.603820 39.168413 -0.870367 1.555380 0.043399 -0.009386 -33669.000000 0 0 1
25.599150 -28.455555 0.976420 38.288229 -0.838192 1.545292 0.046942 -0.009845 -284726.000000 0 0 1
24.598150 -27.474255 0.912520 36.888160 -0.840575 1.546056 0.054552 -0.007101 -338471.000000 0 0 1
24.098350 -27.194355 -0.380980 36.337426 -0.845685 1.581281 0.069093 -0.013113 -38797.000000 0 0 1
23.021450 -26.085655 -0.290180 34.792711 -0.847716 1.579137 0.069756 -0.010708 244856.000000 0 0 1
23.611250 -24.779155 -0.042880 34.227174 -0.809529 1.572049 0.061296 -0.018346 141125.000000 0 0 1
23.827750 -24.407955 1.327920 34.136100 -0.797426 1.531886 0.050846 -0.005452 -274161.000000 0 0 1
22.543450 -24.135655 2.124220 33.094551 -0.819495 1.506566 0.052679 -0.010558 -24115.000000 0 0 1
22.671950 -23.296255 3.250420 32.669527 -0.798979 1.471138 0.041594 -0.007200 -367577.000000 0 0 1
21.412950 -23.272655 3.867420 31.860443 -0.826992 1.449110 0.068459 -0.010589 -373852.000000 0 0 1
21.391650 -22.517455 5.228120 31.495582 -0.811032 1.404029 0.067077 -0.014731 66099.700000 0 0 1
21.341950 -21.069055 5.181220 30.434009 -0.778964 1.399719 0.101627 -0.016226 41436.300000 0 0 1
20.077350 -20.635755 4.734620 29.177919 -0.799113 1.407808 0.071533 -0.013548 -582247.000000 0 0 1
19.816350 -19.147955 5.045320 28.014053 -0.768246 1.389709 0.079091 -0.014644 125188.000000 0 0 1
19.380150 -18.839655 6.355520 27.765364 -0.771257 1.339848 0.088664 -0.018163 195504.000000 0 0 1
17.967750 -18.682055 6.405020 26.699878 -0.804886 1.328544 0.055563 -0.016901 426495.000000 0 0 1
18.988482 -25.647210 -12.006680 34.095486 -0.933486 1.930662 0.113244 -0.036722 13900.700000 0 0 1
18.982082 -24.375200 -12.588380 33.360712 -0.909150 1.957720 0.132694 -0.031031 -706391.000000 0 0 1
17.771782 -23.915900 -13.114280 32.554429 -0.931729 1.985416 0.086031 -0.028099 -514913.000000 0 0 1
17.789082 -22.419900 -13.299580 31.559185 -0.900062 2.005804 0.087733 -0.030895 71759.700000 0 0 1
17.800582 -21.624200 -12.101180 30.510741 -0.882081 1.978629 0.108000 -0.035324 -849666.000000 0 0 1
19.067382 -21.528100 -11.544080 30.988545 -0.845940 1.952527 0.099874 -0.035496 -1018420.000000 0 0 1
19.324182 -22.392600 -10.230880 31.297339 -0.858820 1.903810 0.114187 -0.030968 465656.000000 0 0 1
18.575082 -22.027900 -9.051880 30.202625 -0.870233 1.875180 0.105505 -0.032485 1156640.000000 0 0 1
17.141382 -22.174700 -9.078880 29.461337 -0.912727 1.884057 0.093485 -0.011160 1024070.000000 0 0 1
16.410082 -21.416100 -7.923280 28.119717 -0.916976 1.856434 0.085021 -0.028498 -846226.000000 0 0 1
16.292082 -20.063700 -8.268580 27.135833 -0.888770 1.880431 0.074434 -0.036948 236860.000000 0 0 1
15.420682 -19.340000 -7.406080 25.820206 -0.897675 1.861715 0.073527 -0.045909 119243.000000 0 0 1
13.939282 -19.481100 -7.799780 25.192328 -0.949724 1.885578 0.065240 -0.022892 -658344.000000 0 0 1
13.411182 -20.750600 -7.643380 25.862491 -0.997024 1.870816 0.054825 -0.025103 -1116780.000000 0 0 1
12.045782 -20.792700 -7.908180 25.297758 -1.045716 1.888730 0.057228 -0.028520 -342013.000000 0 0 1
11.418082 -22.207100 -7.721080 26.137004 -1.095882 1.870679 0.063407 -0.022217 138145.000000 0 0 1
11.663482 -22.663300 -6.365780 26.271375 -1.095504 1.815541 0.061316 -0.020257 337930.000000 0 0 1
11.002682 -23.910400 -6.169880 27.033935 -1.139523 1.801053 0.042125 -0.014384 434410.000000 0 0 1
11.443782 -24.499200 -4.778780 27.459200 -1.133807 1.745719 0.059583 -0.012177 243444.000000 0 0 1
10.452482 -25.344730 -4.192580 27.734229 -1.179636 1.722548 0.062285 -0.015377 78019.100000 0 0 1
10.965582 -25.922100 -3.027780 28.308421 -1.170603 1.677958 0.062357 -0.017738 106908.000000 0 0 1
9.964682 -26.753710 -2.175980 28.631989 -1.214255 1.646868 0.065444 -0.013464 1517.480000 0 0 1
8.977182 -25.988490 -1.562980 27.539686 -1.238199 1.627581 0.047901 -0.014654 -702309.000000 0 0 1
8.620982 -26.520680 -0.376980 27.889244 -1.256504 1.584314 0.060517 -0.021510 239585.000000 0 0 1
7.696382 -25.700290 0.574220 26.834100 -1.279829 1.549396 0.055569 -0.026015 1714.880000 0 0 1
6.369882 -25.496550 0.205120 26.281011 -1.325975 1.562991 0.053176 -0.028841 -855013.000000 0 0 1
5.655682 -24.872400 1.219320 25.536440 -1.347210 1.523030 0.053712 -0.032926 -45367.900000 0 0 1
4.169482 -24.621000 0.865220 24.986533 -1.403041 1.536162 0.045219 -0.034261 157620.000000 0 1 0
3.367682 -25.779490 0.745420 26.009211 -1.440898 1.542133 0.046819 -0.032585 -133871.000000 0 0 1
2.040282 -25.307050 0.584420 25.395887 -1.490349 1.547782 0.047848 -0.030546 552986.000000 0 0 1
0.963682 -26.345290 0.091020 26.363067 -1.534234 1.567344 0.059537 -0.029255 461042.000000 0 0 1
0.587682 -27.275830 1.052220 27.302444 -1.549254 1.532247 0.059011 -0.026848 -311535.000000 0 0 1
1.432482 -28.410750 1.148320 28.470008 -1.520419 1.530451 0.042879 -0.027480 -336754.000000 0 0 1
0.860582 -29.552580 1.969320 29.630623 -1.541684 1.504285 0.073693 -0.027282 -144130.000000 0 0 1
0.874582 -29.315600 3.324620 29.516477 -1.540972 1.457921 0.053322 -0.022684 56461.600000 0 0 1
0.397582 -30.445020 4.077020 30.719365 -1.557738 1.437685 0.072525 -0.024436 62557.200000 0 0 1
0.509682 -30.252430 5.590220 30.768813 -1.553950 1.388097 0.073696 -0.022152 473133.000000 0 0 1
1.884182 -30.438290 5.959820 31.073447 -1.508974 1.377803 0.036005 -0.005982 642779.000000 0 0 1
2.072082 -30.413450 7.394720 31.368031 -1.502771 1.332816 0.047097 -0.002326 -782053.000000 0 0 1
3.411382 -30.797110 7.954820 31.990290 -1.460477 1.319496 0.057711 -0.010479 -658574.000000 0 0 1
3.695282 -32.143480 7.495620 33.212087 -1.456337 1.343146 0.067031 -0.014664 124278.000000 0 0 1
5.023982 -32.512680 7.835320 33.818737 -1.417485 1.336986 0.064937 -0.013400 446236.000000 0 0 1
5.273582 33.997438 7.606320 35.234820 1.416906 1.353208 0.056091 -0.011387 -102326.000000 0 0 1
5.292582 33.668390 6.264920 34.652866 1.414875 1.389006 0.042513 -0.003505 91850.600000 0 0 1
4.902582 32.322867 5.984520 33.235787 1.420268 1.389746 0.043400 -0.010037 -712488.000000 0 0 1
4.952882 31.958814 4.449720 32.645013 1.417042 1.434064 0.045581 -0.005406 1646640.000000 0 0 1
6.273082 31.752904 3.825920 32.591964 1.375749 1.453137 0.046597 -0.000758 1417440.000000 0 0 1
7.073782 30.776424 4.463720 31.892812 1.344876 1.430375 0.035495 -0.006679 568209.000000 0 0 1
8.500182 30.709764 3.746720 32.083962 1.300766 1.453751 0.032652 -0.005210 922407.000000 0 0 1
9.409982 31.659844 4.286020 33.305607 1.281891 1.441751 0.039310 -0.013528 -101374.000000 0 0 1
10.573182 31.586874 3.469720 33.489726 1.247786 1.467005 0.034001 -0.020115 -79346.800000 0 0 1
11.868282 32.079985 4.129520 34.453367 1.216452 1.450649 0.054826 -0.037774 -233213.000000 0 0 1
12.352782 31.137464 5.072820 33.880177 1.193123 1.420503 0.059621 -0.029898 -85562.800000 0 0 1
13.519882 31.556744 5.728920 34.805687 1.166023 1.405447 0.080259 -0.031717 -213174.000000 0 0 1
14.365982 30.622724 6.613920 34.465586 1.132150 1.377699 0.055360 -0.033930 -312582.000000 0 0 1
13.804782 30.197954 7.802920 34.108269 1.142018 1.339983 0.053893 -0.024162 76278.500000 0 0 1
14.707182 29.290304 8.420220 33.839669 1.105456 1.319327 0.044842 -0.020237 282184.000000 0 0 1
14.572182 29.321734 9.967020 34.226511 1.109571 1.275307 0.029781 0.007774 171461.000000 0 0 1
15.290482 30.354574 10.626520 35.610700 1.104170 1.267772 0.037976 -0.004897 246916.000000 0 0 1
14.584382 30.793114 11.755520 36.043201 1.128471 1.238567 0.038225 0.003831 644741.000000 0 0 1
15.639182 31.618524 12.615320 37.462800 1.111461 1.227341 0.040847 0.006088 1159200.000000 0 0 1
16.671082 30.774944 13.124720 37.380214 1.074340 1.212036 0.045648 -0.000685 230707.000000 0 0 1
17.258082 31.384354 14.281420 38.558761 1.068034 1.191378 0.047058 -0.002974 -66320.700000 0 0 1
18.076882 30.381424 15.108420 38.445662 1.034063 1.166925 0.043828 -0.010896 -601386.000000 0 0 1
19.413882 30.259234 14.757720 38.862712 1.000359 1.181281 0.047324 -0.009821 -649021.000000 0 0 1
19.786082 28.913304 14.523620 37.926293 0.970669 1.177816 0.043753 -0.002866 91883.100000 0 0 1
21.267582 28.765134 14.129420 38.462754 0.934144 1.194635 0.063836 -0.007751 77626.900000 0 0 1
22.267182 29.011944 15.108020 39.569844 0.916178 1.179046 0.069743 -0.013890 -50962.700000 0 0 1
23.495482 28.866454 14.429620 39.918965 0.887615 1.200949 0.068111 -0.013234 -152525.000000 0 0 1
24.780982 29.069494 15.256720 41.132713 0.864868 1.190803 0.084382 -0.017132 -117235.000000 0 0 1
25.045882 28.082824 16.196520 40.966675 0.842498 1.164338 0.083971 -0.013942 -279958.000000 0 0 1
25.979982 28.452494 17.173920 42.183497 0.830790 1.151493 0.077963 -0.019085 -485737.000000 0 0 1
26.957282 27.359934 17.577020 42.239942 0.792811 1.141619 0.054430 -0.009289 -121555.000000 0 0 1
26.351382 26.133714 18.084920 41.284751 0.781251 1.117364 0.065424 -0.002430 114416.000000 0 0 1
26.197782 26.055744 19.464620 41.762387 0.782680 1.085941 0.081635 -0.007506 126520.000000 0 0 1
25.516182 24.757244 19.971320 40.778061 0.770303 1.058986 0.086863 -0.010518 527903.000000 0 0 1
26.473282 23.688824 19.915820 40.726342 0.729946 1.059835 0.055988 -0.007571 -326052.000000 0 0 1
25.905682 22.435154 20.173320 39.766862 0.713728 1.038759 0.058168 -0.009349 -212514.000000 0 0 1
26.795082 21.211754 19.908220 39.550627 0.669616 1.043313 0.035848 -0.014164 -226527.000000 0 0 1
26.072082 20.007054 20.075520 38.510546 0.654528 1.022424 0.027305 0.001057 520551.000000 0 0 1
26.872382 18.790054 20.164620 38.494193 0.610211 1.019449 0.031724 -0.011765 375344.000000 0 0 1
27.509582 18.415254 21.486720 39.466160 0.589901 0.995082 0.067891 0.001961 -102189.000000 0 0 1
26.559882 17.909054 22.397820 39.087388 0.593262 0.960611 0.038773 0.008968 350080.000000 0 0 1
27.192382 17.642654 23.669320 40.136337 0.575537 0.940081 0.070960 0.007606 11665.900000 0 0 1
26.210282 16.987554 24.662020 39.796621 0.575056 0.902434 0.049433 0.016562 39257.800000 0 0 1
26.000782 15.582654 24.353520 38.883849 0.539916 0.893980 0.039395 -0.000060 403549.000000 0 0 1
25.043082 14.922154 25.166320 38.511950 0.537369 0.858640 0.034930 0.003963 54976.000000 0 0 1
24.601182 13.615354 24.499620 37.293798 0.505483 0.854049 0.034383 0.002181 -256303.000000 0 0 1
23.462182 13.031154 25.082220 36.734217 0.506988 0.819204 0.014473 -0.000107 89393.000000 0 0 1
22.991382 12.057554 24.182720 35.479461 0.483006 0.820852 0.029883 -0.005044 272824.000000 0 0 1
21.632182 11.402354 24.577020 34.669798 0.485093 0.782875 0.024760 -0.009843 510883.000000 0 0 1
20.553282 12.312554 24.639620 34.367823 0.539725 0.771395 0.035766 -0.008572 667830.000000 0 0 1
19.280282 11.660054 24.484520 33.274282 0.543916 0.743891 0.046060 -0.012111 1604630.000000 0 0 1
18.046382 12.656854 24.579920 33.015758 0.611632 0.731025 0.037734 -0.017930 686662.000000 0 0 1
17.984282 13.125954 25.931920 34.178788 0.630484 0.709460 0.051920 -0.007007 5292.510000 0 0 1
16.852082 13.893354 26.261620 34.156853 0.689461 0.693750 0.073358 -0.008214 -238855.000000 0 0 1
16.639782 14.138154 27.743920 35.305734 0.704297 0.666777 0.055173 0.003734 -453813.000000 0 0 1
16.092182 13.093954 28.464320 35.222542 0.683029 0.629830 0.080964 0.008802 -218445.000000 0 0 1
16.145182 13.276354 29.859520 36.448860 0.688198 0.610752 0.068952 0.004455 220099.000000 0 0 1
17.495882 13.192954 30.667520 37.691600 0.646095 0.620405 0.054271 -0.000431 -76836.300000 0 0 1
18.389482 14.138354 30.236620 38.109307 0.655443 0.654392 0.067899 -0.009759 -453011.000000 0 0 1
19.638582 13.573554 29.869020 38.237071 0.604774 0.674285 0.045154 -0.001961 -302796.000000 0 0 1
20.582882 14.696854 29.384620 38.769942 0.620082 0.710673 0.048364 -0.005192 -466417.000000 0 0 1
20.290782 15.311954 28.121320 37.907524 0.646455 0.734986 0.065225 -0.009203 498456.000000 0 0 1
20.757282 14.542354 26.983820 37.019878 0.611122 0.754081 0.050332 -0.007689 -220035.000000 0 0 1
20.516782 15.371454 25.718020 36.313034 0.642998 0.783807 0.050138 -0.006679 -55169.400000 0 0 1
21.509282 16.379154 25.654320 37.270230 0.650816 0.811608 0.051532 -0.004615 331842.000000 0 0 1
21.474782 17.036754 24.396920 36.696416 0.670665 0.843529 0.043041 -0.004134 -325043.000000 0 0 1
22.539382 18.091354 24.120520 37.644658 0.676358 0.875332 0.046752 -0.007730 -435206.000000 0 0 1
22.464582 18.376654 22.745720 36.874471 0.685637 0.906072 0.049837 -0.014282 1070450.000000 0 0 1
23.543282 19.252154 22.266620 37.692624 0.685462 0.938818 0.044615 -0.009306 707840.000000 0 0 1
23.665182 20.758354 22.722620 38.823544 0.720057 0.945572 0.064510 -0.024421 38756.700000 0 0 1
22.640482 21.647054 22.274220 38.436015 0.762971 0.952664 0.068363 -0.014097 328848.000000 0 0 1
22.689082 22.803354 23.065620 39.582953 0.787910 0.948730 0.085578 -0.014399 -502065.000000 0 0 1
21.795782 23.922304 22.672220 39.514077 0.831878 0.959688 0.089905 -0.022310 -700734.000000 0 0 1
22.057482 24.500574 21.352620 39.277793 0.837824 0.996039 0.093506 -0.017886 208994.000000 0 0 1
21.184182 25.577904 21.056020 39.323717 0.879082 1.005752 0.086539 -0.027346 -374519.000000 0 0 1
21.688282 26.446354 19.931520 39.586067 0.883927 1.043153 0.081497 -0.027262 -191446.000000 0 0 1
21.783882 25.670774 18.747320 38.535544 0.867123 1.062724 0.077792 -0.026867 46437.000000 0 0 1
22.162182 26.582384 17.767020 38.903116 0.875832 1.096515 0.078128 -0.026183 -160278.000000 0 0 1
22.300682 25.906184 16.419420 37.921605 0.860051 1.122997 0.074740 -0.015694 -533979.000000 0 0 1
21.081182 25.480404 15.884220 36.687541 0.879600 1.123023 0.059919 -0.017002 -681253.000000 0 0 1
21.156082 25.055764 14.551820 35.876546 0.869586 1.153152 0.066185 -0.014509 95614.200000 0 0 1
19.811582 24.425834 14.018520 34.433110 0.889329 1.151494 0.064436 -0.009207 1478000.000000 0 0 1
18.644482 25.235754 13.879320 34.308825 0.934494 1.154320 0.054260 -0.003816 -145008.000000 0 0 1
18.046382 25.511694 15.087020 34.700671 0.955137 1.121007 0.045235 -0.009879 -1503910.000000 0 0 1
16.610082 26.032604 14.792320 34.240386 1.002868 1.124072 0.039696 -0.001675 -174771.000000 0 0 1
15.681582 25.041794 14.415320 32.875597 1.011323 1.116889 0.052762 -0.000603 -3255.600000 0 0 1
15.246082 24.117874 15.429620 32.437448 1.007073 1.075067 0.074105 -0.002948 -563835.000000 0 0 1
14.186682 24.603494 16.410720 32.801000 1.047751 1.046838 0.097175 -0.010879 -379322.000000 0 0 1
14.767982 25.560934 17.253220 34.192517 1.046893 1.041889 0.078549 -0.010155 408648.000000 0 0 1
13.750982 26.192364 18.008120 34.632670 1.087350 1.023975 0.083592 -0.015451 66441.500000 0 0 1
14.252782 27.478464 18.691920 36.160692 1.092309 1.027556 0.085520 -0.023689 -339608.000000 0 0 1
14.430182 28.636994 17.886120 36.718127 1.104034 1.062008 0.075874 -0.011741 107830.000000 0 0 1
14.764982 29.726204 18.607720 38.051270 1.109793 1.059834 0.062853 -0.001526 -250786.000000 0 0 1
14.865182 31.093154 17.875420 38.823814 1.124834 1.092323 0.043256 -0.003406 -226689.000000 0 0 1
13.576582 31.629384 17.702920 38.705747 1.165340 1.095759 0.062111 -0.002309 -161725.000000 0 0 1
13.452082 32.912158 17.056320 39.434588 1.182790 1.123508 0.055893 -0.002484 463098.000000 0 0 1
12.023682 33.542734 17.160420 39.549513 1.226606 1.121983 0.071341 -0.011167 280579.000000 0 0 1
11.844482 -33.303150 16.420220 38.974545 -1.229091 1.135911 0.074146 -0.011951 -34533.400000 0 0 1
12.583782 -32.059750 16.570120 38.219733 -1.196763 1.122369 0.060895 -0.016831 115940.000000 0 0 1
12.536082 -31.565780 18.016620 38.446722 -1.192757 1.083077 0.063215 -0.014134 -414142.000000 0 0 1
13.356582 -32.295250 18.893020 39.728172 -1.178640 1.075199 0.067127 -0.011371 169049.000000 0 0 1
12.938382 -32.301560 20.298320 40.284169 -1.189816 1.042713 0.069362 -0.018776 -69785.000000 0 0 1
14.056582 -32.905410 21.166520 41.573730 -1.167079 1.036620 0.072009 -0.006768 -340043.000000 0 0 1
15.265882 -32.215290 21.069920 41.410308 -1.128270 1.036996 0.068303 -0.007213 -291172.000000 0 0 1
16.200082 -32.726460 22.056520 42.660918 -1.111145 1.027431 0.074053 -0.003934 595270.000000 0 0 1
17.568482 -32.062040 21.751420 42.541159 -1.069526 1.034096 0.087788 -0.008345 19397.100000 0 0 1
17.506282 -30.675270 21.952820 41.585675 -1.052202 1.014678 0.081773 -0.010359 146739.000000 0 0 1
18.635382 -29.994720 21.438420 41.310610 -1.014870 1.025166 0.081327 -0.007709 -14603.200000 0 0 1
-5.080018 12.923800 18.642467 23.245920 -1.196274 0.640215 0.036270 -0.003038 -213079.000000 0 1 0
-4.781118 14.104000 17.918867 23.299522 -1.243963 0.693418 0.044248 -0.012006 -206341.000000 0 1 0
-6.023118 14.630800 17.595467 23.663025 -1.180267 0.732380 0.034312 -0.007715 -536341.000000 0 1 0
-5.957718 16.177100 17.305767 24.427087 -1.217929 0.783474 0.044573 -0.014908 -115411.000000 0 1 0
-5.671918 16.862100 18.501867 25.667492 -1.246315 0.765799 0.060561 -0.007031 274694.000000 0 0 1
-5.126418 18.142500 18.199067 26.203750 -1.295412 0.803042 0.055543 0.003094 -520661.000000 0 0 1
-4.698818 18.824600 19.503267 27.510396 -1.326184 0.782800 0.063001 -0.002747 -861428.000000 0 0 1
-5.646718 19.165500 20.432367 28.577674 -1.284274 0.774206 0.057570 -0.002523 -952130.000000 0 0 1
-4.971618 19.866500 21.474767 29.674239 -1.325581 0.761671 0.053006 0.000721 174451.000000 0 0 1
-5.902618 20.234000 22.632267 30.926933 -1.286955 0.749840 0.031090 -0.000914 -42791.800000 0 0 1
-6.228718 19.179900 23.502367 30.968157 -1.256788 0.709143 0.025664 -0.008556 -50131.500000 0 0 1
-6.883618 19.683300 24.700137 32.325118 -1.234372 0.701127 0.015650 -0.014502 160741.000000 0 0 1
-5.952018 20.267000 25.757337 33.310933 -1.285147 0.686862 0.009035 -0.012721 -485824.000000 0 0 1
-5.588418 21.576700 25.538307 33.896748 -1.317363 0.717557 0.016550 -0.015865 709429.000000 0 0 1
-4.508118 22.076000 26.366807 34.682581 -1.369357 0.707126 0.029611 -0.009465 1842420.000000 0 0 1
-3.005218 21.725100 26.061577 34.061960 -1.433339 0.699565 0.045471 -0.001983 617323.000000 0 0 1
-2.648118 20.358200 26.295747 33.360683 -1.441446 0.662876 0.060658 0.000665 -330729.000000 0 0 1
-1.287118 20.188200 26.006937 32.948154 -1.507127 0.661081 0.059073 0.003068 -215020.000000 0 0 1
-0.627618 18.973700 26.668107 32.735045 -1.537730 0.618644 0.067282 0.003520 -323550.000000 0 0 1
-1.019518 17.777200 26.065637 31.567162 -1.513509 0.599319 0.077669 -0.004115 -347451.000000 0 0 1
-0.539018 16.501100 26.528697 31.246578 -1.538142 0.556685 0.079388 -0.006523 297734.000000 0 0 1
0.931382 16.118900 26.144517 30.728199 1.513079 0.553231 0.093103 -0.005741 508385.000000 0 0 1
1.195882 15.894800 24.767617 29.453517 1.495701 0.571843 0.074434 -0.002232 -118120.000000 0 0 1
0.839882 14.576600 24.327427 28.372635 1.513241 0.540550 0.088410 -0.002670 -19670.100000 0 0 1
1.150082 14.420300 22.818867 27.017928 1.491210 0.565012 0.101161 -0.016119 1010560.000000 0 0 1
2.557282 14.439200 22.520567 26.873893 1.395507 0.577172 0.076667 -0.011820 687320.000000 0 0 1
2.821082 13.972900 21.191067 25.539416 1.371578 0.592155 0.068192 -0.014381 -3031.960000 0 0 1
4.296182 13.960500 20.758167 25.382164 1.272255 0.613175 0.058914 -0.016231 -91718.000000 0 0 1
4.787482 15.189600 20.287267 25.791804 1.265470 0.665549 0.052710 -0.016739 -606971.000000 0 0 1
6.169282 15.060000 20.116067 25.875081 1.182001 0.680227 0.065375 -0.020698 -539293.000000 0 0 1
6.727782 16.093700 19.118067 25.879929 1.174837 0.739624 0.072132 -0.020970 -147527.000000 0 0 1
6.363082 15.648700 17.823767 24.557225 1.184596 0.758592 0.069021 -0.031574 272919.000000 0 1 0
6.610782 16.627200 16.823067 24.559760 1.192371 0.816213 0.062104 -0.024293 -210963.000000 0 1 0
6.529682 16.029100 15.353067 23.136237 1.183958 0.845184 0.055762 -0.024803 206678.000000 0 1 0
7.631782 15.246000 14.911167 22.650111 1.106688 0.852203 0.049094 -0.023108 278306.000000 0 1 0
7.949082 14.077900 15.632767 22.489077 1.056775 0.802200 0.054412 -0.021706 -89693.500000 0 1 0
9.057882 13.225400 14.960967 21.926855 0.970287 0.819875 0.054892 -0.027245 364260.000000 0 1 0
10.371182 13.761300 14.982367 22.834319 0.924964 0.855112 0.061228 -0.034450 554581.000000 0 1 0
11.267482 12.982000 14.173967 22.279807 0.855984 0.881259 0.062395 -0.030664 326978.000000 0 1 0
12.719382 13.498500 14.217367 23.369333 0.815106 0.916782 0.065832 -0.024599 -356676.000000 0 1 0
13.402682 13.248000 15.451967 24.370160 0.779594 0.884013 0.062620 -0.028546 538851.000000 0 1 0
14.656582 13.918700 15.549967 25.501903 0.759582 0.915042 0.055137 -0.022458 398454.000000 0 0 1
15.814882 13.063100 15.021967 25.424684 0.690395 0.938694 0.061558 -0.025807 -565616.000000 0 0 1
17.114582 13.595900 14.881467 26.442683 0.671320 0.973049 0.060196 -0.035288 780675.000000 0 0 1
17.967882 12.778600 14.079467 26.160443 0.618197 1.002500 0.063096 -0.036639 980960.000000 0 0 1
19.455682 13.265700 13.908767 27.348787 0.598435 1.037273 0.064930 -0.035424 948262.000000 0 0 1
20.229782 13.038800 15.087967 28.406005 0.572524 1.010834 0.045769 -0.033532 -472336.000000 0 0 1
21.567482 13.244900 14.762367 29.300361 0.550733 1.042771 0.038604 -0.033200 -449031.000000 0 0 1
22.532182 13.034400 15.979767 30.544194 0.524445 1.020231 0.055612 -0.029280 41400.500000 0 0 1
22.878582 11.674900 16.305167 30.423532 0.471852 1.005176 0.069708 -0.033133 652677.000000 0 0 1
23.741882 11.690100 17.452367 31.700481 0.457535 0.987786 0.058673 -0.034759 -120255.000000 0 0 1
24.095682 10.242700 17.771767 31.644123 0.401942 0.974462 0.079572 -0.027211 330731.000000 0 0 1
22.901982 9.542300 18.183767 30.760456 0.394784 0.938324 0.053128 -0.025075 1215900.000000 0 0 1
22.755482 8.318900 17.532467 29.906579 0.350485 0.944385 0.047732 -0.015450 511515.000000 0 0 1
21.438882 7.548100 17.943667 28.958154 0.338522 0.902511 0.078397 -0.014969 532692.000000 0 0 1
21.336982 6.234900 17.345267 28.195728 0.284296 0.908190 0.091957 -0.030697 357679.000000 0 0 1
20.379582 5.366300 17.922367 27.664703 0.257473 0.866048 0.091106 -0.024150 -264618.000000 0 0 1
20.218382 4.055800 17.197867 26.851427 0.197972 0.875670 0.107123 -0.009503 -1028700.000000 0 0 1
19.166382 4.228400 16.287167 25.504928 0.217137 0.878133 0.105071 -0.028999 275495.000000 0 0 1
18.756482 3.034900 15.671267 24.629349 0.160415 0.881124 0.091662 -0.029258 4175.440000 0 1 0
17.899182 2.012000 16.479067 24.412876 0.111937 0.829811 0.094699 -0.023032 22116.000000 0 1 0
18.645382 1.380900 17.505967 25.612810 0.073926 0.818270 0.106758 -0.029611 403864.000000 0 0 1
17.704282 0.735600 18.335367 25.498400 0.041525 0.768320 0.095848 -0.024458 159673.000000 0 0 1
18.311382 0.037000 19.597867 26.821344 0.002021 0.751476 0.096281 -0.026381 -148751.000000 0 0 1
18.834882 -1.288800 19.403067 27.071993 -0.068320 0.771707 0.100594 -0.023344 249667.000000 0 0 1
17.813382 -2.294100 19.475967 26.493259 -0.128080 0.744939 0.072216 -0.014961 -48484.700000 0 0 1
17.958582 -3.678300 18.851767 26.295051 -0.202027 0.771405 0.059836 -0.007388 -583898.000000 0 0 1
17.518282 -3.589900 17.520567 25.034933 -0.202125 0.795616 0.063828 -0.015882 324492.000000 0 0 1
17.567382 -4.799900 16.876267 24.828619 -0.266718 0.823429 0.079914 -0.016571 -312072.000000 0 1 0
17.076682 -4.644000 15.397267 23.457528 -0.265528 0.854774 0.060224 -0.022712 712856.000000 0 1 0
15.655982 -4.441800 15.244367 22.298657 -0.276448 0.818051 0.050271 -0.023317 999542.000000 0 1 0
15.165182 -4.368600 13.935667 21.053984 -0.280474 0.847443 0.044263 -0.023504 127755.000000 0 1 0
15.606582 -3.138000 13.088667 20.608873 -0.198423 0.882660 0.039798 -0.021908 -380298.000000 0 1 0
15.056482 -1.935800 13.508767 20.320722 -0.127868 0.843600 0.045747 -0.015611 182224.000000 0 1 0
15.530582 -0.792600 12.785767 20.132139 -0.050991 0.882668 0.046585 -0.017463 -146309.000000 0 1 0
14.707082 0.422600 13.177467 19.751519 0.028727 0.840404 0.054903 -0.005107 -456231.000000 0 1 0
15.013082 1.634600 12.563267 19.644343 0.108451 0.876902 0.058901 -0.009173 177525.000000 0 1 0
15.941082 2.391900 13.357867 20.934944 0.148935 0.878813 0.075328 -0.017222 258289.000000 0 1 0
16.256182 3.778900 12.664367 20.950650 0.228403 0.921676 0.083511 -0.028370 77642.000000 0 1 0
15.209382 4.702000 12.866567 20.469066 0.299831 0.891063 0.073995 -0.025018 517611.000000 0 1 0
15.420882 5.858600 12.057167 20.432867 0.363071 0.939630 0.085481 -0.034290 1093130.000000 0 1 0
14.302982 6.964000 12.443167 20.196658 0.453106 0.907014 0.081917 -0.026900 1107240.000000 0 1 0
14.473382 8.162600 11.708467 20.327199 0.513508 0.956969 0.062379 -0.039952 166665.000000 0 1 0
13.549782 9.186000 12.038067 20.319799 0.595770 0.936724 0.052011 -0.024558 -378678.000000 0 1 0
13.763082 9.898100 13.408867 21.614637 0.623481 0.901594 0.067110 -0.028608 -44780.800000 0 1 0
13.414082 9.098800 14.543067 21.776743 0.596015 0.839513 0.078519 -0.032763 739030.000000 0 1 0
13.859882 9.839200 15.686267 23.129314 0.617343 0.825488 0.092767 -0.039108 -211916.000000 0 1 0
13.532682 9.097300 17.012567 23.565267 0.591856 0.764203 0.088239 -0.038472 74213.700000 0 1 0
12.165582 9.159800 17.403467 23.125397 0.645372 0.718841 0.073075 -0.045822 322532.000000 0 1 0
11.759682 8.359900 18.535667 23.489338 0.618001 0.661438 0.090437 -0.040748 2294.190000 0 1 0
12.358682 8.715700 19.964667 25.045726 0.614227 0.648271 0.105547 -0.035299 -240572.000000 0 0 1
13.743882 8.500600 20.037967 25.742467 0.553912 0.678681 0.116805 -0.034020 -281027.000000 0 0 1
14.234382 8.699300 21.361967 27.104042 0.548576 0.663004 0.105676 -0.022782 -35270.400000 0 0 1
15.776382 8.660800 21.315767 27.897412 0.502054 0.701187 0.094682 -0.022121 5785.030000 0 0 1
16.397682 9.722000 20.612267 28.076090 0.535174 0.746372 0.099080 -0.021736 -472510.000000 0 0 1
17.302782 9.297400 19.684567 27.808454 0.493068 0.784329 0.081254 -0.030282 -720633.000000 0 0 1
18.115282 10.417900 19.039667 28.270214 0.521901 0.831878 0.083165 -0.030893 -199382.000000 0 0 1
18.987082 11.106800 19.903367 29.665035 0.529292 0.835325 0.062289 -0.028085 87877.000000 0 0 1
19.975682 11.812300 19.172667 30.102317 0.534023 0.880304 0.065684 -0.028266 158121.000000 0 0 1
20.903282 12.505400 20.199167 31.643934 0.539132 0.878474 0.049516 -0.024070 -417562.000000 0 0 1
20.258282 13.665400 20.724467 32.041296 0.593446 0.867409 0.042368 -0.022858 353376.000000 0 0 1
20.963182 14.365000 21.732867 33.438387 0.600757 0.863294 0.037757 -0.010777 -347815.000000 0 0 1
22.277382 15.098900 21.411567 34.390605 0.595649 0.898736 0.017342 -0.006738 -904508.000000 0 0 1
23.320182 14.205800 21.286467 34.622959 0.547130 0.908654 -0.001664 0.002328 -139007.000000 0 0 1
24.492782 14.954500 20.889667 35.495234 0.548154 0.941569 0.004177 -0.001744 747607.000000 0 0 1
25.847182 14.210000 20.909567 36.155372 0.502666 0.954122 0.007709 -0.013901 -113083.000000 0 0 1
25.994082 13.246100 19.959167 35.348547 0.471283 0.970801 0.019468 -0.028781 866051.000000 0 0 1
27.285682 12.635900 20.096867 36.167091 0.433691 0.981631 0.060159 -0.042201 213952.000000 0 0 1
27.529382 11.677400 18.941767 35.398009 0.401175 1.006160 0.093294 -0.044526 -243433.000000 0 0 1
27.490582 12.299000 17.644167 34.904357 0.420681 1.040834 0.094898 -0.054369 266464.000000 0 0 1
27.863582 11.376200 16.664467 34.402058 0.387626 1.065115 0.126220 -0.063908 69344.500000 0 0 1
26.845582 11.248100 15.473067 32.963932 0.396771 1.082192 0.101221 -0.062442 44986.600000 0 0 1
26.671682 12.475900 14.740167 32.928699 0.437523 1.106673 0.118779 -0.056477 26691.200000 0 0 1
25.712082 12.342800 13.723067 31.650884 0.447552 1.122339 0.104202 -0.047917 -216287.000000 0 0 1
25.319982 13.563700 12.915967 31.494406 0.491791 1.148229 0.084301 -0.042355 414271.000000 0 0 1
24.416782 14.542600 13.512067 31.468117 0.537177 1.126980 0.065260 -0.045178 906777.000000 0 0 1
24.247682 15.592000 12.589167 31.457077 0.571460 1.159060 0.048883 -0.030630 401773.000000 0 0 1
23.092682 16.608200 12.923367 31.242882 0.623494 1.144346 0.049163 -0.027740 373239.000000 0 0 1
21.778582 16.158900 12.659267 29.927808 0.638337 1.134050 0.069587 -0.037994 243009.000000 0 0 1
20.813082 17.123800 13.039467 29.940551 0.688455 1.120189 0.061486 -0.029315 -785259.000000 0 0 1
20.271682 17.999600 11.892667 29.603416 0.726100 1.157388 0.084311 -0.024701 -370725.000000 0 0 1
19.239182 17.394100 11.150467 28.231786 0.735074 1.164770 0.069070 -0.031392 615160.000000 0 0 1
17.972382 17.562300 11.797367 27.760021 0.773858 1.131860 0.056535 -0.019146 321419.000000 0 0 1
16.720582 16.799600 11.260567 26.241280 0.787755 1.127282 0.062009 -0.019972 213791.000000 0 0 1
16.733982 15.449000 11.488667 25.508571 0.745492 1.103600 0.064210 -0.016636 122264.000000 0 0 1
15.642982 14.747800 10.953467 24.128384 0.755951 1.099585 0.068242 -0.028316 -294284.000000 0 1 0
16.075182 13.480800 10.212167 23.333062 0.697844 1.117791 0.083456 -0.032726 -239034.000000 0 1 0
16.229282 12.397200 11.007067 23.199907 0.652324 1.076463 0.087107 -0.029301 382564.000000 0 1 0
16.772782 11.355300 10.261267 22.706005 0.595128 1.101881 0.091021 -0.026431 -264917.000000 0 1 0
16.993682 10.094700 11.083267 22.661134 0.536016 1.059754 0.092609 -0.036573 -183484.000000 0 1 0
17.872882 9.176000 10.359267 22.604276 0.474313 1.094728 0.112388 -0.029425 939341.000000 0 1 0
18.324182 8.006200 11.053667 22.848598 0.411923 1.065829 0.118420 -0.031077 -245172.000000 0 1 0
19.508182 8.292200 11.982567 24.349777 0.401924 1.056294 0.104505 -0.037044 -797295.000000 0 1 0
19.251582 9.190600 13.028267 24.996525 0.445400 1.022536 0.093858 -0.038930 -206687.000000 0 1 0
20.203782 9.042100 14.022967 26.202977 0.420810 1.006091 0.090511 -0.033273 -1001380.000000 0 0 1
19.607482 9.630900 15.387767 26.720609 0.456571 0.957121 0.068717 -0.027496 800295.000000 0 0 1
18.635482 8.889100 16.153367 26.215044 0.445078 0.906904 0.071174 -0.027049 1115680.000000 0 0 1
17.400382 8.685100 15.471867 24.851216 0.462954 0.898761 0.077657 -0.035849 -566195.000000 0 1 0
16.877882 7.247900 15.707367 24.168499 0.405618 0.863329 0.083758 -0.029349 -558264.000000 0 1 0
15.991482 7.155000 16.762967 24.247033 0.420711 0.807453 0.114632 -0.035139 -419237.000000 0 1 0
15.700382 5.824000 17.124467 23.951375 0.355212 0.774218 0.116098 -0.018996 -383552.000000 0 1 0
14.433982 5.654800 18.042267 23.787392 0.373391 0.709818 0.102574 -0.011233 432621.000000 0 1 0
13.879182 4.376300 18.177767 23.285509 0.305446 0.675096 0.093877 -0.005917 340329.000000 0 1 0
13.324582 3.944600 16.932267 21.904475 0.287819 0.687232 0.080604 -0.009292 -853590.000000 0 1 0
12.959982 2.446600 17.027167 21.537674 0.186585 0.659047 0.060572 -0.013237 90861.700000 0 1 0
14.119582 1.643500 16.845667 22.041783 0.115877 0.700902 0.073297 -0.013876 428586.000000 0 1 0
13.947482 0.207700 16.579867 21.667196 0.014890 0.699435 0.064610 -0.013449 -173337.000000 0 1 0
13.385882 -0.722500 17.755267 22.247547 -0.053922 0.646698 0.066114 -0.017075 659241.000000 0 1 0
12.051682 -0.339900 18.089667 21.739242 -0.028196 0.587876 0.060387 0.003741 310651.000000 0 1 0
11.627182 -1.143300 19.128967 22.414636 -0.098015 0.548296 0.049592 -0.013277 -761516.000000 0 1 0
-26.554658 14.012700 28.240367 41.219219 -0.485556 0.816019 0.080867 -0.020190 -382869.000000 0 0 1
-25.824888 13.892700 29.434637 41.549126 -0.493551 0.783525 0.075357 -0.016401 589933.000000 0 0 1
-25.018318 12.697200 29.396447 40.636022 -0.469642 0.762070 0.082427 -0.009412 946140.000000 0 0 1
-23.719218 12.672700 30.302107 40.514397 -0.490694 0.725852 0.070328 -0.014584 637269.000000 0 0 1
-24.008018 12.677600 31.680697 41.722573 -0.485840 0.708532 0.076158 -0.023166 293084.000000 0 0 1
-22.845118 12.779300 32.488753 41.722045 -0.510023 0.678213 0.059717 -0.013933 -10781.600000 0 0 1
-23.232218 13.081600 33.933987 43.155298 -0.512830 0.665962 0.058357 -0.004323 91913.800000 0 0 1
-23.775218 11.963700 -33.297920 42.627956 -0.466205 2.467268 0.060455 -0.013072 -43110.900000 0 0 1
-24.409618 12.421700 -32.144420 42.230224 -0.470731 2.435913 0.040085 -0.005326 82639.200000 0 0 1
-25.385338 11.422600 -31.444640 41.995912 -0.422828 2.416978 0.041734 -0.015826 198033.000000 0 0 1
-24.779518 10.369100 -30.706570 40.797503 -0.396313 2.422886 0.036899 -0.011071 113259.000000 0 0 1
-24.231718 9.295400 -31.443980 40.771369 -0.366293 2.451563 0.039169 -0.018608 -119322.000000 0 0 1
-23.488718 8.267100 -30.594440 39.447238 -0.338420 2.458428 0.042281 -0.011581 16806.400000 0 0 1
-24.295218 7.484000 -29.689530 39.086265 -0.298820 2.433479 0.041344 -0.010282 839380.000000 0 0 1
-23.494218 6.706700 -28.766950 37.742490 -0.278066 2.437486 0.043427 -0.005614 226788.000000 0 0 1
-24.358118 5.783900 -27.888740 37.477370 -0.233135 2.410056 0.043253 -0.005645 -94851.300000 0 0 1
-24.755418 4.563900 -28.495600 38.021825 -0.182313 2.418033 0.051886 -0.013433 93128.400000 0 0 1
-25.166628 3.634700 -27.479580 37.439252 -0.143434 2.394957 0.070503 -0.005110 -141817.000000 0 0 1
-26.041348 2.448200 -28.051270 38.353869 -0.093737 2.391140 0.083103 -0.003645 503948.000000 0 0 1
-27.379468 2.681100 -28.434930 39.564742 -0.097613 2.372718 0.104642 -0.017937 218369.000000 0 0 1
-27.558578 3.633600 -29.499170 40.532448 -0.131094 2.385892 0.097799 -0.009960 -935824.000000 0 0 1
-28.916698 3.388000 -30.197600 41.946979 -0.116632 2.374454 0.111347 -0.016543 350901.000000 0 0 1
-29.986068 3.884400 -29.383640 42.162201 -0.128823 2.341889 0.096967 -0.010742 877652.000000 0 0 1
-31.245738 4.054500 -30.043570 43.535632 -0.129041 2.332412 0.094303 -0.018768 776230.000000 0 0 1
-31.599008 5.489700 -30.514050 44.268967 -0.172013 2.331302 0.094387 -0.031058 -430657.000000 0 0 1
-30.673408 5.965800 -31.468370 44.347571 -0.192096 2.359705 0.101779 -0.028066 328371.000000 0 0 1
-31.011488 7.247300 -32.000260 45.147009 -0.229577 2.358594 0.098971 -0.026812 -330413.000000 0 0 1
-30.464168 8.386100 -31.067500 44.312321 -0.268624 2.347739 0.078878 -0.027302 30584.000000 0 0 1
-29.059088 8.521100 -30.976470 43.319528 -0.285238 2.367520 0.052339 -0.032660 504399.000000 0 0 1
-28.378338 7.697700 -29.999460 42.006574 -0.264879 2.366221 0.047125 -0.027810 -287982.000000 0 0 1
-28.269228 8.402800 -28.613940 41.091531 -0.288925 2.341091 0.042602 -0.013070 187318.000000 0 0 1
-29.545788 8.772500 -28.075520 41.691069 -0.288621 2.309619 0.042834 -0.016996 758242.000000 0 0 1
-30.103488 7.639500 -27.348920 41.382912 -0.248528 2.292780 0.035585 -0.003156 88591.200000 0 0 1
-31.613828 7.805400 -27.012270 42.308642 -0.242057 2.263289 0.048868 -0.003728 337766.000000 0 0 1
-31.998178 8.599000 -25.921530 42.068420 -0.262532 2.234674 0.024822 -0.006487 67590.900000 0 0 1
-32.062448 7.863200 -24.712280 41.237450 -0.240500 2.213383 0.024404 -0.005169 -200333.000000 0 0 1
-31.480118 8.587100 -23.501780 40.212807 -0.266300 2.194980 0.027934 0.003206 4690.310000 0 0 1
-32.255718 9.705000 -23.015980 40.796492 -0.292261 2.170219 0.033533 -0.009101 605546.000000 0 0 1
-31.507258 10.450800 -22.080280 39.868099 -0.320275 2.157757 0.032239 -0.016411 -293707.000000 0 0 1
-32.354768 11.595500 -21.583280 40.584783 -0.344126 2.131529 0.019987 -0.004973 -17104.900000 0 0 1
-33.296878 11.183200 -20.582680 40.711089 -0.324026 2.100849 0.015976 -0.007978 418967.000000 0 0 1
-33.679468 12.184500 -19.614380 40.834943 -0.347129 2.071831 0.011556 -0.008298 150592.000000 0 0 1
-32.574188 12.823700 -18.697980 39.688027 -0.375043 2.061361 0.018900 -0.008340 155560.000000 0 0 1
-31.904058 12.044800 -17.728580 38.434993 -0.360989 2.050213 0.039299 -0.005583 379676.000000 0 0 1
-32.760108 11.328400 -16.819380 38.528547 -0.332927 2.022549 0.043307 0.010822 118611.000000 0 0 1
-33.249558 12.172400 -15.616380 38.698473 -0.350938 1.986179 0.032674 0.016718 -26023.500000 0 0 1
-33.845078 13.430500 -15.973780 39.762159 -0.377764 1.984205 0.009485 0.009193 452310.000000 0 0 1
-34.532709 13.966600 -14.831080 40.094075 -0.384333 1.949705 -0.003894 0.003619 26708.100000 0 0 1
-35.280303 15.274100 -15.151980 41.322880 -0.408573 1.946227 -0.009488 0.004904 205326.000000 0 0 1
-36.446708 15.092900 -15.948380 42.550077 -0.392610 1.954993 -0.009356 0.002951 414633.000000 0 0 1
-36.877768 16.375300 -16.396880 43.554310 -0.417889 1.956779 -0.009420 0.000175 -418982.000000 0 0 1
36.846720 16.211400 -17.879380 44.047276 0.414481 1.988774 -0.002619 -0.000082 475762.000000 0 0 1
35.778400 15.336200 -18.249780 42.992411 0.404953 2.009193 0.043694 -0.011786 1128070.000000 0 0 1
34.465470 15.883600 -18.085080 42.038405 0.431845 2.015515 0.088903 -0.017176 -97353.700000 0 0 1
33.332250 14.927900 -18.412080 40.900927 0.421066 2.037744 0.108910 -0.024677 -566957.000000 0 0 1
33.148640 14.826100 -19.823380 41.371633 0.420574 2.070487 0.102714 -0.021694 91529.400000 0 0 1
32.261560 13.771000 -20.128480 40.442606 0.403441 2.091747 0.058374 -0.015775 -296536.000000 0 0 1
32.621610 12.286000 -19.811180 40.094864 0.360192 2.087605 0.065936 0.006011 -295852.000000 0 0 1
32.684320 11.889300 -18.411080 39.352104 0.348882 2.057659 0.092626 -0.000757 170987.000000 0 0 1
33.062850 10.528000 -18.258680 39.209313 0.308273 2.055190 0.075798 -0.005525 -197450.000000 0 0 1
33.040470 10.150100 -16.782980 38.423503 0.298051 2.022823 0.059395 -0.002387 687455.000000 0 0 1
31.748810 9.961800 -16.171980 36.996721 0.304041 2.023190 0.070681 -0.006788 934204.000000 0 0 1
31.929810 9.751200 -14.784280 36.512650 0.296399 1.987675 0.051005 -0.000033 -84194.300000 0 0 1
31.260810 10.854700 -13.944580 35.909805 0.334205 1.969607 0.075637 -0.014603 444772.000000 0 0 1
29.829810 10.870500 -13.942680 34.675404 0.349461 1.984596 0.071959 -0.010776 725235.000000 0 0 1
29.379890 12.000100 -13.239980 34.387169 0.387766 1.966033 0.095705 -0.013548 162125.000000 0 0 1
27.852150 12.038400 -13.021880 33.018702 0.407974 1.976188 0.090660 -0.008922 -110933.000000 0 0 1
27.209850 11.045100 -12.215480 31.805473 0.385602 1.964995 0.081416 -0.019296 39617.800000 0 0 1
25.820150 10.883700 -12.348480 30.620582 0.398919 1.985888 0.083918 -0.009078 -102066.000000 0 0 1
25.333950 10.185000 -13.616480 30.511503 0.382255 2.033393 0.077098 -0.018027 -812897.000000 0 0 1
25.775950 8.815000 -13.834780 30.553314 0.329517 2.040708 0.082328 -0.019032 1228650.000000 0 0 1
27.090550 8.653100 -14.418080 31.885029 0.309171 2.040015 0.090833 -0.022712 925315.000000 0 0 1
28.058650 7.801300 -13.563980 32.126775 0.271186 2.006669 0.096102 -0.023068 -271343.000000 0 0 1
27.707850 6.447400 -13.448380 31.466694 0.228624 2.012394 0.093292 -0.033194 -175236.000000 0 0 1
26.757750 6.134900 -12.494980 30.161875 0.225380 1.997930 0.117532 -0.032891 -774407.000000 0 0 1
26.251250 4.747300 -12.730280 29.558840 0.178907 2.016038 0.127619 -0.033178 -357843.000000 0 0 1
25.463950 4.280500 -11.647880 28.326817 0.166543 1.994562 0.129804 -0.032243 380857.000000 0 0 1
25.101250 2.940000 -11.849480 27.912838 0.116594 2.009225 0.121649 -0.030671 -271333.000000 0 0 1
24.288950 2.301300 -10.712980 26.646145 0.094465 1.984547 0.116123 -0.023661 -118798.000000 0 0 1
25.020150 2.320600 -9.487480 26.858991 0.092485 1.931821 0.122013 -0.018625 494831.000000 0 0 1
24.461050 1.403200 -8.571080 25.957183 0.057302 1.907313 0.136586 -0.013603 62359.900000 0 0 1
25.444550 1.021900 -7.389580 26.515567 0.040140 1.853224 0.166184 -0.014022 108138.000000 0 0 1
25.394250 -0.263700 -6.732680 26.272923 -0.010384 1.829947 0.129187 -0.025330 172564.000000 0 0 1
25.618250 -1.414000 -7.487880 26.727560 -0.055139 1.854753 0.098114 -0.019603 -475527.000000 0 0 1
25.868750 -2.653700 -6.674080 26.847303 -0.102226 1.822025 0.111185 -0.029570 -531323.000000 0 0 1
27.102850 -2.705500 -6.000880 27.890765 -0.099494 1.787648 0.115204 -0.039354 321389.000000 0 0 1
27.356450 -3.959700 -5.371480 28.158611 -0.143746 1.762731 0.127745 -0.054163 220850.000000 0 0 1
28.756150 -4.102900 -4.702480 29.425555 -0.141723 1.731294 0.131609 -0.055433 702643.000000 0 0 1
29.868480 -4.199300 -5.584980 30.674945 -0.139678 1.753887 0.115932 -0.037718 1303190.000000 0 0 1
31.059030 -4.715500 -4.966080 31.805051 -0.150673 1.727579 0.136616 -0.046045 131482.000000 0 0 1
32.169590 -5.133800 -5.906180 33.107724 -0.158251 1.750149 0.149296 -0.041155 -666804.000000 0 0 1
31.860320 -6.216000 -6.730880 33.151522 -0.192681 1.775252 0.125303 -0.037647 439725.000000 0 0 1
32.691510 -6.205600 -7.896980 34.199512 -0.187591 1.803808 0.133461 -0.046250 -652672.000000 0 0 1
32.023460 -6.966200 -8.999680 33.985647 -0.214197 1.838801 0.097590 -0.043815 724478.000000 0 0 1
30.745690 -6.485700 -9.439080 32.809419 -0.207899 1.862615 0.098766 -0.035998 2062150.000000 0 0 1
29.599350 -6.862500 -8.581180 31.572965 -0.227821 1.846048 0.090748 -0.025546 368606.000000 0 0 1
28.420750 -5.919900 -8.777980 30.328818 -0.205359 1.864425 0.090155 -0.023782 -1251630.000000 0 0 1
27.750350 -5.916600 -10.003780 30.085939 -0.210063 1.909757 0.068085 -0.016394 562720.000000 0 0 1
26.581550 -5.103400 -9.989480 28.851572 -0.189682 1.924353 0.089214 -0.016300 317637.000000 0 0 1
25.275250 -5.806000 -9.603280 27.654491 -0.225794 1.925443 0.124078 -0.017775 -1142610.000000 0 0 1
25.371650 -6.364100 -8.310780 27.446156 -0.245764 1.878429 0.112341 -0.027943 1241060.000000 0 0 1
24.169150 -7.040100 -7.851980 26.369763 -0.283442 1.873146 0.114729 -0.029534 643837.000000 0 0 1
23.078050 -6.150700 -7.208280 24.947682 -0.260463 1.863911 0.141202 -0.028960 -298945.000000 0 1 0
22.490450 -5.323500 -8.188580 24.519642 -0.232423 1.911298 0.135258 -0.029943 383387.000000 0 1 0
22.010550 -4.123900 -7.657580 23.666631 -0.185213 1.900286 0.126638 -0.026920 -129401.000000 0 1 0
21.691850 -3.088900 -8.755380 23.595219 -0.141448 1.950953 0.105981 -0.021294 232281.000000 0 1 0
22.921150 -2.660600 -9.338180 24.892961 -0.115559 1.955337 0.100791 -0.012226 915625.000000 0 1 0
22.805950 -1.699000 -10.379780 25.114494 -0.074361 1.996870 0.108305 -0.017477 -462136.000000 0 0 1
23.970250 -1.629300 -11.412080 26.598178 -0.067867 2.014243 0.095142 -0.006210 289427.000000 0 0 1
25.119250 -1.070900 -10.771680 27.352379 -0.042607 1.975571 0.087266 -0.016911 400269.000000 0 0 1
26.292950 -1.427200 -11.463380 28.718726 -0.054227 1.981397 0.091679 -0.012829 -474387.000000 0 0 1
27.499350 -0.572500 -11.037380 29.637236 -0.020816 1.952407 0.088057 -0.008793 -651462.000000 0 0 1
28.631050 -0.964300 -11.768680 30.970449 -0.033667 1.960589 0.077821 -0.015653 72707.400000 0 0 1
29.807390 -0.218400 -11.521180 31.957250 -0.007327 1.939620 0.099588 -0.017935 111639.000000 0 0 1
30.055380 1.128300 -12.284080 32.488422 0.037523 1.958546 0.097107 -0.023725 -378885.000000 0 0 1
30.351040 0.936100 -13.675880 33.303027 0.030833 1.993963 0.088785 -0.024454 445939.000000 0 0 1
30.259110 2.183400 -14.410580 33.586393 0.072032 2.014248 0.083805 -0.028307 69010.000000 0 0 1
30.578840 1.954100 -15.943680 34.541061 0.063817 2.050579 0.073829 -0.019995 -99775.200000 0 0 1
29.475240 1.359900 -16.546480 33.829353 0.046104 2.081872 0.086367 -0.022447 -113058.000000 0 0 1
29.689300 1.572100 -17.937580 34.722944 0.052902 2.113662 0.059581 -0.008118 796960.000000 0 0 1
28.636850 0.803400 -18.848880 34.292782 0.028047 2.152736 0.058483 -0.009709 534515.000000 0 0 1
28.632050 -0.586900 -18.624580 34.161583 -0.020495 2.147413 0.073442 -0.015824 170690.000000 0 0 1
28.222450 -1.238100 -19.815580 34.506475 -0.043841 2.182492 0.064094 -0.014023 -239912.000000 0 0 1
28.102950 -2.754900 -19.753780 34.461241 -0.097717 2.181223 0.070864 -0.023409 868475.000000 0 0 1
26.856450 -3.133700 -19.116580 33.113934 -0.116158 2.186211 0.069463 -0.019533 1076810.000000 0 0 1
26.755450 -4.586000 -18.870380 33.060199 -0.169755 2.178262 0.065450 -0.016979 -13558.400000 0 0 1
27.664250 -5.199400 -17.760780 33.283477 -0.185779 2.133673 0.061473 -0.016560 169064.000000 0 0 1
29.025880 -5.260500 -18.154680 34.637653 -0.179289 2.122491 0.057399 -0.017504 -138966.000000 0 0 1
29.776560 -5.501200 -16.984080 34.718377 -0.182689 2.081964 0.053889 -0.020742 549015.000000 0 0 1
31.296980 -5.159600 -17.213580 36.089192 -0.163390 2.068004 0.071061 -0.026261 595968.000000 0 0 1
31.885200 -6.035000 -18.132780 37.173713 -0.187060 2.080347 0.065748 -0.028695 -205778.000000 0 0 1
33.160950 -5.604500 -18.568980 38.417002 -0.167427 2.075277 0.058986 -0.021942 244794.000000 0 0 1
33.905450 -6.773400 -19.293880 39.594347 -0.197177 2.079779 0.053438 -0.017926 -230259.000000 0 0 1
34.399630 -7.696900 -18.390180 39.758968 -0.220124 2.051656 0.059701 -0.021723 10066.100000 0 0 1
35.080630 -8.770600 -19.063580 40.877795 -0.244991 2.055963 0.044666 -0.012884 -225448.000000 0 0 1
35.782220 -9.615200 -17.958780 41.174472 -0.262513 2.022127 0.047562 -0.016118 -613889.000000 0 0 1
34.944320 -10.306200 -17.042580 40.221547 -0.286801 2.008342 0.050713 -0.021277 101270.000000 0 0 1
35.621560 -11.101500 -16.110580 40.640985 -0.302111 1.978402 0.065889 -0.023683 -729205.000000 0 0 1
36.642010 -10.488100 -15.145480 41.012470 -0.278778 1.949041 0.074896 -0.030951 -430307.000000 0 0 1
-36.987648 -11.410000 -14.124780 41.204170 0.299220 1.920692 0.074304 -0.028934 328119.000000 0 0 1
-36.362238 -12.631000 -14.463280 41.121053 0.334326 1.930209 0.065069 -0.026002 -198660.000000 0 0 1
-34.870883 -12.484700 -14.864880 39.910035 0.343807 1.952454 0.067897 -0.028604 -96294.800000 0 0 1
-34.707383 -11.951800 -16.191580 40.120011 0.331641 1.986221 0.082545 -0.032305 -312084.000000 0 0 1
-33.361218 -12.026600 -16.581380 39.147825 0.345995 2.008166 0.082794 -0.024601 -42895.600000 0 0 1
-32.966128 -11.103000 -17.792480 39.071916 0.324868 2.043593 0.098501 -0.024883 162213.000000 0 0 1
-33.173548 -9.756400 -17.410080 38.714113 0.286037 2.037236 0.113085 -0.029227 718251.000000 0 0 1
-34.201101 -9.148100 -18.232580 39.822482 0.261361 2.046368 0.107022 -0.030242 710330.000000 0 0 1
-34.889768 -7.934200 -17.546480 39.851304 0.223605 2.026728 0.108250 -0.034830 49599.800000 0 0 1
-35.943978 -7.380100 -18.320480 41.013113 0.202508 2.033868 0.095267 -0.026182 -64841.300000 0 0 1
-36.739558 -6.554000 -17.508380 41.222487 0.176534 2.009459 0.094694 -0.030259 -425933.000000 0 0 1
24.126582 27.233600 -26.562550 45.048085 0.845819 2.201420 0.030632 0.011459 -317608.000000 0 0 1
24.980082 26.443900 -25.795130 44.594541 0.813856 2.187608 0.029069 -0.000027 397625.000000 0 0 1
26.299982 26.362900 -26.359050 45.623361 0.786593 2.186770 0.047765 -0.004131 722710.000000 0 0 1
27.279182 25.506400 -25.554910 45.252443 0.751826 2.170889 0.068761 -0.003129 -627545.000000 0 0 1
27.601582 25.979600 -24.309380 45.030355 0.755136 2.141048 0.067957 -0.002958 158696.000000 0 0 1
27.757182 24.894600 -23.419980 44.030645 0.731083 2.131641 0.073968 -0.007256 -112768.000000 0 0 1
28.507382 25.338700 -22.143880 44.102970 0.726619 2.096816 0.082978 -0.005480 185345.000000 0 0 1
27.697782 26.165100 -21.313680 43.658361 0.756951 2.080814 0.059792 -0.005324 651998.000000 0 0 1
28.521182 26.816300 -20.351880 44.122225 0.754599 2.050213 0.054116 -0.007045 337296.000000 0 0 1
27.668782 27.852700 -19.600080 43.880491 0.788711 2.033836 0.057011 -0.006738 -81135.900000 0 0 1
26.784182 27.405900 -18.604980 42.598369 0.796871 2.022783 0.067566 -0.005004 -51742.800000 0 0 1
25.982782 28.523400 -18.269880 42.690489 0.831976 2.013032 0.066288 -0.013650 161265.000000 0 0 1
24.805782 28.254700 -17.290880 41.383927 0.850307 2.001837 0.076032 -0.015485 -157148.000000 0 0 1
23.828782 27.440900 -17.861080 40.494839 0.855735 2.027587 0.093024 -0.016741 -137444.000000 0 0 1
22.726682 27.297600 -16.967180 39.364276 0.876519 2.016430 0.073268 -0.016512 632544.000000 0 0 1
21.646582 26.305700 -17.496080 38.297221 0.882256 2.045247 0.076934 -0.023619 67942.400000 0 0 1
21.003882 26.638600 -18.693180 38.732584 0.903122 2.074442 0.073438 -0.017687 345067.000000 0 0 1
20.070182 25.594000 -19.059180 37.697710 0.905779 2.100850 0.067279 -0.016168 755243.000000 0 0 1
19.359982 25.820900 -20.424080 38.192549 0.927436 2.135027 0.050788 -0.003204 554798.000000 0 0 1
18.340482 26.814500 -20.345380 38.331778 0.970906 2.130306 0.039088 0.001482 -91022.000000 0 0 1
17.431382 26.737600 -21.429580 38.444495 0.993057 2.162067 0.028167 0.002981 -47033.600000 0 0 1
16.330482 27.799100 -21.218380 38.596557 1.039659 2.152859 0.030838 0.007027 -230236.000000 0 0 1
15.597282 27.542200 -20.040180 37.462739 1.055521 2.135229 0.044185 0.008664 196883.000000 0 0 1
14.758782 28.642200 -19.610680 37.719703 1.094999 2.117537 0.038863 -0.001186 290640.000000 0 0 1
14.231182 28.403800 -18.175780 36.601385 1.106324 2.090459 0.051432 -0.001921 -183987.000000 0 0 1
13.289782 27.388400 -18.035780 35.384066 1.119031 2.105650 0.044880 0.002996 -442933.000000 0 0 1
12.811582 27.310500 -16.735280 34.497386 1.132166 2.077294 0.060267 -0.000859 -349355.000000 0 0 1
11.872382 26.125700 -16.566580 33.135438 1.144262 2.094355 0.067491 -0.006309 58669.300000 0 0 1
12.569382 24.953200 -16.139780 32.266764 1.104179 2.094624 0.052643 -0.005542 375262.000000 0 0 1
11.628582 23.876700 -16.088980 31.051183 1.117581 2.115476 0.073350 -0.013442 415998.000000 0 0 1
12.315382 22.514300 -16.263480 30.381954 1.070257 2.135660 0.053456 -0.009439 88915.100000 0 0 1
12.839182 22.444700 -17.592280 31.274550 1.051192 2.168216 0.053387 -0.004407 -506760.000000 0 0 1
13.809682 21.470400 -17.821280 31.133317 0.999219 2.180248 0.049988 -0.002536 -482797.000000 0 0 1
13.338682 20.021100 -17.899780 29.986114 0.983095 2.210472 0.062500 -0.002929 -181958.000000 0 0 1
13.127382 19.566600 -16.576480 28.809021 0.979863 2.183880 0.071306 -0.013864 72697.500000 0 0 1
12.596282 18.250100 -16.493380 27.636281 0.966676 2.210306 0.052066 -0.012496 12348.600000 0 0 1
13.667082 17.139200 -16.655080 27.530583 0.897633 2.220520 0.065792 -0.014179 -405099.000000 0 0 1
14.415682 16.900300 -15.554180 27.117606 0.864573 2.181669 0.066917 -0.015180 38695.500000 0 0 1
15.395482 15.860700 -15.730880 27.130117 0.800281 2.189317 0.080659 -0.017818 -150704.000000 0 0 1
15.924082 15.317900 -14.353280 26.348265 0.765998 2.146890 0.124503 -0.015864 264839.000000 0 0 1
16.969582 16.031300 -13.633080 27.033871 0.756974 2.099363 0.096875 -0.012872 767083.000000 0 0 1
18.212782 16.247200 -14.208980 28.241318 0.728420 2.098010 0.072191 -0.009101 -890703.000000 0 0 1
19.075382 14.971400 -14.446780 28.226273 0.665437 2.108099 0.071014 -0.015113 -744772.000000 0 0 1
19.502382 14.207500 -13.310080 27.556382 0.629599 2.074888 0.101891 -0.028548 913540.000000 0 0 1
20.567782 14.786300 -12.538380 28.264453 0.623302 2.030418 0.100544 -0.017062 270290.000000 0 0 1
21.505582 13.681400 -11.905480 28.132032 0.566598 2.007771 0.115326 -0.026662 -294599.000000 0 0 1
20.964482 12.909900 -10.870780 26.913730 0.551955 1.986586 0.194039 -0.030446 134386.000000 0 0 1
21.680482 11.749000 -10.545080 26.819415 0.496616 1.974893 0.204439 -0.014044 -442537.000000 0 0 1
21.466182 10.513100 -11.459180 26.507264 0.455415 2.017842 0.152872 -0.020448 -268384.000000 0 0 1
22.133382 10.458000 -12.720880 27.587627 0.441406 2.050040 0.123928 -0.011159 420683.000000 0 0 1
21.729982 9.331500 -13.504280 27.232969 0.405617 2.089644 0.105090 -0.020080 -65275.200000 0 0 1
22.274282 7.927400 -13.026380 26.993960 0.341921 2.074379 0.103327 -0.001170 -178353.000000 0 0 1
21.629282 7.695900 -11.781880 25.804368 0.341841 2.044949 0.110274 -0.020868 754989.000000 0 0 1
22.105082 6.563400 -10.984580 25.541610 0.288627 2.015362 0.116093 -0.006230 -731964.000000 0 0 1
21.894682 5.123400 -11.599280 25.301573 0.229866 2.047037 0.105967 -0.014737 50961.900000 0 0 1
20.558882 4.655500 -11.599480 24.060117 0.222691 2.073851 0.066814 -0.031779 432696.000000 0 1 0
19.692882 5.238200 -12.547080 23.930682 0.259975 2.122700 0.025164 -0.037151 -410625.000000 0 1 0
18.705882 4.176200 -13.132880 23.234096 0.219654 2.171523 0.022068 -0.040293 -232988.000000 0 1 0
19.273382 3.407900 -14.125980 24.137530 0.175010 2.195959 0.034592 -0.036366 135305.000000 0 1 0
18.876082 2.063800 -14.039680 23.615214 0.108902 2.207463 0.046545 -0.027281 -866058.000000 0 1 0
19.821582 1.030300 -14.660780 24.675800 0.051932 2.206987 0.067126 -0.021173 308792.000000 0 1 0
21.005782 0.825000 -13.871180 25.185971 0.039255 2.154059 0.086767 -0.010508 893815.000000 0 0 1
22.193282 0.379500 -14.473980 26.498715 0.017098 2.148635 0.086976 -0.018994 70815.000000 0 0 1
22.237682 -1.134700 -14.877180 26.779330 -0.050982 2.159817 0.087090 -0.015919 11562.400000 0 0 1
21.218282 -1.535500 -15.809080 26.504721 -0.072241 2.209883 0.073771 -0.018233 352760.000000 0 0 1
21.730282 -2.353900 -16.819180 27.579536 -0.107903 2.226658 0.073504 -0.016727 -163930.000000 0 0 1
20.695682 -3.091000 -17.717080 27.418250 -0.148259 2.273363 0.063236 -0.023392 -375637.000000 0 0 1
19.989482 -4.040300 -16.986880 26.541618 -0.199434 2.265307 0.077432 -0.019625 231617.000000 0 0 1
19.243482 -4.926800 -17.833480 26.694905 -0.250641 2.302379 0.063036 -0.018054 162811.000000 0 0 1
18.690982 -6.176300 -17.109480 26.081292 -0.319147 2.286311 0.060807 -0.020088 775880.000000 0 0 1
19.801282 -6.984700 -16.655980 26.801091 -0.339114 2.241410 0.069406 -0.013355 1193860.000000 0 0 1
19.297682 -8.024800 -15.827880 26.216783 -0.394089 2.218969 0.072047 -0.013869 -526900.000000 0 0 1
20.263382 -9.043900 -15.288180 26.946711 -0.419787 2.174079 0.103573 -0.010230 -762117.000000 0 0 1
20.715682 -9.943200 -16.240280 28.138113 -0.447507 2.186047 0.090788 -0.010681 205922.000000 0 0 1
21.776782 -10.707100 -15.725980 28.916720 -0.456965 2.145799 0.082469 -0.013615 -403182.000000 0 0 1
22.369482 -11.797300 -16.682280 30.296344 -0.485314 2.153923 0.070307 -0.007752 -22357.000000 0 0 1
23.222882 -11.231600 -17.668580 31.267072 -0.450477 2.171334 0.058009 0.004964 128879.000000 0 0 1
23.716982 -12.235500 -18.488580 32.465833 -0.476284 2.176667 0.057928 0.013009 -600872.000000 0 0 1
23.031382 -12.212600 -19.846080 32.763685 -0.487561 2.221484 0.084429 0.008274 364571.000000 0 0 1
21.697782 -12.678400 -19.963780 32.094985 -0.528809 2.242119 0.108615 -0.005388 181649.000000 0 0 1
21.574982 -14.077500 -19.868080 32.533006 -0.578125 2.227747 0.091607 0.010068 -951871.000000 0 0 1
20.107482 -14.435200 -19.711980 31.642503 -0.622640 2.243316 0.095117 -0.000590 -939112.000000 0 0 1
19.328982 -14.182800 -20.812280 31.747636 -0.633025 2.285712 0.091146 0.006128 -1154200.000000 0 0 1
17.994382 -14.359500 -20.459180 30.798881 -0.673520 2.297331 0.099410 0.000701 -178228.000000 0 0 1
16.975982 -13.623100 -21.398880 30.523514 -0.676259 2.347682 0.084497 0.005151 272867.000000 0 0 1
16.929982 -14.198400 -22.693980 31.673894 -0.697870 2.369552 0.081628 0.011081 323725.000000 0 0 1
15.996582 -13.527900 -23.525380 31.501400 -0.701977 2.414040 0.077309 0.000120 35804.200000 0 0 1
16.150082 -13.975100 -24.990580 32.873358 -0.713325 2.434429 0.075364 -0.005562 -95375.900000 0 0 1
15.461482 -15.187700 -25.295610 33.310532 -0.776466 2.433168 0.070078 -0.008962 390790.000000 0 0 1
15.738082 -15.588100 -26.660370 34.661959 -0.780610 2.448312 0.071716 -0.015007 -372349.000000 0 0 1
16.498782 -16.898000 -26.843130 35.753403 -0.797351 2.420046 0.082229 -0.012734 388017.000000 0 0 1
17.908382 -16.710200 -26.666250 36.208146 -0.750801 2.398635 0.092133 -0.004696 382756.000000 0 0 1
18.536082 -17.991800 -26.636200 37.104964 -0.770499 2.371521 0.095859 -0.010606 -393441.000000 0 0 1
20.026082 -17.743000 -26.877260 37.924202 -0.725023 2.358464 0.082869 0.004707 -386212.000000 0 0 1
20.699082 -17.343900 -25.689010 37.271814 -0.697431 2.331228 0.088806 0.005588 -640285.000000 0 0 1
22.011682 -16.973400 -25.979070 38.046321 -0.656874 2.322422 0.085825 0.008106 -309846.000000 0 0 1
22.748382 -16.307400 -24.722280 37.344495 -0.621952 2.294288 0.092911 0.011541 351896.000000 0 0 1
22.482882 -14.921000 -24.357080 36.350840 -0.585919 2.305080 0.100853 0.010423 -560893.000000 0 0 1
21.154082 -14.524300 -24.160180 35.244358 -0.601673 2.326093 0.119797 0.009986 -247876.000000 0 0 1
20.971982 -13.171600 -23.490580 34.133890 -0.560795 2.329787 0.118161 0.020354 -48312.100000 0 0 1
21.123382 -12.101200 -24.370180 34.446219 -0.520241 2.356729 0.138021 0.001828 191938.000000 0 0 1
21.123782 -10.870300 -23.659280 33.528184 -0.475259 2.354141 0.142171 0.001254 15551.300000 0 0 1
21.036482 -9.626300 -24.502380 33.698158 -0.429156 2.384904 0.155263 -0.004616 -9547.020000 0 0 1
20.913282 -8.471600 -23.731180 32.746027 -0.384880 2.381401 0.144877 -0.012897 75094.200000 0 0 1
20.934282 -7.255200 -24.487780 33.023226 -0.333616 2.406147 0.118864 -0.013617 -510420.000000 0 0 1
20.299282 -6.083500 -23.732680 31.816818 -0.291173 2.412706 0.104063 -0.025891 601800.000000 0 0 1
18.899082 -6.379600 -23.536280 30.851760 -0.325551 2.438557 0.086466 -0.013431 525038.000000 0 0 1
18.214082 -5.601000 -22.632980 29.586750 -0.298332 2.441791 0.064888 -0.017586 -227658.000000 0 0 1
18.657782 -5.757200 -21.146280 28.782344 -0.299299 2.396015 0.082587 -0.013424 -648615.000000 0 0 1
18.274482 -6.911100 -20.410380 28.254267 -0.361558 2.378038 0.087019 -0.010088 193985.000000 0 0 1
18.577582 -8.218300 -20.989380 29.209948 -0.416497 2.372540 0.096219 -0.010353 -126806.000000 0 0 1
18.201182 -9.363100 -20.049380 28.651847 -0.475119 2.345856 0.085613 -0.008467 -107797.000000 0 0 1
16.824882 -9.459000 -19.778080 27.635517 -0.512164 2.368388 0.075470 -0.010305 -374972.000000 0 0 1
16.551182 -10.512100 -18.944180 27.264039 -0.565848 2.338996 0.095225 -0.012624 348781.000000 0 0 1
15.085382 -10.771800 -18.444780 26.149767 -0.620097 2.353715 0.108710 -0.021248 606126.000000 0 0 1
14.597582 -10.137200 -17.274380 24.784197 -0.606987 2.341990 0.113775 -0.022654 76947.800000 0 1 0
14.660282 -8.723100 -17.281980 24.283393 -0.536747 2.362682 0.113032 -0.037708 -1463390.000000 0 1 0
13.475482 -7.920900 -16.820280 22.961949 -0.531401 2.392825 0.110936 -0.030524 -519802.000000 0 1 0
12.413082 -7.880800 -17.783280 23.074589 -0.565672 2.450715 0.095912 -0.023494 730932.000000 0 1 0
11.567882 -6.729900 -17.505480 22.035183 -0.526911 2.488870 0.081859 -0.020961 373448.000000 0 1 0
10.088582 -6.873700 -17.897380 21.664336 -0.598089 2.542986 0.079108 -0.016375 80587.400000 0 1 0
9.642282 -6.632000 -19.225880 22.507588 -0.602494 2.594798 0.071940 -0.021035 -416396.000000 0 1 0
8.254682 -6.465900 -19.289880 21.955571 -0.664475 2.643692 0.068512 -0.029833 -258983.000000 0 1 0
7.704982 -6.007900 -20.659380 22.853262 -0.662266 2.699834 0.075412 -0.041747 26982.900000 0 1 0
7.774482 -7.051400 -21.574780 23.992415 -0.736665 2.688810 0.076555 -0.034580 -20040.800000 0 1 0
7.248482 -6.688900 -22.808980 24.850180 -0.745270 2.733450 0.094615 -0.036947 -108522.000000 0 1 0
7.237782 -7.824100 -23.825580 26.100964 -0.824306 2.720943 0.082178 -0.032348 -136943.000000 0 0 1
6.297382 -8.823900 -23.521580 25.899478 -0.950952 2.709729 0.085827 -0.036270 -1040.960000 0 0 1
6.285082 -9.749500 -24.586480 27.185474 -0.998186 2.700762 0.077402 -0.023511 -514192.000000 0 0 1
5.370282 -10.923900 -24.455080 27.317073 -1.113884 2.679745 0.065307 -0.026311 -219966.000000 0 0 1
5.831482 -11.827600 -23.440080 26.894900 -1.112732 2.629138 0.058285 -0.034120 256571.000000 0 0 1
4.953582 -12.932100 -23.440380 27.225514 -1.204991 2.607972 0.056830 -0.040509 -449653.000000 0 0 1
5.481882 -14.120500 -22.638880 27.238914 -1.200485 2.551920 0.064551 -0.037914 427314.000000 0 0 1
6.505182 -14.945200 -23.252180 28.396132 -1.160260 2.530202 0.066791 -0.034187 1356680.000000 0 0 1
7.833282 -14.436200 -23.481980 28.656022 -1.073642 2.531235 0.059627 -0.027715 1196610.000000 0 0 1
8.698182 -14.071200 -22.223780 27.704755 -1.017134 2.501708 0.066931 -0.019685 31289.800000 0 0 1
9.164582 -15.178400 -21.423780 27.809203 -1.027594 2.450240 0.062899 -0.011823 312096.000000 0 0 1
8.153982 -15.526000 -20.490180 26.970198 -1.087206 2.433700 0.061145 -0.013605 148689.000000 0 0 1
8.616982 -15.831500 -19.028580 26.210220 -1.072345 2.383282 0.066287 -0.013150 1278960.000000 0 0 1
9.687682 -16.846600 -18.932380 27.131055 -1.048922 2.343135 0.086770 -0.014780 958785.000000 0 0 1
10.185682 -17.278300 -17.681380 26.737969 -1.038128 2.293325 0.090552 -0.012379 53979.400000 0 0 1
9.197982 -18.172600 -16.820480 26.415428 -1.102244 2.261095 0.055296 -0.016463 95787.600000 0 0 1
9.051082 -19.511600 -17.225480 27.556157 -1.136458 2.246062 0.062089 -0.016364 -11396.900000 0 0 1
8.377782 -19.671000 -18.461880 28.248478 -1.168168 2.283066 0.068657 -0.012528 237504.000000 0 0 1
6.840082 -19.441300 -18.609680 27.768166 -1.232490 2.305248 0.063791 -0.018358 349369.000000 0 0 1
6.376782 -18.123300 -18.335480 26.557620 -1.232470 2.332843 0.067048 -0.016401 183503.000000 0 0 1
4.957982 -17.990300 -18.284280 26.125608 -1.301880 2.345998 0.055896 -0.010243 619924.000000 0 0 1
4.604482 -16.527000 -18.038880 24.894662 -1.299083 2.381262 0.032343 0.004719 -87035.200000 0 1 0
4.976082 -16.220100 -16.712680 23.815262 -1.273127 2.348666 0.013414 0.016915 178392.000000 0 1 0
4.622282 -14.930600 -16.292880 22.577561 -1.270570 2.376965 0.002643 0.022109 -45826.100000 0 1 0
10.219082 29.495900 -17.941580 36.004695 1.237281 2.092447 0.054884 -0.015989 -439211.000000 0 0 1
9.373082 29.002700 -18.960880 35.896048 1.258212 2.127295 0.087551 -0.028189 -391777.000000 0 0 1
8.263582 28.487100 -18.250380 34.826398 1.288464 2.122382 0.078953 -0.021697 -295378.000000 0 0 1
7.217982 27.987100 -19.279780 34.743157 1.318393 2.159067 0.096625 -0.023697 -449362.000000 0 0 1
6.563282 29.052800 -19.882580 35.811435 1.348617 2.159402 0.109996 -0.034546 -537759.000000 0 0 1
5.854682 28.562000 -20.985880 35.923144 1.368615 2.194676 0.100261 -0.029215 -545833.000000 0 0 1
4.756682 29.445200 -21.531380 36.786494 1.410636 2.196055 0.087758 -0.033852 -673942.000000 0 0 1
3.687482 29.567400 -20.637080 36.245244 1.446723 2.176540 0.087667 -0.031568 -489125.000000 0 0 1
2.716882 30.443000 -21.123080 37.152957 1.481787 2.175531 0.082255 -0.037274 -1115250.000000 0 0 1
1.322282 30.411800 -20.485680 36.691812 1.527344 2.163153 0.092702 -0.036576 -146026.000000 0 0 1
0.718282 29.158800 -20.718280 35.777069 1.546168 2.188413 0.099241 -0.051170 111490.000000 0 0 1
0.280782 28.796500 -22.062680 36.277805 1.561046 2.224536 0.122147 -0.054416 -476784.000000 0 0 1
-0.495118 27.464800 -22.143780 35.283245 -1.552771 2.249264 0.123644 -0.058431 727484.000000 0 0 1
-1.821018 27.446000 -21.611880 34.981029 -1.504544 2.236760 0.137418 -0.060246 818042.000000 0 0 1
-2.436918 26.160900 -21.812880 34.148690 -1.477913 2.263684 0.144271 -0.063993 974510.000000 0 0 1
-3.643318 25.837900 -20.825580 33.385261 -1.430713 2.244386 0.121713 -0.066577 1172680.000000 0 0 1
-4.869418 26.511700 -21.120180 34.243882 -1.389150 2.235413 0.111584 -0.063924 1364680.000000 0 0 1
-5.954818 26.099900 -20.232380 33.556130 -1.346481 2.217979 0.094035 -0.060062 444678.000000 0 0 1
-7.242418 26.849400 -20.604080 34.610273 -1.307325 2.208456 0.085965 -0.067279 626437.000000 0 0 1
-8.442118 26.317900 -19.987880 34.108893 -1.260391 2.196912 0.078701 -0.050600 550587.000000 0 0 1
-8.773918 27.005700 -18.809480 34.060035 -1.256663 2.155851 0.078509 -0.061959 -85635.300000 0 0 1
-9.989718 26.517100 -17.971780 33.554969 -1.210512 2.136005 0.104160 -0.059747 -102386.000000 0 0 1
-9.783618 25.460500 -17.043980 32.162921 -1.203926 2.129310 0.112221 -0.062685 -374655.000000 0 0 1
-10.900518 24.914300 -16.358680 31.735628 -1.158369 2.112349 0.078975 -0.053796 -425182.000000 0 0 1
-10.611018 24.294100 -14.986980 30.453351 -1.158996 2.085330 0.072560 -0.038251 -230945.000000 0 0 1
-9.895318 23.098600 -15.077980 29.305428 -1.166054 2.111234 0.084565 -0.040558 -236763.000000 0 0 1
-9.801418 22.554800 -13.783580 28.191734 -1.160856 2.081651 0.089028 -0.037985 -97630.200000 0 0 1
-9.107318 21.184900 -13.847780 26.898034 -1.164785 2.111600 0.085375 -0.026834 -224282.000000 0 0 1
-9.794718 20.153200 -14.524280 26.702859 -1.118401 2.145901 0.091899 -0.018723 -355594.000000 0 0 1
-9.957818 20.280700 -15.928780 27.644004 -1.114375 2.184881 0.093557 -0.015479 307846.000000 0 0 1
-8.688818 20.145400 -16.832980 27.652883 -1.163597 2.225248 0.103652 -0.021872 222646.000000 0 0 1
-8.110818 18.864100 -16.812980 26.538951 -1.164732 2.256892 0.103402 -0.018476 157160.000000 0 0 1
-7.268018 18.743200 -17.974980 26.967231 -1.200879 2.300366 0.093921 -0.023756 167619.000000 0 0 1
-6.779518 17.334900 -18.341580 26.131862 -1.197994 2.348838 0.064095 -0.021387 324872.000000 0 0 1
-7.803018 16.367800 -18.639080 26.003986 -1.125938 2.369967 0.083375 -0.027661 -29392.500000 0 0 1
-7.722518 15.593100 -19.805380 26.363519 -1.110954 2.420738 0.083726 -0.033486 -324154.000000 0 0 1
-6.480718 14.686000 -19.880980 25.552528 -1.155213 2.462342 0.056604 -0.019518 -338515.000000 0 0 1
-6.442818 13.519100 -19.023480 24.210923 -1.126067 2.474687 0.041418 -0.018679 -7535.820000 0 1 0
-5.196418 12.843000 -18.974580 23.494257 -1.186321 2.510912 0.037986 -0.004643 -298414.000000 0 1 0
-4.375818 13.343100 -17.838480 22.702367 -1.253902 2.474711 0.014632 0.012117 -796345.000000 0 1 0
-3.840718 14.649300 -17.920980 23.463048 -1.314390 2.439970 0.017818 -0.003086 -381533.000000 0 1 0
-3.473718 15.127100 -16.624280 22.743407 -1.345074 2.390508 0.017524 0.007261 -156862.000000 0 1 0
-2.687918 16.435800 -16.661880 23.557985 -1.408691 2.356427 0.040189 -0.000406 -258112.000000 0 1 0
-3.342318 17.644200 -16.977180 24.712619 -1.383586 2.328127 0.036340 -0.008104 -96268.200000 0 1 0
-2.451818 18.747100 -16.876280 25.343125 -1.440751 2.299511 0.051541 -0.018655 116416.000000 0 0 1
-3.157218 20.040400 -17.292380 26.657308 -1.414538 2.276661 0.055556 -0.020193 96559.300000 0 0 1
-3.187818 19.979900 -18.726180 27.568613 -1.412579 2.317546 0.070812 -0.022162 -399546.000000 0 0 1
-3.910918 20.951800 -19.415580 28.831198 -1.386257 2.309625 0.107999 -0.031703 -44983.100000 0 0 1
-3.174118 22.276500 -19.775880 29.956684 -1.429262 2.291814 0.092985 -0.036424 -857349.000000 0 0 1
-2.302918 22.138600 -20.880880 30.519374 -1.467146 2.324281 0.109479 -0.037910 325430.000000 0 0 1
-1.200718 23.049300 -20.880980 31.124384 -1.518750 2.306202 0.117271 -0.042318 347974.000000 0 0 1
0.002682 22.534400 -20.078580 30.181925 1.570677 2.298627 0.122783 -0.042484 -715200.000000 0 0 1
-0.386318 22.369000 -18.756280 29.194511 -1.553528 2.268499 0.104902 -0.032156 -273817.000000 0 0 1
0.635582 21.642200 -18.083580 28.210010 1.541437 2.266641 0.107182 -0.026950 227356.000000 0 0 1
0.594482 21.681500 -16.544580 27.279369 1.543384 2.222431 0.100285 -0.021802 -236121.000000 0 0 1
-0.401318 20.943000 -15.889580 26.291616 -1.551636 2.219758 0.076423 -0.012615 -401032.000000 0 0 1
-0.332118 21.266500 -14.521380 25.753540 -1.555181 2.169848 0.085027 -0.012941 158516.000000 0 0 1
-1.265818 20.391100 -13.650780 24.571183 -1.508799 2.159833 0.057951 -0.006445 -210799.000000 0 1 0
-1.034818 18.999100 -13.643780 23.413445 -1.516383 2.192884 0.048410 -0.005097 377277.000000 0 1 0
-2.034918 18.219500 -12.968080 22.455783 -1.459568 2.186452 0.041664 0.001496 225296.000000 0 1 0
-1.637918 16.775400 -13.054180 21.319204 -1.473467 2.229788 0.023442 0.010497 1245390.000000 0 1 0
-0.480318 16.456000 -12.183980 20.481211 -1.541617 2.207920 0.016680 0.004368 1528720.000000 0 1 0
-0.247018 15.049100 -12.031080 19.268713 -1.554384 2.245139 0.012448 0.004396 13772.600000 0 1 0
0.498482 14.278300 -13.121980 19.398575 1.535899 2.313715 0.021000 0.002165 -158565.000000 0 1 0
-0.274518 14.022400 -14.276880 20.013305 -1.551222 2.365091 0.021732 -0.008354 64629.000000 0 1 0
0.245782 12.935700 -15.056280 19.851557 1.551798 2.431718 0.024858 -0.014101 -281951.000000 0 1 0
-0.412218 12.716700 -16.433380 20.783175 -1.538392 2.482758 0.021124 -0.009389 -113059.000000 0 1 0
-0.275318 13.777300 -17.395180 22.191938 -1.550816 2.471640 0.024945 -0.014328 284.117000 0 1 0
-0.439218 13.270700 -18.710580 22.943195 -1.537712 2.524419 0.036206 -0.021093 -305913.000000 0 1 0
-1.011518 14.434400 -19.572980 24.340843 -1.500834 2.504992 0.039684 -0.009679 835.174000 0 1 0
-0.149918 15.550600 -19.794780 25.172941 -1.561156 2.475677 0.039897 -0.022712 599215.000000 0 0 1
-0.932518 16.781200 -19.807280 25.977040 -1.515284 2.437952 0.071524 -0.033983 885866.000000 0 0 1
-0.046418 18.030100 -20.158180 27.045127 -1.568222 2.411861 0.096580 -0.042278 694540.000000 0 0 1
0.551082 18.056600 -21.464280 28.054586 1.540286 2.441977 0.108018 -0.048818 373794.000000 0 0 1
1.537282 19.070500 -21.567880 28.830898 1.490360 2.415964 0.111973 -0.049966 292202.000000 0 0 1
2.183682 19.151200 -22.965780 29.982728 1.457263 2.443340 0.123522 -0.054890 75213.300000 0 0 1
3.182982 18.201500 -23.295280 29.733753 1.397672 2.471014 0.118257 -0.049508 -62195.800000 0 0 1
3.589082 18.278300 -24.622080 30.874335 1.376906 2.493926 0.120529 -0.058791 318315.000000 0 0 1
4.704882 17.270700 -25.006380 30.752757 1.304830 2.520328 0.095247 -0.042209 -54661.900000 0 0 1
5.979882 17.555300 -24.446780 30.685381 1.242492 2.492597 0.086371 -0.031015 515406.000000 0 0 1
6.970382 16.569800 -24.784680 30.617395 1.172601 2.514091 0.087299 -0.024810 394090.000000 0 0 1
7.495182 16.549800 -26.239780 31.915509 1.145545 2.535998 0.086484 -0.041618 -541859.000000 0 0 1
8.661382 17.419900 -26.303270 32.715967 1.109382 2.504769 0.067803 -0.033330 1176680.000000 0 0 1
9.358482 17.421800 -27.574620 33.933169 1.077856 2.519422 0.087355 -0.039439 389563.000000 0 0 1
9.900882 16.119600 -28.145950 33.912586 1.019991 2.549825 0.069476 -0.038626 -430633.000000 0 0 1
10.953882 15.339500 -27.585220 33.410061 0.950672 2.542160 0.080256 -0.035351 364309.000000 0 0 1
11.111082 14.023400 -28.069080 33.286411 0.900753 2.574115 0.065685 -0.031700 -29618.800000 0 0 1
10.427782 12.936700 -27.180590 31.857202 0.892370 2.592888 0.062845 -0.030889 -532804.000000 0 0 1
9.054582 13.106300 -27.103200 31.437939 0.966233 2.610230 0.085860 -0.031275 -874538.000000 0 0 1
8.412882 12.209300 -26.199660 30.104249 0.967454 2.626603 0.093308 -0.029740 687552.000000 0 0 1
6.861882 12.273300 -26.157000 29.696935 1.061001 2.648341 0.089129 -0.029368 104462.000000 0 0 1
6.292582 13.376000 -25.400820 29.389039 1.131077 2.614545 0.112637 -0.020118 825266.000000 0 0 1
4.872782 13.127400 -25.311130 28.926216 1.215369 2.636282 0.117725 -0.032780 1486210.000000 0 0 1
4.081582 13.835100 -26.537310 30.204273 1.283918 2.643708 0.144896 -0.024378 -170328.000000 0 0 1
4.262982 13.283500 -27.843470 31.142948 1.260256 2.677111 0.148940 -0.038543 -163157.000000 0 0 1
3.811682 14.155300 -28.829880 32.342904 1.307759 2.671181 0.146478 -0.054978 -137202.000000 0 0 1
3.866082 13.485300 -30.227830 33.324490 1.291596 2.707081 0.176534 -0.054001 -225088.000000 0 0 1
5.154382 13.080400 -30.612070 33.686249 1.195426 2.711053 0.160552 -0.048768 -345485.000000 0 0 1
5.138082 12.877100 -31.985750 34.861265 1.191144 2.732584 0.153723 -0.050957 -140607.000000 0 0 1
6.388282 12.112700 -32.487160 35.255400 1.085467 2.742671 0.156640 -0.041928 1346530.000000 0 0 1
7.739282 12.566600 -32.226890 35.445569 1.018796 2.712140 0.159570 -0.035943 1436100.000000 0 0 1
8.152282 12.747300 -30.832590 34.345334 1.001817 2.685369 0.139737 -0.037988 -701810.000000 0 0 1
8.210982 11.459300 -30.015780 33.161466 0.949059 2.702506 0.130883 -0.030815 40131.000000 0 0 1
9.242782 10.543900 -30.377590 33.457448 0.851061 2.709155 0.093365 -0.029522 103213.000000 0 0 1
9.039282 9.330400 -29.693800 32.411213 0.801245 2.729184 0.086689 -0.034399 206130.000000 0 0 1
10.059082 8.217500 -30.085280 32.769445 0.684975 2.734029 0.070930 -0.034405 -135621.000000 0 0 1
11.348082 8.515100 -29.622790 32.845024 0.643729 2.694935 0.065347 -0.033617 -313251.000000 0 0 1
12.128682 7.309000 -29.555150 32.772447 0.542345 2.694781 0.041434 -0.027770 -1030220.000000 0 0 1
13.447982 7.570300 -28.837750 32.707392 0.512718 2.650226 0.033402 -0.024552 -313985.000000 0 0 1
14.113582 6.340400 -28.428660 32.366380 0.422223 2.643173 0.036421 -0.028583 696464.000000 0 0 1
14.877482 5.800200 -29.532740 33.573271 0.371738 2.645923 0.039200 -0.024211 -765107.000000 0 0 1
15.620682 4.513700 -29.148170 33.376564 0.281295 2.632757 0.050721 -0.032074 87222.400000 0 0 1
16.534582 4.776900 -28.081190 32.935762 0.281246 2.591746 0.032007 -0.023000 328050.000000 0 0 1
17.416882 3.691600 -27.936170 33.127108 0.208864 2.574195 0.045125 -0.023984 -34349.700000 0 0 1
18.029382 3.608000 -26.489250 32.245258 0.197509 2.534821 0.039462 -0.020781 320756.000000 0 0 1
19.047682 4.576700 -26.243580 32.748830 0.235806 2.500361 0.069936 -0.021411 342997.000000 0 0 1
19.556082 4.613600 -24.917280 32.009319 0.231680 2.462970 0.076763 -0.015986 -169549.000000 0 0 1
20.605482 5.711500 -24.848080 32.781614 0.270395 2.431020 0.072438 -0.010297 -397533.000000 0 0 1
19.973682 6.958100 -25.096370 32.820587 0.335216 2.441300 0.071952 -0.010005 343519.000000 0 0 1
20.856582 8.018700 -25.407080 33.835134 0.367046 2.420233 0.071711 -0.025222 -495981.000000 0 0 1
21.264882 8.150400 -26.928970 35.267459 0.366010 2.439611 0.120646 -0.017594 50094.900000 0 0 1
20.265782 8.389400 -27.910740 35.497794 0.392490 2.475540 0.092685 -0.016747 -129706.000000 0 0 1
19.430282 7.281500 -28.182020 34.996891 0.358552 2.506931 0.079675 -0.015918 -550829.000000 0 0 1
18.099082 7.827500 -28.718370 34.836637 0.408190 2.539889 0.065424 -0.012660 -631165.000000 0 0 1
17.928582 8.248900 -30.033740 35.937501 0.431219 2.560242 0.050097 -0.009496 165476.000000 0 0 1
16.746182 9.025300 -30.121750 35.625980 0.494317 2.578296 0.028308 -0.002432 -132448.000000 0 0 1
16.109782 8.975100 -31.524730 36.522406 0.508294 2.612294 0.018757 -0.004631 -327339.000000 0 0 1
15.549482 7.749500 -31.819550 36.253619 0.462348 2.641823 0.032182 -0.010887 559521.000000 0 0 1
14.534582 7.843200 -32.833120 36.753009 0.494842 2.675531 0.024294 -0.003739 548060.000000 0 0 1
13.939682 6.505400 -33.301640 36.682887 0.436640 2.708864 0.036183 -0.011321 -143905.000000 0 0 1
13.202682 5.793900 -32.329870 35.399161 0.413537 2.722098 0.043004 -0.016150 22450.100000 0 0 1
12.514682 4.769400 -32.989320 35.604209 0.364112 2.755950 0.041614 -0.021366 -159048.000000 0 0 1
12.114882 3.605900 -31.976480 34.384127 0.289292 2.765149 0.043485 -0.022927 -240709.000000 0 0 1
13.176082 2.871100 -31.397550 34.171019 0.214549 2.735916 0.061083 -0.031846 -61627.200000 0 0 1
12.811182 1.939600 -30.396300 33.042753 0.150258 2.738643 0.059817 -0.029210 -135176.000000 0 0 1
12.050282 0.636400 -30.794690 33.074571 0.052763 2.768127 0.059457 -0.021681 -80713.100000 0 0 1
12.803082 -0.350600 -31.427320 33.936975 -0.027377 2.754603 0.063320 -0.028868 31198.600000 0 0 1
13.699582 -1.064800 -30.579050 33.524478 -0.077569 2.719274 0.064731 -0.033471 254773.000000 0 0 1
14.347182 -2.338200 -31.134500 34.360819 -0.161552 2.704780 0.070447 -0.037522 596993.000000 0 0 1
13.410082 -3.399300 -31.447500 34.355943 -0.248259 2.727157 0.076539 -0.036586 910987.000000 0 0 1
14.117882 -4.531100 -32.045930 35.309873 -0.310562 2.708240 0.091993 -0.040193 321962.000000 0 0 1
13.232982 -5.792700 -32.162210 35.257268 -0.412618 2.719455 0.087050 -0.033656 61453.400000 0 0 1
13.029082 -6.501800 -30.963630 34.216616 -0.462865 2.702011 0.083503 -0.032646 -27289.600000 0 0 1
12.468082 -7.760600 -31.186410 34.471324 -0.556754 2.701485 0.085895 -0.038038 -259524.000000 0 0 1
12.656582 -8.638200 -29.925810 33.620852 -0.598889 2.668354 0.064172 -0.031610 1298650.000000 0 0 1
14.027882 -8.622000 -29.414450 33.709498 -0.551110 2.631269 0.049591 -0.021688 1392300.000000 0 0 1
14.180382 -9.257600 -28.155740 32.856234 -0.578373 2.600095 0.054401 -0.016612 31320.700000 0 0 1
14.381582 -10.758300 -28.057040 33.313187 -0.642259 2.572185 0.053504 -0.020058 1249860.000000 0 0 1
13.150482 -11.453800 -28.424470 33.347792 -0.716548 2.591286 0.044262 -0.023554 1291410.000000 0 0 1
13.433782 -12.839100 -28.477200 34.003822 -0.762767 2.563434 0.046938 -0.028459 243499.000000 0 0 1
-9.662618 -3.254400 -17.713180 20.438054 0.324870 2.619297 0.011032 -0.008254 -305303.000000 0 1 0
-10.443518 -2.785600 -18.770680 21.660219 0.260662 2.619138 0.023638 -0.015077 -222607.000000 0 1 0
-11.478518 -3.658500 -19.139980 22.615920 0.308547 2.579808 0.034328 -0.016325 147687.000000 0 1 0
-12.434318 -2.970900 -20.205680 23.910417 0.234531 2.577469 0.063216 -0.035473 -155703.000000 0 1 0
-13.420418 -2.188000 -19.607780 23.861266 0.161613 2.535256 0.073801 -0.031452 -311905.000000 0 1 0
-14.345018 -1.830400 -20.631280 25.194834 0.126913 2.530235 0.071550 -0.019982 314596.000000 0 0 1
-15.224118 -0.631300 -20.225680 25.322924 0.041443 2.495945 0.083581 -0.019019 90317.900000 0 0 1
-14.641018 0.555300 -20.702780 25.362825 -0.037910 2.525712 0.087102 -0.025752 227365.000000 0 0 1
-15.464318 1.639800 -20.296480 25.569145 -0.105643 2.487808 0.093269 -0.022978 96133.000000 0 0 1
-15.223118 2.994500 -21.001080 26.110453 -0.194228 2.505321 0.114814 -0.028745 643078.000000 0 0 1
-13.913418 3.521800 -20.760280 25.238374 -0.247915 2.536709 0.109678 -0.029142 681229.000000 0 0 1
-13.769118 4.753800 -21.351380 25.847024 -0.332438 2.542890 0.122279 -0.034613 -656859.000000 0 0 1
-12.507518 5.486100 -20.977280 25.031612 -0.413354 2.564462 0.095809 -0.030875 -791401.000000 0 0 1
-12.567218 5.969600 -19.619780 24.052170 -0.443459 2.524765 0.098272 -0.033835 269843.000000 0 1 0
-11.293518 6.422800 -19.230280 23.207749 -0.517099 2.547425 0.069204 -0.023457 -161598.000000 0 1 0
-11.361818 6.976700 -17.783180 22.226263 -0.550685 2.498254 0.074732 -0.024513 146883.000000 0 1 0
-11.821818 8.355200 -17.744580 22.900543 -0.615249 2.457281 0.070965 -0.030039 -456764.000000 0 1 0
-13.078218 8.368300 -17.154980 23.137882 -0.569218 2.405986 0.105941 -0.021589 -816187.000000 0 1 0
-13.725618 9.754600 -17.108180 24.004888 -0.617862 2.364130 0.114249 -0.027091 -16458.600000 0 1 0
-13.052418 10.701900 -16.251780 23.431104 -0.686768 2.337269 0.082831 -0.013721 994132.000000 0 1 0
-13.757518 11.976500 -16.367880 24.507415 -0.716300 2.302146 0.096244 -0.026492 589087.000000 0 1 0
-12.975618 13.093500 -15.596280 24.146436 -0.789920 2.273003 0.095951 -0.018079 63984.300000 0 1 0
-13.013318 12.990100 -14.193480 23.228087 -0.784505 2.228180 0.109433 -0.017615 72576.600000 0 1 0
-12.387518 14.053600 -13.510580 23.097404 -0.848326 2.195602 0.100385 -0.023640 -556467.000000 0 1 0
-12.914118 14.222900 -12.069880 22.688044 -0.833589 2.131749 0.072800 -0.021706 1245130.000000 0 1 0
-14.250418 14.741200 -11.888580 23.700543 -0.802325 2.096263 0.068163 -0.019644 2274260.000000 0 1 0
-15.360118 13.821700 -12.199480 23.995832 -0.732729 2.104122 0.073401 -0.016875 730772.000000 0 1 0
-16.773918 14.398000 -12.108780 25.204946 -0.709325 2.071922 0.054691 -0.003408 628280.000000 0 0 1
-17.898418 13.552300 -12.431980 25.662664 -0.648080 2.076517 0.056849 -0.007757 397053.000000 0 0 1
-19.073518 14.241100 -12.110180 26.707012 -0.641349 2.041424 0.114518 -0.013775 115214.000000 0 0 1
-20.368118 13.576400 -12.709080 27.580783 -0.587923 2.049687 0.101673 -0.021084 396851.000000 0 0 1
-20.677218 12.289900 -12.243680 26.990678 -0.536269 2.041626 0.109325 -0.024102 468912.000000 0 0 1
-21.898318 11.816700 -12.787780 27.976742 -0.494837 2.045513 0.141042 -0.026914 81771.400000 0 0 1
-22.482718 10.557200 -12.134080 27.643498 -0.439008 2.025225 0.133395 -0.027316 -293055.000000 0 0 1
-21.732118 9.395800 -12.323280 26.691371 -0.408076 2.050702 0.126255 -0.024246 -138626.000000 0 0 1
-22.140018 8.409700 -11.469880 26.314665 -0.363009 2.021806 0.118209 -0.020296 -100118.000000 0 0 1
-21.237418 7.140300 -11.377980 25.129072 -0.324340 2.040679 0.119813 -0.024833 -21475.700000 0 0 1
-21.268618 6.309700 -12.507480 25.467695 -0.288396 2.084162 0.133142 -0.027446 87344.800000 0 0 1
-20.093018 5.551800 -12.490880 24.301727 -0.269579 2.110628 0.128832 -0.032080 -281441.000000 0 1 0
-19.983518 4.376800 -13.499380 24.509807 -0.215616 2.154088 0.127032 -0.045623 -263711.000000 0 1 0
-20.774018 3.251700 -13.167180 24.809434 -0.155267 2.130261 0.125534 -0.044046 312025.000000 0 1 0
-20.553318 2.135700 -14.058580 24.992875 -0.103539 2.168207 0.124124 -0.048582 -221303.000000 0 1 0
-21.553518 0.974300 -13.867880 25.648031 -0.045173 2.142065 0.125821 -0.037090 -46886.400000 0 0 1
-22.808918 1.108900 -14.489680 27.044912 -0.048579 2.136208 0.108462 -0.034678 5492.680000 0 0 1
-23.463518 -0.131300 -14.410880 27.535929 0.005596 2.121572 0.113536 -0.041803 74770.700000 0 0 1
-24.842718 -0.173700 -15.116680 29.081005 0.006992 2.117428 0.122441 -0.042754 528187.000000 0 0 1
-25.942748 0.519500 -14.529580 29.738944 -0.020022 2.081247 0.139633 -0.049836 264771.000000 0 0 1
-27.142608 0.007900 -15.049980 31.035837 -0.000291 2.077071 0.116013 -0.034955 119060.000000 0 0 1
-28.426338 0.379800 -14.263980 31.806636 -0.013360 2.035837 0.121619 -0.035215 203880.000000 0 0 1
-28.603378 -0.375800 -13.078780 31.453918 0.013138 1.999627 0.130801 -0.028746 -345656.000000 0 0 1
-29.851538 -0.078100 -12.531780 32.375391 0.002616 1.968256 0.167838 -0.034272 -236884.000000 0 0 1
-30.085728 -0.837500 -11.201380 32.114224 0.027830 1.927085 0.160395 -0.035707 -231897.000000 0 0 1
-30.488488 -2.179900 -11.167080 32.542335 0.071378 1.921071 0.164151 -0.023516 1141920.000000 0 0 1
-29.483358 -3.125900 -11.643380 31.852912 0.105628 1.945005 0.167689 -0.028251 560479.000000 0 0 1
-29.807448 -4.530200 -11.117980 32.134346 0.150828 1.924084 0.173028 -0.029596 228020.000000 0 0 1
-30.888248 -5.169600 -11.803480 33.468355 0.165828 1.931225 0.177128 -0.028684 451037.000000 0 0 1
-31.275208 -6.419800 -11.240580 33.848237 0.202456 1.909312 0.173940 -0.027069 -335603.000000 0 0 1
-30.505678 -7.644600 -11.664180 33.542353 0.245540 1.925961 0.165939 -0.033192 285911.000000 0 0 1
-29.175118 -7.655000 -11.133080 32.151703 0.256597 1.924386 0.147765 -0.027826 355644.000000 0 0 1
-28.379888 -8.718600 -11.647980 31.892123 0.298059 1.944677 0.145588 -0.027172 743239.000000 0 0 1
-26.898168 -8.416000 -11.210880 30.331903 0.303234 1.949382 0.147397 -0.041536 -306742.000000 0 0 1
-26.390858 -7.238800 -11.853780 29.822638 0.267708 1.979561 0.115814 -0.025548 601744.000000 0 0 1
-25.012318 -7.024900 -11.581680 28.444694 0.273804 1.990144 0.121538 -0.038290 174426.000000 0 0 1
-24.512218 -6.836400 -10.116880 27.384968 0.271986 1.949194 0.117719 -0.035695 -920312.000000 0 0 1
-24.852018 -5.627900 -9.440680 27.173931 0.222700 1.925611 0.109698 -0.022940 362655.000000 0 0 1
-26.194868 -5.413300 -9.077280 28.246627 0.203786 1.897960 0.122825 -0.023821 -409262.000000 0 0 1
-26.460248 -4.101600 -8.381380 28.057359 0.153786 1.874151 0.129952 -0.033559 -367138.000000 0 0 1
-25.980448 -4.130800 -7.097380 27.247385 0.157677 1.834315 0.120584 -0.026882 337433.000000 0 0 1
-26.303818 -2.916400 -6.397680 27.227313 0.110423 1.807987 0.151784 -0.035669 -1647.970000 0 0 1
-25.950938 -3.046700 -4.889280 26.582676 0.116867 1.755777 0.145869 -0.026701 -1095320.000000 0 0 1
-24.588618 -3.073400 -4.672480 25.216622 0.124348 1.757167 0.113056 -0.024004 -849897.000000 0 0 1
-24.382118 -3.222200 -3.276480 24.811400 0.131393 1.703239 0.086510 -0.017121 -394033.000000 0 1 0
-22.922818 -3.274200 -2.813080 23.325724 0.141876 1.691691 0.069532 -0.011330 -209677.000000 0 1 0
-22.395818 -4.578100 -3.122680 23.071255 0.201640 1.706562 0.068331 -0.008903 1243240.000000 0 1 0
-21.058318 -4.854800 -2.661280 21.773936 0.226582 1.693326 0.053189 -0.009298 577827.000000 0 1 0
-20.790118 -6.428000 -2.780780 21.938116 0.299862 1.697894 0.060706 -0.010021 -421852.000000 0 1 0
-21.355918 -7.101500 -1.695780 22.569498 0.321028 1.646003 0.067875 -0.008786 532001.000000 0 1 0
-22.028618 -8.307700 -2.049380 23.632136 0.360639 1.657625 0.082146 -0.014114 133653.000000 0 1 0
-22.574018 -8.959200 -0.800380 24.300086 0.377815 1.603740 0.113432 -0.018975 -803588.000000 0 1 0
-21.515618 -9.588200 -0.212280 23.556326 0.419221 1.579808 0.089026 -0.014008 -364018.000000 0 1 0
-21.900118 -10.214000 0.948020 24.183460 0.436400 1.531585 0.072877 -0.011963 -402086.000000 0 1 0
-20.796218 -10.956100 1.687320 23.566202 0.484882 1.499136 0.083189 -0.014635 -411116.000000 0 1 0
-20.260918 -12.115600 1.066920 23.631143 0.538932 1.525632 0.084915 -0.017928 184408.000000 0 1 0
-19.392918 -12.737200 1.981220 23.286193 0.581138 1.485612 0.067186 -0.019910 -476381.000000 0 1 0
-18.590918 -13.828900 1.310420 23.207282 0.639555 1.514300 0.054127 -0.012741 -651942.000000 0 1 0
-19.448818 -14.870100 0.908620 24.499020 0.652765 1.533700 0.079319 -0.012838 453210.000000 0 1 0
-18.776318 -15.954400 0.308020 24.641183 0.704325 1.558296 0.073032 -0.024075 -180517.000000 0 1 0
-17.646418 -16.650700 1.080420 24.285988 0.756374 1.526294 0.076039 -0.018526 552879.000000 0 1 0
-16.368218 -15.983700 1.121120 22.905330 0.773513 1.521831 0.067916 -0.011700 1272350.000000 0 1 0
-15.374118 -16.630000 1.938320 22.730541 0.824619 1.485419 0.069391 -0.013842 621760.000000 0 1 0
-15.497218 -16.431500 3.511320 22.857982 0.814651 1.416571 0.089065 -0.022452 -377778.000000 0 1 0
-15.340318 -15.053400 3.908520 21.845062 0.775958 1.390908 0.075014 -0.020314 103551.000000 0 1 0
-14.464918 -14.821100 5.003320 21.305682 0.797560 1.333748 0.066004 -0.020558 -220793.000000 0 1 0
-14.851018 -15.280600 6.411920 22.252240 0.799654 1.278505 0.086117 -0.014408 -560106.000000 0 1 0
-15.856418 -14.428300 6.932520 22.531349 0.738277 1.258039 0.079634 -0.010704 233942.000000 0 1 0
-16.241018 -14.719500 8.259620 23.423400 0.736294 1.210424 0.090312 -0.007940 78032.800000 0 1 0
-17.090218 -16.008100 8.650920 24.963438 0.752716 1.216912 0.062157 0.001376 -13186.700000 0 1 0
-16.422518 -17.264400 8.623220 25.340058 0.810384 1.223560 0.064727 -0.002843 -411662.000000 0 0 1
-17.169418 -18.366900 9.015320 26.709697 0.819083 1.226505 0.060650 -0.012148 -283629.000000 0 0 1
-16.817218 -18.756800 10.497420 27.291614 0.839867 1.175980 0.070484 -0.010257 -144261.000000 0 0 1
-15.536118 -19.317000 10.629620 26.972324 0.893456 1.165715 0.067916 -0.015889 -253145.000000 0 0 1
-15.286618 -19.874700 11.887820 27.748958 0.915152 1.128068 0.069850 -0.025089 22049.900000 0 0 1
-13.832418 -20.373600 12.036820 27.409933 0.974346 1.116154 0.063731 -0.023874 487258.000000 0 0 1
-12.830118 -19.345000 11.976720 26.120543 0.985179 1.094470 0.068864 -0.028671 283640.000000 0 0 1
-11.596918 -19.981500 12.275920 26.161939 1.044926 1.082380 0.064214 -0.028717 183695.000000 0 0 1
-10.333018 -19.156900 12.518820 25.109340 1.076136 1.048845 0.077108 -0.033917 105301.000000 0 0 1
-9.797518 -18.523700 11.363320 23.837866 1.084283 1.073909 0.067677 -0.034289 -133079.000000 0 1 0
-8.679018 -17.754800 11.756020 22.994832 1.116127 1.034162 0.061561 -0.030835 1959.600000 0 1 0
-7.730418 -17.306600 10.652420 21.742857 1.150711 1.058790 0.040298 -0.026944 32258.800000 0 1 0
-6.749618 -18.265200 10.256720 22.008525 1.216826 1.085993 0.034332 -0.020366 -124150.000000 0 1 0
-6.110118 -17.621000 9.158320 20.777584 1.237018 1.114330 0.034257 -0.011479 415775.000000 0 1 0
-4.916018 -18.463000 8.553320 20.933439 1.310571 1.149881 0.027035 -0.007414 804456.000000 0 1 0
-3.731618 -18.376500 9.332520 20.945564 1.370456 1.108996 0.034914 -0.010413 50930.700000 0 1 0
-2.658618 -18.862700 8.553720 20.881471 1.430773 1.148746 0.044775 -0.014419 -601791.000000 0 1 0
-1.331218 -19.126600 9.186020 21.259867 1.501308 1.123995 0.042734 -0.016970 -731468.000000 0 1 0
-0.360318 -19.673700 8.351220 21.375855 1.552484 1.169421 0.051065 -0.011690 368248.000000 0 1 0
0.930682 -19.819500 8.966620 21.773356 -1.523873 1.146350 0.061097 -0.021459 775382.000000 0 1 0
2.073582 -20.220100 8.001520 21.844370 -1.468603 1.195770 0.062876 -0.033618 161828.000000 0 1 0
2.114482 -21.553300 7.480520 22.912310 -1.473004 1.238214 0.067733 -0.029164 -137894.000000 0 1 0
2.422882 -22.513600 8.488520 24.182380 -1.463590 1.212135 0.077216 -0.031556 -127459.000000 0 1 0
2.181082 -23.955200 8.077720 25.374363 -1.479998 1.246817 0.074598 -0.029604 -477194.000000 0 0 1
2.110282 -24.841900 9.166720 26.563171 -1.486051 1.218460 0.078796 -0.026504 -131873.000000 0 0 1
1.607182 -26.108670 8.795920 27.597353 -1.509317 1.246414 0.078167 -0.025560 -894345.000000 0 0 1
1.645282 -27.212030 9.915720 29.009016 -1.510408 1.221949 0.097583 -0.025673 547817.000000 0 0 1
0.776782 -27.154710 11.072820 29.335797 -1.542198 1.183754 0.088585 -0.028245 388197.000000 0 0 1
-0.609018 -27.161880 10.760320 29.221963 1.548378 1.193695 0.072111 -0.015006 -8031.900000 0 0 1
-1.434518 -27.039430 12.042520 29.634623 1.517793 1.152322 0.067963 -0.016919 -51737.700000 0 0 1
-1.256118 -28.208350 12.827020 31.013244 1.526296 1.144394 0.074390 -0.017775 -175473.000000 0 0 1
-1.391018 -28.048290 14.222620 31.478952 1.521243 1.101999 0.068343 -0.021429 -21158.600000 0 0 1
-0.948418 -29.304240 14.994120 32.931165 1.538443 1.098068 0.067400 -0.015333 164751.000000 0 0 1
-1.065818 -29.122790 16.427120 33.453298 1.534215 1.057506 0.074286 -0.013182 126141.000000 0 0 1
-0.518818 -30.192760 17.189720 34.747063 1.553614 1.053295 0.071733 -0.012847 139639.000000 0 0 1
-0.942518 -29.929800 18.684020 35.295522 1.539316 1.012951 0.072757 -0.012415 727946.000000 0 0 1
-2.355218 -30.033990 18.858920 35.542179 1.492538 1.011480 0.060180 -0.007856 455497.000000 0 0 1
-2.701818 -29.646690 20.183220 35.966490 1.479913 0.975001 0.080903 -0.016513 -444112.000000 0 0 1
-4.189518 -29.797230 20.463820 36.389489 1.431111 0.973565 0.094648 -0.021304 -925651.000000 0 0 1
-5.059218 -28.854080 19.942320 35.437970 1.397223 0.973101 0.088708 -0.025585 165780.000000 0 0 1
-6.325918 -28.779390 20.600320 35.953355 1.354430 0.960667 0.088122 -0.032013 637843.000000 0 0 1
-6.388818 -27.777890 21.783320 35.873963 1.344731 0.918242 0.115468 -0.034896 -396773.000000 0 0 1
-5.736518 -28.254570 22.949020 36.849503 1.370489 0.898509 0.105525 -0.032537 49478.200000 0 0 1
-5.796218 -27.334540 24.001620 36.835458 1.361844 0.861118 0.120707 -0.033893 358009.000000 0 0 1
-4.645918 -27.528290 25.070220 37.522090 1.403603 0.839083 0.119382 -0.030715 488685.000000 0 0 1
-4.689918 -28.716340 25.846420 38.918645 1.408907 0.844488 0.119794 -0.032632 60762.300000 0 0 1
-4.159318 -29.892620 25.264820 39.359621 1.432542 0.873827 0.120650 -0.035595 -131530.000000 0 0 1
-4.234018 -31.109920 26.230620 40.912094 1.435529 0.874806 0.107897 -0.019899 -7386.570000 0 0 1
-3.461418 -30.988310 27.392820 41.504498 1.459557 0.849982 0.110924 -0.024525 26403.000000 0 0 1
-3.683118 -32.079760 28.278020 42.922288 1.456486 0.851548 0.101304 -0.037093 -171236.000000 0 0 1
-2.960918 -31.838710 29.623120 43.588986 1.478066 0.823578 0.126367 -0.030943 -213181.000000 0 0 1
-1.571518 -32.011900 29.473320 43.542026 1.521744 0.827262 0.128307 -0.030792 -84794.900000 0 0 1
-1.007018 -31.736510 30.765120 44.212134 1.539076 0.801190 0.123219 -0.028563 -282933.000000 0 0 1
-28.820798 3.206100 -10.346780 30.789176 -0.110787 1.913519 0.160410 -0.030655 741701.000000 0 0 1
-29.841748 3.031200 -11.357580 32.073552 -0.101229 1.932759 0.145958 -0.048047 848684.000000 0 0 1
-30.448178 4.293900 -11.780080 32.928702 -0.140099 1.936648 0.132657 -0.036588 -116106.000000 0 0 1
-31.458858 4.101800 -12.906280 34.249914 -0.129655 1.957164 0.134406 -0.031072 -587398.000000 0 0 1
-32.437098 3.157900 -12.623780 34.949929 -0.097049 1.940347 0.142417 -0.035708 -711187.000000 0 0 1
-33.220588 2.944200 -13.740380 36.070401 -0.088395 1.961601 0.137429 -0.031031 -895704.000000 0 0 1
-34.332158 1.940400 -13.465380 36.929375 -0.056458 1.944027 0.148045 -0.033587 -388651.000000 0 0 1
-33.842788 0.637200 -13.117980 36.301815 -0.018826 1.940521 0.157852 -0.029812 631667.000000 0 0 1
-34.796832 -0.038100 -12.270580 36.896994 0.001095 1.909816 0.164477 -0.028708 576649.000000 0 0 1
-34.386777 -1.473500 -11.970580 36.440588 0.042825 1.905507 0.149736 -0.028453 -2736.640000 0 0 1
-34.642589 -2.430800 -12.988280 37.077125 0.070053 1.928692 0.156583 -0.024339 28554.500000 0 0 1
-34.592103 -3.730000 -12.498080 36.969292 0.107413 1.915658 0.163532 -0.027301 93473.700000 0 0 1
-34.972604 -4.787600 -13.565980 37.815870 0.136050 1.937712 0.145759 -0.031042 109090.000000 0 0 1
-34.888641 -6.094700 -13.030980 37.738165 0.172945 1.923355 0.145655 -0.037522 190704.000000 0 0 1
-35.393446 -7.099400 -13.904080 38.683601 0.197958 1.938454 0.146029 -0.036057 -960356.000000 0 0 1
-35.210044 -8.527300 -13.279980 38.585230 0.237609 1.922154 0.161771 -0.039270 -792283.000000 0 0 1
-33.920138 -8.965500 -12.985180 37.410839 0.258403 1.925270 0.145173 -0.042309 -629284.000000 0 0 1
-33.143518 -9.088900 -14.134180 37.160140 0.267649 1.960980 0.120766 -0.040958 -227867.000000 0 0 1
-31.887318 -10.053000 -13.827180 36.180862 0.305403 1.962938 0.103277 -0.040896 597463.000000 0 0 1
-32.047328 -11.406800 -13.509880 36.601410 0.341953 1.948846 0.100577 -0.034189 -278309.000000 0 0 1
-30.850648 -12.101400 -13.217280 35.677765 0.373814 1.950303 0.126846 -0.033768 -104528.000000 0 0 1
-30.851048 -13.597200 -13.592580 36.351469 0.415124 1.954030 0.124079 -0.022313 -129835.000000 0 0 1
-30.879108 -13.671000 -15.019780 36.959564 0.416789 1.989290 0.110764 -0.026110 -108869.000000 0 0 1
-31.054698 -15.002900 -15.510180 37.815962 0.450046 1.993414 0.106381 -0.021798 235135.000000 0 0 1
-29.952388 -16.062300 -15.239080 37.247451 0.492234 1.992298 0.102975 -0.009931 103868.000000 0 0 1
-28.613468 -15.816700 -15.573680 36.213783 0.504968 2.015343 0.117636 -0.013798 -606933.000000 0 0 1
-27.925338 -17.033100 -15.676780 36.272751 0.547705 2.017718 0.127170 -0.010377 282057.000000 0 0 1
-26.458228 -16.786100 -16.117780 35.236258 0.565357 2.045888 0.142139 -0.029499 263819.000000 0 0 1
-26.450928 -16.330700 -17.447280 35.647594 0.553113 2.082241 0.134322 -0.027743 1119870.000000 0 0 1
-25.087748 -16.196900 -17.941780 34.837367 0.573283 2.111822 0.100630 -0.020071 1019020.000000 0 0 1
-25.007018 -15.520900 -19.374780 35.236791 0.555474 2.152975 0.115966 -0.019986 127995.000000 0 0 1
-25.425018 -16.419100 -20.420980 36.510750 0.573407 2.164355 0.119466 -0.034914 960738.000000 0 0 1
-26.849168 -16.430300 -20.609780 37.624402 0.549159 2.150501 0.131910 -0.033678 621552.000000 0 0 1
-27.331748 -17.592200 -21.509280 38.976392 0.571901 2.155382 0.132624 -0.032111 20330.800000 0 0 1
-26.896338 -17.422300 -22.863480 39.366080 0.574797 2.190497 0.130971 -0.031485 143270.000000 0 0 1
-27.339898 -18.537000 -23.614280 40.604491 0.595822 2.191451 0.118062 -0.031715 -85170.400000 0 0 1
-26.552178 -18.708800 -24.928480 40.944676 0.613810 2.225385 0.119419 -0.039101 1388760.000000 0 0 1
-25.188518 -19.199800 -24.919880 40.300052 0.651291 2.237449 0.125306 -0.042194 946892.000000 0 0 1
-24.970418 -20.534700 -24.521280 40.576950 0.688228 2.219703 0.112845 -0.035902 637745.000000 0 0 1
-23.415718 -20.763800 -24.424980 39.699004 0.725444 2.233505 0.103190 -0.027685 982825.000000 0 0 1
-22.732718 -20.639900 -25.625630 39.993186 0.737183 2.266271 0.099893 -0.035988 -856616.000000 0 0 1
-21.415918 -21.092300 -25.540790 39.444374 0.777785 2.275114 0.073081 -0.026110 -382278.000000 0 0 1
-20.741918 -21.229900 -26.905200 40.060275 0.797024 2.307187 0.065129 -0.025308 -468614.000000 0 0 1
-21.127318 -22.329700 -27.665630 41.356574 0.813059 2.303596 0.087237 -0.024160 -267671.000000 0 0 1
-21.496418 -21.896800 -29.019230 42.233655 0.794625 2.328302 0.110995 -0.025374 388309.000000 0 0 1
-20.396218 -22.068700 -30.113350 42.542298 0.824763 2.357239 0.094050 -0.024784 377191.000000 0 0 1
-20.129918 -23.446400 -30.516750 43.430627 0.861359 2.349918 0.094943 -0.034008 39026.200000 0 0 1
-19.370118 -23.494800 -31.719040 43.969360 0.881328 2.376603 0.094089 -0.031208 89165.300000 0 0 1
-18.843918 -24.926600 -32.101580 44.798885 0.923481 2.369670 0.105541 -0.031959 132316.000000 0 0 1
-18.194118 -24.977700 -33.369590 45.480117 0.941254 2.394575 0.107480 -0.039268 29989.500000 0 0 1
-19.136818 -24.923000 33.471819 45.910091 0.915977 0.753829 0.136487 -0.031446 60788.200000 0 0 1
-18.542018 -24.808200 32.090222 44.598606 0.928952 0.767665 0.139999 -0.028696 -129596.000000 0 0 1
-17.856418 -23.567100 31.841397 43.452669 0.922395 0.748393 0.086189 -0.018543 -54958.500000 0 0 1
-17.385718 -23.568400 30.498927 42.283771 0.935233 0.765131 0.091387 -0.017303 -165958.000000 0 0 1
-16.491518 -22.337100 30.276217 41.079990 0.934824 0.742166 0.067490 -0.011386 -35574.800000 0 0 1
-17.152718 -21.094900 29.947917 40.448589 0.888105 0.737139 0.068870 -0.013578 148688.000000 0 0 1
-16.272118 -19.994900 29.787847 39.394082 0.887689 0.713386 0.066432 -0.015292 -33144.000000 0 0 1
-16.104618 -19.136200 31.092577 39.903650 0.871212 0.677422 0.063435 -0.018180 273145.000000 0 0 1
-15.416118 -17.916900 30.748747 38.783469 0.860282 0.655356 0.067810 -0.019321 184570.000000 0 0 1
-15.048818 -17.148900 31.885037 39.207236 0.850530 0.621092 0.059530 -0.018465 384701.000000 0 0 1
-14.269618 -15.818700 31.486287 38.016307 0.836837 0.594853 0.067384 -0.021932 855905.000000 0 0 1
-12.936718 -15.933200 30.967567 37.151255 0.888820 0.585287 0.066072 -0.025503 541702.000000 0 0 1
-12.585618 -14.712300 30.333217 35.985464 0.863147 0.568091 0.073039 -0.029961 -424307.000000 0 0 1
-11.058418 -14.638600 30.352547 35.466243 0.923830 0.543672 0.104198 -0.033387 -418908.000000 0 0 1
-10.597218 -13.394000 29.916427 34.448409 0.901450 0.518746 0.109127 -0.027282 -576936.000000 0 0 1
-9.359218 -13.075900 30.481497 34.462963 0.949571 0.485437 0.087587 -0.024512 -361618.000000 0 0 1
-8.999718 -11.559900 30.389807 33.736725 0.909285 0.449204 0.076017 -0.023031 62030.500000 0 0 1
-9.847118 -10.728400 31.155577 34.390905 0.828204 0.437237 0.077181 -0.018134 74417.200000 0 0 1
-9.526218 -9.359500 31.010917 33.764272 0.776571 0.406643 0.067165 -0.013474 -112941.000000 0 0 1
-10.296418 -8.425400 31.976709 34.633994 0.685791 0.394275 0.055815 -0.014924 290600.000000 0 0 1
-11.647218 -8.231800 31.570157 34.642388 0.615249 0.424327 0.071907 -0.023064 651016.000000 0 0 1
-12.561118 -7.618900 32.500435 35.666618 0.545219 0.424540 0.053681 -0.025662 87261.200000 0 0 1
-12.239118 -6.234000 33.083747 35.821685 0.471100 0.393513 0.042659 -0.028804 -523894.000000 0 0 1
-12.216518 -5.234000 32.103507 34.745838 0.404778 0.392508 0.043195 -0.028172 196658.000000 0 0 1
-12.353618 -3.958500 32.737506 35.214002 0.310095 0.377272 0.043645 -0.032546 -488543.000000 0 0 1
-11.860018 -2.892200 31.844437 34.104150 0.239193 0.366071 0.046723 -0.022199 -354592.000000 0 0 1
-10.459818 -2.758600 31.913353 33.696881 0.257862 0.326809 0.051718 -0.025448 -206202.000000 0 0 1
-10.025118 -1.752800 31.062737 32.687444 0.173091 0.316612 0.051592 -0.018667 -235823.000000 0 0 1
-8.525018 -1.415300 31.127717 32.305012 0.164517 0.270801 0.053765 -0.022357 -47006.900000 0 0 1
-8.156018 -0.898600 32.356148 33.380360 0.109734 0.248360 0.051862 -0.033302 1175410.000000 0 0 1
-6.741818 -0.573300 32.423896 33.122347 0.084832 0.205726 0.058316 -0.030379 1337990.000000 0 0 1
-6.556018 0.205000 33.787996 34.418776 -0.031259 0.191744 0.084982 -0.038686 -440505.000000 0 0 1
-7.223618 1.437400 33.796378 34.589622 -0.196420 0.214575 0.089869 -0.033730 -22867.900000 0 0 1
-6.778418 2.437100 32.889711 33.669266 -0.345147 0.215607 0.092095 -0.028523 -348283.000000 0 0 1
-7.553318 3.727500 32.962165 34.021334 -0.458427 0.250182 0.086900 -0.023712 -282479.000000 0 0 1
-8.850718 3.699500 32.427376 33.816509 -0.395917 0.287621 0.065841 -0.020042 163772.000000 0 0 1
-9.492318 4.992900 32.439418 34.166490 -0.484226 0.319313 0.048836 -0.011875 5244.330000 0 0 1
-10.981518 4.899900 32.071058 34.251358 -0.419685 0.358728 0.034743 -0.002073 -72640.200000 0 0 1
-11.732618 6.085900 32.345577 34.941793 -0.478508 0.387917 0.036982 -0.005888 -624045.000000 0 0 1
-13.021418 5.897300 31.863287 34.922837 -0.425257 0.421708 0.005270 -0.000142 -1193910.000000 0 0 1
-13.790318 7.174500 31.716267 35.320928 -0.479721 0.455718 0.023081 -0.012055 -787101.000000 0 0 1
-14.463118 7.431300 32.891874 36.691707 -0.474635 0.459129 0.024164 -0.013846 -297362.000000 0 0 1
-14.976418 8.731600 32.910091 37.196882 -0.527843 0.484830 0.012994 -0.002813 17356.100000 0 0 1
-15.901418 9.102100 -33.811850 38.457048 -0.519884 2.644999 0.008084 0.000001 158242.000000 0 0 1
-15.262218 9.199800 -32.584170 37.138925 -0.542463 2.641127 0.006989 -0.007395 -621550.000000 0 0 1
-16.154918 9.665600 -31.633650 36.811588 -0.539174 2.604773 0.030099 -0.009989 -1176690.000000 0 0 1
-15.463518 9.991300 -30.320130 35.471915 -0.573643 2.595893 0.051511 -0.019309 385907.000000 0 0 1
-14.600418 11.140300 -30.356720 35.479698 -0.651777 2.597521 0.053318 -0.019709 -46553.000000 0 0 1
-13.249418 10.805100 -30.544460 35.003733 -0.684130 2.631309 0.052191 -0.031848 -485817.000000 0 0 1
-12.321318 11.971100 -30.870370 35.328485 -0.770982 2.633779 0.060322 -0.026664 -528129.000000 0 0 1
-12.763518 12.721400 -31.936990 36.670325 -0.783745 2.627872 0.058285 -0.025770 -172134.000000 0 0 1
-12.161418 13.990700 -32.118530 37.084225 -0.855232 2.618137 0.063785 -0.031777 -10596.000000 0 0 1
-12.547618 15.084200 -31.051960 36.731459 -0.876941 2.578068 0.070659 -0.034299 238902.000000 0 0 1
-13.891518 15.534700 -31.028610 37.377478 -0.841181 2.550158 0.059389 -0.026772 419859.000000 0 0 1
-13.984118 16.487700 -30.017100 36.992244 -0.867375 2.517413 0.034807 -0.024502 432629.000000 0 0 1
-15.373518 17.197200 -30.105940 37.926988 -0.841331 2.487806 0.031640 -0.033130 267301.000000 0 0 1
-15.524818 17.997400 -31.302470 39.303575 -0.859024 2.492162 0.034504 -0.028702 402176.000000 0 0 1
-16.785718 18.618900 -31.532100 40.282715 -0.837130 2.469901 0.024463 -0.025958 443846.000000 0 0 1
-17.220718 19.877800 -30.730830 40.448288 -0.856898 2.433734 0.001998 -0.021558 -306359.000000 0 0 1
-16.596518 21.080700 -31.205140 41.153385 -0.903857 2.431443 0.003179 -0.017232 137877.000000 0 0 1
-17.038818 22.295900 -30.649200 41.554807 -0.918261 2.400248 -0.010093 -0.007862 -511127.000000 0 0 1
-18.425818 22.787900 -31.062820 42.704777 -0.890846 2.385300 0.000558 -0.008707 -513389.000000 0 0 1
-19.434918 21.954800 -30.565260 42.355217 -0.846205 2.376966 0.004747 -0.014433 1043770.000000 0 0 1
-20.714518 22.141100 -31.255000 43.545317 -0.818674 2.371373 0.035771 -0.025377 1115280.000000 0 0 1
-21.876618 21.256900 -30.718060 43.290200 -0.771032 2.359705 0.061512 -0.034472 -117027.000000 0 0 1
-22.728018 21.825700 -29.692620 43.296370 -0.765149 2.326498 0.105582 -0.032049 516844.000000 0 0 1
-23.781118 22.595300 -30.182000 44.576253 -0.759834 2.314593 0.115422 -0.031560 153600.000000 0 0 1
-24.972618 21.955000 -31.011650 45.468408 -0.721183 2.321356 0.134116 -0.050645 -81886.200000 0 0 1
-24.679418 21.494900 -32.292950 45.977593 -0.716540 2.349508 0.140544 -0.041856 -254729.000000 0 0 1
-25.828008 21.165900 -33.025700 46.965713 -0.686515 2.350667 0.168944 -0.045463 -155610.000000 0 0 1
-25.505658 20.244900 33.704359 46.865536 -0.670913 0.768187 0.157574 -0.037130 33824.500000 0 0 1
-25.193728 18.869600 -33.919550 46.274417 -0.642848 2.393531 0.153666 -0.040257 298782.000000 0 0 1
-24.912118 18.188000 32.775461 45.007198 -0.630634 0.755065 0.138147 -0.038263 -136070.000000 0 0 1
-24.554218 16.669300 32.982823 44.369380 -0.596409 0.732703 0.097078 -0.015649 -305496.000000 0 0 1
-25.619958 15.880800 33.433973 45.015693 -0.554895 0.733676 0.099836 -0.019017 428054.000000 0 0 1
-26.340188 15.273000 32.342446 44.419634 -0.525461 0.755234 0.100696 -0.020561 251927.000000 0 0 1
-27.259578 14.062800 32.696181 44.831766 -0.476274 0.753486 0.082714 -0.015216 799856.000000 0 0 1
-28.523858 14.411400 33.288435 46.145627 -0.467831 0.765006 0.091525 -0.015213 532243.000000 0 0 1
-29.505958 13.400900 33.287656 46.457010 -0.426321 0.771987 0.075275 -0.008641 73905.300000 0 0 1
-29.273858 12.099400 -33.778340 46.306917 -0.391934 2.388306 0.072480 -0.006073 -163898.000000 0 0 1
-28.161618 11.252300 33.886926 45.475431 -0.380128 0.730007 0.065002 -0.014825 -56652.600000 0 0 1
-28.544958 9.908100 33.712384 45.271514 -0.334093 0.730755 0.068961 -0.004170 -593429.000000 0 0 1
-27.370528 8.872800 33.761672 44.359023 -0.313484 0.705788 0.064053 -0.013205 156859.000000 0 0 1
-26.481718 8.846500 32.680691 42.983364 -0.322405 0.707006 0.065204 -0.018989 -1097700.000000 0 0 1
-25.551788 9.828600 32.818421 42.738087 -0.367208 0.695246 0.062595 -0.017811 -2706640.000000 0 0 1
-24.274118 9.359000 32.161454 41.366446 -0.367992 0.680152 0.073415 -0.016288 -943045.000000 0 0 1
-24.401918 9.300600 30.758787 40.349198 -0.364145 0.703914 0.078921 -0.018745 1362220.000000 0 0 1
-23.082218 9.078700 30.182367 39.066442 -0.374735 0.687885 0.075523 -0.021247 1387810.000000 0 0 1
-22.995218 9.068500 28.646397 37.836938 -0.375639 0.711932 0.085505 -0.018954 -6442.840000 0 0 1
-23.233918 10.312800 28.072387 37.871199 -0.417743 0.735851 0.085328 -0.011971 204132.000000 0 0 1
-23.076918 10.258000 26.647187 36.712986 -0.418282 0.758564 0.080091 -0.019051 -695887.000000 0 0 1
-23.412518 11.705500 26.116667 36.976277 -0.463622 0.786526 0.078086 -0.013923 720532.000000 0 0 1
-24.772318 12.145700 26.146317 38.010731 -0.455852 0.812250 0.092574 -0.016332 853700.000000 0 0 1
-25.625778 11.449600 25.205797 37.724078 -0.420190 0.839061 0.100107 -0.013532 -755273.000000 0 0 1
-27.085488 11.807900 25.394617 38.960708 -0.411108 0.860840 0.096181 -0.016429 -756818.000000 0 0 1
-27.303038 13.148800 24.974957 39.269522 -0.448809 0.881508 0.091355 -0.020905 88898.300000 0 0 1
-28.607148 13.563500 25.345027 40.554998 -0.442738 0.895723 0.074997 -0.022890 186397.000000 0 0 1
-28.836378 14.962700 24.816447 40.881232 -0.478639 0.918469 0.081195 -0.020761 20257.400000 0 0 1
-28.140118 15.972700 25.521067 41.210657 -0.516265 0.902967 0.088745 -0.023854 -53026.800000 0 0 1
-27.908488 17.050600 24.603237 40.925859 -0.548430 0.925837 0.083145 -0.018807 -228455.000000 0 0 1
-22.996718 -9.232800 31.749047 40.275249 0.381784 0.662752 0.068661 -0.016676 85563.300000 0 0 1
-22.119218 -8.755700 30.731857 38.863468 0.376916 0.658739 0.075089 -0.020072 23247.900000 0 0 1
-22.675318 -8.856300 29.437117 38.198796 0.372351 0.690968 0.067264 -0.022177 -553263.000000 0 0 1
-21.627518 -8.672700 28.354137 36.700441 0.381371 0.687897 0.088806 -0.023922 -714491.000000 0 0 1
-21.137718 -7.357000 28.150447 35.963541 0.334937 0.671725 0.083675 -0.025712 34489.800000 0 0 1
-19.978218 -7.022400 28.898177 35.826638 0.338013 0.632400 0.082757 -0.023894 -179709.000000 0 0 1
-18.675618 -7.452600 28.181807 34.619853 0.379692 0.619729 0.088438 -0.023666 -1112590.000000 0 0 1
-18.237918 -8.795800 28.187917 34.706577 0.449372 0.622921 0.084141 -0.021415 177951.000000 0 0 1
-17.780618 -9.365200 29.438707 35.644002 0.484785 0.598983 0.087220 -0.025038 -367209.000000 0 0 1
-16.380118 -8.923900 29.900997 35.242218 0.498843 0.557761 0.083512 -0.024395 -24692.200000 0 0 1
-15.319318 -9.620600 29.285307 34.421893 0.560757 0.553337 0.070579 -0.020539 -580663.000000 0 0 1
-14.034118 -9.315900 29.729097 34.169602 0.586018 0.515502 0.083215 -0.022384 697939.000000 0 0 1
-12.861818 -10.224500 29.161247 33.471557 0.671654 0.513105 0.089453 -0.019292 778423.000000 0 0 1
-12.672618 -9.943900 27.764877 32.099296 0.665327 0.525709 0.097822 -0.019610 203159.000000 0 0 1
-11.470118 -10.546800 27.300097 31.433961 0.743486 0.518647 0.092972 -0.020482 276699.000000 0 0 1
-11.159618 -10.068000 25.898717 29.944036 0.734019 0.525837 0.080762 -0.016182 524347.000000 0 0 1
-12.152218 -10.455800 24.906147 29.619526 0.710502 0.571909 0.076171 -0.012943 268856.000000 0 0 1
-11.840818 -10.171000 23.585317 28.282882 0.709683 0.584645 0.068154 -0.018271 57783.100000 0 0 1
-12.862118 -10.708100 22.536067 28.070836 0.694264 0.638772 0.071528 -0.023063 -342078.000000 0 0 1
-12.955618 -12.127700 22.563467 28.706083 0.752403 0.666457 0.060069 -0.019052 484210.000000 0 0 1
-14.131618 -12.700000 21.977967 29.052086 0.732093 0.712848 0.052382 -0.011882 1295970.000000 0 0 1
-15.449318 -12.506200 22.848667 30.284453 0.680506 0.715952 0.057655 -0.013085 -24741.400000 0 0 1
-16.538318 -13.161700 22.277467 30.708824 0.672193 0.759120 0.044335 -0.007212 -824072.000000 0 0 1
-17.615518 -13.207100 23.154757 31.951162 0.643336 0.760209 0.052778 -0.007643 -664028.000000 0 0 1
-18.702418 -14.154700 22.642567 32.600949 0.647863 0.803020 0.083956 -0.019582 -809032.000000 0 0 1
-18.437818 -15.559500 22.716567 33.137496 0.700936 0.815472 0.073096 -0.014668 1788850.000000 0 0 1
-19.665518 -16.405200 22.687567 34.213870 0.695256 0.845830 0.085796 -0.017163 1360490.000000 0 0 1
-20.550418 -16.345400 23.906437 35.510696 0.671918 0.832244 0.076682 -0.016055 -968711.000000 0 0 1
-19.987718 -16.892500 25.073437 36.242830 0.701668 0.806793 0.073655 -0.009910 -13103.000000 0 0 1
-20.875418 -16.794700 26.174157 37.455728 0.677491 0.797074 0.070623 -0.016692 69685.000000 0 0 1
-20.463718 -17.685300 27.412597 38.509533 0.712696 0.778683 0.075874 -0.015933 6574.840000 0 0 1
-20.542718 -19.091500 27.137227 39.024579 0.748799 0.801837 0.084811 -0.016609 256037.000000 0 0 1
-20.055118 -19.823500 28.265917 39.926696 0.779590 0.784212 0.084830 -0.019778 -33934.200000 0 0 1
-20.142118 -21.347500 28.043537 40.593850 0.814443 0.808157 0.093382 -0.013950 -748499.000000 0 0 1
-21.459518 -21.772000 27.984017 41.444374 0.792626 0.829535 0.094595 -0.013473 -731529.000000 0 0 1
-21.499918 -23.127800 27.603157 41.941339 0.821859 0.852454 0.101269 -0.007588 11321.400000 0 0 1
-22.893218 -23.617400 27.170417 42.662778 0.800967 0.880372 0.102552 -0.004524 -125359.000000 0 0 1
-23.779418 -23.856400 28.223547 43.944934 0.787014 0.873369 0.095252 -0.005624 429495.000000 0 0 1
-25.029318 -24.376700 27.741737 44.612714 0.772190 0.899713 0.076773 -0.004361 695887.000000 0 0 1
-25.808888 -25.211910 28.793917 46.160901 0.773698 0.897236 0.053910 -0.008815 -396944.000000 0 0 1
-26.421188 -24.461300 29.769347 46.718823 0.746899 0.879933 0.051518 0.001527 -268237.000000 0 0 1
-27.111238 -25.377480 30.588187 48.111048 0.752379 0.881774 0.042200 0.008154 -622076.000000 0 0 1
-28.297778 -24.759500 31.329817 48.942360 0.718809 0.876120 0.041831 -0.003514 200437.000000 0 0 1
-29.375148 -24.655400 30.350957 48.907757 0.698266 0.901320 0.050907 -0.008260 108133.000000 0 0 1
-30.299468 -23.742800 30.851437 49.331425 0.664663 0.895164 0.055662 -0.022332 -828131.000000 0 0 1
-31.521848 -23.560100 29.947417 49.452533 0.641849 0.920303 0.049003 -0.026350 380100.000000 0 0 1
-32.513448 -24.637400 30.114227 50.704955 0.648449 0.934885 0.042884 -0.019475 962048.000000 0 0 1
-33.502278 -24.568100 29.080377 50.711562 0.632744 0.960089 0.038402 -0.023099 434488.000000 0 0 1
-34.876162 -25.032300 29.641367 52.168702 0.622538 0.966500 0.037225 -0.018555 -79149.800000 0 0 1
-34.802331 -26.303670 30.183577 53.048409 0.647204 0.965529 0.043383 -0.019664 35808.700000 0 0 1
-35.901428 -26.639990 31.013667 54.410010 0.638382 0.964291 0.049226 -0.017714 214856.000000 0 0 1
-35.827330 -28.109160 31.412737 55.321628 0.665263 0.966941 0.054097 -0.023964 -50607.700000 0 0 1
-34.819550 -28.370660 32.355704 55.355100 0.683695 0.946518 0.046522 -0.006991 -155801.000000 0 0 1
-34.462645 -29.759680 32.395047 55.881585 0.712299 0.952425 0.051726 -0.009770 471967.000000 0 0 1
-33.326568 -30.092270 33.430128 55.980161 0.734443 0.930818 0.048607 -0.017074 676592.000000 0 0 1
-33.805468 -29.922490 -33.167840 56.020271 0.724543 2.204420 0.050400 -0.015728 110586.000000 0 0 1
-32.725288 -30.138990 -32.287980 54.971055 0.744280 2.198593 0.041020 -0.013927 148168.000000 0 0 1
-33.031518 -29.652460 -30.825260 54.042079 0.731544 2.177781 0.049151 -0.022154 128779.000000 0 0 1
-33.186028 -28.245830 -30.716330 53.316342 0.705153 2.184764 0.054140 -0.025563 -927855.000000 0 0 1
-31.981108 -27.625270 -30.500390 52.117374 0.712451 2.195954 0.062467 -0.024632 -795374.000000 0 0 1
-32.204208 -26.123780 -30.472940 51.460305 0.681528 2.204538 0.055245 -0.014760 85130.800000 0 0 1
-32.966148 -25.571100 -29.400130 51.039355 0.659733 2.184658 0.049929 -0.023176 -148135.000000 0 0 1
-33.013148 -24.182400 -29.277780 50.317441 0.632212 2.191812 0.059420 -0.027293 5919.100000 0 0 1
-31.711048 -23.448100 -28.842550 48.859970 0.636702 2.202240 0.064340 -0.027505 -70138.000000 0 0 1
-31.766598 -22.025800 -28.600580 48.085817 0.606258 2.207791 0.068794 -0.025266 -623588.000000 0 0 1
-30.769628 -21.579700 -27.753080 46.719235 0.611619 2.206868 0.097049 -0.031408 -576384.000000 0 0 1
-30.398368 -20.131900 -28.123830 46.046759 0.584952 2.227825 0.110197 -0.041927 -87672.900000 0 0 1
-29.602928 -20.095000 -29.301550 46.246332 0.596368 2.256990 0.116631 -0.030668 349189.000000 0 0 1
-29.044138 -18.797100 -29.447640 45.431888 0.574398 2.275977 0.102562 -0.037312 -459208.000000 0 0 1
-28.761288 -18.487700 -30.951060 46.119138 0.571296 2.306503 0.105821 -0.028684 -161668.000000 0 0 1
-29.820108 -18.482400 -31.877180 47.402454 0.554849 2.308350 0.094940 -0.036247 -141132.000000 0 0 1
-30.726308 -17.423800 -31.645840 47.425247 0.515850 2.301345 0.087027 -0.028352 -553854.000000 0 0 1
-31.204668 -16.734400 -32.963720 48.377457 0.492248 2.320451 0.079995 -0.033592 251546.000000 0 0 1
-32.148998 -17.484700 -33.729530 49.769007 0.498120 2.315456 0.083169 -0.038858 347347.000000 0 0 1
-33.444218 -16.956600 -33.618160 50.360925 0.469241 2.301702 0.070698 -0.035178 -14207.200000 0 0 1
-34.593813 -17.472300 33.415720 51.172488 0.467695 0.859255 0.080932 -0.038721 39485.100000 0 0 1
-35.017211 -18.759000 33.766455 52.137114 0.491804 0.866304 0.066518 -0.038038 442418.000000 0 0 1
-35.934715 -19.181000 32.725395 52.250991 0.490300 0.893984 0.065182 -0.035948 51544.700000 0 0 1
-36.402828 -20.632200 32.914980 53.237670 0.515631 0.904263 0.048363 -0.038303 -376523.000000 0 0 1
-35.332912 -21.512900 32.855047 52.826828 0.546911 0.899580 0.060830 -0.036089 -403901.000000 0 0 1
-35.798701 -22.823300 33.125034 53.849029 0.567570 0.908225 0.052236 -0.030516 -179299.000000 0 0 1
-34.604631 -23.815100 33.272653 53.588329 0.602766 0.900914 0.064542 -0.025564 685138.000000 0 0 1
-33.649818 -23.757500 -33.614000 53.166062 0.614756 2.255244 0.060976 -0.034582 106808.000000 0 0 1
-32.999728 -22.529900 -33.500980 52.143016 0.599041 2.268530 0.074556 -0.038120 -998288.000000 0 0 1
-31.668278 -22.528800 -32.701080 50.791607 0.618336 2.270287 0.070577 -0.031564 153680.000000 0 0 1
-30.613598 -23.274800 -33.282800 50.859154 0.650046 2.284200 0.071751 -0.024903 729383.000000 0 0 1
-29.335028 -23.086000 -32.672220 49.608278 0.666750 2.289759 0.071267 -0.022744 670238.000000 0 0 1
-29.001308 -23.643500 -31.244210 48.747222 0.683975 2.266523 0.087705 -0.018778 -646039.000000 0 0 1
-28.864818 -25.055600 -31.155770 49.311691 0.714870 2.254686 0.069443 -0.020887 -84578.200000 0 0 1
-27.877578 -25.318690 -30.191230 48.267026 0.737332 2.246574 0.065589 -0.021186 -44548.300000 0 0 1
-27.625748 -26.837690 -30.013530 48.828840 0.770930 2.232761 0.060016 -0.016844 -159502.000000 0 0 1
-28.722968 -27.530460 -29.451890 49.501000 0.764202 2.208032 0.039059 -0.014067 82701.100000 0 0 1
-28.357208 -28.721550 -28.760170 49.560126 0.791781 2.189904 0.033065 -0.010849 -131554.000000 0 0 1
-28.971398 -29.997810 -29.398250 51.024187 0.802802 2.184823 0.024584 -0.004301 -40242.200000 0 0 1
-28.628488 -30.251350 -30.774360 51.786058 0.812953 2.207141 0.041080 -0.016452 259517.000000 0 0 1
-29.141918 -31.487550 -31.267500 53.088358 0.824067 2.200581 0.041069 -0.013125 -160825.000000 0 0 1
-28.926968 -31.699520 -32.771370 53.996220 0.831098 2.222975 0.039345 -0.014485 153341.000000 0 0 1
-27.545278 -31.874610 -33.031140 53.533068 0.858130 2.235751 0.026107 -0.004971 -35381.500000 0 0 1
-27.316678 -32.533760 33.707824 54.229733 0.872347 0.900045 0.026286 -0.007977 419477.000000 0 0 1
-25.855478 -33.101740 33.614443 53.797414 0.907692 0.895878 0.033508 -0.008015 680315.000000 0 0 1
-25.689818 -33.972900 32.521118 53.588692 0.923348 0.918686 0.033544 0.002001 30321.300000 0 0 1
-24.709918 33.100624 32.791139 52.739835 -0.929533 0.899818 0.036181 0.008287 -107431.000000 0 0 1
-24.412018 32.337205 31.526887 51.337960 -0.924154 0.909545 0.053831 -0.003913 -551962.000000 0 0 1
-25.581228 31.655524 31.150447 51.252530 -0.891128 0.917530 0.045589 -0.019708 -139549.000000 0 0 1
-25.494548 30.825644 29.985537 49.993248 -0.879774 0.927556 0.053038 -0.015930 -372349.000000 0 0 1
-26.785248 30.138134 29.511617 49.966911 -0.844232 0.938965 0.052300 -0.016714 76897.500000 0 0 1
-27.382678 29.238294 30.462337 50.325371 -0.818159 0.920644 0.064195 -0.021470 1114790.000000 0 0 1
-28.773008 28.949714 30.227807 50.790672 -0.788459 0.933350 0.076400 -0.028301 1250210.000000 0 0 1
-29.280998 27.797734 31.182907 51.014357 -0.759418 0.913148 0.094251 -0.045648 -22302.500000 0 0 1
-28.605578 26.592254 30.872987 49.785223 -0.748940 0.901896 0.102674 -0.037102 371169.000000 0 0 1
-29.211018 25.411814 31.470497 49.894249 -0.715957 0.888285 0.114317 -0.034327 414241.000000 0 0 1
-30.214968 24.752414 30.493517 49.552810 -0.686345 0.907936 0.108352 -0.037736 299763.000000 0 0 1
-29.542598 24.296744 29.334537 48.203859 -0.688269 0.916562 0.098286 -0.034452 -53440.200000 0 0 1
-30.382038 23.534524 28.501817 47.846585 -0.659072 0.932670 0.084269 -0.024861 415736.000000 0 0 1
-29.634478 23.266374 27.133907 46.430329 -0.665597 0.946655 0.093644 -0.029093 1174980.000000 0 0 1
-28.531648 22.339554 27.334087 45.390120 -0.664273 0.924538 0.099787 -0.027991 878305.000000 0 0 1
-27.740028 22.157054 26.134177 44.084458 -0.673972 0.936240 0.100653 -0.025829 331298.000000 0 0 1
-26.342828 21.577754 26.457617 43.122495 -0.686287 0.910253 0.094002 -0.021612 133915.000000 0 0 1
-26.418578 20.226054 26.951527 42.818447 -0.653410 0.889967 0.101925 -0.029589 2136640.000000 0 0 1
-25.040618 19.829454 27.344107 42.046879 -0.669777 0.862785 0.098983 -0.031846 2170610.000000 0 0 1
-24.989918 18.454554 28.094667 41.885283 -0.636087 0.835573 0.111483 -0.034806 -295963.000000 0 0 1
-23.710718 17.948654 28.337067 41.077266 -0.647956 0.809517 0.085731 -0.027986 -53482.800000 0 0 1
-23.910918 16.824554 29.167017 41.297852 -0.613161 0.786595 0.085552 -0.024133 55182.100000 0 0 1
-22.697018 15.891854 29.257897 40.295536 -0.610843 0.758188 0.078348 -0.028184 445617.000000 0 0 1
-21.572618 16.377354 29.992927 40.412514 -0.649346 0.734495 0.096616 -0.022352 1471250.000000 0 0 1
-20.327518 15.674754 29.710827 39.263713 -0.656875 0.712547 0.072561 -0.028482 764006.000000 0 0 1
-19.278418 16.150554 30.712567 39.695839 -0.697341 0.686140 0.053123 -0.030894 -635662.000000 0 0 1
-19.553418 15.906054 32.052912 40.776561 -0.682899 0.666384 0.042548 -0.019390 353991.000000 0 0 1
-18.496818 16.464454 32.808505 41.104848 -0.727332 0.646551 0.033845 -0.021755 -818786.000000 0 0 1
-18.562818 16.111754 -33.594990 41.626797 -0.714828 2.509939 0.023164 -0.026523 52634.500000 0 0 1
-19.549818 16.806054 -32.840890 41.751203 -0.710071 2.476056 0.040841 -0.024438 -135697.000000 0 0 1
-20.849018 16.363754 -33.117580 42.417310 -0.665447 2.466672 0.058627 -0.017320 -1348980.000000 0 0 1
-21.869118 17.136854 -32.281440 42.591331 -0.664667 2.430937 0.072581 -0.029936 -486962.000000 0 0 1
-22.025218 16.783854 -30.919870 41.507185 -0.651155 2.411223 0.066994 -0.031350 25775.400000 0 0 1
-22.955418 17.643254 -30.331110 41.931038 -0.655292 2.379448 0.069730 -0.034360 -551539.000000 0 0 1
-23.104018 17.288854 -28.811040 40.777153 -0.642415 2.355405 0.067583 -0.036868 -61762.400000 0 0 1
-23.685618 16.062254 -28.338160 40.274755 -0.595906 2.351277 0.073185 -0.036639 -90991.200000 0 0 1
-25.077718 16.025354 -28.524050 41.222875 -0.568623 2.334979 0.102920 -0.037483 -717184.000000 0 0 1
-25.840898 15.030954 -27.745920 40.786244 -0.526835 2.318936 0.094795 -0.025671 -526439.000000 0 0 1
-25.602788 13.661554 -27.991580 40.319591 -0.490162 2.338163 0.051590 -0.010595 -352468.000000 0 0 1
-26.624478 12.859754 -27.461230 40.352885 -0.449959 2.319278 0.038147 -0.012593 -4163.590000 0 0 1
-26.245408 11.354454 -27.578830 39.728289 -0.408312 2.338085 0.043476 -0.007508 593522.000000 0 0 1
-25.191278 10.961354 -26.682550 38.297654 -0.410415 2.341604 0.042997 -0.012235 338578.000000 0 0 1
-24.496318 9.863854 -27.233010 37.934181 -0.382803 2.371580 0.038236 -0.001150 -39625.100000 0 0 1
-23.353418 9.301254 -26.364690 36.427907 -0.379025 2.380017 0.067488 -0.013035 -98792.900000 0 0 1
-23.825818 8.445754 -25.351590 35.800887 -0.340660 2.357639 0.059146 -0.011477 -437180.000000 0 0 1
-22.821818 7.701454 -24.755780 34.539781 -0.325460 2.369902 0.092903 -0.018466 -655766.000000 0 0 1
-23.326718 6.728254 -23.674380 33.909902 -0.280814 2.343614 0.092818 -0.013600 342174.000000 0 0 1
-24.145318 5.699354 -24.277380 34.711241 -0.231801 2.345368 0.083688 -0.020140 587009.000000 0 0 1
-24.205818 4.486854 -23.494880 34.030323 -0.183282 2.332852 0.089678 -0.015538 -236094.000000 0 0 1
35.750050 24.570200 -10.530880 44.639223 0.602136 1.808952 0.056230 -0.013044 -250193.000000 0 0 1
36.723040 24.149600 -9.627180 44.994082 0.581709 1.786429 0.060253 -0.019678 -653851.000000 0 0 1
-36.633088 23.126500 -10.165180 44.498866 -0.563117 1.801268 0.071334 -0.019191 -77695.500000 0 0 1
-35.620463 22.697000 -9.052780 43.196343 -0.567317 1.781934 0.068563 -0.018646 306196.000000 0 0 1
-36.203748 21.747000 -8.148680 43.012142 -0.540922 1.761399 0.067439 -0.022232 662431.000000 0 0 1
-35.319034 21.576900 -7.040280 41.982882 -0.548406 1.739286 0.090895 -0.020967 224124.000000 0 0 1
-35.815347 20.521300 -5.999680 41.711617 -0.520311 1.715134 0.081052 -0.004482 51040.100000 0 0 1
-36.109378 19.236000 -6.454280 41.419423 -0.489476 1.727261 0.067798 -0.005583 125560.000000 0 0 1
-36.672388 18.514200 -5.439180 41.439406 -0.467523 1.702432 0.079130 -0.014445 -394349.000000 0 0 1
36.860080 17.148300 -5.925580 41.083357 0.435444 1.715534 0.074692 -0.005276 11206.100000 0 0 1
35.734860 17.403300 -6.746980 40.315962 0.453203 1.738940 0.068725 -0.015937 -45993.500000 0 0 1
35.300170 16.247200 -7.379380 39.554124 0.431352 1.758460 0.066679 -0.012408 506399.000000 0 0 1
34.084330 16.574800 -8.329180 38.805164 0.452618 1.787121 0.060646 -0.028888 507648.000000 0 0 1
33.655890 15.424300 -9.086980 38.120876 0.429730 1.811486 0.087597 -0.035573 354573.000000 0 0 1
32.859350 15.831700 -10.208880 37.876125 0.448983 1.843705 0.088347 -0.022627 -329438.000000 0 0 1
32.117320 14.718300 -10.925680 36.980009 0.429707 1.870721 0.074810 -0.021953 -3179.680000 0 0 1
30.923230 14.152200 -10.402180 35.563131 0.429202 1.867635 0.070649 -0.016574 508347.000000 0 0 1
30.919910 13.594200 -9.103080 34.981555 0.414221 1.834052 0.076187 -0.021413 -428098.000000 0 0 1
29.738230 12.602600 -8.880980 33.497159 0.400841 1.839131 0.085664 -0.011231 263687.000000 0 0 1
29.922700 11.436700 -9.674680 33.462898 0.365075 1.864100 0.078689 -0.009798 221906.000000 0 0 1
28.900450 10.496700 -9.489180 32.178584 0.348387 1.870138 0.100588 -0.010005 -451107.000000 0 0 1
29.250400 9.182500 -10.173480 32.301763 0.304185 1.891202 0.111776 -0.011037 -383073.000000 0 0 1
30.412290 8.656900 -9.590480 33.042800 0.277317 1.865278 0.109736 -0.018550 -48190.900000 0 0 1
30.359630 7.316100 -9.314580 32.588247 0.236473 1.860665 0.116208 -0.016859 -436061.000000 0 0 1
31.480710 6.851400 -8.351480 33.282488 0.214296 1.824434 0.135474 -0.021219 -63988.200000 0 0 1
32.764650 6.972000 -8.911880 34.663420 0.209663 1.830814 0.116737 -0.016777 16304.300000 0 0 1
33.740730 6.626700 -7.913180 35.284110 0.193932 1.796991 0.114322 -0.010977 -395553.000000 0 0 1
35.148100 6.974700 -8.352380 36.793989 0.195893 1.799797 0.116490 -0.006397 -668824.000000 0 0 1
35.654010 6.000400 -9.274180 37.325911 0.166733 1.821892 0.131135 -0.013193 904874.000000 0 0 1
37.037970 6.246100 -9.566480 38.760064 0.167068 1.820186 0.128278 -0.012653 186669.000000 0 0 1
-36.410768 5.196200 -10.522480 38.255289 -0.141753 1.849448 0.128811 -0.026382 250468.000000 0 0 1
-35.059250 5.378400 -10.908980 37.109083 -0.152222 1.869175 0.132537 -0.028169 412103.000000 0 0 1
-34.695664 6.534200 -11.610680 37.165748 -0.186149 1.888518 0.113109 -0.026225 -204297.000000 0 0 1
-33.801248 7.512400 -10.751680 36.256850 -0.218697 1.871866 0.122441 -0.021959 151473.000000 0 0 1
-34.570407 8.356300 -9.836280 36.901128 -0.237169 1.840616 0.116217 -0.013171 644351.000000 0 0 1
-34.933646 9.591400 -10.487880 37.714059 -0.267958 1.852601 0.112091 -0.013257 160615.000000 0 0 1
-35.790906 10.387000 -9.433780 38.443139 -0.282454 1.818724 0.094793 -0.006475 -132971.000000 0 0 1
-35.075485 10.970800 -8.396380 37.698107 -0.303137 1.795407 0.087891 -0.008545 -398829.000000 0 0 1
-35.784610 11.811600 -7.528080 38.428170 -0.318815 1.767972 0.085686 -0.009029 209884.000000 0 0 1
-34.773621 12.784500 -6.813780 37.670622 -0.352311 1.752675 0.101860 -0.012012 483566.000000 0 0 1
-34.196619 13.774500 -7.641580 37.650224 -0.382920 1.775179 0.071421 -0.011806 -207496.000000 0 0 1
-33.335098 14.556400 -6.853980 37.014789 -0.411713 1.757040 0.088713 -0.014205 62759.600000 0 0 1
-32.403248 15.565600 -7.619180 36.746569 -0.447822 1.779655 0.060725 -0.011990 273902.000000 0 0 1
-33.199748 16.480800 -8.334380 37.990814 -0.460774 1.791974 0.047312 -0.013686 -191949.000000 0 0 1
-32.535628 17.686700 -8.630880 38.024710 -0.497924 1.799773 0.043498 -0.010113 20654.900000 0 0 1
-33.227348 18.541100 -9.693180 39.265593 -0.508970 1.820237 0.021494 -0.014068 124276.000000 0 0 1
-32.988078 18.161800 -11.063680 39.248813 -0.503270 1.856555 0.006039 -0.013091 -267248.000000 0 0 1
-34.029458 18.631200 -11.887780 40.576409 -0.500923 1.868131 -0.000405 -0.017910 -274357.000000 0 0 1
-33.723058 18.783000 -13.389480 40.857361 -0.508185 1.904678 -0.010777 -0.003925 129833.000000 0 0 1
-32.871438 19.898100 -13.740280 40.807611 -0.544330 1.914216 -0.009170 -0.004961 402870.000000 0 0 1
-32.785318 20.010000 -15.123180 41.279387 -0.547984 1.945892 -0.022110 -0.003913 236252.000000 0 0 1
-31.804568 21.259100 -15.352580 41.221131 -0.589222 1.952438 0.012070 -0.017342 461062.000000 0 0 1
-30.450788 21.079300 -14.993880 39.955023 -0.605500 1.955483 0.023028 -0.018203 498868.000000 0 0 1
-29.815988 22.358000 -14.696880 40.060849 -0.643415 1.946432 0.023278 -0.019603 -375954.000000 0 0 1
-28.985038 23.040700 -15.719980 40.225913 -0.671634 1.972289 0.029900 -0.018847 -1227190.000000 0 0 1
-29.685068 23.658100 -16.815980 41.517300 -0.672890 1.987814 0.040628 -0.013325 441226.000000 0 0 1
-28.825308 24.172100 -17.849880 41.639009 -0.697822 2.013829 0.036384 -0.008441 312900.000000 0 0 1
-28.173638 25.564200 -17.533980 41.889410 -0.736878 2.002675 0.049608 -0.012618 358480.000000 0 0 1
-29.104628 26.588200 -17.167780 42.997028 -0.740245 1.981526 0.052906 -0.015113 182695.000000 0 0 1
-28.492838 27.898200 -17.079480 43.380411 -0.774854 1.975465 0.052770 -0.014508 471561.000000 0 0 1
-29.484138 29.087300 -16.840380 44.709997 -0.778623 1.956982 0.054508 -0.016735 129238.000000 0 0 1
-29.941578 29.310400 -15.501980 44.675598 -0.774746 1.925156 0.049706 -0.022962 -104424.000000 0 0 1
-28.955748 29.804300 -14.631880 44.054779 -0.799838 1.909356 0.045139 -0.016328 -474332.000000 0 0 1
-29.416658 30.273800 -13.253080 44.243495 -0.799757 1.875016 0.049969 -0.015097 -377069.000000 0 0 1
-30.090928 31.518700 -13.359580 45.578183 -0.808569 1.868278 0.042408 -0.023220 74118.700000 0 0 1
-30.059928 32.209600 -12.112580 45.692146 -0.819907 1.839095 0.035810 -0.025867 438181.000000 0 0 1
-28.905508 33.254700 -11.875080 45.633551 -0.855252 1.834054 0.037517 -0.027530 495198.000000 0 0 1
-28.983198 -33.815355 -12.908080 46.369414 0.862194 1.852898 0.029547 -0.039770 -649048.000000 0 0 1
-27.885428 -32.974855 -12.991680 45.096806 0.868829 1.863022 0.056919 -0.035182 -648197.000000 0 0 1
-27.839758 -32.101055 -14.217880 44.807120 0.856370 1.893691 0.050466 -0.031679 -409068.000000 0 0 1
-27.534378 -32.770255 -15.448780 45.504905 0.872005 1.917178 0.040754 -0.027788 -286285.000000 0 0 1
-27.699218 -31.951155 -16.528380 45.401656 0.856559 1.943407 0.034265 -0.010765 -111628.000000 0 0 1
-26.936248 -32.535455 -17.764380 45.822380 0.879271 1.968909 0.044588 -0.012730 -210991.000000 0 0 1
-27.233968 -33.795455 -18.284380 47.097137 0.892500 1.969503 0.042211 -0.000988 -191389.000000 0 0 1
-26.850638 33.164100 -17.461680 46.105581 -0.890211 1.959223 0.025712 -0.016858 -511011.000000 0 0 1
-27.040488 31.809900 -18.252380 45.565416 -0.866264 1.982941 0.037241 -0.025108 619899.000000 0 0 1
-28.375838 31.392300 -18.538780 46.199038 -0.835825 1.983711 0.047523 -0.015520 247604.000000 0 0 1
-28.897778 31.964300 -19.740180 47.396970 -0.835740 2.000373 0.054169 -0.007683 766400.000000 0 0 1
-30.422978 31.710900 -20.028780 48.293797 -0.806123 1.998440 0.051762 -0.018833 863097.000000 0 0 1
-30.751128 30.378200 -20.339580 47.772015 -0.779298 2.010602 0.052061 -0.023568 607734.000000 0 0 1
-32.124538 30.194800 -20.681380 48.697345 -0.754443 2.009418 0.050800 -0.025042 291560.000000 0 0 1
-32.574968 28.760900 -20.808380 48.179940 -0.723295 2.017382 0.062701 -0.022988 -674535.000000 0 0 1
-33.926158 28.570600 -21.098680 49.116369 -0.699914 2.014808 0.063820 -0.025318 -269823.000000 0 0 1
-34.097733 27.178100 -21.420780 48.581420 -0.672949 2.027426 0.065639 -0.017847 -308804.000000 0 0 1
-35.535002 26.669200 -21.625180 49.412863 -0.643824 2.023772 0.085926 -0.011104 -128388.000000 0 0 1
-36.252728 27.321800 -22.657080 50.735435 -0.645832 2.033728 0.066566 -0.015079 -774736.000000 0 0 1
36.953040 26.445700 -23.168780 51.006809 0.621157 2.042303 0.088928 -0.015994 -506893.000000 0 0 1
36.007300 26.965000 -24.284580 51.121206 0.642781 2.065805 0.106030 -0.028924 296634.000000 0 0 1
36.659200 27.101200 -25.499040 52.235745 0.636601 2.080769 0.092534 -0.023324 400979.000000 0 0 1
35.674610 27.441700 -26.500510 52.230276 0.655690 2.102936 0.110981 -0.025785 861306.000000 0 0 1
36.367170 27.851600 -27.822040 53.594296 0.653565 2.116621 0.098506 -0.021708 348039.000000 0 0 1
36.776930 26.807200 -28.721530 53.815377 0.629869 2.133772 0.089372 -0.012578 -43975.400000 0 0 1
-36.686578 27.270400 -29.906450 54.625777 -0.639222 2.150145 0.046787 -0.002110 -358657.000000 0 0 1
-36.001731 26.152300 -30.645150 54.029554 -0.628237 2.173889 0.042305 -0.009716 158760.000000 0 0 1
-35.155849 25.254500 -29.922570 52.622084 -0.622941 2.175637 0.057597 -0.020156 -377607.000000 0 0 1
-33.825748 25.678400 -29.996520 51.993776 -0.649324 2.185756 0.032507 -0.007438 -804021.000000 0 0 1
-32.827698 24.862800 -29.183860 50.472907 -0.648203 2.187327 0.013386 -0.006253 -310226.000000 0 0 1
-32.542678 23.537500 -29.641080 49.916264 -0.626180 2.206590 0.046834 -0.015586 12460.300000 0 0 1
-32.859768 22.549900 -28.702640 49.113175 -0.601436 2.194959 0.046849 -0.009530 -113800.000000 0 0 1
-32.641308 21.060500 -29.114540 48.545403 -0.573001 2.213970 0.048718 -0.024615 -874692.000000 0 0 1
-31.286568 20.767500 -29.101190 47.508080 -0.586004 2.230082 0.086306 -0.024817 -757726.000000 0 0 1
-31.048488 19.513200 -29.702550 47.191261 -0.561094 2.251587 0.085279 -0.034927 -273014.000000 0 0 1
-29.604078 19.021900 -29.488220 45.910666 -0.571115 2.268286 0.115804 -0.036452 -1291800.000000 0 0 1
-28.696448 19.695600 -30.277270 46.131507 -0.601501 2.286734 0.139582 -0.037599 -239136.000000 0 0 1
-27.449498 19.009400 -30.237460 45.045935 -0.605690 2.306701 0.131817 -0.043814 149752.000000 0 0 1
-27.207798 17.771600 -31.138400 45.007711 -0.578608 2.334839 0.111511 -0.026241 -597263.000000 0 0 1
-27.899038 16.692800 -30.551860 44.614147 -0.539190 2.325128 0.084309 -0.023836 237605.000000 0 0 1
-28.107388 15.667400 -31.543160 45.060666 -0.508516 2.346215 0.055143 -0.009869 74629.400000 0 0 1
-28.657568 14.364800 -30.913060 44.533369 -0.464653 2.338042 0.065783 -0.010785 -469307.000000 0 0 1
-29.996808 14.387200 -30.519710 45.147013 -0.447215 2.313127 0.070365 -0.012633 -222689.000000 0 0 1
-30.552568 13.057700 -30.402090 45.036097 -0.403889 2.311843 0.067831 -0.007803 2788.390000 0 0 1
-30.348628 12.285700 -29.121790 43.818447 -0.384654 2.297756 0.044367 -0.015008 -266049.000000 0 0 1
-30.866128 12.921800 -27.954720 43.602261 -0.396471 2.266766 0.038188 -0.017133 314543.000000 0 0 1
-30.894118 12.036400 -26.837710 42.656584 -0.371510 2.251265 0.040030 -0.006279 -16025.500000 0 0 1
-30.645248 12.709500 -25.440370 41.807596 -0.393140 2.224979 0.027291 -0.018155 -278493.000000 0 0 1
-29.292458 12.988800 -25.216430 40.775304 -0.417367 2.237532 0.020928 -0.017912 -476029.000000 0 0 1
-29.079208 13.281300 -23.890080 39.909012 -0.428435 2.212566 0.023951 -0.011029 -866830.000000 0 0 1
-27.615818 13.593400 -23.699480 38.846870 -0.457414 2.226951 0.045707 -0.011062 -1704120.000000 0 0 1
-27.124488 14.749000 -24.428380 39.370251 -0.498034 2.240149 0.058927 -0.020358 1059090.000000 0 0 1
-25.702508 14.917800 -24.256980 38.360928 -0.525885 2.255361 0.060233 -0.020682 1003770.000000 0 0 1
-25.257628 15.260700 -22.816780 37.302040 -0.543503 2.228974 0.060452 -0.021532 -1200830.000000 0 0 1
-25.621808 16.586000 -22.411980 37.866467 -0.574502 2.204172 0.079219 -0.020079 334647.000000 0 0 1
-25.643658 16.758000 -20.976580 37.127412 -0.578828 2.171216 0.070196 -0.008488 -53515.900000 0 0 1
-27.098508 16.851700 -20.477080 37.915957 -0.556344 2.141311 0.067717 -0.014285 -66791.800000 0 0 1
-27.881968 15.681000 -20.603280 38.049876 -0.512318 2.142994 0.066961 -0.019819 19167.300000 0 0 1
-29.186928 16.037600 -20.203780 38.952203 -0.502443 2.116104 0.049358 -0.011067 -495037.000000 0 0 1
-30.285068 14.973200 -20.521080 39.528430 -0.459165 2.116649 0.016892 -0.011826 340082.000000 0 0 1
-30.882948 14.973700 -21.831280 40.676443 -0.451457 2.137324 0.019304 -0.010266 79730.700000 0 0 1
-31.672048 16.093100 -22.100780 41.839587 -0.470120 2.127307 0.002495 -0.002872 -662655.000000 0 0 1
-32.243248 16.115800 -23.553680 43.059516 -0.463503 2.149576 0.015494 -0.008610 722467.000000 0 0 1
-33.256618 15.107600 -23.849580 43.623901 -0.426402 2.149225 0.023036 -0.006610 651603.000000 0 0 1
-33.752488 15.269300 -25.145660 44.773722 -0.424840 2.167135 0.050571 -0.021730 1748260.000000 0 0 1
-35.234195 14.611700 -25.240760 45.738892 -0.393116 2.155371 0.051868 -0.017579 1812580.000000 0 0 1
-35.409474 13.219800 -25.364290 45.518581 -0.357315 2.161842 0.054419 -0.015551 -131477.000000 0 0 1
-35.080020 12.442000 -24.246680 44.421984 -0.340833 2.148171 0.034340 -0.012313 -211517.000000 0 0 1
-34.949356 10.951600 -24.487880 44.057364 -0.303665 2.160143 0.039664 -0.016124 236942.000000 0 0 1
-36.170908 10.390400 -24.943080 45.149222 -0.279727 2.156107 0.038243 -0.015028 373807.000000 0 0 1
-35.870432 9.184100 -25.569630 44.998240 -0.250651 2.175157 0.041302 -0.012784 460354.000000 0 0 1
36.975070 8.578900 -26.249580 46.149689 0.227985 2.175833 0.050210 -0.003504 203292.000000 0 0 1
35.982270 8.147900 -25.359820 44.768656 0.222687 2.173005 0.031237 -0.001465 -459179.000000 0 0 1
35.015330 7.418100 -26.067040 44.278574 0.208766 2.200253 0.036750 0.000248 -80579.300000 0 0 1
34.107800 6.551800 -25.145520 42.878495 0.189779 2.197449 0.051308 -0.002766 99492.000000 0 0 1
34.778010 5.506200 -24.485280 42.887728 0.157021 2.178417 0.042058 -0.007914 411589.000000 0 0 1
33.838350 4.692600 -23.789780 41.629414 0.137798 2.179087 0.045648 -0.001735 583397.000000 0 0 1
34.618370 3.728600 -22.860280 41.652448 0.107292 2.151765 0.036317 -0.005014 332090.000000 0 0 1
35.239460 2.623800 -23.492880 42.433705 0.074319 2.157522 0.041354 -0.011298 31356.300000 0 0 1
36.171610 1.988300 -22.664880 42.732137 0.054913 2.129862 0.062943 -0.010172 -1849.170000 0 0 1
36.828400 0.713400 -23.331480 43.602729 0.019368 2.135413 0.085635 -0.012073 467243.000000 0 0 1
35.964500 -0.449000 -23.500080 42.963946 -0.012484 2.149539 0.036294 -0.011075 121994.000000 0 0 1
36.593230 -1.673700 -23.740680 43.651869 -0.045706 2.145831 0.055764 -0.020255 -136525.000000 0 0 1
-23.573018 28.930600 27.372427 46.280845 -0.887088 0.937951 0.079559 -0.021221 -813544.000000 0 0 1
-24.877618 29.337000 27.034937 47.015352 -0.867468 0.958163 0.072420 -0.023907 398103.000000 0 0 1
-25.330758 29.111300 25.684177 46.355065 -0.854728 0.983545 0.070041 -0.022335 -165340.000000 0 0 1
-25.666508 27.656700 25.345767 45.454050 -0.822704 0.979289 0.081248 -0.019388 -341516.000000 0 0 1
-26.923038 27.217900 25.839117 46.187921 -0.790844 0.977093 0.088059 -0.019449 230807.000000 0 0 1
-27.057458 26.840200 27.215387 46.831396 -0.781367 0.950673 0.096010 -0.025461 -552202.000000 0 0 1
-26.381288 25.501200 27.668907 45.954891 -0.768437 0.924682 0.096551 -0.022605 397160.000000 0 0 1
-24.977618 25.560600 27.862957 45.316334 -0.796933 0.908595 0.096189 -0.020459 78417.000000 0 0 1
-24.631718 25.960500 29.206847 46.192089 -0.811657 0.886289 0.093480 -0.021510 1276780.000000 0 0 1
-23.118518 25.670000 29.604977 45.495818 -0.837647 0.862266 0.088238 -0.012503 886044.000000 0 0 1
-22.137518 26.486100 29.005917 45.087986 -0.874594 0.871972 0.096476 -0.025971 638519.000000 0 0 1
-20.870618 26.445300 29.661447 44.885834 -0.902676 0.848886 0.108381 -0.027129 1231630.000000 0 0 1
-19.936818 25.155800 29.767037 43.776335 -0.900625 0.823061 0.096571 -0.010408 -8520.530000 0 0 1
-19.325518 24.775200 28.525097 42.437806 -0.908348 0.833671 0.095686 -0.017021 328247.000000 0 0 1
-20.103918 23.973800 27.607187 41.726100 -0.872970 0.847807 0.098942 -0.019326 49070.300000 0 0 1
-19.984018 22.403900 27.665867 40.825188 -0.842425 0.826211 0.086286 -0.011261 206305.000000 0 0 1
-20.566118 21.794900 28.817997 41.574750 -0.814397 0.804931 0.069687 -0.011669 216636.000000 0 0 1
-20.247918 20.421500 28.793187 40.694760 -0.789666 0.784785 0.077235 -0.019561 151024.000000 0 0 1
-20.762918 19.800500 30.104097 41.586239 -0.761676 0.761364 0.087226 -0.020895 -279603.000000 0 0 1
-19.948218 20.184600 31.129387 42.123488 -0.791288 0.739207 0.069286 -0.026002 -158043.000000 0 0 1
-20.458318 19.687600 32.375374 43.061691 -0.766203 0.719953 0.068357 -0.016361 182947.000000 0 0 1
-19.610218 20.195100 33.589491 43.825297 -0.800091 0.697515 0.058490 -0.013354 -218295.000000 0 0 1
-19.693518 21.606300 33.721045 44.629315 -0.831680 0.714256 0.033559 -0.009460 326523.000000 0 0 1
-18.824518 22.404900 32.928538 44.052589 -0.872021 0.726532 0.052929 -0.001128 -590285.000000 0 0 1
-17.325318 22.420600 33.176866 43.629742 -0.912899 0.706839 0.038935 0.006204 -768633.000000 0 0 1
-16.615418 21.266000 32.803875 42.478337 -0.907554 0.688422 0.052712 -0.021836 -37733.700000 0 0 1
-15.343918 21.298000 33.440120 42.512143 -0.946484 0.665511 0.032263 -0.013930 -304599.000000 0 0 1
-14.489018 20.024400 33.163945 41.361280 -0.944427 0.640476 0.031801 -0.015698 338889.000000 0 0 1
-13.152418 20.112100 33.653833 41.352910 -0.991645 0.620100 0.029992 -0.019929 505426.000000 0 0 1
-12.997018 19.970500 -32.870060 40.597835 -0.993851 2.514353 0.042852 -0.016790 -935478.000000 0 0 1
-11.510418 19.988100 -32.544140 39.889033 -1.048313 2.525023 0.038549 -0.019065 -482172.000000 0 0 1
-10.879318 21.250700 -32.675200 40.467524 -1.097634 2.510600 0.042887 -0.015155 507559.000000 0 0 1
-9.517418 21.115200 -32.230310 39.689115 -1.147329 2.518486 0.046605 -0.016114 829408.000000 0 0 1
-8.754518 22.498400 -32.309600 40.332739 -1.199707 2.499887 0.052157 -0.022944 203882.000000 0 0 1
-8.761018 23.346900 -31.163410 39.912295 -1.211803 2.466737 0.055001 -0.023343 -179640.000000 0 0 1
-8.055618 22.854900 -30.076060 38.623941 -1.231925 2.463371 0.057151 -0.022678 -437784.000000 0 0 1
-7.772018 23.929800 -28.991370 38.386705 -1.256760 2.426824 0.070835 -0.024319 221469.000000 0 0 1
-6.672918 24.743600 -29.367640 38.977325 -1.307380 2.424097 0.064940 -0.024313 149512.000000 0 0 1
-6.411418 25.887800 -28.538500 39.060600 -1.328020 2.390028 0.083191 -0.023524 -284670.000000 0 0 1
-5.046918 26.474100 -28.900060 39.516615 -1.382421 2.391080 0.086366 -0.036016 -852659.000000 0 0 1
-3.927218 25.667100 -28.516580 38.567064 -1.418968 2.402979 0.092918 -0.025595 1078880.000000 0 0 1
-2.747518 25.879700 -29.330040 39.211720 -1.465028 2.415827 0.098543 -0.030202 973991.000000 0 0 1
-2.092418 27.278700 -29.198300 40.013078 -1.494241 2.388707 0.099340 -0.036422 -1103960.000000 0 0 1
-1.384418 27.466500 -27.986650 39.237454 -1.520435 2.364940 0.117912 -0.047544 150913.000000 0 0 1
-0.643318 28.656800 -27.953530 40.037806 -1.548351 2.343646 0.109046 -0.035211 -1247260.000000 0 0 1
-0.118218 28.767900 -26.519480 39.126575 -1.566687 2.315545 0.122250 -0.047990 211791.000000 0 0 1
0.899882 27.859000 -26.093220 38.181014 1.538506 2.323217 0.156421 -0.053748 756664.000000 0 0 1
2.111082 27.936600 -26.846250 38.802467 1.495373 2.334872 0.149226 -0.045163 -942175.000000 0 0 1
3.365882 28.127300 -26.023890 38.467090 1.451697 2.313828 0.128106 -0.051843 -579121.000000 0 0 1
3.766682 27.068300 -25.181630 37.161744 1.432530 2.315321 0.160203 -0.050463 446783.000000 0 0 1
5.071282 27.275700 -24.654880 37.115291 1.386969 2.297324 0.120775 -0.041999 322563.000000 0 0 1
5.632582 26.170700 -23.779180 35.806158 1.358805 2.297097 0.120216 -0.045285 -1024570.000000 0 0 1
6.935582 26.340000 -23.378680 35.895133 1.313330 2.280099 0.098955 -0.044525 -1210320.000000 0 0 1
7.401982 25.243700 -22.600980 34.681955 1.285570 2.280572 0.093356 -0.032353 -117944.000000 0 0 1
8.902182 25.251100 -22.287480 34.836743 1.231855 2.264994 0.080894 -0.009724 -898914.000000 0 0 1
9.211982 26.227600 -21.261980 34.997420 1.233024 2.223743 0.072944 -0.005963 181779.000000 0 0 1
10.569882 26.471500 -20.947980 35.373445 1.190900 2.204577 0.073156 -0.014841 254426.000000 0 0 1
11.356782 25.271600 -20.346280 34.374429 1.148451 2.204212 0.051114 -0.001397 -358428.000000 0 0 1
11.799382 24.372500 -21.433180 34.534409 1.119928 2.240346 0.047403 -0.004868 50325.700000 0 0 1
12.342082 23.255100 -20.798180 33.551318 1.082871 2.239401 0.039761 0.000213 -107013.000000 0 0 1
12.529982 21.982100 -21.762580 33.373988 1.052721 2.281124 0.039393 -0.004127 1215090.000000 0 0 1
11.217082 21.454700 -22.104180 32.782951 1.089055 2.310756 0.047369 -0.019247 1218650.000000 0 0 1
11.330182 20.721100 -23.244780 33.136940 1.070418 2.348263 0.062559 -0.026086 -313078.000000 0 0 1
10.648882 21.232600 -24.498780 34.123485 1.105922 2.371642 0.073192 -0.029000 31954.700000 0 0 1
9.274482 20.868000 -24.532880 33.516438 1.152579 2.391999 0.071326 -0.032953 -237810.000000 0 0 1
8.762982 20.900600 -25.819610 34.355163 1.173790 2.421204 0.075464 -0.036019 -602611.000000 0 0 1
7.307682 20.398000 -25.846970 33.727533 1.226787 2.443931 0.093022 -0.045565 221443.000000 0 0 1
6.263282 21.164700 -25.261380 33.545649 1.283077 2.423474 0.109269 -0.048845 337762.000000 0 0 1
6.378282 21.323000 -23.861580 32.630167 1.280141 2.390984 0.107949 -0.044699 -1650160.000000 0 0 1
5.046582 21.547900 -23.166880 32.038794 1.340740 2.379059 0.128020 -0.054966 -522799.000000 0 0 1
4.433582 22.772500 -23.499880 33.022534 1.378512 2.362614 0.125224 -0.048163 -129835.000000 0 0 1
3.035882 22.655800 -23.640180 32.884038 1.437590 2.373008 0.151356 -0.051561 -27487.500000 0 0 1
2.373982 23.923400 -24.181680 34.098659 1.471888 2.359114 0.130300 -0.047806 994031.000000 0 0 1
0.958882 23.834500 -24.446580 34.156085 1.530587 2.368467 0.156196 -0.067257 991267.000000 0 0 1
0.389882 24.807300 -25.285300 35.424575 1.555081 2.365675 0.147747 -0.059051 814030.000000 0 0 1
-1.152718 24.829500 -25.550950 35.646653 -1.524404 2.369976 0.154606 -0.054648 660350.000000 0 0 1
-1.521218 23.633900 -26.130300 35.265676 -1.506519 2.405289 0.159565 -0.062420 -218515.000000 0 0 1
-2.889418 23.728000 -26.471460 35.666580 -1.449620 2.407132 0.152407 -0.047129 -251904.000000 0 0 1
-3.490318 22.450700 -27.078990 35.348097 -1.416565 2.443495 0.139826 -0.048728 -530145.000000 0 0 1
-2.890218 21.999700 -28.267350 35.935821 -1.440169 2.476090 0.172205 -0.067618 -317383.000000 0 0 1
-3.285718 20.767000 -28.685380 35.565647 -1.413879 2.509085 0.128411 -0.061626 -183370.000000 0 0 1
-4.617618 20.675600 -29.491860 36.312156 -1.351066 2.518669 0.083600 -0.045664 -26899.100000 0 0 1
-4.676218 21.140800 -30.823880 37.668449 -1.353107 2.529234 0.096807 -0.046502 -198855.000000 0 0 1
-4.328818 22.444100 -31.002660 38.518064 -1.380265 2.506280 0.133348 -0.051074 -524531.000000 0 0 1
-3.784118 22.691200 -32.407260 39.742177 -1.405551 2.524281 0.116988 -0.042895 580691.000000 0 0 1
-2.568418 21.965100 -32.689900 39.467607 -1.454393 2.546812 0.107778 -0.043003 843571.000000 0 0 1
-2.128118 22.334800 33.937427 40.683180 -1.475800 0.584137 0.109375 -0.021586 -855105.000000 0 0 1
-0.965718 21.515900 33.451308 39.785130 -1.525942 0.572038 0.125227 -0.014167 -790697.000000 0 0 1
-1.213318 20.155300 33.148535 38.814091 -1.510670 0.547106 0.103902 -0.012375 -24125.500000 0 0 1
-0.135018 19.601900 32.426714 37.891220 -1.563908 0.543731 0.106114 -0.014969 54621.000000 0 0 1
-0.429818 18.184000 31.830917 36.661286 -1.547164 0.519146 0.087527 -0.019325 -280204.000000 0 0 1
-1.317218 18.062600 30.783477 35.715754 -1.498000 0.531788 0.066621 -0.013719 -354720.000000 0 0 1
-1.668118 16.738000 30.515967 34.844907 -1.471464 0.503777 0.057971 -0.010213 166278.000000 0 0 1
-2.728218 16.634600 29.380487 33.872793 -1.408235 0.520889 0.055202 -0.001941 -170350.000000 0 0 1
-4.046718 16.991700 29.653557 34.415509 -1.336993 0.532317 0.034334 -0.007434 -329784.000000 0 0 1
-4.442218 18.303000 29.249547 34.788923 -1.332696 0.572089 0.039650 -0.009992 385960.000000 0 0 1
-5.956318 18.616100 29.440777 35.338312 -1.261134 0.586086 0.026340 -0.014734 826427.000000 0 0 1
-6.760218 17.902300 28.501827 34.329973 -1.209733 0.591273 0.019930 -0.005851 760004.000000 0 0 1
-8.170718 18.144500 28.595117 34.837684 -1.147681 0.607969 0.029462 -0.011844 117070.000000 0 0 1
-9.051418 17.202400 27.827387 33.944281 -1.086431 0.609742 0.026447 -0.016047 -634174.000000 0 0 1
-9.222018 15.897000 28.342577 33.779608 -1.045130 0.575273 0.035578 -0.026096 -38215.300000 0 0 1
-10.051118 15.831000 29.480957 34.939553 -1.005109 0.566527 0.038709 -0.024369 -490273.000000 0 0 1
-10.813118 14.509900 29.669427 34.752491 -0.930359 0.547679 0.040870 -0.022415 -173507.000000 0 0 1
-10.002318 13.416900 30.012837 34.363207 -0.930181 0.508655 0.046595 -0.015967 109480.000000 0 0 1
-9.394818 13.455500 31.336847 35.373876 -0.961270 0.482419 0.047514 -0.015311 -211694.000000 0 0 1
-10.126418 12.936000 32.565510 36.474606 -0.906626 0.467213 0.079465 -0.028968 -423065.000000 0 0 1
-10.211018 11.558700 32.427957 35.908785 -0.847226 0.443944 0.065718 -0.026314 321852.000000 0 0 1
-10.800018 11.117600 33.631094 37.030959 -0.799887 0.431861 0.066579 -0.024495 -248999.000000 0 0 1
-10.920918 9.522700 33.801880 36.776560 -0.717111 0.404969 0.048305 -0.018709 -781130.000000 0 0 1
-9.715118 8.890600 -33.867390 36.337672 -0.741112 2.770740 0.067254 -0.023391 -542377.000000 0 0 1
-9.840818 8.066200 -32.754790 35.139459 -0.686619 2.771067 0.088507 -0.029682 -180113.000000 0 0 1
-9.186918 8.641100 -31.475860 33.908669 -0.754792 2.760487 0.072511 -0.029777 -358620.000000 0 0 1
-9.757518 9.865200 -31.037660 33.998054 -0.790886 2.721190 0.071382 -0.029275 372270.000000 0 0 1
-8.839618 10.796100 -30.434610 33.480743 -0.884709 2.711719 0.074553 -0.035504 268885.000000 0 0 1
-8.042418 11.724200 -31.397860 34.466839 -0.969550 2.716398 0.057337 -0.026266 257308.000000 0 0 1
-8.689818 12.933900 -31.642230 35.270802 -0.979204 2.684009 0.055884 -0.024171 448489.000000 0 0 1
-7.652418 13.877300 -31.941780 35.656925 -1.066853 2.681044 0.040187 -0.017438 441198.000000 0 0 1
-8.088518 15.335000 -32.191350 36.563224 -1.085427 2.647564 0.047876 -0.018197 -44319.100000 0 0 1
-8.777118 15.502400 -33.415610 37.867733 -1.055617 2.651798 0.054964 -0.026349 110936.000000 0 0 1
-9.073918 16.876200 -33.646170 38.719593 -1.077465 2.623914 0.062502 -0.025782 -1167480.000000 0 0 1
-9.681518 17.076800 32.833948 38.254634 -1.055041 0.538849 0.070275 -0.030048 857086.000000 0 0 1
-10.904718 16.374800 32.560586 38.042591 -0.983293 0.543511 0.049158 -0.027207 22148.200000 0 0 1
-11.966618 16.788000 33.342633 39.201634 -0.951526 0.553781 0.045180 -0.036775 -1641090.000000 0 0 1
-13.343818 16.436000 32.729376 38.979631 -0.888862 0.574152 0.046608 -0.040532 -54470.900000 0 0 1
-13.552518 15.042400 32.668182 38.433770 -0.837454 0.554837 0.041002 -0.037753 -124491.000000 0 0 1
-14.930618 14.798200 32.614798 38.802515 -0.780944 0.572530 0.037981 -0.025461 -414563.000000 0 0 1
-15.289218 13.289300 32.821722 38.569821 -0.715532 0.552969 0.038590 -0.017103 -127535.000000 0 0 1
-15.232618 12.622100 31.602897 37.283954 -0.691952 0.559299 0.013825 -0.017250 332819.000000 0 0 1
-13.952018 12.047300 31.371767 36.386592 -0.712268 0.531240 0.025822 -0.009021 99039.600000 0 0 1
-13.726318 11.357100 30.016607 34.905476 -0.691224 0.535645 0.014286 -0.003725 -258615.000000 0 0 1
-14.491918 10.198000 29.838087 34.703406 -0.613207 0.535913 0.006607 -0.000297 -62389.300000 0 0 1
-14.410018 9.773700 28.496027 33.394572 -0.595984 0.548489 -0.004762 0.001199 390281.000000 0 0 1
-15.262018 8.534900 28.015287 33.024689 -0.509898 0.558004 0.009948 0.000755 445761.000000 0 0 1
-14.623418 7.365000 28.473487 32.845503 -0.466559 0.521864 0.003438 -0.002014 -26190.100000 0 0 1
-15.283818 6.215700 28.009617 32.507979 -0.386256 0.532338 0.013659 0.002927 -28677.400000 0 0 1
-14.403118 4.927200 28.115127 31.971667 -0.329613 0.496246 0.016259 0.002605 590723.000000 0 0 1
-13.448018 4.839700 27.052397 30.595818 -0.345451 0.486048 0.008918 -0.006892 153244.000000 0 0 1
-14.048818 4.491500 25.790557 29.710196 -0.309437 0.519493 0.014842 -0.003628 359629.000000 0 0 1
-13.048318 4.372100 24.547517 28.141686 -0.323313 0.510944 0.018066 0.005924 180068.000000 0 0 1
-12.279018 3.201200 24.699117 27.768118 -0.255028 0.474596 0.016763 -0.001829 -182686.000000 0 0 1
-11.543518 2.977500 23.527087 26.375029 -0.252435 0.468999 0.017556 -0.006430 -34736.700000 0 0 1
-10.591118 1.719000 23.540907 25.870854 -0.160903 0.427659 0.017019 -0.016423 -63793.000000 0 0 1
-9.325618 2.039800 24.043277 25.869038 -0.215339 0.377950 0.018661 -0.015266 -514629.000000 0 0 1
-8.616918 0.882300 24.392157 25.884495 -0.102036 0.341222 0.023795 -0.015409 45114.800000 0 0 1
-7.078018 1.066300 24.421377 25.448753 -0.149525 0.285114 0.045163 -0.017294 -303499.000000 0 0 1
-6.585118 1.066500 23.102107 24.045968 -0.160562 0.281112 0.046851 -0.017194 -364598.000000 0 1 0
-5.214418 1.281000 22.903767 23.524746 -0.240894 0.230277 0.047387 -0.020071 -216232.000000 0 1 0
-4.670718 2.767300 23.222027 23.848189 -0.534871 0.229660 0.065990 -0.026572 -567721.000000 0 1 0
-4.525218 2.989300 24.636507 25.226395 -0.583782 0.216682 0.061842 -0.021796 108124.000000 0 0 1
-4.386818 4.362800 24.945867 25.701644 -0.782653 0.243109 0.059272 -0.028730 8444.890000 0 0 1
4.134582 -23.457900 12.485920 26.893606 -1.396333 1.087985 0.106999 -0.016788 144054.000000 0 0 1
4.025682 -24.632200 13.213320 28.240808 -1.408797 1.083905 0.109211 -0.019883 -714443.000000 0 0 1
2.754182 -25.202250 13.125620 28.548570 -1.461945 1.093066 0.108400 -0.020192 -239709.000000 0 0 1
2.589282 -26.397670 14.019720 30.001565 -1.473022 1.084562 0.103552 -0.011076 -30395.200000 0 0 1
2.400482 -26.152020 15.414520 30.451566 -1.479263 1.040026 0.109143 -0.016228 20524.200000 0 0 1
2.420782 -27.353320 16.123520 31.843872 -1.482526 1.039872 0.085916 -0.018804 -168710.000000 0 0 1
2.122582 -27.200120 17.653520 32.496133 -1.492918 0.996493 0.092446 -0.016775 -158610.000000 0 0 1
3.111482 -26.569730 18.422220 32.480918 -1.454221 0.967730 0.105344 -0.024610 -96081.600000 0 0 1
3.119882 -27.004540 19.771220 33.613687 -1.455775 0.941978 0.093856 -0.028075 -137989.000000 0 0 1
3.880282 -26.036970 20.657020 33.461812 -1.422855 0.905451 0.086898 -0.025475 -75942.000000 0 0 1
3.108482 -24.876000 20.986420 32.694156 -1.446482 0.873821 0.097806 -0.024770 474677.000000 0 0 1
3.850682 -23.928300 21.776120 32.582061 -1.411238 0.838812 0.109647 -0.036543 219114.000000 0 0 1
2.962982 -22.813600 22.365020 32.084789 -1.441641 0.799508 0.110127 -0.040346 87486.100000 0 0 1
2.259782 -21.938900 21.494620 30.796763 -1.468155 0.798265 0.109298 -0.037814 821123.000000 0 0 1
3.124182 -21.245000 20.523620 29.704032 -1.424788 0.808012 0.095301 -0.026383 397635.000000 0 0 1
2.399982 -20.141500 19.733520 28.299324 -1.452199 0.799153 0.068774 -0.033748 695.026000 0 0 1
1.989682 -19.057900 20.569220 28.111478 -1.466771 0.749981 0.051508 -0.034501 312676.000000 0 0 1
1.085282 -18.159200 19.925020 26.980378 -1.511102 0.739953 0.054862 -0.042317 112297.000000 0 0 1
0.895382 -16.865100 20.770520 26.770278 -1.517755 0.682688 0.056559 -0.039739 852858.000000 0 0 1
2.121782 -16.105300 20.787820 26.382117 -1.439806 0.663322 0.032190 -0.023341 965633.000000 0 0 1
1.813682 -14.794900 21.275120 25.977090 -1.448817 0.611138 0.051629 -0.018742 936542.000000 0 0 1
2.885982 -13.737700 20.763220 25.063212 -1.363730 0.594490 0.005486 -0.019212 36579.900000 0 0 1
2.985382 -13.364300 19.407020 23.751830 -1.351020 0.614478 -0.005670 -0.015295 1124530.000000 0 1 0
1.790582 -12.814700 18.745320 22.777395 -1.431966 0.604161 0.011678 -0.003707 1422610.000000 0 1 0
1.117282 -11.557700 19.355120 22.570986 -1.474426 0.540363 0.019396 -0.008632 -135990.000000 0 1 0
1.863682 -10.360200 19.124220 21.829861 -1.392811 0.503171 0.014857 -0.006258 -56407.500000 0 1 0
1.551082 -9.328900 20.060720 22.178068 -1.406037 0.440521 0.027075 -0.019482 21837.400000 0 1 0
0.083982 -8.855300 20.154420 22.014178 -1.561313 0.413998 0.052367 -0.028037 22038.600000 0 1 0
-0.218418 -7.832200 21.089720 22.498163 1.542916 0.355716 0.057916 -0.042783 -511566.000000 0 1 0
-1.559318 -7.439400 20.956020 22.291947 1.364185 0.347957 0.052554 -0.043380 -467727.000000 0 1 0
-2.033718 -6.826300 22.310320 23.419751 1.281245 0.309032 0.050242 -0.037699 -294477.000000 0 1 0
-2.023918 -7.787500 23.281120 24.632335 1.316528 0.332759 0.051219 -0.031922 35233.100000 0 1 0
-2.184718 -7.293100 24.554020 25.707240 1.279744 0.300663 0.049039 -0.019757 -337775.000000 0 0 1
-2.314518 -8.412400 25.626120 27.070713 1.302308 0.328162 0.056735 -0.015728 -407157.000000 0 0 1
-1.294518 -9.362100 25.745620 27.425565 1.433395 0.351825 0.051550 -0.014549 -382864.000000 0 0 1
-1.529918 -10.221400 26.833220 28.754814 1.422221 0.367654 0.059499 -0.020943 -802418.000000 0 0 1
-0.465718 -11.269500 27.018920 29.278671 1.529494 0.395461 0.053905 -0.021212 154898.000000 0 0 1
0.693282 -10.687700 27.671220 29.671602 -1.506020 0.369294 0.049373 -0.019481 818991.000000 0 0 1
1.695582 -11.639800 28.027720 30.395937 -1.426143 0.397355 0.067936 -0.032208 -17977.900000 0 0 1
2.780782 -11.100200 28.940820 31.121026 -1.325332 0.376535 0.083584 -0.034951 -399191.000000 0 0 1
2.299282 -10.587400 30.145120 32.032920 -1.356946 0.345025 0.082971 -0.038522 22487.200000 0 0 1
3.346182 -10.187500 31.020620 32.821653 -1.253439 0.332814 0.106606 -0.031518 -51052.500000 0 0 1
2.857182 -9.770300 32.438520 33.998232 -1.286294 0.304077 0.101580 -0.034775 -182699.000000 0 0 1
2.311382 -10.867200 33.147720 34.960118 -1.361226 0.323407 0.101407 -0.039494 108730.000000 0 0 1
2.025482 -10.548300 -33.429528 35.112712 -1.381086 2.830708 0.090009 -0.041130 -56573.900000 0 0 1
3.197182 -10.712400 -32.413228 34.286949 -1.280757 2.809468 0.083473 -0.025502 -120204.000000 0 0 1
4.200382 -9.760200 -32.621128 34.308056 -1.164396 2.826701 0.069572 -0.034563 -257117.000000 0 0 1
4.403582 -8.819400 -31.552228 33.056262 -1.107704 2.838778 0.091539 -0.033813 -239836.000000 0 0 1
3.353282 -7.710100 -31.241828 32.353392 -1.160553 2.878703 0.082787 -0.030452 -8091.070000 0 0 1
3.363382 -6.671300 -32.169428 33.025607 -1.103829 2.913393 0.104900 -0.037383 -119923.000000 0 0 1
2.820182 -5.509100 -31.663928 32.263105 -1.097664 2.948567 0.089743 -0.020326 -104184.000000 0 0 1
3.049182 -4.301900 -32.530328 32.954910 -0.954190 2.980897 0.090257 -0.020611 481222.000000 0 0 1
2.181882 -4.284000 -33.675328 34.016775 -1.099729 2.999787 0.086133 -0.028749 259515.000000 0 0 1
2.424882 -3.081800 33.523820 33.752393 -0.904132 0.116445 0.099154 -0.016981 165558.000000 0 0 1
1.881582 -3.101500 32.086520 32.290934 -1.025488 0.112580 0.101689 -0.025307 -757462.000000 0 0 1
0.512182 -3.069200 31.958220 32.109346 -1.405442 0.097060 0.090017 -0.022189 -1313360.000000 0 0 1
0.065582 -3.609400 30.711120 30.922564 -1.552629 0.117010 0.076831 -0.009224 -3314.980000 0 0 1
-1.449018 -3.810900 30.616720 30.886990 1.207448 0.132386 0.053899 -0.012412 -202056.000000 0 0 1
-2.217018 -2.631800 30.455320 30.649112 0.870733 0.112513 0.051052 -0.015223 -71962.900000 0 0 1
-3.566618 -3.037700 30.285320 30.645538 0.705482 0.153476 0.034478 -0.011161 270412.000000 0 0 1
-4.487218 -2.006900 29.622920 30.027989 0.420563 0.164440 0.038022 -0.018487 -300737.000000 0 0 1
-4.225618 -1.890500 28.234920 28.611895 0.420681 0.162509 0.049799 -0.016894 160516.000000 0 0 1
-5.177618 -1.189100 27.415320 27.925283 0.225747 0.191403 0.045152 -0.020080 312057.000000 0 0 1
-5.423918 0.302500 27.601420 28.130922 -0.055714 0.194330 0.056486 -0.022938 237100.000000 0 0 1
-6.451418 0.539500 28.566820 29.291211 -0.083431 0.222860 0.057627 -0.018814 -7129.900000 0 0 1
-6.601718 1.930300 28.814520 29.624066 -0.284464 0.234319 0.059218 -0.013439 -791930.000000 0 0 1
-7.938418 2.420400 29.384520 30.534027 -0.295943 0.275265 0.031957 -0.013953 -593130.000000 0 0 1
-9.052818 2.075300 28.605920 30.075888 -0.225350 0.313939 0.017601 -0.007408 -1042440.000000 0 0 1
-10.177518 2.435700 29.321020 31.132567 -0.234903 0.342816 0.018656 -0.001743 -1123010.000000 0 0 1
-11.441318 1.926900 28.616220 30.878872 -0.166850 0.385196 0.019685 -0.003767 -403739.000000 0 0 1
-11.596218 0.500600 28.824220 31.073438 -0.043142 0.382817 0.026522 -0.004462 34903.100000 0 0 1
-12.079918 -0.056500 27.622120 30.148120 0.004677 0.412270 0.022531 -0.002613 -981940.000000 0 0 1
-12.224318 -1.621800 27.751820 30.368202 0.131900 0.418143 0.038041 -0.003920 619572.000000 0 0 1
-11.046118 -2.424100 28.042020 30.236532 0.216028 0.383337 0.049012 -0.005891 1205110.000000 0 0 1
-9.850718 -2.154400 27.331220 29.132004 0.215315 0.353446 0.045760 -0.005403 -339631.000000 0 0 1
-9.878718 -2.715200 25.887520 27.841068 0.268230 0.376840 0.044157 -0.008707 -107487.000000 0 0 1
-10.791218 -2.070600 24.950220 27.262635 0.189574 0.414842 0.027362 -0.009649 860749.000000 0 0 1
-10.800418 -2.724200 23.705120 26.191659 0.247077 0.439267 0.033597 -0.011398 -956879.000000 0 0 1
-9.746918 -2.352400 22.681020 24.798485 0.236819 0.416246 0.038067 -0.016892 508231.000000 0 1 0
-8.424318 -2.670900 23.201120 24.827300 0.307021 0.363944 0.046668 -0.020716 657740.000000 0 1 0
-7.559218 -2.346200 22.126420 23.499466 0.300949 0.343531 0.042323 -0.023866 -563117.000000 0 1 0
-6.056218 -2.353000 22.455020 23.376105 0.370576 0.281654 0.057525 -0.031648 -65808.500000 0 1 0
-5.356718 -3.559400 22.362120 23.268609 0.586483 0.280047 0.058741 -0.035686 -59747.700000 0 1 0
-5.725118 -4.523600 23.375820 24.488138 0.668695 0.302558 0.060684 -0.027629 -247036.000000 0 1 0
-5.566418 -5.966200 22.809520 24.225085 0.820050 0.343546 0.070764 -0.031449 19310.600000 0 1 0
-6.538018 -6.320800 21.828720 23.647224 0.768507 0.394735 0.069182 -0.037953 -42229.400000 0 1 0
-6.280818 -5.834200 20.525020 22.243269 0.748550 0.395635 0.063940 -0.043798 -414820.000000 0 1 0
-7.515118 -5.962500 19.587620 21.810623 0.670704 0.455418 0.050173 -0.038130 845624.000000 0 1 0
-8.604618 -5.134100 20.044820 22.409668 0.537966 0.463548 0.060892 -0.029265 845170.000000 0 1 0
-9.654318 -4.953800 19.069820 21.940921 0.474086 0.517328 0.054108 -0.023514 610984.000000 0 1 0
-10.210618 -3.511100 19.193020 22.021729 0.331201 0.512443 0.039665 -0.024002 -86649.600000 0 1 0
-9.282818 -2.639600 18.608920 20.962588 0.277041 0.478426 0.030473 -0.029181 92414.100000 0 1 0
-9.672118 -1.307500 18.796220 21.179171 0.134368 0.478935 0.025267 -0.017133 -240370.000000 0 1 0
-8.641518 -0.320600 18.160320 20.114071 0.037083 0.444405 0.022052 -0.018511 115082.000000 0 1 0
-7.409118 -0.217600 18.840120 20.245802 0.029361 0.374832 0.025610 -0.016898 76241.500000 0 1 0
-7.489618 0.503000 20.093420 21.449776 -0.067059 0.357525 0.027059 -0.018612 -584687.000000 0 1 0
-7.419418 2.022300 20.096920 21.517984 -0.266104 0.365461 0.027257 -0.016437 -344121.000000 0 1 0
-8.527618 2.620100 19.461620 21.408873 -0.298094 0.429811 0.021043 -0.012796 190330.000000 0 1 0
-8.144318 3.866500 19.088320 21.110275 -0.443243 0.441248 0.020067 -0.015984 -293508.000000 0 1 0
-9.004918 4.419400 17.967220 20.577673 -0.456241 0.509186 0.026488 -0.010141 -526927.000000 0 1 0
-10.303218 4.760100 18.408220 21.625851 -0.432789 0.552503 0.017022 0.002801 -524887.000000 0 1 0
-11.113718 5.054700 17.352520 21.217320 -0.426852 0.613137 0.029261 0.010664 -646142.000000 0 1 0
-11.277418 6.601200 17.094920 21.517255 -0.529575 0.652654 0.032815 0.007484 -882335.000000 0 1 0
-10.024418 7.172300 16.923620 20.936565 -0.621042 0.629489 0.020990 0.002550 -456423.000000 0 1 0
-10.094318 8.538400 16.886720 21.446698 -0.702087 0.664248 0.008647 0.004358 422182.000000 0 1 0
-8.756818 9.335900 17.026820 21.301490 -0.817394 0.644625 0.012814 0.004152 379809.000000 0 1 0
-8.663318 9.823300 18.319320 22.519942 -0.848063 0.620701 0.033919 0.019945 -164058.000000 0 1 0
-8.125018 11.133400 18.443720 23.024754 -0.940357 0.641768 0.041024 0.012119 -237585.000000 0 1 0
-9.001118 12.301900 17.920020 23.526240 -0.939120 0.704858 0.052077 0.006496 59631.000000 0 1 0
-8.831318 12.431400 16.529520 22.489040 -0.953122 0.745125 0.046638 -0.007866 -191392.000000 0 1 0
-9.505118 13.576400 16.140620 23.134077 -0.959989 0.798616 0.055843 -0.018715 -349270.000000 0 1 0
-9.022118 14.052000 14.720120 22.260711 -1.000029 0.848299 0.049498 -0.018648 371907.000000 0 1 0
-7.825118 14.797900 14.841920 22.371699 -1.084376 0.845411 0.040315 -0.007069 -95366.700000 0 1 0
-7.611218 15.501300 13.633820 22.002318 -1.114370 0.902495 0.028483 -0.005948 -371319.000000 0 1 0
-6.568718 16.595300 13.774820 22.545458 -1.193900 0.913499 0.005200 0.000954 165458.000000 0 1 0
-5.224218 16.115600 13.833320 21.871574 -1.257314 0.886046 0.003532 -0.010308 436167.000000 0 1 0
-4.368118 17.295700 13.730020 22.510778 -1.323414 0.914823 0.007619 -0.009484 998956.000000 0 1 0
-2.859718 16.891000 13.633420 21.894154 -1.403082 0.898612 0.018220 -0.016814 643770.000000 0 1 0
-2.097718 16.397700 14.744120 22.151164 -1.443560 0.842480 0.026327 -0.016409 402066.000000 0 1 0
-2.612118 15.152600 15.271120 21.670984 -1.400087 0.788824 0.025813 -0.008638 450425.000000 0 1 0
-1.629218 14.401600 16.301720 21.812989 -1.458148 0.726747 0.031036 -0.005428 805360.000000 0 1 0
-0.460718 13.864100 15.680220 20.935492 -1.537578 0.724278 0.031435 -0.026720 610831.000000 0 1 0
0.582482 13.566700 16.620520 21.462439 1.527888 0.685030 0.032943 -0.005081 1110060.000000 0 1 0
1.549882 14.731500 17.052120 22.587475 1.465973 0.715238 0.033562 -0.012519 66847.000000 0 1 0
0.855082 15.608400 17.907020 23.770037 1.516068 0.717664 0.029026 -0.012651 -233766.000000 0 1 0
1.708282 16.579200 18.420120 24.841274 1.468121 0.735474 0.053661 -0.015904 -890574.000000 0 1 0
0.963582 17.762600 19.042520 26.058703 1.516602 0.751369 0.049626 -0.011482 177059.000000 0 0 1
0.240082 18.618200 18.154920 26.005694 1.557902 0.798037 0.033433 -0.009856 203661.000000 0 0 1
-0.962518 18.031800 17.688620 25.277648 -1.517468 0.795716 0.043599 -0.009158 -921852.000000 0 0 1
-1.746518 18.928700 16.736920 25.327268 -1.478789 0.848877 0.037649 -0.011033 -315500.000000 0 0 1
-2.184018 20.101700 17.437620 26.700540 -1.462572 0.859150 0.035196 -0.005806 57947.700000 0 0 1
-2.773118 20.977200 16.489020 26.825750 -1.439362 0.908827 0.040480 -0.008364 -341364.000000 0 0 1
-3.367218 22.245600 17.185220 28.311423 -1.420571 0.918508 0.040119 -0.002926 -443447.000000 0 0 1
-4.533218 22.055700 17.934620 28.786360 -1.368084 0.898192 0.046735 -0.002061 -400654.000000 0 0 1
-4.766118 23.143100 18.736320 30.155740 -1.367695 0.900372 0.050282 0.003643 -61922.300000 0 0 1
-5.917618 22.862000 19.730520 30.773083 -1.317514 0.874785 0.030535 0.002722 -65872.000000 0 0 1
-7.191518 22.880800 19.150920 30.692127 -1.266269 0.896986 0.022187 -0.001667 -464141.000000 0 0 1
-8.217018 22.646400 20.089420 31.368194 -1.222729 0.875726 0.011829 -0.007718 280567.000000 0 0 1
-9.630818 22.834000 19.485620 31.525126 -1.171660 0.904475 0.011046 -0.013890 39099.400000 0 0 1
-10.084118 24.161800 19.591220 32.700121 -1.175416 0.928398 0.020621 -0.007313 329354.000000 0 0 1
-11.412718 24.138700 19.063420 32.807635 -1.129147 0.950758 0.028858 -0.008062 496236.000000 0 0 1
-12.255718 25.429000 19.158220 34.115598 -1.121686 0.974517 0.043501 -0.010459 -21334.800000 0 0 1
-12.744818 25.630200 20.497020 35.206041 -1.109345 0.949362 0.044942 -0.009905 150220.000000 0 0 1
-13.393318 26.892800 20.618420 36.437932 -1.108729 0.969332 0.056790 -0.016541 10763.800000 0 0 1
-14.222918 26.848900 21.948220 37.481718 -1.083641 0.945212 0.080097 -0.027330 423103.000000 0 0 1
-15.620318 26.609300 21.816420 37.788958 -1.039972 0.955351 0.068165 -0.029829 458496.000000 0 0 1
-16.303318 26.775000 23.029920 38.898278 -1.023858 0.937190 0.064701 -0.022568 -636727.000000 0 0 1
-17.757118 26.364300 23.041920 39.259669 -0.978058 0.943558 0.081868 -0.024656 -684320.000000 0 0 1
-18.010718 24.987900 23.092320 38.497225 -0.946261 0.927491 0.089636 -0.027717 302797.000000 0 0 1
-19.412918 24.872500 23.327820 39.238881 -0.908061 0.934143 0.100778 -0.031340 476284.000000 0 0 1
28.154982 23.974400 23.109487 43.606459 0.705373 1.012248 0.068354 -0.014894 56883.900000 0 0 1
27.809582 23.444400 24.370567 43.782842 0.700436 0.980480 0.063055 -0.026836 -48276.900000 0 0 1
27.372182 22.130000 24.113727 42.666674 0.679893 0.970163 0.065846 -0.017612 -82446.800000 0 0 1
26.828682 21.369800 25.330307 42.638844 0.672620 0.934692 0.077041 -0.028938 -1310250.000000 0 0 1
25.590082 21.661800 25.793137 42.300967 0.702454 0.915048 0.083745 -0.023490 -1184470.000000 0 0 1
25.593082 21.001400 27.046857 42.750405 0.687170 0.885801 0.088238 -0.030912 125234.000000 0 0 1
24.267482 21.262400 27.793617 42.585038 0.719491 0.859704 0.098821 -0.026720 -185253.000000 0 0 1
24.173382 22.609700 28.215897 43.493537 0.751987 0.864872 0.099039 -0.040830 -81306.100000 0 0 1
23.120582 22.705700 29.131307 43.574570 0.776345 0.838554 0.103047 -0.030125 -360468.000000 0 0 1
22.884982 24.127400 29.668907 44.565658 0.811819 0.842318 0.099268 -0.024248 -409925.000000 0 0 1
22.235882 24.890700 28.673057 44.001427 0.841672 0.861053 0.100895 -0.033689 232054.000000 0 0 1
21.641282 26.096800 29.147747 44.709945 0.878461 0.860670 0.087053 -0.027599 141893.000000 0 0 1
20.307182 26.080400 29.944737 44.601078 0.909218 0.834713 0.099901 -0.028573 -618375.000000 0 0 1
19.280382 25.706900 29.055217 43.321859 0.927290 0.835668 0.104022 -0.035271 1485920.000000 0 0 1
17.929182 25.855700 29.627817 43.217824 0.964492 0.815443 0.097017 -0.027654 1875420.000000 0 0 1
17.385682 24.761600 30.614737 43.042548 0.958647 0.779497 0.071360 -0.030412 -726141.000000 0 0 1
18.077182 24.498500 31.798967 44.024258 0.935091 0.763666 0.060067 -0.022462 -319460.000000 0 0 1
17.321582 23.785900 32.758338 44.033112 0.941375 0.731837 0.058412 -0.028565 -278604.000000 0 0 1
17.941782 23.640300 -33.763700 44.952850 0.921592 2.420510 0.069557 -0.024300 -349645.000000 0 0 1
18.066082 24.890300 -33.108730 45.189582 0.942945 2.393023 0.078077 -0.015468 151454.000000 0 0 1
18.191682 24.708700 -31.695810 44.114414 0.936156 2.372427 0.034665 -0.007216 -30385.500000 0 0 1
18.384482 26.091400 -30.984580 44.483643 0.956977 2.341359 0.039032 0.001077 178400.000000 0 0 1
17.178382 26.877500 -30.981620 44.467489 1.002096 2.341618 0.059995 -0.006988 824569.000000 0 0 1
17.371582 28.197300 -30.442110 44.984238 1.018643 2.314106 0.063078 -0.007693 -134998.000000 0 0 1
16.793082 28.384100 -29.039130 43.942415 1.036549 2.292741 0.063916 -0.014506 -386379.000000 0 0 1
17.398282 27.636400 -28.019070 43.029514 1.008937 2.279907 0.029390 -0.006081 299503.000000 0 0 1
16.832882 27.919000 -26.744700 42.167469 1.028234 2.257834 0.038021 -0.006958 -276167.000000 0 0 1
17.576982 27.146900 -25.698150 41.307377 0.996197 2.242244 0.032508 -0.004125 245402.000000 0 0 1
18.985282 27.308200 -25.572540 41.953945 0.963284 2.226275 0.037597 -0.001210 272793.000000 0 0 1
19.504182 26.445400 -24.551180 41.018688 0.935326 2.212469 0.035953 0.004749 252072.000000 0 0 1
21.012782 26.714700 -24.333980 41.801373 0.904303 2.192147 0.030512 0.007743 82403.000000 0 0 1
21.588782 26.095400 -23.181480 41.041764 0.879628 2.171019 0.047847 0.003402 -1086340.000000 0 0 1
22.956082 26.259600 -23.347180 41.971885 0.852421 2.160672 0.048996 0.006665 -1219970.000000 0 0 1
23.680582 26.182100 -22.053580 41.624905 0.835524 2.129181 0.060262 -0.002040 -262128.000000 0 0 1
23.537282 24.909700 -21.391280 40.399055 0.813719 2.128807 0.074931 -0.001569 -13927.600000 0 0 1
24.208482 25.065900 -20.176680 40.267212 0.802797 2.095631 0.093187 -0.008214 -65096.800000 0 0 1
23.979382 23.909000 -19.128480 38.891513 0.783928 2.085000 0.102869 -0.012932 -490772.000000 0 0 1
24.340882 22.594500 -19.498180 38.511933 0.748207 2.101673 0.096745 -0.007096 134603.000000 0 0 1
24.158082 21.722000 -18.406280 37.339648 0.732351 2.086264 0.106155 -0.006863 -872481.000000 0 0 1
24.039282 20.227600 -18.848180 36.637368 0.699503 2.111165 0.112785 -0.013780 650945.000000 0 0 1
22.980082 19.783400 -19.710580 36.165924 0.710784 2.147190 0.097647 -0.015320 -38966.200000 0 0 1
21.669882 20.099800 -19.328480 35.315377 0.747827 2.149944 0.092777 -0.026738 -877803.000000 0 0 1
20.729182 19.937300 -20.529680 35.336421 0.765928 2.190726 0.075156 -0.012104 -317358.000000 0 0 1
20.970182 20.655400 -21.726680 36.584733 0.777836 2.206660 0.069419 -0.007244 -238173.000000 0 0 1
21.114782 22.092300 -21.619880 37.434248 0.808018 2.186512 0.063902 -0.003877 -46986.400000 0 0 1
20.657682 22.846300 -22.846980 38.349416 0.835664 2.209006 0.052216 -0.009632 408131.000000 0 0 1
19.262982 22.674700 -23.058380 37.641644 0.866571 2.230112 0.065604 -0.003027 -40298.700000 0 0 1
18.931182 23.117300 -24.344280 38.541448 0.884626 2.254462 0.051944 -0.006614 -138640.000000 0 0 1
17.431582 23.040100 -24.691680 38.005070 0.923100 2.277979 0.048737 -0.003959 -110266.000000 0 0 1
16.736182 24.077200 -24.023180 37.906787 0.963363 2.257179 0.051335 -0.014733 470938.000000 0 0 1
15.325082 23.900200 -24.181580 37.293786 1.000624 2.276287 0.052847 -0.012183 819493.000000 0 0 1
14.476782 25.092900 -23.643680 37.393241 1.047515 2.255312 0.050658 -0.013328 67093.500000 0 0 1
14.667282 26.365100 -24.291280 38.733886 1.063118 2.248663 0.047316 -0.011387 -105824.000000 0 0 1
13.688382 27.314600 -23.911780 38.797325 1.106239 2.234864 0.064009 -0.014713 39430.800000 0 0 1
13.779782 28.707300 -24.480780 40.165907 1.123268 2.226215 0.062377 -0.017041 74481.500000 0 0 1
13.339682 28.747600 -25.857830 40.902310 1.136338 2.255166 0.062577 -0.029533 117573.000000 0 0 1
12.942582 30.034000 -26.357870 42.003439 1.163913 2.249156 0.081233 -0.033356 -105258.000000 0 0 1
14.000782 31.147100 -26.276770 43.088657 1.148354 2.226643 0.077508 -0.032170 98223.700000 0 0 1
15.140782 30.990800 -27.099260 43.863913 1.116345 2.236742 0.059711 -0.016876 -281720.000000 0 0 1
15.787482 32.181000 -27.318240 45.068255 1.114710 2.222011 0.066857 -0.029007 72615.500000 0 0 1
17.250982 32.110000 -27.854880 45.875296 1.077797 2.223312 0.059614 -0.010029 615929.000000 0 0 1
18.047482 31.426500 -26.859900 45.108655 1.049506 2.208621 0.022202 -0.006595 1352130.000000 0 0 1
19.373082 31.181500 -27.405460 45.811150 1.014862 2.212083 0.053191 -0.006804 1545440.000000 0 0 1
20.417082 30.366300 -26.530540 45.197776 0.978863 2.198129 0.035346 0.009025 73664.000000 0 0 1
20.723182 30.954600 -25.263540 45.009821 0.980855 2.166739 0.044488 -0.002111 288750.000000 0 0 1
21.537182 32.136100 -25.229920 46.185799 0.980361 2.148701 0.053511 -0.009994 978049.000000 0 0 1
23.062782 31.973500 -25.603860 47.008023 0.945912 2.146792 0.044207 -0.003977 588559.000000 0 0 1
23.125082 31.669400 -26.951170 47.582411 0.940086 2.172940 0.043667 0.000752 104731.000000 0 0 1
24.391982 32.105500 -27.419360 48.760160 0.921088 2.167999 0.048081 0.006515 17511.000000 0 0 1
24.570582 31.649100 -28.886390 49.394357 0.910647 2.195444 0.042722 0.004183 368146.000000 0 0 1
23.646382 32.238000 -29.810500 49.870893 0.937943 2.211492 0.060855 -0.021089 499473.000000 0 0 1
22.549082 31.364900 -30.096540 48.969580 0.947480 2.232671 0.053587 -0.012610 -133068.000000 0 0 1
21.520182 32.082700 -30.948400 49.499710 0.979957 2.246215 0.063327 -0.005897 -1228070.000000 0 0 1
20.947482 33.280500 -30.431770 49.724052 1.009023 2.229400 0.081856 -0.017439 527688.000000 0 0 1
19.983382 33.918500 -31.276950 50.279696 1.038386 2.242166 0.098708 -0.030984 -382181.000000 0 0 1
18.563782 33.398900 -31.181920 49.319496 1.063496 2.255242 0.096662 -0.031113 -1381780.000000 0 0 1
18.252282 32.095000 -31.502500 48.534960 1.053713 2.277155 0.096824 -0.023143 -108400.000000 0 0 1
18.629582 31.480300 -32.741610 49.092603 1.036439 2.300885 0.114618 -0.025321 -799599.000000 0 0 1
18.007882 32.091700 33.925547 50.051012 1.059442 0.826004 0.133895 -0.030706 -358783.000000 0 0 1
18.166582 33.482700 33.790419 50.920608 1.073678 0.845189 0.130268 -0.031884 -87827.200000 0 0 1
17.797782 -34.017655 32.549354 50.333114 -1.088767 0.867574 0.115767 -0.033002 192842.000000 0 0 1
16.297782 -33.713555 32.326276 49.469279 -1.120501 0.858648 0.126852 -0.033493 -891051.000000 0 0 1
15.426582 33.248200 32.326227 48.871333 1.136376 0.848038 0.136917 -0.029382 955134.000000 0 0 1
14.021582 33.578600 32.288749 48.648643 1.175232 0.845024 0.119463 -0.030242 1261300.000000 0 0 1
13.482782 -33.826455 31.005077 47.826031 -1.191509 0.865462 0.110472 -0.032264 -1004090.000000 0 0 1
13.959982 -32.503455 30.716967 46.849629 -1.165127 0.855753 0.121308 -0.027616 601333.000000 0 0 1
13.314582 -32.061755 29.506597 45.561755 -1.177188 0.866343 0.102606 -0.029660 261428.000000 0 0 1
13.857182 -30.646755 29.162387 44.516176 -1.146149 0.856486 0.081001 -0.024169 53242.500000 0 0 1
13.432782 -29.687255 30.090277 44.353100 -1.145885 0.825179 0.078944 -0.030232 349498.000000 0 0 1
13.941882 -28.407655 29.830797 43.488474 -1.114553 0.814892 0.074087 -0.041996 -439847.000000 0 0 1
13.470782 -27.465155 30.943657 43.512143 -1.114803 0.779664 0.092476 -0.045239 504840.000000 0 0 1
12.100482 -27.061955 30.994657 42.888691 -1.150323 0.763129 0.084604 -0.044630 653041.000000 0 0 1
11.841982 -25.974455 30.104697 41.487319 -1.143040 0.758838 0.075973 -0.042162 -709404.000000 0 0 1
12.190482 -24.537555 30.568907 41.050670 -1.109705 0.730767 0.091295 -0.039560 -312272.000000 0 0 1
11.495382 -24.047455 31.700597 41.416805 -1.124879 0.699127 0.096103 -0.042279 163887.000000 0 0 1
11.961882 -22.795455 32.169498 41.201893 -1.087546 0.674888 0.104567 -0.038577 22080.000000 0 0 1
10.888282 -22.353755 33.159167 41.446054 -1.117530 0.643408 0.098076 -0.032146 -297923.000000 0 0 1
10.645582 -23.042455 -33.528720 42.053040 -1.138009 2.493598 0.103396 -0.027810 767165.000000 0 0 1
11.790982 -23.421455 -32.740800 41.947012 -1.104411 2.466306 0.123380 -0.030444 872509.000000 0 0 1
12.673582 -22.377955 -31.992510 41.047695 -1.055493 2.464501 0.124680 -0.033677 148094.000000 0 0 1
13.033182 -21.360955 -32.837020 41.284672 -1.022954 2.490431 0.115122 -0.030071 108995.000000 0 0 1
13.792882 -20.307255 -32.243810 40.525196 -0.974160 2.490874 0.107784 -0.033495 -803.044000 0 0 1
14.047782 -19.146955 -33.191250 40.811826 -0.937821 2.520555 0.087619 -0.029765 -657381.000000 0 0 1
14.705282 -19.617755 33.592443 41.587905 -0.927557 0.630479 0.103346 -0.020660 170789.000000 0 0 1
14.769082 -18.666055 32.535369 40.312500 -0.901428 0.631608 0.068507 -0.012580 -157222.000000 0 0 1
15.842982 -17.548255 32.644772 40.306606 -0.836423 0.626796 0.070180 -0.018257 -596114.000000 0 0 1
15.564982 -16.539855 33.565702 40.527667 -0.815754 0.594878 0.063107 -0.016825 482827.000000 0 0 1
16.335182 -15.332655 33.396619 40.215204 -0.753751 0.590886 0.076272 -0.019039 987734.000000 0 0 1
17.881582 -15.275355 33.664348 41.065506 -0.706957 0.609784 0.082172 -0.012469 270547.000000 0 0 1
18.638682 -15.735455 32.598028 40.714082 -0.701139 0.642405 0.085918 -0.014091 -645615.000000 0 0 1
19.996182 -15.625455 32.953742 41.592682 -0.663310 0.656232 0.098880 -0.013895 -646307.000000 0 0 1
20.857382 -16.302155 31.922574 41.470970 -0.663421 0.692336 0.110097 -0.021056 -822695.000000 0 0 1
20.862682 -15.574955 30.677917 40.236368 -0.641287 0.703717 0.099404 -0.018888 543471.000000 0 0 1
21.599082 -16.234655 29.630347 40.100397 -0.644548 0.739354 0.089998 -0.017920 5679.760000 0 0 1
21.911682 -15.229555 28.463847 39.016045 -0.607391 0.753144 0.094883 -0.014156 -185977.000000 0 0 1
22.811482 -14.204155 28.791277 39.383491 -0.556926 0.750938 0.091502 -0.026338 45619.500000 0 0 1
23.353782 -13.648055 27.643007 38.675630 -0.528873 0.774545 0.088609 -0.024360 141734.000000 0 0 1
24.110082 -12.329555 28.007587 38.958169 -0.472715 0.768557 0.081871 -0.021970 927004.000000 0 0 1
23.131782 -11.340355 28.421157 38.359421 -0.455817 0.736361 0.086663 -0.034346 1087320.000000 0 0 1
23.769282 -10.056855 28.583037 38.511156 -0.400263 0.734447 0.068541 -0.033011 590053.000000 0 0 1
22.768282 -8.837255 28.584867 37.597691 -0.370240 0.707048 0.079862 -0.035355 1031890.000000 0 0 1
21.794582 -8.855755 29.622057 37.827166 -0.385950 0.671178 0.097486 -0.043863 236179.000000 0 0 1
20.762082 -7.894655 29.523337 36.946137 -0.363360 0.645014 0.086010 -0.043393 744815.000000 0 0 1
19.596982 -7.954255 30.588737 37.188476 -0.385575 0.604946 0.065588 -0.030108 315681.000000 0 0 1
19.930282 -7.629355 31.914159 38.391884 -0.365593 0.589401 0.085485 -0.035073 66568.600000 0 0 1
20.407082 -8.770355 32.612230 39.457898 -0.405904 0.597922 0.092992 -0.040159 -443398.000000 0 0 1
20.454482 -8.489955 -33.800670 40.409782 -0.393426 2.561565 0.108157 -0.046772 503052.000000 0 0 1
19.142782 -8.371155 -33.244460 39.264697 -0.412243 2.580503 0.086928 -0.052956 416554.000000 0 0 1
19.114882 -7.448055 -32.202820 38.182114 -0.371550 2.574378 0.096514 -0.048589 1048570.000000 0 0 1
17.684982 -7.201255 -31.566530 36.892580 -0.386694 2.597570 0.085396 -0.045412 1051350.000000 0 0 1
17.869482 -6.235155 -30.548560 35.936194 -0.335719 2.586929 0.082245 -0.042583 315692.000000 0 0 1
16.710682 -5.955055 -29.776590 34.660567 -0.342331 2.604288 0.074901 -0.032881 67546.500000 0 0 1
16.897482 -4.795655 -28.758820 33.698560 -0.276537 2.593297 0.064936 -0.026803 -247207.000000 0 0 1
17.716882 -5.062155 -27.643970 33.222017 -0.278309 2.553676 0.069103 -0.019041 76262.800000 0 0 1
17.251382 -6.010455 -26.624830 32.289585 -0.335253 2.540227 0.074095 -0.022466 479674.000000 0 0 1
15.906782 -5.738355 -25.874170 30.909984 -0.346218 2.562723 0.072355 -0.022121 541736.000000 0 0 1
15.897082 -4.543255 -25.117110 30.070377 -0.278371 2.559434 0.059019 -0.013014 149296.000000 0 0 1
14.561682 -4.290655 -24.673180 28.969262 -0.286545 2.590021 0.059119 -0.021516 406009.000000 0 0 1
14.422682 -3.164355 -23.608180 27.845521 -0.215979 2.582670 0.065696 -0.022294 -63145.800000 0 0 1
14.326382 -1.911455 -24.216380 28.201630 -0.132639 2.603499 0.058126 -0.026399 298977.000000 0 0 1
13.733482 -1.005455 -23.294280 27.059988 -0.073082 2.607712 0.054996 -0.028770 33375.900000 0 0 1
14.052482 0.407545 -23.789380 27.632824 0.028994 2.607852 0.047865 -0.029644 -764108.000000 0 0 1
13.317382 0.853545 -24.873080 28.226784 0.064005 2.649164 0.057346 -0.031338 -267409.000000 0 0 1
13.883882 2.016545 -25.487570 29.093726 0.144235 2.638406 0.045084 -0.014875 -267285.000000 0 0 1
13.112282 2.552545 -26.679030 29.836523 0.192264 2.677378 0.047295 -0.020956 -268050.000000 0 0 1
11.897982 3.196545 -26.398100 29.131419 0.262465 2.704941 0.052942 -0.030495 -34932.900000 0 0 1
11.323982 3.929545 -27.479160 29.979629 0.334009 2.730274 0.048379 -0.025739 46541.000000 0 0 1
9.976682 4.583545 -27.124610 29.262391 0.430665 2.756982 0.052017 -0.026656 -207427.000000 0 0 1
10.116782 5.619545 -26.168850 28.613586 0.507031 2.725216 0.051590 -0.038238 462472.000000 0 0 1
9.012082 6.535545 -26.228510 28.493258 0.627438 2.740196 0.069933 -0.037388 329304.000000 0 0 1
8.426082 5.487300 -31.457320 33.025328 0.577238 2.832208 0.062731 -0.035570 -233028.000000 0 0 1
8.527782 4.420000 -30.559320 32.033288 0.478185 2.837057 0.044242 -0.019807 363512.000000 0 0 1
8.237882 3.182200 -31.146310 32.374091 0.368631 2.865307 0.039607 -0.012476 -297314.000000 0 0 1
7.889882 2.152700 -30.041480 31.134786 0.266360 2.875801 0.041030 -0.013856 -260097.000000 0 0 1
8.930082 1.807600 -29.150680 30.541381 0.199718 2.838658 0.052624 -0.021543 405284.000000 0 0 1
8.420382 0.920700 -28.168500 29.414536 0.108909 2.849484 0.057275 -0.022297 -131001.000000 0 0 1
9.506882 0.443600 -27.215850 28.831928 0.046627 2.805190 0.059219 -0.031278 -194254.000000 0 0 1
10.477582 -0.422700 -27.761610 29.676007 -0.040321 2.780440 0.063339 -0.020493 -166286.000000 0 0 1
11.332082 -0.823400 -26.739590 29.053395 -0.072534 2.739797 0.064008 -0.024893 -119066.000000 0 0 1
12.369582 -1.904100 -27.170400 29.914258 -0.152735 2.709941 0.057008 -0.021268 171552.000000 0 0 1
11.784082 -3.167300 -27.383470 29.979173 -0.262572 2.722397 0.068680 -0.022914 271028.000000 0 0 1
12.713182 -4.158500 -27.860850 30.905422 -0.316131 2.693990 0.071824 -0.023834 291120.000000 0 0 1
12.224882 -5.567900 -27.541200 30.642568 -0.427382 2.687795 0.063155 -0.014145 -104364.000000 0 0 1
12.390082 -5.895900 -26.157080 29.537580 -0.444147 2.658479 0.065963 -0.013862 -265522.000000 0 0 1
11.866282 -7.094200 -25.708860 29.190440 -0.538834 2.648195 0.061810 -0.015494 -335520.000000 0 0 1
11.436382 -7.030400 -24.268480 27.734031 -0.551187 2.636322 0.076364 -0.019499 201473.000000 0 0 1
12.469182 -6.680800 -23.344180 27.295867 -0.491864 2.596786 0.047795 -0.012873 351138.000000 0 0 1
11.978682 -6.820200 -22.034980 25.991235 -0.517586 2.582591 0.069288 -0.023893 -62512.900000 0 0 1
13.157482 -6.706100 -21.087280 25.744213 -0.471361 2.530650 0.072194 -0.021468 140835.000000 0 0 1
13.748982 -5.403500 -20.873080 25.571816 -0.374467 2.525692 0.062414 -0.024377 593054.000000 0 0 1
14.815382 -5.551400 -19.908280 25.429377 -0.358512 2.470086 0.059203 -0.023362 552329.000000 0 0 1
15.492282 -4.226700 -19.566780 25.312737 -0.266344 2.454355 0.065908 -0.027849 -121113.000000 0 0 1
16.418082 -3.628300 -20.461580 26.483849 -0.217498 2.453732 0.054216 -0.021760 281959.000000 0 0 1
16.665682 -2.278100 -20.127180 26.230480 -0.135852 2.445448 0.052289 -0.014112 20677.300000 0 0 1
17.772882 -1.576100 -20.941480 27.511907 -0.088449 2.435925 0.027906 -0.020558 1123250.000000 0 0 1
19.087982 -2.135800 -20.769680 28.289438 -0.111429 2.395262 0.058147 -0.031238 1217540.000000 0 0 1
20.097882 -1.613200 -21.649280 29.584094 -0.080095 2.391738 0.068161 -0.028678 629590.000000 0 0 1
21.360482 -2.499800 -21.606980 30.485747 -0.116499 2.358531 0.052700 -0.020832 -730908.000000 0 0 1
22.144182 -2.336900 -20.394880 30.195646 -0.105142 2.312337 0.052548 -0.021467 778681.000000 0 0 1
23.484482 -2.786900 -20.550980 31.330983 -0.118117 2.286212 0.057451 -0.022856 643716.000000 0 0 1
24.494282 -2.030100 -21.429680 32.608624 -0.082692 2.287865 0.065186 -0.021794 -1115760.000000 0 0 1
24.052282 -1.890700 -22.786280 33.185864 -0.078447 2.327634 0.073346 -0.024503 586884.000000 0 0 1
25.018782 -1.198800 -23.608880 34.420282 -0.047879 2.326636 0.070759 -0.020049 1660730.000000 0 0 1
26.309382 -2.038100 -24.051280 35.704362 -0.077312 2.309896 0.075701 -0.024760 -397626.000000 0 0 1
27.222382 -2.352500 -23.033080 35.736747 -0.086204 2.271193 0.068675 -0.013878 -142975.000000 0 0 1
28.323782 -3.108300 -23.479680 36.921451 -0.109304 2.260017 0.055054 -0.010159 1193780.000000 0 0 1
29.407182 -2.325900 -24.384780 38.272832 -0.078929 2.261566 0.057736 -0.011133 -129550.000000 0 0 1
28.810882 -1.901300 -25.565400 38.565160 -0.065897 2.295501 0.066606 -0.020253 -136578.000000 0 0 1
29.602682 -0.913300 -26.197570 39.540682 -0.030842 2.295011 0.068232 -0.021937 -456551.000000 0 0 1
29.132782 -0.650000 -27.646550 40.168062 -0.022308 2.329901 0.083447 -0.026441 775338.000000 0 0 1
27.832582 -0.105500 -27.923710 39.425846 -0.003791 2.357825 0.069473 -0.011817 804483.000000 0 0 1
27.403282 1.152800 -27.328700 38.718557 0.042043 2.354390 0.059192 -0.002989 -456344.000000 0 0 1
25.914682 1.472200 -27.586280 37.877975 0.056748 2.386625 0.056511 -0.013265 222714.000000 0 0 1
25.093882 0.790700 -26.603140 36.579437 0.031499 2.385133 0.062994 -0.010996 -193414.000000 0 0 1
23.757482 1.099000 -26.858020 35.874489 0.046226 2.416844 0.056059 -0.013273 -149013.000000 0 0 1
22.745782 0.738000 -25.714260 34.338585 0.032434 2.417113 0.056666 -0.014663 244543.000000 0 0 1
22.681682 1.725400 -24.713680 33.588714 0.075924 2.397604 0.068235 -0.017819 1028610.000000 0 0 1
21.561682 1.466700 -23.830080 32.170329 0.067919 2.404978 0.069014 -0.016540 632250.000000 0 0 1
21.706582 2.088000 -22.440380 31.290671 0.095897 2.370513 0.071759 -0.014807 -261030.000000 0 0 1
21.443482 3.459200 -22.340180 31.158829 0.159939 2.370253 0.069353 -0.017037 411550.000000 0 0 1
21.750682 3.828300 -20.976880 30.459441 0.174224 2.330467 0.064317 -0.018356 -94851.400000 0 0 1
21.341582 5.277200 -20.541080 30.087338 0.242411 2.322268 0.077624 -0.009416 -111622.000000 0 0 1
22.136882 6.206400 -21.231380 31.294288 0.273347 2.316437 0.078248 -0.007049 310759.000000 0 0 1
22.016482 7.574900 -20.775980 31.204902 0.331370 2.299351 0.072478 -0.009215 -344772.000000 0 0 1
22.346182 7.986100 -19.287480 30.580002 0.343235 2.253280 0.080086 -0.018105 -1914690.000000 0 0 1
23.684782 8.018100 -19.054180 31.437567 0.326424 2.221939 0.080319 -0.008220 -1140700.000000 0 0 1
24.159682 8.157600 -17.708480 31.045562 0.325634 2.177793 0.085227 -0.027502 -21433.300000 0 0 1
24.025782 9.595900 -17.173180 31.052175 0.379989 2.156808 0.081512 -0.036666 -504480.000000 0 0 1
22.708782 10.040200 -16.970880 30.074992 0.416289 2.170364 0.066830 -0.039868 -230736.000000 0 0 1
22.628182 11.436400 -16.946980 30.496327 0.467962 2.160008 0.053538 -0.031996 -1071050.000000 0 0 1
21.278482 11.936200 -16.437580 29.418373 0.511213 2.163677 0.039633 -0.033260 644546.000000 0 0 1
20.178282 11.790700 -17.378580 29.123851 0.528815 2.210195 0.044262 -0.038912 1033210.000000 0 0 1
19.657582 10.486100 -17.522180 28.344411 0.490039 2.237232 0.043172 -0.041047 -982946.000000 0 0 1
18.840382 10.340700 -18.813580 28.562928 0.501966 2.289848 0.055499 -0.016505 -659290.000000 0 0 1
19.562182 10.344300 -20.002980 29.829561 0.486414 2.305781 0.067735 -0.017885 -483890.000000 0 0 1
18.911882 9.850000 -21.128480 30.018235 0.480178 2.351606 0.043093 -0.021188 -777181.000000 0 0 1
19.623482 10.012200 -22.460180 31.460847 0.471786 2.365861 0.071436 -0.016932 -620196.000000 0 0 1
19.544382 11.340200 -22.929080 32.192013 0.525754 2.363509 0.072295 -0.021398 180733.000000 0 0 1
20.261682 11.456400 -24.134880 33.530244 0.514606 2.374302 0.092291 -0.021448 -28334.100000 0 0 1
20.427782 12.928500 -24.497180 34.417324 0.564252 2.362810 0.109794 -0.015573 -298166.000000 0 0 1
21.231382 13.096300 -25.608530 35.750265 0.552708 2.369306 0.108114 -0.016685 -340065.000000 0 0 1
21.356682 14.417300 -25.991460 36.599486 0.593799 2.360521 0.105017 -0.016552 441050.000000 0 0 1
20.132082 15.118700 -26.678240 36.682480 0.644125 2.385139 0.081537 -0.015172 1046780.000000 0 0 1
18.924682 15.233400 -25.912610 35.519902 0.677751 2.388422 0.076268 -0.018672 -110639.000000 0 0 1
17.876582 15.637200 -26.723950 35.752814 0.718678 2.415033 0.067455 -0.025515 269189.000000 0 0 1
16.451582 15.257700 -26.198310 34.493527 0.747765 2.433362 0.054944 -0.029089 333073.000000 0 0 1
16.366182 13.866200 -26.084220 33.771437 0.702894 2.453369 0.061619 -0.024607 -504604.000000 0 0 1
15.055982 13.402900 -26.006860 32.904059 0.727377 2.482233 0.030603 -0.026768 -679719.000000 0 0 1
14.962982 11.894400 -25.884330 32.177106 0.671637 2.505517 0.027483 -0.027240 -450413.000000 0 0 1
13.652482 11.424700 -26.011560 31.520078 0.696794 2.541419 0.023192 -0.032190 -227520.000000 0 0 1
13.650082 10.078500 -25.688730 30.786552 0.636002 2.557865 0.025883 -0.034749 848197.000000 0 0 1
12.188582 9.504000 -25.440450 29.767500 0.662268 2.595650 0.074264 -0.047299 1347970.000000 0 0 1
11.599982 9.908700 -24.200780 28.608035 0.706927 2.579128 0.091863 -0.046138 131654.000000 0 0 1
10.311282 9.345700 -24.026380 27.765655 0.736316 2.616599 0.088649 -0.040968 -54117.300000 0 0 1
9.615082 10.044700 -22.866880 26.762661 0.807247 2.595253 0.099130 -0.037715 -416312.000000 0 0 1
9.135482 11.324500 -23.241880 27.420546 0.891983 2.582258 0.095040 -0.036766 -143908.000000 0 0 1
8.428482 11.992600 -22.234480 26.631445 0.958189 2.558740 0.093013 -0.030912 -43272.800000 0 0 1
9.280882 12.827200 -21.227680 26.481809 0.944451 2.500754 0.087415 -0.032653 74514.400000 0 0 1
10.086482 11.952900 -20.436680 25.734545 0.869882 2.488378 0.109553 -0.035639 -209166.000000 0 0 1
10.950482 12.719500 -19.612480 25.813719 0.859996 2.433755 0.125320 -0.035710 48386.500000 0 0 1
11.980882 11.716400 -18.949480 25.296212 0.774238 2.417504 0.117638 -0.033718 -267368.000000 0 0 1
13.037282 11.273700 -19.725980 26.195063 0.712982 2.423469 0.082370 -0.032808 -397518.000000 0 0 1
12.665582 10.421300 -20.787880 26.479358 0.688492 2.473589 0.089533 -0.040853 -770564.000000 0 0 1
13.856082 9.666800 -21.440780 27.297346 0.609152 2.474224 0.084379 -0.035446 108697.000000 0 0 1
14.233082 8.589200 -20.620980 26.487352 0.542965 2.463103 0.084955 -0.041932 458962.000000 0 0 1
15.236182 7.835000 -21.324980 27.354766 0.474972 2.464777 0.055052 -0.036361 207764.000000 0 0 1
15.674982 6.584400 -20.491280 26.626151 0.397677 2.448999 0.088279 -0.040736 -314847.000000 0 0 1
16.492682 7.009100 -19.455080 26.450637 0.401856 2.397236 0.068940 -0.028019 -85739.200000 0 0 1
17.009782 5.868000 -18.769980 26.001505 0.332194 2.377312 0.059949 -0.040442 42487.300000 0 0 1
17.834282 6.158500 -17.495480 25.730926 0.332498 2.318477 0.078544 -0.033694 -215866.000000 0 0 1
19.187982 6.496000 -17.748480 26.932976 0.326434 2.290267 0.080634 -0.043305 187190.000000 0 0 1
19.912082 6.790800 -16.598580 26.797739 0.328670 2.238777 0.077499 -0.057675 -345717.000000 0 0 1
20.620782 5.620300 -15.951880 26.669587 0.266092 2.211962 0.082541 -0.055061 -1530040.000000 0 0 1
21.865782 5.290800 -16.466180 27.879026 0.237404 2.202635 0.079456 -0.046731 -141350.000000 0 0 1
22.454182 4.285500 -15.620280 27.686620 0.188587 2.170238 0.112305 -0.053642 -334962.000000 0 0 1
23.776982 3.747600 -16.147080 28.984782 0.156329 2.161672 0.076389 -0.005266 -514736.000000 0 0 1
24.420482 2.791800 -15.333980 28.970416 0.113828 2.128569 0.074639 -0.007175 88091.000000 0 0 1
25.550982 2.277500 -15.999580 30.232867 0.088901 2.128467 0.076074 -0.015464 -230431.000000 0 0 1
26.171682 1.075900 -15.280480 30.325032 0.041086 2.098893 0.105528 -0.035533 91205.300000 0 0 1
25.616882 -0.221000 -15.496180 29.940025 -0.008627 2.114810 0.102274 -0.031094 181569.000000 0 0 1
26.695182 -1.111200 -15.426580 30.852016 -0.041601 2.094417 0.091948 -0.022119 -76483.200000 0 0 1
26.299482 -2.585400 -15.723180 30.750048 -0.097991 2.107519 0.073565 -0.019100 -134674.000000 0 0 1
25.509382 -3.146100 -14.705980 29.612368 -0.122711 2.090492 0.077264 -0.015522 359748.000000 0 0 1
25.306582 -4.511100 -14.916380 29.719884 -0.176405 2.096589 0.062394 -0.014826 -1586300.000000 0 0 1
24.840582 -5.357000 -13.720880 28.879309 -0.212402 2.065887 0.066032 -0.011764 616242.000000 0 0 1
23.477182 -5.138100 -13.335880 27.484975 -0.215458 2.077395 0.081307 -0.004896 957820.000000 0 0 1
22.474982 -5.430700 -14.291780 27.182205 -0.237089 2.124425 0.090545 -0.010056 -1856870.000000 0 0 1
21.113282 -5.317600 -13.663380 25.704776 -0.246729 2.131226 0.091846 -0.014226 -1064810.000000 0 0 1
20.661482 -6.449900 -12.866680 25.180340 -0.302584 2.107122 0.094296 -0.013301 543744.000000 0 0 1
20.657882 -6.135800 -11.475280 24.414712 -0.288720 2.060104 0.109496 -0.015570 -158086.000000 0 1 0
20.292082 -7.397200 -10.609080 24.063244 -0.349566 2.027379 0.106163 -0.017793 686917.000000 0 1 0
19.001182 -8.044000 -10.753680 23.267842 -0.400466 2.051236 0.104266 -0.019166 1614870.000000 0 1 0
18.965882 -8.978900 -11.843980 24.095750 -0.442162 2.084651 0.098294 -0.022115 -345387.000000 0 1 0
17.548982 -9.540600 -12.062680 23.334482 -0.497959 2.114076 0.107054 -0.024048 117814.000000 0 1 0
16.525582 -8.581300 -12.169780 22.244935 -0.478947 2.149669 0.084055 -0.022229 -290753.000000 0 1 0
15.301982 -9.103600 -12.584080 21.803331 -0.536683 2.186047 0.090834 -0.016712 -280954.000000 0 1 0
14.185382 -8.064500 -12.829580 20.757152 -0.516942 2.237094 0.068172 -0.013243 -169141.000000 0 1 0
14.349682 -7.100900 -13.851080 21.170465 -0.459517 2.284006 0.060566 -0.017977 238867.000000 0 1 0
15.338382 -6.120900 -13.586980 21.385448 -0.379694 2.259242 0.048302 -0.017949 -79008.600000 0 1 0
15.328982 -4.985800 -14.627980 21.767262 -0.314461 2.307726 0.041629 -0.014862 -266627.000000 0 1 0
14.206582 -4.185200 -14.357380 20.627099 -0.286492 2.340670 0.046269 -0.017106 67690.900000 0 1 0
13.858982 -3.082500 -15.218180 20.812645 -0.218856 2.390874 0.038527 -0.023365 251568.000000 0 1 0
14.952682 -2.007600 -15.544980 21.662400 -0.133465 2.371149 0.038916 -0.019781 -576492.000000 0 1 0
15.959982 -2.388300 -16.448880 23.043234 -0.148541 2.365744 0.037304 -0.016299 814176.000000 0 1 0
17.220582 -1.730600 -16.205080 23.709661 -0.100160 2.323316 0.058865 -0.017237 1020320.000000 0 1 0
18.086882 -2.371100 -15.062180 23.656430 -0.130352 2.261015 0.066671 -0.018973 -708083.000000 0 1 0
17.492182 -2.360600 -13.752480 22.375870 -0.134141 2.232690 0.050740 -0.010985 462764.000000 0 1 0
18.488082 -2.770900 -12.825480 22.671127 -0.148768 2.172101 0.059585 -0.005541 56576.700000 0 1 0
18.103582 -2.766100 -11.325080 21.532497 -0.151620 2.124631 0.063086 -0.008757 -340113.000000 0 1 0
18.090082 -1.455600 -10.720780 21.078543 -0.080291 2.104367 0.062610 -0.006942 752791.000000 0 1 0
17.716082 -1.601300 -9.356580 20.098988 -0.090142 2.055024 0.065289 -0.009124 -807463.000000 0 1 0
17.948982 -0.362400 -8.417480 19.828042 -0.020188 2.009232 0.071700 -0.008492 361591.000000 0 1 0
19.310482 -0.009800 -8.104280 20.942162 -0.000508 1.968155 0.092298 -0.005865 1801760.000000 0 1 0
20.087582 0.551000 -9.188780 22.096340 0.027423 1.999674 0.088223 0.001859 -219367.000000 0 1 0
19.588782 1.923900 -9.677980 21.933651 0.097900 2.027775 0.076118 -0.006607 -720684.000000 0 1 0
19.506982 2.993500 -8.774880 21.598192 0.152270 1.989174 0.075345 -0.002609 859734.000000 0 1 0
18.685682 4.035200 -9.318680 21.266766 0.212685 2.024370 0.059414 -0.015476 -333288.000000 0 1 0
18.921382 5.373900 -8.604080 21.469226 0.276725 1.983146 0.090714 -0.015681 -35858.600000 0 1 0
18.150082 6.343100 -9.318280 21.365644 0.336212 2.022094 0.068341 -0.023174 705623.000000 0 1 0
18.679982 7.644200 -9.193780 22.178844 0.388428 1.998222 0.102837 -0.009034 -90932.500000 0 1 0
-27.529778 -29.653870 6.005520 40.906075 0.822526 1.423451 0.088941 -0.014678 110304.000000 0 0 1
-27.434028 -28.423330 6.699420 40.067366 0.803108 1.402803 0.052586 -0.008074 -105383.000000 0 0 1
-26.171918 -27.788700 6.533520 38.728130 0.815351 1.401284 0.076666 -0.015168 -408350.000000 0 0 1
-25.923928 -26.639230 7.488220 37.917965 0.799006 1.372005 0.056894 -0.002920 -172852.000000 0 0 1
-26.655568 -25.429260 7.249920 37.546344 0.761858 1.376483 0.066190 -0.017182 606480.000000 0 0 1
-28.046748 -25.466210 7.586020 38.635420 0.737213 1.373163 0.039259 -0.008691 731690.000000 0 0 1
-28.396008 -25.228480 9.108620 39.061189 0.726398 1.335441 0.048523 -0.006137 -195614.000000 0 0 1
-27.784728 -26.268410 9.805920 39.473745 0.757353 1.319751 0.050689 -0.010022 -271328.000000 0 0 1
-28.356458 -26.476050 11.072720 40.344455 0.751118 1.292774 0.045143 -0.008333 -55137.500000 0 0 1
-27.423318 -27.335230 11.946320 40.521201 0.783789 1.271533 0.036460 -0.011283 361351.000000 0 0 1
-26.184608 -26.749180 12.288220 39.397369 0.796063 1.253599 0.027764 -0.004000 -118284.000000 0 0 1
-26.219348 -26.006550 13.534720 39.331711 0.781324 1.219498 0.036900 -0.008754 -90948.600000 0 0 1
-24.796218 -25.510880 13.925820 38.204527 0.799603 1.197693 0.055441 -0.010251 204437.000000 0 0 1
-24.038018 -26.586610 14.435720 38.640189 0.835699 1.187916 0.054332 -0.014921 -445065.000000 0 0 1
-22.951418 -26.052720 15.151420 37.882415 0.848600 1.159324 0.053035 -0.017677 65885.300000 0 0 1
-21.989218 -27.093780 15.837920 38.320208 0.889024 1.144716 0.053368 -0.024539 69495.600000 0 0 1
-22.661018 -27.958660 16.789820 39.712800 0.889674 1.134284 0.053500 -0.017907 259207.000000 0 0 1
-21.876818 -29.016990 17.304820 40.249692 0.924784 1.126374 0.060429 -0.016240 -331601.000000 0 0 1
-22.645418 -30.002540 18.199820 41.763630 0.924241 1.119890 0.072438 -0.021908 153068.000000 0 0 1
-23.608818 -30.727290 17.423920 42.486888 0.915664 1.148231 0.075637 -0.018234 153135.000000 0 0 1
-24.267418 -31.654400 18.192420 43.839169 0.916733 1.142874 0.078019 -0.015643 43830.800000 0 0 1
-25.414748 -32.374890 17.414620 44.691296 0.905260 1.170529 0.074419 -0.023142 317232.000000 0 0 1
-24.823318 -33.229910 16.501120 44.639792 0.929207 1.192164 0.072165 -0.022492 249697.000000 0 0 1
-25.737138 33.855083 16.046120 45.453767 -0.920790 1.209999 0.073174 -0.026375 -513113.000000 0 0 1
-25.134358 32.930642 14.974020 44.049795 -0.918868 1.223950 0.081544 -0.037444 720979.000000 0 0 1
-23.939718 32.233009 15.352220 42.985668 -0.931978 1.205584 0.069192 -0.035711 1123220.000000 0 0 1
-22.741918 32.975549 15.131020 42.819732 -0.967044 1.209630 0.057053 -0.028624 -346863.000000 0 0 1
-21.468618 32.144133 14.976820 41.454216 -0.981950 1.201150 0.042332 -0.032749 -283264.000000 0 0 1
-21.522418 31.465394 13.715320 40.514140 -0.970888 1.225440 0.017695 -0.018682 -428476.000000 0 0 1
-20.468718 30.595084 13.553720 39.226661 -0.981166 1.218000 0.024116 -0.020256 -691749.000000 0 0 1
-20.465918 29.917414 12.167920 38.235635 -0.970835 1.246929 0.020357 -0.018303 140281.000000 0 0 1
-20.028218 30.759724 11.068120 38.337885 -0.993635 1.277928 0.001089 -0.009428 56213.900000 0 0 1
-20.109218 29.971614 9.893320 37.424004 -0.979840 1.303259 0.015796 -0.014195 95285.900000 0 0 1
-19.612618 30.644634 8.565120 37.377930 -1.001482 1.339593 0.000317 -0.013649 -574681.000000 0 0 1
-18.239018 30.804834 8.402820 36.772367 -1.036218 1.340250 0.016926 -0.017241 -869577.000000 0 0 1
-18.003018 31.216664 7.095320 36.727815 -1.047677 1.376387 0.027238 -0.022238 -122824.000000 0 0 1
-17.311618 30.153144 6.176420 35.313629 -1.049621 1.394990 0.036262 -0.020697 -741459.000000 0 0 1
-18.030818 28.990254 5.842220 34.636351 -1.014385 1.401313 0.035747 -0.014114 -97661.000000 0 0 1
-18.002818 28.002764 6.848020 33.987522 -0.999433 1.367921 0.021840 -0.015066 -935338.000000 0 0 1
-19.060018 26.969464 6.573220 33.672593 -0.955571 1.374325 0.029332 -0.005998 -465622.000000 0 0 1
-18.863618 26.212134 5.385420 32.740110 -0.947002 1.405555 0.042021 -0.012530 156005.000000 0 0 1
-20.061318 25.545534 5.096520 32.878645 -0.905073 1.415159 0.036356 -0.011412 -596223.000000 0 0 1
-19.982518 24.769944 3.723820 32.042441 -0.891969 1.454318 0.050961 -0.022847 -1457190.000000 0 0 1
-19.662318 25.499394 2.540520 32.299847 -0.913934 1.492061 0.058679 -0.023081 752718.000000 0 0 1
-18.353418 26.057454 2.430220 31.964744 -0.957161 1.494695 0.052063 -0.021753 -25877.600000 0 0 1
-17.181218 25.062554 2.531220 30.491523 -0.969846 1.487687 0.052256 -0.019551 -1365490.000000 0 0 1
-17.061918 23.991454 1.604420 29.483438 -0.952615 1.516352 0.093145 -0.030664 193487.000000 0 0 1
-16.754118 24.334234 0.246120 29.545152 -0.967830 1.562466 0.081693 -0.026607 -337211.000000 0 0 1
-16.334718 23.113054 -0.567380 28.308271 -0.955567 1.590841 0.091265 -0.035480 -507856.000000 0 0 1
-17.357918 22.158554 -0.741480 28.157568 -0.906290 1.597133 0.087678 -0.038120 -5167.530000 0 0 1
-17.024218 21.072454 -1.517080 27.132524 -0.891263 1.626739 0.092792 -0.044702 -641172.000000 0 0 1
-15.996818 20.053354 -1.012680 25.672178 -0.897452 1.610253 0.102562 -0.049747 -477989.000000 0 0 1
-16.372618 19.237954 0.008920 25.261861 -0.865688 1.570443 0.120476 -0.054433 -602205.000000 0 0 1
-15.415918 18.267754 0.235220 23.904324 -0.869862 1.560956 0.149037 -0.065018 -611137.000000 0 1 0
-15.832718 17.066154 1.115820 23.306086 -0.822872 1.522901 0.116676 -0.058797 -535942.000000 0 1 0
-16.814418 16.345454 0.467420 23.454574 -0.771257 1.550866 0.115566 -0.046631 -392529.000000 0 1 0
-17.444918 15.507954 1.388720 23.382694 -0.726686 1.511370 0.141450 -0.057736 -309469.000000 0 1 0
-18.214818 14.379554 0.726220 23.218066 -0.668270 1.539513 0.158889 -0.049462 310681.000000 0 1 0
-19.332618 14.753954 -0.089180 24.319483 -0.651873 1.574463 0.176965 -0.045938 561146.000000 0 1 0
-20.193018 13.678554 -0.349680 24.392276 -0.595390 1.585133 0.177353 -0.034300 -680187.000000 0 1 0
-21.165218 14.026354 -1.501780 25.435417 -0.585257 1.629874 0.166803 -0.020762 -538481.000000 0 0 1
-21.958918 12.926854 -2.026880 25.561806 -0.532057 1.650173 0.138097 -0.022345 895894.000000 0 0 1
-23.047118 12.586654 -1.192180 26.287161 -0.499865 1.616164 0.145392 -0.022031 -525445.000000 0 0 1
-24.298418 13.487554 -1.120080 27.813339 -0.506735 1.611079 0.120281 -0.015524 -785831.000000 0 0 1
-24.073518 14.718054 -0.466180 28.220077 -0.548745 1.587317 0.114861 -0.024228 872082.000000 0 0 1
-25.282358 15.458454 -0.226480 29.634654 -0.548783 1.578439 0.097296 -0.018423 478695.000000 0 0 1
-24.971418 16.654654 0.725720 30.024588 -0.588198 1.546623 0.081971 -0.022356 67758.900000 0 0 1
-24.734318 16.237654 2.058120 29.659464 -0.580919 1.501349 0.097107 -0.018416 -83636.600000 0 0 1
-24.646718 17.309754 2.971420 30.264131 -0.612278 1.472455 0.082406 -0.024928 -308568.000000 0 0 1
-25.855528 18.234254 3.207020 31.800650 -0.614232 1.469777 0.095713 -0.024925 -1038590.000000 0 0 1
-26.794268 17.585654 4.056320 32.305445 -0.580806 1.444903 0.110272 -0.023088 468420.000000 0 0 1
-28.059018 18.242354 4.092220 33.717032 -0.576475 1.449127 0.107120 -0.023729 298162.000000 0 0 1
-28.958108 18.137454 2.834920 34.286675 -0.559558 1.488019 0.079135 -0.028592 -1567200.000000 0 0 1
-30.103018 18.896054 3.005520 35.669115 -0.560548 1.486435 0.082316 -0.030151 -396080.000000 0 0 1
-30.844168 19.002254 1.795220 36.272182 -0.552154 1.521283 0.083484 -0.037367 -411537.000000 0 0 1
-32.090478 19.882054 1.865120 37.796475 -0.554680 1.521430 0.097508 -0.042063 -568524.000000 0 0 1
-33.150878 19.260154 2.548920 38.424358 -0.526320 1.504412 0.121442 -0.027674 -108715.000000 0 0 1
-34.301444 20.074654 2.573620 39.827181 -0.529498 1.506132 0.123022 -0.026764 -24377.400000 0 0 1
-34.623036 20.669154 3.966020 40.517871 -0.538194 1.472756 0.115429 -0.035027 -139426.000000 0 0 1
-33.590408 21.537154 4.400420 40.143844 -0.570143 1.460959 0.112505 -0.037803 534527.000000 0 0 1
-33.899838 21.937154 5.681720 40.776460 -0.574346 1.431003 0.107879 -0.032299 -209926.000000 0 0 1
-32.843408 22.923354 6.192720 40.528008 -0.609355 1.417394 0.104790 -0.034166 -397011.000000 0 0 1
-32.958228 24.206734 5.575120 41.270968 -0.633486 1.435296 0.090228 -0.028224 317252.000000 0 0 1
-32.048468 25.013364 6.289120 41.137887 -0.662728 1.417315 0.084510 -0.028792 -114991.000000 0 0 1
-32.223068 26.525024 6.056120 42.173210 -0.688709 1.426697 0.089213 -0.020921 215872.000000 0 0 1
-33.327658 26.942564 6.851020 43.400127 -0.679851 1.412276 0.104698 -0.010228 486565.000000 0 0 1
-33.831208 28.260104 6.546620 44.565035 -0.695913 1.423362 0.102334 -0.005467 523035.000000 0 0 1
-34.975846 28.580084 7.559820 45.796091 -0.685104 1.404962 0.111242 -0.001792 -497591.000000 0 0 1
-34.406671 28.690154 8.832720 45.661372 -0.695046 1.376130 0.116311 -0.018662 113379.000000 0 0 1
-35.210241 29.253224 9.853720 46.825293 -0.693251 1.358776 0.128324 -0.018035 409242.000000 0 0 1
-36.434808 28.347324 10.249720 47.287660 -0.661199 1.352310 0.116859 -0.013131 430079.000000 0 0 1
-36.007469 27.262514 11.084520 46.504291 -0.648052 1.330125 0.112483 -0.017724 462932.000000 0 0 1
37.006730 26.508434 11.578320 46.970764 0.621591 1.321729 0.110412 -0.015215 287203.000000 0 0 1
-36.612048 25.316724 12.364320 46.197998 -0.604989 1.299856 0.127259 -0.014793 -137910.000000 0 0 1
-35.812534 25.592314 13.472120 46.032621 -0.620470 1.273784 0.149523 -0.024068 -579585.000000 0 0 1
-35.302618 24.474374 14.071920 45.202752 -0.606197 1.254229 0.149039 -0.017491 -252794.000000 0 0 1
-33.936108 24.798694 14.709820 44.531040 -0.631065 1.234146 0.133694 -0.023188 -76793.100000 0 0 1
-34.043218 25.789804 15.714620 45.508285 -0.648322 1.218224 0.129392 -0.026140 -243571.000000 0 0 1
-32.782138 26.058014 16.279220 44.929964 -0.671614 1.200036 0.142197 -0.024143 -61909.800000 0 0 1
-32.733388 27.314884 17.121920 45.942766 -0.695406 1.188902 0.132152 -0.028608 -191708.000000 0 0 1
-32.750328 28.491234 16.314720 46.373532 -0.715964 1.211291 0.154994 -0.028707 112299.000000 0 0 1
-33.463668 29.576324 16.925820 47.760438 -0.723811 1.208535 0.133861 -0.033464 283930.000000 0 0 1
-33.052478 30.914904 16.277220 48.095171 -0.751994 1.225540 0.108882 -0.028192 1994580.000000 0 0 1
-31.614288 31.203724 16.322820 47.324096 -0.778862 1.218647 0.109316 -0.029768 1441510.000000 0 0 1
-31.237338 32.468239 15.862820 47.765960 -0.804717 1.232273 0.104066 -0.024188 -147649.000000 0 0 1
-29.724078 32.611977 15.599720 46.801850 -0.831693 1.230980 0.112969 -0.028451 156959.000000 0 0 1
-29.226958 32.203815 14.325120 45.787661 -0.833819 1.252594 0.114112 -0.030100 176648.000000 0 0 1
-28.922398 30.870864 14.030220 44.568626 -0.817973 1.250550 0.127674 -0.033531 -418855.000000 0 0 1
-30.137198 30.008794 13.656220 44.668454 -0.783263 1.260098 0.150396 -0.032710 -344401.000000 0 0 1
-30.469868 29.888464 12.347220 44.431824 -0.775766 1.289198 0.157412 -0.029581 -203607.000000 0 0 1
-31.360808 28.800004 12.247320 44.305049 -0.742858 1.290717 0.155659 -0.031412 9352.750000 0 0 1
-31.552438 28.329974 10.788420 43.755386 -0.731637 1.321665 0.148154 -0.026665 118425.000000 0 0 1
-30.456618 27.554464 10.342420 42.353509 -0.735412 1.324109 0.132325 -0.018515 -108297.000000 0 0 1
-30.244068 27.758184 8.981920 42.022558 -0.742566 1.355394 0.123339 -0.018672 551425.000000 0 0 1
-28.951098 27.008754 8.500620 40.495672 -0.750702 1.359309 0.135194 -0.025669 534814.000000 0 0 1
-28.609188 27.281534 7.180220 40.178643 -0.761648 1.391124 0.115337 -0.029304 -236817.000000 0 0 1
-27.706118 26.366104 6.616720 38.814706 -0.760621 1.399490 0.103213 -0.027909 -340519.000000 0 0 1
-27.312828 26.573134 5.162920 38.454880 -0.771672 1.436131 0.095156 -0.029079 -510686.000000 0 0 1
-26.702958 27.817854 5.037220 38.887718 -0.805844 1.440899 0.077345 -0.024304 68693.100000 0 0 1
-26.325348 28.101984 3.724320 38.686122 -0.818029 1.474377 0.059790 -0.027949 -545330.000000 0 0 1
-25.329958 29.223694 3.480120 38.829658 -0.856652 1.481051 0.045886 -0.021175 -260262.000000 0 0 1
-24.006218 28.773194 3.647720 37.649716 -0.875473 1.473758 0.040115 -0.022105 201624.000000 0 0 1
-23.030818 29.767134 3.312220 37.781896 -0.912299 1.483017 0.029414 -0.009636 577918.000000 0 0 1
-21.554718 29.484284 3.687120 36.708633 -0.939529 1.470184 0.021158 -0.011208 259443.000000 0 0 1
-20.755218 30.437594 3.022720 36.964349 -0.972326 1.488931 0.018856 -0.006346 -1473260.000000 0 0 1
-19.438418 30.010324 3.048320 35.885428 -0.996023 1.485748 0.009855 -0.012940 -670435.000000 0 0 1
-18.512018 31.090024 2.417820 36.264725 -1.033742 1.504075 0.007962 -0.008878 -203351.000000 0 0 1
-18.440418 32.218427 3.290920 37.268032 -1.050951 1.482377 0.013723 -0.008863 446347.000000 0 0 1
-17.272618 32.932899 2.876820 37.298730 -1.087758 1.493590 0.037300 -0.014177 443731.000000 0 0 1
-16.955018 -33.878300 3.755620 38.069890 1.106774 1.471985 0.049557 -0.023646 332393.000000 0 0 1
-17.923218 -32.813610 3.604620 37.562855 1.070865 1.474686 0.046228 -0.023408 333177.000000 0 0 1
-17.832018 -31.813440 4.631020 36.763055 1.059913 1.444491 0.051094 -0.023604 -30689.500000 0 0 1
-18.940818 -30.742670 4.818020 36.429105 1.018617 1.438150 0.058113 -0.018388 118801.000000 0 0 1
-18.995718 -29.776650 3.778220 35.521277 1.002946 1.464230 0.077069 -0.014811 -128865.000000 0 0 1
-20.150118 -28.999960 3.960020 35.534585 0.963547 1.459123 0.090126 -0.021291 -435574.000000 0 0 1
-20.497018 -28.161620 2.706920 34.936113 0.941632 1.493237 0.094898 -0.027590 -37242.500000 0 0 1
-19.647018 -27.039960 2.547920 33.520988 0.942445 1.494713 0.114666 -0.035279 -30121.100000 0 0 1
-19.912718 -26.326640 1.368620 33.037576 0.923230 1.529358 0.102706 -0.034055 -20873.100000 0 0 1
-18.968318 -25.125200 1.095220 31.500354 0.924134 1.536021 0.095010 -0.035061 688333.000000 0 0 1
-17.680918 -25.492980 0.610020 31.030292 0.964405 1.551136 0.113483 -0.038108 171372.000000 0 0 1
-16.668118 -24.581100 1.029820 29.717288 0.974929 1.536135 0.105578 -0.027751 1146820.000000 0 0 1
-15.267018 -24.992900 0.405620 29.289784 1.022434 1.556947 0.106304 -0.023233 502206.000000 0 0 1
-15.187218 -25.015500 -1.005080 29.282026 1.025164 1.605127 0.101609 -0.023400 -37795.600000 0 0 1
-15.034818 -23.683600 -1.479480 28.091770 1.005167 1.623487 0.098501 -0.024589 -299423.000000 0 0 1
-15.178918 -23.576900 -3.007380 28.201314 0.998789 1.677639 0.087897 -0.014000 223100.000000 0 0 1
-14.140018 -24.233600 -3.722780 28.303120 1.042606 1.702711 0.094123 -0.012295 50994.000000 0 0 1
-14.249818 -23.948500 -5.107380 28.331490 1.034047 1.752060 0.091643 -0.003889 100440.000000 0 0 1
-13.251018 -24.663700 -6.011080 28.636003 1.077781 1.782283 0.105223 -0.012815 68219.900000 0 0 1
-13.543718 -26.048900 -6.112880 29.989078 1.091329 1.776072 0.076942 -0.014461 -377776.000000 0 0 1
-12.401218 -26.777430 -6.451880 30.206750 1.137084 1.786045 0.088754 -0.006021 -107809.000000 0 0 1
23.454582 12.123400 27.837197 38.366702 0.477067 0.758954 0.012515 0.002198 -495036.000000 0 0 1
24.328382 11.094600 28.235697 38.887208 0.427862 0.758175 0.018804 -0.000495 230964.000000 0 0 1
24.102082 10.458200 29.515017 39.514814 0.409396 0.727355 0.035025 0.001818 -435760.000000 0 0 1
24.224382 11.294200 30.820317 40.795485 0.436271 0.714404 0.051900 -0.015383 211684.000000 0 0 1
23.073482 12.087000 31.077897 40.550177 0.482544 0.697569 0.032526 -0.007763 376061.000000 0 0 1
23.360882 12.870200 32.235533 41.839006 0.503557 0.691224 0.051810 -0.014207 -230333.000000 0 0 1
22.267882 13.852100 32.716642 41.929917 0.556487 0.675699 0.035068 -0.012792 -324737.000000 0 0 1
21.284782 13.115300 33.406777 41.726081 0.552233 0.642465 0.042686 -0.007023 253552.000000 0 0 1
20.351982 14.056400 -33.930090 41.988529 0.604433 2.511682 0.040472 -0.001873 468484.000000 0 0 1
19.173782 13.433200 -33.126000 40.563736 0.611130 2.526363 0.042996 0.005534 -112432.000000 0 0 1
18.054082 13.149700 -33.905420 40.601010 0.629501 2.559089 0.036514 0.011803 -484121.000000 0 0 1
17.045982 12.538200 -33.143030 39.322162 0.634190 2.573370 0.037623 0.001035 -910725.000000 0 0 1
15.756382 12.325800 -33.861200 39.328994 0.663838 2.607976 0.040785 0.004367 -735876.000000 0 0 1
15.917582 11.133800 33.225842 38.487498 0.610367 0.529045 0.032369 0.006572 740554.000000 0 0 1
14.731082 10.844500 32.459367 37.258804 0.634587 0.513182 0.041464 0.013868 903743.000000 0 0 1
15.054082 9.642000 31.483087 36.204673 0.569661 0.516432 0.040016 0.017050 305048.000000 0 0 1
15.186682 8.338900 32.029231 36.414890 0.502147 0.495851 0.035440 0.009672 120770.000000 0 0 1
15.891582 7.524000 31.098977 35.725332 0.442190 0.514575 0.035840 0.004325 215347.000000 0 0 1
16.125182 6.066100 31.545997 35.943970 0.359812 0.499873 0.046135 -0.004265 -608279.000000 0 0 1
14.969882 5.290300 31.554797 35.324069 0.339697 0.466174 0.046668 -0.002079 -386205.000000 0 0 1
15.277782 4.072300 32.155241 35.832301 0.260494 0.456997 0.066911 -0.013163 72651.500000 0 0 1
14.156182 3.003300 32.046096 35.162048 0.209055 0.424164 0.047560 -0.017396 -102831.000000 0 0 1
14.458482 1.710600 32.438089 35.555639 0.117764 0.421884 0.062555 -0.029113 -92838.900000 0 0 1
13.290482 0.994700 32.776025 35.382117 0.074704 0.386207 0.068276 -0.034250 -61305.400000 0 0 1
13.746782 -0.401300 33.330023 36.055867 -0.029184 0.391338 0.042874 -0.032561 227838.000000 0 0 1
14.200582 -1.300800 32.290976 35.299515 -0.091347 0.415855 0.034731 -0.033217 153730.000000 0 0 1
14.759982 -2.470800 32.839900 36.089070 -0.165861 0.427589 0.074290 -0.041857 -66339.000000 0 0 1
15.074382 -3.638900 31.818377 35.396154 -0.236865 0.453494 0.080537 -0.045451 -866761.000000 0 0 1
15.422382 -4.896400 32.399744 36.215577 -0.307421 0.463181 0.085545 -0.051070 964312.000000 0 0 1
16.715682 -5.133500 33.015162 37.359976 -0.297964 0.487078 0.076581 -0.046351 1596020.000000 0 0 1
17.964982 -4.846800 32.105267 37.107684 -0.263518 0.525263 0.084333 -0.047743 -229333.000000 0 0 1
18.203282 -3.450800 31.900927 36.890875 -0.187347 0.526169 0.089992 -0.048699 225629.000000 0 0 1
19.448882 -3.163900 31.278697 36.967907 -0.161265 0.562163 0.112025 -0.049130 36962.000000 0 0 1
19.663082 -1.657100 30.917247 36.677772 -0.084076 0.568067 0.104424 -0.046269 -272500.000000 0 0 1
20.016982 -0.984900 32.121702 37.860974 -0.049164 0.557818 0.101792 -0.047475 42701.900000 0 0 1
19.697182 0.379400 32.236221 37.779583 0.019259 0.548570 0.087185 -0.038911 -284087.000000 0 0 1
20.714982 1.382100 31.668287 37.866887 0.066621 0.580287 0.090703 -0.028646 -205613.000000 0 0 1
20.900882 1.330300 30.244057 36.787492 0.063562 0.605656 0.106218 -0.033930 -60561.000000 0 0 1
21.474682 2.460500 29.622457 36.670233 0.114079 0.630375 0.088514 -0.022537 -42300.900000 0 0 1
20.732382 3.841400 29.716047 36.436678 0.183207 0.617112 0.069443 -0.006188 -142163.000000 0 0 1
20.668682 4.325000 31.046507 37.547112 0.206277 0.597281 0.076602 -0.010789 478036.000000 0 0 1
19.992282 5.567800 31.139397 37.421301 0.271615 0.587858 0.065180 -0.006873 -202485.000000 0 0 1
19.839782 6.082300 32.601561 38.645480 0.297474 0.566832 0.067583 -0.007878 -415933.000000 0 0 1
18.807982 5.367900 33.224531 38.554170 0.278014 0.532063 0.061988 -0.010152 41439.100000 0 0 1
18.603182 5.611600 -33.303830 38.557924 0.292967 2.613431 0.057599 -0.009612 -63967.100000 0 0 1
17.354682 4.863000 -32.750870 37.382526 0.273206 2.638511 0.070075 -0.013463 22958.600000 0 0 1
17.477682 3.432300 -32.753990 37.283695 0.193914 2.643524 0.077159 -0.015940 894659.000000 0 0 1
16.224982 2.791000 -32.469550 36.404827 0.170351 2.672331 0.082932 -0.015772 514361.000000 0 0 1
16.337382 1.279200 -32.774840 36.643370 0.078140 2.677946 0.071184 -0.037627 -633091.000000 0 0 1
17.410482 0.695500 -32.108980 36.532112 0.039926 2.644400 0.082473 -0.030732 -534052.000000 0 0 1
17.726882 -0.565200 -32.649870 37.156101 -0.031873 2.643974 0.082036 -0.036458 402806.000000 0 0 1
19.047082 -1.079800 -31.944330 37.207493 -0.056630 2.603223 0.097905 -0.037523 325366.000000 0 0 1
19.100882 -1.297700 -30.520960 36.028554 -0.067835 2.581362 0.097658 -0.035802 109029.000000 0 0 1
18.828082 -0.109400 -29.803550 35.252805 -0.005810 2.578154 0.083823 -0.032177 -578411.000000 0 0 1
18.463982 -0.202900 -28.302290 33.793186 -0.010989 2.563515 0.069533 -0.023515 464095.000000 0 0 1
17.193282 -0.828900 -28.086940 32.941952 -0.048173 2.591774 0.069445 -0.029405 492834.000000 0 0 1
16.813382 -0.835400 -26.755990 31.611243 -0.049646 2.579999 0.064054 -0.024873 -87800.400000 0 0 1
17.467682 -1.912600 -25.831050 31.241336 -0.109059 2.544232 0.070778 -0.018644 -189537.000000 0 0 1
18.799682 -1.534500 -25.498210 31.716580 -0.081443 2.504686 0.071402 -0.022030 57832.100000 0 0 1
19.600682 -2.621500 -25.121690 31.971211 -0.132956 2.474720 0.066902 -0.019581 183355.000000 0 0 1
20.329382 -3.349300 -26.310550 33.417759 -0.163285 2.477250 0.079519 -0.027563 -129094.000000 0 0 1
21.535582 -2.672400 -26.616700 34.341982 -0.123461 2.457588 0.078542 -0.017617 -212029.000000 0 0 1
21.821482 -2.736500 -27.974730 35.584421 -0.124753 2.475353 0.099405 -0.023848 762105.000000 0 0 1
23.289882 -2.337600 -28.331990 36.750301 -0.100035 2.451100 0.077268 -0.023386 1923740.000000 0 0 1
24.368982 -3.321700 -28.178450 37.401952 -0.135474 2.424006 0.080292 -0.028276 1064100.000000 0 0 1
25.653582 -2.745600 -28.289910 38.287904 -0.106620 2.402193 0.065676 -0.024674 952533.000000 0 0 1
26.863482 -3.686000 -27.912520 38.914548 -0.136361 2.370683 0.081791 -0.026442 441841.000000 0 0 1
27.017182 -4.734300 -28.874280 39.825441 -0.173472 2.381861 0.112064 -0.034975 -456679.000000 0 0 1
28.205982 -5.428600 -28.673300 40.585776 -0.190138 2.355318 0.097200 -0.032100 -596112.000000 0 0 1
28.252182 -6.576300 -27.667440 40.086416 -0.228699 2.332555 0.089588 -0.026140 -234144.000000 0 0 1
28.338682 -6.111700 -26.357680 39.181132 -0.212413 2.308667 0.073148 -0.007264 186449.000000 0 0 1
28.323682 -7.172800 -25.427120 38.732654 -0.248029 2.286936 0.056684 0.000326 -98345.400000 0 0 1
28.442382 -6.774300 -23.917880 37.774664 -0.233820 2.256442 0.049063 -0.003196 -567826.000000 0 0 1
29.728582 -6.449900 -23.510880 38.446733 -0.213648 2.228774 0.035885 0.000433 -533241.000000 0 0 1
29.758482 -6.153700 -22.146080 37.601651 -0.203914 2.200575 0.046225 -0.002204 -461708.000000 0 0 1
31.057882 -5.523300 -21.649480 38.259624 -0.175999 2.172269 0.036560 -0.006588 -689530.000000 0 0 1
31.389882 -4.310400 -22.219080 38.698731 -0.136465 2.182368 0.037520 -0.015659 102475.000000 0 0 1
32.422182 -3.705700 -21.452380 39.052973 -0.113801 2.152340 0.034242 -0.011096 151482.000000 0 0 1
33.008482 -2.474400 -22.103480 39.802592 -0.074823 2.159553 0.045459 -0.018684 -499491.000000 0 0 1
32.109282 -1.407800 -22.056380 38.980403 -0.043816 2.172239 0.037639 -0.012736 -190912.000000 0 0 1
32.640782 -0.158800 -22.376680 39.574760 -0.004865 2.171748 0.044635 -0.012793 162680.000000 0 0 1
31.587182 0.993100 -22.164480 38.600524 0.031430 2.182425 0.045354 -0.006939 -189101.000000 0 0 1
30.554982 0.910200 -23.068480 38.296085 0.029780 2.217265 0.041561 -0.003339 -569375.000000 0 0 1
29.347582 1.354400 -22.492480 37.000360 0.046118 2.224208 0.038093 -0.001408 -441106.000000 0 0 1
28.201282 1.556100 -23.474480 36.725808 0.055122 2.264231 0.047619 -0.003075 -413538.000000 0 0 1
27.111682 2.233800 -22.884080 35.548759 0.082207 2.270169 0.052313 -0.003410 -165783.000000 0 0 1
26.063482 2.390000 -23.792280 35.370747 0.091443 2.308586 0.063597 -0.013327 128889.000000 0 0 1
25.127382 3.657500 -23.624080 34.682269 0.144543 2.320139 0.073888 -0.005825 42194.500000 0 0 1
25.763882 4.872800 -23.648480 35.309664 0.186925 2.304662 0.070268 -0.000473 58729.100000 0 0 1
24.820082 5.927700 -23.464580 34.666419 0.234435 2.314295 0.084427 -0.008181 191736.000000 0 0 1
25.374182 7.209600 -22.798080 34.865167 0.276836 2.283515 0.090967 -0.005334 -121551.000000 0 0 1
26.209682 7.977300 -23.642580 36.187793 0.295456 2.282771 0.092896 -0.003580 243384.000000 0 0 1
26.466482 9.315500 -23.166680 36.386100 0.338432 2.260995 0.110248 -0.007437 35302.500000 0 0 1
27.536682 10.103600 -23.978780 37.885795 0.351663 2.256119 0.140082 -0.009408 -68965.100000 0 0 1
27.181582 10.531500 -25.305300 38.601931 0.369641 2.285700 0.135825 -0.021592 429783.000000 0 0 1
25.985182 11.290400 -25.479360 38.103813 0.409884 2.303232 0.137252 -0.023811 322790.000000 0 0 1
25.673382 11.585100 -26.954630 38.985756 0.423892 2.334217 0.128933 -0.023004 -420177.000000 0 0 1
25.311782 10.452000 -27.729900 38.972785 0.391603 2.362455 0.113371 -0.018448 335032.000000 0 0 1
26.314482 9.512900 -28.136850 39.681602 0.346890 2.358968 0.106369 -0.025628 137949.000000 0 0 1
27.222482 9.904500 -29.325990 41.221067 0.348947 2.362330 0.095272 -0.020539 -524030.000000 0 0 1
28.203782 10.905700 -29.006300 41.901707 0.368967 2.335393 0.081421 -0.017673 1491840.000000 0 0 1
29.143982 11.282200 -30.067200 43.366995 0.369353 2.336882 0.085386 -0.019415 1063040.000000 0 0 1
30.055182 10.153900 -30.590130 44.070077 0.325803 2.338000 0.057103 -0.016856 -1339370.000000 0 0 1
29.375182 9.278800 -31.430940 44.010242 0.305954 2.366239 0.058486 -0.012944 -37482.300000 0 0 1
30.034682 8.057800 -31.748950 44.441041 0.262111 2.366571 0.052727 -0.010168 -150297.000000 0 0 1
29.046582 7.132200 -32.504050 44.171093 0.240780 2.397743 0.064898 -0.026498 54645.800000 0 0 1
27.955082 6.767400 -31.707480 42.809445 0.237512 2.404857 0.083947 -0.030347 37493.100000 0 0 1
26.849482 6.372700 -32.522020 42.651938 0.233037 2.437962 0.074092 -0.025309 1218390.000000 0 0 1
25.469882 6.376800 -31.733420 41.187236 0.245323 2.450370 0.097902 -0.017244 503158.000000 0 0 1
25.019782 7.705400 -31.515550 40.970631 0.298755 2.448421 0.114356 -0.017617 683579.000000 0 0 1
23.944682 7.852700 -30.570300 39.617622 0.316899 2.452202 0.107864 -0.019931 1285720.000000 0 0 1
22.474882 7.586300 -31.049720 39.073743 0.325537 2.489217 0.109510 -0.019879 501457.000000 0 0 1
22.003782 8.623500 -31.897740 39.698829 0.373513 2.503936 0.103045 -0.022556 -299331.000000 0 0 1
20.634582 8.581700 -32.189410 39.186601 0.394128 2.534726 0.075305 -0.015879 -241104.000000 0 0 1
20.228082 9.559100 -33.336030 40.147760 0.441460 2.550502 0.068672 -0.009926 -126789.000000 0 0 1
20.678382 9.061900 33.343390 40.267793 0.413024 0.595191 0.054296 -0.009476 51574.700000 0 0 1
20.695982 10.076100 32.341405 39.696574 0.453083 0.618558 0.030764 -0.002077 -332922.000000 0 0 1
19.495482 9.986800 31.388087 38.275606 0.473409 0.609290 0.031837 -0.001553 -21012.500000 0 0 1
19.584082 8.881100 30.484477 37.305677 0.425749 0.614340 0.021540 0.001132 -251275.000000 0 0 1
20.450782 8.929000 29.386507 36.898893 0.411663 0.649467 0.037499 -0.000136 -672028.000000 0 0 1
20.115682 9.813400 28.190817 35.995356 0.453879 0.671034 0.028968 0.002223 -557863.000000 0 0 1
19.069282 9.325800 27.410457 34.669024 0.454848 0.658955 0.018224 0.015128 -774359.000000 0 0 1
18.005082 10.204700 27.371127 34.314683 0.515626 0.647407 0.022595 -0.000538 -1267790.000000 0 0 1
16.715982 9.585500 26.869547 33.064761 0.520656 0.622139 0.050637 -0.000407 -782274.000000 0 0 1
16.638082 9.446900 25.485757 31.868378 0.516397 0.643969 0.057355 -0.001004 972060.000000 0 0 1
15.314482 9.016500 25.095787 30.751084 0.532111 0.616176 0.075537 -0.001278 1013370.000000 0 0 1
15.089682 7.501500 24.843927 30.019856 0.461347 0.596008 0.074040 -0.000532 -128167.000000 0 0 1
15.124982 6.736800 25.997237 30.822166 0.419029 0.567106 0.060354 -0.002379 240650.000000 0 0 1
14.565982 5.458400 25.722997 30.060515 0.358539 0.543880 0.066883 -0.006764 -6787.610000 0 0 1
14.550482 4.538600 26.918207 30.933886 0.302357 0.515218 0.064449 -0.007546 -346813.000000 0 0 1
15.775282 3.898900 27.183217 31.669990 0.242297 0.538796 0.044667 -0.000719 45181.300000 0 0 1
15.861182 3.397500 28.461297 32.759205 0.211013 0.518016 0.037579 -0.004568 -258545.000000 0 0 1
17.054482 2.528300 28.868947 33.625344 0.147176 0.538367 0.062417 -0.010431 -302533.000000 0 0 1
16.888582 1.134600 28.630437 33.259787 0.067081 0.533932 0.057091 -0.020027 19095.500000 0 0 1
16.310382 0.439500 29.723007 33.906915 0.026939 0.502033 0.052403 -0.020556 25378.400000 0 0 1
16.163982 -1.046000 29.485857 33.642001 -0.064622 0.502337 0.056111 -0.026174 -535422.000000 0 0 1
15.256982 -1.349700 28.443787 32.305514 -0.088235 0.493960 0.039609 -0.022133 139039.000000 0 0 1
15.675882 -1.161600 27.056527 31.291185 -0.073966 0.526305 0.049794 -0.022193 -1895780.000000 0 0 1
16.728982 -2.189200 26.634067 31.528162 -0.130123 0.564660 0.056389 -0.030271 993866.000000 0 0 1
18.015782 -1.987600 27.289547 32.760317 -0.109881 0.586277 0.081992 -0.036983 1110480.000000 0 0 1
18.704782 -0.793700 26.914177 32.785237 -0.042408 0.607770 0.083565 -0.029866 -219468.000000 0 0 1
20.144082 -0.565800 27.564257 34.145167 -0.028080 0.631290 0.108234 -0.023900 1182670.000000 0 0 1
21.086882 -1.436800 27.024257 34.307892 -0.068032 0.663733 0.077220 -0.022383 -1098800.000000 0 0 1
22.390682 -1.044800 27.276897 35.305288 -0.046628 0.687869 0.074397 -0.021720 -522186.000000 0 0 1
23.487882 -1.661700 26.389377 35.367232 -0.070629 0.728531 0.078616 -0.020940 -239587.000000 0 0 1
23.485782 -1.308400 25.004897 34.329852 -0.055653 0.754854 0.087661 -0.005485 213725.000000 0 0 1
22.522482 -1.985200 24.207477 33.124087 -0.087916 0.751286 0.110308 -0.000989 47134.800000 0 0 1
22.354782 -1.613000 22.729967 31.921614 -0.072030 0.778375 0.094013 -0.023083 -705.558000 0 0 1
21.597982 -0.421200 22.661967 31.308385 -0.019499 0.761458 0.064579 -0.014394 72688.300000 0 0 1
21.350182 0.088800 21.452667 30.266402 0.004159 0.783008 0.057351 -0.005521 -200002.000000 0 0 1
-31.320958 -27.536655 -10.052680 42.899023 0.721191 1.807329 0.019444 0.007122 130499.000000 0 0 1
-31.138338 -26.418955 -9.238280 41.867686 0.703587 1.793281 0.025401 0.009078 -110099.000000 0 0 1
-31.826318 -26.538755 -7.984080 42.201488 0.695050 1.761133 0.045510 -0.001014 -225399.000000 0 0 1
-31.952608 -25.237155 -7.216080 41.351602 0.668509 1.746200 0.074499 -0.010091 971570.000000 0 0 1
-30.782868 -24.570855 -6.675680 39.948424 0.673642 1.738691 0.063428 -0.011806 -21035.700000 0 0 1
-30.109018 -25.238655 -5.655380 39.692896 0.697628 1.713761 0.072962 -0.012281 517549.000000 0 0 1
-28.861698 -24.406655 -5.137180 38.145420 0.701958 1.705880 0.074949 -0.015116 482387.000000 0 0 1
-29.020748 -23.311655 -4.273080 37.468604 0.676735 1.685089 0.092508 -0.027916 -137543.000000 0 0 1
-29.941658 -22.335355 -4.744980 37.654824 0.640912 1.697145 0.090267 -0.030181 132779.000000 0 0 1
-30.003478 -21.163555 -3.780480 36.910660 0.614321 1.673399 0.095008 -0.033349 -265307.000000 0 0 1
-28.995908 -20.213255 -3.963580 35.567518 0.608782 1.682466 0.105059 -0.029061 -108345.000000 0 0 1
-29.145758 -19.130755 -3.054580 34.997021 0.580849 1.658189 0.104517 -0.022858 -569353.000000 0 0 1
-28.077128 -18.053655 -3.118680 33.525897 0.571440 1.663954 0.113879 -0.029817 -388628.000000 0 0 1
-28.071588 -17.300155 -4.335580 33.258182 0.552309 1.701530 0.147024 -0.044498 51000.600000 0 0 1
-27.249938 -16.174855 -4.138580 31.957987 0.535681 1.700662 0.149966 -0.047839 -242236.000000 0 0 1
-27.377968 -15.123855 -5.218980 31.709965 0.504691 1.736133 0.167763 -0.055761 168355.000000 0 0 1
-28.609838 -14.420555 -5.152780 32.450368 0.466876 1.730261 0.138065 -0.047487 263925.000000 0 0 1
-28.690128 -13.342155 -6.066280 32.217019 0.435293 1.760221 0.179041 -0.062046 -61485.700000 0 0 1
-29.988328 -12.529055 -5.887780 33.029426 0.395754 1.750013 0.144023 -0.045230 1430660.000000 0 0 1
-31.189048 -13.245855 -6.312380 34.468182 0.401613 1.754972 0.128612 -0.043544 1422800.000000 0 0 1
-32.430058 -12.624255 -6.044380 35.321594 0.371228 1.742767 0.106761 -0.045942 89940.000000 0 0 1
-33.606938 -13.208255 -6.825280 36.748724 0.374476 1.757609 0.064676 -0.034560 -349423.000000 0 0 1
-34.129444 -14.430555 -6.334880 37.592427 0.400021 1.740119 0.046771 -0.028479 225551.000000 0 0 1
-34.160099 -15.374455 -7.430080 38.190213 0.422913 1.766600 0.047327 -0.026918 -476987.000000 0 0 1
-34.920582 -16.681855 -7.001280 39.328733 0.445656 1.749770 0.033675 -0.022357 1557640.000000 0 0 1
-36.361838 -16.686155 -6.861880 40.591827 0.430224 1.740658 0.049945 -0.021750 1133040.000000 0 0 1
-36.780158 -16.067955 -5.680080 40.536681 0.411877 1.711381 0.062003 -0.020612 -323794.000000 0 0 1
35.788340 -15.975255 -5.629980 39.594327 -0.419841 1.713471 0.081023 -0.030843 -72568.400000 0 0 1
35.187520 -14.997155 -6.498380 38.798262 -0.402892 1.739081 0.077889 -0.033599 575429.000000 0 0 1
33.770840 -14.879855 -6.418780 37.457716 -0.415020 1.743007 0.084200 -0.035498 422676.000000 0 0 1
33.170920 -14.199855 -5.205580 36.456054 -0.404478 1.714077 0.103038 -0.039549 -780217.000000 0 0 1
33.223620 -14.876055 -3.980380 36.618975 -0.420986 1.679709 0.090656 -0.032972 354688.000000 0 0 1
32.655090 -14.069055 -2.917980 35.676432 -0.406805 1.652678 0.124023 -0.037501 -671045.000000 0 0 1
32.532880 -14.835255 -1.542280 35.788988 -0.427839 1.613903 0.120449 -0.033517 -43634.700000 0 0 1
33.703130 -15.327955 -0.915780 37.036277 -0.426833 1.595525 0.144242 -0.032244 203810.000000 0 0 1
34.573420 -16.157455 -1.699280 38.200422 -0.437178 1.615294 0.120915 -0.029669 -357256.000000 0 0 1
34.059050 -17.591055 -2.085780 38.390293 -0.476750 1.625154 0.108007 -0.029786 -590442.000000 0 0 1
34.100950 -18.519455 -1.008880 38.818331 -0.497513 1.596789 0.109917 -0.031345 144353.000000 0 0 1
33.879160 -19.884655 -1.410080 39.308845 -0.530753 1.606676 0.088038 -0.025945 193281.000000 0 0 1
34.864440 -20.541455 -2.450680 40.539936 -0.532426 1.631284 0.076328 -0.023756 301280.000000 0 0 1
34.903720 -19.915855 -3.712080 40.357038 -0.518517 1.662908 0.075189 -0.027749 -96764.400000 0 0 1
35.876750 -20.539955 -4.517880 41.586562 -0.519964 1.679649 0.076711 -0.023093 3960.110000 0 0 1
35.971350 -19.811255 -5.905580 41.488549 -0.503420 1.713624 0.088128 -0.023743 -224475.000000 0 0 1
34.814080 -19.914655 -6.674780 40.659148 -0.519598 1.735707 0.085112 -0.026318 -109798.000000 0 0 1
34.962160 -18.998155 -7.748780 40.537959 -0.497756 1.763129 0.082636 -0.033093 536321.000000 0 0 1
33.843230 -19.293555 -8.799280 39.937862 -0.518134 1.792943 0.076101 -0.037842 272168.000000 0 0 1
34.153780 -20.459155 -9.535980 40.938889 -0.539706 1.805888 0.075109 -0.034041 -109545.000000 0 0 1
33.297410 -20.726355 -10.599780 40.628249 -0.556772 1.834747 0.077627 -0.040977 -637272.000000 0 0 1
33.324150 -22.178455 -11.123780 41.546616 -0.587220 1.841845 0.072762 -0.039248 -150556.000000 0 0 1
32.786290 -23.050455 -10.163180 41.346759 -0.612771 1.819145 0.062448 -0.038380 24121.600000 0 0 1
32.665830 -24.416955 -10.466880 42.104628 -0.641884 1.822023 0.048844 -0.027660 -562064.000000 0 0 1
31.957470 -25.028655 -9.301380 41.644077 -0.664404 1.796051 0.041124 -0.030788 132636.000000 0 0 1
30.566850 -24.749255 -9.260080 40.405532 -0.680613 1.802030 0.047256 -0.027695 13789.800000 0 0 1
29.719530 -25.777255 -8.824080 40.318503 -0.714481 1.791442 0.032507 -0.024843 54374.700000 0 0 1
28.256550 -25.320255 -8.726380 38.931962 -0.730648 1.796861 0.039329 -0.031271 90116.400000 0 0 1
27.567050 -25.173755 -9.993580 38.646239 -0.740051 1.832360 0.061678 -0.033802 176728.000000 0 0 1
26.400950 -24.401455 -9.847580 37.274871 -0.746060 1.838158 0.081715 -0.039088 -125529.000000 0 0 1
25.527750 -24.168155 -11.104880 36.865758 -0.758047 1.876773 0.130899 -0.054950 -546338.000000 0 0 1
24.664850 -25.200055 -11.400380 37.058956 -0.796131 1.883496 0.116955 -0.046321 -190769.000000 0 0 1
24.030250 -24.887055 -12.618680 36.824577 -0.802912 1.920554 0.121834 -0.036312 19770.000000 0 0 1
23.313550 -26.134955 -13.247380 37.443966 -0.842394 1.932419 0.118926 -0.037297 12181.800000 0 0 1
24.208950 -26.998455 -13.865280 38.823135 -0.839819 1.936000 0.112799 -0.030904 8383.410000 0 0 1
23.570850 -28.248055 -14.035980 39.376977 -0.875415 1.935263 0.117816 -0.024351 31713.900000 0 0 1
24.402750 -29.401655 -14.680080 40.932338 -0.878041 1.937610 0.104243 -0.023470 -276163.000000 0 0 1
24.655350 -29.261155 -16.058480 41.496702 -0.870616 1.968153 0.093696 -0.022695 352120.000000 0 0 1
24.957950 -30.536255 -16.680480 42.820562 -0.885582 1.970932 0.096705 -0.029066 -237730.000000 0 0 1
24.821650 -30.344855 -18.214880 43.228537 -0.885184 2.005743 0.088252 -0.026129 218871.000000 0 0 1
23.455150 -30.257255 -18.578980 42.553778 -0.911367 2.022612 0.093325 -0.029147 169736.000000 0 0 1
23.229250 -30.365455 -19.964480 43.130492 -0.917771 2.052044 0.083568 -0.025512 -958308.000000 0 0 1
21.813050 -30.179655 -20.426680 42.471990 -0.944949 2.072528 0.068658 -0.016829 -1032150.000000 0 0 1
21.607550 -29.970955 -21.762180 42.880495 -0.946148 2.103086 0.063264 -0.013870 -715516.000000 0 0 1
20.278650 -29.914255 -22.171980 42.399092 -0.975062 2.121087 0.070694 -0.021045 -813934.000000 0 0 1
20.064350 -30.075755 -23.742080 43.252925 -0.982475 2.151859 0.063945 -0.019430 -362157.000000 0 0 1
20.801550 -29.109755 -24.425080 43.320513 -0.950345 2.169803 0.075036 -0.025664 338302.000000 0 0 1
20.702050 -29.343455 -25.823330 44.231862 -0.956383 2.194219 0.066605 -0.027126 -270405.000000 0 0 1
21.036650 -28.030055 -26.618390 44.008673 -0.926973 2.220367 0.067027 -0.030714 400930.000000 0 0 1
20.008850 -27.036755 -26.593300 42.878244 -0.933687 2.239800 0.083196 -0.045059 252849.000000 0 0 1
19.107150 -27.185255 -27.657480 43.232597 -0.958160 2.264952 0.103984 -0.049164 -354258.000000 0 0 1
18.273950 -25.932855 -27.964930 42.290513 -0.956947 2.293291 0.105125 -0.047801 -255645.000000 0 0 1
17.348650 -25.618455 -26.959770 41.037910 -0.975541 2.287560 0.090804 -0.030227 -510465.000000 0 0 1
16.801450 -24.381655 -27.175990 40.190649 -0.967422 2.313357 0.088941 -0.021583 -722222.000000 0 0 1
15.655750 -24.021355 -26.258090 38.879497 -0.993197 2.312264 0.089814 -0.020296 -493933.000000 0 0 1
14.416650 -24.657755 -26.614780 39.040891 -1.041725 2.320901 0.116644 -0.030195 757771.000000 0 0 1
13.289750 -24.174255 -25.865650 37.815921 -1.068147 2.324012 0.083186 -0.017629 689650.000000 0 0 1
13.295450 -24.547555 -24.323480 37.026789 -1.074410 2.287517 0.072549 -0.014317 -788226.000000 0 0 1
14.164850 -23.737955 -23.586180 36.337878 -1.032794 2.277170 0.060382 -0.023477 -382217.000000 0 0 1
14.032150 -24.023455 -22.198480 35.592136 -1.042148 2.244252 0.067306 -0.030775 -335988.000000 0 0 1
15.221450 -23.587855 -21.357080 35.273280 -0.997726 2.221159 0.034633 -0.029730 -277181.000000 0 0 1
15.343150 -22.203455 -21.160380 34.295296 -0.966119 2.235728 0.037319 -0.022435 154991.000000 0 0 1
16.605750 -21.992755 -20.547680 34.374982 -0.924068 2.211489 0.048111 -0.025038 115185.000000 0 0 1
16.644650 -20.630855 -19.731680 33.045662 -0.891932 2.210682 0.069257 -0.004565 230250.000000 0 0 1
15.893150 -20.536455 -18.526980 31.899642 -0.912174 2.190495 0.067634 -0.017485 1236170.000000 0 0 1
14.519850 -20.097455 -18.697480 31.053655 -0.945147 2.216928 0.056493 -0.020534 1032190.000000 0 0 1
13.720150 -20.139255 -17.398680 29.942381 -0.972756 2.190842 0.066173 -0.020582 -391403.000000 0 0 1
13.938550 -19.014755 -16.602080 28.835276 -0.938239 2.184325 0.093823 -0.022255 24452.300000 0 0 1
13.415950 -19.083555 -15.313780 27.904868 -0.958052 2.151707 0.078219 -0.022278 -213810.000000 0 0 1
13.180550 -17.704755 -14.622880 26.476666 -0.930848 2.155909 0.089423 -0.022389 -38272.700000 0 0 1
12.135750 -16.879655 -15.115180 25.703460 -0.947460 2.199455 0.083103 -0.029246 198958.000000 0 0 1
12.248950 -15.537555 -14.631080 24.607334 -0.903203 2.207542 0.073944 -0.030060 -37697.700000 0 1 0
10.903950 -14.842455 -14.300380 23.317278 -0.937194 2.231022 0.076166 -0.024880 663218.000000 0 1 0
10.082750 -14.483055 -15.457680 23.459766 -0.962642 2.290154 0.094244 -0.014684 959333.000000 0 1 0
8.817350 -13.946655 -15.052980 22.334884 -1.007022 2.310362 0.079190 -0.010633 708690.000000 0 1 0
8.013550 -13.405855 -16.281280 22.561339 -1.032022 2.376972 0.059285 -0.003290 -90233.800000 0 1 0
8.499750 -12.200555 -16.894780 22.506285 -0.962309 2.419871 0.055681 -0.006370 -365796.000000 0 1 0
9.705550 -12.328555 -17.608280 23.584794 -0.903884 2.413725 0.075458 -0.010736 -147706.000000 0 1 0
10.153350 -11.124255 -18.424480 23.797080 -0.830997 2.456298 0.073903 -0.012095 127388.000000 0 1 0
9.380350 -10.929355 -19.608080 24.329377 -0.861520 2.508062 0.074870 -0.008972 250400.000000 0 1 0
9.802250 -9.785755 -20.329780 24.599696 -0.784556 2.543523 0.078793 -0.015777 111846.000000 0 1 0
9.421850 -9.920655 -21.813080 25.748808 -0.811180 2.581393 0.069709 -0.012751 618379.000000 0 0 1
10.437250 -10.629255 -22.570880 27.043703 -0.794512 2.558216 0.044808 -0.009382 71887.900000 0 0 1
10.201550 -10.749655 -23.951580 28.165669 -0.811553 2.587507 0.041350 -0.005363 -134947.000000 0 0 1
11.228050 -11.626255 -24.711780 29.528139 -0.802820 2.562371 0.066426 -0.002162 -515940.000000 0 0 1
11.288750 -12.995355 -24.347380 29.817948 -0.855559 2.526178 0.063553 -0.012972 -552301.000000 0 0 1
12.293550 -13.701255 -24.979880 31.029827 -0.839499 2.506519 0.049502 -0.016955 -706100.000000 0 0 1
12.088150 -15.214555 -24.719380 31.442866 -0.899411 2.475380 0.048543 -0.015647 -391388.000000 0 0 1
11.048250 -15.651055 -25.533870 31.921746 -0.956114 2.497907 0.058530 -0.019801 -676371.000000 0 0 1
10.621150 -16.851955 -24.899880 31.887321 -1.008422 2.466855 0.061968 -0.026566 15563.800000 0 0 1
9.378150 -17.403855 -25.611590 32.354249 -1.076550 2.484218 0.071817 -0.033539 153829.000000 0 0 1
9.743750 -18.296055 -26.634320 33.750160 -1.081441 2.480239 0.068456 -0.038581 281611.000000 0 0 1
8.540050 -18.921355 -27.030330 34.082090 -1.146825 2.486670 0.074861 -0.036579 246628.000000 0 0 1
8.834750 -19.841955 -28.234340 35.622099 -1.151894 2.485870 0.079342 -0.032786 61058.000000 0 0 1
9.543050 -21.014155 -27.882870 36.195565 -1.144517 2.450170 0.071249 -0.026837 -66185.800000 0 0 1
9.502450 -21.905855 -28.993870 37.560718 -1.161508 2.452652 0.074824 -0.021643 9691.360000 0 0 1
10.273850 -23.213855 -28.636400 38.268505 -1.154135 2.416295 0.073696 -0.017968 85724.800000 0 0 1
10.345350 -24.200655 -29.655160 39.650050 -1.166825 2.415723 0.087994 -0.018087 97762.900000 0 0 1
10.972950 -25.448555 -29.303850 40.332992 -1.163701 2.384081 0.108935 -0.025318 169738.000000 0 0 1
10.320450 -26.334255 -28.220530 39.955012 -1.197290 2.355065 0.097516 -0.022904 -131471.000000 0 0 1
10.756150 -26.027955 -26.922440 38.961096 -1.178917 2.333679 0.091771 -0.018514 -571214.000000 0 0 1
9.945050 -26.515255 -25.884700 38.366398 -1.211965 2.311315 0.075930 -0.011477 -145132.000000 0 0 1
8.983050 -25.416655 -25.399680 37.038430 -1.231068 2.326451 0.059502 -0.009424 -627294.000000 0 0 1
9.642450 -24.383855 -24.679080 36.008419 -1.194224 2.325908 0.058532 -0.008773 -80429.400000 0 0 1
8.952950 -23.131255 -24.649180 34.968448 -1.201503 2.353075 0.049538 -0.007500 -357249.000000 0 0 1
9.921550 -21.970755 -24.562280 34.415939 -1.146629 2.365547 0.062799 -0.015162 -279980.000000 0 0 1
10.451850 -21.836155 -23.267080 33.577014 -1.124375 2.336364 0.056201 -0.023706 224331.000000 0 0 1
11.513550 -20.876255 -23.282780 33.323681 -1.066791 2.344355 0.061080 -0.025765 604739.000000 0 0 1
12.285650 -20.688755 -21.898180 32.534475 -1.034924 2.309157 0.060912 -0.018726 75901.100000 0 0 1
11.559350 -20.065255 -20.876580 31.177951 -1.048145 2.304459 0.055117 -0.019575 -339953.000000 0 0 1
11.221050 -18.712155 -21.115680 30.363278 -1.030622 2.339821 0.071717 -0.024285 -234672.000000 0 0 1
12.375350 -17.709855 -21.159580 30.240967 -0.960887 2.345773 0.080455 -0.025782 251666.000000 0 0 1
13.404750 -17.929655 -22.122780 31.473437 -0.928814 2.350267 0.075149 -0.019924 318199.000000 0 0 1
14.569150 -17.233855 -21.705680 31.311379 -0.868991 2.336744 0.087358 -0.016710 259312.000000 0 0 1
15.806550 -17.237055 -22.611680 32.530773 -0.828663 2.339336 0.062165 -0.001685 -13814.200000 0 0 1
16.982850 -17.798155 -22.059880 33.042848 -0.808835 2.301796 0.072871 0.006573 33109.400000 0 0 1
18.002150 -17.662455 -23.027780 34.151404 -0.775874 2.310792 0.077245 0.005470 434331.000000 0 0 1
19.427650 -17.962555 -22.451180 34.700756 -0.746234 2.274432 0.068457 0.009234 503504.000000 0 0 1
19.535050 -19.256355 -22.051780 35.195261 -0.778214 2.247922 0.069330 -0.003525 700834.000000 0 0 1
20.895550 -19.567955 -21.723280 35.936469 -0.752600 2.219923 0.065781 -0.004932 772266.000000 0 0 1
21.109050 -21.069755 -21.397380 36.706599 -0.784467 2.193127 0.077236 -0.017369 -42418.100000 0 0 1
20.424050 -21.496255 -20.221680 35.890767 -0.810970 2.169319 0.077080 -0.013180 441937.000000 0 0 1
20.630750 -22.889955 -20.088180 36.784682 -0.837263 2.148500 0.087929 -0.020808 -38223.900000 0 0 1
-16.864018 13.029400 28.660357 35.715213 -0.657819 0.639374 0.029724 -0.021333 -257917.000000 0 0 1
-18.025418 13.746600 28.308187 36.266213 -0.651531 0.675225 0.037443 -0.027469 -19349.500000 0 0 1
-18.248418 13.650800 26.935737 35.282900 -0.642254 0.702202 0.036829 -0.017013 -491449.000000 0 0 1
-19.502618 14.334200 26.416037 35.827761 -0.633824 0.741722 0.050876 -0.017836 -485268.000000 0 0 1
-19.482518 15.671000 26.662047 36.551519 -0.677395 0.753297 0.056802 -0.016619 12746.200000 0 0 1
-20.303918 16.408600 25.770157 36.682315 -0.679690 0.791860 0.063682 -0.017732 -394584.000000 0 0 1
-20.247218 17.925900 26.117047 37.595052 -0.724663 0.802802 0.079070 -0.014812 606948.000000 0 0 1
-19.102818 18.626500 25.631707 36.997954 -0.772774 0.805449 0.042683 -0.013686 -229769.000000 0 0 1
-17.968918 18.539700 26.436957 36.952878 -0.801031 0.773566 0.045348 -0.006156 -217316.000000 0 0 1
-16.795218 19.450200 25.898667 36.484663 -0.858518 0.781510 0.054653 -0.005398 441671.000000 0 0 1
-17.021418 20.844600 26.039187 37.446833 -0.886023 0.801870 0.066188 -0.011385 98608.700000 0 0 1
-16.064418 21.601800 25.333607 36.966133 -0.931364 0.815754 0.080350 -0.018294 156049.000000 0 0 1
-16.412818 23.109200 25.428537 38.079210 -0.953238 0.839574 0.084808 -0.022130 305708.000000 0 0 1
-15.868918 23.661400 26.628137 38.996694 -0.980029 0.819166 0.080567 -0.021513 146199.000000 0 0 1
-16.218518 25.015500 26.665957 39.998611 -0.995590 0.841061 0.081816 -0.020393 -285120.000000 0 0 1
-15.524518 25.828400 27.734787 40.955285 -1.029595 0.826850 0.061096 -0.009536 -217664.000000 0 0 1
-14.149818 26.017700 27.508437 40.420938 -1.072684 0.822284 0.056755 -0.014808 20662.000000 0 0 1
-13.492518 26.705800 28.598087 41.389593 -1.102975 0.807996 0.081809 -0.011862 433015.000000 0 0 1
-11.953918 26.758800 28.512327 40.888658 -1.150666 0.799150 0.094811 -0.017878 -45660.100000 0 0 1
-11.418618 27.396800 27.392127 40.389332 -1.175903 0.825483 0.090376 -0.020064 -1273860.000000 0 0 1
-10.049518 27.305400 27.549657 40.069456 -1.218140 0.812690 0.072913 -0.015180 -980831.000000 0 0 1
-9.275718 28.131100 26.444427 39.707751 -1.252291 0.841994 0.074662 -0.026461 1719870.000000 0 0 1
-7.820518 27.981400 26.538077 39.349572 -1.298261 0.830620 0.059029 -0.024613 1639790.000000 0 0 1
-7.303718 28.644700 25.413167 38.983230 -1.321140 0.860709 0.073197 -0.029103 217003.000000 0 0 1
-5.800518 28.256400 25.196507 38.300576 -1.368328 0.852819 0.063418 -0.027339 196633.000000 0 0 1
-4.950418 28.836900 26.143247 39.237008 -1.400784 0.841573 0.068456 -0.029815 569717.000000 0 0 1
-3.566918 28.478200 26.067517 38.771720 -1.446194 0.833440 0.055237 -0.026783 954710.000000 0 0 1
-2.666018 29.275900 25.111407 38.662239 -1.479982 0.863860 0.046826 -0.012934 -551469.000000 0 0 1
-3.014018 29.048300 23.737347 37.634422 -1.467407 0.888296 0.040629 -0.001819 -132889.000000 0 0 1
-2.480018 30.039300 22.904637 37.856736 -1.488424 0.920987 0.037609 -0.006492 -336137.000000 0 0 1
-2.743218 29.739900 21.339067 36.706167 -1.478816 0.950412 0.038877 0.004596 1397990.000000 0 0 1
-4.148618 29.611800 21.032467 36.557276 -1.431602 0.957790 0.041831 0.011174 829047.000000 0 0 1
-4.815318 28.422700 21.402467 35.904077 -1.402972 0.932160 0.042879 0.010301 -1377010.000000 0 0 1
-6.295418 28.413500 21.115267 35.955720 -1.352754 0.943130 0.055558 0.002527 -979655.000000 0 0 1
-6.565018 28.827800 19.792967 35.579532 -1.346883 0.980867 0.036552 0.004119 353419.000000 0 0 1
-7.656918 28.067300 19.238467 34.878652 -1.304471 0.986536 0.035309 -0.007561 -63579.800000 0 0 1
-7.297218 26.671200 18.627267 33.340327 -1.303733 0.977978 0.024759 -0.005892 31530.600000 0 0 1
-6.446518 26.694900 17.484467 32.555827 -1.333844 1.003847 0.029266 -0.001771 -372426.000000 0 0 1
-5.110218 26.634200 17.882767 32.485201 -1.381233 0.987846 0.031880 0.008000 -1059960.000000 0 0 1
-4.051918 26.763400 16.795867 31.855906 -1.420540 1.015441 0.024784 0.001772 -183200.000000 0 0 1
-3.767118 25.478100 16.243367 30.449495 -1.424003 1.008119 0.034200 -0.004724 103510.000000 0 0 1
-3.068018 25.675000 14.995567 29.891226 -1.451866 1.045267 0.046758 -0.023047 394384.000000 0 0 1
-2.333118 24.413800 14.435167 28.457883 -1.475520 1.038809 0.036473 -0.016811 -98438.200000 0 0 1
-1.217218 24.013000 15.157267 28.422677 -1.520150 1.008322 0.049740 -0.012812 -253109.000000 0 0 1
-0.460018 22.967900 14.567167 27.201809 -1.550770 1.005671 0.048136 -0.028225 -3844.160000 0 0 1
0.883882 22.558200 15.216767 27.225055 1.531634 0.977707 0.043252 -0.022393 297023.000000 0 0 1
1.902882 23.507700 14.921967 27.908745 1.490025 1.006679 0.053338 -0.030188 -72516.400000 0 0 1
3.087682 23.107900 15.582167 28.041269 1.437963 0.981607 0.043931 -0.025095 -551897.000000 0 0 1
4.253282 24.037600 15.324467 28.822490 1.395666 1.010208 0.070875 -0.023136 295679.000000 0 0 1
5.526182 23.428500 15.571467 28.668866 1.339156 0.996613 0.075475 -0.020776 589927.000000 0 0 1
6.596682 24.331100 15.613167 29.652818 1.306040 1.016280 0.088386 -0.018603 1288140.000000 0 0 1
8.089682 23.802100 15.732467 29.656255 1.243172 1.011613 0.098355 -0.019071 1532250.000000 0 0 1
8.642882 23.028300 14.681867 28.645405 1.211749 1.032658 0.082776 -0.014591 297380.000000 0 0 1
9.406482 23.790400 13.722667 29.030615 1.194271 1.078448 0.086758 -0.013727 293340.000000 0 0 1
9.835482 23.090600 12.355767 27.974587 1.168120 1.113328 0.070708 -0.011522 1120210.000000 0 0 1
11.002482 22.223700 12.495867 27.768582 1.111093 1.104031 0.075478 -0.006504 846289.000000 0 0 1
11.257082 21.467300 11.376567 26.776728 1.087833 1.131981 0.064663 -0.012912 -93064.000000 0 0 1
12.509182 20.594900 11.555467 26.723741 1.024959 1.123639 0.081227 -0.020715 56933.900000 0 0 1
12.468282 19.828700 12.683967 26.636787 1.009469 1.074488 0.081046 -0.016762 -861514.000000 0 0 1
13.721582 19.282800 12.847867 26.929090 0.952330 1.073444 0.074365 -0.017668 -938822.000000 0 0 1
14.002682 18.583500 14.165267 27.241079 0.925058 1.023949 0.077204 -0.023765 540188.000000 0 0 1
15.341382 18.069300 14.244967 27.654596 0.866866 1.029668 0.072171 -0.017348 819601.000000 0 0 1
15.653782 17.686400 15.564967 28.286354 0.846289 0.988116 0.062537 -0.023539 169172.000000 0 0 1
16.991282 16.906400 15.596467 28.596850 0.782894 0.993941 0.049425 -0.021718 -143262.000000 0 0 1
17.431082 16.598600 16.902667 29.411839 0.760940 0.958572 0.054009 -0.027402 824071.000000 0 0 1
18.694382 15.905200 16.803967 29.746069 0.704959 0.970467 0.051126 -0.028225 745954.000000 0 0 1
19.267082 15.684900 18.224367 30.811752 0.683266 0.937910 0.054691 -0.029657 -154713.000000 0 0 1
19.729482 16.797600 18.992167 32.126535 0.705304 0.938291 0.061654 -0.021188 -93193.400000 0 0 1
18.698782 17.498100 19.576567 32.234608 0.752239 0.918120 0.053820 -0.014286 -741350.000000 0 0 1
19.257882 18.631500 20.474467 33.722435 0.768868 0.918332 0.049391 -0.012261 -79422.100000 0 0 1
18.259082 19.514700 20.936267 33.949151 0.818626 0.906259 0.063174 -0.018350 101852.000000 0 0 1
18.825182 20.711700 21.457867 35.267578 0.833077 0.916715 0.065317 -0.008166 -37720.400000 0 0 1
17.756082 21.712600 21.912267 35.593017 0.885309 0.907606 0.075647 -0.018584 129945.000000 0 0 1
17.139482 21.252100 23.138207 35.788130 0.892114 0.867765 0.086481 -0.021819 336031.000000 0 0 1
16.365082 22.236400 23.829577 36.470840 0.936342 0.858746 0.086102 -0.029866 556994.000000 0 0 1
15.732382 21.771600 25.229077 36.851279 0.945056 0.816716 0.101374 -0.029449 13375.300000 0 0 1
14.634482 20.938700 25.057547 35.783766 0.960795 0.795050 0.107645 -0.025610 -435697.000000 0 0 1
13.977582 20.508000 26.239267 36.117170 0.972549 0.757576 0.091344 -0.024026 -202293.000000 0 0 1
13.036782 19.340500 26.025997 34.948035 0.977688 0.730703 0.093745 -0.021699 -409630.000000 0 0 1
13.572282 18.036200 25.864117 34.328762 0.925696 0.717542 0.091445 -0.022112 -23181.700000 0 0 1
14.232282 17.681900 24.616827 33.484259 0.893071 0.744870 0.101475 -0.022830 71623.700000 0 0 1
13.438082 17.599100 23.273877 32.124504 0.918669 0.760502 0.111483 -0.019473 -580691.000000 0 0 1
13.227382 18.859200 22.619567 32.284329 0.959148 0.794508 0.119392 -0.022268 584427.000000 0 0 1
14.365282 19.380300 21.896867 32.579597 0.932931 0.833750 0.118779 -0.026604 686456.000000 0 0 1
14.972882 18.500600 20.776967 31.593382 0.890399 0.853119 0.113359 -0.027217 -507527.000000 0 0 1
14.008682 18.042400 19.849367 30.261671 0.910593 0.855390 0.116511 -0.031068 -36358.400000 0 0 1
14.418982 16.969200 19.055767 29.308413 0.866468 0.862974 0.081528 -0.031473 176491.000000 0 0 1
13.193182 16.293800 18.380367 27.881640 0.890165 0.851004 0.074022 -0.018440 450541.000000 0 0 1
12.522182 17.082700 17.394967 27.408184 0.938243 0.883224 0.091046 -0.022502 217834.000000 0 0 1
11.462682 16.346700 16.820767 26.106434 0.959250 0.870669 0.079088 -0.022023 189461.000000 0 0 1
10.848082 16.991700 15.512867 25.437134 1.002595 0.914923 0.076117 -0.019292 -111099.000000 0 0 1
10.099082 18.131600 15.776867 26.070211 1.062604 0.920819 0.081208 -0.024035 -32797.200000 0 0 1
9.483682 18.632900 14.605167 25.503649 1.099994 0.961038 0.063383 -0.010309 -779029.000000 0 0 1
8.497282 19.723000 14.760167 26.058838 1.163997 0.968645 0.071919 -0.010248 566942.000000 0 0 1
7.157682 19.290400 15.107967 25.526508 1.215494 0.937439 0.037773 -0.012192 1561920.000000 0 0 1
6.188482 20.353200 15.248267 26.173645 1.275624 0.948896 0.052210 -0.016416 879625.000000 0 0 1
4.845482 19.916400 15.873667 25.925181 1.332142 0.911846 0.043289 -0.019464 564943.000000 0 0 1
3.895682 19.309100 14.991567 24.754086 1.371715 0.920252 0.034866 -0.021643 -522322.000000 0 1 0
2.769182 18.845700 15.650767 24.653099 1.424901 0.882995 0.029194 -0.025830 43501.600000 0 1 0
1.635682 18.457600 14.640767 23.615895 1.482409 0.902112 0.034189 -0.022234 166366.000000 0 1 0
1.096082 19.552100 13.964867 24.052100 1.514795 0.951320 0.028209 -0.026835 246863.000000 0 1 0
0.155982 18.996300 13.005667 23.022405 1.562585 0.970468 0.021851 -0.028864 -71133.200000 0 1 0
-0.632818 20.025500 12.207167 23.461373 -1.539206 1.023583 0.025940 -0.029398 -381304.000000 0 1 0
-1.708018 20.470700 13.003267 24.311558 -1.487552 1.006455 0.032706 -0.025711 -983807.000000 0 1 0
-2.832818 20.553000 12.199667 24.068289 -1.433829 1.039238 0.031652 -0.035174 199074.000000 0 1 0
-4.031418 21.391700 12.823167 25.264417 -1.384524 1.038448 0.027986 -0.025291 805961.000000 0 0 1
-4.795118 20.658400 13.746067 25.272851 -1.342720 0.995711 0.031581 -0.021776 206023.000000 0 0 1
-5.768518 21.538000 14.356267 26.519119 -1.309108 0.998748 0.026810 -0.009953 465818.000000 0 0 1
-6.497318 20.781100 15.545267 26.753030 -1.267770 0.950759 0.031426 -0.008490 -326318.000000 0 0 1
-7.485818 19.867000 15.057667 26.028225 -1.210451 0.953892 0.034547 -0.009251 542718.000000 0 0 1
-8.283618 19.266100 16.080567 26.426986 -1.164734 0.916639 0.031288 0.002592 549055.000000 0 0 1
-9.409218 20.207700 16.667567 27.833295 -1.135025 0.928750 0.028546 0.003385 878614.000000 0 0 1
-10.587318 20.425900 15.848467 27.937119 -1.092594 0.967584 0.026095 -0.008350 886153.000000 0 0 1
-11.632118 19.572000 16.285467 27.992603 -1.034560 0.949884 0.021890 -0.007183 -8980.470000 0 0 1
-12.853418 19.525500 15.339567 27.959933 -0.988616 0.990075 0.029782 -0.012235 379043.000000 0 0 1
-13.727518 20.651200 15.249467 29.111219 -0.984134 1.019450 0.016054 -0.002817 601076.000000 0 0 1
-14.677718 20.503200 14.205167 28.941379 -0.949496 1.057759 0.019354 -0.012991 -473744.000000 0 0 1
-15.627518 21.687800 13.970867 30.162313 -0.946400 1.089206 0.020666 -0.015695 -352474.000000 0 0 1
-16.639318 21.474600 14.937267 31.002376 -0.911588 1.068077 0.019326 -0.018404 -147345.000000 0 0 1
-17.663618 22.445800 14.815767 32.176456 -0.904066 1.092290 0.031800 -0.029872 591379.000000 0 0 1
-18.907718 22.303400 15.749367 33.211234 -0.867610 1.076721 0.066790 -0.031967 -531508.000000 0 0 1
-19.667018 21.106200 15.496167 32.747435 -0.820681 1.077874 0.060324 -0.026080 448926.000000 0 0 1
-20.861518 21.082800 16.251467 33.820077 -0.790674 1.069541 0.074187 -0.023497 -56699.600000 0 0 1
-21.937518 22.137900 16.085067 35.072364 -0.789944 1.094349 0.083665 -0.031071 -1591890.000000 0 0 1
-22.577418 22.124700 14.808767 34.907617 -0.775271 1.132688 0.093776 -0.033055 356199.000000 0 0 1
-23.416818 23.234900 14.588167 36.069691 -0.781499 1.154426 0.112002 -0.040201 43963.200000 0 0 1
-22.689218 24.363500 13.847467 36.057359 -0.820966 1.176628 0.103904 -0.038781 602116.000000 0 0 1
-21.396318 24.758500 14.323567 35.720447 -0.858115 1.158198 0.078480 -0.043144 835909.000000 0 0 1
-21.042718 26.085600 13.910167 36.287012 -0.891996 1.177389 0.062254 -0.029157 -366399.000000 0 0 1
-19.597418 26.563500 14.121067 35.903800 -0.935177 1.166575 0.044840 -0.023810 49159.000000 0 0 1
-18.709018 26.055600 13.142067 34.664616 -0.948064 1.181951 0.041366 -0.018560 -855056.000000 0 0 1
-17.393618 26.390300 13.417367 34.336739 -0.988057 1.169341 0.001846 -0.009295 -603983.000000 0 0 1
-16.412618 26.044200 12.249167 33.131805 -1.008478 1.192099 0.013327 -0.014057 651105.000000 0 0 1
-15.074918 26.336800 12.651167 32.877534 -1.050926 1.175809 0.005100 -0.005044 970847.000000 0 0 1
-14.099618 25.858800 11.680967 31.684725 -1.071604 1.193227 0.004714 -0.006726 322421.000000 0 0 1
-12.665818 26.225600 12.055467 31.520459 -1.120876 1.178334 -0.001463 -0.001481 -734125.000000 0 0 1
-11.655818 25.582400 11.271267 30.287931 -1.143280 1.189486 0.000431 -0.005489 564685.000000 0 0 1
-10.377518 26.122800 11.575267 30.398690 -1.192655 1.180155 0.019371 -0.006373 74721.700000 0 0 1
-9.965918 27.505400 11.077767 31.282319 -1.223183 1.208821 0.018833 -0.012282 -302164.000000 0 0 1
-8.672318 27.829000 11.599367 31.372084 -1.268705 1.192072 0.029129 -0.018015 555740.000000 0 0 1
-8.301418 29.131900 11.162267 32.282772 -1.293194 1.217742 0.036237 -0.022534 -821386.000000 0 0 1
-6.948518 29.479000 11.734167 32.480518 -1.339311 1.201169 0.027543 -0.023334 -778934.000000 0 0 1
-5.854318 28.800500 11.150367 31.433621 -1.370257 1.208174 0.048123 -0.022574 -22453.000000 0 0 1
-4.674818 29.344800 11.728567 31.945743 -1.412817 1.194864 0.058119 -0.020842 -704492.000000 0 0 1
-3.417218 29.032600 10.967067 31.222521 -1.453633 1.211885 0.076867 -0.036026 -932597.000000 0 0 1
-3.403918 29.643900 9.682567 31.370361 -1.456470 1.257019 0.078895 -0.038186 474112.000000 0 0 1
-2.249618 29.317200 8.906467 30.722698 -1.494213 1.276675 0.075146 -0.039820 395118.000000 0 0 1
-2.099418 30.314800 7.709567 31.350153 -1.501653 1.322330 0.074863 -0.042310 314588.000000 0 0 1
-3.141018 30.235400 6.740067 31.136376 -1.467282 1.352600 0.085229 -0.036886 335014.000000 0 0 1
-3.113218 31.309600 5.801467 31.994378 -1.471689 1.388460 0.090363 -0.029265 25052.800000 0 0 1
11.174682 33.876400 -26.076190 44.186555 1.252169 2.202027 0.106775 -0.037872 -224952.000000 0 0 1
12.112482 -33.826555 -25.090280 43.823169 -1.226945 2.180390 0.085209 -0.034936 -75959.600000 0 0 1
13.073582 -32.964255 -25.658080 43.770969 -1.193226 2.197144 0.084405 -0.027552 -799602.000000 0 0 1
14.028682 -32.599255 -24.556680 43.157223 -1.164413 2.176092 0.071956 -0.014268 -1276670.000000 0 0 1
13.436382 -31.794155 -23.591780 41.808811 -1.170956 2.170354 0.070748 -0.013035 89694.600000 0 0 1
13.796882 -32.060355 -22.276480 41.406061 -1.164411 2.138860 0.049983 -0.010587 -51141.300000 0 0 1
15.217082 -31.683755 -21.753180 41.335466 -1.123049 2.124992 0.030278 -0.006929 305573.000000 0 0 1
16.153082 -32.696055 -22.018280 42.599985 -1.111930 2.113977 0.042144 -0.005923 214265.000000 0 0 1
17.493082 -32.350655 -21.673480 42.688552 -1.075095 2.103323 0.036895 -0.011303 391035.000000 0 0 1
18.443682 -33.551555 -21.914480 44.114858 -1.068174 2.090657 0.028452 -0.009131 -466857.000000 0 0 1
19.766982 -33.310455 -21.507280 44.304436 -1.035232 2.077666 0.043439 -0.003128 -296270.000000 0 0 1
20.546582 33.616700 -21.709380 44.983794 1.022181 2.074422 0.036932 -0.003906 -787772.000000 0 0 1
21.955482 33.869400 -21.186080 45.585408 0.995660 2.054155 0.068495 -0.011451 -940056.000000 0 0 1
22.873982 -33.933955 -22.199080 46.556755 -0.977683 2.067827 0.061444 -0.013332 190294.000000 0 0 1
24.171882 -33.698155 -21.647380 46.780921 -0.948550 2.051879 0.051156 -0.012875 1046180.000000 0 0 1
25.285382 -33.330955 -22.683280 47.590275 -0.921804 2.067621 0.073622 -0.012532 421555.000000 0 0 1
25.241282 -31.923755 -22.924180 46.709383 -0.901768 2.083785 0.077838 -0.020934 -250762.000000 0 0 1
24.319882 -31.568255 -23.917380 46.476364 -0.914373 2.111354 0.067603 -0.020207 -180594.000000 0 0 1
24.100282 -30.061555 -23.740280 45.256177 -0.895021 2.123013 0.064231 -0.023947 -56166.200000 0 0 1
25.015082 -29.132755 -24.302780 45.443336 -0.861297 2.135059 0.065059 -0.027043 -228275.000000 0 0 1
24.607582 -27.879055 -23.994780 44.255217 -0.847647 2.143839 0.065938 -0.020957 191852.000000 0 0 1
25.327682 -26.925755 -24.957480 44.602282 -0.815972 2.164646 0.053972 -0.019062 440034.000000 0 0 1
24.645782 -26.822655 -26.192240 44.865385 -0.827668 2.194193 0.055654 -0.022408 -201864.000000 0 0 1
25.413282 -26.051055 -27.097080 45.373385 -0.797790 2.210805 0.041763 -0.016667 -438337.000000 0 0 1
24.706082 -25.656355 -28.409180 45.560076 -0.804265 2.244077 0.044026 -0.018061 642355.000000 0 0 1
23.726282 -24.619655 -28.420530 44.461111 -0.803875 2.264283 0.050428 -0.024514 547571.000000 0 0 1
22.511482 -24.810955 -27.689960 43.463596 -0.833952 2.261506 0.046368 -0.023869 155992.000000 0 0 1
21.788382 -23.479655 -27.408750 42.157649 -0.822742 2.278577 0.058892 -0.023858 -94045.200000 0 0 1
21.323082 -22.830655 -28.586380 42.344938 -0.819529 2.311875 0.079168 -0.026501 102266.000000 0 0 1
20.702882 -21.586855 -28.274380 41.158744 -0.806298 2.328093 0.074735 -0.012294 -494245.000000 0 0 1
19.844282 -21.074555 -29.401450 41.259879 -0.815455 2.363982 0.091585 -0.024001 189810.000000 0 0 1
18.598382 -21.767755 -29.424860 41.055540 -0.863753 2.369867 0.101751 -0.031444 -218665.000000 0 0 1
17.609882 -21.257655 -30.222450 40.931556 -0.878975 2.401440 0.087922 -0.036968 -134851.000000 0 0 1
16.367182 -22.188055 -30.295320 40.963408 -0.935241 2.403228 0.102673 -0.042008 181957.000000 0 0 1
16.656782 -23.344755 -31.049070 42.266662 -0.951059 2.395873 0.096913 -0.024972 49589.900000 0 0 1
15.670082 -24.292255 -30.716430 42.180140 -0.997898 2.386518 0.111270 -0.038411 -123262.000000 0 0 1
15.910582 -25.706755 -31.226690 43.463663 -1.016577 2.372375 0.131116 -0.039797 -514924.000000 0 0 1
14.984482 -26.622655 -30.749080 43.345200 -1.058143 2.359443 0.135601 -0.034503 -610765.000000 0 0 1
15.167082 -27.934755 -31.139060 44.497550 -1.073384 2.345904 0.161852 -0.040716 164194.000000 0 0 1
14.125582 -28.895455 -30.471410 44.305600 -1.116107 2.329189 0.159716 -0.045553 326674.000000 0 0 1
14.254482 -29.125455 -29.061100 43.543426 -1.115651 2.301515 0.169237 -0.051016 -168792.000000 0 0 1
13.996582 -28.043755 -28.170680 42.141947 -1.107871 2.302948 0.155276 -0.042541 -284972.000000 0 0 1
15.040782 -27.822855 -27.060940 41.624882 -1.075206 2.278531 0.113489 -0.031923 -211668.000000 0 0 1
15.087082 -28.919355 -26.086910 41.766925 -1.089944 2.245394 0.090245 -0.035484 364270.000000 0 0 1
16.129182 -28.648755 -25.142730 41.389111 -1.058029 2.223671 0.085276 -0.037319 -393500.000000 0 0 1
15.735082 -27.681755 -23.965480 39.852435 -1.053915 2.215993 0.071891 -0.036970 450074.000000 0 0 1
14.764582 -28.092155 -23.006380 39.197647 -1.086897 2.198061 0.065457 -0.028635 145153.000000 0 0 1
13.485682 -28.338455 -23.541980 39.232085 -1.126631 2.214384 0.069641 -0.017629 -11809.900000 0 0 1
12.279982 -28.206755 -22.518880 38.125043 -1.160187 2.202671 0.047357 -0.008833 793263.000000 0 0 1
12.010482 -26.896355 -21.990680 36.759428 -1.150818 2.212090 0.043823 -0.013780 -342260.000000 0 0 1
10.775682 -26.832155 -21.349380 35.942675 -1.188915 2.206799 0.052346 -0.020190 -502188.000000 0 0 1
10.300982 -25.353555 -21.088980 34.549357 -1.184876 2.227364 0.044368 -0.023472 125710.000000 0 0 1
11.043382 -24.635255 -20.088180 33.650959 -1.149377 2.210499 0.041955 -0.028039 288751.000000 0 0 1
10.556282 -23.310855 -19.966180 32.457347 -1.145576 2.233374 0.045200 -0.027659 -258950.000000 0 0 1
10.950682 -22.527855 -18.676680 31.244840 -1.118334 2.211491 0.038412 -0.022288 -415961.000000 0 0 1
10.209682 -22.846855 -17.553080 30.566763 -1.150544 2.182489 0.044773 -0.026060 -74408.700000 0 0 1
10.481682 -22.022355 -16.456680 29.422306 -1.126568 2.164370 0.037182 -0.021461 -242953.000000 0 0 1
9.763482 -22.562555 -15.215780 28.912185 -1.162397 2.125011 0.046510 -0.023034 118425.000000 0 0 1
10.318082 -23.799355 -14.863280 29.896307 -1.161711 2.091120 0.047573 -0.022112 67274.700000 0 0 1
9.690982 -24.258155 -13.673080 29.484340 -1.190726 2.053009 0.051205 -0.021325 -34106.100000 0 0 1
9.867982 -25.732655 -13.369880 30.631687 -1.204611 2.022470 0.069056 -0.020332 -69041.900000 0 0 1
11.202882 -26.148155 -13.188280 31.355403 -1.166017 2.004910 0.046519 -0.022191 -405288.000000 0 0 1
11.408682 -27.536655 -13.092080 32.554999 -1.178016 1.984663 0.063099 -0.026327 96638.600000 0 0 1
12.845182 -27.826855 -12.544280 33.116333 -1.138329 1.959290 0.037782 -0.029353 676746.000000 0 0 1
14.017482 -27.474155 -13.246680 33.567745 -1.099017 1.976456 0.045683 -0.024783 84718.700000 0 0 1
14.183582 -28.006355 -14.564180 34.607011 -1.102009 2.005173 0.046745 -0.025374 -509311.000000 0 0 1
15.503082 -27.633155 -15.302680 35.186770 -1.059523 2.020722 0.045408 -0.017340 194818.000000 0 0 1
16.573282 -28.435655 -14.873280 36.117511 -1.043094 1.995227 0.064204 -0.018641 -549511.000000 0 0 1
17.760382 -27.948455 -15.434580 36.534553 -1.004704 2.006960 0.087066 -0.024016 363154.000000 0 0 1
19.064482 -28.777055 -15.246280 37.736221 -0.985692 1.986706 0.093735 -0.023134 495789.000000 0 0 1
19.021382 -29.876055 -16.097880 38.904156 -1.003844 1.997402 0.083351 -0.017398 726812.000000 0 0 1
20.351482 -30.354155 -16.356280 40.038549 -0.980167 1.991621 0.094394 -0.017921 896250.000000 0 0 1
20.335882 -31.602055 -17.237380 41.344470 -0.999005 2.000852 0.084730 -0.019847 156294.000000 0 0 1
19.868882 -32.833055 -16.691580 41.849621 -1.026600 1.981055 0.067316 -0.012910 131571.000000 0 0 1
20.201582 -33.853755 -17.637880 43.188834 -1.032784 1.991486 0.065694 -0.012643 -12573.000000 0 0 1
20.149782 32.749400 -17.117780 42.089848 1.019223 1.989631 0.050356 -0.013674 -836785.000000 0 0 1
21.225982 32.320300 -16.374780 41.991398 0.989699 1.971380 0.078493 -0.016633 -653198.000000 0 0 1
21.005382 31.019400 -15.868880 40.684771 0.975558 1.971476 0.072357 -0.013655 -383377.000000 0 0 1
22.017582 30.610400 -14.792480 40.504172 0.947245 1.944653 0.064129 -0.016976 -439472.000000 0 0 1
23.341282 30.559100 -15.305080 41.387432 0.918517 1.949590 0.068623 -0.018697 -107096.000000 0 0 1
24.384482 30.472800 -14.396980 41.598888 0.895931 1.924197 0.070044 -0.025504 -104182.000000 0 0 1
24.415582 29.322800 -13.415580 40.446570 0.876462 1.908887 0.056755 -0.016451 -1483760.000000 0 0 1
24.429582 28.054700 -14.004780 39.749271 0.854359 1.930854 0.060783 -0.011925 236009.000000 0 0 1
23.897082 26.991100 -13.198480 38.389971 0.846124 1.921757 0.046561 -0.004807 206390.000000 0 0 1
22.382182 27.010900 -12.885580 37.370964 0.878837 1.922824 0.058993 -0.011458 -1309770.000000 0 0 1
21.570382 26.693200 -14.005280 37.066915 0.891145 1.958256 0.067922 -0.017540 -100520.000000 0 0 1
20.226382 26.532000 -13.595780 36.026362 0.919445 1.957766 0.062686 -0.017328 -128272.000000 0 0 1
19.519782 27.942100 -13.495180 36.659279 0.961024 1.947787 0.063674 -0.019421 -983854.000000 0 0 1
19.103982 28.616200 -14.694180 37.413473 0.982153 1.974417 0.069170 -0.017631 756444.000000 0 0 1
18.220782 27.868000 -15.572780 36.757772 0.991737 2.008278 0.058450 -0.011069 23845.200000 0 0 1
18.332182 28.482100 -16.961480 37.881271 0.998906 2.035048 0.052517 -0.005091 -254730.000000 0 0 1
17.768182 29.729800 -17.127080 38.638144 1.032102 2.030038 0.055321 -0.012997 -134766.000000 0 0 1
17.929682 30.270500 -18.465980 39.733727 1.036046 2.054141 0.030355 -0.003539 -127455.000000 0 0 1
16.872782 31.358000 -18.880080 40.304743 1.077159 2.058313 0.024245 0.005728 114662.000000 0 0 1
16.953382 32.481500 -18.045380 40.842389 1.089751 2.028434 0.044152 -0.012146 -27663.100000 0 0 1
16.165082 33.497400 -18.598280 41.584633 1.121184 2.034473 0.039613 -0.004848 -195886.000000 0 0 1
15.938182 -33.307255 -17.750180 40.969107 -1.124480 2.018901 0.045812 -0.000857 134499.000000 0 0 1
14.964782 -32.388555 -18.250480 40.075469 -1.137976 2.043621 0.029298 -0.001778 252017.000000 0 0 1
14.727282 -31.415055 -17.213080 38.730977 -1.132421 2.031331 0.032266 -0.005800 413325.000000 0 0 1
13.565882 -30.417355 -17.525980 37.635204 -1.151281 2.055200 0.028360 -0.009491 1163820.000000 0 0 1
12.247482 -30.965555 -17.458480 37.598736 -1.194158 2.053682 0.040569 -0.006375 751820.000000 0 0 1
11.212782 -29.997155 -17.440380 36.465362 -1.213083 2.069483 0.030410 -0.005064 813707.000000 0 0 1
9.744682 -30.437355 -17.648780 36.508503 -1.260952 2.075349 0.054482 -0.008295 -463067.000000 0 0 1
9.009382 -31.046255 -16.587180 36.334191 -1.288362 2.044873 0.066593 -0.008904 282780.000000 0 0 1
8.169082 -32.072355 -17.094180 37.250246 -1.321392 2.047554 0.087274 -0.008031 675319.000000 0 0 1
6.891882 -31.705155 -17.927080 37.068788 -1.356752 2.075578 0.086433 -0.007713 -412561.000000 0 0 1
7.125582 -31.143655 -19.196580 37.272105 -1.345871 2.111849 0.070975 -0.004290 -231797.000000 0 0 1
7.154382 -32.074255 -20.235680 38.593079 -1.351332 2.122730 0.074637 -0.011726 -952459.000000 0 0 1
7.700782 -31.302155 -21.410880 38.698226 -1.329572 2.157091 0.079914 -0.006099 800263.000000 0 0 1
9.127682 -31.112255 -21.553980 38.934060 -1.285425 2.157480 0.061779 -0.007298 1848280.000000 0 0 1
10.024282 -32.239155 -21.724380 40.147204 -1.269338 2.142562 0.074359 -0.009233 12265.300000 0 0 1
9.581082 -33.227455 -22.837380 41.441607 -1.290063 2.154447 0.080366 -0.019751 -864409.000000 0 0 1
8.583882 34.014800 -22.292280 41.564834 1.323600 2.136874 0.093942 -0.027139 -179053.000000 0 0 1
8.191982 33.053700 -23.290980 41.256822 1.327853 2.170668 0.099579 -0.041204 -257099.000000 0 0 1
6.947482 32.223100 -22.942580 40.161644 1.358441 2.178832 0.102442 -0.047683 652726.000000 0 0 1
5.621282 32.734500 -23.065580 40.437202 1.400732 2.177795 0.102541 -0.042344 780884.000000 0 0 1
5.262182 33.543600 -21.972280 40.443105 1.415189 2.145146 0.080430 -0.028690 -1263010.000000 0 0 1
4.015882 -33.691555 -22.224580 40.560820 -1.452161 2.150687 0.088522 -0.029038 -155085.000000 0 0 1
2.852082 33.530000 -22.128280 40.274757 1.485940 2.152482 0.084717 -0.036460 995239.000000 0 0 1
1.751482 -33.844155 -22.750980 40.817908 -1.519091 2.162020 0.076065 -0.030844 -31880.500000 0 0 1
0.364982 33.656900 -22.474880 40.472711 1.559953 2.159531 0.062030 -0.033063 -477776.000000 0 0 1
-0.050318 33.892100 -21.140780 39.945082 -1.569312 2.128508 0.055839 -0.038509 -113530.000000 0 0 1
-1.271118 33.267000 -20.787880 39.248503 -1.532605 2.128982 0.050091 -0.044712 91352.400000 0 0 1
-1.628118 33.445100 -19.339780 38.668496 -1.522154 2.094560 0.053828 -0.044497 -94864.900000 0 0 1
-0.848218 32.697600 -18.421480 37.539359 -1.544861 2.083717 0.074034 -0.048779 -59329.500000 0 0 1
-1.440818 32.569100 -17.125880 36.825507 -1.526586 2.054493 0.051081 -0.038263 286434.000000 0 0 1
-0.641218 31.624000 -16.179780 35.528493 -1.550523 2.043621 0.049895 -0.031624 247139.000000 0 0 1
0.517682 32.185700 -15.633880 35.785549 1.554714 2.022920 0.050508 -0.029139 -394580.000000 0 0 1
1.337682 31.194800 -15.028480 34.651986 1.527941 2.019389 0.058199 -0.019479 192156.000000 0 0 1
2.354682 31.706400 -14.018680 34.747140 1.496667 1.986079 0.063841 -0.018080 -245508.000000 0 0 1
3.508282 32.294500 -14.563580 35.599728 1.462587 1.992256 0.063522 -0.017571 -54492.100000 0 0 1
4.355382 32.793300 -13.533580 35.742519 1.438756 1.959124 0.079241 -0.022781 -134631.000000 0 0 1
5.776082 33.147200 -14.006580 36.445634 1.398273 1.965261 0.085044 -0.028346 -104336.000000 0 0 1
6.475682 31.934200 -14.182680 35.536967 1.370727 1.981328 0.080794 -0.014851 -430345.000000 0 0 1
7.732482 32.135300 -14.788580 36.210094 1.334663 1.991508 0.065083 -0.005589 250332.000000 0 0 1
8.622782 30.917000 -15.137680 35.487499 1.298807 2.011486 0.050044 -0.004328 413003.000000 0 0 1
9.488982 30.568300 -14.046180 34.953639 1.269808 1.984334 0.042671 -0.014372 274951.000000 0 0 1
10.305082 29.397300 -14.329380 34.288877 1.233636 2.001931 0.046495 -0.021920 493846.000000 0 0 1
9.680282 27.972200 -14.160680 32.812752 1.237629 2.017018 0.057933 -0.020523 59390.800000 0 0 1
8.889682 27.474700 -15.259280 32.660851 1.257868 2.056922 0.068393 -0.020803 344444.000000 0 0 1
8.334382 26.214500 -14.915580 31.291156 1.262972 2.067660 0.060772 -0.013629 47662.100000 0 0 1
7.524682 25.606600 -16.102080 31.170431 1.284985 2.113650 0.058539 -0.012471 31789.000000 0 0 1
8.359482 25.120200 -17.110780 31.522757 1.249545 2.144572 0.070187 -0.011319 -378400.000000 0 0 1
7.713082 24.268500 -18.005680 31.187437 1.263070 2.186261 0.056260 -0.013257 -94401.600000 0 0 1
8.676982 23.229700 -18.634980 31.018889 1.213315 2.215251 0.058275 -0.005237 -158365.000000 0 0 1
8.043082 22.255400 -19.447180 30.629835 1.224003 2.258688 0.079653 -0.017567 -560385.000000 0 0 1
8.860082 21.245400 -19.944380 30.457288 1.175691 2.284755 0.063246 -0.008723 -603804.000000 0 0 1
8.165982 20.367400 -20.982780 30.361016 1.189485 2.333819 0.061720 -0.027143 -204657.000000 0 0 1
7.452882 19.319100 -20.349580 29.032370 1.202610 2.347493 0.076219 -0.026844 150393.000000 0 0 1
6.866282 18.362800 -21.261480 28.920387 1.212970 2.396718 0.076269 -0.025294 164347.000000 0 0 1
25.622282 -12.529900 -9.358780 30.018103 -0.454828 1.887853 0.090505 -0.008151 -129060.000000 0 0 1
26.063982 -11.835400 -8.216680 29.781230 -0.426250 1.850324 0.103881 -0.019102 895163.000000 0 0 1
25.076382 -11.865700 -7.156780 28.650293 -0.441964 1.823268 0.094700 -0.013437 173487.000000 0 0 1
25.653882 -11.536200 -5.723480 28.704769 -0.422593 1.771533 0.083825 -0.017932 -181363.000000 0 0 1
25.865382 -10.225300 -5.316580 28.316793 -0.376472 1.759671 0.105263 -0.028607 598383.000000 0 0 1
26.721982 -9.419200 -6.121680 28.987249 -0.338890 1.783584 0.088292 -0.035675 -969826.000000 0 0 1
26.781282 -7.972400 -5.553480 28.489250 -0.289332 1.766985 0.121178 -0.040149 -292589.000000 0 0 1
27.432482 -7.814600 -4.325080 28.849876 -0.277516 1.721280 0.136418 -0.048471 196152.000000 0 0 1
28.826482 -8.020100 -4.318480 30.231396 -0.271357 1.714134 0.122680 -0.046064 -651936.000000 0 0 1
29.469782 -7.958000 -2.960980 30.668635 -0.263748 1.667494 0.135786 -0.044764 -534581.000000 0 0 1
29.666382 -6.628000 -2.570480 30.506261 -0.219808 1.655157 0.146842 -0.043744 331259.000000 0 0 1
30.249282 -6.592500 -1.263380 30.985097 -0.214584 1.611581 0.172385 -0.040737 255643.000000 0 0 1
30.830582 -5.190600 -0.811180 31.274992 -0.166795 1.596736 0.163485 -0.049804 543420.000000 0 0 1
29.730482 -4.359800 -0.412380 30.051280 -0.145606 1.584519 0.173251 -0.051044 635541.000000 0 0 1
30.063182 -3.217800 0.264620 30.236057 -0.106629 1.562044 0.159759 -0.040969 -272504.000000 0 0 1
30.678082 -3.213600 1.679420 30.891623 -0.104372 1.516405 0.149271 -0.024438 -297856.000000 0 0 1
29.746482 -3.330700 2.711920 30.054970 -0.111505 1.480441 0.172725 -0.031349 139367.000000 0 0 1
30.390282 -3.246100 3.969220 30.819817 -0.106410 1.441650 0.140496 -0.023707 43064.800000 0 0 1
30.049282 -4.355600 5.004520 30.772972 -0.143946 1.407444 0.151784 -0.031533 -53062.600000 0 0 1
30.360682 -5.611800 4.501120 31.201336 -0.182775 1.426031 0.143397 -0.035398 -4596.470000 0 0 1
30.462582 -6.554900 5.562920 31.652514 -0.211947 1.394129 0.148032 -0.039777 -294297.000000 0 0 1
31.272682 -7.834500 5.280720 32.668731 -0.245470 1.408440 0.118909 -0.036108 627336.000000 0 0 1
32.662482 -7.487900 5.420020 33.945294 -0.225357 1.410441 0.123268 -0.032113 691094.000000 0 0 1
33.485882 -8.643400 5.248120 34.979357 -0.252607 1.420193 0.122020 -0.029511 380224.000000 0 0 1
34.998882 -8.491100 5.549820 36.439278 -0.238012 1.417898 0.120010 -0.034147 310344.000000 0 0 1
35.610082 -7.705000 4.520820 36.713523 -0.213087 1.447345 0.132815 -0.030868 -146743.000000 0 0 1
36.969682 -7.511300 4.892020 38.040884 -0.200446 1.441840 0.132725 -0.028462 120066.000000 0 0 1
-36.261387 -7.401000 3.653620 37.188868 0.201336 1.472393 0.121751 -0.022134 -453264.000000 0 0 1
-35.978787 -8.631700 3.010720 37.122012 0.235461 1.489604 0.149486 -0.032160 627231.000000 0 0 1
-35.139987 -8.397300 1.858720 36.177177 0.234568 1.519395 0.153157 -0.043999 101303.000000 0 0 1
-34.799887 -9.619100 1.008020 36.118905 0.269678 1.542884 0.153058 -0.035104 -127245.000000 0 0 1
-34.028287 -10.506200 1.795820 35.658512 0.299464 1.520413 0.136991 -0.031156 288191.000000 0 0 1
-33.828487 -11.776900 1.223220 35.840733 0.335013 1.536660 0.138804 -0.033632 -399994.000000 0 0 1
-33.323687 -12.944100 2.124020 35.812418 0.370497 1.511452 0.107005 -0.042325 663600.000000 0 0 1
-32.005587 -12.963500 2.664720 34.633952 0.384842 1.493781 0.104322 -0.032583 278759.000000 0 0 1
-31.058687 -13.416900 1.726120 33.876758 0.407772 1.519821 0.108247 -0.021269 -738826.000000 0 0 1
-29.661987 -13.609800 2.316120 32.717343 0.430172 1.499945 0.112824 -0.019577 -373666.000000 0 0 1
-29.067287 -12.421000 2.775220 31.731534 0.403833 1.483225 0.119910 -0.027000 153617.000000 0 0 1
-27.683587 -12.620100 2.993620 30.571386 0.427724 1.472717 0.131287 -0.021525 94556.600000 0 0 1
-26.982187 -11.664100 3.973220 29.662706 0.408028 1.436446 0.131524 -0.022126 -98186.000000 0 0 1
-25.635687 -12.052300 4.172920 28.633191 0.439474 1.424538 0.128203 -0.014954 -115080.000000 0 0 1
-25.149887 -11.175800 5.133820 27.995918 0.418160 1.386375 0.126280 -0.006939 173143.000000 0 0 1
-23.658387 -11.444400 5.494320 26.849229 0.450552 1.364704 0.123777 0.001063 169267.000000 0 0 1
-23.406287 -12.717700 6.109520 27.329844 0.497720 1.345344 0.104253 -0.005562 703661.000000 0 0 1
-22.076187 -12.804300 6.658820 26.375140 0.525588 1.315569 0.090491 0.001926 655524.000000 0 0 1
-21.857887 -12.240400 8.088620 26.325280 0.510488 1.258487 0.105498 -0.011143 -723891.000000 0 0 1
-21.824287 -10.809100 8.143420 25.679786 0.459863 1.248111 0.112317 -0.012034 1028370.000000 0 0 1
-23.051787 -10.190500 8.604320 26.632039 0.416240 1.241812 0.123533 -0.018786 136217.000000 0 0 1
-23.410687 -10.388000 10.151720 27.550467 0.417627 1.193426 0.110483 -0.015081 -904809.000000 0 0 1
-23.970287 -11.618100 10.514620 28.637600 0.451323 1.194841 0.093068 -0.016988 459328.000000 0 0 1
-25.355387 -11.660200 10.200720 29.713811 0.431032 1.220369 0.091721 -0.021892 116971.000000 0 0 1
-26.334987 -11.082900 11.264920 30.712548 0.398345 1.195245 0.088804 -0.024938 -364066.000000 0 0 1
-26.299987 -11.670100 12.501220 31.371341 0.417628 1.160925 0.077884 -0.027426 1573470.000000 0 0 1
-27.587587 -11.513200 13.200420 32.678430 0.395358 1.154967 0.063570 -0.028707 1655620.000000 0 0 1
-27.702187 -12.266300 14.568120 33.617010 0.416843 1.122583 0.065443 -0.026584 -263612.000000 0 0 1
-27.856887 -13.653800 14.424520 34.212559 0.455729 1.135571 0.059406 -0.026416 217441.000000 0 0 1
-27.860387 -14.232700 15.702520 35.004857 0.472296 1.105619 0.056361 -0.024105 -609484.000000 0 0 1
-27.621287 -15.749700 15.687820 35.455553 0.518221 1.112451 0.046339 -0.023311 -87216.200000 0 0 1
-28.730387 -16.542100 15.302620 36.513646 0.522413 1.138350 0.052582 -0.028522 168092.000000 0 0 1
-28.272587 -17.893400 15.302920 36.792557 0.564252 1.141837 0.041702 -0.020754 -145118.000000 0 0 1
-29.229687 -18.925400 15.933120 38.293729 0.574596 1.141670 0.026641 -0.014792 -213057.000000 0 0 1
-29.381987 -18.681100 17.338020 38.895907 0.566329 1.108780 0.031429 -0.010937 -126985.000000 0 0 1
-29.758287 -19.853100 18.051420 40.069377 0.588334 1.103466 0.043083 -0.011277 275438.000000 0 0 1
-28.700387 -21.044600 18.154520 39.952146 0.632696 1.099090 0.038642 -0.010159 635711.000000 0 0 1
-27.542587 -20.618900 18.856120 39.233740 0.642617 1.069446 0.046461 -0.004866 117106.000000 0 0 1
-26.764287 -21.641700 19.419520 39.519716 0.679965 1.057113 0.050088 -0.003888 -571156.000000 0 0 1
-25.474587 -21.116300 20.025720 38.676636 0.692126 1.026550 0.049766 -0.000874 -464946.000000 0 0 1
-24.436087 -21.018500 19.079820 37.455830 0.710353 1.036315 0.057408 -0.010675 -731842.000000 0 0 1
-23.198787 -20.865200 19.695020 36.897616 0.732489 1.007738 0.067831 -0.007758 387923.000000 0 0 1
-21.995387 -20.853300 18.652920 35.589164 0.758751 1.019117 0.066854 -0.023215 679345.000000 0 0 1
-21.832387 -21.990100 17.849120 35.760435 0.788997 1.048201 0.053126 -0.015942 837456.000000 0 0 1
-20.720687 -21.926600 16.919520 34.588912 0.813667 1.059670 0.049770 -0.017636 718060.000000 0 0 1
-20.575787 -23.112800 15.947020 34.811952 0.843403 1.094951 0.048296 -0.012801 -417780.000000 0 0 1
-20.395787 -24.410900 16.442720 35.808424 0.874769 1.093718 0.045032 -0.023476 303433.000000 0 0 1
-19.247287 -24.812900 17.181020 35.795607 0.911051 1.070169 0.047042 -0.025239 257396.000000 0 0 1
-17.870087 -24.895700 16.473320 34.792329 0.948225 1.077564 0.052987 -0.026240 461253.000000 0 0 1
-17.119587 -23.674100 16.383420 33.495667 0.944711 1.059715 0.058696 -0.031946 -44458.800000 0 0 1
-15.960687 -23.873500 15.622120 32.691561 0.981489 1.072575 0.068037 -0.032299 -261800.000000 0 0 1
-15.163487 -22.593200 15.307720 31.220351 0.979694 1.058348 0.069358 -0.026805 -69117.800000 0 0 1
-15.907287 -21.656700 14.512320 30.539513 0.937276 1.075607 0.072368 -0.024987 204032.000000 0 0 1
-16.826487 -20.840500 15.250520 30.822645 0.891563 1.053211 0.060682 -0.020543 -231733.000000 0 0 1
-16.327887 -19.633900 16.138320 30.208199 0.877072 1.007192 0.076092 -0.023161 -370214.000000 0 0 1
-15.847687 -18.597600 15.288620 28.822939 0.865063 1.011686 0.072954 -0.023199 89385.800000 0 0 1
-15.773787 -17.419900 16.173220 28.527851 0.834949 0.968025 0.069048 -0.017453 -259575.000000 0 0 1
-15.276787 -16.111800 15.423020 27.034050 0.811994 0.963678 0.079818 -0.021085 113614.000000 0 0 1
-16.104287 -15.462800 14.459820 26.599485 0.765080 0.996061 0.094401 -0.028674 101675.000000 0 0 1
-16.242187 -16.099100 13.205620 26.407916 0.780974 1.047125 0.113967 -0.028299 -155487.000000 0 0 1
-17.292787 -15.337000 12.377120 26.219404 0.725531 1.079171 0.102377 -0.019708 142497.000000 0 0 1
-18.630787 -15.457400 12.835720 27.400605 0.692572 1.083265 0.089003 -0.016035 -526166.000000 0 0 1
-19.385187 -14.473700 12.250020 27.117088 0.641345 1.102076 0.117631 -0.015275 -1251670.000000 0 0 1
-20.851187 -14.784500 12.569220 28.484008 0.616773 1.113780 0.075784 -0.013664 -629123.000000 0 0 1
-21.378487 -15.963600 11.933720 29.228238 0.641394 1.150212 0.072583 -0.012216 79343.500000 0 0 1
-21.691587 -15.863400 10.530520 28.862852 0.631436 1.197328 0.090434 -0.004270 -488227.000000 0 0 1
-22.217287 -17.152100 9.922220 29.769999 0.657443 1.230999 0.085963 0.003998 -15634.900000 0 0 1
-21.264487 -18.131400 9.631820 29.558383 0.706037 1.238878 0.083039 0.011898 -267965.000000 0 0 1
-21.974287 -19.285500 9.229220 30.659065 0.720323 1.265026 0.091418 -0.003936 392121.000000 0 0 1
-21.194687 -20.638700 9.307220 31.012820 0.772108 1.265990 0.093109 0.002632 -172625.000000 0 0 1
-20.076687 -20.746000 8.458920 30.083603 0.801792 1.285772 0.117614 -0.004185 -351870.000000 0 0 1
-19.593987 -22.061200 8.555820 30.721701 0.844558 1.288570 0.109103 -0.014311 -169265.000000 0 0 1
-18.336887 -22.445400 7.744120 30.000147 0.885802 1.309704 0.099254 -0.011983 -20666.100000 0 0 1
-17.213187 -21.798200 8.306720 28.990635 0.902392 1.280192 0.069826 -0.024132 -500762.000000 0 0 1
-16.047187 -22.094400 7.599820 28.344876 0.942636 1.299356 0.088412 -0.019053 65528.600000 0 0 1
-14.733587 -21.442900 8.126520 27.256501 0.968775 1.268043 0.046471 -0.026031 1030620.000000 0 0 1
-13.545887 -22.096800 7.621320 27.015628 1.020855 1.284806 0.067001 -0.012650 1117760.000000 0 0 1
-12.407487 -21.639100 8.394120 26.318390 1.050178 1.246180 0.058833 -0.018888 1133720.000000 0 0 1
-11.038687 -22.152600 7.864820 25.970092 1.108508 1.263124 0.051037 -0.017376 327100.000000 0 0 1
-10.868887 -23.551800 7.974320 27.136871 1.138430 1.272538 0.049822 -0.015210 119186.000000 0 0 1
-9.619487 -23.979500 7.431320 26.884484 1.189295 1.290733 0.079535 -0.023802 502753.000000 0 0 1
-9.488587 -25.520370 7.305920 28.190407 1.214830 1.308640 0.072068 -0.019090 -470037.000000 0 0 1
-10.421887 -26.131610 6.467620 28.867055 1.191305 1.344830 0.074490 -0.021912 -399635.000000 0 0 1
-10.403887 -27.565960 6.638920 30.202620 1.209908 1.349174 0.093000 -0.020016 68018.800000 0 0 1
-9.385787 -28.309780 5.697820 30.364482 1.250662 1.382030 0.105428 -0.028595 -252423.000000 0 0 1
-8.088987 -27.904870 6.112920 29.689750 1.288652 1.363420 0.101789 -0.027935 363976.000000 0 0 1
-7.032987 -28.723480 5.540820 30.086573 1.330669 1.385577 0.102122 -0.021071 910936.000000 0 0 1
-7.014987 -30.215860 6.058620 31.605618 1.342675 1.377908 0.118395 -0.028907 -729859.000000 0 0 1
-6.993987 -30.203280 7.416320 31.877198 1.343243 1.335992 0.110340 -0.015709 172078.000000 0 0 1
-7.010987 -31.501590 7.823320 33.207054 1.351806 1.332969 0.142235 -0.024996 -96860.400000 0 0 1
-7.194987 -31.542860 9.349720 33.676952 1.346531 1.289470 0.112671 -0.021868 -242986.000000 0 0 1
-6.168987 -31.043370 10.155620 33.239793 1.374630 1.260306 0.084460 -0.012717 366.767000 0 0 1
-6.539987 -31.372150 11.493120 34.045191 1.365275 1.226447 0.059072 -0.006813 -207843.000000 0 0 1
-5.694987 -30.612820 12.469820 33.542123 1.386866 1.189886 0.051606 -0.006100 -249221.000000 0 0 1
-6.115987 -29.302020 12.573920 32.467170 1.365028 1.173116 0.050681 -0.008158 515840.000000 0 0 1
-5.123987 -28.507060 13.262220 31.855834 1.392951 1.141402 0.048098 -0.016550 532487.000000 0 0 1
-5.617987 -27.720250 14.518520 31.792475 1.370837 1.096553 0.046560 -0.021916 -85805.900000 0 0 1
-6.115987 -28.473420 15.626320 33.050307 1.359215 1.078326 0.051411 -0.018667 976509.000000 0 0 1
-5.110987 -29.154800 16.432420 33.854822 1.397255 1.064000 0.045182 -0.017232 646916.000000 0 0 1
-5.733987 -30.455070 16.796720 35.249393 1.384698 1.074115 0.037495 -0.016107 26081.500000 0 0 1
-5.756987 -31.361170 15.695320 35.538837 1.389247 1.113372 0.034607 -0.009088 -165949.000000 0 0 1
-6.452987 -32.456080 16.153320 36.823470 1.374534 1.116679 0.038472 -0.014849 -387087.000000 0 0 1
-6.028987 -33.827980 15.552320 37.716781 1.394423 1.145770 0.027166 -0.007520 -169601.000000 0 0 1
-6.506987 -33.983430 14.251320 37.420777 1.381611 1.180092 0.035227 -0.014808 139306.000000 0 0 1
-6.146987 32.811660 13.778520 36.114237 -1.385601 1.179350 0.023298 -0.013905 -339899.000000 0 0 1
-4.891987 32.879796 12.902220 35.657816 -1.423096 1.200562 0.061766 -0.022454 -288787.000000 0 0 1
-5.168987 33.360924 11.583420 35.690970 -1.417077 1.240263 0.059592 -0.024934 282333.000000 0 0 1
-3.994987 33.581112 10.829520 35.509569 -1.452388 1.260884 0.082184 -0.032525 -377040.000000 0 0 1
-4.382987 33.944121 9.368120 35.484865 -1.442383 1.303626 0.089022 -0.032526 -96159.600000 0 0 1
-4.813987 32.934592 8.423520 34.333912 -1.425656 1.322925 0.091872 -0.049515 993514.000000 0 0 1
-5.835987 31.966814 8.771820 33.658294 -1.390221 1.307138 0.111656 -0.044824 1022610.000000 0 0 1
-7.295987 32.457473 8.957020 34.452100 -1.349686 1.307790 0.117994 -0.036255 148923.000000 0 0 1
-7.943987 33.121948 7.912020 34.968134 -1.335402 1.342556 0.133923 -0.035558 -31322.000000 0 0 1
-9.329887 33.255335 8.231320 35.506601 -1.297275 1.336843 0.106869 -0.035214 154017.000000 0 0 1
-10.102087 33.645732 6.989120 35.818086 -1.279111 1.374408 0.122107 -0.035748 -427437.000000 0 0 1
-10.047787 -33.121300 6.562920 35.228546 1.276257 1.383406 0.144743 -0.036233 -126280.000000 0 0 1
-10.746987 -32.995400 5.357620 35.112651 1.255921 1.417614 0.135579 -0.033396 -18086.400000 0 0 1
-11.275987 -31.606380 4.991720 33.926810 1.228109 1.423128 0.120279 -0.036898 58146.100000 0 0 1
-12.246887 -31.148580 5.896120 33.985063 1.196186 1.396422 0.126559 -0.037097 -595501.000000 0 0 1
-12.868887 -30.009810 5.426020 33.100433 1.165692 1.406127 0.119062 -0.034453 -220662.000000 0 0 1
-13.941287 -29.453850 6.412520 33.211582 1.128714 1.376495 0.098365 -0.027044 319626.000000 0 0 1
-15.044287 -30.365010 6.492420 34.503854 1.110797 1.381503 0.113338 -0.021509 575780.000000 0 0 1
-15.843287 -29.943050 7.633520 34.725590 1.084130 1.349162 0.106404 -0.029618 282675.000000 0 0 1
33.808660 -12.511000 -12.786080 38.249634 -0.354427 1.911637 0.067524 -0.030461 193275.000000 0 0 1
32.778570 -12.769400 -11.833980 37.115163 -0.371479 1.895307 0.093218 -0.033788 233714.000000 0 0 1
32.822030 -14.108200 -11.341280 37.482684 -0.405962 1.878188 0.095208 -0.035075 -422908.000000 0 0 1
33.827540 -14.504700 -10.261880 38.209881 -0.405071 1.842701 0.067971 -0.023318 -654819.000000 0 0 1
35.082070 -14.699600 -10.823080 39.547047 -0.396783 1.848009 0.080896 -0.032899 -1326960.000000 0 0 1
36.008690 -15.151900 -9.911680 40.304432 -0.398295 1.819265 0.058095 -0.028763 245637.000000 0 0 1
-36.614648 -15.200800 -10.374280 40.979537 0.393503 1.826739 0.029873 -0.027196 615687.000000 0 0 1
-35.998719 -13.935500 -10.552380 40.018229 0.369346 1.837641 0.035083 -0.019622 366104.000000 0 0 1
-34.593789 -14.040000 -10.773380 38.857658 0.385542 1.851730 0.056189 -0.019579 245228.000000 0 0 1
-33.918088 -12.690900 -11.024180 37.855359 0.358037 1.866297 0.069620 -0.035066 -383865.000000 0 0 1
-34.136230 -11.833700 -9.884980 37.457062 0.333697 1.837861 0.091536 -0.034212 111568.000000 0 0 1
-33.708288 -10.573900 -10.183380 36.766252 0.303967 1.851442 0.103667 -0.036256 -74405.300000 0 0 1
-34.171817 -9.503400 -9.117280 36.621749 0.271252 1.822401 0.111861 -0.044688 352284.000000 0 0 1
-33.385238 -9.635600 -7.917280 35.638494 0.280983 1.794821 0.127166 -0.037526 647468.000000 0 0 1
-33.761058 -8.634400 -6.968380 35.537589 0.250383 1.768160 0.156793 -0.043611 20496.700000 0 0 1
-32.831048 -8.731100 -5.740080 34.453713 0.259924 1.738179 0.143309 -0.028148 -557866.000000 0 0 1
-31.538018 -8.197700 -5.882880 33.112795 0.254303 1.749406 0.142876 -0.040753 22117.600000 0 0 1
-30.917488 -7.984800 -4.618180 32.264155 0.252739 1.714426 0.150941 -0.037408 1210.440000 0 0 1
-30.203818 -9.292700 -4.061780 31.860995 0.298475 1.698629 0.154734 -0.035420 -391053.000000 0 0 1
-31.046018 -10.383700 -3.682680 32.942960 0.322766 1.682820 0.155050 -0.037364 285276.000000 0 0 1
-31.772788 -10.179700 -2.486080 33.456195 0.310057 1.645173 0.131212 -0.039560 -42684.100000 0 0 1
-32.468198 -11.511000 -2.065680 34.510202 0.340706 1.630689 0.119901 -0.035231 884611.000000 0 0 1
-33.750168 -11.834000 -2.653380 35.863043 0.337241 1.644850 0.121231 -0.042775 1065050.000000 0 0 1
-34.058798 -13.179500 -2.498280 36.605223 0.369217 1.639099 0.112947 -0.043633 686815.000000 0 0 1
-35.623748 -13.330600 -2.374680 38.110306 0.358074 1.633147 0.089631 -0.033494 505751.000000 0 0 1
-36.073091 -12.807700 -1.184380 38.297622 0.341165 1.601727 0.109405 -0.033124 120598.000000 0 0 1
36.635310 -13.039200 -1.140580 38.903311 -0.341938 1.600119 0.156705 -0.036421 -55648.000000 0 0 1
35.989440 -12.026700 -0.247280 37.946574 -0.322506 1.577313 0.149457 -0.040471 -486253.000000 0 0 1
36.279850 -12.219400 1.099920 38.298186 -0.324876 1.542072 0.159715 -0.040635 182671.000000 0 0 1
35.735450 -11.214600 1.962020 37.505189 -0.304090 1.518459 0.159422 -0.035665 -49741.800000 0 0 1
36.090200 -11.449600 3.462620 38.020858 -0.307206 1.479598 0.155061 -0.041659 445975.000000 0 0 1
35.168500 -12.236600 4.250020 37.478266 -0.334840 1.457152 0.145125 -0.050128 141601.000000 0 0 1
35.593770 -12.347200 5.575620 38.084870 -0.333903 1.423868 0.135993 -0.043630 -25354.600000 0 0 1
34.449150 -12.637000 6.560620 37.275722 -0.351589 1.393872 0.129702 -0.040827 298434.000000 0 0 1
33.625750 -11.521900 6.906320 36.209702 -0.330113 1.378889 0.124230 -0.035547 52633.800000 0 0 1
33.696790 -11.258700 8.279320 36.479845 -0.322456 1.341845 0.084249 -0.020795 27531.300000 0 0 1
32.836310 -10.040200 8.708420 35.424080 -0.296738 1.322417 0.093320 -0.032490 1366720.000000 0 0 1
31.395730 -10.176100 8.572920 34.098971 -0.313439 1.316657 0.119127 -0.034860 1676930.000000 0 0 1
30.715070 -9.065600 9.204120 33.321411 -0.287003 1.290935 0.127288 -0.019228 934977.000000 0 0 1
29.164360 -9.061100 8.971220 31.829958 -0.301236 1.285076 0.141951 -0.028548 677449.000000 0 0 1
28.752050 -8.700600 7.659520 31.000791 -0.293848 1.321136 0.154476 -0.030334 785796.000000 0 0 1
27.628850 -9.446200 7.143320 30.060124 -0.329437 1.330867 0.171492 -0.040962 899712.000000 0 0 1
26.751750 -8.774600 6.023620 28.791209 -0.316944 1.360022 0.176605 -0.045470 441715.000000 0 0 1
25.851550 -7.828000 6.601420 27.805736 -0.294029 1.331095 0.179866 -0.040834 966302.000000 0 0 1
24.760950 -7.356000 5.796120 26.472824 -0.288776 1.350062 0.176896 -0.040584 538553.000000 0 0 1
25.149650 -6.201100 4.824320 26.348294 -0.241746 1.386660 0.170321 -0.042380 -278991.000000 0 0 1
25.770150 -6.611900 3.602420 26.847631 -0.251154 1.436210 0.156009 -0.042474 501847.000000 0 0 1
26.284750 -5.435400 2.969420 27.004613 -0.203915 1.460614 0.166562 -0.039937 267234.000000 0 0 1
26.945850 -5.573500 1.543820 27.559501 -0.203964 1.514749 0.169174 -0.048078 727099.000000 0 0 1
26.014650 -5.811200 0.470420 26.659958 -0.219774 1.553150 0.169398 -0.056139 503972.000000 0 0 1
26.683550 -5.549400 -0.716580 27.263917 -0.205048 1.597082 0.166034 -0.055867 54831.500000 0 0 1
25.729750 -5.809200 -1.933980 26.448197 -0.222054 1.643985 0.158392 -0.048721 914655.000000 0 0 1
24.693150 -4.810500 -2.027480 25.238923 -0.192401 1.651214 0.166161 -0.050624 258415.000000 0 0 1
24.163750 -4.764300 -3.319480 24.851646 -0.194670 1.704769 0.157312 -0.045739 -94033.000000 0 1 0
22.852750 -3.933300 -3.263680 23.417315 -0.170445 1.710622 0.127307 -0.040260 -24832.300000 0 1 0
23.064450 -2.510100 -3.048880 23.400110 -0.108403 1.701461 0.122579 -0.040387 300661.000000 0 1 0
23.663950 -1.747600 -4.093980 24.078981 -0.073717 1.741649 0.131170 -0.034126 -486912.000000 0 1 0
22.659050 -1.129000 -5.079280 23.248791 -0.049784 1.791048 0.124031 -0.028937 -306347.000000 0 1 0
21.869950 -0.111000 -4.507680 22.329940 -0.005075 1.774060 0.076741 -0.018661 294890.000000 0 1 0
21.277250 0.730800 -5.450780 21.976498 0.034333 1.821440 0.100793 -0.013965 -575927.000000 0 1 0
21.279850 2.244900 -5.070080 21.990391 0.105105 1.803448 0.110211 -0.001974 -53431.100000 0 1 0
22.499750 2.990300 -5.053780 23.253416 0.132129 1.789880 0.138816 -0.007968 351824.000000 0 1 0
23.099950 2.829600 -3.774580 23.576721 0.121887 1.731586 0.145679 -0.000124 -123089.000000 0 1 0
24.360150 3.712800 -3.611280 24.904681 0.151249 1.716313 0.160760 -0.011849 -21921.000000 0 1 0
24.106650 5.091300 -3.634480 24.905047 0.208140 1.717253 0.151185 -0.006576 556778.000000 0 1 0
25.137150 5.850800 -3.010380 25.984044 0.228683 1.686912 0.150449 -0.013533 116381.000000 0 0 1
24.744250 7.300700 -3.125280 25.987411 0.286906 1.691349 0.134863 -0.021005 -258604.000000 0 0 1
23.670450 7.618600 -2.276080 24.970259 0.311390 1.662075 0.144284 -0.025027 235055.000000 0 1 0
23.140750 8.863100 -2.723080 24.929180 0.365773 1.680247 0.138529 -0.021253 -1396750.000000 0 1 0
21.910750 9.220200 -1.969080 23.853099 0.398314 1.653441 0.104149 -0.019194 -1247860.000000 0 1 0
22.196350 9.420200 -0.599180 24.120057 0.401365 1.595640 0.082416 -0.016894 939071.000000 0 1 0
21.036950 9.901300 0.067120 23.250667 0.439903 1.567910 0.054889 -0.012842 17586.800000 0 1 0
21.338850 10.019900 1.605920 23.628878 0.439002 1.502780 0.064107 -0.024642 -423328.000000 0 1 0
22.387650 10.900800 1.917520 24.974211 0.453122 1.493941 0.094430 -0.032919 215388.000000 0 1 0
22.155350 12.307600 1.840020 25.411065 0.507066 1.498323 0.100158 -0.025460 -393821.000000 0 0 1
21.062650 12.855700 2.761320 24.830005 0.547999 1.459357 0.087683 -0.016162 132602.000000 0 1 0
19.675750 12.601100 2.503320 23.498712 0.569624 1.464064 0.111083 -0.018395 1637160.000000 0 1 0
18.796550 13.476400 3.283420 23.360319 0.622019 1.429774 0.102630 -0.017414 679302.000000 0 1 0
18.794950 13.288900 4.818320 23.517253 0.615439 1.364451 0.094817 -0.017753 -720904.000000 0 1 0
18.441050 11.998900 5.122720 22.589559 0.576841 1.342032 0.085289 -0.010642 283941.000000 0 1 0
18.524950 11.911400 6.544220 22.975684 0.571433 1.281965 0.082926 -0.021414 -68467.300000 0 1 0
18.494950 10.481600 7.186620 22.440468 0.515595 1.244800 0.056802 -0.027382 -997873.000000 0 1 0
19.410550 9.634500 6.662720 22.671235 0.460726 1.272508 0.039904 -0.032005 -389581.000000 0 1 0
19.358550 8.361900 7.287420 22.311013 0.407741 1.238062 0.039929 -0.028218 -514284.000000 0 1 0
20.360850 7.442400 6.620420 22.666793 0.350438 1.274400 0.056138 -0.021901 -341969.000000 0 1 0
19.921750 7.203800 5.288520 21.834361 0.346976 1.326152 0.041272 -0.023042 455802.000000 0 1 0
20.863550 6.507600 4.526320 22.318695 0.302349 1.366576 0.055446 -0.025300 -332802.000000 0 1 0
20.611150 6.787300 3.019020 21.908935 0.318118 1.432558 0.066228 -0.011666 570970.000000 0 1 0
21.541050 5.973100 2.249120 22.466715 0.270493 1.470519 0.066986 -0.013526 1019520.000000 0 1 0
21.279150 5.995300 0.869920 22.124706 0.274626 1.531467 0.068397 -0.002794 -614259.000000 0 1 0
22.228350 5.154000 0.072120 22.818161 0.227840 1.567636 0.105510 -0.006813 -408315.000000 0 1 0
21.949050 3.768000 0.215520 22.271171 0.170013 1.561119 0.082830 -0.005285 860191.000000 0 1 0
23.104750 3.004800 -0.141480 23.299749 0.129325 1.576869 0.105260 -0.013735 470809.000000 0 1 0
22.941850 1.445100 -0.026380 22.987333 0.062907 1.571944 0.124946 -0.015546 -130699.000000 0 1 0
21.874750 0.930000 -0.789680 21.908747 0.042489 1.606848 0.072180 -0.014273 448372.000000 0 1 0
22.114050 -0.379100 -1.179180 22.148711 -0.017141 1.624061 0.100802 -0.025293 -1407870.000000 0 1 0
22.051450 -1.574600 -0.190780 22.108420 -0.071285 1.579426 0.122764 -0.019603 589412.000000 0 1 0
23.187250 -1.751700 0.661820 23.262739 -0.075403 1.542343 0.134408 -0.013809 973130.000000 0 1 0
24.451650 -2.041900 0.079220 24.536887 -0.083314 1.567568 0.151306 -0.033177 -231523.000000 0 1 0
25.552150 -2.142200 1.137920 25.667027 -0.083641 1.526448 0.163549 -0.024653 -486127.000000 0 0 1
25.839050 -0.843300 1.712320 25.909452 -0.032625 1.504660 0.153676 -0.016691 1147210.000000 0 0 1
26.960850 -0.749900 2.628720 27.099077 -0.027807 1.473640 0.158470 -0.013517 673673.000000 0 0 1
26.829450 0.503100 3.586220 27.072744 0.018750 1.437940 0.157574 -0.004497 76290.000000 0 0 1
27.062050 1.746300 2.989820 27.282653 0.064440 1.460989 0.162115 -0.005395 328718.000000 0 0 1
28.394050 2.044100 2.594420 28.585511 0.071866 1.479911 0.147928 -0.014148 9997.060000 0 0 1
28.409750 3.262000 1.619420 28.642225 0.114319 1.514227 0.163920 -0.029085 59783.200000 0 0 1
27.619450 3.094500 0.432520 27.795630 0.111575 1.555235 0.168675 -0.019728 397663.000000 0 0 1
27.801950 4.170900 -0.523680 28.117949 0.148911 1.589422 0.162642 -0.022986 550819.000000 0 0 1
29.125970 4.130900 -1.377180 29.449670 0.140889 1.617577 0.165618 -0.027419 517793.000000 0 0 1
30.276680 4.429300 -0.610780 30.605050 0.145264 1.590754 0.148673 -0.028032 -209536.000000 0 0 1
31.446890 4.204100 -1.388080 31.757017 0.132901 1.614520 0.120823 -0.025961 327325.000000 0 0 1
32.706470 4.325400 -0.482980 32.994780 0.131486 1.585435 0.091823 -0.025342 -9530.000000 0 0 1
32.813500 3.319900 0.457820 32.984195 0.100832 1.556916 0.107549 -0.038393 68672.500000 0 0 1
32.333960 3.690600 1.734220 32.590075 0.113648 1.517558 0.098382 -0.018619 -181294.000000 0 0 1
32.551230 2.711100 2.868920 32.789683 0.083095 1.483190 0.117273 -0.009607 63538.700000 0 0 1
31.645330 1.600700 2.794020 31.808736 0.050539 1.482845 0.116526 -0.018841 447612.000000 0 0 1
31.929490 0.616700 3.817020 32.162747 0.019312 1.451838 0.110518 -0.019804 -231872.000000 0 0 1
33.130120 -0.341300 3.711520 33.339117 -0.010301 1.459239 0.127415 -0.016496 380876.000000 0 0 1
34.343040 0.370600 3.983620 34.575294 0.010791 1.455324 0.124401 -0.020950 13620.000000 0 0 1
35.482070 -0.445900 3.940520 35.702995 -0.012566 1.460202 0.116324 -0.018771 -1051520.000000 0 0 1
36.712820 0.332700 4.372720 36.973809 0.009062 1.452254 0.137167 -0.034447 -525768.000000 0 0 1
-36.941888 1.321800 3.482320 37.129191 -0.035765 1.476869 0.130550 -0.033884 252256.000000 0 0 1
-36.137788 0.844800 2.389020 36.226521 -0.023373 1.504802 0.167636 -0.034413 -65900.500000 0 0 1
-35.430555 1.956700 1.631420 35.522028 -0.055170 1.524853 0.182375 -0.034674 379783.000000 0 0 1
-34.487037 2.766800 2.371920 34.679056 -0.080056 1.502347 0.197156 -0.057893 854610.000000 0 0 1
-33.675778 3.548100 1.489520 33.894922 -0.104973 1.526837 0.216663 -0.028659 1121690.000000 0 0 1
-32.487998 4.300200 2.235320 32.847502 -0.131598 1.502692 0.229158 -0.038271 891529.000000 0 0 1
-31.507708 3.511000 2.905520 31.835591 -0.110975 1.479403 0.209573 -0.048756 652842.000000 0 0 1
-30.611918 4.321200 3.686220 31.134395 -0.140234 1.452121 0.207063 -0.047386 49366.500000 0 0 1
-31.048438 4.535900 5.194720 31.805110 -0.145065 1.406732 0.213568 -0.036219 -123516.000000 0 0 1
-32.321868 5.156500 5.388520 33.171205 -0.158203 1.407628 0.202065 -0.018641 928724.000000 0 0 1
-33.405298 4.227900 5.556320 34.127141 -0.125894 1.407256 0.193770 -0.018058 191169.000000 0 0 1
-33.418488 3.387000 6.874120 34.285867 -0.101006 1.368934 0.170647 -0.019214 -1005100.000000 0 0 1
-33.891108 4.060200 8.035520 35.066537 -0.119233 1.339591 0.165744 -0.031850 327696.000000 0 0 1
-33.966078 3.247000 9.201820 35.339935 -0.095306 1.307380 0.142767 -0.023301 -590170.000000 0 0 1
-35.064551 2.198300 9.342420 36.354312 -0.062611 1.310898 0.124074 -0.014979 -904167.000000 0 0 1
-35.079205 1.130600 8.398720 36.088328 -0.032219 1.335916 0.121903 -0.025732 531277.000000 0 0 1
-36.205388 0.239200 8.380620 37.163452 -0.006607 1.343333 0.113473 -0.021841 395199.000000 0 0 1
-36.232618 -0.811600 9.539020 37.476049 0.022396 1.313428 0.107201 -0.015033 168219.000000 0 0 1
-35.107983 -1.676400 9.468920 36.401116 0.047714 1.307642 0.110302 -0.031503 317423.000000 0 0 1
-35.211003 -2.517400 10.585820 36.853923 0.071373 1.279455 0.100606 -0.021561 -576265.000000 0 0 1
-33.954278 -3.307700 10.903720 35.815150 0.097110 1.261441 0.075816 -0.014522 -651321.000000 0 0 1
-33.647308 -4.159900 9.847020 35.304531 0.123008 1.288131 0.082636 -0.017966 737149.000000 0 0 1
-32.411898 -4.859000 10.105020 34.296537 0.148806 1.271721 0.085830 -0.014171 794719.000000 0 0 1
-32.196268 -5.931900 9.057020 33.967878 0.182199 1.300897 0.075232 -0.017422 591463.000000 0 0 1
-33.110158 -7.038600 9.243820 35.089495 0.209463 1.304215 0.072673 -0.016835 465217.000000 0 0 1
-33.040478 -7.899800 8.139820 34.933318 0.234689 1.335624 0.081821 -0.019108 -74138.700000 0 0 1
-34.060898 -9.020000 8.349720 36.210814 0.258877 1.338116 0.084807 -0.021768 356081.000000 0 0 1
-35.403192 -8.561900 8.257720 37.348120 0.237284 1.347853 0.089129 -0.029606 -233235.000000 0 0 1
-36.316878 -9.597900 8.275220 38.464459 0.258375 1.353962 0.100961 -0.030354 -315272.000000 0 0 1
7.960882 -23.601700 10.512520 27.035698 -1.245479 1.171426 0.109427 -0.028081 212682.000000 0 0 1
7.265982 -24.324300 9.485420 27.100540 -1.280521 1.213216 0.105117 -0.031099 -572524.000000 0 0 1
5.927082 -24.538300 9.821220 27.087171 -1.333792 1.199763 0.100616 -0.031395 -399300.000000 0 0 1
5.262782 -25.479630 8.811020 27.468937 -1.367112 1.244261 0.092182 -0.023776 -761160.000000 0 0 1
5.090582 -25.090390 7.452120 26.664129 -1.370624 1.287543 0.088166 -0.025842 -396703.000000 0 0 1
4.711682 -26.199710 6.693020 27.448520 -1.392861 1.324474 0.079063 -0.023101 -870931.000000 0 0 1
4.070282 -25.749530 5.381420 26.618888 -1.414021 1.367228 0.059800 -0.021333 774552.000000 0 0 1
2.646882 -25.608990 5.290320 26.283338 -1.467805 1.368131 0.048564 -0.022025 341909.000000 0 0 1
1.956982 -26.809370 5.171920 27.373726 -1.497929 1.380716 0.039641 -0.019542 -525755.000000 0 0 1
0.430382 -26.690840 4.991320 27.156941 -1.554673 1.385950 0.061905 -0.024358 -279077.000000 0 0 1
-0.156618 -26.234550 6.226120 26.963693 1.564826 1.337786 0.060874 -0.022606 1814070.000000 0 0 1
-1.625518 -26.368000 6.317620 27.162954 1.509227 1.336064 0.055170 -0.026418 2361350.000000 0 0 1
-2.106518 -27.789090 6.480320 28.612331 1.495137 1.342327 0.066387 -0.020081 -899257.000000 0 0 1
-1.881018 -28.353380 7.731220 29.448670 1.504551 1.305151 0.068245 -0.021034 142285.000000 0 0 1
-2.311018 -29.732510 7.776620 30.819455 1.493225 1.315711 0.087100 -0.017061 -76450.400000 0 0 1
-2.294318 -30.395710 9.166920 31.830732 1.495458 1.278670 0.081680 -0.014504 -273447.000000 0 0 1
-1.042018 -30.725250 9.689720 32.233794 1.536895 1.265467 0.084612 -0.019815 -553193.000000 0 0 1
-0.981318 -30.982780 11.091420 32.922868 1.539134 1.227183 0.080342 -0.017841 -877133.000000 0 0 1
0.470082 -31.121890 11.457320 33.167201 -1.555693 1.218087 0.078427 -0.015629 -986310.000000 0 0 1
1.037982 -32.309320 10.929020 34.123497 -1.538681 1.244773 0.081321 -0.020075 152293.000000 0 0 1
2.444882 -32.391130 11.102720 34.328314 -1.495459 1.241447 0.092852 -0.013131 576728.000000 0 0 1
2.973082 -33.134160 12.353920 35.487056 -1.481307 1.215226 0.098990 -0.016589 -48036.900000 0 0 1
2.593182 -32.390370 13.527520 35.197364 -1.490906 1.176311 0.083704 -0.019576 464451.000000 0 0 1
3.359482 -32.798700 14.661420 36.083210 -1.468725 1.152371 0.078671 -0.016926 -103736.000000 0 0 1
3.072382 -31.846740 15.789920 35.678789 -1.474620 1.112348 0.074228 -0.019108 218478.000000 0 0 1
3.627682 -30.529940 15.633020 34.490993 -1.452527 1.100389 0.073652 -0.019849 1581340.000000 0 0 1
5.064182 -30.402160 15.821720 34.644828 -1.405739 1.096533 0.072892 -0.014210 1405840.000000 0 0 1
5.749882 -29.114310 15.178520 33.333041 -1.375812 1.098020 0.086058 -0.017260 142584.000000 0 0 1
5.897982 -29.095950 13.752420 32.718337 -1.370798 1.136990 0.087504 -0.013814 235296.000000 0 0 1
4.665682 -29.200310 13.043820 32.319776 -1.412354 1.155363 0.077942 -0.011084 -279377.000000 0 0 1
4.833182 -29.261850 11.478320 31.802002 -1.407104 1.201531 0.077466 -0.017241 301304.000000 0 0 1
5.413082 -30.439010 10.886620 32.777329 -1.394802 1.232226 0.086959 -0.016634 161033.000000 0 0 1
6.742082 -30.717630 11.264520 33.405357 -1.354737 1.226848 0.085722 -0.014525 -178511.000000 0 0 1
7.319582 -32.144700 10.901020 34.723051 -1.346907 1.251454 0.090148 -0.009616 -33275.900000 0 0 1
6.662082 -33.101830 11.656220 35.720890 -1.372189 1.238395 0.075950 -0.020272 -188598.000000 0 0 1
7.079182 33.707216 11.318820 36.254750 1.363785 1.253286 0.091077 -0.020393 -97619.700000 0 0 1
6.555082 32.469160 12.129220 35.275111 1.371588 1.219786 0.091788 -0.017636 -635166.000000 0 0 1
5.179282 32.297404 12.113220 34.880903 1.411788 1.216134 0.101688 -0.017514 -736781.000000 0 0 1
4.828982 31.055034 12.735120 33.910433 1.416534 1.185804 0.113565 -0.015237 -13068.900000 0 0 1
3.683682 31.191144 13.745320 34.283973 1.453241 1.158269 0.103148 -0.024255 -167741.000000 0 0 1
4.043082 31.861754 14.937620 35.421044 1.444576 1.135459 0.110484 -0.023279 7977.590000 0 0 1
3.059982 31.629004 15.910020 35.537109 1.474350 1.106603 0.102501 -0.018210 -152445.000000 0 0 1
3.575082 31.761024 17.368620 36.375992 1.458706 1.073018 0.092297 -0.016419 -185543.000000 0 0 1
3.856182 33.052328 17.738720 37.709265 1.454652 1.081044 0.089320 -0.011614 188433.000000 0 0 1
4.462482 33.290824 18.992120 38.586181 1.437545 1.056181 0.073489 -0.010954 -390589.000000 0 0 1
4.942882 -33.360860 19.136620 38.776143 -1.423702 1.054669 0.062391 -0.013483 -569694.000000 0 0 1
3.909682 -32.455690 19.357520 37.991723 -1.450912 1.036170 0.058983 -0.019488 -309887.000000 0 0 1
4.166482 -31.708130 20.558920 38.018867 -1.440144 0.999461 0.057654 -0.022757 368237.000000 0 0 1
2.869682 -30.968800 20.977420 37.514714 -1.478397 0.977402 0.067557 -0.025815 435427.000000 0 0 1
1.807482 -31.849090 21.278620 38.345941 -1.514106 0.982539 0.070272 -0.021633 6403.330000 0 0 1
0.797282 -31.246860 22.050220 38.251982 -1.545286 0.956423 0.084813 -0.022588 439064.000000 0 0 1
-0.335618 -32.095150 22.720220 39.324543 1.560340 0.954812 0.079326 -0.018414 732348.000000 0 0 1
-1.338218 -32.507660 21.748220 39.134689 1.529653 0.981559 0.073898 -0.016318 407100.000000 0 0 1
-2.149918 -33.527610 22.229920 40.285135 1.506760 0.986258 0.072896 -0.014581 267337.000000 0 0 1
-3.433918 -33.243500 23.076720 40.613509 1.467865 0.966476 0.092905 -0.013618 180708.000000 0 0 1
-4.504818 -32.812620 22.294520 39.925018 1.434360 0.978329 0.083724 -0.021649 -1379100.000000 0 0 1
-5.595618 -32.434980 23.034520 40.173722 1.399960 0.960180 0.077369 -0.019096 -102648.000000 0 0 1
-6.841618 -31.948030 22.206720 39.504718 1.359834 0.973839 0.065806 -0.018435 525538.000000 0 0 1
-7.543518 -32.979850 21.554920 40.114707 1.345933 1.003526 0.049078 -0.010358 821590.000000 0 0 1
-8.839618 -32.455000 21.172720 39.746068 1.304881 1.009009 0.058048 -0.015747 998902.000000 0 0 1
-9.797618 -33.432730 20.470320 40.407608 1.285723 1.039565 0.071580 -0.025748 36316.400000 0 0 1
-10.470118 33.892470 21.473620 41.466122 -1.271175 1.026450 0.094198 -0.036480 -483405.000000 0 0 1
-11.765118 33.497293 21.064620 41.282016 -1.233030 1.035308 0.085538 -0.035610 341478.000000 0 0 1
-12.538618 32.882859 22.297220 41.661318 -1.206504 1.006049 0.092437 -0.038468 -174478.000000 0 0 1
-12.839418 33.816979 23.362820 43.061120 -1.207934 0.997326 0.096698 -0.034966 669513.000000 0 0 1
-11.654518 -33.972250 24.130220 43.269031 1.240318 0.979210 0.090050 -0.038471 605281.000000 0 0 1
-11.664918 -32.572630 24.822920 42.581967 1.226906 0.948448 0.081169 -0.026393 -60548.000000 0 0 1
-12.434118 -32.394420 26.013820 43.367321 1.204302 0.927485 0.094921 -0.025112 289344.000000 0 0 1
-12.445518 -31.011070 26.207120 42.466346 1.189148 0.905710 0.100049 -0.017945 473508.000000 0 0 1
-13.394218 -30.587470 27.395320 43.191457 1.158051 0.883724 0.107802 -0.016444 716168.000000 0 0 1
-12.700618 -30.581790 28.605720 43.758871 1.177170 0.858316 0.071295 -0.010952 440287.000000 0 0 1
-13.697818 -30.317490 29.561320 44.504517 1.146436 0.844331 0.098274 -0.017654 424735.000000 0 0 1
-13.080618 -29.870570 30.955520 44.962181 1.158042 0.811406 0.076977 -0.016619 28169.000000 0 0 1
-13.968818 -29.201510 31.854520 45.415487 1.124611 0.793434 0.090961 -0.021347 277249.000000 0 0 1
-13.447418 -28.679880 33.104020 45.817515 1.132353 0.763357 0.072933 -0.016746 -76920.900000 0 0 1
-12.753618 -29.666170 -33.819728 46.760137 1.164779 2.379307 0.078018 -0.010519 -247096.000000 0 0 1
-11.405418 -29.938580 33.890820 46.636786 1.206810 0.757295 0.060660 -0.005326 -546903.000000 0 0 1
-10.972018 -31.071740 -33.250028 46.812419 1.231346 2.360695 0.070065 -0.003800 508235.000000 0 0 1
-9.451218 -31.354680 -33.475928 46.830324 1.278029 2.367184 0.072130 -0.009564 699996.000000 0 0 1
-8.708718 -30.391110 -32.691528 45.477438 1.291720 2.372945 0.075303 -0.010397 -340773.000000 0 0 1
-7.368218 -30.800690 -32.598128 45.448995 1.335987 2.370639 0.081018 -0.022209 -367250.000000 0 0 1
-6.585318 -29.946390 -31.604928 44.034352 1.354338 2.371338 0.080100 -0.022572 -339611.000000 0 0 1
-6.998118 -30.126460 -30.269828 43.276319 1.342553 2.345431 0.088502 -0.027030 -285451.000000 0 0 1
-6.257318 -29.312420 -29.433328 42.008247 1.360483 2.347113 0.078045 -0.025388 -98840.300000 0 0 1
-6.595218 -29.532880 -27.935028 41.183173 1.351084 2.316259 0.087950 -0.032427 15890.900000 0 0 1
-6.330718 -30.883790 -27.508928 41.840502 1.368612 2.288254 0.079614 -0.030602 72737.700000 0 0 1
-7.117018 -31.185050 -26.370928 41.455822 1.346420 2.260257 0.095303 -0.031800 6761.390000 0 0 1
-6.743218 -32.541480 -25.750328 42.041626 1.366469 2.230011 0.093177 -0.035247 367313.000000 0 0 1
-5.540818 -32.519920 -24.993428 41.387405 1.402035 2.219168 0.058437 -0.036307 187497.000000 0 0 1
-5.357118 -33.712250 -24.256728 41.876048 1.413207 2.188605 0.073399 -0.037217 -195667.000000 0 0 1
-4.368618 -33.645980 -23.088528 41.039212 1.441678 2.168320 0.079308 -0.050898 -382709.000000 0 0 1
-4.797918 -32.954230 -21.924028 39.870595 1.426219 2.153016 0.088311 -0.051197 116438.000000 0 0 1
-5.028218 -31.568550 -22.099128 38.861650 1.412844 2.175674 0.062823 -0.039404 -383789.000000 0 0 1
-5.433718 -30.887630 -20.830028 37.649184 1.396659 2.157077 0.084004 -0.046700 -1221920.000000 0 0 1
-6.770318 -31.142380 -20.517928 37.903436 1.356728 2.142804 0.084490 -0.052495 -238174.000000 0 0 1
-7.366818 -29.972570 -19.918728 36.733918 1.329788 2.143901 0.085144 -0.049689 -64404.000000 0 0 1
-7.815018 -28.855090 -20.882628 36.466079 1.306305 2.180542 0.115895 -0.053585 -38534.700000 0 0 1
-6.718118 -28.245280 -21.616328 36.196610 1.337286 2.210792 0.107025 -0.038238 435739.000000 0 0 1
-7.006618 -27.149560 -22.496528 35.948367 1.318232 2.246955 0.141059 -0.051964 -1081340.000000 0 0 1
-6.125518 -27.126380 -23.762328 36.578829 1.348707 2.277880 0.121891 -0.046295 1093550.000000 0 0 1
-4.724118 -26.855900 -23.801128 36.194618 1.396672 2.288408 0.123564 -0.034113 1241440.000000 0 0 1
-3.918718 -27.386900 -22.706728 35.790979 1.428674 2.258062 0.085839 -0.028741 89124.900000 0 0 1
-2.372218 -27.139160 -22.882528 35.577683 1.483609 2.269428 0.075226 -0.028593 922264.000000 0 0 1
-1.858518 -25.821390 -23.112728 34.704416 1.498944 2.299614 0.077923 -0.025988 260784.000000 0 0 1
-2.055418 -24.934700 -22.013128 33.324793 1.488550 2.292365 0.083863 -0.034917 -553542.000000 0 0 1
-1.598518 -23.417600 -22.271028 32.356421 1.502641 2.329944 0.085913 -0.032732 -165349.000000 0 0 1
-2.266218 -22.635500 -23.208828 32.498482 1.471011 2.366207 0.113437 -0.037751 342124.000000 0 0 1
-3.596118 -22.269700 -22.821028 32.088486 1.410698 2.361987 0.111106 -0.031520 830437.000000 0 0 1
-4.701318 -22.467900 -23.925828 33.156510 1.364526 2.376911 0.099250 -0.031720 347109.000000 0 0 1
-4.751318 -21.393200 -24.845428 33.129131 1.352249 2.418794 0.104349 -0.032206 16333.500000 0 0 1
-5.200718 -21.805000 -26.091728 34.398892 1.336660 2.431812 0.137676 -0.038394 338651.000000 0 0 1
-5.872418 -20.748000 -27.060128 34.600800 1.294975 2.468771 0.132731 -0.037019 158158.000000 0 0 1
-6.239918 -21.121000 -28.370128 35.915142 1.283531 2.481477 0.140444 -0.027273 -345271.000000 0 0 1
-5.211018 -21.451300 -29.266828 36.658699 1.332489 2.495363 0.119065 -0.026933 -356570.000000 0 0 1
-5.632718 -21.716500 -30.715028 38.036126 1.317014 2.510736 0.121119 -0.030860 -150409.000000 0 0 1
-6.012918 -20.574600 -31.489928 38.093109 1.286465 2.543937 0.130270 -0.035774 -207448.000000 0 0 1
-6.950318 -20.992900 -32.446028 39.265169 1.251076 2.543358 0.112142 -0.026216 -197314.000000 0 0 1
-6.854018 -20.262400 -33.805828 40.004705 1.244616 2.577448 0.092957 -0.027158 -304718.000000 0 0 1
-5.668818 -20.550200 33.446520 39.662525 1.301638 0.567444 0.100490 -0.025928 -651675.000000 0 0 1
-5.741218 -20.185200 32.074420 38.329783 1.293687 0.579381 0.097316 -0.019662 527106.000000 0 0 1
-4.567818 -20.686600 31.161420 37.680691 1.353473 0.597070 0.084865 -0.018504 -1031870.000000 0 0 1
-4.508418 -22.082200 31.011620 38.336275 1.369399 0.628455 0.092172 -0.023443 770926.000000 0 0 1
-3.249318 -22.542600 30.497520 38.063442 1.427641 0.641451 0.090825 -0.021792 1176970.000000 0 0 1
-1.914918 -22.138400 31.182320 38.289852 1.484513 0.619144 0.067093 -0.024663 -1009860.000000 0 0 1
-1.446118 -20.900100 30.847720 37.289238 1.501714 0.596592 0.063212 -0.018659 341067.000000 0 0 1
-0.338118 -20.335400 31.575820 37.558956 1.554171 0.572221 0.075796 -0.021822 523486.000000 0 0 1
-0.738418 -19.906400 32.996920 38.543569 1.533719 0.543132 0.067299 -0.022179 312212.000000 0 0 1
-1.731018 -18.867700 33.122820 38.158979 1.479307 0.519592 0.066013 -0.020308 505252.000000 0 0 1
-2.253618 -18.826100 -33.466328 38.464217 1.451656 2.626128 0.068789 -0.021045 -3747.850000 0 0 1
-3.297018 -17.727300 -33.270728 37.842686 1.386912 2.644946 0.075501 -0.022897 64702.700000 0 0 1
-2.789818 -16.434400 -33.527728 37.443039 1.402644 2.680199 0.067727 -0.021052 189392.000000 0 0 1
-3.866418 -15.503300 -33.480628 37.097897 1.326389 2.696322 0.079262 -0.025575 463144.000000 0 0 1
-3.472618 -14.040300 -33.891628 36.848766 1.328330 2.738238 0.074154 -0.023931 -171203.000000 0 0 1
-2.725518 -13.365400 -32.880928 35.598003 1.369631 2.748355 0.063555 -0.025043 32255.200000 0 0 1
-2.658218 -11.981600 -33.011728 35.219300 1.352474 2.785652 0.062365 -0.030393 199837.000000 0 0 1
-1.772618 -11.464700 33.719420 35.659231 1.417396 0.331358 0.070466 -0.033443 -230250.000000 0 0 1
-2.398918 -11.515500 32.445020 34.511460 1.365413 0.347805 0.070273 -0.028535 -122079.000000 0 0 1
-1.630918 -10.992500 31.391320 33.300299 1.423504 0.340242 0.075817 -0.020695 395499.000000 0 0 1
-0.650818 -12.097400 30.830820 33.125671 1.517050 0.374412 0.065004 -0.023545 131697.000000 0 0 1
-1.360818 -13.041100 30.062020 32.797060 1.466824 0.411287 0.070385 -0.028748 -180291.000000 0 0 1
-0.510118 -14.022500 29.585320 32.744188 1.534434 0.442862 0.072296 -0.032316 -402255.000000 0 0 1
-0.861718 -15.461500 30.085220 33.836681 1.515121 0.475355 0.072728 -0.028970 -233181.000000 0 0 1
-1.855618 -16.099900 29.344620 33.522482 1.456046 0.504593 0.081145 -0.031254 26476.800000 0 0 1
-2.328218 -17.269200 30.023720 34.714113 1.436785 0.525875 0.082171 -0.025877 -33499.600000 0 0 1
-2.553518 -18.378400 28.932920 34.371498 1.432739 0.570241 0.087979 -0.023478 -470521.000000 0 0 1
-3.603618 -18.178500 28.036120 33.607558 1.375098 0.584078 0.089759 -0.027770 -263895.000000 0 0 1
-3.832618 -19.398800 27.427920 33.812619 1.375739 0.624639 0.092202 -0.023363 -124004.000000 0 0 1
-4.908218 -19.349000 26.340920 33.050241 1.322369 0.648491 0.071317 -0.031931 -402713.000000 0 0 1
-5.201718 -20.436800 25.479020 33.074176 1.321561 0.691391 0.094179 -0.024236 -825846.000000 0 0 1
-4.102318 -21.000700 24.862820 32.802717 1.377884 0.710632 0.090675 -0.029113 -881298.000000 0 0 1
-30.174438 -33.369255 -0.850180 44.996963 0.835633 1.589692 0.077248 0.002695 67887.100000 0 0 1
-29.557578 -32.312055 -0.168580 43.792097 0.829889 1.574646 0.094792 -0.004769 -134963.000000 0 0 1
-29.861698 -32.320055 1.205320 44.019993 0.824913 1.543412 0.072380 0.013932 129909.000000 0 0 1
-29.344888 -31.012555 1.916220 42.738424 0.813021 1.525945 0.092963 -0.001028 1448280.000000 0 0 1
-27.928188 -30.781955 1.720520 41.598950 0.833968 1.529425 0.092533 -0.001759 815561.000000 0 0 1
-27.693858 -29.424855 1.978420 40.455976 0.815694 1.521874 0.092855 -0.016231 -28424.000000 0 0 1
-26.198608 -29.102755 2.137520 39.216150 0.837865 1.516263 0.092747 -0.011383 44591.000000 0 0 1
-25.607178 -29.686255 3.307520 39.343881 0.859036 1.486630 0.073393 -0.001507 57298.300000 0 0 1
-24.241918 -29.310955 3.371220 38.185963 0.879772 1.482397 0.068386 -0.003584 -19295.100000 0 0 1
-23.505918 -30.095555 4.483120 38.449564 0.907722 1.453933 0.060595 -0.011105 -341632.000000 0 0 1
-24.054918 -29.964355 5.809420 38.861948 0.894360 1.420745 0.047934 -0.003235 -181525.000000 0 0 1
-23.336918 -30.703055 6.732020 39.148556 0.920872 1.397976 0.037080 -0.003855 -49078.300000 0 0 1
-23.902218 -30.372355 8.137820 39.497089 0.904049 1.363274 0.034161 0.000573 81956.700000 0 0 1
-23.469418 -29.112555 8.603220 38.371471 0.892310 1.344665 0.057054 -0.014281 -90078.700000 0 0 1
-23.901318 -28.863055 9.916220 38.764421 0.879158 1.312114 0.031122 -0.010219 -192929.000000 0 0 1
-23.406918 -27.593455 10.616320 37.709267 0.867303 1.285407 0.049388 -0.019914 489405.000000 0 0 1
-21.993418 -27.599855 10.790720 36.903957 0.897969 1.274061 0.047688 -0.027045 84622.700000 0 0 1
-21.586318 -26.606955 11.675220 36.196822 0.889201 1.242376 0.063500 -0.028813 -129186.000000 0 0 1
-20.223418 -26.746355 12.348820 35.733003 0.923391 1.217933 0.053887 -0.034404 -236191.000000 0 0 1
-20.130918 -27.825055 13.277720 36.820991 0.944484 1.201883 0.047737 -0.023901 80668.200000 0 0 1
-18.766818 -27.991055 13.653220 36.360735 0.980174 1.185867 0.056807 -0.030003 594356.000000 0 0 1
-18.508118 -29.044755 14.742420 37.463144 1.003452 1.166341 0.075226 -0.038471 81616.600000 0 0 1
-18.489318 -30.356555 14.366020 38.337421 1.023733 1.186695 0.068986 -0.028752 -61954.900000 0 0 1
-18.296418 -31.258955 15.461220 39.381855 1.041243 1.167342 0.070080 -0.023067 159762.000000 0 0 1
-18.271218 -32.752855 14.998020 40.392171 1.061945 1.190377 0.057618 -0.023076 62650.100000 0 0 1
-17.828318 -33.693455 15.953220 41.323154 1.084115 1.174440 0.064708 -0.017061 177427.000000 0 0 1
-17.714318 33.115000 15.298120 40.551606 -1.079594 1.183971 0.049207 -0.016491 -443276.000000 0 0 1
-17.486518 32.046200 16.366620 40.007543 -1.071287 1.149342 0.060334 -0.019332 -767569.000000 0 0 1
-18.527118 31.901300 17.254020 40.726505 -1.044641 1.133319 0.058977 -0.027597 -541990.000000 0 0 1
-18.614418 30.599100 17.798020 39.994637 -1.024273 1.109611 0.039545 -0.014024 -107684.000000 0 0 1
-19.334818 30.664000 19.149820 40.997947 -1.008225 1.084797 0.046120 -0.020729 332062.000000 0 0 1
-18.627818 31.461400 20.174820 41.759294 -1.036217 1.066580 0.051586 -0.022553 931468.000000 0 0 1
-19.526118 31.854600 21.259820 42.987961 -1.020890 1.053476 0.061667 -0.015755 376507.000000 0 0 1
-19.073818 32.977500 22.194920 44.090141 -1.046419 1.043269 0.050167 -0.005766 369635.000000 0 0 1
-18.101118 32.616600 23.193420 43.925252 -1.064148 1.014529 0.051989 -0.024502 314030.000000 0 0 1
-18.081218 33.434700 24.346120 45.139153 -1.075050 1.001123 0.049701 -0.019227 366097.000000 0 0 1
-19.033318 32.845200 25.456320 45.706658 -1.045598 0.980087 0.060926 -0.021330 -34048.800000 0 0 1
-20.398918 32.948100 25.190020 46.219371 -1.016435 0.994395 0.061370 -0.020220 -666832.000000 0 0 1
-21.110618 31.962000 25.913320 46.246381 -0.987081 0.976010 0.053648 -0.016735 335143.000000 0 0 1
-22.602818 32.012500 25.460520 46.732490 -0.956013 0.994629 0.099110 -0.025443 152669.000000 0 0 1
-22.968618 31.456700 24.250620 45.882175 -0.940110 1.013915 0.094726 -0.010743 -582322.000000 0 0 1
-24.130018 32.050900 23.781820 46.637891 -0.925464 1.035699 0.089555 -0.019824 -616536.000000 0 0 1
-24.382218 31.885400 22.239520 45.888643 -0.917964 1.064844 0.082264 -0.027807 62382.600000 0 0 1
-23.577518 32.698800 21.405920 45.643447 -0.946081 1.082659 0.094088 -0.024483 40680.400000 0 0 1
-23.361218 32.041900 20.216620 44.510017 -0.940817 1.099318 0.055443 -0.013208 -144217.000000 0 0 1
-22.855218 32.882300 19.055120 44.347539 -0.963393 1.126661 0.055527 -0.003704 62709.900000 0 0 1
-21.530918 33.342700 19.231020 44.103834 -0.997417 1.119603 0.056489 0.001044 -148490.000000 0 0 1
-21.103918 -33.890455 18.174120 43.866125 1.013846 1.143613 0.075145 0.001882 628472.000000 0 0 1
-19.844618 -33.030055 18.543020 42.762565 1.029785 1.122282 0.068154 -0.007553 465206.000000 0 0 1
-20.109518 -32.097755 19.578820 42.637879 1.011113 1.093715 0.082048 -0.012679 680254.000000 0 0 1
-18.942118 -31.404055 20.061120 41.802715 1.028046 1.070256 0.056704 -0.020654 537408.000000 0 0 1
-19.248418 -30.323955 21.080420 41.646464 1.005210 1.040052 0.057375 -0.007260 -33520.200000 0 0 1
-19.926718 -29.197555 20.565920 40.896557 0.971926 1.043873 0.067247 -0.016828 277897.000000 0 0 1
-20.398618 -28.321355 21.564620 41.027254 0.946605 1.017356 0.078499 -0.014847 -227895.000000 0 0 1
-21.332418 -27.196955 21.118220 40.505871 0.905660 1.022350 0.071968 -0.024836 -543915.000000 0 0 1
-20.657418 -26.192955 20.354320 39.078103 0.903006 1.022935 0.054186 -0.009627 148687.000000 0 0 1
-21.380018 -25.058755 19.999220 38.535894 0.864450 1.025143 0.046487 0.004199 -944421.000000 0 0 1
-22.547518 -25.179855 18.986920 38.767496 0.840496 1.058977 0.041455 -0.012450 -303335.000000 0 0 1
-23.782018 -25.564855 19.525220 40.004755 0.821511 1.060916 0.052835 -0.010543 -466697.000000 0 0 1
-24.750618 -25.582855 18.519820 40.125544 0.801931 1.091058 0.043132 -0.008210 -400808.000000 0 0 1
-26.135618 -26.053155 19.001020 41.507543 0.783818 1.095308 0.051624 -0.006348 -78224.100000 0 0 1
-26.202798 -27.441055 19.235120 42.539252 0.808477 1.101596 0.048357 -0.003808 -19706.800000 0 0 1
-26.580818 -28.252855 18.121820 42.815465 0.815882 1.133762 0.056327 -0.006685 1187370.000000 0 0 1
-27.905378 -29.079955 18.456720 44.328370 0.806007 1.141354 0.074224 -0.013428 1944880.000000 0 0 1
-29.131028 -28.342055 18.575520 44.687121 0.771671 1.142107 0.044521 -0.020205 1308730.000000 0 0 1
-30.238748 -29.048555 17.934620 45.605384 0.765326 1.166625 0.042689 -0.014508 1266790.000000 0 0 1
-31.614468 -28.446355 18.332220 46.311337 0.732699 1.163806 0.046292 -0.017654 303617.000000 0 0 1
-31.840808 -27.142955 17.801120 45.469296 0.705919 1.168538 0.064950 -0.012413 212735.000000 0 0 1
-33.195558 -26.763055 17.996420 46.282581 0.678525 1.171426 0.064725 0.003943 136442.000000 0 0 1
-33.539108 -25.538255 17.194520 45.527198 0.650787 1.183511 0.078184 -0.019912 -308587.000000 0 0 1
-33.503198 -25.728755 15.782120 45.094439 0.654890 1.213247 0.098778 -0.032417 -50767.400000 0 0 1
-34.104793 -24.607655 15.102620 44.685151 0.625030 1.226028 0.107666 -0.039112 535237.000000 0 0 1
-33.256818 -23.262655 14.852920 43.217777 0.610380 1.219968 0.091785 -0.039815 321103.000000 0 0 1
-32.704818 -22.606255 15.972820 42.845990 0.604810 1.188776 0.072698 -0.032425 36242.200000 0 0 1
-32.402278 -21.258755 15.758120 41.834921 0.580643 1.184593 0.064152 -0.038877 -525841.000000 0 0 1
-33.460288 -20.261255 16.217220 42.345101 0.544477 1.177779 0.070626 -0.043631 -285226.000000 0 0 1
-33.681648 -20.122455 17.586920 42.996120 0.538528 1.149400 0.064768 -0.030485 138240.000000 0 0 1
-34.614436 -19.092655 17.837620 43.368991 0.504056 1.146918 0.068788 -0.030398 -206511.000000 0 0 1
-35.001296 -18.843155 19.287120 44.183121 0.493859 1.119062 0.042803 -0.022784 -583864.000000 0 0 1
-36.003851 -19.730855 19.688020 45.532429 0.501322 1.123648 0.055470 -0.020874 -40016.600000 0 0 1
-36.403788 -19.400255 21.017820 46.296376 0.489634 1.099565 0.041765 -0.008995 -482350.000000 0 0 1
36.304750 -19.953555 21.338220 46.599344 -0.502546 1.095156 0.048921 -0.006775 -156582.000000 0 0 1
36.222920 -21.414555 21.450320 47.231338 -0.533915 1.099373 0.058846 -0.017634 -26266.100000 0 0 1
36.824300 -21.906055 22.621620 48.452471 -0.536647 1.085034 0.040159 0.001658 -203282.000000 0 0 1
36.269780 -23.317955 23.024820 48.881144 -0.571370 1.080331 0.046923 0.009360 -95667.900000 0 0 1
35.147030 -23.155755 23.854720 48.379235 -0.582554 1.055173 0.073733 -0.015075 -120464.000000 0 0 1
34.720510 -24.374955 24.398520 48.938124 -0.612089 1.048861 0.071884 -0.029103 -913285.000000 0 0 1
33.813100 -24.114755 25.608420 48.791785 -0.619516 1.018256 0.081019 -0.030913 42690.300000 0 0 1
32.509790 -23.689955 25.207520 47.471249 -0.629731 1.011009 0.105793 -0.031134 430023.000000 0 0 1
31.705580 -23.651455 26.416320 47.565293 -0.640918 0.981989 0.091501 -0.028867 629788.000000 0 0 1
30.327370 -24.352555 26.224420 46.909663 -0.676561 0.977568 0.086782 -0.027942 561331.000000 0 0 1
29.288940 -23.576655 25.611820 45.493582 -0.677763 0.972813 0.096220 -0.023079 48691.900000 0 0 1
28.238050 -24.395555 25.198320 45.027612 -0.712523 0.976870 0.084710 -0.014888 473059.000000 0 0 1
26.925150 -23.738055 24.635620 43.535878 -0.722573 0.969309 0.088680 -0.012465 630258.000000 0 0 1
27.038750 -23.044555 23.410220 42.546256 -0.705816 0.988157 0.083531 -0.014548 -258422.000000 0 0 1
27.804350 -21.878855 23.402920 42.420076 -0.666693 0.986402 0.094499 -0.005712 -93757.200000 0 0 1
27.541250 -21.093855 22.111720 41.138781 -0.653600 1.003338 0.090955 -0.004061 699009.000000 0 0 1
26.336450 -20.324555 22.012820 39.890605 -0.657262 0.986240 0.073412 -0.000398 575412.000000 0 0 1
26.362250 -19.681855 20.765420 38.904322 -0.641317 1.007760 0.050268 0.002929 109202.000000 0 0 1
25.628350 -18.332755 20.683920 37.692529 -0.620941 0.989923 0.065538 0.007819 89325.100000 0 0 1
26.363550 -17.238755 21.274220 38.010576 -0.579102 0.976782 0.070371 -0.006535 343837.000000 0 0 1
26.430750 -17.188755 22.709820 38.855807 -0.576608 0.946577 0.068878 -0.003673 -69708.700000 0 0 1
26.477050 -15.765155 23.397420 38.691259 -0.537050 0.921381 0.082428 -0.002632 287271.000000 0 0 1
25.305050 -14.988255 23.180320 37.447571 -0.534741 0.903318 0.079001 -0.013836 11439.800000 0 0 1
25.302650 -13.862755 24.033220 37.549910 -0.501212 0.876254 0.080559 -0.013900 566356.000000 0 0 1
24.021450 -12.969555 23.900220 36.283053 -0.495068 0.851686 0.089016 -0.019388 1063020.000000 0 0 1
22.862150 -13.637155 24.400420 36.111361 -0.537838 0.828883 0.092210 -0.015919 -633495.000000 0 0 1
21.706950 -12.905955 24.302520 35.048079 -0.536405 0.804592 0.088242 -0.019267 -936299.000000 0 0 1
20.470550 -13.684455 24.762220 34.920986 -0.589267 0.782586 0.087213 -0.006306 -272196.000000 0 0 1
19.974950 -14.656555 23.862920 34.398432 -0.633018 0.804154 0.092667 -0.008623 -87762.700000 0 0 1
18.711950 -15.154755 24.243820 34.169672 -0.680747 0.781990 0.096530 -0.003834 134430.000000 0 0 1
18.262450 -16.193255 23.145820 33.637294 -0.725416 0.811929 0.098125 -0.007832 -67068.500000 0 0 1
18.551850 -17.535955 23.452420 34.665499 -0.757255 0.827749 0.077956 -0.008324 155316.000000 0 0 1
17.936450 -18.503255 22.622120 34.290625 -0.800951 0.850354 0.087213 -0.013309 -58998.700000 0 0 1
18.444550 -19.879755 23.014720 35.568011 -0.822830 0.867071 0.052785 -0.010083 -33948.800000 0 0 1
17.990450 -20.346955 24.328220 36.462544 -0.846788 0.840338 0.044125 -0.012222 321313.000000 0 0 1
18.229550 -21.726555 24.602520 37.545221 -0.872697 0.856247 0.051343 -0.011675 -397496.000000 0 0 1
17.621150 -22.831755 23.655120 37.300920 -0.913500 0.883862 0.037299 -0.012115 155593.000000 0 0 1
18.264150 -23.080155 22.395820 36.984395 -0.901361 0.920342 0.047600 -0.002583 1053030.000000 0 0 1
19.571050 -23.709655 22.538320 38.120199 -0.880731 0.938197 0.056378 -0.006844 502726.000000 0 0 1
20.325150 -23.913155 21.266020 37.910345 -0.866327 0.975257 0.067875 0.002451 -718326.000000 0 0 1
19.873450 -24.855555 20.293720 37.743710 -0.896325 1.003123 0.070362 -0.009474 381845.000000 0 0 1
20.868750 -25.140955 19.303920 37.950147 -0.877987 1.037163 0.062858 -0.015612 731418.000000 0 0 1
20.156350 -25.780055 18.047520 37.371147 -0.907216 1.066803 0.060508 -0.024806 307859.000000 0 0 1
19.570550 -27.034255 18.305820 38.065212 -0.944199 1.069108 0.071204 -0.031462 309203.000000 0 0 1
18.678250 -27.360855 17.223420 37.338179 -0.971801 1.091357 0.084712 -0.033003 38087.200000 0 0 1
17.826050 -28.607155 17.453020 37.957150 -1.013541 1.093017 0.088788 -0.030392 -418216.000000 0 0 1
16.791350 -28.319555 18.349620 37.691579 -1.035596 1.062332 0.074094 -0.031222 -336400.000000 0 0 1
15.870550 -29.381655 18.499120 38.175560 -1.075546 1.064913 0.081397 -0.026642 -162030.000000 0 0 1
14.723350 -29.059355 19.450920 37.941552 -1.101831 1.032522 0.070954 -0.016343 -662199.000000 0 0 1
13.765450 -28.265155 18.841020 36.652293 -1.117594 1.030899 0.080068 -0.027334 -414512.000000 0 0 1
12.517450 -28.294055 19.514220 36.579295 -1.154276 1.008090 0.056069 -0.018730 876566.000000 0 0 1
11.328050 -27.829555 18.594220 35.334881 -1.184226 1.016637 0.063565 -0.024753 327914.000000 0 0 1
11.203050 -28.724755 17.486920 35.445906 -1.198928 1.054870 0.066749 -0.031068 134544.000000 0 0 1
10.363750 -28.157655 16.496020 34.240028 -1.218123 1.068116 0.078780 -0.024510 -14934.400000 0 0 1
10.216750 -29.039955 15.248620 34.354350 -1.232504 1.110891 0.085268 -0.020888 -159144.000000 0 0 1
9.397650 -30.154855 15.516320 35.190727 -1.268689 1.114172 0.070484 -0.020018 -7672.640000 0 0 1
9.163150 -30.971455 14.394120 35.360783 -1.283144 1.151558 0.079993 -0.016604 -465638.000000 0 0 1
8.090650 -32.020155 14.639320 36.125595 -1.323303 1.153562 0.077478 -0.018420 -660238.000000 0 0 1
8.228750 -32.919855 15.690220 37.384651 -1.325852 1.137685 0.081626 -0.017619 574986.000000 0 0 1
7.202250 -33.963055 15.625220 38.072417 -1.361831 1.147895 0.083436 -0.008064 1036770.000000 0 0 1
7.521950 32.971500 16.638520 37.690050 1.346500 1.113575 0.088523 -0.011970 -247467.000000 0 0 1
8.665550 32.270200 16.265920 37.162316 1.308454 1.117758 0.087042 -0.014190 -512676.000000 0 0 1
8.686350 31.046700 16.971120 36.433078 1.297989 1.086239 0.093096 -0.016045 -393731.000000 0 0 1
10.067650 30.393300 17.004920 36.252966 1.250926 1.082567 0.088984 -0.015538 -313539.000000 0 0 1
10.558150 29.866900 15.760620 35.382247 1.231001 1.109132 0.119882 -0.013259 321721.000000 0 0 1
11.773250 29.174900 16.061220 35.323462 1.187242 1.098772 0.095760 -0.009258 369217.000000 0 0 1
12.440250 28.547100 14.823620 34.488207 1.159831 1.126506 0.073459 -0.007746 418156.000000 0 0 1
11.621450 27.497600 14.322720 33.110669 1.170930 1.123454 0.084002 -0.009835 813910.000000 0 0 1
12.425350 26.830800 13.332020 32.434918 1.137102 1.147203 0.083046 0.001507 730865.000000 0 0 1
-9.808018 -8.976400 19.027967 23.212853 0.741155 0.609880 0.053661 -0.029048 33280.300000 0 1 0
-9.783018 -9.241800 17.631967 22.181177 0.756958 0.651942 0.044905 -0.033002 149152.000000 0 1 0
-9.615118 -10.635900 17.358067 22.513893 0.835762 0.690396 0.046464 -0.031893 -53347.000000 0 1 0
-9.834818 -10.921300 15.835667 21.604787 0.837696 0.748118 0.059102 -0.029420 210890.000000 0 1 0
-11.199718 -10.604700 15.561667 21.910245 0.758116 0.780949 0.065537 -0.034363 709903.000000 0 1 0
-11.768818 -11.091500 14.357467 21.625525 0.755778 0.844757 0.090931 -0.040773 10691.500000 0 1 0
-11.746318 -12.649700 14.106567 22.293186 0.822411 0.885665 0.076792 -0.039585 -492288.000000 0 1 0
-10.497818 -13.152200 13.628867 21.654805 0.897166 0.890055 0.079874 -0.037707 553922.000000 0 1 0
-10.431018 -14.531900 13.421367 22.363259 0.948223 0.927104 0.086440 -0.040775 -15142.800000 0 1 0
-9.976318 -15.300300 14.657267 23.419257 0.992992 0.894558 0.084319 -0.045083 339146.000000 0 1 0
-11.065118 -15.309500 15.580667 24.486217 0.944957 0.881099 0.101503 -0.021045 506899.000000 0 1 0
-10.587618 -15.557200 16.941267 25.320558 0.973236 0.837837 0.088646 -0.023958 99419.500000 0 0 1
-11.575018 -15.135100 18.078867 26.265905 0.917903 0.811651 0.071043 -0.014681 -72639.900000 0 0 1
-11.869218 -13.784100 18.084867 25.650384 0.859905 0.788299 0.064869 -0.020535 705767.000000 0 0 1
-13.018418 -13.484600 17.258667 25.478918 0.802986 0.826614 0.069731 -0.039887 527398.000000 0 0 1
-14.352318 -13.380200 18.044867 26.657758 0.750359 0.827242 0.047047 -0.021636 22125.900000 0 0 1
-14.993818 -14.612100 18.358667 27.845444 0.772506 0.850901 0.057424 -0.017815 857610.000000 0 0 1
-16.151918 -14.360500 19.197567 28.907698 0.726754 0.844509 0.066261 -0.008431 625415.000000 0 0 1
-16.738918 -15.572000 19.865567 30.287280 0.749299 0.855416 0.071147 -0.002115 -795004.000000 0 0 1
-17.593118 -16.283500 19.061967 30.627256 0.746759 0.899009 0.084342 -0.009668 -458901.000000 0 0 1
-17.807718 -17.571300 19.561667 31.757271 0.778716 0.907174 0.056699 -0.013608 -440290.000000 0 0 1
-19.155018 -18.226200 19.216467 32.686109 0.760556 0.942324 0.070682 -0.011576 -208260.000000 0 0 1
-19.362018 -18.511900 17.869467 32.200871 0.762956 0.982509 0.080490 -0.018810 275243.000000 0 0 1
-19.977418 -17.447500 17.128367 31.573620 0.717901 0.997398 0.073420 -0.028430 -289951.000000 0 0 1
-19.811518 -17.505000 15.569367 30.681045 0.723667 1.038563 0.075535 -0.033203 46903.100000 0 0 1
-20.230818 -18.686000 14.903867 31.314180 0.745724 1.074757 0.075077 -0.032778 292079.000000 0 0 1
-19.637518 -18.602000 13.612767 30.281578 0.758325 1.104547 0.069737 -0.028216 170069.000000 0 0 1
-19.775318 -19.877400 12.682067 30.773513 0.787973 1.146028 0.085388 -0.026279 37017.200000 0 0 1
-19.041118 -21.049900 13.103467 31.262811 0.835462 1.138299 0.082154 -0.026975 174245.000000 0 0 1
-18.985818 -22.048200 12.086967 31.506812 0.859890 1.177072 0.067812 -0.023802 -314168.000000 0 0 1
-18.082518 -23.194400 12.601567 31.996206 0.908614 1.165985 0.061024 -0.025951 -153425.000000 0 0 1
-18.118018 -24.385000 11.841067 32.605240 0.931791 1.199134 0.074039 -0.043598 474790.000000 0 0 1
-17.127218 -24.470700 10.792467 31.759001 0.960133 1.224067 0.076527 -0.040031 -111416.000000 0 0 1
-17.471318 -25.467750 9.647667 32.356309 0.969516 1.268022 0.084370 -0.036087 -386102.000000 0 0 1
-18.709818 -25.190960 9.053567 32.658978 0.931971 1.289902 0.070425 -0.028111 -568040.000000 0 0 1
-19.086118 -26.173010 8.127667 33.397086 0.940722 1.324963 0.091577 -0.031439 1174570.000000 0 0 1
-20.456018 -25.921890 7.358867 33.831140 0.902712 1.351526 0.082819 -0.032526 1163640.000000 0 0 1
-20.425718 -24.683000 6.611867 32.713564 0.879498 1.367280 0.098475 -0.030674 -452502.000000 0 0 1
-21.454618 -24.662100 5.669167 33.176186 0.854838 1.399073 0.102733 -0.034797 -246191.000000 0 0 1
-21.650418 -23.268400 4.982867 32.171230 0.821403 1.415284 0.105782 -0.027520 -324645.000000 0 0 1
-22.283118 -23.428200 3.777567 32.552848 0.810443 1.454490 0.105031 -0.031458 -292032.000000 0 0 1
-22.326218 -22.194100 3.068967 31.629996 0.782431 1.473616 0.096797 -0.020508 131746.000000 0 0 1
-22.852618 -22.238200 1.640267 31.929143 0.771773 1.519402 0.095075 -0.019642 532578.000000 0 0 1
-21.911118 -22.845700 0.746167 31.663542 0.806276 1.547229 0.079240 -0.025303 702511.000000 0 0 1
-22.462918 -22.700300 -0.537533 31.940183 0.790654 1.587626 0.086851 -0.027903 -204009.000000 0 0 1
-21.780118 -23.580300 -1.546733 32.137151 0.825064 1.618944 0.080667 -0.024405 -448364.000000 0 0 1
-20.406218 -23.340000 -1.729533 31.050936 0.852362 1.626525 0.092010 -0.023276 14291.000000 0 0 1
-19.733418 -24.139600 -2.716833 31.297113 0.885493 1.657713 0.090025 -0.020087 359275.000000 0 0 1
-19.683318 -25.701940 -2.665333 32.482715 0.917241 1.652943 0.085651 -0.018898 -184827.000000 0 0 1
-20.855918 -26.331010 -3.164833 33.738814 0.900911 1.664738 0.101408 -0.018197 20960.200000 0 0 1
-20.532518 -27.627220 -3.578433 34.607120 0.931662 1.674383 0.110198 -0.010787 282833.000000 0 0 1
-21.741218 -28.368420 -4.208133 35.988279 0.916889 1.687995 0.109844 -0.007667 303746.000000 0 0 1
-22.048218 -27.863030 -5.516233 35.956935 0.901378 1.724817 0.101442 -0.002771 -362039.000000 0 0 1
-23.078818 -28.666290 -6.006133 37.288895 0.892962 1.732571 0.102775 -0.006340 -245748.000000 0 0 1
-23.705018 -28.210200 -7.349533 37.573380 0.871961 1.767670 0.095562 0.008829 -336760.000000 0 0 1
-22.754818 -28.287000 -8.374633 37.256820 0.893362 1.797515 0.131033 0.008216 87612.600000 0 0 1
-23.285218 -28.153070 -9.700033 37.800627 0.879752 1.830310 0.128307 0.006498 71506.000000 0 0 1
-23.984218 -26.835350 -10.147433 37.394507 0.841442 1.845604 0.096790 0.014003 309084.000000 0 0 1
-23.151618 -25.673210 -10.374933 36.093633 0.836998 1.862354 0.095319 0.009574 402794.000000 0 0 1
-22.765418 -25.028700 -9.149933 35.048843 0.832718 1.834919 0.078305 0.006191 214089.000000 0 0 1
-22.373718 -23.528600 -9.414333 33.805443 0.810552 1.853013 0.080128 -0.000957 254419.000000 0 0 1
-23.503518 -22.799200 -9.814833 34.184058 0.770188 1.862012 0.078218 0.004033 234018.000000 0 0 1
-23.027918 -21.468400 -10.071133 33.054575 0.750364 1.880401 0.101243 0.012816 251934.000000 0 0 1
-24.135918 -20.435300 -10.318033 33.265686 0.702561 1.886169 0.110843 0.020221 -542634.000000 0 0 1
-24.951218 -20.788800 -11.409633 34.422627 0.694646 1.908644 0.089459 0.029519 581468.000000 0 0 1
-26.155918 -20.018700 -11.551833 34.904516 0.653259 1.908112 0.078374 0.025442 597763.000000 0 0 1
-26.028018 -18.489200 -11.745833 34.018713 0.617644 1.923329 0.093148 0.009693 -1088010.000000 0 0 1
-25.220958 -18.050600 -12.863133 33.576496 0.621184 1.963946 0.116772 0.016767 704987.000000 0 0 1
-24.851718 -16.696400 -12.777233 32.552041 0.591576 1.974163 0.130640 -0.006170 -127081.000000 0 0 1
-23.907318 -16.252300 -11.633633 31.161491 0.597043 1.953396 0.102091 -0.007080 -680963.000000 0 0 1
-24.472018 -16.414900 -10.336433 31.227720 0.590832 1.908161 0.142947 -0.019412 327194.000000 0 0 1
-23.525518 -16.335800 -9.259533 30.100620 0.606949 1.883486 0.143125 -0.020212 550148.000000 0 0 1
-24.213118 -16.718300 -7.893533 30.464480 0.604298 1.832893 0.151106 -0.028869 199533.000000 0 0 1
-24.621418 -18.044400 -7.865233 31.522635 0.632450 1.822971 0.131140 -0.017275 -303890.000000 0 0 1
-25.282358 -18.354200 -6.686433 31.949690 0.627943 1.781635 0.148608 -0.010152 -316358.000000 0 0 1
-25.882608 -19.729700 -6.695733 33.226545 0.651312 1.773703 0.125833 -0.012072 -383915.000000 0 0 1
-27.042208 -19.884400 -7.453233 34.383442 0.634033 1.789299 0.094786 -0.013329 -646356.000000 0 0 1
-27.568988 -21.202100 -7.451533 35.568294 0.655586 1.781859 0.070486 -0.002294 60920.600000 0 0 1
-26.907508 -22.357900 -8.291233 35.953223 0.693310 1.803503 0.054166 0.004389 146442.000000 0 0 1
-27.519048 -23.620600 -8.019333 37.142166 0.709314 1.788419 0.053440 0.003349 -18703.400000 0 0 1
-26.951668 -24.664600 -8.801233 37.579205 0.741118 1.807197 0.043039 0.015810 392186.000000 0 0 1
-27.500678 -26.037840 -8.270433 38.764113 0.758082 1.785802 0.051490 0.006645 107049.000000 0 0 1
-27.035718 -26.337620 -7.004633 38.388347 0.772319 1.754292 0.080409 -0.012121 -124676.000000 0 0 1
-27.428578 -27.621290 -6.578133 39.478278 0.788899 1.738204 0.090062 -0.011150 -135194.000000 0 0 1
-26.757088 -28.015040 -5.230933 39.091520 0.808361 1.705011 0.120584 -0.020360 -193762.000000 0 0 1
-27.252728 -27.263270 -4.149333 38.771305 0.785592 1.678022 0.100251 -0.020003 -126383.000000 0 0 1
-26.640488 -27.529280 -2.925933 38.420541 0.801804 1.647026 0.105783 -0.022680 -264916.000000 0 0 1
-26.891988 -28.865150 -2.195933 39.511999 0.820772 1.626401 0.111436 -0.012227 -117120.000000 0 0 1
-26.457438 -30.062970 -2.905833 40.152485 0.849104 1.643230 0.129680 -0.010246 -44636.000000 0 0 1
-26.355568 -31.354910 -2.287333 41.024118 0.871810 1.626581 0.115945 -0.002475 -165213.000000 0 0 1
-25.389128 -31.363230 -1.111233 40.367002 0.890278 1.598328 0.132223 -0.012585 -235674.000000 0 0 1
-24.031518 -31.656390 -1.408533 39.769648 0.921474 1.606221 0.127901 -0.014568 228740.000000 0 0 1
-23.238818 -31.734350 -0.210433 39.333903 0.938725 1.576146 0.073655 -0.008740 446104.000000 0 0 1
-22.362718 -30.485560 0.121067 37.808401 0.937906 1.567594 0.086387 -0.008693 -193302.000000 0 0 1
-23.041918 -29.271750 0.385267 37.254715 0.903926 1.560455 0.098733 -0.019720 -186646.000000 0 0 1
-23.062118 -28.397790 -0.743933 36.590289 0.888715 1.591129 0.095933 -0.026211 -83707.100000 0 0 1
-23.585118 -26.960840 -0.456533 35.823918 0.852084 1.583540 0.095264 -0.014596 365079.000000 0 0 1
-24.989218 -26.926490 -0.230833 36.736224 0.822697 1.577080 0.091822 -0.018023 411621.000000 0 0 1
-25.607208 -25.659860 0.092367 36.251429 0.786425 1.568248 0.103120 -0.052893 392563.000000 0 0 1
-25.246058 -25.012300 1.444767 35.567766 0.780747 1.530165 0.093793 -0.027737 -156486.000000 0 0 1
-25.908858 -25.575740 2.598867 36.498514 0.778928 1.499531 0.072532 -0.031069 269951.000000 0 0 1
-25.427668 -24.990600 3.811967 35.855648 0.776730 1.464281 0.084558 -0.029640 -9997.360000 0 0 1
-26.340538 -23.862100 4.267167 35.797102 0.736070 1.451308 0.104268 -0.026040 -240942.000000 0 0 1
-26.439608 -22.862200 3.250567 35.104120 0.712964 1.478066 0.098229 -0.026340 -176767.000000 0 0 1
-27.132078 -21.722200 3.684567 34.951104 0.675112 1.465179 0.093110 -0.021820 -424894.000000 0 0 1
-27.199518 -20.589200 2.639567 34.215439 0.647947 1.493574 0.088314 -0.015826 1447080.000000 0 0 1
-25.913948 -19.905200 2.598667 32.779609 0.655002 1.491436 0.094455 -0.017130 1075850.000000 0 0 1
-25.808958 -19.034300 1.488167 32.103295 0.635458 1.524424 0.083117 -0.024230 -24988.000000 0 0 1
-24.628118 -18.039900 1.520267 30.566214 0.632202 1.521039 0.111791 -0.029047 -305695.000000 0 0 1
-23.426718 -18.729600 1.371767 30.024836 0.674434 1.525093 0.119964 -0.031226 -1277340.000000 0 0 1
-22.309218 -17.942600 1.455067 28.666275 0.677338 1.520016 0.125617 -0.027153 -1278070.000000 0 0 1
-20.991818 -18.682500 1.467567 28.139758 0.727257 1.518620 0.107334 -0.024143 -720457.000000 0 0 1
-20.539818 -19.189900 0.213367 28.110175 0.751434 1.563206 0.079939 -0.022400 -42412.500000 0 0 1
-19.485918 -20.085300 0.409567 27.987284 0.800544 1.556162 0.095082 -0.018174 -331240.000000 0 0 1
-18.945918 -20.698000 -0.880033 28.073644 0.829565 1.602149 0.100515 -0.017955 134997.000000 0 0 1
-18.302118 -19.806000 -1.811433 27.028253 0.824841 1.637867 0.098299 -0.022373 364261.000000 0 0 1
-17.762618 -20.499700 -2.936333 27.283152 0.856811 1.678630 0.085954 -0.019107 116087.000000 0 0 1
-17.096318 -19.638700 -4.045333 26.350092 0.854497 1.724928 0.082002 -0.000990 400742.000000 0 0 1
-15.731818 -19.298100 -3.859133 25.195231 0.886855 1.724571 0.098751 -0.009108 27906.300000 0 0 1
-15.313018 -18.816700 -5.092933 24.789004 0.887698 1.777721 0.095920 0.001693 406541.000000 0 1 0
-13.787518 -18.526400 -5.258333 23.684873 0.931012 1.794674 0.114121 -0.011391 435407.000000 0 1 0
-12.976918 -19.658300 -5.367733 24.159092 0.987337 1.794849 0.092928 -0.014626 -908706.000000 0 1 0
-11.663218 -19.318600 -5.651933 23.263347 1.027639 1.816207 0.082789 -0.020970 -739438.000000 0 1 0
-10.673018 -20.463900 -5.689433 23.770868 1.090055 1.812487 0.081555 -0.026688 -102124.000000 0 1 0
-10.977018 -21.383600 -6.706433 24.954549 1.096535 1.842887 0.090445 -0.024149 372474.000000 0 1 0
-9.826718 -22.185100 -7.031633 25.262362 1.153827 1.852866 0.079902 -0.018751 671439.000000 0 0 1
-10.166418 -23.372800 -8.017333 26.719309 1.160513 1.875549 0.099664 -0.013651 -558892.000000 0 0 1
-10.528318 -22.829500 -9.224433 26.779128 1.138691 1.922464 0.089136 -0.011039 -93536.800000 0 0 1
-10.663718 -23.903300 -10.131133 28.066394 1.151174 1.940104 0.112686 -0.008527 -100892.000000 0 0 1
-11.353718 -23.528400 -11.466433 28.530188 1.121203 1.984393 0.134841 -0.018270 97337.300000 0 0 1
-10.659418 -22.535000 -12.239933 27.771665 1.128968 2.027213 0.116504 -0.018916 474449.000000 0 0 1
-11.527918 -22.122100 -13.278633 28.259552 1.090408 2.059953 0.123967 -0.024461 -378398.000000 0 0 1
-10.978018 -20.967000 -14.063333 27.530153 1.088459 2.106951 0.100281 -0.016521 -206857.000000 0 0 1
-10.968518 -19.736000 -13.381233 26.246437 1.063540 2.105784 0.101689 -0.011662 -15332.500000 0 0 1
-10.594518 -18.576100 -14.098633 25.614191 1.052478 2.153667 0.086205 -0.003940 -134519.000000 0 0 1
-10.400418 -17.416500 -13.000533 24.093921 1.032468 2.140731 0.090456 -0.011492 28727.000000 0 1 0
-11.611918 -16.989700 -12.370333 24.010658 0.971252 2.112039 0.104652 -0.014937 534004.000000 0 1 0
-11.336218 -16.002800 -11.365133 22.666400 0.954462 2.096023 0.091638 -0.022933 203759.000000 0 1 0
-10.867918 -14.603200 -11.891533 21.743359 0.931008 2.149458 0.090998 -0.013895 -90825.600000 0 1 0
-11.893118 -13.853400 -12.482833 22.117506 0.861389 2.170487 0.087085 -0.006070 -310452.000000 0 1 0
-11.850418 -14.036600 -13.891233 23.030955 0.869649 2.218247 0.101789 -0.011391 466055.000000 0 1 0
-13.043218 -13.292900 -14.591433 23.658754 0.794878 2.235398 0.094907 -0.009753 374571.000000 0 1 0
-12.856218 -11.894700 -14.588633 22.794614 0.746570 2.265299 0.064554 0.008321 175222.000000 0 1 0
-13.958918 -11.197900 -15.172333 23.461544 0.676083 2.274032 0.076437 0.001179 480256.000000 0 1 0
-14.452418 -9.864400 -14.465333 22.702965 0.598914 2.261599 0.079226 -0.007051 366706.000000 0 1 0
-13.586818 -8.720800 -14.528533 21.719398 0.570630 2.303551 0.075522 -0.010610 310310.000000 0 1 0
-13.463918 -8.086500 -15.786133 22.268151 0.540864 2.358749 0.080028 -0.011272 -793995.000000 0 1 0
-12.339618 -7.089700 -15.717633 21.203160 0.521494 2.405783 0.062469 -0.007917 -449218.000000 0 1 0
-11.076118 -7.714000 -15.673833 20.684662 0.608342 2.430657 0.050662 -0.012200 304085.000000 0 1 0
-9.970918 -6.822400 -15.552533 19.693797 0.600063 2.481144 0.027259 -0.000636 628225.000000 0 1 0
11.422082 21.755100 15.884367 29.258528 1.087326 0.996913 0.115078 -0.017146 -656756.000000 0 0 1
12.323782 21.880000 16.938067 30.290396 1.057842 0.977389 0.131776 -0.029219 -105024.000000 0 0 1
13.152782 20.706900 16.886467 29.781272 1.004904 0.967917 0.106797 -0.024000 -291998.000000 0 0 1
14.285582 20.727300 17.900267 30.888807 0.967345 0.952673 0.117373 -0.034954 -1905.940000 0 0 1
15.444382 21.432100 17.425367 31.646600 0.946366 0.987685 0.090696 -0.033554 -82087.300000 0 0 1
16.527982 20.885700 18.117467 32.212253 0.901350 0.973462 0.094704 -0.031146 515431.000000 0 0 1
17.962282 21.374300 17.683667 33.048697 0.871921 1.006195 0.064054 -0.023230 241559.000000 0 0 1
18.274182 22.722900 18.130667 34.336526 0.893488 1.014519 0.069546 -0.023993 309356.000000 0 0 1
19.513982 23.291900 17.709967 35.170315 0.873427 1.043095 0.058860 -0.017781 1140660.000000 0 0 1
20.875882 22.720400 18.227767 35.836720 0.827682 1.037199 0.060103 -0.020316 242446.000000 0 0 1
21.003482 21.366500 17.874967 34.888222 0.793966 1.032878 0.063452 -0.013588 612652.000000 0 0 1
22.150082 20.835000 18.584267 35.638439 0.754814 1.022227 0.077248 -0.014459 728129.000000 0 0 1
22.237082 19.331800 18.274967 34.672478 0.715621 1.015642 0.076353 -0.018188 -152181.000000 0 0 1
22.658582 18.977400 16.940367 34.066539 0.697214 1.050344 0.051463 -0.010767 358379.000000 0 0 1
22.451082 17.528800 16.789167 33.063364 0.662896 1.038182 0.042547 -0.006801 -387683.000000 0 0 1
23.452882 16.621200 17.517267 33.662392 0.616545 1.023499 0.033520 -0.011890 -785129.000000 0 0 1
24.675182 16.584700 16.854567 34.175917 0.591769 1.055065 0.062418 -0.026286 -459815.000000 0 0 1
25.424882 15.431800 17.136267 34.325162 0.545519 1.048083 0.042106 -0.015818 -674306.000000 0 0 1
26.694082 15.343100 16.262867 34.820476 0.521665 1.084846 0.134188 -0.044407 -780230.000000 0 0 1
27.659882 16.322700 16.593667 36.150372 0.533124 1.093907 0.120836 -0.037691 760859.000000 0 0 1
28.664782 16.047600 17.599567 37.268485 0.510364 1.078969 0.132565 -0.047483 484307.000000 0 0 1
29.670582 14.936600 17.147967 37.383127 0.466375 1.094255 0.123237 -0.057852 -835913.000000 0 0 1
30.463882 15.354800 16.056567 37.704527 0.466869 1.130892 0.165109 -0.037342 898.932000 0 0 1
30.741882 14.311700 15.180367 37.152814 0.435705 1.149885 0.171218 -0.055333 -99988.100000 0 0 1
29.834782 14.318900 13.949767 35.912966 0.447471 1.171866 0.143489 -0.036131 -285809.000000 0 0 1
30.316882 15.038300 12.825467 36.190557 0.460472 1.208538 0.151198 -0.017107 -21770.800000 0 0 1
29.533782 14.881100 11.654967 35.064650 0.466736 1.231965 0.133976 -0.025231 1518960.000000 0 0 1
28.233882 15.864100 11.577167 34.392623 0.511920 1.227474 0.110909 -0.024878 1214350.000000 0 0 1
28.396982 17.303500 11.449767 35.169544 0.547261 1.239193 0.103861 -0.017884 -93430.800000 0 0 1
28.798982 18.078000 12.582567 36.256261 0.560560 1.216377 0.114973 -0.023176 -478715.000000 0 0 1
27.958982 18.047300 13.856367 36.047311 0.573200 1.176245 0.102131 -0.026842 -371119.000000 0 0 1
26.667782 18.612600 13.700367 35.288802 0.609344 1.172080 0.096364 -0.009902 222742.000000 0 0 1
26.047382 18.736800 15.009467 35.423409 0.623585 1.133252 0.082126 -0.015861 -160538.000000 0 0 1
26.642682 19.585100 16.181367 36.813656 0.633898 1.115701 0.090303 -0.021659 -346179.000000 0 0 1
26.592482 20.994500 15.962267 37.452945 0.668300 1.130514 0.066164 -0.008112 182083.000000 0 0 1
25.307182 21.525000 16.231767 36.976335 0.704813 1.116336 0.066969 -0.007751 -99947.800000 0 0 1
25.235982 23.031500 15.976767 37.716864 0.739758 1.133383 0.066160 -0.009747 -74729.400000 0 0 1
25.275682 23.525300 14.640367 37.505202 0.749546 1.169778 0.094107 -0.021283 80529.100000 0 0 1
25.455882 24.959400 14.652467 38.544369 0.775551 1.180843 0.092756 -0.020713 -195027.000000 0 0 1
25.251282 25.511700 13.218667 38.251892 0.790528 1.217951 0.087914 -0.023678 -1037370.000000 0 0 1
23.927282 25.522300 12.844567 37.267754 0.817642 1.218924 0.096886 -0.017370 -1070100.000000 0 0 1
23.729682 25.672300 11.455167 36.788390 0.824701 1.254151 0.091426 -0.029623 27225.900000 0 0 1
23.058182 24.459900 10.766467 35.297072 0.814888 1.260832 0.096340 -0.029650 -779767.000000 0 0 1
21.669982 24.335800 10.941367 34.373431 0.843279 1.246851 0.099158 -0.031150 -145839.000000 0 0 1
21.170682 22.988900 10.677967 33.025842 0.826549 1.241559 0.091788 -0.025179 121460.000000 0 0 1
20.979782 22.798900 9.177567 32.313601 0.826927 1.282817 0.106303 -0.019879 -429153.000000 0 0 1
19.719082 23.147000 8.620267 31.605930 0.865196 1.294554 0.110648 -0.020490 394671.000000 0 0 1
19.871982 23.388300 7.236367 31.532099 0.866503 1.339241 0.105069 -0.029494 337197.000000 0 0 1
18.481482 23.646900 6.598067 30.729067 0.907401 1.354394 0.089482 -0.025338 -358668.000000 0 0 1
17.754482 22.492300 6.211967 29.320875 0.902578 1.357317 0.102799 -0.019757 886303.000000 0 0 1
16.895682 22.647900 5.049967 28.703547 0.929850 1.393941 0.122778 -0.027164 1175110.000000 0 0 1
15.652882 23.621200 5.127667 28.796992 0.985571 1.391779 0.082282 -0.025247 278684.000000 0 0 1
16.006782 25.011000 5.098067 30.129014 1.001490 1.400770 0.096750 -0.031995 -24346.200000 0 0 1
14.857682 25.733800 5.422667 30.205703 1.047190 1.390293 0.082516 -0.030340 -232161.000000 0 0 1
14.722882 27.136600 4.822567 31.247647 1.073693 1.415843 0.083882 -0.035350 -400351.000000 0 0 1
14.388482 27.192300 3.458767 30.958240 1.084111 1.458839 0.073700 -0.023900 253541.000000 0 0 1
14.079382 28.522500 3.119167 31.960776 1.112263 1.473047 0.074390 -0.028513 -36474.700000 0 0 1
13.489082 28.630900 1.662367 31.693015 1.130504 1.518320 0.086541 -0.031451 146686.000000 0 0 1
14.428582 28.250800 0.659467 31.728955 1.098600 1.550010 0.107128 -0.032546 301431.000000 0 0 1
14.382382 26.905400 0.235267 30.509159 1.079889 1.563085 0.082998 -0.024628 412445.000000 0 0 1
15.632382 26.575500 -0.657133 30.839267 1.039080 1.592106 0.082612 -0.025498 573871.000000 0 0 1
15.514782 26.984000 -1.997233 31.190281 1.048990 1.634874 0.072770 -0.017771 -535409.000000 0 0 1
16.673582 26.707200 -2.723533 31.602223 1.012693 1.657085 0.060014 -0.014318 -396138.000000 0 0 1
16.578082 27.126900 -4.206633 32.068633 1.022233 1.702351 0.061098 -0.016448 333186.000000 0 0 1
15.484482 26.513100 -4.952033 31.100422 1.042201 1.730704 0.089678 -0.026449 665648.000000 0 0 1
15.479982 27.046700 -6.272633 31.788358 1.050961 1.769425 0.092811 -0.029860 529426.000000 0 0 1
14.151282 26.674400 -6.993633 30.995052 1.083032 1.798393 0.117729 -0.040498 521435.000000 0 0 1
13.880282 25.245300 -7.070533 29.664454 1.068094 1.811463 0.093602 -0.042804 -782470.000000 0 0 1
12.599382 25.139200 -7.615533 29.132801 1.106201 1.835276 0.086195 -0.038370 -266924.000000 0 0 1
12.221382 23.728100 -8.243433 27.934550 1.095174 1.870355 0.084008 -0.031137 124909.000000 0 0 1
12.954782 23.380300 -9.392733 28.331753 1.064819 1.908718 0.075534 -0.031579 209548.000000 0 0 1
12.422282 22.134700 -9.881333 27.237818 1.059385 1.942046 0.074420 -0.023140 190263.000000 0 0 1
13.019882 21.670300 -11.250333 27.671090 1.029776 1.989497 0.081111 -0.021116 -55947.200000 0 0 1
12.429982 20.484200 -11.714233 26.670773 1.025386 2.025522 0.081812 -0.019998 -245794.000000 0 0 1
12.683282 20.178400 -13.081333 27.187400 1.009643 2.072767 0.086788 -0.020094 -66518.100000 0 0 1
14.048882 19.519700 -13.333433 27.498549 0.946952 2.077020 0.059701 -0.016478 173683.000000 0 0 1
15.156682 20.370200 -13.108033 28.574299 0.931107 2.047367 0.048844 -0.010909 -796301.000000 0 0 1
16.344782 19.967700 -13.697233 29.214296 0.884840 2.058789 0.057367 -0.005212 -395992.000000 0 0 1
17.425182 21.048900 -13.426733 30.446187 0.879307 2.027508 0.061720 -0.004894 -330814.000000 0 0 1
17.454382 22.326100 -14.114833 31.659733 0.907256 2.032897 0.059904 -0.006488 -392959.000000 0 0 1
16.276982 23.089400 -14.164033 31.601904 0.956753 2.035549 0.054881 -0.005848 -359643.000000 0 0 1
16.558682 24.427400 -14.831533 33.028202 0.975075 2.036506 0.074202 -0.007794 27328.400000 0 0 1
16.692582 24.312500 -16.252833 33.673350 0.969131 2.074488 0.074968 -0.012323 -298156.000000 0 0 1
15.536782 24.589100 -17.003233 33.691621 1.007282 2.099799 0.046824 -0.005267 -525669.000000 0 0 1
15.791982 24.524900 -18.503533 34.543279 0.998710 2.136088 0.060453 0.000274 169625.000000 0 0 1
16.155282 23.227000 -19.004833 34.083285 0.963071 2.162288 0.058543 0.002536 -81048.900000 0 0 1
16.419382 23.240600 -20.373233 34.997002 0.955724 2.192157 0.046336 0.005524 -224957.000000 0 0 1
16.725782 21.846800 -20.937933 34.575012 0.917389 2.221291 0.056962 0.005169 386553.000000 0 0 1
15.653082 20.911400 -20.816433 33.401040 0.928228 2.243659 0.058737 0.005427 382935.000000 0 0 1
16.067082 19.742700 -21.516633 33.330028 0.887683 2.272557 0.050015 0.003774 236017.000000 0 0 1
14.995282 18.621700 -21.575033 32.204164 0.892857 2.304932 0.048981 0.003665 -511342.000000 0 0 1
14.673882 17.986100 -20.378833 30.888823 0.886468 2.291279 0.049709 0.001296 420340.000000 0 0 1
13.830082 16.828900 -20.606233 29.984994 0.882900 2.328449 0.041818 -0.007700 -308434.000000 0 0 1
12.354482 17.063400 -20.864233 29.649773 0.944122 2.351373 0.054009 -0.016103 -1379160.000000 0 0 1
11.668882 17.343300 -19.664033 28.698903 0.978547 2.325653 0.052598 -0.019386 -38511.800000 0 0 1
10.280882 17.211900 -19.910133 28.255254 1.032355 2.352729 0.065354 -0.021688 -309594.000000 0 0 1
9.474482 16.661600 -18.783733 26.836604 1.053754 2.346095 0.084973 -0.030344 -677437.000000 0 0 1
9.100582 15.241300 -18.981533 25.988774 1.032512 2.389666 0.098324 -0.038249 1120890.000000 0 0 1
7.718582 14.949200 -18.699233 25.153854 1.094178 2.408927 0.109873 -0.036898 1016360.000000 0 0 1
7.104282 15.127500 -17.309533 24.061006 1.131741 2.373737 0.112636 -0.036864 -348942.000000 0 1 0
6.978882 16.420700 -16.854133 24.543960 1.168921 2.327725 0.120544 -0.039897 -181967.000000 0 1 0
6.298482 16.611300 -15.637633 23.667313 1.208376 2.292583 0.108335 -0.045411 -228551.000000 0 1 0
6.395282 18.115000 -15.241233 24.522398 1.231418 2.241482 0.090033 -0.035534 404083.000000 0 1 0
7.682882 18.674300 -14.943333 25.120894 1.180489 2.207884 0.087162 -0.036674 411750.000000 0 0 1
8.159482 19.374800 -16.081633 26.468451 1.172201 2.223803 0.103100 -0.026280 78532.100000 0 0 1
9.375482 20.291300 -15.757633 27.348482 1.137972 2.184843 0.085801 -0.011294 48101.800000 0 0 1
9.143982 21.520100 -15.055433 27.809947 1.169007 2.142860 0.084376 -0.016477 -152894.000000 0 0 1
8.819982 21.441000 -13.734433 26.947044 1.180535 2.105612 0.080820 -0.030246 -55693.000000 0 0 1
8.387982 22.785100 -13.018433 27.549929 1.218058 2.062967 0.079397 -0.028880 111019.000000 0 0 1
7.077982 23.229700 -13.338533 27.706195 1.275037 2.073079 0.064189 -0.021727 60204.300000 0 0 1
6.572382 24.257300 -12.508733 28.072784 1.306204 2.032621 0.054729 -0.022136 -45713.000000 0 0 1
5.922882 23.821400 -11.139733 26.956136 1.327101 1.996821 0.054568 -0.020193 -624840.000000 0 0 1
6.790782 23.352500 -10.144633 26.350855 1.287806 1.965986 0.053520 -0.020313 -625822.000000 0 0 1
6.136182 22.967400 -8.948533 25.401386 1.309725 1.930808 0.063489 -0.029052 -105304.000000 0 0 1
7.077182 22.825300 -7.726333 25.115275 1.270137 1.883503 0.040849 -0.033553 163633.000000 0 0 1
7.660182 24.094700 -7.393933 26.342042 1.262982 1.855309 0.055085 -0.027501 14836.900000 0 0 1
8.625682 23.931300 -6.397733 26.230526 1.224856 1.817186 0.066013 -0.029283 -214934.000000 0 0 1
8.933182 25.127800 -5.489433 27.227595 1.229221 1.773801 0.066656 -0.031687 -41540.400000 0 0 1
9.738082 26.044900 -6.171733 28.482579 1.212994 1.789213 0.073443 -0.033915 -266783.000000 0 0 1
10.126682 27.118300 -5.374433 29.442085 1.213406 1.754368 0.084449 -0.032006 86580.000000 0 0 1
10.337382 28.419300 -6.096933 30.849484 1.221929 1.769741 0.083738 -0.032959 543641.000000 0 0 1
11.393082 28.499600 -7.058433 31.493666 1.190494 1.796839 0.085065 -0.033403 47261.800000 0 0 1
11.377682 29.741600 -7.669033 32.754060 1.205422 1.807130 0.087806 -0.031158 -587119.000000 0 0 1
12.586982 29.873500 -8.568533 33.530253 1.172028 1.829209 0.089205 -0.030220 -48708.400000 0 0 1
13.775682 30.194100 -7.859233 34.106020 1.142767 1.803321 0.085624 -0.026328 -307853.000000 0 0 1
14.826382 30.574400 -8.711233 35.078499 1.119279 1.821758 0.076455 -0.026681 798362.000000 0 0 1
16.146882 30.893800 -7.910533 35.745282 1.089187 1.793947 0.054332 -0.023850 823078.000000 0 0 1
16.913782 29.814600 -7.370933 35.061617 1.054769 1.782604 0.057446 -0.021179 -373120.000000 0 0 1
17.960882 30.382300 -6.648433 35.914886 1.036900 1.756987 0.048671 -0.006910 -205200.000000 0 0 1
19.182482 29.495400 -6.352433 35.753316 0.994172 1.749419 0.042202 -0.008099 -354677.000000 0 0 1
18.941082 28.480700 -5.400433 34.627727 0.983914 1.727392 0.050773 -0.007229 139576.000000 0 0 1
20.079582 27.663500 -5.053133 34.554203 0.942930 1.717560 0.046048 -0.005849 -216816.000000 0 0 1
20.304782 26.408800 -5.904333 33.831494 0.915331 1.746216 0.041497 0.000281 -145287.000000 0 0 1
20.646082 26.703200 -7.219633 34.517310 0.912631 1.781512 0.037220 -0.000398 105038.000000 0 0 1
20.609682 25.614000 -8.062633 33.850288 0.893241 1.811293 0.042502 -0.004595 -890431.000000 0 0 1
21.105082 25.891000 -9.515533 34.732027 0.886885 1.848315 0.044918 -0.009864 -158315.000000 0 0 1
22.495382 25.987000 -9.698833 35.713215 0.857292 1.845826 0.032719 -0.001150 -372976.000000 0 0 1
23.067882 24.694500 -9.667233 35.148270 0.819441 1.849429 0.050011 -0.002211 -611947.000000 0 0 1
24.595782 24.842500 -9.437633 36.210098 0.790389 1.834477 0.023693 0.003074 216303.000000 0 0 1
25.300582 25.262200 -10.585633 37.287448 0.784639 1.858648 0.038711 -0.001687 -143169.000000 0 0 1
26.686682 25.344600 -10.329333 38.225944 0.759610 1.844416 0.036981 0.003962 151840.000000 0 0 1
27.582182 25.474000 -11.560533 39.285459 0.745684 1.869488 0.048491 -0.000596 -153023.000000 0 0 1
27.445682 26.673500 -12.279033 40.193478 0.771131 1.881258 0.045205 -0.001756 78267.900000 0 0 1
28.267382 26.645900 -13.449333 41.108799 0.755879 1.904098 0.050736 -0.007946 265462.000000 0 0 1
28.038582 27.846300 -14.376133 42.050585 0.781958 1.919710 0.057769 -0.013094 225162.000000 0 0 1
28.763882 29.026500 -14.025233 43.204233 0.789942 1.901413 0.064653 -0.022059 171540.000000 0 0 1
28.693282 29.994200 -15.053133 44.153745 0.807561 1.918697 0.071304 -0.021554 54.535900 0 0 1
29.335682 31.377000 -14.668933 45.390262 0.819008 1.899877 0.071081 -0.028211 341419.000000 0 0 1
30.735782 31.506400 -14.516133 46.347164 0.797778 1.889362 0.069792 -0.026330 8928.890000 0 0 1
31.007682 32.838400 -14.243233 47.357222 0.814064 1.876287 0.078611 -0.030435 -264702.000000 0 0 1
15.815882 -31.721755 -27.905640 45.112488 -1.108284 2.237729 0.100536 -0.054887 -225733.000000 0 0 1
16.740282 -32.669055 -27.383570 45.796988 -1.097262 2.211717 0.080860 -0.039276 137202.000000 0 0 1
17.309982 -32.059255 -26.282440 44.924358 -1.075712 2.195723 0.075869 -0.042896 -416232.000000 0 0 1
18.579782 -32.709455 -25.670110 45.541973 -1.054220 2.169604 0.031077 -0.033696 1245730.000000 0 0 1
19.888282 -32.590455 -26.265190 46.341576 -1.022875 2.173381 0.064119 -0.037138 1245400.000000 0 0 1
20.130782 -33.149155 -27.520220 47.554993 -1.025042 2.187934 0.073310 -0.031714 76925.600000 0 0 1
21.634282 -32.990955 -27.917650 48.330533 -0.990380 2.186631 0.079870 -0.027484 519169.000000 0 0 1
22.039382 -31.681755 -28.253150 47.829995 -0.962996 2.202722 0.081263 -0.033108 1382100.000000 0 0 1
23.402882 -31.393655 -27.839980 48.044989 -0.930204 2.188858 0.060758 -0.028442 1209080.000000 0 0 1
23.998482 -30.050755 -28.370050 47.789483 -0.896911 2.206379 0.038222 -0.024845 61484.400000 0 0 1
24.358682 -30.176755 -29.732000 48.866898 -0.891680 2.224875 0.037624 -0.028231 20303.300000 0 0 1
25.120982 -29.071855 -30.193980 48.866276 -0.858173 2.236853 0.027113 -0.028695 172111.000000 0 0 1
25.415782 -29.008855 -31.687940 49.915941 -0.851322 2.258580 0.032115 -0.026520 333021.000000 0 0 1
26.506382 -29.819855 -32.111720 51.214984 -0.844157 2.248491 0.034502 -0.032407 31461.100000 0 0 1
26.633682 -30.001555 -33.544470 52.294147 -0.844794 2.267193 0.030041 -0.031867 -91236.800000 0 0 1
27.860482 -30.921655 -33.783430 53.606672 -0.837428 2.252619 0.024301 -0.032764 -486897.000000 0 0 1
29.034882 -30.187455 -33.760220 53.796461 -0.804858 2.249205 0.027035 -0.033813 -1021380.000000 0 0 1
30.008382 -30.900355 33.426780 54.522331 -0.800042 0.910838 0.023138 -0.015345 884355.000000 0 0 1
31.430182 -30.226255 33.381543 54.916393 -0.765874 0.917432 0.019540 -0.021613 535160.000000 0 0 1
31.428382 -29.216455 32.333834 53.729147 -0.748941 0.925052 0.028493 -0.015186 -503855.000000 0 0 1
32.684482 -28.645755 32.207619 54.094227 -0.719641 0.933035 0.023084 -0.022884 -910939.000000 0 0 1
32.735982 -27.506655 31.144277 52.898266 -0.698811 0.941275 0.035109 -0.029735 -1488540.000000 0 0 1
33.999582 -27.065155 30.871107 53.305904 -0.672324 0.953134 0.022643 -0.031352 -1060470.000000 0 0 1
34.073782 -26.118355 29.796377 52.259116 -0.653993 0.964088 0.042599 -0.027552 -493233.000000 0 0 1
34.717382 -26.588255 28.503497 52.198479 -0.653567 0.993143 0.037766 -0.016449 -139485.000000 0 0 1
33.987182 -27.489255 27.684107 51.741641 -0.680091 1.006235 0.025353 -0.028171 80598.400000 0 0 1
32.751282 -27.045255 27.182137 50.427778 -0.690262 1.001510 0.048900 -0.031358 -426846.000000 0 0 1
32.110582 -28.136555 26.275147 50.131213 -0.719531 1.019106 0.051563 -0.030080 176404.000000 0 0 1
30.782182 -27.739755 25.966677 48.900972 -0.733457 1.011010 0.070029 -0.025295 321353.000000 0 0 1
30.131382 -28.771855 25.206787 48.693962 -0.762322 1.026686 0.060441 -0.011453 467151.000000 0 0 1
28.798282 -28.400855 24.515287 47.296394 -0.778450 1.025896 0.075818 -0.013906 161351.000000 0 0 1
27.730482 -28.114355 25.390027 46.947311 -0.792272 0.999385 0.074821 -0.016932 -661824.000000 0 0 1
26.558382 -27.958155 24.633977 45.758484 -0.811069 1.002321 0.080603 -0.005091 -532795.000000 0 0 1
25.399882 -27.885455 25.630657 45.603543 -0.832011 0.973956 0.090037 -0.002703 -533484.000000 0 0 1
25.367082 -26.678055 26.414487 45.309299 -0.810582 0.948403 0.075331 -0.005514 134611.000000 0 0 1
24.266782 -26.731455 27.302167 45.264287 -0.833689 0.923324 0.070819 -0.008746 95031.500000 0 0 1
24.179982 -25.447155 28.155817 44.999769 -0.810926 0.894783 0.059598 -0.001249 -607699.000000 0 0 1
23.206482 -25.550255 29.156777 45.182673 -0.833432 0.869369 0.060575 -0.004704 39026.200000 0 0 1
23.031982 -24.389055 29.968687 44.982445 -0.814008 0.841653 0.046754 0.000783 -474902.000000 0 0 1
22.512082 -23.077355 29.382377 43.619746 -0.797797 0.831724 0.053853 -0.008980 -28629.600000 0 0 1
23.522082 -22.525955 28.508407 43.283210 -0.763769 0.851776 0.075502 -0.013258 654291.000000 0 0 1
23.246082 -21.187055 28.064297 42.153012 -0.739091 0.842268 0.081457 -0.014125 -49192.200000 0 0 1
23.891682 -20.091255 28.942847 42.569465 -0.699205 0.823174 0.069994 -0.011294 -267287.000000 0 0 1
23.353682 -19.963655 30.225747 43.099162 -0.707297 0.793567 0.057495 -0.006120 -62349.300000 0 0 1
24.229582 -19.175655 30.978477 43.754365 -0.669484 0.784122 0.062903 -0.011917 -162072.000000 0 0 1
23.674682 -18.902855 32.403284 44.359681 -0.673790 0.751791 0.080146 -0.019872 -95306.500000 0 0 1
23.954082 -19.861355 33.386699 45.639272 -0.692260 0.750227 0.049808 -0.018173 -19373.900000 0 0 1
23.392182 -19.489555 -33.283410 45.109005 -0.694639 2.400667 0.066210 -0.017851 -35246.400000 0 0 1
23.202482 -20.693855 -32.307980 44.837444 -0.728311 2.375403 0.032167 -0.010425 378516.000000 0 0 1
24.406682 -21.059555 -31.641360 45.170418 -0.711913 2.346878 0.029940 -0.009017 209124.000000 0 0 1
24.150282 -22.071555 -30.743370 44.894815 -0.740456 2.325107 0.037731 -0.010279 100462.000000 0 0 1
25.375982 -22.368355 -29.842720 45.109552 -0.722487 2.293695 0.019349 -0.006164 417744.000000 0 0 1
26.408982 -23.042955 -30.523360 46.476743 -0.717436 2.287290 0.006229 -0.004902 -90109.700000 0 0 1
27.501982 -23.423155 -29.696550 46.764177 -0.705474 2.258841 0.012365 -0.014422 773237.000000 0 0 1
28.655082 -24.262755 -30.352690 48.281267 -0.702585 2.250630 0.006542 -0.007192 506208.000000 0 0 1
29.519482 -23.441655 -31.198940 48.931430 -0.671138 2.262182 0.014102 -0.004501 367400.000000 0 0 1
29.195282 -23.367055 -32.561470 49.584605 -0.674967 2.287211 0.017213 -0.001466 -259704.000000 0 0 1
29.588782 -24.624155 -33.333520 50.921200 -0.694076 2.284463 0.019704 -0.009737 -28530.800000 0 0 1
28.628982 -25.656655 -33.211750 50.802587 -0.730699 2.283314 0.023819 -0.016029 -41719.600000 0 0 1
29.119682 -26.844855 -33.717910 52.014417 -0.744773 2.276069 0.028661 -0.021949 82923.600000 0 0 1
28.704782 -27.077555 32.736200 51.271993 -0.756235 0.878273 0.025567 -0.019928 -26149.600000 0 0 1
29.310882 -26.134155 31.893787 50.589875 -0.728166 0.888679 0.025035 -0.024915 -67206.000000 0 0 1
28.825082 -26.260955 30.571107 49.549124 -0.738884 0.905889 0.031071 -0.024819 -613362.000000 0 0 1
29.728582 -25.641855 29.524427 49.122145 -0.711725 0.925993 0.041654 -0.031388 -226091.000000 0 0 1
30.134082 -24.260455 29.585317 48.702398 -0.677833 0.917923 0.042290 -0.033411 331886.000000 0 0 1
30.486782 -23.666555 30.849407 49.408862 -0.660115 0.896472 0.034388 -0.023740 -924592.000000 0 0 1
31.143682 -22.279355 30.727637 49.096703 -0.620969 0.894563 0.034792 -0.021684 891604.000000 0 0 1
32.459582 -22.202955 30.166527 49.564251 -0.599919 0.916457 0.047874 -0.026623 958072.000000 0 0 1
33.498982 -22.600855 31.048977 50.960960 -0.593525 0.915657 0.042419 -0.030071 -158668.000000 0 0 1
34.953482 -22.208155 30.711957 51.557466 -0.566017 0.932679 0.036049 -0.036856 272290.000000 0 0 1
35.404882 -22.709055 29.403407 51.320241 -0.570313 0.960708 0.053010 -0.047384 -282504.000000 0 0 1
36.702182 -22.226455 29.227667 51.916490 -0.544519 0.972816 0.031806 -0.044528 -515732.000000 0 0 1
-36.929687 -22.404355 27.757607 51.344344 0.545314 0.999626 0.043618 -0.035032 -266939.000000 0 0 1
-36.725687 -23.792955 27.466027 51.664915 0.574867 1.010286 0.042872 -0.030950 147612.000000 0 0 1
-36.296187 -23.865955 26.130977 50.693441 0.581653 1.029240 0.030089 -0.015464 -462305.000000 0 0 1
-36.007887 -25.277755 25.620057 50.910904 0.612071 1.043460 0.030606 -0.020854 140247.000000 0 0 1
36.906982 -26.085955 25.545347 51.914999 -0.615277 1.056341 0.041060 -0.017860 483708.000000 0 0 1
37.013882 -27.450155 25.143107 52.494898 -0.638115 1.071323 0.032551 -0.005602 323319.000000 0 0 1
-36.322287 -28.256855 26.294137 53.001321 0.661149 1.051691 0.033011 -0.008944 -122532.000000 0 0 1
-36.142087 -29.626155 25.837507 53.399778 0.686646 1.065747 0.041787 -0.004802 722943.000000 0 0 1
-35.081187 -30.394355 26.452137 53.424920 0.713939 1.052815 0.044688 -0.013362 1411200.000000 0 0 1
-33.625687 -29.856455 26.243707 52.065602 0.726093 1.042514 0.035070 -0.008178 -222323.000000 0 0 1
-33.289487 -29.728255 24.902157 51.108478 0.728947 1.061869 0.035182 -0.010658 -422707.000000 0 0 1
-31.983787 -29.221155 24.831817 49.934534 0.740291 1.050327 0.016597 -0.002788 -116976.000000 0 0 1
-31.386087 -29.299555 23.379797 48.889317 0.751029 1.072171 0.022480 -0.004269 -197342.000000 0 0 1
-31.151087 -30.580255 22.832967 49.263441 0.776151 1.088870 0.037293 -0.012420 355544.000000 0 0 1
-30.740487 -30.589855 21.476967 48.393975 0.782942 1.110968 0.041644 -0.006953 -483874.000000 0 0 1
-30.906287 -31.923655 20.766767 49.046681 0.801589 1.133592 0.067041 -0.010853 -414931.000000 0 0 1
-30.090887 -32.994555 21.043567 49.365310 0.831393 1.130417 0.090403 -0.027480 -496198.000000 0 0 1
-28.758887 -32.920555 20.586267 48.318018 0.852769 1.130666 0.102829 -0.025488 -18868.500000 0 0 1
-28.005987 33.792700 20.730767 48.539124 -0.878764 1.129520 0.102368 -0.024462 -116839.000000 0 0 1
-28.285787 32.796200 19.805367 47.622779 -0.859106 1.141886 0.104830 -0.017691 -28650.500000 0 0 1
-29.286287 31.854400 20.195167 47.751798 -0.827377 1.134132 0.116931 -0.022226 179659.000000 0 0 1
-28.972187 30.825600 21.369267 47.394628 -0.816383 1.103046 0.116542 -0.026737 -111688.000000 0 0 1
-27.963287 29.907900 21.046067 46.036560 -0.818988 1.095997 0.098112 -0.025425 -318464.000000 0 0 1
-27.700287 28.920400 22.048567 45.714710 -0.806944 1.067509 0.096166 -0.025258 -135818.000000 0 0 1
-26.662587 27.826100 21.679867 44.217666 -0.806748 1.058364 0.090772 -0.030660 -777141.000000 0 0 1
-25.420287 28.419400 21.612767 43.828815 -0.841045 1.055126 0.093443 -0.025198 -1034530.000000 0 0 1
-24.549587 27.654800 20.754767 42.405548 -0.844810 1.059354 0.084380 -0.020863 -654121.000000 0 0 1
-23.132987 28.137500 20.937667 42.014758 -0.882700 1.049112 0.063825 -0.017547 -1029390.000000 0 0 1
-22.650787 28.020500 22.292767 42.369494 -0.890976 1.016728 0.068652 -0.022481 -193426.000000 0 0 1
-21.542087 28.817000 22.536867 42.454580 -0.928866 1.011197 0.071564 -0.016053 -507858.000000 0 0 1
-21.173487 28.840900 24.059747 43.115954 -0.937518 0.978793 0.061583 -0.007494 -268594.000000 0 0 1
-20.786987 27.554300 24.522277 42.340056 -0.924485 0.953081 0.074115 -0.027502 229259.000000 0 0 1
-20.481387 27.606900 25.921647 43.052990 -0.932503 0.924684 0.077009 -0.027610 -278146.000000 0 0 1
-19.067687 27.982000 26.387487 42.928644 -0.972645 0.908813 0.092320 -0.020641 -696529.000000 0 0 1
-18.491487 29.240200 26.086827 43.329516 -1.006894 0.924722 0.070002 -0.016428 582913.000000 0 0 1
-17.204187 29.493000 26.645567 43.310592 -1.042723 0.908131 0.086839 -0.021917 335108.000000 0 0 1
-17.028287 29.649900 28.203707 44.322999 -1.049479 0.881075 0.083481 -0.015820 -519547.000000 0 0 1
-17.434087 28.483500 28.829797 44.118186 -1.021544 0.858640 0.077084 -0.010468 181449.000000 0 0 1
-17.666387 28.712900 30.193407 45.256753 -1.019219 0.840409 0.077749 -0.004637 -276845.000000 0 0 1
-17.292987 27.463700 30.976027 44.864423 -1.008848 0.808704 0.061944 0.003131 -554093.000000 0 0 1
-15.930687 27.115900 31.046577 44.192180 -1.039616 0.791842 0.058778 0.007907 90900.600000 0 0 1
-15.673987 25.892600 31.721787 43.844867 -1.026455 0.761936 0.055091 0.001836 -230255.000000 0 0 1
-15.854087 25.997400 33.280751 45.109038 -1.023178 0.741014 0.062416 0.004047 -843936.000000 0 0 1
-17.167587 25.852900 33.710565 45.820309 -0.984608 0.744079 0.063008 0.004527 -856746.000000 0 0 1
-17.583187 26.823300 -33.301780 46.234905 -0.990551 2.374993 0.068286 0.001372 -667175.000000 0 0 1
-18.857487 26.472000 -32.584070 46.022747 -0.951826 2.357457 0.036906 0.003312 275753.000000 0 0 1
-20.022487 26.386100 -33.437430 47.065784 -0.921670 2.360920 0.022874 0.005911 -131154.000000 0 0 1
-21.141987 25.888300 -32.807520 46.835041 -0.885978 2.346881 0.034046 0.000883 -324118.000000 0 0 1
-22.333687 25.849900 -33.818870 48.070021 -0.858244 2.351154 0.083844 -0.020457 -264819.000000 0 0 1
-22.329187 24.891000 33.081057 47.037334 -0.839598 0.790776 0.092602 -0.021222 -16394.700000 0 0 1
-22.674587 23.513300 33.318434 46.659728 -0.803555 0.775498 0.087952 -0.023774 -47306.800000 0 0 1
-22.935187 22.716200 32.021198 45.468733 -0.780601 0.789435 0.098693 -0.023480 -235130.000000 0 0 1
-24.277087 22.829100 31.618537 45.937748 -0.754669 0.811666 0.116525 -0.029085 -465090.000000 0 0 1
-24.557787 22.360100 30.343507 44.986525 -0.738591 0.830506 0.120521 -0.025200 896136.000000 0 0 1
-26.077687 22.010100 30.168097 45.547825 -0.701012 0.846860 0.118722 -0.027126 742850.000000 0 0 1
-26.443387 20.777000 30.662417 45.509562 -0.665970 0.831514 0.118753 -0.034238 1007940.000000 0 0 1
-27.820687 20.531800 30.256677 45.945750 -0.635780 0.851932 0.117375 -0.035294 1220270.000000 0 0 1
-28.339487 19.152200 30.782057 46.015957 -0.594308 0.838010 0.136532 -0.042643 -811366.000000 0 0 1
-28.986187 19.293800 32.008563 47.296912 -0.587278 0.827446 0.133483 -0.037139 -68450.500000 0 0 1
-29.238087 18.027800 32.612456 47.364962 -0.552526 0.811329 0.111981 -0.027633 440619.000000 0 0 1
-30.268487 17.065100 31.911741 47.177942 -0.513370 0.827916 0.083261 -0.027057 -732703.000000 0 0 1
-31.592187 17.440200 31.900477 48.165001 -0.504409 0.846890 0.089799 -0.029366 -703276.000000 0 0 1
-32.455587 16.594300 31.178437 47.966977 -0.472641 0.863215 0.096791 -0.012493 -14366.800000 0 0 1
-33.964987 16.855800 31.275907 49.152016 -0.460659 0.881091 0.072391 -0.013141 -471230.000000 0 0 1
-34.446887 16.731600 32.580230 50.279279 -0.452160 0.865860 0.089999 -0.015622 1352820.000000 0 0 1
-35.886887 16.886600 32.551335 51.309018 -0.439812 0.883542 0.087645 -0.016280 1158160.000000 0 0 1
-36.567887 17.062100 33.945897 52.731865 -0.436562 0.871414 0.089695 -0.016196 -696830.000000 0 0 1
36.227682 17.493200 33.835683 52.567199 0.449849 0.871518 0.061157 -0.011766 -761561.000000 0 0 1
35.744682 17.967900 -32.844810 51.762045 0.465784 2.258203 0.052478 -0.019235 267581.000000 0 0 1
34.215082 18.187600 -32.811090 50.774287 0.488581 2.273410 0.036367 -0.013904 227690.000000 0 0 1
33.483382 17.013800 -32.723820 49.814201 0.470128 2.287519 0.035947 0.003809 345435.000000 0 0 1
32.146982 17.055300 -32.212180 48.599756 0.487781 2.295355 0.023100 0.004619 594832.000000 0 0 1
31.478382 15.664700 -32.308070 47.750212 0.461753 2.313940 0.008019 0.014368 -388966.000000 0 0 1
30.839682 15.471900 -33.528690 48.110692 0.464997 2.341872 0.022912 0.006008 -316724.000000 0 0 1
30.231682 14.206400 -33.735190 47.474619 0.439293 2.361139 0.022553 0.000059 -599574.000000 0 0 1
31.120282 12.953800 -33.788950 47.728042 0.394436 2.357384 0.022561 -0.001523 -202727.000000 0 0 1
31.675482 12.489000 -32.590420 47.132226 0.375565 2.334315 0.019153 0.004526 -431510.000000 0 0 1
32.720182 11.616000 -32.834740 47.787675 0.341131 2.328281 0.049207 -0.002914 -585797.000000 0 0 1
17.807182 -20.743900 9.736320 29.020700 -0.861429 1.228665 0.032115 -0.020220 -203143.000000 0 0 1
17.585482 -21.975500 10.378020 29.997918 -0.895914 1.217537 0.031961 -0.020076 1110590.000000 0 0 1
18.838182 -22.631900 10.735220 31.342063 -0.876625 1.221201 0.027449 -0.018146 852673.000000 0 0 1
18.716682 -23.876500 11.553520 32.463599 -0.905953 1.206928 0.032846 -0.016135 -35543.300000 0 0 1
18.094582 -25.000700 10.952320 32.747553 -0.944299 1.229778 0.040491 -0.016163 1362940.000000 0 0 1
16.695482 -25.138050 11.351220 32.241446 -0.984537 1.211015 0.053045 -0.012462 1140210.000000 0 0 1
15.967282 -26.116650 10.463920 32.350071 -1.022049 1.241414 0.083799 -0.006624 -346113.000000 0 0 1
15.654782 -25.618250 9.166120 31.390838 -1.022270 1.274479 0.082394 -0.017780 64364.400000 0 0 1
15.009482 -26.604420 8.401220 31.680597 -1.057137 1.302401 0.097029 -0.013923 -208878.000000 0 0 1
14.645582 -26.109250 7.029620 30.750635 -1.059597 1.340156 0.097450 -0.023551 21114.900000 0 0 1
13.548082 -25.205470 7.015520 29.463261 -1.077596 1.330376 0.093248 -0.032980 316885.000000 0 0 1
13.322882 -24.603600 5.708920 28.555701 -1.074501 1.369518 0.098624 -0.023962 339543.000000 0 0 1
12.741882 -23.133800 5.752420 27.029957 -1.067346 1.356340 0.100420 -0.024760 -67146.400000 0 0 1
12.048682 -22.677900 4.656920 26.098751 -1.082426 1.391401 0.091109 -0.024222 -44640.000000 0 0 1
11.334282 -21.488700 4.979320 24.799673 -1.085428 1.368641 0.087883 -0.026466 -32474.200000 0 1 0
10.475982 -20.854100 3.901520 23.661393 -1.105273 1.405150 0.069385 -0.020222 -444333.000000 0 1 0
11.213982 -20.305500 2.878620 23.374199 -1.066217 1.447329 0.056687 -0.018394 -586032.000000 0 1 0
10.378582 -19.750300 1.909420 22.392749 -1.086965 1.485423 0.044755 -0.000964 -425118.000000 0 1 0
11.146982 -19.127800 0.781020 22.152605 -1.043147 1.535533 0.043924 -0.000679 -122325.000000 0 1 0
11.944582 -17.993100 1.043020 21.622039 -0.984752 1.522539 0.042272 -0.000937 134.741000 0 1 0
12.685882 -17.647300 -0.125380 21.734179 -0.947527 1.576565 0.056470 -0.011167 -474279.000000 0 1 0
13.870782 -16.748500 0.160120 21.747103 -0.879107 1.563433 0.050534 -0.002690 -188444.000000 0 1 0
14.939182 -17.496700 0.707520 23.017694 -0.864084 1.540053 0.057833 -0.009424 730598.000000 0 1 0
16.226082 -16.856300 0.673820 23.406722 -0.804446 1.542005 0.063285 -0.014150 1369890.000000 0 1 0
17.395682 -17.538600 1.453020 24.745171 -0.789489 1.512043 0.058914 -0.010235 460600.000000 0 1 0
17.871082 -18.644400 0.733120 25.836538 -0.806573 1.542417 0.075499 -0.022772 22418.000000 0 0 1
19.104982 -19.148400 1.200920 27.075889 -0.786533 1.526428 0.079314 -0.016216 318853.000000 0 0 1
19.551182 -20.418000 0.565220 28.274775 -0.807082 1.550805 0.067346 -0.019756 -202260.000000 0 0 1
18.624382 -21.385600 0.943320 28.374308 -0.854302 1.537545 0.066789 -0.016038 -161915.000000 0 0 1
18.626182 -22.628300 0.202720 29.308970 -0.882106 1.563880 0.067311 -0.017134 22277.200000 0 0 1
17.450982 -23.582900 0.563620 29.342931 -0.933736 1.551587 0.068907 -0.012893 -15250.400000 0 0 1
17.499482 -24.184800 1.804120 29.906375 -0.944424 1.510434 0.070024 -0.012635 -194572.000000 0 0 1
16.588982 -25.239500 1.990220 30.268592 -0.989332 1.504997 0.072599 -0.013006 -702773.000000 0 0 1
16.695682 -25.822630 3.448220 30.942596 -0.996849 1.459125 0.080066 -0.020014 1019880.000000 0 0 1
17.816982 -26.719840 3.669820 32.324329 -0.982696 1.457020 0.084223 -0.016938 1266790.000000 0 0 1
19.074682 -26.021140 3.722420 32.477679 -0.938235 1.455929 0.069536 -0.006977 246998.000000 0 0 1
20.297482 -26.983750 3.860020 33.985442 -0.925881 1.456972 0.072824 -0.003441 270274.000000 0 0 1
20.684482 -27.575130 2.660720 34.573328 -0.927222 1.493761 0.073154 -0.007251 204814.000000 0 0 1
21.790782 -28.475690 2.765120 35.963161 -0.917612 1.493833 0.073793 -0.008062 333012.000000 0 0 1
21.410682 -29.988070 2.958520 36.965585 -0.950754 1.490676 0.080038 -0.009483 85908.800000 0 0 1
20.778782 -30.291540 4.200720 36.972709 -0.969556 1.456934 0.091983 -0.015764 30433.400000 0 0 1
20.245082 -31.586340 4.149520 37.746241 -1.000814 1.460642 0.071493 -0.030271 -206564.000000 0 0 1
19.853682 -32.094980 5.565420 38.147481 -1.016819 1.424382 0.076152 -0.032620 56735.000000 0 0 1
20.875582 -32.779740 6.254020 39.362597 -1.003725 1.411238 0.065371 -0.027730 442947.000000 0 0 1
20.309382 -33.291170 7.475820 39.707189 -1.023018 1.381392 0.064752 -0.026914 389161.000000 0 0 1
21.327682 33.832544 8.157920 40.817431 1.008331 1.369578 0.064690 -0.034266 1211230.000000 0 0 1
22.425882 -33.429230 8.733320 41.191073 -0.979906 1.357155 0.058141 -0.023346 1391880.000000 0 0 1
23.534482 33.790632 9.067220 42.165070 0.962437 1.354062 0.068116 -0.030745 -326312.000000 0 0 1
24.484482 -33.528230 9.907320 42.682397 -0.940046 1.336543 0.054748 -0.027665 -1028990.000000 0 0 1
25.145682 -32.437840 9.314220 42.086500 -0.911364 1.347637 0.046174 -0.024845 -105155.000000 0 0 1
26.299782 -32.029880 10.007220 42.634917 -0.883320 1.333867 0.044076 -0.020271 -5976.990000 0 0 1
27.078582 -30.974500 9.213220 42.161032 -0.852407 1.350494 0.045292 -0.022390 2938.040000 0 0 1
26.452282 -29.701030 9.210120 40.825246 -0.843189 1.343239 0.043086 -0.021027 -6986.930000 0 0 1
27.083182 -28.904490 8.241020 40.458407 -0.817917 1.365670 0.056084 -0.017193 89681.900000 0 0 1
26.572282 -27.410010 8.327320 39.073508 -0.800915 1.356030 0.040781 -0.004829 193574.000000 0 0 1
27.023882 -26.771830 9.528420 39.214944 -0.780713 1.325360 0.043604 -0.025649 -53443.500000 0 0 1
26.663182 -25.424340 9.579220 38.066833 -0.761619 1.316420 0.043454 -0.022121 -211491.000000 0 0 1
27.550682 -24.596900 10.503520 38.397545 -0.728816 1.293718 0.035404 -0.028671 267938.000000 0 0 1
28.844082 -24.331300 9.975620 39.032118 -0.700735 1.312354 0.039433 -0.022304 -365859.000000 0 0 1
29.614982 -23.587100 10.889420 39.395151 -0.672578 1.290734 0.042368 -0.030253 114444.000000 0 0 1
31.037482 -23.400900 10.311920 40.215210 -0.646028 1.311481 0.056320 -0.031351 48238.600000 0 0 1
31.084682 -22.606500 9.111820 39.501095 -0.628785 1.338027 0.054221 -0.030260 -476190.000000 0 0 1
32.371382 -22.280500 8.649820 40.238618 -0.602815 1.354142 0.049930 -0.038028 -376823.000000 0 0 1
32.243682 -21.650200 7.207220 39.501015 -0.591311 1.387312 0.056463 -0.018414 -356050.000000 0 0 1
31.620482 -20.358500 7.259420 38.301731 -0.572032 1.380110 0.059019 -0.013753 137607.000000 0 0 1
31.948582 -19.583400 6.101120 37.966368 -0.549899 1.409399 0.050932 -0.013587 215602.000000 0 0 1
31.440182 -18.124800 6.225620 36.820534 -0.522950 1.400900 0.065423 -0.018739 289890.000000 0 0 1
32.280682 -17.482500 7.188620 37.407973 -0.496354 1.377425 0.075102 -0.020613 360961.000000 0 0 1
31.915982 -16.134700 7.375220 36.515097 -0.468067 1.367420 0.076294 -0.019491 -233601.000000 0 0 1
32.674582 -15.413800 8.483520 37.110425 -0.440782 1.340155 0.080032 -0.037718 277851.000000 0 0 1
34.093682 -15.401800 8.269920 38.314307 -0.424308 1.353240 0.080856 -0.029365 288499.000000 0 0 1
34.580882 -14.928600 9.539020 38.854773 -0.407533 1.322756 0.079006 -0.036362 -542225.000000 0 0 1
36.103082 -15.017000 9.508520 40.241207 -0.394179 1.332252 0.072073 -0.045274 -446616.000000 0 0 1
36.755082 -13.925600 8.824120 40.283042 -0.362164 1.349953 0.086005 -0.029075 -656478.000000 0 0 1
-35.996687 -14.212500 8.812120 39.691436 0.376040 1.346915 0.085640 -0.030593 -686991.000000 0 0 1
-35.155587 -13.172900 8.083420 38.402894 0.358510 1.358720 0.094394 -0.031732 -370651.000000 0 0 1
-35.355587 -13.041300 6.683320 38.272180 0.353378 1.395270 0.116706 -0.036157 -417866.000000 0 0 1
-34.269387 -12.461400 6.025020 36.959143 0.348766 1.407047 0.095387 -0.022613 668466.000000 0 0 1
-33.191287 -13.535300 5.488820 36.262832 0.387210 1.418850 0.069689 -0.020330 512742.000000 0 0 1
-32.493187 -14.140800 6.562520 36.039368 0.410472 1.387682 0.094265 -0.018254 100631.000000 0 0 1
-31.636087 -15.157000 6.017320 35.591920 0.446792 1.400916 0.093627 -0.006985 183127.000000 0 0 1
-31.024887 -15.944100 7.181320 35.613611 0.474716 1.367759 0.084874 -0.026682 73411.800000 0 0 1
-31.999887 -16.692000 7.901720 36.946621 0.480799 1.355263 0.079308 -0.030120 96295.700000 0 0 1
-31.749187 -16.833100 9.266820 37.111158 0.487507 1.318421 0.059906 -0.031725 -83834.800000 0 0 1
-32.806187 -17.733100 9.947920 38.596241 0.495552 1.310111 0.027900 -0.035976 -53668.900000 0 0 1
-34.105087 -17.116500 9.925720 39.429068 0.465147 1.316323 0.058930 -0.027872 1029510.000000 0 0 1
-35.116087 -17.796800 10.686720 40.793034 0.469072 1.305729 0.085721 -0.044937 231576.000000 0 0 1
-35.537187 -19.214800 10.371520 41.709335 0.495672 1.319498 0.091122 -0.037694 -680724.000000 0 0 1
-34.542587 -20.251300 10.590420 41.418142 0.530263 1.312230 0.088048 -0.027716 7556.200000 0 0 1
-34.230987 -20.522400 11.953720 41.663183 0.540072 1.279793 0.084635 -0.051621 -546901.000000 0 0 1
-35.372187 -21.124000 12.827420 43.150408 0.538353 1.268962 0.113119 -0.063877 -186477.000000 0 0 1
-35.607387 -22.503400 12.634220 43.976272 0.563608 1.279393 0.120243 -0.066161 284232.000000 0 0 1
-36.496987 -22.699000 11.521020 44.497287 0.556397 1.308897 0.110263 -0.050389 -24372.300000 0 0 1
37.047582 -24.188200 11.584620 45.736154 -0.578408 1.314714 0.114317 -0.042598 597494.000000 0 0 1
36.238582 -24.409100 12.776420 45.522257 -0.592764 1.286311 0.174985 -0.039054 668982.000000 0 0 1
35.561482 -25.682780 12.801720 45.695823 -0.625476 1.286845 0.127958 -0.033431 178521.000000 0 0 1
34.377782 -25.709870 13.813420 45.095896 -0.642132 1.259480 0.140047 -0.032994 123408.000000 0 0 1
33.417982 -24.786300 13.295120 43.679313 -0.638171 1.261509 0.133125 -0.036390 -32808.400000 0 0 1
32.517282 -24.415100 14.338420 43.116830 -0.644035 1.231792 0.102673 -0.016037 -464932.000000 0 0 1
32.454882 -22.942900 14.717220 42.382692 -0.615353 1.216164 0.124888 -0.019377 614690.000000 0 0 1
33.615082 -22.369000 15.362220 43.201200 -0.587157 1.207244 0.132395 -0.023037 569997.000000 0 0 1
34.636382 -22.017800 14.441520 43.508849 -0.566245 1.232457 0.123399 -0.039285 -853117.000000 0 0 1
35.931682 -21.662900 15.129320 44.601158 -0.542543 1.224716 0.117246 -0.044288 -1035320.000000 0 0 1
35.985582 -20.407700 15.796620 44.282835 -0.515883 1.206041 0.115163 -0.032546 97745.400000 0 0 1
35.255982 -20.279200 17.004720 44.083905 -0.521984 1.174792 0.105719 -0.029064 -23477.100000 0 0 1
35.514982 -18.841900 17.619620 43.895126 -0.487775 1.157749 0.077173 -0.022895 -140470.000000 0 0 1
34.932282 -17.788700 16.861220 42.673210 -0.471007 1.164593 0.085535 -0.027429 254468.000000 0 0 1
34.764482 -16.558300 17.526620 42.307551 -0.444508 1.143659 0.073955 -0.024077 863009.000000 0 0 1
36.089782 -15.829400 18.032620 43.338408 -0.413343 1.141657 0.061410 -0.028044 959444.000000 0 0 1
36.633782 -16.286300 19.294420 44.492158 -0.418330 1.122247 0.048920 -0.009790 -209037.000000 0 0 1
-36.385087 -15.478400 19.566220 44.116804 0.402214 1.111286 0.022770 -0.011651 -615980.000000 0 0 1
-35.896987 -15.382900 21.027720 44.355296 0.404856 1.076884 0.015099 -0.003071 -79518.400000 0 0 1
-35.155187 -16.475000 21.537720 44.398042 0.438243 1.064313 0.009656 -0.001155 159227.000000 0 0 1
-35.000287 -16.377200 22.933420 44.935226 0.437653 1.035186 0.015185 -0.003355 205391.000000 0 0 1
-34.099087 -17.556400 23.428120 44.942760 0.475468 1.022437 0.019524 -0.001230 -52353.900000 0 0 1
-34.767287 -18.841000 23.576120 46.038907 0.496617 1.033179 0.022020 -0.002917 379331.000000 0 0 1
-33.909387 -19.932500 23.792820 45.970092 0.531413 1.026786 0.016403 -0.003721 31214.500000 0 0 1
-32.825587 -20.354000 22.751920 44.826937 0.555043 1.038457 0.012762 -0.001252 1597040.000000 0 0 1
-31.678287 -19.459000 22.583920 43.499425 0.550846 1.024908 0.021781 0.000375 1383580.000000 0 0 1
-30.626087 -20.000600 21.800220 42.582048 0.578522 1.033334 0.028931 -0.010129 492531.000000 0 0 1
-29.314287 -19.171200 21.836120 41.275640 0.579174 1.013337 0.045192 -0.013703 49336.700000 0 0 1
-28.713687 -19.218600 23.103520 41.564444 0.589836 0.981413 0.036763 -0.001819 -269044.000000 0 0 1
-27.601687 -18.372700 23.117920 40.420879 0.587289 0.961939 0.066357 -0.011262 -373256.000000 0 0 1
-27.070887 -18.164000 24.570220 40.822292 0.590982 0.924940 0.064883 -0.015752 -602535.000000 0 0 1
-26.038787 -17.211200 24.645720 39.770030 0.584058 0.902428 0.070615 -0.022664 -66325.600000 0 0 1
-25.913787 -16.622900 25.926420 40.249527 0.570355 0.870895 0.055219 -0.024046 589928.000000 0 0 1
-24.648587 -17.194900 26.645320 40.164543 0.609115 0.845437 0.059474 -0.016224 150538.000000 0 0 1
-24.919787 -18.514000 27.097920 41.207538 0.638970 0.853173 0.063033 -0.013194 -429432.000000 0 0 1
-24.053387 -18.946300 28.094220 41.554938 0.667182 0.828375 0.071934 -0.019085 -710662.000000 0 0 1
-24.396687 -20.241200 28.734120 42.784976 0.692572 0.834439 0.066407 -0.015963 -49562.900000 0 0 1
-25.584387 -20.039500 29.487320 43.882165 0.664457 0.833936 0.070049 -0.020949 59430.600000 0 0 1
-25.948787 -21.251300 30.082720 45.054715 0.686202 0.839691 0.071839 -0.022737 -729226.000000 0 0 1
-27.181387 -21.137500 30.953520 46.300562 0.660961 0.838560 0.077746 -0.026829 -869219.000000 0 0 1
-26.973487 -20.329200 32.142220 46.625826 0.645848 0.810184 0.086337 -0.037530 -23939.000000 0 0 1
-27.909887 -20.539100 33.166020 47.966668 0.634421 0.807317 0.106391 -0.034495 455954.000000 0 0 1
-29.283087 -19.783500 33.038420 48.377921 0.594158 0.819039 0.080467 -0.040797 368355.000000 0 0 1
-30.129987 -20.345300 32.063820 48.475106 0.593922 0.848047 0.077443 -0.039325 1126220.000000 0 0 1
-31.463287 -19.798900 32.257320 49.218589 0.561664 0.856099 0.075127 -0.037060 863557.000000 0 0 1
-32.563587 -20.378200 31.376520 49.599841 0.559172 0.885899 0.066226 -0.015296 -373075.000000 0 0 1
-32.475387 -20.030200 30.013220 48.545371 0.552667 0.904281 0.053697 -0.026483 -11900.000000 0 0 1
-33.726187 -20.301200 29.446720 49.159981 0.541846 0.928547 0.048009 -0.029726 -214246.000000 0 0 1
-34.074087 -19.411600 28.206020 48.305622 0.517833 0.947263 0.040226 -0.020637 -599269.000000 0 0 1
-35.387887 -19.600400 27.805820 49.088103 0.505812 0.968608 0.027052 -0.020867 -473498.000000 0 0 1
-35.847987 -18.704800 26.829020 48.525705 0.480920 0.984977 0.032834 -0.013219 407179.000000 0 0 1
37.046782 -19.157200 25.970720 49.131870 -0.477240 1.013855 0.022628 -0.005899 802750.000000 0 0 1
35.858582 -19.545800 26.661320 48.771940 -0.499058 0.992435 0.038432 -0.006958 609900.000000 0 0 1
34.810982 -19.945000 25.785920 47.691940 -0.520293 0.999555 0.080928 -0.010955 -338769.000000 0 0 1
33.592182 -20.368000 26.562820 47.422289 -0.545062 0.976249 0.080845 -0.022289 180069.000000 0 0 1
32.509582 -19.391600 26.678120 46.310141 -0.537834 0.956877 0.068931 -0.027323 1546540.000000 0 0 1
31.349282 -20.000700 27.241420 46.096642 -0.567890 0.938544 0.072882 -0.022645 394503.000000 0 0 1
-30.077508 -5.680800 -33.841250 45.630672 0.186673 2.406299 0.033204 -0.023040 29785.400000 0 0 1
-30.993248 -5.806700 33.014546 45.653691 0.185207 0.762442 0.035660 -0.013492 436983.000000 0 0 1
-30.832118 -4.678700 32.176991 44.809246 0.150599 0.769745 0.042153 -0.010150 -18587.200000 0 0 1
-31.653458 -4.766700 30.861507 44.464542 0.149467 0.803669 0.040567 -0.018471 -262623.000000 0 0 1
-31.305098 -5.739100 29.945517 43.699891 0.181315 0.815844 0.045538 -0.015789 603815.000000 0 0 1
-30.028488 -5.514500 29.318997 42.328754 0.181619 0.805640 0.050201 -0.018659 591023.000000 0 0 1
-29.770538 -6.554400 28.256317 41.565185 0.216707 0.823296 0.051687 -0.020330 11998.100000 0 0 1
-30.542918 -6.287600 27.030367 41.267960 0.203025 0.856618 0.054823 -0.023044 391214.000000 0 0 1
-30.078908 -7.010200 25.903497 40.309736 0.228973 0.872895 0.073159 -0.024760 -189192.000000 0 0 1
-30.713368 -6.586300 24.573347 39.881572 0.211245 0.906941 0.061365 -0.015114 45788.800000 0 0 1
-30.205188 -5.375200 24.118987 39.025270 0.176113 0.904555 0.084360 -0.025068 -339650.000000 0 0 1
-30.929728 -5.004200 23.001237 38.868330 0.160403 0.937539 0.084491 -0.027917 -71261.500000 0 0 1
-30.384018 -3.749000 22.254667 37.848564 0.122767 0.942222 0.094659 -0.029560 -158050.000000 0 0 1
-29.050468 -3.939700 21.868767 36.574498 0.134793 0.929888 0.097063 -0.026233 -389567.000000 0 0 1
-28.523608 -2.674600 21.415167 35.768130 0.093495 0.928892 0.110113 -0.030875 1833740.000000 0 0 1
-27.024908 -2.787800 20.841067 34.241314 0.102793 0.916435 0.109732 -0.027503 1622950.000000 0 0 1
-26.884328 -3.498900 19.559667 33.430375 0.129419 0.945809 0.118131 -0.029858 205705.000000 0 0 1
-25.573928 -3.358400 19.026867 32.051932 0.130574 0.935239 0.099934 -0.026635 104824.000000 0 0 1
-25.393288 -3.871100 17.572567 31.122333 0.151281 0.970813 0.115866 -0.031741 -378761.000000 0 0 1
-26.163848 -3.121400 16.715367 31.204064 0.118741 1.005484 0.131530 -0.027804 -205748.000000 0 0 1
-26.126618 -3.771500 15.395867 30.559076 0.143364 1.042796 0.145957 -0.037361 -154073.000000 0 0 1
-27.482928 -3.909700 14.684967 31.404544 0.141311 1.084215 0.153701 -0.031453 -141257.000000 0 0 1
-28.123618 -2.747700 14.270067 31.656320 0.097392 1.103156 0.151902 -0.032890 -1045840.000000 0 0 1
-29.276018 -3.012300 13.583267 32.413953 0.102532 1.138391 0.135469 -0.029214 -941374.000000 0 0 1
-29.765098 -1.775900 12.756167 32.432001 0.059593 1.166556 0.123561 -0.015839 -410354.000000 0 0 1
-29.075998 -1.580500 11.542367 31.323121 0.054304 1.193408 0.147404 -0.021818 13050.200000 0 0 1
-29.529378 -0.498700 10.839367 31.459892 0.016887 1.219042 0.148062 -0.016895 134357.000000 0 0 1
-30.862548 -0.578300 10.046767 32.461806 0.018736 1.256134 0.145694 -0.014464 382098.000000 0 0 1
-30.732978 -1.297100 8.840667 32.005559 0.042180 1.290934 0.139699 -0.022997 1734.530000 0 0 1
-32.023678 -1.405500 8.288667 33.108812 0.043861 1.317758 0.138562 -0.023168 -28568.100000 0 0 1
-32.034198 -2.196400 6.947467 32.852418 0.068457 1.357712 0.129227 -0.029689 -224720.000000 0 0 1
-31.628538 -1.471000 5.774067 32.184905 0.046475 1.390417 0.144186 -0.035714 386074.000000 0 0 1
-32.551968 -0.530700 5.252467 32.977276 0.016302 1.410840 0.151022 -0.032998 -125286.000000 0 0 1
-32.094578 -0.027300 3.884867 32.328856 0.000851 1.450338 0.183124 -0.029742 -21972.000000 0 0 1
-32.367458 -0.981600 2.861767 32.508547 0.030317 1.482651 0.170353 -0.042265 424104.000000 0 0 1
-31.975728 -0.535600 1.569767 32.018717 0.016749 1.521750 0.164236 -0.042187 -294004.000000 0 0 1
-32.578228 -1.435200 0.492867 32.613551 0.044025 1.555683 0.151175 -0.042562 470607.000000 0 0 1
-33.972478 -1.131300 0.386167 33.993503 0.033288 1.559436 0.162974 -0.039370 649087.000000 0 0 1
-34.560095 -1.659600 -0.802733 34.609231 0.047984 1.593993 0.163940 -0.044828 -389189.000000 0 0 1
-36.059524 -1.375800 -0.907133 36.097161 0.038135 1.595929 0.154964 -0.042692 -462636.000000 0 0 1
-36.873948 -2.318100 -0.257633 36.947639 0.062783 1.577769 0.149279 -0.035102 158116.000000 0 0 1
35.899620 -1.865500 -0.121133 35.948261 -0.051918 1.574166 0.147041 -0.034297 227490.000000 0 0 1
34.968770 -2.830800 0.623967 35.088711 -0.080776 1.553013 0.145336 -0.039504 -328369.000000 0 0 1
35.168030 -2.879100 1.998167 35.342216 -0.081685 1.514228 0.129787 -0.035520 164643.000000 0 0 1
34.380450 -3.908700 2.580567 34.698020 -0.113204 1.496355 0.132685 -0.025919 73059.700000 0 0 1
34.586400 -4.146000 4.088267 35.073100 -0.119304 1.453967 0.118991 -0.015537 35127.300000 0 0 1
33.936830 -3.162100 4.839967 34.425755 -0.092908 1.429738 0.119169 -0.021878 67676.700000 0 0 1
34.185850 -3.295600 6.205267 34.900411 -0.096105 1.392047 0.103496 -0.024622 5582.150000 0 0 1
33.535750 -2.124900 7.019267 34.328295 -0.063278 1.364869 0.104930 -0.020651 1026150.000000 0 0 1
32.107570 -2.242700 7.075367 32.954311 -0.069736 1.354409 0.116675 -0.021756 1063780.000000 0 0 1
31.386600 -1.104300 7.612367 32.315419 -0.035169 1.332997 0.118328 -0.018998 1318280.000000 0 0 1
29.915030 -1.430500 8.058367 31.014394 -0.047782 1.307954 0.124832 -0.018525 1090080.000000 0 0 1
28.872550 -1.401600 7.089067 29.763123 -0.048506 1.330302 0.136608 -0.019476 484172.000000 0 0 1
27.588050 -1.678300 7.604867 28.666203 -0.060759 1.302291 0.142539 -0.013815 129858.000000 0 0 1
27.110050 -3.143200 7.399267 28.276911 -0.115427 1.306042 0.173338 -0.025533 -305103.000000 0 0 1
27.514550 -3.944000 8.498767 29.066039 -0.142373 1.274066 0.152943 -0.026255 397371.000000 0 0 1
27.069450 -5.184900 8.242867 28.767746 -0.189248 1.280192 0.174143 -0.027889 -314305.000000 0 0 1
27.003950 -6.156800 9.463667 29.269105 -0.224165 1.241547 0.167612 -0.037082 -244388.000000 0 0 1
25.954650 -5.943200 10.365167 28.572752 -0.225103 1.199564 0.181930 -0.022906 256127.000000 0 0 1
26.201150 -6.777400 11.498767 29.405018 -0.253120 1.169027 0.159168 -0.017672 678660.000000 0 0 1
25.011250 -6.571300 12.515167 28.729324 -0.256927 1.120066 0.136954 -0.021262 2308000.000000 0 0 1
23.751650 -7.088500 11.944867 27.514861 -0.290027 1.121730 0.150589 -0.024744 1032480.000000 0 0 1
22.655850 -6.890000 12.806267 26.921369 -0.295228 1.075046 0.146614 -0.024838 238358.000000 0 0 1
21.819250 -8.245400 12.848567 26.629908 -0.361307 1.067305 0.134504 -0.020626 326616.000000 0 0 1
22.469650 -9.268500 13.626967 27.865472 -0.391227 1.059822 0.133805 -0.026207 473477.000000 0 0 1
21.741850 -10.487900 13.695167 27.753589 -0.449455 1.054738 0.150409 -0.035688 110114.000000 0 0 1
22.281350 -11.356300 14.884067 29.102570 -0.471360 1.033943 0.132647 -0.032766 -116616.000000 0 0 1
21.970750 -10.828400 16.147167 29.337674 -0.457916 0.987965 0.124772 -0.024118 247079.000000 0 0 1
22.293250 -11.772500 17.165567 30.499795 -0.485854 0.973016 0.110186 -0.026278 -60731.100000 0 0 1
21.987350 -11.291000 18.573067 30.917456 -0.474407 0.926381 0.116726 -0.018428 1105890.000000 0 0 1
20.563050 -11.408100 18.820867 30.119908 -0.506511 0.895838 0.121964 -0.020898 1074600.000000 0 0 1
20.157850 -11.647600 20.164667 30.799664 -0.523951 0.857005 0.113513 -0.018525 201919.000000 0 0 1
20.421350 -10.504200 21.199967 31.253934 -0.475080 0.825331 0.113016 -0.018605 -457951.000000 0 0 1
19.732450 -9.284800 20.986967 30.265986 -0.439799 0.804575 0.099043 -0.017537 9725.780000 0 0 1
20.355950 -8.299400 20.180367 29.841112 -0.387138 0.828122 0.116618 -0.017745 404797.000000 0 0 1
21.495150 -7.404800 20.877367 30.866438 -0.331755 0.827963 0.121309 -0.008968 1597280.000000 0 0 1
22.795350 -7.934600 21.100167 32.059366 -0.334963 0.852425 0.138688 -0.026240 435226.000000 0 0 1
23.613350 -8.043800 19.961667 31.949354 -0.328318 0.895933 0.149592 -0.033167 203234.000000 0 0 1
24.992450 -8.706000 20.318467 33.365508 -0.335200 0.916040 0.159844 -0.039733 545754.000000 0 0 1
24.897350 -10.105700 20.491167 33.791880 -0.385578 0.919279 0.125325 -0.039659 29799.300000 0 0 1
26.120750 -10.730000 20.158567 34.695739 -0.389769 0.950827 0.125025 -0.041211 94006.100000 0 0 1
26.058250 -12.240500 20.120467 35.124001 -0.439145 0.960829 0.103194 -0.035886 219793.000000 0 0 1
25.256750 -12.851100 19.107367 34.178146 -0.470677 0.977554 0.115031 -0.036943 277929.000000 0 0 1
25.288450 -14.255700 19.336167 34.880053 -0.513319 0.983200 0.096327 -0.023183 -29633.500000 0 0 1
24.187350 -14.948200 18.512467 33.929162 -0.553562 0.993666 0.097003 -0.012135 -492334.000000 0 0 1
24.424650 -14.763100 17.120067 33.280766 -0.543674 1.030473 0.089272 -0.012303 252775.000000 0 0 1
23.473150 -15.325900 16.224167 32.389745 -0.578420 1.046153 0.067352 -0.015114 -191974.000000 0 0 1
23.264750 -16.888400 16.301167 33.048369 -0.627912 1.054972 0.042862 -0.016775 1194050.000000 0 0 1
24.483850 -17.676900 16.055967 34.201254 -0.625327 1.082122 0.062182 -0.015749 1366620.000000 0 0 1
24.256450 -18.996900 16.483567 34.942318 -0.664394 1.079537 0.048821 -0.002963 -430518.000000 0 0 1
25.416250 -19.909400 16.121167 36.086868 -0.664496 1.107687 0.054081 0.002162 -346354.000000 0 0 1
25.711950 -20.060100 14.741867 35.788750 -0.662542 1.146243 0.056226 -0.016810 13005.100000 0 0 1
26.587950 -21.155900 14.616767 36.988391 -0.672110 1.164542 0.055586 -0.020744 -369548.000000 0 0 1
27.078750 -21.341400 13.180867 36.911371 -0.667457 1.205640 0.049854 -0.040311 -674225.000000 0 0 1
26.135550 -21.840200 12.277167 36.204836 -0.696105 1.224833 0.062335 -0.035147 -135096.000000 0 0 1
26.179450 -21.132100 11.075667 35.420329 -0.679117 1.252770 0.081108 -0.032502 -202348.000000 0 0 1
24.853550 -21.185800 10.308167 34.246100 -0.705901 1.265052 0.054751 -0.026615 -248205.000000 0 0 1
24.518850 -22.482100 9.800467 34.679504 -0.742091 1.284292 0.046076 -0.024689 -486197.000000 0 0 1
23.140150 -22.580200 9.604967 33.728139 -0.773151 1.282023 0.051012 -0.019734 -322474.000000 0 0 1
22.712350 -23.551600 8.511967 33.808021 -0.803537 1.316284 0.040947 -0.017167 -338190.000000 0 0 1
23.093750 -24.902100 8.769167 35.076120 -0.823058 1.318112 0.027798 -0.010556 112388.000000 0 0 1
22.604950 -25.838200 7.800467 35.205733 -0.852043 1.347374 0.033343 -0.001308 793393.000000 0 0 1
21.084450 -26.200080 7.677567 34.495554 -0.893167 1.346350 0.052083 0.005511 526705.000000 0 0 1
20.295550 -25.074340 7.358167 33.087377 -0.890341 1.346535 0.062786 -0.000913 49628.400000 0 0 1
18.954850 -25.373600 7.792767 32.616455 -0.929198 1.329541 0.072843 -0.010233 701900.000000 0 0 1
18.015050 -24.157700 7.562867 31.069816 -0.930036 1.324911 0.073843 -0.020238 -155986.000000 0 0 1
17.936250 -23.728700 6.233167 30.390996 -0.923537 1.364231 0.086190 -0.024040 417127.000000 0 0 1
17.089050 -22.578300 6.154867 28.977537 -0.922907 1.356765 0.076936 -0.022013 39309.900000 0 0 1
16.675150 -22.123800 4.778867 28.113355 -0.924919 1.399981 0.085820 -0.021853 -332973.000000 0 0 1
15.858050 -20.987300 4.888767 26.755272 -0.923719 1.387042 0.103171 -0.019944 -164218.000000 0 0 1
15.397350 -20.592300 3.632767 25.967638 -0.928754 1.430440 0.095471 -0.016842 155809.000000 0 0 1
14.447850 -19.367300 3.734567 24.449533 -0.929865 1.417450 0.076332 -0.005847 636873.000000 0 1 0
15.181950 -18.197400 4.137567 24.057357 -0.875492 1.397949 0.056364 -0.005069 709295.000000 0 1 0
14.289350 -17.088700 4.059467 22.642625 -0.874376 1.390537 0.023008 0.003442 674978.000000 0 1 0
14.985150 -15.707500 4.354467 22.141402 -0.808929 1.372840 0.005940 -0.004072 -87682.300000 0 1 0
15.703450 -15.678500 5.573167 22.879552 -0.784603 1.324734 0.032364 -0.015467 7691.280000 0 1 0
16.717550 -14.697400 5.590467 22.950891 -0.721181 1.324737 0.049962 -0.021401 172527.000000 0 1 0
18.098150 -15.346200 5.300167 24.313385 -0.703299 1.351038 0.065595 -0.035470 -340064.000000 0 1 0
19.133050 -14.398500 5.362567 24.538695 -0.645129 1.350483 0.102668 -0.032942 -915882.000000 0 1 0
20.372750 -15.001300 5.343167 25.858024 -0.634702 1.362662 0.130877 -0.035524 -400660.000000 0 0 1
21.569350 -14.052100 5.046667 26.232942 -0.577418 1.377210 0.139599 -0.040279 317230.000000 0 0 1
21.760750 -12.964000 5.910467 26.010174 -0.537290 1.341557 0.153768 -0.043827 -238581.000000 0 0 1
22.918850 -12.212500 5.708067 26.589488 -0.489587 1.354438 0.165205 -0.044247 -306918.000000 0 0 1
23.366650 -11.384200 6.926167 26.899296 -0.453354 1.310378 0.181605 -0.045212 -44676.100000 0 0 1
23.725650 -12.262700 7.969967 27.871144 -0.477040 1.280791 0.179495 -0.020641 239985.000000 0 0 1
24.134550 -11.572400 9.142167 28.283850 -0.447110 1.241656 0.193081 -0.046155 -30188.500000 0 0 1
24.500050 -12.442800 10.390067 29.377359 -0.469922 1.209298 0.166942 -0.042262 -289890.000000 0 0 1
23.425650 -13.186200 10.932667 29.019996 -0.512690 1.184534 0.167635 -0.038610 277096.000000 0 0 1
23.843450 -14.050400 11.945667 30.143371 -0.532498 1.163318 0.160950 -0.041359 124380.000000 0 0 1
22.696750 -14.996500 12.383467 29.889593 -0.583884 1.143615 0.132069 -0.045011 552547.000000 0 0 1
21.715550 -14.405600 13.250167 29.234455 -0.585722 1.100402 0.112999 -0.035536 -440192.000000 0 0 1
20.542450 -15.154000 13.179067 28.728449 -0.635577 1.094213 0.083844 -0.033192 -1046610.000000 0 0 1
19.420450 -14.259300 13.687167 27.709566 -0.633339 1.054168 0.079566 -0.033767 -1223080.000000 0 0 1
19.381450 -13.844200 15.046167 28.172498 -0.620260 1.007386 0.081456 -0.035736 -76540.900000 0 0 1
18.692350 -12.676800 15.382567 27.326335 -0.595932 0.972881 0.109873 -0.047648 835781.000000 0 0 1
17.128150 -12.572500 15.244967 26.150532 -0.633199 0.948417 0.113867 -0.052623 485832.000000 0 0 1
16.553650 -12.679000 13.927567 25.075038 -0.653621 0.981910 0.112676 -0.064528 2046460.000000 0 0 1
15.106150 -12.443300 13.951267 24.034753 -0.689040 0.951500 0.128296 -0.060837 1687600.000000 0 1 0
14.497950 -11.042200 14.057667 23.016054 -0.650908 0.913755 0.098034 -0.056822 -587226.000000 0 1 0
14.962250 -10.227300 15.047667 23.556292 -0.599594 0.877864 0.081659 -0.044917 -253094.000000 0 1 0
14.665350 -8.911600 14.794067 22.657307 -0.546035 0.859325 0.075362 -0.039443 -708205.000000 0 1 0
15.318250 -7.891200 15.782367 23.366706 -0.475694 0.829261 0.082391 -0.028373 -555326.000000 0 1 0
16.691650 -7.755000 15.613867 24.135950 -0.434932 0.867267 0.087984 -0.035315 -777772.000000 0 1 0
17.399750 -8.531700 16.541667 25.478775 -0.455885 0.864220 0.102643 -0.034731 550311.000000 0 0 1
18.957350 -8.382300 16.329767 26.387599 -0.416320 0.903528 0.103838 -0.024818 1083300.000000 0 0 1
19.551050 -7.138200 16.770967 26.729437 -0.350068 0.892542 0.095606 -0.020731 1365690.000000 0 0 1
20.924950 -7.103900 16.297467 27.457720 -0.327285 0.935336 0.101877 -0.013744 925868.000000 0 0 1
21.578150 -5.781100 16.677967 27.878168 -0.261767 0.929488 0.087277 -0.014378 -295485.000000 0 0 1
21.838150 -5.691500 18.109367 28.935224 -0.254950 0.894564 0.120260 -0.018003 293531.000000 0 0 1
22.189950 -4.383900 18.472567 29.203565 -0.195051 0.885962 0.134230 -0.022343 -23938.300000 0 0 1
-5.640318 -33.043455 -6.212380 34.092180 1.401732 1.754043 0.040087 -0.012268 -98323.600000 0 0 1
-6.219218 -31.789755 -6.586180 33.055180 1.377600 1.771387 0.032614 -0.012619 96374.600000 0 0 1
-5.806518 -30.774455 -5.676480 31.827742 1.384309 1.750106 0.044488 -0.015162 -829663.000000 0 0 1
-6.606418 -29.426955 -5.891680 30.729502 1.349956 1.763718 0.049976 -0.013691 605192.000000 0 0 1
-7.976118 -29.398955 -5.557280 30.964502 1.305867 1.751247 0.042209 -0.011513 305964.000000 0 0 1
-8.804918 -30.298755 -6.311380 32.177238 1.287982 1.768221 0.036536 -0.006939 -1256400.000000 0 0 1
-10.288918 -30.115655 -5.985380 32.382700 1.241582 1.756698 0.089209 -0.005766 -63615.900000 0 0 1
-11.168418 -30.749755 -6.936180 33.442362 1.222408 1.779720 0.073225 -0.012063 323635.000000 0 0 1
-12.475918 -30.581155 -6.404880 33.643395 1.183446 1.762341 0.080047 -0.012247 317353.000000 0 0 1
-13.700918 -31.130055 -7.153880 34.755913 1.156190 1.778110 0.100061 -0.020331 235455.000000 0 0 1
-13.799018 -30.484855 -8.435280 34.509321 1.145740 1.817733 0.126453 -0.030522 47502.700000 0 0 1
-14.904618 -30.985955 -9.169780 35.585979 1.122454 1.831416 0.128882 -0.029053 353671.000000 0 0 1
-15.061918 -30.101855 -10.442580 35.242453 1.106857 1.871620 0.152495 -0.023688 -93761.800000 0 0 1
-15.561418 -28.764355 -10.277080 34.280668 1.074892 1.875271 0.164175 -0.031619 445169.000000 0 0 1
-14.560818 -27.791955 -9.927180 32.908344 1.088195 1.877231 0.147133 -0.029292 137144.000000 0 0 1
-15.107318 -26.428355 -9.453980 31.875802 1.051496 1.871914 0.135588 -0.012480 -2328.700000 0 0 1
-15.669618 -25.712655 -10.526080 31.897898 1.023484 1.907092 0.143561 -0.016182 204827.000000 0 0 1
-16.173718 -24.430355 -10.141180 31.004434 0.986008 1.904017 0.119972 -0.005871 -166426.000000 0 0 1
-16.691818 -23.623055 -11.302680 31.055049 0.955661 1.943308 0.143733 -0.016153 -431819.000000 0 0 1
-18.001918 -23.963455 -11.669780 32.163644 0.926512 1.942094 0.145891 -0.025254 -617007.000000 0 0 1
-18.464018 -23.191955 -12.794980 32.287742 0.898414 1.978258 0.153929 -0.025021 841413.000000 0 0 1
-19.937218 -23.641655 -13.158880 33.609175 0.870200 1.973086 0.132350 -0.013225 873964.000000 0 0 1
-20.161918 -25.041755 -13.514280 34.874463 0.892934 1.968728 0.158718 -0.019038 -26351.400000 0 0 1
-20.096918 -25.877355 -12.345380 35.013312 0.910474 1.931135 0.171220 -0.021785 -1236560.000000 0 0 1
-20.107718 -27.365255 -12.615980 36.226240 0.937101 1.926506 0.166356 -0.028091 811966.000000 0 0 1
-19.071818 -28.078355 -13.335580 36.468698 0.974143 1.945151 0.171513 -0.039420 2122150.000000 0 0 1
-17.673418 -27.724855 -13.071980 35.382113 1.003289 1.949215 0.178473 -0.042803 1185490.000000 0 0 1
-16.751218 -28.859255 -13.527380 36.006248 1.044879 1.955943 0.166128 -0.045947 -321854.000000 0 0 1
-16.941418 -29.119355 -14.907880 36.840105 1.043872 1.987408 0.165873 -0.051001 -131123.000000 0 0 1
-16.233018 -30.259155 -15.326580 37.603609 1.078403 1.990602 0.180649 -0.054843 -191646.000000 0 0 1
-16.783018 -31.667855 -15.023380 38.861609 1.083461 1.967724 0.177002 -0.058051 -193049.000000 0 0 1
-16.797518 -32.028755 -13.674080 38.664948 1.087780 1.932273 0.173536 -0.049080 149756.000000 0 0 1
-17.384318 -33.308455 -13.587580 39.953598 1.089768 1.917803 0.154472 -0.047657 -909253.000000 0 0 1
-18.026218 -33.620555 -12.243680 40.064872 1.078636 1.881361 0.173721 -0.043703 1090120.000000 0 0 1
-19.401418 -33.217655 -11.992380 40.294476 1.042173 1.872993 0.183301 -0.042761 1349620.000000 0 0 1
-19.654418 -31.808355 -12.011180 39.272586 1.017318 1.881618 0.181108 -0.044495 -410501.000000 0 0 1
-18.901718 -30.857955 -11.008880 37.824381 1.021208 1.866123 0.195781 -0.037345 -122849.000000 0 0 1
-19.215118 -31.034455 -9.603480 37.743675 1.016412 1.828064 0.184805 -0.036072 19216.300000 0 0 1
-18.923918 -29.903655 -8.823180 36.471794 1.006587 1.815138 0.178587 -0.021099 170458.000000 0 0 1
-19.253818 -30.191055 -7.296580 36.543801 1.003093 1.771814 0.171241 -0.016039 416656.000000 0 0 1
-18.335518 -31.118155 -6.742080 36.742161 1.038339 1.755339 0.178848 -0.025411 219353.000000 0 0 1
-18.662218 -31.332855 -5.403880 36.867711 1.033610 1.717901 0.142954 -0.024982 -70049.900000 0 0 1
-17.777018 -32.412955 -4.713980 37.267192 1.069141 1.697628 0.157123 -0.022575 821479.000000 0 0 1
-16.392718 -32.124055 -4.527680 36.347985 1.098947 1.695686 0.138455 -0.018502 679702.000000 0 0 1
-16.199218 -31.584555 -3.267280 35.646513 1.096895 1.662583 0.112830 -0.018510 323020.000000 0 0 1
-14.808218 -30.902055 -3.040680 34.401541 1.123928 1.659300 0.110889 -0.026203 445778.000000 0 0 1
-13.679918 -31.732455 -2.953780 34.681604 1.163769 1.656068 0.074971 -0.018170 -692900.000000 0 0 1
-12.596618 -30.945855 -2.545080 33.508180 1.184224 1.646824 0.069139 -0.010343 -729212.000000 0 0 1
-11.355818 -31.801055 -2.361080 33.850205 1.227820 1.640604 0.063548 -0.012710 -807350.000000 0 0 1
-11.360518 -32.582555 -1.206480 34.527378 1.235308 1.605746 0.065845 -0.010489 -206109.000000 0 0 1
-10.204418 -33.362855 -0.999380 34.902851 1.273971 1.599433 0.086502 -0.019184 -109699.000000 0 0 1
-9.084718 -32.716655 -0.181880 33.955039 1.299941 1.576153 0.107071 -0.029974 -489120.000000 0 0 1
-9.440118 -32.602155 1.184020 33.962011 1.288949 1.535926 0.119394 -0.024141 -19967.900000 0 0 1
-8.384318 -32.160255 2.033520 33.297357 1.315769 1.509687 0.126473 -0.031639 675766.000000 0 0 1
-7.390118 -33.300255 2.399320 34.194700 1.352412 1.500572 0.137100 -0.046453 200332.000000 0 0 1
-7.968118 33.917500 3.412720 35.007633 -1.340054 1.473156 0.152388 -0.053250 371904.000000 0 0 1
-6.984218 33.099400 3.996020 34.063437 -1.362839 1.453214 0.143635 -0.050341 426200.000000 0 0 1
-6.050118 33.662100 5.112520 34.581480 -1.392964 1.422413 0.146154 -0.045104 253989.000000 0 0 1
-5.028218 -33.589955 4.580920 34.271750 1.422206 1.436730 0.146260 -0.046785 -577002.000000 0 0 1
-4.164518 -33.148055 5.577820 33.871062 1.445817 1.405365 0.109216 -0.041485 136720.000000 0 0 1
-2.910118 -32.413755 5.022320 32.929379 1.481256 1.417681 0.129879 -0.039944 168735.000000 0 0 1
-3.270118 -31.228255 4.355820 31.699696 1.466460 1.432951 0.118050 -0.032463 78401.600000 0 0 1
-3.583618 -31.408055 3.010520 31.754865 1.457189 1.475849 0.128781 -0.037099 16562.700000 0 0 1
-3.916518 -30.072355 2.314020 30.414475 1.441289 1.494640 0.098447 -0.030854 203415.000000 0 0 1
-2.711318 -29.491555 1.851220 29.673727 1.479119 1.508370 0.079696 -0.037987 -66407.500000 0 0 1
-2.826018 -28.219655 1.259720 28.388769 1.470985 1.526408 0.078115 -0.030708 22492.200000 0 0 1
-2.726118 -26.963755 2.209120 27.191101 1.470036 1.489462 0.080506 -0.030961 59634.300000 0 0 1
-3.099618 -25.760155 1.562620 25.992979 1.451046 1.510643 0.086289 -0.032793 -318097.000000 0 0 1
-3.004918 -24.606755 2.402820 24.905731 1.449280 1.474169 0.073539 -0.030512 195917.000000 0 1 0
-4.263518 -24.172955 3.207620 24.754760 1.396216 1.440855 0.066458 -0.026823 -3806.080000 0 1 0
-4.315818 -24.818255 4.516520 25.592401 1.398621 1.393388 0.081095 -0.028752 -122962.000000 0 0 1
-5.231818 -24.113755 5.312420 25.240184 1.357144 1.358736 0.062509 -0.023889 -504916.000000 0 0 1
-5.870618 -25.088055 6.330520 26.532058 1.340932 1.329874 0.074396 -0.024845 -216161.000000 0 0 1
-5.053418 -25.555255 7.399720 27.080693 1.375570 1.294029 0.063803 -0.026746 -152447.000000 0 0 1
-5.825918 -26.378655 8.205520 28.233053 1.353428 1.275906 0.073031 -0.022642 -182313.000000 0 0 1
-5.176318 -26.984155 9.478420 29.065087 1.381271 1.238611 0.053517 -0.011896 -121936.000000 0 0 1
-4.802518 -26.161955 10.578520 28.625463 1.389249 1.192272 0.051114 -0.023002 699510.000000 0 0 1
-5.889318 -25.422155 11.192420 28.394370 1.343151 1.165624 0.050368 -0.032260 651934.000000 0 0 1
-5.374218 -24.397655 12.231220 27.816012 1.353983 1.115511 0.053411 -0.029441 454031.000000 0 0 1
-4.594418 -24.907155 13.305720 28.609740 1.388385 1.087075 0.062318 -0.026255 273268.000000 0 0 1
-3.879818 -23.902755 14.058220 28.000504 1.409883 1.044805 0.054724 -0.030466 471634.000000 0 0 1
-2.790618 -24.403655 15.024520 28.793438 1.456938 1.021832 0.053756 -0.025956 28618.500000 0 0 1
-3.330118 -25.112955 16.146420 30.040923 1.438960 1.003349 0.060401 -0.026564 -56155.100000 0 0 1
-2.361618 -25.782455 16.934920 30.937093 1.479453 0.991544 0.068145 -0.025265 206729.000000 0 0 1
-2.941918 -26.244155 18.326220 32.144375 1.459164 0.964142 0.093896 -0.025436 188144.000000 0 0 1
-3.024318 -25.127355 19.205920 31.771021 1.451013 0.921645 0.090175 -0.019604 -360317.000000 0 0 1
-3.848118 -25.424355 20.279620 32.748569 1.420581 0.903007 0.149815 -0.026763 -471115.000000 0 0 1
-3.632218 -24.527355 21.522320 32.832825 1.423776 0.855936 0.113655 -0.025079 278067.000000 0 0 1
-2.373618 -24.710155 22.174920 33.285926 1.475032 0.841701 0.082885 -0.034293 369459.000000 0 0 1
-1.991118 -23.820555 23.205220 33.314645 1.487402 0.800222 0.060687 -0.028922 27581.300000 0 0 1
-1.395518 -22.431955 22.871520 32.066282 1.508665 0.776661 0.071928 -0.042644 -342698.000000 0 0 1
-2.240918 -21.521755 22.216920 31.012887 1.467047 0.772201 0.086535 -0.035578 -422547.000000 0 0 1
-1.511218 -20.538455 21.496420 29.769245 1.497349 0.763961 0.079840 -0.037055 -650390.000000 0 0 1
-2.262818 -19.352655 20.930520 28.596018 1.454399 0.749634 0.069412 -0.023067 -1588260.000000 0 0 1
-3.022518 -18.559055 21.802120 28.790737 1.409354 0.711686 0.089821 -0.043428 755923.000000 0 0 1
-4.362918 -19.018655 22.032820 29.431096 1.345296 0.724812 0.091055 -0.045911 271932.000000 0 0 1
-5.361218 -18.974555 20.863920 28.706785 1.295427 0.757154 0.078896 -0.041902 -1157740.000000 0 0 1
-5.345118 -19.854455 19.773720 28.526648 1.307816 0.804923 0.092143 -0.043598 -311879.000000 0 0 1
-5.613818 -21.229155 20.026720 29.719715 1.312275 0.831385 0.084288 -0.032068 39155.100000 0 0 1
-5.796518 -22.042955 18.757020 29.518084 1.313653 0.882216 0.059789 -0.030626 11880.600000 0 0 1
-6.193018 -23.389855 18.782520 30.630407 1.311962 0.910693 0.065235 -0.031675 -268534.000000 0 0 1
-6.055118 -23.999555 17.513520 30.321056 1.323653 0.955008 0.062202 -0.032868 -364877.000000 0 0 1
-6.705518 -25.356855 17.410020 31.480833 1.312268 0.984793 0.056225 -0.036840 -491932.000000 0 0 1
-8.096018 -25.272655 17.474720 31.774493 1.260779 0.988479 0.071211 -0.034878 -957877.000000 0 0 1
-8.713518 -26.538955 17.263820 32.837189 1.253556 1.017212 0.079479 -0.035997 81134.700000 0 0 1
-10.218818 -26.500655 17.536020 33.379948 1.202760 1.017675 0.070607 -0.032668 -1195070.000000 0 0 1
-10.993818 -25.790655 16.604820 32.584382 1.167849 1.036083 0.100348 -0.042829 932471.000000 0 0 1
-12.401518 -26.014255 16.904620 33.411155 1.125945 1.040305 0.101449 -0.040054 1438410.000000 0 0 1
-12.996618 -25.234955 18.080120 33.654208 1.095202 1.003644 0.087943 -0.032919 -1026200.000000 0 0 1
-13.162018 -23.905155 17.689220 32.520818 1.067498 0.995677 0.081978 -0.035143 -198153.000000 0 0 1
-13.374818 -22.937755 18.723020 32.489657 1.042902 0.956631 0.066829 -0.022102 393606.000000 0 0 1
-12.117618 -22.396955 19.480820 32.061856 1.074859 0.917760 0.065760 -0.031006 444875.000000 0 0 1
-11.345418 -23.326755 20.198420 32.876012 1.118113 0.909194 0.069783 -0.025063 -315767.000000 0 0 1
-9.969818 -23.145755 20.009320 32.179125 1.164073 0.899744 0.087020 -0.037150 -103385.000000 0 0 1
-9.110918 -24.054855 20.926820 33.159865 1.208737 0.887840 0.089431 -0.036607 196090.000000 0 0 1
-9.031518 -23.630255 22.307620 33.728136 1.205727 0.848119 0.083422 -0.036679 -487268.000000 0 0 1
-7.784318 -23.969355 22.821420 33.999158 1.256780 0.834923 0.085434 -0.033148 -388483.000000 0 0 1
-7.554918 -23.463055 24.246320 34.575652 1.259287 0.793641 0.084752 -0.026495 -289543.000000 0 0 1
-6.552118 -24.192255 24.875820 35.312913 1.306306 0.789163 0.096389 -0.029056 -562461.000000 0 0 1
-6.404218 -23.674255 26.207220 35.892934 1.306605 0.752255 0.082471 -0.027962 519023.000000 0 0 1
-5.187918 -24.266755 27.009620 36.678460 1.360180 0.743079 0.109024 -0.022921 600932.000000 0 0 1
-3.936818 -23.933655 26.458020 35.893525 1.407767 0.741990 0.107057 -0.023329 -1581.200000 0 0 1
-2.842918 -24.245855 27.314620 36.633756 1.454075 0.729341 0.095594 -0.021657 622416.000000 0 0 1
-1.524618 -23.555055 26.892420 35.782220 1.506161 0.720375 0.087854 -0.025294 -672616.000000 0 0 1
-1.655618 -22.167555 26.829920 34.842304 1.496248 0.691895 0.080696 -0.027200 23166.900000 0 0 1
-0.419518 -21.494655 26.708520 34.286166 1.551281 0.677746 0.078383 -0.033447 463605.000000 0 0 1
0.519582 -21.402455 27.961320 35.216054 -1.546524 0.653446 0.067476 -0.027075 35618.400000 0 0 1
1.068882 -22.658955 28.359020 36.315351 -1.523659 0.674675 0.082777 -0.021616 -70450.200000 0 0 1
1.964382 -22.435655 29.433720 37.061587 -1.483463 0.653133 0.080011 -0.029241 51185.800000 0 0 1
2.792482 -23.713555 29.722520 38.125566 -1.453577 0.676777 0.089033 -0.035753 -419026.000000 0 0 1
3.857882 -24.030255 28.859920 37.752236 -1.411612 0.700599 0.082137 -0.044563 -48629.700000 0 0 1
4.443882 -25.245155 29.244320 38.888252 -1.396552 0.719692 0.069867 -0.037460 -35883.500000 0 0 1
5.650682 -25.182155 30.224220 39.743862 -1.350060 0.706752 0.066844 -0.030532 793283.000000 0 0 1
6.846582 -24.495455 29.794720 39.174332 -1.298247 0.706610 0.072964 -0.041385 783912.000000 0 0 1
7.816882 -25.335255 29.241420 39.472008 -1.271525 0.736515 0.067831 -0.038440 -823765.000000 0 0 1
8.943782 -24.603755 28.535620 38.724896 -1.222134 0.742352 0.069146 -0.031512 -782085.000000 0 0 1
8.588382 -23.841555 27.395320 37.318676 -1.225039 0.746469 0.091200 -0.041418 114725.000000 0 0 1
9.746082 -23.526855 26.653920 36.863674 -1.178063 0.762603 0.066003 -0.029089 51004.000000 0 0 1
9.471682 -22.325455 25.676620 35.318939 -1.169557 0.756864 0.093089 -0.026237 -66784.000000 0 0 1
8.555282 -22.630055 24.663120 34.548252 -1.209355 0.775781 0.086040 -0.019860 40799.400000 0 0 1
8.267882 -21.472555 23.853120 33.142115 -1.203249 0.767394 0.085548 -0.017706 -123942.000000 0 0 1
7.517582 -21.706155 22.565620 32.200596 -1.237391 0.794302 0.087853 -0.014152 26588.500000 0 0 1
8.237682 -22.563055 21.669620 32.350012 -1.220737 0.836791 0.080083 -0.004499 46648.700000 0 0 1
7.778782 -22.478655 20.362920 31.312104 -1.237643 0.862789 0.085363 -0.001952 -130662.000000 0 0 1
8.476682 -23.442555 19.368220 31.567949 -1.223831 0.910260 0.095506 -0.017893 1046060.000000 0 0 1
9.817482 -23.031555 19.046320 31.457873 -1.167857 0.920459 0.090094 -0.016256 531413.000000 0 0 1
10.503882 -23.855155 18.138220 31.755235 -1.156022 0.962843 0.096191 -0.014411 268866.000000 0 0 1
11.755282 -23.101755 17.631120 31.348590 -1.100095 0.973485 0.092954 -0.019915 66854.400000 0 0 1
11.425982 -22.145155 16.685120 29.989234 -1.094464 0.980785 0.103621 -0.018627 -238987.000000 0 0 1
12.611582 -21.724355 16.083020 29.827221 -1.044818 1.001302 0.099748 -0.026436 -124851.000000 0 0 1
-12.515718 22.270000 11.678020 28.088650 -1.058788 1.142023 0.028798 -0.020079 -628945.000000 0 0 1
-13.418618 21.481900 10.974120 27.603671 -1.012450 1.161940 0.025052 -0.023616 -140822.000000 0 0 1
-13.011918 20.168800 10.736420 26.293749 -0.997838 1.150177 0.051804 -0.026263 -503985.000000 0 0 1
-14.088218 19.596700 9.807620 26.051832 -0.947493 1.184818 0.065684 -0.030557 -620733.000000 0 0 1
-14.021818 20.207800 8.535620 26.035041 -0.964189 1.236768 0.067663 -0.037271 246460.000000 0 0 1
-14.872118 19.590300 7.575320 25.736068 -0.921460 1.272025 0.071847 -0.039808 -543908.000000 0 0 1
-16.368918 19.719900 7.704920 26.761572 -0.877986 1.278753 0.061040 -0.033489 -1241910.000000 0 0 1
-16.934018 18.889900 8.709920 26.822602 -0.839941 1.240077 0.058927 -0.031540 546714.000000 0 0 1
-18.359618 18.857300 8.632620 27.698294 -0.798770 1.253850 0.050899 -0.022234 750702.000000 0 0 1
-19.122418 17.692600 9.388520 27.691863 -0.746580 1.224905 0.058003 -0.025291 159261.000000 0 0 1
-18.947318 16.368600 8.908620 26.576219 -0.712509 1.228968 0.069813 -0.030103 216700.000000 0 0 1
-19.435918 15.427000 9.829120 26.690051 -0.670910 1.193650 0.074130 -0.035403 -663990.000000 0 0 1
-18.372118 14.949400 10.811020 26.036464 -0.683039 1.142605 0.070168 -0.028279 -31060.200000 0 0 1
-17.414718 14.086400 10.201720 24.612480 -0.680132 1.143410 0.065259 -0.020239 8848.510000 0 1 0
-16.743018 13.213100 11.085920 24.037726 -0.668103 1.091462 0.054813 -0.019654 35714.700000 0 1 0
-17.547318 12.227600 11.992320 24.520161 -0.608599 1.059762 0.053761 -0.013244 32713.600000 0 1 0
-18.296518 11.205400 11.301520 24.249699 -0.549512 1.085978 0.045950 -0.016112 -23666.400000 0 1 0
-19.115118 10.506400 12.173420 24.979278 -0.502565 1.061755 0.050802 -0.010180 -258859.000000 0 1 0
-20.180818 9.687800 11.367620 25.106606 -0.447561 1.100922 0.062407 -0.019579 -142340.000000 0 0 1
-19.721418 8.621400 10.488720 23.943185 -0.412124 1.117349 0.057858 -0.015922 331023.000000 0 1 0
-19.126218 9.009300 9.245120 23.074920 -0.440216 1.158563 0.070917 -0.012808 -74066.700000 0 1 0
-20.109518 9.371100 8.079520 23.611202 -0.436082 1.221550 0.084513 -0.018791 370715.000000 0 1 0
-20.760218 8.291800 7.427520 23.556499 -0.379996 1.250017 0.076821 -0.024985 509278.000000 0 1 0
-21.625518 8.749000 6.402420 24.190887 -0.384438 1.302942 0.098080 -0.020824 120589.000000 0 1 0
-21.898218 7.659700 5.381220 23.815132 -0.336485 1.342870 0.109943 -0.020843 -198673.000000 0 1 0
-22.617518 6.537200 5.840620 24.256957 -0.281365 1.327626 0.116177 -0.029323 436198.000000 0 1 0
-22.167718 5.345200 5.260020 23.401853 -0.236609 1.344090 0.107537 -0.018236 -626101.000000 0 1 0
-23.083318 4.187700 5.565220 24.111161 -0.179465 1.337881 0.104108 -0.025403 71252.800000 0 1 0
-24.340818 4.310200 4.888520 25.198232 -0.175260 1.375556 0.142045 -0.025750 832065.000000 0 0 1
-25.052218 3.074400 5.043020 25.739029 -0.122109 1.373592 0.158311 -0.032321 -779034.000000 0 0 1
-26.367258 2.945100 4.344520 26.884583 -0.111234 1.408486 0.174559 -0.037692 -997847.000000 0 0 1
-26.114538 2.874000 2.933220 26.435445 -0.109613 1.459610 0.180544 -0.031971 767795.000000 0 0 1
-27.283148 2.719600 2.126520 27.500700 -0.099352 1.493393 0.182358 -0.028228 287789.000000 0 0 1
-26.911498 2.643800 0.647820 27.048809 -0.097926 1.546844 0.194377 -0.028878 148556.000000 0 0 1
-26.224988 3.804900 0.152720 26.500011 -0.144081 1.565033 0.183280 -0.031646 374296.000000 0 0 1
-26.219658 3.955000 -1.218080 26.544232 -0.149712 1.616701 0.195668 -0.027730 -361998.000000 0 0 1
-27.443998 4.664300 -1.801780 27.895791 -0.168348 1.635431 0.196579 -0.026005 187470.000000 0 0 1
-28.586158 3.813300 -1.885680 28.900960 -0.132614 1.636089 0.191150 -0.028014 -19406.400000 0 0 1
-29.771868 4.541000 -2.051680 30.185994 -0.151360 1.638817 0.174959 -0.012413 -345985.000000 0 0 1
-30.992548 3.619200 -2.181980 31.279349 -0.116250 1.640611 0.157226 -0.014466 -422997.000000 0 0 1
-30.856768 2.757300 -3.286180 31.153520 -0.089121 1.676476 0.149429 -0.017509 365615.000000 0 0 1
-31.855098 1.750500 -3.331880 32.076673 -0.054897 1.674856 0.150299 -0.027003 94614.300000 0 0 1
-32.154228 1.087800 -4.671580 32.510020 -0.033818 1.714992 0.144429 -0.027039 -512183.000000 0 0 1
-30.959688 0.576300 -5.216680 31.401404 -0.018612 1.737699 0.159057 -0.030943 152560.000000 0 0 1
-31.088108 -0.151900 -6.439880 31.748474 0.004886 1.775054 0.159673 -0.026821 -298230.000000 0 0 1
-31.469718 0.601000 -7.714780 32.407132 -0.019095 1.811162 0.148180 -0.028197 1124110.000000 0 0 1
-32.895688 0.882500 -7.711080 33.798904 -0.026821 1.800969 0.164842 -0.027500 1432020.000000 0 0 1
-33.275598 1.708300 -8.824280 34.468125 -0.051293 1.829692 0.182277 -0.030749 -232278.000000 0 0 1
-34.782304 1.960800 -8.679280 35.902414 -0.056314 1.814962 0.204878 -0.030206 -197812.000000 0 0 1
-35.247355 2.664000 -7.527980 36.140607 -0.075437 1.780630 0.165549 -0.016773 1566710.000000 0 0 1
-36.700148 2.576400 -7.432180 37.533665 -0.070086 1.770127 0.174205 -0.017223 1537970.000000 0 0 1
37.043470 3.518100 -6.194480 37.722239 0.094688 1.735756 0.169759 -0.017059 -418677.000000 0 0 1
35.668420 3.762100 -6.148080 36.389401 0.105086 1.740563 0.173968 -0.031592 -222518.000000 0 0 1
35.254660 4.510900 -5.033180 35.896688 0.127260 1.711473 0.176070 -0.028399 448230.000000 0 0 1
33.811780 4.155500 -4.558580 34.369831 0.122288 1.703821 0.161736 -0.032118 395433.000000 0 0 1
33.601350 2.880900 -3.983380 33.959058 0.085528 1.688366 0.164411 -0.039210 1542360.000000 0 0 1
32.312420 2.258500 -4.361380 32.683558 0.069782 1.704638 0.162339 -0.039319 1753070.000000 0 0 1
32.161720 0.915100 -3.698080 32.386563 0.028445 1.685232 0.194665 -0.035739 764574.000000 0 0 1
33.097050 -0.052400 -4.293080 33.374362 -0.001583 1.699788 0.162481 -0.041561 1078740.000000 0 0 1
32.749450 -1.358700 -3.926980 33.012024 -0.041464 1.690035 0.167151 -0.036462 400673.000000 0 0 1
34.045090 -2.228900 -3.831080 34.332395 -0.065376 1.682617 0.151601 -0.041034 395884.000000 0 0 1
33.870630 -3.596000 -3.536980 34.244139 -0.105772 1.674268 0.132611 -0.042372 485708.000000 0 0 1
35.148670 -4.234000 -3.397180 35.565385 -0.119882 1.666461 0.164669 -0.038126 645712.000000 0 0 1
35.051080 -5.696600 -2.970080 35.634967 -0.161114 1.654240 0.156843 -0.031348 -236134.000000 0 0 1
34.575060 -5.890300 -1.700580 35.114419 -0.168743 1.619245 0.155832 -0.022415 -92644.700000 0 0 1
34.691420 -7.236000 -1.289880 35.461502 -0.205634 1.607178 0.160474 -0.033737 -49160.300000 0 0 1
34.382020 -7.403800 0.219520 35.170837 -0.212100 1.564555 0.151522 -0.025468 1104420.000000 0 0 1
32.976690 -7.207100 0.511720 33.758943 -0.215168 1.555638 0.137834 -0.031144 1076940.000000 0 0 1
32.592640 -7.567400 1.821320 33.509147 -0.228139 1.516417 0.139741 -0.029378 -225204.000000 0 0 1
32.176830 -9.058900 2.011020 33.488151 -0.274431 1.510708 0.144432 -0.026603 638060.000000 0 0 1
30.938640 -9.570400 1.474720 32.418618 -0.299999 1.525291 0.138497 -0.037776 1684980.000000 0 0 1
29.753660 -9.310700 2.264220 31.258537 -0.303273 1.498298 0.137369 -0.042997 250467.000000 0 0 1
28.683650 -10.445700 2.091020 30.597987 -0.349241 1.502405 0.149530 -0.046711 885711.000000 0 0 1
27.376550 -10.127500 2.615820 29.306727 -0.354321 1.481421 0.173742 -0.049453 1733980.000000 0 0 1
26.577550 -9.129700 1.914820 28.167075 -0.330883 1.502763 0.174298 -0.051115 171561.000000 0 0 1
25.885450 -9.431200 0.542120 27.555362 -0.349396 1.551121 0.153318 -0.042916 405996.000000 0 0 1
26.908150 -9.642200 -0.446480 28.587058 -0.344083 1.586415 0.151330 -0.047169 1030150.000000 0 0 1
26.315650 -9.757400 -1.712480 28.118551 -0.355069 1.631736 0.143832 -0.039622 99907.600000 0 0 1
25.455350 -11.029500 -2.049680 27.817727 -0.408870 1.644546 0.124955 -0.027922 -310500.000000 0 0 1
24.181350 -11.001000 -1.502380 26.608586 -0.426952 1.627289 0.117788 -0.023751 -393931.000000 0 0 1
23.499950 -12.249700 -1.674880 26.553870 -0.480514 1.633913 0.097212 -0.018997 642307.000000 0 0 1
21.979450 -12.395700 -1.383480 25.271795 -0.513504 1.625568 0.101530 -0.016343 649400.000000 0 0 1
21.124150 -11.875700 -2.393780 24.351430 -0.512151 1.669257 0.098232 -0.014510 455654.000000 0 1 0
19.764350 -12.174500 -2.142380 23.311752 -0.552089 1.662827 0.098780 -0.012961 -352420.000000 0 1 0
18.829150 -11.778200 -3.243680 22.445141 -0.558980 1.715820 0.092654 -0.009189 -535506.000000 0 1 0
18.830350 -12.587600 -4.417480 23.076913 -0.589253 1.763409 0.090069 -0.011713 248863.000000 0 1 0
18.063850 -12.023300 -5.458680 22.375424 -0.587264 1.817242 0.091680 -0.011396 -97410.300000 0 1 0
18.068850 -12.795500 -6.790980 23.158704 -0.616176 1.868407 0.090527 -0.018094 313783.000000 0 1 0
17.106650 -13.868100 -6.858380 23.065105 -0.681222 1.872711 0.077972 -0.024827 824796.000000 0 1 0
17.320750 -14.566000 -8.087080 24.032844 -0.699220 1.913995 0.087400 -0.029928 -41357.600000 0 1 0
16.197750 -15.629200 -8.291780 23.987343 -0.767536 1.923752 0.074640 -0.033113 -39024.200000 0 1 0
14.975550 -14.917500 -8.429480 22.756429 -0.783456 1.950260 0.091100 -0.034040 178593.000000 0 1 0
14.018250 -15.727000 -9.130880 22.961334 -0.842781 1.979765 0.087723 -0.036239 -8414.360000 0 1 0
14.011850 -15.657300 -10.667380 23.564295 -0.840801 2.040579 0.098022 -0.044167 -630761.000000 0 1 0
13.055150 -14.714800 -11.220980 22.646693 -0.845091 2.089184 0.081686 -0.035806 571701.000000 0 1 0
13.393350 -13.341300 -11.158080 21.951649 -0.783451 2.104009 0.078757 -0.022022 -312508.000000 0 1 0
13.589050 -12.730900 -12.563980 22.463119 -0.752805 2.164357 0.092095 -0.021603 -840884.000000 0 1 0
14.843250 -12.749000 -13.142480 23.570827 -0.709643 2.162257 0.109996 -0.029792 -752592.000000 0 1 0
14.744250 -12.392500 -14.499980 24.108430 -0.698951 2.216109 0.125762 -0.019599 143532.000000 0 1 0
16.096750 -11.963300 -15.134180 25.125074 -0.639143 2.217243 0.130035 -0.036782 33646.300000 0 0 1
16.984750 -13.042800 -15.236280 26.281945 -0.654867 2.189187 0.138691 -0.037242 -857749.000000 0 0 1
18.148050 -12.631800 -15.885380 27.226080 -0.608064 2.193781 0.139480 -0.031469 -656572.000000 0 0 1
19.227450 -13.723400 -15.874280 28.460838 -0.619888 2.162479 0.130023 -0.023102 -823816.000000 0 0 1
19.811450 -13.860000 -14.624480 28.257186 -0.610454 2.114780 0.090352 -0.035131 -422976.000000 0 0 1
20.727650 -14.904500 -14.754280 29.486749 -0.623406 2.094822 0.064197 -0.017457 -576815.000000 0 0 1
21.927050 -14.834900 -13.816880 29.862618 -0.594819 2.051814 0.048104 -0.022208 -141750.000000 0 0 1
22.578350 -13.568100 -13.879480 29.774405 -0.541106 2.055736 0.048130 -0.010737 509605.000000 0 0 1
23.663550 -13.429000 -12.939680 30.128674 -0.516178 2.014714 0.049522 -0.007833 1078330.000000 0 0 1
24.385050 -12.015300 -12.968180 30.119293 -0.457817 2.015910 0.056944 -0.009880 302816.000000 0 0 1
23.483150 -10.952000 -12.601680 28.813313 -0.436389 2.023453 0.049117 -0.000497 344507.000000 0 0 1
23.997950 -9.658100 -12.641280 28.792056 -0.382621 2.025342 0.070430 -0.012548 -576091.000000 0 0 1
24.917950 -9.210100 -11.515280 28.953961 -0.354043 1.979816 0.082985 -0.014936 387127.000000 0 0 1
26.173350 -9.894000 -11.629680 30.301567 -0.361414 1.964702 0.079242 -0.015199 -148804.000000 0 0 1
27.106150 -9.470200 -10.711580 30.645816 -0.336118 1.927864 0.084593 -0.015968 -1122690.000000 0 0 1
28.408150 -10.222100 -10.949180 32.115399 -0.345405 1.918705 0.091864 -0.025093 -554728.000000 0 0 1
29.063210 -9.834300 -12.162580 33.004727 -0.326282 1.948202 0.080886 -0.026232 651114.000000 0 0 1
30.370510 -10.405600 -12.268180 34.367901 -0.330087 1.935814 0.078424 -0.026016 268322.000000 0 0 1
31.167970 -9.777800 -13.366180 35.294511 -0.303990 1.959192 0.054947 -0.026534 -534010.000000 0 0 1
30.603270 -10.130100 -14.611680 35.393224 -0.319661 1.996365 0.059685 -0.022411 100014.000000 0 0 1
31.331230 -9.483500 -15.567080 36.247990 -0.293918 2.014692 0.054702 -0.014835 -588274.000000 0 0 1
31.199560 -10.149300 -16.976880 36.940971 -0.314506 2.048305 0.031529 -0.015302 417280.000000 0 0 1
29.957350 -10.139500 -17.672980 36.229636 -0.326361 2.080369 0.036388 -0.005112 247531.000000 0 0 1
29.592350 -8.901400 -18.200780 35.863777 -0.292191 2.103074 0.030098 -0.001169 37036.300000 0 0 1
28.225850 -8.805300 -18.933380 35.109896 -0.302392 2.140355 0.018850 -0.002211 216119.000000 0 0 1
28.025550 -9.480200 -20.193280 35.820025 -0.326187 2.169707 0.006874 0.015607 -297098.000000 0 0 1
26.707150 -9.260700 -20.608380 34.981964 -0.333776 2.200759 0.045073 0.017809 -212892.000000 0 0 1
26.309850 -9.815600 -22.022880 35.686993 -0.357084 2.235864 0.068662 0.016398 60183.000000 0 0 1
26.142950 -11.212700 -22.234380 36.104656 -0.405169 2.234237 0.064370 0.010115 285619.000000 0 0 1
25.621550 -11.605200 -23.540180 36.678121 -0.425302 2.267645 0.084837 0.003806 -928314.000000 0 0 1
25.645350 -13.152600 -23.782180 37.366656 -0.473886 2.260689 0.071881 0.015447 241010.000000 0 0 1
26.877850 -13.691200 -24.210080 38.678105 -0.471128 2.247130 0.063991 0.011250 202949.000000 0 0 1
27.968350 -13.451200 -23.311080 38.814557 -0.448287 2.215017 0.038643 0.019225 -66468.300000 0 0 1
29.358310 -13.946900 -23.829180 40.302062 -0.443496 2.203422 0.031843 0.021994 406894.000000 0 0 1
29.800840 -13.328900 -25.003780 41.121025 -0.420578 2.224403 0.043539 0.000532 1300480.000000 0 0 1
31.223800 -13.562700 -25.201420 42.355450 -0.409781 2.208060 0.015670 -0.001095 1253300.000000 0 0 1
31.757070 -12.916900 -26.540090 43.355902 -0.386304 2.229566 0.027720 -0.010435 53633.800000 0 0 1
31.577590 -13.658900 -27.738630 44.194359 -0.408249 2.249328 0.029136 -0.014033 128032.000000 0 0 1
32.124470 -12.967700 -28.873670 45.098023 -0.383667 2.265610 0.032868 -0.016875 187338.000000 0 0 1
32.107120 -13.715900 -30.197850 46.161708 -0.403726 2.283888 0.034270 -0.021406 -85726.500000 0 0 1
32.908420 -14.850300 -30.141830 47.032175 -0.423902 2.266436 0.042110 -0.025612 -485617.000000 0 0 1
33.232390 -15.511600 -31.332920 48.236432 -0.436705 2.277815 0.017639 -0.019306 -280038.000000 0 0 1
32.155030 -16.334400 -32.053990 48.251600 -0.470018 2.297366 0.011090 -0.012143 459253.000000 0 0 1
31.229960 -15.602900 -32.903500 47.972922 -0.463338 2.326604 0.020861 -0.013065 -496704.000000 0 0 1
30.069440 -16.362100 -32.990200 47.542012 -0.498336 2.337711 0.027033 -0.013340 -918189.000000 0 0 1
29.054280 -15.777600 -33.937320 47.379590 -0.497483 2.369261 0.058151 -0.017107 -571938.000000 0 0 1
28.429950 -14.584000 -33.548230 46.329676 -0.473978 2.380553 0.074594 -0.025789 14436.600000 0 0 1
29.292990 -13.451500 -33.670460 46.612466 -0.430483 2.377989 0.079790 -0.029241 -500801.000000 0 0 1
28.629950 -12.071600 -33.412680 45.626799 -0.399023 2.392495 0.090911 -0.030346 419821.000000 0 0 1
27.725150 -11.723000 33.469986 45.015027 -0.400030 0.732464 0.103391 -0.043024 359340.000000 0 0 1
26.847550 -10.643100 33.810343 44.465783 -0.377423 0.706917 0.094197 -0.036769 470828.000000 0 0 1
21.670982 -29.777355 8.942320 37.898382 -0.941677 1.332595 0.051311 -0.003431 186425.000000 0 0 1
22.116282 -29.180955 7.735320 37.423164 -0.922258 1.362597 0.063532 -0.009602 413720.000000 0 0 1
23.296182 -29.827155 7.262420 38.537176 -0.907724 1.381210 0.062496 -0.011710 353587.000000 0 0 1
23.849282 -29.499055 5.892220 38.388810 -0.890908 1.416699 0.051158 -0.008633 -4865.260000 0 0 1
24.469482 -28.241655 5.787120 37.813190 -0.856839 1.417147 0.057451 0.008412 186894.000000 0 0 1
25.121882 -28.039255 4.528120 37.918499 -0.840221 1.451094 0.039889 0.001974 198239.000000 0 0 1
25.451382 -26.531755 4.270020 37.012699 -0.806178 1.455173 0.029727 -0.002288 8429.130000 0 0 1
26.313382 -25.953155 5.197420 37.322560 -0.778506 1.431085 0.021527 0.000090 -93806.600000 0 0 1
25.989982 -24.516355 5.249920 36.112220 -0.756229 1.424901 0.024297 0.003147 302534.000000 0 0 1
26.798182 -23.792855 6.355620 36.395554 -0.726064 1.395270 0.031049 0.002937 -451986.000000 0 0 1
28.062682 -23.413655 5.938920 37.026802 -0.695329 1.409705 0.016046 0.010629 -494977.000000 0 0 1
28.823482 -22.533755 6.787620 37.210684 -0.663535 1.387359 0.019732 -0.003144 57613.700000 0 0 1
28.281682 -21.057755 6.848120 35.919066 -0.640018 1.378968 0.038287 -0.001240 -81765.000000 0 0 1
28.229582 -20.420255 5.593320 35.287127 -0.626235 1.411616 0.030503 0.006180 88167.000000 0 0 1
27.768482 -19.055055 5.725520 34.160873 -0.601412 1.402397 0.062914 -0.009109 10368.400000 0 0 1
27.737182 -18.276955 4.430120 33.511554 -0.582630 1.438211 0.060297 -0.000125 392232.000000 0 0 1
29.006782 -17.709155 4.120120 34.234236 -0.548117 1.450153 0.066539 0.001920 380337.000000 0 0 1
29.025082 -17.116755 2.827620 33.814702 -0.532829 1.487078 0.063221 0.006401 -378237.000000 0 0 1
30.264382 -16.252155 2.750320 34.462002 -0.492812 1.490904 0.088252 -0.018385 -374210.000000 0 0 1
30.070082 -15.049055 3.437320 33.800873 -0.464020 1.468927 0.104349 -0.031140 -461220.000000 0 0 1
31.219182 -14.281355 3.550820 34.513805 -0.429036 1.467733 0.106965 -0.036777 -226453.000000 0 0 1
30.889782 -13.078855 4.427820 33.835494 -0.400518 1.439557 0.131090 -0.045438 317430.000000 0 0 1
30.754882 -13.529655 5.752620 34.088223 -0.414439 1.401228 0.111972 -0.041300 -247385.000000 0 0 1
30.258782 -12.528155 6.587420 33.405727 -0.392546 1.372301 0.113371 -0.038275 -301853.000000 0 0 1
29.937582 -13.077155 7.957020 33.624172 -0.411835 1.331884 0.125805 -0.037754 418734.000000 0 0 1
28.551582 -13.468155 8.007520 32.568457 -0.440763 1.322382 0.119710 -0.030689 817114.000000 0 0 1
27.937382 -13.253355 9.303720 32.290988 -0.442955 1.278532 0.138747 -0.018837 -24100.200000 0 0 1
28.236782 -14.221855 10.444520 33.296621 -0.466575 1.251729 0.119382 -0.016629 -11116.800000 0 0 1
29.591882 -14.154755 10.868020 34.556481 -0.446164 1.250866 0.109082 -0.012118 205432.000000 0 0 1
29.984282 -15.340355 11.462520 35.577703 -0.472895 1.242762 0.101959 -0.021096 -217671.000000 0 0 1
30.616082 -15.197255 12.827320 36.508097 -0.460749 1.211778 0.094594 -0.016768 663771.000000 0 0 1
32.037182 -15.002655 12.831320 37.631150 -0.437958 1.222841 0.078719 -0.015823 733559.000000 0 0 1
32.648782 -15.186655 14.090720 38.666857 -0.435383 1.197794 0.081675 -0.018872 1087730.000000 0 0 1
34.217782 -15.257755 13.944520 39.976309 -0.419440 1.214485 0.077498 -0.024976 1036170.000000 0 0 1
34.846182 -13.986155 13.675320 39.961022 -0.381685 1.221522 0.070586 -0.020371 751103.000000 0 0 1
36.254182 -14.057055 13.466720 41.149958 -0.369890 1.237394 0.047511 -0.018647 155325.000000 0 0 1
36.930782 -12.748155 13.902020 41.468834 -0.332384 1.228936 0.039226 -0.017002 -770557.000000 0 0 1
-36.015587 -12.632655 13.134720 40.363688 0.337347 1.239352 0.060068 -0.022425 -646624.000000 0 0 1
-35.369487 -11.463555 13.427620 39.531186 0.313425 1.224229 0.065298 -0.014661 -235763.000000 0 0 1
-34.136987 -11.196855 12.529820 38.048650 0.316941 1.235223 0.068506 -0.027561 1172910.000000 0 0 1
-32.887987 -11.883855 12.740320 37.217757 0.346744 1.221413 0.050973 -0.021742 1053940.000000 0 0 1
-32.928487 -13.113155 12.050420 37.435981 0.378981 1.243067 0.053778 -0.022746 262664.000000 0 0 1
-31.657287 -14.004655 12.317120 36.742694 0.416502 1.228951 0.044430 -0.020869 97787.500000 0 0 1
-30.555087 -13.616755 11.563220 35.394030 0.419227 1.237987 0.057063 -0.020374 -708217.000000 0 0 1
-29.659987 -14.710455 11.671320 35.104586 0.460418 1.231872 0.059655 -0.024237 298185.000000 0 0 1
-28.261787 -14.586355 11.001220 33.652892 0.476457 1.237772 0.075514 -0.019991 403859.000000 0 0 1
-28.397187 -14.661855 9.590220 33.366788 0.476613 1.279266 0.070910 -0.017749 -451461.000000 0 0 1
-27.150387 -14.626655 8.973320 32.118577 0.494147 1.287647 0.077281 -0.016264 -523554.000000 0 0 1
-27.062887 -14.420655 7.443320 31.555635 0.489587 1.332673 0.110980 -0.012902 7604.600000 0 0 1
-27.278187 -15.615255 6.713120 32.140343 0.519912 1.360378 0.111548 -0.010309 1177.080000 0 0 1
-27.070287 -15.337755 5.339320 31.568267 0.515491 1.400844 0.118347 -0.006631 9800.970000 0 0 1
-27.555787 -16.402455 4.308720 32.356251 0.536916 1.437235 0.114888 -0.007052 32897.700000 0 0 1
-28.954087 -16.520655 4.243020 33.604678 0.518507 1.444196 0.084256 -0.017170 -176809.000000 0 0 1
-29.386987 -17.582955 3.388920 34.412789 0.539187 1.472158 0.079317 -0.013736 403627.000000 0 0 1
-30.809887 -18.167155 3.666220 35.954635 0.532777 1.468651 0.094880 -0.017458 653037.000000 0 0 1
-31.810087 -17.240355 3.263020 36.328484 0.496663 1.480855 0.100569 -0.018308 523618.000000 0 0 1
-33.134487 -17.635455 3.627820 37.710271 0.489105 1.474445 0.110778 -0.021947 390191.000000 0 0 1
-34.234887 -16.807955 2.973920 38.254137 0.456389 1.492977 0.111226 -0.025232 -223671.000000 0 0 1
-34.539687 -17.180055 1.647620 38.611642 0.461566 1.528112 0.107960 -0.020376 -349525.000000 0 0 1
-35.477887 -16.276155 1.148720 39.050137 0.430122 1.541376 0.124983 -0.025200 -531737.000000 0 0 1
-36.001787 -16.742055 -0.224180 39.704852 0.435286 1.576443 0.108866 -0.024518 -235780.000000 0 0 1
-35.021087 -16.839255 -1.238680 38.878932 0.448196 1.602662 0.101594 -0.021825 554822.000000 0 0 1
-35.561287 -17.494355 -2.393980 39.703762 0.457186 1.631129 0.091725 -0.017903 -200075.000000 0 0 1
-34.371087 -18.005055 -3.169880 38.930730 0.482540 1.652310 0.065580 -0.016601 -119469.000000 0 0 1
-34.758587 -18.796755 -4.338980 39.753039 0.495737 1.680163 0.063169 -0.021730 952306.000000 0 0 1
-33.603287 -19.494255 -4.851380 39.150258 0.525681 1.695033 0.060593 -0.018705 753448.000000 0 0 1
-34.026387 -20.666155 -5.771980 40.226865 0.545811 1.714779 0.077082 -0.021041 -2026.590000 0 0 1
-34.594087 -21.728055 -5.068280 41.164872 0.560815 1.694231 0.088398 -0.026316 -137486.000000 0 0 1
-34.954887 -22.680155 -6.039080 42.103492 0.575560 1.714727 0.073075 -0.022034 256197.000000 0 0 1
-35.690087 -23.936755 -5.536180 43.328972 0.590778 1.698917 0.075112 -0.021176 192349.000000 0 0 1
-34.792287 -24.721855 -4.778980 42.947782 0.617775 1.682301 0.091822 -0.023689 -181621.000000 0 0 1
-35.418487 -25.869555 -4.264280 44.066849 0.630837 1.667716 0.064652 -0.009685 184322.000000 0 0 1
-34.457387 -26.995655 -3.806380 43.938200 0.664568 1.657535 0.080593 -0.011436 -21885.400000 0 0 1
-33.631687 -27.585555 -4.824380 43.764458 0.686952 1.681256 0.066299 -0.016110 935869.000000 0 0 1
-32.815087 -28.733055 -4.429380 43.841051 0.719173 1.672002 0.070651 -0.014400 404540.000000 0 0 1
-31.710687 -28.611255 -3.378080 42.843704 0.734062 1.649725 0.093037 -0.017483 -598211.000000 0 0 1
-32.182987 -28.256355 -2.096380 42.878445 0.720521 1.619707 0.089440 -0.019959 183697.000000 0 0 1
-31.186287 -28.592155 -1.134380 42.324728 0.742030 1.597601 0.101781 -0.017078 415071.000000 0 0 1
-31.642687 -28.284955 0.327320 42.442967 0.729427 1.563084 0.093912 -0.019090 320197.000000 0 0 1
-32.558287 -29.260755 0.772520 43.781624 0.732107 1.553151 0.076184 -0.011676 70659.700000 0 0 1
-33.235987 -28.994655 1.995020 44.150888 0.717348 1.525595 0.077241 -0.007999 425651.000000 0 0 1
-33.778487 -30.255755 2.749720 45.430802 0.730440 1.510234 0.032331 0.003208 -644645.000000 0 0 1
-34.640587 -30.077355 3.836720 46.036268 0.715005 1.487358 0.031123 0.007883 148928.000000 0 0 1
-35.211387 -31.354355 4.239520 47.338260 0.727520 1.481118 0.030856 0.013823 326668.000000 0 0 1
-36.263087 -32.027355 3.329620 48.495869 0.723452 1.502084 0.019322 0.012571 -473893.000000 0 0 1
-36.965187 -33.112355 3.932520 49.782706 0.730474 1.491720 0.049346 0.008055 -352822.000000 0 0 1
36.360982 -33.801255 3.028120 49.737464 -0.748931 1.509877 0.055774 0.009232 -1491760.000000 0 0 1
35.320582 33.469400 3.827020 48.809736 0.758494 1.492309 0.065768 0.002470 -109104.000000 0 0 1
34.455882 -33.883755 4.742120 48.557227 -0.777027 1.472980 0.055881 -0.002039 1027490.000000 0 0 1
33.762082 -32.698155 4.237720 47.191162 -0.769391 1.480876 0.060358 -0.006082 340032.000000 0 0 1
32.622382 -32.849455 3.151920 46.403028 -0.788866 1.502819 0.070642 -0.000229 386697.000000 0 0 1
33.152282 -33.386255 1.939220 47.090088 -0.788915 1.529604 0.067242 0.005581 334883.000000 0 0 1
32.201082 -33.243155 0.865120 46.290014 -0.801320 1.552106 0.072820 0.001113 -190916.000000 0 0 1
32.682782 -33.882155 -0.509980 47.078920 -0.803414 1.581629 0.061739 0.005431 1008680.000000 0 0 1
33.757482 -33.306355 -1.271880 47.439419 -0.778671 1.597610 0.032620 0.017472 -68409.800000 0 0 1
34.980582 -33.228155 -0.599680 48.250502 -0.759712 1.583225 0.030366 0.017507 -324424.000000 0 0 1
36.227882 -33.068255 -1.542580 49.074927 -0.739834 1.602235 0.011921 0.024404 213733.000000 0 0 1
36.599982 33.808700 -2.195480 49.873911 0.745775 1.614831 0.029303 0.007704 109896.000000 0 0 1
-36.974087 -33.931655 -3.457980 50.303061 0.742516 1.639594 0.023377 0.008108 -366595.000000 0 0 1
-36.257987 32.973200 -4.195280 49.188148 -0.737987 1.656191 0.023536 -0.000729 -142029.000000 0 0 1
-34.993887 32.573300 -3.717680 47.952196 -0.749589 1.648403 0.028692 0.002179 -105734.000000 0 0 1
-34.545987 31.538800 -4.574080 47.000461 -0.739925 1.668271 0.039463 -0.016833 -117542.000000 0 0 1
-33.163887 30.957000 -4.218180 45.562839 -0.750994 1.663508 0.060360 -0.022826 624524.000000 0 0 1
-32.081487 31.945700 -4.325080 45.480280 -0.783277 1.666038 0.065872 -0.009230 1241820.000000 0 0 1
-30.791187 31.350700 -4.293980 44.152031 -0.794402 1.668205 0.096094 -0.019372 755167.000000 0 0 1
-30.106087 30.980400 -2.928680 43.298254 -0.799710 1.638488 0.082546 -0.024521 -69253.000000 0 0 1
-30.904687 30.104700 -2.160780 43.197935 -0.772286 1.620838 0.068298 -0.014858 -352673.000000 0 0 1
-30.430287 29.983000 -0.852980 42.728330 -0.777995 1.590761 0.070062 0.001796 223691.000000 0 0 1
-31.463887 29.566100 0.276820 43.176464 -0.754312 1.564385 0.063124 -0.004996 640069.000000 0 0 1
-32.033487 28.246100 0.094820 42.708259 -0.722650 1.568576 0.053949 -0.018834 1177260.000000 0 0 1
-33.392987 28.335400 -0.408480 43.796727 -0.703648 1.580123 0.066026 -0.018025 1081710.000000 0 0 1
-33.887187 26.920100 -0.861780 43.287133 -0.671319 1.590706 0.086420 -0.020404 -45875.200000 0 0 1
-33.992187 25.888800 0.077020 42.728265 -0.650890 1.568994 0.090520 -0.023753 -93302.900000 0 0 1
-34.128387 24.605800 -0.535780 42.077063 -0.624667 1.583530 0.100302 -0.023595 -204975.000000 0 0 1
-34.177787 23.409100 0.428920 41.428143 -0.600534 1.560443 0.121742 -0.022775 -462160.000000 0 0 1
-32.989587 23.096900 1.085220 40.285944 -0.610811 1.543855 0.124316 -0.032530 -402595.000000 0 0 1
-32.737487 23.910700 2.220520 40.600435 -0.630824 1.516077 0.105754 -0.032711 -463345.000000 0 0 1
-31.278487 23.686300 2.748820 39.331165 -0.648139 1.500850 0.090222 -0.040165 1252670.000000 0 0 1
-30.308487 24.425500 1.938220 38.973916 -0.678326 1.521045 0.079801 -0.039439 560479.000000 0 0 1
-30.214287 25.788100 2.319620 39.790826 -0.706526 1.512468 0.057250 -0.036409 -466035.000000 0 0 1
-29.448587 26.647900 1.279520 39.736218 -0.735513 1.538590 0.046715 -0.033821 -418401.000000 0 0 1
-28.099987 26.285700 1.195020 38.496433 -0.752051 1.539749 0.055373 -0.035567 -625300.000000 0 0 1
-27.504087 27.175100 0.218720 38.665342 -0.779382 1.565140 0.056530 -0.025725 -145185.000000 0 0 1
-26.348487 26.484500 -0.496080 37.361980 -0.787973 1.584074 0.052639 -0.032182 -943256.000000 0 0 1
-26.706787 25.330500 -1.248980 36.829969 -0.758956 1.604715 0.058977 -0.036034 -871699.000000 0 0 1
-25.729987 24.805600 -2.059480 35.799322 -0.767108 1.628357 0.047785 -0.033549 -447192.000000 0 0 1
-24.569787 23.995900 -1.476680 34.375256 -0.773582 1.613767 0.044368 -0.038009 -145938.000000 0 0 1
-25.034587 22.753400 -1.051080 33.846012 -0.737699 1.601856 0.053817 -0.038214 -441039.000000 0 0 1
-24.024587 21.959900 -0.524780 32.552932 -0.740529 1.586918 0.048450 -0.044534 -1129450.000000 0 0 1
-24.513187 20.513700 -0.317280 31.965745 -0.696806 1.580722 0.053349 -0.042439 -720399.000000 0 0 1
-25.424687 20.180900 0.710120 32.468257 -0.670920 1.548923 0.038746 -0.030490 273137.000000 0 0 1
-26.728587 20.731300 0.652020 33.832370 -0.659699 1.551523 0.046548 -0.042717 -629687.000000 0 0 1
-27.577187 20.183400 -0.431880 34.176854 -0.631808 1.583433 0.054918 -0.045933 -1715430.000000 0 0 1
-27.871487 18.798300 -0.326280 33.619969 -0.593381 1.580501 0.078626 -0.043971 462720.000000 0 0 1
-28.854587 18.375500 -1.276580 34.232672 -0.567062 1.608096 0.090685 -0.030424 206376.000000 0 0 1
-29.125387 16.899600 -1.278180 33.697454 -0.525760 1.608736 0.074734 -0.028279 53590.400000 0 0 1
-29.957087 16.488700 -0.194580 34.195645 -0.503158 1.576487 0.093441 -0.034079 409337.000000 0 0 1
-30.160587 15.071800 -0.158280 33.717135 -0.463422 1.575491 0.102857 -0.030624 259957.000000 0 0 1
-28.986487 14.258600 0.480720 32.307200 -0.457151 1.555916 0.111151 -0.021877 -12022.900000 0 0 1
-28.794087 14.409200 1.859020 32.251828 -0.463985 1.513124 0.123356 -0.021015 479560.000000 0 0 1
-27.545187 13.870000 2.291620 30.925163 -0.466473 1.496626 0.112544 -0.018908 336498.000000 0 0 1
-27.427587 12.316600 2.398920 30.161664 -0.422071 1.491177 0.133924 -0.017606 -436513.000000 0 0 1
-27.277287 11.786100 1.119520 29.735767 -0.407856 1.533139 0.120082 -0.021447 155718.000000 0 0 1
-26.769887 10.503400 1.224420 28.782763 -0.373902 1.528243 0.155591 -0.023625 -187570.000000 0 0 1
-26.683687 9.716000 -0.125680 28.397810 -0.349196 1.575222 0.149557 -0.019947 253088.000000 0 0 1
-27.958787 9.470100 -0.704180 29.527486 -0.326587 1.594647 0.151243 -0.020660 239762.000000 0 0 1
-27.811287 8.649600 -1.876780 29.185708 -0.301527 1.635146 0.165974 -0.021225 37404.800000 0 0 1
-29.106187 8.403700 -2.688680 30.414163 -0.281081 1.659314 0.161973 -0.025409 -31373.600000 0 0 1
-28.984287 7.597800 -3.806580 30.204395 -0.256367 1.697160 0.179825 -0.017130 -249863.000000 0 0 1
-30.148187 7.688800 -4.571680 31.447274 -0.249711 1.716689 0.171644 -0.020054 -174780.000000 0 0 1
-10.744218 17.804100 -19.649280 28.609761 -1.027830 2.327878 0.124000 -0.029426 -148050.000000 0 0 1
-11.222518 16.681000 -20.306880 28.575690 -0.978578 2.361196 0.130673 -0.037389 -189130.000000 0 0 1
-10.781018 16.621400 -21.648780 29.345715 -0.995390 2.400476 0.124795 -0.035578 -161522.000000 0 0 1
-11.297418 15.358000 -22.365380 29.388944 -0.936572 2.435670 0.107911 -0.024758 -156645.000000 0 0 1
-10.421318 14.267500 -22.161080 28.342175 -0.939942 2.468523 0.123038 -0.042697 120623.000000 0 0 1
-10.671918 13.118200 -22.987880 28.538039 -0.887866 2.507344 0.109586 -0.043798 18985.700000 0 0 1
-9.538418 12.108600 -22.736380 27.468939 -0.903576 2.545815 0.086486 -0.035957 736328.000000 0 0 1
-8.198318 12.482700 -23.117480 27.521775 -0.989673 2.568025 0.073671 -0.032682 1106100.000000 0 0 1
-7.278818 11.613200 -22.434880 26.290140 -1.010924 2.593188 0.066531 -0.027257 -807085.000000 0 0 1
-5.832118 11.961500 -22.597280 26.224572 -1.117139 2.609374 0.052812 -0.022954 -1079600.000000 0 0 1
-5.200418 11.480200 -23.756080 26.892205 -1.145459 2.653826 0.050529 -0.033887 -264846.000000 0 0 1
-3.802518 11.640900 -23.605080 26.592659 -1.255071 2.663022 0.052668 -0.025348 392250.000000 0 0 1
-2.986118 11.256600 -24.884180 27.474540 -1.311492 2.703866 0.075693 -0.037827 -27014.400000 0 0 1
-3.145518 9.859400 -25.151220 27.197168 -1.261967 2.751236 0.074000 -0.033986 217952.000000 0 0 1
-2.722518 9.591300 -26.513310 28.325973 -1.294218 2.781906 0.079097 -0.034298 -384374.000000 0 0 1
-2.492218 8.119600 -26.799450 28.113157 -1.272986 2.834680 0.086665 -0.024697 800962.000000 0 0 1
-1.340418 7.400400 -26.271050 27.326374 -1.391611 2.862772 0.095057 -0.024572 1045180.000000 0 0 1
-1.229518 7.355900 -24.821080 25.917311 -1.405180 2.849706 0.100964 -0.043172 -435085.000000 0 0 1
-0.245518 6.317200 -24.268980 25.078890 -1.531951 2.886760 0.046781 -0.032124 295540.000000 0 0 1
1.097082 6.799000 -24.199280 25.160190 1.410816 2.864330 0.069745 -0.009012 902219.000000 0 0 1
2.003182 6.052100 -23.358480 24.212791 1.251157 2.875161 0.068940 0.000453 515386.000000 0 1 0
1.988982 6.497400 -21.855480 22.887426 1.273735 2.840160 0.055356 -0.009870 -396356.000000 0 1 0
2.699182 7.672500 -21.769480 23.239258 1.232519 2.784035 0.059169 -0.021423 -69622.300000 0 1 0
2.680682 8.170500 -20.443380 22.178253 1.253770 2.743433 0.070547 -0.025546 -56675.700000 0 1 0
3.169182 9.639400 -20.379080 22.765515 1.253155 2.679616 0.064082 -0.032070 -333993.000000 0 1 0
2.925282 10.291700 -19.134480 21.922698 1.293863 2.631739 0.068779 -0.037456 30289.100000 0 1 0
3.417682 11.647900 -19.054480 22.592639 1.285391 2.574364 0.077995 -0.030337 -251901.000000 0 1 0
4.721582 11.722700 -18.268280 22.213624 1.187902 2.536397 0.083171 -0.041282 -530494.000000 0 1 0
5.794482 11.021400 -18.850180 22.591515 1.086763 2.557825 0.085029 -0.034758 -566606.000000 0 1 0
6.683982 10.727100 -17.806980 21.836548 1.013569 2.524332 0.083024 -0.036688 774186.000000 0 1 0
7.894082 9.721700 -18.174080 22.070912 0.888777 2.538244 0.104794 -0.047043 885461.000000 0 1 0
7.588282 8.445000 -18.647780 21.832081 0.838781 2.594702 0.091242 -0.030808 -208365.000000 0 1 0
7.085982 8.398800 -19.952580 22.778420 0.869977 2.638182 0.076331 -0.018392 -80044.300000 0 1 0
6.689082 6.966800 -20.334080 22.511218 0.805732 2.698165 0.079398 -0.017797 -471195.000000 0 1 0
7.782182 6.128300 -20.544880 22.808124 0.667059 2.692336 0.071651 -0.008962 -213548.000000 0 1 0
7.449982 4.750300 -20.720080 22.525304 0.567627 2.738515 0.054166 -0.005962 -140064.000000 0 1 0
7.255382 4.325600 -22.206080 23.758396 0.537615 2.778105 0.064999 -0.015071 178101.000000 0 1 0
6.172882 4.926300 -22.912380 24.235306 0.673554 2.809657 0.062495 -0.017141 112383.000000 0 1 0
6.143582 4.557800 -24.271180 25.448130 0.638284 2.836273 0.067177 -0.017129 280628.000000 0 0 1
5.310182 5.523000 -25.215140 26.353460 0.805041 2.846605 0.061441 -0.015301 160490.000000 0 0 1
5.764482 6.871500 -25.376550 26.914978 0.872783 2.801852 0.068965 -0.023458 90113.700000 0 0 1
5.593682 7.691500 -24.194080 25.996191 0.942012 2.767058 0.083561 -0.029096 -869076.000000 0 0 1
5.418282 9.182800 -24.530080 26.747083 1.037728 2.731571 0.101908 -0.036233 -203366.000000 0 0 1
4.340582 9.567200 -25.330230 27.422482 1.144875 2.748433 0.091770 -0.034898 569095.000000 0 0 1
3.080882 9.482500 -24.629680 26.571240 1.256653 2.756943 0.092324 -0.024727 756413.000000 0 0 1
1.778382 9.736200 -25.462480 27.318385 1.390131 2.770865 0.102345 -0.020957 490892.000000 0 0 1
1.668282 11.106300 -25.829970 28.165944 1.421701 2.731450 0.120236 -0.029288 -564151.000000 0 0 1
0.468082 11.340900 -26.488400 28.817884 1.529546 2.736752 0.126298 -0.036936 -705368.000000 0 0 1
0.178382 12.852100 -26.873310 29.788976 1.556918 2.695460 0.111538 -0.035029 -52853.100000 0 0 1
-0.318318 13.538500 -25.769330 29.111006 -1.547289 2.657740 0.104874 -0.033081 10925.800000 0 0 1
-0.604518 14.873700 -26.132860 30.075219 -1.530175 2.623806 0.090002 -0.037814 -72148.400000 0 0 1
-1.030518 15.687200 -24.897480 29.445454 -1.505199 2.578383 0.094100 -0.035327 -336980.000000 0 0 1
-2.246818 15.262200 -24.361880 28.835467 -1.424632 2.577096 0.076357 -0.029382 -593669.000000 0 0 1
-2.457218 15.751400 -23.057680 28.032145 -1.416044 2.536667 0.074004 -0.034185 115931.000000 0 0 1
-3.731918 15.138400 -22.376680 27.272957 -1.329096 2.533031 0.054781 -0.030823 2028700.000000 0 0 1
-5.060118 15.541000 -22.835180 28.081541 -1.256024 2.520381 0.067247 -0.033261 1349340.000000 0 0 1
-5.390118 15.118800 -24.167780 29.012292 -1.228327 2.555338 0.070035 -0.037515 -808591.000000 0 0 1
-6.899118 15.137000 -24.433880 29.559112 -1.143147 2.543855 0.061995 -0.032292 147580.000000 0 0 1
-7.597818 16.385400 -24.624080 30.537739 -1.136613 2.508749 0.068295 -0.030653 56471.900000 0 0 1
-8.930718 16.092200 -24.959380 31.011083 -1.064144 2.506225 0.076501 -0.027286 -308718.000000 0 0 1
-9.800718 17.253600 -25.483650 32.297945 -1.054209 2.480005 0.087544 -0.030218 14224.200000 0 0 1
-10.207918 18.124700 -24.490780 32.132611 -1.057872 2.437468 0.094365 -0.028933 -188890.000000 0 0 1
-11.127618 19.046600 -25.011480 33.349228 -1.042052 2.418838 0.082864 -0.012414 310660.000000 0 0 1
-11.854318 19.925600 -23.935080 33.323302 -1.034114 2.372107 0.091768 -0.013233 -66650.600000 0 0 1
-11.062118 20.973900 -23.482180 33.371960 -1.085452 2.351318 0.092164 -0.019770 -342025.000000 0 0 1
-11.500618 22.256200 -23.819380 34.568274 -1.093848 2.330978 0.068956 -0.015617 -205032.000000 0 0 1
-11.221118 22.870600 -25.255390 35.872170 -1.114669 2.351865 0.069015 -0.006762 -136187.000000 0 0 1
-11.739418 22.168700 -26.378530 36.401814 -1.083790 2.381321 0.070084 -0.009110 120144.000000 0 0 1
-11.502118 22.813500 -27.608110 37.615984 -1.103810 2.394910 0.067985 -0.006164 -51415.800000 0 0 1
-12.086418 22.036500 -28.821460 38.240887 -1.069126 2.424442 0.061277 -0.012232 77589.000000 0 0 1
-11.374318 20.882500 -29.275000 37.715773 -1.072045 2.459413 0.061099 -0.014509 -10492.500000 0 0 1
-11.307018 19.724000 -28.417380 36.392751 -1.050269 2.466826 0.068253 -0.009808 -668721.000000 0 0 1
-10.350218 18.725700 -29.045170 36.074933 -1.065861 2.506698 0.059106 -0.018573 -870316.000000 0 0 1
-9.085018 19.353000 -28.907130 35.954114 -1.131896 2.504789 0.055741 -0.021129 315817.000000 0 0 1
-7.971718 18.689200 -29.551780 35.862825 -1.167621 2.539271 0.050025 -0.022057 1114910.000000 0 0 1
-7.507218 17.328000 -28.881510 34.507384 -1.161965 2.562512 0.066793 -0.033870 -947596.000000 0 0 1
-8.454018 16.308100 -29.063690 34.382010 -1.092542 2.577954 0.054526 -0.026372 -328429.000000 0 0 1
-8.220018 15.053200 -28.476590 33.242800 -1.070980 2.599487 0.049800 -0.029162 -560185.000000 0 0 1
-9.433218 14.103900 -28.480190 33.151574 -0.981292 2.604286 0.051324 -0.020702 153317.000000 0 0 1
-10.405718 14.547200 -27.530120 32.829979 -0.949871 2.565443 0.060027 -0.020007 61763.400000 0 0 1
-11.572518 13.744900 -27.540630 32.883609 -0.870994 2.563522 0.088445 -0.024271 242409.000000 0 0 1
-12.520718 14.165300 -26.387740 32.461315 -0.846947 2.519907 0.083429 -0.024667 -18896.700000 0 0 1
-13.235218 15.328200 -26.676900 33.493010 -0.858542 2.492267 0.076758 -0.019585 -371977.000000 0 0 1
-14.071518 15.759800 -25.614850 33.203908 -0.841932 2.451899 0.059304 -0.019500 82667.300000 0 0 1
-15.089918 16.821900 -26.025000 34.467123 -0.839619 2.426553 0.041077 -0.009356 41584.000000 0 0 1
-14.513618 18.089800 -26.393290 35.135335 -0.894649 2.420658 0.043206 -0.002218 -296747.000000 0 0 1
-15.536618 18.978500 -26.643510 36.213901 -0.884791 2.397534 0.017723 0.000453 -926645.000000 0 0 1
-15.056918 20.401000 -27.034780 37.064686 -0.934988 2.388233 0.026299 -0.002267 -255422.000000 0 0 1
-16.136318 21.297400 -27.145290 38.089720 -0.922407 2.364089 -0.004603 0.004936 -133291.000000 0 0 1
-15.770618 22.638900 -27.186570 38.734246 -0.962345 2.348822 0.013007 0.004477 -167871.000000 0 0 1
-15.399418 23.353800 -25.888330 38.114928 -0.987844 2.317492 -0.013955 0.003418 131240.000000 0 0 1
-14.983518 24.686700 -26.083540 38.913880 -1.025284 2.305394 0.022289 -0.005825 81168.400000 0 0 1
-14.622918 25.294800 -24.862880 38.364299 -1.046636 2.275848 0.046944 -0.011329 -169107.000000 0 0 1
-14.175718 26.785200 -25.172430 39.396055 -1.084034 2.263939 0.078775 -0.014728 -432690.000000 0 0 1
-15.132818 27.696600 -25.620910 40.651382 -1.070738 2.252683 0.089220 -0.016301 -484917.000000 0 0 1
-15.658918 28.397500 -24.519180 40.654765 -1.066864 2.218187 0.089046 -0.019392 91760.100000 0 0 1
-16.980618 29.186300 -24.690780 41.830804 -1.043866 2.202169 0.073681 -0.016404 853830.000000 0 0 1
-18.111918 28.355000 -24.904980 41.860550 -1.002366 2.208001 0.042619 -0.011110 643080.000000 0 0 1
-19.391318 28.957000 -25.112300 42.955310 -0.980725 2.195201 0.040640 -0.011689 681831.000000 0 0 1
-20.553718 27.960400 -24.987880 42.762524 -0.936899 2.194864 0.015961 0.007666 -270045.000000 0 0 1
-20.871618 27.760600 -23.650480 42.019288 -0.926117 2.168624 0.028123 0.003289 -369084.000000 0 0 1
-21.779618 26.687800 -23.602080 41.757019 -0.886322 2.171501 0.034911 -0.010599 -307016.000000 0 0 1
-22.450218 26.668000 -22.205580 41.331372 -0.871058 2.137978 0.041639 -0.003767 -340847.000000 0 0 1
-23.478618 27.580800 -21.970380 42.363235 -0.865567 2.116031 0.035290 0.005613 -355529.000000 0 0 1
-23.907518 27.515700 -20.653580 41.895746 -0.855450 2.086303 0.017857 0.006164 144373.000000 0 0 1
-25.214668 28.366200 -20.421380 43.098185 -0.844149 2.064436 0.010081 0.011003 713897.000000 0 0 1
-26.317798 27.579800 -20.850780 43.451432 -0.808809 2.071296 0.007283 0.010169 206787.000000 0 0 1
-27.549308 28.301600 -20.763080 44.621188 -0.798867 2.054791 0.027547 0.003319 501416.000000 0 0 1
-28.763148 27.485600 -21.219680 45.089375 -0.762690 2.060783 0.025360 -0.001961 -128657.000000 0 0 1
-28.744498 27.319300 -22.629380 45.658287 -0.759983 2.089350 0.023399 0.008177 -162214.000000 0 0 1
-30.048268 26.991200 -23.052180 46.506197 -0.731854 2.089414 0.015118 -0.003973 89715.100000 0 0 1
-30.152238 26.583100 -24.523580 47.087415 -0.722572 2.118595 0.013548 0.010499 -40086.500000 0 0 1
-29.888598 25.211900 -24.848280 46.329313 -0.700725 2.136891 0.032064 0.014015 -98402.500000 0 0 1
-29.810948 25.168000 -26.254670 47.025829 -0.701148 2.163135 0.047449 0.009083 38029.600000 0 0 1
-29.853108 23.694500 -26.708160 46.539910 -0.670889 2.182028 0.062426 0.001422 -987791.000000 0 0 1
-28.657228 23.032700 -26.625620 45.394555 -0.677012 2.197574 0.070437 -0.008564 -791594.000000 0 0 1
-28.864988 21.720200 -27.143640 45.185527 -0.645084 2.215192 0.092747 -0.021545 408365.000000 0 0 1
-27.821658 20.660100 -26.615370 43.695107 -0.638742 2.225741 0.092898 -0.022859 351512.000000 0 0 1
-27.856668 20.341100 -25.234490 42.737967 -0.630712 2.202408 0.090412 -0.020761 206711.000000 0 0 1
-27.214488 19.076200 -25.003680 41.589828 -0.611368 2.215795 0.085937 -0.024244 -96968.100000 0 0 1
-28.114118 17.816400 -25.046070 41.654932 -0.564843 2.215892 0.078563 -0.021950 -133370.000000 0 0 1
-28.855008 17.672700 -26.251830 42.826329 -0.549535 2.230627 0.080466 -0.024160 468808.000000 0 0 1
-29.488428 16.380400 -26.171280 42.694506 -0.507045 2.230635 0.069708 -0.026180 -124088.000000 0 0 1
-30.307648 15.939100 -27.388900 43.849291 -0.484160 2.245434 0.063632 -0.023060 67556.300000 0 0 1
-31.548618 16.594100 -27.529760 45.039618 -0.484219 2.228416 0.062556 -0.030760 45877.100000 0 0 1
-32.289388 16.130600 -28.636470 46.074378 -0.463298 2.241487 0.074864 -0.027107 1252760.000000 0 0 1
-33.643598 16.898900 -28.974820 47.507944 -0.465479 2.226723 0.082880 -0.028756 1120180.000000 0 0 1
-34.690796 16.702900 -28.044550 47.633339 -0.448722 2.200319 0.060198 -0.026237 725075.000000 0 0 1
-35.940662 16.943100 -28.726650 49.030810 -0.440522 2.196774 0.061833 -0.022530 1402110.000000 0 0 1
36.862870 16.716200 -27.888760 49.153692 0.425736 2.174115 0.051829 -0.013892 535094.000000 0 0 1
36.518080 17.537000 -26.790900 48.568188 0.447705 2.155095 0.057628 -0.019964 411414.000000 0 0 1
35.320130 17.045500 -26.175530 47.151024 0.449631 2.159330 0.061510 -0.013154 421105.000000 0 0 1
34.701130 18.063900 -25.213450 46.542357 0.479957 2.143292 0.060830 -0.008934 -346650.000000 0 0 1
34.070960 19.120300 -25.844690 46.844041 0.511394 2.155219 0.073562 -0.026491 -100779.000000 0 0 1
33.633710 20.081400 -24.894680 46.413728 0.538256 2.136920 0.095209 -0.017345 -40871.400000 0 0 1
32.886130 21.273600 -25.571180 46.775516 0.574183 2.149189 0.096521 -0.028739 1535310.000000 0 0 1
31.566360 20.956600 -26.093340 46.005180 0.586078 2.173877 0.078837 -0.030203 1419390.000000 0 0 1
30.498330 21.545400 -25.338250 45.126260 0.615039 2.166990 0.084841 -0.015585 999808.000000 0 0 1
29.047430 21.309200 -25.842790 44.336046 0.632922 2.193070 0.064958 -0.018015 603495.000000 0 0 1
28.794550 19.912400 -25.853950 43.520760 0.605021 2.206893 0.062769 -0.025958 300190.000000 0 0 1
27.524650 19.642900 -26.463370 42.939025 0.619827 2.234833 0.047512 -0.017076 437183.000000 0 0 1
27.024050 18.167300 -26.500970 41.983943 0.591868 2.253917 0.064660 -0.016274 39311.700000 0 0 1
27.853250 17.276200 -27.229710 42.611357 0.555182 2.264026 0.047773 -0.017255 748745.000000 0 0 1
29.074160 16.858100 -26.586570 42.852632 0.525457 2.240073 0.052477 -0.013898 704504.000000 0 0 1
29.978520 15.896600 -27.408680 43.619369 0.487566 2.250240 0.020884 0.001233 94030.600000 0 0 1
29.411310 14.629000 -27.844740 43.062308 0.461560 2.273935 0.031461 0.002447 480016.000000 0 0 1
28.767250 13.727500 -26.883310 41.697857 0.445235 2.271449 0.057974 -0.006268 -46305.800000 0 0 1
29.641980 12.807300 -25.989440 41.450270 0.407841 2.248496 0.053646 -0.009394 -439993.000000 0 0 1
30.305300 13.562000 -25.021580 41.574253 0.420783 2.216615 0.052408 -0.011814 -305681.000000 0 0 1
31.078970 12.691600 -24.232080 41.402570 0.387698 2.196021 0.047589 -0.013919 -87394.000000 0 0 1
-15.012518 -31.121455 -23.544980 41.812519 1.121340 2.168939 0.156007 -0.010347 33139.800000 0 0 1
-14.401018 -29.934955 -23.964080 40.960566 1.122401 2.195741 0.144381 -0.025648 124644.000000 0 0 1
-14.571518 -29.770155 -25.375960 41.743630 1.115610 2.224210 0.118904 -0.014620 105009.000000 0 0 1
-13.873218 -28.449555 -25.873600 40.881372 1.117083 2.256083 0.109165 -0.012337 9576.310000 0 0 1
-14.415318 -27.230455 -25.381040 39.918621 1.083920 2.259866 0.110411 -0.012768 148856.000000 0 0 1
-13.817618 -26.050955 -25.956140 39.284858 1.083120 2.292569 0.094151 -0.006248 -63170.300000 0 0 1
-14.211018 -24.724955 -25.327540 38.141326 1.049139 2.297012 0.055101 -0.008954 -190007.000000 0 0 1
-13.621218 -24.448755 -24.052980 36.902914 1.062493 2.280740 0.074427 -0.017756 196954.000000 0 0 1
-14.117818 -23.205255 -23.506980 35.921787 1.024231 2.284176 0.055339 -0.014604 -668647.000000 0 0 1
-13.496718 -22.608855 -22.221380 34.454484 1.032611 2.271753 0.063204 -0.019063 61451.500000 0 0 1
-12.188818 -22.114555 -22.422480 33.769638 1.067057 2.296930 0.076943 -0.023671 -125172.000000 0 0 1
-11.539618 -21.770355 -21.228980 32.523541 1.083390 2.281974 0.062989 -0.024359 54296.200000 0 0 1
-10.020218 -21.553255 -21.282180 31.904212 1.135617 2.301058 0.061121 -0.028308 -108923.000000 0 0 1
-9.667718 -20.432955 -22.056580 31.582640 1.128864 2.343923 0.072944 -0.033018 977587.000000 0 0 1
-8.240918 -20.259755 -22.220480 31.178841 1.184473 2.364105 0.094692 -0.037795 1159110.000000 0 0 1
-7.828718 -19.138055 -23.212380 31.086469 1.182499 2.413889 0.108941 -0.032659 -135392.000000 0 0 1
-7.935718 -17.913255 -22.526380 29.854617 1.153772 2.425743 0.079100 -0.032124 -221803.000000 0 0 1
-8.158918 -16.767055 -23.276480 29.824430 1.117923 2.466182 0.075498 -0.037683 -431200.000000 0 0 1
-6.935718 -16.078955 -23.951780 29.670267 1.163556 2.510300 0.097688 -0.044258 16885.400000 0 0 1
-6.392118 -16.932155 -24.898180 30.781105 1.209824 2.513039 0.112909 -0.044466 83473.800000 0 0 1
-5.306118 -16.359355 -25.639460 30.873375 1.257155 2.550750 0.082745 -0.048738 245153.000000 0 0 1
-5.098218 -17.038955 -26.989170 32.322332 1.280065 2.558930 0.094073 -0.024618 120154.000000 0 0 1
-6.146318 -16.781155 -27.923180 33.152502 1.219707 2.572267 0.118704 -0.020719 205022.000000 0 0 1
-6.044918 -17.688755 -28.997730 34.500746 1.241501 2.568994 0.103954 -0.028859 -164878.000000 0 0 1
-7.179318 -17.578155 -30.060170 35.554859 1.183050 2.578220 0.110530 -0.033088 176352.000000 0 0 1
-7.165318 -16.550855 -31.016660 35.879044 1.162230 2.614908 0.091435 -0.024520 -113899.000000 0 0 1
-7.101518 -15.169655 -30.524390 34.817932 1.132960 2.639726 0.079239 -0.022487 -5100.680000 0 0 1
-7.661718 -14.191755 -31.578610 35.458658 1.075763 2.669405 0.063782 -0.025028 -268439.000000 0 0 1
-6.808618 -14.005155 -32.664200 36.186346 1.118289 2.696722 0.083493 -0.027530 -131900.000000 0 0 1
-7.377918 -13.244655 -33.777410 37.023884 1.062558 2.719696 0.080630 -0.020808 68852.500000 0 0 1
-7.753718 -11.798455 -33.557040 36.406025 0.989390 2.743351 0.055310 -0.023285 959728.000000 0 0 1
-6.619118 -10.887455 -33.591800 35.927127 1.024546 2.779050 0.049003 -0.025075 844668.000000 0 0 1
-6.336518 -10.349955 33.081444 35.237125 1.021435 0.351598 0.037538 -0.023855 -468195.000000 0 0 1
-5.248018 -9.303355 33.160753 34.838623 1.057193 0.311618 0.052663 -0.023441 -410393.000000 0 0 1
-5.069318 -8.720355 31.916047 33.472028 1.044225 0.306107 0.042687 -0.019624 -81328.600000 0 0 1
-3.989818 -7.823455 31.860227 33.048437 1.099195 0.268965 0.042372 -0.025290 -618335.000000 0 0 1
-4.211418 -6.838255 30.623787 31.659345 1.018795 0.256473 0.037276 -0.015824 540563.000000 0 0 1
-5.310018 -5.928855 30.747947 31.761358 0.840405 0.253291 0.027871 -0.011748 206885.000000 0 0 1
-6.504218 -6.525555 30.264807 31.636155 0.787036 0.295514 0.045008 -0.008603 -209372.000000 0 0 1
-7.681918 -5.514255 30.220187 31.665101 0.622588 0.303257 0.043759 -0.006660 308908.000000 0 0 1
-8.799618 -6.136155 29.588067 31.472836 0.608925 0.347830 0.063830 -0.006666 288005.000000 0 0 1
-9.910818 -5.223055 29.534067 31.587430 0.485018 0.362553 0.065292 -0.012489 398780.000000 0 0 1
-11.105218 -5.870655 28.821287 31.439737 0.486296 0.411016 0.067169 -0.012329 -323419.000000 0 0 1
-10.839218 -5.811255 27.413837 30.046261 0.492134 0.421717 0.064527 -0.004819 244279.000000 0 0 1
-11.725618 -6.577355 26.655237 29.853867 0.511203 0.467146 0.067753 -0.007306 -143703.000000 0 0 1
-11.360418 -6.328555 25.159157 28.321245 0.508255 0.477059 0.050034 -0.010512 803163.000000 0 0 1
-10.066118 -6.751055 24.697177 27.510981 0.590770 0.456228 0.056003 -0.009577 902855.000000 0 0 1
-9.564318 -6.190455 23.472017 26.090870 0.574436 0.451885 0.053455 -0.011738 -156074.000000 0 0 1
-10.304418 -6.601755 22.178367 25.330696 0.569790 0.504217 0.048038 -0.024321 -271508.000000 0 0 1
-11.585118 -6.025555 22.116067 25.683511 0.479607 0.533367 0.041636 -0.018577 -742981.000000 0 0 1
-12.261718 -6.125355 20.964767 25.047778 0.463288 0.579035 0.034896 -0.021564 -1513390.000000 0 0 1
-13.408818 -5.163455 20.958167 25.410676 0.367578 0.600987 0.026593 -0.018686 -685345.000000 0 0 1
-13.003318 -3.853355 20.748967 24.788188 0.288092 0.578926 0.020042 -0.013647 250109.000000 0 1 0
-14.119018 -3.049455 21.102867 25.572971 0.212715 0.600237 0.027593 -0.003366 462036.000000 0 0 1
-14.034918 -1.659455 20.564567 24.952638 0.117691 0.602107 0.034887 -0.006335 -121360.000000 0 1 0
-12.982218 -0.873455 21.084167 24.775856 0.067180 0.552916 0.023720 -0.010584 -221690.000000 0 1 0
-13.086918 0.497545 20.909767 24.672522 -0.038000 0.559554 0.029462 -0.012690 -629996.000000 0 1 0
-12.715018 1.094545 19.526567 23.327164 -0.085871 0.578883 0.043916 -0.022549 -178440.000000 0 1 0
-13.439518 0.683545 18.388467 22.786479 -0.050817 0.631758 0.054254 -0.024980 377543.000000 0 1 0
-14.742418 1.294545 18.373667 23.592507 -0.087586 0.678058 0.063263 -0.022379 248405.000000 0 1 0
-15.754318 0.471545 17.587867 23.616816 -0.029922 0.730684 0.078141 -0.016416 -455397.000000 0 1 0
-16.000218 -0.799455 18.165067 24.220153 0.049924 0.722737 0.052474 -0.011781 281326.000000 0 1 0
-16.728818 -1.618455 17.249867 24.083826 0.096446 0.772393 0.048850 -0.006414 -91909.800000 0 1 0
-16.856118 -3.106655 17.731867 24.661694 0.182259 0.768428 0.050187 -0.001848 193323.000000 0 1 0
-17.767318 -3.294655 18.805967 26.080582 0.183351 0.765449 0.060255 -0.006804 -239750.000000 0 0 1
-17.574218 -4.614655 19.275167 26.489248 0.256784 0.755892 0.061934 -0.012744 -186167.000000 0 0 1
-18.342718 -4.975655 20.523767 27.972084 0.264886 0.747011 0.058159 -0.006887 -446814.000000 0 0 1
-17.915218 -4.348155 21.753767 28.514696 0.238103 0.703015 0.054186 -0.008035 63779.800000 0 0 1
-18.671418 -4.613955 22.933597 29.930926 0.242260 0.697863 0.060311 -0.014886 -471130.000000 0 0 1
-18.713418 -6.086655 23.483997 30.638824 0.314464 0.697456 0.073909 -0.012471 461941.000000 0 0 1
-17.459218 -6.580955 23.944017 30.355382 0.360464 0.661959 0.040501 -0.016456 959676.000000 0 0 1
-16.476818 -7.022555 22.989307 29.142925 0.402894 0.661866 0.050735 -0.015662 260801.000000 0 0 1
-15.341818 -7.819555 23.661147 29.263744 0.471369 0.629116 0.060421 -0.005889 -176297.000000 0 0 1
-15.760318 -9.042955 24.241577 30.295490 0.520917 0.643216 0.063653 -0.014407 90566.200000 0 0 1
-15.412318 -9.167755 25.645487 31.293423 0.536612 0.610229 0.066873 -0.010920 365199.000000 0 0 1
-16.336218 -10.246555 26.271317 32.589048 0.560201 0.633198 0.064275 -0.013132 -143173.000000 0 0 1
-16.143018 -11.560455 25.791517 32.549094 0.621468 0.656082 0.066385 -0.017248 133717.000000 0 0 1
-15.130418 -12.258155 26.517647 32.899507 0.680909 0.633400 0.064988 -0.015414 149221.000000 0 0 1
-15.145918 -13.812255 26.396317 33.420694 0.739376 0.660282 0.057328 -0.019553 -349292.000000 0 0 1
-16.284918 -14.427555 26.961387 34.644903 0.724996 0.678969 0.054285 -0.021032 43086.100000 0 0 1
-16.407218 -15.843355 26.814817 35.202885 0.767916 0.704829 0.067475 -0.013856 -105223.000000 0 0 1
-15.397418 -16.690555 27.613477 35.751353 0.825676 0.688223 0.075101 -0.016651 -421467.000000 0 0 1
-14.090818 -16.660755 27.126747 34.813680 0.868775 0.677411 0.063028 -0.022349 -20841.500000 0 0 1
-13.182818 -17.335155 28.032467 35.498078 0.920630 0.660493 0.071710 -0.020249 362218.000000 0 0 1
-11.878118 -17.712455 27.298807 34.641675 0.980070 0.663188 0.078390 -0.025906 -451917.000000 0 0 1
-11.002918 -18.447655 28.079657 35.353180 1.032999 0.653006 0.085638 -0.037102 -916648.000000 0 0 1
-9.923118 -18.880655 27.345327 34.680172 1.086902 0.662429 0.081663 -0.036108 -1065470.000000 0 0 1
-8.793318 -19.509655 28.144847 35.356492 1.147347 0.650088 0.100427 -0.036734 -267681.000000 0 0 1
-9.202518 -20.710655 28.765367 36.620540 1.152661 0.667296 0.090509 -0.023855 152577.000000 0 0 1
-8.163118 -21.249455 29.568427 37.315784 1.204022 0.656089 0.098468 -0.023258 12165.400000 0 0 1
-8.228818 -22.759055 30.001827 38.546046 1.223858 0.678783 0.090513 -0.022547 3694.880000 0 0 1
-8.161418 -23.596555 28.916427 38.204266 1.237803 0.712255 0.084657 -0.027329 24382.700000 0 0 1
-8.338618 -24.921855 29.361447 39.404644 1.247915 0.730072 0.075195 -0.022969 -226358.000000 0 0 1
-8.584418 -26.021455 28.310327 39.399023 1.252141 0.769075 0.071784 -0.015780 84652.600000 0 0 1
-9.891718 -26.026255 27.753937 39.312760 1.207591 0.786993 0.067011 -0.017479 299806.000000 0 0 1
-10.142318 -27.187855 26.970217 39.616142 1.213740 0.821958 0.070884 -0.009079 943174.000000 0 0 1
-11.603418 -27.204755 26.341847 39.605945 1.167637 0.843171 0.064196 -0.010931 1047560.000000 0 0 1
-11.868318 -26.449855 25.149207 38.378828 1.149016 0.856232 0.080901 -0.013937 157160.000000 0 0 1
-11.987818 -25.073755 25.388007 37.642421 1.124820 0.830574 0.071269 -0.010078 -297522.000000 0 0 1
-12.382618 -24.352155 24.063947 36.406459 1.100387 0.848672 0.091564 -0.029153 -165340.000000 0 0 1
-13.629518 -24.780955 23.583457 36.824434 1.067953 0.875739 0.079135 -0.018884 -159134.000000 0 0 1
-13.889718 -24.290655 22.277167 35.766358 1.051360 0.898413 0.077580 -0.028097 1094690.000000 0 0 1
-15.350318 -24.597455 21.731167 36.234109 1.012872 0.927616 0.056025 -0.026988 954492.000000 0 0 1
-15.620918 -25.842255 21.142067 36.862206 1.027095 0.959972 0.074317 -0.020670 396121.000000 0 0 1
-16.732918 -25.865155 20.241267 36.860625 0.996583 0.989474 0.063170 -0.024369 420023.000000 0 0 1
-16.963518 -27.286855 19.651267 37.663055 1.014593 1.021878 0.065481 -0.021515 342196.000000 0 0 1
-16.008718 -27.575055 18.633267 36.930494 1.044801 1.041936 0.062295 -0.024112 274319.000000 0 0 1
-16.082418 -28.937255 18.299867 37.827160 1.063535 1.065832 0.071515 -0.017286 -9581.870000 0 0 1
-15.025518 -29.381355 17.279567 37.250687 1.098073 1.088435 0.072330 -0.030415 -124533.000000 0 0 1
-15.213518 -28.780255 15.989867 36.268858 1.084524 1.114228 0.076016 -0.040529 423649.000000 0 0 1
-14.127018 -29.161555 15.153867 35.771617 1.119674 1.133349 0.092428 -0.033023 172981.000000 0 0 1
-14.443218 -28.589855 13.783667 34.870845 1.103008 1.164426 0.091128 -0.040700 17251.900000 0 0 1
-14.452118 -27.199955 13.816967 33.758108 1.082401 1.149117 0.086629 -0.038664 -201054.000000 0 0 1
-14.784118 -26.507355 12.606567 32.865416 1.062033 1.177125 0.089997 -0.047377 -376783.000000 0 0 1
-13.833418 -26.499555 11.409467 31.996340 1.089685 1.206185 0.087501 -0.042588 -358172.000000 0 0 1
-14.319918 -25.851855 10.299667 31.296351 1.064947 1.235445 0.071303 -0.038012 -213748.000000 0 0 1
-13.357818 -25.924555 9.243667 30.593451 1.095017 1.263854 0.078816 -0.029879 422205.000000 0 0 1
-13.853918 -25.424355 7.844767 29.997821 1.071871 1.306209 0.085514 -0.036116 575054.000000 0 0 1
-14.849618 -26.250455 7.214267 31.010372 1.055987 1.336005 0.092117 -0.032170 636223.000000 0 0 1
-15.493118 -25.549855 6.128567 30.502313 1.025693 1.368498 0.095774 -0.026038 255079.000000 0 0 1
-16.390618 -26.345755 5.156767 31.453830 1.014260 1.406106 0.100901 -0.030652 -308000.000000 0 0 1
-15.720818 -27.356055 4.519567 31.873568 1.049207 1.428520 0.101976 -0.020983 -602065.000000 0 0 1
-16.312118 -27.784455 3.340467 32.391663 1.039920 1.467485 0.111090 -0.022634 -564267.000000 0 0 1
-15.563918 -28.889855 2.606867 32.918916 1.076645 1.491523 0.103281 -0.026489 -1064040.000000 0 0 1
-14.386118 -28.463155 2.037467 31.957203 1.102815 1.506997 0.083733 -0.016123 -1078200.000000 0 0 1
-13.705218 -29.584055 1.575867 32.642498 1.136967 1.522501 0.073907 -0.019144 364097.000000 0 0 1
-12.365718 -29.282055 0.811967 31.796368 1.171218 1.545257 0.079793 -0.018318 503709.000000 0 0 1
-12.484518 -28.603255 -0.430433 31.212091 1.159249 1.584587 0.084165 -0.010314 -118809.000000 0 0 1
-12.517218 -27.203755 -0.310233 29.946974 1.139552 1.581156 0.080192 -0.015412 -316144.000000 0 0 1
-12.167518 -26.510455 -1.622733 29.214482 1.140508 1.626370 0.090632 -0.015056 580957.000000 0 0 1
-10.776618 -26.739455 -1.850933 28.888750 1.187687 1.634911 0.081436 -0.017888 10676.400000 0 0 1
-10.440218 -26.042455 -3.050133 28.222525 1.189521 1.679082 0.086180 -0.016656 667161.000000 0 0 1
-9.086818 -26.474555 -3.696333 28.233583 1.240167 1.702093 0.075813 -0.016978 476174.000000 0 0 1
-8.647718 -25.560855 -4.662233 27.383877 1.244566 1.741884 0.068364 -0.016995 -1160320.000000 0 0 1
-7.392618 -26.008055 -5.023833 27.501065 1.293857 1.754506 0.061827 -0.010239 -520376.000000 0 0 1
-6.559218 -25.103055 -5.960933 26.621785 1.315219 1.796623 0.049634 -0.009087 -13092.600000 0 0 1
-7.241318 -24.786755 -7.116133 26.785430 1.286562 1.839697 0.055391 -0.015569 -501516.000000 0 0 1
-6.532118 -23.772855 -7.732033 25.837986 1.302642 1.874703 0.060857 -0.011876 -491901.000000 0 0 1
-6.814018 -23.678355 -9.284133 26.330409 1.290593 1.931146 0.063464 -0.013998 110205.000000 0 0 1
-6.059218 -24.743755 -9.957733 27.351855 1.330643 1.943420 0.046878 -0.014072 312716.000000 0 0 1
-6.077318 -24.760555 -11.373233 27.917186 1.330111 1.990393 0.037082 -0.004880 753311.000000 0 0 1
-7.439218 -25.278155 -11.981733 28.946312 1.284582 1.997563 0.042105 -0.010344 784120.000000 0 0 1
-7.550018 -25.328655 -13.409833 29.637259 1.281100 2.040324 0.059355 -0.010785 -21346.700000 0 0 1
-8.618718 -26.172055 -13.825833 30.828759 1.252671 2.035851 0.084851 -0.015835 -472311.000000 0 0 1
-8.894318 -26.185355 -15.356533 31.632338 1.243356 2.077696 0.092168 -0.027577 10361.800000 0 0 1
-7.884618 -26.713655 -16.175433 32.209178 1.283792 2.096937 0.072157 -0.036110 963588.000000 0 0 1
-6.552318 -26.171655 -16.130133 31.433574 1.325479 2.109647 0.068248 -0.026595 1291580.000000 0 0 1
-5.365718 -27.061355 -16.665233 32.231007 1.375055 2.114204 0.065548 -0.023613 430975.000000 0 0 1
-5.536318 -27.265855 -18.045233 33.161847 1.370470 2.146180 0.108192 -0.028417 953070.000000 0 0 1
-4.390418 -27.907455 -18.663733 33.859071 1.414755 2.154620 0.087840 -0.031420 790138.000000 0 0 1
-26.071508 14.458900 -5.451580 30.306815 -0.506357 1.751660 0.094096 -0.020459 -289648.000000 0 0 1
-25.613328 13.251500 -4.871080 29.246748 -0.477445 1.738127 0.093258 -0.020673 706988.000000 0 0 1
-24.282818 12.946300 -5.299780 28.024090 -0.489812 1.761057 0.118878 -0.026830 340312.000000 0 0 1
-23.834818 11.588600 -4.724080 26.920460 -0.452551 1.747193 0.115975 -0.022968 -339434.000000 0 0 1
-24.263418 10.461600 -5.406580 26.970162 -0.407083 1.772629 0.112331 -0.018500 790293.000000 0 0 1
-25.651568 10.103600 -5.249180 28.064917 -0.375218 1.758941 0.138105 -0.023913 788300.000000 0 0 1
-26.263498 9.474500 -6.522780 28.672010 -0.346217 1.800302 0.156139 -0.025899 -162326.000000 0 0 1
-26.422008 10.436300 -7.543480 29.392907 -0.376176 1.830343 0.193088 -0.019790 125619.000000 0 0 1
-26.543268 9.802500 -8.808580 29.634864 -0.353766 1.872594 0.176671 -0.020242 -166904.000000 0 0 1
-27.147438 10.646200 -9.895280 30.793531 -0.373731 1.897944 0.153016 -0.020641 -215522.000000 0 0 1
-26.216548 11.572500 -10.386180 30.481189 -0.415696 1.918501 0.148548 -0.014505 179482.000000 0 0 1
-26.738458 12.315500 -11.464480 31.591945 -0.431627 1.942166 0.127638 -0.018748 101717.000000 0 0 1
-25.718128 13.309400 -12.105680 31.386458 -0.477558 1.966760 0.121651 -0.018822 143038.000000 0 0 1
-25.607018 14.573100 -11.481180 31.621387 -0.517393 1.942371 0.121100 -0.017537 282864.000000 0 0 1
-24.641318 15.321000 -12.204180 31.478082 -0.556266 1.968936 0.110021 -0.021310 -3238.580000 0 0 1
-24.288818 16.682800 -11.661880 31.690092 -0.601847 1.947651 0.095042 -0.021997 -893887.000000 0 0 1
-23.543218 16.705400 -10.493180 30.715800 -0.617115 1.919438 0.093225 -0.016751 -242152.000000 0 0 1
-23.484518 18.012000 -9.995780 31.238924 -0.654276 1.896503 0.058067 -0.016479 -119474.000000 0 0 1
-22.585118 18.197500 -8.700280 30.280876 -0.678225 1.862223 0.066995 -0.012548 31595.800000 0 0 1
-22.997818 17.672800 -7.456280 29.947014 -0.655208 1.822426 0.083091 -0.014798 -182761.000000 0 0 1
-23.823118 18.519100 -6.719080 30.913493 -0.660782 1.789896 0.061902 -0.018903 -231587.000000 0 0 1
-24.247018 17.995000 -5.360980 30.667214 -0.638460 1.746511 0.053284 -0.016255 -786756.000000 0 0 1
-23.153918 17.815300 -4.541580 29.565432 -0.655820 1.725018 0.066996 -0.028401 -364680.000000 0 0 1
-23.493918 17.384600 -3.246980 29.406316 -0.637046 1.681440 0.050243 -0.021433 -301337.000000 0 0 1
-22.258018 17.193600 -2.351780 28.223574 -0.657726 1.654220 0.062978 -0.036877 -370293.000000 0 0 1
-21.817918 18.298600 -1.646880 28.523193 -0.697895 1.628567 0.062747 -0.034393 -323621.000000 0 0 1
-20.726618 18.008200 -0.843080 27.469961 -0.715333 1.601492 0.131406 -0.050048 -608453.000000 0 0 1
-20.019018 19.259800 -0.337680 27.781559 -0.766072 1.582951 0.106955 -0.050860 -324154.000000 0 0 1
-20.811118 19.998900 0.587120 28.868726 -0.765498 1.550457 0.087278 -0.038898 152794.000000 0 0 1
-20.232018 21.144400 1.067520 29.284122 -0.807445 1.534334 0.092945 -0.044750 132642.000000 0 0 1
-21.279418 21.767000 2.055020 30.509655 -0.796725 1.503389 0.074749 -0.040617 378351.000000 0 0 1
-21.398418 21.159000 3.296920 30.273177 -0.779772 1.461674 0.092463 -0.038458 -79525.600000 0 0 1
-22.525518 21.624100 3.975120 31.477011 -0.764984 1.444172 0.065724 -0.031588 -339721.000000 0 0 1
-22.358818 21.509100 5.512520 31.511046 -0.766031 1.394952 0.086852 -0.035009 293608.000000 0 0 1
-21.527418 22.550200 6.112620 31.769567 -0.808598 1.377184 0.075115 -0.026480 415988.000000 0 0 1
-20.644518 22.082100 7.087520 31.049126 -0.819032 1.340498 0.076433 -0.021985 -382322.000000 0 0 1
-21.204118 21.752300 8.521920 31.549965 -0.798159 1.297290 0.082841 -0.024459 -306690.000000 0 0 1
-22.180918 20.713600 8.629920 31.551892 -0.751204 1.293751 0.080485 -0.027041 827479.000000 0 0 1
-22.578718 20.410400 9.974120 32.029143 -0.735002 1.254122 0.082886 -0.027124 -30015.300000 0 0 1
-23.230518 21.479400 10.915020 33.468780 -0.746252 1.238594 0.100950 -0.019934 -798076.000000 0 0 1
-24.532018 21.758800 10.444620 34.414465 -0.725561 1.262438 0.116939 -0.019483 -122515.000000 0 0 1
-25.159468 22.536500 11.429520 35.658472 -0.730460 1.244510 0.127922 -0.027053 -739207.000000 0 0 1
-26.672648 22.551600 11.178820 36.673844 -0.701873 1.261050 0.147830 -0.027463 -550014.000000 0 0 1
-27.357508 23.290300 12.142320 37.925022 -0.705266 1.244891 0.141470 -0.022751 -10823.400000 0 0 1
-27.818988 24.588500 11.799120 38.957793 -0.723834 1.263094 0.137532 -0.028459 263798.000000 0 0 1
-28.440478 25.352700 13.047020 40.272136 -0.728060 1.240872 0.139679 -0.027744 631899.000000 0 0 1
-27.414448 25.571400 14.018920 40.024725 -0.750628 1.212951 0.116226 -0.028405 672867.000000 0 0 1
-27.894368 26.248000 15.184120 41.202072 -0.754999 1.193371 0.108435 -0.028986 -55436.000000 0 0 1
-26.777348 26.366000 16.218520 40.929607 -0.777658 1.163363 0.094473 -0.031421 -148207.000000 0 0 1
-26.315158 25.114800 16.665120 40.012085 -0.762063 1.141202 0.092778 -0.030591 -335226.000000 0 0 1
-25.306028 25.320300 17.599420 39.890503 -0.785680 1.113868 0.093474 -0.029037 -340453.000000 0 0 1
-24.694718 24.014800 18.199820 38.958608 -0.771440 1.084723 0.098101 -0.023582 -188203.000000 0 0 1
-23.590718 24.254400 19.052520 38.830354 -0.799269 1.057949 0.093994 -0.036058 311273.000000 0 0 1
-23.138018 23.004800 19.562520 38.043145 -0.782511 1.030699 0.096126 -0.037656 -284076.000000 0 0 1
-21.739118 23.067000 20.212020 37.592572 -0.815026 1.003137 0.097376 -0.040759 -329176.000000 0 0 1
-20.764218 23.347200 19.224820 36.685667 -0.843887 1.019207 0.084335 -0.039697 256380.000000 0 0 1
-19.426318 22.996700 19.525320 35.881307 -0.869362 0.995404 0.066486 -0.037218 390549.000000 0 0 1
-18.966118 21.483400 19.539120 34.684684 -0.847551 0.972379 0.065652 -0.021156 -552051.000000 0 0 1
-19.427418 20.709300 20.605220 35.083825 -0.817325 0.943060 0.080893 -0.015248 360932.000000 0 0 1
-18.664018 20.886800 21.812620 35.502033 -0.841540 0.909165 0.081643 -0.020508 -372893.000000 0 0 1
-19.476618 20.510000 23.003920 36.457908 -0.811236 0.887991 0.071484 -0.010565 -79848.900000 0 0 1
-20.686018 21.270600 23.065320 37.581362 -0.799330 0.910003 0.085718 -0.012687 211818.000000 0 0 1
-21.242718 21.054600 24.324520 38.551673 -0.780951 0.888008 0.093902 -0.011160 39509.500000 0 0 1
-22.439418 22.037800 24.535120 39.889400 -0.776369 0.908311 0.094298 -0.017287 -118923.000000 0 0 1
-22.059218 23.331300 24.924620 40.647206 -0.813416 0.910699 0.101964 -0.032173 -376862.000000 0 0 1
-23.092218 24.212300 25.154320 41.859596 -0.809072 0.926143 0.105801 -0.034494 356008.000000 0 0 1
-24.115318 24.710000 24.009820 42.054775 -0.797577 0.963173 0.099105 -0.039811 1162370.000000 0 0 1
-25.138748 23.815100 23.625820 41.920103 -0.758366 0.972069 0.085411 -0.032544 406442.000000 0 0 1
-25.985158 24.263600 22.576920 42.114938 -0.751151 1.005011 0.084035 -0.032566 27486.500000 0 0 1
-27.011988 23.289700 22.019320 41.915487 -0.711534 1.017697 0.086742 -0.025248 702249.000000 0 0 1
-28.290768 23.416500 22.676220 43.161452 -0.691409 1.017633 0.078146 -0.029244 1156390.000000 0 0 1
-29.280808 22.521600 22.143520 43.068825 -0.655651 1.030789 0.076417 -0.024690 195569.000000 0 0 1
-30.714228 22.755000 22.602520 44.407519 -0.637627 1.036797 0.089349 -0.011053 -688274.000000 0 0 1
-31.372258 23.839200 21.890020 45.074372 -0.649795 1.063699 0.081637 -0.015205 637169.000000 0 0 1
-32.779338 23.970400 22.039420 46.203908 -0.631403 1.073554 0.082830 -0.015230 632030.000000 0 0 1
-33.634068 22.973200 21.226920 45.930388 -0.599248 1.090374 0.086887 -0.024118 -940246.000000 0 0 1
-33.426058 21.631200 21.736820 45.361873 -0.574359 1.071068 0.076889 -0.022899 510075.000000 0 0 1
-34.109848 20.599000 20.986420 45.035879 -0.543284 1.086039 0.082455 -0.016802 -303766.000000 0 0 1
-35.632948 20.571900 20.920820 46.158323 -0.523582 1.100399 0.106872 -0.027054 -665310.000000 0 0 1
-36.077134 19.646500 19.935920 45.661641 -0.498664 1.118979 0.103995 -0.012817 -411224.000000 0 0 1
36.640090 19.540400 19.919720 46.055604 0.489936 1.123516 0.140559 -0.028518 -142578.000000 0 0 1
36.102100 18.777800 18.644420 44.761387 0.479622 1.141172 0.143629 -0.027188 129027.000000 0 0 1
36.414310 17.455800 18.736120 44.516841 0.447005 1.136384 0.143393 -0.025249 480567.000000 0 0 1
35.502800 16.770700 17.888320 43.147389 0.441306 1.143308 0.167882 -0.043697 152542.000000 0 0 1
35.984660 15.341900 17.521420 42.863385 0.403010 1.149686 0.166182 -0.054924 -213749.000000 0 0 1
35.107930 14.646500 16.680420 41.537009 0.395233 1.157555 0.187139 -0.063031 -107015.000000 0 0 1
35.680900 13.395600 16.322320 41.460666 0.359146 1.166163 0.172924 -0.065046 294747.000000 0 0 1
34.715760 12.462100 15.524920 40.018884 0.344648 1.172401 0.158598 -0.068004 113606.000000 0 0 1
34.421080 12.878000 14.257420 39.419889 0.358009 1.200726 0.152478 -0.062797 -199095.000000 0 0 1
33.599500 11.947500 13.593220 38.163396 0.341642 1.206615 0.149493 -0.053286 -282806.000000 0 0 1
33.517430 12.258400 12.111120 37.687739 0.350621 1.243637 0.155796 -0.052307 245427.000000 0 0 1
34.774840 12.114100 11.449820 38.563445 0.335211 1.269343 0.148405 -0.044484 487182.000000 0 0 1
34.735380 12.273500 10.044420 38.184759 0.339650 1.304616 0.145351 -0.041608 273887.000000 0 0 1
36.183460 12.431900 9.461320 39.412073 0.330944 1.328367 0.106343 -0.022521 302232.000000 0 0 1
36.954660 11.281500 9.716920 39.841406 0.296293 1.324421 0.126340 -0.027850 303550.000000 0 0 1
-35.804727 11.257000 9.275820 38.661859 -0.304615 1.328511 0.146511 -0.024555 404546.000000 0 0 1
-35.592283 11.048200 7.744420 38.063754 -0.300980 1.365907 0.130120 -0.032337 -418220.000000 0 0 1
-36.008177 12.233200 7.089520 38.684639 -0.327500 1.386490 0.114189 -0.031319 51533.200000 0 0 1
-35.486618 12.258100 5.776420 37.985894 -0.332597 1.418137 0.143000 -0.040612 -731326.000000 0 0 1
-36.268598 13.021300 4.802020 38.833296 -0.344691 1.446822 0.147690 -0.038482 -134782.000000 0 0 1
36.563800 12.452300 4.455520 38.882167 0.328244 1.455954 0.138728 -0.030628 1314620.000000 0 0 1
35.408760 13.297600 4.572320 38.098721 0.359249 1.450494 0.117977 -0.026674 703077.000000 0 0 1
35.033580 13.945900 5.921120 38.169353 0.378844 1.415040 0.121527 -0.022456 -1462080.000000 0 0 1
34.258970 15.107900 5.813120 37.890870 0.415337 1.416771 0.110198 -0.020129 -97378.300000 0 0 1
33.878720 15.694200 7.068520 38.000520 0.433815 1.383695 0.088333 -0.023834 138728.000000 0 0 1
32.513890 15.145400 7.534420 36.651107 0.435926 1.363749 0.119265 -0.021821 -374372.000000 0 0 1
32.689020 13.780200 7.876820 36.338825 0.398949 1.352302 0.146390 -0.028862 -391006.000000 0 0 1
31.529410 13.128000 8.302720 35.148019 0.394541 1.332321 0.147709 -0.032869 -501482.000000 0 0 1
31.423550 11.738900 7.624020 34.400101 0.357517 1.347313 0.146711 -0.027389 -68910.100000 0 0 1
31.062910 11.879300 6.288020 33.846142 0.365266 1.383928 0.131354 -0.028487 133307.000000 0 0 1
31.174420 10.685400 5.596220 33.426635 0.330212 1.402586 0.146536 -0.029778 -258226.000000 0 0 1
30.738970 10.813100 4.113920 32.844052 0.338252 1.445210 0.128959 -0.036879 19159.400000 0 0 1
29.349510 10.816300 3.880020 31.518893 0.353090 1.447382 0.113159 -0.028996 1593.750000 0 0 1
29.094770 11.145300 2.506620 31.257103 0.365826 1.490517 0.136928 -0.037548 343287.000000 0 0 1
27.594950 11.015300 2.114520 29.787402 0.379798 1.499750 0.134858 -0.024477 332991.000000 0 0 1
27.311550 9.701100 1.688120 29.032428 0.341301 1.512618 0.118570 -0.029675 -968000.000000 0 0 1
25.966250 9.410900 1.643820 27.667911 0.347703 1.511349 0.116876 -0.027101 -1153680.000000 0 0 1
25.733550 7.903600 1.469220 26.959991 0.297987 1.516273 0.123284 -0.026728 113490.000000 0 0 1
26.116650 7.010000 2.511720 27.157471 0.262230 1.478177 0.131950 -0.018618 951500.000000 0 0 1
27.539750 6.921700 2.696520 28.524007 0.246235 1.476120 0.139464 -0.022939 479006.000000 0 0 1
27.856150 5.952800 3.862120 28.745728 0.210531 1.436034 0.137506 -0.025874 -299901.000000 0 0 1
29.224450 5.968300 4.190420 30.120569 0.201453 1.431222 0.145063 -0.024306 98335.700000 0 0 1
29.552410 5.171600 5.315920 30.468826 0.173243 1.395428 0.128609 -0.009606 -86262.000000 0 0 1
31.048830 5.188500 5.665520 31.985129 0.165578 1.392727 0.115337 -0.024834 126778.000000 0 0 1
31.596960 6.411900 6.194920 32.830738 0.200209 1.380966 0.129187 -0.025471 54549.500000 0 0 1
32.958460 6.305300 6.551220 34.189697 0.189026 1.377990 0.135212 -0.020934 25560.900000 0 0 1
33.392340 7.448600 7.469120 35.018820 0.219470 1.355856 0.132152 -0.031778 -352443.000000 0 0 1
32.738990 7.576100 8.666920 34.703808 0.227406 1.318385 0.127511 -0.030173 -541007.000000 0 0 1
33.254310 8.613300 9.423020 35.620659 0.253443 1.303071 0.133810 -0.037039 -345191.000000 0 0 1
32.772920 8.803200 10.914820 35.646794 0.262418 1.259604 0.136609 -0.044422 -1206000.000000 0 0 1
31.449680 9.150900 11.063020 34.571835 0.283152 1.245066 0.130631 -0.043652 -797402.000000 0 0 1
30.923970 8.777700 12.343420 34.433994 0.276573 1.204172 0.127837 -0.045715 225293.000000 0 0 1
29.402640 9.074100 12.439920 33.190452 0.299342 1.186611 0.111938 -0.045638 -174375.000000 0 0 1
28.910150 10.359800 12.751420 33.252382 0.344089 1.177242 0.134540 -0.053798 228178.000000 0 0 1
28.924950 11.273100 11.675920 33.167192 0.371627 1.211055 0.150320 -0.056444 -539552.000000 0 0 1
27.934150 11.157900 10.516020 31.865375 0.380020 1.234478 0.117971 -0.050423 -520159.000000 0 0 1
28.072050 12.312900 9.713020 32.155719 0.413348 1.263941 0.098832 -0.025167 259838.000000 0 0 1
27.071250 12.419400 8.727120 31.036377 0.430121 1.285762 0.090902 -0.029088 -293869.000000 0 0 1
27.206550 13.665100 7.837320 31.438112 0.465464 1.318846 0.086975 -0.025549 -53488.000000 0 0 1
26.830350 14.830600 8.532320 31.821610 0.504956 1.299345 0.088225 -0.016927 285048.000000 0 0 1
27.139550 16.004100 7.818020 32.462406 0.532809 1.327572 0.093626 -0.017733 -898201.000000 0 0 1
26.575650 17.348600 8.386120 32.826302 0.578341 1.312463 0.094365 -0.027547 -59467.900000 0 0 1
25.221250 17.700300 8.306420 31.912516 0.611934 1.307477 0.098359 -0.026032 103315.000000 0 0 1
24.281250 16.772600 8.879120 30.817819 0.604500 1.278537 0.101969 -0.019391 -454923.000000 0 0 1
22.950450 17.544200 9.019620 30.263437 0.652678 1.268161 0.105097 -0.026869 -296281.000000 0 0 1
22.276850 17.888300 7.833520 29.624540 0.676567 1.303187 0.111719 -0.034217 71538.800000 0 0 1
21.196950 18.753400 8.106620 29.440074 0.724310 1.291832 0.138027 -0.038362 291642.000000 0 0 1
20.398150 19.244400 6.860620 28.870392 0.756303 1.330866 0.124443 -0.035267 515538.000000 0 0 1
21.223050 20.170700 6.124020 29.912850 0.759981 1.364610 0.104909 -0.022836 625742.000000 0 0 1
20.620250 20.510600 4.882520 29.490989 0.782732 1.404471 0.114071 -0.027528 176040.000000 0 0 1
18.799382 17.193800 32.646091 41.410274 0.740820 0.662662 0.057461 -0.018065 -395107.000000 0 0 1
17.920782 17.933600 31.851357 40.709672 0.785756 0.672282 0.061532 -0.022959 63145.900000 0 0 1
17.289482 16.983100 30.978947 39.332519 0.776459 0.663865 0.075352 -0.023817 -56372.000000 0 0 1
16.668182 17.641500 29.721017 38.371730 0.813759 0.684785 0.081786 -0.026131 -244731.000000 0 0 1
17.568682 18.163700 28.788597 38.306160 0.802049 0.720403 0.080952 -0.018345 -211692.000000 0 0 1
16.939182 18.186300 27.521917 37.082790 0.820888 0.734487 0.088900 -0.021792 731824.000000 0 0 1
17.934482 18.569800 26.335137 36.878484 0.802800 0.775450 0.087045 -0.014853 737789.000000 0 0 1
18.407382 19.966200 26.445577 37.905796 0.825998 0.798662 0.088755 -0.025970 227863.000000 0 0 1
19.424382 20.175700 25.484927 37.866172 0.804369 0.832503 0.086902 -0.023067 -401986.000000 0 0 1
20.347982 21.316700 25.840317 39.193929 0.808644 0.850917 0.103438 -0.028001 -494947.000000 0 0 1
19.755882 22.566800 25.631037 39.452571 0.851717 0.863650 0.095290 -0.033660 251903.000000 0 0 1
20.372282 23.551300 26.418067 40.836355 0.857648 0.867251 0.099402 -0.032936 -137989.000000 0 0 1
19.583082 24.823400 26.180637 41.050262 0.902863 0.879196 0.105596 -0.036594 24578.000000 0 0 1
19.777582 25.470000 24.903077 40.743550 0.910547 0.913201 0.109147 -0.031831 -67527.600000 0 0 1
18.764082 26.412600 24.704947 40.743719 0.953110 0.919334 0.102245 -0.040741 -318891.000000 0 0 1
18.682382 27.187900 23.381917 40.434235 0.968741 0.954189 0.080307 -0.042093 292913.000000 0 0 1
19.807182 28.040300 23.138897 41.400380 0.955800 0.977731 0.094278 -0.037723 306587.000000 0 0 1
19.549782 28.858000 22.089567 41.266537 0.975367 1.005945 0.086888 -0.034752 -1036310.000000 0 0 1
20.642782 29.833000 21.876567 42.364095 0.965497 1.028162 0.097993 -0.027344 -1093490.000000 0 0 1
21.895682 29.191100 21.778667 42.495312 0.927244 1.032708 0.100988 -0.025245 -757180.000000 0 0 1
22.904082 30.080000 21.442667 43.464829 0.920014 1.054878 0.101311 -0.033454 -227811.000000 0 0 1
23.406382 30.222100 19.963867 43.125283 0.911812 1.089502 0.097170 -0.033942 -113097.000000 0 0 1
22.457182 30.859300 19.143967 42.697926 0.941702 1.105869 0.080526 -0.027932 143480.000000 0 0 1
22.789782 30.736100 17.738467 42.175054 0.932779 1.136699 0.079367 -0.013014 -269924.000000 0 0 1
22.401982 32.047400 16.988267 42.631982 0.960724 1.160930 0.080132 -0.019589 -632074.000000 0 0 1
23.084182 33.233100 17.281567 43.999670 0.963694 1.167159 0.083847 -0.021787 125538.000000 0 0 1
23.589982 33.971400 16.149767 44.399980 0.963834 1.198523 0.078111 -0.021524 231415.000000 0 0 1
24.549282 33.306000 15.102667 44.045969 0.935614 1.220811 0.066356 -0.025346 -428632.000000 0 0 1
24.054082 32.355300 14.193967 42.742637 0.931510 1.232289 0.078454 -0.030604 -15503.400000 0 0 1
23.096182 32.856300 13.260167 42.294232 0.958096 1.251897 0.053709 -0.026935 173124.000000 0 0 1
22.592382 31.765100 12.308467 40.877080 0.952571 1.264941 0.054775 -0.028819 -15866.000000 0 0 1
23.629282 31.271700 11.468967 40.838700 0.923713 1.286132 0.071684 -0.044059 46187.000000 0 0 1
23.324782 30.044600 10.833667 39.548600 0.910651 1.293316 0.069310 -0.043471 -1286440.000000 0 0 1
24.416382 29.426400 9.957767 39.512401 0.878180 1.316033 0.075862 -0.043306 612528.000000 0 0 1
25.504482 28.763100 10.637567 39.886744 0.845373 1.300835 0.074861 -0.038367 429206.000000 0 0 1
26.354182 29.576700 11.371067 41.214381 0.842951 1.291270 0.072731 -0.039476 -1012230.000000 0 0 1
27.748082 28.977400 11.716967 41.796328 0.807066 1.286653 0.073211 -0.035189 490386.000000 0 0 1
27.768482 27.974500 12.724267 41.419418 0.789094 1.258541 0.081568 -0.031481 449850.000000 0 0 1
29.145582 27.773400 13.045467 42.320337 0.761295 1.257438 0.079031 -0.017348 620902.000000 0 0 1
29.318182 26.813600 14.247767 42.208101 0.740808 1.226473 0.065670 -0.015836 -222654.000000 0 0 1
30.567782 26.954100 14.866767 43.381258 0.722658 1.221007 0.052926 -0.020779 -306194.000000 0 0 1
30.693782 26.039800 15.936367 43.291422 0.703549 1.193812 0.053291 -0.017991 -83736.600000 0 0 1
31.987782 26.143000 16.752167 44.579252 0.685190 1.185554 0.069816 -0.022255 272456.000000 0 0 1
33.195182 25.773100 16.117267 45.010433 0.660191 1.204587 0.083060 -0.015753 800912.000000 0 0 1
34.383682 25.999600 16.913267 46.306321 0.647433 1.196898 0.080322 -0.023699 1502280.000000 0 0 1
35.680382 26.307100 16.112867 47.167549 0.635323 1.222168 0.106649 -0.030081 348346.000000 0 0 1
35.723782 27.599600 15.475267 47.722221 0.657799 1.240548 0.104797 -0.031622 330329.000000 0 0 1
-37.044387 27.933100 15.097667 48.790206 -0.646084 1.256192 0.130055 -0.027235 882927.000000 0 0 1
-36.954787 29.171900 14.211067 49.179370 -0.668241 1.277652 0.116277 -0.031051 49268.000000 0 0 1
36.927882 30.374800 14.939567 50.094786 0.688337 1.267963 0.112938 -0.034596 42464.000000 0 0 1
36.773582 31.513400 14.100267 50.440145 0.708519 1.287477 0.105933 -0.022493 311559.000000 0 0 1
35.424582 32.272200 14.271267 50.000649 0.738866 1.281350 0.099539 -0.027490 -103447.000000 0 0 1
35.473882 33.492200 13.496467 50.618953 0.756672 1.300903 0.077844 -0.034654 666798.000000 0 0 1
34.358582 -33.685255 13.679567 50.023385 -0.775503 1.293804 0.075097 -0.031885 1355400.000000 0 0 1
32.998882 34.031600 12.960467 49.143155 0.800804 1.303910 0.075106 -0.030746 818526.000000 0 0 1
32.437082 32.834500 13.548267 48.102227 0.791487 1.285277 0.072504 -0.034192 -0.647666 0 0 1
31.271082 32.336100 12.907467 46.798575 0.802140 1.291365 0.072597 -0.034405 160149.000000 0 0 1
30.621982 31.193500 13.818267 45.844135 0.794643 1.264616 0.068135 -0.037056 154959.000000 0 0 1
30.052182 31.619700 15.060067 46.149157 0.810810 1.238373 0.064197 -0.027760 264991.000000 0 0 1
29.573182 30.527000 15.821667 45.351912 0.801267 1.214437 0.053976 -0.028635 149457.000000 0 0 1
28.969582 31.050500 17.192867 45.814462 0.820055 1.186107 0.052564 -0.019498 9845.000000 0 0 1
28.714282 30.010300 18.162967 45.332344 0.807464 1.158557 0.047226 -0.010556 12191.600000 0 0 1
29.082782 30.529600 19.437967 46.429508 0.809664 1.138832 0.031735 -0.012024 54519.800000 0 0 1
28.918082 29.473900 20.546967 46.120972 0.794917 1.109062 0.042671 -0.008684 -582713.000000 0 0 1
27.618782 29.192800 20.938767 45.314994 0.813097 1.090467 0.053708 -0.022456 -784804.000000 0 0 1
27.677582 28.319900 22.116867 45.356599 0.796868 1.061433 0.043607 -0.017340 14498.800000 0 0 1
26.383782 28.115700 22.916457 44.852654 0.817166 1.034533 0.052543 -0.015484 -755015.000000 0 0 1
25.404882 27.302100 22.391067 43.499110 0.821378 1.030083 0.076194 -0.024580 -650857.000000 0 0 1
24.323882 27.083500 23.271507 43.205674 0.839028 1.001996 0.096532 -0.035443 52837.400000 0 0 1
24.437582 25.901900 24.242127 43.078818 0.814479 0.973101 0.078208 -0.030222 -940406.000000 0 0 1
25.454982 26.070100 25.159587 44.278788 0.797336 0.966469 0.053578 -0.026905 -854451.000000 0 0 1
25.334782 25.138100 26.205147 44.277364 0.781501 0.937456 0.079723 -0.026264 -143956.000000 0 0 1
26.532782 25.096900 27.206287 45.541464 0.757594 0.930546 0.070497 -0.024165 298085.000000 0 0 1
26.821382 26.344600 27.847387 46.785697 0.776431 0.933267 0.082014 -0.027197 221784.000000 0 0 1
27.365382 27.346700 26.977917 47.164755 0.785057 0.961863 0.050776 -0.006994 -945045.000000 0 0 1
27.831382 28.556800 27.876287 48.653510 0.798262 0.960689 0.019902 -0.003561 -979911.000000 0 0 1
28.832782 28.144200 28.743477 49.493563 0.773313 0.951144 0.025462 0.002984 -528327.000000 0 0 1
29.199682 29.246500 29.526567 50.791706 0.786199 0.950438 0.022210 -0.002694 -135832.000000 0 0 1
30.732282 29.297700 29.661697 51.794253 0.761505 0.961021 -0.000179 0.009187 -54204.000000 0 0 1
31.291382 29.809400 28.454567 51.743727 0.761148 0.988536 -0.007986 -0.000276 370105.000000 0 0 1
32.705282 30.012000 28.551597 52.778303 0.742481 0.999204 -0.000051 -0.003275 587617.000000 0 0 1
33.310682 30.482100 27.227337 52.726538 0.741087 1.028169 -0.006135 0.000926 -631449.000000 0 0 1
33.152882 31.905600 27.113067 53.405986 0.766229 1.038308 -0.007286 -0.001309 110669.000000 0 0 1
33.321082 32.382900 25.809317 53.151365 0.771120 1.063768 0.003628 -0.010122 -219360.000000 0 0 1
33.157482 33.913800 25.626247 53.909823 0.796674 1.075430 -0.003224 -0.010718 -800641.000000 0 0 1
34.078082 -33.421355 26.371467 54.532164 -0.775669 1.066039 0.017298 -0.016253 -336736.000000 0 0 1
33.815082 -32.054755 26.147647 53.429079 -0.758680 1.059406 0.014995 -0.011682 -90703.700000 0 0 1
34.896082 -31.207955 26.821987 53.954536 -0.729663 1.050518 0.024826 -0.010323 -34016.200000 0 0 1
34.598182 -31.174955 28.224187 54.456558 -0.733399 1.025948 0.023921 -0.014883 365731.000000 0 0 1
35.587182 -30.475955 28.949147 55.075262 -0.708183 1.017342 0.032435 -0.019848 -212602.000000 0 0 1
35.247882 -30.232855 30.417907 55.512951 -0.708960 0.990894 0.033025 -0.020632 -531138.000000 0 0 1
35.248582 -31.376855 31.291077 56.622443 -0.727352 0.985284 0.036265 -0.015286 21877.300000 0 0 1
34.006182 -32.020455 31.383357 56.272951 -0.755333 0.979185 0.026621 -0.018850 -581681.000000 0 0 1
34.005882 -32.994655 32.541924 57.480641 -0.770306 0.968984 0.032582 -0.012715 -203723.000000 0 0 1
33.886382 -32.332255 33.812232 57.766155 -0.761933 0.945510 0.029395 -0.019009 250142.000000 0 0 1
34.351582 -33.159755 -32.998790 58.038958 -0.767746 2.175554 0.036869 -0.016509 -110918.000000 0 0 1
33.666982 33.559600 -32.696940 57.695774 0.783801 2.173307 0.042332 -0.015941 -64412.700000 0 0 1
33.865982 32.704900 -33.824270 57.970652 0.767959 2.193794 0.043951 -0.013969 313459.000000 0 0 1
33.165982 31.463000 -33.639210 56.758252 0.759054 2.205173 0.038343 -0.007903 218642.000000 0 0 1
33.354582 30.369100 33.204340 56.011950 0.738582 0.936255 0.021994 0.003413 1029300.000000 0 0 1
34.656682 29.766800 33.415030 56.601345 0.709641 0.939295 0.025600 -0.004227 1088160.000000 0 0 1
35.034782 29.103400 32.196174 55.776675 0.693182 0.955459 0.015961 0.002144 1277490.000000 0 0 1
36.316982 28.157400 32.460866 56.262511 0.659512 0.955802 0.017452 0.002911 1368940.000000 0 0 1
35.998082 26.972100 33.151284 55.878115 0.643030 0.935671 0.025719 0.005203 -193598.000000 0 0 1
-36.960987 26.271600 33.492602 56.374337 -0.617933 0.934637 0.017776 -0.007887 -242223.000000 0 0 1
36.853782 24.946000 -33.657300 55.797115 0.595048 2.218314 0.013878 -0.003679 48149.700000 0 0 1
36.512482 23.875800 33.411443 54.950338 0.579118 0.917220 0.011722 0.000935 106758.000000 0 0 1
36.275682 22.623800 -33.883200 54.551193 0.557637 2.240976 0.024581 -0.026360 -300883.000000 0 0 1
35.956382 21.476500 33.069605 53.363848 0.538427 0.902435 0.024281 -0.029918 620801.000000 0 0 1
-36.980587 21.142600 32.308725 53.464260 -0.519367 0.921903 0.032541 -0.029372 918354.000000 0 0 1
36.813282 20.226600 31.274287 52.368064 0.502411 0.930789 0.042571 -0.020025 -13494.200000 0 0 1
-36.010887 19.858800 30.533887 51.219861 -0.503968 0.932119 0.050165 -0.031570 -169171.000000 0 0 1
-35.616387 20.640400 29.401637 50.586652 -0.525224 0.950577 0.037922 -0.027739 91086.400000 0 0 1
-34.474487 20.151500 28.718057 49.186380 -0.528970 0.947319 0.059011 -0.022582 167266.000000 0 0 1
-34.794987 18.997400 27.756207 48.394208 -0.499752 0.959971 0.073332 -0.022885 -83829.900000 0 0 1
-35.352087 17.891800 28.456297 48.781630 -0.468518 0.947961 0.062863 -0.018253 298353.000000 0 0 1
-36.106487 17.001800 27.641237 48.546654 -0.440081 0.965051 0.089637 -0.030837 7880.200000 0 0 1
-36.676487 15.903400 28.515607 49.104202 -0.409143 0.951188 0.092895 -0.016700 -472275.000000 0 0 1
-35.773087 14.881500 28.786527 48.268384 -0.394220 0.931807 0.074149 -0.015747 -60661.400000 0 0 1
-36.407287 13.781700 29.446527 48.811103 -0.361873 0.923195 0.068340 -0.020426 30633.900000 0 0 1
-35.439187 12.617300 29.722367 47.943210 -0.342034 0.902118 0.058751 -0.011309 -230423.000000 0 0 1
-34.374987 13.006500 30.532187 47.780992 -0.361723 0.877595 0.061654 -0.007402 -323056.000000 0 0 1
-33.465887 12.015200 30.894517 47.104159 -0.344695 0.855453 0.066078 -0.004685 -721756.000000 0 0 1
-32.020887 12.446700 30.743917 46.102559 -0.370732 0.840810 0.078764 -0.002317 -1797890.000000 0 0 1
-31.470087 12.555400 29.445407 44.889157 -0.379612 0.855345 0.069810 -0.000199 795548.000000 0 0 1
-30.046387 12.591300 29.357587 43.854237 -0.396830 0.837348 0.075619 -0.010327 806397.000000 0 0 1
-29.192287 11.473100 30.019047 43.416182 -0.374473 0.807336 0.086692 -0.008117 -906951.000000 0 0 1
-29.211287 10.213300 29.422987 42.700386 -0.336350 0.810610 0.080240 -0.010537 257774.000000 0 0 1
-28.078687 9.391000 29.691357 41.930660 -0.322758 0.783984 0.071345 -0.014462 -69334.900000 0 0 1
-27.656987 8.321200 28.685727 40.706538 -0.292256 0.788802 0.083346 -0.016733 131748.000000 0 0 1
-28.475987 7.184000 28.441707 40.883033 -0.247126 0.801423 0.089290 -0.017775 179448.000000 0 0 1
-29.760587 7.429700 27.897677 41.462916 -0.244648 0.832763 0.092910 -0.018754 26668.700000 0 0 1
-30.598987 6.134900 27.676327 41.712277 -0.197870 0.845302 0.094357 -0.019263 85890.800000 0 0 1
-31.136487 5.645100 28.941627 42.883164 -0.179354 0.829974 0.095273 -0.018932 288599.000000 0 0 1
-31.587987 4.318700 29.023097 43.113713 -0.135877 0.832302 0.104857 -0.024889 -160338.000000 0 0 1
-32.134987 3.946200 30.409037 44.417783 -0.122189 0.816722 0.087822 -0.014268 -21134.100000 0 0 1
-33.381187 4.545100 30.691297 45.573208 -0.135325 0.831930 0.086141 -0.017676 -302354.000000 0 0 1
-33.885987 4.347600 31.982476 46.797869 -0.127604 0.818363 0.093580 -0.018532 769225.000000 0 0 1
-35.352387 4.887800 32.158514 48.040107 -0.137388 0.837382 0.082607 -0.017211 638644.000000 0 0 1
-35.563087 6.285200 32.260923 48.425242 -0.174927 0.841694 0.083393 -0.012429 -949145.000000 0 0 1
-36.881487 6.587200 31.986342 49.262170 -0.176741 0.864122 0.065960 -0.006480 -661322.000000 0 0 1
36.726882 8.011300 32.230716 49.516299 0.214768 0.862012 0.062737 -0.014015 9322.610000 0 0 1
36.836482 8.395300 33.627646 50.578909 0.224080 0.843496 0.072818 -0.017052 299680.000000 0 0 1
36.344182 9.720000 33.796800 50.572736 0.261327 0.838901 0.073364 -0.013257 -45567.700000 0 0 1
36.309582 10.111300 -32.658870 49.872096 0.271594 2.284784 0.073740 -0.015926 443981.000000 0 0 1
35.329982 9.443900 -31.825080 48.479177 0.261199 2.286925 0.063324 -0.005215 508281.000000 0 0 1
35.478982 9.753100 -30.461620 47.768100 0.268271 2.262302 0.059487 0.005289 -547690.000000 0 0 1
34.387682 9.182700 -29.598950 46.291819 0.260946 2.264513 0.042915 0.007163 -519746.000000 0 0 1
34.353082 7.757800 -29.593600 46.001075 0.222100 2.269629 0.035238 -0.000754 38172.200000 0 0 1
33.073882 7.278200 -29.239580 44.741557 0.216606 2.283024 0.046414 -0.002806 -164951.000000 0 0 1
35.598820 6.210600 -19.992380 41.298218 0.172722 2.076128 0.032274 -0.005560 -651443.000000 0 0 1
35.303470 6.810000 -18.784280 40.565506 0.190558 2.052241 0.029616 -0.006983 409770.000000 0 0 1
35.885400 8.119100 -18.644380 41.246753 0.222505 2.039826 0.022427 -0.008674 1038300.000000 0 0 1
-36.664998 8.124500 -18.284180 41.768898 -0.218064 2.023887 0.040237 -0.014363 1589690.000000 0 0 1
-35.755483 7.576600 -19.230980 41.300001 -0.208812 2.055155 0.051492 -0.025183 186572.000000 0 0 1
-35.596562 8.404700 -20.372180 41.866215 -0.231863 2.078992 0.042512 -0.014272 -1151960.000000 0 0 1
-34.484112 7.906400 -21.285180 41.288304 -0.225381 2.112417 0.043799 -0.007165 -552217.000000 0 0 1
-34.797232 6.701400 -21.993380 41.706893 -0.190255 2.126254 0.037312 -0.002796 683662.000000 0 0 1
-35.813133 6.752200 -23.006380 43.098332 -0.186352 2.133898 0.030406 -0.004488 448643.000000 0 0 1
-35.846825 5.526000 -23.880880 43.426121 -0.152952 2.153064 0.048969 -0.000423 -29703.000000 0 0 1
-34.695363 5.566200 -24.684480 42.942687 -0.159075 2.183185 0.061043 -0.002353 24837.900000 0 0 1
-34.651474 4.383400 -25.416860 43.196709 -0.125831 2.199873 0.082444 -0.005622 297260.000000 0 0 1
-33.280998 4.123700 -26.119070 42.506889 -0.123277 2.232506 0.096573 -0.002358 412442.000000 0 0 1
-32.139248 4.131200 -25.307990 41.115599 -0.127840 2.233858 0.082527 -0.010301 574132.000000 0 0 1
-30.909818 3.994300 -26.046550 40.617657 -0.128512 2.266938 0.088857 -0.009577 100543.000000 0 0 1
-29.642668 4.039900 -25.258510 39.153556 -0.135452 2.271969 0.079994 -0.016057 -895425.000000 0 0 1
-29.237618 5.376600 -25.030370 38.862136 -0.181861 2.270618 0.058761 -0.001096 162795.000000 0 0 1
-27.991358 5.425300 -24.347980 37.493655 -0.191447 2.277577 0.067234 -0.014671 230675.000000 0 0 1
-27.396368 6.859900 -24.364280 37.299295 -0.245350 2.282613 0.053886 -0.010939 -502796.000000 0 0 1
-28.214368 7.838500 -23.831280 37.754769 -0.270986 2.253912 0.058525 -0.010114 -601686.000000 0 0 1
-27.973378 9.170600 -24.342080 38.198778 -0.316792 2.261718 0.032315 -0.011097 379055.000000 0 0 1
-26.680768 9.912900 -23.847080 37.132361 -0.355731 2.268185 0.068356 -0.016300 554185.000000 0 0 1
-26.624788 10.351100 -22.522080 36.376761 -0.370794 2.238435 0.046579 -0.022246 778733.000000 0 0 1
-25.245468 10.550800 -22.176180 35.219824 -0.395866 2.251900 0.094238 -0.026880 532675.000000 0 0 1
-25.090978 10.931900 -20.678380 34.302464 -0.410891 2.217833 0.102662 -0.039238 -962237.000000 0 0 1
-25.472468 12.297000 -20.332380 34.834875 -0.449758 2.194048 0.080621 -0.037719 101447.000000 0 0 1
-26.826878 12.653600 -20.299180 35.942339 -0.440733 2.170952 0.075585 -0.027952 -822594.000000 0 0 1
-27.681038 11.894200 -19.307780 35.784106 -0.405834 2.140714 0.068798 -0.023911 -1310950.000000 0 0 1
-27.353948 12.243700 -17.932180 34.924343 -0.420859 2.110006 0.071542 -0.030947 484121.000000 0 0 1
-28.294208 11.716200 -16.991880 35.022215 -0.392589 2.077359 0.067539 -0.030078 -746284.000000 0 0 1
-27.690868 11.277700 -15.634280 33.740205 -0.386759 2.052593 0.092111 -0.031553 156646.000000 0 0 1
-26.944448 10.063100 -15.715780 32.775830 -0.357434 2.070873 0.116350 -0.034056 632225.000000 0 0 1
-25.643358 10.238000 -16.259580 32.043290 -0.379856 2.102991 0.109077 -0.027630 -676859.000000 0 0 1
-24.818518 8.906900 -16.142280 30.917065 -0.344565 2.120126 0.106178 -0.025223 169078.000000 0 0 1
-23.427118 9.209700 -16.176980 29.922285 -0.374562 2.141986 0.110114 -0.027563 577558.000000 0 0 1
-22.752018 8.048100 -15.650880 28.764150 -0.339995 2.146125 0.098881 -0.027917 196760.000000 0 0 1
-21.240818 8.150500 -15.350780 27.445391 -0.366392 2.164363 0.139662 -0.037489 -213255.000000 0 0 1
-20.433118 8.321900 -16.471180 27.533001 -0.386762 2.212092 0.144350 -0.045560 -287851.000000 0 0 1
-19.091118 8.241200 -16.070580 26.280254 -0.407513 2.228761 0.156924 -0.040655 -652692.000000 0 0 1
-18.053518 8.979800 -16.936680 26.332821 -0.461565 2.269437 0.112286 -0.043602 -155200.000000 0 0 1
-17.845118 8.422900 -18.220280 26.858371 -0.440998 2.316357 0.145793 -0.050890 280205.000000 0 0 1
-16.921518 7.353400 -18.209080 25.922594 -0.409939 2.349617 0.147666 -0.048371 -705027.000000 0 0 1
-16.507318 6.828500 -19.613880 26.529687 -0.392231 2.402854 0.134368 -0.043352 490059.000000 0 0 1
-17.415818 5.941700 -20.306680 27.403938 -0.328784 2.405374 0.129965 -0.039502 218774.000000 0 0 1
-18.545218 6.575100 -20.849280 28.667919 -0.340717 2.385130 0.123905 -0.045587 -329840.000000 0 0 1
-19.498418 5.631400 -21.616580 29.650928 -0.281162 2.387708 0.117484 -0.030641 -145212.000000 0 0 1
-20.109218 4.737100 -20.677680 29.229903 -0.231351 2.356631 0.141356 -0.038629 233743.000000 0 0 1
-20.949418 3.906800 -21.460480 30.243899 -0.184369 2.359699 0.095541 -0.014092 -671718.000000 0 0 1
-21.826718 3.044400 -20.586980 30.157881 -0.138586 2.322166 0.109339 -0.026512 -622800.000000 0 0 1
-22.764318 2.279600 -21.314280 31.268344 -0.099806 2.320821 0.112299 -0.022592 -30409.500000 0 0 1
-23.605918 1.699800 -20.369980 31.226028 -0.071883 2.281464 0.112677 -0.032658 -489675.000000 0 0 1
-24.104818 0.303300 -20.759180 31.813171 -0.012582 2.281720 0.109501 -0.024107 605941.000000 0 0 1
-23.054118 -0.695700 -20.661180 30.965477 0.030168 2.301284 0.110801 -0.031111 927180.000000 0 0 1
-23.512818 -2.018100 -20.967380 31.568281 0.085620 2.297208 0.115035 -0.030175 -283372.000000 0 0 1
-23.720518 -2.401400 -22.474280 32.764661 0.100894 2.326678 0.107640 -0.030497 318946.000000 0 0 1
-22.568618 -2.368500 -23.305480 32.528414 0.104564 2.369519 0.081624 -0.024319 491015.000000 0 0 1
-21.671218 -3.492800 -23.160980 31.910380 0.159798 2.383012 0.075771 -0.029168 260146.000000 0 0 1
-20.797118 -3.520200 -24.402580 32.255199 0.167675 2.428813 0.082378 -0.027411 389095.000000 0 0 1
-21.652618 -3.860400 -25.535270 33.701463 0.176434 2.430563 0.074793 -0.027914 990782.000000 0 0 1
-20.915818 -3.778400 -26.729530 34.149898 0.178721 2.469807 0.075589 -0.031013 73585.400000 0 0 1
-21.820018 -4.042900 -27.958270 35.694861 0.183206 2.470685 0.078143 -0.038698 -113542.000000 0 0 1
-22.557018 -5.241500 -27.953990 36.300385 0.228315 2.449754 0.094841 -0.036503 201866.000000 0 0 1
-23.339118 -5.352100 -29.125100 37.704521 0.225421 2.453496 0.058125 -0.029945 -236021.000000 0 0 1
-22.836718 -6.585100 -29.918360 38.209783 0.280740 2.470275 0.072058 -0.031605 629082.000000 0 0 1
-21.586518 -6.359300 -30.589180 37.975208 0.286492 2.507322 0.062245 -0.036377 515797.000000 0 0 1
-21.072218 -7.589200 -31.082670 38.311444 0.345690 2.517195 0.074017 -0.035153 -526493.000000 0 0 1
-19.671118 -7.327400 -31.640540 37.970613 0.356573 2.555829 0.084950 -0.035186 -608404.000000 0 0 1
-19.604218 -6.774900 -32.935180 38.922368 0.332735 2.579565 0.089677 -0.038581 367227.000000 0 0 1
-19.336818 -7.841300 -33.858240 39.771585 0.385249 2.589287 0.094173 -0.035993 -578132.000000 0 0 1
-19.574218 -7.377300 32.629595 38.759065 0.360425 0.570081 0.087562 -0.030657 -667178.000000 0 0 1
-18.442918 -6.968600 31.948806 37.542361 0.361264 0.552897 0.087005 -0.030594 -485532.000000 0 0 1
-17.869118 -5.721900 32.334022 37.383613 0.309895 0.525795 0.081951 -0.031886 282961.000000 0 0 1
-16.484218 -5.477900 31.655167 36.107983 0.320831 0.501878 0.076597 -0.030976 245764.000000 0 0 1
-16.507518 -5.351700 30.244657 34.869445 0.313506 0.520906 0.071958 -0.033568 524611.000000 0 0 1
-15.267418 -5.013300 29.601547 33.682026 0.317273 0.497344 0.061979 -0.027422 601184.000000 0 0 1
-15.358218 -5.060900 28.092847 32.414436 0.318318 0.522294 0.058842 -0.018126 214451.000000 0 0 1
-16.262718 -4.062300 27.646787 32.331458 0.244783 0.545043 0.058734 -0.024481 191782.000000 0 0 1
-16.707218 -4.234100 26.283067 31.430215 0.248204 0.580414 0.066611 -0.024502 351039.000000 0 0 1
-15.664818 -3.718500 25.244187 29.941322 0.233065 0.567733 0.063346 -0.018857 335266.000000 0 0 1
-15.543118 -2.291000 25.163707 29.665626 0.146343 0.558134 0.052658 -0.015033 -459749.000000 0 0 1
-14.410318 -1.928800 24.436757 28.434709 0.133058 0.536703 0.043839 -0.012546 -324954.000000 0 0 1
-14.177918 -0.434400 24.444777 28.262152 0.030630 0.525786 0.039840 -0.010747 220963.000000 0 0 1
-15.097718 0.227200 23.570527 27.992186 -0.015047 0.569743 0.043981 -0.011135 344466.000000 0 0 1
-15.279418 1.581600 23.913897 28.422466 -0.103144 0.570978 0.023369 -0.010343 -331977.000000 0 0 1
-16.097218 2.352100 22.869467 28.065376 -0.145092 0.618302 0.021238 -0.013255 -93533.800000 0 0 1
-15.320718 2.801200 21.772467 26.769600 -0.180840 0.620947 0.025524 -0.007222 66023.400000 0 0 1
-16.001018 3.778900 21.071767 26.726991 -0.231917 0.662580 0.035440 -0.012271 -94278.100000 0 0 1
-15.068918 4.632000 20.151367 25.585256 -0.298221 0.663865 0.047993 -0.009047 45248.200000 0 0 1
-14.328818 5.595800 20.832767 25.896568 -0.372314 0.636030 0.040604 -0.009987 -5173.630000 0 0 1
-13.114418 5.805600 20.133167 24.719171 -0.416757 0.618971 0.037108 -0.000456 -327459.000000 0 1 0
-12.252018 6.893900 20.704067 25.025911 -0.512522 0.596503 0.034508 0.002642 -425012.000000 0 0 1
-12.712518 8.191000 20.469967 25.450347 -0.572376 0.636283 0.038123 0.000389 -186938.000000 0 0 1
-11.688518 9.141300 20.616267 25.401089 -0.663715 0.623861 0.043499 0.000252 -66869.100000 0 0 1
-12.144618 10.641300 20.600767 26.174809 -0.719518 0.664791 0.030533 0.007519 -61308.400000 0 0 1
-12.511218 11.190200 19.352467 25.617751 -0.729720 0.714483 0.031937 0.004691 104890.000000 0 0 1
-13.150518 12.405100 19.570667 26.642704 -0.756238 0.745778 0.013071 0.006716 -268923.000000 0 0 1
-13.796818 13.045900 18.295367 26.367938 -0.757431 0.803976 0.030978 0.004945 -8988.110000 0 0 1
-12.892018 13.657000 17.366467 25.579523 -0.814204 0.824505 0.026322 -0.001144 658010.000000 0 0 1
-12.356718 14.965800 17.698267 26.265801 -0.880601 0.831438 0.036282 -0.013839 -104703.000000 0 0 1
-13.220418 16.180800 17.195067 27.060453 -0.885749 0.882229 0.030260 -0.005510 61797.900000 0 0 1
-13.225818 16.460700 15.796467 26.370538 -0.893938 0.928520 0.025980 -0.026191 378923.000000 0 0 1
-13.889318 15.515000 14.946667 25.632621 -0.840629 0.948243 0.054900 -0.017292 -209185.000000 0 0 1
-14.521218 16.054800 13.648867 25.591287 -0.835513 1.008252 0.051946 -0.030005 238159.000000 0 0 1
-15.562818 17.000600 13.846767 26.887817 -0.829523 1.029809 0.042608 -0.025558 81788.700000 0 0 1
-16.080818 17.516900 12.664667 26.941201 -0.828116 1.081409 0.044172 -0.022665 47342.200000 0 0 1
-17.380818 18.365200 12.826067 28.352803 -0.812929 1.101371 0.040314 -0.020275 711672.000000 0 0 1
-18.533718 17.549400 13.093767 28.686702 -0.758126 1.096806 0.049346 -0.024223 894963.000000 0 0 1
-19.675018 18.374400 13.390867 30.067262 -0.751229 1.109216 0.049437 -0.023445 1030130.000000 0 0 1
-21.012818 17.612300 13.619367 30.614030 -0.697586 1.109763 0.070309 -0.018172 519516.000000 0 0 1
-21.492318 16.972100 12.431567 30.075169 -0.668418 1.144666 0.070976 -0.018686 -625038.000000 0 0 1
-22.829718 16.664000 12.674667 30.976316 -0.630529 1.149249 0.090298 -0.021819 -800380.000000 0 0 1
-23.412618 15.880900 11.483867 30.532489 -0.596017 1.185192 0.104553 -0.018141 -244765.000000 0 0 1
-22.865718 14.575500 11.207567 29.341027 -0.567494 1.178863 0.084787 -0.020506 198398.000000 0 0 1
-23.289618 14.081300 9.945167 28.975778 -0.543807 1.220450 0.096309 -0.014308 200546.000000 0 0 1
-22.451618 12.821600 9.473267 27.535638 -0.518881 1.219584 0.111829 -0.022417 -282351.000000 0 0 1
-22.593218 11.704600 10.313667 27.455836 -0.477990 1.185703 0.111475 -0.027763 165271.000000 0 0 1
-23.857418 11.080700 10.427667 28.296547 -0.434810 1.193387 0.137110 -0.018939 -141423.000000 0 0 1
-24.661918 10.655900 9.230767 28.407138 -0.407851 1.239842 0.149825 -0.015018 -587269.000000 0 0 1
-25.404838 11.688200 8.590867 29.254450 -0.431203 1.272743 0.160045 -0.016685 844659.000000 0 0 1
-26.530788 11.141700 7.876267 29.833803 -0.397589 1.303624 0.189400 -0.021063 165796.000000 0 0 1
-26.949118 12.141300 6.796667 30.329208 -0.423292 1.344781 0.156393 -0.000969 -407017.000000 0 0 1
-26.160918 12.231300 5.633267 29.423325 -0.437345 1.378151 0.146514 -0.014447 255321.000000 0 0 1
-24.925118 12.915500 5.739267 28.653287 -0.478079 1.369132 0.147935 -0.019495 -220561.000000 0 0 1
-24.928518 14.462300 5.793767 29.396545 -0.525697 1.372407 0.140738 -0.013708 143478.000000 0 0 1
-23.627418 14.955600 6.145667 28.630300 -0.564315 1.354457 0.127802 -0.015607 894102.000000 0 0 1
-23.704418 16.315700 6.578667 29.519153 -0.602829 1.346048 0.114381 -0.015589 -393762.000000 0 0 1
-22.333618 16.947500 6.811167 28.851348 -0.649131 1.332469 0.112687 -0.018549 -388462.000000 0 0 1
-21.719918 17.423000 5.672167 28.416356 -0.676061 1.369837 0.117513 -0.031279 352601.000000 0 0 1
-20.400418 17.925500 5.793367 27.768034 -0.720912 1.360618 0.133613 -0.032560 -228595.000000 0 0 1
-19.860318 18.352800 4.444367 27.404560 -0.745968 1.407901 0.124194 -0.034197 -151612.000000 0 0 1
-18.475618 18.610700 4.643267 26.632059 -0.789041 1.395552 0.104171 -0.037902 367834.000000 0 0 1
-17.965518 19.541400 3.708067 26.802536 -0.827389 1.432004 0.095432 -0.044391 -70937.300000 0 0 1
-18.013718 21.058100 4.043967 28.005201 -0.863159 1.425889 0.080600 -0.036677 -493843.000000 0 0 1
-17.315718 21.450200 5.182667 28.050048 -0.891649 1.384964 0.079756 -0.036981 -109691.000000 0 0 1
-17.440518 22.863800 5.377467 29.254780 -0.919153 1.385930 0.054247 -0.028983 -414681.000000 0 0 1
-16.558518 23.398900 6.521567 29.397685 -0.954946 1.347096 0.031048 -0.012355 -177455.000000 0 0 1
-17.015618 23.065300 7.797867 29.704310 -0.935204 1.305167 0.041172 -0.022068 -69425.400000 0 0 1
-16.115518 23.440100 8.781467 29.770159 -0.968496 1.271366 0.034322 -0.024603 -205309.000000 0 0 1
-16.475818 22.621600 10.050167 29.735421 -0.941314 1.226020 0.022620 -0.019099 634887.000000 0 0 1
-17.578418 23.204400 10.770867 31.039596 -0.922483 1.216421 0.027575 -0.019222 120023.000000 0 0 1
-18.506118 22.192400 11.102667 30.955585 -0.875727 1.203960 0.032031 -0.025762 -242424.000000 0 0 1
-19.761818 22.834200 11.756367 32.405900 -0.857402 1.199542 0.045643 -0.026130 154032.000000 0 0 1
-20.768718 23.407700 10.927167 33.146087 -0.845065 1.234846 0.065954 -0.023098 290538.000000 0 0 1
-20.343818 24.584700 10.329267 33.540605 -0.879511 1.257745 0.033041 -0.022139 -840018.000000 0 0 1
-21.514618 25.432300 9.831267 34.732326 -0.868654 1.283815 0.059670 -0.021319 -95782.100000 0 0 1
-22.135918 26.068400 10.952767 35.909935 -0.866797 1.260851 0.084175 -0.036575 -151024.000000 0 0 1
-23.341918 26.657900 10.529567 36.964315 -0.851621 1.281938 0.096816 -0.029387 -127366.000000 0 0 1
-24.135718 27.205700 11.742767 38.217478 -0.845122 1.258482 0.098730 -0.042498 -455334.000000 0 0 1
-23.462218 28.262100 12.310267 38.739704 -0.877931 1.247421 0.101247 -0.030155 389992.000000 0 0 1
-24.327818 29.218500 12.930067 40.159060 -0.876481 1.242985 0.093736 -0.028870 75433.000000 0 0 1
9.204882 -31.760355 27.638677 43.096943 -1.288702 0.874587 0.054149 -0.032285 -288381.000000 0 0 1
10.518782 -32.223455 27.427197 43.603291 -1.255269 0.890509 0.056743 -0.026699 269131.000000 0 0 1
10.726982 -32.217355 26.039397 42.791077 -1.249385 0.916597 0.051028 -0.023996 -1135410.000000 0 0 1
12.199082 -32.467855 25.825197 43.242572 -1.211388 0.930769 0.026699 -0.007834 -1071150.000000 0 0 1
12.615982 -33.801455 26.005517 44.474580 -1.213571 0.946252 0.060798 -0.018610 924216.000000 0 0 1
14.046882 -33.794255 25.859097 44.811376 -1.176864 0.955665 0.060824 -0.007115 944443.000000 0 0 1
14.820282 32.953100 25.566507 44.262782 1.148160 0.955002 0.091961 -0.005089 41854.400000 0 0 1
14.731782 32.457000 24.252777 43.112405 1.144715 0.973332 0.066060 -0.007737 -412565.000000 0 0 1
15.700882 31.509300 24.032237 42.625135 1.108515 0.971811 0.077134 -0.016609 -644395.000000 0 0 1
15.781682 31.056700 22.562067 41.504542 1.100644 0.996070 0.071792 -0.021679 -327449.000000 0 0 1
14.759782 30.181000 22.186967 40.261712 1.115953 0.987152 0.076270 -0.020980 -226066.000000 0 0 1
15.103982 28.776900 22.271267 39.398599 1.087455 0.970023 0.076882 -0.024292 -116668.000000 0 0 1
14.784982 28.045200 23.575567 39.508686 1.085639 0.931391 0.092262 -0.037200 -561582.000000 0 0 1
15.630482 28.417000 24.610317 40.712474 1.067923 0.921670 0.088079 -0.031403 -61946.500000 0 0 1
15.234982 27.907500 25.877007 40.994545 1.071099 0.887658 0.094869 -0.041463 10786.400000 0 0 1
16.337582 28.232300 26.929067 42.298392 1.046198 0.880656 0.108603 -0.040943 355210.000000 0 0 1
16.463282 29.586500 27.348557 43.524065 1.063018 0.891360 0.121556 -0.037927 -282509.000000 0 0 1
17.538882 29.746300 28.219427 44.595861 1.038047 0.885656 0.120532 -0.033385 -200285.000000 0 0 1
17.676782 31.188200 28.757587 45.958364 1.055163 0.894728 0.117660 -0.041114 -86275.500000 0 0 1
17.897282 32.294600 27.807787 46.222580 1.064743 0.925286 0.109860 -0.029019 13857.800000 0 0 1
17.438082 33.476400 28.329627 47.194532 1.090564 0.926953 0.116131 -0.014979 -415901.000000 0 0 1
18.056782 -33.455455 27.593377 46.975624 -1.075875 0.942957 0.091369 -0.014319 -320586.000000 0 0 1
17.371382 -33.238155 26.363447 45.842897 -1.089206 0.958091 0.094607 -0.009007 55483.000000 0 0 1
17.549482 -31.961455 25.719407 44.620699 -1.068658 0.956479 0.073527 -0.006666 -180269.000000 0 0 1
18.938982 -31.310055 25.466687 44.582022 -1.026793 0.962790 0.082361 -0.002525 20250.800000 0 0 1
19.525182 -30.930155 26.695437 45.283038 -1.007703 0.940327 0.071710 -0.002963 -502750.000000 0 0 1
20.598682 -30.088555 26.397087 45.015920 -0.970480 0.944196 0.067998 -0.001340 -377966.000000 0 0 1
21.048882 -29.333155 27.666157 45.485224 -0.948369 0.916949 0.074954 -0.004667 -780356.000000 0 0 1
20.049082 -28.527955 28.145397 44.810415 -0.958202 0.891688 0.078512 -0.010421 -530027.000000 0 0 1
20.481882 -27.696955 29.213217 45.166811 -0.934050 0.867435 0.087076 -0.007682 -398330.000000 0 0 1
19.298782 -27.065455 29.917127 44.721542 -0.951371 0.837981 0.076316 -0.014543 -74616.400000 0 0 1
18.475382 -26.280255 29.034867 43.301444 -0.958051 0.835875 0.076695 -0.015934 1132260.000000 0 0 1
17.179882 -26.042855 29.619247 43.019512 -0.987648 0.811368 0.080811 -0.026845 443560.000000 0 0 1
16.242182 -25.244455 28.733887 41.553908 -0.999078 0.807254 0.058484 -0.023353 -1047480.000000 0 0 1
15.839882 -25.808555 27.528217 40.924151 -1.020331 0.832993 0.048028 -0.020398 208448.000000 0 0 1
15.260882 -24.954855 26.563567 39.512813 -1.021935 0.833516 0.032478 -0.025537 -1269840.000000 0 0 1
13.876882 -24.339255 26.855257 38.809432 -1.052619 0.806571 0.045796 -0.027956 -175750.000000 0 0 1
12.876582 -25.291055 27.198567 39.309107 -1.099867 0.806658 0.045314 -0.026562 384467.000000 0 0 1
12.455882 -26.078155 26.060947 38.915191 -1.125199 0.837011 0.029168 -0.022815 -605072.000000 0 0 1
11.576682 -27.351055 26.376007 39.721449 -1.170398 0.844608 0.026174 -0.027067 1549040.000000 0 0 1
10.185082 -27.143155 26.712377 39.421287 -1.211819 0.826284 0.042192 -0.042018 608123.000000 0 0 1
9.510582 -28.329455 26.770147 40.120443 -1.246905 0.840293 0.037875 -0.035570 209435.000000 0 0 1
7.966082 -28.145155 27.043487 39.836646 -1.294975 0.824588 0.036728 -0.040157 658703.000000 0 0 1
7.167682 -27.940555 25.900197 38.766873 -1.319678 0.839142 0.045112 -0.038574 -27690.500000 0 0 1
7.287382 -26.687055 25.277537 37.473440 -1.304227 0.830448 0.083992 -0.044063 -289276.000000 0 0 1
5.999182 -26.375255 24.438137 36.453625 -1.347146 0.836062 0.082229 -0.044303 -106887.000000 0 0 1
5.873282 -27.215855 23.310427 36.312177 -1.358252 0.873764 0.068791 -0.036129 -116863.000000 0 0 1
5.225682 -28.471555 23.524107 37.300413 -1.389276 0.888385 0.064741 -0.033708 -882880.000000 0 0 1
3.751282 -28.427055 23.918707 37.339980 -1.439593 0.875562 0.100998 -0.035556 -1410940.000000 0 0 1
2.922582 -28.237755 22.805467 36.414305 -1.467664 0.894027 0.102118 -0.030147 -277231.000000 0 0 1
1.573682 -27.955455 23.075847 36.283311 -1.514563 0.881505 0.111709 -0.030694 -233050.000000 0 0 1
1.154982 -26.550355 23.538507 35.500939 -1.527322 0.845925 0.107292 -0.029811 -453313.000000 0 0 1
1.495682 -26.188455 24.904997 36.170860 -1.513746 0.811326 0.105945 -0.027690 25852.400000 0 0 1
1.399282 -24.805155 25.131547 35.339049 -1.514445 0.779656 0.110921 -0.030304 -289606.000000 0 0 1
2.557182 -24.235555 25.993807 35.631156 -1.465672 0.753170 0.107451 -0.029322 -564546.000000 0 0 1
3.754982 -24.106555 25.299307 35.146562 -1.416272 0.767249 0.098763 -0.029536 -618061.000000 0 0 1
4.736482 -23.265055 25.872237 35.115092 -1.369953 0.742495 0.091881 -0.035103 109679.000000 0 0 1
4.534182 -21.742655 26.097207 34.269025 -1.365204 0.705112 0.078360 -0.022331 -610689.000000 0 0 1
4.363582 -21.036455 24.886647 32.877325 -1.366267 0.712156 0.077943 -0.030737 -171306.000000 0 0 1
3.374682 -20.087155 25.122187 32.342025 -1.404349 0.681282 0.084796 -0.041195 -310205.000000 0 0 1
3.152182 -19.218755 23.907527 30.836126 -1.408228 0.683592 0.105916 -0.042842 -318593.000000 0 0 1
4.198582 -18.304655 23.728757 30.261236 -1.345324 0.669503 0.109707 -0.037575 -282453.000000 0 0 1
4.396182 -17.964755 22.341567 29.003525 -1.330801 0.691477 0.117679 -0.043222 188027.000000 0 0 1
5.694982 -17.173155 21.991267 28.477463 -1.250588 0.688446 0.085437 -0.035550 906466.000000 0 0 1
6.921782 -17.802555 22.347267 29.398000 -1.199975 0.707233 0.074302 -0.038728 3463.930000 0 0 1
8.004182 -17.039655 21.829467 28.826072 -1.131650 0.711655 0.064509 -0.029524 -597230.000000 0 0 1
9.280082 -17.455755 22.517667 29.964456 -1.082163 0.720495 0.077898 -0.016586 -850943.000000 0 0 1
9.495882 -16.715955 23.662297 30.487690 -1.054183 0.682297 0.073064 -0.018129 -576082.000000 0 0 1
10.669182 -16.918155 24.375377 31.531166 -1.008155 0.687151 0.073561 -0.012047 -440685.000000 0 0 1
10.632082 -16.115755 25.731067 32.169031 -0.987610 0.643716 0.088447 -0.024417 -66175.300000 0 0 1
10.811682 -14.737755 25.548427 31.413628 -0.937871 0.621010 0.096339 -0.021128 71080.300000 0 0 1
10.695982 -14.015655 26.742777 32.031527 -0.918935 0.582865 0.091614 -0.016748 -134438.000000 0 0 1
11.138882 -12.576255 26.429537 31.317045 -0.845934 0.566220 0.075448 -0.016422 -354115.000000 0 0 1
10.220582 -11.919555 25.642957 30.068211 -0.861985 0.549423 0.069019 -0.014752 -101391.000000 0 0 1
10.687382 -10.567355 25.477497 29.580263 -0.779751 0.532973 0.058053 -0.008316 433997.000000 0 0 1
9.616982 -9.716255 24.733727 28.260382 -0.790533 0.504930 0.042618 -0.007149 456118.000000 0 0 1
8.398882 -9.503255 25.424647 28.412423 -0.847010 0.462718 0.055609 -0.012696 92060.700000 0 0 1
7.401982 -9.013655 24.534777 27.165983 -0.883264 0.443761 0.049246 -0.011254 1674570.000000 0 0 1
5.920182 -9.407455 24.989947 27.350434 -1.009105 0.418512 0.057672 -0.019998 965711.000000 0 0 1
5.355582 -8.554655 25.977937 27.869654 -1.011447 0.370565 0.061513 -0.016538 362548.000000 0 0 1
3.994582 -8.735155 26.321567 28.019360 -1.141889 0.349902 0.068643 -0.020533 696809.000000 0 0 1
2.844582 -8.617555 25.324637 26.901508 -1.251966 0.344088 0.066645 -0.024958 -420558.000000 0 0 1
2.941982 -7.340755 24.695317 25.930689 -1.189623 0.309918 0.055128 -0.025617 -461042.000000 0 0 1
1.917082 -7.069755 23.789237 24.891453 -1.305997 0.298703 0.070650 -0.036628 -140378.000000 0 1 0
1.988082 -5.719755 23.036137 23.818726 -1.236278 0.257051 0.050908 -0.038430 -117029.000000 0 1 0
1.826782 -4.588255 23.875907 24.381308 -1.191892 0.203966 0.048175 -0.024767 7020.830000 0 1 0
2.334582 -3.412155 23.219317 23.584524 -0.970756 0.176211 0.051447 -0.032234 -312338.000000 0 1 0
1.493382 -2.683455 22.094567 22.306973 -1.062965 0.138109 0.046753 -0.036230 704752.000000 0 1 0
0.453782 -1.815455 22.577867 22.655284 -1.325860 0.082693 0.056263 -0.037537 1076080.000000 0 1 0
-0.773718 -2.455455 22.956137 23.100046 1.265543 0.111681 0.051156 -0.040316 57462.900000 0 1 0
-1.829418 -1.495455 23.489837 23.608380 0.685290 0.100254 0.053863 -0.047173 -296469.000000 0 1 0
-1.446918 -0.878455 24.701987 24.759916 0.545639 0.068418 0.055187 -0.039852 469845.000000 0 1 0
-2.313818 0.229545 25.039547 25.147274 -0.098883 0.092595 0.050047 -0.034229 250733.000000 0 0 1
-1.776718 1.088545 26.265517 26.348037 -0.549685 0.079165 0.074684 -0.034595 -551614.000000 0 0 1
-1.937218 0.512545 27.591407 27.664079 -0.258651 0.072500 0.083251 -0.024037 -269046.000000 0 0 1
-1.053618 -0.465455 28.087917 28.111526 0.415987 0.040986 0.081332 -0.028242 -893644.000000 0 0 1
0.394682 0.037545 28.323647 28.326422 0.094843 0.013997 0.093645 -0.030752 -112881.000000 0 0 1
1.191482 0.057545 27.139667 27.165870 0.048260 0.043925 0.074859 -0.029160 -180343.000000 0 0 1
1.402682 -1.168455 26.404357 26.467393 -0.694550 0.069030 0.061229 -0.025045 -1145970.000000 0 0 1
2.671882 -1.912455 26.803127 27.003779 -0.621232 0.121981 0.065086 -0.019468 -824769.000000 0 0 1
2.463982 -2.772455 27.932157 28.177351 -0.844239 0.132019 0.070785 -0.021594 318345.000000 0 0 1
3.590082 -3.501055 28.448177 28.886759 -0.772844 0.174479 0.077395 -0.010740 255787.000000 0 0 1
4.287382 -4.440655 27.505457 28.189559 -0.802957 0.220756 0.079657 -0.012166 -120084.000000 0 0 1
5.327482 -3.841955 26.730547 27.525712 -0.624785 0.240949 0.067420 -0.011165 15778.000000 0 0 1
5.618182 -4.618055 25.554727 26.569428 -0.688003 0.277258 0.066767 -0.013728 1032300.000000 0 0 1
6.942782 -4.114555 24.822667 26.101659 -0.534989 0.314343 0.060626 -0.015131 1347420.000000 0 0 1
8.164982 -4.371355 25.508137 27.137442 -0.491548 0.348280 0.068096 -0.013167 481053.000000 0 0 1
8.965282 -5.509755 25.206667 27.315010 -0.551061 0.395475 0.064407 -0.014177 363420.000000 0 0 1
9.753482 -5.505755 23.883527 26.379284 -0.513901 0.438500 0.044024 -0.013009 -414240.000000 0 0 1
8.972982 -5.606955 22.696367 25.041514 -0.558506 0.436233 0.040929 -0.015933 -367400.000000 0 0 1
9.715282 -5.343655 21.552367 24.237283 -0.502863 0.475151 0.047809 -0.008263 -257314.000000 0 1 0
9.574482 -3.896155 20.924267 23.338288 -0.386467 0.458847 0.049948 -0.030939 972138.000000 0 1 0
8.188982 -3.660055 20.614567 22.481455 -0.420314 0.410406 0.042801 -0.038354 604038.000000 0 1 0
8.085182 -2.437455 19.896067 21.613997 -0.292807 0.401393 0.034165 -0.037305 297843.000000 0 1 0
6.624582 -1.927455 20.024067 21.179316 -0.283138 0.331811 0.027878 -0.024663 142294.000000 0 1 0
6.394682 -1.331455 21.247267 22.228610 -0.205280 0.298250 0.037638 -0.025208 302864.000000 0 1 0
5.136682 -0.684455 21.127267 21.753515 -0.132468 0.240531 0.017955 -0.015065 16813.000000 0 1 0
4.527182 -0.090455 22.411067 22.863935 -0.019978 0.199363 0.020247 -0.022038 386354.000000 0 1 0
3.288882 0.587545 22.175867 22.426124 0.176781 0.149532 0.017656 -0.021660 378856.000000 0 1 0
2.635082 0.781545 23.410837 23.571631 0.288328 0.116870 0.037304 -0.023438 -647360.000000 0 1 0
1.213782 1.310545 23.312177 23.380514 0.823712 0.076475 0.044573 -0.029091 -704281.000000 0 1 0
1.011982 2.672545 23.042687 23.219217 1.208822 0.123389 0.043665 -0.023712 -708919.000000 0 1 0
-0.354118 2.869545 23.111077 23.291234 -1.448011 0.124458 0.032065 -0.018152 -842383.000000 0 1 0
-0.873518 4.305545 22.728067 23.148775 -1.370631 0.190942 0.044505 -0.016877 -41725.500000 0 1 0
-0.606318 5.339545 23.619937 24.223538 -1.457728 0.223706 0.062828 -0.015482 -137320.000000 0 1 0
-1.239818 6.523545 23.163067 24.096089 -1.382983 0.279189 0.054643 -0.016410 14461.500000 0 1 0
-1.135718 7.738545 24.081617 25.319938 -1.425075 0.314041 0.076691 -0.008631 12249.500000 0 0 1
0.044882 8.472545 23.840317 25.301122 1.565499 0.341471 0.070136 -0.003445 -111353.000000 0 0 1
0.114082 9.588545 24.661737 26.460433 1.558899 0.370840 0.098998 -0.007000 -702593.000000 0 0 1
0.673682 10.857545 23.893237 26.253132 1.508828 0.427247 0.099862 -0.012396 783466.000000 0 0 1
2.079382 10.887545 23.693667 26.158218 1.382082 0.437573 0.084784 -0.012629 263790.000000 0 0 1
2.887682 11.037545 24.840827 27.335560 1.314908 0.430549 0.127185 -0.018804 -512162.000000 0 0 1
4.270482 11.669545 24.563067 27.527433 1.219983 0.468355 0.112924 -0.025466 762582.000000 0 0 1
5.292282 10.854545 23.943677 26.816582 1.117147 0.467121 0.089874 -0.015941 702076.000000 0 0 1
5.197282 10.777545 22.558267 25.535126 1.121464 0.487683 0.085844 -0.020454 -780971.000000 0 0 1
6.477582 10.163545 22.013167 25.096539 1.003376 0.500923 0.073827 -0.017595 -707295.000000 0 0 1
7.544682 11.050545 21.928167 25.688155 0.971746 0.547882 0.067614 -0.023739 -374321.000000 0 0 1
8.619282 10.485545 21.211967 25.183055 0.882775 0.569239 0.065001 -0.029092 -181727.000000 0 0 1
9.498682 11.556545 20.583567 25.445274 0.882825 0.628458 0.059724 -0.032501 -759539.000000 0 0 1
8.862182 12.176545 19.499767 24.638333 0.941650 0.657635 0.062172 -0.035936 80209.900000 0 1 0
9.521582 13.291545 18.950967 25.029280 0.949172 0.711854 0.079109 -0.038161 -497494.000000 0 0 1
10.890482 13.163545 18.259067 25.005501 0.879617 0.752179 0.069037 -0.043432 -479209.000000 0 0 1
11.884882 13.139545 19.255167 26.166000 0.835494 0.743823 0.066791 -0.043582 319802.000000 0 0 1
13.069682 12.492545 18.764667 26.057494 0.762824 0.766813 0.061715 -0.046339 654129.000000 0 0 1
14.277182 12.319545 19.701067 27.271618 0.711926 0.763527 0.069319 -0.033755 455459.000000 0 0 1
15.006882 13.519545 20.043667 28.455812 0.733306 0.789249 0.071035 -0.034483 281927.000000 0 0 1
16.217982 13.205545 20.697067 29.424105 0.683372 0.790619 0.073367 -0.030436 -178082.000000 0 0 1
16.988482 14.429545 21.156067 30.731083 0.704130 0.811480 0.072288 -0.022276 -516542.000000 0 0 1
16.520782 15.102545 22.297467 31.594306 0.740580 0.787325 0.080461 -0.022003 -421208.000000 0 0 1
17.348282 16.086545 22.777167 32.841120 0.747679 0.804382 0.073073 -0.016332 -636339.000000 0 0 1
-21.738718 12.411100 -24.536380 35.051979 -0.518764 2.346194 0.068779 -0.012348 99387.500000 0 0 1
-21.725218 12.235700 -25.970890 36.002564 -0.512923 2.376564 0.072455 -0.027071 -77005.900000 0 0 1
-22.516718 13.208100 -26.600500 37.269869 -0.530501 2.365601 0.060298 -0.023405 -178021.000000 0 0 1
-22.357118 13.048200 -28.151170 38.243753 -0.528293 2.398085 0.053709 -0.021061 1580060.000000 0 0 1
-20.969718 13.366900 -28.501690 37.825249 -0.567494 2.424181 0.059007 -0.018664 1359030.000000 0 0 1
-20.725418 13.786300 -29.798270 38.827077 -0.586978 2.445668 0.048138 -0.024894 807654.000000 0 0 1
-19.275718 14.337100 -30.102470 38.513173 -0.639515 2.468047 0.037591 -0.026741 1793910.000000 0 0 1
-18.288118 13.231100 -30.071890 37.601009 -0.626312 2.497696 0.037518 -0.030997 443838.000000 0 0 1
-16.993218 13.767900 -30.237750 37.318174 -0.680929 2.515407 0.031982 -0.019475 468483.000000 0 0 1
-16.047618 13.529000 -28.979370 35.782171 -0.700447 2.514749 0.060015 -0.018023 215408.000000 0 0 1
-16.463118 14.034700 -27.670050 35.123194 -0.705940 2.478025 0.058711 -0.018373 142778.000000 0 0 1
-17.345618 13.171800 -26.953120 34.653102 -0.649473 2.461951 0.075562 -0.017995 213422.000000 0 0 1
-17.989318 13.760600 -25.706340 34.260555 -0.652989 2.419341 0.069079 -0.016256 -92195.900000 0 0 1
-17.003818 13.984500 -24.722980 33.104710 -0.688271 2.414051 0.096462 -0.033666 298221.000000 0 0 1
-17.589418 14.460000 -23.521780 32.737645 -0.688063 2.372430 0.099968 -0.032438 -493965.000000 0 0 1
-16.584718 15.051800 -22.558580 31.788349 -0.736982 2.359797 0.101239 -0.028119 -366552.000000 0 0 1
-16.198818 16.340400 -23.090380 32.597179 -0.789749 2.357962 0.082226 -0.026803 -70301.800000 0 0 1
-15.557218 17.098300 -22.105080 31.984582 -0.832555 2.333829 0.085044 -0.023204 -564127.000000 0 0 1
-15.562818 18.619400 -22.368680 33.003655 -0.874581 2.315513 0.074730 -0.012437 813423.000000 0 0 1
-16.852718 19.241600 -22.229080 33.887834 -0.851486 2.286251 0.033283 -0.009261 804970.000000 0 0 1
-17.690818 19.096100 -23.351680 34.970374 -0.823580 2.301987 0.023646 -0.002851 -565645.000000 0 0 1
-18.894118 20.043900 -23.246480 36.043647 -0.814918 2.271759 0.009056 -0.003242 -322332.000000 0 0 1
-18.613418 21.417900 -23.377780 36.765560 -0.855341 2.259920 -0.000604 -0.000004 -208195.000000 0 0 1
-19.783518 22.188800 -23.298380 37.769630 -0.842642 2.235537 0.019821 -0.010907 -67190.800000 0 0 1
-19.495318 23.729500 -23.438780 38.633315 -0.883044 2.222697 0.006462 -0.008225 -207470.000000 0 0 1
-18.981818 24.333500 -22.282780 38.065088 -0.908327 2.196153 0.012282 -0.001691 -77321.600000 0 0 1
-18.202618 25.467500 -22.639180 38.632387 -0.950247 2.196929 0.011468 0.014251 373595.000000 0 0 1
-16.874818 25.586400 -21.808780 37.617101 -0.987756 2.189227 0.016469 -0.002676 703475.000000 0 0 1
-15.858718 24.589500 -21.945980 36.575518 -0.997987 2.214320 0.040507 -0.018145 421752.000000 0 0 1
-16.221918 23.347200 -21.343180 35.549595 -0.963561 2.214770 0.044703 0.002177 -608936.000000 0 0 1
-15.090618 22.277800 -21.277480 34.303911 -0.975411 2.239876 0.079492 -0.008435 240951.000000 0 0 1
-14.077918 22.638000 -20.374780 33.552921 -1.014450 2.223382 0.098825 -0.021529 -241808.000000 0 0 1
-13.186718 21.576000 -20.120580 32.314874 -1.022200 2.242910 0.100865 -0.021762 -66561.800000 0 0 1
-12.310918 21.720700 -18.860980 31.290319 -1.055159 2.217769 0.087534 -0.028378 32273.800000 0 0 1
-12.980218 21.758300 -17.591680 30.844398 -1.032907 2.177712 0.110339 -0.032450 190684.000000 0 0 1
-13.813718 22.895400 -17.416580 31.911682 -1.027924 2.148109 0.101353 -0.041271 -111867.000000 0 0 1
-14.673518 22.939200 -16.137580 31.653444 -1.001717 2.105773 0.118823 -0.041125 -291462.000000 0 0 1
-14.024818 23.290700 -14.950580 31.026957 -1.028787 2.073570 0.117456 -0.059180 -43946.800000 0 0 1
-14.900918 23.501300 -13.855880 31.085911 -1.005718 2.032784 0.135470 -0.054488 -8381.650000 0 0 1
-14.117018 23.677200 -12.524680 30.278171 -1.033155 1.997260 0.133101 -0.047583 405723.000000 0 0 1
-13.395818 24.942100 -12.435980 30.922644 -1.077929 1.984676 0.118772 -0.054128 720923.000000 0 0 1
-12.405218 25.001200 -11.432080 30.160270 -1.110205 1.959560 0.092837 -0.046485 -42373.200000 0 0 1
-11.676318 26.399200 -11.445880 31.052574 -1.154366 1.948295 0.105302 -0.052859 223026.000000 0 0 1
-10.953918 26.709800 -12.625880 31.508960 -1.181606 1.983085 0.100103 -0.051249 126739.000000 0 0 1
-10.761518 28.089400 -12.747880 32.670064 -1.204929 1.971646 0.078148 -0.031449 -709629.000000 0 0 1
-10.254018 28.433200 -14.184180 33.388362 -1.224678 2.009564 0.107635 -0.045963 1114750.000000 0 0 1
-8.846918 28.340700 -14.480980 33.032742 -1.268218 2.024595 0.079333 -0.047301 674040.000000 0 0 1
-8.273918 27.055100 -14.280180 31.691635 -1.274011 2.038231 0.089773 -0.051066 -958615.000000 0 0 1
-6.907918 27.026000 -14.982280 31.663745 -1.320552 2.063680 0.095103 -0.050964 -33637.800000 0 0 1
-6.028118 27.992900 -14.434180 32.066902 -1.358691 2.037704 0.073244 -0.039335 -546771.000000 0 0 1
-4.816118 27.985900 -15.175980 32.198074 -1.400375 2.061597 0.068458 -0.038233 98744.100000 0 0 1
-3.726918 28.774100 -14.423480 32.401783 -1.441990 2.032132 0.065562 -0.028707 -375237.000000 0 0 1
-3.886818 30.202500 -14.468380 33.713979 -1.442808 2.014349 0.051040 -0.022444 -74049.300000 0 0 1
-4.854818 30.761900 -13.605680 33.984971 -1.414268 1.982689 0.037606 -0.023815 -70620.000000 0 0 1
-4.917018 32.326600 -13.684480 35.446454 -1.419849 1.967154 0.030807 -0.027533 271890.000000 0 0 1
-3.832818 32.980500 -12.998980 35.656379 -1.455101 1.943959 0.022069 -0.028623 353993.000000 0 0 1
-3.691418 -33.721255 -13.480180 36.502943 1.461762 1.949041 0.015792 -0.019905 148291.000000 0 0 1
-2.756518 -32.979555 -12.529980 35.387142 1.487408 1.932730 0.026382 -0.025260 -542994.000000 0 0 1
-3.320418 -32.810055 -11.328280 34.869109 1.469938 1.901681 0.025613 -0.022746 -537767.000000 0 0 1
-2.487318 -32.051455 -10.523180 33.826318 1.493348 1.887141 0.017201 -0.025192 530.441000 0 0 1
-3.080318 -31.882655 -9.107380 33.300697 1.474481 1.847815 0.021016 -0.017417 574590.000000 0 0 1
-2.091118 -31.157655 -8.365280 32.328782 1.503783 1.832531 0.042223 -0.027791 546461.000000 0 0 1
-2.334818 -31.318555 -6.965480 32.168636 1.496383 1.789055 0.028166 -0.027108 -524698.000000 0 0 1
-1.160818 -30.723755 -6.215880 31.367718 1.533032 1.770278 0.052036 -0.033332 -373015.000000 0 0 1
-1.244918 -30.569455 -4.800580 30.969129 1.530095 1.726436 0.059985 -0.034501 386370.000000 0 0 1
0.032182 -30.195055 -4.259080 30.493969 -1.569731 1.710924 0.063647 -0.035154 454092.000000 0 0 1
0.140182 -30.064355 -2.695180 30.185246 -1.566134 1.660203 0.063652 -0.036310 -431225.000000 0 0 1
0.128982 -31.239355 -1.908780 31.297881 -1.566668 1.631822 0.070002 -0.030587 439662.000000 0 0 1
1.206082 -32.170855 -2.126580 32.263615 -1.533324 1.636757 0.065024 -0.033932 907707.000000 0 0 1
2.632582 -31.768855 -1.637280 31.919763 -1.488118 1.622112 0.074626 -0.027624 -238019.000000 0 0 1
2.627982 -31.838255 -0.226480 31.947332 -1.488441 1.577886 0.057711 -0.027404 264568.000000 0 0 1
3.912782 -31.587355 0.324320 31.830426 -1.447552 1.560607 0.059671 -0.016096 455759.000000 0 0 1
4.510082 -30.161455 0.339420 30.498678 -1.422365 1.559667 0.034056 -0.018872 -481431.000000 0 0 1
4.764582 -29.651855 -0.996580 30.048742 -1.411474 1.603968 0.048216 -0.025673 -22875.900000 0 0 1
4.824982 -28.287155 -0.908580 28.710087 -1.401851 1.602448 0.057975 -0.024776 7534.730000 0 0 1
4.255482 -27.657155 -2.233880 28.071650 -1.418128 1.650458 0.052674 -0.016733 -814395.000000 0 0 1
2.865782 -27.785055 -2.285280 28.025782 -1.468019 1.652429 0.063964 -0.024692 -640697.000000 0 0 1
2.323082 -26.952655 -3.306580 27.253913 -1.484818 1.692421 0.064831 -0.023942 212361.000000 0 0 1
2.837282 -27.178655 -4.796180 27.744058 -1.466779 1.744542 0.054507 -0.020879 -180098.000000 0 0 1
2.328082 -28.373455 -5.357380 28.968507 -1.488928 1.756805 0.057748 -0.029302 -35485.600000 0 0 1
2.872582 -28.437755 -6.673580 29.351223 -1.470125 1.800172 0.072221 -0.039108 60845.600000 0 0 1
2.060782 -29.222655 -7.774180 30.309211 -1.500393 1.830191 0.063582 -0.037288 -772874.000000 0 0 1
0.946882 -28.496455 -8.133380 29.649560 -1.537580 1.848676 0.056781 -0.028629 -1009060.000000 0 0 1
0.377882 -28.880155 -9.357380 30.360611 -1.557713 1.884105 0.062100 -0.018534 320426.000000 0 0 1
-1.056618 -28.350255 -9.634380 29.961219 1.533543 1.898175 0.047546 -0.021977 -884363.000000 0 0 1
-1.167618 -26.925955 -9.610180 28.613387 1.527459 1.913318 0.059849 -0.023879 -1294590.000000 0 0 1
-2.446918 -26.439755 -9.723380 28.277061 1.478512 1.921822 0.067436 -0.021523 -600328.000000 0 0 1
-3.431518 -26.853355 -8.585080 28.400380 1.443698 1.877888 0.068261 -0.021850 -1000080.000000 0 0 1
-3.180118 -26.369655 -7.273880 27.538721 1.450778 1.838101 0.080901 -0.026835 -305633.000000 0 0 1
-2.265418 -27.172055 -6.556480 28.043539 1.487616 1.806777 0.079780 -0.024023 194682.000000 0 0 1
-1.983518 -26.715955 -5.088480 27.268465 1.496688 1.758503 0.084191 -0.024470 492058.000000 0 0 1
-3.006018 -27.111255 -4.181080 27.595973 1.460370 1.722893 0.089602 -0.027277 482940.000000 0 0 1
-2.446418 -27.119955 -2.884580 27.382434 1.480833 1.676336 0.084001 -0.013238 -578905.000000 0 0 1
-3.538718 -27.109555 -1.892380 27.404955 1.440996 1.639904 0.088233 -0.016060 -531199.000000 0 0 1
-4.434518 -26.001855 -1.935580 26.448211 1.401875 1.644046 0.080964 -0.016664 413255.000000 0 0 1
-5.368118 -26.103155 -0.847080 26.662875 1.367974 1.602572 0.096765 -0.022191 481321.000000 0 0 1
-6.385418 -24.927755 -0.715680 25.742547 1.320031 1.598601 0.082585 -0.023257 398229.000000 0 0 1
-5.794218 -23.697255 -0.303380 24.397231 1.330991 1.583232 0.061529 -0.021265 -165143.000000 0 1 0
-6.702818 -22.932655 0.433220 23.896069 1.286435 1.552666 0.076886 -0.023591 54418.600000 0 1 0
-6.073618 -21.582055 0.813420 22.435141 1.296471 1.534532 0.054264 -0.022633 82651.900000 0 1 0
-5.033218 -21.583955 1.737220 22.231021 1.341698 1.492573 0.050964 -0.025048 -618478.000000 0 1 0
-4.387318 -20.380855 1.915620 20.935553 1.358765 1.479167 0.030353 -0.020548 -810303.000000 0 1 0
-3.371118 -20.371355 3.023420 20.868579 1.406799 1.425406 0.036161 -0.013651 -898092.000000 0 1 0
-3.806218 -20.599655 4.343520 21.393906 1.388086 1.366349 0.026614 0.007370 -291836.000000 0 1 0
-2.829718 -20.539855 5.372720 21.418661 1.433891 1.317245 0.032093 0.007663 114334.000000 0 1 0
-1.849418 -21.705055 5.542820 22.477824 1.485795 1.321636 0.034107 -0.013207 -109140.000000 0 1 0
-0.943418 -21.843955 4.479020 22.318378 1.527634 1.368737 0.058391 -0.018445 -653981.000000 0 1 0
-0.249418 -23.037655 4.654120 23.504395 1.559970 1.371468 0.062218 -0.020259 -889454.000000 0 1 0
0.673082 -23.229855 3.407420 23.488076 -1.541830 1.425212 0.059362 -0.032574 739509.000000 0 1 0
1.824182 -22.372755 3.269720 22.683890 -1.489440 1.426150 0.027842 -0.029203 -125759.000000 0 1 0
2.828382 -22.862955 4.062920 23.392771 -1.447711 1.396228 0.051918 -0.030657 -1240680.000000 0 1 0
4.105382 -21.998155 4.232020 22.774612 -1.386295 1.383888 0.056520 -0.024827 458178.000000 0 1 0
4.901682 -21.779855 3.103420 22.539294 -1.349429 1.432668 0.034641 -0.023340 46780.100000 0 1 0
6.094282 -21.078055 3.484020 22.216279 -1.289342 1.413323 0.054635 -0.020430 394917.000000 0 1 0
6.786482 -20.437155 2.320220 21.659110 -1.250187 1.463466 0.059342 -0.020160 -492109.000000 0 1 0
7.431582 -21.526555 1.669820 22.834388 -1.238379 1.497604 0.055252 -0.017555 -389074.000000 0 1 0
6.995882 -21.654955 0.334120 22.759417 -1.258319 1.556115 0.045631 -0.020291 -199631.000000 0 1 0
7.919582 -22.330855 -0.719780 23.704534 -1.229987 1.601166 0.053329 -0.014622 -77200.700000 0 1 0
9.128682 -21.622755 -0.859780 23.486498 -1.171317 1.607412 0.052585 -0.012778 -511460.000000 0 1 0
10.119682 -22.458155 -1.423580 24.673939 -1.147442 1.628524 0.056415 -0.016694 -777730.000000 0 1 0
11.413182 -21.772355 -1.722180 24.642687 -1.087973 1.640739 0.064341 -0.019849 -1162410.000000 0 1 0
11.451582 -20.836255 -2.757580 23.935172 -1.068261 1.686263 0.061490 -0.008409 -304771.000000 0 1 0
12.695882 -20.843755 -3.414580 24.643597 -1.023714 1.709802 0.066151 -0.012193 -445794.000000 0 1 0
12.878482 -19.716055 -4.378480 23.953062 -0.992176 1.754624 0.066347 -0.026419 -83990.300000 0 1 0
12.839582 -18.470455 -3.733380 22.802427 -0.963338 1.735264 0.074072 -0.023845 159405.000000 0 1 0
13.201982 -17.417955 -4.623080 22.339434 -0.922225 1.779250 0.093436 -0.029150 -567857.000000 0 1 0
13.726882 -16.225355 -3.817680 21.593149 -0.868621 1.748531 0.111129 -0.021667 479152.000000 0 1 0
15.070582 -16.286055 -3.356580 22.441583 -0.824142 1.720929 0.092316 -0.015447 185455.000000 0 1 0
16.010082 -15.918355 -4.338580 22.989998 -0.782525 1.760651 0.093435 -0.027153 -1474070.000000 0 1 0
17.367382 -15.620855 -3.763080 23.660047 -0.732504 1.730523 0.088824 -0.022189 -993356.000000 0 1 0
18.098082 -16.770155 -3.422880 24.909732 -0.747332 1.708644 0.097446 -0.026390 411718.000000 0 1 0
19.420682 -16.391655 -3.054280 25.596442 -0.701018 1.690406 0.076319 -0.013292 184932.000000 0 0 1
20.271882 -17.504955 -2.439080 26.894641 -0.712285 1.661611 0.076473 -0.024025 816634.000000 0 0 1
21.648882 -17.105155 -2.271580 27.684300 -0.668686 1.652942 0.069688 -0.017655 626578.000000 0 0 1
22.258882 -17.899155 -1.319480 28.593331 -0.677257 1.616959 0.067722 -0.019369 562285.000000 0 0 1
23.824382 -17.863555 -1.488780 29.814832 -0.643374 1.620751 0.072824 -0.021161 646059.000000 0 0 1
24.368682 -16.611355 -1.158180 29.514592 -0.598316 1.610047 0.086191 -0.022420 -1070030.000000 0 0 1
25.623982 -16.844355 -0.649480 30.671527 -0.581537 1.591973 0.102662 -0.022587 -1172270.000000 0 0 1
26.282182 -15.554555 -0.089280 30.540223 -0.534390 1.573720 0.097289 -0.026271 30228.700000 0 0 1
25.669082 -14.894255 1.022020 29.694867 -0.525764 1.536372 0.104594 -0.026900 -119537.000000 0 0 1
26.543782 -13.947955 1.573320 30.026540 -0.483815 1.518375 0.097573 -0.036439 18435.400000 0 0 1
25.946782 -13.024155 2.685620 29.156074 -0.465212 1.478554 0.138864 -0.038208 -221080.000000 0 0 1
25.636082 -13.563355 3.977820 29.274499 -0.486634 1.434495 0.152944 -0.029555 30927.100000 0 0 1
26.676282 -14.146355 4.751120 30.566591 -0.487590 1.414728 0.137587 -0.031142 119158.000000 0 0 1
26.179182 -14.597355 6.136220 30.595514 -0.508655 1.368867 0.141067 -0.024235 -4721.970000 0 0 1
25.490982 -15.789955 5.964520 30.572673 -0.554586 1.374444 0.129255 -0.031532 -406282.000000 0 0 1
24.719482 -16.084155 7.114020 30.337470 -0.576844 1.334096 0.104687 -0.026393 184331.000000 0 0 1
23.880582 -17.367155 7.039920 30.355571 -0.628781 1.336750 0.100234 -0.022392 54556.800000 0 0 1
24.718182 -18.518955 7.047020 31.679657 -0.642991 1.346473 0.099035 -0.018246 -117047.000000 0 0 1
23.979882 -19.687755 6.893220 31.782997 -0.687422 1.352175 0.073793 -0.003254 -32420.900000 0 0 1
2.010782 23.381700 -3.332880 23.703485 1.485009 1.711871 0.054536 -0.023177 210187.000000 0 1 0
3.066482 24.139100 -2.745880 24.487534 1.444439 1.683166 0.060353 -0.029037 -9773.150000 0 1 0
3.690382 24.884400 -3.755180 25.435284 1.423568 1.718975 0.072899 -0.027539 -676086.000000 0 0 1
4.714082 25.834300 -3.170080 26.451522 1.390308 1.690930 0.062920 -0.024084 -624340.000000 0 0 1
5.810582 25.086500 -2.682780 25.890011 1.343188 1.674605 0.051378 -0.030964 -352757.000000 0 0 1
6.495682 25.890600 -1.743080 26.749867 1.324981 1.636005 0.048548 -0.029493 -345073.000000 0 0 1
7.567182 25.131300 -0.931380 26.262367 1.278325 1.606268 0.030213 -0.036154 324393.000000 0 0 1
8.721182 25.049100 -1.763880 26.582470 1.235759 1.637200 0.039021 -0.036952 -1036660.000000 0 0 1
9.797882 24.434200 -1.189380 26.352291 1.189436 1.615946 0.024232 -0.032744 -1226370.000000 0 0 1
10.865382 24.224400 -2.242080 26.644042 1.149165 1.655045 0.049229 -0.033977 -2042360.000000 0 0 1
11.746182 25.317700 -2.329680 28.006894 1.136401 1.654075 0.055600 -0.029447 -232354.000000 0 0 1
12.683282 25.159900 -3.384080 28.378481 1.103869 1.690329 0.060708 -0.027326 464387.000000 0 0 1
13.794982 24.100100 -3.146880 27.946721 1.050916 1.683638 0.063451 -0.029508 -1067450.000000 0 0 1
13.316182 22.756300 -3.176780 26.556766 1.041357 1.690706 0.074925 -0.037855 -209012.000000 0 0 1
13.286782 22.324000 -4.513180 26.367941 1.033929 1.742805 0.084993 -0.042058 -69572.100000 0 0 1
12.370282 21.068600 -4.711980 24.881972 1.039884 1.761320 0.081612 -0.045721 348837.000000 0 1 0
11.008282 21.460500 -4.663080 24.565823 1.096838 1.761775 0.082020 -0.038439 -356300.000000 0 1 0
10.187382 20.335800 -4.509080 23.187482 1.106383 1.766505 0.054059 -0.027595 222287.000000 0 1 0
8.681082 20.705500 -4.505480 22.899307 1.173794 1.768840 0.041144 -0.024586 248105.000000 0 1 0
8.187982 21.415500 -3.384680 23.175909 1.205607 1.717364 0.045629 -0.011430 -898711.000000 0 1 0
6.817782 21.503300 -3.540980 22.834461 1.263765 1.726496 0.042538 -0.016902 -295611.000000 0 1 0
5.905982 22.076800 -2.394480 22.978234 1.309398 1.675192 0.041441 -0.025008 384213.000000 0 1 0
5.667282 21.233100 -1.246380 22.011726 1.309969 1.627450 0.033678 -0.026566 -72570.300000 0 1 0
4.776282 21.900900 -0.390780 22.419076 1.356072 1.588228 0.036917 -0.021020 -112963.000000 0 1 0
4.423082 21.072600 0.831520 21.547843 1.363903 1.532197 0.020884 -0.021028 114145.000000 0 1 0
3.572582 21.731500 1.792220 22.096006 1.407857 1.489597 0.023264 -0.018823 566278.000000 0 1 0
3.206782 20.866700 2.879820 21.307181 1.418310 1.435224 0.028053 -0.020968 440892.000000 0 1 0
2.172682 21.493300 3.880720 21.948633 1.470052 1.393053 0.018104 -0.015695 961617.000000 0 1 0
0.810482 21.583000 3.449020 21.871865 1.533262 1.412443 0.019688 -0.016699 231163.000000 0 1 0
-0.003818 22.149600 4.435820 22.589406 -1.570624 1.373145 0.021631 -0.021225 -1146280.000000 0 1 0
-1.413918 22.188300 3.918420 22.575957 -1.507159 1.396347 0.029001 -0.024540 -606127.000000 0 1 0
-2.393118 22.603400 4.918720 23.255849 -1.465315 1.357682 0.040091 -0.027574 840357.000000 0 1 0
-3.653018 22.489700 4.238920 23.175409 -1.409772 1.386855 0.052577 -0.034941 709944.000000 0 1 0
-4.917518 22.733200 5.104620 23.812549 -1.357764 1.354753 0.064995 -0.043387 19619.500000 0 1 0
-5.087918 24.090300 5.516820 25.232217 -1.362653 1.350374 0.081699 -0.032305 -500523.000000 0 0 1
-6.253118 24.121100 6.274520 25.696275 -1.317142 1.324122 0.083376 -0.034450 -146919.000000 0 0 1
-6.753318 25.550800 6.689620 27.261726 -1.312396 1.322879 0.089804 -0.037051 -359402.000000 0 0 1
-5.845418 26.094000 7.572420 27.792216 -1.350421 1.294842 0.070773 -0.045455 -349022.000000 0 0 1
-6.248318 27.346900 8.107920 29.199876 -1.346169 1.289429 0.086459 -0.033308 -57652.700000 0 0 1
-6.522418 28.599200 7.208820 30.206345 -1.346568 1.329818 0.105671 -0.036725 894061.000000 0 0 1
-7.708718 28.480800 6.397120 30.191115 -1.306466 1.357290 0.102490 -0.045680 309886.000000 0 0 1
-7.847618 29.686400 5.734920 31.237105 -1.312357 1.386156 0.129918 -0.046104 724908.000000 0 0 1
-9.273518 30.061800 5.100320 31.870413 -1.271576 1.410072 0.127531 -0.043625 1684270.000000 0 0 1
-10.217518 30.687000 5.959620 32.887790 -1.249383 1.388579 0.108696 -0.030550 301480.000000 0 0 1
-10.812118 29.676700 6.810720 32.310901 -1.221413 1.358416 0.074533 -0.025865 -590986.000000 0 0 1
-11.733418 30.094200 7.971020 33.269673 -1.199036 1.328855 0.049882 -0.021708 57577.500000 0 0 1
-11.015918 30.642800 9.057820 33.799049 -1.225688 1.299490 0.059729 -0.019091 463490.000000 0 0 1
-11.961818 30.911400 10.088020 34.646326 -1.201572 1.275345 0.052109 -0.008269 646010.000000 0 0 1
-11.252018 31.419700 11.419020 35.273212 -1.226906 1.241127 0.053911 -0.014414 392754.000000 0 0 1
-10.658418 32.740900 11.362220 36.258357 -1.256078 1.252058 0.062484 -0.013378 495328.000000 0 0 1
-9.910718 33.005200 12.544620 36.673329 -1.279085 1.221684 0.066643 -0.017497 63521.500000 0 0 1
-9.603418 -33.578055 12.770620 37.186021 1.292230 1.220235 0.066398 -0.021849 56923.400000 0 0 1
-10.691118 -32.780155 13.160820 36.905904 1.255528 1.206165 0.058468 -0.009824 70528.300000 0 0 1
-10.198818 -31.446655 13.195820 35.595472 1.257178 1.191016 0.061635 -0.002912 492054.000000 0 0 1
-11.058218 -30.479755 14.074520 35.346736 1.222759 1.161260 0.072805 -0.014769 -226584.000000 0 0 1
-11.067718 -30.650255 15.456020 36.066897 1.224270 1.127923 0.067142 -0.023617 1027100.000000 0 0 1
-9.773318 -30.461355 16.078720 35.804149 1.260329 1.105067 0.068468 -0.030427 958162.000000 0 0 1
-9.867418 -30.547355 17.635420 36.626696 1.258356 1.068441 0.063393 -0.034506 753042.000000 0 0 1
-10.892918 -29.695555 18.211120 36.498308 1.219217 1.048400 0.093743 -0.031830 829290.000000 0 0 1
-11.867618 -30.419155 18.950920 37.753181 1.198822 1.044923 0.081238 -0.029157 -8065.560000 0 0 1
-12.209818 -29.653755 20.236320 37.920093 1.180205 1.007878 0.097043 -0.033628 268937.000000 0 0 1
-11.058418 -29.492555 21.057920 37.888460 1.212064 0.981487 0.085813 -0.032904 535911.000000 0 0 1
-11.420618 -28.852455 22.263220 38.190910 1.193891 0.948447 0.079412 -0.026709 406512.000000 0 0 1
-10.231718 -28.771855 23.271820 38.393818 1.229128 0.919605 0.082471 -0.024319 407362.000000 0 0 1
-10.026318 -29.883755 24.137020 39.700901 1.247087 0.917293 0.086225 -0.023992 303153.000000 0 0 1
-8.792418 -29.687755 24.823620 39.684777 1.282863 0.894999 0.093841 -0.019667 238285.000000 0 0 1
-8.411618 -30.748655 25.881920 41.062256 1.303769 0.888845 0.105392 -0.020575 -104778.000000 0 0 1
-7.921718 -31.949755 25.296920 41.514751 1.327755 0.915559 0.117462 -0.027006 298352.000000 0 0 1
-7.961718 -32.970255 26.258320 42.894359 1.333851 0.912004 0.117990 -0.027304 -270200.000000 0 0 1
-7.783218 33.691200 25.732320 43.102526 -1.343763 0.931037 0.106538 -0.029346 683056.000000 0 0 1
-6.424518 33.465300 25.303020 42.443416 -1.381128 0.932088 0.107001 -0.025902 953237.000000 0 0 1
-6.126318 32.160600 24.733220 41.031307 -1.382560 0.923804 0.094593 -0.021584 -199683.000000 0 0 1
-6.807018 31.765800 23.383620 40.027431 -1.359701 0.946915 0.096267 -0.019283 586371.000000 0 0 1
-8.129818 31.313200 23.686320 40.095538 -1.316776 0.938812 0.093536 -0.020452 355483.000000 0 0 1
-8.943518 31.143200 22.546120 39.474206 -1.291148 0.962877 0.076524 -0.016482 -6039.630000 0 0 1
-10.018018 30.090900 22.824720 39.074170 -1.249413 0.946978 0.071731 -0.030507 -259679.000000 0 0 1
-9.477418 28.795700 22.579620 37.800172 -1.252837 0.930614 0.072305 -0.022082 13662.600000 0 0 1
-10.112818 27.687800 23.158520 37.486003 -1.220606 0.904866 0.059793 -0.018350 -483250.000000 0 0 1
-9.475418 26.347700 22.655020 36.017145 -1.225569 0.890522 0.049226 -0.021844 451454.000000 0 0 1
-8.163618 26.131100 23.160720 35.859420 -1.267993 0.868627 0.029520 -0.019584 389284.000000 0 0 1
-7.765318 24.748900 23.065320 34.710477 -1.266760 0.843964 0.029336 -0.018575 106580.000000 0 0 1
-6.308418 24.494100 23.507220 34.530370 -1.318726 0.821984 0.023015 -0.017280 58683.200000 0 0 1
-5.367318 25.015600 22.602520 34.138867 -1.359442 0.847211 0.028019 -0.012801 -279188.000000 0 0 1
-4.084418 25.048500 23.173920 34.367723 -1.409158 0.830789 0.042783 -0.011410 -336117.000000 0 0 1
-2.947018 25.658900 22.371120 34.169154 -1.456444 0.856988 0.040329 -0.005292 -535072.000000 0 0 1
-2.347318 24.727700 21.505820 32.855278 -1.476153 0.857193 0.035444 -0.000810 -322625.000000 0 0 1
-1.665918 25.445400 20.537920 32.742172 -1.505419 0.892764 0.042723 0.004822 -311496.000000 0 0 1
-1.364718 24.443600 19.402520 31.237954 -1.515023 0.900625 0.032085 -0.001988 38934.000000 0 0 1
-0.231118 23.649900 19.743120 30.808472 -1.561024 0.875212 0.035169 0.003915 209999.000000 0 0 1
0.012982 22.580100 18.816720 29.392686 1.570221 0.876059 0.030889 0.001512 -69878.100000 0 0 1
1.223482 21.707000 19.250520 29.039168 1.514492 0.846090 0.033257 0.005054 716785.000000 0 0 1
2.477482 22.354900 19.091220 29.501765 1.460422 0.866994 0.036081 -0.004671 -264347.000000 0 0 1
3.554882 21.579700 19.476720 29.285888 1.407530 0.843229 0.035053 -0.001890 215237.000000 0 0 1
4.998482 22.164600 19.406420 29.880820 1.348990 0.863921 0.047888 -0.003935 372090.000000 0 0 1
5.889382 21.158700 19.052220 29.075118 1.299325 0.856249 0.064567 -0.012292 253440.000000 0 0 1
7.245582 21.623900 19.009320 29.689152 1.247481 0.875936 0.092615 -0.018836 750092.000000 0 0 1
8.299982 20.569700 18.526320 28.900290 1.187272 0.874940 0.095324 -0.012089 208946.000000 0 0 1
8.709582 19.745900 19.611420 29.161021 1.155382 0.833185 0.103035 -0.021857 -592945.000000 0 0 1
9.664382 18.842800 19.223020 28.600277 1.096886 0.833719 0.097554 -0.024663 -403035.000000 0 0 1
10.355482 18.101700 20.373020 29.154202 1.051165 0.797075 0.099703 -0.021437 429618.000000 0 0 1
9.480382 17.101000 20.931520 28.643504 1.064600 0.751362 0.099897 -0.021863 411047.000000 0 0 1
10.125482 16.319600 21.874720 29.109416 1.015476 0.720516 0.102850 -0.024035 -196672.000000 0 0 1
9.160182 15.246600 22.385820 28.591829 1.029788 0.671411 0.085222 -0.020301 -28500.800000 0 0 1
8.089582 15.709100 23.177820 29.144956 1.095251 0.651360 0.095079 -0.007593 291147.000000 0 0 1
7.097182 14.774800 23.602020 28.735345 1.122986 0.607008 0.092527 -0.011604 376634.000000 0 0 1
7.572482 13.663800 24.531920 29.083621 1.064734 0.567037 0.110833 -0.011364 -643166.000000 0 0 1
7.794882 14.208300 25.819420 30.484068 1.069017 0.560516 0.123924 -0.021911 -152085.000000 0 0 1
8.034082 13.161800 26.740920 30.868369 1.022758 0.523072 0.137049 -0.026370 -19119.900000 0 0 1
9.038282 13.766100 27.806820 32.317414 0.989823 0.534687 0.104924 -0.015346 917911.000000 0 0 1
10.397282 13.922800 27.404820 32.449529 0.929359 0.565097 0.117855 -0.012149 675811.000000 0 0 1
10.646982 15.043200 26.511320 32.287864 0.954881 0.607474 0.101080 -0.005734 -1001820.000000 0 0 1
12.011782 14.859800 25.852820 32.147548 0.890990 0.636481 0.108686 -0.014109 -306055.000000 0 0 1
11.976382 13.950300 24.771720 30.849355 0.861386 0.638501 0.112722 -0.025478 1050330.000000 0 0 1
13.300282 13.695500 24.241320 30.856211 0.800037 0.667095 0.110156 -0.028421 655350.000000 0 0 1
13.316182 12.663900 23.057620 29.484723 0.760296 0.672897 0.086232 -0.025808 -62567.300000 0 0 1
12.924482 11.335900 23.312420 28.965734 0.720011 0.635412 0.086653 -0.020699 1387070.000000 0 0 1
11.506182 11.235700 23.619120 28.574394 0.773505 0.597787 0.106920 -0.018378 856264.000000 0 0 1
11.089182 9.961300 24.384820 28.580008 0.731869 0.548682 0.088206 -0.016598 -73447.400000 0 0 1
11.144882 8.840700 23.550820 27.513769 0.670613 0.543382 0.091107 -0.013470 308012.000000 0 0 1
10.745982 7.624900 24.200820 27.555306 0.617112 0.498578 0.086129 -0.018050 55844.200000 0 0 1
10.895582 6.436100 23.255720 26.475755 0.533559 0.498338 0.082819 -0.026604 -358633.000000 0 0 1
12.193782 6.006100 22.951720 26.674763 0.457673 0.534687 0.095795 -0.025910 -217055.000000 0 0 1
12.346882 5.008200 21.953720 25.680603 0.385346 0.545485 0.102502 -0.031852 -111995.000000 0 0 1
12.035282 3.595700 22.462420 25.735916 0.290322 0.509877 0.090820 -0.034570 540722.000000 0 0 1
13.118282 3.053600 23.259220 26.877594 0.228702 0.524897 0.090579 -0.029934 662309.000000 0 0 1
12.715282 1.906100 23.933520 27.168455 0.148798 0.492972 0.073064 -0.027579 -285434.000000 0 0 1
13.745182 1.378700 24.994320 28.557781 0.099970 0.504907 0.044888 -0.013235 546227.000000 0 0 1
14.886882 0.855100 24.325720 28.532281 0.057377 0.549916 0.068373 -0.019529 327264.000000 0 0 1
16.148982 1.308100 24.798220 29.621824 0.080826 0.578725 0.063211 -0.014700 -146129.000000 0 0 1
17.224582 0.685100 23.912620 29.478279 0.039754 0.624604 0.063041 -0.022164 -688919.000000 0 0 1
17.278082 -0.710800 24.031320 29.606446 -0.041116 0.623753 0.054841 -0.020333 -59522.500000 0 0 1
18.118982 -1.355000 23.116220 29.402264 -0.074645 0.666152 0.067417 -0.010683 -109512.000000 0 0 1
18.372982 -2.874900 23.510320 29.976101 -0.155216 0.669226 0.059235 -0.010548 186233.000000 0 0 1
17.270282 -3.653800 23.070620 29.049378 -0.208491 0.653129 0.048292 -0.004781 378222.000000 0 0 1
17.319182 -4.964600 23.558320 29.657979 -0.279168 0.652887 0.075902 -0.005329 702939.000000 0 0 1
16.259882 -5.986100 22.948020 28.754630 -0.352753 0.646722 0.065584 -0.003472 185336.000000 0 0 1
16.572982 -6.250000 21.598820 27.932691 -0.360628 0.686853 0.046710 -0.005482 86453.100000 0 0 1
15.812482 -7.237600 20.902320 27.190520 -0.429251 0.693935 0.055447 -0.012900 -150754.000000 0 0 1
16.313082 -8.656900 21.030620 27.988310 -0.487883 0.720604 0.074778 -0.013722 -120798.000000 0 0 1
16.049082 -9.230100 22.347520 29.020327 -0.521922 0.691854 0.060017 -0.003062 -267075.000000 0 0 1
16.942682 -10.236100 22.732020 30.142610 -0.543473 0.716439 0.078975 -0.008484 -394536.000000 0 0 1
16.368682 -11.152800 23.838720 30.993600 -0.598099 0.693287 0.099779 -0.017626 -541529.000000 0 0 1
15.434482 -11.973800 23.259720 30.374490 -0.659799 0.698566 0.094937 -0.012236 -756891.000000 0 0 1
15.018082 -12.971300 24.171020 31.273561 -0.712401 0.687413 0.113044 -0.010446 154748.000000 0 0 1
13.920682 -13.919000 23.612820 30.742303 -0.785338 0.694945 0.102441 -0.021647 17687.800000 0 0 1
14.375782 -14.769100 22.581220 30.572878 -0.798893 0.739801 0.122288 -0.020025 248223.000000 0 0 1
13.317882 -15.601900 22.149620 30.189252 -0.864212 0.747056 0.118126 -0.012429 75127.800000 0 0 1
13.710082 -16.437700 20.876220 29.899513 -0.875627 0.797898 0.137571 -0.021840 66361.100000 0 0 1
14.908582 -17.187100 20.959220 30.934626 -0.856271 0.826394 0.128903 -0.020588 116086.000000 0 0 1
15.163282 -17.867400 19.766920 30.657792 -0.867083 0.870087 0.117863 -0.015145 -33250.200000 0 0 1
-25.172088 -32.212655 26.465337 48.700136 0.907479 0.996273 0.068677 -0.017860 -930089.000000 0 0 1
-25.377888 -33.467255 25.908767 49.349352 0.922011 1.018073 0.060475 -0.012794 585257.000000 0 0 1
-26.678228 -34.014655 26.124817 50.509709 0.905692 1.027192 0.038950 -0.021530 223000.000000 0 0 1
-27.114058 33.831300 27.588887 51.389451 -0.895173 1.004087 0.040151 -0.020158 -838665.000000 0 0 1
-27.602488 -33.104855 28.259157 51.540360 0.875789 0.990476 0.044637 -0.017035 51058.200000 0 0 1
-27.421928 -33.417355 29.631727 52.409169 0.883626 0.969888 0.020185 -0.013641 26259.600000 0 0 1
-28.527958 -32.821255 30.553127 53.146710 0.855266 0.958335 0.010106 -0.013428 -110820.000000 0 0 1
-28.639328 -31.422955 30.342027 52.232670 0.831711 0.950961 0.007230 -0.008207 -82671.600000 0 0 1
-29.442728 -30.809755 31.300047 52.875403 0.808083 0.937310 0.002078 0.005598 -341107.000000 0 0 1
-29.706648 -29.310655 30.985857 51.978099 0.778688 0.932120 0.003130 -0.004289 -213490.000000 0 0 1
-30.186418 -29.182655 29.699917 51.428905 0.768493 0.955140 -0.018753 0.007409 61485.600000 0 0 1
-30.778058 -27.898255 29.574397 50.992612 0.736358 0.952099 0.007772 0.005404 196347.000000 0 0 1
-31.464078 -27.521455 28.207167 50.428791 0.718657 0.977199 0.001211 -0.005444 -318940.000000 0 0 1
-30.537968 -27.312555 27.210417 49.182822 0.729702 0.984535 0.012982 0.004668 -452080.000000 0 0 1
-29.862178 -26.097955 27.267357 48.128596 0.718233 0.968481 0.018348 0.000911 -445045.000000 0 0 1
-28.791228 -25.926455 26.189857 46.765634 0.733090 0.976382 0.025111 0.014870 -264043.000000 0 0 1
-29.366348 -25.933955 24.897057 46.419994 0.723409 1.004698 0.013552 0.009765 379554.000000 0 0 1
-28.375848 -26.127555 23.883907 45.368259 0.744171 1.016382 0.034293 0.012478 184606.000000 0 0 1
-28.916048 -26.285955 22.447767 45.066523 0.737789 1.049387 0.020912 0.018974 -78429.200000 0 0 1
-29.487718 -25.162555 21.815267 44.481295 0.706420 1.058205 0.021264 0.009743 79444.600000 0 0 1
-29.876128 -25.452255 20.526767 44.291630 0.705611 1.088917 0.023918 0.011036 -99422.800000 0 0 1
-30.595928 -24.310455 19.791267 43.804147 0.671418 1.102000 0.019221 -0.003094 245475.000000 0 0 1
-31.882498 -23.912655 20.241467 44.699281 0.643517 1.100852 0.034091 -0.005554 258089.000000 0 0 1
-32.402458 -22.895655 19.389767 44.159862 0.615143 1.116221 0.048048 -0.013067 -417427.000000 0 0 1
-33.845028 -22.522355 19.731167 45.189173 0.587164 1.118942 0.062003 -0.008981 -563465.000000 0 0 1
-34.797474 -23.480255 19.356067 46.226009 0.593591 1.138754 0.057836 -0.017268 -796903.000000 0 0 1
-35.988609 -22.822655 19.101467 46.700317 0.565162 1.149414 0.065726 -0.018096 -884312.000000 0 0 1
-37.019618 -23.547755 18.253267 47.519792 0.566533 1.176543 0.097402 -0.015386 -255307.000000 0 0 1
36.767050 -24.808055 18.727167 48.145221 -0.593568 1.171280 0.078298 -0.013286 -189466.000000 0 0 1
36.071930 -25.450555 17.687467 47.557979 -0.614441 1.189726 0.100047 -0.006893 -7269.680000 0 0 1
35.477480 -26.861455 18.027767 48.012391 -0.648056 1.185880 0.095463 0.004575 68548.700000 0 0 1
34.405060 -27.070055 18.907467 47.686354 -0.666643 1.163099 0.098722 -0.004923 -113559.000000 0 0 1
34.560930 -26.519755 20.249967 48.039738 -0.654502 1.135670 0.097015 -0.003869 -322959.000000 0 0 1
33.423880 -26.869355 21.230567 47.852429 -0.677113 1.111109 0.088425 -0.014609 -642904.000000 0 0 1
32.179300 -26.350055 20.919767 46.556089 -0.686130 1.104764 0.095994 -0.015239 -1029210.000000 0 0 1
31.533980 -26.023455 22.126567 46.488677 -0.689949 1.074746 0.104572 -0.011882 -301370.000000 0 0 1
30.499200 -24.902655 21.871167 45.040997 -0.684722 1.063766 0.110663 -0.006580 -224628.000000 0 0 1
30.923950 -23.693155 21.298267 44.399014 -0.653773 1.070482 0.097509 0.000427 27999.900000 0 0 1
31.774150 -22.868255 22.123767 44.966819 -0.623834 1.056408 0.111454 -0.012846 530514.000000 0 0 1
32.467590 -21.708255 21.351467 44.511548 -0.589349 1.070502 0.102003 -0.006078 161965.000000 0 0 1
31.652620 -20.556555 21.198767 43.287966 -0.575983 1.059033 0.101116 -0.014447 237331.000000 0 0 1
32.285940 -19.514155 20.450167 42.911461 -0.543661 1.074051 0.094534 -0.013211 -346193.000000 0 0 1
31.526960 -18.190755 20.506867 41.777798 -0.523329 1.057725 0.083917 -0.002940 -125303.000000 0 0 1
31.484220 -17.550055 21.825667 42.138110 -0.508525 1.026337 0.084989 -0.003088 -95279.100000 0 0 1
30.423000 -18.042855 22.593367 41.970987 -0.535306 1.002367 0.105691 -0.006147 -507901.000000 0 0 1
30.362110 -17.548355 24.036467 42.515341 -0.524063 0.969927 0.091057 -0.007599 -73718.200000 0 0 1
30.126870 -16.173555 24.191997 41.886333 -0.492690 0.955056 0.077234 -0.013162 214977.000000 0 0 1
30.384260 -15.892155 25.558937 42.767080 -0.481909 0.930253 0.079925 -0.011150 -55389.500000 0 0 1
30.188930 -14.433055 25.974407 42.359821 -0.445967 0.910710 0.082722 -0.014264 637418.000000 0 0 1
28.816450 -14.029455 25.807937 41.149277 -0.453077 0.892871 0.083774 -0.021019 967073.000000 0 0 1
28.506150 -12.733855 26.348447 40.853303 -0.420111 0.869835 0.076968 -0.020327 64907.400000 0 0 1
28.926750 -11.576455 25.401677 40.199706 -0.380678 0.886811 0.083722 -0.034411 -187235.000000 0 0 1
28.008750 -11.422155 24.335847 38.822534 -0.387218 0.893295 0.091346 -0.032735 -47147.500000 0 0 1
28.318150 -10.517055 23.293137 38.145725 -0.355601 0.913933 0.091503 -0.027815 605717.000000 0 0 1
29.567740 -10.855255 22.363367 38.629108 -0.351855 0.953386 0.095742 -0.039311 656128.000000 0 0 1
29.436760 -12.057955 21.619167 38.461741 -0.388774 0.973879 0.091608 -0.034702 137098.000000 0 0 1
29.864060 -13.251555 22.257967 39.533314 -0.417627 0.972763 0.088352 -0.034129 -74689.500000 0 0 1
29.288870 -14.412655 21.414667 39.040370 -0.457297 0.990196 0.100346 -0.025856 1203.880000 0 0 1
29.715020 -14.456755 20.046567 38.650292 -0.452800 1.025507 0.085797 -0.028917 -207673.000000 0 0 1
29.040820 -15.425655 19.280067 38.118776 -0.488273 1.040500 0.091165 -0.030491 -448779.000000 0 0 1
29.386850 -15.441455 17.799267 37.667485 -0.483803 1.078629 0.100947 -0.027700 25734.400000 0 0 1
28.789850 -16.515455 17.018067 37.299200 -0.520823 1.097011 0.099311 -0.027536 7438.850000 0 0 1
27.444450 -16.352555 16.643567 36.022385 -0.537356 1.090509 0.088222 -0.026251 -417598.000000 0 0 1
27.144350 -15.505755 15.388867 34.843384 -0.518999 1.113350 0.105586 -0.025268 -525497.000000 0 0 1
27.500450 -16.114655 14.175367 34.884064 -0.530045 1.152333 0.110108 -0.024392 -241499.000000 0 0 1
26.568850 -17.061355 13.731167 34.431651 -0.570841 1.160594 0.098879 -0.033662 -471043.000000 0 0 1
26.700650 -17.720855 12.349867 34.343451 -0.585936 1.202958 0.095043 -0.029191 -162741.000000 0 0 1
26.157450 -16.926755 11.264867 33.130416 -0.574341 1.223863 0.107991 -0.034992 50936.500000 0 0 1
26.269650 -17.526555 9.973167 33.117045 -0.588357 1.264899 0.107277 -0.043404 1391690.000000 0 0 1
27.710650 -17.813055 9.308667 34.232095 -0.571314 1.295400 0.108072 -0.035983 1284570.000000 0 0 1
28.414450 -18.752755 10.053067 35.498041 -0.583354 1.283667 0.093180 -0.024788 -135292.000000 0 0 1
29.748660 -18.793855 9.508867 36.450107 -0.563442 1.306869 0.083992 -0.016096 578749.000000 0 0 1
30.654940 -19.630855 10.417167 37.863085 -0.569584 1.292074 0.083371 -0.033152 -410909.000000 0 0 1
30.807080 -19.004155 11.685867 38.036740 -0.552736 1.258520 0.102560 -0.047104 43222.500000 0 0 1
30.364670 -19.827855 12.704267 38.425973 -0.578475 1.233839 0.091530 -0.037056 -223012.000000 0 0 1
30.299000 -19.081055 14.043967 38.462307 -0.562014 1.197018 0.094769 -0.028683 70590.700000 0 0 1
30.137880 -20.077955 15.010667 39.201227 -0.587682 1.177849 0.082531 -0.022337 -40467.100000 0 0 1
29.806580 -19.578855 16.293267 39.207580 -0.581185 1.142233 0.104562 -0.022445 43620.300000 0 0 1
29.708520 -20.658255 17.368367 40.137512 -0.607608 1.123287 0.080354 -0.012839 28599.600000 0 0 1
28.523750 -21.414555 17.302167 39.642811 -0.643989 1.119145 0.051832 -0.002050 -137432.000000 0 0 1
28.500450 -22.386255 18.361567 40.627173 -0.665818 1.101843 0.082837 -0.009277 296573.000000 0 0 1
27.130350 -23.088655 18.263067 40.033505 -0.705090 1.097082 0.054387 0.002332 510115.000000 0 0 1
25.998950 -22.321555 18.660467 39.018076 -0.709440 1.072133 0.057096 0.008466 -396647.000000 0 0 1
24.821150 -22.953855 18.304167 38.444915 -0.746333 1.074566 0.063912 0.000567 -650408.000000 0 0 1
23.558950 -22.376455 18.958667 37.618625 -0.759661 1.042607 0.051502 0.006769 -320815.000000 0 0 1
23.162350 -21.104455 18.458667 36.367772 -0.738943 1.038451 0.047974 0.003953 748560.000000 0 0 1
21.974250 -20.534155 19.058367 35.605344 -0.751533 1.005972 0.042798 0.006074 921843.000000 0 0 1
22.132250 -20.084155 20.560367 36.275866 -0.736922 0.968206 0.036179 0.008419 -185403.000000 0 0 1
22.287150 -21.173155 21.439567 37.478989 -0.759771 0.961803 0.053841 0.001216 -97603.600000 0 0 1
22.902550 -20.785955 22.661467 38.342207 -0.736989 0.938459 0.057981 -0.003097 357259.000000 0 0 1
23.331150 -22.045655 23.486577 39.774021 -0.757076 0.939118 0.064523 -0.011974 55575.000000 0 0 1
22.189750 -22.662955 24.021077 39.787017 -0.795948 0.922610 0.057939 -0.008307 -161430.000000 0 0 1
22.504650 -23.376155 25.161427 41.060946 -0.804391 0.911220 0.059459 -0.013676 -220322.000000 0 0 1
21.259450 -23.867955 25.914277 41.148430 -0.843137 0.889532 0.063879 -0.019582 -116460.000000 0 0 1
20.541350 -24.901755 25.212827 40.960116 -0.881058 0.907718 0.066954 -0.016812 -141613.000000 0 0 1
19.544150 -25.304855 26.107047 41.278171 -0.913145 0.886063 0.068362 -0.013003 -244153.000000 0 0 1
18.566050 -26.401855 25.589767 41.189712 -0.957919 0.900439 0.075997 -0.010848 -294226.000000 0 0 1
17.802350 -25.938655 24.527747 39.891702 -0.969307 0.908590 0.065000 -0.017701 -214714.000000 0 0 1
17.347650 -27.040155 23.741097 39.946848 -1.000383 0.934380 0.064073 -0.018170 -315686.000000 0 0 1
16.416150 -26.557655 22.610967 38.549382 -1.017151 0.944009 0.050212 -0.020246 266031.000000 0 0 1
15.143250 -26.109655 23.076287 37.994041 -1.045223 0.918056 0.037226 -0.019669 223719.000000 0 0 1
14.462450 -25.581455 21.958667 36.684552 -1.056245 0.929068 0.020320 -0.017456 653621.000000 0 0 1
13.066950 -24.899055 22.210867 35.833375 -1.087508 0.902261 0.017330 -0.012350 1409330.000000 0 0 1
11.967450 -25.839655 22.214367 36.116281 -1.137067 0.908310 0.019618 -0.015194 423516.000000 0 0 1
10.764150 -25.089955 22.178867 35.174919 -1.165524 0.888560 0.041089 -0.007935 -45219.200000 0 0 1
9.480850 -25.920255 22.171567 35.402324 -1.220142 0.894031 0.043158 -0.009124 -285828.000000 0 0 1
9.234450 -26.722155 21.027067 35.234730 -1.238071 0.931325 0.039817 -0.010703 -197135.000000 0 0 1
8.033950 -27.424255 21.214567 35.590616 -1.285819 0.932196 0.040304 -0.014939 -426839.000000 0 0 1
7.571150 -28.303055 20.019867 35.484931 -1.309413 0.971357 0.040923 -0.015092 78545.600000 0 0 1
8.225950 -29.575955 19.917667 36.593945 -1.299523 0.995255 0.046771 -0.018237 320364.000000 0 0 1
7.969150 -30.247955 18.706767 36.447075 -1.313189 1.031819 0.041445 -0.017030 -779.888000 0 0 1
8.613350 -31.625055 18.762267 37.767136 -1.304888 1.050902 0.049884 -0.019131 -97569.900000 0 0 1
8.013850 -32.391455 19.764167 38.782089 -1.328260 1.036052 0.046696 -0.021759 192364.000000 0 0 1
8.816150 -33.553355 20.084767 40.086781 -1.313854 1.046005 0.060608 -0.020535 67324.800000 0 0 1
8.305650 33.451400 21.070567 40.397386 1.327428 1.022092 0.075676 -0.028022 -477286.000000 0 0 1
7.189250 32.736100 20.649167 39.366555 1.354616 1.018627 0.077134 -0.023967 -500382.000000 0 0 1
7.287050 31.399500 21.192167 38.576387 1.342758 0.989203 0.076971 -0.032207 626845.000000 0 0 1
6.179150 30.420200 20.626467 37.269580 1.370396 0.984308 0.070222 -0.026943 50414.600000 0 0 1
4.904050 30.559100 21.154367 37.488872 1.411675 0.971231 0.078441 -0.032063 -944203.000000 0 0 1
4.151950 29.427300 20.827667 36.290445 1.430630 0.959516 0.084276 -0.018780 -767921.000000 0 0 1
2.745950 29.308000 21.366167 36.373235 1.477376 0.942936 0.063028 -0.014131 -713157.000000 0 0 1
2.624050 29.187700 22.757767 37.104224 1.481135 0.910505 0.041704 -0.021626 1128930.000000 0 0 1
1.279550 28.719200 23.058617 36.852809 1.526272 0.894774 0.034396 -0.014457 1132310.000000 0 0 1
1.197650 28.237200 24.500037 37.403551 1.528408 0.856589 0.038458 -0.015899 -292575.000000 0 0 1
1.150350 29.207600 25.543287 38.818381 1.531431 0.852610 0.044274 -0.018688 277825.000000 0 0 1
0.928950 28.711700 26.833737 39.309975 1.538453 0.819456 0.050198 -0.022862 -175196.000000 0 0 1
2.173750 28.107300 27.534557 39.406819 1.493612 0.797182 0.037497 -0.020441 -107530.000000 0 0 1
2.522650 26.858600 26.977287 38.151307 1.477148 0.785389 0.038718 -0.021694 401551.000000 0 0 1
3.566050 26.227600 27.715197 38.324090 1.435659 0.762401 0.030686 -0.012664 215344.000000 0 0 1
4.017150 24.862100 27.106547 37.000357 1.410604 0.748659 0.034902 0.000559 27697.000000 0 0 1
2.949050 23.934300 27.020367 36.216679 1.448200 0.728648 0.044409 0.000387 -55740.800000 0 0 1
3.422250 22.596200 26.787997 35.212169 1.420486 0.706314 0.038277 0.007072 57841.400000 0 0 1
2.398650 21.446000 26.513657 34.185647 1.459413 0.683165 0.049897 0.006854 -144582.000000 0 0 1
2.844250 20.084500 26.701047 33.532415 1.430118 0.649683 0.065461 0.005715 104433.000000 0 0 1
3.538850 19.574300 25.552617 32.382294 1.391938 0.661466 0.067459 0.003780 -38224.000000 0 0 1
4.068250 18.162600 25.844587 31.849229 1.350443 0.624139 0.078914 -0.006673 197281.000000 0 0 1
5.187850 18.067200 26.732827 32.679987 1.291177 0.612839 0.072500 -0.004877 338994.000000 0 0 1
6.321350 17.714300 25.950527 32.049739 1.228032 0.627163 0.090787 0.001015 -39142.400000 0 0 1
7.587250 17.465000 26.850347 32.917074 1.160969 0.616864 0.077103 -0.007044 565275.000000 0 0 1
8.238950 18.575600 27.478887 34.176344 1.153331 0.636750 0.074107 -0.002378 680880.000000 0 0 1
8.943150 19.463300 26.556417 34.118079 1.140080 0.678734 0.060185 -0.016014 1225.350000 0 0 1
9.221650 20.828300 27.153337 35.442357 1.153991 0.698004 0.048177 -0.013440 -72660.600000 0 0 1
10.132350 20.741600 28.216627 36.456228 1.116388 0.685683 0.056170 -0.027243 -54920.600000 0 0 1
10.538950 22.046500 28.731997 37.717971 1.124876 0.704773 0.082331 -0.033361 -400895.000000 0 0 1
11.639750 21.861200 29.765297 38.721684 1.081536 0.693993 0.091705 -0.034737 -564881.000000 0 0 1
12.910050 21.637600 29.216327 38.580421 1.032845 0.711652 0.078158 -0.035625 -344025.000000 0 0 1
13.900250 21.507600 30.231837 39.620169 0.997030 0.702790 0.076518 -0.030973 -1427440.000000 0 0 1
15.243450 21.261800 29.714717 39.590293 0.948791 0.721894 0.065814 -0.029546 -1761390.000000 0 0 1
15.820650 22.377200 29.063357 39.946349 0.955389 0.756038 0.051631 -0.037421 -974685.000000 0 0 1
17.018650 21.997200 28.496137 39.818854 0.912316 0.773250 0.117117 -0.033452 -810663.000000 0 0 1
-8.719818 16.708900 4.243020 19.319052 -1.089809 1.349362 0.026508 -0.021971 -219647.000000 0 1 0
-8.713118 18.055700 4.771220 20.608039 -1.121191 1.337154 0.038048 -0.025901 -269417.000000 0 1 0
-7.392118 18.318800 5.146820 20.413515 -1.187254 1.315918 0.037953 -0.021206 -361614.000000 0 1 0
-7.121718 19.730700 5.792220 21.761645 -1.224403 1.301383 0.041868 -0.021612 -103732.000000 0 1 0
-7.253618 20.781100 4.781720 22.524075 -1.234969 1.356875 0.051539 -0.029488 1057310.000000 0 1 0
-8.622418 21.128900 4.440120 23.248466 -1.183338 1.378630 0.055481 -0.029952 1228340.000000 0 1 0
-8.652318 22.283900 3.443820 24.151495 -1.200437 1.427716 0.096797 -0.038025 334685.000000 0 1 0
-7.924418 22.123600 2.190820 23.601902 -1.226845 1.477839 0.065955 -0.038608 60991.000000 0 1 0
-8.521618 21.290700 1.258720 22.967287 -1.190074 1.515964 0.078876 -0.038698 -1100840.000000 0 1 0
-7.902918 21.194400 -0.159280 22.620435 -1.213888 1.577838 0.055802 -0.019173 1967610.000000 0 1 0
-6.579318 20.569800 -0.318180 21.598735 -1.261226 1.585528 0.048769 -0.017500 1563030.000000 0 1 0
-5.505218 21.242200 0.286420 21.945854 -1.317211 1.557745 0.058508 -0.029150 -651300.000000 0 1 0
-4.125118 21.047300 -0.368980 21.450911 -1.377257 1.587998 0.050004 -0.025154 -250397.000000 0 1 0
-4.033018 21.405600 -1.769180 21.853946 -1.384570 1.651840 0.051937 -0.026457 472567.000000 0 1 0
-2.683918 21.429100 -2.230980 21.711449 -1.446199 1.673734 0.045857 -0.015795 370421.000000 0 1 0
-2.545518 21.754600 -3.743280 22.220586 -1.454315 1.740063 0.059397 -0.013159 450445.000000 0 1 0
-1.246418 22.093800 -4.225080 22.528667 -1.514441 1.759456 0.062501 -0.014209 304928.000000 0 1 0
-1.315218 22.456600 -5.610780 23.184252 -1.512296 1.815231 0.075498 -0.016700 -204504.000000 0 1 0
-0.048818 23.062200 -6.253680 23.895103 -1.568680 1.835594 0.071876 -0.022132 -393961.000000 0 1 0
1.019082 22.156400 -6.160080 23.019365 1.524834 1.841702 0.052974 -0.011607 -919295.000000 0 1 0
2.135582 22.682500 -6.806080 23.777705 1.476922 1.861094 0.064000 -0.013608 -525719.000000 0 1 0
3.301782 21.697500 -6.909080 23.009099 1.419782 1.875778 0.054450 -0.007344 -331228.000000 0 1 0
3.092582 20.824900 -8.002480 22.522882 1.423370 1.934036 0.051862 -0.011534 -246738.000000 0 1 0
3.938982 19.715000 -8.015580 21.643621 1.373597 1.950175 0.038715 -0.015217 -37658.800000 0 1 0
3.635982 18.759800 -9.161380 21.191539 1.379352 2.017853 0.038745 -0.012464 112144.000000 0 1 0
4.164282 19.251600 -10.410480 22.278767 1.357770 2.057011 0.042733 -0.016580 23252.900000 0 1 0
3.296282 18.924600 -11.455880 22.366116 1.398347 2.108538 0.042690 -0.021227 -244412.000000 0 1 0
3.631382 19.488800 -12.846080 23.622490 1.386577 2.145763 0.042782 -0.013678 -22043.400000 0 1 0
3.456882 20.863800 -13.034580 24.842473 1.406600 2.123146 0.064989 -0.018555 -147057.000000 0 1 0
4.019782 21.255500 -14.254880 25.906689 1.383887 2.153447 0.093135 -0.022534 108679.000000 0 0 1
4.098182 22.776300 -14.480780 27.299229 1.392769 2.129923 0.082760 -0.024211 207286.000000 0 0 1
2.812682 23.378900 -14.622880 27.718455 1.451063 2.126511 0.097263 -0.027875 431348.000000 0 0 1
2.938682 24.701300 -15.204380 29.154129 1.452384 2.119424 0.090519 -0.018657 738632.000000 0 0 1
1.533382 25.321200 -15.546580 29.752489 1.510313 2.120612 0.099109 -0.024257 665362.000000 0 0 1
0.785882 25.822600 -14.468280 29.610056 1.540372 2.081312 0.093863 -0.028137 -501113.000000 0 0 1
1.007282 27.220600 -14.275280 30.753200 1.533809 2.053514 0.074927 -0.021288 -1006930.000000 0 0 1
0.433382 27.717400 -12.918080 30.582983 1.555162 2.006882 0.081050 -0.020432 24035.200000 0 0 1
-0.964318 27.644900 -12.782180 30.472193 -1.535928 2.003658 0.076596 -0.026789 -183677.000000 0 0 1
-1.626218 26.394800 -12.965380 29.452184 -1.509263 2.026638 0.078245 -0.023739 -1477880.000000 0 0 1
-1.412718 25.132500 -12.041380 27.903999 -1.514645 2.016983 0.083586 -0.028432 -529128.000000 0 0 1
-2.051918 25.157400 -10.790280 27.450597 -1.489413 1.974775 0.075171 -0.025181 -59576.200000 0 0 1
-2.278518 23.819600 -10.256580 26.033871 -1.475429 1.975744 0.089313 -0.023904 -127634.000000 0 0 1
-3.268118 23.813800 -9.065080 25.689557 -1.434412 1.931433 0.075822 -0.023685 -123240.000000 0 0 1
-2.920118 24.258800 -7.792480 25.646427 -1.450999 1.879520 0.091944 -0.032462 -321578.000000 0 0 1
-2.753218 25.632000 -7.604780 26.877729 -1.463793 1.857654 0.101493 -0.035185 -199308.000000 0 0 1
-2.582718 26.120300 -6.128480 26.953641 -1.472239 1.800174 0.100462 -0.037753 -186800.000000 0 0 1
-1.441218 25.750900 -5.403780 26.351220 -1.514887 1.777329 0.105892 -0.036796 -377993.000000 0 0 1
-1.457718 26.139200 -4.019980 26.486656 -1.515087 1.723159 0.109864 -0.035302 -88653.700000 0 0 1
-2.419418 25.474000 -3.009580 25.765012 -1.476104 1.687872 0.104442 -0.038084 195473.000000 0 0 1
-3.798618 25.551100 -3.281180 26.039477 -1.423210 1.697140 0.095235 -0.037817 181389.000000 0 0 1
-4.605918 25.134400 -2.171580 25.645044 -1.389556 1.655576 0.096411 -0.035979 -213017.000000 0 0 1
-5.922218 24.516600 -2.621780 25.357643 -1.333777 1.674374 0.082405 -0.035069 -669802.000000 0 0 1
-6.840718 25.395200 -3.218980 26.496668 -1.307671 1.692583 0.082262 -0.033225 -711197.000000 0 0 1
-7.891518 24.623700 -3.734580 26.125653 -1.260654 1.714235 0.074055 -0.025739 -689198.000000 0 0 1
-9.135218 25.478900 -3.901280 27.346783 -1.226533 1.713944 0.039782 -0.022950 -770763.000000 0 0 1
-9.771218 25.762700 -2.676280 27.683134 -1.208281 1.667623 0.060433 -0.029587 -1087930.000000 0 0 1
-10.973818 26.418500 -2.859480 28.749582 -1.177099 1.670423 0.052849 -0.024906 -367228.000000 0 0 1
-11.876318 26.424100 -1.582180 29.013502 -1.148400 1.625356 0.068123 -0.021096 401216.000000 0 0 1
-12.492218 25.166000 -1.246480 28.123598 -1.110039 1.615132 0.083296 -0.019065 551887.000000 0 0 1
-11.541618 24.198400 -0.762980 26.820769 -1.125752 1.599248 0.101143 -0.026172 245552.000000 0 0 1
-12.152018 22.809100 -0.472980 25.848603 -1.081277 1.589095 0.105630 -0.025328 -120346.000000 0 0 1
-12.835218 22.832700 0.748120 26.203715 -1.058679 1.542242 0.106747 -0.026930 -37255.600000 0 0 1
-13.491818 21.609900 1.017020 25.496103 -1.012675 1.530897 0.106570 -0.033768 -282455.000000 0 0 1
-14.357618 21.713100 2.333820 26.135161 -0.986559 1.481379 0.108148 -0.032135 193709.000000 0 0 1
-13.700418 21.788800 3.605620 25.989493 -1.009482 1.431614 0.097675 -0.034436 -27640.300000 0 0 1
-13.103118 23.034800 3.864220 26.781074 -1.053604 1.426002 0.093076 -0.026781 -96009.600000 0 0 1
-12.794718 23.155500 5.344520 26.989737 -1.065993 1.371458 0.094395 -0.030983 -42552.900000 0 0 1
-11.799518 22.238100 5.779520 25.829529 -1.082970 1.345130 0.089027 -0.028451 370595.000000 0 0 1
-11.879918 22.401700 7.216420 26.363712 -1.083193 1.293532 0.072121 -0.026766 299336.000000 0 0 1
-10.634918 21.863300 7.981520 25.589256 -1.118065 1.253595 0.056087 -0.028925 558881.000000 0 0 1
-9.467818 22.679300 7.981620 25.839823 -1.175325 1.256772 0.058267 -0.029129 1016360.000000 0 0 1
-8.331418 22.247900 8.750920 25.317191 -1.212481 1.217864 0.054585 -0.029546 609209.000000 0 0 1
-8.401318 22.118000 10.272220 25.793537 -1.207788 1.161190 0.044955 -0.034000 -244973.000000 0 0 1
-9.287018 21.095300 10.738020 25.427651 -1.156087 1.134819 0.050780 -0.030394 212551.000000 0 0 1
-8.999918 20.720200 12.033420 25.595476 -1.161029 1.081349 0.045755 -0.022122 39373.500000 0 0 1
-10.042618 19.694500 12.553320 25.422693 -1.099244 1.054360 0.048426 -0.015624 -235505.000000 0 0 1
-9.967218 18.531800 11.800720 24.125299 -1.077334 1.059689 0.056077 -0.033587 158614.000000 0 1 0
-10.747918 17.536000 12.446520 24.040484 -1.020941 1.026599 0.055069 -0.031281 -60397.900000 0 1 0
-10.858818 16.253100 11.711220 22.786616 -0.981797 1.031011 0.057432 -0.033040 -25623.000000 0 1 0
-11.395918 15.119800 12.414520 22.640574 -0.924926 0.990430 0.046485 -0.029807 230583.000000 0 1 0
-11.551418 14.039300 11.508120 21.516831 -0.882312 1.006475 0.042106 -0.015869 8445.690000 0 1 0
-11.840918 12.665900 12.168820 21.182836 -0.819049 0.958845 0.033122 -0.019622 278702.000000 0 1 0
-13.021718 12.715100 12.958520 22.341937 -0.773485 0.952057 0.048088 -0.014639 133214.000000 0 1 0
-13.301018 11.525500 13.617720 22.253012 -0.714003 0.912273 0.041443 0.000515 275313.000000 0 1 0
-14.356718 11.661900 14.755220 23.660765 -0.682193 0.897437 0.055673 -0.007241 614587.000000 0 1 0
-15.575618 12.315000 14.411120 24.534455 -0.669019 0.942975 0.072848 -0.018323 87248.800000 0 1 0
-16.212318 12.650400 15.615820 25.821032 -0.662610 0.921318 0.068176 -0.009549 -645168.000000 0 0 1
-17.404118 13.577800 15.446820 26.941867 -0.662519 0.960221 0.067829 -0.015077 -822608.000000 0 0 1
-18.582918 12.996000 14.981120 27.178205 -0.610291 0.986973 0.065367 -0.016358 -414043.000000 0 0 1
-19.506418 14.048900 14.791020 28.224922 -0.624167 1.019207 0.079101 -0.018783 -632334.000000 0 0 1
-20.758718 13.668300 14.044620 28.548172 -0.582283 1.056454 0.078473 -0.022006 -528250.000000 0 0 1
-21.723918 12.915900 14.744420 29.259990 -0.536401 1.042676 0.069449 -0.013580 1095040.000000 0 0 1
-22.890818 12.617200 13.929120 29.617624 -0.503757 1.081168 0.071947 -0.018121 1158280.000000 0 0 1
-23.824918 11.561800 14.597120 30.238681 -0.451804 1.067027 0.087183 -0.023490 333113.000000 0 0 1
-24.562418 12.036200 15.719220 31.548001 -0.455636 1.049201 0.112568 -0.026217 -13606.700000 0 0 1
-25.623148 11.202300 16.057220 32.247040 -0.412154 1.049570 0.108176 -0.029279 -533990.000000 0 0 1
-26.412138 11.620800 17.287420 33.637760 -0.414490 1.031038 0.106802 -0.024856 211663.000000 0 0 1
-27.392228 12.623100 16.965320 34.604897 -0.431822 1.058411 0.106635 -0.009487 247747.000000 0 0 1
-28.135408 13.032800 18.069620 35.888246 -0.433791 1.043155 0.104619 -0.005853 610917.000000 0 0 1
-29.297758 14.023000 17.651520 36.967274 -0.446412 1.073000 0.090055 -0.001570 337212.000000 0 0 1
-28.848218 15.333100 17.403620 37.016343 -0.488536 1.081324 0.090688 -0.003625 479759.000000 0 0 1
-29.875318 16.363500 17.349120 38.226833 -0.501096 1.099719 0.089880 -0.001800 417171.000000 0 0 1
-29.322168 17.837300 17.433920 38.495459 -0.546516 1.100801 0.097750 -0.008530 -15690.900000 0 0 1
-28.748528 18.327800 18.612120 38.843238 -0.567553 1.071099 0.083422 -0.002507 506488.000000 0 0 1
-29.687888 18.580700 19.660920 40.164224 -0.559223 1.059265 0.072706 -0.004493 87521.300000 0 0 1
-28.885048 18.697200 20.998420 40.309613 -0.574473 1.022858 0.061254 -0.009611 787596.000000 0 0 1
-28.216448 17.574800 21.589920 39.637939 -0.557056 0.994791 0.078566 -0.012516 1158700.000000 0 0 1
-27.290928 16.810600 20.745620 38.180778 -0.552085 0.996371 0.086890 0.000662 331032.000000 0 0 1
-26.997698 15.381800 21.279420 37.660180 -0.517876 0.970317 0.084801 -0.006792 699862.000000 0 0 1
-28.155458 14.525100 21.198820 38.119527 -0.476278 0.981093 0.061919 -0.007340 777838.000000 0 0 1
-27.878788 13.231500 21.689420 37.719098 -0.443129 0.958162 0.073003 -0.007231 -273572.000000 0 0 1
-29.188858 12.493100 22.001620 38.628206 -0.404417 0.964809 0.076025 -0.010964 425889.000000 0 0 1
-30.047898 12.407400 20.815820 38.602048 -0.391595 1.001260 0.075400 -0.019088 45667.500000 0 0 1
-31.017788 11.420000 20.966420 39.142181 -0.352774 1.005522 0.076905 -0.025118 -676284.000000 0 0 1
-31.890008 11.329000 19.721720 39.169696 -0.341346 1.043158 0.093161 -0.024040 -757479.000000 0 0 1
-31.272608 10.836200 18.541520 37.936621 -0.333560 1.060140 0.108682 -0.034598 226662.000000 0 0 1
-30.837278 9.492800 18.623620 37.254398 -0.298629 1.047308 0.119130 -0.037961 -46186.400000 0 0 1
-29.776208 9.183400 17.534920 35.755151 -0.299158 1.058229 0.133462 -0.046200 10734.100000 0 0 1
-30.350088 8.793200 16.288920 35.549643 -0.282004 1.094825 0.140127 -0.040485 318535.000000 0 0 1
-30.912828 9.842100 15.481320 35.946365 -0.308235 1.125552 0.132924 -0.040737 100189.000000 0 0 1
-29.958088 10.964600 14.936020 35.224909 -0.350855 1.132918 0.148223 -0.034687 165910.000000 0 0 1
-29.289598 10.519600 13.762820 34.028778 -0.344810 1.154423 0.159259 -0.041226 45092.200000 0 0 1
-28.251868 11.381000 13.367020 33.262177 -0.382953 1.157240 0.140543 -0.032313 -245657.000000 0 0 1
-27.677638 11.131200 11.981820 32.148395 -0.382378 1.188876 0.163050 -0.024677 -363155.000000 0 0 1
-27.022608 9.916600 11.809920 31.113253 -0.351716 1.181456 0.149938 -0.023697 410714.000000 0 0 1
-27.895238 8.798000 11.681220 31.496032 -0.305520 1.190841 0.172224 -0.018444 -226528.000000 0 0 1
-27.228578 7.611100 11.043620 30.352691 -0.272569 1.198406 0.171178 -0.020949 -307132.000000 0 0 1
-26.866098 7.821500 9.693320 29.612895 -0.283299 1.237315 0.167837 -0.020977 199958.000000 0 0 1
-26.630048 6.637700 8.979520 28.876466 -0.244278 1.254590 0.178197 -0.044761 -211056.000000 0 0 1
-25.852508 7.045900 7.701220 27.880202 -0.266080 1.290932 0.175338 -0.023252 -88210.800000 0 0 1
-26.573858 7.820700 6.752720 28.511971 -0.286220 1.331686 0.162177 -0.026916 -57826.400000 0 0 1
-25.812338 8.110200 5.623920 27.634772 -0.304432 1.365856 0.162365 -0.030096 -283056.000000 0 0 1
-26.716038 8.444400 4.408120 28.363464 -0.306143 1.414748 0.149873 -0.029490 -45480.400000 0 0 1
-27.449388 7.388100 3.811920 28.680720 -0.262923 1.437493 0.180905 -0.037732 120173.000000 0 0 1
-26.767398 6.237400 3.295620 27.681400 -0.228937 1.451458 0.181140 -0.038015 -187015.000000 0 0 1
-25.960908 6.476200 1.993220 26.830633 -0.244470 1.496439 0.188546 -0.032224 569339.000000 0 0 1
-24.782918 7.277700 2.197120 25.922679 -0.285628 1.485938 0.163061 -0.020555 404401.000000 0 0 1
-23.901818 7.062200 1.127520 24.948805 -0.287293 1.525588 0.170348 -0.011788 -433343.000000 0 1 0
-22.687418 7.994400 1.330020 24.091458 -0.338786 1.515561 0.153667 -0.008922 -286434.000000 0 1 0
-23.002818 9.397800 1.423920 24.889272 -0.387855 1.513555 0.136695 -0.011971 1229750.000000 0 1 0
-21.803518 10.155800 1.688720 24.111936 -0.435905 1.500702 0.151942 -0.011709 641846.000000 0 1 0
-22.114518 11.434400 2.585120 25.029588 -0.477198 1.467329 0.141895 -0.019958 -178887.000000 0 0 1
-21.023018 12.193900 3.022820 24.490732 -0.525603 1.447054 0.146839 -0.024960 -54033.800000 0 1 0
-21.518118 13.252900 3.758320 25.549829 -0.552025 1.423163 0.144584 -0.039745 502.021000 0 0 1
-20.446518 14.121300 4.474420 25.248597 -0.604420 1.392641 0.123623 -0.028840 398531.000000 0 0 1
-19.777218 13.353400 5.507120 24.490407 -0.593881 1.343988 0.111366 -0.030532 -40433.400000 0 1 0
-18.720918 14.034400 6.079720 24.174370 -0.643286 1.316572 0.105673 -0.031316 -645833.000000 0 1 0
-17.962818 13.404100 7.299820 23.571595 -0.641073 1.255932 0.059391 -0.029366 -240619.000000 0 1 0
-17.163618 12.379200 6.755620 22.214247 -0.624844 1.261790 0.074476 -0.028103 101388.000000 0 1 0
-16.406818 11.833700 7.836120 21.693891 -0.624857 1.201228 0.054554 -0.022461 -125604.000000 0 1 0
10.498882 -33.314555 -14.279480 37.735787 -1.265505 1.958871 0.060712 -0.003217 57901.600000 0 0 1
11.541282 -32.894055 -13.415480 37.352311 -1.233354 1.938165 0.056842 -0.013471 370998.000000 0 0 1
12.240982 -31.718855 -13.769980 36.681599 -1.202485 1.955616 0.050868 -0.018450 -535697.000000 0 0 1
13.553482 -31.437955 -13.087280 36.651313 -1.163755 1.935931 0.050500 -0.020060 120144.000000 0 0 1
14.729982 -31.923855 -13.744480 37.749379 -1.138495 1.943461 0.054750 -0.015359 338338.000000 0 0 1
15.950282 -31.342555 -13.371880 37.624120 -1.100053 1.934146 0.053676 -0.016641 -44513.600000 0 0 1
17.152482 -32.041455 -14.024580 38.955761 -1.079292 1.939078 0.078243 -0.018519 -122742.000000 0 0 1
17.536282 -33.203755 -13.368980 39.859003 -1.084890 1.912833 0.079550 -0.030839 -296264.000000 0 0 1
18.600282 -33.911255 -13.959880 41.119605 -1.069106 1.917176 0.084095 -0.021979 6556.620000 0 0 1
18.713982 32.689800 -13.469480 40.003288 1.050864 1.914216 0.074926 -0.029939 81297.700000 0 0 1
19.434182 32.520000 -12.262180 39.819579 1.032138 1.883827 0.059713 -0.030048 13933.900000 0 0 1
19.203082 31.255900 -11.814580 38.539252 1.019868 1.882373 0.048881 -0.024284 187251.000000 0 0 1
19.843682 30.973000 -10.426580 38.233650 1.001003 1.847002 0.046765 -0.028067 192498.000000 0 0 1
21.177182 30.525600 -10.409080 38.582823 0.964276 1.843966 0.045587 -0.027833 -298243.000000 0 0 1
21.691282 30.318800 -9.140080 38.383361 0.949783 1.811232 0.030982 -0.024076 -530622.000000 0 0 1
22.808382 29.296700 -9.134380 38.235531 0.909284 1.812027 0.029942 -0.007306 -172172.000000 0 0 1
23.984082 29.703900 -9.823380 39.421525 0.891536 1.822638 0.030312 -0.018987 359239.000000 0 0 1
25.072282 28.843000 -9.467780 39.372285 0.855222 1.813644 0.028324 -0.010006 1160070.000000 0 0 1
26.355682 29.234900 -10.324980 40.692832 0.837145 1.827331 0.024219 -0.013088 590550.000000 0 0 1
26.830582 30.542200 -10.266480 41.929783 0.850001 1.818161 0.036139 -0.023458 -57986.800000 0 0 1
27.780782 30.688700 -11.321380 42.915519 0.835091 1.837762 0.046765 -0.021834 192321.000000 0 0 1
28.553682 32.017300 -11.082680 44.308532 0.842519 1.823606 0.050561 -0.027436 -187694.000000 0 0 1
27.808682 33.171000 -11.488480 44.784185 0.873109 1.830227 0.053953 -0.022914 319838.000000 0 0 1
28.453282 -33.639655 -11.214980 45.464177 -0.868731 1.820046 0.054530 -0.021633 373005.000000 0 0 1
27.495582 -32.457255 -11.658080 44.106589 -0.867970 1.838291 0.049736 -0.012997 483181.000000 0 0 1
26.344682 -32.521955 -10.840480 43.234660 -0.889952 1.824237 0.063620 -0.021406 -336487.000000 0 0 1
25.354282 -31.516155 -11.056180 41.932645 -0.893326 1.837616 0.067256 -0.017826 310548.000000 0 0 1
25.643582 -30.013455 -10.781580 40.922405 -0.863752 1.837408 0.054901 -0.016957 -840507.000000 0 0 1
26.582882 -29.489155 -11.661080 41.379229 -0.837183 1.856476 0.058315 -0.015356 -424173.000000 0 0 1
26.867682 -28.101955 -11.417880 40.521108 -0.807848 1.856441 0.061499 -0.022329 -202629.000000 0 0 1
27.698182 -27.399455 -12.499280 40.916395 -0.779976 1.881242 0.060890 -0.028219 393976.000000 0 0 1
28.962882 -27.974255 -12.823780 42.259399 -0.768036 1.879112 0.042956 -0.020094 179544.000000 0 0 1
28.891182 -29.090055 -13.680580 43.221406 -0.788828 1.892858 0.049956 -0.018582 -91890.100000 0 0 1
30.231282 -29.742455 -14.153480 44.708668 -0.777248 1.892909 0.046610 -0.012978 513620.000000 0 0 1
30.856282 -30.493555 -13.122680 45.322971 -0.779486 1.864539 0.056778 -0.020329 -362976.000000 0 0 1
31.989382 -31.153655 -13.600280 46.678029 -0.772163 1.866448 0.055593 -0.022865 -362614.000000 0 0 1
32.623782 -32.112755 -12.531380 47.461307 -0.777504 1.837998 0.044183 -0.019123 -185209.000000 0 0 1
33.590482 -32.874855 -13.205980 48.820840 -0.774632 1.844707 0.041482 -0.024176 -535585.000000 0 0 1
34.352382 -33.685855 -12.356980 49.674117 -0.775602 1.822197 0.039427 -0.018809 -161702.000000 0 0 1
33.700382 33.203500 -11.543580 48.697458 0.777971 1.810121 0.037159 -0.025158 73222.000000 0 0 1
32.945982 33.581400 -10.369180 48.173312 0.794949 1.787741 0.037153 -0.029087 494283.000000 0 0 1
32.217082 32.424100 -9.890780 46.766336 0.788601 1.783899 0.039957 -0.030978 481136.000000 0 0 1
31.317382 32.648200 -8.619280 46.054048 0.806200 1.759062 0.033681 -0.022606 161888.000000 0 0 1
30.280582 33.563200 -8.819180 46.056269 0.836769 1.763473 0.026529 -0.021879 -539462.000000 0 0 1
29.639782 33.907500 -7.569880 45.667694 0.852456 1.737325 0.036688 -0.016587 820011.000000 0 0 1
28.684582 -32.925955 -7.720980 44.345656 -0.854131 1.745797 0.038224 -0.022538 206295.000000 0 0 1
29.398482 -31.682855 -7.847980 43.927950 -0.822780 1.750416 0.015891 -0.018036 -68861.400000 0 0 1
28.723882 -30.577055 -8.385380 42.782382 -0.816638 1.768074 0.027652 -0.016808 -35599.600000 0 0 1
27.710682 -29.871755 -7.448680 41.420845 -0.822911 1.751609 0.038042 -0.016103 83706.200000 0 0 1
26.882182 -28.965055 -8.073580 40.333718 -0.822677 1.772327 0.044521 -0.028586 -348909.000000 0 0 1
26.021382 -28.248255 -7.218980 39.079277 -0.826409 1.756590 0.046916 -0.028004 175142.000000 0 0 1
24.994182 -27.352955 -7.964880 37.898978 -0.830428 1.782536 0.097679 -0.033653 -259724.000000 0 0 1
23.968782 -28.091455 -8.549780 37.904235 -0.864424 1.798317 0.107343 -0.032852 196967.000000 0 0 1
23.034182 -27.327955 -9.312280 36.933849 -0.870450 1.825681 0.123303 -0.032336 -110447.000000 0 0 1
21.833482 -28.075955 -9.859480 36.907581 -0.909828 1.841220 0.115367 -0.034275 -594422.000000 0 0 1
22.014882 -28.862155 -11.032080 37.939238 -0.919179 1.865841 0.110074 -0.033911 868851.000000 0 0 1
20.834182 -29.600555 -11.480780 37.974521 -0.957495 1.877931 0.096900 -0.033758 1222580.000000 0 0 1
20.464982 -30.834355 -10.614280 38.499816 -0.984845 1.850111 0.095507 -0.035060 222684.000000 0 0 1
21.548582 -31.763355 -10.492480 39.791258 -0.974708 1.837640 0.078636 -0.024882 44703.100000 0 0 1
21.190682 -33.070955 -10.164080 40.571438 -1.000941 1.824017 0.059700 -0.024266 -850330.000000 0 0 1
22.276082 33.976000 -10.256480 41.902121 0.990465 1.818081 0.056773 -0.021713 -574065.000000 0 0 1
23.269882 -33.957855 -9.251980 42.192682 -0.970033 1.791872 0.050334 -0.015282 564294.000000 0 0 1
24.351782 33.191400 -9.537480 42.256855 0.937824 1.798460 0.047048 -0.016307 -128277.000000 0 0 1
25.677082 33.416000 -8.854380 43.062067 0.915619 1.777893 0.040956 -0.018349 -1077650.000000 0 0 1
25.695482 33.135000 -7.471180 42.591132 0.911187 1.747125 0.029361 -0.026041 52711.100000 0 0 1
25.877782 31.715900 -7.213180 41.564262 0.886420 1.745222 0.027161 -0.024202 -409360.000000 0 0 1
25.958082 31.370400 -5.729380 41.118728 0.879528 1.710589 0.027396 -0.017547 -328611.000000 0 0 1
27.022682 32.010500 -5.013780 42.190466 0.869690 1.689915 0.030319 -0.017675 94377.200000 0 0 1
28.146982 31.192000 -4.829180 42.290831 0.836669 1.685236 0.051634 -0.016659 -263237.000000 0 0 1
27.950782 30.172300 -3.714880 41.296661 0.823600 1.660874 0.054540 -0.006611 -700008.000000 0 0 1
27.551782 30.590900 -2.418580 41.240191 0.837621 1.629476 0.051021 -0.009392 46263.300000 0 0 1
27.220782 29.464100 -1.582880 40.144858 0.824953 1.610236 0.042102 -0.001390 97068.800000 0 0 1
25.793982 28.859600 -1.717880 38.744769 0.841431 1.615149 0.023273 0.005118 -77335.900000 0 0 1
24.805682 29.617200 -1.084680 38.648116 0.873579 1.598866 0.031011 -0.003196 -22019.300000 0 0 1
23.572182 28.909100 -1.043180 37.315842 0.886742 1.598755 0.036094 0.006361 224996.000000 0 0 1
22.368682 29.529700 -0.340880 37.046961 0.922514 1.579998 0.055163 0.000194 22263.800000 0 0 1
22.251382 29.153400 1.020320 36.689041 0.918868 1.542983 0.069533 -0.018483 -412726.000000 0 0 1
21.117782 29.729900 1.580320 36.501028 0.953177 1.527488 0.056864 -0.024161 -234276.000000 0 0 1
20.357482 28.855800 2.645320 35.413020 0.956395 1.496028 0.072042 -0.030635 -128327.000000 0 0 1
19.697482 27.754700 2.079720 34.097498 0.953591 1.509765 0.087776 -0.026351 351668.000000 0 0 1
18.818782 27.049800 2.953520 33.084158 0.962956 1.481404 0.114149 -0.035123 247339.000000 0 0 1
18.181982 25.819100 2.275720 31.660532 0.957253 1.498856 0.109763 -0.021585 580339.000000 0 0 1
19.177782 24.857500 1.872920 31.451398 0.913671 1.511211 0.108415 -0.023466 922138.000000 0 0 1
19.910782 24.160300 2.896120 31.441164 0.881525 1.478553 0.106354 -0.016806 327092.000000 0 0 1
21.147782 23.390600 2.342420 31.620180 0.835713 1.496649 0.103196 -0.016468 129212.000000 0 0 1
20.869482 22.288100 1.455320 30.568163 0.818257 1.523169 0.104026 -0.014764 451662.000000 0 0 1
22.092582 21.623500 1.164920 30.935658 0.774668 1.533131 0.077747 -0.016125 309875.000000 0 0 1
21.989782 20.525700 0.064520 30.080875 0.750975 1.568651 0.108216 -0.020301 -169135.000000 0 0 1
21.809182 21.086900 -1.182580 30.359451 0.768562 1.609759 0.071395 -0.008472 302141.000000 0 0 1
21.988482 20.168000 -2.219380 29.919345 0.742241 1.645043 0.112522 -0.021456 27085.700000 0 0 1
21.844882 20.815400 -3.610180 30.389359 0.761271 1.689875 0.090328 -0.013914 1012190.000000 0 0 1
22.893582 21.800300 -3.888780 31.851087 0.760941 1.693194 0.081356 -0.006237 1197840.000000 0 0 1
22.561882 22.456800 -5.106580 32.240092 0.783064 1.729858 0.060253 -0.009953 -349547.000000 0 0 1
23.463682 23.640500 -5.437280 33.748802 0.789152 1.732612 0.052517 -0.000477 -331693.000000 0 0 1
23.456382 24.835500 -4.627980 34.473498 0.813948 1.705450 0.025348 0.005321 59038.600000 0 0 1
23.872782 24.717900 -3.249380 34.517282 0.802789 1.665074 0.047186 0.001245 78793.800000 0 0 1
22.686282 24.408100 -2.273080 33.400443 0.821943 1.638904 0.044171 -0.000577 -1499250.000000 0 0 1
21.850382 25.551300 -2.127880 33.687327 0.863316 1.634004 0.052821 -0.000681 251560.000000 0 0 1
20.794482 25.304600 -1.219980 32.775320 0.882923 1.608027 0.071750 -0.006180 203677.000000 0 0 1
19.809482 24.138800 -1.567880 31.265883 0.883591 1.620964 0.094753 -0.017092 -1587280.000000 0 0 1
19.073282 24.449900 -2.761780 31.132220 0.908310 1.659624 0.062427 -0.009125 337678.000000 0 0 1
18.465982 23.249900 -3.302880 29.874058 0.899578 1.681583 0.070126 -0.014502 39956.500000 0 0 1
17.828282 23.651500 -4.616280 29.975842 0.924874 1.725412 0.061076 -0.020805 -360410.000000 0 0 1
17.031482 22.694700 -5.241380 28.854685 0.927000 1.753458 0.062741 -0.029364 -38218.900000 0 0 1
16.895482 23.150000 -6.577280 29.404768 0.940332 1.796386 0.063285 -0.031914 -244471.000000 0 0 1
15.938682 22.377200 -7.468180 28.470236 0.951881 1.836217 0.081597 -0.036329 -529186.000000 0 0 1
16.385582 21.042100 -7.647980 27.744348 0.909176 1.850072 0.068163 -0.032251 -114353.000000 0 0 1
15.541582 20.229700 -8.362380 26.846060 0.915714 1.887561 0.084161 -0.031618 -734676.000000 0 0 1
16.279282 18.983300 -8.852980 26.528399 0.861931 1.911040 0.081621 -0.026702 -281471.000000 0 0 1
17.374282 19.248600 -9.688880 27.681197 0.836532 1.928385 0.091736 -0.026376 -26150.700000 0 0 1
17.877382 18.033400 -10.154580 27.348122 0.789743 1.951214 0.094168 -0.026073 -633826.000000 0 0 1
19.371582 18.033500 -10.474380 28.463625 0.749641 1.947645 0.075391 -0.023558 -581186.000000 0 0 1
19.676282 18.781500 -11.642580 29.588012 0.762136 1.975221 0.084859 -0.024788 -47874.900000 0 0 1
21.054582 18.722900 -11.907180 30.587961 0.726847 1.970643 0.090564 -0.017209 -247991.000000 0 0 1
21.508582 19.032200 -13.311880 31.655171 0.724390 2.004823 0.087065 -0.020556 -156429.000000 0 0 1
21.435982 17.940000 -14.202580 31.353759 0.696846 2.040900 0.084641 -0.014187 161931.000000 0 0 1
21.610782 18.460200 -15.536380 32.391110 0.706935 2.071052 0.088758 -0.013981 86369.200000 0 0 1
21.599082 17.353200 -16.602480 32.300096 0.676825 2.110646 0.079727 -0.011668 15868.600000 0 0 1
22.538782 16.302000 -16.366280 32.273937 0.626184 2.102619 0.089087 -0.012071 228206.000000 0 0 1
22.852982 15.466300 -17.523180 32.688332 0.594967 2.136569 0.098782 -0.019469 461711.000000 0 0 1
23.775982 16.203600 -18.603680 34.262967 0.598209 2.144763 0.114077 -0.019678 204902.000000 0 0 1
25.135382 16.278700 -18.209180 35.047935 0.574715 2.117121 0.128449 -0.018522 84434.500000 0 0 1
25.886982 16.730500 -19.300280 36.366829 0.573763 2.130236 0.137353 -0.020590 -135729.000000 0 0 1
27.363882 17.030300 -18.969980 37.398841 0.556702 2.102769 0.127762 -0.019253 27953.700000 0 0 1
27.707282 18.172200 -18.240180 37.823623 0.580486 2.074010 0.119858 -0.017799 -178603.000000 0 0 1
29.093382 18.265100 -18.011280 38.787175 0.560617 2.053710 0.113437 -0.021473 1900.730000 0 0 1
29.514182 19.480000 -17.124280 39.291199 0.583388 2.021757 0.121443 -0.022304 -77247.100000 0 0 1
29.042482 19.457300 -15.796280 38.361110 0.590279 1.995201 0.113030 -0.019373 215070.000000 0 0 1
27.836082 20.206500 -15.670880 37.798500 0.627905 1.998289 0.095205 -0.017656 -160711.000000 0 0 1
26.763282 19.561300 -14.838980 36.319596 0.631165 1.991680 0.098604 -0.019552 -737206.000000 0 0 1
27.102582 19.529500 -13.453180 36.013044 0.624403 1.953645 0.096718 -0.021837 342554.000000 0 0 1
26.054782 19.108000 -12.565980 34.668014 0.632778 1.941709 0.089440 -0.024984 298544.000000 0 0 1
26.317282 19.536300 -11.123180 34.612013 0.638579 1.897970 0.096428 -0.023968 -170095.000000 0 0 1
26.160082 20.936200 -10.905380 35.236368 0.674931 1.885455 0.092841 -0.014561 -76600.500000 0 0 1
26.450082 21.367600 -9.606680 35.333687 0.679507 1.846147 0.078690 -0.011277 -59056.800000 0 0 1
25.359482 21.142400 -8.539880 34.103283 0.694959 1.823902 0.090750 -0.015938 -604556.000000 0 0 1
25.381482 19.800300 -8.075380 33.188601 0.662494 1.816581 0.111035 -0.027083 764560.000000 0 0 1
24.473882 19.592100 -6.953680 32.111913 0.675065 1.789071 0.100812 -0.027541 500953.000000 0 0 1
23.004182 19.339900 -7.353980 30.940348 0.699077 1.810776 0.077778 -0.035620 -592910.000000 0 0 1
22.355182 20.536600 -7.691880 31.315669 0.743024 1.818960 0.078625 -0.019544 -348517.000000 0 0 1
21.030282 20.178000 -8.070580 30.241671 0.764719 1.840940 0.074245 -0.021944 -196176.000000 0 0 1
20.140882 21.405600 -7.932780 30.443124 0.815830 1.834416 0.050299 -0.019393 -778462.000000 0 0 1
20.482782 22.379500 -8.941780 31.628180 0.829621 1.857420 0.065132 -0.015851 176103.000000 0 0 1
19.935382 22.218900 -10.262880 31.566211 0.839516 1.901937 0.069760 -0.012573 665090.000000 0 0 1
18.402682 22.558800 -10.328580 30.890738 0.886516 1.911721 0.071426 -0.021071 359732.000000 0 0 1
18.094382 23.896000 -9.927480 31.574995 0.922694 1.890631 0.065828 -0.023885 223220.000000 0 0 1
16.883582 24.324800 -10.529280 31.426374 0.964048 1.912450 0.073830 -0.023267 173229.000000 0 0 1
16.566382 25.831500 -10.294380 32.367973 1.000544 1.894460 0.068016 -0.020645 27895.700000 0 0 1
17.469082 26.738200 -10.892780 33.745412 0.992078 1.899475 0.103173 -0.019422 21820.400000 0 0 1
17.612382 27.909700 -10.110580 34.516245 1.007859 1.868078 0.101691 -0.031280 86078.300000 0 0 1
20.566482 28.453500 33.268659 48.367195 0.944925 0.812294 0.054824 0.007635 865722.000000 0 0 1
19.179182 28.772100 33.379614 48.061142 0.982847 0.803038 0.084127 -0.013444 504059.000000 0 0 1
18.286182 27.686300 33.320024 47.022757 0.987091 0.783293 0.085388 -0.011183 882955.000000 0 0 1
16.778682 28.121800 33.271437 46.683491 1.032849 0.777453 0.108927 -0.026060 699571.000000 0 0 1
16.203882 28.335400 31.987488 45.701861 1.051325 0.795516 0.124985 -0.027422 -191938.000000 0 0 1
14.948682 28.942700 32.161696 45.776825 1.094042 0.791785 0.140501 -0.034821 -584049.000000 0 0 1
14.300882 29.306900 30.827697 44.874899 1.116819 0.813486 0.146813 -0.037357 -53004.800000 0 0 1
13.760482 28.203000 30.143527 43.513128 1.116869 0.805507 0.126335 -0.034020 665251.000000 0 0 1
12.415982 27.828200 30.483467 43.102286 1.151136 0.785216 0.128498 -0.026262 407970.000000 0 0 1
12.013182 26.300100 30.589587 42.091978 1.142324 0.757244 0.098616 -0.034982 -12073.300000 0 0 1
12.189282 25.491900 29.473807 40.830392 1.124770 0.764311 0.093915 -0.031976 292601.000000 0 0 1
13.522782 25.249800 29.052097 40.797578 1.079107 0.778307 0.080686 -0.031348 15490.700000 0 0 1
13.597782 24.462600 27.738617 39.404941 1.063465 0.789870 0.075979 -0.026110 -402723.000000 0 0 1
13.240282 25.269000 26.635647 39.029286 1.088155 0.819683 0.085385 -0.033090 175156.000000 0 0 1
13.156182 24.668400 25.371247 37.753348 1.080848 0.833854 0.096364 -0.039853 -235855.000000 0 0 1
11.964582 23.722100 25.113887 36.559494 1.103663 0.813537 0.101406 -0.033066 -431736.000000 0 0 1
11.782582 23.459800 23.754767 35.404525 1.105354 0.835303 0.118656 -0.034231 544894.000000 0 0 1
10.699982 22.510300 23.662527 34.367403 1.127073 0.811355 0.113660 -0.033651 688378.000000 0 0 1
10.555182 22.122000 22.171367 33.050935 1.125607 0.835477 0.120416 -0.036632 108005.000000 0 0 1
10.442982 23.314100 21.376367 33.309942 1.149669 0.874030 0.134504 -0.036523 -25284.300000 0 0 1
10.504682 23.035900 19.966667 32.243896 1.142953 0.903024 0.139924 -0.025433 -735657.000000 0 0 1
9.963682 24.200400 19.101967 32.400918 1.180231 0.940294 0.120839 -0.023636 -359157.000000 0 0 1
8.576882 24.352200 19.189067 32.168507 1.232162 0.931642 0.119144 -0.025596 -784929.000000 0 0 1
8.113782 25.164000 20.217067 33.283482 1.258885 0.917987 0.113842 -0.028830 -616879.000000 0 0 1
6.900982 25.974900 19.726667 33.338572 1.311116 0.937622 0.098890 -0.026047 -314355.000000 0 0 1
6.961482 26.690200 18.531767 33.230339 1.315655 0.979213 0.100387 -0.024437 -527313.000000 0 0 1
5.713682 27.157500 18.100467 33.133108 1.363430 0.992861 0.090982 -0.026725 -555807.000000 0 0 1
5.815982 28.152500 16.941367 33.367631 1.367074 1.038262 0.103847 -0.022454 -54575.700000 0 0 1
6.142882 27.548600 15.667667 32.282134 1.351402 1.064049 0.098348 -0.017934 230246.000000 0 0 1
7.174282 28.407100 15.167167 32.992069 1.323417 1.093115 0.087821 -0.015264 207793.000000 0 0 1
7.896482 27.785000 13.978167 32.089715 1.293898 1.120095 0.087589 -0.011339 -103859.000000 0 0 1
7.138282 27.808100 12.795267 31.431900 1.319524 1.151542 0.091517 -0.021034 -306101.000000 0 0 1
7.259882 26.698600 11.977567 30.149349 1.305296 1.162251 0.085371 -0.021248 -215698.000000 0 0 1
6.497382 26.862400 10.682467 29.629708 1.333478 1.201958 0.072842 -0.026249 -431780.000000 0 0 1
7.076482 27.664800 9.673267 30.149458 1.320372 1.244176 0.062757 -0.020822 -43884.200000 0 0 1
7.011382 29.100900 9.973467 31.551417 1.334369 1.249178 0.074624 -0.017463 -63065.100000 0 0 1
7.033382 29.854600 8.647067 31.867497 1.339427 1.296007 0.071449 -0.012165 1994480.000000 0 0 1
5.718082 29.721600 7.963167 31.296677 1.380731 1.313526 0.048527 -0.015041 1841140.000000 0 0 1
5.537982 28.616900 7.095467 29.999031 1.379638 1.332010 0.030750 -0.011421 783175.000000 0 0 1
4.033482 28.207900 6.830267 29.301999 1.428768 1.335533 0.055431 -0.016307 1201880.000000 0 0 1
3.326482 29.273500 6.181267 30.103344 1.457647 1.363990 0.077888 -0.017730 751849.000000 0 0 1
1.917282 29.020200 6.047767 29.705613 1.504825 1.365773 0.037415 -0.013186 951993.000000 0 0 1
1.323082 30.065700 5.082767 30.520999 1.526818 1.403483 0.050481 -0.018693 -152904.000000 0 0 1
2.052282 30.039100 3.856567 30.355107 1.502582 1.443404 0.038631 -0.013325 648212.000000 0 0 1
1.282582 30.579300 2.770867 30.731357 1.528878 1.480510 0.034698 -0.023505 207448.000000 0 0 1
0.056082 29.783900 2.316367 29.873892 1.568913 1.493180 0.071684 -0.028831 -336780.000000 0 0 1
0.348282 28.706200 1.471267 28.745988 1.558664 1.519592 0.084332 -0.030083 -309867.000000 0 0 1
-0.772918 27.883700 1.258667 27.922793 -1.543084 1.525704 0.093563 -0.032247 -11755.300000 0 0 1
-1.031118 27.829300 -0.245733 27.849480 -1.533762 1.579620 0.102963 -0.036528 21392.300000 0 0 1
-1.573718 29.087500 -0.709233 29.138673 -1.516746 1.595139 0.107617 -0.042759 74269.400000 0 0 1
-1.491518 29.238900 -2.084033 29.350998 -1.519829 1.641860 0.098361 -0.037544 -526488.000000 0 0 1
-2.383518 30.365200 -2.676633 30.575985 -1.492462 1.658449 0.112134 -0.038529 998882.000000 0 0 1
-3.753918 30.051900 -2.987833 30.432478 -1.446526 1.669134 0.098019 -0.037506 781150.000000 0 0 1
-3.982418 29.002900 -3.964533 29.542264 -1.434339 1.705401 0.075120 -0.040053 -1590080.000000 0 0 1
-5.432018 28.637700 -4.186033 29.447369 -1.383343 1.713433 0.074409 -0.029065 -880300.000000 0 0 1
-6.096618 29.729700 -4.751433 30.718072 -1.368532 1.726099 0.067598 -0.026422 49514.800000 0 0 1
-6.931618 29.359600 -5.852033 30.729135 -1.338948 1.762406 0.058284 -0.033513 160396.000000 0 0 1
-7.482218 30.537900 -6.670733 32.141027 -1.330516 1.779862 0.049714 -0.019823 -56940.300000 0 0 1
-8.513618 31.268200 -6.052133 32.966806 -1.304963 1.755426 0.034221 -0.018615 -114240.000000 0 0 1
-8.659518 32.450300 -6.765033 34.260398 -1.310018 1.769562 0.034531 -0.024500 -359053.000000 0 0 1
-9.704718 33.381100 -6.138133 35.300936 -1.287870 1.745565 0.043239 -0.020553 -539539.000000 0 0 1
-10.961218 32.752300 -6.157333 35.082392 -1.247843 1.747221 0.047773 -0.025170 -1287490.000000 0 0 1
-11.857518 33.687400 -5.671833 36.160909 -1.232353 1.728297 0.055227 -0.019194 -470382.000000 0 0 1
-13.306118 33.210500 -5.948233 36.268051 -1.189721 1.735548 0.085808 -0.028562 229182.000000 0 0 1
-13.788618 33.441200 -7.303233 36.902263 -1.179711 1.770019 0.093025 -0.031013 -534952.000000 0 0 1
-15.145618 33.161500 -7.381633 37.196281 -1.142366 1.770573 0.117411 -0.039092 -951281.000000 0 0 1
-15.790418 33.433100 -8.791033 38.005154 -1.129554 1.804222 0.153611 -0.043781 711144.000000 0 0 1
-17.182018 33.161200 -8.905233 38.395183 -1.092745 1.804864 0.195110 -0.042533 121025.000000 0 0 1
-18.037718 -33.894355 -8.491433 39.322907 1.081741 1.788452 0.197959 -0.034211 -169292.000000 0 0 1
-19.553118 33.808500 -8.807233 40.036314 -1.046449 1.792591 0.191783 -0.037016 1189220.000000 0 0 1
-20.141518 32.773200 -8.012033 39.293206 -1.019730 1.776140 0.175311 -0.040856 242920.000000 0 0 1
-20.313518 33.234900 -6.702533 39.523683 -1.022175 1.741203 0.142355 -0.031168 -764476.000000 0 0 1
-21.030918 32.322100 -5.680733 38.978050 -0.993952 1.717059 0.123528 -0.026444 -227800.000000 0 0 1
-21.061218 32.894100 -4.356233 39.301062 -1.001289 1.681867 0.118429 -0.028491 1162580.000000 0 0 1
-22.215618 32.503200 -3.558633 39.530438 -0.971237 1.660941 0.113620 -0.022225 591866.000000 0 0 1
-23.389018 33.474700 -3.628833 40.997197 -0.960938 1.659426 0.121812 -0.013673 -383944.000000 0 0 1
-24.048918 33.505000 -4.909733 41.533612 -0.948243 1.689284 0.133250 -0.026327 417987.000000 0 0 1
-24.869318 -33.400055 -4.984733 41.939173 0.930767 1.689934 0.140891 -0.024808 -184716.000000 0 0 1
-25.465488 -33.073655 -6.314733 42.216508 0.914641 1.720940 0.166003 -0.002538 -605503.000000 0 0 1
-24.593718 -32.578055 -7.290133 41.464764 0.924156 1.747530 0.171732 -0.004148 -342028.000000 0 0 1
-24.941618 -32.803755 -8.662633 42.109522 0.920718 1.777992 0.131627 -0.009480 -227313.000000 0 0 1
-26.050458 -31.934255 -9.281333 42.244125 0.886524 1.792311 0.113649 -0.008471 970291.000000 0 0 1
-27.338848 -32.249955 -8.679433 43.160222 0.867629 1.773275 0.124263 -0.009652 2332730.000000 0 0 1
-28.578458 -31.723855 -9.262333 43.691212 0.837511 1.784413 0.061365 -0.008453 1455570.000000 0 0 1
-28.709138 -30.148855 -9.337833 42.665714 0.809854 1.791443 0.032752 0.001055 -745432.000000 0 0 1
-27.806988 -29.344555 -10.067433 41.661549 0.812295 1.814860 0.045324 0.010876 -350549.000000 0 0 1
-27.922448 -29.488255 -11.493933 42.205814 0.812665 1.846611 0.029313 0.000670 41963.100000 0 0 1
-26.927918 -28.617355 -12.325533 41.182333 0.815804 1.874747 0.072950 0.007090 379300.000000 0 0 1
-25.635098 -29.190055 -12.429333 40.788551 0.850149 1.880447 0.081451 -0.009089 -634615.000000 0 0 1
-24.804118 -28.538255 -13.297833 40.081275 0.855287 1.908977 0.082551 -0.008062 -1160830.000000 0 0 1
-23.515618 -29.313755 -13.407033 39.900239 0.894713 1.913478 0.106805 -0.028890 -941878.000000 0 0 1
-23.612218 -30.462855 -14.190733 41.071879 0.911414 1.923578 0.112443 -0.037096 -13738.900000 0 0 1
-24.191418 -31.588555 -13.559333 42.034712 0.917242 1.899245 0.099649 -0.034884 -389391.000000 0 0 1
-24.225718 -32.845955 -14.449833 43.295956 0.935307 1.911070 0.113808 -0.036058 -268876.000000 0 0 1
-24.362018 -33.948855 -13.601033 43.943381 0.948349 1.885477 0.102066 -0.043409 -151010.000000 0 0 1
-24.969118 32.992100 -14.143633 43.726169 -0.922944 1.900179 0.112757 -0.042363 -413103.000000 0 0 1
-25.302718 31.924000 -13.067133 42.779893 -0.900589 1.881208 0.090558 -0.040850 421456.000000 0 0 1
-24.217918 31.448700 -12.244633 41.538648 -0.914569 1.870018 0.098767 -0.037091 806090.000000 0 0 1
-23.746118 32.402200 -11.262133 41.720694 -0.938359 1.844128 0.134692 -0.038180 -97362.600000 0 0 1
-23.199218 31.703700 -10.011533 40.540832 -0.939077 1.820327 0.146442 -0.033465 233508.000000 0 0 1
-24.152918 30.969800 -9.287033 40.357663 -0.908441 1.802995 0.142951 -0.032627 456485.000000 0 0 1
-23.392918 30.442300 -8.212533 39.260768 -0.915601 1.781532 0.141494 -0.030792 168290.000000 0 0 1
-24.136618 29.430200 -7.355133 38.766106 -0.883900 1.761685 0.124383 -0.026520 -187871.000000 0 0 1
-24.344718 28.185200 -8.045133 38.102427 -0.858379 1.783542 0.120385 -0.008907 -131707.000000 0 0 1
-24.617218 27.005200 -7.251233 37.254109 -0.831624 1.766689 0.093894 -0.016726 -593341.000000 0 0 1
-23.555318 26.259100 -6.449633 35.860718 -0.839622 1.751633 0.088741 -0.015428 -729559.000000 0 0 1
-23.355218 26.868800 -5.205133 35.979050 -0.855243 1.715977 0.089418 -0.020714 327971.000000 0 0 1
-22.323018 26.266600 -4.413933 34.752471 -0.866382 1.698151 0.084359 -0.023723 442280.000000 0 0 1
-21.032818 27.133000 -4.458833 34.618786 -0.911377 1.699953 0.081491 -0.031868 -14332.200000 0 0 1
-20.375618 27.203200 -5.695933 34.461915 -0.927926 1.736840 0.092771 -0.030109 -1303670.000000 0 0 1
-19.106818 27.676400 -5.573233 34.089801 -0.966566 1.735020 0.091542 -0.030848 -882191.000000 0 0 1
-18.097418 27.342900 -6.726533 33.472331 -0.986123 1.773132 0.107955 -0.036822 -13648.800000 0 0 1
-18.357118 27.992900 -7.937833 34.403422 -0.990370 1.803622 0.119257 -0.042424 243194.000000 0 0 1
-18.294418 29.412800 -7.866833 35.520214 -1.014366 1.794123 0.130027 -0.042627 -227661.000000 0 0 1
-18.340018 30.166800 -9.241033 36.493681 -1.024549 1.826807 0.142409 -0.040833 57991.000000 0 0 1
-17.104718 30.031800 -9.923533 35.957710 -1.053065 1.850403 0.129031 -0.042333 248262.000000 0 0 1
-17.001618 30.843500 -11.084733 36.922186 -1.067015 1.875718 0.149153 -0.043461 516749.000000 0 0 1
-15.592218 30.725500 -11.758333 36.406483 -1.101192 1.899666 0.138690 -0.048891 714555.000000 0 0 1
-15.309918 31.527800 -12.895833 37.345659 -1.118734 1.923365 0.140840 -0.046664 -138618.000000 0 0 1
-15.968718 31.018700 -14.050833 37.610977 -1.095372 1.953665 0.143277 -0.047121 106087.000000 0 0 1
-15.427718 31.549400 -15.438033 38.362898 -1.115986 1.984956 0.179762 -0.052310 620163.000000 0 0 1
-14.019418 31.316000 -15.497433 37.648458 -1.149877 1.995044 0.150141 -0.059319 271186.000000 0 0 1
-13.468318 31.731200 -16.718033 38.311320 -1.169391 2.022360 0.145202 -0.064614 116845.000000 0 0 1
-11.924618 31.740400 -16.783433 37.832963 -1.211419 2.030429 0.141431 -0.064315 181447.000000 0 0 1
-11.307118 30.440000 -16.892633 36.603354 -1.215136 2.050487 0.135002 -0.070264 1282350.000000 0 0 1
-9.990518 30.458800 -17.510333 36.526164 -1.253852 2.070758 0.115979 -0.061146 1139260.000000 0 0 1
-9.950418 30.588300 -19.027633 37.372526 -1.256292 2.104975 0.113002 -0.065647 -72864.900000 0 0 1
-10.785318 29.612100 -19.663633 37.146440 -1.221510 2.128636 0.117995 -0.064344 522094.000000 0 0 1
-10.619818 29.666700 -21.069233 37.905226 -1.227038 2.160169 0.113706 -0.062920 196518.000000 0 0 1
-11.946918 29.348100 -21.833633 38.480480 -1.184205 2.174135 0.113722 -0.047910 196762.000000 0 0 1
-12.919018 30.329100 -21.827633 39.537335 -1.168112 2.155649 0.129298 -0.048125 -506115.000000 0 0 1
-14.013618 30.035100 -21.000933 39.236818 -1.134245 2.135583 0.132812 -0.049002 -177891.000000 0 0 1
-15.107718 31.129200 -21.049933 40.501480 -1.118959 2.117334 0.174450 -0.051705 114684.000000 0 0 1
-15.648618 31.314300 -22.348133 41.531959 -1.107367 2.138971 0.153331 -0.042842 356.372000 0 0 1
-16.413818 32.514500 -22.410533 42.764917 -1.103304 2.122384 0.149702 -0.032916 274097.000000 0 0 1
-16.773518 32.933500 -23.863333 43.993465 -1.099725 2.144122 0.135779 -0.026991 75969.800000 0 0 1
-15.639718 33.229300 -24.637533 44.224373 -1.130895 2.161690 0.149518 -0.021125 -145768.000000 0 0 1
-15.960618 33.204300 -26.012233 45.098815 -1.122724 2.185582 0.151251 -0.018974 239438.000000 0 0 1
-16.597018 -33.589955 -26.590933 45.943702 1.111875 2.188018 0.136647 -0.003996 627965.000000 0 0 1
-17.969018 -33.346955 -26.287133 46.107682 1.076554 2.177454 0.125145 -0.003699 181773.000000 0 0 1
-18.416418 -32.305255 -27.112533 46.020467 1.052671 2.200791 0.116002 0.001650 -61701.100000 0 0 1
-19.910018 -31.948355 -27.085733 46.376105 1.013497 2.194499 0.091286 -0.005590 461686.000000 0 0 1
-20.800818 -32.825455 -27.807133 47.785156 1.005980 2.191884 0.067921 -0.001483 -316516.000000 0 0 1
-22.131118 -32.421255 -27.630133 48.003629 0.971836 2.184115 0.051747 0.005422 -105435.000000 0 0 1
-23.138418 -33.566655 -27.565933 49.213691 0.967269 2.165336 0.021594 0.015630 -276488.000000 0 0 1
-23.029518 33.739400 -26.355433 48.613935 -0.971864 2.143775 0.048034 0.003536 -81515.600000 0 0 1
-24.137918 32.867900 -26.166633 48.452354 -0.937359 2.141291 0.025211 0.009920 390337.000000 0 0 1
-24.068018 31.550600 -27.062333 48.032069 -0.919129 2.169319 0.034028 0.006280 -180096.000000 0 0 1
-23.280118 30.458800 -26.646833 46.687858 -0.918196 2.178208 0.043336 -0.017469 -408663.000000 0 0 1
-23.972218 29.532300 -25.832333 45.979706 -0.888944 2.167381 0.025113 -0.010350 -101181.000000 0 0 1
31.666900 9.734200 -26.845170 42.640478 0.298226 2.251796 0.017600 -0.003244 -75071.600000 0 0 1
31.511980 8.358600 -26.546890 42.042936 0.259281 2.254184 0.013746 -0.000160 933273.000000 0 0 1
30.133570 7.940700 -26.491390 40.900862 0.257659 2.275355 0.040123 -0.009902 883820.000000 0 0 1
29.894340 6.550500 -25.865970 40.070301 0.215712 2.272493 0.034754 -0.013445 -47017.400000 0 0 1
30.092990 6.542800 -24.437180 39.313764 0.214088 2.241572 0.019059 0.007583 261383.000000 0 0 1
29.471080 5.377000 -23.925780 38.339270 0.180465 2.244717 0.039984 0.004226 -93381.400000 0 0 1
29.620080 5.217600 -22.443280 37.526968 0.174362 2.211871 0.052106 0.007469 -48522.200000 0 0 1
30.911100 5.027200 -21.912480 38.222057 0.161223 2.181317 0.044585 0.003055 241066.000000 0 0 1
30.767450 4.858100 -20.487280 37.282245 0.156604 2.152584 0.042797 0.000577 228850.000000 0 0 1
32.085670 4.511700 -19.734180 37.937890 0.139698 2.117847 0.037422 0.000402 230416.000000 0 0 1
32.446770 3.123000 -19.713980 38.094449 0.095954 2.114726 0.047254 -0.002228 -40497.300000 0 0 1
33.619170 2.871000 -18.988480 38.717614 0.085191 2.083385 0.051505 -0.010287 -131687.000000 0 0 1
33.982210 1.366500 -18.994580 38.954486 0.040191 2.080146 0.064745 -0.016250 -223341.000000 0 0 1
33.033420 0.648800 -18.269980 37.754734 0.019638 2.075916 0.063579 -0.016822 -163627.000000 0 0 1
33.326630 -0.761000 -18.308280 38.032046 -0.022831 2.073037 0.063919 -0.016460 -43570.100000 0 0 1
32.155460 -1.629900 -17.826380 36.802310 -0.050645 2.076453 0.062018 -0.019151 6177.430000 0 0 1
31.934380 -1.928300 -16.461080 35.979024 -0.060310 2.045999 0.084570 -0.017778 -835326.000000 0 0 1
30.636840 -1.622400 -16.094880 34.645250 -0.052906 2.053937 0.081756 -0.020663 -842379.000000 0 0 1
30.423740 -2.128600 -14.633880 33.827287 -0.069851 2.018177 0.089866 -0.022008 -122365.000000 0 0 1
30.460200 -3.519200 -14.451680 33.897782 -0.115024 2.011229 0.077448 -0.031665 279896.000000 0 0 1
29.491840 -3.817500 -13.482580 32.651522 -0.128727 1.996458 0.083846 -0.025194 -208003.000000 0 0 1
29.144200 -5.312600 -13.290080 32.468975 -0.180307 1.992501 0.071402 -0.025757 182394.000000 0 0 1
28.312450 -5.898400 -14.317480 32.270361 -0.205394 2.030489 0.054628 -0.024747 700463.000000 0 0 1
28.004050 -7.172800 -13.809180 32.037000 -0.250744 2.016440 0.054989 -0.025422 -452299.000000 0 0 1
27.388450 -8.167700 -14.838480 32.202780 -0.289820 2.049673 0.041436 -0.010281 -691346.000000 0 0 1
26.134750 -7.761400 -15.268880 31.247451 -0.288680 2.081331 0.051792 -0.013033 -728182.000000 0 0 1
25.594950 -8.638300 -16.227780 31.512895 -0.325496 2.111754 0.048040 -0.004938 -573570.000000 0 0 1
24.272350 -8.037900 -16.671480 30.523648 -0.319788 2.148596 0.056527 -0.005102 -774049.000000 0 0 1
24.451550 -6.934600 -17.555980 30.889795 -0.276349 2.175286 0.050661 -0.002654 459354.000000 0 0 1
23.236650 -6.383300 -18.068380 30.119011 -0.268095 2.214172 0.076131 -0.013980 340366.000000 0 0 1
22.936850 -6.787800 -19.496480 30.859133 -0.287723 2.254656 0.059378 -0.003086 143549.000000 0 0 1
23.740450 -6.104500 -20.465280 31.932767 -0.251683 2.266449 0.062647 -0.007894 413977.000000 0 0 1
23.567650 -6.633400 -21.741580 32.743434 -0.274364 2.296950 0.086773 -0.010784 -47938.000000 0 0 1
24.089550 -5.640300 -22.823980 33.660860 -0.229996 2.315912 0.091789 -0.011309 -45051.200000 0 0 1
24.028450 -6.342600 -24.086180 34.608367 -0.258076 2.340558 0.103889 -0.018205 146045.000000 0 0 1
24.258750 -5.433400 -25.119270 35.341004 -0.220340 2.361386 0.097978 -0.029175 -189839.000000 0 0 1
24.213550 -5.909200 -26.590720 36.445590 -0.239366 2.388534 0.115226 -0.033384 698169.000000 0 0 1
22.897450 -6.321700 -27.011110 35.970226 -0.269377 2.420265 0.130113 -0.025827 627160.000000 0 0 1
22.771950 -6.438600 -28.409410 36.974476 -0.275550 2.447058 0.120507 -0.025504 471605.000000 0 0 1
21.379150 -7.021700 -28.791520 36.542085 -0.317337 2.478188 0.116249 -0.033411 500376.000000 0 0 1
21.195050 -8.343100 -28.340540 36.359644 -0.375007 2.464584 0.125473 -0.028142 322025.000000 0 0 1
19.832450 -8.721600 -28.350120 35.680831 -0.414309 2.489059 0.125136 -0.031989 117778.000000 0 0 1
19.847650 -10.241600 -28.008640 35.823226 -0.476374 2.468435 0.133226 -0.012978 -367309.000000 0 0 1
18.602250 -10.752600 -27.621150 34.994143 -0.524106 2.480477 0.146148 -0.016175 -34476.500000 0 0 1
18.670150 -12.046300 -27.038500 34.996691 -0.573006 2.453725 0.140438 -0.019969 -66116.000000 0 0 1
18.933650 -13.256300 -27.916270 36.242665 -0.610823 2.450045 0.116654 -0.005834 219761.000000 0 0 1
17.805950 -13.569700 -28.721610 36.415924 -0.651193 2.479504 0.112833 -0.009849 614479.000000 0 0 1
18.106850 -14.676600 -29.572410 37.653527 -0.681144 2.474110 0.089760 -0.011254 303852.000000 0 0 1
16.918550 -14.939700 -30.567970 37.997800 -0.723364 2.505574 0.070932 -0.013962 248022.000000 0 0 1
15.856850 -15.638400 -29.972750 37.341197 -0.778462 2.502559 0.068693 -0.014691 -589524.000000 0 0 1
14.910150 -15.961000 -30.945980 37.877695 -0.819425 2.526981 0.074725 -0.021897 -657427.000000 0 0 1
13.634750 -16.354900 -30.173780 36.930288 -0.875854 2.527067 0.085987 -0.028654 -315113.000000 0 0 1
13.794450 -17.609100 -29.555290 37.065920 -0.906278 2.493723 0.082121 -0.029144 -215451.000000 0 0 1
12.811950 -17.793400 -28.586640 36.027034 -0.946747 2.487298 0.080535 -0.033554 -252007.000000 0 0 1
12.890550 -19.192400 -27.925970 36.254301 -0.979353 2.450077 0.088855 -0.030750 104592.000000 0 0 1
13.986250 -19.317800 -27.055110 36.066211 -0.944138 2.419087 0.088341 -0.025130 -131502.000000 0 0 1
13.979750 -20.594900 -26.410190 36.291617 -0.974443 2.385790 0.094424 -0.022440 50004.600000 0 0 1
14.824650 -20.706000 -25.116210 35.767761 -0.949440 2.349283 0.080046 -0.013320 323983.000000 0 0 1
16.207650 -20.955700 -25.348510 36.665737 -0.912471 2.334139 0.084374 -0.011763 49667.600000 0 0 1
16.887150 -21.102500 -24.164680 36.254974 -0.895907 2.300328 0.082337 0.009332 387465.000000 0 0 1
18.427250 -21.344100 -24.378080 37.274991 -0.858608 2.283665 0.064363 0.011162 668687.000000 0 0 1
18.894150 -22.586900 -24.847880 38.530172 -0.874187 2.271681 0.078748 -0.014065 153952.000000 0 0 1
18.683950 -23.698800 -23.990780 38.552311 -0.903173 2.242463 0.074579 -0.026025 -545805.000000 0 0 1
19.659350 -24.876400 -24.261480 39.924238 -0.902010 2.223942 0.066373 -0.029871 138425.000000 0 0 1
20.926550 -24.638300 -23.667780 40.064076 -0.866680 2.202782 0.088993 -0.030101 60673.900000 0 0 1
21.626050 -25.790440 -23.272780 40.920107 -0.872999 2.175766 0.098158 -0.037812 -336421.000000 0 0 1
21.433750 -26.183120 -21.763080 40.231742 -0.884811 2.142354 0.108216 -0.040691 -519537.000000 0 0 1
20.132550 -26.295100 -21.251880 39.349641 -0.917361 2.141326 0.084357 -0.034239 -245751.000000 0 0 1
20.209450 -26.629100 -19.886180 38.897185 -0.921609 2.107435 0.076838 -0.034600 330139.000000 0 0 1
18.881150 -27.211330 -19.324180 38.345512 -0.964196 2.098961 0.064151 -0.025951 -329733.000000 0 0 1
18.556550 -28.509650 -19.766780 39.342996 -0.993798 2.097194 0.067268 -0.025678 1523010.000000 0 0 1
17.256450 -29.024720 -19.334280 38.910588 -1.034399 2.090808 0.059762 -0.008444 2562270.000000 0 0 1
15.933150 -28.280820 -19.786280 38.015351 -1.057731 2.118211 0.048532 -0.009612 334002.000000 0 0 1
15.317850 -27.412470 -18.875080 36.638077 -1.061229 2.112010 0.046335 -0.009386 169143.000000 0 0 1
14.192250 -26.794150 -19.521180 36.061377 -1.083690 2.142817 0.044481 0.001430 269868.000000 0 0 1
13.312650 -26.040730 -18.521980 34.618059 -1.098210 2.135349 0.039874 -0.014593 -354621.000000 0 0 1
12.546350 -26.907900 -17.670580 34.549897 -1.134495 2.107669 0.031779 -0.009249 406359.000000 0 0 1
11.722050 -26.154390 -16.768580 33.206082 -1.149451 2.100161 0.036646 -0.022339 1048730.000000 0 0 1
10.192050 -26.080970 -17.115580 32.818257 -1.198259 2.119435 0.048032 -0.022179 641882.000000 0 0 1
9.461950 -27.162730 -16.518180 33.169153 -1.235598 2.092085 0.065431 -0.016634 604520.000000 0 0 1
8.052550 -26.905050 -16.479280 32.562125 -1.279986 2.101439 0.064293 -0.008984 980376.000000 0 0 1
7.202450 -27.532720 -17.603680 33.463645 -1.314934 2.124750 0.071113 0.001779 -162180.000000 0 0 1
7.361650 -26.996260 -18.863680 33.746561 -1.304578 2.163952 0.071669 -0.002107 -253874.000000 0 0 1
6.703150 -27.845030 -19.755280 34.792945 -1.334561 2.174622 0.084208 0.001313 83673.300000 0 0 1
6.775750 -27.165700 -21.129680 35.076337 -1.326361 2.217290 0.067812 -0.002198 -7796.150000 0 0 1
5.716650 -26.236460 -21.142080 34.176300 -1.356260 2.237779 0.073226 -0.009056 -55872.000000 0 0 1
5.618750 -25.437840 -22.306180 34.296060 -1.353405 2.278908 0.059958 -0.005646 -438733.000000 0 0 1
4.224350 -24.969400 -22.748380 34.041223 -1.403202 2.302663 0.042881 -0.007655 -499372.000000 0 0 1
3.352350 -26.024400 -23.066580 34.936725 -1.442686 2.291933 0.040806 -0.003324 -650835.000000 0 0 1
2.184650 -25.467240 -23.585280 34.779570 -1.485223 2.316020 0.040095 -0.007028 -546168.000000 0 0 1
1.358950 -26.524860 -24.298380 35.997587 -1.519608 2.311761 0.023173 -0.003203 -206921.000000 0 0 1
1.915650 -26.905330 -25.543550 37.148882 -1.499717 2.328974 0.023048 -0.005617 516720.000000 0 0 1
0.976350 -27.702790 -26.256320 38.181045 -1.535567 2.329084 0.028854 -0.019663 130577.000000 0 0 1
1.666450 -28.399910 -27.381990 39.485508 -1.512186 2.337090 0.028497 -0.018822 -841677.000000 0 0 1
2.159350 -27.556280 -28.408080 39.636226 -1.492595 2.369884 0.023703 -0.024088 -72677.700000 0 0 1
2.737850 -28.118990 -29.539430 40.874826 -1.473736 2.378469 0.029742 -0.019791 215325.000000 0 0 1
4.161750 -28.709560 -29.292620 41.226407 -1.426839 2.361048 0.033405 -0.021165 -256735.000000 0 0 1
4.366350 -29.721560 -28.340210 41.298955 -1.424931 2.327077 0.031383 -0.014782 -631529.000000 0 0 1
5.573950 -30.401240 -28.551050 42.076915 -1.389464 2.316575 0.044957 -0.009605 -39719.500000 0 0 1
5.892650 -31.544890 -27.510910 42.268825 -1.386123 2.279507 0.060143 -0.014587 -62942.700000 0 0 1
5.077150 -32.703880 -27.609920 43.100220 -1.416780 2.266073 0.062079 -0.014881 45770.900000 0 0 1
5.443050 -33.763410 -26.738890 43.411553 -1.410960 2.234374 0.077508 -0.029649 304227.000000 0 0 1
4.244050 33.326954 -26.484140 42.779756 1.444132 2.238368 0.100590 -0.035933 368570.000000 0 0 1
3.684150 32.643362 -27.598700 42.905132 1.458411 2.269531 0.087688 -0.027668 304337.000000 0 0 1
2.499650 31.951554 -27.219240 42.048033 1.492723 2.274882 0.060083 -0.018881 108277.000000 0 0 1
1.401250 32.218818 -28.263570 42.881758 1.527332 2.290424 0.067505 -0.010775 -541801.000000 0 0 1
1.365450 31.327494 -29.405740 42.988067 1.527238 2.324089 0.082236 -0.025616 681496.000000 0 0 1
0.220750 31.528644 -30.257810 43.699419 1.563795 2.335617 0.080294 -0.023176 666990.000000 0 0 1
-0.031250 30.400954 -31.271950 43.613689 -1.569768 2.370316 0.070284 -0.018902 410820.000000 0 0 1
1.023550 30.239804 -32.236070 44.211510 1.536961 2.387851 0.085339 -0.023552 444852.000000 0 0 1
0.703950 29.256974 -33.208850 44.263911 1.546740 2.419231 0.107548 -0.024489 -1122360.000000 0 0 1
1.853950 28.978724 33.816427 44.573023 1.506907 0.709520 0.094456 -0.024298 -895792.000000 0 0 1
2.236950 30.081574 33.021740 44.725165 1.496570 0.740212 0.077247 -0.024787 -104701.000000 0 0 1
3.358950 29.844224 32.198275 44.030549 1.458719 0.750612 0.054811 -0.024630 -186765.000000 0 0 1
3.128650 28.825654 31.010437 42.454140 1.462683 0.751822 0.060274 -0.026069 -306793.000000 0 0 1
2.799650 27.433154 31.274577 41.695506 1.469095 0.722627 0.084865 -0.029550 -191611.000000 0 0 1
3.899650 26.664154 31.674187 41.586519 1.425575 0.704948 0.077597 -0.021207 -635191.000000 0 0 1
3.551850 25.268694 32.113801 41.017299 1.431148 0.671430 0.098918 -0.028476 -44029.700000 0 0 1
2.849950 24.621234 31.059017 39.736507 1.455557 0.673531 0.100908 -0.021247 207214.000000 0 0 1
2.778650 23.217344 31.179967 38.973790 1.451683 0.643461 0.087810 -0.014171 -208397.000000 0 0 1
1.963750 22.506254 30.095477 37.631444 1.483763 0.643930 0.079086 0.000010 -897000.000000 0 0 1
0.602250 22.535054 30.343217 37.800823 1.544078 0.638965 0.084451 -0.009386 -1037680.000000 0 0 1
-0.102450 22.011954 29.217177 36.581144 -1.566142 0.645673 0.089397 -0.001402 -117733.000000 0 0 1
-1.494450 21.490154 29.588377 36.599620 -1.501367 0.629310 0.082302 -0.004113 -380028.000000 0 0 1
-2.457850 22.475354 29.882857 37.472226 -1.461872 0.647711 0.094511 -0.013201 655156.000000 0 0 1
-3.710950 21.849254 30.222467 37.477441 -1.402558 0.632728 0.064042 -0.018581 774964.000000 0 0 1
-4.801850 22.903354 30.539627 38.474540 -1.364133 0.653827 0.039023 -0.026038 -44510.400000 0 0 1
-4.608550 23.550164 31.800477 39.838666 -1.377548 0.646443 0.055368 -0.027306 -66458.800000 0 0 1
-5.509850 24.602714 31.998981 40.738027 -1.350479 0.667322 0.044278 -0.029528 -216283.000000 0 0 1
-5.484450 25.180974 33.412466 42.196606 -1.356344 0.657000 0.065402 -0.026969 -185953.000000 0 0 1
-6.703450 25.749204 33.823119 43.034418 -1.316113 0.666557 0.056891 -0.020220 -79920.700000 0 0 1
-6.826050 25.962484 -32.683230 42.294670 -1.313695 2.453960 0.063332 -0.018357 627105.000000 0 0 1
-8.221850 26.553234 -32.266620 42.588823 -1.270522 2.430472 0.081500 -0.011204 441134.000000 0 0 1
-8.466350 27.873584 -32.688080 43.785002 -1.275911 2.413671 0.079545 -0.017372 151184.000000 0 0 1
-9.774550 28.331504 -32.372980 44.116049 -1.238577 2.394716 0.081304 -0.015956 385360.000000 0 0 1
-9.976050 28.748784 -30.901250 43.369361 -1.236790 2.363870 0.088011 -0.012927 -70990.300000 0 0 1
-9.210450 29.893114 -30.512360 43.697080 -1.271913 2.343774 0.097984 -0.016383 226532.000000 0 0 1
-9.113350 29.949094 -29.126350 42.759159 -1.275404 2.320159 0.118953 -0.021596 -424963.000000 0 0 1
-8.446550 31.219134 -28.719840 43.252836 -1.306566 2.296951 0.109909 -0.025249 -154886.000000 0 0 1
-7.067550 31.323034 -29.003650 43.270018 -1.348878 2.305402 0.069689 -0.019755 5777.240000 0 0 1
-6.592650 32.618298 -28.538160 43.838830 -1.371368 2.279670 0.071766 -0.014549 1281920.000000 0 0 1
-5.019150 32.623389 -28.278420 43.464312 -1.418142 2.279187 0.069019 -0.015867 1271700.000000 0 0 1
-4.359650 33.872408 -28.127460 44.243651 -1.442792 2.259763 0.069121 -0.019440 54927.900000 0 0 1
-4.343350 -33.278960 -29.206210 44.489961 1.441016 2.286923 0.070733 -0.023366 -154799.000000 0 0 1
-3.269650 -33.647340 -30.284190 45.386852 1.473926 2.301301 0.069280 -0.027056 47208.700000 0 0 1
-3.638950 33.548184 -31.372140 46.075306 -1.462749 2.319771 0.065738 -0.016352 -514924.000000 0 0 1
-4.450450 -33.957700 -32.349600 47.110811 1.440480 2.327695 0.074028 -0.017912 -345661.000000 0 0 1
-3.981450 -32.777570 -33.258650 46.865327 1.449920 2.359818 0.057485 -0.021584 -247666.000000 0 0 1
-3.990950 -31.551700 -32.556560 45.512274 1.444975 2.367901 0.049529 -0.025558 185539.000000 0 0 1
-3.213950 -30.626640 -33.314650 45.367240 1.466239 2.395479 0.044974 -0.031466 -87370.500000 0 0 1
32.632740 17.953000 12.833567 39.394243 0.502961 1.238967 0.140027 -0.023765 60534.800000 0 0 1
34.014230 17.721200 13.022567 40.504272 0.480301 1.243472 0.131735 -0.036128 9743.530000 0 0 1
34.303990 16.636300 13.854267 40.564405 0.451549 1.222244 0.135585 -0.013884 -202861.000000 0 0 1
35.779400 16.403400 14.234367 41.855158 0.429866 1.223788 0.117856 -0.038285 -214109.000000 0 0 1
36.671150 15.914200 13.286267 42.125526 0.409444 1.249921 0.120046 -0.020870 -278882.000000 0 0 1
36.507720 14.583600 12.892567 41.372857 0.380046 1.253900 0.145656 -0.040334 -315713.000000 0 0 1
-36.319738 14.023100 12.173167 40.791626 -0.368468 1.267756 0.143312 -0.040113 363160.000000 0 0 1
-35.611081 13.014100 12.819367 40.023144 -0.350373 1.244751 0.125505 -0.032092 -517621.000000 0 0 1
-36.236938 11.795700 12.990767 40.261822 -0.314698 1.242261 0.118530 -0.036491 -378230.000000 0 0 1
-35.503512 10.957000 14.082967 39.735189 -0.299344 1.208502 0.122484 -0.051431 223124.000000 0 0 1
-35.666899 11.678400 15.320267 40.536691 -0.316428 1.183231 0.113544 -0.044095 592805.000000 0 0 1
-34.821941 11.089200 16.336867 40.030378 -0.308300 1.150412 0.094484 -0.042484 323616.000000 0 0 1
-34.729533 11.850500 17.681367 40.733347 -0.328834 1.121784 0.087276 -0.026226 -1163090.000000 0 0 1
-35.932038 12.038900 18.325067 42.093403 -0.323292 1.120377 0.096657 -0.025416 -848410.000000 0 0 1
-35.850276 13.056500 19.324967 42.768784 -0.349265 1.101961 0.104044 -0.030029 -681161.000000 0 0 1
-37.007358 12.993700 20.291167 44.160076 -0.337664 1.093374 0.120089 -0.032309 -537820.000000 0 0 1
-37.008188 11.877000 21.127967 44.238672 -0.310545 1.072886 0.104482 -0.020152 -305929.000000 0 0 1
35.973090 11.726900 21.934267 43.734374 0.315128 1.045426 0.128745 -0.035406 -187796.000000 0 0 1
36.029410 10.337900 22.601667 43.770149 0.279423 1.028188 0.097806 -0.026345 272059.000000 0 0 1
36.911140 10.166500 23.705767 45.030583 0.268768 1.016392 0.101543 -0.014666 233437.000000 0 0 1
36.323630 10.608800 24.950407 45.326323 0.284160 0.987879 0.114364 -0.016734 -769003.000000 0 0 1
-36.729098 10.915200 26.032057 46.323172 -0.288869 0.974035 0.091302 -0.017888 521574.000000 0 0 1
-35.908457 12.071000 25.815197 45.842674 -0.324293 0.972633 0.088279 -0.022164 -268159.000000 0 0 1
-34.957005 11.910800 24.845757 44.510348 -0.328390 0.978579 0.070098 -0.026316 -1803620.000000 0 0 1
-34.072228 13.169300 24.584707 44.031296 -0.368824 0.978405 0.069957 -0.029311 118672.000000 0 0 1
-33.057938 13.434600 25.519947 43.870075 -0.386008 0.949959 0.049385 -0.027993 209339.000000 0 0 1
-33.527598 14.163500 26.666257 45.119772 -0.399703 0.938485 0.045658 -0.020049 -619815.000000 0 0 1
-32.371508 14.674600 27.520937 44.951757 -0.425610 0.911915 0.040708 -0.009646 -493960.000000 0 0 1
-31.728318 15.743800 26.873757 44.460682 -0.460608 0.921735 0.059288 -0.024553 -617398.000000 0 0 1
-30.993758 16.391700 27.861147 44.783305 -0.486477 0.899333 0.063348 -0.033509 -178629.000000 0 0 1
-30.281528 17.723100 27.495507 44.576700 -0.529524 0.906109 0.075690 -0.031876 -269664.000000 0 0 1
-31.169578 18.579200 26.835097 45.131494 -0.537524 0.934031 0.083921 -0.041957 -372557.000000 0 0 1
-30.645838 19.710600 26.208297 44.883739 -0.571561 0.947253 0.077416 -0.036992 -817869.000000 0 0 1
-31.715048 20.532900 25.527057 45.596874 -0.574558 0.976601 0.071066 -0.020393 -636478.000000 0 0 1
-32.475438 21.357100 26.377527 46.973969 -0.581726 0.974557 0.073534 -0.033060 144858.000000 0 0 1
-33.242808 22.143300 25.479797 47.377528 -0.587616 1.002967 0.079183 -0.026961 -304025.000000 0 0 1
-33.770858 23.464500 26.125007 48.719294 -0.607238 1.004826 0.070599 -0.017602 10968.500000 0 0 1
-34.714084 24.049100 25.234077 49.195381 -0.605861 1.032195 0.072135 -0.020045 29316.900000 0 0 1
-34.941503 25.454500 25.397337 50.138458 -0.629591 1.039625 0.076626 -0.024843 -357753.000000 0 0 1
-35.977485 25.922900 24.407337 50.617135 -0.624373 1.067638 0.083983 -0.018339 -283102.000000 0 0 1
-35.613519 25.740500 23.041167 49.616444 -0.625847 1.087855 0.103107 -0.028946 -235589.000000 0 0 1
-36.574008 26.357800 22.217967 50.259624 -0.624464 1.112898 0.105566 -0.031308 7676.840000 0 0 1
-36.225138 26.473800 20.724467 49.422933 -0.631108 1.138090 0.135680 -0.036591 29609.400000 0 0 1
-36.279338 25.223500 20.097667 48.542060 -0.607536 1.143924 0.122537 -0.041075 73210.200000 0 0 1
-35.813703 25.240200 18.754867 47.659565 -0.613916 1.166342 0.115629 -0.041243 -149974.000000 0 0 1
-35.986425 23.849600 18.103767 46.814235 -0.585278 1.173730 0.120929 -0.027833 -368313.000000 0 0 1
36.876720 23.571800 17.563167 47.159168 0.568749 1.189178 0.119969 -0.031889 -985447.000000 0 0 1
36.963370 22.464700 16.663767 46.353367 0.546103 1.203071 0.118762 -0.033274 -65642.400000 0 0 1
35.776550 22.061800 15.755967 44.888028 0.552576 1.212151 0.113685 -0.023975 -76704.500000 0 0 1
34.731150 21.475300 16.494267 44.039779 0.553788 1.186905 0.118940 -0.028110 222630.000000 0 0 1
33.744720 20.923200 15.602967 42.660743 0.555027 1.196363 0.114104 -0.023370 278370.000000 0 0 1
32.489250 20.256800 16.261467 41.597171 0.557514 1.169158 0.122335 -0.023174 608340.000000 0 0 1
31.708310 21.054800 17.135367 41.741374 0.586165 1.147780 0.110744 -0.024385 47154.000000 0 0 1
30.952120 22.054900 16.492167 41.429988 0.619099 1.161381 0.093908 -0.012607 -629115.000000 0 0 1
29.798170 22.627200 17.326367 41.232561 0.649457 1.137119 0.076568 -0.010275 -143123.000000 0 0 1
30.255310 23.481200 18.361467 42.472274 0.659998 1.123736 0.040930 0.000410 22185.500000 0 0 1
29.281800 24.103100 19.196067 42.507320 0.688694 1.102245 0.032629 -0.001806 -397268.000000 0 0 1
30.059130 24.976500 20.205867 43.996067 0.693308 1.093628 0.037293 -0.017293 687135.000000 0 0 1
31.016270 25.901200 19.725267 44.966291 0.695771 1.116681 0.042573 -0.012595 594754.000000 0 0 1
31.917580 26.388000 20.743067 46.317743 0.690843 1.106445 0.043605 -0.013555 1630670.000000 0 0 1
33.180690 27.259600 20.274567 47.487915 0.687744 1.129688 0.071921 -0.014934 1228840.000000 0 0 1
34.132590 27.636300 21.235567 48.782662 0.680612 1.120414 0.069504 -0.011355 425973.000000 0 0 1
33.603660 28.552200 22.239067 49.386336 0.704306 1.103686 0.028387 0.003451 -239194.000000 0 0 1
34.548110 28.676600 23.438817 50.648766 0.692796 1.089677 0.028985 -0.008643 1548880.000000 0 0 1
35.824850 29.371300 23.253117 51.834357 0.686733 1.105593 0.056513 -0.004921 1308120.000000 0 0 1
36.427280 29.641700 24.514707 52.976863 0.683053 1.089709 0.048245 -0.008153 256740.000000 0 0 1
-36.481018 30.627900 24.410527 53.523890 -0.698400 1.097225 0.066092 -0.012150 625378.000000 0 0 1
-35.273922 29.946900 24.020257 52.134817 -0.703902 1.091975 0.089032 -0.019522 -81844.500000 0 0 1
-34.358173 30.979500 23.821477 52.035337 -0.733733 1.095284 0.082888 -0.020278 -1120030.000000 0 0 1
-32.915928 30.618700 23.519837 50.736041 -0.749257 1.088773 0.122208 -0.027516 -742835.000000 0 0 1
-32.534388 30.229500 22.231767 49.664480 -0.748691 1.106673 0.116409 -0.025235 26586.700000 0 0 1
-32.928468 28.912900 21.804367 48.945585 -0.720556 1.109084 0.107332 -0.024365 -172349.000000 0 0 1
-32.305068 27.700400 22.542267 48.156863 -0.708811 1.083656 0.104174 -0.025221 203615.000000 0 0 1
-30.881988 27.705500 22.634167 47.260951 -0.731233 1.071373 0.084535 -0.023603 246165.000000 0 0 1
-30.413278 26.685900 23.415937 46.748378 -0.720212 1.046166 0.089046 -0.027310 -215043.000000 0 0 1
-30.272208 27.068300 24.893547 47.631798 -0.729581 1.020870 0.103840 -0.031827 485911.000000 0 0 1
-31.510608 27.109500 25.628977 48.833266 -0.710460 1.018285 0.091066 -0.025297 794184.000000 0 0 1
-31.171998 27.367300 26.972737 49.479199 -0.720496 0.994249 0.095120 -0.025640 614027.000000 0 0 1
-32.408578 27.571200 27.926277 50.895619 -0.704922 0.989991 0.082432 -0.015102 647950.000000 0 0 1
-33.078988 26.375400 28.279697 50.888333 -0.673121 0.981567 0.065457 -0.019604 202571.000000 0 0 1
-34.168540 26.593000 29.153797 52.197899 -0.661362 0.978191 0.046542 -0.008330 345331.000000 0 0 1
-34.900772 25.363700 29.734807 52.397900 -0.628446 0.967353 0.048150 -0.011946 269032.000000 0 0 1
-34.045588 24.635000 30.642507 52.009120 -0.626382 0.940758 0.052626 -0.021730 409410.000000 0 0 1
-34.703528 23.529500 31.212247 52.270227 -0.595818 0.930875 0.039063 -0.027782 271793.000000 0 0 1
-33.733968 22.630300 32.033650 51.732638 -0.590890 0.903053 0.076417 -0.052901 498747.000000 0 0 1
-32.701518 21.953100 31.270977 50.291171 -0.591215 0.899759 0.086847 -0.048686 1064410.000000 0 0 1
-31.749768 21.191400 32.040059 49.836619 -0.588545 0.872515 0.101547 -0.047360 410618.000000 0 0 1
-30.614388 21.968600 32.711612 49.898995 -0.622434 0.855877 0.108565 -0.048407 -834739.000000 0 0 1
-31.033808 22.919600 33.658786 51.198821 -0.636124 0.853415 0.120056 -0.055003 -73565.500000 0 0 1
-31.225588 22.395400 -32.958950 50.624932 -0.622185 2.279753 0.109159 -0.056074 -413824.000000 0 0 1
-30.150148 22.786500 -31.948180 49.486789 -0.647182 2.272592 0.122296 -0.045944 -280028.000000 0 0 1
-30.076448 24.165500 -31.646580 49.900603 -0.676853 2.257760 0.093936 -0.041485 -150768.000000 0 0 1
-28.995908 24.427500 -30.780810 48.835681 -0.700092 2.252727 0.119791 -0.025816 -146969.000000 0 0 1
-29.097368 25.689200 -29.878990 48.983118 -0.723270 2.226839 0.067077 -0.011229 -209808.000000 0 0 1
-28.873418 26.952900 -30.468700 49.884615 -0.751010 2.227846 0.064034 -0.017746 753909.000000 0 0 1
-29.970128 27.479000 -31.265080 51.291415 -0.742063 2.226299 0.044352 -0.017305 526646.000000 0 0 1
-29.801338 28.960100 -31.634570 52.225982 -0.771083 2.221473 0.042865 -0.016368 -11149.900000 0 0 1
-30.043818 29.863500 -30.600810 52.257719 -0.782388 2.196385 0.024322 -0.016450 88593.500000 0 0 1
-29.688298 31.170000 -31.042680 53.071762 -0.809740 2.195576 0.035770 -0.024777 44891.800000 0 0 1
-30.041338 32.278700 -30.028220 53.348763 -0.821284 2.168646 0.036981 -0.010683 172937.000000 0 0 1
-29.004008 32.507300 -29.085760 52.382616 -0.842290 2.159467 0.017555 -0.005720 140541.000000 0 0 1
-29.316528 33.524300 -28.191490 52.707662 -0.852258 2.135144 0.014027 -0.002792 -281104.000000 0 0 1
-28.301778 33.592200 -27.040680 51.581246 -0.870666 2.122613 0.023141 0.002883 460123.000000 0 0 1
-27.000078 -33.953955 -27.292170 51.251710 0.898991 2.132362 0.007196 0.004225 382314.000000 0 0 1
-26.890978 -32.553255 -27.293270 50.276851 0.880365 2.144635 0.020724 0.010186 -449440.000000 0 0 1
-27.454008 -31.638855 -26.149060 49.381303 0.856098 2.128847 0.023957 0.010478 -371309.000000 0 0 1
-28.815718 -31.333055 -26.232820 50.002668 0.827226 2.123075 0.028857 -0.003653 -724907.000000 0 0 1
-29.201938 -30.580855 -25.090960 49.168060 0.808460 2.106342 0.023530 0.001210 379363.000000 0 0 1
-30.751328 -30.482655 -25.082970 50.039902 0.781011 2.095850 0.023791 -0.006745 285290.000000 0 0 1
-31.359538 -29.597555 -25.993240 50.349622 0.756501 2.113269 0.031043 -0.013101 -74836.900000 0 0 1
-32.762718 -29.714855 -25.956720 51.284692 0.736653 2.101488 0.031130 -0.013676 -183442.000000 0 0 1
-33.397338 -28.763055 -27.008340 51.692804 0.710982 2.120551 0.049458 -0.024214 -1656600.000000 0 0 1
-34.756562 -28.740355 -26.991790 52.560283 0.690932 2.110101 0.044041 -0.024700 -1570140.000000 0 0 1
-35.301302 -27.945555 -28.044420 53.043619 0.669616 2.127870 0.054824 -0.025125 -275713.000000 0 0 1
-36.782958 -28.171455 -28.311930 54.297166 0.653589 2.119317 0.050944 -0.029491 -216720.000000 0 0 1
36.474210 -27.667355 -27.296690 53.300655 -0.648948 2.108455 0.037159 -0.018221 96316.300000 0 0 1
35.103640 -27.657555 -27.655470 52.555027 -0.667309 2.124945 0.041086 -0.015019 576982.000000 0 0 1
34.225140 -27.046455 -26.500580 51.040686 -0.668768 2.116717 0.036548 -0.013987 147635.000000 0 0 1
34.064940 -27.802655 -25.345190 50.752206 -0.684521 2.093692 0.036155 -0.009300 -363955.000000 0 0 1
32.968710 -27.390855 -24.612780 49.426549 -0.693249 2.092049 0.038529 -0.006930 -408499.000000 0 0 1
32.850480 -28.139955 -23.277080 49.120602 -0.708317 2.064484 0.035914 -0.003177 -10469.100000 0 0 1
32.374880 -29.462355 -23.370880 49.622185 -0.738333 2.061194 0.057968 -0.014640 -147646.000000 0 0 1
32.068580 -30.165255 -22.135180 49.277811 -0.754824 2.036657 0.067505 -0.025383 266978.000000 0 0 1
33.173860 -30.362755 -21.020080 49.641169 -0.741183 2.008036 0.047065 -0.015679 -539152.000000 0 0 1
34.368180 -30.908055 -21.490980 50.973933 -0.732440 2.006013 0.033503 -0.020627 -93305.900000 0 0 1
35.391260 -30.941755 -20.495180 51.283388 -0.718420 1.981927 0.025047 -0.017214 467349.000000 0 0 1
36.279630 -29.705855 -20.403980 51.136795 -0.686101 1.981231 0.014094 -0.005988 -574962.000000 0 0 1
35.519670 -28.604455 -19.996080 49.796637 -0.677972 1.984010 0.016335 -0.000089 50785.100000 0 0 1
36.036130 -27.437555 -20.651480 49.778567 -0.650751 1.998593 0.014395 -0.002519 696439.000000 0 0 1
35.118940 -26.185055 -20.349780 48.302284 -0.640686 2.005675 0.018433 0.001765 807714.000000 0 0 1
33.859120 -26.139155 -20.997780 47.650836 -0.657431 2.027129 0.040252 0.000327 221025.000000 0 0 1
32.977730 -25.250855 -20.296880 46.228776 -0.653470 2.025341 0.059755 -0.005222 234345.000000 0 0 1
31.646470 -25.112955 -21.064780 45.561876 -0.670794 2.051421 0.062836 -0.005107 681607.000000 0 0 1
30.844640 -26.304555 -21.303180 45.794617 -0.706122 2.054645 0.077483 -0.010404 1168590.000000 0 0 1
29.566710 -26.085655 -21.930480 45.117598 -0.722930 2.078388 0.071506 -0.014523 1276920.000000 0 0 1
28.907350 -27.440355 -22.423480 45.732050 -0.759369 2.083257 0.076685 -0.015372 292239.000000 0 0 1
28.448350 -28.322455 -21.398080 45.490086 -0.783181 2.060529 0.084803 -0.021962 -28139.400000 0 0 1
28.248850 -29.545755 -21.981880 46.412845 -0.807834 2.064189 0.079872 -0.026043 87116.000000 0 0 1
27.491250 -30.574955 -21.101780 46.215601 -0.838455 2.044960 0.094566 -0.025917 -173809.000000 0 0 1
28.257650 -31.076455 -20.055780 46.545409 -0.832870 2.016271 0.099802 -0.029092 -251195.000000 0 0 1
29.108050 -32.169855 -20.323980 47.908687 -0.835323 2.008900 0.103384 -0.021691 252376.000000 0 0 1
29.898240 -32.586355 -19.011380 48.137385 -0.828392 1.976799 0.078372 -0.030232 -128991.000000 0 0 1
29.220190 -33.160755 -17.924880 47.694407 -0.848484 1.956086 0.088335 -0.030964 -658637.000000 0 0 1
28.576050 -32.186155 -17.155980 46.334294 -0.844742 1.950091 0.074317 -0.030703 -220054.000000 0 0 1
28.058150 -32.788855 -15.822980 45.964502 -0.862990 1.922229 0.076101 -0.022819 294731.000000 0 0 1
26.675050 -33.108155 -15.925980 45.402038 -0.892593 1.929197 0.081999 -0.019513 279195.000000 0 0 1
26.205550 -33.733055 -14.736980 45.186596 -0.910331 1.903010 0.075741 -0.017528 69906.300000 0 0 1
24.675150 -33.917355 -14.664680 44.433128 -0.941846 1.907142 0.080443 -0.021486 -223077.000000 0 0 1
23.917750 -32.771055 -14.667080 43.140747 -0.940320 1.917694 0.083586 -0.015015 10027.300000 0 0 1
22.544950 -33.147355 -14.614480 42.668547 -0.973522 1.920385 0.081389 -0.022726 237032.000000 0 0 1
-0.315418 -7.085700 -29.091350 29.943502 1.526311 2.902450 0.086553 -0.033377 290657.000000 0 0 1
0.016282 -8.448300 -28.890230 30.100157 -1.568869 2.857097 0.083988 -0.029351 -67727.900000 0 0 1
-0.283218 -9.173500 -30.083590 31.452436 1.539933 2.845483 0.091643 -0.040583 55293.100000 0 0 1
-0.128018 -10.671700 -29.812240 31.664985 1.558801 2.797818 0.091873 -0.028389 249692.000000 0 0 1
1.215982 -10.990700 -29.490320 31.495287 -1.460607 2.782855 0.064305 -0.030228 35307.700000 0 0 1
1.432182 -12.330900 -29.236940 31.763201 -1.455169 2.740067 0.071771 -0.028961 -353575.000000 0 0 1
2.861282 -12.547100 -28.750600 31.499423 -1.346587 2.720723 0.063566 -0.028290 -836485.000000 0 0 1
3.872182 -12.395200 -29.766950 32.476239 -1.268008 2.730229 0.078924 -0.034202 796790.000000 0 0 1
5.169582 -12.416600 -29.157810 32.110348 -1.176280 2.709402 0.074773 -0.039409 872907.000000 0 0 1
5.753182 -13.769700 -28.629860 32.285796 -1.175027 2.661091 0.072983 -0.047343 -1063030.000000 0 0 1
5.181282 -14.172000 -27.428420 31.305104 -1.220292 2.638643 0.065061 -0.038269 -198297.000000 0 0 1
5.834682 -15.293700 -26.886000 31.476941 -1.206332 2.594709 0.062724 -0.038897 -217075.000000 0 0 1
5.482182 -16.702200 -27.341370 32.504897 -1.253645 2.570195 0.046755 -0.039955 -418109.000000 0 0 1
5.845682 -16.999200 -28.681280 33.849086 -1.239584 2.581730 0.064396 -0.044548 43530.000000 0 0 1
5.293282 -18.243700 -28.978390 34.649654 -1.288407 2.561342 0.042961 -0.036445 -433656.000000 0 0 1
5.554882 -18.778500 -30.362280 36.129722 -1.283187 2.568759 0.070135 -0.041345 210999.000000 0 0 1
6.917882 -19.097300 -30.616120 36.741132 -1.223256 2.555834 0.067253 -0.037776 221130.000000 0 0 1
7.070282 -19.785800 -31.843130 38.150383 -1.227596 2.558337 0.069426 -0.033918 1122620.000000 0 0 1
8.584082 -19.883400 -32.306860 38.894335 -1.163247 2.551037 0.096095 -0.038099 1181160.000000 0 0 1
8.987282 -18.657800 -32.844360 38.828298 -1.121903 2.579023 0.092628 -0.039730 -102347.000000 0 0 1
10.292282 -18.619600 -33.377130 39.580973 -1.065832 2.574120 0.102456 -0.039888 -113275.000000 0 0 1
10.662782 -17.155000 -33.760480 39.341568 -1.014678 2.602428 0.093461 -0.033649 4699.230000 0 0 1
9.828082 -16.709600 33.105090 38.363380 -1.039121 0.529748 0.102340 -0.033374 168037.000000 0 0 1
9.902382 -15.332100 32.890074 37.614990 -0.997337 0.506624 0.084329 -0.025482 -98743.500000 0 0 1
8.813782 -14.849900 31.904669 36.278233 -1.035152 0.496104 0.098958 -0.034229 -130572.000000 0 0 1
8.813882 -15.595400 30.718557 35.560242 -1.056389 0.527942 0.099819 -0.037775 -125062.000000 0 0 1
8.116782 -15.020600 29.666457 34.228632 -1.075371 0.522219 0.104013 -0.028977 -534042.000000 0 0 1
8.192782 -15.921700 28.446827 33.613155 -1.095563 0.561795 0.084944 -0.021823 -360858.000000 0 0 1
7.471382 -17.127000 28.603627 34.166112 -1.159449 0.578666 0.100944 -0.027154 371926.000000 0 0 1
7.557882 -17.749700 27.340737 33.461760 -1.168245 0.614479 0.092689 -0.026648 -111140.000000 0 0 1
7.131582 -19.229900 27.257157 34.111598 -1.215661 0.645069 0.095458 -0.031649 67577.900000 0 0 1
7.926082 -19.991300 28.162547 35.434502 -1.193331 0.652155 0.105931 -0.031078 498237.000000 0 0 1
7.166282 -21.016900 28.728987 36.310059 -1.242182 0.658007 0.093077 -0.032647 -320392.000000 0 0 1
7.643282 -21.472300 30.121977 37.773178 -1.228822 0.647750 0.093502 -0.031208 -133881.000000 0 0 1
7.140082 -20.711800 31.234567 38.151771 -1.238820 0.611666 0.095749 -0.032385 156249.000000 0 0 1
7.431482 -19.320600 31.292027 37.519375 -1.203601 0.584436 0.086880 -0.032823 -311396.000000 0 0 1
6.939982 -18.512400 32.509744 38.049386 -1.212128 0.546384 0.090414 -0.032477 375110.000000 0 0 1
5.518582 -18.490400 32.634538 37.912567 -1.280756 0.533988 0.100002 -0.031099 316379.000000 0 0 1
5.056482 -17.538000 33.578189 38.218376 -1.290093 0.497900 0.102061 -0.027065 314621.000000 0 0 1
3.560482 -17.741100 33.915687 38.440831 -1.372736 0.490106 0.091869 -0.028735 248699.000000 0 0 1
3.392582 -18.767800 -33.044160 38.153066 -1.391961 2.618132 0.082896 -0.026345 -891029.000000 0 0 1
2.051882 -18.787100 -32.713570 37.780194 -1.462010 2.617727 0.082520 -0.042405 -910896.000000 0 0 1
1.650782 -19.814500 -31.607680 37.341464 -1.487676 2.580079 0.052661 -0.023588 -754896.000000 0 0 1
0.444082 -20.449500 -31.878370 37.876243 -1.549084 2.571119 0.051966 -0.024756 -391595.000000 0 0 1
-0.060418 -21.267100 -30.816700 37.442786 1.567955 2.537529 0.046857 -0.024542 365044.000000 0 0 1
-0.840718 -20.537100 -29.669240 36.093533 1.529883 2.535728 0.047928 -0.021175 -96164.800000 0 0 1
-2.057518 -19.967100 -30.115170 36.191739 1.468113 2.553681 0.065655 -0.028901 155019.000000 0 0 1
-2.578418 -18.869700 -29.322230 34.964368 1.434994 2.565563 0.090716 -0.023558 -76115.300000 0 0 1
-2.009718 -17.495800 -29.683800 34.514779 1.456429 2.606128 0.073364 -0.022130 -268527.000000 0 0 1
-2.656118 -16.411600 -29.061300 33.480662 1.410344 2.621962 0.079193 -0.030745 -569318.000000 0 0 1
-2.177918 -15.113100 -29.399330 33.128081 1.427674 2.662567 0.082281 -0.025770 -83993.800000 0 0 1
-3.109018 -14.029100 -28.872800 32.250895 1.352709 2.679801 0.077215 -0.021810 166856.000000 0 0 1
-2.978618 -13.762000 -27.471810 30.870134 1.357646 2.667956 0.072996 -0.030147 224074.000000 0 0 1
-4.115818 -12.979100 -27.141270 30.365203 1.263716 2.676607 0.070387 -0.034687 99345.600000 0 0 1
-4.146718 -12.485800 -25.686810 28.860054 1.250143 2.668245 0.062580 -0.040662 -415297.000000 0 0 1
-4.634818 -13.504800 -24.848080 28.658127 1.240194 2.620050 0.068718 -0.041458 97475.100000 0 0 1
-4.737118 -13.108400 -23.485280 27.309867 1.224019 2.605980 0.067314 -0.045200 -586401.000000 0 0 1
-5.805618 -12.099700 -23.045280 26.668200 1.123427 2.614252 0.071499 -0.045697 9618.060000 0 0 1
-7.099018 -12.666700 -23.194180 27.364418 1.059968 2.582249 0.080810 -0.045501 52522.800000 0 0 1
-8.182718 -11.799200 -22.949080 27.070986 0.964448 2.582501 0.067371 -0.039724 -550967.000000 0 0 1
-9.499918 -12.325400 -23.443980 28.138659 0.914141 2.555592 0.076450 -0.034777 -607448.000000 0 0 1
-10.154418 -13.318200 -22.628680 28.152155 0.919377 2.504451 0.065168 -0.037050 -132478.000000 0 0 1
-11.088918 -14.073000 -23.356080 29.436711 0.903442 2.487226 0.051267 -0.030894 -537987.000000 0 0 1
-11.693518 -15.084200 -22.426480 29.448574 0.911351 2.436493 0.056565 -0.034931 -717858.000000 0 0 1
-10.846918 -16.133100 -22.064680 29.407187 0.978877 2.419336 0.053307 -0.033623 -1049340.000000 0 0 1
-11.427918 -17.303100 -21.598080 29.941137 0.987106 2.376548 0.054627 -0.027054 -316601.000000 0 0 1
-12.187818 -18.272500 -22.502380 31.444941 0.982561 2.368296 0.048322 -0.016903 806077.000000 0 0 1
-13.329418 -17.706500 -23.165980 32.060196 0.925507 2.378320 0.039417 -0.015434 386345.000000 0 0 1
-14.062318 -18.660900 -23.917880 33.437150 0.925014 2.367862 0.028146 -0.011721 130149.000000 0 0 1
-15.186218 -18.081200 -24.789580 34.235571 0.872201 2.380508 0.039349 -0.018137 -372613.000000 0 0 1
-16.258618 -17.545800 -24.064480 33.930768 0.823457 2.359192 0.042127 -0.015482 -190171.000000 0 0 1
-17.134318 -16.998500 -25.040510 34.778744 0.781419 2.374591 0.042264 -0.012526 147286.000000 0 0 1
-17.876818 -15.646600 -24.732780 34.294419 0.718969 2.376314 0.042040 -0.011272 382668.000000 0 0 1
-18.707918 -15.875500 -23.582380 34.031550 0.703680 2.336378 0.062200 -0.006622 -50796.600000 0 0 1
-19.467718 -14.736300 -23.346580 33.781850 0.647941 2.333804 0.071003 -0.014311 -160107.000000 0 0 1
-20.323418 -14.786700 -22.070080 33.448113 0.628990 2.291389 0.076473 -0.022138 568817.000000 0 0 1
-19.572718 -14.514200 -20.856980 32.074397 0.638073 2.278735 0.083878 -0.012224 502346.000000 0 0 1
-20.432418 -14.695700 -19.765880 32.002146 0.623519 2.236538 0.085583 -0.014598 258187.000000 0 0 1
-20.989418 -13.424900 -19.035980 31.355258 0.569032 2.223210 0.094090 -0.019133 231671.000000 0 0 1
-22.048118 -12.685900 -19.622980 32.126515 0.522115 2.227871 0.099720 -0.023196 64641.300000 0 0 1
-22.310818 -11.518800 -18.924280 31.441752 0.476593 2.216654 0.108427 -0.022535 1278650.000000 0 0 1
-23.869318 -11.215700 -18.947680 32.473849 0.439262 2.193797 0.106165 -0.014899 1380520.000000 0 0 1
-24.391118 -10.849500 -20.225180 33.491734 0.418533 2.219164 0.102268 -0.016844 -58132.100000 0 0 1
-25.719628 -10.404300 -20.038480 34.224106 0.384403 2.196303 0.094694 -0.014063 57239.000000 0 0 1
-26.355928 -9.675200 -21.209180 35.186273 0.351825 2.217763 0.109904 -0.011817 -124580.000000 0 0 1
-26.561068 -10.428500 -22.365780 36.255649 0.374131 2.235583 0.095739 -0.010205 -49364.400000 0 0 1
-27.092688 -9.604100 -23.336080 37.024656 0.340670 2.252716 0.090072 -0.008012 -148835.000000 0 0 1
-27.118588 -10.206600 -24.713180 38.083248 0.359970 2.276967 0.074178 -0.008003 359233.000000 0 0 1
-25.898708 -9.916900 -25.375310 37.589817 0.365688 2.311840 0.067105 -0.004541 199912.000000 0 0 1
-25.137578 -11.045300 -25.718190 37.620763 0.413999 2.323503 0.058976 -0.001809 -520088.000000 0 0 1
-24.156218 -10.759300 -26.812050 37.658617 0.419026 2.363105 0.066762 -0.018191 -468778.000000 0 0 1
-24.750518 -10.768300 -28.127350 38.983231 0.410372 2.376798 0.058781 -0.008123 399199.000000 0 0 1
-23.801618 -10.735300 -29.203450 39.174038 0.423712 2.412051 0.067948 -0.009708 310291.000000 0 0 1
-24.348918 -11.246500 -30.562130 40.661990 0.432697 2.421302 0.063719 -0.011611 142850.000000 0 0 1
-25.293628 -10.394400 -31.168940 41.464612 0.389910 2.421432 0.055559 -0.018848 210962.000000 0 0 1
-24.612618 -9.471200 -32.003250 41.469177 0.367344 2.452363 0.055305 -0.023553 -807492.000000 0 0 1
-25.464038 -8.351500 -32.610670 42.209248 0.316918 2.453715 0.054264 -0.025589 137834.000000 0 0 1
-26.556738 -8.775200 -33.437820 43.593031 0.319137 2.445019 0.048708 -0.018866 1607080.000000 0 0 1
-27.712988 -9.439000 -32.913640 44.050110 0.328275 2.414615 0.042518 -0.018580 327927.000000 0 0 1
-28.612608 -8.720900 -31.819580 43.671743 0.295847 2.387084 0.033248 -0.015338 150010.000000 0 0 1
-29.995928 -8.834500 -32.130960 44.835284 0.286425 2.369776 0.030445 -0.011735 385769.000000 0 0 1
-30.782728 -8.356000 -31.034070 44.502951 0.265064 2.342488 0.034432 -0.008513 462088.000000 0 0 1
-32.217518 -8.945500 -31.126850 45.682286 0.270837 2.320438 0.031505 -0.009645 157555.000000 0 0 1
-32.353238 -10.346500 -30.967330 45.964743 0.309520 2.310026 0.026809 -0.006925 72991.500000 0 0 1
-33.723138 -10.687700 -30.942140 46.998862 0.306911 2.289433 0.025435 -0.006663 30595.600000 0 0 1
-33.998188 -12.280200 -30.914970 47.564856 0.346619 2.278320 0.032360 -0.009380 -744416.000000 0 0 1
-35.303236 -12.626200 -31.231030 48.796687 0.343474 2.265325 0.018392 -0.010448 -807040.000000 0 0 1
-35.351209 -14.040100 -31.380570 49.310979 0.378056 2.260594 0.017503 -0.016373 250836.000000 0 0 1
-36.685178 -14.716800 -30.994790 50.230106 0.381510 2.235792 0.028161 -0.021896 148062.000000 0 0 1
-36.969428 -14.503700 -29.618820 49.541603 0.373865 2.211622 0.037172 -0.023195 -117243.000000 0 0 1
36.932210 -15.774500 -28.976940 49.522581 -0.403665 2.195832 0.037982 -0.020015 -442.943000 0 0 1
36.967830 -15.778800 -27.422270 48.657701 -0.403416 2.169504 0.056568 -0.014644 -409937.000000 0 0 1
-35.847296 -15.688900 -26.924350 47.498325 0.412544 2.173472 0.060986 -0.028162 -628423.000000 0 0 1
-35.791527 -15.661900 -25.483520 46.644811 0.412483 2.148774 0.073985 -0.031699 234506.000000 0 0 1
-34.511262 -15.046500 -24.807880 45.087197 0.411141 2.153424 0.097324 -0.024379 322299.000000 0 0 1
-33.417858 -15.888200 -25.077610 44.699829 0.443808 2.166417 0.092806 -0.028877 -621783.000000 0 0 1
-32.321188 -15.558000 -24.278180 43.314439 0.448622 2.165798 0.084749 -0.011197 -300786.000000 0 0 1
-31.027478 -16.367300 -24.424180 42.744982 0.485413 2.178998 0.091427 -0.019321 -107581.000000 0 0 1
-30.957158 -17.669200 -23.904880 42.918406 0.518644 2.161547 0.111103 -0.028798 -203714.000000 0 0 1
-31.706838 -18.632600 -24.592280 44.241131 0.531291 2.160205 0.092695 -0.036400 -114681.000000 0 0 1
-31.524848 -19.964300 -23.873080 44.298006 0.564537 2.139951 0.088210 -0.044162 576741.000000 0 0 1
-30.242578 -20.552500 -24.091780 43.788499 0.596895 2.153382 0.091418 -0.041490 369122.000000 0 0 1
-30.166048 -21.810700 -23.379580 43.957956 0.626010 2.131595 0.078655 -0.029080 -321309.000000 0 0 1
-28.825178 -22.551900 -23.549180 43.520604 0.663897 2.142546 0.091268 -0.030819 1064550.000000 0 0 1
-27.638898 -22.031600 -22.881880 42.105588 0.672984 2.145327 0.104464 -0.033244 926285.000000 0 0 1
-27.613888 -21.912500 -21.453280 41.266545 0.670784 2.117496 0.113427 -0.032809 -441276.000000 0 0 1
-27.999408 -23.218600 -20.632780 41.818440 0.692326 2.086779 0.100928 -0.025384 -97552.100000 0 0 1
-27.714928 -23.014100 -19.242180 40.841493 0.692997 2.061382 0.093451 -0.024722 103909.000000 0 0 1
-27.782028 -24.181300 -18.494780 41.214479 0.716215 2.036157 0.075875 0.002284 51740.200000 0 0 1
-27.752798 -24.021200 -16.977480 40.440953 0.713448 2.004031 0.065186 0.001491 337178.000000 0 0 1
-28.947398 -23.449400 -16.479280 40.735647 0.680851 1.987274 0.059712 0.003580 -85545.600000 0 0 1
-28.705578 -22.169300 -15.918580 39.609207 0.657621 1.984377 0.070807 0.008299 -139946.000000 0 0 1
-29.892878 -21.561200 -15.140480 39.845999 0.624867 1.960566 0.053019 0.026826 18722.900000 0 0 1
-30.850668 -21.041100 -16.032780 40.639164 0.598564 1.976337 0.046095 0.024315 538997.000000 0 0 1
-32.005458 -20.506700 -15.330080 40.986406 0.569827 1.954145 0.047563 0.023503 792211.000000 0 0 1
-32.930328 -19.729500 -16.292380 41.702534 0.539778 1.972167 0.056246 0.006987 -404322.000000 0 0 1
-33.732238 -20.566800 -17.073580 43.039102 0.547527 1.978715 0.023258 0.002834 -421000.000000 0 0 1
-34.665712 -19.775300 -17.778980 43.690574 0.518413 1.989886 0.034174 0.004136 -88535.300000 0 0 1
-35.402008 -20.612500 -18.831280 45.086522 0.527259 2.001676 0.031158 -0.003795 379686.000000 0 0 1
-36.429018 -21.516500 -18.390280 46.132804 0.533510 1.980827 0.028912 -0.006655 256401.000000 0 0 1
-36.049494 -22.523100 -17.462680 45.954339 0.558443 1.960593 0.033807 -0.000543 -869370.000000 0 0 1
37.054740 -23.644100 -17.388880 47.270185 -0.567954 1.947505 0.032821 0.005699 -382580.000000 0 0 1
35.754670 -23.248200 -17.031480 45.923268 -0.576526 1.950740 0.031694 -0.004288 16149.600000 0 0 1
34.893710 -24.377800 -16.898380 45.797417 -0.609806 1.948709 0.033215 -0.007651 -147810.000000 0 0 1
33.501820 -24.089700 -16.356080 44.387013 -0.623401 1.948178 0.034901 -0.014967 -574007.000000 0 0 1
32.498730 -23.802800 -17.277680 43.832168 -0.632156 1.975970 0.040045 -0.019367 -444949.000000 0 0 1
31.271210 -24.309800 -16.824780 43.034035 -0.660799 1.972476 0.047347 -0.016853 530211.000000 0 0 1
30.026410 -24.108800 -17.757380 42.404529 -0.676519 2.002877 0.062021 -0.022312 557624.000000 0 0 1
29.619820 -22.797400 -17.967880 41.471676 -0.655970 2.018899 0.063934 -0.024662 -480106.000000 0 0 1
28.351250 -22.694300 -18.524280 40.767310 -0.675027 2.042484 0.079617 -0.035010 -587692.000000 0 0 1
35.368690 29.183000 -18.663480 49.506739 0.689864 1.957339 0.061773 -0.028528 580268.000000 0 0 1
34.366440 29.540900 -19.639080 49.390388 0.710033 1.979728 0.069173 -0.040690 431200.000000 0 0 1
34.426670 28.764000 -20.805280 49.451218 0.696024 2.005039 0.081037 -0.037226 -75669.900000 0 0 1
33.334550 29.088800 -21.844780 49.341108 0.717487 2.029437 0.085337 -0.034448 -134129.000000 0 0 1
32.087170 28.484600 -21.564480 48.020680 0.725992 2.036517 0.081167 -0.026684 41912.000000 0 0 1
31.108790 28.453100 -22.568280 47.819065 0.740841 2.062299 0.115873 -0.017446 445621.000000 0 0 1
30.203610 29.732800 -22.609480 48.036299 0.777543 2.060852 0.104549 -0.017665 59880.500000 0 0 1
30.989460 30.912900 -22.797780 49.352739 0.784161 2.050973 0.114919 -0.035094 41180.300000 0 0 1
30.116280 32.001200 -22.885780 49.546201 0.815733 2.050941 0.103971 -0.029788 -152463.000000 0 0 1
30.905510 33.302100 -22.670680 50.775389 0.822706 2.033635 0.084029 -0.028721 326928.000000 0 0 1
31.375000 33.484500 -21.356280 50.613171 0.817911 2.006393 0.080014 -0.031290 167828.000000 0 0 1
32.678000 32.971600 -21.102180 50.992942 0.789870 1.997449 0.074348 -0.031698 -89789.700000 0 0 1
32.999480 32.910800 -19.632980 50.572130 0.784053 1.969493 0.059934 -0.034983 -339958.000000 0 0 1
33.140210 -33.938355 -19.057980 51.120368 -0.797296 1.952828 0.066373 -0.035865 111375.000000 0 0 1
33.395850 34.031300 -17.668580 50.848706 0.794822 1.925672 0.049434 -0.037544 -138789.000000 0 0 1
33.354970 -32.725755 -16.885680 49.685564 -0.775877 1.917555 0.048799 -0.022955 283658.000000 0 0 1
34.529010 -31.966655 -17.106080 50.067330 -0.746883 1.919481 0.041847 -0.018419 -288083.000000 0 0 1
35.469940 -31.981055 -16.082780 50.394050 -0.733719 1.895619 0.036201 -0.014887 -323454.000000 0 0 1
36.708060 -31.156055 -16.501680 50.896826 -0.703769 1.900982 0.023499 -0.008288 -538479.000000 0 0 1
-36.595658 -31.832455 -17.401580 51.530208 0.715901 1.915265 0.030486 -0.014415 -751661.000000 0 0 1
-35.371961 -31.119655 -17.454280 50.242019 0.721533 1.925598 0.020410 -0.001970 -314551.000000 0 0 1
-34.443128 -31.772955 -18.441780 50.358207 0.745095 1.945731 0.028151 -0.009042 -1339720.000000 0 0 1
-33.919208 -33.041955 -18.059180 50.679557 0.772298 1.935145 0.025789 -0.017755 -56666.300000 0 0 1
-32.845278 -33.542355 -18.790180 50.566518 0.795898 1.951521 0.026702 -0.009458 623408.000000 0 0 1
-31.522258 -32.717855 -19.023780 49.254594 0.804007 1.967341 0.032244 -0.012022 -643582.000000 0 0 1
-31.623468 -31.617055 -19.962080 48.971079 0.785297 1.990653 0.029575 -0.001911 421460.000000 0 0 1
-30.433048 -30.939955 -20.423380 47.964213 0.793657 2.010647 0.044533 0.000873 640518.000000 0 0 1
-29.447228 -31.825055 -21.203480 48.265525 0.824186 2.025626 0.043218 0.004858 -515270.000000 0 0 1
-30.068078 -32.362355 -22.342780 49.503648 0.822131 2.039058 0.037943 0.008318 -213990.000000 0 0 1
-29.565298 -33.612055 -22.836680 50.253269 0.849365 2.042530 0.032061 0.008882 -307887.000000 0 0 1
-30.300938 33.964800 -24.095080 51.500751 -0.842348 2.057663 0.021054 0.001281 -127000.000000 0 0 1
-31.457788 33.235800 -23.683080 51.527654 -0.812875 2.048362 0.016192 -0.007330 36254.800000 0 0 1
-32.164998 32.566100 -24.691380 52.007713 -0.791595 2.065492 0.014910 -0.006237 89356.100000 0 0 1
-33.029368 33.332900 -25.681480 53.493549 -0.789972 2.071549 0.019981 -0.013235 -714660.000000 0 0 1
-32.301668 -34.014355 -26.623640 53.936929 0.811219 2.087029 0.013686 -0.021810 -280584.000000 0 0 1
-33.198298 -33.235055 -27.378380 54.371606 0.785951 2.098490 0.015469 -0.024300 223164.000000 0 0 1
-32.533298 -32.526555 -28.576100 54.157047 0.785295 2.126631 0.017473 -0.021945 18095.600000 0 0 1
-32.327538 -33.242655 -29.808030 55.124065 0.799354 2.142118 0.023007 -0.012756 436226.000000 0 0 1
-33.522028 -33.499755 -30.553730 56.386970 0.785066 2.143443 0.028922 -0.013966 -275735.000000 0 0 1
-33.333098 33.650300 -31.781780 57.039633 -0.790134 2.161791 0.045920 -0.013473 950093.000000 0 0 1
-32.415988 -33.795955 -32.781060 57.162582 0.806237 2.181532 0.038855 -0.018861 862437.000000 0 0 1
-32.393078 33.509000 33.920887 57.643657 -0.802330 0.941646 0.031407 -0.026770 -1300760.000000 0 0 1
-31.379788 34.001000 32.911226 56.779467 -0.825468 0.952519 0.034396 -0.023125 184767.000000 0 0 1
-30.072518 33.450800 33.061757 55.824656 -0.838530 0.936957 0.026599 -0.014577 137655.000000 0 0 1
-29.980208 32.098700 32.799106 54.817158 -0.819511 0.929373 0.032940 -0.024456 -1499170.000000 0 0 1
-28.543918 31.613600 32.858279 53.794437 -0.836381 0.913711 0.035096 -0.018574 -666696.000000 0 0 1
-28.055828 31.327500 -33.770740 53.935189 -0.840437 2.247383 0.041475 -0.024101 1331050.000000 0 0 1
-26.706738 30.777800 -33.698830 52.878483 -0.856100 2.261770 0.051852 -0.014723 867707.000000 0 0 1
-26.315178 29.374800 33.750089 51.907957 -0.840283 0.862960 0.069870 -0.023544 -374181.000000 0 0 1
-26.592778 28.398000 -33.226310 51.162584 -0.818214 2.277626 0.072248 -0.020797 286956.000000 0 0 1
-26.110318 27.132600 -33.714170 50.542774 -0.804596 2.301028 0.071840 -0.020496 66444.000000 0 0 1
-25.933068 26.142700 -32.495870 49.111571 -0.789424 2.293846 0.091272 -0.029417 177969.000000 0 0 1
-24.836518 26.388600 -31.623000 48.095998 -0.815688 2.288289 0.085879 -0.021523 197502.000000 0 0 1
-25.007718 27.554100 -30.756600 48.276111 -0.833806 2.261523 0.064327 -0.016355 763605.000000 0 0 1
-23.799918 27.604600 -29.724150 47.031640 -0.859278 2.254932 0.082640 -0.011101 107762.000000 0 0 1
-22.574018 27.775800 -30.364370 46.936940 -0.888346 2.274333 0.075999 -0.013862 -551017.000000 0 0 1
-21.473918 27.852400 -29.466660 45.882125 -0.913996 2.268194 0.046108 -0.011637 243765.000000 0 0 1
-21.266318 29.082600 -28.618060 46.011382 -0.939411 2.242062 0.037647 -0.000707 -814728.000000 0 0 1
-20.923418 30.244000 -29.392990 47.079049 -0.965581 2.245073 0.035415 0.005905 63402.500000 0 0 1
-20.670818 31.283500 -28.440160 47.061479 -0.986896 2.219708 0.047799 0.000174 -174904.000000 0 0 1
-20.208818 32.586200 -29.174770 48.181158 -1.015681 2.221218 0.060879 0.000563 603856.000000 0 0 1
-18.906718 32.517800 -29.763330 47.965896 -1.044146 2.240190 0.081078 -0.007152 116214.000000 0 0 1
-18.714418 33.772400 -30.395200 49.139319 -1.064785 2.237694 0.089890 -0.003399 -758217.000000 0 0 1
-17.294018 33.944800 -30.882610 49.041494 -1.099598 2.251994 0.106709 -0.005141 -824259.000000 0 0 1
-16.388418 -33.869555 -29.800690 47.998001 1.120137 2.240653 0.133063 -0.008539 -164817.000000 0 0 1
-15.103518 -33.533855 -30.279050 47.638814 1.147613 2.259577 0.139146 -0.010317 690521.000000 0 0 1
-14.122518 33.292400 -30.396160 47.241465 -1.169606 2.269755 0.145730 -0.018843 146657.000000 0 0 1
-13.936918 32.630000 -29.150500 45.920652 -1.167132 2.258548 0.158222 -0.027830 -71988.500000 0 0 1
-13.144918 31.455100 -29.349210 44.984312 -1.174959 2.281586 0.140769 -0.027087 344179.000000 0 0 1
-12.869118 30.804600 -27.997680 43.570720 -1.175069 2.268657 0.127117 -0.032474 -152259.000000 0 0 1
-12.063918 31.505900 -27.094110 43.269512 -1.205109 2.247429 0.133894 -0.030967 -418428.000000 0 0 1
-11.969718 30.875100 -25.823350 41.992754 -1.200954 2.233116 0.119436 -0.030898 177866.000000 0 0 1
-10.671518 31.218600 -25.055400 41.427713 -1.241417 2.220309 0.118844 -0.033775 48687.000000 0 0 1
-9.496618 30.723800 -25.626690 41.120128 -1.271015 2.243644 0.115045 -0.027742 -1379340.000000 0 0 1
-8.414418 31.017800 -24.847280 40.623807 -1.305895 2.228932 0.109828 -0.027041 -1360270.000000 0 0 1
-7.092718 30.488500 -25.365770 40.289919 -1.342226 2.251810 0.076532 -0.025061 -631068.000000 0 0 1
-6.894318 29.105200 -25.068550 39.026613 -1.338207 2.268350 0.085440 -0.038047 -472995.000000 0 0 1
-5.638618 28.665200 -25.477900 38.763528 -1.376570 2.287980 0.086814 -0.048148 -441632.000000 0 0 1
-5.190318 27.343500 -24.821280 37.292122 -1.383209 2.299081 0.096184 -0.034826 217554.000000 0 0 1
-5.983518 26.229000 -25.246530 36.893769 -1.346508 2.324444 0.112829 -0.035015 660348.000000 0 0 1
-5.496418 25.070500 -24.557080 35.521694 -1.354972 2.334119 0.117397 -0.049440 -153427.000000 0 0 1
-6.554718 23.942500 -24.564080 34.922796 -1.303575 2.350941 0.109906 -0.049427 -106191.000000 0 0 1
-6.629918 23.169900 -25.691260 35.225572 -1.292100 2.388147 0.109803 -0.045087 63769.600000 0 0 1
-7.425718 22.020900 -25.580580 34.560489 -1.245559 2.404117 0.100500 -0.049887 -408136.000000 0 0 1
-7.161918 21.064400 -26.779510 34.815861 -1.243057 2.448346 0.077407 -0.038241 415178.000000 0 0 1
-5.898318 20.394700 -26.748530 34.149931 -1.289269 2.470701 0.089996 -0.051397 68371.900000 0 0 1
-5.808818 19.278300 -25.799560 32.726328 -1.278135 2.478907 0.084511 -0.040876 463890.000000 0 0 1
-4.516418 18.421500 -26.010160 32.191274 -1.330368 2.511525 0.087619 -0.048971 258659.000000 0 0 1
-4.608318 17.819200 -27.276940 32.905804 -1.317726 2.548006 0.082158 -0.048064 -141949.000000 0 0 1
-3.488218 17.030900 -27.595420 32.614819 -1.368773 2.579423 0.084893 -0.042365 -277777.000000 0 0 1
-3.298118 16.764100 -29.144070 33.782976 -1.376540 2.611351 0.082270 -0.035976 21053.400000 0 0 1
-2.708718 17.857400 -29.862810 34.900019 -1.420258 2.597635 0.094864 -0.040803 214657.000000 0 0 1
-2.463218 17.601100 -31.258980 35.958170 -1.431753 2.624611 0.097899 -0.043810 -28121.900000 0 0 1
-1.511618 18.739300 -31.775660 36.920712 -1.490305 2.607333 0.108560 -0.040434 378565.000000 0 0 1
-0.238618 18.703300 -31.129440 36.316834 -1.558039 2.600532 0.140999 -0.045939 137888.000000 0 0 1
0.608682 19.720500 -31.635750 37.283901 1.539941 2.583959 0.154735 -0.032810 277748.000000 0 0 1
0.526982 21.042300 -30.833040 37.332727 1.545758 2.542590 0.145796 -0.040142 -48927.300000 0 0 1
1.287482 20.993400 -29.649860 36.352368 1.509545 2.524603 0.167191 -0.062148 -358851.000000 0 0 1
0.977582 22.069200 -28.847860 36.334616 1.526529 2.488075 0.164151 -0.070098 -476645.000000 0 0 1
2.003182 22.371000 -27.787260 35.729626 1.481491 2.461810 0.169306 -0.069560 -1018740.000000 0 0 1
3.209482 22.703400 -28.379530 36.484831 1.430361 2.462025 0.156152 -0.066871 -894759.000000 0 0 1
4.284682 22.754800 -27.458920 35.918404 1.384678 2.441031 0.137601 -0.063986 168958.000000 0 0 1
4.950082 24.106800 -27.153640 36.646436 1.368272 2.405299 0.136737 -0.055700 -114768.000000 0 0 1
5.691982 24.657500 -28.211060 37.897953 1.343929 2.410425 0.123746 -0.058750 105226.000000 0 0 1
6.240082 25.937900 -27.961390 38.646508 1.334705 2.379679 0.112819 -0.058923 17227.300000 0 0 1
6.966182 26.573300 -29.166250 40.066671 1.314416 2.386113 0.121979 -0.059290 -706960.000000 0 0 1
8.279182 26.196100 -29.374850 40.220173 1.264684 2.389632 0.103534 -0.055506 -173693.000000 0 0 1
9.046482 27.055700 -30.272250 41.596380 1.248117 2.385849 0.102334 -0.051913 521437.000000 0 0 1
10.572682 26.827100 -30.190040 41.748215 1.195383 2.379142 0.098938 -0.050767 141288.000000 0 0 1
11.285882 27.973800 -30.645240 43.000411 1.187324 2.364098 0.107540 -0.044932 84769.600000 0 0 1
12.488182 28.165300 -29.909790 42.939892 1.153454 2.341374 0.091492 -0.036483 -161893.000000 0 0 1
13.309482 29.222700 -30.644360 44.386770 1.143419 2.332830 0.102619 -0.030085 -561603.000000 0 0 1
12.791282 30.510000 -30.528530 45.016310 1.173807 2.316061 0.111567 -0.025464 444248.000000 0 0 1
13.516282 31.311000 -31.455580 46.395281 1.163283 2.315822 0.141731 -0.038239 298191.000000 0 0 1
12.871182 32.717800 -31.502530 47.207321 1.195993 2.301405 0.145343 -0.043941 97104.300000 0 0 1
11.922782 32.768000 -32.555100 47.704602 1.221833 2.321880 0.125668 -0.041479 137938.000000 0 0 1
11.168282 33.966100 -32.344050 48.213733 1.253125 2.306147 0.113240 -0.026492 148151.000000 0 0 1
10.078682 -33.877055 -33.421510 48.643931 -1.281628 2.328237 0.084826 -0.020378 308259.000000 0 0 1
10.606882 -33.237955 33.323936 48.246785 -1.261892 0.808343 0.074824 -0.010591 306886.000000 0 0 1
9.615482 -33.126655 32.323959 47.272308 -1.288295 0.817863 0.066781 -0.019970 64821.300000 0 0 1
9.856882 -32.048655 31.228027 45.819909 -1.272418 0.820933 0.070186 -0.021841 -193208.000000 0 0 1
9.587782 -30.767355 31.669787 45.183306 -1.268712 0.794113 0.054231 -0.022547 -67044.700000 0 0 1
9.749782 -29.765755 30.678577 43.843283 -1.254260 0.795773 0.086448 -0.033622 -603414.000000 0 0 1
9.117282 -28.388155 31.021887 43.027545 -1.260037 0.765585 0.083164 -0.041686 748830.000000 0 0 1
7.706282 -28.304755 30.732607 42.485751 -1.304978 0.762136 0.050801 -0.034477 576012.000000 0 0 1
6.988182 -28.654955 31.896207 43.443172 -1.331592 0.746301 0.045806 -0.018666 -876237.000000 0 0 1
5.468982 -28.584955 31.650667 42.997374 -1.381757 0.743496 0.058446 -0.018228 -280136.000000 0 0 1
4.949282 -29.758355 30.995017 43.252123 -1.405989 0.771863 0.063497 -0.018988 175979.000000 0 0 1
5.357282 -30.069555 29.626257 42.551072 -1.394483 0.800634 0.058412 -0.027930 -221699.000000 0 0 1
4.750582 -29.090655 28.512017 41.009381 -1.408922 0.802020 0.055480 -0.033479 634144.000000 0 0 1
3.349582 -29.315355 28.336557 40.909292 -1.457029 0.805615 0.082066 -0.033956 583097.000000 0 0 1
2.792682 -28.402055 27.414887 39.573373 -1.472785 0.805486 0.095259 -0.034182 847139.000000 0 0 1
1.317382 -28.796755 26.994437 39.492888 -1.525081 0.818213 0.100617 -0.028322 916314.000000 0 0 1
1.181682 -29.982455 26.254297 39.870191 -1.531404 0.851980 0.108012 -0.035256 -4607.920000 0 0 1
0.836282 -31.038455 27.139127 41.238541 -1.543859 0.852502 0.119186 -0.040790 -647087.000000 0 0 1
1.254882 -32.444355 26.628917 41.991786 -1.532138 0.883893 0.111706 -0.043760 -616821.000000 0 0 1
2.620682 -32.637555 26.471977 42.105149 -1.490672 0.890902 0.085182 -0.036701 -534149.000000 0 0 1
3.302782 -32.031455 25.383497 41.002980 -1.468049 0.903245 0.076621 -0.044954 -1111070.000000 0 0 1
4.799582 -32.241755 25.540557 41.411192 -1.423019 0.906183 0.078636 -0.039267 -580067.000000 0 0 1
5.513882 -31.829555 24.391307 40.477887 -1.399267 0.924062 0.064751 -0.051992 1036570.000000 0 0 1
6.915882 -31.615755 24.642717 40.677376 -1.355441 0.920014 0.059581 -0.042327 709207.000000 0 0 1
7.809082 -31.290955 23.430137 39.863228 -1.326228 0.942505 0.051674 -0.030224 397509.000000 0 0 1
9.023182 -30.652155 23.840667 39.866650 -1.284509 0.929780 0.031870 -0.009614 306767.000000 0 0 1
9.881482 -30.450555 22.769267 39.285105 -1.257009 0.952570 0.024063 -0.001717 501178.000000 0 0 1
11.140382 -29.526255 22.964677 39.029274 -1.210007 0.941722 0.014005 0.001452 1929620.000000 0 0 1
12.347982 -30.174555 23.452297 40.162005 -1.182368 0.947220 0.026618 -0.002542 1517950.000000 0 0 1
13.515582 -29.383055 23.208047 39.807641 -1.139675 0.948374 0.043700 -0.008203 1023780.000000 0 0 1
14.665482 -29.511155 24.262577 40.922576 -1.109594 0.936154 0.052784 -0.004576 227800.000000 0 0 1
14.268582 -29.139855 25.570337 41.310600 -1.115456 0.903356 0.050333 -0.007111 -32054.700000 0 0 1
15.390782 -28.740755 26.294957 41.884746 -1.079151 0.892082 0.047207 -0.015032 -390682.000000 0 0 1
-11.527218 -14.266400 26.019777 31.834506 0.891198 0.614008 0.076046 -0.030148 -972331.000000 0 0 1
-10.224418 -13.913700 25.705157 30.965867 0.937065 0.591487 0.078757 -0.029103 -1271020.000000 0 0 1
-9.427918 -14.206300 26.815797 31.777218 0.984890 0.566343 0.078604 -0.032002 -146351.000000 0 0 1
-7.922518 -13.922700 26.577367 31.031667 1.053456 0.542425 0.099813 -0.031185 366555.000000 0 0 1
-7.234618 -14.764600 25.667277 30.481835 1.115183 0.569721 0.094956 -0.039007 101852.000000 0 0 1
-7.438018 -14.349100 24.360417 29.234410 1.092568 0.585784 0.090681 -0.033236 -447364.000000 0 0 1
-6.766218 -15.406700 23.361487 28.790749 1.156982 0.624213 0.090827 -0.042475 400337.000000 0 0 1
-7.406218 -16.662400 23.230107 29.531772 1.152537 0.665490 0.086082 -0.036356 -311543.000000 0 0 1
-7.403418 -17.586400 24.327967 30.918313 1.172341 0.665114 0.094648 -0.034111 -94971.600000 0 0 1
-7.921318 -19.016700 24.020167 31.644124 1.176109 0.708910 0.098734 -0.036791 404271.000000 0 0 1
-9.314318 -19.110100 23.745667 31.871761 1.117277 0.730205 0.078137 -0.029478 111916.000000 0 0 1
-9.702518 -20.460500 23.456907 32.603641 1.127995 0.767777 0.074740 -0.027635 -224397.000000 0 0 1
-11.228418 -20.557800 23.288457 33.031088 1.070885 0.788307 0.056158 -0.023399 -258724.000000 0 0 1
-11.811818 -20.424900 24.599827 34.085878 1.046482 0.764539 0.059197 -0.020880 -491515.000000 0 0 1
-13.164818 -20.770700 24.438907 34.669794 1.005882 0.788507 0.078315 -0.021846 -354019.000000 0 0 1
-13.767118 -20.952000 25.888217 36.037753 0.989461 0.769349 0.088144 -0.036401 -703277.000000 0 0 1
-13.326718 -22.055400 26.675927 37.089718 1.027266 0.768107 0.092750 -0.024836 565682.000000 0 0 1
-12.394118 -21.695500 27.723707 37.321748 1.051765 0.733509 0.092026 -0.024851 705896.000000 0 0 1
-11.739118 -22.867100 28.509177 38.385992 1.096516 0.733707 0.083008 -0.016986 476865.000000 0 0 1
-12.720518 -23.520700 29.345477 39.701284 1.075027 0.738979 0.090237 -0.017276 512834.000000 0 0 1
-12.182018 -24.663500 30.053007 40.741540 1.112017 0.741213 0.068515 -0.006783 286067.000000 0 0 1
-13.155418 -25.517100 30.949797 42.214659 1.094784 0.747850 0.079776 -0.019476 334234.000000 0 0 1
-13.434418 -24.932500 32.227357 42.903563 1.076568 0.720982 0.056416 -0.015445 -636178.000000 0 0 1
-14.606618 -25.434890 32.769510 43.978719 1.049507 0.730079 0.074422 -0.018196 -594749.000000 0 0 1
-14.726218 -25.006700 -33.636060 44.425006 1.038585 2.429724 0.071468 -0.018094 134490.000000 0 0 1
-14.788018 -23.572700 -33.409420 43.480421 1.010519 2.447100 0.066496 -0.022066 -299546.000000 0 0 1
-16.017318 -22.984700 -33.759780 43.869963 0.962175 2.448920 0.067366 -0.025028 -960990.000000 0 0 1
-16.077918 -21.515300 -33.436220 42.888092 0.929039 2.464848 0.050415 -0.013635 -57543.800000 0 0 1
-16.282618 -21.182000 -32.088060 41.754573 0.915434 2.447278 0.048486 -0.009367 121463.000000 0 0 1
-16.381218 -19.798700 -31.875810 40.943866 0.879577 2.463108 0.042098 -0.013502 -230965.000000 0 0 1
-16.495018 -19.413900 -30.394100 39.658372 0.866506 2.444011 0.041508 -0.007191 -553086.000000 0 0 1
-17.707218 -19.684500 -29.768160 39.839283 0.838229 2.414645 0.050732 -0.007617 -501849.000000 0 0 1
-17.791118 -19.375300 -28.380250 38.695798 0.827996 2.394135 0.033084 -0.001343 -52077.300000 0 0 1
-17.000118 -20.291300 -27.401210 38.099438 0.873426 2.373450 0.022207 -0.003423 250996.000000 0 0 1
-15.591518 -20.170300 -27.491840 37.493169 0.912741 2.393885 0.018408 -0.005117 74544.300000 0 0 1
-14.927318 -21.246600 -26.864100 37.362049 0.958345 2.373189 0.013913 -0.012129 356717.000000 0 0 1
-13.388918 -21.308100 -27.002640 36.911256 1.009793 2.391397 0.077440 -0.011580 -314528.000000 0 0 1
-12.742818 -20.247000 -26.379610 35.611856 1.009062 2.404988 0.077328 -0.018832 -141084.000000 0 0 1
-11.336018 -20.239600 -26.478400 35.203017 1.060239 2.422134 0.056760 -0.032588 281463.000000 0 0 1
-10.564118 -21.170700 -25.498040 34.784324 1.107951 2.393566 0.095402 -0.033435 -494786.000000 0 0 1
-10.524518 -22.495600 -25.966540 35.931584 1.133200 2.378448 0.100630 -0.027430 85788.300000 0 0 1
-10.131418 -23.360300 -24.912780 35.622969 1.161578 2.345278 0.132509 -0.022823 92846.700000 0 0 1
-10.195618 -24.871000 -25.230050 36.865604 1.181750 2.324548 0.125030 -0.021925 275482.000000 0 0 1
-9.206318 -25.171100 -26.216810 37.492156 1.220160 2.345160 0.124333 -0.022509 417799.000000 0 0 1
-9.663618 -26.252280 -27.043170 38.908878 1.218083 2.339270 0.115273 -0.017819 153643.000000 0 0 1
-9.416318 -27.684100 -26.538750 39.489008 1.242937 2.307776 0.129973 -0.013711 -66813.500000 0 0 1
-10.241818 -27.911400 -25.408110 39.108991 1.219110 2.277952 0.113945 -0.023020 184851.000000 0 0 1
-9.938618 -29.127700 -24.781480 39.513552 1.241975 2.248703 0.137991 -0.022528 112257.000000 0 0 1
-10.795918 -29.377870 -23.485180 39.130101 1.218631 2.214525 0.149476 -0.027711 226501.000000 0 0 1
-10.845918 -28.342770 -22.494580 37.775028 1.205319 2.208669 0.121533 -0.035663 425700.000000 0 0 1
-11.860718 -27.320830 -22.640580 37.412568 1.161220 2.220763 0.115722 -0.034180 484156.000000 0 0 1
-11.683718 -26.258320 -21.518380 35.903333 1.152147 2.213475 0.127472 -0.040183 11967.100000 0 0 1
-12.147018 -26.644440 -20.248780 35.601817 1.143052 2.175790 0.098783 -0.033157 65209.500000 0 0 1
-12.199918 -25.522720 -19.396480 34.299719 1.124901 2.171835 0.088682 -0.028916 -123729.000000 0 0 1
-12.913218 -25.788550 -18.052280 34.024776 1.106561 2.130061 0.115614 -0.031624 733719.000000 0 0 1
-14.343618 -25.789740 -18.126680 34.632739 1.063224 2.121629 0.137410 -0.036423 568287.000000 0 0 1
-14.866718 -26.374900 -16.929380 34.688018 1.057519 2.080647 0.135264 -0.033230 1067490.000000 0 0 1
-16.434718 -26.550150 -16.872480 35.492126 1.016518 2.066200 0.152244 -0.040510 161364.000000 0 0 1
-17.144018 -25.313020 -16.768680 34.869112 0.975482 2.072481 0.138793 -0.031410 807559.000000 0 0 1
-18.538518 -25.381620 -16.447080 35.474072 0.939963 2.052892 0.142795 -0.029882 589683.000000 0 0 1
-19.472118 -26.055440 -17.465080 36.919891 0.929004 2.063550 0.134852 -0.026399 -1164480.000000 0 0 1
-19.269618 -27.460970 -17.624980 37.895422 0.958924 2.054539 0.140478 -0.031862 10642.700000 0 0 1
-19.620318 -28.267010 -16.448280 38.138257 0.964037 2.016708 0.135005 -0.036796 -523274.000000 0 0 1
-21.105718 -28.657780 -16.318480 39.153704 0.936008 2.000696 0.119224 -0.028998 -134412.000000 0 0 1
-21.574118 -29.340370 -17.421680 40.370965 0.936767 2.016995 0.098609 -0.022260 683017.000000 0 0 1
-22.960718 -29.695830 -17.210280 41.294439 0.912614 2.000685 0.082274 -0.013489 1030650.000000 0 0 1
-23.439518 -30.797690 -18.178980 42.759608 0.920241 2.009917 0.053379 -0.011235 -213792.000000 0 0 1
-22.975818 -32.103280 -17.992080 43.384603 0.949621 1.998422 0.054661 -0.021286 -56276.800000 0 0 1
-23.491918 -33.050240 -18.914280 44.743029 0.952863 2.007253 0.038388 0.011722 -741231.000000 0 0 1
-22.799118 33.725936 -18.799780 44.840499 -0.976352 2.003425 0.026758 0.003844 -593798.000000 0 0 1
-23.418418 32.744920 -18.033680 44.111968 -0.949957 1.991953 0.028574 0.000040 -185088.000000 0 0 1
-22.607818 31.597114 -18.043680 42.837664 -0.949742 2.005576 0.028179 -0.006307 -279172.000000 0 0 1
-23.379218 30.335484 -17.720780 42.200184 -0.914185 2.004156 0.039545 -0.016189 -284203.000000 0 0 1
-23.893118 30.357774 -16.402280 41.970351 -0.904001 1.972304 0.036523 -0.023577 -4205.490000 0 0 1
-24.591218 29.164064 -16.118080 41.413321 -0.870262 1.970560 0.035204 -0.019913 48959.500000 0 0 1
-23.694118 27.904664 -15.840480 39.887371 -0.866819 1.979184 0.048185 -0.025761 205747.000000 0 0 1
-23.335418 27.323014 -17.101180 39.793708 -0.863952 2.015008 0.023526 -0.012169 -74251.200000 0 0 1
-22.436518 26.257354 -16.964580 38.479124 -0.863704 2.027372 0.035081 -0.011894 -210253.000000 0 0 1
-21.826518 25.778244 -18.268280 38.401105 -0.868219 2.066582 0.031630 -0.008944 -1321460.000000 0 0 1
-21.472618 24.422594 -18.109680 37.222264 -0.849586 2.078908 0.046636 -0.017961 138311.000000 0 0 1
-20.668618 23.887304 -19.156680 36.942841 -0.857512 2.115950 0.045761 -0.009078 -152443.000000 0 0 1
-19.251418 24.463114 -19.200180 36.574691 -0.904059 2.123462 0.036521 -0.007073 -1951820.000000 0 0 1
-18.369118 23.941874 -18.232680 35.257176 -0.916354 2.114295 0.055039 -0.018147 920507.000000 0 0 1
-17.226218 24.841264 -18.089480 35.228686 -0.964479 2.110040 0.075575 -0.027174 598398.000000 0 0 1
-17.413418 26.103944 -17.143280 35.756609 -0.982508 2.070817 0.085198 -0.043314 -149589.000000 0 0 1
-18.368918 27.053684 -17.620380 37.145616 -0.974317 2.065033 0.060234 -0.033467 307930.000000 0 0 1
-18.266218 28.270334 -16.895080 37.660460 -0.997149 2.036012 0.085264 -0.046658 28547.800000 0 0 1
-19.450418 29.222944 -17.215280 39.098147 -0.983541 2.026740 0.080772 -0.032373 22229.700000 0 0 1
-19.540418 29.912344 -18.448380 40.210932 -0.992136 2.047429 0.085296 -0.031278 183996.000000 0 0 1
-20.020518 29.090654 -19.523080 40.351431 -0.968026 2.075818 0.045852 -0.023718 -271945.000000 0 0 1
-20.075518 29.771124 -20.888480 41.541243 -0.977508 2.097674 0.048249 -0.022891 35705.200000 0 0 1
-21.162318 30.641884 -21.102280 42.802746 -0.966384 2.086345 0.049977 -0.014228 66656.400000 0 0 1
-21.309318 30.857664 -22.517180 43.741352 -0.966429 2.111548 0.054369 -0.014665 274365.000000 0 0 1
-22.013918 32.175086 -23.001580 45.265014 -0.970759 2.103836 0.051045 -0.007482 28281.000000 0 0 1
-21.244918 33.345252 -22.653780 45.568039 -1.003529 2.091098 0.032770 -0.003658 289102.000000 0 0 1
-21.609518 -33.501540 -23.250080 46.150739 0.997922 2.098772 0.054270 0.007348 -330185.000000 0 0 1
-20.400918 -32.522860 -23.320980 44.919951 1.010560 2.116673 0.068390 0.006955 272715.000000 0 0 1
-20.241918 -31.642900 -22.237080 43.651989 1.001697 2.105304 0.075433 -0.001834 314004.000000 0 0 1
-19.629818 -32.321140 -21.114080 43.310394 1.025000 2.080027 0.088077 -0.017282 -242471.000000 0 0 1
-19.229418 -31.362650 -19.998580 41.872778 1.020777 2.068721 0.114832 -0.030465 -581998.000000 0 0 1
-18.157918 -30.548860 -20.309880 40.932067 1.034512 2.089996 0.138168 -0.032992 -622317.000000 0 0 1
-17.632118 -30.010470 -19.151080 39.727620 1.039595 2.073800 0.137024 -0.037402 -431687.000000 0 0 1
-16.344318 -29.204370 -19.303280 38.634811 1.060572 2.093973 0.156661 -0.038606 62002.700000 0 0 1
-15.216418 -29.984700 -19.660980 38.950941 1.101188 2.099903 0.164129 -0.043780 123164.000000 0 0 1
-14.106218 -29.201540 -20.077280 38.142005 1.120789 2.125137 0.146305 -0.043971 -1073730.000000 0 0 1
-12.873618 -30.050970 -20.270480 38.466651 1.166055 2.125819 0.162549 -0.049548 -572125.000000 0 0 1
-12.116418 -30.675720 -19.234480 38.180789 1.194622 2.098758 0.146875 -0.050424 223203.000000 0 0 1
-11.423618 -29.674690 -18.535180 36.805424 1.203321 2.098556 0.113992 -0.041625 -668893.000000 0 0 1
-10.349818 -30.237330 -17.548180 36.460300 1.241010 2.072928 0.109908 -0.025737 -221415.000000 0 0 1
-10.806318 -30.783950 -16.321280 36.480300 1.233198 2.034652 0.136358 -0.045931 -245053.000000 0 0 1
-11.490818 -31.972670 -16.452080 37.748662 1.225776 2.021759 0.140816 -0.048581 -324653.000000 0 0 1
-12.584018 -32.269290 -15.391780 37.902131 1.198967 1.988971 0.156333 -0.059074 167531.000000 0 0 1
-12.109518 -32.819060 -14.156380 37.737703 1.217315 1.955329 0.135773 -0.044540 -881460.000000 0 0 1
-13.157118 -33.031580 -13.292980 37.959167 1.191740 1.928572 0.148919 -0.037898 -682620.000000 0 0 1
-12.822318 -33.672470 -11.946580 37.960083 1.206955 1.890952 0.117504 -0.036685 -391946.000000 0 0 1
-12.003818 -32.854780 -11.197680 36.727596 1.220504 1.880614 0.099226 -0.022021 -412765.000000 0 0 1
-11.761018 -33.477780 -9.938680 36.849161 1.232957 1.843891 0.098800 -0.024998 542267.000000 0 0 1
-10.467018 -32.953670 -9.187780 35.775944 1.263246 1.830521 0.082839 -0.023121 1173800.000000 0 0 1
-9.303918 -33.553610 -9.781280 36.167404 1.300307 1.844651 0.043062 -0.021602 198071.000000 0 0 1
-8.150118 -32.836150 -9.347380 35.100010 1.327507 1.840356 0.029412 -0.023798 -112736.000000 0 0 1
-6.862718 -33.354300 -9.972180 35.483103 1.367876 1.855674 0.026638 -0.028779 -352933.000000 0 0 1
-6.415218 33.516199 -9.389280 35.392785 -1.381677 1.839299 0.026606 -0.011392 -617749.000000 0 0 1
-5.310918 32.918544 -9.985980 34.807416 -1.410840 1.861778 0.033160 -0.005489 -483372.000000 0 0 1
-4.624318 31.905504 -9.071980 33.490989 -1.426861 1.845102 0.037785 -0.016464 -286536.000000 0 0 1
-4.110818 32.630049 -8.003280 33.847769 -1.445474 1.809506 0.055141 -0.021448 -766.203000 0 0 1
-3.450518 31.727004 -7.085780 32.691240 -1.462466 1.789279 0.056090 -0.030053 303267.000000 0 0 1
-3.134518 32.365494 -5.676780 33.008730 -1.474250 1.743634 0.067252 -0.027363 49672.500000 0 0 1
-2.033718 33.263273 -5.816880 33.829240 -1.509732 1.743603 0.050113 -0.024879 187213.000000 0 0 1
-1.716018 34.015129 -4.685880 34.379226 -1.520390 1.707522 0.062596 -0.023553 375010.000000 0 0 1
-0.705818 33.323177 -3.698280 33.535199 -1.549618 1.681302 0.069213 -0.022829 50022.200000 0 0 1
0.617182 33.197826 -4.158880 33.463007 1.552207 1.695401 0.065542 -0.031279 478865.000000 0 0 1
1.534482 32.373539 -3.412780 32.589074 1.523433 1.675710 0.071049 -0.032102 732375.000000 0 0 1
3.002282 32.425627 -3.851980 32.791352 1.478470 1.688538 0.076356 -0.031216 440529.000000 0 0 1
3.747782 33.653590 -3.640180 34.056731 1.459890 1.677887 0.071429 -0.028623 41303.500000 0 0 1
5.105482 33.579722 -3.975680 34.197511 1.419911 1.687316 0.085389 -0.029804 -140010.000000 0 0 1
5.948882 -33.293900 -3.560980 34.008140 -1.393984 1.675698 0.087860 -0.024323 -104179.000000 0 0 1
5.654082 -32.250900 -4.389780 33.035729 -1.397245 1.704070 0.087903 -0.029107 -213375.000000 0 0 1
6.080382 -31.048920 -3.722380 31.856908 -1.377411 1.687911 0.078489 -0.030737 28010.400000 0 0 1
5.945582 -29.852780 -4.679580 30.796703 -1.374205 1.723338 0.075822 -0.028655 -273256.000000 0 0 1
6.932582 -29.824150 -5.676680 31.141055 -1.342404 1.754111 0.089257 -0.031341 -211135.000000 0 0 1
6.784982 -28.661970 -6.544580 30.172438 -1.338351 1.789440 0.090090 -0.026933 67249.800000 0 0 1
7.221082 -27.278750 -5.971480 28.843245 -1.312017 1.779337 0.080075 -0.023840 444741.000000 0 0 1
6.336382 -26.731770 -4.975480 27.919396 -1.338056 1.749962 0.068246 -0.027090 -7319.890000 0 0 1
6.890782 -25.530070 -4.394880 26.806386 -1.307170 1.735489 0.051303 -0.021236 -44751.100000 0 0 1
6.131382 -24.742400 -3.311280 25.704956 -1.327881 1.699974 0.043271 -0.021645 -102922.000000 0 0 1
5.026482 -24.098800 -3.915780 24.926914 -1.365166 1.728540 0.052539 -0.028259 -537781.000000 0 1 0
4.162782 -23.511000 -2.971080 24.060823 -1.395556 1.694594 0.052749 -0.030700 222919.000000 0 1 0
2.891482 -22.968200 -3.698580 23.443088 -1.445564 1.729227 0.064134 -0.027326 372939.000000 0 1 0
2.038482 -23.996000 -4.163280 24.439647 -1.486049 1.741981 0.070078 -0.023822 -827420.000000 0 1 0
0.781882 -23.414700 -4.371780 23.832163 -1.537416 1.755281 0.066932 -0.022865 -163415.000000 0 1 0
-15.624418 23.248300 17.926267 33.255931 -0.979064 1.001500 0.019132 -0.012772 -131404.000000 0 0 1
-15.710118 22.674700 19.175667 33.595477 -0.964887 0.963339 0.035490 -0.010743 309163.000000 0 0 1
-15.300118 23.484100 20.230567 34.566927 -0.993361 0.945598 0.042903 -0.013635 -1159740.000000 0 0 1
-15.248318 22.808900 21.619867 34.931015 -0.981508 0.903416 0.058434 -0.016650 -260255.000000 0 0 1
-14.136118 22.029000 22.017167 34.203250 -1.000275 0.871453 0.057375 -0.014235 234402.000000 0 0 1
-12.824518 22.533600 21.945967 33.968469 -1.053386 0.868374 0.027718 -0.020451 -292052.000000 0 0 1
-12.496518 23.658600 22.951847 35.251661 -1.084843 0.861783 0.053954 -0.011754 -919997.000000 0 0 1
-12.427318 23.195800 24.292507 35.813535 -1.078954 0.825343 0.037292 -0.008844 136141.000000 0 0 1
-12.140918 24.230300 25.214997 37.017637 -1.106298 0.821448 0.061104 -0.015371 23002.300000 0 0 1
-11.699018 23.671600 26.581867 37.467417 -1.111782 0.782056 0.053213 -0.018709 -666225.000000 0 0 1
-10.406518 23.191600 26.658257 36.834883 -1.149008 0.761614 0.017098 -0.013535 -1184980.000000 0 0 1
-10.117018 22.571400 27.867177 37.261263 -1.149421 0.725925 0.008875 -0.014243 -1027400.000000 0 0 1
-8.643718 22.163500 28.049357 36.779084 -1.198942 0.703405 0.009495 -0.019860 643306.000000 0 0 1
-7.728818 23.244200 28.383347 37.491891 -1.249791 0.712006 0.022024 -0.020305 399090.000000 0 0 1
-7.607218 24.255600 27.396127 37.373141 -1.266885 0.748011 0.021220 -0.019333 -1869640.000000 0 0 1
-6.482218 25.201600 27.704497 38.008933 -1.319039 0.754091 0.031059 -0.029018 -1348130.000000 0 0 1
-5.208418 24.649200 27.643857 37.401785 -1.362558 0.739055 0.039637 -0.027588 -1001730.000000 0 0 1
-4.342318 25.644400 28.135567 38.315808 -1.403059 0.746151 0.057667 -0.026845 296014.000000 0 0 1
-2.828318 25.272900 28.173437 37.953411 -1.459349 0.734276 0.056854 -0.028645 435079.000000 0 0 1
-2.244518 25.281500 26.864767 36.958190 -1.482247 0.757005 0.051737 -0.024886 271869.000000 0 0 1
-0.905518 24.807300 26.987027 36.667721 -1.534310 0.743670 0.059742 -0.015362 620066.000000 0 0 1
-0.142518 24.685600 25.648427 35.598328 -1.565023 0.766280 0.050810 -0.017359 136971.000000 0 0 1
-0.572318 23.561200 24.922187 34.301212 -1.546510 0.757482 0.046935 -0.007564 -203209.000000 0 0 1
0.091182 23.536200 23.711457 33.409493 1.566922 0.781693 0.041838 -0.003284 -212180.000000 0 0 1
-0.349918 22.364200 22.785267 31.928800 -1.555151 0.776134 0.026581 0.003931 156928.000000 0 0 1
0.235882 21.142400 23.218857 31.403376 1.559640 0.738655 0.048601 0.001614 134079.000000 0 0 1
-0.249518 19.990300 22.506667 30.103562 -1.558315 0.726293 0.047363 -0.003071 177494.000000 0 0 1
0.610382 18.710000 22.835867 29.528182 1.538185 0.686675 0.069190 0.000654 -1068280.000000 0 0 1
1.868382 18.945500 22.361967 29.368017 1.472495 0.705265 0.077367 -0.005097 -1652380.000000 0 0 1
2.593282 17.713200 22.418067 28.688888 1.425425 0.673858 0.057298 -0.005257 -125212.000000 0 0 1
3.954782 17.896600 21.705567 28.408806 1.353312 0.701239 0.055722 -0.006946 235146.000000 0 0 1
4.887082 18.531300 22.623467 29.649855 1.312947 0.702822 0.052776 -0.001869 587479.000000 0 0 1
6.145082 18.731100 21.947967 29.501346 1.253792 0.731812 0.085367 -0.011513 261700.000000 0 0 1
7.195182 19.297200 22.871067 30.777237 1.213902 0.733081 0.096747 -0.020372 -696908.000000 0 0 1
6.782682 20.382300 23.719627 32.000994 1.249550 0.735917 0.079392 -0.018793 47267.800000 0 0 1
6.544782 21.592700 23.010787 32.226933 1.276496 0.775568 0.087788 -0.021263 1003380.000000 0 0 1
5.088182 22.182000 23.221117 32.513859 1.345314 0.775328 0.055871 -0.009342 1073310.000000 0 0 1
5.090782 23.481700 22.673367 33.036160 1.357302 0.814380 0.047951 -0.009531 364205.000000 0 0 1
3.851582 24.109000 22.973287 33.523879 1.412378 0.815806 0.033875 -0.008551 -35148.300000 0 0 1
3.703582 25.604900 22.549267 34.319045 1.427149 0.853900 0.031448 -0.002740 -266656.000000 0 0 1
3.694282 25.701000 21.166267 33.499254 1.428033 0.886868 0.038670 -0.008404 367293.000000 0 0 1
2.585882 25.216000 20.398667 32.536734 1.468604 0.893174 0.031633 -0.005076 -60089.100000 0 0 1
2.606382 25.543200 18.827367 31.838939 1.469110 0.938087 0.046656 -0.013553 -383297.000000 0 0 1
2.220482 26.907400 18.643967 32.810612 1.488460 0.966443 0.055472 -0.015807 63363.200000 0 0 1
1.743582 27.173000 17.371167 32.298134 1.506718 1.002926 0.063755 -0.010617 -388306.000000 0 0 1
0.535982 28.105200 17.447267 33.084689 1.551728 1.015316 0.053614 0.007485 -330556.000000 0 0 1
0.860482 29.320900 18.067867 34.451465 1.541458 1.018734 0.058945 0.003488 628869.000000 0 0 1
-0.318418 30.095200 18.346267 35.247808 -1.560216 1.023367 0.048623 0.004523 493763.000000 0 0 1
-0.076218 31.586100 18.589767 36.650607 -1.568383 1.038845 0.047484 0.007916 -57046.900000 0 0 1
0.497282 31.775700 19.866467 37.478246 1.555148 1.012101 0.050200 0.000936 -53108.900000 0 0 1
0.858482 33.089700 20.227867 38.792162 1.544858 1.022256 0.049436 -0.003193 277823.000000 0 0 1
1.611582 33.052600 21.623967 39.530590 1.522077 0.991998 0.046727 -0.014910 557622.000000 0 0 1
0.730082 32.580300 22.658767 39.691670 1.548391 0.963232 0.050139 -0.011508 224333.000000 0 0 1
1.277782 32.784300 23.919347 40.602687 1.531841 0.940842 0.059035 -0.033051 -22774.500000 0 0 1
0.319782 32.372600 25.079357 40.951943 1.560918 0.911691 0.077842 -0.022371 560836.000000 0 0 1
-0.832918 33.221400 25.253067 41.738143 -1.545730 0.920986 0.080515 -0.021852 886656.000000 0 0 1
-1.755618 32.891400 26.279157 42.136926 -1.517471 0.897379 0.092650 -0.025276 103898.000000 0 0 1
-1.318518 33.217400 27.674867 43.255432 -1.531124 0.876557 0.107926 -0.028381 -1290690.000000 0 0 1
-0.237618 32.453800 28.056257 42.900573 -1.563475 0.857958 0.090760 -0.039337 -533992.000000 0 0 1
0.116682 32.820300 29.413697 44.072115 1.567241 0.840085 0.085702 -0.033188 -548806.000000 0 0 1
1.159482 31.860900 30.046517 43.809298 1.534420 0.815028 0.071726 -0.027789 92811.800000 0 0 1
2.469882 32.037900 29.551937 43.655977 1.493856 0.827216 0.044052 -0.024951 94346.000000 0 0 1
2.776482 31.597400 28.221507 42.456543 1.483151 0.843684 0.048068 -0.029183 -917533.000000 0 0 1
4.289982 31.484000 27.943067 42.313842 1.435371 0.849476 0.033750 -0.021610 -172468.000000 0 0 1
4.749382 30.392700 28.679427 42.056895 1.415783 0.820412 0.040963 -0.025295 -1404130.000000 0 0 1
6.111982 30.287200 28.605047 42.106051 1.371670 0.823910 0.051172 -0.035397 -1498090.000000 0 0 1
6.742082 29.115400 29.294137 41.848640 1.343243 0.795396 0.069560 -0.033599 -255662.000000 0 0 1
6.636182 29.170400 30.698287 42.864157 1.347106 0.772488 0.078626 -0.029791 20441.300000 0 0 1
7.313082 28.185400 31.450297 42.860461 1.316931 0.746922 0.060503 -0.027212 -152349.000000 0 0 1
7.345282 28.456400 32.949499 44.151889 1.318186 0.728346 0.077399 -0.043475 -956046.000000 0 0 1
6.067482 28.250500 33.469015 44.216287 1.359236 0.712181 0.081582 -0.044430 -498298.000000 0 0 1
6.016382 27.877500 -33.083800 43.679397 1.358241 2.430154 0.098310 -0.048171 -107747.000000 0 0 1
6.333082 26.328700 -32.932190 42.636106 1.334742 2.453410 0.102002 -0.044354 -479283.000000 0 0 1
7.550382 25.889300 -33.465660 42.979234 1.287026 2.463303 0.082010 -0.039703 -258164.000000 0 0 1
7.708682 24.494000 -33.261270 42.020137 1.265893 2.484147 0.101458 -0.043868 -121540.000000 0 0 1
9.175782 24.009600 -33.235490 42.014922 1.205753 2.483304 0.082049 -0.040053 -751755.000000 0 0 1
9.649582 23.816800 33.380167 42.125882 1.185851 0.656078 0.062587 -0.029799 -337211.000000 0 0 1
10.927582 23.244400 33.405215 42.138137 1.131340 0.655481 0.081027 -0.044140 -516595.000000 0 0 1
11.054982 21.779400 33.873117 41.760543 1.101096 0.624719 0.086665 -0.044571 -1492330.000000 0 0 1
10.446682 21.030200 32.835553 40.368008 1.109755 0.620814 0.076771 -0.038774 168391.000000 0 0 1
10.049082 19.715900 33.082864 39.801717 1.099423 0.589548 0.072017 -0.034693 -821193.000000 0 0 1
8.796782 19.514400 33.874259 40.070695 1.147291 0.563553 0.110208 -0.044174 -1292450.000000 0 0 1
8.984882 20.015800 -32.724730 39.398836 1.148866 2.550983 0.121534 -0.045117 247114.000000 0 0 1
7.773382 20.192500 -31.986910 38.617677 1.203319 2.546858 0.141675 -0.050736 117156.000000 0 0 1
7.973182 20.866200 -30.644610 37.921789 1.205807 2.511716 0.142941 -0.063431 -228542.000000 0 0 1
8.194982 22.260100 -30.788140 38.866172 1.218048 2.485133 0.146028 -0.060751 140205.000000 0 0 1
8.286982 22.957500 -29.521790 38.304790 1.224382 2.450747 0.111193 -0.056668 734147.000000 0 0 1
9.739082 23.154100 -28.942890 38.323008 1.172641 2.426809 0.107217 -0.053005 930937.000000 0 0 1
10.393382 21.928900 -28.622480 37.525264 1.128198 2.438355 0.106670 -0.047291 -706955.000000 0 0 1
11.774882 22.123900 -28.570490 38.005101 1.081703 2.421514 0.108746 -0.043651 -494956.000000 0 0 1
12.514582 20.781800 -28.512910 37.436400 1.028768 2.436630 0.107743 -0.053537 -125733.000000 0 0 1
12.735182 20.039100 -29.694840 38.020178 1.004670 2.467107 0.106561 -0.052936 -100466.000000 0 0 1
11.550182 19.473000 -30.197530 37.742486 1.035437 2.498248 0.126186 -0.048194 -389407.000000 0 0 1
11.700082 18.469900 -31.362450 38.231301 1.006131 2.532792 0.118096 -0.045474 -403684.000000 0 0 1
12.074082 17.125300 -30.953980 37.379249 0.956693 2.546517 0.113058 -0.039708 472648.000000 0 0 1
11.751682 16.114900 -31.937080 37.653275 0.940712 2.583353 0.103060 -0.035551 382638.000000 0 0 1
13.006082 15.974800 -32.857640 38.781141 0.887479 2.581598 0.081875 -0.018831 368692.000000 0 0 1
13.302682 17.176000 -33.529470 39.952493 0.911803 2.566668 0.085869 -0.021622 -37174.100000 0 0 1
14.091082 17.155800 33.238722 39.971149 0.883166 0.588872 0.087024 -0.017970 42683.300000 0 0 1
13.233482 16.776200 31.997222 38.475813 0.902907 0.588779 0.088235 -0.020846 -222475.000000 0 0 1
13.633782 17.401700 30.792907 37.906494 0.906214 0.622645 0.070388 -0.024689 39342.400000 0 0 1
12.829782 17.145600 29.640567 36.566899 0.928394 0.625647 0.075084 -0.021244 1046010.000000 0 0 1
11.342282 17.663400 29.535387 36.235096 0.999970 0.617887 0.075823 -0.019337 1082680.000000 0 0 1
10.474582 16.982400 30.432817 36.390591 1.018122 0.580329 0.081822 -0.019452 119191.000000 0 0 1
9.138782 17.455200 30.304967 36.146817 1.088482 0.576482 0.091843 -0.023475 711246.000000 0 0 1
8.138782 16.678800 31.253867 36.348678 1.116818 0.535850 0.116959 -0.030126 359556.000000 0 0 1
8.422282 16.751600 32.626494 37.630295 1.104931 0.521591 0.134581 -0.028892 -40892.500000 0 0 1
7.720282 15.766800 33.332013 37.672508 1.115459 0.484767 0.152549 -0.034466 -161940.000000 0 0 1
7.808382 16.033000 -33.028120 37.535112 1.117587 2.646503 0.142458 -0.034811 348326.000000 0 0 1
6.795982 16.893800 -32.471290 37.228625 1.188329 2.630505 0.144416 -0.039862 525031.000000 0 0 1
6.644082 16.729500 -31.085820 35.921417 1.192751 2.616713 0.147865 -0.051768 -265105.000000 0 0 1
5.530682 17.582500 -30.468240 35.609639 1.266039 2.597540 0.153153 -0.058268 -1183650.000000 0 0 1
5.385182 17.416700 -29.060610 34.305403 1.270924 2.581328 0.140289 -0.065115 78569.300000 0 0 1
4.572982 18.432900 -28.542670 34.283640 1.327618 2.554482 0.144680 -0.071203 -89017.000000 0 0 1
3.065382 18.397600 -28.841910 34.347111 1.405694 2.567561 0.164685 -0.070052 -1376770.000000 0 0 1
2.353182 17.376500 -28.100200 33.122522 1.436192 2.583698 0.155264 -0.059623 1265230.000000 0 0 1
0.932382 17.375700 -28.351150 33.265177 1.517188 2.591120 0.156485 -0.054805 1251800.000000 0 0 1
0.107282 18.580200 -27.823650 33.457299 1.565022 2.552809 0.149937 -0.060103 -856148.000000 0 0 1
-0.097118 18.641900 -26.387730 32.308546 -1.565587 2.526537 0.136466 -0.061679 23229.100000 0 0 1
-0.664818 19.917000 -26.163410 32.888492 -1.537429 2.490659 0.144856 -0.066545 -183616.000000 0 0 1
-1.083718 20.146400 -24.690780 31.885522 -1.517056 2.456495 0.125257 -0.065838 738271.000000 0 0 1
-2.329918 19.513500 -24.335280 31.279563 -1.451959 2.462261 0.121092 -0.053060 510660.000000 0 0 1
-2.674018 19.726300 -22.987180 30.408679 -1.436062 2.427887 0.118638 -0.050422 -482719.000000 0 0 1
-3.769818 18.888800 -22.362880 29.514347 -1.373805 2.430571 0.083592 -0.037806 -620300.000000 0 0 1
-5.065418 19.259900 -22.772980 30.252452 -1.313617 2.423048 0.085468 -0.030180 -582054.000000 0 0 1
-5.923218 18.483100 -21.979980 29.322841 -1.260670 2.418232 0.078943 -0.035708 210628.000000 0 0 1
-7.453618 18.808500 -22.037780 29.916214 -1.193492 2.398900 0.107283 -0.025777 568395.000000 0 0 1
-7.817618 19.848100 -21.234580 30.099329 -1.195584 2.353901 0.071374 -0.017694 -1427.300000 0 0 1
-7.497718 21.170800 -21.715280 31.240550 -1.230426 2.339354 0.076070 -0.025856 -241698.000000 0 0 1
-8.034218 22.234100 -20.770080 31.469034 -1.224049 2.291637 0.085711 -0.030046 188541.000000 0 0 1
-7.355018 22.248200 -19.498880 30.484177 -1.251517 2.264825 0.090643 -0.034412 733373.000000 0 0 1
-7.914218 23.306600 -18.652880 30.883044 -1.243443 2.219287 0.102730 -0.041739 38450.700000 0 0 1
-7.218818 23.410700 -17.304080 29.993389 -1.271692 2.185761 0.105923 -0.043222 398570.000000 0 0 1
-5.876118 23.871300 -17.407580 30.122941 -1.329437 2.186930 0.095794 -0.043237 531838.000000 0 0 1
-5.064218 23.695200 -16.216980 29.156462 -1.360241 2.160609 0.091971 -0.039803 -303548.000000 0 0 1
-3.582718 23.834400 -16.476580 29.195756 -1.421596 2.170440 0.108212 -0.038666 -778847.000000 0 0 1
-3.191918 25.208200 -16.545680 30.321630 -1.444844 2.147988 0.087652 -0.038713 -276705.000000 0 0 1
-1.977018 25.256800 -17.256280 30.652794 -1.492679 2.168759 0.096282 -0.039843 -246784.000000 0 0 1
-1.414718 26.664900 -17.230080 31.778829 -1.517791 2.143834 0.088341 -0.052876 -320297.000000 0 0 1
-2.253518 27.555500 -17.940180 32.958064 -1.489197 2.146391 0.085120 -0.057822 113594.000000 0 0 1
-1.631718 28.762000 -18.174580 34.062157 -1.514125 2.133614 0.092564 -0.059280 -698447.000000 0 0 1
-2.613618 29.586300 -18.987380 35.251961 -1.482686 2.139594 0.115091 -0.056974 -52420.800000 0 0 1
-3.688018 30.092300 -18.226480 35.374462 -1.448848 2.112089 0.081508 -0.053145 -194324.000000 0 0 1
-4.873018 29.374600 -18.548780 35.080916 -1.406401 2.127915 0.050343 -0.054219 666581.000000 0 0 1
-6.108218 29.974900 -17.726280 35.355706 -1.369771 2.095977 0.060348 -0.038913 798605.000000 0 0 1
-6.505618 31.283500 -18.172180 36.758789 -1.365762 2.087898 0.101931 -0.046172 217050.000000 0 0 1
-6.114218 32.249900 -17.201380 37.058429 -1.383431 2.053493 0.097492 -0.067528 -49672.400000 0 0 1
-6.680318 33.597000 -17.653080 38.535909 -1.374520 2.046646 0.096762 -0.042175 -145094.000000 0 0 1
-8.076518 33.722900 -17.663580 38.916143 -1.335727 2.041920 0.119998 -0.062431 -287912.000000 0 0 1
-8.446418 -33.055455 -18.016980 38.582595 1.320627 2.056659 0.172852 -0.058165 -550170.000000 0 0 1
30.195482 -20.386200 -26.213080 44.883069 -0.593846 2.194481 0.052076 -0.001079 114745.000000 0 0 1
29.748582 -21.652900 -25.813840 44.946419 -0.629182 2.182575 0.055825 -0.007318 -1026590.000000 0 0 1
28.354082 -21.701300 -25.747080 44.020592 -0.653264 2.195537 0.048562 -0.003008 -300455.000000 0 0 1
27.871782 -23.061200 -25.234610 44.107150 -0.691228 2.179885 0.039309 0.000209 -19376.100000 0 0 1
27.995282 -24.214500 -26.039250 45.256164 -0.713109 2.183858 0.034404 0.009498 28257.500000 0 0 1
29.296982 -24.761500 -25.872950 46.269370 -0.701695 2.164194 0.045484 0.010423 178706.000000 0 0 1
29.498382 -26.066970 -26.524120 47.467572 -0.723722 2.163715 0.040236 0.010021 -73373.300000 0 0 1
28.868382 -27.159530 -25.893190 47.344280 -0.754908 2.149468 0.060690 -0.008166 -275008.000000 0 0 1
29.233882 -28.419080 -26.443780 48.595653 -0.771266 2.146183 0.051249 -0.001808 242032.000000 0 0 1
28.301482 -28.928200 -27.569240 48.968129 -0.796349 2.168812 0.059490 -0.006343 -333078.000000 0 0 1
28.254282 -28.138140 -28.757340 49.163442 -0.783339 2.195594 0.029862 -0.005228 114088.000000 0 0 1
29.273182 -28.352610 -29.733390 50.446647 -0.769425 2.201116 0.018207 -0.006133 -278874.000000 0 0 1
29.416882 -29.793770 -30.289560 51.676679 -0.791763 2.197078 0.034120 -0.003642 -712724.000000 0 0 1
30.017182 -30.770920 -29.409770 52.084694 -0.797797 2.170809 0.049244 -0.005271 1280650.000000 0 0 1
31.384982 -30.597750 -28.959830 52.534857 -0.772698 2.154658 0.041341 -0.003795 1266870.000000 0 0 1
32.524982 -30.257270 -29.936460 53.568353 -0.749294 2.163790 0.031406 -0.007110 -616995.000000 0 0 1
32.425082 -28.868110 -30.309630 52.947402 -0.727431 2.180285 0.029734 -0.011458 -540228.000000 0 0 1
33.461182 -28.444820 -31.153440 53.845105 -0.704543 2.187777 0.034003 -0.014589 -271633.000000 0 0 1
33.242882 -27.023360 -31.732330 53.313150 -0.682561 2.208319 0.030722 -0.008892 50624.700000 0 0 1
33.346782 -25.914950 -30.824950 52.285467 -0.660643 2.201299 0.024765 0.004142 728012.000000 0 0 1
32.175982 -25.715310 -29.977640 50.943399 -0.674258 2.199937 0.023651 0.002421 735969.000000 0 0 1
32.077782 -24.305700 -29.356960 49.815482 -0.648418 2.201006 0.022374 0.007404 103606.000000 0 0 1
33.123082 -24.166900 -28.388940 49.870929 -0.630323 2.176388 0.031783 0.000255 618175.000000 0 0 1
32.924782 -22.917100 -27.732240 48.767939 -0.608066 2.175669 0.028599 0.007297 430804.000000 0 0 1
33.984682 -22.870400 -26.593510 48.838802 -0.592348 2.146608 0.037062 0.000851 195007.000000 0 0 1
33.642282 -23.654900 -25.417570 48.346771 -0.612824 2.124375 0.039492 -0.001346 74384.300000 0 0 1
32.554482 -23.230700 -24.630280 46.969250 -0.619792 2.122797 0.057520 -0.002319 -48162.400000 0 0 1
32.860882 -22.003200 -23.680080 46.094735 -0.590021 2.110319 0.057970 -0.010352 -167072.000000 0 0 1
33.337982 -20.836400 -24.313980 46.224952 -0.558603 2.124678 0.058812 -0.012776 13892.500000 0 0 1
33.352882 -19.658300 -23.550580 45.315486 -0.532591 2.117299 0.035706 -0.022207 -65922.800000 0 0 1
33.450382 -18.399100 -24.457680 45.339090 -0.502875 2.140567 0.029269 -0.025246 -75695.200000 0 0 1
32.329982 -18.144400 -25.262180 44.862286 -0.511421 2.168935 0.049095 -0.018222 -108859.000000 0 0 1
32.394582 -16.850900 -25.878170 44.755351 -0.479658 2.187334 0.052300 -0.016021 -745644.000000 0 0 1
31.418682 -16.708600 -27.014840 44.677875 -0.488766 2.220133 0.034011 -0.003994 212440.000000 0 0 1
30.085582 -16.763900 -26.494210 43.452431 -0.508360 2.226515 0.029089 0.002833 835.143000 0 0 1
29.093782 -16.672300 -27.462910 43.343110 -0.520370 2.257015 0.008372 -0.002352 -350756.000000 0 0 1
27.695682 -16.504500 -26.843120 41.952383 -0.537416 2.265096 0.012291 -0.002402 -284756.000000 0 0 1
27.269282 -17.659500 -26.249470 41.767288 -0.574684 2.250380 0.040385 0.003179 -291693.000000 0 0 1
27.104482 -17.348300 -24.842480 40.654216 -0.569351 2.228205 0.049609 0.010199 116484.000000 0 0 1
26.345282 -18.379500 -23.938980 40.061886 -0.609140 2.211238 0.062477 0.011910 -75926.700000 0 0 1
26.474882 -18.083800 -22.580880 39.215295 -0.599263 2.184401 0.075656 0.008737 22987.700000 0 0 1
25.727082 -18.903300 -21.672080 38.586222 -0.633678 2.167179 0.074879 -0.003659 56648.600000 0 0 1
25.565282 -18.265500 -20.252780 37.381643 -0.620368 2.143355 0.080151 -0.003694 -89938.000000 0 0 1
24.778582 -17.075300 -20.118280 36.197917 -0.603383 2.160104 0.089428 -0.006351 244166.000000 0 0 1
25.242882 -15.886200 -20.807180 36.366374 -0.561710 2.179927 0.080023 0.000273 -246493.000000 0 0 1
26.512082 -15.302900 -20.173080 36.660911 -0.523490 2.153473 0.056392 -0.001364 -228022.000000 0 0 1
26.305182 -14.432800 -19.081280 35.557890 -0.501820 2.137230 0.055276 -0.018485 1342090.000000 0 0 1
27.601882 -13.877800 -18.713680 36.120064 -0.465873 2.115420 0.044954 -0.015243 1187390.000000 0 0 1
27.562182 -12.784600 -17.645980 35.135459 -0.434308 2.096969 0.053119 -0.010728 -167238.000000 0 0 1
27.478082 -13.343800 -16.423680 34.681973 -0.452074 2.064114 0.043690 -0.009964 223465.000000 0 0 1
27.514782 -12.343800 -15.436880 33.878162 -0.421709 2.043908 0.028730 -0.003027 -74230.200000 0 0 1
28.069482 -12.928000 -14.139680 33.984696 -0.431610 1.999905 0.057961 -0.020685 -68382.500000 0 0 1
27.195782 -13.827600 -13.440180 33.338439 -0.470382 1.985746 0.070813 -0.022767 680812.000000 0 0 1
27.841982 -14.546100 -12.337180 33.748644 -0.481447 1.945032 0.085330 -0.023018 256652.000000 0 0 1
27.093382 -15.847800 -11.925680 33.577164 -0.529267 1.933895 0.080799 -0.040365 -695737.000000 0 0 1
25.807982 -15.560300 -11.472280 32.245745 -0.542568 1.934541 0.067780 -0.025139 -544163.000000 0 0 1
25.197182 -16.719400 -10.989680 32.174670 -0.585837 1.919376 0.053159 -0.020837 -204325.000000 0 0 1
23.795182 -16.404700 -10.421180 30.723376 -0.603585 1.916856 0.088089 -0.027178 -191345.000000 0 0 1
23.766082 -15.981200 -9.108780 30.053207 -0.591987 1.878728 0.080503 -0.019303 -63063.900000 0 0 1
22.426082 -16.113600 -8.725380 28.960482 -0.623048 1.876837 0.089180 -0.026849 -341544.000000 0 0 1
22.027282 -15.640000 -7.254780 27.972175 -0.617425 1.833153 0.083319 -0.021340 -147504.000000 0 0 1
22.175282 -14.290300 -6.971280 27.286527 -0.572446 1.829145 0.092172 -0.006939 161784.000000 0 0 1
22.029382 -13.929200 -5.593780 26.657206 -0.563832 1.782209 0.081256 -0.011081 -116433.000000 0 0 1
22.989382 -14.539000 -4.531280 27.575835 -0.563919 1.735866 0.088806 -0.011543 -960682.000000 0 0 1
24.323582 -14.292800 -4.785080 28.614992 -0.531260 1.738809 0.105270 -0.009456 -563207.000000 0 0 1
25.144182 -14.877300 -3.776780 29.458921 -0.534279 1.699355 0.098743 -0.026018 84466.100000 0 0 1
26.659482 -14.777200 -4.045680 30.748352 -0.506134 1.702753 0.104359 -0.025475 -348166.000000 0 0 1
27.277782 -13.662200 -3.532880 30.711795 -0.464331 1.686085 0.112281 -0.025352 -644628.000000 0 0 1
28.540282 -13.464900 -4.085480 31.820471 -0.440823 1.699543 0.120524 -0.035655 -470137.000000 0 0 1
29.306582 -12.262600 -3.473080 31.957931 -0.396288 1.679688 0.141489 -0.043317 -597930.000000 0 0 1
29.767382 -12.526100 -2.155380 32.367358 -0.398307 1.637437 0.141472 -0.046297 272368.000000 0 0 1
30.237882 -11.404500 -1.429280 32.348647 -0.360662 1.614994 0.143183 -0.047759 -217500.000000 0 0 1
31.602482 -10.774000 -1.756680 33.434740 -0.328565 1.623361 0.144672 -0.043271 -550909.000000 0 0 1
31.738982 -10.369900 -3.132380 33.536690 -0.315791 1.664334 0.138860 -0.048112 -321984.000000 0 0 1
33.026882 -10.459600 -3.668080 34.837235 -0.306706 1.676284 0.152610 -0.048274 -393418.000000 0 0 1
33.017682 -10.231800 -5.245780 34.962483 -0.300504 1.721405 0.143928 -0.043627 144007.000000 0 0 1
32.313282 -11.243000 -5.990780 34.733884 -0.334836 1.744140 0.114096 -0.046300 383722.000000 0 0 1
32.418282 -11.061000 -7.398480 35.043234 -0.328811 1.783521 0.103270 -0.035400 -498926.000000 0 0 1
31.230382 -11.651700 -8.166980 34.319068 -0.357094 1.811074 0.122674 -0.034445 -131978.000000 0 0 1
31.089482 -13.023700 -8.025180 34.649331 -0.396701 1.804530 0.102125 -0.034034 -2447.280000 0 0 1
29.779082 -13.408600 -8.356280 33.710706 -0.423078 1.821290 0.096153 -0.033507 -65931.500000 0 0 1
29.439982 -14.856200 -8.269880 33.997208 -0.467342 1.816513 0.096831 -0.025830 -169007.000000 0 0 1
29.760682 -15.472100 -9.506680 34.863463 -0.479428 1.846977 0.107459 -0.032422 167759.000000 0 0 1
29.801882 -16.872900 -9.425180 35.520148 -0.515172 1.839361 0.100728 -0.029549 -197252.000000 0 0 1
30.111482 -17.559200 -10.732280 36.472026 -0.527930 1.869478 0.093494 -0.034720 -411956.000000 0 0 1
31.371982 -17.134500 -11.191280 37.457137 -0.499900 1.874206 0.095086 -0.029332 48083.700000 0 0 1
31.752082 -17.707300 -12.437780 38.424492 -0.508716 1.900427 0.080290 -0.016746 186669.000000 0 0 1
31.113482 -17.113800 -13.747880 38.078013 -0.502877 1.940185 0.078198 -0.019965 136912.000000 0 0 1
31.814282 -15.916200 -14.105280 38.267909 -0.463875 1.948291 0.074157 -0.021509 282708.000000 0 0 1
31.171882 -15.168100 -15.106880 37.815014 -0.452867 1.981761 0.068897 -0.026544 -743546.000000 0 0 1
32.044282 -14.015400 -15.675880 38.327544 -0.412306 1.992152 0.065615 -0.023628 845087.000000 0 0 1
33.096482 -14.350400 -16.609280 39.713716 -0.409126 2.002287 0.040222 -0.016475 1234260.000000 0 0 1
34.243882 -14.939600 -15.996880 40.641546 -0.411378 1.975351 0.057388 -0.018572 -409819.000000 0 0 1
35.312482 -15.405100 -16.995780 42.108729 -0.411361 1.986263 0.055174 -0.017841 -563506.000000 0 0 1
36.577182 -15.600300 -16.437780 43.028598 -0.403144 1.962777 0.055357 -0.011227 -285447.000000 0 0 1
-36.642287 -16.073300 -17.436280 43.646673 0.413379 1.981754 0.055714 -0.020543 1919340.000000 0 0 1
-35.071387 -16.072000 -17.073680 42.187936 0.429706 1.987453 0.050737 -0.002141 1787210.000000 0 0 1
-34.657087 -16.882700 -15.972480 41.728400 0.453303 1.963592 0.040776 -0.002557 45943.800000 0 0 1
-35.156987 -16.560900 -14.692780 41.547021 0.440225 1.932258 0.033906 -0.003208 -674949.000000 0 0 1
-34.415687 -17.301200 -13.562680 40.837695 0.465815 1.909338 0.046966 -0.001772 -435681.000000 0 0 1
-33.165487 -16.780700 -13.216080 39.448779 0.468411 1.912421 0.067670 -0.005867 -183041.000000 0 0 1
-32.656887 -17.353700 -12.040580 38.892142 0.488447 1.885557 0.075762 -0.001874 28311.700000 0 0 1
-31.421287 -16.633100 -11.472380 37.357366 0.486857 1.882939 0.098488 -0.002361 75825.900000 0 0 1
-31.784087 -15.318700 -10.907280 36.930469 0.449113 1.870614 0.087562 -0.018985 -55011.900000 0 0 1
-30.740387 -14.732200 -10.179180 35.575621 0.446907 1.860980 0.142736 -0.034859 -559126.000000 0 0 1
-30.703087 -15.147100 -8.687980 35.321313 0.458306 1.819317 0.138979 -0.026455 -363116.000000 0 0 1
-30.249687 -16.480100 -8.486880 35.477660 0.498844 1.812356 0.097821 -0.018084 61527.400000 0 0 1
-30.279887 -16.820100 -7.104580 35.359049 0.507047 1.773100 0.129279 -0.024502 -54082.300000 0 0 1
-30.079387 -18.371800 -6.879080 35.911200 0.548306 1.763546 0.104066 -0.027152 581096.000000 0 0 1
-31.137387 -19.233100 -7.390580 37.337242 0.553322 1.770053 0.074431 -0.017785 454701.000000 0 0 1
-31.110387 -19.569200 -8.744980 37.779418 0.561488 1.804390 0.073862 -0.011241 429304.000000 0 0 1
-32.365787 -20.375400 -9.237480 39.345039 0.561854 1.807790 0.059885 -0.007006 861670.000000 0 0 1
-33.479787 -19.575900 -9.624780 39.959334 0.529100 1.814053 0.038219 -0.006142 455101.000000 0 0 1
-34.653387 -20.371700 -9.753480 41.364160 0.531453 1.808833 0.026925 -0.010034 282113.000000 0 0 1
-35.923587 -19.557500 -10.037580 42.115946 0.498549 1.811444 0.042670 -0.018611 -112892.000000 0 0 1
-36.256487 -19.368300 -11.367280 42.648317 0.490634 1.840593 0.036840 -0.018004 -449999.000000 0 0 1
36.580582 -18.815800 -11.488180 42.710088 -0.475074 1.843131 0.067042 -0.027444 -558786.000000 0 0 1
36.050982 -18.602200 -12.920180 42.575183 -0.476363 1.879126 0.053641 -0.018013 -243254.000000 0 0 1
35.518582 -19.824700 -13.366280 42.816420 -0.509079 1.888279 0.040388 -0.011483 95443.800000 0 0 1
35.049482 -19.674100 -14.704880 42.799181 -0.511495 1.921521 0.036533 -0.016720 -545870.000000 0 0 1
33.898082 -20.531800 -15.160380 42.431968 -0.544594 1.936158 0.043137 -0.026330 -620823.000000 0 0 1
32.703782 -20.257400 -14.440480 41.090474 -0.554577 1.929896 0.059220 -0.024452 1023410.000000 0 0 1
31.530682 -20.955900 -14.917280 40.692246 -0.586584 1.946135 0.070215 -0.026542 1334050.000000 0 0 1
30.769882 -20.318900 -16.163380 40.260380 -0.583617 1.983919 0.073597 -0.028675 -189051.000000 0 0 1
30.174282 -19.058800 -15.953980 39.092897 -0.563348 1.991173 0.067739 -0.030638 -132972.000000 0 0 1
29.359682 -18.823100 -17.049280 38.819814 -0.570108 2.025493 0.060692 -0.032933 -392176.000000 0 0 1
28.451482 -17.570000 -17.005980 37.515265 -0.553219 2.041270 0.060675 -0.023596 -69339.800000 0 0 1
27.423482 -17.745400 -16.048480 36.393685 -0.574325 2.027474 0.074166 -0.035966 198491.000000 0 0 1
26.638582 -16.553400 -16.008280 35.212130 -0.556011 2.042746 0.050095 -0.023194 241030.000000 0 0 1
25.205582 -16.692200 -15.386480 33.921891 -0.584933 2.041581 0.048335 -0.023732 692140.000000 0 0 1
24.211182 -17.374100 -16.112980 33.877261 -0.622445 2.066474 0.066970 -0.020666 367592.000000 0 0 1
23.577882 -16.540900 -17.094680 33.492476 -0.611761 2.106450 0.064693 -0.011546 -1174050.000000 0 0 1
22.531582 -17.258200 -17.854780 33.530744 -0.653635 2.132336 0.067734 -0.000566 -1172130.000000 0 0 1
21.388482 -17.623100 -17.135880 32.583419 -0.689177 2.124579 0.068962 0.005012 -461931.000000 0 0 1
20.421182 -18.089700 -18.069780 32.722758 -0.724931 2.155807 0.070315 -0.005723 155803.000000 0 0 1
19.000682 -18.113200 -17.470180 31.532858 -0.761490 2.157995 0.075743 -0.004087 -121848.000000 0 0 1
18.416682 -16.835800 -17.183780 30.296875 -0.740584 2.173874 0.087338 -0.011592 -163004.000000 0 0 1
17.096082 -17.172600 -16.827880 29.501725 -0.787631 2.177793 0.102351 -0.021223 -328642.000000 0 0 1
16.200782 -15.929100 -16.666280 28.177410 -0.776943 2.203685 0.109735 -0.015866 -263921.000000 0 0 1
15.655782 -15.457800 -17.886880 28.354675 -0.779035 2.253414 0.106433 -0.007417 884924.000000 0 0 1
14.291682 -15.062800 -17.656080 27.255775 -0.811661 2.275479 0.102248 -0.006720 893972.000000 0 0 1
13.460282 -14.751400 -18.924180 27.511954 -0.831132 2.329323 0.101914 -0.015832 133201.000000 0 0 1
13.765282 -13.528500 -19.523080 27.452759 -0.776723 2.361932 0.107588 -0.024707 -131302.000000 0 0 1
13.030982 -13.345000 -20.697880 27.862121 -0.797303 2.408141 0.083931 -0.012803 -31354.600000 0 0 1
12.912382 -11.928300 -21.259680 27.586010 -0.745803 2.450687 0.079310 -0.007666 -619173.000000 0 0 1
14.087682 -11.422300 -21.811180 28.366517 -0.681292 2.447924 0.074377 0.002091 -475663.000000 0 0 1
13.809982 -10.144800 -22.366880 28.176407 -0.633571 2.487854 0.032848 -0.000199 1416660.000000 0 0 1
15.180282 -9.445600 -22.827280 28.995604 -0.556604 2.477160 0.050703 0.009851 1424710.000000 0 0 1
15.606982 -10.020900 -24.043580 30.365936 -0.570786 2.484538 0.058123 0.003541 -156772.000000 0 0 1
16.925082 -9.667900 -24.369180 31.205506 -0.518987 2.466943 0.087154 -0.012696 -109260.000000 0 0 1
22.402582 5.576200 -7.008080 24.126393 0.243951 1.865518 0.165162 0.009281 -162535.000000 0 1 0
22.100882 6.953400 -7.212980 24.265734 0.304816 1.872607 0.140992 0.002257 603507.000000 0 1 0
21.839282 7.522700 -5.965280 23.856442 0.331728 1.823527 0.142032 -0.001110 -245792.000000 0 1 0
21.422382 9.006100 -6.189580 24.048683 0.397973 1.831103 0.123803 0.004156 -339256.000000 0 1 0
20.122582 9.196200 -6.719280 23.122221 0.428667 1.865648 0.055927 -0.009279 659680.000000 0 1 0
19.680482 10.558300 -6.775080 23.338825 0.492408 1.865329 0.053230 -0.005503 244995.000000 0 1 0
19.273182 11.259600 -5.372580 22.958631 0.528729 1.806998 0.074118 0.000342 312607.000000 0 1 0
20.449182 11.428600 -4.568880 23.867480 0.509634 1.763412 0.100922 0.000042 797535.000000 0 1 0
20.351682 12.686800 -3.854880 24.290038 0.557432 1.730172 0.125437 -0.011418 -756204.000000 0 1 0
21.394182 12.895200 -2.798480 25.136203 0.542434 1.682360 0.122166 -0.027192 -721721.000000 0 0 1
22.678982 13.196300 -3.329480 26.449272 0.526985 1.697013 0.110585 -0.037537 876261.000000 0 0 1
23.590382 13.529600 -2.269280 27.289298 0.520723 1.654049 0.106306 -0.039888 154227.000000 0 0 1
24.438982 12.416900 -1.623880 27.460521 0.470089 1.629966 0.108907 -0.042179 -382591.000000 0 0 1
25.465582 11.881400 -2.465980 28.208945 0.436545 1.658326 0.108721 -0.037831 505443.000000 0 0 1
26.097382 10.818800 -1.769780 28.306393 0.392990 1.633359 0.118033 -0.040238 -217261.000000 0 0 1
27.571682 10.672700 -2.199880 29.646983 0.369327 1.645067 0.139439 -0.038710 -217996.000000 0 0 1
28.422182 11.708200 -1.840280 30.794301 0.390756 1.630592 0.121796 -0.042994 -828240.000000 0 0 1
29.755182 11.391900 -2.031080 31.926032 0.365639 1.634458 0.113558 -0.035316 -282929.000000 0 0 1
30.777682 12.516700 -1.640680 33.265978 0.386253 1.620136 0.091720 -0.027096 -20913.600000 0 0 1
30.711082 12.785300 -0.252280 33.267072 0.394486 1.578380 0.120796 -0.030183 359108.000000 0 0 1
31.709882 13.664600 0.226720 34.529542 0.406879 1.564230 0.098670 -0.027153 359182.000000 0 0 1
33.139982 13.055700 0.481120 35.622200 0.375285 1.557290 0.100174 -0.023283 806405.000000 0 0 1
34.110182 14.031500 0.838820 36.892968 0.390259 1.548058 0.095107 -0.026949 474983.000000 0 0 1
34.988582 14.488100 -0.203580 37.870138 0.392586 1.576172 0.112045 -0.016948 123268.000000 0 0 1
34.438882 15.606700 -1.210980 37.829514 0.425488 1.602813 0.064889 0.000562 -408123.000000 0 0 1
33.614982 15.018800 -2.154280 36.880513 0.420180 1.629242 0.082510 0.000671 -465060.000000 0 0 1
33.083682 15.974600 -3.075180 36.866985 0.449837 1.654306 0.068285 0.009101 776194.000000 0 0 1
31.709682 15.585700 -3.740380 35.530387 0.456834 1.676264 0.079686 -0.012046 -263737.000000 0 0 1
31.666082 14.486200 -4.643780 35.130548 0.429046 1.703371 0.081842 -0.014680 662845.000000 0 0 1
30.463982 14.461000 -5.425180 34.155633 0.443197 1.730309 0.083974 -0.025285 317263.000000 0 0 1
29.139982 14.181800 -4.711980 32.748507 0.452934 1.715181 0.092169 -0.032805 -793223.000000 0 0 1
28.061082 13.964200 -5.627780 31.844860 0.461754 1.748454 0.120469 -0.043362 670206.000000 0 0 1
26.948982 13.415400 -4.929880 30.504496 0.461892 1.733120 0.113692 -0.027126 -272776.000000 0 0 1
25.700982 13.195400 -5.758280 29.458731 0.474326 1.767532 0.101627 -0.024371 -599084.000000 0 0 1
25.955882 12.124600 -6.650680 29.409952 0.437002 1.798907 0.095714 -0.015006 387809.000000 0 0 1
25.211782 12.149000 -7.860680 29.069269 0.449045 1.844617 0.098213 -0.014666 -116812.000000 0 0 1
25.227582 13.373800 -8.763980 29.867989 0.487457 1.868603 0.104641 -0.008232 11143.700000 0 0 1
24.423782 14.484600 -8.355180 29.599557 0.535296 1.856960 0.106945 -0.028402 194316.000000 0 0 1
24.181482 15.337000 -9.411880 30.142182 0.565220 1.888356 0.101685 -0.032590 -351457.000000 0 0 1
22.949482 16.262700 -9.158480 29.580938 0.616495 1.885577 0.099432 -0.026920 1277090.000000 0 0 1
21.662282 15.614600 -9.178380 28.236729 0.624563 1.901862 0.112024 -0.028822 882673.000000 0 0 1
21.299782 15.057200 -7.983280 27.278796 0.615354 1.867799 0.120158 -0.032104 -1276840.000000 0 0 1
19.874782 14.538900 -7.890480 25.858195 0.631572 1.880886 0.135648 -0.022992 -819654.000000 0 0 1
18.849982 15.502100 -7.933980 25.662910 0.688247 1.885107 0.146763 -0.037458 -476368.000000 0 0 1
17.614282 14.870000 -7.859180 24.354600 0.701118 1.899375 0.156446 -0.038571 -607979.000000 0 1 0
16.811982 15.310800 -6.594680 23.676003 0.738700 1.853068 0.154137 -0.024873 -148210.000000 0 1 0
17.363582 14.770500 -5.393580 23.425464 0.704877 1.803125 0.169650 -0.021395 699172.000000 0 1 0
16.584282 15.210300 -4.295380 22.909428 0.742211 1.759407 0.135849 -0.010076 -459486.000000 0 1 0
16.362682 14.037000 -3.264980 21.804468 0.709043 1.721101 0.100131 -0.000814 46146.000000 0 1 0
17.512082 13.424700 -2.683980 22.228345 0.654039 1.691838 0.109668 -0.006664 649332.000000 0 1 0
17.138582 12.550000 -1.589580 21.301649 0.632054 1.645488 0.090858 -0.012538 -42770.600000 0 1 0
16.990382 13.217500 -0.172380 21.526846 0.661144 1.578804 0.087568 -0.017401 762480.000000 0 1 0
15.905882 14.187200 -0.248780 21.315150 0.728348 1.582468 0.080281 -0.021853 1309320.000000 0 1 0
15.956982 14.825100 0.996620 21.803718 0.748644 1.525072 0.078838 -0.020180 204935.000000 0 1 0
14.660682 15.611000 1.375920 21.460011 0.816781 1.506637 0.079770 -0.019144 43092.900000 0 1 0
14.554282 16.745200 0.555720 22.193189 0.855283 1.545754 0.081750 -0.021911 -310666.000000 0 1 0
13.499882 17.478600 1.045520 22.109757 0.913134 1.523491 0.061710 -0.033542 -699874.000000 0 1 0
13.467882 18.885900 0.456320 23.200631 0.951320 1.551127 0.053035 -0.036273 -279361.000000 0 1 0
13.103382 18.966600 -0.902480 23.070435 0.966227 1.609925 0.060899 -0.042850 -14794.700000 0 1 0
12.585882 20.227700 -1.156980 23.851685 1.014206 1.619323 0.055062 -0.044441 -849298.000000 0 1 0
11.081682 20.365900 -1.130280 23.213166 1.072472 1.619507 0.050200 -0.042870 -951126.000000 0 1 0
10.453382 20.335800 0.132720 22.865598 1.095981 1.564992 0.027658 -0.049296 798644.000000 0 1 0
9.034582 20.537700 0.006920 22.437041 1.156371 1.570488 0.020012 -0.033385 922115.000000 0 1 0
8.194382 20.466400 1.265720 22.082198 1.189961 1.513446 0.012971 -0.033040 -336578.000000 0 1 0
8.207482 21.665400 2.079120 23.261020 1.208673 1.481295 0.012376 -0.026921 69761.100000 0 1 0
7.350682 21.515400 3.187420 22.958759 1.241582 1.431514 0.010745 -0.023933 -116014.000000 0 1 0
6.737182 22.869300 3.570920 24.106969 1.284306 1.422121 0.010537 -0.016571 -272681.000000 0 1 0
7.496582 23.468400 4.562620 25.055579 1.261608 1.387675 0.022415 -0.016959 -88808.800000 0 0 1
6.947582 24.677700 5.047220 26.129144 1.296367 1.376410 0.023220 -0.009961 -76039.000000 0 0 1
7.468482 25.122600 6.452920 26.991914 1.281836 1.329390 0.029849 -0.011558 72116.700000 0 0 1
7.086282 24.264900 7.502720 26.368382 1.286660 1.282275 0.027501 -0.022431 -3473.050000 0 0 1
7.881182 24.469400 8.632120 27.117855 1.259205 1.246841 0.038083 -0.017277 -260178.000000 0 0 1
7.444482 23.476500 9.721820 26.477918 1.263723 1.194835 0.042495 -0.018211 1843.370000 0 0 1
6.230182 23.762900 10.377220 26.667907 1.314386 1.171112 0.044814 -0.020820 47822.200000 0 0 1
5.695382 22.669200 11.096920 25.874150 1.324652 1.127543 0.040710 -0.021396 39051.700000 0 0 1
4.330382 22.970800 11.732920 26.154756 1.384466 1.105603 0.043695 -0.029005 -221710.000000 0 0 1
3.256382 23.239100 10.895420 25.872185 1.431578 1.136111 0.037321 -0.028317 361077.000000 0 0 1
1.983082 23.145900 11.561220 25.948547 1.485328 1.109015 0.042046 -0.032184 710964.000000 0 0 1
0.822382 23.427500 10.591120 25.723450 1.535707 1.146445 0.060754 -0.029237 -293102.000000 0 0 1
0.651282 24.755000 10.095920 26.742509 1.544493 1.183676 0.049299 -0.026115 14506.500000 0 0 1
-0.131018 24.759400 8.919620 26.317383 -1.565505 1.225022 0.050335 -0.028655 30916.100000 0 0 1
-1.513918 25.428300 9.017620 27.022358 -1.511330 1.230560 0.056014 -0.033200 522194.000000 0 0 1
-2.445018 24.674200 9.831420 26.673040 -1.472027 1.193304 0.047805 -0.032107 497122.000000 0 0 1
-3.744918 25.215400 9.638620 27.253326 -1.423357 1.209307 0.056571 -0.026056 -36431.400000 0 0 1
-4.915218 24.372700 10.222320 26.882777 -1.371796 1.180724 0.052095 -0.028188 60791.700000 0 0 1
-5.303018 24.421100 11.569020 27.538234 -1.356967 1.137233 0.039063 -0.012779 -58156.700000 0 0 1
-6.089918 25.558200 11.838520 28.817690 -1.336882 1.147457 0.038361 -0.010649 -253411.000000 0 0 1
-6.590418 25.620800 13.334820 29.625604 -1.319025 1.103906 0.033359 -0.002707 425067.000000 0 0 1
-7.651818 24.695400 13.605720 29.215214 -1.270329 1.086363 0.027354 -0.016421 353953.000000 0 0 1
-7.949018 24.749200 14.992220 30.007940 -1.260021 1.047650 0.023658 0.008592 436480.000000 0 0 1
-9.203918 23.928000 15.441120 29.928072 -1.203592 1.028691 0.020345 -0.004091 771722.000000 0 0 1
-10.454118 24.485100 15.039820 30.577850 -1.167268 1.056579 0.027928 0.002933 -281705.000000 0 0 1
-11.446018 23.534600 15.345220 30.337510 -1.118129 1.040468 0.021005 -0.004899 157677.000000 0 0 1
-12.839318 24.206200 15.106320 31.288802 -1.083114 1.066944 0.019037 -0.009431 182166.000000 0 0 1
-13.149918 25.166000 16.114620 32.648566 -1.089290 1.054597 0.026166 -0.009568 371511.000000 0 0 1
-14.206918 26.029600 15.689220 33.548893 -1.071185 1.084163 0.010993 -0.008716 63547.800000 0 0 1
-14.840918 26.953900 16.732120 35.024697 -1.067490 1.072735 0.029423 -0.002565 314500.000000 0 0 1
-15.882418 26.360200 17.517820 35.411656 -1.028530 1.053317 0.032595 -0.008648 386288.000000 0 0 1
-16.497018 27.306300 18.381920 36.819568 -1.027333 1.048071 0.054242 -0.016095 763485.000000 0 0 1
-17.841918 26.791500 19.038320 37.397542 -0.983287 1.036681 0.050756 -0.024727 719097.000000 0 0 1
-18.949618 27.014900 18.213920 37.691375 -0.959097 1.066446 0.041222 -0.021401 118646.000000 0 0 1
-20.163418 26.534800 18.807620 38.267292 -0.920998 1.057008 0.055284 -0.022370 602867.000000 0 0 1
-21.390218 26.508700 17.869120 38.465024 -0.891854 1.087664 0.058771 -0.028887 -344365.000000 0 0 1
-22.034618 27.741200 17.873120 39.680562 -0.899545 1.103555 0.050640 -0.028252 143428.000000 0 0 1
-22.744118 27.937000 16.645320 39.684223 -0.887504 1.137963 0.059189 -0.029005 164174.000000 0 0 1
-23.753118 29.120900 16.625120 41.092968 -0.886572 1.154284 0.064605 -0.029974 -191148.000000 0 0 1
-24.930418 28.963200 17.344020 41.966745 -0.860088 1.144743 0.079908 -0.031889 -141116.000000 0 0 1
-25.769978 30.118200 17.356020 43.271575 -0.863044 1.158084 0.079579 -0.032534 -220330.000000 0 0 1
-27.154778 29.891900 17.918920 44.181391 -0.833342 1.153187 0.096037 -0.030537 -850896.000000 0 0 1
-28.092398 29.164500 17.086020 43.950915 -0.804120 1.171519 0.118887 -0.027761 746980.000000 0 0 1
-29.369648 29.025700 17.710820 44.930398 -0.779508 1.165617 0.133537 -0.032617 448828.000000 0 0 1
-29.465938 28.062600 18.861820 44.849964 -0.761009 1.136741 0.120199 -0.030693 -937020.000000 0 0 1
-29.506828 26.686400 18.451720 43.855248 -0.735249 1.136534 0.113530 -0.025718 31218.600000 0 0 1
-29.959688 25.903600 19.508720 44.149400 -0.712918 1.113103 0.107038 -0.017666 -149668.000000 0 0 1
-30.132708 24.389800 19.119220 43.224843 -0.680454 1.112612 0.100404 -0.019865 -821738.000000 0 0 1
-31.131168 24.150500 18.206820 43.403739 -0.659788 1.137929 0.105896 -0.015248 -692841.000000 0 0 1
-30.880888 23.112300 17.278320 42.265210 -0.642498 1.149650 0.109853 -0.006188 -352524.000000 0 0 1
-31.256408 21.665900 17.684520 41.941823 -0.606125 1.135539 0.092008 -0.006037 66555.500000 0 0 1
-32.611078 21.342500 17.446020 42.700683 -0.579501 1.149915 0.091592 -0.005257 43244.600000 0 0 1
-32.837188 19.966100 17.527420 42.239040 -0.546305 1.142900 0.083073 -0.007205 758636.000000 0 0 1
-34.210014 19.517700 16.878820 42.850440 -0.518465 1.165925 0.099050 -0.020672 838537.000000 0 0 1
-34.303679 19.730300 15.467820 42.488594 -0.521959 1.198188 0.090816 -0.014812 -286079.000000 0 0 1
-35.486624 19.212800 14.936420 43.029395 -0.496224 1.216297 0.104075 -0.020594 -308736.000000 0 0 1
-35.720884 19.556300 13.419920 42.878021 -0.500903 1.252468 0.119399 -0.018581 126214.000000 0 0 1
-36.217408 20.905000 13.234020 43.861817 -0.523493 1.264299 0.117336 -0.030302 28235.900000 0 0 1
-36.521718 21.295300 11.885020 43.915594 -0.527890 1.296746 0.096829 -0.015836 -551147.000000 0 0 1
-35.408058 21.274200 10.867320 42.713239 -0.541029 1.313543 0.111163 -0.021966 -677479.000000 0 0 1
-35.398158 20.045800 10.121520 41.920268 -0.515268 1.326940 0.121406 -0.025775 -101439.000000 0 0 1
-34.148862 19.866200 9.493820 40.631802 -0.526894 1.334961 0.142107 -0.022191 243028.000000 0 0 1
-33.270478 18.791000 10.202420 39.548904 -0.514131 1.309876 0.122914 -0.022754 -107267.000000 0 0 1
-32.849398 19.127200 11.508220 39.716141 -0.527280 1.276818 0.130657 -0.030861 111740.000000 0 0 1
-32.115318 18.043000 12.053820 38.758716 -0.511872 1.254555 0.124246 -0.028042 320541.000000 0 0 1
-31.373318 18.406500 13.425320 38.772717 -0.530577 1.217218 0.103212 -0.011555 322395.000000 0 0 1
-30.253698 19.233600 13.242120 38.217422 -0.566288 1.216965 0.110348 -0.003922 -110924.000000 0 0 1
-30.606868 20.608600 13.488720 39.286643 -0.592603 1.220324 0.114537 -0.005538 -100377.000000 0 0 1
-29.393788 21.514600 13.688720 38.913415 -0.631845 1.211331 0.121546 -0.014099 -251580.000000 0 0 1
-28.855008 21.304100 14.995020 38.875787 -0.635981 1.174812 0.113118 -0.009480 284338.000000 0 0 1
-27.751918 22.181500 15.241320 38.658579 -0.674301 1.165540 0.124367 -0.020422 92278.800000 0 0 1
-27.161208 22.038700 16.646320 38.736746 -0.681656 1.126603 0.108282 -0.020915 -614645.000000 0 0 1
-26.477778 20.805000 16.730320 37.600856 -0.665993 1.109683 0.118290 -0.021586 85091.900000 0 0 1
-26.093758 20.524100 18.067920 37.796463 -0.666487 1.072384 0.103426 -0.013909 -283599.000000 0 0 1
-24.891118 19.594800 18.206020 36.537421 -0.666900 1.049178 0.102050 -0.011441 -345667.000000 0 0 1
-24.238718 19.603200 19.429320 36.732811 -0.680057 1.013450 0.102050 -0.010820 314075.000000 0 0 1
-23.068718 18.789100 19.393020 35.514578 -0.683510 0.993145 0.100718 -0.009765 556676.000000 0 0 1
-22.198218 18.764200 20.699820 35.683871 -0.701760 0.951958 0.101474 -0.017447 336428.000000 0 0 1
-22.835718 18.069800 21.777220 36.362549 -0.669411 0.928680 0.127474 -0.004923 196490.000000 0 0 1
-23.721618 18.855800 22.531220 37.761253 -0.671610 0.931444 0.107614 -0.017149 -22841.700000 0 0 1
-24.446518 18.039600 23.698620 38.531597 -0.635726 0.908355 0.086507 -0.030422 -160563.000000 0 0 1
-23.663918 17.472100 24.731320 38.430372 -0.635999 0.871688 0.101273 -0.017209 99973.900000 0 0 1
-24.224218 16.265700 25.286320 38.610668 -0.591317 0.856739 0.102998 -0.011094 -47243.500000 0 0 1
21.473982 24.359500 33.017862 46.310867 0.848272 0.777084 0.034097 -0.001218 67391.800000 0 0 1
22.138982 23.144100 32.659464 45.743027 0.807591 0.775635 0.052955 -0.021436 363741.000000 0 0 1
21.400382 22.003600 33.070767 45.119956 0.799295 0.748145 0.048180 -0.024115 -457806.000000 0 0 1
20.295882 21.550200 32.149211 43.702468 0.815364 0.744188 0.065308 -0.027704 -660578.000000 0 0 1
20.867782 21.082200 30.944047 42.865575 0.790509 0.764273 0.077351 -0.023197 413644.000000 0 0 1
20.042482 20.092100 30.334737 41.540220 0.786634 0.752109 0.076597 -0.035681 -225132.000000 0 0 1
20.610082 19.482400 29.076827 40.617746 0.757279 0.772934 0.084086 -0.029766 -276926.000000 0 0 1
21.767582 18.721700 29.332597 41.045474 0.710313 0.774692 0.084022 -0.025315 -170765.000000 0 0 1
22.169482 17.984800 28.189767 40.119845 0.681558 0.791697 0.077935 -0.020422 658016.000000 0 0 1
23.457382 17.085500 28.430077 40.625514 0.629509 0.795667 0.069264 -0.016974 797268.000000 0 0 1
24.632282 17.871100 28.362917 41.600248 0.627646 0.820580 0.072637 -0.015640 -324284.000000 0 0 1
25.655482 17.242800 29.100277 42.454023 0.591748 0.815569 0.069052 -0.003217 -80972.500000 0 0 1
27.014082 17.982300 29.016527 43.532546 0.587308 0.841228 0.063853 -0.007992 -250490.000000 0 0 1
27.670382 17.686900 27.806187 43.030925 0.568745 0.868214 0.066639 0.003383 -453330.000000 0 0 1
28.946782 18.263600 27.842347 44.121101 0.562857 0.887898 0.069706 -0.002412 -344033.000000 0 0 1
29.860482 17.927200 26.682187 43.874503 0.540688 0.917071 0.073681 -0.001159 -244223.000000 0 0 1
29.644082 18.709200 25.544947 43.374533 0.562994 0.941051 0.079090 -0.013909 431410.000000 0 0 1
30.647382 18.457800 24.555207 43.392518 0.542082 0.969289 0.085651 -0.001133 -75534.000000 0 0 1
31.017182 19.655600 23.684037 43.696016 0.564831 0.997959 0.093496 -0.015322 -88104.400000 0 0 1
30.013882 20.124600 22.770967 42.712405 0.590658 1.008509 0.078879 -0.015566 134221.000000 0 0 1
30.370482 21.032500 21.728867 42.858790 0.605696 1.039110 0.078733 -0.023704 -218280.000000 0 0 1
31.149182 20.317800 20.609367 42.518590 0.577972 1.064760 0.107534 -0.020643 25824.200000 0 0 1
30.316782 19.345300 19.997567 41.149126 0.567968 1.063315 0.110293 -0.034838 390725.000000 0 0 1
30.994982 18.618000 19.009767 40.849603 0.540918 1.086755 0.132993 -0.032313 133628.000000 0 0 1
32.043282 17.524800 19.424867 41.366846 0.500468 1.081986 0.152327 -0.045868 239072.000000 0 0 1
31.500482 16.353100 19.940667 40.710373 0.478841 1.058916 0.162278 -0.043439 876533.000000 0 0 1
32.599982 15.484800 20.261167 41.389041 0.443444 1.059246 0.147379 -0.042075 355542.000000 0 0 1
32.030782 14.078300 20.573767 40.588784 0.414108 1.039231 0.152480 -0.040189 642945.000000 0 0 1
31.282982 13.856200 21.784567 40.560900 0.416960 1.003821 0.132464 -0.043485 295562.000000 0 0 1
29.997882 14.407100 21.888567 39.831480 0.447740 0.988996 0.134837 -0.035176 -653483.000000 0 0 1
29.179082 13.849200 23.090467 39.703763 0.443145 0.950141 0.091945 -0.026294 79017.400000 0 0 1
28.559482 12.618400 22.742867 38.627788 0.416038 0.941261 0.100367 -0.028071 -102162.000000 0 0 1
28.339682 11.860400 23.937347 38.946158 0.396360 0.908884 0.087861 -0.015360 -425698.000000 0 0 1
27.760382 10.537400 23.617957 37.940526 0.362784 0.898864 0.088919 -0.018904 230694.000000 0 0 1
26.458682 10.557000 23.027107 36.630039 0.379644 0.890993 0.051073 -0.010992 633108.000000 0 0 1
26.168882 9.251500 22.508567 35.735644 0.339817 0.889419 0.052563 -0.015199 126707.000000 0 0 1
24.907982 9.135300 21.610267 34.217903 0.351529 0.887247 0.043981 -0.021493 -810073.000000 0 0 1
23.671882 9.096700 22.219867 33.716916 0.366884 0.851291 0.036034 -0.017639 -1090140.000000 0 0 1
22.767782 8.915400 21.170167 32.342421 0.373226 0.857191 0.048740 -0.004687 -1032300.000000 0 0 1
21.349182 9.275300 21.614067 31.764550 0.409853 0.822425 0.039466 -0.008910 -597162.000000 0 0 1
20.901382 8.284800 22.502867 31.810135 0.377378 0.784967 0.040256 -0.005400 388045.000000 0 0 1
19.509582 8.338800 22.798267 31.143544 0.403919 0.749487 0.050621 -0.010134 373533.000000 0 0 1
19.114382 7.678800 24.127997 31.725129 0.381996 0.706663 0.038123 -0.000645 -202658.000000 0 0 1
19.135582 6.259600 24.155197 31.445614 0.316147 0.694837 0.050106 -0.003992 279345.000000 0 0 1
18.764982 5.984800 25.492967 32.215427 0.308736 0.657818 0.035602 -0.002012 -2687.750000 0 0 1
18.771582 4.466900 25.756147 32.182365 0.233616 0.642970 0.041129 -0.012182 1601370.000000 0 0 1
20.148582 4.004500 25.542857 32.778635 0.196192 0.677323 0.042317 -0.007245 1818430.000000 0 0 1
20.321782 2.589600 25.760117 32.912984 0.126747 0.671847 0.052329 -0.009093 -264949.000000 0 0 1
21.751482 2.206000 25.327387 33.458481 0.101073 0.712118 0.054570 -0.013063 -403922.000000 0 0 1
22.667382 2.724400 26.266467 34.801722 0.119617 0.715529 0.061622 -0.012044 -393036.000000 0 0 1
23.941582 2.277800 25.838157 35.298698 0.094854 0.749564 0.070360 -0.012570 69531.500000 0 0 1
25.003082 2.728400 26.901397 36.827754 0.108692 0.751793 0.062576 -0.007992 -895384.000000 0 0 1
25.099382 1.865500 28.007197 37.654510 0.074188 0.732068 0.082030 -0.018815 355857.000000 0 0 1
26.029282 2.249100 28.998597 39.032046 0.086192 0.733339 0.076086 -0.006373 -369881.000000 0 0 1
27.511482 2.390300 28.706797 39.833094 0.086666 0.766018 0.056154 -0.013199 -1563150.000000 0 0 1
27.731682 3.584600 28.021087 39.586322 0.128547 0.784350 0.076921 0.001695 1598030.000000 0 0 1
29.134082 3.882400 27.705757 40.391543 0.132479 0.814916 0.079823 0.001154 1911320.000000 0 0 1
29.964582 2.976500 26.773737 40.293532 0.099009 0.844015 0.098973 0.002357 -378513.000000 0 0 1
29.562282 3.085100 25.433957 39.119465 0.103983 0.863000 0.097075 0.007061 -88460.500000 0 0 1
29.766682 1.938600 24.647507 38.695131 0.065035 0.880239 0.115413 0.009986 -305243.000000 0 0 1
29.505282 2.178200 23.138307 37.559120 0.073690 0.907078 0.113466 -0.003120 361091.000000 0 0 1
30.248582 3.221200 22.434367 37.797535 0.106091 0.935345 0.108664 0.001867 -54878.700000 0 0 1
31.604282 2.873100 22.233067 38.747834 0.090659 0.959672 0.101726 0.001747 -100132.000000 0 0 1
32.330182 4.126200 21.688067 39.148926 0.126941 0.983648 0.122283 -0.008381 -544004.000000 0 0 1
32.003582 4.493300 20.333267 38.181943 0.139488 1.009202 0.111193 -0.010648 78220.000000 0 0 1
32.621782 5.673700 19.819867 38.590137 0.172201 1.031422 0.128187 -0.013101 1336710.000000 0 0 1
34.195082 5.567800 19.533267 39.772510 0.161408 1.057416 0.108895 -0.014531 1598450.000000 0 0 1
35.064082 5.449700 20.658167 41.060308 0.154188 1.043594 0.101446 -0.012904 410050.000000 0 0 1
35.154882 6.659800 21.466067 41.725420 0.187223 1.030418 0.108843 -0.020031 -428624.000000 0 0 1
35.818382 6.484300 22.873667 42.990781 0.179093 1.009765 0.123846 -0.019125 186198.000000 0 0 1
34.979782 5.813800 23.757527 42.682614 0.164699 0.980498 0.135865 -0.005090 367426.000000 0 0 1
35.781082 5.325300 24.828427 43.875909 0.147746 0.969298 0.138583 -0.010978 156706.000000 0 0 1
35.014282 4.358800 25.698307 43.650911 0.123849 0.941318 0.139849 -0.010010 -105018.000000 0 0 1
34.856582 3.072500 25.072147 43.046883 0.087920 0.949071 0.151917 -0.012320 209515.000000 0 0 1
34.072682 2.249900 25.924957 42.873221 0.065937 0.921421 0.126103 -0.010589 75717.400000 0 0 1
34.044482 0.738100 25.524287 42.556560 0.021677 0.927579 0.129982 -0.013884 -26450.700000 0 0 1
33.221982 0.363300 24.427947 41.237806 0.010935 0.936802 0.135761 -0.009966 112475.000000 0 0 1
33.240682 -1.032500 24.340197 41.212306 -0.031051 0.938988 0.126513 -0.018376 -586929.000000 0 0 1
32.322382 -1.651000 23.326647 39.894795 -0.051035 0.946281 0.134275 -0.012923 -448218.000000 0 0 1
31.006482 -1.736800 23.796987 39.124353 -0.055956 0.916955 0.116453 -0.007882 -70039.100000 0 0 1
30.053282 -2.345800 22.909277 37.862085 -0.077897 0.920940 0.129834 -0.015517 1388580.000000 0 0 1
28.540882 -2.135200 23.235827 36.865223 -0.074673 0.888868 0.103243 -0.008468 955067.000000 0 0 1
27.985782 -0.854800 22.863467 36.147929 -0.030535 0.886023 0.103621 -0.007906 -11007.200000 0 0 1
26.588782 -0.755400 23.029597 35.183750 -0.028403 0.857206 0.087401 -0.009871 149476.000000 0 0 1
26.035382 0.656000 22.780867 34.601147 0.025191 0.852126 0.077326 -0.002024 -131265.000000 0 0 1
26.113282 1.167100 21.469067 33.825825 0.044664 0.883183 0.068231 -0.004296 331557.000000 0 0 1
25.479782 2.458500 21.432867 33.386094 0.096190 0.873732 0.062651 -0.003573 87808.700000 0 0 1
25.609982 3.191300 20.088367 32.704710 0.123973 0.909381 0.068805 -0.014962 -286535.000000 0 0 1
24.751182 2.721500 19.083367 31.372001 0.109514 0.916888 0.069213 -0.018898 254329.000000 0 0 1
24.475982 3.702100 18.085267 30.657073 0.150117 0.939835 0.070000 -0.017148 -52811.400000 0 0 1
23.978882 2.966400 16.815667 29.437272 0.123084 0.962784 0.079849 -0.024378 -446488.000000 0 0 1
24.986282 2.353300 16.055567 29.793179 0.093907 1.001665 0.089760 -0.036002 -43331.700000 0 0 1
24.918182 2.534200 14.653167 29.018154 0.101352 1.041454 0.090066 -0.042611 -197328.000000 0 0 1
23.893882 1.694700 13.829567 27.659474 0.070808 1.047205 0.107684 -0.019733 497092.000000 0 0 1
22.491482 1.908500 13.992367 26.557399 0.084652 1.015879 0.091412 -0.020523 1137550.000000 0 0 1
21.887782 0.695500 13.491467 25.721166 0.031765 1.018636 0.103494 -0.024478 163242.000000 0 0 1
20.358382 0.454500 13.672967 24.527950 0.022321 0.979492 0.099073 -0.039115 618251.000000 0 1 0
19.403982 1.062200 12.800167 23.269875 0.054687 0.988343 0.105500 -0.032146 558624.000000 0 1 0
19.388082 0.735200 11.422967 22.514938 0.037902 1.038689 0.109362 -0.031427 -943770.000000 0 1 0
19.344082 -0.751900 11.004767 22.267998 -0.038850 1.053886 0.114599 -0.021604 427343.000000 0 1 0
20.514282 -1.570800 11.210467 23.430274 -0.076422 1.071895 0.106967 -0.031801 274589.000000 0 1 0
21.574382 -1.319900 10.350967 23.965363 -0.061103 1.124183 0.115336 -0.028214 -1257500.000000 0 1 0
22.784482 -2.142300 10.740267 25.279941 -0.093749 1.131996 0.127378 -0.036516 -948270.000000 0 0 1
23.418882 -1.843100 11.914767 26.340135 -0.078540 1.101406 0.122596 -0.045231 -306054.000000 0 0 1
24.350482 -2.851000 12.194967 27.382319 -0.116551 1.109221 0.117027 -0.042800 -87823.300000 0 0 1
24.863582 -2.799400 13.701867 28.526751 -0.112118 1.069781 0.146910 -0.043088 127843.000000 0 0 1
25.792382 -1.761100 13.899467 29.352063 -0.068174 1.077487 0.132926 -0.041159 -28847.600000 0 0 1
25.912882 -1.525100 15.271467 30.116791 -0.058787 1.039009 0.124006 -0.039477 101331.000000 0 0 1
27.053882 -0.562100 15.667367 31.268113 -0.020774 1.045967 0.155752 -0.037043 73940.300000 0 0 1
28.352282 -1.083700 15.477767 32.320080 -0.038204 1.071406 0.159570 -0.036973 269089.000000 0 0 1
29.324282 -0.053200 15.716067 33.270274 -0.001814 1.078812 0.130485 -0.036568 6686.120000 0 0 1
30.705782 -0.609700 16.059167 34.657086 -0.019854 1.088998 0.138404 -0.033731 -176089.000000 0 0 1
31.447482 -1.184200 14.993167 34.858880 -0.037639 1.126181 0.145083 -0.031963 -617492.000000 0 0 1
32.811982 -1.107700 15.205867 36.181094 -0.033746 1.137052 0.131488 -0.032299 -895768.000000 0 0 1
33.682782 -1.918700 14.259067 36.626933 -0.056902 1.170919 0.111390 -0.043287 -358536.000000 0 0 1
33.732182 -1.358500 12.920267 36.147461 -0.040251 1.205279 0.114456 -0.044589 129882.000000 0 0 1
34.444682 -2.273400 12.096467 36.577711 -0.065906 1.233745 0.106305 -0.038352 5182.340000 0 0 1
34.152882 -2.057300 10.592567 35.816955 -0.060165 1.270564 0.125431 -0.026895 -107849.000000 0 0 1
34.481582 -0.770300 10.067767 35.929553 -0.022336 1.286785 0.107262 -0.024822 -146230.000000 0 0 1
33.439282 0.130800 10.151267 34.946400 0.003912 1.276067 0.103477 -0.025016 -962279.000000 0 0 1
33.932382 1.504800 9.734567 35.333168 0.044318 1.291678 0.110604 -0.032510 21919.100000 0 0 1
34.202082 1.494200 8.330367 35.233649 0.043660 1.332104 0.111232 -0.026000 404998.000000 0 0 1
34.848082 2.676800 7.860567 35.823771 0.076663 1.349573 0.112639 -0.026113 -110296.000000 0 0 1
34.871482 2.842000 6.345067 35.557799 0.081320 1.391392 0.097952 -0.032547 -185360.000000 0 0 1
35.506682 3.999600 5.908267 36.216417 0.112171 1.406926 0.092283 -0.017144 -16307.700000 0 0 1
35.582882 4.097600 4.471367 36.096051 0.114651 1.446603 0.136270 -0.023628 -26079.300000 0 0 1
36.270182 5.409200 3.983267 36.887016 0.148045 1.462600 0.166373 -0.036842 336916.000000 0 0 1
35.493182 6.568000 4.335967 36.355263 0.182980 1.451245 0.153009 -0.039620 181546.000000 0 0 1
35.995482 7.734000 3.730867 37.005524 0.211643 1.469806 0.151863 -0.048099 -525708.000000 0 0 1
34.970582 8.960300 3.582467 36.277577 0.250828 1.471884 0.161550 -0.034379 1128480.000000 0 0 1
33.947382 8.797600 2.591867 35.164474 0.253575 1.497022 0.170045 -0.040862 325885.000000 0 0 1
32.980482 7.816800 2.913567 34.019162 0.232719 1.485046 0.163241 -0.037418 -699873.000000 0 0 1
31.745182 7.920400 1.971767 32.777693 0.244507 1.510604 0.171129 -0.039827 232857.000000 0 0 1
32.067682 7.676600 0.615467 32.979466 0.234966 1.552133 0.180979 -0.040784 -320467.000000 0 0 1
30.932982 7.879000 -0.166433 31.921085 0.249408 1.576010 0.157351 -0.029713 -475346.000000 0 0 1
31.199682 7.788700 -1.664333 32.200217 0.244640 1.622506 0.137151 -0.024664 -504554.000000 0 0 1
30.179682 7.297200 -2.486333 31.148743 0.237239 1.650703 0.155707 -0.024773 47730.300000 0 0 1
30.679982 6.953900 -3.740733 31.679821 0.222893 1.689152 0.136562 -0.027623 -279774.000000 0 0 1
29.644582 6.305800 -4.689333 30.668456 0.209590 1.724303 0.161473 -0.026533 -258567.000000 0 0 1
29.487682 4.943600 -4.421233 30.224325 0.166105 1.717604 0.167260 -0.029197 650393.000000 0 0 1
28.433682 4.397500 -5.192733 29.236565 0.153442 1.749355 0.162604 -0.026993 -228947.000000 0 0 1
28.383482 2.809400 -5.167833 28.986570 0.098659 1.750038 0.189269 -0.021650 -336293.000000 0 0 1
27.908982 2.303300 -3.956433 28.281970 0.082342 1.711149 0.188308 -0.028849 433834.000000 0 0 1
27.830582 0.908400 -4.133933 28.150593 0.032629 1.718180 0.178893 -0.029644 -160074.000000 0 0 1
27.766282 0.125100 -2.772133 27.904601 0.004505 1.670304 0.169411 -0.034213 -65524.800000 0 0 1
29.010682 0.130700 -2.106233 29.087333 0.004505 1.643270 0.169438 -0.039271 201787.000000 0 0 1
28.930082 0.079200 -0.658733 28.937689 0.002738 1.593562 0.170583 -0.033128 -727063.000000 0 0 1
30.249782 0.477300 -0.022133 30.253555 0.015777 1.571528 0.182273 -0.032573 54251.300000 0 0 1
31.313982 -0.442600 -0.392933 31.319574 -0.014133 1.583343 0.171210 -0.035168 592850.000000 0 0 1
32.554582 0.187800 -0.138433 32.555418 0.005769 1.575049 0.127532 -0.029893 -78075.900000 0 0 1
-3.789418 -21.482100 -8.927380 23.569863 1.396194 1.959255 0.037687 0.012772 -15150.200000 0 1 0
-3.806818 -21.809200 -7.512080 23.378717 1.397986 1.897921 0.038082 -0.003660 -682577.000000 0 1 0
-2.838118 -22.740700 -7.132380 24.001358 1.446635 1.872519 0.048446 -0.009546 -105685.000000 0 1 0
-3.147918 -23.394500 -5.701480 24.284129 1.437042 1.807791 0.047206 -0.009754 -195101.000000 0 1 0
-3.079418 -22.589800 -4.569580 23.252160 1.435312 1.768607 0.054456 -0.016991 -347529.000000 0 1 0
-3.347818 -23.321600 -3.428680 23.808838 1.428220 1.715308 0.055516 -0.016260 -292521.000000 0 1 0
-2.789018 -22.697800 -2.130380 22.967527 1.448533 1.663686 0.058659 -0.024742 525610.000000 0 1 0
-1.364718 -22.669000 -2.133980 22.810083 1.510667 1.664488 0.067420 -0.028992 -192866.000000 0 1 0
-0.948718 -22.671100 -0.786480 22.704568 1.528974 1.605443 0.055320 -0.031502 -337809.000000 0 1 0
0.565982 -22.533900 -0.662780 22.550749 -1.545685 1.600191 0.059771 -0.031230 -803593.000000 0 1 0
1.044182 -21.311300 -0.974980 21.359130 -1.521839 1.616459 0.043578 -0.028027 -537139.000000 0 1 0
2.272382 -21.116000 -0.303780 21.240091 -1.463595 1.585099 0.033625 -0.028298 -23744.800000 0 1 0
3.190082 -19.986100 -0.799480 20.254876 -1.412516 1.610278 0.033235 -0.024420 -97702.900000 0 1 0
3.848982 -20.445900 -1.907880 20.892331 -1.384722 1.662243 0.028417 -0.020921 -790366.000000 0 1 0
4.996482 -19.670300 -2.187480 20.412511 -1.322046 1.678166 0.037423 -0.012614 43650.100000 0 1 0
5.591782 -20.115300 -3.532080 21.174723 -1.299656 1.738386 0.036790 -0.008051 -747425.000000 0 1 0
6.396082 -21.285000 -3.347280 22.475884 -1.278884 1.720280 0.035992 -0.008602 -42250.700000 0 1 0
7.307982 -21.653500 -4.348080 23.263415 -1.245304 1.758808 0.038723 -0.008832 512912.000000 0 1 0
8.463582 -20.654000 -4.670180 22.804178 -1.181888 1.777051 0.056102 -0.014320 -341309.000000 0 1 0
8.146282 -19.603400 -5.550980 21.942392 -1.176953 1.826555 0.038482 -0.015488 -464560.000000 0 1 0
9.288182 -18.870300 -5.855880 21.832313 -1.113399 1.842342 0.056321 -0.027074 -604570.000000 0 1 0
9.114082 -18.041700 -7.104480 21.425290 -1.103023 1.908788 0.040958 -0.007618 -349028.000000 0 1 0
10.224182 -17.205200 -7.278480 21.296222 -1.034616 1.919600 0.053422 -0.026497 -89794.600000 0 1 0
10.039582 -16.303000 -8.345980 20.886273 -1.018831 1.981868 0.049238 -0.016085 -309906.000000 0 1 0
10.543182 -16.865600 -9.728080 22.141425 -1.012104 2.025684 0.050456 -0.005314 -606308.000000 0 1 0
9.698082 -17.555000 -10.626880 22.697167 -1.066082 2.058052 0.045650 -0.005185 -389233.000000 0 1 0
8.956582 -16.618600 -11.354680 22.030138 -1.076477 2.112289 0.028178 -0.010890 -143925.000000 0 1 0
8.267882 -17.115400 -12.655580 22.835466 -1.120787 2.158207 0.027537 -0.016193 9678.340000 0 1 0
7.261482 -18.088600 -12.393180 23.097998 -1.189049 2.137137 0.017541 -0.006101 126333.000000 0 1 0
7.052782 -18.759800 -13.615180 24.229011 -1.211191 2.167522 0.025496 -0.001961 -261444.000000 0 1 0
5.856582 -19.717600 -13.637980 24.679502 -1.282073 2.156281 0.025535 0.015736 -220043.000000 0 1 0
5.883982 -20.643400 -12.603980 24.892399 -1.293130 2.101730 0.033384 -0.001626 258259.000000 0 1 0
4.663982 -21.376000 -12.569280 25.232378 -1.355975 2.092250 0.056432 -0.003340 349492.000000 0 0 1
4.962082 -22.855200 -12.182980 26.370579 -1.357005 2.051036 0.039317 0.000390 -570763.000000 0 0 1
5.511382 -23.690000 -13.191680 27.669692 -1.342216 2.067756 0.055092 -0.015599 -176860.000000 0 0 1
5.144382 -25.036000 -13.128080 28.733473 -1.368138 2.045294 0.045820 -0.023504 -281986.000000 0 0 1
3.724382 -25.298770 -13.644180 28.983831 -1.424630 2.060939 0.064262 -0.026830 -398895.000000 0 0 1
2.711782 -24.659500 -12.832580 27.930625 -1.461267 2.048166 0.067325 -0.022415 -603043.000000 0 0 1
1.438782 -24.868100 -13.355280 28.264041 -1.513004 2.062942 0.061927 -0.026858 -145794.000000 0 0 1
0.715382 -26.239260 -13.031080 29.305624 -1.543539 2.031593 0.060802 -0.020588 -519101.000000 0 0 1
1.361782 -27.414820 -13.619180 30.641620 -1.521164 2.031375 0.063545 -0.015189 264046.000000 0 0 1
0.936582 -28.697260 -13.142280 31.577357 -1.538171 2.000051 0.057421 -0.010461 125918.000000 0 0 1
-0.475818 -29.213460 -13.542880 32.203451 1.554510 2.004838 0.046622 -0.017209 988652.000000 0 0 1
-1.536718 -28.318540 -13.123980 31.249641 1.516584 2.004211 0.030901 -0.019199 173311.000000 0 0 1
-2.783218 -28.956740 -13.285380 31.980313 1.474974 1.999205 0.032767 -0.015250 -163909.000000 0 0 1
-3.966518 -27.986740 -12.980980 31.104610 1.430006 2.001305 0.026765 -0.009891 437381.000000 0 0 1
-4.586718 -27.903340 -11.688780 30.598398 1.407874 1.962763 0.032990 -0.017215 125495.000000 0 0 1
-5.353018 -29.046690 -11.418480 31.666176 1.388551 1.939696 0.026601 -0.021678 -796417.000000 0 0 1
-5.832018 -29.283910 -9.963980 31.477623 1.374214 1.892878 0.030314 -0.023597 569202.000000 0 0 1
-7.186818 -28.964250 -9.634780 31.359323 1.327581 1.883086 0.036980 -0.021444 230042.000000 0 0 1
-7.419618 -27.596470 -9.333580 30.062129 1.308146 1.886490 0.039679 -0.014469 184879.000000 0 0 1
-8.902418 -27.375810 -8.849180 30.116375 1.256390 1.869031 0.047116 -0.012558 1151390.000000 0 0 1
-9.975618 -27.483380 -9.753880 30.821864 1.222615 1.892791 0.069544 -0.021241 -47358.400000 0 0 1
-10.177718 -28.834410 -10.191880 32.231717 1.231477 1.892525 0.076555 -0.029285 -1351890.000000 0 0 1
-11.343118 -29.137880 -11.113580 33.184244 1.199556 1.912301 0.099398 -0.034329 -702941.000000 0 0 1
-11.259318 -28.387070 -12.245780 32.902236 1.193194 1.952160 0.110667 -0.037014 311467.000000 0 0 1
-12.061618 -28.892400 -13.332980 34.029719 1.175324 1.973388 0.123443 -0.044531 201258.000000 0 0 1
-12.032418 -27.972480 -14.587980 33.764595 1.164570 2.017561 0.128428 -0.041556 -138796.000000 0 0 1
-12.948918 -26.877330 -14.543180 33.189900 1.121832 2.024370 0.116736 -0.041332 135377.000000 0 0 1
-12.833918 -25.905780 -13.508580 31.910823 1.110829 2.007906 0.127017 -0.036839 -73540.200000 0 0 1
-13.948418 -24.842100 -13.623380 31.579816 1.059180 2.016835 0.158538 -0.030159 -44923.200000 0 0 1
-13.619518 -24.051300 -14.773980 31.340498 1.055548 2.061676 0.146275 -0.031337 104191.000000 0 0 1
-14.640718 -23.135100 -15.074680 31.254271 1.006582 2.074102 0.157534 -0.032697 -327293.000000 0 0 1
-14.452718 -22.363100 -16.369080 31.255977 0.997044 2.121997 0.140993 -0.031491 404854.000000 0 0 1
-13.335318 -21.465900 -16.277080 30.059257 1.014911 2.143016 0.130696 -0.027924 571834.000000 0 0 1
-13.218818 -20.759400 -17.484980 30.189640 1.003783 2.188508 0.086066 -0.023165 -160350.000000 0 0 1
-13.242318 -19.211100 -17.375780 29.091977 0.967284 2.210890 0.087766 -0.021945 173630.000000 0 0 1
-12.006418 -18.516300 -17.290580 28.035185 0.995530 2.235398 0.072584 -0.017482 133564.000000 0 0 1
-12.223818 -17.078400 -17.292280 27.205081 0.949580 2.259617 0.076967 -0.012242 -115587.000000 0 0 1
-10.936318 -16.278400 -17.471880 26.265109 0.979228 2.298575 0.080474 -0.018152 -150159.000000 0 0 1
-10.089618 -16.220500 -16.347280 25.142367 1.014336 2.278629 0.084035 -0.010992 -243018.000000 0 0 1
-8.908418 -15.507500 -16.607580 24.406028 1.049369 2.319201 0.070304 -0.012905 -856899.000000 0 1 0
-8.352718 -14.938600 -15.308780 22.962762 1.060966 2.300540 0.067081 -0.011189 -225794.000000 0 1 0
-8.038718 -15.866800 -14.284880 22.813026 1.101853 2.247430 0.068036 -0.004545 -314040.000000 0 1 0
-7.092318 -16.840400 -14.583080 23.378757 1.172192 2.244359 0.058262 0.007109 -1102050.000000 0 1 0
-6.541918 -17.578400 -13.371880 23.034844 1.214521 2.190147 0.043992 0.001701 -717720.000000 0 1 0
-5.819218 -16.685100 -12.556580 21.677721 1.235220 2.188591 0.044118 -0.007124 330899.000000 0 1 0
-5.315718 -17.296900 -11.331080 21.350246 1.272636 2.130250 0.030714 -0.015287 331818.000000 0 1 0
-4.195418 -18.384100 -11.444880 22.058149 1.346430 2.116302 0.036775 -0.014074 -826098.000000 0 1 0
-2.951918 -17.927100 -11.796080 21.662000 1.407598 2.146651 0.039676 -0.004512 -1606440.000000 0 1 0
-1.925818 -18.865200 -11.653480 22.257766 1.469066 2.121831 0.021110 -0.001266 105823.000000 0 1 0
-0.561518 -18.374000 -12.159480 22.040239 1.540245 2.155191 0.028892 -0.003753 -555565.000000 0 1 0
-0.487318 -18.482400 -13.568080 22.933151 1.544436 2.203883 0.038284 0.007613 -142536.000000 0 1 0
0.633582 -17.830500 -14.127080 22.757473 -1.535278 2.240517 0.040820 0.004736 611303.000000 0 1 0
2.032282 -18.516000 -14.080480 23.350211 -1.461476 2.218069 0.051033 -0.005779 155905.000000 0 1 0
2.176482 -19.641900 -14.945380 24.777121 -1.460438 2.218294 0.074267 0.001366 -67577.100000 0 1 0
1.566282 -20.832900 -14.498980 25.429970 -1.495754 2.177489 0.066573 -0.005167 -1011310.000000 0 0 1
1.474082 -21.924800 -15.592980 26.944588 -1.503664 2.187937 0.081814 -0.007297 127671.000000 0 0 1
2.672482 -22.504500 -16.063980 27.778520 -1.452597 2.187425 0.073743 -0.010991 -155951.000000 0 0 1
3.611082 -21.634200 -16.645780 27.534715 -1.405406 2.219982 0.071791 -0.012757 -826765.000000 0 0 1
4.981082 -22.262700 -16.894780 28.387895 -1.350680 2.208237 0.081639 -0.016653 -334925.000000 0 0 1
5.034482 -23.061000 -18.071780 29.727849 -1.355857 2.224219 0.074942 -0.023046 453989.000000 0 0 1
6.344682 -23.572600 -18.306380 30.513047 -1.307872 2.214238 0.068299 -0.024183 529407.000000 0 0 1
6.743082 -23.453000 -19.776780 31.410721 -1.290833 2.251859 0.068242 -0.013105 -222326.000000 0 0 1
6.711182 -22.103100 -20.239680 30.712077 -1.276012 2.290303 0.083477 -0.023192 -136209.000000 0 0 1
7.291982 -21.965700 -21.478680 31.575286 -1.250272 2.318882 0.055842 -0.022689 -168735.000000 0 0 1
7.553482 -20.536200 -21.970780 31.008157 -1.218341 2.358235 0.051446 -0.032961 247373.000000 0 0 1
6.345882 -19.850800 -22.250180 30.485980 -1.261385 2.388898 0.081770 -0.039698 182917.000000 0 0 1
6.639082 -18.528100 -22.580480 29.954065 -1.226724 2.424679 0.091274 -0.043127 237191.000000 0 0 1
5.352682 -17.711200 -22.832380 29.388015 -1.277304 2.460568 0.078792 -0.047851 -641828.000000 0 0 1
4.689182 -18.088900 -24.010780 30.425553 -1.317150 2.480245 0.069281 -0.040237 721965.000000 0 0 1
3.531782 -17.324700 -24.422680 30.151054 -1.369694 2.514967 0.074353 -0.038952 1380790.000000 0 0 1
2.272982 -17.345300 -23.499980 29.296330 -1.440496 2.501679 0.066682 -0.036145 -530537.000000 0 0 1
2.457282 -16.554600 -22.327480 27.903573 -1.423437 2.498368 0.068926 -0.039882 -1168730.000000 0 0 1
1.268382 -16.070600 -21.833080 27.139572 -1.492034 2.505586 0.058389 -0.035502 -591903.000000 0 0 1
1.432982 -15.125000 -20.637680 25.626801 -1.476336 2.507005 0.051606 -0.035983 -82722.400000 0 0 1
2.376282 -14.106800 -20.818680 25.259968 -1.403914 2.539543 0.049659 -0.024535 -244354.000000 0 0 1
2.237082 -13.224000 -19.745880 23.870034 -1.403215 2.544946 0.047880 -0.022072 803300.000000 0 1 0
3.464682 -12.240400 -19.607980 23.373154 -1.294959 2.566074 0.043801 -0.025134 1114990.000000 0 1 0
4.734082 -12.863400 -19.359880 23.720952 -1.218153 2.525515 0.045039 -0.027683 566172.000000 0 1 0
5.914382 -12.103000 -19.392780 23.612337 -1.116253 2.534480 0.053326 -0.020758 344183.000000 0 1 0
6.111782 -11.025000 -18.316380 22.234979 -1.064614 2.538815 0.059547 -0.016961 -509718.000000 0 1 0
5.146882 -9.935600 -18.332580 21.477664 -1.092834 2.593586 0.026464 -0.002734 604931.000000 0 1 0
5.386882 -8.804600 -19.214180 21.811103 -1.021727 2.648632 0.042188 -0.010873 -292956.000000 0 1 0
4.832982 -8.993300 -20.666580 23.050915 -1.077680 2.682742 0.054992 -0.021220 -589866.000000 0 1 0
3.440882 -9.008600 -20.664380 22.803753 -1.205942 2.704966 0.036425 -0.020014 -755596.000000 0 1 0
2.921482 -9.076400 -21.983480 23.962252 -1.259392 2.732347 0.047702 -0.025307 -203969.000000 0 1 0
1.417282 -8.815500 -21.994980 23.738174 -1.411389 2.755974 0.042373 -0.030591 -426451.000000 0 1 0
0.963082 -7.493500 -21.706680 22.983908 -1.442975 2.806651 0.034533 -0.029680 208073.000000 0 1 0
-0.432318 -7.360000 -21.973380 23.177272 1.512125 2.817868 0.036644 -0.024449 426760.000000 0 1 0
-0.865518 -6.448800 -23.074480 23.974315 1.437380 2.866746 0.042595 -0.015730 -206320.000000 0 1 0
-0.556318 -7.035100 -24.350280 25.352283 1.491883 2.859506 0.047128 -0.019840 -294244.000000 0 0 1
-1.201818 -6.315800 -25.398790 26.199852 1.382757 2.893673 0.068406 -0.028414 -257158.000000 0 0 1
-0.691418 -4.929200 -25.785040 26.261062 1.431436 2.950902 0.065574 -0.021206 -241180.000000 0 0 1
-1.278218 -4.338000 -26.937150 27.314138 1.284249 2.975257 0.061070 -0.022983 -153276.000000 0 0 1
-0.841818 -2.991800 -27.229110 27.405911 1.296513 3.027943 0.053617 -0.020603 -602203.000000 0 0 1
-1.294718 -1.846800 -26.281100 26.377703 0.959359 3.055983 0.048748 -0.021036 60782.800000 0 0 1
-2.649018 -1.529300 -26.088770 26.267470 0.523567 3.024881 0.049401 -0.022916 57554.900000 0 0 1
-3.394818 -1.022800 -27.200020 27.430130 0.292633 3.011973 0.065725 -0.012127 -191849.000000 0 0 1
-4.917018 -1.023500 -27.024760 27.487493 0.205224 2.957844 0.051854 -0.020705 -409009.000000 0 0 1
-5.426718 0.066000 -26.377590 26.930111 -0.012161 2.938677 0.058263 -0.018090 -139462.000000 0 0 1
-6.823418 -0.120000 -26.221210 27.094747 0.017585 2.886976 0.069971 -0.031547 -304776.000000 0 0 1
-7.481618 1.034200 -25.441260 26.538687 -0.137362 2.853009 0.073410 -0.031310 -732326.000000 0 0 1
-7.807818 2.170100 -26.223310 27.446919 -0.271097 2.841872 0.091732 -0.034442 796475.000000 0 0 1
-8.815118 2.048200 -27.257530 28.720627 -0.228300 2.821028 0.107038 -0.039464 584544.000000 0 0 1
-10.276318 1.883100 -26.754030 28.721541 -0.181236 2.769303 0.092369 -0.032018 517643.000000 0 0 1
-11.312318 2.389100 -27.648430 29.968518 -0.208136 2.745518 0.097330 -0.044950 333604.000000 0 0 1
-12.568818 1.936100 -27.283160 30.101404 -0.152839 2.705419 0.077512 -0.025768 -663787.000000 0 0 1
-13.713218 2.419800 -28.198760 31.449608 -0.174659 2.682902 0.068473 -0.015343 -508569.000000 0 0 1
-14.861318 1.593400 -28.085470 31.814955 -0.106810 2.652535 0.059631 -0.013869 275274.000000 0 0 1
-16.008418 2.038800 -28.774700 32.991052 -0.126676 2.630472 0.048038 -0.017321 215402.000000 0 0 1
-16.835718 3.235100 -28.209830 33.010632 -0.189843 2.595515 0.056864 -0.002711 -291492.000000 0 0 1
-16.172218 4.532900 -28.150570 32.780214 -0.273277 2.603655 0.066783 -0.009423 126430.000000 0 0 1
-15.872618 5.138600 -29.413980 33.816083 -0.313092 2.625638 0.050911 -0.016200 91565.500000 0 0 1
-17.065318 5.732000 -30.257120 35.207588 -0.324046 2.604876 0.045820 -0.008996 224093.000000 0 0 1
-17.809118 6.662500 -29.537290 35.128409 -0.357987 2.569625 0.050233 -0.002576 2219.660000 0 0 1
-18.634718 7.460200 -30.364910 36.399658 -0.380798 2.557493 0.044791 -0.006650 -426985.000000 0 0 1
-19.479918 8.420500 -29.539180 36.372176 -0.408009 2.518601 0.041137 -0.002331 -301828.000000 0 0 1
-18.707618 9.444300 -28.910200 35.706715 -0.467510 2.514364 0.040882 0.000220 514795.000000 0 0 1
-19.510218 10.291700 -28.106560 35.728790 -0.485407 2.476183 0.061317 -0.002348 -16613.900000 0 0 1
-9.027618 24.757800 30.658047 40.427248 -1.221142 0.710017 0.041803 -0.011353 306031.000000 0 0 1
-9.975118 25.875500 30.800617 41.445416 -1.202848 0.733014 0.047519 -0.011887 659216.000000 0 0 1
-9.661618 26.794300 31.840997 42.721546 -1.224723 0.729790 0.071801 -0.021383 687088.000000 0 0 1
-8.336018 27.645900 31.722597 42.896482 -1.277938 0.738447 0.064647 -0.027085 623823.000000 0 0 1
-8.229818 28.241800 30.486137 42.364298 -1.287243 0.767543 0.079427 -0.019262 -390990.000000 0 0 1
-6.871618 28.411000 30.207767 42.034667 -1.333489 0.768953 0.075487 -0.019028 -378564.000000 0 0 1
-6.584218 29.451900 29.138067 41.949890 -1.350854 0.802943 0.098994 -0.028565 -243667.000000 0 0 1
-6.787518 30.745300 29.630457 43.235493 -1.353515 0.815743 0.105634 -0.030877 177639.000000 0 0 1
-6.271018 31.705400 28.741817 43.251013 -1.375526 0.843925 0.108248 -0.024579 -107241.000000 0 0 1
-6.323318 33.150500 29.198697 44.626269 -1.382315 0.857548 0.108294 -0.027727 -323711.000000 0 0 1
-5.568818 33.346700 30.385737 45.456652 -1.405326 0.838666 0.103431 -0.029806 -237037.000000 0 0 1
-5.980518 -33.677755 31.253267 46.332758 1.395048 0.830456 0.096976 -0.025126 -51105.000000 0 0 1
-7.232218 34.006400 32.088565 47.311904 -1.361246 0.825439 0.087991 -0.027999 -44717.200000 0 0 1
-7.034818 33.034500 33.111839 47.298634 -1.360977 0.795316 0.098506 -0.029155 -44604.000000 0 0 1
-7.062718 31.667800 32.675396 46.047943 -1.351362 0.781873 0.100009 -0.023981 -129199.000000 0 0 1
-6.979618 30.721400 33.888099 46.270107 -1.347398 0.748960 0.087766 -0.017132 -510362.000000 0 0 1
-5.703718 30.653700 -33.484030 45.753273 -1.386831 2.391813 0.079645 -0.024374 -615961.000000 0 0 1
-5.774618 30.325800 -32.135850 44.561342 -1.382630 2.376271 0.088557 -0.020442 23238.600000 0 0 1
-4.359818 30.100700 -31.525610 43.805528 -1.426956 2.374126 0.076952 -0.018592 985327.000000 0 0 1
-3.595018 28.905300 -31.786580 43.114118 -1.447059 2.399811 0.088430 -0.015602 286705.000000 0 0 1
-3.382518 28.609300 -33.162810 43.928413 -1.453111 2.426341 0.079942 -0.016261 -820295.000000 0 0 1
-2.605818 27.299100 -33.321250 43.154801 -1.475630 2.452987 0.098052 -0.031660 -1121960.000000 0 0 1
-1.424718 27.222600 -32.548770 42.456121 -1.518508 2.444396 0.118137 -0.025848 52347.300000 0 0 1
-0.815718 25.932100 -32.583940 41.651559 -1.539351 2.469143 0.132827 -0.030687 320134.000000 0 0 1
-0.155718 25.497200 -33.956700 42.463972 -1.564689 2.497524 0.126420 -0.025002 -1019640.000000 0 0 1
-1.105618 25.320600 32.975763 41.590337 -1.527159 0.655291 0.120597 -0.025850 -465092.000000 0 0 1
-0.626118 25.252500 31.627937 40.477243 -1.546007 0.673929 0.125345 -0.021076 -355.437000 0 0 1
-0.293918 26.594900 30.921057 40.785866 -1.559745 0.710353 0.099616 -0.026180 379109.000000 0 0 1
-1.471918 27.351300 30.675337 41.124646 -1.517033 0.728894 0.098063 -0.031082 341606.000000 0 0 1
-1.144118 28.454200 29.897137 41.289095 -1.530609 0.761078 0.080188 -0.030876 14401.100000 0 0 1
-2.241518 29.537700 29.874017 42.070857 -1.495055 0.781173 0.089646 -0.024953 15516.100000 0 0 1
-2.256018 30.208300 31.098507 43.413686 -1.496253 0.772269 0.100871 -0.034996 80744.600000 0 0 1
-3.153918 31.297800 31.222597 44.320989 -1.470364 0.789127 0.092238 -0.027388 127762.000000 0 0 1
-2.757018 32.160000 32.491423 45.799119 -1.485277 0.782102 0.099918 -0.011170 896342.000000 0 0 1
-1.552718 32.932400 32.300746 46.155088 -1.523683 0.795636 0.126738 -0.018418 686645.000000 0 0 1
-0.899318 33.045500 33.590634 47.129020 -1.543588 0.777403 0.087327 -0.014203 -758329.000000 0 0 1
0.508882 33.551700 33.427690 47.364396 1.555630 0.787307 0.086095 -0.017795 -959417.000000 0 0 1
0.586782 -33.150255 33.112318 46.858397 -1.553098 0.786049 0.101787 -0.016011 -199136.000000 0 0 1
1.950682 -32.880155 32.966707 46.601647 -1.511539 0.784962 0.077445 -0.013976 -419412.000000 0 0 1
2.118382 -31.357055 32.740076 45.383532 -1.503342 0.764962 0.087738 -0.015956 -162628.000000 0 0 1
1.679782 -30.543255 33.785726 45.576171 -1.515855 0.735788 0.081310 -0.008896 150156.000000 0 0 1
1.995882 -29.219555 33.368101 44.398154 -1.502596 0.720365 0.076355 -0.026845 14813.400000 0 0 1
1.605482 -28.235555 -33.431660 43.789268 -1.513997 2.439461 0.077281 -0.027409 218897.000000 0 0 1
0.201782 -28.159355 -33.252370 43.574191 -1.563631 2.438925 0.065960 -0.031997 130294.000000 0 0 1
-0.055118 -27.387555 -32.111130 42.204335 1.568784 2.435417 0.059131 -0.036770 371131.000000 0 0 1
-1.557018 -26.965355 -32.160380 41.998151 1.513119 2.443014 0.087089 -0.037727 421485.000000 0 0 1
-1.887518 -26.372755 -30.928000 40.689386 1.499347 2.434263 0.096910 -0.032876 -257004.000000 0 0 1
-3.258818 -26.075555 -30.915530 40.574924 1.446465 2.437095 0.095313 -0.037393 -291905.000000 0 0 1
-3.751618 -25.469455 -29.591560 39.222802 1.424549 2.425609 0.094979 -0.034792 -208992.000000 0 0 1
-4.146718 -26.453655 -28.662430 39.224049 1.415308 2.390196 0.091264 -0.034460 33733.900000 0 0 1
-4.416618 -25.998155 -27.339610 37.985061 1.402521 2.374233 0.101325 -0.023748 49100.000000 0 0 1
-3.163818 -25.653955 -26.493240 37.013875 1.448089 2.368515 0.105633 -0.028967 -185863.000000 0 0 1
-2.616418 -24.460155 -26.930990 36.474965 1.464235 2.401405 0.103871 -0.027186 -608905.000000 0 0 1
-1.560518 -24.141955 -26.063880 35.561145 1.506247 2.393417 0.082378 -0.024970 -604567.000000 0 0 1
-0.670318 -22.951455 -26.633750 35.164972 1.541599 2.430110 0.062965 -0.022604 857681.000000 0 0 1
0.081182 -23.069255 -27.850460 36.164143 -1.567277 2.449814 0.035645 -0.025856 572355.000000 0 0 1
0.815582 -24.302455 -27.981620 37.070818 -1.537249 2.426169 0.033043 -0.020258 -109433.000000 0 0 1
1.614982 -24.522955 -29.309540 38.249609 -1.505035 2.443812 0.026203 -0.026203 579093.000000 0 0 1
2.733982 -23.660555 -29.422690 37.854870 -1.455756 2.461079 0.027680 -0.021825 286616.000000 0 0 1
3.521182 -23.877555 -30.581000 38.958105 -1.424383 2.473446 0.031069 -0.021087 -148372.000000 0 0 1
4.664582 -22.849055 -30.747320 38.590612 -1.369416 2.492705 0.044356 -0.025686 -564263.000000 0 0 1
5.782782 -22.918155 -29.881850 38.099965 -1.323632 2.472365 0.034852 -0.023985 943530.000000 0 0 1
6.832482 -23.854455 -30.167220 39.061221 -1.291841 2.453260 0.057718 -0.010442 103780.000000 0 0 1
7.379482 -23.970455 -31.635730 40.371511 -1.272147 2.471260 0.078847 -0.012846 -1178060.000000 0 0 1
6.627982 -24.791755 -32.478550 41.393447 -1.309560 2.472896 0.034911 -0.018930 -140750.000000 0 0 1
6.888682 -24.546555 -33.905030 42.420966 -1.297197 2.496845 0.050245 -0.025278 -26511.700000 0 0 1
6.351382 -23.224855 33.424559 41.193872 -1.303850 0.624259 0.063327 -0.026262 -559136.000000 0 0 1
4.956982 -23.157955 33.431956 40.970212 -1.359927 0.616328 0.071718 -0.028486 -593229.000000 0 0 1
4.527282 -22.092155 32.640034 39.672805 -1.368668 0.604598 0.096609 -0.036564 -1541900.000000 0 0 1
3.155682 -21.632655 33.000452 39.584845 -1.425942 0.585087 0.073279 -0.031380 -517077.000000 0 0 1
2.053782 -22.504455 32.694281 39.743987 -1.479787 0.604789 0.070102 -0.032942 520624.000000 0 0 1
1.738282 -23.395955 33.767906 41.117683 -1.496634 0.607198 0.062879 -0.029766 -690718.000000 0 0 1
0.421182 -24.142755 33.589505 41.367921 -1.553353 0.623277 0.076792 -0.028053 -305856.000000 0 0 1
0.404582 -25.193855 32.658838 41.249166 -1.554739 0.657135 0.079962 -0.019011 -1132410.000000 0 0 1
-0.874918 -25.635955 32.442551 41.358032 1.536681 0.669017 0.077034 -0.014925 -940820.000000 0 0 1
-0.923118 -26.650055 31.237287 41.071227 1.536172 0.706615 0.088420 -0.025130 871025.000000 0 0 1
-2.261518 -26.687455 30.712097 40.750063 1.486257 0.717168 0.089570 -0.026199 680236.000000 0 0 1
-2.375818 -27.731755 29.827357 40.796642 1.485334 0.750830 0.101446 -0.030017 -314404.000000 0 0 1
-3.658218 -27.836755 28.999247 40.363645 1.440128 0.769225 0.109638 -0.024632 -730999.000000 0 0 1
-4.764718 -28.192755 29.751927 41.263921 1.403373 0.765530 0.096491 -0.017538 -288403.000000 0 0 1
-5.856118 -28.585855 28.939097 41.096430 1.368731 0.789535 0.067215 -0.012063 -138174.000000 0 0 1
-6.901418 -29.431555 29.644717 42.339760 1.340467 0.795171 0.058014 -0.010049 -233036.000000 0 0 1
-8.059618 -29.768455 28.848147 42.229539 1.306392 0.818760 0.086018 -0.008560 1213340.000000 0 0 1
-9.205018 -30.074255 29.661367 43.231816 1.273774 0.814681 0.077526 -0.011244 429856.000000 0 0 1
-9.145018 -31.213055 30.664537 44.701230 1.285786 0.814835 0.059334 -0.005268 -1117660.000000 0 0 1
-9.033818 -32.549655 30.168167 45.290266 1.300071 0.841819 0.087794 -0.015985 1264260.000000 0 0 1
-10.207118 -33.035355 29.428247 45.404203 1.271126 0.865658 0.089453 -0.013758 998875.000000 0 0 1
-10.137118 33.549400 29.122597 45.568071 -1.277364 0.877468 0.099515 -0.020961 -229445.000000 0 0 1
-10.117818 32.730700 30.297757 45.734266 -1.270991 0.846680 0.118388 -0.019926 181067.000000 0 0 1
-10.284418 31.357600 29.910847 44.539052 -1.253879 0.834478 0.106833 -0.025497 -60792.600000 0 0 1
-10.992818 30.396300 30.906637 44.721330 -1.223781 0.807795 0.102522 -0.018159 -404267.000000 0 0 1
-12.362818 30.684300 30.982987 45.324508 -1.187789 0.818138 0.104597 -0.014210 -260302.000000 0 0 1
-13.122418 29.547900 31.401717 45.070435 -1.152854 0.799974 0.090989 -0.017848 198997.000000 0 0 1
-13.294618 29.444500 32.982100 46.168651 -1.146684 0.775054 0.098303 -0.029984 -70553.100000 0 0 1
-14.194218 30.417800 33.545174 47.455212 -1.134190 0.785718 0.105575 -0.015587 559900.000000 0 0 1
-14.360218 30.116700 -32.988700 46.919994 -1.125865 2.350522 0.101447 -0.020007 203963.000000 0 0 1
-15.816118 30.314500 -32.490350 47.167164 -1.089913 2.330676 0.100916 -0.013770 224198.000000 0 0 1
-15.956718 29.717700 -31.190510 45.941337 -1.078033 2.317088 0.085122 -0.018342 -884339.000000 0 0 1
-17.160118 30.060300 -30.607770 46.205269 -1.052082 2.294855 0.092957 -0.013458 -589434.000000 0 0 1
-17.192118 29.453600 -29.199640 44.896575 -1.042447 2.278875 0.090163 -0.017004 8228.600000 0 0 1
-17.426618 28.077100 -29.217320 44.109663 -1.015317 2.294786 0.071386 -0.017399 57349.200000 0 0 1
-17.424418 27.611000 -27.894730 42.942911 -1.007845 2.277824 0.062992 -0.013435 -297115.000000 0 0 1
-17.812618 26.161400 -27.704980 42.062741 -0.973022 2.289831 0.028465 -0.012619 -627160.000000 0 0 1
-19.147418 25.958800 -28.031010 42.734301 -0.935273 2.286220 0.031555 -0.013200 -767239.000000 0 0 1
-19.508718 24.610700 -27.797630 41.940254 -0.900527 2.295336 0.009704 -0.012789 -460201.000000 0 0 1
-21.010118 24.370400 -27.912480 42.596338 -0.859310 2.285348 0.021541 -0.009227 -551461.000000 0 0 1
-21.828618 25.023900 -26.938960 42.759697 -0.853491 2.252360 0.023709 -0.007341 -47500.900000 0 0 1
-23.143718 24.626500 -27.235750 43.403713 -0.816428 2.249132 0.055674 -0.017619 398897.000000 0 0 1
-24.226618 24.738400 -26.092100 43.355682 -0.795850 2.216568 0.080110 -0.023109 457400.000000 0 0 1
-24.815018 25.988800 -25.949950 44.323840 -0.808498 2.196247 0.055057 -0.003483 -136275.000000 0 0 1
-25.989238 25.950800 -25.149580 44.512761 -0.784658 2.171226 0.056704 0.000515 282717.000000 0 0 1
-25.884538 25.784500 -23.575580 43.481694 -0.783462 2.143844 0.043355 0.005537 -687071.000000 0 0 1
-25.594078 24.464200 -23.140780 42.297159 -0.762831 2.149692 0.047457 -0.005522 462145.000000 0 0 1
-26.764858 23.631800 -23.057580 42.502607 -0.723310 2.144204 0.052672 0.000794 610775.000000 0 0 1
-27.462658 23.820700 -21.628180 42.301318 -0.714501 2.107480 0.030717 0.001391 -55455.300000 0 0 1
-26.783448 23.302700 -20.515380 41.003046 -0.716014 2.094785 0.038309 -0.003948 984586.000000 0 0 1
-25.479658 23.873800 -20.255580 40.366568 -0.752872 2.096464 0.038202 0.004865 766160.000000 0 0 1
-24.735418 23.240400 -19.046980 38.919719 -0.754246 2.082188 0.044723 -0.000347 -202585.000000 0 0 1
-25.418468 23.455900 -17.832380 38.913642 -0.745264 2.046828 0.051257 -0.000682 688810.000000 0 0 1
-24.620218 23.043400 -16.710580 37.635049 -0.752328 2.030873 0.056452 -0.008974 494530.000000 0 0 1
-25.447628 23.359700 -15.434280 37.834830 -0.742645 1.990991 0.055918 -0.006283 -116061.000000 0 0 1
-25.561528 24.664000 -14.894780 38.516998 -0.767530 1.967854 0.053405 -0.014325 -133307.000000 0 0 1
-26.275278 24.733800 -13.692580 38.595827 -0.755188 1.933463 0.035309 -0.013425 52442.700000 0 0 1
-26.518608 26.086800 -13.121280 39.445224 -0.777190 1.909904 0.034519 -0.008966 -513653.000000 0 0 1
-25.300918 26.636200 -12.764680 38.891653 -0.811102 1.905206 0.069309 -0.014938 -753218.000000 0 0 1
-25.317338 27.428200 -11.593580 39.085610 -0.825397 1.871948 0.087087 -0.019103 -278419.000000 0 0 1
-23.937518 28.017200 -11.315080 38.548662 -0.863761 1.868711 0.106776 -0.023630 -290948.000000 0 0 1
-22.946618 27.093000 -10.916480 37.144952 -0.868071 1.869089 0.097972 -0.022836 -55205.400000 0 0 1
-21.865018 27.746800 -10.290280 36.794752 -0.903403 1.854244 0.100914 -0.027037 -205133.000000 0 0 1
-20.872018 26.716400 -9.729480 35.271376 -0.907597 1.850266 0.120319 -0.031468 45559.600000 0 0 1
-20.199018 25.927400 -10.738680 34.576721 -0.908954 1.886595 0.103485 -0.032436 392938.000000 0 0 1
-19.419018 24.892000 -10.116680 33.152031 -0.908289 1.880903 0.113419 -0.025713 89589.500000 0 0 1
-18.662218 24.153700 -11.267780 32.536787 -0.912960 1.924430 0.111992 -0.033761 31904.200000 0 0 1
-18.051618 22.942000 -10.773380 31.116909 -0.904133 1.924338 0.084941 -0.026257 490424.000000 0 0 1
-17.564018 22.058900 -11.822880 30.575649 -0.898357 1.967821 0.109704 -0.018277 298721.000000 0 0 1
-17.106918 20.623800 -11.375080 29.109796 -0.878340 1.972259 0.092448 -0.006952 957280.000000 0 0 1
-18.260218 19.832200 -11.049580 29.134944 -0.826642 1.959788 0.087004 -0.001159 873077.000000 0 0 1
-17.802918 18.554600 -10.725380 27.861279 -0.806070 1.965957 0.108616 -0.015795 -686218.000000 0 0 1
-18.997418 17.689100 -10.244780 27.906302 -0.749751 1.946700 0.104076 -0.002022 336409.000000 0 0 1
-19.826418 17.099500 -11.215380 28.482706 -0.711684 1.975516 0.098953 -0.000599 -74910.600000 0 0 1
-20.600718 18.001000 -11.947680 29.852515 -0.718152 1.982557 0.092445 -0.006148 -1993490.000000 0 0 1
-21.261218 17.345200 -13.155180 30.429494 -0.684310 2.017857 0.085549 -0.012061 -913805.000000 0 0 1
-20.513018 17.003400 -14.300780 30.239243 -0.692121 2.063400 0.099621 -0.020956 -306402.000000 0 0 1
-21.341818 16.479900 -15.307880 31.006314 -0.657551 2.087138 0.095924 -0.019626 120846.000000 0 0 1
-20.586418 16.136300 -16.622680 30.991842 -0.664805 2.136911 0.113992 -0.027345 -149383.000000 0 0 1
-20.031218 17.234700 -17.289380 31.578589 -0.710496 2.150174 0.090585 -0.020893 138889.000000 0 0 1
-19.354618 16.744800 -18.440180 31.544093 -0.713228 2.195164 0.098760 -0.017524 -241484.000000 0 0 1
-18.405018 17.792400 -19.099980 31.939371 -0.768475 2.211809 0.076133 -0.011752 -417047.000000 0 0 1
-17.278918 18.112100 -18.328480 31.024867 -0.808936 2.202806 0.099750 -0.014435 -76579.100000 0 0 1
-16.726018 19.323600 -18.724880 31.682524 -0.857330 2.203114 0.090759 -0.014428 -157681.000000 0 0 1
34.034340 29.738000 2.215220 45.250327 0.718130 1.521822 0.105124 -0.013679 18451.400000 0 0 1
35.285780 29.915900 1.594820 46.288128 0.703226 1.536335 0.120736 -0.011288 -166233.000000 0 0 1
35.180360 30.753200 0.477120 46.729484 0.718353 1.560586 0.099976 -0.001269 717457.000000 0 0 1
36.488330 31.062300 -0.340580 47.920567 0.705245 1.577904 0.071729 0.003598 823390.000000 0 0 1
-36.527598 31.671600 0.323520 48.347289 -0.714315 1.564105 0.043798 0.011054 1260620.000000 0 0 1
-35.403435 31.802700 -0.609680 47.593977 -0.731872 1.583607 0.052020 0.001292 1030410.000000 0 0 1
-34.469687 32.936500 -0.108780 47.675824 -0.762657 1.573078 0.027569 0.003246 -38954.300000 0 0 1
-33.670358 32.632200 1.011820 46.899651 -0.769742 1.549221 0.030368 0.017830 14748.500000 0 0 1
-33.488368 33.785400 1.797120 47.604135 -0.789813 1.533036 0.011780 0.010966 68257.400000 0 0 1
-32.667928 33.532200 3.108420 46.917633 -0.798453 1.504495 0.032391 0.017738 -67813.000000 0 0 1
-32.419538 -33.347655 3.830620 46.666542 0.799509 1.488619 0.030491 0.022547 453001.000000 0 0 1
-31.549638 -33.460455 4.967320 46.256415 0.814782 1.463202 0.057020 0.012328 -9545.590000 0 0 1
-31.396738 -32.125055 5.776820 45.289579 0.796863 1.442895 0.062433 0.009050 48943.700000 0 0 1
-32.510258 -31.577755 6.450820 45.778647 0.770849 1.429412 0.061145 0.006951 40142.700000 0 0 1
-33.050668 -32.349855 7.532020 46.857135 0.774683 1.409352 0.059678 -0.009443 -810454.000000 0 0 1
-34.177814 -31.682855 8.304120 47.337983 0.747534 1.394462 0.079401 -0.008911 1073370.000000 0 0 1
-35.514115 -31.462255 7.805920 48.083867 0.724975 1.407735 0.061602 -0.007246 946905.000000 0 0 1
-36.232488 -32.599255 7.416520 49.300197 0.732663 1.419787 0.062396 -0.005521 820811.000000 0 0 1
36.315310 -32.363055 7.200920 49.173390 -0.727914 1.423828 0.062295 -0.002988 1293460.000000 0 0 1
35.614390 -32.358455 8.401820 48.847159 -0.737534 1.397935 0.061040 -0.008537 476235.000000 0 0 1
34.212480 -32.207655 8.152320 47.689487 -0.755223 1.399007 0.060526 -0.004252 578371.000000 0 0 1
33.312090 -32.765555 9.300620 47.642192 -0.777127 1.374316 0.076091 -0.020796 -233997.000000 0 0 1
31.983070 -32.415255 8.980120 46.414524 -0.792109 1.376092 0.067490 -0.025646 571359.000000 0 0 1
30.991100 -32.685255 10.001820 46.139035 -0.811998 1.352286 0.065536 -0.027490 606462.000000 0 0 1
30.827490 -31.630455 11.100920 45.541742 -0.798254 1.324563 0.069564 -0.021146 -719478.000000 0 0 1
30.448120 -30.317455 10.817820 44.308704 -0.783248 1.324157 0.036575 -0.011522 146747.000000 0 0 1
31.118210 -29.593355 9.780820 44.042866 -0.760287 1.346854 0.032782 -0.018134 86492.800000 0 0 1
30.536130 -28.134655 9.597620 42.616057 -0.744490 1.343636 0.022824 -0.019022 159985.000000 0 0 1
31.013020 -27.539955 8.406320 42.319295 -0.726153 1.370826 0.021822 -0.014621 18614.900000 0 0 1
30.302710 -26.328355 8.184820 40.968619 -0.715333 1.369660 0.026997 -0.017297 -54289.400000 0 0 1
30.267630 -25.910155 6.689720 40.400716 -0.707987 1.404446 0.017663 -0.016912 -105900.000000 0 0 1
31.546880 -25.665755 6.175820 41.134868 -0.682964 1.420091 0.030996 -0.020761 -600751.000000 0 0 1
31.448080 -25.121055 4.856020 40.541708 -0.674015 1.450730 0.026014 -0.012912 -327485.000000 0 0 1
32.658540 -24.328455 4.355520 40.956373 -0.640251 1.464250 0.048709 -0.019877 -152569.000000 0 0 1
33.612570 -25.305555 3.927320 42.256358 -0.645329 1.477722 0.054161 -0.011184 -631570.000000 0 0 1
34.812510 -24.634155 3.609620 42.799320 -0.615824 1.486358 0.058564 -0.013794 -341547.000000 0 0 1
35.987500 -25.609055 3.488520 44.306812 -0.618475 1.491979 0.054667 -0.011415 -378685.000000 0 0 1
36.115140 -26.391955 4.665420 44.973378 -0.631082 1.466872 0.036291 -0.012054 -307094.000000 0 0 1
37.025270 -27.455955 4.556920 46.319171 -0.638069 1.472256 0.039507 -0.014463 -493732.000000 0 0 1
36.582610 -28.672155 5.506820 46.804966 -0.664763 1.452869 0.044351 -0.010995 1217840.000000 0 0 1
35.297190 -29.292055 5.316520 46.175551 -0.692690 1.455403 0.023616 -0.011263 1437260.000000 0 0 1
34.141850 -28.453855 5.569520 44.791822 -0.694778 1.446131 0.028332 -0.015575 147306.000000 0 0 1
32.952890 -29.314555 6.130420 44.528846 -0.727034 1.432685 0.033513 -0.011512 461689.000000 0 0 1
32.171440 -30.006655 5.187120 44.297935 -0.750596 1.453431 0.019317 -0.012089 252319.000000 0 0 1
31.345930 -29.242555 4.301420 43.083599 -0.750696 1.470791 0.026082 -0.013155 -199947.000000 0 0 1
29.903070 -29.771855 4.109320 42.396267 -0.783199 1.473717 0.025600 -0.011176 264316.000000 0 0 1
29.710500 -30.951455 3.383820 43.036689 -0.805852 1.492089 0.041254 -0.004523 -361388.000000 0 0 1
28.347950 -31.133055 3.068820 42.217189 -0.832187 1.498041 0.060623 -0.012185 93857.700000 0 0 1
28.088750 -32.574355 2.551820 43.088029 -0.859207 1.511538 0.067747 -0.012941 -319674.000000 0 0 1
28.391450 -32.820955 1.194820 43.413329 -0.857635 1.543271 0.067349 -0.013707 211810.000000 0 0 1
28.509650 33.888900 0.936620 44.295992 0.871393 1.549650 0.067369 -0.007635 -266684.000000 0 0 1
28.041750 33.775700 -0.517680 43.902228 0.877890 1.582588 0.062180 -0.011136 -639110.000000 0 0 1
28.981250 -33.925255 -1.484680 44.643477 -0.863830 1.604059 0.069657 -0.002998 -301027.000000 0 0 1
28.527250 -33.871355 -2.825680 44.374059 -0.870834 1.634518 0.060253 -0.001116 54147.100000 0 0 1
29.622520 -33.387855 -3.836180 44.799094 -0.845085 1.656532 0.057111 0.004235 525478.000000 0 0 1
29.935300 -31.996955 -3.751080 43.977243 -0.818675 1.656196 0.040641 -0.000558 121152.000000 0 0 1
30.901520 -31.555255 -4.688680 44.414207 -0.795865 1.676561 0.024693 0.003964 -156442.000000 0 0 1
31.230450 -30.090155 -4.448480 43.595268 -0.766805 1.673015 0.010099 0.011238 -580235.000000 0 0 1
30.249270 -29.145055 -4.799780 42.278723 -0.766809 1.684569 0.013331 -0.003482 51215.800000 0 0 1
30.800710 -27.812955 -4.913680 41.789813 -0.734469 1.688650 0.009552 0.001994 1406070.000000 0 0 1
31.959070 -27.517655 -6.014780 42.600247 -0.710862 1.712461 0.015415 -0.000763 1268380.000000 0 0 1
33.250860 -27.958555 -5.575380 43.799376 -0.699150 1.698436 0.010642 0.002109 511219.000000 0 0 1
34.238360 -27.491455 -6.517080 44.390514 -0.676533 1.718141 0.021005 -0.003415 373992.000000 0 0 1
34.422670 -28.285755 -7.859280 45.241269 -0.687845 1.745401 0.022397 -0.012899 -628145.000000 0 0 1
33.317000 -28.027955 -8.726780 44.404340 -0.699393 1.768614 0.020108 -0.009238 284995.000000 0 0 1
33.054810 -29.025655 -9.699780 45.046585 -0.720587 1.787824 0.019288 -0.005531 198904.000000 0 0 1
32.761560 -30.435055 -9.281480 45.670102 -0.748601 1.775451 0.015806 -0.005757 -724975.000000 0 0 1
33.886290 -31.089155 -8.794080 46.820423 -0.742376 1.759744 0.026053 0.003200 -973667.000000 0 0 1
33.649970 -32.366655 -8.357880 47.431793 -0.765961 1.747930 0.032218 -0.007080 15495.000000 0 0 1
34.903780 -33.025955 -7.756280 48.673889 -0.757762 1.730831 0.022594 -0.010380 -443278.000000 0 0 1
34.703560 33.802300 -7.033080 48.953006 0.772243 1.714965 0.024108 -0.003822 -73466.300000 0 0 1
34.021020 34.009700 -5.791480 48.452355 0.785232 1.690612 0.032790 0.002976 143467.000000 0 0 1
33.878940 32.640800 -5.037280 47.313619 0.766787 1.677464 0.026390 0.002806 -97239.800000 0 0 1
32.920930 31.856800 -5.713780 46.165903 0.768972 1.694881 0.048359 -0.014647 26706.100000 0 0 1
32.884890 30.594900 -5.128980 45.208078 0.749339 1.684494 0.046825 -0.003121 698887.000000 0 0 1
31.541630 29.858600 -5.510780 43.781036 0.757994 1.697002 0.076829 -0.018057 599582.000000 0 0 1
31.486410 29.528400 -6.900580 43.714282 0.753318 1.729316 0.055455 -0.015385 -548551.000000 0 0 1
30.250770 29.017700 -7.277680 42.545277 0.764596 1.742699 0.045931 -0.016844 -712170.000000 0 0 1
30.289400 28.638100 -8.781480 42.599330 0.757383 1.778426 0.046609 -0.015061 -219992.000000 0 0 1
31.125930 27.536000 -9.080780 42.538399 0.724277 1.785924 0.059636 -0.015058 22968.800000 0 0 1
31.360310 27.289100 -10.446780 42.863729 0.716093 1.816997 0.049343 -0.015884 374071.000000 0 0 1
32.530100 28.133800 -11.041080 44.402968 0.713055 1.822089 0.063239 -0.023712 620696.000000 0 0 1
33.862570 27.647200 -10.731980 45.013517 0.684693 1.811532 0.056102 -0.026514 1686210.000000 0 0 1
34.956970 28.428900 -11.227280 46.435374 0.682771 1.814999 0.060612 -0.023907 570149.000000 0 0 1
35.114620 29.764200 -10.519080 47.218589 0.703116 1.795456 0.053366 -0.031216 -570202.000000 0 0 1
35.850800 29.623800 -9.256780 47.418745 0.690578 1.767271 0.053391 -0.017792 606021.000000 0 0 1
35.686390 30.805400 -8.413980 47.888267 0.712122 1.747413 0.041978 -0.013685 -47612.300000 0 0 1
36.743500 30.935000 -7.235980 48.573845 0.699783 1.720322 0.031156 -0.001612 700483.000000 0 0 1
-36.040148 31.193700 -7.612480 48.268924 -0.713439 1.729167 0.035523 -0.013580 -8.266350 0 0 1
-35.290276 30.088400 -8.128580 47.082791 -0.706000 1.744310 0.043168 -0.021366 337066.000000 0 0 1
-33.832648 30.442900 -8.590580 46.316480 -0.732709 1.757352 0.070934 -0.031046 465570.000000 0 0 1
-33.018198 30.925400 -7.521180 45.860113 -0.752681 1.735543 0.062467 -0.028013 1059290.000000 0 0 1
-31.755428 31.451200 -8.001680 45.404979 -0.780585 1.747951 0.088646 -0.041588 685492.000000 0 0 1
-31.794428 32.851800 -8.683880 46.535322 -0.801753 1.758505 0.058205 -0.034716 -586335.000000 0 0 1
-31.951838 33.967800 -7.839380 47.288342 -0.815971 1.737343 0.044061 -0.022374 566239.000000 0 0 1
-30.834158 -33.733055 -7.006980 46.235939 0.830265 1.722931 0.098644 -0.021758 297776.000000 0 0 1
-30.971668 -32.322855 -6.321080 45.210256 0.806743 1.711071 0.068750 -0.029154 463248.000000 0 0 1
-32.059478 -32.166455 -5.396280 45.734132 0.787064 1.689064 0.061936 -0.025305 544219.000000 0 0 1
-31.869758 -33.007555 -4.242780 46.077992 0.802934 1.663005 0.073083 -0.009454 232458.000000 0 0 1
-33.088418 -32.996755 -3.261080 46.842971 0.784011 1.640470 0.056648 -0.005783 -5838.210000 0 0 1
-33.179878 -31.784855 -2.658380 46.024431 0.763928 1.628589 0.063075 -0.010430 -490562.000000 0 0 1
-34.133803 -31.768255 -1.662080 46.659415 0.749519 1.606425 0.065640 -0.005248 -571649.000000 0 0 1
-34.853720 -30.408355 -1.568280 46.280767 0.717388 1.604689 0.073028 -0.002032 -186049.000000 0 0 1
-35.645998 -30.323355 -0.412280 46.800780 0.704889 1.579606 0.029320 0.001245 -755072.000000 0 0 1
-36.312938 -29.105555 -0.344880 46.539035 0.675667 1.578207 0.045484 -0.003011 28689.800000 0 0 1
36.764280 -29.083255 0.822520 46.884161 -0.669274 1.553252 0.040358 0.000133 -601836.000000 0 0 1
35.667720 -30.003155 0.623620 46.612921 -0.699354 1.557417 0.013735 0.006084 1062830.000000 0 0 1
34.739560 -30.020355 1.746920 45.946822 -0.712654 1.532767 0.020341 0.001956 505090.000000 0 0 1
33.966030 -28.716155 1.850320 44.516653 -0.701839 1.529220 0.015140 0.010642 -1977840.000000 0 0 1
33.053800 -28.425955 0.823620 43.603520 -0.710266 1.551906 0.014241 -0.000537 107988.000000 0 0 1
32.390330 -27.185655 1.096220 42.301241 -0.698257 1.544879 0.015029 -0.002414 -39735.900000 0 0 1
31.176140 -26.863855 0.158420 41.153900 -0.711236 1.566947 0.000782 -0.013924 66872.600000 0 0 1
29.957570 -27.421655 0.563920 40.616759 -0.741231 1.556912 -0.000266 0.000040 -264541.000000 0 0 1
29.815250 -28.810855 0.365920 41.462614 -0.768268 1.561971 0.010423 -0.011020 -670397.000000 0 0 1
29.356120 -29.268955 -1.049180 41.467509 -0.783911 1.596100 0.028665 -0.006626 -46323.000000 0 0 1
27.989050 -29.218355 -1.402080 40.485368 -0.806883 1.605435 0.028330 -0.000681 47140.800000 0 0 1
27.845150 -29.386155 -2.738780 40.575847 -0.812318 1.638345 0.040344 -0.000099 -814196.000000 0 0 1
26.466550 -29.872155 -3.122080 40.032128 -0.845773 1.648865 0.061779 -0.009709 -393385.000000 0 0 1
25.387350 -29.011555 -2.831480 38.654950 -0.851923 1.644112 0.053215 -0.009990 155857.000000 0 0 1
24.203550 -29.460655 -3.475180 38.286014 -0.883050 1.661690 0.051064 -0.008927 354194.000000 0 0 1
23.081050 -28.394055 -3.614580 36.769857 -0.888249 1.669258 0.057521 -0.008832 177796.000000 0 0 1
23.108150 -27.564355 -4.749880 36.281422 -0.873114 1.702091 0.066874 -0.017896 392865.000000 0 0 1
22.384650 -26.353755 -4.415580 34.858145 -0.866656 1.697810 0.077672 -0.023518 294599.000000 0 0 1
21.743550 -25.627455 -5.612780 34.074209 -0.867204 1.736273 0.086401 -0.043076 502601.000000 0 0 1
20.608250 -26.249955 -6.229580 33.949488 -0.905221 1.755338 0.095687 -0.037221 91149.400000 0 0 1
20.216150 -25.488155 -7.349480 33.351966 -0.900241 1.792981 0.108176 -0.039502 -578562.000000 0 0 1
18.763150 -25.713855 -7.721180 32.754767 -0.940421 1.808763 0.094992 -0.032472 -620570.000000 0 0 1
17.847650 -25.099155 -6.841180 31.548501 -0.952669 1.789379 0.081719 -0.032432 -26531.800000 0 0 1
16.531950 -25.604955 -7.010580 31.274068 -0.997482 1.796883 0.072354 -0.026999 663058.000000 0 0 1
15.471450 -24.787855 -6.192180 29.868823 -1.012805 1.779623 0.066369 -0.022738 294657.000000 0 0 1
15.695450 -25.034055 -4.827380 29.939182 -1.010786 1.732743 0.064075 -0.014685 92484.400000 0 0 1
15.077950 -24.102855 -3.969280 28.706225 -1.011789 1.709513 0.064158 -0.017100 -155865.000000 0 0 1
14.970650 -24.492955 -2.474880 28.812328 -1.022166 1.656799 0.066215 -0.017114 -114058.000000 0 0 1
14.247950 -25.658655 -2.143080 29.427257 -1.063902 1.643687 0.067018 -0.011551 -1451.220000 0 0 1
15.022150 -26.688255 -1.591780 30.666948 -1.058122 1.622725 0.073262 -0.013916 -236585.000000 0 0 1
14.283550 -28.058055 -1.616780 31.525993 -1.099918 1.622103 0.065899 -0.007987 435342.000000 0 0 1
13.218550 -28.207555 -0.670680 31.158402 -1.132569 1.592323 0.075810 -0.014694 708676.000000 0 0 1
12.350650 -29.331855 -0.956780 31.840410 -1.172262 1.600850 0.072121 -0.014157 449081.000000 0 0 1
12.987250 -30.733555 -0.757880 33.373559 -1.170981 1.593507 0.068286 -0.014883 -143906.000000 0 0 1
14.068850 -31.057055 -1.602180 34.132685 -1.145450 1.617753 0.069087 -0.009051 -278830.000000 0 0 1
14.621550 -32.353155 -1.406480 35.531599 -1.146334 1.610391 0.067597 -0.016181 -320592.000000 0 0 1
16.020050 -32.449555 -2.033980 36.245726 -1.112209 1.626942 0.059962 -0.009735 -54643.800000 0 0 1
16.954650 -31.705155 -1.275880 35.976449 -1.079729 1.606268 0.060348 -0.002762 -453818.000000 0 0 1
18.213550 -31.550155 -1.862880 36.477609 -1.047244 1.621888 0.057389 -0.008250 -269096.000000 0 0 1
19.087750 -30.526255 -1.092280 36.019266 -1.011989 1.601126 0.055060 -0.008590 -94031.800000 0 0 1
18.783850 -29.230755 -1.389580 34.773567 -0.999637 1.610768 0.063901 -0.007625 6511.160000 0 0 1
19.543050 -28.407455 -0.546680 34.484970 -0.968200 1.586650 0.071685 -0.008783 -119131.000000 0 0 1
19.192150 -26.883155 -0.619980 33.036752 -0.950796 1.589564 0.073404 -0.009303 6183.000000 0 0 1
19.582350 -26.266255 -1.881280 32.816517 -0.930160 1.628155 0.076039 -0.016356 161111.000000 0 0 1
18.622950 -26.507155 -2.874480 32.522395 -0.958352 1.659296 0.087327 -0.016272 -230076.000000 0 0 1
32.807750 -29.569355 13.642220 46.225592 -0.733528 1.271212 0.076187 -0.029460 175729.000000 0 0 1
33.687460 -29.768355 14.717820 47.303426 -0.723715 1.254408 0.101208 -0.025768 -165017.000000 0 0 1
32.987790 -30.357255 15.740920 47.513511 -0.743895 1.233122 0.088968 -0.018717 -149590.000000 0 0 1
33.905640 -30.690755 16.937020 48.768612 -0.735670 1.216113 0.091552 -0.010485 -242379.000000 0 0 1
33.290450 -31.431055 17.945220 49.175158 -0.756677 1.197245 0.083250 -0.014838 93813.900000 0 0 1
34.177400 -31.818255 18.993020 50.410622 -0.749666 1.184494 0.062839 -0.015288 274346.000000 0 0 1
35.042260 -33.108455 18.741520 51.724021 -0.757030 1.200022 0.056006 -0.007686 259220.000000 0 0 1
35.970280 -32.914655 17.669220 51.859781 -0.741069 1.223123 0.063294 0.000918 300127.000000 0 0 1
36.754380 33.975300 17.481320 53.016997 0.746127 1.234778 0.064214 0.005086 -592868.000000 0 0 1
-36.139918 -33.867955 16.621720 52.243790 0.752957 1.247012 0.076853 -0.011018 -953878.000000 0 0 1
-35.119047 -33.137755 17.238120 51.269982 0.756379 1.227893 0.062468 -0.012140 -251746.000000 0 0 1
-34.094362 -32.840155 16.304320 50.067276 0.766663 1.239099 0.085496 -0.023096 -736137.000000 0 0 1
-32.836428 -32.324355 17.050620 49.130627 0.777540 1.216376 0.079451 -0.022122 243972.000000 0 0 1
-31.636418 -32.220355 16.309720 48.010636 0.794542 1.224187 0.091232 -0.026934 75825.400000 0 0 1
-31.720158 -31.284355 15.247420 47.088885 0.778481 1.241052 0.097050 -0.030472 -998327.000000 0 0 1
-30.523528 -31.343755 14.259720 46.015827 0.798655 1.255722 0.073405 -0.033114 42005.300000 0 0 1
-29.357388 -30.903955 14.934320 45.165745 0.811057 1.233798 0.077916 -0.033792 -1139880.000000 0 0 1
-28.385718 -30.758255 13.966020 44.123338 0.825491 1.248735 0.062241 -0.018255 -339725.000000 0 0 1
-27.073428 -30.217855 14.607920 43.121695 0.840228 1.225197 0.062219 -0.021608 358768.000000 0 0 1
-25.980828 -30.279355 13.712920 42.188706 0.861654 1.239745 0.052562 -0.016719 -250665.000000 0 0 1
-24.819718 -29.836955 14.413320 41.400556 0.876937 1.215207 0.052778 -0.019949 559628.000000 0 0 1
-23.533518 -29.851655 13.530720 40.348831 0.903200 1.228826 0.045606 -0.018180 254430.000000 0 0 1
-23.085618 -31.128855 13.281020 40.967510 0.932683 1.240647 0.042395 -0.023434 -364189.000000 0 0 1
-21.799218 -31.198755 12.738420 40.135216 0.960929 1.247823 0.034246 -0.025069 -124788.000000 0 0 1
-21.419518 -32.704155 12.413120 41.017594 0.990951 1.263346 0.020824 -0.019446 470583.000000 0 0 1
-22.135218 -33.186855 11.231820 41.442599 0.982572 1.296343 0.017497 -0.018492 489537.000000 0 0 1
-21.977618 33.492400 11.155220 41.583596 -0.990077 1.299210 0.023995 -0.004544 518775.000000 0 0 1
-23.031318 32.809700 10.196020 41.362747 -0.958752 1.321727 0.026348 0.002413 385845.000000 0 0 1
-22.780218 33.150500 8.825020 41.179788 -0.968729 1.354816 0.022359 0.005624 124780.000000 0 0 1
-23.874318 32.783300 8.014420 41.339554 -0.941364 1.375693 0.040641 0.000466 -450261.000000 0 0 1
-23.703418 33.250600 6.529920 41.353286 -0.951484 1.412227 0.047883 -0.003332 -582506.000000 0 0 1
-22.853518 32.420700 5.783020 40.085264 -0.956786 1.426023 0.026735 0.002972 1305450.000000 0 0 1
-21.415018 32.571700 5.874320 39.421140 -0.989185 1.421225 0.019162 -0.000611 1339390.000000 0 0 1
-20.735818 33.984100 5.544820 40.195003 -1.022938 1.432407 0.020044 0.001597 -405718.000000 0 0 1
-20.974418 -32.984855 6.423020 39.612902 1.004411 1.407933 0.019528 -0.006643 296929.000000 0 0 1
-20.304518 -33.217655 7.682720 39.682619 1.022141 1.375962 0.024458 -0.005817 -117685.000000 0 0 1
-20.368918 -32.109155 8.741220 39.016658 1.005491 1.344840 0.031084 -0.016783 -306362.000000 0 0 1
-19.577418 -30.999855 8.370920 37.607693 1.007513 1.346331 0.061534 -0.029568 -196689.000000 0 0 1
-19.511318 -29.951455 9.306520 36.937684 0.993415 1.316100 0.070062 -0.032148 363296.000000 0 0 1
-18.649418 -30.188055 10.585020 37.029206 1.017410 1.280897 0.049643 -0.022860 522726.000000 0 0 1
-17.255218 -30.380955 10.368920 36.445294 1.054268 1.282305 0.064198 -0.035378 -151032.000000 0 0 1
-16.611518 -30.618155 11.580520 36.708614 1.073700 1.249843 0.081400 -0.035855 474874.000000 0 0 1
-15.194418 -31.244955 11.333720 36.545461 1.118169 1.255470 0.082501 -0.034236 580373.000000 0 0 1
-14.243018 -30.399155 10.736320 35.245436 1.132637 1.261261 0.081094 -0.024543 -27563.700000 0 0 1
-13.135318 -31.191055 10.310520 35.379730 1.172213 1.275081 0.077602 -0.015386 1098680.000000 0 0 1
-11.928618 -30.370455 9.705320 34.041881 1.196538 1.281686 0.095784 -0.015674 723408.000000 0 0 1
-11.029318 -29.751355 10.575820 33.446030 1.215786 1.249069 0.091365 -0.021605 -21505.300000 0 0 1
-10.029618 -28.969755 9.921620 32.222329 1.237502 1.257799 0.096124 -0.020994 759614.000000 0 0 1
-9.076018 -28.246155 10.909020 31.610537 1.259898 1.218443 0.087843 -0.014259 350125.000000 0 0 1
-9.737418 -27.248055 11.676020 31.202616 1.227578 1.187262 0.078679 -0.030957 -191940.000000 0 0 1
-8.997718 -26.883755 12.825620 31.115779 1.247825 1.145940 0.071372 -0.018870 46487.000000 0 0 1
-9.494218 -25.579755 13.447320 30.418653 1.215395 1.112886 0.069443 -0.030699 284080.000000 0 0 1
-8.984018 -24.370955 12.848920 28.978453 1.217616 1.111413 0.058905 -0.028085 360595.000000 0 0 1
-9.681718 -23.993755 11.617820 28.362117 1.187268 1.148754 0.053960 -0.025165 298243.000000 0 0 1
-9.149018 -22.692955 11.022220 26.835872 1.187564 1.147545 0.051218 -0.033719 251653.000000 0 0 1
-7.929018 -22.906055 10.327120 26.347791 1.237552 1.168042 0.040128 -0.030927 -43866.300000 0 0 1
-7.399418 -21.712955 9.753520 24.926591 1.242356 1.168764 0.048967 -0.026639 406903.000000 0 1 0
-6.199118 -21.929955 8.766420 24.417250 1.295306 1.203573 0.046355 -0.029417 413843.000000 0 1 0
-5.040118 -22.258555 9.487920 24.715717 1.348116 1.176800 0.038338 -0.031271 -658019.000000 0 1 0
-3.956218 -22.560355 8.632920 24.477511 1.397200 1.210354 0.043015 -0.030380 -574939.000000 0 1 0
-2.872218 -23.351555 9.303420 25.300165 1.448412 1.194238 0.057256 -0.026349 -741718.000000 0 0 1
-2.193518 -22.517655 10.205120 24.819363 1.473689 1.147053 0.057569 -0.022709 -671837.000000 0 1 0
-1.125118 -23.278755 10.714620 25.650914 1.522501 1.139874 0.065992 -0.029045 291301.000000 0 0 1
-0.219918 -22.509755 11.725920 25.381777 1.561027 1.090568 0.069376 -0.027680 284499.000000 0 0 1
-0.798818 -22.378455 13.013320 25.899418 1.535116 1.044359 0.071518 -0.025037 -403178.000000 0 0 1
0.130882 -22.029655 13.975020 26.088771 -1.564855 1.005493 0.090498 -0.029522 229841.000000 0 0 1
0.939282 -20.670655 14.094220 25.036079 -1.525387 0.972838 0.074864 -0.029449 580459.000000 0 0 1
1.827382 -20.424255 13.031320 24.296189 -1.481563 1.004687 0.077241 -0.038053 -57787.300000 0 1 0
2.458682 -19.132155 13.037420 23.282156 -1.442986 0.976441 0.066812 -0.032973 774906.000000 0 1 0
3.966782 -19.157655 12.653720 23.299522 -1.366622 0.996684 0.087016 -0.030868 548532.000000 0 1 0
4.148382 -19.744355 11.383020 23.165098 -1.363704 1.057115 0.073168 -0.019022 -694842.000000 0 1 0
5.525982 -19.924155 11.176720 23.503776 -1.300246 1.075231 0.096137 -0.021624 159123.000000 0 1 0
5.909082 -20.666555 9.817220 23.630521 -1.292302 1.142363 0.086672 -0.029300 -416996.000000 0 1 0
6.021082 -19.883355 8.646720 22.502599 -1.276754 1.176396 0.076204 -0.034212 -282196.000000 0 1 0
6.399282 -20.645855 7.508020 22.881706 -1.270232 1.236480 0.069895 -0.041272 -151425.000000 0 1 0
7.722482 -21.501955 7.543520 24.059831 -1.225991 1.251886 0.076689 -0.026578 365039.000000 0 1 0
8.859682 -20.770755 7.083120 23.666195 -1.167617 1.266845 0.089366 -0.028292 52560.800000 0 1 0
9.348182 -19.668655 7.810520 23.135442 -1.127117 1.226431 0.094122 -0.019853 -362783.000000 0 1 0
10.124482 -19.962455 9.128820 24.173127 -1.101424 1.183547 0.074117 -0.012416 467869.000000 0 1 0
9.223482 -20.139955 10.228420 24.398995 -1.141335 1.138216 0.087307 -0.018023 116263.000000 0 1 0
9.867982 -19.653155 11.387220 24.764739 -1.105465 1.093009 0.080848 -0.011475 474214.000000 0 1 0
9.059382 -19.830155 12.730220 25.246107 -1.142262 1.042289 0.096506 -0.015851 245773.000000 0 0 1
8.959082 -21.173255 13.151620 26.486543 -1.170509 1.051189 0.078084 -0.011515 -49454.100000 0 0 1
8.016882 -21.414355 14.169520 26.900191 -1.212579 1.016031 0.098306 -0.010670 120035.000000 0 0 1
8.341782 -22.810655 14.774720 28.428922 -1.220207 1.024288 0.089601 -0.015743 261417.000000 0 0 1
8.232782 -23.939955 13.870720 28.866884 -1.239572 1.069564 0.090087 -0.015037 -167714.000000 0 0 1
8.086182 -25.189555 14.545020 30.190356 -1.260174 1.068115 0.096181 -0.014231 203691.000000 0 0 1
8.116982 -26.422755 13.607020 30.809063 -1.272750 1.113352 0.103967 -0.024924 515906.000000 0 0 1
9.417982 -26.586455 13.046820 31.076638 -1.230349 1.137541 0.101096 -0.017978 258202.000000 0 0 1
9.393482 -27.567955 11.986620 31.494582 -1.242395 1.180359 0.103923 -0.023977 21856.100000 0 0 1
10.787182 -27.912055 11.405820 32.024035 -1.202008 1.206636 0.104162 -0.026396 404931.000000 0 0 1
11.596182 -28.519155 12.440620 33.205160 -1.184604 1.186767 0.095033 -0.018917 412930.000000 0 0 1
12.860282 -28.850155 11.887620 33.749574 -1.151473 1.210843 0.123912 -0.019142 568803.000000 0 0 1
13.859482 -29.727555 12.736820 35.185783 -1.134539 1.200397 0.104768 -0.026300 -338692.000000 0 0 1
14.373382 -28.894455 13.734920 35.073232 -1.109195 1.168419 0.089273 -0.020270 127530.000000 0 0 1
15.316982 -29.400855 14.692220 36.261295 -1.090513 1.153625 0.076839 -0.021391 1180410.000000 0 0 1
16.719482 -29.593255 14.005820 36.762274 -1.056528 1.179937 0.074421 -0.016310 35406.900000 0 0 1
17.494982 -28.406055 13.757720 36.086745 -1.018775 1.179659 0.070973 -0.023230 1326500.000000 0 0 1
18.868882 -28.793055 13.491020 36.974076 -0.990685 1.197295 0.043898 -0.010180 847663.000000 0 0 1
19.662182 -27.519155 13.135420 36.282840 -0.950411 1.200353 0.028249 -0.014424 -310471.000000 0 0 1
20.962882 -27.825655 12.697520 37.080136 -0.925145 1.221289 0.025751 -0.010413 312973.000000 0 0 1
21.792082 -26.647055 12.535220 36.634575 -0.885293 1.221572 0.021709 -0.019131 13952.000000 0 0 1
23.144282 -26.907055 11.893920 37.431440 -0.860435 1.247439 0.033777 -0.013757 -726920.000000 0 0 1
23.966882 -27.723355 12.645320 38.767253 -0.857943 1.238531 0.033449 -0.018993 -1184730.000000 0 0 1
25.122982 -28.067055 11.964620 39.523106 -0.840692 1.263246 0.020464 -0.019586 -1234180.000000 0 0 1
26.071082 -28.881955 12.879920 40.984887 -0.836504 1.251119 0.025240 -0.014214 1326300.000000 0 0 1
27.206482 -28.171455 13.506420 41.427610 -0.802822 1.238701 0.020617 -0.015430 2127290.000000 0 0 1
28.250382 -27.757355 12.599720 41.560892 -0.776596 1.262786 0.010354 -0.017129 611709.000000 0 0 1
29.484982 -27.017555 13.235420 42.124681 -0.741757 1.251186 0.048279 -0.024000 536217.000000 0 0 1
29.242482 -25.712655 13.568120 41.235388 -0.721255 1.235509 0.055557 -0.024837 13259.100000 0 0 1
28.421782 -25.415155 14.672420 40.853490 -0.729609 1.203442 0.060060 -0.021471 -250779.000000 0 0 1
29.226482 -25.303555 16.017820 41.845282 -0.713581 1.177985 0.063924 -0.014610 -6066.050000 0 0 1
29.621582 -26.581855 16.480020 43.076956 -0.731366 1.178218 0.065276 -0.012413 152233.000000 0 0 1
30.370982 -26.446255 17.683320 43.982959 -0.716431 1.157042 0.090075 0.000662 369656.000000 0 0 1
30.749282 -27.792355 18.403020 45.349801 -0.734931 1.152941 0.092387 0.000700 948758.000000 0 0 1
29.525482 -28.322755 18.917320 45.075464 -0.764610 1.137702 0.073854 -0.003784 635291.000000 0 0 1
29.902482 -29.265155 19.872620 46.319852 -0.774627 1.127377 0.086763 -0.005866 456844.000000 0 0 1
28.766582 -30.156655 20.470220 46.432423 -0.808985 1.114239 0.077435 -0.008660 -357639.000000 0 0 1
27.764482 -29.470855 21.233220 45.719223 -0.815203 1.087809 0.090730 -0.003054 1064420.000000 0 0 1
26.532982 -30.195255 21.343320 45.511425 -0.849867 1.082676 0.105016 -0.009729 739511.000000 0 0 1
25.691582 -30.415255 20.081220 44.591484 -0.869391 1.103653 0.109298 -0.018886 -1079150.000000 0 0 1
26.050882 -31.580655 19.410920 45.307505 -0.881056 1.128046 0.090362 -0.016231 70650.800000 0 0 1
25.422182 -31.653055 18.133520 44.463780 -0.894137 1.150724 0.088327 -0.017951 273565.000000 0 0 1
26.136082 -30.744455 17.041320 43.803229 -0.866240 1.171204 0.083517 -0.013264 727898.000000 0 0 1
27.431782 -31.198455 16.653920 44.757114 -0.849555 1.189531 0.071616 -0.022511 442798.000000 0 0 1
27.981082 -30.274055 15.740020 44.127175 -0.824739 1.206067 0.071305 -0.036835 -348279.000000 0 0 1
29.197082 -30.769055 14.951920 44.975151 -0.811607 1.231898 0.070553 -0.034030 -549447.000000 0 0 1
28.971582 -31.748455 13.899120 45.171921 -0.831099 1.258028 0.076203 -0.028643 153083.000000 0 0 1
28.692282 -33.036555 14.335520 46.045283 -0.855659 1.254199 0.045902 -0.034477 -171172.000000 0 0 1
27.867382 -33.908055 13.333320 45.870737 -0.882873 1.275868 0.061825 -0.032409 -295258.000000 0 0 1
28.450982 33.887300 12.109520 45.874262 0.872385 1.303658 0.068731 -0.033297 265739.000000 0 0 1
27.604982 32.995800 11.378420 44.499733 0.874121 1.312228 0.066946 -0.033308 -193198.000000 0 0 1
28.243382 32.527800 10.047820 44.234659 0.855783 1.341648 0.065148 -0.030667 -382571.000000 0 0 1
29.414282 31.839100 10.416120 44.580532 0.824964 1.334969 0.073023 -0.039328 -170430.000000 0 0 1
29.962482 31.196400 9.254820 44.233668 0.805571 1.360013 0.078858 -0.042790 350195.000000 0 0 1
31.501582 31.024600 9.436820 45.209833 0.777770 1.360516 0.075329 -0.039846 344558.000000 0 0 1
31.754082 30.090600 10.458620 44.979424 0.758507 1.336128 0.060497 -0.028321 806054.000000 0 0 1
33.142382 29.772800 10.669320 45.811259 0.731892 1.335740 0.078078 -0.027844 888905.000000 0 0 1
33.366182 28.825200 11.903120 45.671419 0.712511 1.307127 0.070741 -0.019829 -58947.700000 0 0 1
33.061982 27.478800 11.687820 44.550917 0.693436 1.305342 0.067118 -0.017718 257502.000000 0 0 1
33.247182 26.755600 12.908420 44.585474 0.677629 1.277070 0.076074 -0.022662 -62062.800000 0 0 1
33.027982 25.229800 12.712820 43.462698 0.652333 1.273957 0.063507 -0.025117 358610.000000 0 0 1
34.146482 24.627700 12.057920 43.793826 0.624837 1.291859 0.075728 -0.015543 310273.000000 0 0 1
34.182982 23.182300 12.126820 43.045964 0.595933 1.285212 0.075599 -0.020992 -589853.000000 0 0 1
33.164082 22.511600 11.240620 41.629076 0.596352 1.297384 0.075611 -0.019123 399887.000000 0 0 1
31.835082 22.557400 11.754820 40.749043 0.616455 1.278169 0.084060 -0.021564 645070.000000 0 0 1
30.791982 22.181400 10.874720 39.476831 0.624262 1.291717 0.074542 -0.014399 -255626.000000 0 0 1
29.468882 21.787100 11.494220 38.408460 0.636634 1.266876 0.061184 -0.005886 -650011.000000 0 0 1
28.938282 22.888500 12.184420 38.855729 0.669193 1.251834 0.062294 -0.002997 317042.000000 0 0 1
27.919982 22.455800 13.110720 38.153365 0.677352 1.220015 0.098973 -0.004721 427001.000000 0 0 1
24.496482 9.015100 25.757337 36.671379 0.352634 0.792057 0.031136 -0.010027 -128295.000000 0 0 1
24.235982 7.784500 26.497307 36.743551 0.310787 0.765347 0.032564 -0.012426 1345560.000000 0 0 1
22.842582 7.395300 26.458727 35.728676 0.313101 0.736914 0.022781 -0.006729 835700.000000 0 0 1
22.490082 6.214900 27.356217 35.955408 0.269611 0.706194 0.042175 -0.003766 -206462.000000 0 0 1
22.592082 6.478400 28.753067 37.136380 0.279262 0.685258 0.051229 -0.005501 1521150.000000 0 0 1
23.963482 6.404600 29.238557 38.342673 0.261161 0.703536 0.055884 -0.014335 1103800.000000 0 0 1
24.023882 6.502500 30.779217 39.582693 0.264334 0.679968 0.061547 -0.016403 -138465.000000 0 0 1
23.942182 7.821300 31.300067 40.175801 0.315746 0.677603 0.071656 -0.016491 265845.000000 0 0 1
23.973282 7.747500 32.662219 41.250001 0.312578 0.657027 0.078797 -0.018303 -147613.000000 0 0 1
24.018782 9.032700 33.510308 42.207017 0.359707 0.653516 0.090128 -0.023619 -804461.000000 0 0 1
25.095782 9.854500 33.230076 42.791908 0.374176 0.681624 0.081821 -0.027220 -928024.000000 0 0 1
25.821682 10.223000 -33.568660 43.567464 0.376973 2.450419 0.089093 -0.016661 -284833.000000 0 0 1
27.094982 10.996400 -33.934570 44.795244 0.385536 2.430346 0.060743 -0.018046 -381162.000000 0 0 1
26.901182 12.305100 33.499162 44.690972 0.429006 0.723379 0.044659 -0.019725 219602.000000 0 0 1
26.797582 13.323900 -33.426430 44.866055 0.461409 2.411372 0.040265 -0.014302 -700915.000000 0 0 1
26.371182 14.683000 33.891527 45.383536 0.508035 0.727589 0.039459 -0.006901 343173.000000 0 0 1
27.415182 15.402000 33.172054 45.707756 0.511862 0.758683 0.019905 -0.003816 644133.000000 0 0 1
27.138882 16.809800 33.071468 45.965316 0.554562 0.767732 0.040709 -0.014451 941.208000 0 0 1
27.645482 17.652300 -33.634100 46.980092 0.568265 2.368741 0.032769 -0.014645 -446401.000000 0 0 1
27.095482 17.418600 -32.366120 45.663317 0.571339 2.358591 0.026006 -0.020162 490756.000000 0 0 1
27.992782 16.786300 -31.412040 45.300022 0.540173 2.337024 0.013687 -0.010910 -222525.000000 0 0 1
27.211182 16.198500 -30.263230 43.803001 0.536948 2.333521 0.020472 -0.004282 -633358.000000 0 0 1
26.507282 15.124000 -30.746970 43.321444 0.518491 2.359926 0.034962 0.001603 -484075.000000 0 0 1
25.769282 14.543800 -29.700550 41.924941 0.513820 2.358056 0.067452 -0.014588 255823.000000 0 0 1
24.893982 13.325100 -30.166440 41.319278 0.491467 2.389238 0.087803 -0.016628 471920.000000 0 0 1
23.779582 13.632200 -31.015730 41.391798 0.520536 2.417832 0.075996 -0.016966 932106.000000 0 0 1
23.084482 12.535800 -31.657400 41.136730 0.497484 2.448956 0.078683 -0.019849 224640.000000 0 0 1
22.211482 11.632300 -30.746190 39.673524 0.482433 2.457480 0.092133 -0.018420 327944.000000 0 0 1
21.014182 12.381600 -30.372770 38.953883 0.532442 2.465000 0.100767 -0.023015 852275.000000 0 0 1
20.314182 11.525400 -29.508390 37.633043 0.516072 2.472055 0.094121 -0.017727 -1146760.000000 0 0 1
19.016182 12.001000 -28.961660 36.666291 0.562970 2.481396 0.087053 -0.013166 -656605.000000 0 0 1
17.924682 12.219100 -29.857050 36.905881 0.598332 2.513254 0.053630 -0.009879 19930.200000 0 0 1
16.780282 12.541600 -29.143030 35.891305 0.641836 2.518333 0.050553 -0.019720 -987896.000000 0 0 1
15.580782 12.883000 -30.020010 36.193003 0.690901 2.548905 0.047267 -0.026690 -64964.000000 0 0 1
14.830482 11.862600 -30.686610 36.087844 0.674668 2.587410 0.051852 -0.014624 -238467.000000 0 0 1
13.603082 11.607800 -30.064350 34.980709 0.706419 2.604999 0.058293 -0.017890 -700962.000000 0 0 1
12.572582 11.049800 -31.040250 35.265635 0.721024 2.647046 0.070529 -0.015398 -340306.000000 0 0 1
12.079982 12.051400 -31.924260 36.198351 0.784214 2.650728 0.074736 -0.015107 502525.000000 0 0 1
11.103782 11.495300 -32.837180 36.520081 0.802721 2.688629 0.088508 -0.011521 364477.000000 0 0 1
10.704182 12.388700 33.940987 37.683551 0.858215 0.449454 0.112368 -0.015978 259900.000000 0 0 1
11.740582 12.646200 32.994493 37.234449 0.822517 0.481874 0.085522 -0.006833 573393.000000 0 0 1
11.175382 13.211900 31.836257 36.235214 0.868712 0.497874 0.105780 -0.012830 34738.300000 0 0 1
12.192882 13.165400 30.682387 35.544381 0.823730 0.529196 0.092967 -0.003109 -126819.000000 0 0 1
12.409882 11.865200 30.136077 34.683877 0.762964 0.517864 0.078877 -0.002275 119091.000000 0 0 1
12.510582 11.763900 28.759797 33.496715 0.754648 0.538292 0.082620 0.001557 -45163.500000 0 0 1
13.152082 10.466500 28.319107 32.931698 0.672178 0.535655 0.074091 0.002386 16929.200000 0 0 1
12.214682 9.411500 28.463817 32.372267 0.656497 0.496478 0.096994 -0.005379 432343.000000 0 0 1
12.762882 8.121500 28.123387 31.933913 0.566711 0.493512 0.058864 -0.005239 -56359.200000 0 0 1
11.824582 6.908600 28.278927 31.420490 0.528764 0.450991 0.068949 -0.007607 -351669.000000 0 0 1
10.675682 6.914600 27.469987 30.271803 0.574754 0.433634 0.079871 -0.010868 -510324.000000 0 0 1
9.817882 5.828200 27.694617 29.955810 0.535723 0.391033 0.063657 -0.018362 -603701.000000 0 0 1
10.190682 4.404300 27.260177 29.434081 0.407944 0.386741 0.053771 -0.011260 -464375.000000 0 0 1
11.181782 3.732200 27.993557 30.374345 0.322148 0.398566 0.044295 -0.010141 34946.200000 0 0 1
11.265082 2.419200 27.466947 29.785698 0.211539 0.397188 0.026920 -0.010583 -129192.000000 0 0 1
11.758582 1.264900 28.380407 30.745922 0.107160 0.394829 0.017071 -0.009467 407056.000000 0 0 1
10.810282 1.089300 29.424387 31.366277 0.100426 0.353722 0.026599 -0.013388 276939.000000 0 0 1
11.083982 -0.147000 30.014487 31.996027 -0.013262 0.353782 0.026773 -0.018351 10771.200000 0 0 1
10.060582 -0.450800 31.104127 32.693811 -0.044779 0.313122 0.050946 -0.015197 -65078.100000 0 0 1
10.210882 0.549200 32.055743 33.647205 0.053734 0.308792 0.034989 -0.020889 513335.000000 0 0 1
8.955082 0.790300 32.698407 33.911708 0.088024 0.268304 0.050596 -0.025047 350781.000000 0 0 1
8.943082 2.151600 33.447060 34.688816 0.236101 0.268375 0.040592 -0.026530 -201914.000000 0 0 1
8.878282 3.297700 32.652294 33.998104 0.355641 0.282308 0.054240 -0.029744 1066140.000000 0 0 1
10.125482 3.655000 32.006741 33.768564 0.346414 0.324449 0.035582 -0.020810 675716.000000 0 0 1
10.140082 5.074000 31.367247 33.353725 0.463960 0.346868 0.044476 -0.021756 26516.500000 0 0 1
10.091082 6.128500 32.326152 34.414656 0.545783 0.350173 0.039731 -0.024346 157203.000000 0 0 1
10.255682 7.331200 31.603157 34.024771 0.620618 0.379560 0.051665 -0.021066 -176390.000000 0 0 1
10.510682 8.611900 32.474294 35.202543 0.686427 0.396292 0.075468 -0.027157 278324.000000 0 0 1
9.294282 9.199600 32.932900 35.434336 0.780279 0.377995 0.105402 -0.035751 299311.000000 0 0 1
8.879182 8.481500 -33.815370 35.975755 0.762495 2.793277 0.096702 -0.032795 -224399.000000 0 0 1
7.448782 8.886300 -33.379900 35.336503 0.873174 2.807260 0.109847 -0.035043 -239231.000000 0 0 1
6.944082 7.965300 -32.494380 34.169446 0.853786 2.827178 0.099407 -0.027353 -524471.000000 0 0 1
5.610582 8.358500 -32.272430 33.806108 0.979632 2.839222 0.097898 -0.035305 -213215.000000 0 0 1
5.067882 7.836400 -30.924570 32.302038 0.996737 2.848506 0.095599 -0.026861 -508374.000000 0 0 1
5.600882 8.455400 -29.762190 31.442831 0.985751 2.813161 0.100128 -0.034444 126866.000000 0 0 1
5.099982 7.891800 -28.543570 30.050386 0.997070 2.823575 0.089195 -0.028403 1186470.000000 0 0 1
3.553382 8.019900 -28.216540 29.548578 1.153720 2.840188 0.096820 -0.025605 905340.000000 0 0 1
2.758382 7.142500 -28.997820 29.991625 1.202249 2.883443 0.094868 -0.022834 -154844.000000 0 0 1
1.460782 7.105200 -28.416300 29.327528 1.368028 2.891661 0.116166 -0.018436 215811.000000 0 0 1
0.343482 6.532400 -29.304110 30.025341 1.518263 2.921968 0.118441 -0.028028 -203496.000000 0 0 1
0.039682 7.324500 -30.412980 31.282571 1.565379 2.905255 0.118322 -0.033059 -67762.500000 0 0 1
-0.604618 6.661400 -31.453000 32.156353 -1.480280 2.932055 0.118684 -0.025257 -630023.000000 0 0 1
-0.846918 7.519800 -32.748960 33.611889 -1.458644 2.914507 0.120979 -0.038710 1223320.000000 0 0 1
0.364582 7.919800 -33.454350 34.380950 1.524795 2.908900 0.100554 -0.037133 1401050.000000 0 0 1
1.400382 7.017200 -33.821780 34.570435 1.373820 2.933100 0.109664 -0.037876 152267.000000 0 0 1
1.303982 6.503700 32.632485 33.299814 1.372922 0.200536 0.128797 -0.044836 -257571.000000 0 0 1
0.331482 5.502600 32.485543 32.949947 1.510628 0.168092 0.128120 -0.041206 -423098.000000 0 0 1
0.226282 5.047400 31.154527 31.561559 1.525995 0.160775 0.142080 -0.039210 208823.000000 0 0 1
1.388482 4.298400 30.420517 30.754057 1.258354 0.147411 0.146372 -0.036764 277354.000000 0 0 1
1.065782 4.174900 29.055467 29.373217 1.320851 0.147222 0.125087 -0.035813 97654.100000 0 0 1
2.004382 3.406600 28.339047 28.613355 1.038963 0.138579 0.098962 -0.025906 -188671.000000 0 0 1
1.838682 3.740900 26.858407 27.179940 1.113965 0.153969 0.104872 -0.022289 82423.300000 0 0 1
2.294882 5.029200 26.559267 27.128473 1.142706 0.205210 0.109846 -0.021661 -12773.600000 0 0 1
1.991882 5.438300 25.259827 25.915277 1.219702 0.225386 0.079342 -0.015160 -414423.000000 0 0 1
2.545882 6.913700 24.936527 26.002138 1.217968 0.287279 0.089139 -0.011276 -44427.100000 0 0 1
3.947882 7.088000 24.930607 26.217565 1.062609 0.314625 0.081863 -0.005831 -75965.500000 0 0 1
4.491582 6.810600 23.655897 25.023190 0.987773 0.332102 0.059480 -0.010525 812386.000000 0 0 1
6.075782 6.831700 23.675627 25.379570 0.843896 0.368520 0.059937 -0.011111 1432470.000000 0 0 1
6.891282 5.898000 24.390927 26.022942 0.707889 0.356037 0.066378 -0.016429 357027.000000 0 0 1
6.743182 4.503600 24.180187 25.503615 0.588838 0.323564 0.069944 -0.017574 -680306.000000 0 0 1
6.996082 3.967400 22.726467 24.107628 0.515869 0.340138 0.061272 -0.020669 856026.000000 0 1 0
5.901682 4.250000 21.819867 22.999977 0.624111 0.321727 0.038954 -0.025034 -104466.000000 0 1 0
4.757782 3.450200 21.982167 22.754253 0.627420 0.261248 0.028069 -0.020820 -603195.000000 0 1 0
3.797882 3.984000 20.892367 21.605258 0.809310 0.257601 0.004169 -0.017418 -282078.000000 0 1 0
3.336082 5.285800 21.174267 22.077562 1.007794 0.287042 0.004178 -0.015166 165410.000000 0 1 0
2.072082 5.531100 20.582367 21.413090 1.212356 0.279459 0.010727 -0.009070 95270.600000 0 1 0
1.681382 7.013100 20.568867 21.796535 1.335489 0.337226 0.023211 -0.007807 -402305.000000 0 1 0
2.426982 7.845300 19.736767 21.377066 1.270779 0.394293 0.014887 -0.016401 -122598.000000 0 1 0
2.195382 9.191600 20.116167 22.225332 1.336342 0.439179 0.039085 -0.013695 793437.000000 0 1 0
3.332782 10.081000 19.472267 22.178891 1.251508 0.499204 0.057568 -0.027399 205074.000000 0 1 0
3.131782 10.271000 18.074767 21.023765 1.274837 0.536055 0.025298 -0.023717 193729.000000 0 1 0
3.808082 11.423600 17.448067 21.199886 1.249029 0.604077 0.027106 -0.023014 128763.000000 0 1 0
5.339282 11.555300 17.558967 21.687559 1.137956 0.627269 0.036896 -0.018477 -173604.000000 0 1 0
5.974982 10.528700 16.813667 20.718430 1.054621 0.624027 0.031833 -0.018619 -468744.000000 0 1 0
7.168582 10.030100 17.336667 21.273258 0.950268 0.618151 0.033729 -0.010092 -383114.000000 0 1 0
7.190082 8.578100 17.850067 21.069076 0.873198 0.560073 0.037752 -0.010649 -268462.000000 0 1 0
6.657582 8.511600 19.123667 21.965550 0.907018 0.514333 0.045340 -0.011521 -138353.000000 0 1 0
6.498782 7.214300 19.674767 21.940300 0.837529 0.458447 0.037099 -0.020067 782658.000000 0 1 0
7.816582 6.394100 20.051667 22.451121 0.685631 0.466550 0.067787 -0.025660 820237.000000 0 1 0
8.461182 5.971600 18.896667 21.548449 0.614584 0.501341 0.047620 -0.022888 -519271.000000 0 1 0
9.737382 5.439600 19.148567 22.160178 0.509445 0.527441 0.056825 -0.022393 -208420.000000 0 1 0
9.955282 3.938500 18.994767 21.804142 0.376724 0.513248 0.058659 -0.028280 -484563.000000 0 1 0
9.323082 3.202500 19.994567 22.292568 0.330875 0.458050 0.078801 -0.035283 58397.800000 0 1 0
9.712182 1.855400 19.977267 22.290361 0.188764 0.459602 0.075164 -0.042506 -417118.000000 0 1 0
9.068982 1.022200 21.036367 22.930767 0.112240 0.409334 0.067723 -0.034631 -270546.000000 0 1 0
9.485382 1.247400 22.403167 24.360427 0.130757 0.403597 0.069656 -0.023775 386359.000000 0 1 0
8.780482 0.344000 23.260137 24.864617 0.039158 0.361206 0.070805 -0.029282 -9930.070000 0 1 0
9.466182 0.340600 24.621167 26.380419 0.035965 0.367267 0.069236 -0.018291 713157.000000 0 0 1
10.718082 -0.384800 24.802677 27.022179 -0.035887 0.408132 0.061664 -0.020991 1085980.000000 0 0 1
10.662482 -1.832200 24.703847 26.968974 -0.170174 0.412778 0.055232 -0.021029 346986.000000 0 0 1
12.124282 -2.348600 24.914337 27.807163 -0.191341 0.460190 0.039350 -0.017710 756128.000000 0 0 1
12.168882 -3.741800 25.067417 28.115088 -0.298313 0.469930 0.036971 -0.012483 -127106.000000 0 0 1
13.491682 -4.189800 25.268827 28.949845 -0.301105 0.509787 0.039727 -0.012651 -105349.000000 0 0 1
13.621082 -5.699900 25.338907 29.327171 -0.396320 0.527620 0.040455 -0.007559 -288183.000000 0 0 1
13.239582 -6.291200 24.105537 28.212456 -0.443596 0.546346 0.037112 -0.008341 221192.000000 0 0 1
13.097182 -7.685900 24.332037 28.682003 -0.530684 0.557958 0.049112 -0.013217 -116946.000000 0 0 1
12.926882 -8.397300 22.991557 27.680871 -0.576094 0.590623 0.058260 -0.015806 -220840.000000 0 0 1
12.527682 -9.717700 23.151987 28.060489 -0.659746 0.600463 0.060472 -0.009669 -429362.000000 0 0 1
12.442082 -10.285300 21.801267 27.127257 -0.690784 0.637365 0.063008 -0.014413 -12882.800000 0 0 1
11.933182 -11.713600 21.786767 27.464022 -0.776113 0.654612 0.080717 -0.017011 810580.000000 0 0 1
10.569182 -11.747600 22.249767 27.290399 -0.838153 0.617555 0.064063 -0.018593 578702.000000 0 0 1
10.075282 -13.093100 22.329167 27.776470 -0.914925 0.636993 0.066912 -0.016869 -112370.000000 0 0 1
8.580082 -13.197700 22.684667 27.611433 -0.994337 0.606641 0.041094 -0.014516 -42668.400000 0 0 1
7.838682 -12.612000 21.635467 26.241207 -1.014699 0.601506 0.032309 -0.027506 -272838.000000 0 0 1
6.462182 -12.547200 21.948467 26.094583 -1.095197 0.571460 0.025524 -0.025499 414425.000000 0 0 1
5.640882 -11.454000 21.216067 24.761567 -1.113182 0.541737 0.031989 -0.017842 113608.000000 0 1 0
5.597482 -10.259400 21.945967 24.863881 -1.071341 0.489337 0.028429 -0.004875 -27286.200000 0 1 0
4.988582 -9.157800 21.216867 23.641208 -1.072004 0.456836 0.027342 -0.009036 57161.500000 0 1 0
5.501782 -7.786400 21.727367 23.727118 -0.955662 0.413503 0.030827 -0.026981 19472.300000 0 1 0
4.888182 -6.648600 21.196567 22.746267 -0.936822 0.371262 0.024666 -0.019928 -104129.000000 0 1 0
5.629382 -5.499700 21.561367 22.952760 -0.773746 0.349978 0.042971 -0.031076 172114.000000 0 1 0
-8.273718 -14.964000 -20.431380 26.642391 1.065723 2.444754 0.048072 -0.014286 -67688.000000 0 0 1
-7.485518 -14.831300 -19.275380 25.446822 1.103387 2.430236 0.029347 -0.015325 45883.100000 0 0 1
-6.664218 -13.685400 -19.451680 24.699592 1.117636 2.477588 0.040084 -0.026390 180945.000000 0 1 0
-5.784418 -13.207600 -18.258780 23.265495 1.157999 2.473171 0.025860 -0.024983 -838134.000000 0 1 0
-4.675318 -13.968900 -18.060580 23.306079 1.247821 2.457401 0.029401 -0.012511 -995481.000000 0 1 0
-4.064918 -13.710600 -16.781680 22.048331 1.282572 2.435852 0.031090 -0.018470 -14889.800000 0 1 0
-2.959618 -14.700200 -16.490080 22.288517 1.372120 2.403638 0.033900 0.000102 -3113.000000 0 1 0
-1.736418 -14.638300 -17.208580 22.658999 1.452726 2.433277 0.036331 -0.007667 458441.000000 0 1 0
-0.896118 -15.715700 -16.793680 23.017688 1.513837 2.388532 0.049452 0.005893 373881.000000 0 1 0
0.110282 -16.298700 -17.788380 24.126464 -1.564030 2.399857 0.040895 0.019425 -113421.000000 0 1 0
-0.588218 -16.876500 -18.853680 25.310542 1.535956 2.411173 0.050698 -0.016843 -134059.000000 0 0 1
-0.867718 -18.277900 -18.706680 26.168196 1.523358 2.367225 0.051223 0.000336 -256914.000000 0 0 1
-1.495718 -18.823700 -19.998080 27.504401 1.491504 2.384865 0.054651 -0.017239 -1045970.000000 0 0 1
-2.856118 -18.563800 -20.054880 27.476723 1.418139 2.388952 0.074642 -0.024934 -1144860.000000 0 0 1
-3.160318 -18.584200 -21.412880 28.528434 1.402354 2.419736 0.047138 -0.034627 33128.400000 0 0 1
-3.928518 -17.330700 -21.909480 28.210136 1.347884 2.460131 0.051579 -0.039580 337280.000000 0 0 1
-3.147018 -16.107700 -21.889680 27.359091 1.377853 2.498238 0.054587 -0.037066 31657.500000 0 0 1
-3.468718 -15.271000 -20.803380 26.038742 1.347442 2.496326 0.041258 -0.024772 8300.860000 0 0 1
-2.439218 -14.165200 -20.434380 24.983326 1.400271 2.528584 0.055073 -0.027699 -54315.900000 0 1 0
-2.273118 -13.287400 -21.508680 25.383959 1.401363 2.581740 0.050070 -0.039662 -137983.000000 0 0 1
-1.432718 -12.213300 -21.181980 24.492727 1.454022 2.615603 0.031183 -0.027262 -72854.500000 0 1 0
-1.367318 -11.202900 -22.351980 25.039680 1.449347 2.674014 0.034217 -0.028917 38692.700000 0 0 1
-2.531918 -10.412600 -22.498080 24.919801 1.332266 2.697078 0.035863 -0.031287 170621.000000 0 1 0
-2.673518 -9.715000 -23.740880 25.790664 1.302249 2.740212 0.041838 -0.027396 75810.000000 0 0 1
-3.703618 -8.538700 -23.713480 25.474602 1.161542 2.767577 0.040480 -0.025144 -560456.000000 0 0 1
-5.033918 -8.937100 -23.728480 25.850587 1.057829 2.733574 0.059602 -0.029153 -294984.000000 0 0 1
-5.936118 -7.840800 -23.696680 25.656350 0.922779 2.748212 0.064849 -0.028366 -172746.000000 0 0 1
-7.407618 -8.272100 -23.432180 25.930051 0.840476 2.699057 0.051400 -0.032410 639960.000000 0 0 1
-8.148018 -8.755100 -24.566480 27.323139 0.821298 2.688526 0.057323 -0.033487 427176.000000 0 0 1
-8.525318 -7.741000 -25.490520 27.970891 0.737218 2.717283 0.050680 -0.033509 -328798.000000 0 0 1
-9.252018 -8.129000 -26.798700 29.493234 0.720876 2.710809 0.051529 -0.032352 24664.300000 0 0 1
-9.958118 -7.086800 -27.385830 29.989508 0.618509 2.721817 0.057615 -0.035668 -32334.300000 0 0 1
-10.747018 -7.598600 -28.457380 31.353782 0.615437 2.708380 0.060002 -0.032177 36302.500000 0 0 1
-11.666118 -6.492500 -29.119350 32.034161 0.507840 2.711697 0.058905 -0.041590 105987.000000 0 0 1
-10.943518 -5.667200 -29.950600 32.386976 0.477833 2.751235 0.040866 -0.027531 32605.100000 0 0 1
-11.805018 -4.933500 -30.843730 33.392119 0.395855 2.748380 0.067622 -0.038557 343910.000000 0 0 1
-11.039918 -3.790500 -31.561730 33.651011 0.330734 2.787361 0.058635 -0.039633 51043.200000 0 0 1
-9.940218 -4.360800 -32.257340 34.034696 0.413419 2.816992 0.042286 -0.034289 -193209.000000 0 0 1
-9.335918 -3.318700 -32.959240 34.416343 0.341545 2.849566 0.035836 -0.030018 -374447.000000 0 0 1
-8.289518 -3.816100 33.941747 35.147133 0.431430 0.262653 0.035549 -0.024532 -240330.000000 0 0 1
-7.141518 -4.304500 -33.335270 34.362338 0.542434 2.896483 0.029228 -0.025870 -182759.000000 0 0 1
-6.225818 -4.771000 33.597832 34.501270 0.653867 0.229350 0.030514 -0.021256 1758620.000000 0 0 1
-4.704318 -4.306200 33.745790 34.343156 0.741243 0.186787 0.046824 -0.026887 1432270.000000 0 0 1
-4.486218 -2.932600 33.605822 34.030539 0.578966 0.158155 0.062128 -0.035357 382146.000000 0 0 1
-3.100418 -2.643800 33.795900 34.040640 0.706073 0.119985 0.063249 -0.036283 568716.000000 0 0 1
-2.956718 -1.193100 -33.685780 33.836334 0.383539 3.047224 0.068412 -0.035077 -83323.900000 0 0 1
-3.534618 -1.024100 -32.394510 32.602862 0.282012 3.028478 0.076548 -0.039694 144985.000000 0 0 1
-3.527118 0.342200 -31.961930 32.157778 -0.096717 3.031172 0.090405 -0.038006 -892267.000000 0 0 1
-3.906418 0.511200 -30.454180 30.707955 -0.130122 3.012942 0.115575 -0.040447 348619.000000 0 0 1
-5.122018 -0.183700 -30.251690 30.682790 0.035849 2.973764 0.085611 -0.037134 -168852.000000 0 0 1
-6.296318 0.560900 -30.462240 31.111193 -0.088849 2.936985 0.084436 -0.038024 -1193990.000000 0 0 1
-7.510318 -0.329400 -30.464390 31.378216 0.043832 2.899661 0.064268 -0.041423 -821221.000000 0 0 1
-7.834118 -0.929800 -29.224010 30.270129 0.118133 2.877925 0.052482 -0.030751 1201230.000000 0 0 1
-9.059018 -1.716700 -29.393040 30.805254 0.187281 2.837626 0.043923 -0.023179 1217440.000000 0 0 1
-9.600418 -2.464700 -28.168330 29.861306 0.251301 2.803248 0.041866 -0.023889 91370.200000 0 0 1
-10.364918 -1.637900 -27.287890 29.235992 0.156727 2.774477 0.051640 -0.019543 268538.000000 0 0 1
-10.486118 -2.275500 -26.065170 28.187403 0.213688 2.751069 0.047645 -0.021957 -25174.400000 0 0 1
-11.341918 -1.524600 -25.027750 27.520026 0.133621 2.712726 0.080513 -0.020683 191636.000000 0 0 1
-10.630618 -0.465400 -24.365280 26.587469 0.043751 2.729837 0.067607 -0.019158 322878.000000 0 0 1
-11.395018 0.164400 -23.341080 25.974593 -0.014426 2.687392 0.079801 -0.024932 -50000.800000 0 0 1
-10.619818 1.266900 -22.616780 25.018080 -0.118735 2.699872 0.081124 -0.032460 -86657.300000 0 0 1
-10.493418 2.371400 -23.544880 25.886227 -0.222256 2.713002 0.072763 -0.030664 35100.600000 0 0 1
-9.940018 3.515900 -22.914380 25.223686 -0.339978 2.710350 0.073119 -0.037369 -382880.000000 0 0 1
-10.037318 4.796700 -23.828680 26.297568 -0.445801 2.704810 0.098415 -0.043772 -882101.000000 0 0 1
-11.303818 5.293200 -24.032480 27.080517 -0.437940 2.662569 0.100309 -0.038940 -920736.000000 0 0 1
-11.963718 4.823000 -25.170480 28.283298 -0.383206 2.668013 0.088502 -0.034274 333870.000000 0 0 1
-13.404918 5.351500 -25.464990 29.271080 -0.379833 2.625940 0.082843 -0.019067 558850.000000 0 0 1
-13.524018 6.706200 -25.869290 29.951500 -0.460341 2.613374 0.074428 -0.025521 61877.500000 0 0 1
-14.845418 6.932500 -26.312560 30.996723 -0.436884 2.584663 0.079174 -0.022886 43400.700000 0 0 1
-15.076118 8.441000 -26.473180 31.612800 -0.510406 2.563341 0.084970 -0.018628 -102810.000000 0 0 1
-14.798418 9.170900 -25.287020 30.700684 -0.554795 2.538637 0.114833 -0.026678 292206.000000 0 0 1
-15.304418 10.482000 -25.353790 31.415159 -0.600520 2.509945 0.094163 -0.026583 -130399.000000 0 0 1
-14.902018 11.300700 -24.117480 30.519319 -0.648813 2.481991 0.097051 -0.029260 -49996.700000 0 0 1
-15.436018 10.825800 -22.909780 29.670299 -0.611621 2.453007 0.121220 -0.028350 55757.300000 0 0 1
-15.081718 11.741700 -21.904480 29.071154 -0.661517 2.424133 0.124562 -0.036241 -612648.000000 0 0 1
-15.820118 11.585600 -20.566880 28.416524 -0.632098 2.380039 0.129249 -0.040396 187320.000000 0 0 1
-17.167518 11.951200 -20.849080 29.533693 -0.608139 2.354549 0.110171 -0.031969 358953.000000 0 0 1
-17.877618 12.539200 -19.751080 29.443946 -0.611659 2.306087 0.113299 -0.032110 170669.000000 0 0 1
-19.318118 12.941400 -20.131580 30.756301 -0.590245 2.284385 0.096561 -0.031135 -166950.000000 0 0 1
-19.568518 14.170800 -20.798280 31.879569 -0.626759 2.281545 0.087997 -0.025602 569894.000000 0 0 1
-20.980018 14.366700 -20.860280 32.889429 -0.600438 2.257841 0.053151 -0.023476 511497.000000 0 0 1
-21.296918 15.635700 -21.665280 34.167502 -0.633297 2.257628 0.053906 -0.025527 -2655.700000 0 0 1
-20.958218 15.510100 -23.034680 34.790898 -0.637102 2.294399 0.065643 -0.029589 424319.000000 0 0 1
-21.579418 16.606700 -23.699980 36.099070 -0.655904 2.287000 0.056471 -0.019763 120251.000000 0 0 1
-21.475718 16.528600 -25.213250 37.014985 -0.655953 2.320147 0.048960 -0.015647 -34482.900000 0 0 1
-20.189618 16.891800 -25.657980 36.759836 -0.696697 2.343382 0.041645 -0.021332 215689.000000 0 0 1
-20.040418 16.478900 -27.037150 37.472390 -0.688181 2.376794 0.027391 -0.027526 -148685.000000 0 0 1
-19.125118 17.432300 -27.861670 38.025359 -0.739125 2.393096 0.005610 -0.007261 -116972.000000 0 0 1
-19.634518 18.718700 -28.016590 38.997864 -0.761524 2.372315 -0.001441 -0.021126 322233.000000 0 0 1
-18.899318 19.699600 -27.276360 38.590910 -0.806128 2.355772 -0.016720 -0.019930 -1860660.000000 0 0 1
-19.583218 21.064400 -27.243650 39.616005 -0.821822 2.329103 0.024502 -0.014438 583432.000000 0 0 1
-20.750118 21.276300 -26.438670 39.777527 -0.797918 2.297840 0.044202 -0.001886 1345660.000000 0 0 1
-21.847618 20.373600 -26.673500 40.048441 -0.750501 2.299671 0.085075 -0.022578 -590349.000000 0 0 1
-23.090918 20.576700 -25.807860 40.281965 -0.727885 2.266180 0.098377 -0.007879 127445.000000 0 0 1
-22.711018 20.228300 -24.464680 39.031975 -0.727643 2.248217 0.059284 0.007943 29856.700000 0 0 1
-23.678918 20.662800 -23.558980 39.276813 -0.717483 2.214071 0.048760 -0.003371 -273527.000000 0 0 1
-23.571918 20.087000 -22.146080 38.073242 -0.705746 2.191577 0.048974 0.008664 -1047030.000000 0 0 1
-22.355618 20.380000 -21.598380 37.169989 -0.739202 2.190840 0.042727 0.010332 -862639.000000 0 0 1
-21.678918 19.376600 -20.833680 35.769685 -0.729379 2.192523 0.044931 0.006778 21703.300000 0 0 1
-22.158518 19.212800 -19.379680 35.152576 -0.714316 2.154720 0.059621 -0.007338 -218657.000000 0 0 1
-23.325618 18.389200 -19.232580 35.385580 -0.667609 2.145415 0.093547 -0.013643 460133.000000 0 0 1
-23.878918 18.384400 -17.953680 35.078819 -0.656116 2.108086 0.080377 -0.012838 -154545.000000 0 0 1
-24.872818 19.548700 -17.736680 36.268424 -0.666113 2.081784 0.058256 -0.017256 -960922.000000 0 0 1
-25.978998 19.423100 -18.569380 37.376290 -0.641993 2.090730 0.062713 -0.015224 -533108.000000 0 0 1
-26.938898 20.420700 -18.338180 38.457744 -0.648625 2.067852 0.053562 -0.016386 -667587.000000 0 0 1
-28.256598 20.137200 -19.087680 39.601537 -0.619169 2.073725 0.033602 -0.005106 259438.000000 0 0 1
-29.047118 19.001800 -18.697180 39.425728 -0.579302 2.064895 0.035738 -0.014546 703809.000000 0 0 1
-29.614748 18.893400 -17.390980 39.197450 -0.567874 2.030493 0.026476 -0.012074 -289966.000000 0 0 1
-30.657188 17.804100 -17.073480 39.349116 -0.526143 2.019610 0.017057 -0.014717 -202602.000000 0 0 1
-30.048768 16.549400 -16.921080 38.250936 -0.503420 2.029036 0.037152 -0.016640 538409.000000 0 0 1
-30.998568 15.680300 -16.317380 38.380202 -0.468308 2.009925 0.023251 -0.010037 552513.000000 0 0 1
-30.216458 14.491500 -15.712380 37.012387 -0.447186 2.009224 0.072463 -0.011732 410819.000000 0 0 1
-29.390598 14.885300 -14.609680 36.039176 -0.468806 1.988194 0.074001 -0.013184 288067.000000 0 0 1
-30.143528 14.985100 -13.394180 36.229678 -0.461345 1.949484 0.036361 -0.007889 338128.000000 0 0 1
-29.408858 15.554300 -12.144080 35.416040 -0.486498 1.920796 0.059424 -0.015308 63510.200000 0 0 1
-28.942288 16.877100 -12.185880 35.650922 -0.527922 1.919640 0.051799 -0.005936 -450132.000000 0 0 1
-29.922948 17.865400 -12.059180 36.877896 -0.538245 1.903927 0.025262 -0.004674 -299981.000000 0 0 1
-29.394828 19.319100 -12.412980 37.301014 -0.581440 1.910045 0.056645 -0.010949 193779.000000 0 0 1
-28.637368 19.884800 -11.327180 36.658002 -0.606934 1.884934 0.027785 -0.019177 35322.000000 0 0 1
-28.048158 21.050900 -11.793280 36.998933 -0.643838 1.895203 0.014455 -0.024068 -303411.000000 0 0 1
-27.078548 21.742800 -10.825480 36.375653 -0.676539 1.872977 0.036278 -0.020568 271804.000000 0 0 1
-27.763408 22.598700 -9.916880 37.146367 -0.683204 1.841041 0.025734 -0.016227 604791.000000 0 0 1
-26.945698 23.738700 -9.611880 37.175056 -0.722209 1.832325 0.048141 -0.011519 138415.000000 0 0 1
-27.644708 24.589700 -8.538080 37.970805 -0.726978 1.797595 0.060313 0.002335 158189.000000 0 0 1
-27.357198 24.163000 -7.227780 37.208973 -0.723478 1.766287 0.051675 -0.000612 97049.200000 0 0 1
-28.241028 24.696600 -6.275680 38.037638 -0.718543 1.736540 0.076287 -0.014021 -174668.000000 0 0 1
-27.998708 24.005200 -4.894880 37.203994 -0.708756 1.702748 0.073728 -0.016404 98627.600000 0 0 1
-28.491618 22.663500 -4.966480 36.743332 -0.671957 1.706378 0.069645 -0.010874 51296.000000 0 0 1
-28.025378 21.950200 -3.824480 35.803069 -0.664429 1.677820 0.073490 -0.022712 57725.400000 0 0 1
-27.796728 20.458700 -4.169280 34.764916 -0.634488 1.691013 0.081609 -0.013454 175769.000000 0 0 1
-26.807768 20.134000 -5.148080 33.919568 -0.644173 1.723158 0.056794 -0.021026 14795.400000 0 0 1
-27.035498 20.483300 -6.484080 34.532985 -0.648376 1.759682 0.042772 -0.015135 -1072290.000000 0 0 1
-28.066428 19.730700 -7.327180 35.081512 -0.612737 1.781207 0.043361 -0.018187 -421261.000000 0 0 1
-27.807608 18.345800 -7.448780 34.136722 -0.583192 1.790770 0.045569 -0.018781 268249.000000 0 0 1
-28.224718 17.895900 -8.776380 34.553188 -0.565081 1.827606 0.041047 -0.016366 79980.100000 0 0 1
-27.830858 16.433900 -9.008280 33.552628 -0.533399 1.842613 0.076192 -0.019375 81532.200000 0 0 1
-28.500318 15.539500 -8.157680 33.470763 -0.499181 1.817002 0.070113 -0.013248 33604.000000 0 0 1
-28.175738 14.206100 -8.575380 32.698970 -0.466999 1.836152 0.086052 -0.020641 135304.000000 0 0 1
-28.899538 13.149400 -7.721280 32.675805 -0.427007 1.809352 0.089822 -0.028193 259373.000000 0 0 1
-30.318558 13.141700 -7.819480 33.956789 -0.409009 1.803159 0.100494 -0.010294 -23235.500000 0 0 1
-30.833268 12.213400 -6.918780 33.878121 -0.377149 1.776469 0.100423 -0.015727 -468090.000000 0 0 1
-31.420308 10.885500 -7.459480 34.078934 -0.333507 1.791471 0.106522 -0.012495 -223686.000000 0 0 1
-30.474558 10.033000 -8.051680 33.078533 -0.318049 1.816677 0.127617 -0.015369 -237112.000000 0 0 1
-30.989128 8.738700 -8.127080 33.207535 -0.274855 1.818044 0.122513 -0.007329 -49654.200000 0 0 1
-29.963648 7.654600 -8.572080 32.091957 -0.250114 1.841189 0.162127 -0.013604 103772.000000 0 0 1
-29.529568 7.831700 -9.908580 32.117143 -0.259247 1.884426 0.140365 -0.022118 79023.200000 0 0 1
-28.597618 6.842800 -10.275980 31.148731 -0.234863 1.906994 0.164402 -0.031979 -311927.000000 0 0 1
-27.841838 7.038500 -11.603680 30.973438 -0.247615 1.954798 0.131197 -0.028875 -389825.000000 0 0 1
-26.974608 8.133500 -11.491080 30.427426 -0.292855 1.958059 0.153098 -0.037316 -82153.700000 0 0 1
-26.166718 8.176400 -12.631980 30.184724 -0.302861 2.002578 0.132445 -0.023594 -262742.000000 0 0 1
-32.257978 25.719300 -33.345100 53.046727 -0.673093 2.250546 0.038941 -0.023457 -279820.000000 0 0 1
-32.489938 27.081500 -33.690260 54.074369 -0.694857 2.243414 0.028778 -0.024909 99781.400000 0 0 1
-32.629198 27.154300 32.852539 53.677835 -0.694074 0.912169 0.043328 -0.022518 -212884.000000 0 0 1
-33.057068 28.613400 32.633750 54.556925 -0.713467 0.929594 0.045039 -0.028819 -103774.000000 0 0 1
-33.202028 29.008900 31.278857 54.057912 -0.718098 0.953764 0.066011 -0.022865 317659.000000 0 0 1
-33.596228 30.388600 31.265877 55.042971 -0.735309 0.966690 0.065267 -0.021019 121056.000000 0 0 1
-33.591008 31.033600 29.861557 54.618246 -0.745846 0.992340 0.079190 -0.022637 986812.000000 0 0 1
-32.216218 31.280200 29.496177 53.724856 -0.770658 0.989602 0.078769 -0.016771 1013840.000000 0 0 1
-32.081368 31.768800 28.187367 53.225920 -0.780503 1.012691 0.092530 -0.019132 -709119.000000 0 0 1
-30.696038 31.797800 27.578277 52.095184 -0.803026 1.012924 0.092453 -0.023043 -837769.000000 0 0 1
-30.280678 30.527600 27.057607 50.803228 -0.789459 1.009131 0.117181 -0.024423 -8397.720000 0 0 1
-29.058918 30.489600 26.369627 49.692994 -0.809419 1.011428 0.101361 -0.016890 -312329.000000 0 0 1
-29.135718 30.991100 24.932557 49.304876 -0.816246 1.040625 0.117328 -0.019813 -284292.000000 0 0 1
-29.014568 32.399600 24.824257 50.078169 -0.840461 1.052144 0.100054 -0.021759 -484025.000000 0 0 1
-30.088978 32.969900 24.158697 50.754345 -0.831053 1.074704 0.102227 -0.023746 -695512.000000 0 0 1
-30.376318 -33.663355 24.500897 51.538686 0.836681 1.075391 0.092799 -0.015266 -155154.000000 0 0 1
-30.868988 -33.566055 25.811167 52.400294 0.827231 1.055748 0.079680 -0.018808 94640.100000 0 0 1
-30.571888 -32.369055 26.368857 51.746620 0.813944 1.036104 0.053179 -0.014140 -192908.000000 0 0 1
-30.910418 -32.399355 27.853847 52.735272 0.808912 1.014338 0.053800 -0.014424 -55698.100000 0 0 1
-32.293898 -32.360555 28.142317 53.685113 0.786429 1.019008 0.049731 -0.020795 -5720.830000 0 0 1
-32.551848 -32.502955 29.594947 54.698499 0.784647 0.999104 0.039745 -0.016559 255674.000000 0 0 1
-34.054098 -32.798255 29.812847 55.894660 0.766615 1.008210 0.052499 -0.022149 306654.000000 0 0 1
-34.454320 -33.233855 31.109087 57.090845 0.767369 0.994521 0.041155 -0.020009 -1049760.000000 0 0 1
-35.802574 -33.504955 31.185557 58.111490 0.752259 1.004334 0.043175 -0.025502 -959422.000000 0 0 1
-36.242438 -33.990255 32.589712 59.421722 0.753342 0.990290 0.050976 -0.016715 112470.000000 0 0 1
-35.779503 32.801500 33.041347 58.718327 -0.742002 0.973137 0.037403 -0.008109 -29407.900000 0 0 1
-36.656878 32.343200 -33.889060 59.483424 -0.722962 2.176965 0.040634 -0.011784 133404.000000 0 0 1
-36.274828 30.955000 -33.349460 58.191595 -0.706434 2.181077 0.032889 -0.012924 1297890.000000 0 0 1
-35.065408 30.945600 -32.539230 56.973806 -0.723068 2.178673 0.028868 -0.011872 641939.000000 0 0 1
-34.657719 29.680300 -32.083800 55.780355 -0.708188 2.183622 0.023053 -0.018349 982148.000000 0 0 1
-33.645768 29.732100 -30.834460 54.468334 -0.723725 2.172562 0.018361 -0.013862 687520.000000 0 0 1
-34.266861 29.912100 -29.595650 54.266509 -0.717649 2.147634 0.028548 -0.020832 -369038.000000 0 0 1
-34.481935 31.236200 -29.177980 54.918654 -0.736050 2.130924 0.016309 -0.009275 282376.000000 0 0 1
-35.522843 31.282400 -28.034820 55.012836 -0.722008 2.105522 0.022470 -0.007213 274048.000000 0 0 1
-34.954187 30.903800 -26.805780 53.808828 -0.723974 2.092280 0.009380 -0.021488 477945.000000 0 0 1
-36.062404 30.648700 -25.936040 53.967750 -0.704424 2.072117 0.069140 -0.024421 454083.000000 0 0 1
-35.637310 30.372800 -24.520980 52.856441 -0.705814 2.053208 0.082514 -0.029547 -233919.000000 0 0 1
-35.453714 31.565100 -23.687980 53.051313 -0.727440 2.033658 0.062140 -0.027603 23202.900000 0 0 1
-35.380193 31.356500 -22.297880 52.270294 -0.725179 2.011513 0.049875 -0.029566 -472432.000000 0 0 1
-36.736958 31.041300 -21.649780 52.743525 -0.701561 1.993769 0.045805 -0.031602 350963.000000 0 0 1
36.369040 32.093300 -21.639180 53.112532 0.723025 1.990425 0.058346 -0.037971 412024.000000 0 0 1
36.586430 33.349600 -20.899680 53.736015 0.739148 1.970269 0.056413 -0.040450 -452887.000000 0 0 1
36.907640 33.091700 -19.360980 53.217310 0.730938 1.943151 0.053646 -0.040068 176545.000000 0 0 1
-35.985492 32.415700 -19.128880 52.073480 -0.733256 1.946948 0.044947 -0.041811 -72036.400000 0 0 1
-35.648765 32.228300 -17.759080 51.233609 -0.735049 1.924772 0.048173 -0.036132 -154320.000000 0 0 1
-34.378303 31.406300 -17.521480 49.751640 -0.740251 1.930695 0.046023 -0.033565 -104268.000000 0 0 1
-34.391353 31.014700 -16.209580 49.065541 -0.733818 1.907488 0.043502 -0.028324 52009.300000 0 0 1
-33.150088 30.418000 -15.888280 47.713945 -0.742446 1.910269 0.046201 -0.025078 -115996.000000 0 0 1
-32.917628 30.219800 -14.393580 46.946584 -0.742695 1.882410 0.058091 -0.025368 -844167.000000 0 0 1
-33.795918 29.310000 -13.825180 46.822813 -0.714432 1.870530 0.042461 -0.014845 -263439.000000 0 0 1
-33.363858 28.954700 -12.555280 45.925557 -0.714764 1.847705 0.060140 -0.013554 -336405.000000 0 0 1
-34.390062 28.138100 -11.776380 45.968600 -0.685743 1.829868 0.053165 -0.017040 -90869.000000 0 0 1
-33.826398 27.785700 -10.505380 45.018145 -0.687666 1.806327 0.066047 -0.009735 1117290.000000 0 0 1
-34.611217 26.693800 -9.898480 44.816015 -0.656961 1.793502 0.073059 -0.019128 837962.000000 0 0 1
-33.840288 26.078100 -8.688980 43.597371 -0.656570 1.771440 0.090496 -0.011523 261911.000000 0 0 1
-33.661008 26.990600 -7.602180 43.810377 -0.675859 1.745204 0.089239 -0.015815 260159.000000 0 0 1
-32.683348 26.473800 -6.733080 42.595748 -0.680814 1.729531 0.081897 -0.021710 -166071.000000 0 0 1
-32.264698 27.349000 -5.458580 42.647094 -0.703125 1.699143 0.093912 -0.032274 205482.000000 0 0 1
-31.210758 26.670000 -4.793880 41.332573 -0.707108 1.687041 0.106891 -0.028752 475374.000000 0 0 1
-30.905488 27.177400 -3.486180 41.302708 -0.721300 1.655302 0.110125 -0.022723 -222559.000000 0 0 1
-30.027488 26.232900 -2.681280 39.962537 -0.718053 1.637942 0.100127 -0.029406 -452525.000000 0 0 1
-30.668168 25.050000 -2.331180 39.667032 -0.684906 1.629599 0.095037 -0.028623 -33885.400000 0 0 1
-29.908488 24.242200 -1.458680 38.526999 -0.681138 1.608667 0.099751 -0.036498 35257.500000 0 0 1
-30.633068 22.924000 -1.126580 38.277458 -0.642439 1.600233 0.107076 -0.037868 -157243.000000 0 0 1
-30.793878 22.018700 -2.204280 37.920244 -0.620745 1.628958 0.091620 -0.028364 -376138.000000 0 0 1
-31.763738 21.098200 -1.885880 38.178864 -0.586309 1.620212 0.093621 -0.022300 -262527.000000 0 0 1
-32.327888 20.223500 -3.070480 38.255851 -0.559012 1.651144 0.117155 -0.018278 -305699.000000 0 0 1
-31.349948 19.338900 -3.419080 36.993275 -0.552733 1.663353 0.087077 -0.020669 -174121.000000 0 0 1
-31.750448 18.681100 -4.596480 37.124144 -0.531826 1.694929 0.086219 -0.013346 148038.000000 0 0 1
-30.597668 17.786700 -5.075480 35.753944 -0.526563 1.713233 0.080778 -0.011759 -68220.200000 0 0 1
-30.502398 16.626200 -4.223580 34.995220 -0.499057 1.691781 0.096338 -0.023884 198976.000000 0 0 1
-29.712078 15.632100 -4.851780 33.922115 -0.484324 1.714316 0.089612 -0.021661 -488556.000000 0 0 1
-29.513168 14.389700 -3.970380 33.073471 -0.453653 1.691134 0.093285 -0.024471 -675202.000000 0 0 1
-30.611808 13.655800 -3.481980 33.699968 -0.419602 1.674304 0.116622 -0.021866 -70480.900000 0 0 1
-30.312508 12.326100 -3.136580 32.872770 -0.386212 1.666357 0.107961 -0.021726 -468253.000000 0 0 1
-31.482148 11.630700 -2.432780 33.649922 -0.353885 1.643156 0.129173 -0.019298 -376421.000000 0 0 1
-32.342198 11.125000 -3.425180 34.373177 -0.331300 1.670609 0.125284 -0.009249 -464400.000000 0 0 1
-33.567858 10.752500 -2.872380 35.364784 -0.309994 1.652107 0.149585 -0.015302 -612546.000000 0 0 1
-34.483206 10.162700 -3.951680 36.166114 -0.286601 1.680280 0.114724 -0.011622 -111674.000000 0 0 1
-33.882728 9.104900 -4.691880 35.397065 -0.262517 1.703738 0.108225 -0.009541 243605.000000 0 0 1
-34.845523 8.512300 -5.511080 36.291070 -0.239594 1.723244 0.104482 -0.000242 69472.700000 0 0 1
-34.160493 7.607200 -6.590980 35.612495 -0.219115 1.756944 0.110342 -0.003594 3694.250000 0 0 1
-33.474268 6.491500 -6.044180 34.629443 -0.191548 1.746234 0.107056 -0.003434 344567.000000 0 0 1
-33.230838 5.561800 -7.100380 34.433089 -0.165832 1.778494 0.112857 -0.005267 -701205.000000 0 0 1
-32.212108 4.496000 -6.787380 33.225028 -0.138679 1.776530 0.134146 -0.011035 18670.200000 0 0 1
-30.861858 4.960900 -6.881580 32.006577 -0.159382 1.787493 0.151170 -0.017475 295616.000000 0 0 1
-29.996598 3.912000 -6.600380 30.962311 -0.129683 1.785620 0.143418 -0.023915 -1550370.000000 0 0 1
-28.572048 4.193600 -6.262080 29.549313 -0.145732 1.784335 0.179450 -0.019242 -1033840.000000 0 0 1
-27.824998 4.665400 -7.366180 29.159168 -0.166124 1.826183 0.174552 -0.021570 589593.000000 0 0 1
-26.426388 4.671900 -7.073480 27.752744 -0.174981 1.828515 0.179093 -0.030633 1337550.000000 0 0 1
-25.472858 5.106400 -8.289880 27.270203 -0.197842 1.879675 0.169547 -0.028185 581981.000000 0 0 1
-25.545048 4.226300 -9.392480 27.543235 -0.163960 1.918786 0.171457 -0.044001 97730.400000 0 0 1
-24.560218 4.480200 -10.362280 27.030601 -0.180433 1.964221 0.163911 -0.043560 -171152.000000 0 0 1
-24.830918 3.753500 -11.678280 27.695586 -0.150027 2.006078 0.148570 -0.049163 -65283.700000 0 0 1
-25.824068 4.430100 -12.409380 28.991395 -0.169896 2.013116 0.168192 -0.035823 139470.000000 0 0 1
-26.389968 3.701700 -13.457780 29.853724 -0.139360 2.038447 0.147149 -0.038208 -59961.200000 0 0 1
-27.396798 4.494300 -14.301780 31.230181 -0.162597 2.046481 0.124573 -0.033866 -360176.000000 0 0 1
-26.776038 5.546500 -15.021280 31.198698 -0.204255 2.073129 0.105985 -0.029289 727137.000000 0 0 1
-27.651998 6.352900 -15.838680 32.493940 -0.225826 2.079946 0.134918 -0.031473 87391.300000 0 0 1
-28.422018 5.767600 -17.045580 33.639681 -0.200209 2.102161 0.093756 -0.023855 359490.000000 0 0 1
-29.546308 5.001200 -16.595680 34.255116 -0.167677 2.076557 0.104831 -0.036499 -41125.500000 0 0 1
-30.204518 4.490400 -17.693080 35.291950 -0.147586 2.095937 0.112300 -0.023509 818633.000000 0 0 1
-31.722178 4.068800 -17.434780 36.425586 -0.127567 2.069903 0.113059 -0.024545 1286480.000000 0 0 1
-31.990248 2.974900 -16.596880 36.161892 -0.092727 2.047621 0.117380 -0.036562 -17768.300000 0 0 1
-31.515788 1.737400 -17.062180 35.880099 -0.055072 2.066366 0.145317 -0.035009 -278241.000000 0 0 1
-31.904738 0.553300 -16.195580 35.784288 -0.017341 2.040463 0.145288 -0.039152 -95427.100000 0 0 1
-31.489978 -0.701700 -16.739780 35.669754 0.022280 2.059293 0.143461 -0.027318 152383.000000 0 0 1
-32.110258 -1.637700 -15.950180 35.890932 0.050958 2.031308 0.152654 -0.036734 -168511.000000 0 0 1
-31.959728 -3.125300 -16.369680 36.043837 0.097479 2.042226 0.125626 -0.026646 -185962.000000 0 0 1
-32.598478 -3.346400 -17.581780 37.188415 0.102297 2.063234 0.141333 -0.030642 4424.440000 0 0 1
-32.423148 -4.657300 -18.101880 37.424979 0.142665 2.075656 0.125367 -0.028969 -167899.000000 0 0 1
-33.350138 -4.907200 -19.274480 38.830631 0.146093 2.090212 0.135260 -0.026734 -29612.900000 0 0 1
-32.983148 -6.095100 -19.955180 39.028804 0.182733 2.107486 0.125277 -0.023578 187052.000000 0 0 1
-33.905168 -6.256700 -21.009880 40.374767 0.182482 2.118082 0.117055 -0.024599 -145903.000000 0 0 1
-33.463618 -7.340300 -21.995780 40.712506 0.215932 2.141555 0.106857 -0.020430 -210625.000000 0 0 1
-32.377418 -6.957100 -22.780180 40.194963 0.211657 2.173343 0.103315 -0.019981 -460243.000000 0 0 1
-31.905458 -7.837200 -23.716080 40.519532 0.240869 2.196046 0.093060 -0.012482 379774.000000 0 0 1
-30.580338 -7.495700 -24.465180 39.873395 0.240376 2.231372 0.093530 -0.004466 312249.000000 0 0 1
-30.740108 -6.368100 -25.291510 40.313366 0.204270 2.248971 0.095405 -0.009562 -50067.300000 0 0 1
-30.854188 -6.608800 -26.698550 41.333640 0.211006 2.273034 0.079960 -0.012222 220338.000000 0 0 1
-32.265458 -6.870400 -27.288880 42.812909 0.209800 2.261914 0.083069 -0.008319 259089.000000 0 0 1
-32.897328 -8.082300 -26.894260 43.253428 0.240911 2.241814 0.061743 -0.000494 -1336670.000000 0 0 1
-34.138877 -8.230400 -27.439590 44.566058 0.236571 2.234078 0.054684 -0.004433 -883453.000000 0 0 1
-34.950384 -9.369200 -26.755130 45.001647 0.261913 2.207486 0.042245 -0.004576 -721144.000000 0 0 1
-34.506912 -10.659700 -26.974510 45.077493 0.299615 2.212303 0.048197 0.002740 -291068.000000 0 0 1
-35.418619 -11.715000 -26.699540 45.875759 0.319431 2.191978 0.042341 0.000268 -438695.000000 0 0 1
-36.583448 -11.841400 -27.691250 47.385365 0.313039 2.194917 0.028053 0.003025 -415617.000000 0 0 1
36.547230 -10.871700 -27.331610 46.913866 -0.289134 2.192710 0.025640 -0.011214 -172705.000000 0 0 1
35.734710 -10.587800 -28.464350 46.896591 -0.288049 2.223026 0.019811 -0.016739 133961.000000 0 0 1
34.683630 -9.497700 -28.129720 45.655686 -0.267286 2.234613 0.024758 -0.017442 363303.000000 0 0 1
33.691830 -9.812800 -27.159990 44.374492 -0.283412 2.229463 0.023117 -0.011300 7797.310000 0 0 1
32.798090 -8.768600 -26.940660 43.340538 -0.261241 2.241585 0.011504 -0.008672 829111.000000 0 0 1
31.530080 -9.190800 -26.073200 41.933621 -0.283634 2.241801 0.022353 -0.008647 848672.000000 0 0 1
31.838230 -9.522500 -24.741080 41.430327 -0.290622 2.210769 0.007637 0.001534 -936.974000 0 0 1
30.683750 -9.977100 -24.079480 40.259861 -0.314376 2.211926 0.001926 0.013554 -98352.700000 0 0 1
30.871460 -10.061400 -22.521980 39.516053 -0.315057 2.177235 -0.004866 0.014601 123277.000000 0 0 1
31.727240 -11.098500 -22.082080 40.217070 -0.336505 2.152050 -0.015276 0.010712 114552.000000 0 0 1
31.955820 -11.074300 -20.723880 39.664767 -0.333598 2.120548 -0.000741 0.004052 380078.000000 0 0 1
32.891290 -12.265300 -20.257880 40.529696 -0.356932 2.094197 0.026002 -0.005248 604452.000000 0 0 1
34.253460 -12.047100 -20.574280 41.734077 -0.338193 2.086314 0.031868 -0.007720 201758.000000 0 0 1
35.130000 -12.762200 -19.715480 42.257435 -0.348461 2.056190 0.055199 -0.012286 449908.000000 0 0 1
36.613220 -12.731800 -20.176380 43.700263 -0.334658 2.050706 0.061530 -0.021660 -14965.000000 0 0 1
-36.729768 -11.573800 -20.225180 43.498122 0.305258 2.054393 0.070120 -0.019515 126493.000000 0 0 1
-36.989278 -10.714000 -21.311280 44.013261 0.281936 2.076246 0.077717 -0.016899 -585061.000000 0 0 1
-36.302778 -11.120100 -22.657680 44.214464 0.297241 2.108831 0.056898 -0.014973 83251.200000 0 0 1
-36.896598 -12.146600 -23.440780 45.369252 0.318032 2.113749 0.056500 -0.010013 288521.000000 0 0 1
35.908370 -11.903400 -23.931080 44.763809 -0.320094 2.134840 0.059985 -0.007892 -26442.100000 0 0 1
35.370270 -13.032800 -24.848480 45.148166 -0.353031 2.153611 0.048790 -0.018155 -241831.000000 0 0 1
35.227410 -14.364800 -24.363580 45.176343 -0.387190 2.140401 0.055697 -0.030940 618325.000000 0 0 1
34.164580 -14.554800 -23.442080 43.915736 -0.402734 2.133881 0.038115 -0.029986 -294838.000000 0 0 1
-30.198108 9.084800 -18.938880 36.785058 -0.292227 2.111632 0.061901 0.001994 998935.000000 0 0 1
-29.079778 8.154900 -19.046780 35.705962 -0.273409 2.133452 0.066776 -0.001688 671848.000000 0 0 1
-28.393928 8.321600 -20.249480 35.853949 -0.285093 2.170959 0.071719 -0.022338 -46509.600000 0 0 1
-27.287718 7.252500 -20.380080 34.821918 -0.259773 2.196004 0.077800 -0.024460 611098.000000 0 0 1
-26.037548 7.536600 -19.746280 33.536098 -0.281751 2.200378 0.087596 -0.030537 980904.000000 0 0 1
-25.016218 6.556600 -20.017680 32.703329 -0.256328 2.229509 0.104508 -0.038912 664052.000000 0 0 1
-23.636118 7.058700 -19.540680 31.469501 -0.290209 2.240738 0.096845 -0.039448 134089.000000 0 0 1
-22.960118 7.987200 -20.386980 31.726824 -0.334778 2.268655 0.103917 -0.039239 -397030.000000 0 0 1
-21.924518 8.577200 -19.668880 30.677642 -0.372910 2.266788 0.090084 -0.034141 -567509.000000 0 0 1
-21.255918 9.716400 -20.464180 31.064532 -0.428755 2.289970 0.092752 -0.030161 -227589.000000 0 0 1
-20.520418 9.058200 -21.483080 31.058997 -0.415699 2.334618 0.118860 -0.034117 -112553.000000 0 0 1
-19.909818 9.939900 -22.399380 31.574273 -0.463044 2.359469 0.109119 -0.030460 -208216.000000 0 0 1
-18.911718 9.262600 -23.306880 31.411137 -0.455439 2.406836 0.116559 -0.021741 -403072.000000 0 0 1
-19.562018 8.427600 -24.196780 32.236333 -0.406785 2.419775 0.115126 -0.019947 345350.000000 0 0 1
-18.630318 7.814200 -25.113260 32.230829 -0.397147 2.464135 0.093031 -0.011397 109317.000000 0 0 1
-19.266018 6.871700 -26.150300 33.199969 -0.342609 2.477799 0.072705 -0.007506 -46075.900000 0 0 1
-19.788218 5.670400 -25.555410 32.814723 -0.279076 2.463513 0.096542 -0.010137 137991.000000 0 0 1
-20.406318 4.815400 -26.447670 33.750336 -0.231737 2.471279 0.085943 -0.015206 -641796.000000 0 0 1
-20.772518 3.548800 -25.649570 33.196264 -0.169208 2.453824 0.083288 -0.007309 362653.000000 0 0 1
-19.720218 2.655600 -25.238600 32.139169 -0.133859 2.473962 0.078096 -0.004208 658482.000000 0 0 1
-18.730618 3.154900 -24.355180 30.886312 -0.166869 2.479232 0.087212 -0.007645 1819.960000 0 0 1
-17.892918 1.993000 -23.701280 29.763724 -0.110928 2.491974 0.082003 -0.011813 4136.470000 0 0 1
-18.391518 1.390300 -22.539680 29.124184 -0.075451 2.455798 0.099225 -0.013233 303264.000000 0 0 1
-19.448518 0.466100 -22.782580 29.958439 -0.023961 2.434837 0.088343 -0.007470 207101.000000 0 0 1
-19.842418 -0.342400 -21.538280 29.287136 0.017254 2.397079 0.114179 -0.022684 -102072.000000 0 0 1
-18.956818 -1.418400 -21.325480 28.568320 0.074684 2.413542 0.119615 -0.028825 282923.000000 0 0 1
-19.313718 -2.186000 -20.187080 28.023500 0.112704 2.375121 0.122779 -0.029434 -64647.100000 0 0 1
-18.482418 -3.493200 -20.013280 27.465135 0.186798 2.387188 0.109695 -0.034591 -30479.200000 0 0 1
-18.521418 -4.408900 -21.120980 28.435491 0.233694 2.407992 0.108577 -0.035122 201943.000000 0 0 1
-19.068218 -5.614000 -20.709580 28.705412 0.286327 2.376693 0.115580 -0.026944 -393030.000000 0 0 1
-19.132218 -6.580400 -21.898680 29.814353 0.331269 2.395728 0.083269 -0.035545 380336.000000 0 0 1
-17.846118 -6.824300 -22.467980 29.493476 0.365240 2.436876 0.084810 -0.031591 375150.000000 0 0 1
-17.985018 -7.432200 -23.743980 30.699757 0.391871 2.455024 0.097767 -0.035588 1132290.000000 0 0 1
-16.615718 -7.622500 -24.527680 30.590713 0.430109 2.501100 0.092346 -0.034088 443609.000000 0 0 1
-16.737918 -8.059100 -25.884480 31.860843 0.448728 2.519092 0.093927 -0.057790 1219360.000000 0 0 1
-15.450018 -8.294700 -26.534660 31.805555 0.492709 2.557617 0.092508 -0.053976 1619190.000000 0 0 1
-14.397518 -9.293100 -25.956040 31.102512 0.573181 2.558079 0.082126 -0.047862 99230.100000 0 0 1
-13.641518 -8.819100 -24.812880 29.657151 0.573904 2.561948 0.077371 -0.039550 470042.000000 0 0 1
-12.864518 -9.849500 -24.216780 29.136934 0.653431 2.551945 0.058976 -0.034765 -215334.000000 0 0 1
-12.012618 -9.265300 -23.085180 27.623800 0.656993 2.560201 0.079899 -0.030148 -174316.000000 0 0 1
-12.656818 -8.835700 -21.913880 26.804529 0.609448 2.527929 0.079071 -0.029151 -349613.000000 0 0 1
-11.695518 -8.211000 -21.126080 25.505234 0.612110 2.546870 0.072029 -0.028710 -935770.000000 0 0 1
-12.206018 -7.827200 -19.751380 24.502428 0.570205 2.508326 0.060875 -0.021056 648385.000000 0 1 0
-13.198518 -6.762000 -19.639580 24.609727 0.473463 2.494834 0.059357 -0.014547 40971.900000 0 1 0
-14.482018 -7.143300 -20.000280 25.705385 0.458236 2.462365 0.087223 -0.027628 -890016.000000 0 0 1
-15.505218 -5.980900 -19.738680 25.803071 0.368149 2.441797 0.097549 -0.018655 -52340.700000 0 0 1
-15.695118 -5.743800 -18.389880 24.849863 0.350823 2.403925 0.091017 -0.018049 252521.000000 0 1 0
-15.109618 -4.533800 -17.999780 23.934243 0.291512 2.421965 0.096766 -0.021695 -472957.000000 0 1 0
-14.991818 -4.298400 -16.463180 22.677459 0.279226 2.383242 0.088988 -0.016177 986376.000000 0 1 0
-16.251018 -4.030800 -15.792580 23.016267 0.243127 2.326978 0.115702 -0.027210 1248550.000000 0 1 0
-16.709918 -2.667400 -15.831780 23.172865 0.158294 2.322937 0.074330 -0.032105 96812.500000 0 1 0
-17.881718 -2.398400 -14.858480 23.372689 0.133330 2.259737 0.069693 -0.034618 127496.000000 0 1 0
-17.592818 -2.738600 -13.509780 22.349974 0.154426 2.219891 0.078410 -0.029280 176477.000000 0 1 0
-18.535718 -2.097700 -12.717180 22.576534 0.112691 2.169161 0.089435 -0.033417 -469721.000000 0 1 0
-17.993118 -0.844300 -12.031080 21.661303 0.046889 2.159662 0.068273 -0.028484 -236502.000000 0 1 0
-17.854618 0.129900 -12.992680 22.081984 -0.007275 2.199855 0.092988 -0.032929 386566.000000 0 1 0
-17.139118 1.184500 -12.443480 21.213029 -0.069001 2.197646 0.091418 -0.020851 -894943.000000 0 1 0
-16.637118 2.264900 -13.411780 21.489517 -0.135304 2.244786 0.102060 -0.020717 321300.000000 0 1 0
-15.807818 1.887000 -14.522480 21.548789 -0.118809 2.310318 0.098052 -0.031582 729592.000000 0 1 0
-14.499718 1.460400 -14.169280 20.325922 -0.100381 2.342147 0.086385 -0.023813 -329306.000000 0 1 0
-13.951818 0.395000 -15.127280 20.582611 -0.028304 2.396396 0.078203 -0.030500 -81672.900000 0 1 0
-13.373018 0.942600 -16.295480 21.101393 -0.070369 2.453166 0.082067 -0.037812 175603.000000 0 1 0
-12.974118 -0.096100 -17.103180 21.467551 0.007407 2.492610 0.063068 -0.033156 -90975.200000 0 1 0
-12.298818 0.474900 -18.395080 22.132904 -0.038594 2.551914 0.073609 -0.036133 -406964.000000 0 1 0
-11.107318 1.172600 -18.139580 21.302392 -0.105180 2.589689 0.055775 -0.030914 -449326.000000 0 1 0
-10.716818 1.873100 -19.299780 22.154914 -0.173033 2.628292 0.061223 -0.026235 -117587.000000 0 1 0
-9.358618 2.553400 -19.074080 21.399162 -0.266356 2.671104 0.041784 -0.026245 -123404.000000 0 1 0
-8.289218 1.639600 -19.329280 21.095509 -0.195278 2.729475 0.034721 -0.019955 784800.000000 0 1 0
-6.934018 2.059800 -19.151580 20.472089 -0.288755 2.780460 0.029061 -0.017125 1117750.000000 0 1 0
-6.429518 3.141900 -20.163080 21.395328 -0.454541 2.800548 0.038596 -0.015669 -629866.000000 0 1 0
-6.567618 2.792700 -21.512480 22.665383 -0.402059 2.821270 0.046604 -0.019262 256546.000000 0 1 0
-6.116218 3.861300 -22.300080 23.443791 -0.563132 2.827946 0.048111 -0.017128 -268741.000000 0 1 0
-5.465318 3.485200 -23.669580 24.541095 -0.567675 2.874293 0.064565 -0.025043 -802461.000000 0 1 0
-4.280318 2.790500 -23.596580 24.143459 -0.577736 2.928345 0.061097 -0.029229 -953566.000000 0 1 0
-3.861518 2.433800 -24.895780 25.310760 -0.562380 2.960262 0.080687 -0.022176 343998.000000 0 0 1
-2.407118 1.884700 -24.931280 25.118022 -0.664270 3.019578 0.073868 -0.017600 549702.000000 0 0 1
-1.346518 2.785600 -24.609380 24.803110 -1.120529 3.016525 0.073146 -0.021890 1390040.000000 0 1 0
-0.048618 2.276200 -24.987980 25.091485 -1.549440 3.050731 0.066943 -0.015283 1367260.000000 0 0 1
0.816282 1.415100 -23.989880 24.045440 1.047583 3.073600 0.057003 -0.008961 -40076.200000 0 1 0
0.331182 0.077000 -23.805380 23.807808 0.228442 3.127311 0.048851 -0.013758 34644.600000 0 1 0
1.187082 -0.625500 -22.931280 22.970503 -0.484953 3.083146 0.045950 -0.006605 -662211.000000 0 1 0
0.838782 -2.111500 -22.662580 22.776184 -1.192668 3.041673 0.045538 -0.018625 -45849.900000 0 1 0
-0.361518 -2.366700 -21.927780 22.058094 1.419216 3.032840 0.045965 -0.025407 472098.000000 0 1 0
-1.556218 -2.496200 -22.675080 22.865085 1.013323 3.012586 0.044883 -0.028145 357521.000000 0 1 0
-2.439518 -1.217100 -22.750180 22.912950 0.462775 3.022326 0.047289 -0.027920 -1360840.000000 0 1 0
-3.136518 -0.887600 -21.512580 21.758141 0.275778 2.991212 0.041336 -0.025419 212717.000000 0 1 0
-4.073118 0.136700 -21.700080 22.079458 -0.033549 2.955949 0.036833 -0.018827 529032.000000 0 1 0
-5.321118 -0.265600 -22.570080 23.190372 0.049873 2.909783 0.028306 -0.007836 -454631.000000 0 1 0
-6.222118 -1.161700 -21.906380 22.802496 0.184580 2.860313 0.030043 -0.007921 431779.000000 0 1 0
-7.547918 -0.633100 -21.826780 23.103684 0.083682 2.807571 0.035830 -0.019484 559621.000000 0 1 0
-8.509618 -1.840200 -21.513480 23.208399 0.212970 2.757049 0.030488 -0.009656 -104584.000000 0 1 0
-8.736118 -2.716700 -22.564280 24.348449 0.301493 2.756393 0.054345 -0.015235 19243.800000 0 1 0
-8.943418 -4.013600 -22.045880 24.127050 0.421836 2.723195 0.034582 -0.023504 -393031.000000 0 1 0
-9.611418 -5.031500 -23.001080 25.431183 0.482264 2.700871 0.041323 -0.021909 447325.000000 0 0 1
-11.021218 -4.896400 -22.871480 25.856268 0.418079 2.656351 0.051555 -0.022798 318877.000000 0 0 1
-11.812418 -5.493200 -23.892280 27.213040 0.435287 2.642405 0.046802 -0.030418 174546.000000 0 0 1
-13.321418 -5.326100 -23.677280 27.684673 0.380347 2.596827 0.104780 -0.033543 -227607.000000 0 0 1
-13.863718 -4.038100 -23.777680 27.818825 0.283429 2.595833 0.088274 -0.028421 -601874.000000 0 0 1
-15.263918 -4.064200 -23.781880 28.549654 0.260224 2.555306 0.082355 -0.031461 -234657.000000 0 0 1
-15.909218 -2.701000 -23.954380 28.882711 0.168172 2.548771 0.092063 -0.027106 -407223.000000 0 0 1
-15.941418 -2.446400 -25.397710 30.085834 0.152274 2.575821 0.086818 -0.022980 14134.300000 0 0 1
-16.466518 -1.236500 -25.868180 30.689378 0.074951 2.573453 0.075027 -0.016350 162181.000000 0 0 1
-18.013118 -1.212000 -26.075520 31.715519 0.067183 2.536007 0.079563 -0.017039 389488.000000 0 0 1
-18.355918 -1.828600 -27.333360 32.975690 0.099292 2.547924 0.075005 -0.029019 68940.200000 0 0 1
-18.269618 -0.985700 -28.511410 33.876999 0.053901 2.571064 0.066932 -0.031010 -445396.000000 0 0 1
-18.370718 -1.655000 -29.882580 35.116818 0.089846 2.588584 0.074186 -0.034155 416247.000000 0 0 1
-19.619918 -2.275800 -30.179840 36.068591 0.115478 2.562089 0.072050 -0.035674 306970.000000 0 0 1
-19.600218 -2.881500 -31.441070 37.161977 0.145968 2.579337 0.078102 -0.045182 -65399.000000 0 0 1
-21.004818 -3.505500 -31.793350 38.266278 0.165366 2.551421 0.048412 -0.037580 802828.000000 0 0 1
-22.050618 -2.592600 -32.022730 38.966737 0.117038 2.535353 0.038779 -0.028235 -14348.300000 0 0 1
-22.614018 -2.007600 -30.905190 38.347817 0.088545 2.508021 0.037288 -0.018830 -822096.000000 0 0 1
-23.747818 -0.998600 -31.262640 39.272239 0.042025 2.491536 0.042915 -0.017965 -65756.200000 0 0 1
-23.350418 0.240900 -31.799770 39.452826 -0.010316 2.508193 0.046729 -0.025639 215303.000000 0 0 1
-24.401318 0.883200 -32.491420 40.643533 -0.036179 2.497132 0.040830 -0.024681 -8512.520000 0 0 1
-23.982018 2.217500 -33.287880 41.086950 -0.092203 2.515258 0.054510 -0.024397 -99907.100000 0 0 1
-23.344018 3.257300 -32.529870 40.171453 -0.138640 2.514566 0.047402 -0.019675 1003310.000000 0 0 1
-24.195718 3.982100 -31.629130 40.021142 -0.163116 2.482112 0.043048 -0.018033 337425.000000 0 0 1
-25.337588 4.891300 -32.161700 41.234611 -0.190699 2.465412 0.040777 -0.025252 371279.000000 0 0 1
-26.499098 4.267700 -32.687140 42.294972 -0.159680 2.454097 0.060372 -0.030479 19179.400000 0 0 1
-27.127448 5.031000 -33.653720 43.517609 -0.183374 2.454882 0.076747 -0.036582 -265581.000000 0 0 1
-28.536418 4.444100 -33.922980 44.551608 -0.154493 2.436314 0.085877 -0.032486 -156711.000000 0 0 1
-28.581898 3.116000 33.539239 44.175954 -0.108591 0.708684 0.090710 -0.032280 942479.000000 0 0 1
-29.884908 2.768700 33.044982 44.640165 -0.092382 0.737351 0.095447 -0.027293 616719.000000 0 0 1
-29.806648 1.224700 32.772588 44.316800 -0.041065 0.738458 0.087178 -0.009360 -102185.000000 0 0 1
-29.826418 0.424900 33.952467 45.194754 -0.014245 0.720845 0.082986 -0.008043 277732.000000 0 0 1
-30.098218 -0.962700 33.720380 45.209441 0.031974 0.728956 0.066360 -0.003304 -915809.000000 0 0 1
-29.884368 -1.911800 -32.995410 44.558137 0.063886 2.404614 0.040884 -0.007364 -522539.000000 0 0 1
-28.580688 -2.204500 -32.575940 43.392482 0.076980 2.419959 0.062897 -0.016497 368341.000000 0 0 1
-27.754028 -1.089800 -32.163890 42.496936 0.039246 2.429279 0.062945 -0.011902 -475162.000000 0 0 1
-27.854868 -0.635400 -30.657540 41.426830 0.022807 2.403927 0.089781 -0.015228 -236854.000000 0 0 1
-27.128368 -1.448900 -29.717510 40.263856 0.053358 2.401001 0.078821 -0.020598 687051.000000 0 0 1
-27.236598 -0.887600 -28.433810 39.384028 0.032577 2.377431 0.093321 -0.025699 -577225.000000 0 0 1
-26.176798 -1.460600 -27.506240 37.999360 0.055740 2.380178 0.087690 -0.030493 -421600.000000 0 0 1
-26.163408 -2.867700 -27.223200 37.866216 0.109171 2.373060 0.083306 -0.024440 19597.700000 0 0 1
-25.008118 -3.261100 -26.524420 36.600350 0.129670 2.381401 0.085639 -0.021434 -356262.000000 0 0 1
-25.239848 -4.553300 -25.657930 36.278256 0.178482 2.356402 0.088278 -0.025212 107857.000000 0 0 1
-26.271698 -4.290300 -24.737280 36.339260 0.161876 2.319557 0.107375 -0.018190 -116704.000000 0 0 1
-26.603188 -5.423600 -23.942980 36.199605 0.201114 2.293501 0.103139 -0.019071 -373591.000000 0 0 1
-27.708248 -5.129200 -22.960480 36.348857 0.183043 2.254502 0.110017 -0.021937 -602248.000000 0 0 1
-28.050858 -6.227300 -22.187180 36.302905 0.218457 2.228332 0.109990 -0.024111 106674.000000 0 0 1
-29.060998 -5.856400 -21.252580 36.476173 0.198858 2.192773 0.127459 -0.018981 233088.000000 0 0 1
-29.713068 -7.045300 -20.518380 36.790034 0.232812 2.162428 0.125244 -0.031041 -766358.000000 0 0 1
-28.790348 -7.720800 -19.747780 35.755695 0.262008 2.155914 0.119341 -0.030424 -405148.000000 0 0 1
-29.310998 -8.649400 -18.818080 35.889649 0.286947 2.122726 0.129456 -0.021786 -31690.100000 0 0 1
-29.933048 -7.955800 -17.538080 35.593067 0.259780 2.086031 0.130787 -0.038730 521320.000000 0 0 1
-28.981138 -7.195200 -16.777280 34.251342 0.243351 2.082689 0.130562 -0.040504 459526.000000 0 0 1
-29.575258 -6.576300 -15.672280 34.111054 0.218798 2.048171 0.125919 -0.039653 -3039.940000 0 0 1
-28.522268 -6.024300 -14.666280 32.632986 0.208155 2.036925 0.133934 -0.036986 126781.000000 0 0 1
-27.878148 -4.867000 -15.147080 32.098487 0.172839 2.062234 0.137439 -0.031692 66290.800000 0 0 1
-27.012228 -4.298000 -14.197880 30.817415 0.157790 2.049591 0.132066 -0.037236 -296927.000000 0 0 1
-14.248918 20.761200 -4.658580 25.607840 -0.969308 1.753735 0.068562 -0.026216 -91748.500000 0 0 1
-14.343018 20.366900 -5.989180 25.620364 -0.957236 1.806746 0.090455 -0.029402 988733.000000 0 0 1
-15.359518 19.323200 -6.157080 25.440332 -0.899189 1.815244 0.097689 -0.041989 915212.000000 0 0 1
-15.464018 18.853300 -7.665780 25.560653 -0.883842 1.875390 0.111193 -0.033973 146400.000000 0 0 1
-14.254118 18.213700 -8.064180 24.493872 -0.906753 1.906287 0.098923 -0.028186 333786.000000 0 1 0
-14.362818 17.369300 -9.184880 24.338142 -0.879862 1.957769 0.083705 -0.025256 64308.000000 0 1 0
-15.060118 15.948800 -9.004280 23.711779 -0.814049 1.960310 0.081671 -0.027888 -280082.000000 0 1 0
-16.411418 16.014500 -8.681080 24.518565 -0.773158 1.932707 0.090422 -0.023651 -673827.000000 0 1 0
-16.754218 15.184600 -7.583580 23.849247 -0.736293 1.894394 0.096039 -0.012988 680412.000000 0 1 0
-18.245718 15.334400 -7.113380 24.872681 -0.698917 1.860838 0.115558 -0.012831 439448.000000 0 1 0
-19.138318 14.807400 -8.037980 25.497911 -0.658500 1.891507 0.101986 -0.017338 -662192.000000 0 0 1
-20.458918 15.141200 -7.706080 26.593363 -0.637121 1.864788 0.106806 -0.027409 -634740.000000 0 0 1
-21.494718 14.316700 -8.429280 27.166957 -0.587580 1.886281 0.102051 -0.021102 -504306.000000 0 0 1
-21.722418 13.008000 -7.969980 26.544154 -0.539558 1.875755 0.128649 -0.024198 118848.000000 0 0 1
-22.568018 12.292200 -8.853180 27.180736 -0.498745 1.902564 0.137429 -0.023446 184837.000000 0 0 1
-22.821118 10.859500 -8.352480 26.617590 -0.444144 1.889984 0.142559 -0.027481 776229.000000 0 0 1
-21.629618 10.054800 -8.270980 25.245762 -0.435145 1.904578 0.131498 -0.026311 910071.000000 0 0 1
-21.963718 9.086500 -7.348680 24.879158 -0.392265 1.870644 0.146578 -0.027532 362202.000000 0 1 0
-20.741218 8.141800 -7.148180 23.400503 -0.374061 1.881230 0.095577 -0.015400 -1650.140000 0 1 0
-20.469718 7.226200 -8.131680 23.180845 -0.339362 1.929214 0.089004 -0.016014 -295505.000000 0 1 0
-19.399618 6.456300 -7.716980 21.853622 -0.321275 1.931702 0.048370 -0.008046 -750070.000000 0 1 0
-19.305618 5.146000 -8.580680 21.744339 -0.260498 1.976447 0.042467 -0.013659 -1393250.000000 0 1 0
-20.336818 4.254000 -8.482580 22.441855 -0.206204 1.958410 0.068626 -0.014461 -390148.000000 0 1 0
-20.213518 3.222000 -9.422780 22.533451 -0.158068 2.002225 0.072701 -0.015721 -625935.000000 0 1 0
-21.139518 2.032000 -9.267280 23.170903 -0.095829 1.982262 0.077043 -0.020937 -158043.000000 0 1 0
-20.800318 1.174200 -8.177380 22.380830 -0.056391 1.944831 0.077089 -0.021960 995273.000000 0 1 0
-21.756218 0.065100 -8.195280 23.248654 -0.002992 1.931044 0.088831 -0.022847 695870.000000 0 1 0
-21.521518 -1.033400 -9.227980 23.439268 0.047980 1.975447 0.065309 -0.035433 658608.000000 0 1 0
-20.374818 -1.902700 -9.027480 22.366244 0.093115 1.986267 0.047321 -0.022378 1044750.000000 0 1 0
-20.549818 -3.265400 -9.445480 22.851148 0.157584 1.996924 0.052034 -0.018548 219904.000000 0 1 0
-21.679218 -4.109600 -8.739080 23.732864 0.187341 1.947898 0.072664 -0.024436 312411.000000 0 1 0
-21.505618 -4.280500 -7.294180 23.108859 0.196473 1.891932 0.067397 -0.018407 -313180.000000 0 1 0
-22.500318 -4.923600 -6.590580 23.957085 0.215428 1.849489 0.078094 -0.014669 -967897.000000 0 1 0
-22.491618 -6.447300 -6.823380 24.372097 0.279168 1.854556 0.086401 -0.025242 -344119.000000 0 1 0
-21.368018 -7.172300 -6.404080 23.431738 0.323839 1.847627 0.070668 -0.026289 496181.000000 0 1 0
-21.647618 -8.550500 -6.536780 24.175606 0.376176 1.844592 0.090815 -0.028615 -231803.000000 0 1 0
-20.554118 -9.376800 -5.871480 23.342460 0.427998 1.825064 0.085483 -0.026187 70877.700000 0 1 0
-19.288718 -9.503400 -6.498380 22.463264 0.457784 1.864281 0.069486 -0.020026 710236.000000 0 1 0
-18.397718 -10.270700 -5.669180 21.819783 0.509162 1.833630 0.067522 -0.012544 364006.000000 0 1 0
-17.563318 -11.376200 -6.329180 21.861990 0.574774 1.864507 0.046870 -0.013334 55589.000000 0 1 0
-16.474218 -11.088600 -7.193480 21.121152 0.592435 1.918332 0.050657 -0.019619 662171.000000 0 1 0
-16.819418 -10.579400 -8.476580 21.602522 0.561470 1.974023 0.056590 -0.026351 -125214.000000 0 1 0
-15.707318 -10.830000 -9.526980 21.325386 0.603636 2.033919 0.052970 -0.020681 342575.000000 0 1 0
-15.703618 -12.232500 -9.874080 22.220152 0.661780 2.031273 0.050210 -0.022649 -331876.000000 0 1 0
-14.657418 -12.532900 -10.736480 22.072279 0.707421 2.078788 0.052011 -0.012582 -359349.000000 0 1 0
-14.822418 -13.892200 -11.451080 23.320046 0.753014 2.084080 0.068512 -0.012990 -124365.000000 0 1 0
-15.815318 -13.858100 -12.465580 24.445080 0.719535 2.105914 0.079870 -0.014359 178147.000000 0 1 0
-15.953618 -15.140000 -13.077980 25.588496 0.759237 2.107247 0.075622 -0.010043 107469.000000 0 0 1
-16.896418 -14.988100 -14.321680 26.744020 0.725619 2.135907 0.104920 -0.011190 52103.200000 0 0 1
-17.075618 -16.188100 -15.076780 27.945315 0.758723 2.140652 0.102380 -0.007158 122809.000000 0 0 1
-17.623418 -15.814200 -16.322380 28.759240 0.731344 2.174327 0.103228 -0.006861 -132871.000000 0 0 1
-17.981718 -16.948400 -17.286380 30.156416 0.755824 2.181231 0.097127 -0.017650 739877.000000 0 0 1
-19.128818 -17.738600 -16.864180 31.063970 0.747707 2.144666 0.064971 -0.008348 -145549.000000 0 0 1
-19.839518 -18.051100 -18.008380 32.307127 0.738234 2.162062 0.076984 -0.007429 780932.000000 0 0 1
-21.399718 -17.940700 -17.726980 33.076616 0.697698 2.136413 0.077367 -0.012218 1062570.000000 0 0 1
-21.618118 -16.622500 -17.298980 32.294044 0.655497 2.136098 0.068444 -0.001003 -36457.500000 0 0 1
-21.907418 -16.731200 -15.906780 31.825991 0.652226 2.094170 0.076245 0.000717 -416717.000000 0 0 1
-21.713018 -15.335300 -15.165580 30.604271 0.614923 2.089250 0.086751 -0.006417 510318.000000 0 0 1
-22.902718 -14.547200 -15.269180 31.133638 0.565882 2.083391 0.098555 -0.002574 598256.000000 0 0 1
-22.720018 -13.235500 -14.822980 30.184407 0.527488 2.084126 0.110901 -0.007964 -818273.000000 0 0 1
-24.025418 -12.524100 -14.557880 30.757206 0.480531 2.063848 0.127131 -0.023232 -372163.000000 0 0 1
-24.792618 -13.149500 -13.502880 31.143395 0.487655 2.019248 0.146395 -0.017970 342403.000000 0 0 1
-25.808648 -12.286500 -13.065680 31.428592 0.444314 1.999537 0.178840 -0.024433 -580739.000000 0 0 1
-26.594058 -12.755400 -11.854580 31.787973 0.447222 1.952957 0.191998 -0.033012 -329091.000000 0 0 1
-27.510128 -11.859300 -11.268180 32.006594 0.407016 1.930565 0.169547 -0.044383 375772.000000 0 0 1
-27.996818 -12.430200 -10.009680 32.226160 0.417842 1.886628 0.153363 -0.036459 -179369.000000 0 0 1
-28.643818 -11.287100 -9.140780 32.115741 0.375367 1.859406 0.146487 -0.039428 281285.000000 0 0 1
-27.804928 -10.316700 -8.507480 30.853291 0.355293 1.850156 0.159558 -0.041168 -246941.000000 0 0 1
-28.611928 -9.383800 -7.894380 31.129076 0.316914 1.827198 0.193447 -0.042733 -288113.000000 0 0 1
-27.803298 -8.297200 -7.200980 29.895168 0.290011 1.814063 0.154641 -0.034921 53213.400000 0 0 1
-27.261958 -8.759200 -5.938480 29.243863 0.310880 1.775286 0.151288 -0.038046 51788.800000 0 0 1
-26.335968 -7.935900 -5.314980 28.014474 0.292679 1.761676 0.131760 -0.032321 -185015.000000 0 0 1
-26.970878 -6.596300 -4.780180 28.174272 0.239863 1.741286 0.140377 -0.033460 -54014.000000 0 0 1
-27.962528 -6.739900 -3.786080 29.011440 0.236522 1.701673 0.147596 -0.034708 243097.000000 0 0 1
-27.497168 -7.002400 -2.481780 28.483102 0.249359 1.658039 0.165563 -0.033583 -494443.000000 0 0 1
-27.001448 -5.780600 -1.685880 27.664702 0.210901 1.631774 0.161470 -0.026688 85727.800000 0 0 1
-27.976618 -4.787100 -1.397680 28.417618 0.169470 1.620000 0.173488 -0.029616 402916.000000 0 0 1
-27.407088 -3.856700 -0.466880 27.681051 0.139801 1.587664 0.159351 -0.035784 386275.000000 0 0 1
-28.369358 -2.723800 0.147720 28.500200 0.095719 1.565613 0.163782 -0.032430 1026430.000000 0 0 1
-29.443758 -3.150900 0.988020 29.628352 0.106608 1.537443 0.151196 -0.026400 608945.000000 0 0 1
-28.984768 -3.669200 2.259520 29.303332 0.125921 1.493612 0.153119 -0.029912 -169167.000000 0 0 1
-30.111368 -3.928600 3.285620 30.543800 0.129736 1.463017 0.114921 -0.022841 -93724.500000 0 0 1
-30.774888 -5.163100 3.163420 31.364926 0.166222 1.469766 0.115958 -0.023064 -546572.000000 0 0 1
-31.719178 -5.296800 4.149620 32.425017 0.165464 1.442469 0.114613 -0.030958 -644082.000000 0 0 1
-32.380188 -6.723000 4.089720 33.322682 0.204718 1.447755 0.104155 -0.025346 -445934.000000 0 0 1
-31.498488 -7.702800 4.456620 32.731473 0.239838 1.434215 0.091236 -0.017082 -423276.000000 0 0 1
-32.023598 -8.927500 4.059720 33.491677 0.271876 1.449282 0.110067 -0.021784 -242590.000000 0 0 1
-31.217888 -10.149300 4.452520 33.126874 0.314333 1.435980 0.099316 -0.015958 -95416.600000 0 0 1
-31.466298 -10.412400 5.792220 33.646632 0.319565 1.397786 0.087869 -0.012530 486680.000000 0 0 1
-30.413628 -11.267000 6.215320 33.023693 0.354784 1.381459 0.083715 -0.009185 -13461.800000 0 0 1
-30.466088 -11.696100 7.658020 33.520539 0.366555 1.340303 0.086130 -0.020201 -215688.000000 0 0 1
-30.261678 -10.639200 8.534020 33.193241 0.338076 1.310775 0.098097 -0.013659 437899.000000 0 0 1
-30.298858 -11.078700 9.846520 33.729992 0.350546 1.274561 0.095635 -0.013512 -143903.000000 0 0 1
-30.517828 -9.876000 10.831320 33.855438 0.312978 1.245142 0.078777 -0.019162 -263881.000000 0 0 1
-29.420408 -9.003400 10.810520 32.611179 0.296976 1.232906 0.099614 -0.020646 216156.000000 0 0 1
-29.655888 -7.887500 11.666720 32.829815 0.259949 1.207487 0.091117 -0.024728 -199189.000000 0 0 1
-28.482348 -6.898200 11.703020 31.556140 0.237617 1.190858 0.116397 -0.018658 -185690.000000 0 0 1
-28.483998 -6.092800 10.494020 30.961021 0.210727 1.225003 0.124256 -0.019354 765063.000000 0 0 1
-27.608748 -4.970100 10.715020 30.029261 0.178111 1.205935 0.131056 -0.027682 97550.100000 0 0 1
-27.812878 -3.925700 9.594620 29.682049 0.140221 1.241638 0.134069 -0.033375 123577.000000 0 0 1
-27.184328 -4.400000 8.399320 28.790559 0.160466 1.274752 0.137668 -0.026054 414028.000000 0 0 1
-27.313958 -3.452500 7.368820 28.500379 0.125734 1.309274 0.140074 -0.041803 -139626.000000 0 0 1
-26.531878 -3.847100 6.094820 27.493410 0.143996 1.347256 0.143304 -0.029447 1205920.000000 0 0 1
-25.092838 -3.654200 6.216520 26.108405 0.144611 1.330383 0.174482 -0.049411 1546240.000000 0 0 1
-24.507618 -4.048200 5.020320 25.341959 0.163703 1.371374 0.195289 -0.026708 -236788.000000 0 0 1
-22.970118 -3.927100 4.936320 23.820489 0.169328 1.362054 0.194039 -0.031499 127741.000000 0 1 0
-22.561618 -2.578900 4.655520 23.180837 0.113811 1.368586 0.157889 -0.032506 7733.640000 0 1 0
-21.157018 -2.531200 4.646720 21.808677 0.119073 1.356083 0.120136 -0.027111 -149504.000000 0 1 0
-20.467218 -1.125500 4.719220 21.034372 0.054935 1.344513 0.074781 -0.029405 -340668.000000 0 1 0
-20.619918 -0.185800 3.614920 20.935214 0.009010 1.397255 0.077129 -0.021260 242179.000000 0 1 0
-21.817618 0.490200 3.878120 22.165031 -0.022464 1.394925 0.077539 -0.044232 -119838.000000 0 1 0
-22.308318 1.505200 2.805320 22.534341 -0.067370 1.445982 0.116694 -0.025191 -173176.000000 0 1 0
-21.400718 2.566000 2.847920 21.741337 -0.119333 1.439428 0.075904 -0.016206 239311.000000 0 1 0
-21.750918 3.613100 1.963120 22.136187 -0.164609 1.481996 0.102561 -0.011897 208317.000000 0 1 0
-20.502018 4.211700 1.264120 20.968290 -0.202610 1.510473 0.063112 -0.003499 -205444.000000 0 1 0
-20.752118 5.056800 0.123320 21.359702 -0.239018 1.565023 0.078836 -0.002200 71468.600000 0 1 0
-21.503318 4.613800 -0.970880 22.014142 -0.211358 1.614913 0.094789 -0.011507 -405209.000000 0 1 0
-21.178618 3.359200 -1.781480 21.517244 -0.157302 1.653684 0.087431 -0.009102 -467782.000000 0 1 0
-21.284418 2.146400 -1.029780 21.417141 -0.100504 1.618897 0.072580 -0.005989 590175.000000 0 1 0
-20.658418 1.052600 -1.682880 20.753561 -0.050909 1.651974 0.054284 -0.004962 -44371.800000 0 1 0
-19.871918 0.101700 -0.778780 19.887433 -0.005118 1.609966 0.056069 -0.005919 157661.000000 0 1 0
-20.758418 -0.758000 -0.040580 20.772293 0.036499 1.572750 0.082555 -0.012077 1138680.000000 0 1 0
-20.110618 -1.523800 0.997820 20.192934 0.075626 1.521362 0.083517 -0.014550 193190.000000 0 1 0
-19.209018 -2.713500 0.523320 19.406786 0.140333 1.543827 0.051132 -0.014055 526548.000000 0 1 0
-18.511418 -3.469000 1.551420 18.897446 0.185249 1.488607 0.056905 -0.013846 757787.000000 0 1 0
-17.729318 -4.469400 0.964220 18.309396 0.246946 1.518109 0.034229 -0.010814 -331937.000000 0 1 0
-18.525518 -5.759500 0.661320 19.411440 0.301422 1.536721 0.039745 -0.009993 -68127.900000 0 1 0
-19.026518 -6.298900 1.923120 20.134124 0.319702 1.475135 0.051445 -0.012252 -202840.000000 0 1 0
-20.302318 -6.779800 1.723920 21.473745 0.322298 1.490429 0.092700 -0.015662 -1262160.000000 0 1 0
-21.034718 -7.171800 3.000820 22.425410 0.328590 1.436580 0.118315 -0.020197 -677772.000000 0 1 0
-20.335718 -8.091600 3.787920 22.211793 0.378695 1.399422 0.109870 -0.020333 359489.000000 0 1 0
-21.047718 -8.709700 4.859620 23.291226 0.392352 1.360606 0.105312 -0.025395 -206394.000000 0 1 0
-20.181318 -9.572000 5.797720 23.076446 0.442877 1.316835 0.097607 -0.013755 -138991.000000 0 1 0
-19.702418 -10.786000 5.201520 23.055995 0.500880 1.343234 0.099052 -0.014153 -182462.000000 0 1 0
-18.666318 -11.350400 5.918020 22.633735 0.546331 1.306253 0.095892 -0.013836 -495387.000000 0 1 0
-18.091318 -12.604200 5.267220 22.669479 0.608507 1.336305 0.074047 -0.007965 92862.000000 0 1 0
-19.011718 -13.663800 5.499720 24.049777 0.623169 1.340074 0.086716 -0.002961 304701.000000 0 1 0
-18.514818 -14.814300 4.887720 24.210572 0.674821 1.367515 0.080391 -0.000078 -592357.000000 0 1 0
-19.304118 -16.095100 5.156120 25.657100 0.694993 1.368456 0.090872 -0.004055 -174056.000000 0 0 1
-18.655318 -17.296500 4.780120 25.885119 0.747621 1.385064 0.099855 -0.013527 73243.800000 0 0 1
-19.379718 -18.435700 5.191020 27.246930 0.760440 1.379107 0.093113 -0.014153 -229506.000000 0 0 1
-18.638518 -19.728900 4.989920 27.595709 0.813810 1.388974 0.097503 -0.022087 -802516.000000 0 0 1
-18.293918 -20.002100 3.667620 27.353298 0.829973 1.436308 0.098645 -0.022278 343903.000000 0 0 1
-17.384618 -21.083000 3.502220 27.549653 0.881246 1.443328 0.088213 -0.018655 1968490.000000 0 0 1
-15.862618 -20.931700 3.996220 26.565551 0.922304 1.419794 0.093867 -0.020495 1353390.000000 0 0 1
-15.190218 -22.172600 3.865020 27.153366 0.970148 1.427971 0.087980 -0.022893 -243698.000000 0 0 1
-13.818618 -22.026100 4.175220 26.335067 1.010491 1.411582 0.090603 -0.023729 -70246.400000 0 0 1
-13.092718 -23.380100 4.204620 27.124291 1.060312 1.415156 0.094588 -0.029197 -410734.000000 0 0 1
-13.218718 -24.066700 3.008620 27.622316 1.068526 1.461660 0.097503 -0.030534 221512.000000 0 0 1
-12.808718 -25.460440 3.204320 28.680393 1.104685 1.458837 0.089622 -0.028042 198238.000000 0 0 1
19.023982 19.356200 -23.844880 36.126897 0.794054 2.291657 0.077809 -0.012475 -525248.000000 0 0 1
18.237582 19.633900 -24.965680 36.624918 0.822251 2.320823 0.067833 -0.022610 -457754.000000 0 0 1
18.829682 19.427500 -26.193560 37.657499 0.801023 2.340014 0.066291 -0.015670 -451130.000000 0 0 1
17.866882 19.633100 -27.421850 38.165979 0.832463 2.372424 0.052306 -0.018454 356972.000000 0 0 1
17.552582 20.991500 -27.655950 38.904855 0.874383 2.361518 0.046010 -0.017148 41474.900000 0 0 1
16.736582 21.040900 -28.802180 39.400485 0.898848 2.390598 0.042056 -0.021773 -144707.000000 0 0 1
16.419782 22.477700 -29.209500 40.349116 0.939898 2.380263 0.049265 -0.021776 362689.000000 0 0 1
15.537082 23.133700 -28.241140 39.675320 0.979372 2.362863 0.061868 -0.022142 915741.000000 0 0 1
15.345782 24.467100 -28.665290 40.691902 1.010616 2.352440 0.064741 -0.020826 -349212.000000 0 0 1
14.445282 25.282800 -27.750930 40.224374 1.051711 2.332152 0.065038 -0.026660 -1462740.000000 0 0 1
13.156982 24.824500 -27.647680 39.417714 1.083438 2.348160 0.083986 -0.039994 -1219290.000000 0 0 1
12.485782 25.767500 -26.820780 39.232806 1.119581 2.323523 0.073084 -0.029628 390779.000000 0 0 1
11.102182 25.247100 -26.244650 38.071724 1.156507 2.331384 0.091648 -0.033882 1205340.000000 0 0 1
10.385582 26.040600 -25.312570 37.771674 1.191305 2.305203 0.078750 -0.036108 180106.000000 0 0 1
9.920082 27.295000 -25.772070 38.828142 1.222199 2.296614 0.087963 -0.045196 -293475.000000 0 0 1
9.279882 28.121900 -24.636380 38.521535 1.252060 2.264707 0.096924 -0.042605 890024.000000 0 0 1
10.342182 28.734000 -23.852980 38.750073 1.225304 2.233892 0.094566 -0.034183 1135200.000000 0 0 1
9.791182 29.395100 -22.726380 38.424309 1.249266 2.203663 0.110677 -0.037525 664774.000000 0 0 1
10.937182 29.940400 -21.770780 38.600730 1.220558 2.170017 0.080870 -0.036699 479632.000000 0 0 1
11.815282 30.755500 -22.481680 39.886434 1.204012 2.169585 0.074999 -0.039492 31928.100000 0 0 1
12.756082 31.344700 -21.581280 40.136760 1.184303 2.138496 0.043709 -0.017425 -128130.000000 0 0 1
13.884282 32.124300 -22.246980 41.468929 1.162839 2.137049 0.039387 -0.000402 -552368.000000 0 0 1
14.975082 31.332200 -22.542680 41.402080 1.124948 2.146568 0.035844 -0.005885 -676637.000000 0 0 1
16.165482 32.009500 -22.892780 42.544215 1.103140 2.138970 0.016529 -0.002335 237017.000000 0 0 1
17.304682 31.079900 -23.355580 42.554616 1.062762 2.151770 0.002225 0.001039 -21501.300000 0 0 1
18.116982 30.597900 -22.330680 41.989472 1.036207 2.131540 0.014462 0.006157 -150162.000000 0 0 1
19.220682 29.870600 -22.826180 42.222291 0.999029 2.141969 0.018246 -0.003348 169235.000000 0 0 1
20.222882 29.382400 -21.741280 41.772882 0.967990 2.118191 0.029215 -0.000458 330675.000000 0 0 1
21.025782 30.391000 -21.107380 42.558405 0.965566 2.089739 0.034329 -0.001211 115016.000000 0 0 1
21.896982 29.703600 -20.261280 42.098707 0.935549 2.072911 0.054800 -0.003453 29761.400000 0 0 1
22.544082 30.477800 -19.082580 42.441451 0.933927 2.037138 0.068001 -0.015383 -53395.900000 0 0 1
23.552982 31.422600 -19.347480 43.777251 0.927580 2.028571 0.074763 -0.019420 120118.000000 0 0 1
24.111282 31.928100 -18.130180 43.925629 0.923992 1.996264 0.083060 -0.020607 -104176.000000 0 0 1
25.431982 32.706900 -18.285680 45.286787 0.909881 1.986436 0.085528 -0.022270 -232279.000000 0 0 1
26.474782 31.878700 -18.687380 45.457494 0.877741 1.994452 0.082615 -0.024723 -1626240.000000 0 0 1
27.661282 32.560300 -18.653780 46.618485 0.866569 1.982463 0.075183 -0.024379 -933861.000000 0 0 1
28.930282 31.824800 -19.118780 47.067046 0.833005 1.989091 0.084691 -0.031900 230439.000000 0 0 1
29.257882 30.612700 -18.441880 46.187271 0.808023 1.981533 0.070711 -0.023785 237254.000000 0 0 1
30.510282 30.120200 -18.923580 46.863692 0.778964 1.986464 0.059287 -0.024011 328661.000000 0 0 1
31.130682 29.052200 -18.025680 46.239321 0.750876 1.971248 0.058776 -0.023102 -217565.000000 0 0 1
31.584382 29.564500 -16.807080 46.412399 0.752378 1.941343 0.056480 -0.023390 -112274.000000 0 0 1
31.969382 28.482500 -16.038480 45.722281 0.727782 1.929201 0.068301 -0.017441 -662194.000000 0 0 1
32.415382 28.850700 -14.612880 45.789258 0.727280 1.895611 0.070836 -0.025723 -359563.000000 0 0 1
33.740182 29.314700 -14.611180 47.023803 0.715328 1.886746 0.048150 -0.020185 -453907.000000 0 0 1
33.828682 30.699600 -14.869980 48.041247 0.736944 1.885490 0.052483 -0.025361 -647707.000000 0 0 1
35.320582 31.056300 -14.997980 49.365744 0.721243 1.879489 0.044037 -0.026352 466509.000000 0 0 1
35.999282 31.047800 -13.716980 49.477972 0.711681 1.851710 0.041461 -0.028794 -1042680.000000 0 0 1
-36.777087 31.350100 -13.825380 50.264540 -0.705906 1.849440 0.027400 -0.033979 -1204680.000000 0 0 1
-36.174087 31.734500 -12.494480 49.716748 -0.720115 1.824833 0.017656 -0.023197 -474978.000000 0 0 1
-36.519287 32.983900 -12.013480 50.654908 -0.734575 1.810241 0.034042 -0.033735 111802.000000 0 0 1
-35.910587 33.172200 -10.771280 50.059820 -0.745780 1.787660 0.032002 -0.022862 -76981.300000 0 0 1
-36.615987 -33.724455 -10.043280 50.783234 0.744314 1.769876 0.022898 -0.017794 -229707.000000 0 0 1
-35.853087 -33.088455 -9.042080 49.619037 0.745319 1.754050 0.017730 -0.021451 -149045.000000 0 0 1
-35.665687 -33.815355 -7.806180 49.764002 0.758774 1.728311 0.001863 -0.014685 -113677.000000 0 0 1
-35.257987 -32.967155 -6.574380 48.715310 0.751833 1.706164 0.003949 -0.009842 -460188.000000 0 0 1
-36.194187 -31.985355 -6.267780 48.706952 0.723745 1.699838 0.008760 -0.006887 -537162.000000 0 0 1
-35.783087 -31.000755 -5.329280 47.643229 0.713911 1.682889 0.046669 -0.007389 -425811.000000 0 0 1
-36.981387 -30.171355 -4.837380 47.972220 0.684333 1.671805 0.023966 -0.001518 -109064.000000 0 0 1
36.219082 -31.105855 -4.240980 47.931013 -0.709595 1.659393 0.003887 0.005913 -396837.000000 0 0 1
34.985382 -30.531355 -3.924780 46.599833 -0.717520 1.655119 0.006449 0.011881 -531797.000000 0 0 1
34.853582 -29.625055 -2.673580 45.821000 -0.704486 1.629178 0.001521 0.011775 -610870.000000 0 0 1
35.412882 -28.344655 -2.823180 45.447354 -0.674988 1.632956 0.026246 0.002405 -122506.000000 0 0 1
34.579382 -27.418555 -2.230080 44.186921 -0.670407 1.621287 0.030246 0.003585 -409111.000000 0 0 1
34.924382 -25.954755 -2.547180 43.587267 -0.639116 1.629268 0.055414 -0.019006 -265256.000000 0 0 1
34.751782 -25.538355 -3.910380 43.303406 -0.633753 1.661221 0.040658 -0.012319 363992.000000 0 0 1
34.501082 -24.141255 -4.018880 42.299837 -0.610541 1.665949 0.052842 -0.015614 -257639.000000 0 0 1
34.168282 -23.637655 -5.437980 41.902050 -0.605202 1.700942 0.056080 -0.018401 -940796.000000 0 0 1
35.223682 -23.669655 -6.319580 42.905680 -0.591673 1.718624 0.069892 -0.026337 -608166.000000 0 0 1
34.816382 -23.409055 -7.633580 42.643122 -0.591932 1.750777 0.050234 -0.026085 52132.000000 0 0 1
36.010482 -23.172155 -8.617880 43.680332 -0.571781 1.769394 0.054760 -0.031570 445653.000000 0 0 1
36.808382 -24.317055 -8.853280 44.995074 -0.583818 1.768850 0.045425 -0.018024 -24116.500000 0 0 1
-36.206387 -24.057155 -9.700480 44.539291 0.586463 1.790352 0.053284 -0.018025 198952.000000 0 0 1
-35.656987 -25.255955 -10.459680 44.929822 0.616277 1.805753 0.056025 -0.022425 -117505.000000 0 0 1
-35.052787 -26.351155 -9.734880 44.920475 0.644624 1.789243 0.057037 -0.011515 410671.000000 0 0 1
-35.948987 -27.171155 -9.014580 45.955021 0.647219 1.768238 0.043799 -0.015094 62874.700000 0 0 1
-35.183087 -28.367255 -8.390680 45.966882 0.678556 1.754363 0.031577 -0.010300 87825.700000 0 0 1
-34.492687 -29.141155 -9.324280 46.107424 0.701497 1.774430 0.031227 -0.012944 203667.000000 0 0 1
-33.778987 -30.202055 -8.673480 46.134730 0.729550 1.759925 0.044544 -0.024324 10634.000000 0 0 1
-33.216787 -31.219155 -9.691280 46.603771 0.754406 1.780276 0.035631 -0.023217 -490098.000000 0 0 1
-32.034587 -30.739555 -10.272780 45.570440 0.764771 1.798177 0.017811 0.000270 -138994.000000 0 0 1
-31.595887 -31.593555 -11.323880 46.094284 0.785361 1.819005 0.011659 -0.001548 -226843.000000 0 0 1
-31.711187 -30.956255 -12.751380 46.113846 0.773352 1.850967 0.002662 0.003782 -111619.000000 0 0 1
-30.699087 -30.037255 -13.136280 44.913611 0.774502 1.867614 -0.002830 0.006149 -124335.000000 0 0 1
-31.074287 -29.331655 -14.266880 45.049985 0.756557 1.893034 -0.007958 0.015605 502826.000000 0 0 1
-29.995487 -28.309055 -14.805380 43.821582 0.756482 1.915434 0.006436 0.000157 685899.000000 0 0 1
-28.835587 -28.884955 -15.383280 43.617393 0.786253 1.931237 0.017296 -0.002312 -125170.000000 0 0 1
-28.155487 -27.882855 -16.135180 42.784683 0.780533 1.957487 0.044367 0.005679 362089.000000 0 0 1
-26.741287 -28.399455 -16.548580 42.373116 0.815461 1.972019 0.063378 -0.005049 18704.900000 0 0 1
-26.662687 -29.179255 -17.737780 43.323857 0.830434 1.992618 0.048224 0.001583 -166115.000000 0 0 1
-26.862387 -28.480455 -18.965280 43.501793 0.814627 2.021907 0.045595 0.011544 19708.400000 0 0 1
-25.686887 -27.601155 -19.481780 42.440307 0.821306 2.047710 0.067919 0.000082 60575.300000 0 0 1
-25.284087 -26.605155 -18.558280 41.128203 0.810852 2.038940 0.080456 -0.004695 -291491.000000 0 0 1
-23.899387 -26.366955 -18.635480 40.170613 0.834449 2.053198 0.095823 -0.020515 -76904.900000 0 0 1
-23.454987 -25.234955 -17.723980 38.743758 0.821939 2.045941 0.101894 -0.018955 -297618.000000 0 0 1
-23.614287 -25.520055 -16.370680 38.430546 0.824166 2.010842 0.103872 -0.015268 41074.500000 0 0 1
-23.210487 -24.432855 -15.572980 37.124235 0.811049 2.003672 0.113811 -0.016583 -131535.000000 0 0 1
-23.615287 -24.490455 -14.113780 36.832906 0.803589 1.964037 0.103339 -0.009876 351828.000000 0 0 1
-25.004887 -24.199855 -13.977680 37.500038 0.769039 1.952754 0.071532 0.008211 272051.000000 0 0 1
-25.369687 -24.179755 -12.616280 37.248518 0.761388 1.916337 0.061003 0.012574 -33069.800000 0 0 1
-26.897087 -23.983755 -12.531980 38.153955 0.728203 1.905467 0.030113 0.032556 -390904.000000 0 0 1
-27.606987 -25.192755 -12.720680 39.479568 0.739706 1.898859 0.032825 0.021837 636949.000000 0 0 1
-28.924887 -25.410755 -12.207080 40.390201 0.720814 1.877826 0.015756 0.022514 547398.000000 0 0 1
-30.037687 -24.530355 -12.823480 40.846574 0.684813 1.890139 0.022399 0.023785 -1372460.000000 0 0 1
-30.211387 -23.203255 -12.317180 40.035382 0.654941 1.883526 0.028493 0.034813 -14081.700000 0 0 1
-30.780687 -23.100355 -11.020780 40.031671 0.643810 1.849700 0.038362 0.019946 -70350.100000 0 0 1
-32.233887 -23.633155 -10.839580 41.413113 0.632647 1.835624 0.025258 0.009562 89949.500000 0 0 1
-33.336087 -22.896955 -11.353280 42.005502 0.601847 1.844481 0.043491 -0.000696 329157.000000 0 0 1
-33.455487 -22.897655 -12.786980 42.509752 0.600194 1.876329 0.043510 0.007010 -1088340.000000 0 0 1
-34.827387 -22.427455 -13.289780 43.503515 0.572118 1.881247 0.029269 -0.008900 158133.000000 0 0 1
-35.841287 -23.362155 -12.891080 44.682973 0.577655 1.863457 0.038371 -0.008672 19217.200000 0 0 1
37.054182 -23.110855 -13.544080 45.722709 -0.557667 1.871531 0.050274 -0.022616 -445513.000000 0 0 1
35.958282 -24.113455 -13.200180 45.262584 -0.590717 1.866733 0.050834 -0.018055 -334366.000000 0 0 1
36.177582 -25.311855 -13.890480 46.286638 -0.610495 1.875591 0.044858 -0.009791 -53447.600000 0 0 1
35.200882 -26.241955 -13.524880 45.941970 -0.640609 1.869614 0.038563 -0.022774 -129530.000000 0 0 1
35.096382 -27.521355 -14.474580 46.890238 -0.665011 1.884613 0.036986 -0.020789 305035.000000 0 0 1
34.264982 -27.315955 -15.601980 46.515289 -0.673030 1.912843 0.046987 -0.026855 -57223.500000 0 0 1
34.092582 -28.460055 -16.438980 47.355242 -0.695596 1.925318 0.040455 -0.016839 2297.010000 0 0 1
33.155782 -28.256855 -17.669480 47.010278 -0.705796 1.956126 0.039840 -0.016059 -260394.000000 0 0 1
31.809482 -28.253655 -17.297680 45.927354 -0.726266 1.956953 0.074833 -0.025384 -752265.000000 0 0 1
31.012982 -27.956455 -18.425080 45.638273 -0.733612 1.986376 0.079575 -0.023026 1292120.000000 0 0 1
29.460782 -28.176755 -18.182980 44.637293 -0.763124 1.990346 0.084359 -0.029868 1128820.000000 0 0 1
28.923282 -27.349655 -17.222180 43.372380 -0.757441 1.979126 0.074747 -0.027969 504873.000000 0 0 1
27.485882 -27.400755 -17.193180 42.448563 -0.783847 1.987814 0.086520 -0.028575 999617.000000 0 0 1
26.922082 -26.509355 -16.049080 41.050181 -0.777674 1.972473 0.083961 -0.029868 -36697.100000 0 0 1
26.867682 -25.154655 -16.402380 40.294752 -0.752481 1.990029 0.085445 -0.033534 28233.200000 0 0 1
26.504882 -24.380155 -15.276980 39.118881 -0.743667 1.972000 0.094317 -0.032736 -137690.000000 0 0 1
26.431882 -22.856155 -15.483380 38.220194 -0.712977 1.987895 0.096970 -0.039136 84734.100000 0 0 1
25.223982 -22.493655 -16.125880 37.446732 -0.728242 2.015993 0.108247 -0.042758 172358.000000 0 0 1
25.131982 -21.092355 -16.204080 36.593389 -0.698228 2.029532 0.106635 -0.040454 -570903.000000 0 0 1
23.685982 -20.639755 -16.093180 35.298947 -0.716782 2.044192 0.109814 -0.034616 -617877.000000 0 0 1
23.182882 -20.683955 -14.753980 34.394068 -0.728493 2.014147 0.118096 -0.034901 11389.500000 0 0 1
21.790482 -20.485855 -14.690680 33.321336 -0.754548 2.027374 0.098230 -0.027613 -115439.000000 0 0 1
21.406382 -19.157655 -14.014380 31.963288 -0.730018 2.024672 0.094183 -0.026820 -223659.000000 0 0 1
21.144282 -19.298755 -12.599680 31.277380 -0.739797 1.985410 0.094366 -0.034742 62429.300000 0 0 1
20.923182 -18.012155 -12.079580 30.135254 -0.710771 1.983236 0.090425 -0.038507 -38704.900000 0 0 1
20.001582 -18.058055 -10.805780 29.033110 -0.734377 1.952162 0.096394 -0.033134 73312.900000 0 0 1
20.531482 -18.736955 -9.662380 29.427484 -0.739731 1.905348 0.103075 -0.046091 25005.300000 0 0 1
19.556982 -18.886255 -8.649480 28.530329 -0.767953 1.878812 0.100051 -0.050441 -24560.600000 0 0 1
20.135582 -19.613755 -7.420980 29.072529 -0.772271 1.828910 0.095553 -0.048725 128391.000000 0 0 1
21.192082 -18.820655 -6.884580 29.167084 -0.726201 1.809084 0.092632 -0.049957 -113421.000000 0 0 1
21.721182 -19.579455 -5.825580 29.817816 -0.733588 1.767434 0.089741 -0.037244 -462571.000000 0 0 1
22.989782 -18.961855 -5.245480 30.258834 -0.689678 1.745030 0.080254 -0.029344 -525293.000000 0 0 1
24.076582 -18.913155 -6.125280 31.223521 -0.665862 1.768252 0.068926 -0.032207 198707.000000 0 0 1
25.040082 -17.933455 -5.739480 31.329796 -0.621509 1.755032 0.081019 -0.037414 268975.000000 0 0 1
26.177282 -17.657555 -6.728180 32.284791 -0.593432 1.780736 0.081408 -0.043824 491856.000000 0 0 1
27.200682 -18.615755 -7.002380 33.696539 -0.600169 1.780129 0.085334 -0.044650 598040.000000 0 0 1
26.845582 -19.571255 -8.010680 34.174409 -0.629945 1.807404 0.088744 -0.049801 140953.000000 0 0 1
27.941582 -20.680555 -8.169080 35.709259 -0.637158 1.801607 0.070827 -0.045856 1349180.000000 0 0 1
29.209882 -20.165055 -8.627280 36.527751 -0.604220 1.809233 0.062314 -0.037178 657888.000000 0 0 1
30.119582 -21.205355 -8.932080 37.903012 -0.613431 1.808690 0.054510 -0.029390 10679.200000 0 0 1
-30.570458 29.745500 4.098820 42.850298 -0.771722 1.474995 0.072147 -0.012476 235916.000000 0 0 1
-29.913138 30.597900 3.199820 42.909977 -0.796714 1.496157 0.062773 -0.000844 -330313.000000 0 0 1
-29.084188 31.487400 3.902520 43.041562 -0.825053 1.480003 0.056892 0.017424 19489.600000 0 0 1
-28.306588 32.445800 2.986220 43.161446 -0.853426 1.501554 0.056422 0.014229 -295655.000000 0 0 1
-27.398798 31.871800 2.047720 42.079674 -0.860723 1.522114 0.055678 0.011517 164560.000000 0 0 1
-26.756698 32.843700 1.280520 42.382417 -0.887175 1.540578 0.074713 -0.003544 274430.000000 0 0 1
-25.497148 33.547000 1.907820 42.179919 -0.920899 1.525550 0.061240 0.004008 -366468.000000 0 0 1
-24.326218 32.881600 1.510320 40.929764 -0.933847 1.533888 0.057566 0.006176 -1378850.000000 0 0 1
-23.274318 33.470500 2.181620 40.825577 -0.963186 1.517333 0.054803 0.000452 -244121.000000 0 0 1
-21.901118 33.029500 1.585220 39.662574 -0.985283 1.530818 0.046965 -0.001832 256121.000000 0 0 1
-21.616418 33.684700 0.374820 40.025855 -1.000258 1.561432 0.062671 -0.008583 443273.000000 0 0 1
-20.263718 33.429300 -0.007280 39.091386 -1.025855 1.570983 0.060349 -0.014153 180261.000000 0 0 1
-19.687718 -33.721255 -1.101380 39.063311 1.042346 1.598995 0.070349 -0.014257 -25086.200000 0 0 1
-19.469218 -32.357355 -0.814080 37.771836 1.029132 1.592351 0.081314 -0.023605 416765.000000 0 0 1
-18.536318 -32.072755 0.233620 37.044720 1.046751 1.564490 0.084485 -0.024195 -175364.000000 0 0 1
-18.264818 -30.577855 0.389620 35.619666 1.032348 1.559858 0.095412 -0.027020 -22806.600000 0 0 1
-17.383018 -30.066155 -0.603480 34.734812 1.046591 1.588171 0.096529 -0.020608 240099.000000 0 0 1
-17.436418 -28.629555 -0.591380 33.526554 1.023759 1.588436 0.083075 -0.021639 -451568.000000 0 0 1
-16.581418 -27.914155 -1.624680 32.508200 1.034789 1.620795 0.086251 -0.016141 -459261.000000 0 0 1
-16.987318 -27.984855 -2.953580 32.870119 1.025232 1.660774 0.085013 -0.013306 265054.000000 0 0 1
-16.197618 -27.118355 -3.805580 31.815883 1.032369 1.690696 0.096819 -0.006445 188946.000000 0 0 1
-16.730118 -27.096155 -5.227080 32.271052 1.017655 1.733487 0.127127 -0.020078 555171.000000 0 0 1
-17.919618 -26.308055 -5.368580 32.280770 0.972837 1.737882 0.116379 -0.015045 -79373.000000 0 0 1
-18.336418 -26.236255 -6.716680 32.705949 0.960812 1.777634 0.149093 -0.018700 450297.000000 0 0 1
-18.985818 -24.854755 -7.027880 32.056376 0.918477 1.791827 0.116394 -0.009452 -78385.100000 0 0 1
-18.023218 -23.889555 -6.791480 30.686665 0.924460 1.793961 0.129858 -0.004249 -138225.000000 0 0 1
-18.428518 -22.601755 -7.299980 30.062257 0.886761 1.816077 0.096972 -0.007133 -12139.300000 0 0 1
-17.193918 -21.701255 -7.210080 28.610497 0.900768 1.825551 0.105455 0.000907 44451.500000 0 0 1
-16.127418 -22.121855 -8.003780 28.522457 0.940854 1.855229 0.128564 -0.015476 -67107.400000 0 0 1
-14.930818 -21.365055 -7.809680 27.210035 0.960847 1.861905 0.148339 -0.027153 1514310.000000 0 0 1
-13.911918 -21.264755 -9.014480 26.962791 0.991457 1.911691 0.115983 -0.009895 912319.000000 0 0 1
-14.398218 -20.381655 -10.017880 26.890118 0.955768 1.952550 0.123150 -0.011626 430373.000000 0 0 1
-13.442218 -20.239955 -11.086080 26.706744 0.984543 1.998854 0.115381 -0.004530 461288.000000 0 0 1
-14.030718 -19.277855 -12.145680 26.758443 0.941645 2.041935 0.133511 -0.011276 303415.000000 0 0 1
-15.109318 -19.889155 -12.840180 28.084519 0.921131 2.045638 0.119090 0.012331 -26845.500000 0 0 1
-15.657018 -18.976155 -13.806780 28.211059 0.880943 2.082210 0.118657 -0.018511 629035.000000 0 0 1
-16.907218 -19.538555 -14.574380 29.665160 0.857472 2.084374 0.132353 -0.022577 911739.000000 0 0 1
-18.070418 -19.460255 -13.738980 29.899851 0.822413 2.048228 0.128215 -0.020088 479826.000000 0 0 1
-19.197918 -19.952455 -14.459880 31.236976 0.804669 2.052071 0.102632 -0.012096 419974.000000 0 0 1
-20.589218 -19.811755 -13.756980 31.712396 0.766157 2.019507 0.080076 0.003849 934142.000000 0 0 1
-21.559918 -20.442355 -14.603980 33.105833 0.758797 2.027654 0.089769 -0.004059 -53720.500000 0 0 1
-22.865918 -19.980355 -14.380180 33.598428 0.718153 2.013077 0.079418 0.011005 -109238.000000 0 0 1
-23.958518 -20.525855 -15.324680 35.073739 0.708385 2.022976 0.086221 0.001657 -123013.000000 0 0 1
-23.971818 -20.051455 -16.651880 35.411778 0.696580 2.060354 0.076728 -0.018181 -7873.710000 0 0 1
-24.625218 -20.899655 -17.573780 36.770024 0.703744 2.069102 0.097502 -0.023468 -65823.000000 0 0 1
-24.688318 -20.379655 -18.993280 37.223488 0.690084 2.106272 0.100103 -0.025142 984226.000000 0 0 1
-23.372218 -20.094655 -19.535180 36.492177 0.710137 2.135689 0.090711 -0.032547 710227.000000 0 0 1
-23.416418 -19.522855 -20.844180 36.931698 0.694969 2.170500 0.095027 -0.037990 587943.000000 0 0 1
-22.224818 -18.610355 -21.366180 36.011130 0.697115 2.205975 0.081408 -0.025239 620935.000000 0 0 1
-20.980118 -19.242755 -21.466480 35.654716 0.742232 2.216882 0.061785 -0.022720 -438160.000000 0 0 1
-20.204318 -18.664055 -22.491080 35.530411 0.745791 2.256231 0.061859 -0.025290 -204935.000000 0 0 1
-18.945818 -19.507755 -22.775080 35.471126 0.800010 2.267997 0.073578 -0.022658 -282362.000000 0 0 1
-19.054518 -20.841755 -23.240580 36.572913 0.830165 2.259399 0.042974 -0.018905 1312690.000000 0 0 1
-17.702518 -21.398055 -23.260580 36.225826 0.879632 2.268030 0.035219 -0.013756 1428900.000000 0 0 1
-17.553818 -22.810855 -23.861880 37.387979 0.914908 2.262985 0.027416 -0.008443 -706588.000000 0 0 1
-18.008218 -22.828555 -25.182740 38.465689 0.902894 2.284556 0.036018 -0.008386 328326.000000 0 0 1
-18.369718 -24.112555 -25.685380 39.731607 0.919766 2.273748 0.063296 -0.017694 41821.100000 0 0 1
-18.411718 -24.140555 -27.263910 40.805374 0.919224 2.302509 0.061752 -0.010567 293462.000000 0 0 1
-17.069318 -23.938555 -27.679910 40.380607 0.951367 2.326053 0.054668 -0.007769 354589.000000 0 0 1
-16.981118 -24.017055 -29.094220 41.372104 0.955358 2.350731 0.080516 -0.011424 -181898.000000 0 0 1
-15.529418 -23.957755 -29.618240 41.138510 0.995687 2.374547 0.050465 -0.018638 555184.000000 0 0 1
-14.726518 -25.174455 -29.410910 41.420106 1.041495 2.360385 0.058925 -0.013443 -69347.400000 0 0 1
-13.481718 -24.906955 -29.969120 41.234225 1.074670 2.384451 0.060293 -0.015141 -165304.000000 0 0 1
-12.355118 -25.981055 -29.866980 41.469274 1.126905 2.374915 0.078484 -0.014026 -251079.000000 0 0 1
-12.517118 -27.123855 -30.680940 42.821745 1.138437 2.369540 0.080338 -0.005124 306060.000000 0 0 1
-11.526518 -28.164755 -30.618860 43.169765 1.182339 2.359253 0.083516 -0.007416 1341310.000000 0 0 1
-10.110818 -27.826255 -31.231300 43.033977 1.222274 2.382900 0.084275 -0.011552 556625.000000 0 0 1
-9.358418 -26.914155 -30.482480 41.726890 1.236160 2.389885 0.084526 -0.011926 -465476.000000 0 0 1
-8.202118 -26.486555 -31.139170 41.694847 1.270491 2.414086 0.084178 -0.012984 -549417.000000 0 0 1
-7.560118 -25.269855 -30.484670 40.311736 1.280096 2.428318 0.104082 -0.021714 -579972.000000 0 0 1
-8.164918 -24.043255 -30.586410 39.752641 1.243423 2.448726 0.106593 -0.016877 -27937.000000 0 0 1
-9.031618 -23.759755 -29.484850 38.928813 1.207542 2.430125 0.110055 -0.013941 214744.000000 0 0 1
-9.369018 -22.222055 -29.439570 38.056360 1.171801 2.455265 0.116632 -0.020632 120658.000000 0 0 1
-9.949118 -21.699855 -30.634350 38.837251 1.140906 2.479631 0.098579 -0.020373 81909.500000 0 0 1
-10.341618 -20.362955 -30.530070 38.127211 1.100877 2.499330 0.102283 -0.018807 -264361.000000 0 0 1
-11.193818 -19.890655 -31.686080 39.050575 1.058204 2.517359 0.078458 -0.017989 -643807.000000 0 0 1
-12.055718 -18.850555 -31.398560 38.555847 1.001808 2.522432 0.076187 -0.013237 -325824.000000 0 0 1
-12.664218 -18.539055 -32.647590 39.622520 0.971496 2.539170 0.070176 -0.012642 -135196.000000 0 0 1
-13.505918 -17.218355 -32.580910 39.247895 0.905646 2.550140 0.080217 -0.012626 191004.000000 0 0 1
-12.821318 -15.973555 -32.482610 38.401310 0.894436 2.578995 0.087009 -0.020682 -237480.000000 0 0 1
-12.081118 -15.636055 -31.332410 37.042672 0.912959 2.578946 0.089675 -0.017979 184415.000000 0 0 1
-11.570018 -14.184055 -31.475060 36.410605 0.886552 2.614847 0.079705 -0.014880 -292557.000000 0 0 1
-10.822418 -13.715855 -32.555920 36.947765 0.902771 2.649051 0.075507 -0.023494 54027.200000 0 0 1
-11.509518 -13.660555 -33.836100 38.261749 0.870651 2.655858 0.082688 -0.022869 -164968.000000 0 0 1
-11.820518 -12.328855 33.462235 37.569223 0.806445 0.471953 0.076848 -0.013970 345278.000000 0 0 1
-13.042718 -11.782755 33.941917 38.223024 0.734689 0.477826 0.059679 -0.010731 414211.000000 0 0 1
-13.745218 -10.944055 32.992666 37.379398 0.672425 0.489340 0.066732 -0.026257 446322.000000 0 0 1
-14.947218 -10.161755 33.517369 38.080108 0.597069 0.494554 0.084313 -0.027258 -354463.000000 0 0 1
-14.546918 -9.049155 -33.693820 37.799121 0.556487 2.671203 0.082016 -0.025223 -274886.000000 0 0 1
-15.486818 -8.471355 -32.812470 37.259410 0.500540 2.648027 0.086258 -0.033611 -235027.000000 0 0 1
-14.816118 -7.418955 -31.960680 36.000602 0.464236 2.663300 0.088124 -0.048965 -272045.000000 0 0 1
-14.736618 -6.098955 -32.417650 36.128510 0.392401 2.684382 0.085055 -0.052658 610674.000000 0 0 1
-15.950618 -5.333355 -32.405320 36.509885 0.322680 2.662854 0.095818 -0.042066 629353.000000 0 0 1
-16.482518 -4.808855 -31.029170 35.462768 0.283875 2.636188 0.096420 -0.050405 -246285.000000 0 0 1
-16.916118 -5.820455 -30.149600 35.057541 0.331389 2.606072 0.103855 -0.056495 -192389.000000 0 0 1
-17.202218 -5.313255 -28.839570 33.998056 0.299575 2.583508 0.101879 -0.060148 225437.000000 0 0 1
-16.019518 -4.817555 -27.933470 32.559370 0.292127 2.602012 0.093904 -0.048449 410550.000000 0 0 1
-15.370418 -3.712355 -28.508540 32.600126 0.236987 2.635183 0.097370 -0.048238 -142886.000000 0 0 1
-14.151118 -3.352155 -27.884670 31.449101 0.232595 2.660869 0.085144 -0.037232 89013.800000 0 0 1
-13.718418 -2.021455 -28.499350 31.693757 0.146301 2.688757 0.074990 -0.019735 -74218.500000 0 0 1
-13.202518 -2.076455 -29.821070 32.678959 0.155999 2.720264 0.064550 -0.035072 219336.000000 0 0 1
-13.633818 -0.893455 -30.428140 33.354924 0.065439 2.719548 0.066837 -0.038461 52052.900000 0 0 1
-13.747018 -1.049455 -31.963280 34.809958 0.076193 2.734365 0.059937 -0.041878 -856843.000000 0 0 1
-14.995018 -1.509455 -32.353110 35.691074 0.100326 2.705659 0.063315 -0.043432 -373399.000000 0 0 1
-14.994918 -1.750455 -33.763260 36.984719 0.116211 2.721124 0.056340 -0.040234 -15015.500000 0 0 1
-16.453318 -1.922455 33.677325 37.530917 0.116316 0.457132 0.052349 -0.035854 88683.400000 0 0 1
-16.510918 -2.242455 32.317937 36.360530 0.134990 0.476034 0.060383 -0.035246 294311.000000 0 0 1
-17.727518 -1.885455 31.679427 36.351148 0.105959 0.512577 0.059824 -0.024062 189382.000000 0 0 1
-17.560418 -1.842455 30.091077 34.888908 0.104538 0.530641 0.062888 -0.016502 102200.000000 0 0 1
-16.852418 -0.728455 29.559577 34.033855 0.043199 0.518559 0.051440 -0.008882 160732.000000 0 0 1
-16.828518 -0.779455 28.138167 32.795778 0.046284 0.539469 0.046918 -0.014887 -456709.000000 0 0 1
-16.246118 0.489545 27.527377 31.967679 -0.030124 0.533367 0.045883 -0.013301 -286064.000000 0 0 1
-16.875818 1.724545 27.845607 32.605907 -0.101837 0.547161 0.040626 -0.010802 -195216.000000 0 0 1
-18.193518 1.833545 27.370547 32.916757 -0.100441 0.588979 0.055708 -0.017535 -366709.000000 0 0 1
-18.313618 2.629545 26.062207 31.961567 -0.142609 0.617336 0.052364 -0.018196 -246368.000000 0 0 1
-17.896218 3.984545 26.209137 31.985467 -0.219074 0.610419 0.034117 -0.012659 138576.000000 0 0 1
-18.586618 4.747545 25.267697 31.724724 -0.250081 0.649366 0.031790 -0.011086 -604163.000000 0 0 1
-18.612818 6.279545 25.565397 32.240646 -0.325386 0.655152 0.024305 -0.008809 971563.000000 0 0 1
-17.356918 7.003545 25.512877 31.642048 -0.383521 0.632932 0.008129 -0.006855 631298.000000 0 0 1
-16.825418 7.048545 24.222867 30.323654 -0.396712 0.645480 0.006310 -0.001204 -882225.000000 0 0 1
-15.674218 8.003545 24.049687 29.801432 -0.472106 0.631746 0.010136 -0.000100 -613033.000000 0 0 1
-14.457518 7.661545 24.639437 29.577373 -0.487308 0.586197 0.006861 -0.002316 247679.000000 0 0 1
-13.332418 8.107545 23.861667 28.510785 -0.546360 0.579138 0.026973 -0.005335 56816.500000 0 0 1
-11.967618 7.972545 24.527277 28.431896 -0.587663 0.530276 0.018726 0.004402 -798085.000000 0 0 1
-11.042618 8.759545 23.830847 27.687151 -0.670611 0.534117 0.018676 -0.002514 188366.000000 0 0 1
-9.812118 8.889545 24.563957 27.905012 -0.736107 0.494364 0.023340 -0.002552 508725.000000 0 0 1
-9.700018 10.179545 25.457487 29.082592 -0.809515 0.504634 0.027765 -0.010813 -270948.000000 0 0 1
-10.734818 10.206545 26.452617 30.317501 -0.760177 0.510460 0.018004 -0.011915 561958.000000 0 0 1
-10.777818 11.467545 27.126047 31.360619 -0.816394 0.525702 0.041331 -0.014027 -324197.000000 0 0 1
-11.435818 12.698545 26.426177 31.470206 -0.837671 0.574028 0.029707 -0.017079 399960.000000 0 0 1
-12.782118 12.456545 26.011457 31.545903 -0.772499 0.601374 0.019860 -0.018334 566704.000000 0 0 1
-12.977918 11.820545 24.761917 30.352994 -0.738761 0.616688 0.017546 -0.013381 335105.000000 0 0 1
-14.499518 11.578545 24.444537 30.689317 -0.673854 0.649285 0.004953 -0.016759 496166.000000 0 0 1
-15.235818 12.766545 24.125197 31.259239 -0.697445 0.689164 0.010828 -0.013139 108351.000000 0 0 1
-16.525618 12.529545 23.601517 31.418421 -0.648722 0.720918 0.016909 -0.007424 85184.500000 0 0 1
-16.595518 12.015545 22.163067 30.182547 -0.626668 0.746160 0.014354 0.003438 -587756.000000 0 0 1
-16.219618 10.673545 22.009667 29.350061 -0.582023 0.722882 0.017907 0.003396 25609.300000 0 0 1
-16.265218 10.346545 20.665667 28.260894 -0.566552 0.750649 0.034622 0.000256 -73972.200000 0 0 1
-16.511518 8.856545 20.336567 27.652208 -0.492331 0.744479 0.023938 -0.000024 845417.000000 0 0 1
-17.855518 8.430545 20.587367 28.526011 -0.441123 0.764534 0.038486 -0.000375 240841.000000 0 0 1
-18.119518 7.056545 20.459167 28.225685 -0.371374 0.759991 0.027871 0.001418 237564.000000 0 0 1
-19.581518 6.728545 20.853167 29.386456 -0.330977 0.781840 0.045617 -0.007115 303827.000000 0 0 1
-20.027318 7.351545 22.048967 30.680542 -0.351805 0.768919 0.038414 -0.012886 -964878.000000 0 0 1
-21.405518 7.322545 22.147667 31.659676 -0.329608 0.796023 0.044732 -0.014707 -999219.000000 0 0 1
-21.851218 8.182545 23.356317 33.014351 -0.358303 0.784899 0.072373 -0.013291 -968923.000000 0 0 1
-21.686318 9.611545 23.279027 33.235393 -0.417191 0.794798 0.061435 -0.005644 1309830.000000 0 0 1
-20.351818 10.168545 23.121177 32.437396 -0.463358 0.777323 0.037179 -0.001632 1826250.000000 0 0 1
-19.322818 9.790545 24.278907 32.537539 -0.468980 0.728489 0.034961 -0.014240 -299315.000000 0 0 1
-19.736118 10.482545 25.379827 33.816176 -0.488244 0.721943 0.044194 -0.013498 348217.000000 0 0 1
-19.149318 10.012545 26.599177 34.270449 -0.481773 0.682252 0.043261 -0.019384 91600.800000 0 0 1
-31.837448 -14.352200 21.128967 40.817178 0.423516 1.026696 0.036589 -0.020661 5296.520000 0 0 1
-31.132808 -15.563300 21.178567 40.743095 0.463568 1.024171 0.040476 -0.012564 267530.000000 0 0 1
-31.858128 -16.540600 20.441067 41.308220 0.478886 1.053143 0.026755 -0.009389 63969.100000 0 0 1
-31.486438 -16.602900 18.961067 40.330809 0.485251 1.081349 0.037829 -0.021792 23004.500000 0 0 1
-31.946038 -15.499300 18.197667 39.899032 0.451714 1.097196 0.043109 -0.029661 203602.000000 0 0 1
-31.339218 -15.528500 16.892367 38.841125 0.460039 1.120859 0.046348 -0.031792 -578921.000000 0 0 1
-31.862008 -14.370300 15.971467 38.428907 0.423699 1.142182 0.043538 -0.025304 526188.000000 0 0 1
-33.190278 -14.471100 15.476567 39.376788 0.411154 1.166863 0.053902 -0.023800 1057640.000000 0 0 1
-34.308207 -14.404800 16.384467 40.657129 0.397513 1.156013 0.055253 -0.023778 39944.300000 0 0 1
-34.822380 -13.062500 16.861067 40.835312 0.358874 1.145156 0.032054 -0.019819 131669.000000 0 0 1
-35.969149 -13.173600 17.722067 42.206577 0.351075 1.137474 0.010087 -0.014921 498019.000000 0 0 1
-36.531498 -11.904400 17.982567 42.422139 0.315016 1.133054 0.010205 -0.007699 908443.000000 0 0 1
36.465400 -11.818200 19.119967 42.836531 -0.313412 1.108117 0.019228 0.002558 676066.000000 0 0 1
36.941330 -12.319800 20.353767 43.939904 -0.321897 1.089173 0.016222 0.000268 -256999.000000 0 0 1
36.098220 -11.923200 21.407767 43.629539 -0.319017 1.057936 0.021716 -0.006412 -740062.000000 0 0 1
36.688560 -12.424800 22.796967 44.945832 -0.326533 1.038852 0.016175 -0.008583 755196.000000 0 0 1
-36.195258 -11.788400 23.104417 44.529509 0.314855 1.025284 0.016808 -0.007094 620925.000000 0 0 1
-35.009882 -12.175800 22.419067 43.319240 0.334697 1.026833 0.010615 -0.009069 -456472.000000 0 0 1
-33.817218 -11.243100 22.590867 42.194299 0.320970 1.005814 0.036760 -0.015875 -210566.000000 0 0 1
-33.945968 -10.073300 21.835767 41.600491 0.288468 1.018208 0.045201 -0.008386 -468765.000000 0 0 1
-32.762008 -9.372100 22.017367 40.570308 0.278625 0.997152 0.063220 -0.013323 -666470.000000 0 0 1
-32.738138 -8.104500 21.093567 39.779482 0.242676 1.011886 0.061389 -0.012216 81087.200000 0 0 1
-32.752068 -8.277200 19.666367 39.089334 0.247540 1.043599 0.060482 -0.006821 483872.000000 0 0 1
-34.098239 -8.530400 19.279767 40.089488 0.245140 1.069095 0.035562 -0.006922 184753.000000 0 0 1
-34.426168 -8.516800 17.733367 39.650590 0.242524 1.107118 0.039460 -0.009137 317020.000000 0 0 1
-35.828078 -8.576600 17.459967 40.768367 0.234961 1.128216 -0.012012 -0.004771 567240.000000 0 0 1
-36.071055 -8.689300 16.113667 40.450899 0.236390 1.161078 0.003209 -0.002141 -396546.000000 0 0 1
36.553280 -8.624600 15.772067 40.734311 -0.231708 1.173210 0.017709 -0.007484 -379531.000000 0 0 1
35.950860 -9.880000 15.886667 40.527336 -0.268198 1.167993 0.013163 0.006426 242464.000000 0 0 1
34.531790 -9.778800 15.957567 39.277391 -0.275957 1.152419 0.046170 -0.003503 233409.000000 0 0 1
33.829440 -11.113700 16.057167 39.061208 -0.317414 1.147161 0.058070 -0.009161 -294887.000000 0 0 1
33.833670 -11.746200 17.324267 39.784679 -0.334156 1.120257 0.055066 -0.015747 87110.800000 0 0 1
32.864220 -12.774700 17.271867 39.262798 -0.370737 1.115304 0.071009 -0.014322 184571.000000 0 0 1
32.417820 -13.212300 18.686067 39.681848 -0.387009 1.080489 0.058563 -0.013538 -384212.000000 0 0 1
33.363130 -14.050000 19.284267 41.016874 -0.398583 1.081331 0.050629 -0.018188 -451066.000000 0 0 1
33.206140 -14.253700 20.690767 41.640408 -0.405464 1.050783 0.055264 -0.017491 -590915.000000 0 0 1
34.040270 -15.300500 21.351967 42.997114 -0.422423 1.051130 0.040619 -0.006404 -388034.000000 0 0 1
34.102740 -15.167600 22.758367 43.714943 -0.418489 1.023233 0.033754 -0.011000 -327020.000000 0 0 1
34.585670 -16.331500 23.360047 44.817165 -0.441165 1.022505 0.029513 0.002356 33476.600000 0 0 1
35.041310 -16.069100 24.823437 45.850981 -0.429963 0.998702 0.035511 0.008867 -364964.000000 0 0 1
36.158930 -15.245300 24.823807 46.433919 -0.399004 1.006756 0.038059 0.002991 -585569.000000 0 0 1
36.502510 -14.845100 26.113407 47.272828 -0.386258 0.985558 0.036662 -0.004597 -937252.000000 0 0 1
-36.412618 -13.933600 26.135987 46.937339 0.365468 0.980235 0.028870 -0.015094 -1273980.000000 0 0 1
-35.218686 -14.652200 26.005687 46.166423 0.394253 0.972418 0.012191 -0.009080 -202253.000000 0 0 1
-34.156865 -13.698500 26.268437 45.214723 0.381408 0.950875 0.033646 -0.017281 -698242.000000 0 0 1
-32.834188 -14.343100 26.027937 44.286138 0.411852 0.942556 0.028955 -0.007731 -1594140.000000 0 0 1
-32.338798 -14.284900 24.655217 43.101462 0.415952 0.961821 0.023165 -0.003343 -194984.000000 0 0 1
-31.021548 -14.709200 24.493197 42.173614 0.442763 0.951121 0.033506 -0.015952 -457599.000000 0 0 1
-30.716878 -16.221800 24.680757 42.612360 0.485880 0.953059 0.036541 -0.013008 -640902.000000 0 0 1
-30.830738 -16.630000 25.991947 43.619636 0.494666 0.932439 0.043637 -0.015774 80352.300000 0 0 1
-30.469188 -17.981700 26.092487 43.960561 0.533153 0.935342 0.043902 -0.023290 -222645.000000 0 0 1
-30.209898 -18.363200 27.581687 44.839654 0.546174 0.908260 0.050736 -0.028413 663320.000000 0 0 1
-29.080588 -17.610300 28.081327 44.094946 0.544504 0.880407 0.054635 -0.026303 703383.000000 0 0 1
-28.609198 -17.972700 29.381887 44.774987 0.560907 0.855009 0.065151 -0.031105 704522.000000 0 0 1
-27.269668 -17.306200 29.815927 43.955988 0.565496 0.825332 0.053734 -0.026425 416530.000000 0 0 1
-27.495828 -16.028200 30.378157 43.997230 0.527775 0.808677 0.059470 -0.029027 -42913.900000 0 0 1
-26.328938 -15.239300 30.249687 42.900966 0.524689 0.788225 0.055223 -0.019026 -297872.000000 0 0 1
-26.381828 -13.781300 30.663517 42.733785 0.481390 0.770522 0.057877 -0.018985 -179486.000000 0 0 1
-26.122988 -13.680800 32.054270 43.555150 0.482433 0.743732 0.058945 -0.020704 103449.000000 0 0 1
-25.971698 -12.381900 32.568834 43.457675 0.444872 0.723583 0.064416 -0.014731 -594979.000000 0 0 1
-25.540348 -12.336200 -33.883930 44.188369 0.449962 2.444647 0.063649 -0.020290 411701.000000 0 0 1
-24.129018 -12.516200 -33.724760 43.315404 0.478511 2.463205 0.073257 -0.019582 705241.000000 0 0 1
-23.674818 -13.877600 -33.801290 43.538627 0.530192 2.459653 0.073425 -0.018329 -533600.000000 0 0 1
-23.584618 -14.716800 -32.487240 42.757914 0.557880 2.433794 0.072210 -0.018356 215969.000000 0 0 1
-22.480818 -14.312400 -31.618270 41.351506 0.566933 2.441251 0.076152 -0.011508 871141.000000 0 0 1
-22.345418 -15.093500 -30.418330 40.649801 0.594068 2.416295 0.078774 -0.017930 730612.000000 0 0 1
-20.905718 -15.121800 -29.763880 39.390436 0.626215 2.427384 0.082954 -0.018723 964430.000000 0 0 1
-20.485518 -13.999900 -29.007650 38.171946 0.599501 2.433987 0.084273 -0.012456 79656.600000 0 0 1
-20.965418 -13.957600 -27.705040 37.442391 0.587364 2.403774 0.086307 -0.020369 -257595.000000 0 0 1
-20.580918 -12.672800 -26.870770 36.141560 0.551923 2.409065 0.087986 -0.018415 889419.000000 0 0 1
-19.177318 -12.725600 -26.546250 35.134226 0.585860 2.427315 0.074472 -0.012835 956958.000000 0 0 1
-18.768618 -11.538100 -25.885780 33.992093 0.551198 2.436457 0.088042 -0.023715 826415.000000 0 0 1
-17.363918 -11.549900 -25.181960 32.696131 0.586963 2.449922 0.080201 -0.019744 20774.400000 0 0 1
-17.365118 -12.202000 -23.921480 31.979265 0.612518 2.415887 0.077326 -0.021452 402288.000000 0 0 1
-16.134618 -12.359700 -23.211080 30.851942 0.653685 2.422400 0.071687 -0.028689 253123.000000 0 0 1
-15.037518 -13.212700 -23.861580 31.146066 0.720893 2.443576 0.055160 -0.023465 -706808.000000 0 0 1
-14.361118 -12.664900 -24.966880 31.464051 0.722718 2.487343 0.065250 -0.035928 105708.000000 0 0 1
-13.707418 -13.634200 -25.816860 32.253605 0.782720 2.498814 0.071001 -0.028983 -58822.600000 0 0 1
-12.693418 -12.911200 -26.704730 32.263983 0.793904 2.545784 0.077753 -0.029679 -196251.000000 0 0 1
-13.356918 -12.006300 -27.539620 32.878400 0.732197 2.563709 0.084175 -0.028449 -448440.000000 0 0 1
-12.493318 -11.406600 -28.428080 33.080950 0.739960 2.604792 0.089249 -0.038396 -464928.000000 0 0 1
-13.213718 -10.341700 -29.301020 33.765410 0.664071 2.621518 0.077384 -0.034966 -438090.000000 0 0 1
-12.434918 -9.544800 -30.117740 33.953036 0.654658 2.661693 0.069321 -0.027528 -473159.000000 0 0 1
-11.919418 -10.310000 -31.207640 34.961199 0.713124 2.673957 0.079756 -0.023464 102658.000000 0 0 1
-11.025318 -9.464000 -32.153900 35.284533 0.709344 2.717165 0.057035 -0.020310 566897.000000 0 0 1
-9.774018 -9.059600 -31.588160 34.284394 0.747483 2.742353 0.042776 -0.018839 247822.000000 0 0 1
-9.263918 -7.930700 -32.313700 34.538260 0.708016 2.780727 0.034900 -0.022046 -921587.000000 0 0 1
-7.794118 -7.855700 -31.967500 33.828706 0.789333 2.808334 0.040413 -0.026088 -1109500.000000 0 0 1
-7.290718 -7.684200 -30.617480 32.398019 0.811668 2.808519 0.031957 -0.020827 16619.800000 0 0 1
-7.825918 -6.512800 -29.890990 31.577411 0.694074 2.813300 0.047709 -0.018792 -598592.000000 0 0 1
-7.236218 -5.100800 -30.293560 31.560748 0.614006 2.857261 0.034766 -0.027544 139073.000000 0 0 1
-5.857718 -5.017200 -30.001050 30.976575 0.708262 2.889962 0.034911 -0.031841 -58630.200000 0 0 1
-5.361418 -3.722000 -30.476100 31.167143 0.606836 2.930621 0.047809 -0.036194 1213920.000000 0 0 1
-3.874018 -3.522700 -29.960490 30.414609 0.737937 2.968571 0.054568 -0.021586 760489.000000 0 0 1
-2.925118 -4.244600 -30.708070 31.137735 0.967397 2.975276 0.052717 -0.026335 512.435000 0 0 1
-1.582918 -3.915500 -30.406950 30.698850 1.186615 3.003581 0.079500 -0.026200 453302.000000 0 0 1
-0.935318 -2.658600 -31.087980 31.215469 1.232511 3.051183 0.079279 -0.023322 87496.300000 0 0 1
0.466282 -2.481700 -30.841390 30.944589 -1.385074 3.059900 0.074929 -0.018699 800595.000000 0 0 1
0.915582 -1.221600 -31.443190 31.480229 -0.927619 3.093079 0.063774 -0.014685 64099.400000 0 0 1
1.071182 -0.081800 -30.450620 30.469565 -0.076216 3.106327 0.062859 -0.018960 198242.000000 0 0 1
-0.129518 0.422900 -29.871530 29.874804 -1.273604 3.126787 0.069185 -0.013294 72916.300000 0 0 1
0.182282 1.628600 -29.140890 29.186933 1.459335 3.085416 0.097407 -0.028232 1345380.000000 0 0 1
-1.043218 2.385700 -28.428770 28.547764 -1.158571 3.050257 0.091066 -0.023273 820824.000000 0 0 1
-1.988418 2.987300 -29.266060 29.485251 -0.983516 3.019583 0.076150 -0.033373 -654199.000000 0 0 1
-2.671818 3.966500 -28.591050 28.988272 -0.978012 2.975856 0.092459 -0.030733 -841001.000000 0 0 1
-3.965618 4.349900 -29.267560 29.853607 -0.831578 2.943122 0.107004 -0.034939 -548458.000000 0 0 1
-3.597318 4.851700 -30.527680 31.119431 -0.932786 2.946267 0.101147 -0.037212 -192393.000000 0 0 1
-4.758218 5.266600 -31.186800 31.984281 -0.836067 2.917817 0.110059 -0.034985 -511280.000000 0 0 1
-4.654418 5.721100 -32.645450 33.468194 -0.887846 2.919402 0.115915 -0.035526 -71644.700000 0 0 1
-4.324218 4.865900 -33.774440 34.396056 -0.844272 2.951188 0.123500 -0.035110 161100.000000 0 0 1
-3.070018 4.221700 -33.664820 34.067109 -0.942048 2.987761 0.113613 -0.032526 -407013.000000 0 0 1
-2.599218 3.567400 32.981548 33.275589 -0.941130 0.133038 0.103505 -0.035897 -695730.000000 0 0 1
-3.155718 2.351300 32.563316 32.800255 -0.640352 0.120270 0.091148 -0.038391 -197715.000000 0 0 1
-2.875418 1.754200 31.312637 31.493277 -0.547789 0.107157 0.083577 -0.025621 -211005.000000 0 0 1
-2.862818 2.702200 30.097097 30.353466 -0.756544 0.130062 0.085705 -0.027381 -870384.000000 0 0 1
-4.101618 3.249600 29.854387 30.309530 -0.670011 0.173518 0.071111 -0.025254 -945337.000000 0 0 1
-3.983818 4.301800 28.898937 29.487707 -0.823757 0.200167 0.070306 -0.032200 -675305.000000 0 0 1
-5.191418 5.197300 28.939007 29.856807 -0.785964 0.248591 0.078749 -0.021261 -570280.000000 0 0 1
-5.173918 6.149000 27.905587 29.039653 -0.871302 0.280390 0.078027 -0.013902 736669.000000 0 0 1
-6.493318 6.700100 27.707927 29.236685 -0.801070 0.324811 0.075288 -0.007291 499768.000000 0 0 1
-6.561118 7.548700 26.446347 28.274378 -0.855277 0.361558 0.072011 -0.010021 129487.000000 0 0 1
-5.764718 8.748100 26.461657 28.460157 -0.988142 0.376984 0.102769 -0.009197 239902.000000 0 0 1
-5.874018 9.425400 25.181987 27.522259 -1.013484 0.415368 0.087105 -0.010905 -367679.000000 0 0 1
-4.986818 10.646700 25.175557 27.785415 -1.132754 0.436892 0.089410 -0.019552 -740051.000000 0 0 1
-5.110118 11.476900 24.018667 27.105884 -1.151897 0.481923 0.106932 -0.019403 507650.000000 0 0 1
-4.381118 12.718200 24.122357 27.619467 -1.239051 0.508692 0.099486 -0.014789 712331.000000 0 0 1
-2.803718 12.734200 24.085037 27.388131 -1.354082 0.496202 0.092049 -0.011025 1185770.000000 0 0 1
-2.065818 12.340600 25.284387 28.210960 -1.404934 0.459530 0.095707 -0.012516 474037.000000 0 0 1
-2.341018 13.163900 26.439977 29.628382 -1.394800 0.468189 0.103830 -0.020061 -481367.000000 0 0 1
-1.536318 12.814800 27.739487 30.595074 -1.451480 0.435486 0.107198 -0.020848 652312.000000 0 0 1
-0.148418 13.080300 27.593257 30.536931 -1.559450 0.442689 0.113522 -0.022606 -291982.000000 0 0 1
0.517082 12.751500 28.771857 31.475195 1.530268 0.417484 0.114047 -0.023247 -13769.700000 0 0 1
2.052382 12.613800 28.599307 31.324760 1.409501 0.420234 0.117318 -0.020403 463657.000000 0 0 1
2.696782 13.852600 28.295957 31.620063 1.378524 0.462649 0.118774 -0.023767 238981.000000 0 0 1
4.116682 13.741100 28.276707 31.707051 1.279717 0.469463 0.126751 -0.020131 453898.000000 0 0 1
4.758682 15.109500 28.517657 32.622060 1.265684 0.507045 0.118357 -0.024869 -303809.000000 0 0 1
4.574382 15.580300 29.860287 33.989814 1.285221 0.498069 0.129222 -0.017789 676431.000000 0 0 1
3.581282 16.601300 30.137617 34.593420 1.358329 0.513165 0.110195 -0.015947 454383.000000 0 0 1
3.874282 18.013000 29.671957 34.927114 1.358941 0.555685 0.105169 -0.012961 -119989.000000 0 0 1
5.008082 18.645800 30.218987 35.859921 1.308399 0.568526 0.125863 -0.010250 -39290.800000 0 0 1
5.353782 19.782600 29.469807 35.895456 1.306497 0.607654 0.102369 -0.008423 -120571.000000 0 0 1
6.561282 20.627100 29.872927 36.890642 1.262827 0.627037 0.104894 -0.012678 -352754.000000 0 0 1
6.367082 21.240500 31.083927 38.182576 1.279558 0.619642 0.105696 -0.025937 659583.000000 0 0 1
7.514282 22.010800 31.494827 39.151806 1.241812 0.636084 0.085250 -0.026671 403367.000000 0 0 1
7.616982 23.450200 30.965027 39.582360 1.256732 0.672457 0.066145 -0.011529 -192653.000000 0 0 1
7.773382 23.476200 29.542467 38.526806 1.251041 0.696951 0.043768 -0.008923 64854.800000 0 0 1
7.721282 24.763000 28.988357 38.899219 1.268543 0.729936 0.042242 -0.013999 95561.800000 0 0 1
8.149282 24.892300 27.486987 37.968037 1.254412 0.761284 0.064200 -0.016087 -505074.000000 0 0 1
7.255182 24.190600 26.697947 36.750553 1.279415 0.757634 0.058325 -0.013636 39353.500000 0 0 1
7.627082 24.280000 25.332697 35.908722 1.266427 0.787704 0.069949 -0.019870 -113399.000000 0 0 1
28.848150 2.242800 7.267320 29.833871 0.077589 1.324728 0.105914 0.005573 254951.000000 0 0 1
29.471400 3.200400 8.129520 30.739146 0.108170 1.303144 0.096578 -0.004498 49986.800000 0 0 1
28.842050 3.176500 9.367720 30.491116 0.109692 1.258518 0.104308 -0.001940 -139087.000000 0 0 1
29.281600 4.238100 10.440920 31.374933 0.143738 1.231547 0.104078 -0.010184 -99382.300000 0 0 1
28.954650 5.608200 10.247820 31.222451 0.191320 1.236378 0.097102 -0.009280 -334103.000000 0 0 1
29.619110 6.237300 9.217520 31.641085 0.207551 1.275195 0.104564 -0.020166 -324182.000000 0 0 1
29.193000 7.723600 8.934620 31.491470 0.258644 1.283130 0.134436 -0.028732 671907.000000 0 0 1
28.031550 7.907900 8.114820 30.234963 0.274962 1.299073 0.106136 -0.017743 493338.000000 0 0 1
28.353550 8.819800 7.070720 30.523888 0.301577 1.337028 0.130645 -0.050985 83066.100000 0 0 1
27.316850 8.851500 5.908220 29.316658 0.313355 1.367875 0.121761 -0.035345 -6784.100000 0 0 1
26.084750 9.408900 6.268420 28.429468 0.346180 1.348479 0.112742 -0.032552 -695764.000000 0 0 1
25.167250 9.303000 5.224120 27.335466 0.354069 1.378502 0.128339 -0.031592 117851.000000 0 0 1
23.803950 9.962500 5.598220 26.404914 0.396372 1.357161 0.081425 -0.030011 292910.000000 0 0 1
23.891350 11.344900 5.848720 27.087098 0.443329 1.353160 0.078051 -0.026156 659656.000000 0 0 1
22.572250 11.784000 6.183120 26.203055 0.481137 1.332580 0.078292 -0.020250 570748.000000 0 0 1
22.499150 13.301800 6.532420 26.941086 0.533934 1.325885 0.072376 -0.011221 -170104.000000 0 0 1
22.430850 14.202700 5.407420 27.094278 0.564458 1.369869 0.078274 -0.017361 324497.000000 0 0 1
22.213550 15.458400 5.959020 27.711259 0.607969 1.354064 0.090843 -0.022306 -245959.000000 0 0 1
21.794050 16.532900 4.960020 27.801424 0.648980 1.391427 0.083246 -0.022052 -502892.000000 0 0 1
20.504550 16.413900 4.414720 26.633483 0.675046 1.404269 0.099058 -0.023595 41828.000000 0 0 1
20.328150 17.266300 3.273120 26.871399 0.704133 1.448686 0.112519 -0.025370 -759132.000000 0 0 1
18.843950 17.431600 3.048620 25.850517 0.746484 1.452589 0.096426 -0.021381 -1008340.000000 0 0 1
18.061250 18.177300 3.928620 25.924063 0.788601 1.418667 0.103304 -0.029523 1546420.000000 0 0 1
16.658350 17.994600 3.548220 24.776927 0.823940 1.427096 0.083385 -0.035515 620954.000000 0 1 0
15.795450 19.022000 4.180020 25.075990 0.877805 1.403320 0.093347 -0.037683 -1050450.000000 0 0 1
14.446550 18.663600 4.008120 23.939461 0.912080 1.402577 0.088580 -0.044352 -19604.200000 0 1 0
13.668450 19.860900 4.209520 24.474516 0.968028 1.397941 0.070332 -0.041284 1398190.000000 0 1 0
12.114950 19.664000 3.970920 23.435296 1.018624 1.400533 0.054546 -0.036631 1152980.000000 0 1 0
11.415050 18.942900 4.957820 22.665322 1.028465 1.350273 0.045036 -0.043444 -233319.000000 0 1 0
10.037050 18.978300 4.652820 21.967407 1.084320 1.357374 0.038333 -0.034935 -213651.000000 0 1 0
9.236150 18.496100 5.846920 21.484847 1.107664 1.295178 0.027585 -0.029682 -1444670.000000 0 1 0
9.156550 19.406800 6.892520 22.538259 1.129944 1.260003 0.037304 -0.027782 -95296.900000 0 1 0
8.528250 18.781800 8.009820 22.127907 1.144563 1.200407 0.038685 -0.022841 -263284.000000 0 1 0
7.451750 19.655700 8.707520 22.752934 1.208424 1.178081 0.037987 -0.023758 479585.000000 0 1 0
6.294250 19.867600 7.915420 22.293339 1.263990 1.207821 0.033071 -0.028101 -271.751000 0 1 0
6.335350 21.105200 7.247820 23.196918 1.279175 1.253028 0.033404 -0.022043 263198.000000 0 1 0
5.040150 21.486700 6.422520 22.985433 1.340391 1.287610 0.012135 -0.012858 685842.000000 0 1 0
3.799150 21.763300 7.013720 23.179021 1.397971 1.263388 0.014258 -0.012237 -179832.000000 0 1 0
3.730350 22.811000 7.934320 24.437894 1.408698 1.240131 0.028663 -0.021019 -793840.000000 0 1 0
3.659450 24.254500 7.384520 25.616469 1.421049 1.278374 0.037482 -0.014398 -279121.000000 0 0 1
2.615550 24.274100 6.440620 25.249844 1.463460 1.312870 0.030328 -0.020393 -109320.000000 0 0 1
2.713850 25.217700 5.406120 25.933058 1.463592 1.360792 0.038867 -0.013782 -1197460.000000 0 0 1
1.441450 25.387100 4.609820 25.842466 1.514078 1.391455 0.037938 -0.018614 -1775960.000000 0 0 1
0.381350 25.666200 5.428720 26.236811 1.555939 1.362378 0.042853 -0.024554 -1583820.000000 0 0 1
-0.630950 26.030800 4.555220 26.433892 -1.546562 1.397607 0.062681 -0.026394 703609.000000 0 0 1
-1.953950 26.729300 5.165120 27.293806 -1.497825 1.380407 0.078012 -0.025928 1348060.000000 0 0 1
-2.787350 27.101500 4.080620 27.548359 -1.468308 1.422124 0.110969 -0.030027 -710914.000000 0 0 1
-3.862150 27.781800 4.661420 28.433667 -1.432664 1.406113 0.103442 -0.033639 -733547.000000 0 0 1
-4.745450 28.286500 3.499920 28.894546 -1.404580 1.449371 0.097319 -0.039888 -112537.000000 0 0 1
-4.202450 29.337300 2.743120 29.763442 -1.428518 1.478501 0.113757 -0.041618 -66861.900000 0 0 1
-5.157950 29.623500 1.759620 30.120632 -1.398408 1.512344 0.139288 -0.048274 -235561.000000 0 0 1
-4.592050 30.479800 0.618520 30.829980 -1.421262 1.550733 0.123639 -0.045488 2747.250000 0 0 1
-4.247250 31.852400 0.736120 32.142750 -1.438237 1.547893 0.122825 -0.046453 -188983.000000 0 0 1
-3.077250 31.957100 1.498820 32.139884 -1.474799 1.524145 0.131582 -0.043687 -595813.000000 0 0 1
-2.475150 33.382500 1.611720 33.512912 -1.496787 1.522685 0.109016 -0.044552 -617917.000000 0 0 1
-1.717050 33.899900 0.560420 33.947983 -1.520189 1.554287 0.075570 -0.036160 440704.000000 0 0 1
-0.823050 -33.074855 0.810120 33.095010 1.545917 1.546315 0.081160 -0.029786 373812.000000 0 0 1
0.462350 -33.428255 1.583020 33.468910 -1.556966 1.523480 0.056459 -0.017708 -679666.000000 0 0 1
0.277450 -33.496755 2.986020 33.630728 -1.562514 1.481891 0.058336 -0.025344 -40730.700000 0 0 1
1.433550 -33.973355 3.623920 34.196150 -1.528625 1.464622 0.046057 -0.020283 -99776.400000 0 0 1
1.278750 -33.942455 5.111220 34.348945 -1.533140 1.421439 0.054558 -0.022037 3861.630000 0 0 1
0.292850 33.237300 5.593320 33.705921 1.561986 1.404080 0.069798 -0.037396 86204.400000 0 0 1
-0.234850 33.628500 6.915020 34.332909 -1.563813 1.367998 0.073945 -0.035846 -18502.700000 0 0 1
0.723450 33.726800 8.121020 34.698291 1.549349 1.334558 0.076649 -0.032559 -163893.000000 0 0 1
1.179050 32.421700 8.377320 33.507257 1.534446 1.318100 0.078751 -0.035608 9271.280000 0 0 1
2.319450 32.378300 9.214320 33.743708 1.499283 1.294216 0.102038 -0.038047 -15731.400000 0 0 1
2.949550 30.954800 9.405220 32.486268 1.475797 1.277078 0.092613 -0.034171 -366369.000000 0 0 1
2.129850 30.046200 10.052820 31.754835 1.500029 1.248679 0.107572 -0.039746 -21643.800000 0 0 1
2.777050 28.768100 10.084320 30.610604 1.474562 1.235087 0.081240 -0.034309 197130.000000 0 0 1
2.129250 27.705100 10.998620 29.884375 1.494093 1.193897 0.077134 -0.039067 -204167.000000 0 0 1
2.505550 28.032900 12.335320 30.729161 1.481654 1.157729 0.092807 -0.031173 79254.800000 0 0 1
2.248450 26.949300 13.255720 30.117012 1.487557 1.115041 0.097726 -0.022297 902828.000000 0 0 1
0.735750 26.567700 13.571520 29.842422 1.543110 1.098679 0.066997 -0.019166 1102000.000000 0 0 1
0.026850 27.538000 14.310620 31.034432 1.569821 1.091539 0.075010 -0.017047 232289.000000 0 0 1
-0.366750 28.795900 13.667220 31.876814 -1.558061 1.127686 0.094279 -0.027288 -432534.000000 0 0 1
-1.097350 29.833300 14.509320 33.192624 -1.534030 1.118397 0.067679 -0.016104 208670.000000 0 0 1
-2.388550 29.498700 14.997620 33.178413 -1.490001 1.101757 0.041103 -0.007915 156639.000000 0 0 1
-2.954650 30.729100 15.404520 34.500823 -1.474939 1.107950 0.040961 -0.007623 -466276.000000 0 0 1
-4.257950 30.633600 16.215120 34.921021 -1.432685 1.087911 0.028436 0.005311 -743903.000000 0 0 1
-5.282050 30.218300 15.382720 34.317252 -1.397748 1.105989 0.035147 -0.001378 -237019.000000 0 0 1
-6.398350 29.750500 16.155420 34.453283 -1.358956 1.082742 0.031393 0.004652 -199033.000000 0 0 1
-7.465650 29.208900 15.220120 33.771997 -1.320559 1.103277 0.026068 -0.004461 427800.000000 0 0 1
-8.746450 28.962700 15.848820 34.154406 -1.277515 1.088252 0.029633 -0.002981 449269.000000 0 0 1
-9.570650 28.213200 14.978220 33.345600 -1.243752 1.104948 0.032188 -0.002912 65377.500000 0 0 1
-10.804250 27.645300 15.739120 33.596344 -1.198231 1.083230 0.039093 0.001623 300819.000000 0 0 1
-11.701050 28.659200 16.229320 34.952183 -1.183170 1.087919 0.036438 -0.008340 642422.000000 0 0 1
-11.231250 29.405800 17.395120 35.964319 -1.205955 1.065945 0.045244 -0.019636 -51071.800000 0 0 1
-12.344850 30.360700 17.976320 37.380683 -1.184608 1.069117 0.061030 -0.017097 682536.000000 0 0 1
-13.514250 29.743900 18.507620 37.548189 -1.144328 1.055373 0.070697 -0.017159 696297.000000 0 0 1
-14.370750 30.832700 18.909120 38.919515 -1.134644 1.063459 0.078447 -0.016300 -40841.300000 0 0 1
-15.404350 30.498700 19.953620 39.567810 -1.103091 1.042238 0.076321 -0.023918 -687382.000000 0 0 1
-14.915950 30.664700 21.266520 40.187986 -1.118071 1.013167 0.077119 -0.031885 536573.000000 0 0 1
-15.799350 30.293800 22.382720 40.845072 -1.090068 0.990836 0.072673 -0.024802 185510.000000 0 0 1
-15.108350 30.504300 23.692920 41.474438 -1.110927 0.962749 0.086402 -0.020935 124684.000000 0 0 1
-13.985650 29.607500 23.877020 40.525480 -1.129497 0.940746 0.080200 -0.024124 945835.000000 0 0 1
-13.539650 29.356700 25.187020 40.981995 -1.138658 0.908933 0.083061 -0.020270 -156226.000000 0 0 1
-13.043850 30.457100 26.074120 42.162029 -1.166160 0.904057 0.086491 -0.021719 -1050140.000000 0 0 1
-14.092850 31.166500 26.618320 43.341597 -1.146131 0.909486 0.093506 -0.023257 8573.860000 0 0 1
-13.629350 32.367900 27.286220 44.474464 -1.172254 0.910279 0.092682 -0.025037 53718.400000 0 0 1
-14.862350 33.230500 27.632720 45.702547 -1.150231 0.921506 0.109764 -0.026594 452530.000000 0 0 1
-15.748250 32.797000 28.677820 46.325672 -1.123135 0.903266 0.094505 -0.024549 523081.000000 0 0 1
-15.184150 32.921700 29.987820 47.049613 -1.138651 0.879721 0.119591 -0.020746 -315115.000000 0 0 1
-15.925350 32.223200 31.158320 47.568816 -1.111783 0.856593 0.110727 -0.019639 -440129.000000 0 0 1
-17.145050 32.834300 31.465820 48.601870 -1.089571 0.866602 0.120161 -0.018097 -736242.000000 0 0 1
-17.676750 32.356800 32.629120 49.235043 -1.070793 0.846349 0.094093 -0.014470 -740858.000000 0 0 1
-19.159550 32.626000 32.816220 50.084414 -1.039806 0.856325 0.077096 -0.009327 -640510.000000 0 0 1
-19.403950 33.978400 33.082820 51.239808 -1.051923 0.868926 0.108910 -0.014265 -1574530.000000 0 0 1
-20.726350 -33.853755 33.307920 51.817717 1.021431 0.872661 0.072528 -0.013558 -1266400.000000 0 0 1
-21.072150 -32.334055 33.266020 50.952474 0.993226 0.859412 0.095889 -0.011121 -110933.000000 0 0 1
-20.629750 -31.619555 -33.488628 50.466534 0.992710 2.296392 0.102834 -0.011963 -2725.480000 0 0 1
-21.249250 -31.875055 -32.244328 50.072412 0.982811 2.270452 0.067347 -0.006199 -169905.000000 0 0 1
-20.816550 -30.960055 -31.068628 48.550112 0.978857 2.265202 0.081106 -0.006866 41329.500000 0 0 1
-21.094850 -29.599755 -31.277028 47.951962 0.951618 2.281355 0.099699 -0.008985 56483.400000 0 0 1
-20.568950 -28.850055 -30.199828 46.555740 0.951425 2.276646 0.098175 -0.011181 35619.600000 0 0 1
-21.028150 -27.380855 -30.229928 45.888374 0.915882 2.289980 0.094588 -0.023530 234101.000000 0 0 1
-22.405750 -27.239455 -29.947128 46.269169 0.882457 2.274751 0.092256 -0.022095 -97005.500000 0 0 1
-22.797050 -25.868555 -29.965328 45.681599 0.848429 2.286251 0.106011 -0.023600 779440.000000 0 0 1
-24.040450 -25.534255 -29.057528 45.544279 0.815521 2.262702 0.099514 -0.024514 439476.000000 0 0 1
-23.874250 -25.738355 -27.677228 44.704269 0.822954 2.238416 0.094360 -0.026678 -149483.000000 0 0 1
-22.958550 -24.898655 -27.005828 43.316888 0.825915 2.243941 0.105406 -0.037569 -28812.200000 0 0 1
-22.889150 -25.177255 -25.476228 42.507006 0.832965 2.213475 0.101915 -0.028980 -5671.060000 0 0 1
-24.031850 -24.692655 -24.808928 42.458685 0.798959 2.194823 0.097568 -0.032231 -213419.000000 0 0 1
-24.042650 -25.010055 -23.448628 41.873500 0.805117 2.165167 0.093791 -0.023577 -1085930.000000 0 0 1
-25.390750 -24.783855 -22.789528 42.169802 0.773303 2.141736 0.096739 -0.024699 175186.000000 0 0 1
-26.541950 -25.542855 -23.196128 43.531286 0.766218 2.132774 0.071303 -0.019279 257298.000000 0 0 1
-26.393850 -26.951155 -23.100428 44.233809 0.795845 2.120266 0.062618 0.005959 -919658.000000 0 0 1
-27.658250 -27.883655 -23.132228 45.580445 0.789456 2.103081 0.033905 0.003795 423761.000000 0 0 1
-28.500950 -27.838955 -22.033628 45.527929 0.773649 2.075969 0.037538 0.006404 -387206.000000 0 0 1
-29.475750 -26.822655 -22.142728 45.591392 0.738307 2.077935 0.035124 0.006953 -538361.000000 0 0 1
-30.100650 -26.397455 -20.823828 45.127669 0.719946 2.050417 0.033108 0.014760 -332825.000000 0 0 1
-30.937250 -27.372055 -20.293428 46.023538 0.724331 2.027437 0.024788 0.014922 -10542.600000 0 0 1
-31.393950 -27.055955 -18.971028 45.579652 0.711317 2.000077 0.022967 0.017496 -217524.000000 0 0 1
-32.212250 -28.202955 -18.253528 46.542744 0.719133 1.973806 0.013184 0.008281 1179940.000000 0 0 1
-33.588650 -28.448555 -18.653228 47.806491 0.702732 1.971625 0.017231 0.007107 2192360.000000 0 0 1
-34.556550 -27.395755 -18.378628 47.775061 0.670323 1.965669 0.007331 0.012399 210329.000000 0 0 1
-34.857950 -27.075155 -16.906828 47.265014 0.660389 1.936603 0.013602 0.014970 -1308470.000000 0 0 1
-33.863750 -26.356355 -16.274728 45.894202 0.661372 1.933298 0.013247 0.020101 -195893.000000 0 0 1
-34.349650 -25.690355 -15.095328 45.472648 0.642160 1.909182 0.011190 0.017717 121786.000000 0 0 1
-34.136050 -26.386355 -13.758728 45.285894 0.658044 1.879495 0.013161 0.014423 122606.000000 0 0 1
-34.858050 -27.616455 -13.782528 46.558676 0.670000 1.871325 0.023028 0.010533 424935.000000 0 0 1
-34.710650 -28.235455 -12.500828 46.457947 0.682890 1.843232 0.024946 0.000637 -220349.000000 0 0 1
-35.447850 -29.559055 -12.301028 47.766129 0.695058 1.831257 0.040028 -0.009109 -252935.000000 0 0 1
-34.920850 -30.513255 -13.148828 48.201827 0.718140 1.847085 0.033514 -0.012386 391577.000000 0 0 1
-35.649450 -31.740655 -13.002228 49.471309 0.727461 1.836744 0.018549 -0.019266 -53441.400000 0 0 1
-35.225950 -32.873155 -13.961728 50.164147 0.750862 1.852842 0.018634 -0.010889 -1131110.000000 0 0 1
-33.978950 -33.340855 -13.590628 49.506432 0.775920 1.848889 0.017028 -0.013256 -899067.000000 0 0 1
-33.516050 33.944200 -14.649328 49.901274 -0.791745 1.868752 0.035247 -0.031541 -788748.000000 0 0 1
-32.028050 -33.933955 -14.885928 48.978568 0.814284 1.879609 0.036776 -0.027992 -397824.000000 0 0 1
-31.495050 33.478800 -16.034028 48.681190 -0.815920 1.906431 0.045896 -0.026843 -1473160.000000 0 0 1
-30.131750 33.466800 -16.137728 47.836966 -0.837789 1.914895 0.044644 -0.027605 -1746990.000000 0 0 1
9.480682 19.985000 -8.858580 23.827673 1.127846 1.951719 0.049660 -0.023154 -20295.000000 0 1 0
8.088682 19.961700 -9.151180 23.401716 1.185807 1.972566 0.057064 -0.025783 154145.000000 0 1 0
7.719582 20.015500 -10.489680 23.879815 1.202695 2.025582 0.067783 -0.027317 44231.400000 0 1 0
7.767782 18.700300 -11.391680 23.233812 1.177100 2.083237 0.059068 -0.021568 1145760.000000 0 1 0
9.096382 18.220700 -11.741180 23.507305 1.107762 2.093783 0.089523 -0.030697 1151520.000000 0 1 0
8.967182 17.111500 -12.583680 23.055645 1.088099 2.148135 0.084906 -0.035815 61822.200000 0 1 0
10.323682 16.766000 -13.240980 23.727636 1.018876 2.162819 0.105361 -0.027548 274448.000000 0 1 0
10.320082 15.512600 -13.871380 23.228432 0.983761 2.210768 0.117645 -0.039700 -124787.000000 0 1 0
11.565582 15.281700 -14.470980 24.014627 0.922941 2.217539 0.130316 -0.039961 -380431.000000 0 1 0
11.503482 13.961900 -15.267580 23.672003 0.881640 2.271772 0.113450 -0.042210 -267247.000000 0 1 0
11.480782 12.792300 -14.486480 22.479088 0.839377 2.271090 0.128830 -0.041155 2098020.000000 0 1 0
12.774882 12.424000 -13.857180 22.573764 0.771475 2.231740 0.152591 -0.039908 2010460.000000 0 1 0
13.822782 11.742300 -14.775780 23.393901 0.704197 2.254422 0.159095 -0.039858 -80151.400000 0 1 0
14.310082 12.492900 -15.857880 24.745168 0.717704 2.266398 0.126580 -0.029578 251263.000000 0 1 0
15.131882 11.690400 -16.711980 25.395464 0.657789 2.289048 0.110575 -0.035918 -33743.400000 0 0 1
15.714282 12.446500 -17.883580 26.864036 0.669875 2.299237 0.069069 -0.024640 -631048.000000 0 0 1
16.662082 13.376300 -17.486280 27.610150 0.676445 2.256642 0.048092 -0.014229 -236108.000000 0 0 1
17.431182 13.805800 -18.617080 29.000722 0.669855 2.267838 0.031824 -0.008713 -18956.300000 0 0 1
18.577082 14.789700 -18.305680 29.982347 0.672374 2.227549 0.030478 0.007136 -590704.000000 0 0 1
18.218182 16.040300 -17.813880 30.108598 0.721912 2.203906 0.036001 0.000058 468121.000000 0 0 1
17.580082 16.997300 -18.710880 30.790656 0.768545 2.223933 0.039665 0.003413 325272.000000 0 0 1
17.132182 18.328000 -18.091180 30.930859 0.819108 2.195542 0.042692 0.000613 107406.000000 0 0 1
18.273982 19.099400 -17.757880 31.844431 0.807480 2.162342 0.058333 0.004027 209116.000000 0 0 1
17.926482 20.180600 -16.943880 31.870212 0.844482 2.131347 0.032787 0.009868 -225067.000000 0 0 1
18.597382 21.570000 -17.074380 33.206354 0.859269 2.110859 0.047339 -0.001613 419500.000000 0 0 1
19.941082 21.585000 -16.588280 33.745074 0.824965 2.084695 0.088642 -0.004625 257216.000000 0 0 1
20.234082 22.878800 -16.009880 34.484400 0.846665 2.053600 0.080526 -0.008030 190717.000000 0 0 1
21.668982 23.112000 -15.490880 35.265800 0.817611 2.025572 0.088859 -0.015032 -552456.000000 0 0 1
22.004082 22.311300 -14.360680 34.470318 0.792331 2.000509 0.093601 -0.015934 76382.600000 0 0 1
23.119182 22.790500 -13.612980 35.202510 0.778239 1.967852 0.085321 -0.019908 -325208.000000 0 0 1
24.474582 22.450000 -14.184680 36.113886 0.742279 1.974445 0.088983 -0.011043 -1260850.000000 0 0 1
24.879882 23.093400 -15.390380 37.271671 0.748176 1.996459 0.093175 -0.014274 296073.000000 0 0 1
25.888882 24.089000 -15.224980 38.500833 0.749400 1.977349 0.082253 -0.007646 369824.000000 0 0 1
26.610482 24.473500 -16.572080 39.770640 0.743590 2.000599 0.084188 -0.014329 200624.000000 0 0 1
27.128582 23.369800 -17.354480 39.790520 0.711101 2.022108 0.090083 -0.009695 510982.000000 0 0 1
27.576682 23.789900 -18.660180 40.922305 0.711811 2.044281 0.079507 -0.013119 -282156.000000 0 0 1
28.091982 22.694700 -19.670580 41.123479 0.679522 2.069548 0.069791 -0.015813 -110677.000000 0 0 1
29.388182 22.260000 -19.376180 41.648640 0.648250 2.054690 0.062808 -0.003631 -524329.000000 0 0 1
29.874082 21.429100 -20.422180 42.056302 0.622252 2.077836 0.079220 -0.007987 884810.000000 0 0 1
31.425582 21.448000 -20.627980 43.279296 0.598885 2.067608 0.099369 -0.011145 649301.000000 0 0 1
31.975182 22.595900 -21.252580 44.549513 0.615188 2.068097 0.087977 -0.003248 -146722.000000 0 0 1
33.333882 22.540500 -21.591580 45.666379 0.594576 2.063275 0.103287 -0.013329 -148115.000000 0 0 1
33.907882 23.843900 -22.245380 47.043947 0.612868 2.063334 0.099481 -0.015311 130796.000000 0 0 1
33.363282 24.200500 -23.513380 47.451573 0.627546 2.089234 0.111907 -0.020439 1653940.000000 0 0 1
32.003382 24.733400 -23.531980 46.794354 0.657957 2.097725 0.091597 -0.016015 1261240.000000 0 0 1
31.390182 25.240000 -24.847680 47.326613 0.677220 2.123541 0.095077 -0.018066 -41972.600000 0 0 1
31.643982 26.596400 -25.151620 48.387127 0.698946 2.117413 0.118888 -0.023412 312867.000000 0 0 1
30.640382 27.139000 -26.015350 48.499039 0.724873 2.136973 0.103763 -0.019115 271417.000000 0 0 1
30.700682 26.722000 -27.514450 49.128832 0.716221 2.165239 0.103574 -0.016507 77452.700000 0 0 1
30.198482 25.420800 -27.754880 48.254520 0.699709 2.183617 0.087523 -0.023395 -83757.400000 0 0 1
29.958682 25.112000 -29.142490 48.758793 0.697616 2.211409 0.076880 -0.026489 -367568.000000 0 0 1
29.290982 23.721400 -29.191420 47.673949 0.680720 2.229780 0.066870 -0.030066 1109210.000000 0 0 1
27.910782 23.876900 -28.799480 46.674706 0.707662 2.235753 0.056197 -0.023821 1117700.000000 0 0 1
27.072182 22.736200 -29.077950 45.775157 0.698564 2.259108 0.057465 -0.029083 1841410.000000 0 0 1
25.634582 22.832600 -28.379910 44.540753 0.727651 2.261614 0.040406 -0.016715 1303630.000000 0 0 1
25.653182 22.731500 -26.927310 43.587692 0.725087 2.236704 0.037238 -0.007268 -960070.000000 0 0 1
24.403982 22.818000 -26.387690 42.573767 0.751825 2.239298 0.028842 -0.009169 -1282390.000000 0 0 1
24.551782 22.928200 -24.889780 41.809012 0.751216 2.208461 0.043347 -0.007496 -32247.000000 0 0 1
25.008082 21.750000 -24.246880 41.065531 0.715831 2.202405 0.041859 -0.010523 173880.000000 0 0 1
25.144382 21.977400 -22.893080 40.488753 0.718291 2.171737 0.059715 -0.010913 -197246.000000 0 0 1
25.636182 20.694700 -22.249780 39.755970 0.679144 2.164770 0.085086 -0.009058 547990.000000 0 0 1
26.891982 20.257800 -22.781080 40.651381 0.645611 2.165666 0.062824 -0.006552 326605.000000 0 0 1
27.139682 18.958800 -22.351980 39.945080 0.609761 2.164661 0.101185 -0.007512 35029.100000 0 0 1
28.400282 18.324300 -22.986980 40.874897 0.573004 2.168050 0.108679 -0.015857 -861356.000000 0 0 1
29.551282 18.705100 -22.348480 41.504380 0.564311 2.139406 0.115452 -0.026741 -929599.000000 0 0 1
30.676282 18.250100 -23.098380 42.516298 0.536680 2.145139 0.098456 -0.017929 621894.000000 0 0 1
31.846082 17.688400 -22.230880 42.676275 0.507006 2.118723 0.089506 -0.010799 241937.000000 0 0 1
32.529782 18.670200 -21.510980 43.237545 0.521039 2.091519 0.086136 -0.005737 -536270.000000 0 0 1
33.847582 18.288700 -21.215480 43.934405 0.495385 2.074748 0.078308 -0.003245 -134765.000000 0 0 1
34.407182 19.231500 -20.141980 44.265157 0.509680 2.043202 0.064344 -0.011308 -261838.000000 0 0 1
33.728782 19.142100 -18.911380 43.147317 0.516202 2.024500 0.061729 -0.008511 222120.000000 0 0 1
34.151082 20.251000 -18.127780 43.646487 0.535244 1.999104 0.045023 -0.007854 23477.800000 0 0 1
33.715582 20.226600 -16.645380 42.695720 0.540360 1.971277 0.058708 -0.015761 -19420.700000 0 0 1
34.294682 19.202200 -15.845780 42.378514 0.510426 1.954018 0.053393 -0.021282 294989.000000 0 0 1
33.717282 19.150400 -14.553880 41.417488 0.516535 1.929857 0.066873 -0.025111 90097.500000 0 0 1
34.390582 17.955800 -13.818280 41.183343 0.481182 1.912965 0.058391 -0.021136 1040360.000000 0 0 1
35.823682 18.032300 -13.634480 42.360348 0.466334 1.898499 0.041846 -0.023066 1084550.000000 0 0 1
36.277282 16.959700 -12.830080 42.050964 0.437313 1.880848 0.040452 -0.022489 -18669.500000 0 0 1
36.184682 17.295600 -11.266980 41.658298 0.445878 1.844669 0.068778 -0.028428 -532901.000000 0 0 1
37.014382 18.390900 -10.934680 42.753443 0.461131 1.829432 0.054807 -0.025957 207638.000000 0 0 1
36.615382 19.065700 -9.701680 42.406482 0.480072 1.801619 0.063442 -0.022857 -32626.900000 0 0 1
35.445982 20.061800 -9.917280 41.919517 0.515031 1.809640 0.067484 -0.023890 47612.500000 0 0 1
34.197082 19.405300 -10.001180 40.571291 0.516145 1.819873 0.094686 -0.039420 -406120.000000 0 0 1
33.157482 20.355100 -9.845880 40.133403 0.550571 1.818655 0.071370 -0.022705 -113526.000000 0 0 1
31.764282 19.711600 -9.917680 38.676571 0.555399 1.830119 0.065951 -0.018965 -374493.000000 0 0 1
31.378082 19.474300 -11.200880 38.591347 0.555453 1.865277 0.078029 -0.027620 -708292.000000 0 0 1
30.219082 18.706600 -11.255980 37.280382 0.554297 1.877510 0.084203 -0.028271 -460018.000000 0 0 1
29.977182 18.164900 -12.702780 37.282109 0.544789 1.918480 0.110729 -0.022936 -248482.000000 0 0 1
30.970482 17.256300 -13.103580 37.797545 0.508343 1.924824 0.104709 -0.026476 -80713.500000 0 0 1
30.522682 16.516900 -14.201080 37.498170 0.496012 1.959203 0.094356 -0.022596 -112690.000000 0 0 1
31.606682 15.713200 -14.937680 38.327813 0.461363 1.971140 0.092138 -0.027338 -121411.000000 0 0 1
32.174382 14.620600 -14.252280 38.106171 0.426521 1.954131 0.071565 -0.029502 1061970.000000 0 0 1
33.352782 14.058900 -14.875680 39.132424 0.398920 1.960741 0.066651 -0.024127 731918.000000 0 0 1
34.246182 13.164300 -14.021880 39.277384 0.366988 1.935847 0.061297 -0.035442 -320237.000000 0 0 1
34.952982 13.864000 -13.020080 39.792511 0.377613 1.904134 0.062061 -0.024876 194950.000000 0 0 1
35.702282 12.946300 -12.234680 39.899210 0.347872 1.882457 0.062295 -0.017472 -616279.000000 0 0 1
36.554482 13.517700 -11.145880 40.536268 0.354200 1.849345 0.068569 -0.013512 195554.000000 0 0 1
-36.265087 13.828400 -11.697580 40.536583 -0.364295 1.863528 0.034695 -0.011057 455446.000000 0 0 1
-35.433987 14.315000 -10.655880 39.674103 -0.383942 1.842720 0.027941 -0.012167 -1041000.000000 0 0 1
-34.068787 14.837600 -11.123080 38.788652 -0.410746 1.861641 0.039702 -0.019191 124094.000000 0 0 1
-33.169787 13.878900 -11.672980 37.803665 -0.396284 1.884705 0.053207 -0.013038 350453.000000 0 0 1
-32.677587 12.939400 -10.767680 36.758614 -0.377029 1.868086 0.082464 -0.008028 -480370.000000 0 0 1
-31.588887 11.950800 -11.339480 35.626720 -0.361681 1.894717 0.106802 -0.011340 313277.000000 0 0 1
-32.127287 10.956400 -12.183280 36.064353 -0.328662 1.915397 0.078547 -0.010832 -85614.100000 0 0 1
-31.415687 9.750200 -12.241080 35.097804 -0.300935 1.927055 0.120979 -0.022868 -569264.000000 0 0 1
-31.373287 9.051100 -13.624680 35.381315 -0.280870 1.966092 0.133938 -0.034620 -368319.000000 0 0 1
-32.552387 8.563600 -14.203780 36.534101 -0.257243 1.970105 0.092820 -0.023371 -172698.000000 0 0 1
-32.303787 7.526600 -15.124780 36.454675 -0.228910 1.998621 0.110942 -0.035933 144827.000000 0 0 1
-33.608887 7.023200 -15.782980 37.788690 -0.206004 2.001669 0.117687 -0.034095 861696.000000 0 0 1
-34.540787 6.277500 -14.945880 38.155633 -0.179779 1.973284 0.123162 -0.032869 905365.000000 0 0 1
-35.418287 5.443100 -15.681680 39.115182 -0.152487 1.983307 0.083595 -0.038138 -43343.500000 0 0 1
-36.404987 4.756300 -14.689980 39.544165 -0.129914 1.951402 0.085967 -0.035271 290041.000000 0 0 1
36.583582 4.305700 -15.466480 39.951339 0.117156 1.968316 0.085977 -0.030431 576430.000000 0 0 1
35.474982 4.091600 -14.601280 38.579955 0.114830 1.958937 0.107473 -0.032934 -56454.100000 0 0 1
34.524282 2.994100 -15.054580 37.782682 0.086508 1.980625 0.113074 -0.035325 -400909.000000 0 0 1
35.208482 1.719800 -15.087180 38.343421 0.048807 1.975205 0.115455 -0.035542 191477.000000 0 0 1
34.414082 0.584000 -14.931380 37.518211 0.016968 1.980107 0.099995 -0.027272 -337416.000000 0 0 1
34.022882 0.240000 -13.497980 36.603409 0.007054 1.948474 0.133133 -0.037726 -526122.000000 0 0 1
35.027282 -0.338100 -12.726780 37.269233 -0.009652 1.919290 0.151437 -0.035288 -193508.000000 0 0 1
34.854082 -0.230700 -11.318880 36.646654 -0.006619 1.884796 0.163210 -0.029310 -75423.600000 0 0 1
35.131082 1.076200 -10.612280 36.714733 0.030624 1.864027 0.157550 -0.035095 -125692.000000 0 0 1
34.135982 1.967800 -11.074680 35.941425 0.057582 1.884025 0.141349 -0.028034 484827.000000 0 0 1
34.248182 3.329200 -10.568980 35.996178 0.096904 1.868802 0.144290 -0.027073 167270.000000 0 0 1
32.997182 4.209700 -10.906580 35.006986 0.126892 1.887625 0.125130 -0.024210 166160.000000 0 0 1
32.958282 4.614600 -12.275180 35.471438 0.139109 1.924163 0.121614 -0.026991 977754.000000 0 0 1
31.714082 5.228300 -12.653880 34.543289 0.163388 1.945847 0.112102 -0.025792 603177.000000 0 0 1
31.836682 5.947100 -13.985680 35.278060 0.184672 1.978434 0.069766 -0.019139 -394899.000000 0 0 1
32.061182 5.016900 -15.041680 35.767874 0.155220 2.004832 0.064295 -0.016760 19570.600000 0 0 1
32.456582 5.694200 -16.209980 36.723522 0.173673 2.027961 0.049752 -0.011299 -1515100.000000 0 0 1
31.470282 6.658100 -16.876680 36.325353 0.208493 2.053977 0.056773 -0.009847 -216632.000000 0 0 1
30.327882 6.102600 -17.486380 35.535836 0.198569 2.085271 0.050620 -0.005191 267661.000000 0 0 1
29.334682 5.705700 -16.542880 34.157656 0.192105 2.076370 0.056005 -0.000396 -744669.000000 0 0 1
27.929782 5.606800 -17.212880 33.283512 0.198113 2.114325 0.054512 0.007430 157882.000000 0 0 1
27.821982 4.624000 -18.175480 33.552826 0.164694 2.143252 0.058095 0.001781 290018.000000 0 0 1
26.708482 4.899200 -19.015480 33.150168 0.181416 2.181710 0.058134 -0.000467 183742.000000 0 0 1
26.396382 3.664500 -19.894680 33.256516 0.137944 2.212073 0.053188 0.007438 188787.000000 0 0 1
25.534582 2.789300 -19.148280 32.038285 0.108805 2.211386 0.065194 -0.004907 512567.000000 0 0 1
24.969282 1.773600 -19.934280 31.999785 0.070912 2.243305 0.071528 -0.009527 -751209.000000 0 0 1
23.885482 0.887200 -19.366480 30.763028 0.037127 2.251754 0.075929 -0.019441 44387.100000 0 0 1
22.748682 1.716100 -19.061580 29.728629 0.075295 2.266839 0.076930 -0.027200 861291.000000 0 0 1
21.695582 0.942200 -18.476480 28.512564 0.043401 2.275768 0.079061 -0.028197 487652.000000 0 0 1
20.310682 1.608300 -18.270380 27.366352 0.079020 2.301807 0.069205 -0.034127 -408024.000000 0 0 1
19.574282 1.513400 -19.500480 27.671495 0.077162 2.352816 0.060005 -0.031497 490089.000000 0 0 1
18.365382 2.253200 -19.471480 26.860802 0.122077 2.381690 0.042566 -0.027502 1088220.000000 0 0 1
17.133282 1.648100 -18.684080 25.403945 0.095898 2.397170 0.051933 -0.030694 -267207.000000 0 0 1
17.235582 1.748700 -17.268580 24.460726 0.101113 2.354591 0.049602 -0.036191 660182.000000 0 1 0
15.958682 1.618500 -16.634780 23.108764 0.101073 2.374379 0.023140 -0.025303 420184.000000 0 1 0
15.282682 2.974900 -16.374480 22.594999 0.192254 2.381388 0.041572 -0.026826 -191769.000000 0 1 0
14.681582 3.530100 -17.523580 23.131933 0.235965 2.430347 0.041026 -0.015454 351111.000000 0 1 0
13.646782 4.452400 -17.260080 22.449251 0.315371 2.447835 0.043726 -0.022171 -7258.000000 0 1 0
-20.191018 -22.006700 -17.054680 34.392357 0.828400 2.089651 0.107156 -0.020728 -18269.000000 0 0 1
-19.958918 -22.252000 -18.427080 35.115057 0.839669 2.123233 0.110491 -0.026400 -69848.300000 0 0 1
-21.087118 -22.010900 -19.227880 36.039668 0.806829 2.133553 0.118599 -0.024764 -538961.000000 0 0 1
-20.875318 -22.703200 -20.600280 37.088890 0.827318 2.159676 0.098761 -0.019050 84542.400000 0 0 1
-21.027218 -24.063900 -20.431080 37.929464 0.852642 2.139642 0.090258 -0.019442 169507.000000 0 0 1
-20.521118 -24.704000 -21.575980 38.690139 0.877626 2.162362 0.081751 -0.021034 3016.310000 0 0 1
-20.449318 -26.177170 -21.312980 39.467227 0.907631 2.141254 0.083367 -0.010309 393224.000000 0 0 1
-21.717018 -26.839350 -21.299880 40.566791 0.890502 2.123578 0.082235 -0.004620 476218.000000 0 0 1
-21.565618 -28.240610 -21.143680 41.348073 0.918624 2.107561 0.120077 -0.013896 1176570.000000 0 0 1
-23.004418 -28.833070 -21.467680 42.677986 0.897369 2.097880 0.099492 -0.003198 1214520.000000 0 0 1
-23.449018 -28.676810 -22.825680 43.511235 0.885356 2.123033 0.065779 0.002822 21400.100000 0 0 1
-22.855718 -29.585190 -23.714680 44.272490 0.913026 2.136077 0.063209 0.002303 -308847.000000 0 0 1
-23.087618 -29.239490 -25.174530 44.963795 0.902427 2.165043 0.052503 0.006427 1291570.000000 0 0 1
-24.471018 -29.449450 -25.575670 46.045801 0.877466 2.159688 0.038422 0.008746 1412100.000000 0 0 1
-24.950818 -28.625320 -26.603180 46.364658 0.853876 2.181912 0.041302 0.006640 -148613.000000 0 0 1
-24.428118 -29.006300 -28.002100 47.140386 0.870868 2.206837 0.048850 -0.007022 -319105.000000 0 0 1
-25.181038 -29.968400 -28.701790 48.538464 0.871988 2.203492 0.029531 0.006403 55292.500000 0 0 1
-24.620918 -30.134620 -29.979740 49.123007 0.885757 2.227235 0.059433 0.003589 97132.200000 0 0 1
-25.272888 -31.286970 -30.739300 50.621122 0.891331 2.223382 0.030441 0.003114 885.178000 0 0 1
-24.786518 -32.592210 -30.326890 50.954332 0.920606 2.208283 0.025059 0.004457 139305.000000 0 0 1
-25.607538 -33.595070 -30.854350 52.310283 0.919507 2.201649 0.027940 0.001634 -73101.300000 0 0 1
-24.993618 33.079710 -30.622190 51.542863 -0.923748 2.206957 0.033875 -0.003431 260361.000000 0 0 1
-24.091018 32.636579 -31.624030 51.435423 -0.934916 2.232966 0.040230 -0.014844 -129688.000000 0 0 1
-23.884618 31.269674 -31.378560 50.327742 -0.918505 2.243988 0.053259 -0.008413 -1049150.000000 0 0 1
-22.766818 30.654684 -32.141600 49.911123 -0.931992 2.270481 0.051615 -0.002583 -1041880.000000 0 0 1
-22.781018 30.647804 -33.560180 50.838454 -0.931586 2.291793 0.049127 0.005291 14178.000000 0 0 1
-21.868418 29.661464 33.927607 50.091044 -0.935494 0.826684 0.046643 0.008825 7146.810000 0 0 1
-21.843718 29.487924 32.409253 48.959631 -0.933230 0.847367 0.049378 0.004390 35966.700000 0 0 1
-21.261818 30.567074 31.676077 48.885426 -0.963044 0.865886 0.048761 -0.001915 316981.000000 0 0 1
-21.374118 30.332374 30.312837 47.914236 -0.956947 0.885829 0.066009 -0.005388 -95902.000000 0 0 1
-20.897318 31.607614 29.596547 48.080088 -0.986624 0.907690 0.076048 -0.022607 -497999.000000 0 0 1
-21.821818 32.614140 29.778217 49.260696 -0.981117 0.921655 0.062161 -0.011962 -604102.000000 0 0 1
-21.365518 33.896958 29.379917 49.685699 -1.008389 0.938107 0.082048 -0.029739 103341.000000 0 0 1
-22.469418 -33.073090 29.207047 49.515207 0.974039 0.939911 0.094452 -0.034242 243558.000000 0 0 1
-22.849718 -32.579930 30.488437 50.130892 0.959169 0.917035 0.079729 -0.024744 -266775.000000 0 0 1
-23.905118 -31.656620 30.593937 50.095761 0.924015 0.913841 0.075920 -0.023371 -112887.000000 0 0 1
-23.702718 -30.259630 29.915397 48.707238 0.906314 0.909440 0.103492 -0.023728 -275476.000000 0 0 1
-23.625118 -30.308220 28.510387 47.849521 0.908684 0.932492 0.073395 -0.017417 -187590.000000 0 0 1
-23.594618 -29.038030 27.897167 46.670817 0.888454 0.930113 0.089456 -0.030159 -963981.000000 0 0 1
-24.884618 -28.496570 27.332547 46.672978 0.852959 0.945154 0.082920 -0.016343 -1458090.000000 0 0 1
-25.861688 -28.193190 28.323057 47.601245 0.828504 0.933522 0.099580 -0.013965 907643.000000 0 0 1
-26.988258 -29.091220 28.349517 48.768436 0.822880 0.950460 0.072826 -0.009640 908796.000000 0 0 1
-27.931218 -29.302500 27.092397 48.711266 0.809353 0.981010 0.054428 -0.004152 -910840.000000 0 0 1
-27.235838 -29.811930 25.978167 48.014657 0.830524 0.999115 0.049714 0.003449 -520644.000000 0 0 1
-27.939658 -29.998790 24.773077 47.898406 0.820923 1.027220 0.042048 0.004043 -832182.000000 0 0 1
-27.123948 -30.110310 23.485057 46.838950 0.837529 1.045580 0.052336 0.002213 -966353.000000 0 0 1
-26.474868 -28.919320 23.138607 45.526266 0.829498 1.037648 0.045654 -0.006199 226336.000000 0 0 1
-25.670928 -28.881300 21.993367 44.461604 0.844180 1.053353 0.078637 -0.008393 396657.000000 0 0 1
-24.393718 -29.784050 21.963867 44.323297 0.884565 1.052342 0.085010 -0.013171 -448055.000000 0 0 1
-24.593918 -31.156240 21.750667 45.262166 0.902568 1.069516 0.092114 -0.023020 964488.000000 0 0 1
-23.344418 -31.856660 21.527467 44.980446 0.938397 1.071741 0.088149 -0.008741 1098650.000000 0 0 1
-22.627118 -32.488160 22.771267 45.672723 0.962442 1.048842 0.097175 -0.012942 -187657.000000 0 0 1
-21.864718 -31.525560 23.406907 44.942298 0.964409 1.022984 0.105307 -0.021964 -255920.000000 0 0 1
-21.537718 -32.038670 24.696577 45.828710 0.978944 1.001679 0.110340 -0.034718 -375578.000000 0 0 1
-20.756418 -31.058660 25.558247 45.262493 0.981666 0.970766 0.118417 -0.019297 -757042.000000 0 0 1
-19.487718 -30.852360 24.959737 44.211173 1.007433 0.970900 0.124014 -0.023049 -117268.000000 0 0 1
-18.559018 -30.216360 25.782137 43.842721 1.019998 0.942139 0.135171 -0.021368 -483873.000000 0 0 1
-17.793918 -31.184840 26.668147 44.724802 1.052279 0.931947 0.126565 -0.035180 -934458.000000 0 0 1
-18.549218 -31.766090 27.738127 46.071268 1.042276 0.924705 0.126313 -0.032267 87869.500000 0 0 1
-17.756118 -32.543970 28.567817 46.802884 1.071334 0.914249 0.141408 -0.032934 -424640.000000 0 0 1
-17.884718 -32.109850 30.043987 47.471537 1.062606 0.885524 0.159606 -0.032848 -118741.000000 0 0 1
-17.382318 -30.807590 30.229727 46.530517 1.057100 0.863639 0.164411 -0.032348 39341.600000 0 0 1
-17.736018 -30.201300 31.458347 47.077728 1.039797 0.838981 0.156468 -0.023738 -30498.500000 0 0 1
-17.407418 -28.695930 31.569087 46.076913 1.025526 0.816002 0.154389 -0.032340 -540108.000000 0 0 1
-18.246418 -27.824410 30.930547 45.429378 0.990375 0.821875 0.172134 -0.032998 -547099.000000 0 0 1
-18.397518 -27.840980 29.485367 44.530616 0.986861 0.847129 0.162413 -0.028902 251480.000000 0 0 1
-17.110618 -27.568740 28.630307 43.272430 1.015329 0.847807 0.136616 -0.021178 352636.000000 0 0 1
-16.601518 -26.265650 28.819537 42.379954 1.007135 0.822996 0.119149 -0.015050 16185.800000 0 0 1
-15.555818 -26.058640 27.895137 41.221049 1.032619 0.827497 0.096578 -0.016455 -153652.000000 0 0 1
-15.680618 -24.650600 27.232427 39.939191 1.004244 0.820511 0.091755 -0.011078 231830.000000 0 0 1
-16.828018 -24.441700 26.412607 39.726625 0.967833 0.843491 0.105984 -0.020046 256194.000000 0 0 1
-16.618618 -23.392900 25.481307 38.375816 0.953116 0.844649 0.086489 -0.015017 133905.000000 0 0 1
-17.117518 -21.962200 26.000247 38.096726 0.908738 0.819646 0.089039 -0.015868 -434802.000000 0 0 1
-17.051818 -20.987500 25.029067 36.846898 0.888495 0.824026 0.076384 -0.015866 325745.000000 0 0 1
-17.624318 -19.713900 25.455907 36.705009 0.841303 0.804423 0.082375 -0.017448 141564.000000 0 0 1
-17.295518 -18.602100 24.427307 35.240125 0.821780 0.804922 0.068842 -0.022814 -692036.000000 0 0 1
-15.965418 -18.222500 24.510707 34.463443 0.851322 0.779580 0.070697 -0.021815 -937369.000000 0 0 1
-15.661418 -17.251800 23.510817 33.100803 0.833681 0.780901 0.069349 -0.015948 561939.000000 0 0 1
-14.247918 -16.604300 23.696767 32.252794 0.861627 0.745543 0.054062 -0.013429 -46450.300000 0 0 1
-13.190118 -17.470400 23.340087 31.999278 0.924104 0.753360 0.027402 -0.009903 23321.300000 0 0 1
-11.933018 -16.854400 23.573717 31.339877 0.954717 0.719409 0.027332 -0.009476 129769.000000 0 0 1
-11.459018 -15.819200 22.450567 29.758766 0.943899 0.716028 0.035072 -0.014065 -448813.000000 0 0 1
-11.040318 -16.353700 21.182867 28.949024 0.976981 0.749940 0.068372 -0.013006 1509920.000000 0 0 1
-9.739718 -17.030200 21.236967 28.911911 1.051288 0.745807 0.063224 -0.014492 1003540.000000 0 0 1
-9.539218 -18.200200 20.197867 28.813154 1.088034 0.794005 0.060140 -0.016011 -283685.000000 0 0 1
-9.289218 -17.784200 18.887267 27.555330 1.089445 0.815601 0.057273 -0.018784 -55365.000000 0 0 1
-8.793618 -18.982900 18.237767 27.754178 1.136988 0.853807 0.055769 -0.019701 368758.000000 0 0 1
-8.318318 -18.752000 16.765367 26.493574 1.153280 0.885621 0.051106 -0.026051 -310648.000000 0 0 1
-7.293618 -17.841600 16.622167 25.452230 1.182728 0.859161 0.062352 -0.030293 -1000070.000000 0 0 1
-6.928018 -17.697100 15.285867 24.389394 1.197658 0.893431 0.074095 -0.033318 -142431.000000 0 1 0
-5.873118 -16.598000 15.276467 23.310032 1.230700 0.856137 0.058544 -0.029803 -351085.000000 0 1 0
-6.369318 -15.407100 15.828367 22.988784 1.178791 0.811342 0.058315 -0.031185 -262690.000000 0 1 0
-5.395418 -14.389900 15.934567 22.137981 1.212074 0.767305 0.041010 -0.018990 -202256.000000 0 1 0
-5.808118 -13.220700 16.912667 22.238693 1.156859 0.706704 0.028858 -0.011313 53281.500000 0 1 0
-5.694618 -13.481900 18.303567 23.435249 1.171139 0.674487 0.045166 -0.010323 260926.000000 0 1 0
-6.617418 -14.442500 18.855467 24.655723 1.141152 0.700143 0.068427 -0.020413 742417.000000 0 1 0
-7.927318 -13.900200 19.497967 25.223574 1.052500 0.687231 0.069482 -0.023303 435713.000000 0 0 1
-7.686318 -12.954200 20.502567 25.441031 1.035284 0.633626 0.062806 -0.022488 -87648.600000 0 0 1
-8.891818 -12.663100 21.157467 26.211772 0.958607 0.631447 0.066179 -0.015356 244062.000000 0 0 1
-8.473218 -11.629300 22.190267 26.447004 0.941126 0.575268 0.083930 -0.018371 -326820.000000 0 0 1
-8.114018 -10.326200 21.671167 25.339834 0.904793 0.544819 0.077589 -0.023250 265865.000000 0 0 1
-7.513018 -9.494400 22.640567 25.674586 0.901376 0.491072 0.076566 -0.029902 -95245.500000 0 0 1
-6.088818 -9.831400 23.111077 25.842833 1.016289 0.463947 0.097117 -0.031993 -432010.000000 0 0 1
-6.020018 -10.852400 24.054527 27.067240 1.064338 0.476305 0.099675 -0.026949 -434669.000000 0 0 1
-4.697418 -11.315400 24.067387 27.006354 1.177311 0.470868 0.100262 -0.028814 -368324.000000 0 0 1
-4.549518 -12.496800 25.085757 28.393016 1.221656 0.487475 0.100453 -0.031670 -637245.000000 0 0 1
-3.216418 -12.869000 25.352837 28.613334 1.325878 0.482043 0.089912 -0.034362 -50787.400000 0 0 1
-3.076618 -13.859100 26.384057 29.960953 1.352346 0.493638 0.082765 -0.033475 -108377.000000 0 0 1
-3.057418 -15.310200 25.939857 30.275836 1.373691 0.541795 0.088715 -0.046960 534239.000000 0 0 1
-1.822618 -15.806300 25.399557 29.971630 1.455994 0.559627 0.080089 -0.047282 509615.000000 0 0 1
-1.939418 -17.178700 24.982547 30.380862 1.458376 0.605334 0.083754 -0.046504 -1399540.000000 0 0 1
-0.645918 -17.880500 24.566407 30.391411 1.534688 0.629480 0.081813 -0.047773 -40872.200000 0 0 1
0.179782 -18.314400 25.633237 31.504165 -1.560980 0.620400 0.086505 -0.048357 71991.400000 0 0 1
0.808882 -17.287200 26.370367 31.542002 -1.524040 0.580771 0.087132 -0.043841 -1071540.000000 0 0 1
1.257682 -17.572000 27.791347 32.904649 -1.499345 0.564974 0.074392 -0.031124 599685.000000 0 0 1
2.370882 -18.523800 27.691947 33.400542 -1.443497 0.593324 0.078922 -0.039997 1042970.000000 0 0 1
3.117182 -18.683100 28.886567 34.542855 -1.405474 0.580382 0.077926 -0.039207 638520.000000 0 0 1
4.149282 -17.578200 29.282787 34.404815 -1.338992 0.552672 0.094614 -0.036456 95914.100000 0 0 1
3.475782 -16.361200 29.660587 34.051731 -1.361468 0.513471 0.083473 -0.037457 752218.000000 0 0 1
4.400882 -15.434200 30.247597 34.241779 -1.293029 0.487827 0.102665 -0.047337 611792.000000 0 0 1
3.546382 -14.322700 30.924837 34.264590 -1.328072 0.445186 0.110980 -0.045239 455481.000000 0 0 1
2.826382 -14.871200 32.008807 35.407694 -1.382979 0.441745 0.100597 -0.046386 77978.400000 0 0 1
1.893082 -13.922400 32.522906 35.428187 -1.435651 0.407801 0.095058 -0.034619 123808.000000 0 0 1
1.088282 -14.376200 33.762226 36.711680 -1.495240 0.403585 0.072510 -0.024963 637829.000000 0 0 1
1.934682 -14.673500 -33.024190 36.189111 -1.439704 2.720261 0.092034 -0.028589 178694.000000 0 0 1
1.202082 -15.247600 -31.955780 35.427478 -1.492122 2.695189 0.074494 -0.030907 225422.000000 0 0 1
2.000982 -15.511800 -30.667450 34.425461 -1.442507 2.669979 0.080709 -0.028385 57611.700000 0 0 1
1.176082 -16.051300 -29.662660 33.747605 -1.497657 2.644465 0.061299 -0.025729 -342509.000000 0 0 1
1.817382 -16.114700 -28.427410 32.727727 -1.458493 2.623173 0.064561 -0.030907 -2389.850000 0 0 1
1.368082 -17.303200 -27.516630 32.533634 -1.491895 2.578841 0.067507 -0.039267 36291.200000 0 0 1
2.025282 -18.457600 -28.000250 33.597601 -1.461507 2.556028 0.060004 -0.030241 203295.000000 0 0 1
1.886182 -19.494000 -27.071560 33.413217 -1.474340 2.515298 0.059001 -0.032556 -818957.000000 0 0 1
2.827482 -20.659300 -27.452910 34.474101 -1.434779 2.492007 0.045311 -0.022313 747661.000000 0 0 1
4.202582 -20.575400 -27.064160 34.256059 -1.369315 2.481695 0.039568 -0.020817 606704.000000 0 0 1
4.422982 -20.576500 -25.675490 33.199186 -1.359065 2.454947 0.055949 -0.025723 -862928.000000 0 0 1
5.635082 -21.447000 -25.265650 33.616678 -1.313859 2.421252 0.039262 -0.025802 -154583.000000 0 0 1
5.339282 -22.793200 -25.378720 34.527052 -1.340696 2.396520 0.055560 -0.020116 287375.000000 0 0 1
5.563282 -23.382400 -26.663130 35.897204 -1.337213 2.407985 0.034675 -0.015136 -297489.000000 0 0 1
5.210182 -24.881900 -26.713850 36.876615 -1.364382 2.380977 0.035119 -0.004353 566360.000000 0 0 1
6.069082 -25.821110 -26.012770 37.151416 -1.339943 2.346449 0.042702 -0.000723 162004.000000 0 0 1
5.486282 -27.124250 -26.156580 38.078746 -1.371224 2.328022 0.047507 -0.002013 357120.000000 0 0 1
6.112882 -28.139600 -25.157740 38.237630 -1.356886 2.288865 0.060098 0.000933 -1402260.000000 0 0 1
7.386882 -28.449660 -25.498530 38.911749 -1.316759 2.285365 0.066478 -0.008399 -1766330.000000 0 0 1
7.865582 -29.679100 -24.973580 39.577722 -1.311731 2.253639 0.064663 -0.004605 -678774.000000 0 0 1
9.278182 -29.973270 -25.432330 40.389169 -1.270603 2.251940 0.085316 -0.010760 -747482.000000 0 0 1
9.449382 -30.086820 -26.833130 41.406816 -1.266481 2.275800 0.084678 -0.011258 -545683.000000 0 0 1
10.721182 -30.542280 -27.175090 42.264171 -1.233206 2.269181 0.095915 -0.019887 -448340.000000 0 0 1
10.977182 -30.566670 -28.696300 43.339330 -1.226018 2.294455 0.104859 -0.020845 98629.400000 0 0 1
10.094382 -31.434110 -29.386390 44.199092 -1.260070 2.298108 0.098903 -0.027770 161160.000000 0 0 1
10.115382 -31.196260 -30.753240 44.958752 -1.257243 2.324073 0.103060 -0.023621 28091.000000 0 0 1
-35.202246 -4.566100 -5.467380 35.915730 0.128990 1.723618 0.217052 -0.053586 -61164.300000 0 0 1
-34.958183 -4.010100 -4.202980 35.437558 0.114212 1.689679 0.195379 -0.055924 38425.500000 0 0 1
-34.055928 -2.937000 -4.260080 34.446778 0.086028 1.694785 0.191059 -0.054425 -396373.000000 0 0 1
-34.486199 -1.565000 -4.862580 34.862471 0.045349 1.710732 0.231762 -0.042964 -819582.000000 0 0 1
-35.334288 -0.917600 -3.968380 35.568272 0.025963 1.682600 0.190890 -0.038443 -162097.000000 0 0 1
-36.168708 -0.035200 -4.691680 36.471750 0.000973 1.699793 0.175551 -0.042747 -239559.000000 0 0 1
36.754580 0.458900 -3.867480 36.960346 0.012485 1.675627 0.179456 -0.042665 -395483.000000 0 0 1
-36.951338 1.433200 -2.958080 37.097247 -0.038767 1.650620 0.178944 -0.032794 -568311.000000 0 0 1
36.126000 1.961400 -2.196580 36.245826 0.054240 1.631436 0.158515 -0.034139 -1009310.000000 0 0 1
36.606780 3.053700 -1.189380 36.753177 0.083226 1.603163 0.141608 -0.031229 553133.000000 0 0 1
-36.798078 4.205600 -1.723980 37.077726 -0.113795 1.617309 0.165835 -0.043430 110693.000000 0 0 1
-35.546981 3.931900 -2.282380 35.836531 -0.110164 1.634528 0.146875 -0.010585 -623157.000000 0 0 1
-34.613513 5.199200 -2.452080 35.087600 -0.149093 1.640738 0.130887 -0.014906 223203.000000 0 0 1
-34.105970 5.640100 -1.223080 34.590806 -0.163887 1.606162 0.141347 -0.022985 -54885.500000 0 0 1
-33.622798 6.929400 -1.315380 34.354612 -0.203247 1.609094 0.145759 -0.031637 13539.700000 0 0 1
-32.799238 7.421000 -0.087480 33.628395 -0.222509 1.573398 0.154679 -0.034365 -1135170.000000 0 0 1
-31.493348 6.965000 0.037020 32.254358 -0.217654 1.569649 0.173307 -0.031481 46368.400000 0 0 1
-30.779028 7.433900 1.226020 31.687767 -0.236986 1.532096 0.173396 -0.052060 566492.000000 0 0 1
-30.519938 8.996000 1.268620 31.843430 -0.286641 1.530946 0.162363 -0.047779 -1611010.000000 0 0 1
-31.680688 9.713500 1.416720 33.166628 -0.297507 1.528068 0.169835 -0.047273 -869620.000000 0 0 1
-31.480858 11.126400 1.404020 33.418745 -0.339731 1.528771 0.158866 -0.030124 1071820.000000 0 0 1
-32.896458 11.841000 1.418120 34.991389 -0.345509 1.530258 0.155581 -0.035614 326690.000000 0 0 1
-33.609868 11.716500 0.197420 35.594081 -0.335430 1.565250 0.142223 -0.028582 203567.000000 0 0 1
-34.800785 12.483800 0.208020 36.972736 -0.344424 1.565170 0.139849 -0.021307 233799.000000 0 0 1
-36.021357 11.768000 0.834020 37.904084 -0.315764 1.548791 0.161837 -0.031278 -518065.000000 0 0 1
-36.538048 10.780800 -0.046280 38.095364 -0.286916 1.572011 0.153167 -0.020705 -467850.000000 0 0 1
36.300910 10.320600 0.293620 37.740655 0.276998 1.563016 0.158405 -0.031587 -123715.000000 0 0 1
35.858930 9.125300 -0.606780 37.006785 0.249189 1.587194 0.164968 -0.036205 318591.000000 0 0 1
35.388440 9.559600 -1.910980 36.706668 0.263836 1.622881 0.152832 -0.033930 198783.000000 0 0 1
34.980270 8.450200 -2.699880 36.087595 0.237029 1.645681 0.140786 -0.040015 14027.500000 0 0 1
34.486570 8.871100 -4.120680 35.846896 0.251775 1.686003 0.116380 -0.024530 -418379.000000 0 0 1
33.172160 9.328300 -4.107880 34.702796 0.274129 1.689448 0.133938 -0.030877 -403573.000000 0 0 1
32.700220 9.829700 -5.336680 34.560202 0.292008 1.725834 0.110971 -0.017402 427384.000000 0 0 1
31.241170 10.380000 -5.393580 33.359344 0.320779 1.733190 0.141030 -0.031270 167572.000000 0 0 1
30.229390 9.407800 -5.445580 32.124400 0.301713 1.741134 0.128992 -0.027750 -73527.900000 0 0 1
29.070250 10.075000 -5.901580 31.327523 0.333620 1.760312 0.152462 -0.020810 -367135.000000 0 0 1
27.855850 9.146000 -6.056280 29.937873 0.317244 1.774497 0.167720 -0.015179 -426310.000000 0 0 1
27.889950 8.292600 -7.143480 29.960738 0.289008 1.811543 0.151768 -0.021053 -576772.000000 0 0 1
26.752950 7.526500 -7.263580 28.725044 0.274245 1.826437 0.176305 -0.022568 -806841.000000 0 0 1
26.836450 6.474600 -8.389980 28.853202 0.236737 1.865840 0.161318 -0.026784 -10852.800000 0 0 1
27.786650 5.446700 -8.142880 29.463044 0.193564 1.850818 0.158424 -0.025424 580495.000000 0 0 1
27.522150 4.408700 -9.137480 29.332557 0.158838 1.887581 0.152138 -0.024742 -477168.000000 0 0 1
28.381150 3.152900 -9.056980 29.957626 0.110638 1.877929 0.144239 -0.016852 -1011570.000000 0 0 1
29.696270 3.363800 -9.470280 31.350755 0.112793 1.877665 0.160646 -0.009358 303074.000000 0 0 1
30.744500 3.057400 -8.538680 32.054345 0.099120 1.840433 0.119885 -0.022708 273837.000000 0 0 1
31.071350 1.554600 -8.271080 32.190936 0.049992 1.830649 0.126742 -0.023039 -112633.000000 0 0 1
30.027610 1.032000 -7.422180 30.948524 0.034355 1.812980 0.158594 -0.035928 887084.000000 0 0 1
30.300140 -0.234300 -6.814980 31.057967 -0.007732 1.792024 0.155405 -0.034102 -301078.000000 0 0 1
29.991500 -1.510800 -7.604480 30.977423 -0.050332 1.818816 0.143608 -0.031966 -159598.000000 0 0 1
30.835460 -1.729600 -8.707380 32.087935 -0.056033 1.845602 0.156492 -0.033294 392855.000000 0 0 1
30.600180 -3.048100 -9.123680 32.076525 -0.099283 1.859213 0.122899 -0.029122 -566035.000000 0 0 1
31.406790 -3.429300 -10.336980 33.241536 -0.108759 1.887005 0.126968 -0.033685 -1816430.000000 0 0 1
32.751290 -3.526500 -10.098080 34.453656 -0.107262 1.868255 0.174647 -0.032403 -1352490.000000 0 0 1
33.370310 -3.825000 -11.324380 35.446436 -0.114125 1.895976 0.140179 -0.041500 420059.000000 0 0 1
34.932070 -3.872400 -11.163480 36.876392 -0.110404 1.878349 0.168958 -0.038660 599285.000000 0 0 1
35.253480 -5.088900 -10.517080 37.139113 -0.143361 1.857905 0.151103 -0.042499 269497.000000 0 0 1
36.643690 -5.140800 -10.253980 38.397031 -0.139382 1.841128 0.163659 -0.031455 99018.200000 0 0 1
-37.049548 -6.427000 -9.481280 38.779763 0.171761 1.817790 0.161091 -0.046718 -170096.000000 0 0 1
36.674360 -6.408000 -8.137980 38.109026 -0.172981 1.785998 0.157890 -0.043430 345284.000000 0 0 1
36.571900 -7.762400 -7.672680 38.165806 -0.209147 1.773211 0.142295 -0.037685 -382924.000000 0 0 1
36.379870 -7.973500 -6.139780 37.746106 -0.215762 1.734182 0.163772 -0.038603 -802462.000000 0 0 1
-36.589068 -7.902900 -5.367680 37.815708 0.212723 1.713220 0.161279 -0.035351 -258791.000000 0 0 1
-36.895178 -8.243500 -4.018980 38.017913 0.219820 1.676707 0.163515 -0.033769 -378034.000000 0 0 1
-36.750768 -9.740400 -3.619180 38.191528 0.259083 1.665703 0.155290 -0.042823 542017.000000 0 0 1
36.468710 -10.632900 -4.332280 38.233415 -0.283698 1.684352 0.113677 -0.038058 898459.000000 0 0 1
-36.836988 -11.510300 -5.114180 38.930779 0.302854 1.702543 0.096469 -0.038044 172415.000000 0 0 1
36.594140 -11.994200 -6.406380 39.038873 -0.316729 1.735645 0.082911 -0.029109 -37900.200000 0 0 1
36.640510 -11.086400 -7.493780 39.007589 -0.293815 1.764109 0.106597 -0.031016 245038.000000 0 0 1
35.964860 -11.757600 -8.551180 38.792203 -0.315967 1.793057 0.094439 -0.031926 55816.900000 0 0 1
36.303990 -11.157300 -9.895380 39.247721 -0.298168 1.825673 0.073367 -0.035672 271716.000000 0 0 1
35.452720 -10.030000 -10.189080 38.227132 -0.275707 1.840598 0.079574 -0.039379 524826.000000 0 0 1
35.655600 -9.505500 -11.486480 38.647323 -0.260533 1.872569 0.090421 -0.039952 -479047.000000 0 0 1
34.687040 -8.426200 -11.955180 37.644627 -0.238305 1.893973 0.093095 -0.035936 -403677.000000 0 0 1
34.999730 -7.913200 -13.194780 38.232212 -0.222355 1.923165 0.102051 -0.030161 1074480.000000 0 0 1
33.865890 -7.158500 -13.647180 37.207367 -0.208312 1.946349 0.087792 -0.034340 449576.000000 0 0 1
34.096370 -6.567900 -15.047280 37.843367 -0.190297 1.979718 0.082054 -0.031705 2949.700000 0 0 1
35.048640 -5.499600 -15.120480 38.565291 -0.155644 1.973682 0.078882 -0.032281 697403.000000 0 0 1
34.489800 -4.181500 -15.180180 37.913970 -0.120650 1.982733 0.089769 -0.033700 -265040.000000 0 0 1
35.573940 -3.112600 -15.232280 38.822878 -0.087274 1.973985 0.107259 -0.033263 -313311.000000 0 0 1
36.406340 -3.190000 -16.376780 40.047430 -0.087399 1.992083 0.087263 -0.033602 1385870.000000 0 0 1
-36.328958 -2.741000 -16.247180 39.890816 0.075307 1.990283 0.135812 -0.035223 1426990.000000 0 0 1
-36.043577 -1.280700 -15.913580 39.421082 0.035517 1.986334 0.130933 -0.028288 -628709.000000 0 0 1
-36.444458 -0.347900 -16.895780 40.171967 0.009546 2.004888 0.102458 -0.024025 100388.000000 0 0 1
-35.816812 0.873400 -16.613580 39.491998 -0.024380 2.004993 0.107253 -0.026386 -128534.000000 0 0 1
-36.103148 2.068400 -17.479180 40.165126 -0.057229 2.021038 0.088268 -0.026344 -246372.000000 0 0 1
-35.400602 2.145000 -18.672580 40.080780 -0.060518 2.055418 0.084526 -0.021667 -72048.300000 0 0 1
-35.526508 3.430300 -19.221680 40.538534 -0.096258 2.064804 0.066032 -0.013259 45377.600000 0 0 1
-34.655060 3.592300 -20.495980 40.422309 -0.103290 2.102551 0.072804 -0.006052 317064.000000 0 0 1
-33.263918 3.808100 -20.345180 39.178007 -0.113985 2.116829 0.083589 -0.011514 280202.000000 0 0 1
-32.631218 3.989800 -21.564480 39.315922 -0.121666 2.151356 0.073008 -0.008782 -933665.000000 0 0 1
-31.266818 4.643900 -21.510180 38.234377 -0.147447 2.168309 0.098832 -0.014505 -278841.000000 0 0 1
-30.293838 3.679800 -21.109580 37.106225 -0.120878 2.175959 0.107186 -0.010121 66696.700000 0 0 1
-28.952718 4.064900 -21.260880 36.149804 -0.139486 2.199544 0.092735 -0.011969 229861.000000 0 0 1
-27.908888 3.114100 -20.591780 34.822767 -0.111121 2.203505 0.121079 -0.020733 223451.000000 0 0 1
-27.808258 3.195200 -19.188780 33.936968 -0.114399 2.171744 0.114333 -0.024432 448249.000000 0 0 1
-27.002898 2.122300 -18.600480 32.857854 -0.078434 2.172550 0.117235 -0.024290 782539.000000 0 0 1
-26.018178 2.528600 -17.461880 31.436550 -0.096882 2.159718 0.104352 -0.030939 907013.000000 0 0 1
-24.784318 3.199700 -17.726980 30.638968 -0.128392 2.187778 0.095929 -0.032163 759424.000000 0 0 1
-24.002818 3.349300 -16.553780 29.349289 -0.138643 2.170050 0.105758 -0.036516 -219312.000000 0 0 1
-22.793618 4.266700 -16.590380 28.513058 -0.185047 2.191800 0.098729 -0.040536 -728213.000000 0 0 1
-21.723918 3.828600 -17.374880 28.079766 -0.174448 2.237971 0.120351 -0.048145 -1659.230000 0 0 1
-20.658318 4.741500 -17.092180 27.228488 -0.225613 2.249432 0.112542 -0.051427 378355.000000 0 0 1
-19.225718 4.300200 -17.505280 26.354408 -0.220047 2.297254 0.140586 -0.050452 277529.000000 0 0 1
-18.679518 3.190000 -16.792580 25.319780 -0.169144 2.295909 0.156792 -0.049200 -15305.100000 0 0 1
-17.686518 2.511900 -17.509580 25.014156 -0.141080 2.346175 0.136846 -0.049661 -989005.000000 0 0 1
-17.759718 1.005800 -17.173380 24.725376 -0.056573 2.338611 0.147877 -0.045363 1275150.000000 0 1 0
-18.880718 0.214800 -17.681680 25.868310 -0.011376 2.323380 0.124023 -0.042190 1121910.000000 0 0 1
-20.181518 0.617800 -17.338380 26.613808 -0.030603 2.280331 0.130234 -0.046843 -667302.000000 0 0 1
-21.297718 -0.339300 -17.764280 27.735854 0.015930 2.265920 0.121372 -0.039604 -412791.000000 0 0 1
-21.305318 -1.442900 -16.951680 27.264593 0.067622 2.241768 0.127407 -0.045839 1077260.000000 0 0 1
-22.342118 -2.400500 -17.313680 28.367167 0.107032 2.227289 0.124560 -0.037153 727513.000000 0 0 1
-22.286518 -3.682600 -16.373180 27.898593 0.163759 2.197999 0.134535 -0.043243 56778.500000 0 0 1
-22.654918 -3.354300 -15.049780 27.404243 0.146993 2.152175 0.126878 -0.039554 15679.500000 0 0 1
-22.896418 -4.453000 -14.250080 27.333861 0.192087 2.119210 0.133174 -0.048767 -44393.400000 0 0 1
-23.246918 -3.917500 -12.813980 26.832147 0.166948 2.068673 0.127081 -0.046352 -820550.000000 0 0 1
-24.328518 -3.074500 -12.792180 27.658077 0.125708 2.051622 0.120626 -0.038369 -360955.000000 0 0 1
-24.670218 -2.691100 -11.456480 27.333361 0.108653 2.003293 0.139320 -0.043207 171721.000000 0 0 1
-25.565418 -1.414500 -11.205380 27.949096 0.055272 1.983318 0.155126 -0.045108 218545.000000 0 0 1
-25.708618 -1.103800 -9.833980 27.547388 0.042909 1.935834 0.142545 -0.046767 486371.000000 0 0 1
-26.391388 0.118400 -9.752980 28.136098 -0.004486 1.924779 0.142703 -0.044978 -300877.000000 0 0 1
-26.522318 0.627500 -8.306180 27.799636 -0.023655 1.874218 0.153488 -0.034812 -285627.000000 0 0 1
-25.259998 0.890600 -7.760780 26.440318 -0.035243 1.868704 0.138987 -0.028767 301398.000000 0 0 1
-25.449518 0.999500 -6.368580 26.253301 -0.039254 1.815823 0.141892 -0.034773 -233126.000000 0 0 1
-24.157718 1.299100 -5.598480 24.831955 -0.053724 1.798206 0.093444 -0.025377 -240125.000000 0 1 0
-23.911618 2.702700 -5.582780 24.702986 -0.112551 1.798762 0.125014 -0.025512 -454528.000000 0 1 0
-22.540018 2.901200 -5.521380 23.387070 -0.128009 1.809133 0.102704 -0.007818 -997025.000000 0 1 0
-22.203918 4.409900 -5.546980 23.307299 -0.196058 1.811096 0.106273 -0.012959 -355206.000000 0 1 0
-22.652018 5.135600 -4.424180 23.644485 -0.222948 1.759018 0.107745 -0.014375 566378.000000 0 1 0
-22.284218 6.479000 -4.575480 23.653728 -0.282943 1.765459 0.102707 -0.020085 -377486.000000 0 1 0
-22.920218 7.462500 -3.554480 24.365132 -0.314762 1.717203 0.123769 -0.016425 25990.500000 0 1 0
-22.246818 7.435700 -2.287180 23.567812 -0.322563 1.667996 0.106274 -0.012291 904918.000000 0 1 0
-20.930818 7.968800 -2.199180 22.504162 -0.363777 1.668676 0.114014 -0.011991 109255.000000 0 1 0
-20.663718 9.517100 -2.390780 22.875320 -0.431610 1.675501 0.118756 -0.010926 -395361.000000 0 1 0
-20.478318 9.874200 -3.770480 23.045127 -0.449289 1.735148 0.098582 -0.010524 522820.000000 0 1 0
-20.037118 11.218200 -3.896080 23.291921 -0.510390 1.738858 0.108289 -0.009041 -170513.000000 0 1 0
-19.915118 11.614500 -5.383180 23.674610 -0.527975 1.800185 0.106493 -0.014020 173673.000000 0 1 0
-18.736718 11.015100 -5.916580 22.525607 -0.531466 1.836574 0.069694 -0.010578 395737.000000 0 1 0
-18.586918 11.576400 -7.198380 23.050016 -0.557034 1.888403 0.068634 -0.010821 -96168.300000 0 1 0
-17.326618 11.115700 -7.949480 22.067277 -0.570404 1.939320 0.054320 -0.009421 -391115.000000 0 1 0
-17.250718 9.762900 -8.385380 21.522456 -0.515000 1.971005 0.051367 -0.008164 52626.600000 0 1 0
-18.053018 9.305100 -9.451780 22.401618 -0.475917 2.006363 0.067943 -0.005610 -361098.000000 0 1 0
-17.950918 10.031600 -10.784080 23.219924 -0.509601 2.053790 0.061834 -0.004400 1324100.000000 0 1 0
-16.693018 9.776500 -11.492480 22.501420 -0.529812 2.106847 0.054018 -0.013283 1511060.000000 0 1 0
-16.680718 10.475400 -12.729880 23.452723 -0.560750 2.144551 0.060611 -0.018725 22736.800000 0 1 0
-15.727818 9.868200 -13.756680 23.108265 -0.560349 2.208453 0.062113 -0.012597 -311544.000000 0 1 0
-16.216418 8.621200 -14.299880 23.276252 -0.488633 2.232365 0.093801 -0.031280 319762.000000 0 1 0
-15.629918 7.513700 -13.652380 22.071192 -0.448109 2.237706 0.065805 -0.020448 -105332.000000 0 1 0
-15.879118 6.110600 -14.331280 22.245706 -0.367352 2.270808 0.086891 -0.031144 29090.000000 0 1 0
-15.167818 6.039200 -15.556380 22.550734 -0.378918 2.332063 0.108914 -0.025606 379653.000000 0 1 0
-15.107318 4.717000 -16.070580 22.555370 -0.302641 2.363843 0.107210 -0.031557 56385.600000 0 1 0
33.181680 -15.562800 28.266337 46.284020 -0.438556 0.913833 0.051224 -0.002045 300298.000000 0 0 1
32.312350 -14.437000 28.456957 45.412701 -0.420186 0.893575 0.051528 -0.008757 428526.000000 0 0 1
31.291600 -14.444900 29.459247 45.339460 -0.432477 0.863543 0.063242 -0.014131 566543.000000 0 0 1
31.703700 -14.473100 30.975037 46.626689 -0.428256 0.844213 0.051631 -0.020564 312866.000000 0 0 1
32.499110 -13.363100 31.455127 47.161315 -0.390110 0.840663 0.030747 -0.024068 448647.000000 0 0 1
32.481700 -13.377600 32.860291 48.102180 -0.390680 0.818749 0.017125 -0.025975 -629768.000000 0 0 1
33.026660 -12.106300 33.523027 48.591318 -0.351352 0.809449 0.019176 -0.026471 -28331.200000 0 0 1
32.829150 -12.002700 -33.018450 48.083635 -0.350514 2.327719 0.011286 -0.034113 113690.000000 0 0 1
33.158740 -10.641500 -32.747750 47.803334 -0.310543 2.325471 0.039629 -0.037661 -293223.000000 0 0 1
32.539560 -10.184000 -31.411480 46.359658 -0.303316 2.315237 0.042491 -0.029756 576947.000000 0 0 1
31.114020 -10.273200 -31.446010 45.414452 -0.318909 2.335638 0.090262 -0.034246 453811.000000 0 0 1
30.591340 -9.637400 -30.271010 44.102649 -0.305194 2.327291 0.078170 -0.026858 943620.000000 0 0 1
29.117650 -10.145400 -29.995940 43.017707 -0.335274 2.342410 0.084744 -0.004585 890420.000000 0 0 1
28.725350 -9.917000 -28.680380 41.785845 -0.332424 2.327277 0.086143 -0.011100 244036.000000 0 0 1
27.869050 -10.963600 -28.226640 41.153708 -0.374801 2.326613 0.116389 -0.006126 -608076.000000 0 0 1
27.400750 -10.870400 -26.741510 39.800441 -0.377675 2.307554 0.104220 0.003034 8012.890000 0 0 1
26.461050 -9.816800 -26.436660 38.671097 -0.355251 2.323519 0.103627 -0.005523 1801720.000000 0 0 1
25.192850 -9.725300 -27.141470 38.287342 -0.368409 2.358718 0.102243 -0.008861 1043890.000000 0 0 1
24.210550 -10.928000 -27.116490 37.958872 -0.423996 2.366513 0.111380 0.008317 -533686.000000 0 0 1
24.715650 -12.092800 -27.788920 39.106563 -0.455033 2.361140 0.100534 -0.000830 150375.000000 0 0 1
23.876250 -13.229000 -27.593300 38.813297 -0.505959 2.361607 0.105200 -0.002953 240405.000000 0 0 1
24.541250 -14.489900 -28.170290 40.072377 -0.533353 2.350383 0.100138 -0.000604 102714.000000 0 0 1
24.557850 -14.220300 -29.567940 40.982533 -0.524875 2.376729 0.096066 -0.009630 -53375.000000 0 0 1
25.738550 -14.745500 -30.119260 42.273781 -0.520251 2.363824 0.089524 -0.001188 -97564.900000 0 0 1
25.859450 -14.682400 -31.694410 43.460553 -0.516389 2.388049 0.097951 -0.013500 -284684.000000 0 0 1
24.922150 -15.549000 -32.291520 43.653491 -0.557810 2.403456 0.105906 -0.013132 -153784.000000 0 0 1
24.889850 -15.695700 -33.701690 44.739955 -0.562621 2.423831 0.096098 -0.014645 25306.500000 0 0 1
24.862750 -14.530100 33.142567 43.905694 -0.528879 0.715359 0.081630 -0.030149 -709652.000000 0 0 1
23.752550 -13.737800 33.187650 43.061943 -0.524364 0.690864 0.101083 -0.024251 -1045740.000000 0 0 1
23.748050 -12.827100 32.079690 41.923871 -0.495236 0.699461 0.094848 -0.028744 -598925.000000 0 0 1
22.795450 -11.611900 32.149604 41.086078 -0.471136 0.672135 0.109230 -0.029908 -433529.000000 0 0 1
21.454250 -11.963800 32.324046 40.598785 -0.508692 0.649837 0.099049 -0.025382 -539020.000000 0 0 1
20.822450 -12.102300 31.074977 39.315319 -0.526492 0.659328 0.086061 -0.028994 -1694260.000000 0 0 1
19.336050 -12.301600 31.267427 38.766793 -0.566613 0.632501 0.086236 -0.024440 -1127310.000000 0 0 1
18.602750 -11.122000 31.411407 38.163303 -0.538851 0.603985 0.081584 -0.028403 -811379.000000 0 0 1
17.613850 -11.311000 32.368318 38.547302 -0.570848 0.574059 0.055769 -0.018170 -282759.000000 0 0 1
16.817550 -9.958600 32.556132 37.972430 -0.534631 0.540673 0.057678 -0.024068 -345622.000000 0 0 1
15.902550 -9.739800 31.468297 36.578799 -0.549537 0.534962 0.081365 -0.029677 372494.000000 0 0 1
15.027650 -8.629200 31.542197 35.988937 -0.521249 0.502375 0.080508 -0.030371 534976.000000 0 0 1
14.023650 -8.638400 32.733799 36.644049 -0.552093 0.466182 0.083800 -0.034667 -1686580.000000 0 0 1
13.262850 -9.817900 32.775765 36.695302 -0.637236 0.466413 0.082090 -0.026923 -186981.000000 0 0 1
12.107550 -9.751800 33.581084 37.005130 -0.678044 0.433572 0.081740 -0.030691 487761.000000 0 0 1
10.889850 -9.130900 32.815323 35.760419 -0.697767 0.408686 0.100401 -0.031533 -534185.000000 0 0 1
10.990550 -7.685100 32.838892 35.471761 -0.610220 0.387714 0.091322 -0.032762 198020.000000 0 0 1
9.974850 -7.004300 32.130778 34.364877 -0.612198 0.362569 0.095430 -0.025085 65256.500000 0 0 1
10.290650 -5.505200 32.161555 34.213599 -0.491232 0.348100 0.083758 -0.022847 131260.000000 0 0 1
10.282550 -4.869000 33.442183 35.324462 -0.442241 0.327919 0.080134 -0.028704 110325.000000 0 0 1
10.882550 -3.632300 33.281845 35.203760 -0.322146 0.331958 0.061515 -0.023646 -256768.000000 0 0 1
10.824850 -2.813500 -33.410460 35.232826 -0.254285 2.818558 0.063896 -0.034183 789329.000000 0 0 1
9.448650 -2.438600 -33.201690 34.606011 -0.252578 2.855734 0.059340 -0.014309 950948.000000 0 0 1
9.386150 -1.482400 -32.159990 33.534494 -0.156641 2.854292 0.056267 -0.013276 1213350.000000 0 0 1
7.887050 -1.100200 -31.816300 32.797759 -0.138600 2.896338 0.057007 -0.007827 1409560.000000 0 0 1
7.186850 -0.245700 -32.737270 33.517757 -0.034174 2.925367 0.051730 -0.010035 1014890.000000 0 0 1
5.761950 -0.284600 -32.560510 33.067626 -0.049353 2.966235 0.065312 -0.011564 1055180.000000 0 0 1
4.981650 0.729400 -33.451940 33.828703 0.145384 2.992206 0.088908 -0.019381 -36577.200000 0 0 1
5.400350 2.069100 -33.237070 33.736446 0.365890 2.969320 0.073247 -0.024374 30705.300000 0 0 1
4.939250 2.941600 33.643259 34.130897 0.537145 0.169242 0.084867 -0.027199 116480.000000 0 0 1
5.646750 4.326500 33.607530 34.352154 0.653784 0.208590 0.078569 -0.033639 88662.500000 0 0 1
5.200350 5.192800 32.607927 33.425825 0.784672 0.221673 0.102873 -0.044832 -509199.000000 0 0 1
6.097950 6.231700 32.474583 33.624658 0.796246 0.262298 0.102734 -0.045887 -334187.000000 0 0 1
5.556950 7.439000 31.647307 32.981366 0.929217 0.285393 0.128118 -0.049197 269610.000000 0 0 1
4.398250 8.038400 32.279186 33.554528 1.070140 0.276591 0.136457 -0.050113 857575.000000 0 0 1
3.962350 9.286100 31.701537 33.270397 1.167489 0.308319 0.152299 -0.051796 36219.500000 0 0 1
3.543150 9.226400 30.243807 31.817735 1.204139 0.315849 0.149258 -0.048025 498107.000000 0 0 1
2.300350 8.534100 29.943577 31.220831 1.307506 0.287027 0.135623 -0.047434 904660.000000 0 0 1
1.966250 8.542600 28.581887 29.895927 1.344567 0.297589 0.117007 -0.033110 630784.000000 0 0 1
0.633550 7.836500 28.156857 29.233897 1.490126 0.272289 0.127820 -0.032594 1077140.000000 0 0 1
-0.545650 8.541000 28.536047 29.791818 -1.506997 0.291380 0.129342 -0.028689 -24313.500000 0 0 1
-1.652150 8.312200 27.695857 28.963473 -1.374591 0.296948 0.113354 -0.023293 -644091.000000 0 0 1
-2.978150 8.567900 28.338447 29.754762 -1.236267 0.309781 0.093103 -0.019958 -1039100.000000 0 0 1
-3.323750 9.880900 28.626017 30.465199 -1.246305 0.349249 0.107394 -0.021432 138806.000000 0 0 1
-4.626150 10.003200 29.187117 31.198607 -1.137623 0.361050 0.081851 -0.013919 175333.000000 0 0 1
-4.961150 11.391900 29.923567 32.400745 -1.160067 0.393571 0.061357 -0.009340 -165855.000000 0 0 1
-5.075750 12.580700 29.113867 32.119379 -1.187315 0.436051 0.063203 -0.017184 274203.000000 0 0 1
-6.171250 12.648200 28.210427 31.526013 -1.116863 0.462746 0.060632 -0.018457 216162.000000 0 0 1
-6.454050 14.087100 27.801097 31.827695 -1.141183 0.508476 0.050112 -0.015268 15812.400000 0 0 1
-5.393850 14.507000 26.978487 31.102821 -1.214825 0.520849 0.053251 -0.009557 9956.200000 0 0 1
-5.574150 15.827500 26.539277 31.399270 -1.232180 0.563820 0.041389 -0.006229 396217.000000 0 0 1
-4.317150 16.438000 25.816447 30.908487 -1.313964 0.582201 0.071708 -0.013982 480533.000000 0 0 1
-4.042450 15.921200 24.547847 29.536805 -1.322147 0.589725 0.068636 -0.006821 -203623.000000 0 0 1
-3.097050 16.733300 23.896847 29.336911 -1.387784 0.618816 0.078500 -0.005880 -146775.000000 0 0 1
-2.972350 16.549000 22.364567 27.979960 -1.393082 0.644656 0.076553 -0.004440 252516.000000 0 0 1
-2.246150 15.375800 21.902467 26.854767 -1.425739 0.617049 0.086315 -0.011070 408443.000000 0 0 1
-2.480450 15.073100 20.519967 25.581635 -1.407697 0.639931 0.082041 -0.015165 -69614.000000 0 0 1
-1.566750 13.953100 20.022567 24.454998 -1.458978 0.611563 0.070008 -0.018211 -167884.000000 0 1 0
-1.971550 12.636900 20.398967 24.076879 -1.416029 0.560023 0.073408 -0.013375 -113908.000000 0 1 0
-1.116650 11.715400 19.850667 23.076969 -1.475769 0.535147 0.067674 -0.011303 -774320.000000 0 1 0
-1.883250 10.420700 19.634167 22.307805 -1.392004 0.494623 0.047813 -0.006250 -643808.000000 0 1 0
-2.198750 9.613700 20.767567 22.990206 -1.345953 0.443344 0.067734 -0.014182 647363.000000 0 1 0
-3.256550 10.073900 21.634567 24.086160 -1.258134 0.455103 0.089303 -0.013745 128416.000000 0 1 0
-4.662750 10.247000 21.051667 23.872891 -1.143763 0.491082 0.072712 -0.010733 -782175.000000 0 1 0
-5.317450 9.003200 20.865467 23.338822 -1.037304 0.464548 0.049453 -0.014714 38637.900000 0 1 0
-6.726150 9.049700 20.942467 23.784976 -0.931632 0.493899 0.045388 -0.008970 337401.000000 0 1 0
-7.427150 7.650500 21.142767 23.679302 -0.800210 0.467096 0.044705 -0.009349 134059.000000 0 1 0
-7.267450 6.967500 22.396867 24.555683 -0.764330 0.422456 0.042449 -0.010952 165774.000000 0 1 0
-7.903750 5.675900 22.294867 24.325834 -0.622789 0.411530 0.037405 -0.009255 347475.000000 0 1 0
-7.870350 4.930900 23.650657 25.408852 -0.559689 0.374190 0.032106 -0.013054 -198367.000000 0 0 1
-8.721850 5.581900 24.571707 26.664528 -0.569306 0.398838 0.022794 -0.002594 204976.000000 0 0 1
-9.105350 4.668900 25.662207 27.627069 -0.473807 0.379421 0.016874 0.000699 -82158.200000 0 0 1
-10.150650 5.304800 26.580907 28.943414 -0.481569 0.406842 0.014177 0.002782 -251121.000000 0 0 1
-9.587650 6.464500 27.144647 29.504994 -0.593236 0.402711 0.022399 -0.000167 -67085.000000 0 0 1
-10.411650 6.875100 28.219977 30.855090 -0.583601 0.416286 0.024325 -0.000173 121283.000000 0 0 1
-9.803150 8.015700 29.056707 31.696142 -0.685420 0.410987 0.034913 -0.004542 239572.000000 0 0 1
-8.865150 7.601500 30.063807 32.252228 -0.708808 0.370499 0.047166 -0.006250 215890.000000 0 0 1
-8.426350 8.780800 30.691837 33.016582 -0.805994 0.377501 0.053072 -0.016082 -456303.000000 0 0 1
-7.384950 8.540900 31.758927 33.706289 -0.857854 0.341583 0.078276 -0.019229 -739857.000000 0 0 1
-6.152150 8.071800 31.301197 32.905438 -0.919547 0.313542 0.072884 -0.021436 -705334.000000 0 0 1
-5.389850 7.654700 32.425734 33.750158 -0.957309 0.281074 0.096127 -0.022103 -154089.000000 0 0 1
-3.898450 7.462100 32.118383 33.203485 -1.089364 0.256359 0.080594 -0.021700 -73402.600000 0 0 1
-3.254450 8.710300 31.985365 33.309524 -1.213225 0.282911 0.081505 -0.028790 -1218610.000000 0 0 1
-1.877950 8.624000 31.860037 33.059977 -1.356385 0.270250 0.100974 -0.036356 -805910.000000 0 0 1
-1.348450 9.946500 31.373397 32.939964 -1.436048 0.309645 0.114154 -0.037780 -328754.000000 0 0 1
-1.601350 11.029500 32.256498 34.127641 -1.426616 0.332675 0.107267 -0.048205 125371.000000 0 0 1
-1.650450 12.161900 31.423387 33.735220 -1.435914 0.372360 0.093014 -0.039714 -489023.000000 0 0 1
-1.841750 13.502900 32.230335 34.993069 -1.435236 0.400030 0.089491 -0.050838 391977.000000 0 0 1
-0.727050 13.921100 33.034067 35.854919 -1.518617 0.399319 0.147057 -0.049623 69036.400000 0 0 1
-1.086650 14.925300 33.925697 37.079622 -1.498119 0.415433 0.139902 -0.049027 912193.000000 0 0 1
0.174550 15.213600 -33.074480 36.406117 1.559324 2.710445 0.121316 -0.045888 1036620.000000 0 0 1
1.176650 15.914500 -33.801020 37.378668 1.496995 2.700502 0.143737 -0.047690 1091430.000000 0 0 1
2.309850 16.235700 -32.946410 36.802164 1.429475 2.679744 0.169960 -0.048960 1130840.000000 0 0 1
3.542650 16.951200 -33.553490 37.758843 1.364771 2.665137 0.169372 -0.036771 158525.000000 0 0 1
3.360650 18.326300 -33.858390 38.646317 1.389433 2.638528 0.149747 -0.029480 30809.900000 0 0 1
4.538250 18.928600 33.566246 38.801811 1.335482 0.525508 0.116238 -0.009608 195112.000000 0 0 1
4.575250 20.432900 33.753572 39.720775 1.350514 0.555245 0.117775 -0.025322 -79948.600000 0 0 1
4.472050 20.909900 -32.886080 39.226489 1.360098 2.565072 0.153865 -0.054620 191942.000000 0 0 1
4.441850 22.325500 -32.967980 40.063022 1.374402 2.537298 0.122017 -0.038376 5579.530000 0 0 1
4.162950 23.121800 -31.658580 39.423514 1.392660 2.503172 0.155972 -0.045406 84235.100000 0 0 1
3.766150 24.497400 -31.787450 40.308169 1.418254 2.479342 0.151349 -0.053703 275669.000000 0 0 1
3.515550 25.055400 -30.499770 39.627871 1.431395 2.449096 0.149823 -0.054420 -7187.370000 0 0 1
2.863250 26.444600 -30.497380 40.467336 1.462943 2.424363 0.142175 -0.061643 196485.000000 0 0 1
3.906750 27.385100 -30.515910 41.187707 1.429093 2.405204 0.119127 -0.054166 442538.000000 0 0 1
3.373450 28.655700 -30.223510 41.785044 1.453612 2.379379 0.107198 -0.048809 -113129.000000 0 0 1
4.504050 29.651800 -29.931830 42.372517 1.420051 2.355192 0.117265 -0.044577 438448.000000 0 0 1
5.277850 29.360700 -28.741440 41.424350 1.392937 2.337590 0.111386 -0.057697 246949.000000 0 0 1
6.080550 30.435200 -28.349170 42.035104 1.373606 2.310971 0.101741 -0.040884 -154309.000000 0 0 1
7.317150 30.067400 -27.444780 41.361881 1.332078 2.296321 0.112628 -0.055900 393034.000000 0 0 1
8.342750 29.412400 -28.188750 41.584810 1.294409 2.315647 0.111628 -0.057028 803271.000000 0 0 1
9.572050 30.099500 -28.430770 42.496032 1.262896 2.303688 0.116897 -0.053994 407032.000000 0 0 1
9.403550 31.349400 -29.302400 43.929970 1.279377 2.301005 0.125656 -0.051461 -995842.000000 0 0 1
8.930750 32.521500 -28.555920 44.191027 1.302792 2.273381 0.113337 -0.037369 356352.000000 0 0 1
8.572150 33.699800 -29.270250 45.452237 1.321711 2.270483 0.089449 -0.021210 676189.000000 0 0 1
7.340750 33.695200 -30.269070 45.885398 1.356291 2.291172 0.072870 -0.016021 566913.000000 0 0 1
7.455950 32.878500 -31.384890 46.060811 1.347795 2.320442 0.065117 -0.020182 -645273.000000 0 0 1
6.204350 32.547400 -31.883030 45.982114 1.382431 2.336964 0.051719 -0.015180 -519101.000000 0 0 1
6.258650 31.915800 -33.301060 46.548358 1.377155 2.368004 0.063848 -0.030084 14660.100000 0 0 1
6.427650 32.781800 33.545659 47.342078 1.377179 0.783312 0.069896 -0.016770 191451.000000 0 0 1
5.997150 32.205900 32.319923 46.019162 1.386692 0.792153 0.083375 -0.012170 -171203.000000 0 0 1
5.794850 33.167700 31.124577 45.852109 1.397829 0.824664 0.059345 -0.020594 -238014.000000 0 0 1
6.975750 33.580800 30.492737 45.892682 1.365979 0.844058 0.059002 -0.011563 -309278.000000 0 0 1
6.769550 -33.925555 29.215327 45.280298 -1.373842 0.869497 0.027511 -0.026745 -135802.000000 0 0 1
18.757682 -22.221600 29.256617 41.250452 -0.869726 0.782372 0.071825 -0.013853 -548136.000000 0 0 1
17.857782 -21.154200 29.282897 40.297502 -0.869696 0.757337 0.066817 -0.015741 1716540.000000 0 0 1
16.454882 -21.453000 29.602657 40.091292 -0.916491 0.740129 0.061771 -0.017571 1980280.000000 0 0 1
16.109182 -21.813100 31.095327 41.258168 -0.934690 0.717158 0.067841 -0.029505 -610511.000000 0 0 1
16.634682 -23.036300 31.430657 42.370626 -0.945387 0.735041 0.085826 -0.032581 -48710.800000 0 0 1
16.597782 -23.190900 32.867818 43.515488 -0.949609 0.714665 0.103007 -0.031394 157938.000000 0 0 1
17.464482 -24.377100 33.371835 44.865694 -0.949129 0.732034 0.090392 -0.034609 -44938.100000 0 0 1
16.936182 -25.641450 33.053244 45.131310 -0.987075 0.748986 0.120436 -0.041992 -180269.000000 0 0 1
17.613682 -26.626990 33.759631 46.464514 -0.986381 0.757483 0.124860 -0.041419 -129217.000000 0 0 1
17.184882 -28.054750 33.293765 46.806666 -1.021201 0.779445 0.116913 -0.037623 137766.000000 0 0 1
17.889282 -28.647220 32.216094 46.675115 -1.012579 0.809003 0.106891 -0.037326 410797.000000 0 0 1
17.173682 -29.785840 31.727947 46.784552 -1.047781 0.825525 0.124480 -0.034519 299155.000000 0 0 1
18.077482 -30.538850 30.723557 46.939894 -1.036317 0.857236 0.114058 -0.034180 -375594.000000 0 0 1
19.226982 -31.096700 31.250567 48.096565 -1.017032 0.863546 0.114594 -0.040216 -523958.000000 0 0 1
19.959182 -31.704450 30.190517 48.114535 -1.008940 0.892494 0.095123 -0.032791 27830.000000 0 0 1
21.326482 -32.332590 30.534357 49.321012 -0.987704 0.903207 0.090082 -0.035396 -434381.000000 0 0 1
22.359282 -31.459620 30.765917 49.357744 -0.952906 0.897809 0.080749 -0.030471 65788.300000 0 0 1
23.619082 -32.119640 30.919497 50.453420 -0.936739 0.911156 0.072103 -0.033340 190588.000000 0 0 1
24.758682 -31.137720 31.175177 50.541484 -0.899029 0.906096 0.054100 -0.033399 -344242.000000 0 0 1
25.819382 -31.083890 30.246457 50.474715 -0.877652 0.928245 0.049648 -0.023270 223019.000000 0 0 1
26.506482 -29.837180 30.408307 50.174855 -0.844443 0.919715 0.045450 -0.016348 188022.000000 0 0 1
27.664082 -29.570260 29.420307 50.052534 -0.818691 0.942474 0.052628 -0.019922 750187.000000 0 0 1
28.790882 -30.428490 29.640597 51.316400 -0.813044 0.955005 0.033152 -0.016513 -144164.000000 0 0 1
29.864882 -30.229550 28.796567 51.332048 -0.791466 0.975220 0.031841 -0.035149 -484071.000000 0 0 1
30.917082 -31.326460 28.954117 52.683526 -0.791975 0.988928 0.007855 -0.025419 -163261.000000 0 0 1
30.409882 -32.581970 28.568837 52.938872 -0.819867 1.000767 0.001732 -0.025548 194613.000000 0 0 1
31.363682 -33.584310 28.889857 54.279004 -0.819576 1.009543 0.005886 -0.023188 -349698.000000 0 0 1
30.692782 33.212637 29.455667 53.970015 0.824809 0.993479 -0.002078 -0.018533 -444127.000000 0 0 1
30.145182 33.181042 30.782637 54.380919 0.833302 0.969083 0.012715 -0.015517 -194507.000000 0 0 1
29.166282 -33.961710 31.095047 54.506621 -0.861216 0.963704 0.004424 -0.017416 -70011.200000 0 0 1
27.779882 34.011779 30.362957 53.389438 0.885912 0.965863 0.017462 -0.022056 77466.400000 0 0 1
27.133182 32.756244 30.618457 52.408692 0.879014 0.946872 0.015022 -0.021795 684440.000000 0 0 1
25.787482 32.790721 30.119527 51.453003 0.904387 0.945448 0.030323 -0.027459 527306.000000 0 0 1
25.117282 31.461144 30.021687 50.219350 0.897057 0.930028 0.046239 -0.029248 -489477.000000 0 0 1
25.361682 30.631004 28.907047 49.163917 0.879229 0.942246 0.038710 -0.025358 238828.000000 0 0 1
24.607682 29.440074 29.168157 48.197898 0.874571 0.920811 0.060547 -0.027781 -32978.900000 0 0 1
23.955182 28.851124 27.847867 46.709119 0.877849 0.932040 0.067670 -0.027960 -571667.000000 0 0 1
22.874382 29.653154 27.479807 46.450906 0.913741 0.937769 0.095823 -0.034070 -422528.000000 0 0 1
22.574582 29.412524 26.106917 45.346218 0.916179 0.957307 0.088969 -0.038062 -1172100.000000 0 0 1
21.136282 29.705204 25.823447 44.676526 0.952371 0.954509 0.106317 -0.034075 -1186670.000000 0 0 1
20.989682 31.080854 25.519527 45.363339 0.976823 0.973319 0.111839 -0.041155 -105170.000000 0 0 1
19.632082 31.371214 25.244997 44.798232 1.011622 0.972148 0.101058 -0.026377 -100707.000000 0 0 1
19.343782 32.711789 24.556107 45.246497 1.036769 0.997126 0.121509 -0.024775 -291476.000000 0 0 1
19.823682 32.849788 23.267007 44.871378 1.027833 1.025669 0.114141 -0.023291 -716661.000000 0 0 1
21.084882 33.419582 23.216237 45.830496 1.007956 1.039597 0.100846 -0.017694 -843626.000000 0 0 1
21.547682 33.609536 21.737067 45.457712 1.000690 1.072213 0.108686 -0.023523 -64427.100000 0 0 1
20.940082 -33.419230 20.954667 44.659042 -1.011056 1.082395 0.099575 -0.011658 431841.000000 0 0 1
21.602182 -33.314460 19.698167 44.322966 -0.995524 1.110266 0.118883 -0.017875 106355.000000 0 0 1
21.278882 -31.965850 19.050767 42.866515 -0.983480 1.110269 0.111747 -0.020392 41547.100000 0 0 1
21.833782 -30.825090 19.738767 42.620642 -0.954514 1.089276 0.106591 -0.012828 325456.000000 0 0 1
21.459282 -29.551870 19.178667 41.250880 -0.942731 1.087244 0.095113 -0.024249 -214565.000000 0 0 1
22.231182 -29.055510 17.950967 40.751507 -0.917683 1.114643 0.074907 -0.024290 -134859.000000 0 0 1
21.790382 -29.730570 16.838767 40.524951 -0.938311 1.142286 0.073528 -0.028698 671732.000000 0 0 1
22.565482 -29.130870 15.783567 40.086526 -0.911721 1.166102 0.055594 -0.020172 168048.000000 0 0 1
22.506982 -29.882710 14.443067 40.101656 -0.925265 1.202355 0.029864 -0.025399 -269332.000000 0 0 1
23.171582 -31.143230 14.365067 41.390556 -0.931125 1.216360 0.066050 -0.022003 7100.290000 0 0 1
23.401282 -31.536640 13.048767 41.381759 -0.932413 1.249996 0.052243 -0.011413 60468.900000 0 0 1
22.213182 -31.678940 12.039767 40.520818 -0.959267 1.269116 0.041904 -0.008845 -50171.000000 0 0 1
21.356782 -32.742340 12.352967 40.997180 -0.992828 1.264727 0.038844 -0.014539 -337746.000000 0 0 1
20.202582 -32.767640 11.538967 40.187191 -1.018303 1.279567 0.042567 -0.003980 29581.800000 0 0 1
19.046582 -33.360700 12.384267 40.361847 -1.052027 1.258935 0.061368 -0.005595 -333096.000000 0 0 1
18.844182 -32.574150 13.519567 39.986962 -1.046335 1.225900 0.057975 -0.005239 286393.000000 0 0 1
19.193382 -33.242010 14.734567 41.115990 -1.047173 1.204279 0.065444 -0.016862 -574191.000000 0 0 1
19.126082 -32.178200 15.879767 40.662152 -1.034519 1.169590 0.070486 -0.018021 613937.000000 0 0 1
17.836182 -31.740050 16.327867 39.901872 -1.058828 1.149219 0.085608 -0.025795 1551980.000000 0 0 1
16.784082 -32.629260 16.799267 40.355785 -1.095705 1.141447 0.075378 -0.013673 781689.000000 0 0 1
17.106482 -33.423710 18.091267 41.678173 -1.097748 1.121790 0.053183 -0.014011 205570.000000 0 0 1
17.843682 33.379815 17.842767 41.844634 1.079881 1.130282 0.055537 -0.008410 595160.000000 0 0 1
18.248082 32.861659 19.077767 42.152608 1.063893 1.101131 0.057213 -0.008982 -443813.000000 0 0 1
18.995682 31.572214 18.921867 41.420740 1.029158 1.096378 0.075119 -0.010403 -549649.000000 0 0 1
18.234182 30.432804 18.652167 40.081720 1.030993 1.086762 0.040402 -0.008945 188915.000000 0 0 1
19.103782 29.306024 18.371067 39.513209 0.993106 1.087235 0.048524 -0.019226 475232.000000 0 0 1
18.352782 27.972254 18.247667 38.108385 0.990140 1.071468 0.044126 -0.017109 -7158.230000 0 0 1
17.938882 27.380104 19.462767 38.082449 0.990789 1.034368 0.056129 -0.031924 -88056.700000 0 0 1
17.704082 26.023344 19.198967 36.867998 0.973404 1.023068 0.060678 -0.031283 -584239.000000 0 0 1
17.528482 25.125094 20.421167 36.817688 0.961650 0.982846 0.076504 -0.033513 -258758.000000 0 0 1
16.353982 25.194184 21.189467 36.758580 0.995042 0.956419 0.078253 -0.036731 -32390.900000 0 0 1
15.350382 24.293794 20.729367 35.433449 1.007276 0.945888 0.072365 -0.032560 973480.000000 0 0 1
13.943982 24.476554 21.440767 35.401170 1.052964 0.920212 0.104664 -0.046288 1172220.000000 0 0 1
13.382882 25.766674 21.156867 35.925424 1.091759 0.941086 0.099546 -0.039660 620825.000000 0 0 1
12.061182 25.993864 21.661667 35.921872 1.136360 0.923513 0.110947 -0.037745 551117.000000 0 0 1
11.335882 27.251774 21.142167 36.306372 1.176600 0.949209 0.102188 -0.037638 -77354.800000 0 0 1
11.975482 28.443964 21.482167 37.602590 1.172301 0.962714 0.085758 -0.032311 4364.800000 0 0 1
11.376682 29.393554 20.592867 37.649384 1.201506 0.992063 0.082818 -0.029810 222143.000000 0 0 1
11.629182 30.908744 20.794267 39.025503 1.210937 1.008846 0.070971 -0.023327 101429.000000 0 0 1
11.007182 31.588684 21.903667 39.984668 1.235500 0.991062 0.074960 -0.020411 -187498.000000 0 0 1
11.578382 31.287114 23.136437 40.598487 1.216356 0.964431 0.085947 -0.015320 -212607.000000 0 0 1
11.024182 32.114755 24.314797 41.762417 1.240125 0.949343 0.072577 -0.013840 -628927.000000 0 0 1
9.637282 32.030126 24.321467 41.356257 1.278531 0.942093 0.047799 -0.012225 -941770.000000 0 0 1
9.087782 32.801196 25.355257 42.442848 1.300519 0.930544 0.053845 -0.015219 -2148.340000 0 0 1
7.784282 32.326031 26.109247 42.276000 1.334490 0.905121 0.087711 -0.036760 1417560.000000 0 0 1
6.549882 32.883633 25.594127 42.181674 1.374186 0.918819 0.065291 -0.032795 866418.000000 0 0 1
6.097582 32.385427 24.362417 40.981993 1.384693 0.934194 0.068785 -0.039909 -574920.000000 0 0 1
5.158382 31.176704 24.404807 39.927314 1.406826 0.913181 0.054461 -0.031708 -330059.000000 0 0 1
5.888982 30.017504 24.748837 39.347625 1.377072 0.890557 0.056914 -0.029576 -282567.000000 0 0 1
5.139982 28.800474 24.661567 38.263294 1.394187 0.870397 0.045805 -0.024005 -928954.000000 0 0 1
6.048882 27.586154 24.790137 37.578395 1.354940 0.850389 0.061965 -0.029634 360493.000000 0 0 1
7.115682 27.518444 23.840277 37.097932 1.317760 0.872869 0.078738 -0.031947 941683.000000 0 0 1
8.223382 28.408794 23.931677 38.044826 1.289031 0.890480 0.102724 -0.040694 -550601.000000 0 0 1
9.494482 27.888644 24.594157 38.377001 1.242661 0.875183 0.103051 -0.048246 -910863.000000 0 0 1
9.335982 27.689684 26.017997 39.125636 1.245602 0.843321 0.104120 -0.046550 286291.000000 0 0 1
10.567282 27.362884 26.644447 39.627282 1.202251 0.833382 0.100132 -0.030970 1071600.000000 0 0 1
11.632982 28.568874 26.738807 40.822428 1.184106 0.856610 0.103843 -0.019560 226711.000000 0 0 1
11.259482 29.575754 27.631397 42.011847 1.207038 0.853028 0.101999 -0.027296 193884.000000 0 0 1
12.320682 30.490884 27.884137 43.116335 1.186780 0.867522 0.087666 -0.015959 18493.400000 0 0 1
11.879882 31.697224 28.727757 44.397406 1.212208 0.867075 0.068988 -0.025389 -87601.100000 0 0 1
11.627082 31.426704 30.091127 45.036682 1.216439 0.839081 0.082584 -0.039667 372210.000000 0 0 1
10.269682 31.198184 30.445117 44.785023 1.252792 0.823299 0.101318 -0.032169 120441.000000 0 0 1
10.042182 30.994924 31.941832 45.626872 1.257474 0.795306 0.139695 -0.031438 3245.920000 0 0 1
10.523382 29.730594 32.416995 45.227330 1.230600 0.771656 0.109867 -0.030866 292949.000000 0 0 1
10.632982 29.707994 33.814163 46.249572 1.227086 0.750829 0.136611 -0.036269 -332371.000000 0 0 1
10.953682 28.251014 -33.626260 45.263985 1.200915 2.408177 0.120442 -0.038968 194761.000000 0 0 1
12.316182 27.875114 -33.780850 45.495672 1.154754 2.407602 0.137610 -0.031830 285493.000000 0 0 1
12.506582 26.471494 -33.521820 44.506932 1.129427 2.423682 0.121600 -0.040797 -48281.300000 0 0 1
13.931282 25.877864 -33.658850 44.684032 1.076943 2.423806 0.139820 -0.036805 77097.700000 0 0 1
14.003682 24.486874 -33.474000 43.774637 1.051306 2.441356 0.097981 -0.036939 -33964.600000 0 0 1
13.866982 23.952684 -32.158050 42.428345 1.046012 2.430942 0.096641 -0.029297 -285616.000000 0 0 1
13.913882 22.404054 -32.191020 41.614896 1.015048 2.455213 0.074323 -0.048273 -343611.000000 0 0 1
15.208582 21.906854 -32.475230 42.022040 0.963948 2.454060 0.059083 -0.029266 221621.000000 0 0 1
15.318482 20.480554 -32.526910 41.377637 0.928607 2.475268 0.053557 -0.024662 -419173.000000 0 0 1
16.649682 19.954254 -33.054020 42.047026 0.875433 2.475303 0.070730 -0.034526 -92711.100000 0 0 1
17.736182 20.178754 -32.151610 41.898452 0.849732 2.445526 0.045187 -0.034246 673219.000000 0 0 1
18.942682 19.646454 -32.715500 42.604135 0.803634 2.446345 0.055860 -0.031782 656583.000000 0 0 1
20.180782 19.795154 -31.772300 42.527534 0.775752 2.414484 0.039074 -0.025111 208023.000000 0 0 1
20.752382 21.080654 -31.915450 43.516104 0.793245 2.394131 0.017562 -0.014140 -100924.000000 0 0 1
21.675482 21.493354 -30.926540 43.453903 0.781179 2.362725 0.007463 -0.005779 -159578.000000 0 0 1
21.080782 21.954354 -29.558700 42.427701 0.805694 2.341561 0.010351 -0.010775 -45373.500000 0 0 1
20.424182 23.173294 -29.576420 42.765797 0.848371 2.334485 -0.004297 -0.001944 72653.600000 0 0 1
19.908482 23.626864 -28.307160 41.903123 0.870602 2.312491 0.001372 0.001352 338683.000000 0 0 1
21.001782 24.391904 -27.511690 42.343039 0.859942 2.278030 0.003123 0.002182 210041.000000 0 0 1
21.594282 25.526394 -28.061690 43.650524 0.868653 2.269038 0.013270 0.008040 -164209.000000 0 0 1
20.729582 26.652114 -28.217920 44.003429 0.909749 2.266944 0.022745 0.009756 -310233.000000 0 0 1
21.431182 27.803684 -28.998010 45.532681 0.914113 2.261217 0.037034 -0.000222 -208140.000000 0 0 1
21.548582 27.759874 -30.462210 46.506970 0.910706 2.284983 0.031183 0.005932 256552.000000 0 0 1
22.126182 26.532034 -31.031430 46.437769 0.875699 2.302633 0.028077 0.010193 -72808.600000 0 0 1
23.494082 26.002454 -30.595510 46.520799 0.836033 2.288523 0.052459 -0.000741 -975900.000000 0 0 1
24.590482 26.786074 -30.897820 47.716463 0.828107 2.275134 0.042824 0.001002 461314.000000 0 0 1
25.825482 26.049484 -30.646580 47.798996 0.789716 2.266799 0.056017 -0.008181 1381010.000000 0 0 1
27.152682 26.732954 -31.055900 49.156769 0.777609 2.254634 0.059609 0.003938 42592.400000 0 0 1
27.492682 27.842304 -30.248700 49.457308 0.791716 2.228893 0.052893 -0.004375 8217.800000 0 0 1
28.672382 28.507804 -30.649540 50.736522 0.782520 2.219423 0.062541 -0.022946 60747.300000 0 0 1
28.878182 29.860984 -30.005300 51.243983 0.802128 2.196340 0.047981 -0.011512 -80958.900000 0 0 1
29.202382 29.851234 -28.598450 50.613700 0.796385 2.171271 0.065989 -0.015756 201742.000000 0 0 1
29.032082 31.116144 -27.980560 50.931208 0.820033 2.152418 0.060782 -0.015579 -672987.000000 0 0 1
29.422082 31.117124 -26.442310 50.330210 0.813390 2.123954 0.078120 -0.009884 -286432.000000 0 0 1
28.722682 30.316044 -25.497860 48.930521 0.812380 2.118940 0.080304 -0.002040 818408.000000 0 0 1
27.288182 30.361024 -25.531970 48.148917 0.838650 2.129716 0.069498 0.000576 625904.000000 0 0 1
26.631482 29.819114 -24.245780 46.757601 0.841806 2.115941 0.066508 0.002914 42715.000000 0 0 1
26.977882 30.636334 -23.084180 46.896380 0.848812 2.085455 0.083628 -0.015262 -407326.000000 0 0 1
26.070082 30.521084 -22.063980 45.803984 0.863888 2.073395 0.069671 -0.011834 -334916.000000 0 0 1
3.256882 -25.753320 -19.101780 32.229161 -1.445000 2.205186 0.060439 -0.002049 -111008.000000 0 0 1
3.033982 -26.986880 -18.387480 32.796283 -1.458842 2.165976 0.062591 0.000853 223310.000000 0 0 1
2.931682 -26.818380 -16.999180 31.887182 -1.461913 2.133061 0.072855 -0.002328 -231679.000000 0 0 1
3.018582 -28.168890 -16.261580 32.665535 -1.464044 2.091881 0.068552 -0.009440 -1152080.000000 0 0 1
4.299782 -28.607380 -16.049480 33.082566 -1.421610 2.077313 0.067697 -0.018340 -1151490.000000 0 0 1
4.394782 -29.371310 -14.889480 33.221749 -1.422270 2.035530 0.066446 -0.023251 930497.000000 0 0 1
5.862482 -29.762260 -14.478980 33.612523 -1.376309 2.016133 0.092723 -0.018347 888958.000000 0 0 1
6.616482 -28.885940 -13.671380 32.635594 -1.345625 2.003041 0.085962 -0.007777 861108.000000 0 0 1
8.034482 -29.141900 -13.731980 33.201966 -1.301778 1.997189 0.093658 -0.010680 1124550.000000 0 0 1
8.640382 -30.093080 -12.652580 33.768883 -1.291196 1.954850 0.091279 -0.017526 -590002.000000 0 0 1
8.914482 -29.490750 -11.384980 32.844940 -1.277249 1.924770 0.080505 -0.030895 37321.700000 0 0 1
8.942082 -30.486650 -10.365580 33.419185 -1.285487 1.886167 0.094511 -0.031073 978299.000000 0 0 1
10.252682 -31.383420 -10.260680 34.573373 -1.255036 1.872115 0.091430 -0.026864 1032610.000000 0 0 1
11.376582 -30.734880 -9.694480 34.176636 -1.216283 1.858403 0.085772 -0.027225 1189510.000000 0 0 1
12.582782 -31.553760 -9.767980 35.346564 -1.191348 1.850789 0.077506 -0.026493 1083810.000000 0 0 1
13.783482 -30.987650 -9.007280 35.090596 -1.152270 1.830389 0.077159 -0.025930 -304651.000000 0 0 1
14.631982 -30.053130 -9.642880 34.788945 -1.117707 1.851657 0.059952 -0.037221 125666.000000 0 0 1
15.743782 -29.915020 -8.780580 34.926690 -1.086344 1.824923 0.057493 -0.028969 -68188.400000 0 0 1
16.862082 -28.975460 -9.332680 34.799512 -1.043759 1.842304 0.078350 -0.035531 8120.950000 0 0 1
16.669082 -27.583280 -9.514780 33.603968 -1.027208 1.857868 0.071867 -0.032002 -213644.000000 0 0 1
15.808882 -27.245910 -10.573580 33.227413 -1.045041 1.894646 0.056671 -0.027470 -369696.000000 0 0 1
15.425382 -25.742530 -10.692180 31.858170 -1.030952 1.913058 0.056456 -0.025712 -1014360.000000 0 0 1
14.480882 -25.221740 -9.775180 30.682019 -1.049606 1.895045 0.044852 -0.023285 306326.000000 0 0 1
13.816282 -24.013500 -10.181280 29.516035 -1.048695 1.922972 0.033036 -0.005830 666887.000000 0 0 1
13.178882 -23.985700 -11.644980 29.742265 -1.068377 1.973090 0.012302 -0.008911 -412166.000000 0 0 1
14.105782 -23.811100 -12.712780 30.455810 -1.035981 2.001398 0.021251 -0.013311 110873.000000 0 0 1
13.438782 -23.825600 -13.964280 30.712558 -1.057232 2.042805 0.025851 -0.013468 63767.500000 0 0 1
14.368282 -23.255700 -15.065980 31.213120 -1.017363 2.074510 0.033493 -0.014334 622912.000000 0 0 1
15.321782 -24.163500 -15.640780 32.607756 -1.005689 2.071069 0.036772 -0.017032 569174.000000 0 0 1
15.976882 -23.603100 -16.776980 33.073164 -0.975744 2.102809 0.043280 -0.017464 -604230.000000 0 0 1
16.943382 -24.532400 -17.587580 34.615601 -0.966371 2.103753 0.053789 -0.024488 990868.000000 0 0 1
18.187682 -24.850000 -16.942580 35.147764 -0.938981 2.073776 0.082059 -0.026678 255209.000000 0 0 1
19.109582 -23.811400 -16.886380 34.889952 -0.894509 2.076005 0.084212 -0.030946 -1610680.000000 0 0 1
20.413682 -24.182900 -16.203180 35.553820 -0.869716 2.043996 0.090652 -0.031264 -514280.000000 0 0 1
21.192082 -24.960200 -17.063680 36.922691 -0.866863 2.051210 0.100168 -0.028026 -614971.000000 0 0 1
22.521382 -25.138560 -16.631480 37.626666 -0.840257 2.028638 0.116770 -0.020088 56284.600000 0 0 1
23.170582 -26.167500 -17.548580 39.109674 -0.846066 2.036108 0.102645 -0.021495 -289534.000000 0 0 1
23.827782 -25.634400 -18.685080 39.673894 -0.821907 2.061183 0.106703 -0.022094 -30325.800000 0 0 1
24.403482 -26.659440 -19.501680 41.067885 -0.829549 2.065606 0.095182 -0.030416 -264701.000000 0 0 1
25.581082 -26.208130 -20.383280 41.913434 -0.797505 2.078668 0.086317 -0.025206 -234712.000000 0 0 1
25.309382 -25.164120 -21.324080 41.575403 -0.782520 2.109357 0.090296 -0.027234 -160528.000000 0 0 1
25.357382 -23.919300 -20.672980 40.527791 -0.756223 2.106090 0.090427 -0.019291 -286010.000000 0 0 1
24.401482 -22.821800 -21.228780 39.584441 -0.751959 2.136833 0.128978 -0.022977 -204071.000000 0 0 1
24.711282 -22.271000 -22.465080 40.141309 -0.733504 2.164760 0.104406 -0.014590 -88976.900000 0 0 1
24.353782 -23.101900 -23.556780 41.008857 -0.759024 2.182706 0.084973 -0.023553 -266134.000000 0 0 1
23.713782 -22.361900 -24.739380 40.919860 -0.756066 2.220036 0.089780 -0.026041 -99571.900000 0 0 1
24.494482 -21.400300 -25.418730 41.280314 -0.718081 2.234145 0.075355 -0.010218 -92251.200000 0 0 1
23.653382 -20.547500 -26.163020 40.818940 -0.715246 2.266535 0.063874 -0.000299 330994.000000 0 0 1
24.418682 -19.786000 -27.296640 41.627688 -0.680979 2.285949 0.059350 0.002779 603669.000000 0 0 1
23.504382 -18.893500 -27.941320 41.111284 -0.677071 2.318083 0.058458 0.006058 470029.000000 0 0 1
24.051082 -18.398300 -29.155600 42.035711 -0.653012 2.337259 0.064688 -0.005485 116032.000000 0 0 1
23.028382 -17.589100 -29.974820 41.691398 -0.652275 2.373114 0.085426 -0.008046 1487310.000000 0 0 1
21.740282 -18.221400 -30.295490 41.502723 -0.697568 2.389065 0.076722 -0.010604 1697410.000000 0 0 1
20.928082 -17.228400 -30.920400 41.120233 -0.688740 2.421813 0.086767 -0.009825 423918.000000 0 0 1
19.694082 -17.740800 -31.710810 41.329993 -0.733267 2.445353 0.074640 -0.008205 318850.000000 0 0 1
20.098582 -18.403400 -32.885850 42.709686 -0.741398 2.449615 0.069654 -0.011433 968108.000000 0 0 1
18.996082 -19.172100 -33.427560 42.963034 -0.790010 2.462358 0.079527 -0.012811 629569.000000 0 0 1
19.376082 -20.011800 33.265379 43.387673 -0.801537 0.697109 0.078433 -0.026426 172805.000000 0 0 1
20.343382 -20.990500 33.630674 44.558686 -0.801053 0.715523 0.068087 -0.020078 200921.000000 0 0 1
20.556782 -21.998100 32.687295 44.440488 -0.819255 0.744348 0.063067 -0.023578 49856.500000 0 0 1
21.421682 -23.164200 33.215915 45.812287 -0.824461 0.759698 0.048147 -0.016126 -87259.000000 0 0 1
20.748282 -23.979700 -33.791540 46.339890 -0.857519 2.387964 0.069811 -0.023135 -141788.000000 0 0 1
20.893882 -23.588500 -32.419840 45.210814 -0.845901 2.370402 0.067907 -0.022617 -230468.000000 0 0 1
19.996782 -24.378600 -31.464000 44.544031 -0.883823 2.355135 0.089783 -0.031026 -156797.000000 0 0 1
20.164482 -25.807020 -31.484830 45.430201 -0.907527 2.336490 0.092144 -0.035814 504092.000000 0 0 1
21.309182 -26.376180 -30.809970 45.815264 -0.891260 2.308354 0.065055 -0.038689 612038.000000 0 0 1
21.306882 -27.953680 -30.819550 46.746509 -0.919520 2.290672 0.075845 -0.043548 277521.000000 0 0 1
20.141382 -28.530940 -30.228670 46.189418 -0.956089 2.284251 0.083205 -0.048447 184030.000000 0 0 1
20.055482 -29.946230 -30.353060 47.120137 -0.980685 2.270725 0.082867 -0.041979 731872.000000 0 0 1
18.605782 -30.419490 -29.943970 46.563525 -1.021862 2.269307 0.130793 -0.048481 1488040.000000 0 0 1
17.516582 -30.241910 -30.854760 46.619953 -1.045800 2.294062 0.145492 -0.058560 86077.600000 0 0 1
17.537582 -31.058170 -32.017590 47.930187 -1.056761 2.302321 0.147658 -0.056679 -595753.000000 0 0 1
16.244282 -31.793510 -32.449690 48.246102 -1.098442 2.308495 0.154561 -0.054258 289947.000000 0 0 1
15.290782 -30.872070 -32.975670 47.689491 -1.110920 2.334313 0.153190 -0.050564 428144.000000 0 0 1
14.155282 -31.553280 -33.546300 48.180242 -1.149095 2.340980 0.123795 -0.034018 399057.000000 0 0 1
13.168682 -30.599850 33.711865 47.394671 -1.164402 0.779449 0.122912 -0.026943 -176691.000000 0 0 1
12.373182 -29.850630 -33.343290 46.432001 -1.177850 2.371879 0.135384 -0.033415 -348928.000000 0 0 1
11.347982 -29.198290 33.916797 46.169968 -1.200111 0.745709 0.106397 -0.030140 -233349.000000 0 0 1
10.525982 -28.078030 -33.275110 44.792913 -1.212128 2.408137 0.114228 -0.039137 955294.000000 0 0 1
9.358582 -28.635470 -32.633150 44.412788 -1.254921 2.396123 0.104538 -0.021686 739281.000000 0 0 1
8.394782 -27.581710 -32.441860 43.401583 -1.275344 2.415058 0.062768 -0.016307 -66816.600000 0 0 1
7.123882 -27.950320 -31.689040 42.850500 -1.321233 2.403162 0.045395 -0.012965 49172.900000 0 0 1
6.270482 -28.900360 -32.384850 43.855767 -1.357139 2.401550 0.041715 -0.010756 469353.000000 0 0 1
6.709382 -30.249470 -32.496640 44.900756 -1.352528 2.380008 0.036056 -0.006200 154098.000000 0 0 1
5.418482 -31.092740 -32.787660 45.509879 -1.398261 2.375249 0.056769 -0.012637 1116760.000000 0 0 1
4.535482 -31.114880 -31.666490 44.625923 -1.426050 2.359725 0.062036 -0.014939 492800.000000 0 0 1
3.531682 -32.141510 -31.746240 45.314161 -1.461356 2.347008 0.070861 -0.026700 -347344.000000 0 0 1
2.733582 -32.302750 -30.422930 44.457787 -1.486374 2.324454 0.060007 -0.033795 379641.000000 0 0 1
1.713182 -31.342810 -30.160060 43.530862 -1.516191 2.336221 0.057958 -0.037104 -70136.800000 0 0 1
0.547382 -31.531440 -30.933660 44.174910 -1.553438 2.346550 0.048590 -0.005555 -1236200.000000 0 0 1
-0.398318 -30.437230 -30.507670 43.096422 1.557711 2.357307 0.043736 -0.011386 -813408.000000 0 0 1
-1.034718 -30.642160 -29.271020 42.388740 1.537041 2.333028 0.031694 -0.020750 -50294.600000 0 0 1
-1.822718 -29.502330 -28.931570 41.361160 1.509093 2.345475 0.071130 -0.022501 457292.000000 0 0 1
-2.623618 -29.711700 -27.597990 40.636407 1.482722 2.317393 0.069460 -0.023752 227747.000000 0 0 1
-1.764118 -29.741060 -26.453020 39.842252 1.511550 2.296877 0.065682 -0.022074 121553.000000 0 0 1
-2.389518 -30.080100 -25.227600 39.331337 1.491524 2.267134 0.073142 -0.023208 -267689.000000 0 0 1
-1.333618 -30.363110 -24.185480 38.841144 1.526902 2.242955 0.052763 -0.023852 37413.600000 0 0 1
-1.881718 -30.369720 -22.883780 38.072670 1.508915 2.215617 0.066209 -0.033465 -722645.000000 0 0 1
-0.894918 -30.722330 -22.023180 37.811148 1.541675 2.192538 0.061896 -0.025112 -654898.000000 0 0 1
-1.391718 -30.661290 -20.583080 36.955579 1.525437 2.161527 0.032452 -0.014689 86791.000000 0 0 1
-1.533418 -29.348680 -20.084280 35.595993 1.518596 2.170295 0.031012 -0.017186 887480.000000 0 0 1
-0.252518 -28.764500 -19.756280 34.896574 1.562018 2.172610 0.045317 -0.024923 794120.000000 0 0 1
-0.365218 -27.453690 -19.016180 33.398407 1.557494 2.176540 0.042489 -0.020990 120420.000000 0 0 1
-1.092518 -27.541360 -17.781480 32.800932 1.531149 2.143734 0.041390 -0.019221 81321.600000 0 0 1
-0.843518 -26.395420 -16.991080 31.402652 1.538850 2.142507 0.055271 -0.019851 -169946.000000 0 0 1
-1.804118 -26.028350 -15.827780 30.516364 1.501593 2.116085 0.049100 -0.016235 -200393.000000 0 0 1
-1.544618 -24.781400 -15.234580 29.130672 1.508547 2.121133 0.035820 -0.010638 130693.000000 0 0 1
-2.573018 -24.561300 -14.287880 28.531060 1.466418 2.095300 0.045987 -0.014966 -52650.000000 0 0 1
-2.502718 -23.319100 -13.357480 26.990115 1.463881 2.088519 0.046086 -0.011340 -559659.000000 0 0 1
-1.735618 -23.618700 -12.254480 26.665102 1.497443 2.048307 0.055115 -0.016220 -439120.000000 0 0 1
-1.336618 -22.497400 -11.529680 25.315076 1.511454 2.043671 0.056087 -0.010577 489005.000000 0 0 1
0.064882 -22.631000 -10.846580 25.096109 -1.567929 2.017729 0.051131 -0.012735 531665.000000 0 0 1
0.353582 -21.426400 -10.171980 23.720979 -1.554296 2.013980 0.041322 -0.008177 -273199.000000 0 1 0
1.673382 -21.442500 -9.669080 23.581182 -1.492914 1.993287 0.044056 -0.010127 324633.000000 0 1 0
2.170982 -20.028500 -9.278580 22.179856 -1.462823 2.002406 0.033790 -0.008465 -996103.000000 0 1 0
2.459382 -19.202000 -10.440980 21.994987 -1.443410 2.065417 0.027964 0.002153 105998.000000 0 1 0
3.326782 -18.061800 -10.319080 21.066075 -1.388649 2.082707 0.018534 -0.001057 305988.000000 0 1 0
4.803382 -18.416200 -10.064180 21.529436 -1.315657 2.057213 0.029004 -0.012272 -358837.000000 0 1 0
4.820682 -18.935400 -8.765480 21.415462 -1.321506 1.992490 0.032911 -0.015431 -165584.000000 0 1 0
6.042282 -19.639500 -8.599080 22.274724 -1.272327 1.967138 0.041446 -0.006323 148411.000000 0 1 0
5.673682 -20.815700 -7.641680 22.888410 -1.304693 1.911199 0.047430 -0.011718 276823.000000 0 1 0
4.959382 -21.888800 -8.268580 23.918287 -1.347986 1.923782 0.057731 -0.022127 169180.000000 0 1 0
4.901782 -22.947400 -7.307480 24.576613 -1.360350 1.872696 0.071550 -0.018514 101779.000000 0 1 0
3.901282 -24.064000 -7.715580 25.570027 -1.410074 1.877317 0.078743 -0.018055 379252.000000 0 0 1
4.392382 -24.926700 -8.728080 26.773360 -1.396375 1.902864 0.079361 -0.017690 -75370.900000 0 0 1
3.380482 -25.856440 -9.022880 27.593396 -1.440793 1.903917 0.065600 -0.020218 277653.000000 0 0 1
3.826482 -26.892810 -10.101280 28.981047 -1.429459 1.926818 0.058420 -0.021494 -57647.400000 0 0 1
4.645682 -27.917920 -9.626180 29.894079 -1.405902 1.898648 0.080536 -0.031987 -199098.000000 0 0 1
5.085082 -28.737950 -10.714780 31.089136 -1.395663 1.922659 0.096155 -0.020656 151780.000000 0 0 1
4.577582 -30.186560 -10.489680 32.283371 -1.420300 1.901729 0.091897 -0.036658 -402107.000000 0 0 1
3.232182 -30.354850 -10.817180 32.386345 -1.464716 1.911345 0.097889 -0.028480 -447166.000000 0 0 1
2.965782 -31.734220 -10.708580 33.623359 -1.477610 1.894929 0.092452 -0.027365 -135879.000000 0 0 1
1.654082 -32.138820 -11.398180 34.140273 -1.519375 1.911195 0.067266 -0.028274 -267211.000000 0 0 1
1.772982 -32.015270 -12.805980 34.527006 -1.515474 1.950772 0.077592 -0.032437 28739.800000 0 0 1
0.972582 -32.983170 -13.386580 35.609493 -1.541318 1.956194 0.072240 -0.023589 -523395.000000 0 0 1
0.581082 -32.741970 -14.883480 35.970714 -1.553051 1.997384 0.076666 -0.019753 313178.000000 0 0 1
-0.584118 -31.957630 -15.112780 35.355727 1.552520 2.012466 0.063557 -0.015021 -30716.200000 0 0 1
-0.747018 -31.673870 -16.496280 35.720013 1.547216 2.050844 0.039717 -0.022947 -500047.000000 0 0 1
-2.025418 -30.917590 -16.777580 35.234740 1.505380 2.067086 0.034346 -0.011495 -949641.000000 0 0 1
-3.174418 -31.619890 -16.485080 35.800171 1.470738 2.049326 0.031323 -0.019258 -684404.000000 0 0 1
-4.325018 -31.150280 -17.153380 35.822956 1.432835 2.070127 0.041873 -0.017651 310772.000000 0 0 1
-5.694118 -31.200210 -16.467580 35.735938 1.390280 2.049707 0.049107 -0.017922 -223025.000000 0 0 1
-5.736518 -30.287760 -15.363380 34.442554 1.383613 2.033152 0.037315 -0.014732 197571.000000 0 0 1
-7.077918 -29.904840 -15.090480 34.236223 1.338392 2.027259 0.049966 -0.018845 329879.000000 0 0 1
-7.677618 -30.646810 -13.887080 34.511213 1.325329 1.984926 0.037270 -0.023087 -67179.800000 0 0 1
-7.962418 -32.033070 -14.232680 35.945610 1.327165 1.977899 0.047589 -0.021321 -6358.980000 0 0 1
-8.835418 -32.723330 -13.346880 36.428288 1.307081 1.945920 0.051863 -0.020006 407585.000000 0 0 1
-9.217018 33.993912 -13.948980 37.882893 -1.306025 1.947883 0.089242 -0.025569 -448209.000000 0 0 1
-8.102618 33.165854 -13.836780 36.838605 -1.331184 1.955846 0.064909 -0.024867 -289563.000000 0 0 1
-8.386918 31.916084 -14.360480 35.988890 -1.313826 1.981250 0.090552 -0.035966 -481180.000000 0 0 1
-7.973618 -22.160500 -3.213180 23.769537 1.225407 1.706392 0.074117 -0.013255 209521.000000 0 1 0
-7.493118 -21.145200 -4.085580 22.802594 1.230238 1.750941 0.055172 -0.011070 -62255.500000 0 1 0
-6.199618 -21.413800 -4.587080 22.760216 1.288986 1.773726 0.045226 -0.004280 -39431.700000 0 1 0
-5.903118 -20.296700 -5.573680 21.860209 1.287763 1.828612 0.032622 -0.013557 -69221.700000 0 1 0
-6.709618 -20.440900 -6.710880 22.536311 1.253632 1.873163 0.045184 -0.014627 -372950.000000 0 1 0
-6.707718 -19.295300 -7.498380 21.760694 1.236230 1.922592 0.034220 -0.016033 -333705.000000 0 1 0
-7.536018 -19.420000 -8.811880 22.618073 1.200630 1.970988 0.034080 -0.026113 -1457.460000 0 1 0
-6.975018 -20.113800 -9.862780 23.462529 1.236995 2.004642 0.028493 -0.017560 -722111.000000 0 1 0
-7.842118 -20.230800 -10.952780 24.305298 1.200997 2.038271 0.058995 -0.015953 30692.000000 0 1 0
-7.297018 -21.154700 -12.080180 25.430269 1.238640 2.065796 0.054802 -0.014339 646561.000000 0 0 1
-6.383618 -20.589600 -13.031680 25.189421 1.270153 2.114545 0.057364 -0.007074 168534.000000 0 0 1
-6.178218 -21.518100 -14.118880 26.467750 1.291200 2.133455 0.039902 -0.004259 -66119.600000 0 0 1
-5.225118 -20.921100 -15.173680 26.367307 1.326050 2.183979 0.020783 0.011063 344395.000000 0 0 1
-3.892018 -20.777000 -14.644680 25.715719 1.385619 2.176674 0.026743 0.004060 1113820.000000 0 0 1
-2.969618 -20.004900 -15.449780 25.450155 1.423428 2.223152 0.043650 0.004648 498138.000000 0 0 1
-3.219018 -18.502900 -15.397880 24.286089 1.398547 2.257538 0.042332 0.002909 -732666.000000 0 1 0
-4.376918 -18.040700 -16.047580 24.538727 1.332782 2.283616 0.038204 0.002304 -309998.000000 0 1 0
-4.386318 -17.926900 -17.464880 25.409360 1.330833 2.328617 0.048996 -0.013964 -462594.000000 0 0 1
-5.817818 -17.697000 -18.003880 25.906959 1.253180 2.339138 0.046607 -0.007690 239841.000000 0 0 1
-6.638518 -18.809400 -17.772980 26.715956 1.231508 2.298635 0.034027 -0.002339 -208209.000000 0 0 1
-8.003718 -18.595000 -18.099280 27.155432 1.164341 2.300310 0.021046 -0.009859 765195.000000 0 0 1
-8.927018 -19.744100 -17.530180 27.871641 1.146168 2.251013 0.052897 -0.014475 332369.000000 0 0 1
-8.498018 -21.056500 -17.932680 28.933951 1.187206 2.239258 0.057031 -0.008869 474222.000000 0 0 1
-9.331618 -22.063300 -17.369380 29.589925 1.170665 2.198149 0.088700 -0.021613 206899.000000 0 0 1
-8.846518 -23.440400 -17.822980 30.746900 1.209919 2.189117 0.096710 -0.024932 -745517.000000 0 0 1
-9.101618 -23.711700 -19.189480 31.832693 1.204294 2.217831 0.081243 -0.025126 541647.000000 0 0 1
-8.408118 -24.907100 -19.630580 32.808837 1.245229 2.212214 0.094285 -0.036695 86556.500000 0 0 1
-6.865418 -24.877500 -19.678980 32.454372 1.301529 2.222269 0.074864 -0.029047 -389330.000000 0 0 1
-6.300618 -23.971000 -20.704580 32.295298 1.313767 2.266730 0.087212 -0.026097 477137.000000 0 0 1
-6.100718 -22.628500 -20.243980 30.969122 1.307454 2.283237 0.060553 -0.031164 -779593.000000 0 0 1
-5.114918 -22.320800 -19.129880 29.838446 1.345531 2.266747 0.080117 -0.009881 -128144.000000 0 0 1
-3.742218 -22.569700 -19.409280 30.001929 1.406484 2.274354 0.075560 -0.026969 156732.000000 0 0 1
-3.050918 -22.435900 -18.205680 29.053821 1.435642 2.248004 0.038247 -0.022129 522175.000000 0 0 1
-1.503018 -22.647900 -18.304580 29.158946 1.504529 2.249458 0.070747 -0.020304 812143.000000 0 0 1
-0.744318 -21.736800 -19.066580 28.923640 1.536567 2.290556 0.090340 -0.032194 -845897.000000 0 0 1
0.567982 -22.158700 -19.208480 29.330808 -1.545169 2.284835 0.063152 -0.030124 2073.210000 0 0 1
1.499882 -21.158900 -19.998180 29.152631 -1.500028 2.326749 0.063177 -0.029854 464344.000000 0 0 1
1.002382 -21.085000 -21.323680 30.004689 -1.523292 2.361258 0.067593 -0.033543 -638202.000000 0 0 1
1.992082 -21.072100 -22.285480 30.735068 -1.476540 2.381951 0.072191 -0.038440 -608438.000000 0 0 1
1.414482 -21.257700 -23.724980 31.886757 -1.504355 2.409891 0.089196 -0.039047 784254.000000 0 0 1
0.675282 -20.126600 -24.328380 31.581737 -1.537257 2.450156 0.062457 -0.031006 600886.000000 0 0 1
-0.630718 -19.900600 -23.820580 31.045962 1.539113 2.445367 0.064881 -0.037956 -394765.000000 0 0 1
-1.342418 -18.791000 -24.575680 30.965591 1.499478 2.487573 0.073858 -0.039408 -517084.000000 0 0 1
-0.734918 -17.585700 -24.377080 30.067241 1.529030 2.516232 0.050933 -0.042787 -418412.000000 0 0 1
-1.462418 -16.548800 -24.993580 30.011340 1.482655 2.554951 0.066618 -0.053029 -421695.000000 0 0 1
-0.916818 -15.154200 -24.765780 29.048825 1.510371 2.591655 0.057267 -0.038674 -48010.200000 0 0 1
0.350282 -14.972400 -25.366410 29.457601 -1.547405 2.608257 0.062369 -0.044680 246460.000000 0 0 1
1.042182 -13.711700 -24.966780 28.503280 -1.494935 2.638149 0.064145 -0.043210 675987.000000 0 0 1
0.497282 -12.424200 -25.571550 28.434349 -1.530792 2.689006 0.058270 -0.034125 -260150.000000 0 0 1
1.262982 -11.278200 -25.281360 27.711732 -1.459277 2.719657 0.051115 -0.032543 -3508.470000 0 0 1
0.867282 -10.213200 -26.107530 28.047545 -1.486082 2.767477 0.054035 -0.030344 -887584.000000 0 0 1
1.625082 -8.894400 -25.811910 27.349698 -1.390081 2.804660 0.055562 -0.033170 -413684.000000 0 0 1
2.996782 -8.883900 -26.020290 27.657908 -1.245456 2.795750 0.071038 -0.033435 -757775.000000 0 0 1
3.467682 -9.211800 -27.363940 29.080359 -1.210765 2.796301 0.074834 -0.033028 62209.100000 0 0 1
4.948382 -8.783100 -27.661220 29.440999 -1.057725 2.792103 0.080807 -0.035399 250597.000000 0 0 1
5.113982 -7.366800 -27.716670 29.131364 -0.963978 2.828668 0.083895 -0.035282 -62259.500000 0 0 1
6.341482 -6.919000 -28.228120 29.747500 -0.828923 2.820605 0.068212 -0.026065 -442561.000000 0 0 1
7.623582 -6.882200 -27.344380 29.209567 -0.734333 2.782297 0.079211 -0.023364 192855.000000 0 0 1
8.068582 -8.203200 -27.077500 29.420835 -0.793671 2.739774 0.057227 -0.024174 179139.000000 0 0 1
8.756682 -8.862000 -28.116630 30.753202 -0.791376 2.724491 0.073890 -0.036360 -836481.000000 0 0 1
9.386582 -10.212000 -27.774280 31.045185 -0.827490 2.678422 0.056596 -0.027259 -407286.000000 0 0 1
8.423482 -11.194900 -27.536710 30.895813 -0.925736 2.670949 0.072985 -0.039505 -243812.000000 0 0 1
8.833582 -12.318300 -26.865610 30.846940 -0.948679 2.627894 0.063209 -0.039520 -510294.000000 0 0 1
9.714482 -13.432700 -27.583220 32.181402 -0.944671 2.600443 0.073758 -0.046923 294815.000000 0 0 1
9.025682 -14.021300 -28.675070 33.171063 -0.998854 2.614872 0.092030 -0.056301 -160568.000000 0 0 1
9.565582 -15.231200 -29.015560 34.137846 -1.010024 2.586692 0.085717 -0.049857 -138557.000000 0 0 1
8.676882 -15.975300 -30.043780 35.115911 -1.073232 2.597429 0.090114 -0.051945 -33624.800000 0 0 1
8.450382 -15.120200 -31.117900 35.613946 -1.061161 2.633669 0.085793 -0.050232 133015.000000 0 0 1
7.527382 -15.646900 -32.042750 36.444819 -1.122400 2.645004 0.102216 -0.041701 -16213.600000 0 0 1
6.458082 -14.624800 -32.504770 36.223634 -1.154963 2.684492 0.122585 -0.044848 13941.900000 0 0 1
6.996882 -13.753600 -33.430420 36.819979 -1.100188 2.709144 0.119818 -0.046358 -452889.000000 0 0 1
6.042082 -12.906400 -33.961980 36.830667 -1.132955 2.744299 0.102157 -0.044395 -499109.000000 0 0 1
6.589482 -11.766700 33.056724 35.701870 -1.060300 0.387358 0.115281 -0.041873 -178615.000000 0 0 1
6.997782 -12.178000 31.784357 34.749360 -1.049244 0.416094 0.109511 -0.036280 184939.000000 0 0 1
7.059782 -11.023300 30.907307 33.565091 -1.001170 0.400626 0.113460 -0.032757 -399523.000000 0 0 1
7.669882 -11.392400 29.570647 32.604249 -0.978253 0.434794 0.096994 -0.029797 297916.000000 0 0 1
6.784482 -12.143200 28.691667 31.885707 -1.061293 0.451420 0.092717 -0.032087 777872.000000 0 0 1
7.241082 -12.080100 27.352957 30.765994 -1.030802 0.475498 0.072163 -0.025539 -603123.000000 0 0 1
6.393582 -12.822400 26.387167 30.026229 -1.108249 0.497447 0.064135 -0.042169 -789436.000000 0 0 1
6.644682 -14.243300 26.359657 30.689655 -1.134296 0.537658 0.063413 -0.035767 137535.000000 0 0 1
5.978282 -14.970000 25.315237 30.011698 -1.190850 0.567007 0.052923 -0.043222 -103386.000000 0 0 1
4.469082 -15.193500 25.400637 29.933385 -1.284720 0.557516 0.061432 -0.054092 -679723.000000 0 0 1
3.676482 -14.066200 25.335047 29.210257 -1.315146 0.520976 0.046944 -0.057541 -311314.000000 0 0 1
2.349482 -14.389000 24.977277 28.921061 -1.408941 0.528357 0.053902 -0.052275 266016.000000 0 0 1
1.335682 -13.243600 24.779167 28.127996 -1.470281 0.492945 0.069009 -0.046622 -600237.000000 0 0 1
1.471282 -12.475200 23.612257 26.745728 -1.453402 0.488917 0.055513 -0.036238 1326.690000 0 0 1
0.519582 -11.422800 23.417067 26.059727 -1.525341 0.454246 0.066436 -0.026835 1068420.000000 0 0 1
-0.972818 -11.845600 23.216517 26.082011 1.488855 0.473154 0.069857 -0.024973 -38749.600000 0 0 1
-1.093018 -12.395100 21.893867 25.182824 1.482842 0.516816 0.076808 -0.020202 -537880.000000 0 0 1
-2.322218 -13.032700 21.769667 25.478665 1.394463 0.546349 0.087806 -0.023774 -462938.000000 0 0 1
-2.524818 -13.629100 20.335967 24.610539 1.387621 0.598270 0.091756 -0.027114 326866.000000 0 1 0
-1.602118 -14.670100 20.004267 24.858587 1.462018 0.635588 0.104510 -0.032367 50161.100000 0 1 0
-1.775718 -15.162200 18.679767 24.124245 1.454213 0.685164 0.099644 -0.038112 -65278.900000 0 1 0
-2.930018 -16.163100 18.599567 24.814809 1.391466 0.723437 0.072850 -0.037074 -24655.200000 0 1 0
-2.696518 -17.136900 17.583767 24.700879 1.414724 0.778642 0.063098 -0.040372 -754335.000000 0 1 0
-3.557218 -18.210700 17.723467 25.659398 1.377889 0.808312 0.064625 -0.028904 -724175.000000 0 0 1
-3.320318 -19.577600 17.066167 26.183220 1.402797 0.860844 0.071415 -0.031481 147053.000000 0 0 1
-2.217218 -20.215200 17.712767 26.968732 1.461552 0.854244 0.079854 -0.035942 149209.000000 0 0 1
-2.266118 -21.581700 17.483967 27.867440 1.466178 0.892589 0.083717 -0.044483 -684276.000000 0 0 1
-1.095018 -22.386100 17.972467 28.728838 1.521920 0.894909 0.095107 -0.038044 -270972.000000 0 0 1
0.057682 -22.441100 17.147367 28.242495 -1.568226 0.918330 0.101057 -0.041047 308097.000000 0 0 1
1.053882 -23.306100 17.721767 29.297543 -1.525608 0.921170 0.122613 -0.024663 200597.000000 0 0 1
2.409382 -23.221000 17.025467 28.894403 -1.467408 0.940690 0.117575 -0.033056 -508696.000000 0 0 1
3.044682 -21.976900 17.185667 28.064237 -1.433133 0.911743 0.115884 -0.030467 -58533.400000 0 0 1
4.332382 -22.122900 16.595067 27.992651 -1.377411 0.936220 0.094384 -0.014000 119978.000000 0 0 1
5.179882 -20.869400 16.788667 27.280440 -1.327508 0.907890 0.086169 -0.012851 -534861.000000 0 0 1
5.694682 -20.687000 18.122067 28.085418 -1.302171 0.869448 0.083626 -0.014626 -48451.300000 0 0 1
6.011982 -19.359600 18.464667 27.420467 -1.269696 0.832012 0.083750 -0.014837 534760.000000 0 0 1
7.139182 -18.567500 17.692567 26.622301 -1.203724 0.843869 0.092812 -0.022391 62402.000000 0 0 1
6.794482 -18.146500 16.368567 25.365142 -1.212531 0.869358 0.081329 -0.020632 -240908.000000 0 0 1
7.767582 -17.361200 15.721267 24.675997 -1.150098 0.880056 0.095396 -0.020755 -118221.000000 0 1 0
7.201282 -16.489800 14.561667 23.147659 -1.159048 0.890431 0.062689 -0.013493 -79552.000000 0 1 0
6.772982 -17.150300 13.373667 22.778522 -1.194678 0.943303 0.071608 -0.021623 -70839.600000 0 1 0
6.228682 -16.213100 12.522567 21.412048 -1.204005 0.946117 0.058286 -0.022416 -222467.000000 0 1 0
6.602582 -16.416900 11.038967 20.855874 -1.188410 1.013024 0.064135 -0.022243 179716.000000 0 1 0
7.921982 -15.921100 10.902667 20.859228 -1.109089 1.020807 0.062078 -0.028359 -255226.000000 0 1 0
8.370482 -16.097800 9.608867 20.531305 -1.091295 1.083758 0.061997 -0.031525 -110100.000000 0 1 0
9.886582 -15.851600 9.552867 20.982731 -1.013135 1.098118 0.052292 -0.018629 -175593.000000 0 1 0
10.533682 -16.185400 8.354167 21.040859 -0.993849 1.162501 0.049925 -0.018997 -869272.000000 0 1 0
11.886982 -15.890300 8.512167 21.593031 -0.928535 1.165589 0.049411 -0.014191 -222726.000000 0 1 0
12.872282 -16.798400 7.710567 22.524092 -0.916957 1.221406 0.052443 -0.019674 259657.000000 0 1 0
12.919182 -18.133900 8.258767 23.747649 -0.951775 1.215603 0.043538 -0.022341 213220.000000 0 1 0
13.737982 -18.934100 7.409567 24.538418 -0.943116 1.264051 0.052092 -0.023843 368791.000000 0 1 0
14.304082 -20.216900 8.144667 26.070393 -0.955034 1.253067 0.063690 -0.026480 434550.000000 0 0 1
13.267082 -21.134600 8.447567 26.344794 -1.010227 1.244376 0.069916 -0.027164 421285.000000 0 0 1
13.891782 -22.212600 9.109867 27.737536 -1.011909 1.236154 0.059750 -0.019298 593262.000000 0 0 1
12.887282 -22.964900 10.028167 28.178588 -1.059415 1.206942 0.078336 -0.022546 348271.000000 0 0 1
12.754282 -22.226400 11.225367 27.976659 -1.049838 1.157926 0.085027 -0.021783 512077.000000 0 0 1
11.688782 -22.722400 12.096367 28.271137 -1.095682 1.128662 0.099867 -0.024171 691007.000000 0 0 1
11.734682 -24.181200 12.768067 29.756625 -1.118993 1.127319 0.090841 -0.017291 -141163.000000 0 0 1
12.868882 -24.392700 13.579067 30.740901 -1.085336 1.113274 0.080365 -0.023838 -59747.500000 0 0 1
12.745782 -25.577780 14.267867 31.941350 -1.108498 1.107735 0.081372 -0.031137 -399376.000000 0 0 1
13.943782 -25.923950 15.129567 33.096587 -1.077312 1.096026 0.067031 -0.029578 -505482.000000 0 0 1
14.088482 -25.081610 16.256267 33.042983 -1.059011 1.056441 0.063043 -0.025601 625189.000000 0 0 1
15.094882 -25.522750 17.188067 34.273837 -1.036703 1.045473 0.056386 -0.023644 -91965.600000 0 0 1
14.878882 -25.041300 18.616067 34.568856 -1.034672 1.002115 0.054120 -0.018639 76709.100000 0 0 1
15.474282 -23.735700 18.867967 34.041696 -0.993058 0.983322 0.045799 -0.021076 248809.000000 0 0 1
16.852982 -23.858400 19.135167 34.919921 -0.955805 0.990857 0.042938 -0.021251 -88578.400000 0 0 1
17.638282 -22.491500 19.318467 34.498982 -0.905752 0.976444 0.056917 -0.018516 25818.100000 0 0 1
17.591382 -21.614400 18.186567 33.277473 -0.887653 0.992602 0.051213 -0.014676 1276760.000000 0 0 1
16.322582 -20.921600 18.002667 32.066120 -0.908259 0.974692 0.061160 -0.013419 457699.000000 0 0 1
16.446782 -19.834200 16.931867 30.831482 -0.878495 0.989420 0.045658 -0.008382 299103.000000 0 0 1
17.214382 -18.649600 17.285767 30.707333 -0.825395 0.972882 0.046785 -0.011128 655505.000000 0 0 1
18.614082 -18.862200 17.225467 31.606698 -0.792019 0.994414 0.053780 -0.008327 -612045.000000 0 0 1
19.445182 -17.649400 17.509567 31.562658 -0.737025 0.982727 0.071293 -0.012086 -551240.000000 0 0 1
19.640382 -17.328800 18.868267 32.280697 -0.722952 0.946525 0.068751 -0.002122 89166.000000 0 0 1
20.053182 -15.976900 19.045867 31.939576 -0.672742 0.931901 0.084849 -0.008851 -174756.000000 0 0 1
20.863882 -15.801300 20.330167 33.140585 -0.648190 0.910372 0.075377 -0.000978 -523448.000000 0 0 1
22.105082 -16.448700 20.332467 34.243300 -0.639723 0.935067 0.078163 -0.002527 -620777.000000 0 0 1
22.612282 -16.264500 21.622867 35.261844 -0.623547 0.910680 0.099929 -0.003970 -128880.000000 0 0 1
34.700450 -1.513000 -7.634580 35.562582 -0.043574 1.787161 0.182943 -0.034723 297336.000000 0 0 1
36.003940 -1.045800 -7.941980 36.884312 -0.029039 1.787817 0.181198 -0.033204 578266.000000 0 0 1
36.972690 -2.084300 -7.723080 37.828165 -0.056314 1.776404 0.182535 -0.041968 1129020.000000 0 0 1
-35.752662 -1.798500 -8.434080 36.777999 0.050262 1.802180 0.175708 -0.035778 1014960.000000 0 0 1
-34.800070 -2.816300 -8.145780 35.851502 0.080752 1.800007 0.179599 -0.035487 777548.000000 0 0 1
-33.551638 -2.589700 -8.828680 34.790294 0.077033 1.827371 0.206467 -0.032926 394911.000000 0 0 1
-32.499608 -3.637400 -8.488280 33.786182 0.111458 1.824753 0.194105 -0.030863 -485672.000000 0 0 1
-31.972128 -3.514900 -7.196480 32.959989 0.109497 1.790909 0.185104 -0.037307 -46886.800000 0 0 1
-30.928238 -4.393500 -6.940680 32.000497 0.141111 1.789427 0.169860 -0.039549 -238091.000000 0 0 1
-30.292568 -4.315200 -5.518780 31.092082 0.141499 1.749240 0.177297 -0.050484 144877.000000 0 0 1
-29.778398 -3.025800 -5.170680 30.375062 0.101263 1.741857 0.169050 -0.045371 555321.000000 0 0 1
-29.636888 -2.983800 -3.773380 30.024767 0.100340 1.696805 0.162160 -0.042264 -370225.000000 0 0 1
-29.287868 -1.625200 -3.202180 29.507193 0.055434 1.679532 0.193217 -0.042487 -60995.000000 0 0 1
-27.965828 -1.177700 -3.450080 28.202439 0.042087 1.693436 0.158776 -0.032365 266067.000000 0 0 1
-27.718108 0.087000 -2.908280 27.870400 -0.003139 1.675337 0.185368 -0.039869 -116874.000000 0 0 1
-26.274498 0.346400 -2.430780 26.388974 -0.013183 1.663041 0.168547 -0.025712 -38881.900000 0 0 1
-25.975308 -0.333500 -1.242480 26.007146 0.012838 1.618589 0.168276 -0.028494 398190.000000 0 0 1
-24.591218 -0.227700 -0.948880 24.610572 0.009259 1.609362 0.138569 -0.027697 222506.000000 0 1 0
-24.159118 -0.955800 0.311720 24.180027 0.039542 1.557904 0.138594 -0.031220 -172368.000000 0 1 0
-24.337118 -2.340300 0.273320 24.450911 0.095867 1.559618 0.143959 -0.028062 637250.000000 0 1 0
-23.678918 -3.055900 1.360020 23.913999 0.128346 1.513894 0.140318 -0.027787 33383.100000 0 1 0
-23.935018 -4.551700 1.361220 24.401967 0.187925 1.514984 0.146247 -0.017135 298765.000000 0 1 0
-25.254688 -4.911300 1.770220 25.788638 0.192073 1.502099 0.153945 -0.022585 593784.000000 0 0 1
-25.510868 -6.274000 1.822620 26.334187 0.241149 1.501530 0.149628 -0.011026 321327.000000 0 0 1
-26.913088 -6.749400 2.318820 27.843233 0.245717 1.487418 0.156085 -0.012489 242922.000000 0 0 1
-26.997928 -6.719900 3.738920 28.071778 0.243947 1.437208 0.156639 -0.015010 -382086.000000 0 0 1
-28.165558 -7.312900 4.205620 29.401776 0.254031 1.427264 0.114312 -0.004384 -667879.000000 0 0 1
-28.214398 -7.715600 5.734420 29.807152 0.266937 1.377205 0.125988 -0.009110 -273582.000000 0 0 1
-27.362418 -8.766000 6.103520 29.373417 0.310035 1.361481 0.125713 -0.005633 -222273.000000 0 0 1
-27.266488 -9.111400 7.486820 29.707431 0.322495 1.316031 0.091292 -0.009623 245104.000000 0 0 1
-26.495038 -8.112900 8.449120 28.968842 0.297139 1.274832 0.109760 -0.018176 572352.000000 0 0 1
-25.144138 -7.834800 8.096520 27.552957 0.302061 1.272541 0.136632 -0.024585 242094.000000 0 0 1
-24.786318 -6.647800 8.787020 27.125017 0.262038 1.240900 0.136303 -0.030307 897828.000000 0 0 1
-23.409118 -6.020400 8.317320 25.561883 0.251727 1.239383 0.183127 -0.044553 638308.000000 0 0 1
-22.261018 -6.797100 8.511320 24.782979 0.296345 1.220225 0.167416 -0.049635 382162.000000 0 1 0
-21.209618 -6.122300 7.765420 23.401543 0.281018 1.232550 0.157481 -0.045716 132161.000000 0 1 0
-19.798218 -6.495900 8.210720 22.396028 0.317038 1.195428 0.169566 -0.053499 -627411.000000 0 1 0
-19.483818 -5.834700 9.383120 22.398791 0.290965 1.138550 0.140297 -0.044394 129005.000000 0 1 0
-18.271818 -6.171100 10.013620 21.730495 0.325710 1.091889 0.132533 -0.061007 -697271.000000 0 1 0
-18.042618 -5.183900 11.204220 21.861917 0.279778 1.032703 0.124324 -0.035720 -86385.500000 0 1 0
-19.017918 -5.243400 12.232520 23.212260 0.269025 1.015747 0.127532 -0.032444 292028.000000 0 1 0
-18.975218 -4.048400 13.028020 23.370446 0.210200 0.979477 0.106435 -0.025218 102114.000000 0 1 0
-20.142118 -3.901600 14.030420 24.855182 0.191334 0.970985 0.109683 -0.031475 101504.000000 0 1 0
-20.018118 -4.764300 15.154420 25.555431 0.233652 0.936014 0.108949 -0.032653 -670414.000000 0 0 1
-21.093618 -4.515300 15.950120 26.827877 0.210878 0.934109 0.087462 -0.013832 -893292.000000 0 0 1
-21.047518 -5.397300 17.162520 27.689004 0.251025 0.902268 0.093519 -0.014368 -298731.000000 0 0 1
-21.996918 -5.064000 18.135220 28.955046 0.226272 0.893968 0.075102 -0.017859 208552.000000 0 0 1
-21.823318 -5.874100 19.285020 29.709834 0.262935 0.864379 0.090304 -0.019833 -231486.000000 0 0 1
-22.823018 -5.570100 20.428620 31.132695 0.239377 0.855052 0.090898 -0.021167 -304150.000000 0 0 1
-22.692918 -4.201000 20.788220 31.060699 0.183052 0.837561 0.071902 -0.016262 423649.000000 0 0 1
-23.347718 -3.872900 22.016320 32.323887 0.164382 0.821510 0.068988 -0.025181 -146712.000000 0 0 1
-23.273118 -2.398000 22.450520 32.425519 0.102675 0.806025 0.066934 -0.020027 235646.000000 0 0 1
-24.041718 -1.486700 21.631120 32.374679 0.061760 0.839078 0.070265 -0.021086 454015.000000 0 0 1
-23.742118 -0.101900 21.916820 32.311694 0.004292 0.825358 0.072815 -0.023547 -296116.000000 0 0 1
-24.994218 0.721800 21.742120 33.135354 -0.028871 0.855077 0.086156 -0.031673 294279.000000 0 0 1
-26.075278 0.701000 22.700720 34.579390 -0.026877 0.854652 0.088189 -0.032856 322109.000000 0 0 1
-27.266498 1.010500 22.022620 35.063925 -0.037043 0.891725 0.096535 -0.031212 -478285.000000 0 0 1
-28.408668 1.071300 23.032120 36.587958 -0.037692 0.889887 0.104503 -0.027820 -714548.000000 0 0 1
-28.176168 2.077200 23.969320 37.050499 -0.073589 0.867236 0.102297 -0.029975 49805.000000 0 0 1
-29.195778 2.065900 24.927920 38.445580 -0.070642 0.865322 0.095509 -0.028449 -249686.000000 0 0 1
-28.814518 3.089000 25.999120 38.932925 -0.106795 0.839557 0.113757 -0.027829 -489209.000000 0 0 1
-27.811478 2.626400 26.822920 38.727837 -0.094157 0.805708 0.108016 -0.030826 -417724.000000 0 0 1
-27.403268 3.593800 27.712620 39.138776 -0.130401 0.784049 0.105712 -0.029352 -147036.000000 0 0 1
-26.345908 3.093600 28.734420 39.106830 -0.116887 0.745473 0.106157 -0.029568 -83461.200000 0 0 1
-26.742918 2.029600 29.574220 39.924146 -0.075748 0.736595 0.089311 -0.027781 719886.000000 0 0 1
-25.677598 1.777700 30.520120 39.924641 -0.069121 0.700619 0.094104 -0.025694 740216.000000 0 0 1
-25.792198 0.579200 31.464420 40.688852 -0.022453 0.686777 0.065255 -0.024450 -108695.000000 0 0 1
-25.733618 -0.692800 30.810920 40.149867 0.026915 0.696024 0.059114 -0.020570 -214501.000000 0 0 1
-26.219148 -1.688900 31.640620 41.126937 0.064326 0.692988 0.060466 -0.016051 -710083.000000 0 0 1
-27.054468 -2.776700 30.915420 41.175448 0.102276 0.721491 0.048082 -0.007853 1097910.000000 0 0 1
-28.416188 -2.352500 30.651320 41.863079 0.082599 0.749279 0.044662 -0.004919 1172180.000000 0 0 1
-28.552608 -1.435100 29.561320 41.123990 0.050219 0.768673 0.044886 -0.003007 -310258.000000 0 0 1
-30.077178 -1.219000 29.325420 42.025027 0.040507 0.798463 0.065564 -0.017251 550292.000000 0 0 1
-30.753108 -0.711900 30.478420 43.303516 0.023145 0.790018 0.086153 -0.006262 -653635.000000 0 0 1
-32.102598 -0.653400 30.102620 44.013310 0.020351 0.817642 0.078534 -0.015127 -606659.000000 0 0 1
-33.035688 -0.296800 31.236820 45.466292 0.008984 0.813399 0.079085 -0.010776 -376305.000000 0 0 1
-33.148178 -1.345500 32.191120 46.226402 0.040568 0.800456 0.074621 -0.017967 -660257.000000 0 0 1
-34.134803 -1.103900 33.112520 47.569343 0.032328 0.800860 0.085251 -0.019552 -569018.000000 0 0 1
-34.326399 -2.394000 33.959120 48.345163 0.069629 0.791990 0.080397 -0.019138 -224286.000000 0 0 1
-35.227459 -3.245300 33.321020 48.598315 0.091865 0.815312 0.054544 -0.013850 -159573.000000 0 0 1
-35.207465 -4.517100 33.936120 49.108350 0.127602 0.807861 0.043870 -0.012218 380372.000000 0 0 1
-36.487218 -5.346100 33.580620 49.875404 0.145485 0.832147 0.031517 -0.005127 976153.000000 0 0 1
36.427590 -4.704000 -33.879328 49.969049 -0.128422 2.315843 0.028536 -0.015402 596915.000000 0 0 1
35.270220 -5.214600 33.391920 48.848754 -0.146784 0.818143 0.033355 -0.024102 -476687.000000 0 0 1
33.947880 -4.798600 -33.880928 48.201685 -0.140422 2.350262 0.042050 -0.024116 -757636.000000 0 0 1
33.676540 -5.463100 -32.673328 47.238768 -0.160822 2.334586 0.040451 -0.029249 -52120.100000 0 0 1
33.300380 -6.812200 -32.802028 47.236579 -0.201784 2.338410 0.053641 -0.033372 -787844.000000 0 0 1
31.866570 -7.061500 -33.302728 46.630621 -0.218072 2.366250 0.072942 -0.035520 -846524.000000 0 0 1
30.824510 -6.854800 -32.416628 45.254574 -0.218821 2.369306 0.083145 -0.040742 -827852.000000 0 0 1
29.606140 -6.959700 -33.094328 44.946585 -0.230884 2.398387 0.091911 -0.037906 -283295.000000 0 0 1
28.384250 -6.647700 -32.197528 43.434300 -0.230057 2.405791 0.115931 -0.046544 -416676.000000 0 0 1
27.169550 -7.012100 -32.770428 43.142264 -0.252575 2.433479 0.118583 -0.039076 65444.100000 0 0 1
26.094450 -6.875200 -31.829228 41.728749 -0.257619 2.438374 0.129353 -0.039146 1178530.000000 0 0 1
24.679550 -7.430900 -32.238128 41.274634 -0.292461 2.467164 0.124356 -0.043298 868873.000000 0 0 1
24.556250 -8.858300 -32.284428 41.518227 -0.346206 2.461630 0.124427 -0.047578 50406.200000 0 0 1
24.157150 -9.366000 -31.048328 40.438701 -0.369868 2.446177 0.134725 -0.041793 -293088.000000 0 0 1
23.808250 -10.881800 -31.041528 40.605699 -0.428710 2.441003 0.132227 -0.037342 128130.000000 0 0 1
22.642450 -11.275500 -31.736628 40.583630 -0.462031 2.468674 0.138929 -0.044923 -60723.800000 0 0 1
22.465450 -12.669700 -31.766728 40.918734 -0.513501 2.459630 0.120041 -0.028049 -743674.000000 0 0 1
21.253250 -13.070400 -32.624328 41.071679 -0.551364 2.488695 0.102930 -0.023917 369629.000000 0 0 1
19.967450 -12.844900 -32.073428 39.904828 -0.571645 2.504365 0.098735 -0.015691 170818.000000 0 0 1
19.565750 -11.457900 -32.113128 39.311004 -0.529771 2.526811 0.089255 -0.029142 -536805.000000 0 0 1
18.248050 -11.153200 -31.344728 37.945714 -0.548614 2.542844 0.070386 -0.028046 731698.000000 0 0 1
17.077650 -11.506900 -32.093928 38.132337 -0.592924 2.571120 0.051766 -0.016362 164364.000000 0 0 1
15.918950 -11.159700 -31.358728 36.896093 -0.611419 2.586630 0.062090 -0.028121 -483708.000000 0 0 1
14.623450 -11.484500 -32.061628 37.063284 -0.665743 2.616048 0.061587 -0.027019 -1078710.000000 0 0 1
14.505350 -12.861500 -32.355828 37.719000 -0.725403 2.601795 0.077494 -0.029777 1194010.000000 0 0 1
13.353750 -13.200200 -33.208328 38.149194 -0.779616 2.626985 0.069619 -0.035580 1362600.000000 0 0 1
11.990750 -13.326800 -32.490728 37.108343 -0.838121 2.637398 0.064857 -0.033970 -302777.000000 0 0 1
11.383650 -12.099200 -32.211128 36.242722 -0.815860 2.665432 0.105899 -0.034916 -427986.000000 0 0 1
10.249750 -12.326900 -31.384128 35.241642 -0.877144 2.669329 0.102290 -0.041997 -237374.000000 0 0 1
9.135250 -11.372400 -31.790828 34.977722 -0.894057 2.711406 0.099276 -0.037973 -836671.000000 0 0 1
9.255850 -9.985900 -31.554028 34.366345 -0.823321 2.734224 0.094328 -0.032314 -450051.000000 0 0 1
8.137250 -9.226200 -31.883728 34.174694 -0.848031 2.773355 0.090251 -0.029735 -565341.000000 0 0 1
8.458950 -7.747000 -32.067628 34.057343 -0.741495 2.798080 0.095376 -0.027736 -89978.600000 0 0 1
8.750450 -7.030900 -30.884828 32.861475 -0.676865 2.792985 0.087725 -0.032748 293328.000000 0 0 1
9.269050 -5.750900 -31.196228 33.048340 -0.555314 2.805218 0.075120 -0.025358 -141959.000000 0 0 1
9.344050 -4.759800 -30.029128 31.807476 -0.471134 2.805621 0.068182 -0.016390 330044.000000 0 0 1
8.072350 -4.266500 -29.609828 30.985606 -0.486212 2.842484 0.068783 -0.015053 346333.000000 0 0 1
8.176550 -3.128400 -28.768828 30.071387 -0.365423 2.846188 0.071016 -0.018520 166554.000000 0 0 1
6.738250 -2.661100 -28.498528 29.404958 -0.376123 2.892653 0.074357 -0.015965 -1089780.000000 0 0 1
6.048950 -2.063400 -29.539128 30.222632 -0.328739 2.928513 0.065341 -0.012188 206546.000000 0 0 1
4.822650 -1.466000 -29.106828 29.540050 -0.295106 2.970119 0.073747 -0.015613 991134.000000 0 0 1
3.630450 -2.496400 -29.071928 29.403897 -0.602374 2.991185 0.077212 -0.020581 -435583.000000 0 0 1
3.713950 -3.360900 -27.946428 28.391758 -0.735537 2.964244 0.073883 -0.021800 217917.000000 0 0 1
2.715050 -4.393400 -27.860328 28.334984 -1.017258 2.958297 0.077089 -0.023301 410327.000000 0 0 1
2.992750 -5.330800 -26.704028 27.394874 -1.059237 2.916538 0.071733 -0.029535 -180819.000000 0 0 1
2.809050 -4.730200 -25.464028 26.051531 -1.034908 2.928816 0.059684 -0.033195 43194.500000 0 0 1
3.085050 -5.669300 -24.438728 25.276668 -1.072442 2.883385 0.061510 -0.040664 35448.900000 0 0 1
2.940050 -5.101400 -23.018628 23.759744 -1.047969 2.891171 0.060051 -0.039949 -382989.000000 0 1 0
3.944650 -4.176400 -22.775628 23.488972 -0.813927 2.894513 0.062308 -0.033241 -354170.000000 0 1 0
3.795850 -3.615800 -21.487628 22.117881 -0.761110 2.902296 0.052124 -0.031609 -741895.000000 0 1 0
4.858450 -2.582100 -21.178828 21.881831 -0.488502 2.887424 0.059586 -0.029762 -897992.000000 0 1 0
6.154750 -3.067800 -21.071428 22.165230 -0.462402 2.826128 0.058741 -0.025257 -1068440.000000 0 1 0
6.991350 -2.115400 -20.520228 21.781498 -0.293817 2.799618 0.067138 -0.019772 861945.000000 0 1 0
8.502250 -2.549000 -20.362228 22.212744 -0.291276 2.730516 0.076842 -0.021877 483897.000000 0 1 0
9.252050 -2.782300 -21.576628 23.640907 -0.292120 2.720596 0.083232 -0.032996 736136.000000 0 1 0
10.527150 -3.381700 -21.391728 24.080341 -0.310824 2.664532 0.081137 -0.034341 1115260.000000 0 1 0
11.647350 -2.605600 -20.602128 23.809611 -0.220084 2.616517 0.067239 -0.031146 -380428.000000 0 1 0
11.405550 -2.538400 -19.197628 22.473962 -0.218989 2.594838 0.058433 -0.018332 -266839.000000 0 1 0
12.529950 -2.094100 -18.510528 22.450491 -0.165597 2.540122 0.048450 -0.026555 -526432.000000 0 1 0
12.780150 -0.566500 -18.489428 22.483596 -0.044298 2.536329 0.041704 -0.025443 -245679.000000 0 1 0
13.436650 -0.017500 -19.595328 23.759646 -0.001302 2.540524 0.060211 -0.031828 245132.000000 0 1 0
13.430150 1.382900 -19.504228 23.721220 0.102608 2.536109 0.075100 -0.040601 -343586.000000 0 1 0
13.692850 2.216600 -20.734728 24.946671 0.160488 2.551991 0.064438 -0.039072 188026.000000 0 1 0
15.010150 2.153500 -21.290528 26.138645 0.142497 2.522703 0.060783 -0.034760 684898.000000 0 0 1
15.163850 3.301900 -22.099528 27.004334 0.214401 2.529365 0.065120 -0.037715 -331780.000000 0 0 1
16.577850 3.374200 -22.708628 28.317700 0.200794 2.501304 0.047188 -0.028144 63170.400000 0 0 1
16.958150 2.428200 -23.729128 29.266816 0.142221 2.516290 0.040763 -0.029864 170286.000000 0 0 1
17.646450 1.275300 -23.286828 29.245512 0.072144 2.491872 0.043263 -0.025502 -283549.000000 0 0 1
9.416282 26.533600 3.138820 28.329322 1.229779 1.459771 0.025111 -0.005301 -10285.200000 0 0 1
9.392582 27.121600 4.407520 29.038388 1.237409 1.418425 0.028861 -0.007443 970917.000000 0 0 1
10.664682 27.757500 4.659820 30.098640 1.203977 1.415353 0.033229 -0.007605 657161.000000 0 0 1
10.837582 28.351100 6.043420 30.947713 1.205673 1.374255 0.033473 -0.007468 -99294.500000 0 0 1
10.871882 27.328300 7.002620 30.233598 1.192166 1.337057 0.031229 -0.003522 187570.000000 0 0 1
10.634582 27.916700 8.264620 30.995813 1.206828 1.300895 0.040024 0.000351 -407207.000000 0 0 1
10.427282 26.981000 9.436620 30.426179 1.202010 1.255448 0.049851 -0.002568 -322074.000000 0 0 1
11.549782 26.321400 9.946520 30.416226 1.157297 1.237655 0.044665 0.002637 -9523.020000 0 0 1
12.263782 25.442100 9.069320 29.664008 1.121630 1.260086 0.038213 -0.002087 -340517.000000 0 0 1
13.510682 24.797300 9.665720 29.847458 1.071920 1.241014 0.049526 -0.006698 -333517.000000 0 0 1
14.561482 25.672000 9.961820 31.150059 1.054834 1.245277 0.060387 -0.010399 -478386.000000 0 0 1
15.632182 25.043900 10.613520 31.372103 1.012779 1.225675 0.064155 -0.009952 -165856.000000 0 0 1
16.668382 26.139800 11.061020 32.916109 1.003143 1.228091 0.062522 -0.011399 -676942.000000 0 0 1
17.310182 26.668800 9.890220 33.296903 0.995068 1.269214 0.067797 -0.022912 -1051000.000000 0 0 1
18.608182 26.243500 9.719620 33.607391 0.954017 1.277394 0.081842 -0.031065 -368341.000000 0 0 1
19.641082 26.960700 10.705220 35.032173 0.941193 1.260246 0.075137 -0.029524 -419333.000000 0 0 1
19.836982 28.401800 10.496720 36.198746 0.961117 1.276596 0.073078 -0.035676 416558.000000 0 0 1
18.663382 29.186600 10.719220 36.264047 1.001873 1.270725 0.060920 -0.015393 182831.000000 0 0 1
18.972282 30.655000 10.810720 37.637058 1.016598 1.279456 0.055910 -0.000196 -710778.000000 0 0 1
19.342082 31.381200 9.643720 38.103768 1.018435 1.314922 0.070189 -0.025957 363719.000000 0 0 1
18.379482 31.525000 8.569420 37.484209 1.042961 1.340142 0.070581 -0.038500 751342.000000 0 0 1
17.078382 32.274900 8.999620 37.607625 1.084099 1.329148 0.063470 -0.025036 -206485.000000 0 0 1
17.316982 33.642500 9.350320 38.975943 1.095430 1.328534 0.053676 -0.021142 21005.400000 0 0 1
16.085982 -33.760555 9.557120 38.598865 -1.126147 1.320593 0.071944 -0.015394 133528.000000 0 0 1
16.155382 -32.295755 9.922220 37.449467 -1.106963 1.302645 0.093319 -0.015488 -146366.000000 0 0 1
16.769482 -31.610655 8.826420 36.855864 -1.083047 1.328961 0.086158 -0.024060 163764.000000 0 0 1
16.972682 -30.237655 8.960120 35.814402 -1.059312 1.317928 0.062684 -0.014766 71871.300000 0 0 1
17.588082 -29.673255 7.644120 35.330939 -1.035743 1.352714 0.063453 -0.010057 284288.000000 0 0 1
16.691582 -29.724755 6.553520 34.714817 -1.059138 1.380875 0.080640 -0.011565 115492.000000 0 0 1
17.393482 -29.408255 5.368920 34.586181 -1.036688 1.414933 0.079581 -0.007779 355492.000000 0 0 1
16.573082 -29.741955 4.066120 34.289710 -1.062420 1.451935 0.087190 -0.025727 386506.000000 0 0 1
16.769882 -31.087455 3.615020 35.506720 -1.076095 1.468807 0.072717 -0.027652 -64612.400000 0 0 1
16.710082 -31.172955 2.246720 35.440481 -1.078731 1.507360 0.079199 -0.030801 -15013.800000 0 0 1
17.142182 -32.603055 1.722520 36.875204 -1.086735 1.524067 0.069731 -0.026686 -411656.000000 0 0 1
18.496082 -32.891755 1.912820 37.784010 -1.058535 1.520150 0.073556 -0.016957 -399386.000000 0 0 1
18.903882 33.849400 1.521620 38.800180 1.061473 1.531569 0.088142 -0.020021 -602607.000000 0 0 1
20.322282 33.387300 1.782220 39.126503 1.024017 1.525230 0.102696 -0.029213 -651441.000000 0 0 1
20.580682 33.166400 3.123820 39.157793 1.015419 1.490936 0.090112 -0.055673 -85399.400000 0 0 1
21.886382 32.687900 3.326420 39.478824 0.980796 1.486438 0.061136 -0.037875 -516130.000000 0 0 1
22.156282 32.327600 4.782920 39.482285 0.969959 1.449357 0.060820 -0.023410 -122230.000000 0 0 1
21.475082 31.235100 5.440020 38.293660 0.968488 1.428254 0.074392 -0.039792 183403.000000 0 0 1
22.261182 30.088100 5.487020 37.828050 0.933812 1.425231 0.059204 -0.042899 142686.000000 0 0 1
21.438582 29.017700 6.286720 36.621886 0.934495 1.398276 0.076421 -0.055878 534399.000000 0 0 1
20.197782 28.804500 5.632320 35.628256 0.959264 1.412045 0.078304 -0.050318 -492504.000000 0 0 1
19.223082 28.509600 6.593520 35.011407 0.977550 1.381340 0.085829 -0.055935 282391.000000 0 0 1
17.805482 28.709500 5.936920 34.300402 1.015660 1.396834 0.083390 -0.053356 195349.000000 0 0 1
17.355782 30.071700 5.816720 35.204609 1.047350 1.404809 0.079672 -0.058621 80497.200000 0 0 1
17.844582 30.805300 4.653120 35.903302 1.045759 1.440829 0.087801 -0.057307 -91375.100000 0 0 1
17.762182 32.325700 4.815620 37.197260 1.068356 1.440970 0.097700 -0.059764 848019.000000 0 0 1
16.421482 32.803800 5.032620 37.028119 1.106671 1.434461 0.076917 -0.051572 506743.000000 0 0 1
16.418182 -33.982555 5.521320 38.142570 -1.120731 1.425531 0.086291 -0.048532 -303956.000000 0 0 1
15.066282 -33.258355 5.608520 36.940039 -1.145444 1.418379 0.088033 -0.044408 -412805.000000 0 0 1
14.379382 -33.144055 4.424320 36.398758 -1.161458 1.448944 0.075664 -0.034380 -793083.000000 0 0 1
13.287382 -32.267955 4.576420 35.195440 -1.180174 1.440398 0.073635 -0.030679 10023.700000 0 0 1
12.549082 -32.055455 3.235920 34.576044 -1.197656 1.477071 0.073131 -0.029502 -73128.800000 0 0 1
11.482682 -31.155455 3.290120 33.366738 -1.217683 1.472031 0.075995 -0.031059 -614533.000000 0 0 1
10.776982 -31.075155 2.126020 32.959498 -1.236972 1.506248 0.066568 -0.017983 -642665.000000 0 0 1
9.840482 -29.829655 1.932420 31.470266 -1.252149 1.509353 0.068257 -0.019715 426145.000000 0 0 1
9.201882 -29.643155 0.686920 31.046145 -1.269806 1.548669 0.074263 -0.011396 -137763.000000 0 0 1
8.273982 -30.610655 0.288120 31.710471 -1.306807 1.561710 0.060050 -0.013341 -745805.000000 0 0 1
8.580482 -31.207055 -1.126780 32.384789 -1.302474 1.605597 0.084526 -0.021345 -349424.000000 0 0 1
9.718182 -32.017055 -1.167080 33.479799 -1.276103 1.605663 0.077551 -0.023492 -439630.000000 0 0 1
9.809382 -32.698955 -2.335280 34.218403 -1.279348 1.639096 0.083854 -0.020559 629473.000000 0 0 1
11.108682 -33.592255 -2.335780 35.458402 -1.251425 1.636718 0.071411 -0.015657 606262.000000 0 0 1
11.115982 33.590800 -1.261880 35.404791 1.251216 1.606445 0.069249 -0.021621 -142657.000000 0 0 1
12.287382 32.823600 -1.301480 35.072244 1.212599 1.607913 0.081878 -0.022990 -551967.000000 0 0 1
12.468982 31.928600 -0.048980 34.277010 1.198483 1.572225 0.067390 -0.029921 -513825.000000 0 0 1
12.743982 32.543700 1.174620 34.969718 1.197556 1.537200 0.066413 -0.027875 1827410.000000 0 0 1
14.095882 33.133600 1.264220 36.029537 1.168565 1.535701 0.076142 -0.027505 1760860.000000 0 0 1
15.257382 32.144300 1.544020 35.614993 1.127631 1.527430 0.080624 -0.035955 -381990.000000 0 0 1
15.754082 31.430300 0.403220 35.159884 1.106158 1.559328 0.086753 -0.032226 -513207.000000 0 0 1
16.940282 30.816800 0.757520 35.174169 1.068176 1.549258 0.082095 -0.031296 -744285.000000 0 0 1
17.511882 30.076800 -0.491880 34.806922 1.043539 1.584928 0.082130 -0.021399 484939.000000 0 0 1
18.528982 30.756600 -1.253580 35.928583 1.028585 1.605694 0.064540 -0.010515 370796.000000 0 0 1
18.120882 31.917500 -1.949880 36.754526 1.054434 1.623873 0.070797 -0.013526 -195641.000000 0 0 1
19.250982 32.745700 -2.619080 38.075461 1.039326 1.639637 0.060411 -0.006931 11975.000000 0 0 1
19.991482 33.528500 -1.699380 39.073105 1.033136 1.614302 0.054632 -0.010192 -337966.000000 0 0 1
20.972382 -33.864955 -2.456580 39.908780 -1.016310 1.632390 0.051842 -0.003456 -1106250.000000 0 0 1
22.008682 -33.124155 -1.565780 39.800042 -0.984344 1.610148 0.053247 -0.006520 -279381.000000 0 0 1
22.922282 -33.973455 -0.832180 40.991696 -0.977245 1.591099 0.046037 -0.012344 754282.000000 0 0 1
23.823382 33.268500 -1.542080 40.947828 0.949350 1.608465 0.039272 -0.006667 -113229.000000 0 0 1
24.724882 33.925700 -2.653980 42.063244 0.941005 1.633933 0.036273 -0.008668 -902234.000000 0 0 1
24.071182 -33.850055 -3.902180 41.719000 -0.952651 1.664468 0.044895 -0.018104 459308.000000 0 0 1
24.918382 -33.204055 -4.894080 41.801758 -0.927000 1.688144 0.040282 -0.024393 491636.000000 0 0 1
24.113382 -32.641655 -6.118080 41.041000 -0.934547 1.720426 0.044384 -0.027149 101612.000000 0 0 1
23.151082 -31.676155 -5.758880 39.654963 -0.939653 1.716536 0.055693 -0.023740 233470.000000 0 0 1
22.438282 -31.214255 -6.911280 39.058571 -0.947533 1.748680 0.059636 -0.024464 439654.000000 0 0 1
21.447782 -30.054155 -6.611180 37.509562 -0.950976 1.747975 0.079679 -0.024652 824931.000000 0 0 1
20.170382 -30.327155 -6.049180 36.921175 -0.983884 1.735379 0.077019 -0.019866 461214.000000 0 0 1
19.340782 -29.158355 -6.016680 35.503182 -0.985127 1.741087 0.086436 -0.029217 1361740.000000 0 0 1
18.033482 -29.272455 -5.126580 34.761543 -1.018654 1.718815 0.079951 -0.014987 838669.000000 0 0 1
17.105582 -30.195555 -5.635380 35.158640 -1.055378 1.731775 0.075112 -0.022141 579167.000000 0 0 1
15.924082 -30.134555 -4.764780 34.414690 -1.084662 1.709694 0.055799 -0.017658 977261.000000 0 0 1
14.799082 -31.073455 -5.181580 34.805476 -1.126319 1.720224 0.048925 -0.014336 -230740.000000 0 0 1
15.105082 -32.472555 -5.071780 36.171166 -1.135403 1.711476 0.046333 -0.008918 -461739.000000 0 0 1
13.992482 -33.203255 -5.499980 36.448531 -1.171963 1.722272 0.064510 -0.009924 -183375.000000 0 0 1
14.230682 33.347100 -5.497680 36.671049 1.167449 1.721282 0.057403 -0.010339 7977.900000 0 0 1
14.449782 32.900600 -4.158980 36.173786 1.156964 1.686023 0.057288 -0.019409 172402.000000 0 0 1
14.876782 31.506200 -4.093480 35.081560 1.129647 1.687747 0.065454 -0.021835 787004.000000 0 0 1
13.773582 30.491000 -4.644380 33.778438 1.146508 1.708729 0.078113 -0.031166 990796.000000 0 0 1
12.726382 30.077500 -3.773480 32.876374 1.170519 1.685828 0.074782 -0.030662 115321.000000 0 0 1
13.098682 29.246700 -2.671080 32.157108 1.149716 1.653956 0.083556 -0.030964 -103283.000000 0 0 1
11.914782 28.520500 -1.981780 30.972704 1.175072 1.634825 0.068351 -0.024725 127252.000000 0 0 1
11.000882 29.309600 -1.287380 31.332561 1.211733 1.611896 0.060204 -0.032176 -92819.200000 0 0 1
9.923682 28.559000 -0.745880 30.243219 1.236368 1.595462 0.048071 -0.020363 797198.000000 0 0 1
8.760282 29.375200 -0.091980 30.653766 1.280973 1.573797 0.033643 -0.012926 1123090.000000 0 0 1
7.742082 28.546100 0.500520 29.581585 1.305954 1.553876 0.028750 -0.010171 323618.000000 0 0 1
6.628582 29.294400 0.936320 30.049570 1.348269 1.539632 0.040084 -0.008173 94892.600000 0 0 1
5.583982 28.385400 1.666520 28.977389 1.376556 1.513254 0.024426 -0.008083 135661.000000 0 0 1
5.134782 27.310800 0.906720 27.804099 1.384953 1.538180 0.026576 -0.014153 78998.500000 0 0 1
4.034982 26.724400 1.600520 27.074643 1.420943 1.511647 0.024531 -0.017993 252514.000000 0 0 1
3.359182 25.708500 0.688420 25.936171 1.440868 1.544250 0.032373 -0.023734 -98027.900000 0 0 1
2.231882 25.044800 1.225420 25.173894 1.481916 1.522099 0.047581 -0.028106 -37978.300000 0 0 1
1.609782 24.303000 0.226320 24.357307 1.504655 1.561505 0.045205 -0.028151 -42698.000000 0 1 0
0.275882 23.636300 0.647720 23.646782 1.559125 1.543401 0.055527 -0.026101 234619.000000 0 1 0
-0.732118 24.582300 0.905720 24.609872 -1.541023 1.533985 0.066752 -0.028983 193390.000000 0 1 0
-2.035218 24.072200 0.613620 24.165874 -1.486450 1.545402 0.059539 -0.024708 1009830.000000 0 1 0
-3.189318 24.830300 1.354620 25.070910 -1.443051 1.516738 0.096267 -0.038775 1079390.000000 0 0 1
-4.529518 24.449800 1.017820 24.886647 -1.387615 1.529887 0.091657 -0.031577 764503.000000 0 1 0
-5.457018 24.781500 2.048420 25.457765 -1.354050 1.490246 0.090749 -0.037089 1125840.000000 0 0 1
-6.841618 25.161600 1.370020 26.111124 -1.305308 1.518303 0.103092 -0.035595 727100.000000 0 0 1
-6.786518 26.413800 0.753720 27.282114 -1.319305 1.543166 0.117735 -0.042067 -397655.000000 0 0 1
-7.862918 26.626200 -0.097680 27.763097 -1.283650 1.574315 0.111351 -0.034552 -560932.000000 0 0 1
-7.738018 27.837400 -0.998380 28.910111 -1.299669 1.605337 0.106474 -0.035093 -160622.000000 0 0 1
-7.967818 29.106800 -0.414180 30.180515 -1.303598 1.584520 0.121983 -0.048161 138090.000000 0 0 1
-8.048818 30.039300 -1.455980 31.132987 -1.309003 1.617580 0.121798 -0.046511 -247865.000000 0 0 1
-8.074718 31.515200 -1.041180 32.549853 -1.319975 1.602789 0.116458 -0.040729 -506524.000000 0 0 1
-8.264318 32.449900 -2.140780 33.554104 -1.321418 1.634641 0.094228 -0.027312 950639.000000 0 0 1
-7.217518 32.467200 -3.167380 33.410237 -1.352052 1.665742 0.074586 -0.027233 2087060.000000 0 0 1
-5.726218 32.827800 -2.758380 33.437444 -1.398102 1.653384 0.093867 -0.025712 805634.000000 0 0 1
-5.519818 -33.852455 -2.460880 34.387687 1.409164 1.642420 0.092453 -0.031598 300315.000000 0 0 1
-4.801518 -33.772155 -1.210080 34.133229 1.429569 1.606255 0.112323 -0.034069 52667.000000 0 0 1
-4.414818 -32.378955 -0.707280 32.686198 1.435284 1.592437 0.099740 -0.031746 48291.700000 0 0 1
-5.459818 -31.483755 -0.335780 31.955425 1.399087 1.581304 0.099264 -0.032439 -119892.000000 0 0 1
-5.540618 -30.437755 -1.278180 30.964320 1.390737 1.612087 0.094166 -0.028274 279531.000000 0 0 1
-6.872518 -29.624855 -1.309380 30.439744 1.342844 1.613825 0.109888 -0.029892 345002.000000 0 0 1
-7.190718 -28.991155 -0.118580 29.869843 1.327671 1.574766 0.111719 -0.022890 -248440.000000 0 0 1
-8.465518 -28.386955 -0.059780 29.622420 1.280975 1.572814 0.090908 -0.016763 212214.000000 0 0 1
-8.674118 -27.747355 1.341720 29.102512 1.267811 1.524677 0.092851 -0.018712 589223.000000 0 0 1
-7.742518 -26.650355 1.474020 27.791379 1.288057 1.517733 0.093012 -0.025373 232640.000000 0 0 1
-7.408818 -26.292555 2.802720 27.459866 1.296134 1.468552 0.103896 -0.026364 157415.000000 0 0 1
-8.463218 -25.357855 3.450920 26.954697 1.248670 1.442417 0.088344 -0.024582 198811.000000 0 0 1
-8.522018 -24.082155 2.936120 25.713727 1.230676 1.456362 0.087097 -0.024611 -211122.000000 0 0 1
-9.357518 -23.239455 3.727320 25.328409 1.188002 1.423100 0.084373 -0.026165 211707.000000 0 0 1
-8.648818 -21.878655 3.950720 23.855519 1.194341 1.404419 0.054421 -0.011499 727842.000000 0 1 0
-7.522318 -21.946455 4.831020 23.697487 1.240588 1.365495 0.045660 -0.016412 -166560.000000 0 1 0
-6.927618 -20.698655 5.121420 22.419972 1.247826 1.340330 0.030956 -0.014846 108665.000000 0 1 0
-7.828618 -19.552155 5.702820 21.819628 1.189948 1.306363 0.041723 -0.022157 201516.000000 0 1 0
-8.305818 -19.868655 7.001820 22.644548 1.174839 1.256439 0.046375 -0.024323 91812.300000 0 1 0
-9.121518 -18.888155 7.618520 22.316055 1.120904 1.222399 0.040564 -0.023932 -317731.000000 0 1 0
-27.852798 28.305400 -5.550480 40.097155 -0.793457 1.709668 0.115988 -0.022503 -109008.000000 0 0 1
-27.251358 28.988000 -4.511780 40.041189 -0.816268 1.683715 0.108113 -0.037694 -449556.000000 0 0 1
-26.257748 28.219700 -3.890680 38.742202 -0.821397 1.671391 0.091167 -0.037582 182035.000000 0 0 1
-25.327948 29.058800 -2.961180 38.661187 -0.853889 1.647465 0.084177 -0.029539 -212540.000000 0 0 1
-25.984778 29.438500 -1.746180 39.305001 -0.847633 1.615237 0.071387 -0.031114 295776.000000 0 0 1
-25.351118 30.525700 -1.029180 39.693284 -0.877742 1.596728 0.067995 -0.025559 807083.000000 0 0 1
-23.987518 30.211700 -0.297580 38.577667 -0.899736 1.578510 0.047252 -0.018627 1010910.000000 0 0 1
-23.009418 29.777200 -1.273480 37.652845 -0.912913 1.604624 0.067950 -0.024121 -303279.000000 0 0 1
-21.748518 29.962500 -0.680280 37.029883 -0.942926 1.589168 0.057402 -0.019626 -758960.000000 0 0 1
-20.619718 29.368300 -1.499880 35.915449 -0.958657 1.612570 0.051644 -0.017463 -487598.000000 0 0 1
-19.337418 29.693600 -1.029480 35.450042 -0.993556 1.599841 0.051814 -0.012783 -672466.000000 0 0 1
-18.319918 29.115800 -1.764180 34.445051 -1.009176 1.622036 0.050500 -0.014995 461470.000000 0 0 1
-16.884518 29.664300 -1.417780 34.162373 -1.053342 1.612309 0.045559 -0.021067 761900.000000 0 0 1
-16.575818 29.301900 -0.053280 33.665441 -1.055986 1.572379 0.042630 -0.014946 -192782.000000 0 0 1
-15.499818 30.010500 0.501820 33.780561 -1.094052 1.555941 0.040589 -0.018964 -379201.000000 0 0 1
-14.868618 29.292200 1.689820 32.893225 -1.101090 1.519401 0.058291 -0.025613 -559292.000000 0 0 1
-15.597018 29.289500 2.890320 33.309094 -1.081478 1.483914 0.040715 -0.019525 -417495.000000 0 0 1
-15.077018 28.471900 3.905120 32.453282 -1.083797 1.450174 0.043784 -0.031855 183321.000000 0 0 1
-13.802518 28.979300 4.651020 32.433645 -1.126297 1.426899 0.067407 -0.027404 275625.000000 0 0 1
-13.938018 30.127400 5.502920 33.648339 -1.137484 1.406516 0.050550 -0.026614 -396289.000000 0 0 1
-14.064218 31.341400 4.809320 34.687392 -1.148989 1.431701 0.058264 -0.029283 -365174.000000 0 0 1
-14.112518 32.603000 5.755820 35.989557 -1.162287 1.410176 0.067438 -0.028222 -33329.400000 0 0 1
-15.329418 32.819100 6.432920 36.789494 -1.133823 1.395035 0.061361 -0.028189 -106463.000000 0 0 1
-15.195218 -33.993055 7.109020 37.907263 1.150432 1.382142 0.084083 -0.032455 1095760.000000 0 0 1
-16.421818 -33.659255 8.067120 38.310572 1.116888 1.358637 0.062581 -0.024515 920463.000000 0 0 1
-16.229918 33.799800 9.325020 38.636676 -1.123132 1.327038 0.030475 -0.020708 65708.100000 0 0 1
-17.466118 33.692000 10.003520 39.246485 -1.092533 1.313063 0.055174 -0.027575 -433355.000000 0 0 1
-17.462618 33.009200 11.391420 39.042474 -1.084201 1.274720 0.049632 -0.020179 214486.000000 0 0 1
-16.660318 33.561600 12.434820 39.478753 -1.110025 1.250366 0.058577 -0.024733 -340006.000000 0 0 1
-15.291318 33.319300 12.292020 38.666444 -1.140539 1.247284 0.064759 -0.020172 -705041.000000 0 0 1
-14.483718 33.544900 13.604520 38.988734 -1.163205 1.214362 0.059586 -0.018566 -196065.000000 0 0 1
-14.538718 32.462300 14.561720 38.434606 -1.149720 1.182221 0.051053 -0.010964 380925.000000 0 0 1
-13.747718 31.266300 14.333520 37.040938 -1.156543 1.173459 0.042905 -0.010877 211016.000000 0 0 1
-14.477118 30.077400 13.586520 36.039290 -1.122197 1.184250 0.038462 -0.013713 139855.000000 0 0 1
-14.507718 30.158100 12.161220 35.607305 -1.122419 1.222244 0.036258 -0.008756 735499.000000 0 0 1
-15.723718 29.579000 11.681120 35.476769 -1.082202 1.235275 0.018312 -0.008975 447019.000000 0 0 1
-15.691518 29.306100 10.164420 34.761856 -1.079204 1.274059 0.016121 -0.005871 -649717.000000 0 0 1
-14.880518 28.271400 9.854320 33.433658 -1.086295 1.271610 0.008984 -0.000279 -421709.000000 0 0 1
-14.733618 28.127100 8.425520 32.851220 -1.088273 1.311423 0.013468 -0.008620 -721923.000000 0 0 1
-14.043018 26.836500 7.940620 31.312258 -1.088698 1.314402 0.029826 -0.014573 1248450.000000 0 0 1
-12.633718 26.986900 8.296620 30.931174 -1.132958 1.299243 0.033532 -0.010916 1309530.000000 0 0 1
-11.898218 25.819400 8.052620 29.547482 -1.138977 1.294773 0.048052 -0.016738 448663.000000 0 0 1
-10.761218 26.037000 6.978920 29.024722 -1.178873 1.327970 0.081659 -0.025435 175277.000000 0 0 1
-11.280318 26.156500 5.689620 29.047889 -1.163633 1.373651 0.092797 -0.027554 212230.000000 0 0 1
-10.276718 25.979400 4.724920 28.334873 -1.194113 1.403261 0.126657 -0.024930 -348762.000000 0 0 1
-10.721118 26.395000 3.351920 28.685776 -1.184974 1.453679 0.127629 -0.032580 -253126.000000 0 0 1
-10.656618 27.801800 3.121320 29.937372 -1.204763 1.466345 0.125698 -0.033537 100508.000000 0 0 1
-11.035418 28.162100 1.786520 30.299769 -1.197332 1.511801 0.132212 -0.036807 -26003.200000 0 0 1
-10.749018 29.662200 1.403920 31.580983 -1.223135 1.526327 0.159162 -0.044227 -309938.000000 0 0 1
-11.546518 30.639000 1.978620 32.802215 -1.210399 1.510440 0.125889 -0.046348 -288446.000000 0 0 1
-11.125518 31.984700 1.677620 33.905937 -1.236048 1.521297 0.126437 -0.047873 117490.000000 0 0 1
-12.014918 32.993700 2.468720 35.199958 -1.221565 1.500605 0.123516 -0.043393 -105186.000000 0 0 1
-13.317118 33.274600 2.077220 35.900689 -1.190101 1.512904 0.083544 -0.039550 -672351.000000 0 0 1
-13.402418 34.027400 0.869920 36.582038 -1.195584 1.547014 0.081218 -0.034587 -154771.000000 0 0 1
-14.832218 -33.593055 0.401820 36.723963 1.155011 1.559854 0.079428 -0.027055 298896.000000 0 0 1
-15.477918 33.389800 -0.167180 36.803161 -1.136730 1.575339 0.067941 -0.019681 -344449.000000 0 0 1
-15.549418 33.302400 -1.610580 36.788969 -1.133965 1.614589 0.073316 -0.025348 2032.670000 0 0 1
-14.265818 32.908700 -2.394480 35.947596 -1.161751 1.637456 0.073725 -0.027625 371993.000000 0 0 1
-13.686218 31.612700 -2.102180 34.512237 -1.162225 1.631745 0.068727 -0.028931 847156.000000 0 0 1
-12.259318 31.668800 -2.211580 34.030793 -1.201451 1.635830 0.070202 -0.025814 626276.000000 0 0 1
-11.697918 30.230500 -2.369180 32.501345 -1.201584 1.643756 0.041970 -0.027592 -178818.000000 0 0 1
-11.901218 29.474100 -3.547980 31.983585 -1.187031 1.681956 0.033761 -0.028464 135221.000000 0 0 1
-10.858618 29.723500 -4.482780 31.960778 -1.220538 1.711519 0.042543 -0.034883 245439.000000 0 0 1
-11.229218 29.147500 -5.862580 31.781157 -1.203065 1.756326 0.035247 -0.029987 -203209.000000 0 0 1
-11.355918 27.734100 -5.876180 30.539592 -1.182164 1.764416 0.028988 -0.023160 228427.000000 0 0 1
-10.965618 27.136100 -7.152380 30.129209 -1.186763 1.810475 0.026313 -0.018273 156544.000000 0 0 1
-11.529018 25.669400 -7.217980 29.050570 -1.148662 1.821889 0.048474 -0.028919 318208.000000 0 0 1
-10.821518 24.807600 -6.309580 27.790881 -1.159463 1.799831 0.026184 -0.017645 333255.000000 0 0 1
-11.409518 23.497200 -6.359780 26.883867 -1.118760 1.809625 0.068721 -0.027079 -72442.500000 0 0 1
-10.774118 22.371600 -5.502380 25.433173 -1.121978 1.788867 0.072524 -0.032318 324475.000000 0 0 1
-9.475318 22.022900 -6.051980 24.726832 -1.164489 1.818062 0.070007 -0.026727 1058130.000000 0 1 0
-8.872918 20.856100 -5.456380 23.312607 -1.168557 1.807040 0.069987 -0.018375 7963.910000 0 1 0
-8.643218 20.844800 -3.878180 22.896532 -1.177728 1.740995 0.066176 -0.026145 148230.000000 0 1 0
-9.786818 20.613800 -3.023680 23.018540 -1.127535 1.702536 0.074047 -0.034583 563827.000000 0 1 0
-10.354618 19.312000 -3.102380 22.131340 -1.078629 1.711440 0.075001 -0.031589 -902108.000000 0 1 0
-11.632918 19.174200 -2.315980 22.546363 -1.025468 1.673699 0.077724 -0.035958 -909990.000000 0 1 0
-11.610718 19.328300 -0.902880 22.565619 -1.029854 1.610818 0.077983 -0.034597 119386.000000 0 1 0
-11.081118 18.190100 -0.245180 21.300963 -1.023651 1.582307 0.071577 -0.031249 -366861.000000 0 1 0
-11.109918 18.320200 1.289220 21.464438 -1.025662 1.510697 0.075715 -0.029293 -231000.000000 0 1 0
-12.334618 18.122900 1.940120 22.007871 -0.973203 1.482526 0.095838 -0.039336 -112995.000000 0 1 0
-12.172018 18.404600 3.304120 22.311534 -0.986478 1.422159 0.094948 -0.030862 97966.800000 0 1 0
-13.512318 18.333200 4.063620 23.134433 -0.935641 1.394228 0.093853 -0.038725 122216.000000 0 1 0
-13.968218 16.973300 4.277520 22.394223 -0.882216 1.378605 0.069127 -0.031179 -402959.000000 0 1 0
-15.211418 17.068200 4.882920 23.378486 -0.842857 1.360383 0.087222 -0.039244 -680959.000000 0 1 0
-15.659518 15.758600 5.572620 22.904324 -0.788552 1.325030 0.078638 -0.031456 -372105.000000 0 1 0
-14.860418 15.341000 6.682320 22.379270 -0.801309 1.267577 0.070883 -0.023705 109391.000000 0 1 0
-15.229518 15.931700 7.924520 23.421257 -0.807928 1.225636 0.063649 -0.021363 -555317.000000 0 1 0
-14.064118 15.806100 8.955920 22.974784 -0.843651 1.170365 0.050376 -0.016037 1366320.000000 0 1 0
-12.916518 16.629800 8.668120 22.771100 -0.910419 1.180283 0.046759 -0.031103 732005.000000 0 1 0
-12.092018 16.222400 7.583120 21.607565 -0.930252 1.212214 0.044016 -0.026850 -856921.000000 0 1 0
-10.865218 17.119100 7.377820 21.576579 -1.005264 1.221820 0.059275 -0.036514 -287188.000000 0 1 0
-9.914018 17.131900 8.382120 21.495341 -1.046195 1.170218 0.052378 -0.027138 -681292.000000 0 1 0
-9.160218 18.280000 8.453520 22.125325 -1.106264 1.178756 0.048691 -0.026817 15368.400000 0 1 0
-7.845818 18.230100 9.266320 21.903381 -1.164380 1.133983 0.041254 -0.027454 25643.200000 0 1 0
-6.808618 17.393900 8.803720 20.649710 -1.197693 1.130358 0.029704 -0.021073 854843.000000 0 1 0
-5.530118 17.605200 9.459120 20.736447 -1.266438 1.097122 0.028342 -0.021842 1603960.000000 0 1 0
-4.638918 18.669300 8.747720 21.132556 -1.327250 1.144013 0.022043 -0.027082 -1291360.000000 0 1 0
-5.064118 19.930500 9.070420 22.475378 -1.321973 1.155379 0.034269 -0.033567 -179629.000000 0 1 0
-4.589518 21.047600 8.306820 23.088274 -1.356103 1.202759 0.039532 -0.033812 1806260.000000 0 1 0
-3.093518 21.547900 8.664820 23.429916 -1.428206 1.191983 0.045108 -0.031104 1284110.000000 0 1 0
-2.053718 20.672900 8.426820 22.418694 -1.471778 1.185446 0.030914 -0.016483 -852155.000000 0 1 0
-0.897218 21.406700 8.114020 22.910459 -1.528908 1.208778 0.031795 -0.020444 176391.000000 0 1 0
0.381882 20.564900 7.854820 22.017246 1.552229 1.206002 0.026784 -0.015145 470159.000000 0 1 0
0.806582 19.928400 9.028220 21.892931 1.530344 1.145731 0.019759 -0.018260 -396513.000000 0 1 0
2.202782 19.738800 9.072320 21.835280 1.459660 1.142316 0.015703 -0.009551 179432.000000 0 1 0
2.717082 19.033000 10.402320 21.859686 1.428998 1.074846 0.008459 -0.027242 602901.000000 0 1 0
4.134382 19.109700 10.580820 22.231228 1.357730 1.074759 0.026987 -0.002446 568080.000000 0 1 0
4.453482 18.397900 11.757320 22.283419 1.333300 1.014992 0.023869 -0.012595 -96944.700000 0 1 0
5.969882 18.373800 12.014420 22.750435 1.256643 1.014439 0.040119 -0.017287 257732.000000 0 1 0
6.729582 17.470300 11.191420 21.811614 1.203112 1.032010 0.036300 -0.017801 344738.000000 0 1 0
7.716582 16.779200 11.920320 21.981383 1.139749 0.997634 0.043130 -0.017244 -225488.000000 0 1 0
8.888282 16.061100 11.242220 21.525519 1.065343 1.021281 0.048114 -0.024682 -361208.000000 0 1 0
9.886382 16.963600 10.862620 22.438823 1.043120 1.065463 0.058945 -0.030838 27253.700000 0 1 0
11.022482 16.324200 10.282420 22.219423 0.976893 1.089682 0.056026 -0.032590 102041.000000 0 1 0
12.065982 17.360900 9.900320 23.345344 0.963428 1.132849 0.062507 -0.024531 119443.000000 0 1 0
13.146182 16.959800 9.066520 23.295036 0.911400 1.171029 0.064892 -0.021078 123660.000000 0 1 0
14.125182 17.941700 8.872420 24.497861 0.903858 1.200200 0.069463 -0.018338 -231010.000000 0 1 0
15.044182 17.576500 7.697820 24.382723 0.862872 1.249594 0.069378 -0.024945 -155850.000000 0 1 0
15.799082 16.383400 7.904920 24.093869 0.803553 1.236517 0.083434 -0.034581 542236.000000 0 1 0
16.856582 16.406200 6.934720 24.523419 0.771859 1.284106 0.094638 -0.026669 1220500.000000 0 1 0
18.284682 16.161700 7.573020 25.551531 0.723845 1.269894 0.081192 -0.023339 618033.000000 0 0 1
18.469882 14.885300 8.121020 25.073086 0.678342 1.240954 0.083788 -0.022550 467059.000000 0 0 1
19.609682 14.938000 8.971320 26.232957 0.650989 1.221766 0.085975 -0.019692 93911.800000 0 0 1
19.916482 13.772200 9.936120 26.173769 0.604997 1.181409 0.076545 -0.025314 -170205.000000 0 0 1
20.534882 12.620800 9.361920 25.857523 0.551088 1.200322 0.086184 -0.037195 391898.000000 0 0 1
20.779582 11.791400 10.430820 26.069717 0.516143 1.159157 0.087700 -0.037422 -520339.000000 0 0 1
21.840382 10.723000 10.180020 26.374567 0.456399 1.174528 0.087331 -0.021882 715062.000000 0 0 1
23.212682 11.225800 10.157720 27.713290 0.450447 1.195521 0.069671 -0.027922 1835550.000000 0 0 1
24.134282 10.481000 9.418920 27.946931 0.409703 1.227037 0.087823 -0.023506 -6281.750000 0 0 1
24.675482 9.088400 9.900520 28.098019 0.352899 1.210708 0.109879 -0.022869 213366.000000 0 0 1
23.496682 8.266700 9.879620 26.796255 0.338299 1.193193 0.117326 -0.026234 971421.000000 0 0 1
23.604082 6.846900 10.093320 26.568926 0.282324 1.181117 0.124857 -0.031690 -168619.000000 0 0 1
24.530582 5.996900 9.177720 26.868993 0.239764 1.222206 0.135796 -0.033624 488381.000000 0 0 1
23.980482 5.792900 7.860320 25.892196 0.237026 1.262350 0.130777 -0.018655 1763460.000000 0 0 1
25.003082 5.149500 6.996720 26.469332 0.203115 1.303284 0.134703 -0.014490 1199590.000000 0 0 1
24.512582 4.926300 5.533720 25.607756 0.198328 1.352983 0.127750 -0.015631 -344176.000000 0 0 1
23.558582 3.908100 5.432120 24.490568 0.164392 1.347132 0.125413 -0.013924 194138.000000 0 1 0
23.412682 3.611000 4.034220 24.030562 0.153027 1.402119 0.131728 -0.012941 -33691.600000 0 1 0
22.489482 2.372300 3.879320 22.944579 0.105096 1.400907 0.131085 -0.005980 -194391.000000 0 1 0
23.068682 1.142700 4.109820 23.459762 0.049494 1.394702 0.144495 -0.010131 -40905.800000 0 1 0
22.333682 0.111600 3.486420 22.604445 0.004997 1.415942 0.127549 -0.006069 -30434.700000 0 1 0
22.853582 -1.331000 3.674720 23.185369 -0.058175 1.411632 0.139531 -0.018204 -349940.000000 0 1 0
22.583282 -1.784000 5.029320 23.205200 -0.078833 1.352330 0.118781 -0.019902 662882.000000 0 1 0
23.032682 -3.103800 5.350720 23.848862 -0.133949 1.344511 0.132786 -0.026176 -320922.000000 0 1 0
22.306282 -3.528600 6.646120 23.541286 -0.156889 1.284587 0.125774 -0.034252 -42302.800000 0 1 0
22.626582 -4.903500 7.053420 24.202422 -0.213414 1.275070 0.127309 -0.030647 479909.000000 0 1 0
22.614782 -5.160800 8.432720 24.681430 -0.224363 1.222111 0.156174 -0.035626 -61761.600000 0 1 0
22.406782 -6.614100 8.811020 24.968866 -0.287032 1.210149 0.148857 -0.033503 632987.000000 0 1 0
21.051782 -7.042800 8.650420 23.824532 -0.322842 1.199216 0.129418 -0.028757 844344.000000 0 1 0
20.923082 -8.364100 9.094820 24.299162 -0.380295 1.187170 0.134852 -0.027529 89249.100000 0 1 0
-27.102818 -33.065755 5.246620 43.074748 0.884179 1.448690 0.067981 -0.010330 295330.000000 0 0 1
-27.866168 33.901100 5.779020 44.262907 -0.882793 1.439861 0.067472 -0.009189 323576.000000 0 0 1
-27.729288 33.783800 7.151720 44.287760 -0.883509 1.408603 0.056252 -0.003488 -9803.940000 0 0 1
-28.606578 32.647200 7.727620 44.089592 -0.851268 1.394615 0.079693 -0.012588 -228150.000000 0 0 1
-29.988228 32.824100 7.606620 45.106275 -0.830516 1.401349 0.083014 -0.014264 -609512.000000 0 0 1
-30.687978 31.666000 7.983920 44.813285 -0.801082 1.391680 0.107835 -0.020299 362622.000000 0 0 1
-32.220728 31.824900 8.145820 46.014715 -0.779218 1.392832 0.113475 -0.019568 348580.000000 0 0 1
-32.854428 31.998400 6.894520 46.377208 -0.772199 1.421581 0.095188 -0.007303 8227.660000 0 0 1
-34.267963 32.016000 6.909820 47.403198 -0.751437 1.424508 0.076511 -0.003839 33368.300000 0 0 1
-34.841073 32.144400 5.525720 47.725218 -0.745162 1.454754 0.065937 0.012184 -452679.000000 0 0 1
-34.816171 30.883000 4.897120 46.796445 -0.725603 1.465957 0.074243 0.002764 151308.000000 0 0 1
-35.185062 30.932500 3.539720 46.982313 -0.721168 1.495383 0.079996 0.012078 -117902.000000 0 0 1
-34.729877 29.651000 2.837620 45.753669 -0.706673 1.508737 0.083278 0.000743 -61174.400000 0 0 1
-35.352393 28.520800 3.367820 45.547447 -0.678848 1.496788 0.117008 -0.004261 -3910.040000 0 0 1
-34.903632 27.241100 2.871720 44.368771 -0.662716 1.506027 0.096379 -0.010868 -135712.000000 0 0 1
-35.469578 26.024800 3.620420 44.141688 -0.633001 1.488686 0.117774 -0.019724 502395.000000 0 0 1
-36.870988 25.783900 3.471520 45.125721 -0.610256 1.493790 0.127215 -0.015710 361509.000000 0 0 1
36.795390 24.829200 4.411420 44.607741 0.593606 1.471741 0.132137 -0.014333 735973.000000 0 0 1
35.308220 24.379700 4.207520 43.113146 0.604310 1.473048 0.135628 -0.023720 491693.000000 0 0 1
35.000900 23.482800 3.129920 42.264658 0.590941 1.496673 0.098502 -0.023648 238879.000000 0 0 1
35.294530 22.105300 3.421220 41.785798 0.559540 1.488829 0.093215 -0.019693 -264919.000000 0 0 1
34.563520 21.078000 2.456720 40.558038 0.547619 1.510186 0.091723 -0.021431 474373.000000 0 0 1
33.158830 20.941600 2.665520 39.308569 0.563299 1.502934 0.084194 -0.029307 755388.000000 0 0 1
32.771370 20.044900 3.724620 38.595770 0.548948 1.474143 0.064708 -0.018097 -317780.000000 0 0 1
33.081010 18.541200 3.628120 38.095834 0.510853 1.475415 0.066275 -0.024399 -425712.000000 0 0 1
32.247190 17.866000 2.719920 36.965838 0.505934 1.497150 0.054134 -0.034278 195568.000000 0 0 1
32.532350 16.480400 2.568020 36.558885 0.468902 1.500495 0.063383 -0.028578 -395088.000000 0 0 1
31.903360 15.552000 3.613120 35.675534 0.453575 1.469345 0.079381 -0.028753 -242088.000000 0 0 1
30.495670 15.539500 3.494920 34.404599 0.471270 1.469038 0.066976 -0.028228 -101118.000000 0 0 1
29.953980 14.568100 4.365620 33.593587 0.452668 1.440474 0.088801 -0.037572 -185960.000000 0 0 1
28.420250 14.631800 4.406920 32.267958 0.475447 1.433796 0.074698 -0.026431 -91158.300000 0 0 1
27.703650 14.337400 3.219920 31.359546 0.477571 1.467938 0.083070 -0.031673 431883.000000 0 0 1
26.334250 14.712800 3.327020 30.348448 0.509494 1.460948 0.060007 -0.022637 225060.000000 0 0 1
25.551150 14.320700 2.040420 29.361659 0.510847 1.501248 0.066636 -0.028134 -384338.000000 0 0 1
25.875550 14.799200 0.751620 29.818205 0.519530 1.545587 0.084562 -0.030286 4391.790000 0 0 1
27.102450 14.327700 0.248820 30.657588 0.486304 1.562680 0.093472 -0.031154 -638748.000000 0 0 1
27.635450 15.018600 -1.034180 31.469763 0.497804 1.603665 0.114892 -0.036902 214972.000000 0 0 1
28.244850 16.319700 -0.927880 32.633803 0.523931 1.599233 0.083844 -0.029689 721298.000000 0 0 1
29.352680 16.528500 -0.077880 33.686454 0.512845 1.573108 0.078985 -0.026758 -502056.000000 0 0 1
30.096950 17.848100 -0.102980 34.991309 0.535271 1.573739 0.090510 -0.021303 -492507.000000 0 0 1
31.008560 18.021700 -1.139080 35.883283 0.526470 1.602546 0.075142 -0.013100 -360509.000000 0 0 1
31.562990 19.286000 -0.985080 37.001926 0.548492 1.597422 0.065213 0.004199 -142745.000000 0 0 1
32.547960 19.554400 -2.136880 38.030389 0.540998 1.627015 0.068260 -0.002010 -207676.000000 0 0 1
33.082330 20.895500 -2.272980 39.194756 0.563346 1.628821 0.003628 0.007780 197568.000000 0 0 1
32.258560 21.874500 -2.905880 39.083917 0.595876 1.645215 0.060213 -0.003278 -207275.000000 0 0 1
32.787660 23.333200 -2.904080 40.347274 0.618499 1.642836 0.067133 -0.002271 -212695.000000 0 0 1
32.723170 24.102500 -1.738480 40.678725 0.634842 1.613546 0.069929 0.003210 -14877.900000 0 0 1
33.637530 23.776700 -0.724180 41.198778 0.615309 1.588375 0.080924 0.011139 -658320.000000 0 0 1
33.642310 24.724600 0.483520 41.753379 0.633784 1.559216 0.088099 -0.011496 28955.800000 0 0 1
34.368100 25.912600 0.194420 43.042618 0.646039 1.566279 0.112187 -0.007978 -232500.000000 0 0 1
35.720120 25.875400 0.564020 44.111012 0.626910 1.558010 0.114842 -0.010632 -287031.000000 0 0 1
36.528040 27.103100 0.064220 45.484941 0.638349 1.569384 0.099864 -0.005774 -318953.000000 0 0 1
36.846570 27.098400 -1.262780 45.755739 0.634117 1.598398 0.101263 -0.019053 -604259.000000 0 0 1
35.865560 27.586700 -2.084180 45.295786 0.655657 1.616825 0.086187 -0.016752 -566154.000000 0 0 1
36.195800 27.006600 -3.473480 45.294122 0.641017 1.647559 0.093909 -0.017722 -100033.000000 0 0 1
-36.798428 27.543900 -4.122480 46.149600 -0.642545 1.660244 0.092642 -0.018534 -173750.000000 0 0 1
-36.571318 27.008800 -5.417480 45.785213 -0.636116 1.689398 0.086798 -0.019117 158951.000000 0 0 1
36.501890 27.350700 -6.550380 46.079890 0.643050 1.713432 0.070164 -0.007685 -142754.000000 0 0 1
35.258950 26.769700 -6.341980 44.721707 0.649383 1.713086 0.074604 -0.006923 -902676.000000 0 0 1
34.408860 26.888000 -7.483480 44.305041 0.663313 1.740518 0.060627 -0.006625 111982.000000 0 0 1
33.208700 25.951400 -7.220780 42.760175 0.663336 1.740476 0.066330 -0.002125 -795158.000000 0 0 1
33.376130 24.568600 -7.277580 42.077848 0.634554 1.744626 0.061480 -0.011302 -440975.000000 0 0 1
34.354320 23.979600 -6.468880 42.392062 0.609388 1.723991 0.070491 -0.012022 -210508.000000 0 0 1
34.470090 22.386100 -6.744580 41.651098 0.575978 1.733443 0.075184 -0.006257 -10173.400000 0 0 1
33.492640 21.648600 -6.057780 40.337520 0.573818 1.721544 0.067423 -0.001071 20979.800000 0 0 1
33.600890 20.258900 -6.401080 39.754455 0.542569 1.732516 0.081034 -0.010670 -411229.000000 0 0 1
32.497340 19.455500 -5.739180 38.308377 0.539448 1.721178 0.089682 -0.005873 -547632.000000 0 0 1
31.299340 19.436000 -6.485780 37.409519 0.555697 1.745049 0.088655 -0.015064 -887504.000000 0 0 1
30.440920 18.657000 -5.731080 36.160455 0.549845 1.729958 0.124212 -0.026745 -1615870.000000 0 0 1
29.195650 18.420400 -6.527380 35.132660 0.562852 1.757675 0.105137 -0.031588 -1153520.000000 0 0 1
29.309450 17.408900 -7.479980 34.900770 0.535973 1.786793 0.100949 -0.036226 -24294.500000 0 0 1
28.194750 17.421400 -8.345780 34.177495 0.553474 1.817480 0.114238 -0.037844 -4912.830000 0 0 1
28.183650 16.195100 -9.238180 33.792653 0.521554 1.847700 0.104145 -0.035195 -92646.200000 0 0 1
27.478550 16.466300 -10.439280 33.692556 0.539862 1.885820 0.096592 -0.030353 108746.000000 0 0 1
27.557750 15.401000 -11.347780 33.546870 0.509622 1.915870 0.078292 -0.023280 239197.000000 0 0 1
26.703550 15.642900 -12.665880 33.439564 0.529912 1.959262 0.082803 -0.016688 1087000.000000 0 0 1
25.284350 15.520700 -12.430180 32.166751 0.550538 1.967554 0.077281 -0.019562 1164380.000000 0 0 1
24.478350 15.380200 -13.601280 31.948944 0.560982 2.010553 0.068639 -0.013737 -64594.700000 0 0 1
24.498950 14.025400 -14.338280 31.662228 0.519946 2.040757 0.054731 -0.014127 -492588.000000 0 0 1
25.756450 13.603500 -14.832880 32.687372 0.485920 2.041799 0.072133 -0.019489 168402.000000 0 0 1
26.074550 14.170200 -16.097980 33.761245 0.497800 2.067828 0.089907 -0.021787 64995.300000 0 0 1
27.448950 13.803200 -16.732480 34.984984 0.465939 2.069487 0.113102 -0.017359 529587.000000 0 0 1
27.362950 12.453700 -17.142680 34.607762 0.427112 2.089025 0.118761 -0.024978 804692.000000 0 0 1
28.680250 11.922700 -17.347180 35.575725 0.393977 2.080150 0.101093 -0.009227 776341.000000 0 0 1
28.713850 10.535000 -17.955480 35.466473 0.351647 2.101646 0.077193 -0.007464 -193995.000000 0 0 1
28.300250 10.438000 -19.295880 35.807639 0.353351 2.139899 0.081488 -0.008257 -136869.000000 0 0 1
28.540450 9.246300 -19.962780 36.035593 0.313302 2.157926 0.065205 0.007138 -338047.000000 0 0 1
29.981040 8.946300 -20.412480 37.357307 0.289987 2.148870 0.063084 0.001067 -883326.000000 0 0 1
30.397500 9.818800 -21.465980 38.486428 0.312434 2.162474 0.062312 -0.006406 223046.000000 0 0 1
30.882400 9.084600 -22.602980 39.333793 0.286097 2.182967 0.041247 -0.005272 -809280.000000 0 0 1
32.266920 8.467200 -22.437380 40.203030 0.256625 2.162893 0.034176 -0.001607 -1720970.000000 0 0 1
33.209670 9.478600 -22.254580 41.085185 0.278025 2.143218 0.029838 -0.003039 -1853200.000000 0 0 1
34.424040 8.853200 -22.339380 41.981443 0.251725 2.131905 0.001803 0.002680 -1638880.000000 0 0 1
35.550370 9.876000 -22.336580 43.131045 0.270970 2.115164 0.017596 -0.003328 -573303.000000 0 0 1
35.509240 10.547300 -21.088180 42.624676 0.288730 2.088333 0.022752 -0.006581 63012.300000 0 0 1
36.590230 11.431500 -20.955680 43.688267 0.302811 2.071068 0.005004 0.002075 -289924.000000 0 0 1
36.529550 12.199800 -19.623580 43.224160 0.322324 2.042041 -0.000369 -0.002446 -270974.000000 0 0 1
36.767280 11.465700 -18.472180 42.714361 0.302288 2.018014 0.001440 -0.000685 189617.000000 0 0 1
36.608110 12.255700 -17.277780 42.295125 0.323053 1.991612 0.009380 0.003557 -4154.790000 0 0 1
-36.929758 11.519000 -16.038480 41.877527 -0.302353 1.963822 0.009687 0.005479 -356321.000000 0 0 1
36.379390 10.397200 -15.693680 40.961609 0.278378 1.963980 0.015794 0.003555 445150.000000 0 0 1
36.795800 9.635200 -14.565980 40.730035 0.256106 1.936517 0.015731 -0.010396 351664.000000 0 0 1
35.926800 8.292300 -14.514980 39.625520 0.226838 1.945830 0.070439 -0.013235 100089.000000 0 0 1
34.678020 8.344400 -13.915380 38.286184 0.236136 1.942772 0.079608 -0.014148 -118582.000000 0 0 1
34.801060 8.022600 -12.550680 37.854927 0.226569 1.908739 0.085388 -0.016087 -572906.000000 0 0 1
33.858580 8.814900 -11.652780 36.876730 0.254691 1.892299 0.097022 -0.017891 -351766.000000 0 0 1
34.206070 10.164200 -11.360880 37.449109 0.288836 1.879022 0.087864 -0.027831 -8927.000000 0 0 1
33.201280 10.735400 -10.564680 36.458007 0.312732 1.864790 0.082354 -0.018887 -389812.000000 0 0 1
33.278540 10.486500 -9.034580 36.042358 0.305264 1.824164 0.102494 -0.018888 99080.300000 0 0 1
34.383930 10.989500 -8.282580 37.035455 0.309351 1.796343 0.105119 -0.015836 374379.000000 0 0 1
34.481250 12.357500 -8.126880 37.519470 0.344124 1.789131 0.104962 -0.018938 -423289.000000 0 0 1
34.373410 12.849900 -6.664280 37.296969 0.357747 1.750443 0.097931 -0.020070 -559002.000000 0 0 1
35.509990 12.619900 -5.891380 38.143540 0.341469 1.725870 0.110539 -0.017257 -159376.000000 0 0 1
35.304470 13.024500 -4.518280 37.900634 0.353429 1.690294 0.103413 -0.013634 -579962.000000 0 0 1
36.551620 13.011300 -3.636580 38.968443 0.341984 1.664253 0.123306 -0.013584 -661684.000000 0 0 1
-36.924998 14.251400 -3.808080 39.762537 -0.368341 1.666714 0.128834 -0.012297 86388.800000 0 0 1
-35.567546 14.008400 -3.423480 38.379758 -0.375196 1.660115 0.127484 -0.019041 353190.000000 0 0 1
-34.867043 15.371300 -3.312780 38.248687 -0.415223 1.657517 0.116734 -0.015453 -264303.000000 0 0 1
-35.435786 16.125400 -2.265280 38.998141 -0.427054 1.628916 0.130763 -0.012094 98787.500000 0 0 1
-34.625280 17.157800 -1.731680 38.682022 -0.460064 1.615578 0.153428 -0.019954 -53851.900000 0 0 1
-35.413320 18.086300 -0.770980 39.771999 -0.472187 1.590183 0.131917 -0.012276 -158255.000000 0 0 1
-36.288208 18.866400 -1.527080 40.928072 -0.479444 1.608116 0.113488 -0.005709 -57549.900000 0 0 1
36.983670 19.717200 -0.789080 41.918760 0.489801 1.589621 0.098117 -0.004420 82218.900000 0 0 1
36.314070 20.740500 -1.728280 41.855310 0.518930 1.612100 0.079261 -0.004420 -370830.000000 0 0 1
-36.931918 21.790400 -1.999780 42.927698 -0.533046 1.617398 0.091459 -0.002254 46662.800000 0 0 1
36.712750 22.605200 -3.080380 43.223950 0.551907 1.642122 0.071885 -0.004259 -322833.000000 0 0 1
-36.405508 23.731100 -3.405580 43.590413 -0.577678 1.649003 0.084382 -0.010863 -357158.000000 0 0 1
-35.292972 23.136600 -4.018980 42.391607 -0.580273 1.665745 0.099390 -0.019690 -401430.000000 0 0 1
-34.267492 24.052700 -4.297280 42.086340 -0.612007 1.673081 0.108647 -0.019200 508173.000000 0 0 1
-32.855708 23.485500 -4.664480 40.654934 -0.620595 1.685783 0.104016 -0.023378 636741.000000 0 0 1
-32.720788 22.812400 -5.864080 40.316783 -0.608833 1.716764 0.096645 -0.014619 -554108.000000 0 0 1
-31.398078 22.936600 -6.310680 39.392279 -0.630910 1.731691 0.077857 -0.001998 -648849.000000 0 0 1
-31.142308 22.266200 -7.724780 39.055080 -0.620711 1.769901 0.067122 -0.014826 -236132.000000 0 0 1
-31.823948 22.761800 -8.828380 40.109893 -0.620882 1.792718 0.069088 -0.023407 -341342.000000 0 0 1
-31.388368 22.161100 -10.044180 39.714350 -0.614761 1.826484 0.026578 -0.016464 533173.000000 0 0 1
-32.501718 22.026700 -11.168580 40.820024 -0.595608 1.847936 0.027673 -0.015465 512944.000000 0 0 1
-33.026418 23.284300 -11.587780 42.037835 -0.614087 1.850063 0.042904 -0.016744 25738.800000 0 0 1
-33.475848 23.235400 -12.919980 42.748592 -0.606751 1.877829 0.023531 -0.021919 -409219.000000 0 0 1
-34.059478 24.583500 -13.441180 44.102855 -0.625195 1.880492 0.049244 -0.025193 342368.000000 0 0 1
-33.161488 25.681000 -13.422880 44.038299 -0.658949 1.880525 0.035290 -0.022977 326505.000000 0 0 1
-32.061078 25.694500 -14.324480 43.512191 -0.675608 1.906259 0.029157 -0.018289 545214.000000 0 0 1
-30.737288 26.358700 -13.862280 42.798654 -0.708860 1.900640 0.037975 -0.014219 313732.000000 0 0 1
-29.923428 25.640600 -12.943480 41.477531 -0.708471 1.888157 0.040455 -0.015081 308219.000000 0 0 1
-30.415188 25.482800 -11.579180 41.334419 -0.697387 1.854730 0.045285 -0.014065 -255956.000000 0 0 1
-30.514648 26.894000 -10.817680 42.088635 -0.722414 1.830735 0.047651 0.002078 -55247.700000 0 0 1
-29.286928 27.534800 -10.570480 41.564702 -0.754572 1.827935 0.064483 0.004891 -331941.000000 0 0 1
-29.564158 28.739200 -9.905480 42.404005 -0.771250 1.806573 0.054305 -0.000868 -31630.700000 0 0 1
-28.364578 29.616200 -9.584280 42.113264 -0.806982 1.800392 0.077723 -0.003387 -191206.000000 0 0 1
-28.799818 30.684400 -8.811780 42.995458 -0.817070 1.777206 0.070916 -0.026226 -856277.000000 0 0 1
-27.758738 31.526500 -8.485980 42.854167 -0.848866 1.770134 0.113088 -0.013391 -489803.000000 0 0 1
35.003040 -25.023800 33.723141 54.668580 -0.620659 0.906043 0.023502 -0.011235 118203.000000 0 0 1
34.474620 -23.708600 33.883718 53.839609 -0.602431 0.890086 0.019353 -0.016644 662469.000000 0 0 1
33.323310 -23.705500 -33.176960 52.660274 -0.618322 2.252374 0.007644 -0.005735 553128.000000 0 0 1
32.907040 -22.273200 -32.781770 51.513233 -0.595021 2.260587 0.005369 -0.008081 -60491.100000 0 0 1
32.541090 -21.563400 -33.923710 51.717704 -0.585218 2.286224 0.010513 -0.009015 -32452.800000 0 0 1
32.254160 -20.206800 -33.610560 50.777115 -0.559668 2.294178 0.012433 -0.006022 173872.000000 0 0 1
32.074260 -19.327400 33.069572 49.959015 -0.542317 0.847400 0.019241 -0.010054 414336.000000 0 0 1
33.305450 -19.010600 32.436948 50.227597 -0.518669 0.868727 0.040457 -0.023865 503477.000000 0 0 1
33.021170 -18.749900 31.038077 49.044048 -0.516417 0.885553 0.047292 -0.014650 202834.000000 0 0 1
34.331070 -18.588200 30.237967 49.380950 -0.496247 0.911778 0.038463 -0.015527 -60301.800000 0 0 1
35.071210 -17.442400 30.497497 49.641963 -0.461519 0.909235 0.027357 -0.021218 340531.000000 0 0 1
36.381860 -17.623700 29.955287 50.314549 -0.451097 0.933082 0.039344 -0.025288 24943.900000 0 0 1
-36.874648 -16.346900 29.998757 50.268144 0.417277 0.931321 0.045940 -0.029584 257009.000000 0 0 1
-35.521257 -16.789900 30.021727 49.446583 0.441547 0.918321 0.049248 -0.020595 328919.000000 0 0 1
-34.550352 -15.778500 30.035247 48.423176 0.428396 0.901715 0.048408 -0.025270 -71321.500000 0 0 1
-33.082468 -16.198900 30.216627 47.643453 0.455335 0.883792 0.062472 -0.030926 -351794.000000 0 0 1
-32.309458 -15.075600 30.541277 46.946187 0.436573 0.862476 0.059021 -0.028704 -58218.300000 0 0 1
-31.136328 -15.564200 31.191947 46.740270 0.463546 0.840156 0.057882 -0.030866 139352.000000 0 0 1
-30.261538 -14.433200 31.748327 46.173957 0.445037 0.812644 0.051006 -0.027193 168199.000000 0 0 1
-30.860388 -13.760900 32.868363 47.138681 0.419446 0.799215 0.057353 -0.023986 688455.000000 0 0 1
-29.848428 -12.947700 33.453565 46.665969 0.409285 0.771490 0.045224 -0.021121 259845.000000 0 0 1
-30.147588 -12.391400 -33.080700 46.440894 0.389974 2.363592 0.039203 -0.008359 -260100.000000 0 0 1
-29.993038 -13.456400 -32.191470 46.010301 0.421731 2.345715 0.047028 -0.009713 208051.000000 0 0 1
-30.315368 -13.028900 -30.903190 45.208196 0.405911 2.323446 0.056095 0.002343 -406178.000000 0 0 1
-30.369478 -14.034700 -29.706350 44.740868 0.432897 2.296905 0.060718 0.001052 -316350.000000 0 0 1
-31.480288 -14.888000 -29.688270 45.760840 0.441759 2.276764 0.069211 0.002184 -281469.000000 0 0 1
-31.665168 -15.328100 -28.365230 45.190926 0.450821 2.249360 0.082893 -0.009533 3048.950000 0 0 1
-32.914838 -16.206600 -28.327050 46.351508 0.457533 2.228291 0.072473 -0.013920 -252363.000000 0 0 1
-32.714088 -17.417900 -28.970190 47.041118 0.489252 2.234258 0.086512 -0.011411 625196.000000 0 0 1
-33.990048 -18.052900 -29.038340 48.212610 0.488235 2.217173 0.071968 -0.013372 346329.000000 0 0 1
-33.937458 -19.379500 -29.675380 49.070809 0.518850 2.220243 0.074843 -0.024099 121118.000000 0 0 1
-35.193391 -20.026100 -29.790680 50.270310 0.517336 2.205091 0.049367 -0.020994 -23300.900000 0 0 1
-35.024911 -21.361900 -30.239790 50.965872 0.547671 2.205991 0.053869 -0.031224 -197324.000000 0 0 1
-36.266308 -22.081300 -30.794330 52.451117 0.546913 2.198275 0.059052 -0.022218 -245499.000000 0 0 1
36.960540 -22.590500 -29.834320 52.597518 -0.548618 2.173922 0.039328 -0.018457 18574.800000 0 0 1
35.977340 -23.487700 -30.334930 52.595143 -0.578374 2.185557 0.035023 -0.013789 79049.400000 0 0 1
36.510130 -24.899600 -30.596750 53.750729 -0.598537 2.176370 0.033008 -0.008441 100472.000000 0 0 1
-36.576658 -24.921300 -31.588930 54.376315 0.598095 2.190669 0.039414 -0.008690 -24397.800000 0 0 1
-35.731490 -26.050180 -31.546110 54.318582 0.629960 2.190459 0.035008 -0.004436 -118138.000000 0 0 1
-36.136248 -27.124870 -32.519630 55.669681 0.643903 2.194633 0.044282 -0.006275 943942.000000 0 0 1
36.669530 -27.734220 -32.370850 56.229115 -0.647539 2.184251 0.046006 -0.007458 706887.000000 0 0 1
36.371060 -28.775820 -33.298710 57.093835 -0.669336 2.193493 0.044144 -0.017497 2090.310000 0 0 1
-37.038468 -30.138430 -32.983590 58.035251 0.683043 2.175280 0.046856 -0.019324 -39048.500000 0 0 1
36.750700 -30.730120 -31.707660 57.448498 -0.696415 2.155476 0.049866 -0.022140 -146667.000000 0 0 1
-36.583598 -31.866130 -31.396990 57.789107 0.716588 2.145163 0.051943 -0.021193 -534934.000000 0 0 1
-36.918968 -32.555630 -30.093480 57.693126 0.722676 2.119537 0.047594 -0.024460 -408037.000000 0 0 1
35.975980 -33.263650 -30.234560 57.574909 -0.746245 2.123669 0.047505 -0.020155 154160.000000 0 0 1
35.487310 -33.366940 -28.884060 56.630299 -0.754613 2.106035 0.051135 -0.020020 -327356.000000 0 0 1
34.367190 33.664653 -28.670150 56.003483 0.775072 2.108232 0.050667 -0.027291 -415963.000000 0 0 1
33.244700 -33.989600 -29.410260 55.905871 -0.796477 2.124766 0.060523 -0.024487 -697474.000000 0 0 1
32.101270 33.531194 -28.780000 54.617954 0.807182 2.125784 0.070933 -0.024138 -248415.000000 0 0 1
30.807530 33.914472 -29.506050 54.496810 0.833366 2.142930 0.047447 -0.014977 -266094.000000 0 0 1
30.627430 33.230920 -30.752630 54.663130 0.826145 2.168305 0.038461 -0.011160 -558772.000000 0 0 1
29.552640 33.793750 -31.437340 54.805862 0.852249 2.181706 0.032516 -0.012392 -414633.000000 0 0 1
29.568630 33.393319 -32.941730 55.448853 0.846070 2.206933 0.018816 -0.016437 165479.000000 0 0 1
29.046620 32.061550 -33.056860 54.446351 0.834696 2.223260 0.018577 -0.007250 168337.000000 0 0 1
29.084570 31.560824 33.567539 54.486490 0.826207 0.907052 0.022465 -0.010083 119592.000000 0 0 1
28.940650 30.038544 33.429041 53.454431 0.804011 0.895185 0.027929 -0.005932 -403539.000000 0 0 1
30.138380 29.394194 33.691408 53.920790 0.772898 0.895881 0.040006 -0.001887 -663912.000000 0 0 1
29.830410 27.999534 33.910737 53.139114 0.753749 0.878703 0.034389 0.001277 1060120.000000 0 0 1
31.080650 27.172654 -33.522670 53.180160 0.718412 2.252814 0.051550 -0.016763 886109.000000 0 0 1
31.487460 27.502344 -32.167580 52.750283 0.717945 2.226616 0.060726 -0.018593 334718.000000 0 0 1
32.681520 26.741684 -31.912990 52.930505 0.685771 2.217956 0.065860 -0.014708 1064590.000000 0 0 1
33.449240 27.002324 -30.541230 52.732760 0.679154 2.188506 0.080332 -0.028228 235528.000000 0 0 1
34.197880 28.212434 -30.477200 53.798663 0.689786 2.173055 0.054500 -0.019870 148930.000000 0 0 1
33.464780 29.452084 -30.556900 54.046655 0.721707 2.171690 0.069079 -0.018643 -63198.500000 0 0 1
32.665630 29.859184 -29.326160 53.090846 0.740543 2.156009 0.076897 -0.014444 -34899.100000 0 0 1
33.509880 30.175114 -28.216040 53.193933 0.733082 2.129913 0.076108 -0.013491 634503.000000 0 0 1
32.798730 30.267824 -26.936500 52.129386 0.745289 2.113816 0.087872 -0.014117 -704933.000000 0 0 1
33.747250 30.537624 -25.813640 52.323679 0.735511 2.086728 0.087885 -0.021384 -530009.000000 0 0 1
34.254060 31.836494 -25.907120 53.461031 0.748835 2.076700 0.066352 -0.023123 -72550.400000 0 0 1
34.730580 32.295737 -24.654980 53.451809 0.749087 2.050207 0.054966 -0.034307 -95868.400000 0 0 1
34.871210 33.841530 -24.635880 54.480979 0.770414 2.040018 0.061106 -0.031950 -207450.000000 0 0 1
33.625860 -33.556230 -24.689580 53.537785 -0.784362 2.050100 0.069831 -0.029378 54351.400000 0 0 1
33.683320 -32.155310 -24.520080 52.628551 -0.762194 2.055457 0.056269 -0.028170 -907796.000000 0 0 1
33.942650 -31.302600 -25.746790 52.866374 -0.744957 2.079467 0.049798 -0.022391 1759110.000000 0 0 1
35.339120 -31.393580 -26.158630 54.024848 -0.726342 2.076241 0.055903 -0.028670 1822510.000000 0 0 1
36.388020 -30.754130 -25.438510 54.009465 -0.701684 2.061221 0.055865 -0.020818 -258033.000000 0 0 1
-36.321088 -31.228760 -25.870000 54.440002 0.710154 2.065990 0.027584 -0.021305 -268070.000000 0 0 1
-35.967285 -32.583650 -25.521640 54.833329 0.736079 2.054928 0.030721 -0.025720 -157811.000000 0 0 1
-35.957036 -32.843990 -24.097780 54.335432 0.740182 2.030297 0.032194 -0.026290 -648631.000000 0 0 1
-34.762163 -32.393880 -23.216680 52.884645 0.750147 2.025288 0.019382 -0.019143 103388.000000 0 0 1
-34.797131 -31.018330 -23.092280 52.021443 0.728046 2.030742 -0.012876 -0.012513 -209802.000000 0 0 1
-33.970098 -30.500950 -22.063380 50.705703 0.731641 2.020975 0.026599 -0.019293 -272609.000000 0 0 1
-33.736598 -28.983980 -22.267580 49.740067 0.709768 2.034964 0.033608 -0.012214 -564840.000000 0 0 1
-34.864857 -28.180370 -22.310580 50.074480 0.679766 2.032583 0.019125 -0.008591 -860907.000000 0 0 1
-35.254812 -27.983330 -23.679780 50.859616 0.670915 2.055099 0.021809 -0.010183 -486118.000000 0 0 1
-36.450648 -27.078260 -23.900980 51.314119 0.638925 2.055310 0.023692 -0.007973 -383923.000000 0 0 1
-36.311188 -25.727830 -23.435180 50.295440 0.616433 2.055505 0.018784 -0.004176 -138591.000000 0 0 1
36.809080 -24.870500 -23.991180 50.487889 -0.594204 2.065973 0.033834 -0.004718 369991.000000 0 0 1
-36.859448 -24.283200 -25.390400 50.921166 0.582540 2.092804 0.041429 -0.007760 -478848.000000 0 0 1
-36.042685 -23.194900 -25.299270 49.770791 0.571820 2.104024 0.035482 -0.012740 -841958.000000 0 0 1
-35.795205 -22.714700 -26.581030 50.038041 0.565454 2.130832 0.048983 -0.026435 39668.900000 0 0 1
-34.504314 -21.855300 -26.549540 48.714268 0.564623 2.147192 0.053241 -0.033150 -302474.000000 0 0 1
-34.422383 -20.694800 -25.778120 47.725116 0.541303 2.141397 0.063701 -0.029564 -749467.000000 0 0 1
-35.263503 -19.640300 -26.034670 48.031866 0.508170 2.143646 0.062351 -0.029965 74939.600000 0 0 1
-36.541668 -19.537300 -25.122670 48.457695 0.490988 2.115828 0.056077 -0.029666 686077.000000 0 0 1
-36.226018 -19.244300 -23.767480 47.408445 0.488317 2.095937 0.052323 -0.032798 -192782.000000 0 0 1
-35.661235 -20.301900 -22.996780 47.039800 0.517539 2.081601 0.038288 -0.031017 -68134.900000 0 0 1
-36.613618 -21.425400 -22.532580 48.034592 0.529448 2.059057 0.044388 -0.012159 -169294.000000 0 0 1
36.607250 -21.012500 -21.547480 47.391031 -0.521081 2.042803 0.042441 -0.011404 -460193.000000 0 0 1
35.917380 -22.144700 -21.038880 47.149554 -0.552497 2.033329 0.040355 -0.002780 -151590.000000 0 0 1
34.859090 -21.787300 -19.974580 45.703681 -0.558607 2.023107 0.042136 -0.010557 863295.000000 0 0 1
33.626730 -21.307700 -20.569680 44.809450 -0.564798 2.047719 0.061614 -0.007412 187927.000000 0 0 1
32.537960 -21.520400 -19.724480 43.713860 -0.584343 2.038926 0.055905 -0.010372 -536552.000000 0 0 1
31.266830 -20.884200 -20.276280 42.718755 -0.588880 2.065358 0.048257 -0.008512 -840173.000000 0 0 1
30.807280 -21.441800 -21.456180 43.234326 -0.608035 2.090101 0.050662 -0.003769 855714.000000 0 0 1
29.565110 -20.821500 -21.913580 42.282805 -0.613579 2.115614 0.067458 -0.006784 1127280.000000 0 0 1
29.537030 -19.453000 -22.615280 41.979832 -0.582395 2.139711 0.064764 -0.017891 -788962.000000 0 0 1
30.085580 -18.484300 -21.764080 41.478750 -0.550934 2.123164 0.063383 -0.012411 -79144.100000 0 0 1
29.984030 -17.172900 -22.278180 41.112868 -0.520130 2.143467 0.046846 -0.016190 -117384.000000 0 0 1
30.781890 -16.157200 -21.455380 40.852334 -0.483363 2.123739 0.049035 -0.027888 -314811.000000 0 0 1
30.219970 -16.006300 -20.133780 39.683968 -0.487093 2.102907 0.039476 -0.021268 548106.000000 0 0 1
31.233530 -15.793000 -19.178280 39.909381 -0.468151 2.072073 0.030715 -0.014311 -274808.000000 0 0 1
32.244460 -16.868200 -18.853380 40.984038 -0.481984 2.048811 0.042561 -0.021700 -142955.000000 0 0 1
33.252610 -17.007000 -19.871480 42.306617 -0.472764 2.059749 0.038942 -0.026687 166650.000000 0 0 1
34.211860 -17.988800 -19.571580 43.325455 -0.484079 2.039504 0.043609 -0.026353 75161.200000 0 0 1
35.346050 -18.067300 -20.621080 44.732533 -0.472532 2.049903 0.040803 -0.026974 231823.000000 0 0 1
36.286430 -16.993300 -20.543080 45.027718 -0.437976 2.044552 0.046471 -0.023598 -2087.340000 0 0 1
-36.786378 -17.305700 -21.431780 45.957003 0.439719 2.055950 0.051116 -0.016903 -95479.600000 0 0 1
-35.837929 -16.099700 -21.647780 44.857373 0.422219 2.074407 0.061086 -0.021339 16022.400000 0 0 1
-35.029806 -15.687000 -20.576780 43.549663 0.421038 2.062910 0.073131 -0.022243 -75018.400000 0 0 1
-34.204163 -14.587400 -20.935580 42.673359 0.403124 2.083575 0.079991 -0.021492 -148190.000000 0 0 1
-33.045708 -14.290400 -19.942280 41.157368 0.408158 2.076630 0.078411 -0.022515 432645.000000 0 0 1
-31.966818 -15.222100 -20.017480 40.672956 0.444414 2.085362 0.097891 -0.029054 362819.000000 0 0 1
-32.255998 -16.519000 -19.530980 41.167779 0.473298 2.065106 0.080292 -0.022625 -926369.000000 0 0 1
-31.035488 -17.416700 -19.694680 40.674604 0.511391 2.076246 0.078420 -0.025610 -308322.000000 0 0 1
-31.378468 -18.689800 -19.276480 41.297695 0.537196 2.056430 0.079059 -0.026382 87687.300000 0 0 1
-30.397038 -19.686200 -19.472980 41.118407 0.574711 2.064151 0.091816 -0.028902 -75566.400000 0 0 1
-30.954008 -21.119100 -19.143680 42.079063 0.598730 2.043107 0.069777 -0.006150 138002.000000 0 0 1
-31.839528 -21.678000 -20.104180 43.449618 0.597759 2.051836 0.052891 -0.013011 289769.000000 0 0 1
-32.037928 -23.055300 -19.748380 44.135861 0.623776 2.034703 0.044852 0.002220 315582.000000 0 0 1
-33.054898 -23.803500 -20.660180 45.673581 0.624102 2.040188 0.020030 -0.001373 304783.000000 0 0 1
-32.469768 -23.878100 -21.948380 45.893147 0.634088 2.069457 0.023051 -0.013355 154580.000000 0 0 1
-33.355668 -24.422900 -22.902280 47.260905 0.632009 2.076694 0.024245 -0.009039 -95031.800000 0 0 1
-32.854308 -24.648300 -24.389480 47.768096 0.643649 2.106657 0.032872 -0.008842 20754.200000 0 0 1
-31.811078 -25.574410 -24.594280 47.653686 0.677143 2.113093 0.041606 -0.017668 -185410.000000 0 0 1
-31.480788 -25.798270 -25.928740 48.258578 0.686514 2.138014 0.046125 -0.018280 -94005.600000 0 0 1
-29.979938 -26.080570 -26.132470 47.559424 0.715954 2.152526 0.050561 -0.016562 -178119.000000 0 0 1
-29.169458 -24.949100 -26.013390 46.368215 0.707572 2.166411 0.066604 -0.029070 -465548.000000 0 0 1
-27.828278 -25.315210 -26.253490 45.875033 0.738145 2.180083 0.065779 -0.025539 229874.000000 0 0 1
-26.829758 -24.136800 -26.327180 44.671484 0.732610 2.201051 0.082067 -0.031018 -173131.000000 0 0 1
-26.931938 -23.369300 -27.475690 45.015187 0.714690 2.227318 0.100515 -0.036230 521057.000000 0 0 1
-25.938158 -22.311900 -27.522860 43.910327 0.710384 2.248232 0.124789 -0.042386 776189.000000 0 0 1
-25.931608 -21.628400 -28.911960 44.453768 0.695164 2.278884 0.107741 -0.037802 124910.000000 0 0 1
-25.501008 -22.516900 -29.947110 45.322639 0.723332 2.292619 0.113797 -0.028026 98957.500000 0 0 1
-25.485968 -21.920700 -31.244760 45.894299 0.710333 2.319648 0.109840 -0.025561 -130757.000000 0 0 1
-24.623118 -22.711600 -32.265030 46.509643 0.745037 2.337448 0.105536 -0.039706 119522.000000 0 0 1
-25.157308 -23.982100 -32.523770 47.600703 0.761487 2.323018 0.104983 -0.035552 -157265.000000 0 0 1
-24.360918 -24.679200 -33.428910 48.166475 0.791888 2.337866 0.100436 -0.018591 -11264.600000 0 0 1
-19.539418 -14.331400 -11.881280 26.987825 0.632832 2.026669 0.080111 0.016137 -32691.400000 0 0 1
-19.619118 -13.507000 -10.733680 26.125864 0.602940 1.994177 0.093741 0.011860 229186.000000 0 0 1
-18.773218 -14.158100 -9.779380 25.466091 0.646161 1.964938 0.051251 -0.003340 231838.000000 0 0 1
-19.069418 -13.804700 -8.282480 24.956200 0.626599 1.909093 0.095791 -0.022737 934846.000000 0 1 0
-20.313618 -14.394900 -7.783080 26.085103 0.616496 1.873783 0.168809 -0.032539 1227660.000000 0 0 1
-20.592418 -14.109400 -6.459180 25.784567 0.600707 1.823999 0.111531 -0.034508 958377.000000 0 0 1
-22.036218 -14.609700 -6.031580 27.118595 0.585450 1.795087 0.175208 -0.045344 777083.000000 0 0 1
-22.071418 -15.843700 -5.353380 27.691678 0.622598 1.765342 0.151343 -0.043697 156626.000000 0 0 1
-21.714618 -15.760100 -3.989380 27.126013 0.627821 1.718400 0.162235 -0.047089 -243685.000000 0 0 1
-21.649518 -17.090600 -3.195780 27.766946 0.668257 1.686145 0.131930 -0.040389 -217713.000000 0 0 1
-22.904818 -17.712300 -3.133780 29.123476 0.658247 1.678608 0.146411 -0.045436 -170662.000000 0 0 1
-22.861818 -18.858900 -2.262880 29.722743 0.689745 1.647003 0.128264 -0.033653 -386743.000000 0 0 1
-24.202718 -19.581800 -2.108980 31.203626 0.680250 1.638436 0.112078 -0.041276 -193433.000000 0 0 1
-24.362418 -20.652500 -3.017280 32.080480 0.703169 1.664989 0.088823 -0.034879 -483585.000000 0 0 1
-25.423188 -21.485500 -2.656580 33.391955 0.701651 1.650438 0.082803 -0.031256 -155449.000000 0 0 1
-25.653628 -22.582400 -3.686180 34.375302 0.721813 1.678236 0.075800 -0.031921 -281278.000000 0 0 1
-24.466818 -23.305700 -3.790180 34.002152 0.761098 1.682497 0.070107 -0.028367 -862434.000000 0 0 1
-24.306218 -24.115500 -4.910080 34.589861 0.781459 1.713229 0.072845 -0.025975 644490.000000 0 0 1
-22.817918 -24.234700 -5.420780 33.724812 0.815500 1.732232 0.076803 -0.022511 1027330.000000 0 0 1
-22.359318 -23.050600 -6.005880 32.670168 0.800620 1.755682 0.070064 -0.017713 -132071.000000 0 0 1
-22.045118 -21.941300 -5.178780 31.531376 0.783038 1.735786 0.074310 -0.017024 -655408.000000 0 0 1
-21.890318 -20.658800 -5.990480 30.689704 0.756463 1.767253 0.102670 -0.008861 -259434.000000 0 0 1
-20.678918 -20.444700 -6.656880 29.831485 0.779703 1.795841 0.080838 0.003261 -291063.000000 0 0 1
-20.755618 -19.214700 -7.265280 29.202478 0.746866 1.822227 0.070534 0.000976 592273.000000 0 0 1
-19.448818 -18.857900 -8.044580 28.259374 0.769973 1.859458 0.064928 0.002549 220459.000000 0 0 1
-19.308318 -19.490100 -9.315680 28.973385 0.790083 1.898136 0.057411 0.007121 419545.000000 0 0 1
-18.077618 -19.251300 -10.010380 28.242177 0.816829 1.933120 0.075893 0.006466 83602.100000 0 0 1
-17.722718 -17.777700 -10.477980 27.201644 0.786947 1.966217 0.069824 0.010775 -198505.000000 0 0 1
-17.093818 -16.993300 -9.465080 25.895147 0.782449 1.944983 0.074963 -0.008814 349438.000000 0 0 1
-15.698018 -17.284100 -9.416480 25.176139 0.833450 1.954140 0.067769 -0.001700 -115977.000000 0 0 1
-14.968018 -16.259600 -8.533180 23.690322 0.826735 1.939275 0.033476 0.001974 -47564.200000 0 1 0
-15.405518 -16.320600 -7.197280 23.568895 0.814233 1.881125 -0.002303 -0.001909 38913.200000 0 1 0
-16.061218 -15.165200 -6.733180 23.092894 0.756712 1.866663 0.037537 -0.002569 -195383.000000 0 1 0
-16.474618 -15.279700 -5.282580 23.082200 0.747786 1.801702 0.021292 -0.015866 134863.000000 0 1 0
-17.277818 -14.248400 -4.702280 22.883430 0.689600 1.777759 0.049097 -0.013841 389765.000000 0 1 0
-17.616318 -14.636500 -3.410980 23.155919 0.693270 1.718639 0.039956 -0.009302 -253947.000000 0 1 0
-18.360718 -13.556700 -2.641680 22.975608 0.636006 1.686029 0.054509 -0.014640 -1233100.000000 0 1 0
-19.618318 -13.292500 -3.098480 23.899154 0.595503 1.700810 0.103584 -0.033008 -736545.000000 0 1 0
-20.316818 -12.332100 -2.300080 23.877692 0.545543 1.667274 0.108454 -0.026890 2189400.000000 0 1 0
-21.929318 -12.346400 -2.451880 25.285180 0.512776 1.667918 0.129918 -0.025110 2064860.000000 0 0 1
-22.488518 -11.759600 -3.595180 25.630977 0.481812 1.711527 0.134078 -0.032009 1069760.000000 0 0 1
-23.889318 -12.105600 -3.640180 27.027689 0.469023 1.705890 0.140541 -0.027953 926199.000000 0 0 1
-24.645618 -11.547100 -4.864080 27.647808 0.438152 1.747647 0.151605 -0.037630 52208.400000 0 0 1
-24.142818 -11.971800 -6.114180 27.633003 0.460342 1.793906 0.173276 -0.046231 125463.000000 0 0 1
-24.831418 -11.271200 -7.100180 28.178926 0.426100 1.825509 0.174992 -0.045521 -140397.000000 0 0 1
-24.241118 -11.558700 -8.501880 28.169440 0.444934 1.877389 0.197626 -0.043607 77148.200000 0 0 1
-23.016918 -10.859800 -8.628580 26.873150 0.440849 1.897672 0.172399 -0.039071 234114.000000 0 0 1
-22.344618 -11.212700 -9.848480 26.870042 0.465093 1.946065 0.138910 -0.027908 789281.000000 0 0 1
-20.916418 -10.587400 -9.990180 25.483196 0.468577 1.973634 0.114415 -0.024878 542871.000000 0 0 1
-20.999718 -9.225600 -10.250180 25.123019 0.413937 1.991058 0.104854 -0.029720 410869.000000 0 0 1
-19.714018 -8.680700 -10.035780 23.763711 0.414784 2.006794 0.103884 -0.025462 38563.400000 0 1 0
-19.689018 -7.240600 -10.651880 23.527564 0.352398 2.040633 0.104589 -0.030203 -68166.900000 0 1 0
-19.229318 -7.242900 -11.991880 23.791416 0.360225 2.099069 0.114921 -0.025615 408840.000000 0 1 0
-19.161918 -5.941400 -12.528980 23.652795 0.300663 2.129048 0.125683 -0.040402 -214038.000000 0 1 0
-18.593818 -5.964000 -13.950580 23.998293 0.310385 2.191141 0.138209 -0.030742 -402900.000000 0 1 0
-19.462218 -6.592200 -14.810880 25.329769 0.326589 2.195334 0.148289 -0.039489 -189752.000000 0 0 1
-18.942218 -6.583100 -16.089780 25.710423 0.334478 2.246963 0.158979 -0.042495 -272416.000000 0 0 1
-19.735118 -7.408400 -17.112080 27.151106 0.359114 2.252676 0.132605 -0.036427 -1180820.000000 0 0 1
-20.926218 -6.816400 -17.464480 28.095872 0.314896 2.241584 0.122095 -0.038237 -830365.000000 0 0 1
-21.593718 -7.653200 -18.375280 29.368539 0.340605 2.246798 0.117861 -0.034266 781810.000000 0 0 1
-23.047518 -7.160000 -18.762980 30.569644 0.301210 2.231634 0.118083 -0.034062 23330.300000 0 0 1
-22.981518 -6.022800 -19.545380 30.764366 0.256307 2.259226 0.113984 -0.038453 -313642.000000 0 0 1
-24.100918 -5.880400 -20.342480 32.081924 0.239315 2.257613 0.099602 -0.029218 -800437.000000 0 0 1
-25.426588 -5.510300 -19.698780 32.633062 0.213414 2.218861 0.132410 -0.028513 -1258830.000000 0 0 1
-25.545408 -4.238900 -19.106780 32.180821 0.164438 2.206485 0.129001 -0.031104 585716.000000 0 0 1
-26.798688 -4.090900 -18.425080 32.777870 0.151484 2.167743 0.148470 -0.028309 160051.000000 0 0 1
-27.084868 -2.674200 -17.745080 32.490450 0.098415 2.148573 0.143768 -0.028115 108832.000000 0 0 1
-27.353868 -1.606300 -18.632080 33.135611 0.058656 2.167958 0.144287 -0.026152 -377504.000000 0 0 1
-28.593288 -1.752200 -19.257580 34.518122 0.061204 2.162647 0.156746 -0.024173 -477990.000000 0 0 1
-29.022578 -0.592500 -20.251580 35.394740 0.020412 2.179938 0.151981 -0.023641 162621.000000 0 0 1
-28.290768 -0.592600 -21.472480 35.521629 0.020944 2.219922 0.143714 -0.024564 35402.300000 0 0 1
-28.769628 -1.503600 -22.417180 36.503182 0.052216 2.232061 0.151181 -0.017957 -218722.000000 0 0 1
-27.987078 -1.519500 -23.744380 36.733922 0.054240 2.273638 0.145529 -0.018285 -332823.000000 0 0 1
-27.994688 -0.368200 -24.644880 37.298904 0.013152 2.292601 0.146676 -0.016437 5097.440000 0 0 1
-27.490508 0.840200 -24.188480 36.626719 -0.030554 2.292155 0.118105 -0.008784 -551812.000000 0 0 1
-26.011928 1.028800 -23.824780 35.288794 -0.039530 2.311947 0.108910 -0.013868 -1049330.000000 0 0 1
-25.188308 0.825300 -24.895980 35.425158 -0.032753 2.350090 0.096427 -0.019090 -542827.000000 0 0 1
-23.840218 0.914800 -24.456880 34.166239 -0.038353 2.368594 0.096853 -0.022365 13225.100000 0 0 1
-22.816618 0.391200 -25.452960 34.184855 -0.017144 2.410684 0.088035 -0.020541 -331578.000000 0 0 1
-22.910718 1.127400 -26.666630 35.175008 -0.049169 2.431211 0.054557 -0.015446 68981.700000 0 0 1
-22.186718 0.392000 -27.611600 35.423221 -0.017666 2.464627 0.042919 -0.013490 -116543.000000 0 0 1
-21.969618 1.202900 -28.876050 36.303407 -0.054698 2.490478 0.043287 -0.008047 -454525.000000 0 0 1
-21.079618 2.311100 -28.760590 35.733221 -0.109201 2.506252 0.056144 -0.007481 422701.000000 0 0 1
-20.740418 2.881300 -30.022680 36.603663 -0.138038 2.532574 0.042747 -0.009397 -81283.700000 0 0 1
-20.034718 2.048700 -31.083610 37.037521 -0.101903 2.566692 0.041424 -0.006694 -927403.000000 0 0 1
-18.659918 1.820900 -31.043190 36.265519 -0.097275 2.598273 0.030221 0.000033 -492310.000000 0 0 1
-18.142818 1.588300 -32.328760 37.105704 -0.087322 2.628562 0.026522 -0.003766 -278647.000000 0 0 1
-16.618918 1.437700 -32.301400 36.354310 -0.086295 2.664898 0.029220 -0.016180 -221028.000000 0 0 1
-15.943318 2.710300 -32.353420 36.170139 -0.168386 2.678060 0.029902 -0.009638 345810.000000 0 0 1
-14.555318 2.553800 -32.595230 35.788661 -0.173687 2.715941 0.037073 -0.018146 142967.000000 0 0 1
-13.798618 3.858600 -32.920110 35.902985 -0.272672 2.731085 0.044122 -0.015593 -224354.000000 0 0 1
-13.688618 4.790700 -31.915240 35.055836 -0.336654 2.715074 0.047104 -0.026210 247416.000000 0 0 1
-13.241718 6.026000 -32.438420 35.551468 -0.427068 2.719993 0.051905 -0.015007 -206699.000000 0 0 1
-13.157718 7.158300 -31.361280 34.754808 -0.498254 2.696006 0.057443 -0.021365 123784.000000 0 0 1
-12.006118 7.061900 -30.495540 33.526039 -0.531692 2.713135 0.085006 -0.036195 713884.000000 0 0 1
-12.035318 6.050400 -29.451040 32.385491 -0.465822 2.712611 0.089339 -0.041552 -691641.000000 0 0 1
-10.641418 5.483400 -29.188710 31.548190 -0.475803 2.752386 0.109674 -0.043756 -598749.000000 0 0 1
-10.059518 4.607300 -30.175040 32.139605 -0.429490 2.790141 0.090617 -0.046909 225338.000000 0 0 1
-10.653818 3.336600 -30.385550 32.371568 -0.303507 2.789489 0.091161 -0.043431 -637676.000000 0 0 1
-10.101618 2.521800 -31.563170 33.236063 -0.244643 2.822965 0.085011 -0.042352 -224328.000000 0 0 1
-10.728318 1.270100 -31.774920 33.561221 -0.117839 2.813861 0.087745 -0.039273 274199.000000 0 0 1
-10.382718 0.652400 -33.038580 34.637758 -0.062753 2.836541 0.072666 -0.032260 -327294.000000 0 0 1
-10.966318 1.285500 33.613736 35.380728 -0.116690 0.317375 0.076051 -0.028709 356677.000000 0 0 1
-12.341818 0.978900 33.406997 35.627324 -0.079150 0.354906 0.047898 -0.023387 151022.000000 0 0 1
-12.635218 1.097100 32.015207 34.435823 -0.086611 0.377181 0.040730 -0.011166 -1032850.000000 0 0 1
-14.030818 0.850000 31.503107 34.496843 -0.060507 0.419686 0.043118 -0.006435 -715302.000000 0 0 1
-14.868318 1.957500 31.832347 35.188024 -0.130903 0.440272 0.036562 0.000155 352681.000000 0 0 1
-16.059318 1.851000 31.063997 35.018564 -0.114754 0.479832 0.033547 -0.007226 495016.000000 0 0 1
-16.952818 3.112300 30.785487 35.282158 -0.181564 0.510396 0.037340 -0.010174 341128.000000 0 0 1
-17.604218 3.695500 31.890937 36.614166 -0.206917 0.513562 0.038040 -0.015013 576892.000000 0 0 1
-16.787918 4.727900 32.419104 36.812845 -0.274515 0.493571 0.022600 -0.008316 -167634.000000 0 0 1
-17.357518 5.266500 33.749853 38.315429 -0.294585 0.493158 0.013644 -0.005252 -693533.000000 0 0 1
-18.675218 5.655700 33.598840 38.853993 -0.294065 0.526152 0.020402 -0.001566 -392145.000000 0 0 1
-19.516918 5.164400 -33.243390 38.893497 -0.258683 2.595824 0.027194 -0.002225 523196.000000 0 0 1
-20.951718 5.733500 -33.229440 39.699411 -0.267113 2.562621 0.026558 -0.006574 -173390.000000 0 0 1
-21.126818 7.124100 -32.945070 39.780308 -0.325232 2.546641 0.028396 -0.015356 211993.000000 0 0 1
-20.828218 8.033200 33.882333 40.575356 -0.368108 0.582578 0.014579 -0.011565 -194544.000000 0 0 1
-20.715718 9.501400 -33.614470 40.612193 -0.430029 2.545782 0.025938 -0.003943 89361.400000 0 0 1
-19.498018 9.731100 -32.899490 39.461925 -0.462913 2.556575 0.028569 -0.001031 637541.000000 0 0 1
-19.250218 11.128900 -32.661660 39.512117 -0.524174 2.543878 0.032712 -0.007817 -35055.400000 0 0 1
-18.711818 12.008300 -33.843190 40.493122 -0.570553 2.560341 0.014800 -0.019535 10259.800000 0 0 1
-19.659818 11.978500 33.024422 40.256743 -0.547221 0.608782 0.032557 -0.024622 496415.000000 0 0 1
-18.991418 12.078100 31.764497 38.929908 -0.566454 0.616442 0.019062 -0.019796 105789.000000 0 0 1
-19.664318 11.253400 30.627107 38.096511 -0.519784 0.636914 0.027817 -0.023550 9274.270000 0 0 1
-19.565318 9.861000 30.794707 37.793584 -0.466846 0.618390 0.029336 -0.023829 522535.000000 0 0 1
-18.254918 9.367700 30.520237 36.776089 -0.474120 0.591880 0.024004 -0.024046 433792.000000 0 0 1
-18.220418 7.824500 30.442757 36.331363 -0.405622 0.577336 0.029688 -0.020326 -219184.000000 0 0 1
-18.927418 7.253100 29.391327 35.703008 -0.365945 0.603742 0.033951 -0.011764 -69414.200000 0 0 1
-19.194018 5.943500 29.782377 35.926669 -0.300290 0.593520 0.031171 -0.006523 -510918.000000 0 0 1
-19.878818 5.085700 28.728087 35.303467 -0.250463 0.620226 0.044298 -0.014939 -509844.000000 0 0 1
-21.194018 5.522300 28.530317 35.967502 -0.254892 0.654709 0.076790 -0.025769 -144517.000000 0 0 1
-21.969718 4.564600 27.778587 35.709299 -0.204853 0.679465 0.077939 -0.023778 103226.000000 0 0 1
-23.320818 5.115800 27.307917 36.273328 -0.215946 0.718434 0.092106 -0.021410 -404104.000000 0 0 1
-23.402118 6.038300 26.244917 35.677947 -0.252516 0.744235 0.108164 -0.024861 1676540.000000 0 0 1
-24.749918 6.614100 26.104357 36.575159 -0.261135 0.776004 0.104903 -0.021562 1426330.000000 0 0 1
-25.136548 7.143600 24.714297 35.967674 -0.276891 0.813271 0.110810 -0.025448 -213050.000000 0 0 1
-25.236598 6.198300 23.667147 35.148808 -0.240840 0.832077 0.106675 -0.023751 -169379.000000 0 0 1
-26.362998 5.379400 23.706477 35.860043 -0.201288 0.848535 0.105341 -0.021934 -674204.000000 0 0 1
-26.519108 4.516400 22.421467 35.019754 -0.168689 0.875970 0.104048 -0.026367 207929.000000 0 0 1
-27.468258 5.079900 21.519367 35.261789 -0.182871 0.914389 0.101925 -0.032794 296759.000000 0 0 1
-27.633248 4.271600 20.346667 34.580773 -0.153368 0.941741 0.107999 -0.032520 -96918.800000 0 0 1
-28.459288 5.044500 19.346867 34.780445 -0.175431 0.980921 0.112182 -0.035549 311205.000000 0 0 1
-29.827238 5.301600 19.668067 36.119302 -0.175906 0.994967 0.131890 -0.028042 482113.000000 0 0 1
-30.519678 5.860500 18.592567 36.214359 -0.189714 1.031650 0.132825 -0.027216 -601345.000000 0 0 1
-32.013188 5.981300 18.877667 37.642881 -0.184709 1.045472 0.130311 -0.020291 -566953.000000 0 0 1
-32.443658 7.045500 19.699167 38.604239 -0.213841 1.035280 0.124495 -0.035595 212386.000000 0 0 1
-33.743198 6.720700 20.176467 39.885600 -0.196599 1.040419 0.122884 -0.022012 138226.000000 0 0 1
-34.209565 7.782300 21.146967 40.964043 -0.223682 1.028350 0.114008 -0.013946 125252.000000 0 0 1
-33.373648 7.901000 22.301167 40.909269 -0.232464 0.994243 0.102993 -0.015499 467770.000000 0 0 1
-33.991398 8.770100 23.239317 42.099830 -0.252503 0.986029 0.103077 -0.005170 -92470.000000 0 0 1
-0.633618 31.908100 11.345120 33.870932 -1.550941 1.229243 0.086328 -0.007134 -120369.000000 0 0 1
-0.871218 32.232700 12.671720 34.645035 -1.543774 1.196349 0.068403 -0.010564 84857.400000 0 0 1
-0.699418 33.623000 12.918520 36.026150 -1.549998 1.204042 0.074547 -0.020140 -183045.000000 0 0 1
-0.546718 -34.012955 14.415920 36.945889 1.554724 1.169958 0.054230 -0.010365 74980.000000 0 0 1
-1.716418 -33.939055 15.204620 37.228833 1.520266 1.150085 0.043754 0.005997 -293793.000000 0 0 1
-1.434718 -33.602455 16.533020 37.476981 1.528125 1.113915 0.035717 -0.004327 115914.000000 0 0 1
-2.637318 -33.242255 17.441220 37.632421 1.491626 1.088897 0.037518 0.004725 -107795.000000 0 0 1
-3.445718 33.767800 17.924620 38.385274 -1.469107 1.084940 0.038331 0.001466 -106504.000000 0 0 1
-4.191018 -33.797855 18.993320 38.994946 1.447424 1.062063 0.039071 -0.001031 -248001.000000 0 0 1
-5.303118 33.342500 19.535320 39.006077 -1.413068 1.046242 0.030539 -0.006252 -11026.400000 0 0 1
-6.347518 33.175800 18.604120 38.562131 -1.381751 1.067352 0.029250 -0.014740 -558243.000000 0 0 1
-7.266518 32.280800 19.134920 38.222997 -1.349383 1.046490 0.048936 -0.026444 -570832.000000 0 0 1
-8.462518 31.968400 18.235220 37.763952 -1.312017 1.066863 0.033356 -0.024006 -237991.000000 0 0 1
-9.342718 33.040200 17.970320 38.754014 -1.295223 1.088627 0.050534 -0.029638 97726.800000 0 0 1
-9.945518 32.960100 16.656420 38.245494 -1.277740 1.120188 0.053687 -0.023697 -148413.000000 0 0 1
-11.071318 33.964500 16.457220 39.331939 -1.255690 1.139093 0.092001 -0.029699 164235.000000 0 0 1
-12.199418 33.725000 17.303320 39.819672 -1.223708 1.121267 0.079366 -0.022184 715864.000000 0 0 1
-13.274118 -33.426655 17.069320 39.810867 1.192782 1.127676 0.054717 -0.025248 399575.000000 0 0 1
-14.545018 -33.690855 17.875620 40.818734 1.163248 1.117505 0.067728 -0.020667 -182068.000000 0 0 1
-14.404118 -33.259555 19.209920 41.020697 1.162100 1.083433 0.072636 -0.023337 405449.000000 0 0 1
-15.511918 -33.634155 20.037620 42.111544 1.138671 1.074897 0.060413 -0.021807 526790.000000 0 0 1
-15.277818 -33.067155 21.445420 42.270019 1.137988 1.038697 0.067272 -0.029778 -167949.000000 0 0 1
-15.535318 -31.696155 21.501120 41.331471 1.115074 1.023697 0.076862 -0.018710 25995.600000 0 0 1
-15.555718 -31.308655 22.890120 41.787197 1.109672 0.991090 0.065292 -0.013373 145094.000000 0 0 1
-15.550718 -29.790255 23.049120 40.749798 1.089699 0.969605 0.072656 -0.020913 -74768.800000 0 0 1
-15.624418 -29.408355 24.440620 41.307598 1.082430 0.937663 0.085059 -0.030549 -148025.000000 0 0 1
-15.586518 -28.033255 24.623820 40.436808 1.063357 0.916066 0.079634 -0.014280 -266440.000000 0 0 1
-16.696018 -27.075255 24.117620 39.918492 1.018222 0.922070 0.098690 -0.016473 -6621.580000 0 0 1
-17.848618 -27.195055 24.935520 40.986880 0.989992 0.916781 0.115492 -0.016264 315128.000000 0 0 1
-18.904918 -26.407755 24.414020 40.630159 0.949489 0.926190 0.117606 -0.014625 -207714.000000 0 0 1
-20.014418 -25.907655 25.394020 41.432351 0.913032 0.911067 0.120681 -0.013070 310389.000000 0 0 1
-20.897918 -26.878455 25.958120 42.813529 0.909928 0.919389 0.123227 -0.018240 954328.000000 0 0 1
-21.810718 -27.515355 25.032320 43.120983 0.900538 0.951437 0.109581 -0.021869 468288.000000 0 0 1
-23.052418 -26.676355 24.520120 42.945060 0.858144 0.963116 0.079893 -0.014726 110215.000000 0 0 1
-22.789018 -25.568155 23.665420 41.630782 0.842806 0.966164 0.074125 -0.010070 643680.000000 0 0 1
-23.966818 -25.262555 22.906420 41.681040 0.811712 0.988953 0.067758 -0.011003 389819.000000 0 0 1
-24.379118 -23.771955 22.784520 40.970496 0.772789 0.981086 0.072086 -0.001473 150778.000000 0 0 1
-24.854518 -23.189755 24.022520 41.624431 0.750761 0.955592 0.066517 -0.001515 -264263.000000 0 0 1
-25.669428 -22.105355 23.822120 41.413279 0.710935 0.957912 0.051441 -0.003186 -369322.000000 0 0 1
-26.262638 -21.506255 25.103020 42.218559 0.686155 0.934032 0.060431 -0.002420 -588654.000000 0 0 1
-27.328308 -22.243255 25.591820 43.549283 0.683176 0.942643 0.042937 0.000446 -478386.000000 0 0 1
-27.644988 -21.613255 26.845120 44.181881 0.663553 0.917755 0.040874 -0.006579 -519973.000000 0 0 1
-28.943998 -22.172455 27.487720 45.661226 0.653692 0.924802 0.043454 -0.006084 -84386.500000 0 0 1
-30.156278 -21.617255 27.049520 45.917136 0.621939 0.940859 0.040442 -0.013258 188422.000000 0 0 1
-30.633548 -22.222355 25.850020 45.830894 0.627587 0.971538 0.026602 0.000870 309217.000000 0 0 1
-32.193268 -22.501755 25.860020 47.026334 0.610027 0.988546 0.021750 -0.003923 1020290.000000 0 0 1
-32.778388 -22.976755 24.702620 47.038000 0.611378 1.017890 0.011856 -0.004496 -4289.760000 0 0 1
-32.561808 -24.374255 24.516820 47.491579 0.642575 1.028347 0.006849 -0.001631 -474522.000000 0 0 1
-32.757268 -24.952155 23.119520 47.224579 0.650965 1.059205 0.010822 -0.000081 1049360.000000 0 0 1
-34.134094 -25.354355 22.935520 48.311673 0.638869 1.076127 0.013297 -0.003284 833984.000000 0 0 1
-34.362799 -25.927655 21.679120 48.197816 0.646392 1.104261 0.018883 0.002671 844968.000000 0 0 1
-35.703531 -26.752355 21.526320 49.535977 0.643048 1.121247 0.043808 -0.008011 661927.000000 0 0 1
-35.793578 -27.891655 22.329620 50.574070 0.661951 1.113501 0.039020 -0.002398 -222948.000000 0 0 1
-34.938453 -28.954155 22.050820 50.450741 0.692009 1.118451 0.018121 0.001597 -732596.000000 0 0 1
-35.349594 -29.902355 20.910620 50.803530 0.702111 1.146590 0.035294 0.000022 -158081.000000 0 0 1
-35.220256 -29.352255 19.610520 49.865758 0.694772 1.166615 0.037555 -0.005357 431462.000000 0 0 1
-35.868738 -30.183955 18.659820 50.456183 0.699545 1.191979 0.063513 -0.002209 -33593.800000 0 0 1
-35.909487 -29.520355 17.277020 49.592721 0.688058 1.214956 0.077213 -0.002691 523603.000000 0 0 1
-34.642543 -29.461255 16.600620 48.411279 0.704747 1.220785 0.063844 -0.008851 665004.000000 0 0 1
-34.762599 -28.773355 15.373920 47.672861 0.691410 1.242440 0.086746 -0.016995 -34992.100000 0 0 1
-35.521817 -29.452155 14.203820 48.280197 0.692252 1.272183 0.085578 -0.020525 87952.600000 0 0 1
-34.892486 -30.636155 13.661820 48.401497 0.720536 1.284647 0.098207 -0.032674 17627.200000 0 0 1
-35.700282 -31.487855 12.860320 49.309056 0.722784 1.306935 0.113142 -0.031518 307987.000000 0 0 1
-36.128848 -30.939155 11.415720 48.916701 0.708172 1.335254 0.111491 -0.027060 483173.000000 0 0 1
37.008020 -29.896955 11.394920 48.921014 -0.679510 1.335712 0.104341 -0.027479 237940.000000 0 0 1
36.658090 -29.448355 10.143020 48.103035 -0.676765 1.358341 0.085231 -0.024808 -1086390.000000 0 0 1
35.489480 -28.538355 10.169220 46.662125 -0.677258 1.351100 0.117238 -0.017042 -1035360.000000 0 0 1
35.402430 -27.740255 9.016920 45.871109 -0.664642 1.372937 0.125718 -0.047597 166401.000000 0 0 1
34.339960 -26.803255 9.121720 44.506776 -0.662754 1.364382 0.092260 -0.037995 135641.000000 0 0 1
34.446730 -25.693155 8.092220 43.728703 -0.640860 1.384668 0.072428 -0.035278 491245.000000 0 0 1
35.445300 -24.686255 8.312420 43.987234 -0.608347 1.380680 0.092764 -0.042514 373522.000000 0 0 1
35.512110 -23.820155 7.160420 43.356445 -0.590832 1.404884 0.075526 -0.045267 -160443.000000 0 0 1
36.202250 -22.476655 7.362220 43.243557 -0.555619 1.399713 0.096211 -0.057085 -499813.000000 0 0 1
35.439130 -21.568555 8.112820 42.272359 -0.546725 1.377680 0.086373 -0.053144 -473192.000000 0 0 1
35.779490 -20.270755 7.798520 41.855613 -0.515458 1.383382 0.096781 -0.049121 -553952.000000 0 0 1
35.128540 -19.230555 8.604820 40.961830 -0.500871 1.359151 0.096938 -0.038973 -380283.000000 0 0 1
35.468280 -19.245355 9.975220 41.567867 -0.497150 1.328457 0.087270 -0.053550 -294745.000000 0 0 1
34.563530 -18.414755 10.637520 40.581986 -0.489526 1.305574 0.082491 -0.043651 -69882.900000 0 0 1
34.880820 -18.400855 12.131220 41.260508 -0.485432 1.272371 0.079941 -0.051807 354402.000000 0 0 1
36.142310 -17.828055 12.443520 42.177569 -0.458252 1.271313 0.062004 -0.041835 301826.000000 0 0 1
36.555700 -18.381755 13.691420 43.146994 -0.465919 1.247894 0.071100 -0.037740 -551627.000000 0 0 1
-36.394818 -17.662655 14.382920 42.935074 0.451824 1.229199 0.091811 -0.042237 -91550.500000 0 0 1
-35.137011 -17.978855 13.801820 41.813144 0.472947 1.234405 0.086725 -0.046477 -110062.000000 0 0 1
-34.065118 -17.285655 14.372420 40.814122 0.469574 1.210936 0.065437 -0.040596 -1057430.000000 0 0 1
-32.863958 -17.378955 13.491720 39.548632 0.486433 1.222664 0.069600 -0.044064 -1019610.000000 0 0 1
-32.074688 -18.561655 13.600520 39.475243 0.524611 1.219055 0.063630 -0.045988 215894.000000 0 0 1
-30.957008 -18.453655 12.745320 38.227175 0.537551 1.230878 0.041399 -0.035513 -350357.000000 0 0 1
-30.162628 -19.720955 12.504920 38.145422 0.579057 1.236799 0.049823 -0.035740 8819.910000 0 0 1
-30.786928 -20.608455 11.595120 38.819971 0.589885 1.267477 0.062211 -0.035075 202045.000000 0 0 1
-29.762518 -21.239955 10.827020 38.133549 0.619827 1.282913 0.062152 -0.026287 -220599.000000 0 0 1
-30.369788 -22.064855 9.690320 38.769629 0.628317 1.318172 0.071375 -0.023844 332868.000000 0 0 1
-30.977358 -23.297655 10.074420 40.048363 0.644835 1.316508 0.083912 -0.028806 642648.000000 0 0 1
-32.251518 -23.087155 10.718520 41.086054 0.621283 1.306863 0.111243 -0.039601 -274103.000000 0 0 1
-33.047448 -24.364555 10.931020 42.488264 0.635297 1.310599 0.122501 -0.037910 -326499.000000 0 0 1
-33.472978 -24.939255 9.744120 42.864374 0.640330 1.341467 0.116555 -0.027460 -36846.600000 0 0 1
-34.162617 -26.183255 9.978020 44.183799 0.653934 1.343002 0.127578 -0.019339 304246.000000 0 0 1
-34.481284 -27.023455 8.696120 44.663728 0.664731 1.374843 0.113273 -0.023882 -390980.000000 0 0 1
-33.354368 -27.419355 8.000820 43.912959 0.688049 1.387576 0.097586 -0.019067 -949069.000000 0 0 1
-33.678378 -28.022255 6.745820 44.328163 0.693983 1.418024 0.082197 -0.008468 -163815.000000 0 0 1
-32.470738 -28.445455 5.894520 43.568774 0.719415 1.435088 0.070981 -0.005621 -26709.600000 0 0 1
-31.674378 -27.363055 5.477720 42.213841 0.712501 1.440668 0.087011 0.000348 -73134.800000 0 0 1
-30.564838 -27.827455 4.714020 41.602867 0.738553 1.457242 0.069890 -0.012403 503284.000000 0 0 1
-29.643828 -26.698155 4.197620 40.114437 0.733164 1.465963 0.077120 -0.013744 208011.000000 0 0 1
-30.128858 -26.199755 2.962920 40.036910 0.715758 1.496724 0.103998 -0.015461 -408362.000000 0 0 1
-29.295078 -25.269855 2.328720 38.758097 0.711762 1.510677 0.097897 -0.023809 -183955.000000 0 0 1
-29.798988 -24.701155 0.959120 38.717524 0.692132 1.546022 0.098712 -0.024831 -78734.400000 0 0 1
-29.542978 -25.607055 -0.042480 39.096171 0.714151 1.571883 0.102321 -0.031693 -235705.000000 0 0 1
-29.668358 -25.031055 -1.363680 38.841020 0.700822 1.605913 0.110698 -0.036334 143797.000000 0 0 1
-31.058698 -24.830655 -2.016780 39.815469 0.674421 1.621471 0.119884 -0.030565 457374.000000 0 0 1
-31.802838 -23.678155 -1.569480 39.680459 0.639991 1.610360 0.107564 -0.021767 349230.000000 0 0 1
-33.049088 -23.596155 -2.248280 40.670327 0.620042 1.626105 0.113970 -0.024250 198593.000000 0 0 1
-33.792028 -22.266755 -2.125080 40.524382 0.582631 1.623260 0.098709 -0.021924 -124236.000000 0 0 1
-34.087365 -21.918855 -0.789380 40.534032 0.571453 1.590272 0.102697 -0.027388 24558.800000 0 0 1
-34.694476 -20.655955 -0.674680 40.383540 0.537006 1.587504 0.101241 -0.021717 -338040.000000 0 0 1
-35.051441 -20.317355 0.791820 40.521913 0.525317 1.551255 0.104212 -0.026016 418508.000000 0 0 1
-36.006905 -21.213055 1.421120 41.815195 0.532395 1.536804 0.104308 -0.038962 755616.000000 0 0 1
-36.043816 -20.908155 2.816120 41.764077 0.525641 1.503316 0.110278 -0.038930 -887805.000000 0 0 1
37.040760 -21.767455 3.561120 43.110574 -0.531298 1.488098 0.124160 -0.029844 970850.000000 0 0 1
35.667890 -21.604155 3.164820 41.820497 -0.544602 1.495048 0.088719 -0.029210 769445.000000 0 0 1
35.031500 -20.389255 3.520020 40.685602 -0.527099 1.484170 0.077153 -0.034099 -431589.000000 0 0 1
33.729560 -20.114455 2.731820 39.366704 -0.537728 1.501346 0.056355 -0.020795 177624.000000 0 0 1
32.669470 -20.966255 3.070820 38.939800 -0.570567 1.491854 0.043826 -0.017103 -529306.000000 0 0 1
31.446240 -20.496355 2.578420 37.624657 -0.577633 1.502213 0.045154 -0.014237 708340.000000 0 0 1
30.132660 -21.288855 2.906920 37.008684 -0.615078 1.492168 0.023594 0.003581 696662.000000 0 0 1
30.037490 -22.447055 2.113720 37.557807 -0.641772 1.514487 0.008124 -0.001434 864070.000000 0 0 1
28.782950 -23.103055 2.424720 36.987682 -0.676364 1.505194 0.008876 0.005969 923868.000000 0 0 1
28.358150 -24.355055 1.682020 37.419013 -0.709603 1.525830 0.007362 0.003359 -6577.630000 0 0 1
27.753150 -23.997055 0.395420 36.691311 -0.712944 1.560019 0.004469 -0.001194 281862.000000 0 0 1
27.528550 -25.227755 -0.253580 37.340661 -0.741814 1.577587 0.009486 -0.005735 36688.100000 0 0 1
26.763350 -24.949255 -1.598880 36.623744 -0.750332 1.614467 0.032244 -0.014475 -51657.800000 0 0 1
27.519850 -24.252355 -2.558380 36.770425 -0.722369 1.640430 0.015368 -0.019311 142038.000000 0 0 1
28.021150 -25.009455 -3.661480 37.736774 -0.728667 1.667976 0.017405 -0.020606 -198828.000000 0 0 1
26.945850 -25.359355 -4.734780 37.304073 -0.755076 1.698064 0.033169 -0.025905 185060.000000 0 0 1
26.633850 -24.373155 -5.681280 36.547087 -0.741106 1.726880 0.042745 -0.040673 -142411.000000 0 0 1
25.621850 -23.511255 -5.269780 35.171421 -0.742468 1.721194 0.056821 -0.045145 -534904.000000 0 0 1
25.027350 -22.670255 -6.473580 34.383367 -0.736021 1.760203 0.078122 -0.049851 -158487.000000 0 0 1
24.313950 -23.399355 -7.429480 34.552788 -0.766232 1.787507 0.099827 -0.055224 375817.000000 0 0 1
23.128250 -22.818455 -7.948980 33.448230 -0.778656 1.810742 0.095716 -0.058549 187978.000000 0 0 1
23.196150 -21.504155 -8.823380 32.838119 -0.747564 1.842832 0.094532 -0.057876 -329655.000000 0 0 1
23.931450 -21.648155 -10.044080 33.797048 -0.735345 1.872543 0.102658 -0.050033 289243.000000 0 0 1
23.775450 -20.470055 -10.835780 33.192007 -0.710831 1.903350 0.107030 -0.047044 -331068.000000 0 0 1
24.781650 -20.358955 -11.979580 34.236348 -0.687734 1.928269 0.082923 -0.037016 372416.000000 0 0 1
26.119350 -20.204855 -11.499380 34.967018 -0.658409 1.905896 0.075021 -0.035371 611054.000000 0 0 1
27.051250 -20.047855 -12.542780 35.930599 -0.637785 1.927389 0.071597 -0.047250 1115330.000000 0 0 1
28.457950 -20.764455 -12.528380 37.389541 -0.630352 1.912483 0.051004 -0.036602 851201.000000 0 0 1
28.421150 -22.126655 -12.840780 38.239198 -0.661510 1.913252 0.042595 -0.036865 235499.000000 0 0 1
29.284880 -22.988555 -12.106180 39.148914 -0.665526 1.885184 0.052475 -0.032204 -196699.000000 0 0 1
29.540980 -24.308455 -12.726380 40.317877 -0.688533 1.891939 0.036778 -0.039130 225361.000000 0 0 1
30.687420 -24.394855 -13.591680 41.491691 -0.671652 1.904533 0.031397 -0.033486 695563.000000 0 0 1
30.957530 -25.758655 -13.772580 42.562436 -0.693989 1.900313 0.044994 -0.029697 -86220.500000 0 0 1
-3.789418 -8.949300 -27.251070 28.932171 1.170255 2.799025 0.049307 -0.026525 108285.000000 0 0 1
-3.606918 -7.587800 -26.954250 28.233246 1.127056 2.839443 0.044756 -0.018112 38403.500000 0 0 1
-4.663718 -6.789900 -27.471970 28.680345 0.968943 2.850279 0.042169 -0.019405 183257.000000 0 0 1
-4.605018 -5.405100 -26.841370 27.764734 0.865156 2.882971 0.035125 -0.019873 -179849.000000 0 0 1
-4.989318 -5.479200 -25.509310 26.563882 0.832160 2.858874 0.027604 -0.015389 191336.000000 0 0 1
-4.773718 -4.256000 -24.860580 25.670029 0.728126 2.889799 0.034048 -0.021680 -95942.000000 0 0 1
-5.390018 -4.221600 -23.454180 24.433026 0.664429 2.857576 0.028493 -0.022721 -335358.000000 0 1 0
-4.796718 -5.123800 -22.572880 23.638882 0.818356 2.840135 0.028124 -0.029349 360275.000000 0 1 0
-5.196118 -4.929900 -21.227080 22.402957 0.759114 2.816160 0.024775 -0.027312 -63315.200000 0 1 0
-4.639018 -6.056900 -20.311480 21.697068 0.917193 2.782282 0.024497 -0.036782 -569045.000000 0 1 0
-5.226818 -7.276700 -20.606380 22.469822 0.947897 2.731463 0.026483 -0.028452 510143.000000 0 1 0
-4.540818 -8.294300 -19.832480 21.971384 1.069903 2.696685 0.041335 -0.034003 -852529.000000 0 1 0
-5.274718 -9.653700 -20.006680 22.831641 1.070726 2.638862 0.054324 -0.028723 595441.000000 0 1 0
-6.483118 -9.801100 -19.275080 22.574789 0.986401 2.594099 0.065814 -0.019570 449058.000000 0 1 0
-7.534118 -8.947300 -19.724780 22.932163 0.870933 2.606333 0.049319 -0.021063 -1167150.000000 0 1 0
-8.754918 -8.976200 -18.767480 22.570757 0.797877 2.552590 0.050020 -0.011465 -212813.000000 0 1 0
-9.448918 -10.193400 -18.839880 23.412145 0.823282 2.505975 0.085700 -0.006500 -85152.000000 0 1 0
-10.147118 -10.432200 -17.630380 22.860996 0.799250 2.451519 0.076694 -0.003799 54928.700000 0 1 0
-10.786918 -11.844200 -17.597280 23.797205 0.832082 2.403077 0.073802 0.000797 185020.000000 0 1 0
-11.974018 -12.085700 -18.335080 25.012326 0.790040 2.393580 0.086377 -0.015422 -57459.500000 0 0 1
-11.727618 -12.321000 -19.720880 26.043371 0.810067 2.429861 0.092024 -0.020005 -1378890.000000 0 0 1
-12.965018 -12.084500 -20.552880 27.139413 0.750262 2.429977 0.085450 -0.025444 484720.000000 0 0 1
-14.177618 -12.833200 -20.381480 27.948178 0.735666 2.388036 0.077396 -0.015977 710948.000000 0 0 1
-14.726518 -12.853800 -19.085480 27.319335 0.717602 2.344245 0.079200 -0.007668 -1335560.000000 0 0 1
-15.806518 -13.940100 -18.907980 28.314027 0.722736 2.302040 0.078214 0.000820 -29844.600000 0 0 1
-15.353318 -15.240700 -19.166780 28.902747 0.781717 2.295812 0.082305 -0.011524 -69763.700000 0 0 1
-15.732818 -15.699700 -20.439580 30.195672 0.784345 2.314345 0.110454 -0.010063 20046.600000 0 0 1
-15.374818 -17.141600 -20.595480 30.893257 0.839680 2.300523 0.054588 -0.009596 -65039.900000 0 0 1
-16.096118 -18.085400 -19.800080 31.276347 0.843530 2.256308 0.064312 -0.007069 63328.600000 0 0 1
-15.887718 -19.404000 -20.259880 32.239689 0.884705 2.250309 0.052770 -0.005119 315147.000000 0 0 1
-16.803618 -20.483900 -19.601680 32.957209 0.883780 2.207765 0.062055 -0.013999 391568.000000 0 0 1
-16.274718 -21.706100 -20.075480 33.749758 0.927438 2.207855 0.060089 -0.012779 108851.000000 0 0 1
-16.962318 -22.809100 -19.548880 34.498319 0.931362 2.173245 0.088747 -0.015570 -75662.000000 0 0 1
-16.396118 -24.183200 -20.040980 35.430224 0.974991 2.172013 0.092216 -0.009038 60160.100000 0 0 1
-16.684818 -24.490100 -21.408780 36.557955 0.972739 2.196431 0.072547 -0.013621 235600.000000 0 0 1
-16.135718 -25.777540 -21.757280 37.392810 1.011507 2.191807 0.083200 -0.010375 -52620.600000 0 0 1
-16.605818 -26.294800 -23.124580 38.754560 1.007519 2.210170 0.084058 -0.012117 -465125.000000 0 0 1
-17.878018 -26.830050 -23.349880 39.808191 0.983018 2.197601 0.107117 -0.011575 -326790.000000 0 0 1
-17.816818 -28.208910 -23.297180 40.693246 1.007463 2.180357 0.114314 -0.008323 -240786.000000 0 0 1
-18.888418 -28.920240 -24.140280 42.141497 0.992230 2.180761 0.121088 -0.009656 -302013.000000 0 0 1
-18.722618 -29.100140 -25.559750 43.019245 0.999085 2.207001 0.119739 -0.011555 -10648.700000 0 0 1
-18.610718 -27.864740 -26.224970 42.550578 0.981944 2.234863 0.133616 -0.026400 36223.500000 0 0 1
-17.403418 -27.755210 -27.194930 42.576929 1.010737 2.263636 0.138990 -0.030015 10806.000000 0 0 1
-17.617018 -28.146640 -28.529940 43.778421 1.011549 2.280606 0.126378 -0.021715 -25913.300000 0 0 1
-16.419018 -27.914120 -29.226040 43.622743 1.039100 2.304968 0.097370 -0.012634 22666.300000 0 0 1
-16.633318 -28.185680 -30.704740 44.876285 1.037663 2.324314 0.105800 -0.018622 97024.700000 0 0 1
-16.604818 -29.491140 -31.092990 45.958910 1.057993 2.313849 0.106437 -0.013868 81989.700000 0 0 1
-17.122618 -29.611930 -32.409080 47.121109 1.046535 2.329226 0.112675 -0.017486 99589.900000 0 0 1
-16.972818 -31.022940 -32.986340 48.359053 1.070178 2.321445 0.125014 -0.020778 621206.000000 0 0 1
-15.715318 -31.399560 -33.543970 48.560288 1.106753 2.333349 0.124329 -0.020326 313853.000000 0 0 1
-15.887618 -32.706870 33.761876 49.618747 1.118607 0.822453 0.126395 -0.022818 505616.000000 0 0 1
-14.638418 -33.175770 32.945417 48.993015 1.155253 0.833281 0.112841 -0.029549 897190.000000 0 0 1
-13.583918 -33.713930 33.744773 49.596992 1.187778 0.822516 0.119474 -0.019333 295427.000000 0 0 1
-12.516018 33.839271 32.975990 48.879064 -1.216534 0.830313 0.108491 -0.018338 654447.000000 0 0 1
-11.517418 32.920387 33.793886 48.563665 -1.234249 0.801169 0.117099 -0.023640 701140.000000 0 0 1
-10.783018 33.655686 -33.156840 48.459826 -1.260738 2.324320 0.115597 -0.021647 -122035.000000 0 0 1
-9.999118 32.813970 -32.351070 47.152208 -1.275014 2.326909 0.112499 -0.030978 326907.000000 0 0 1
-9.054718 33.502317 -31.340420 46.761257 -1.306832 2.305304 0.099232 -0.034372 364222.000000 0 0 1
-9.840818 -33.811930 -30.422730 46.536339 1.287575 2.283314 0.119811 -0.026372 272796.000000 0 0 1
-9.098218 -32.691520 -29.904650 45.230534 1.299360 2.293161 0.096383 -0.020447 -341375.000000 0 0 1
-9.930518 -31.755130 -29.086010 44.192754 1.267709 2.289172 0.117189 -0.016792 -300076.000000 0 0 1
-9.990318 -31.921320 -27.668880 43.409032 1.267486 2.261914 0.138897 -0.019450 111918.000000 0 0 1
-10.670718 -33.144250 -27.207470 44.188822 1.259328 2.234082 0.151096 -0.025069 184864.000000 0 0 1
-11.010518 -33.190390 -25.699040 43.396707 1.250482 2.204569 0.135316 -0.026434 -644137.000000 0 0 1
-9.934418 -33.167380 -24.820480 42.600751 1.279777 2.192757 0.142833 -0.039570 -960873.000000 0 0 1
-10.224118 -33.111380 -23.473980 41.855989 1.271304 2.166181 0.131706 -0.042477 -437187.000000 0 0 1
-8.999518 -33.318400 -22.590880 41.248697 1.306985 2.150379 0.129284 -0.057030 -399465.000000 0 0 1
-8.506118 33.457390 -22.650380 41.289112 -1.321834 2.151461 0.120851 -0.053667 -301185.000000 0 0 1
-7.720718 33.212578 -21.505080 40.313191 -1.342389 2.133471 0.120655 -0.054465 -34108.200000 0 0 1
-7.041518 31.802804 -21.445980 38.999121 -1.352900 2.153052 0.120486 -0.055094 486283.000000 0 0 1
-5.943418 31.623394 -22.353080 39.179376 -1.385020 2.177950 0.093091 -0.059177 476906.000000 0 0 1
-5.231318 30.426424 -22.208080 38.030683 -1.400528 2.194384 0.080519 -0.043617 -935549.000000 0 0 1
-3.793718 30.636644 -22.619880 38.270815 -1.447594 2.203154 0.085352 -0.050384 -980797.000000 0 0 1
-3.499118 30.728964 -24.028280 39.164669 -1.457414 2.231306 0.094105 -0.042818 391262.000000 0 0 1
-2.219518 31.309194 -24.269680 39.676306 -1.500024 2.228994 0.067232 -0.044398 318352.000000 0 0 1
-2.213718 31.832424 -25.749370 41.002852 -1.501365 2.249764 0.079581 -0.022259 -566838.000000 0 0 1
-1.191118 32.722524 -26.048300 41.841323 -1.534412 2.242793 0.086992 -0.033753 -498039.000000 0 0 1
-1.608218 -34.004060 -26.138940 42.919770 1.523537 2.225619 0.074295 -0.026746 -275017.000000 0 0 1
-0.567418 -33.046710 -26.720470 42.501653 1.553628 2.250667 0.043500 -0.013524 37765.700000 0 0 1
0.643282 -33.011200 -25.982880 42.015036 -1.551312 2.237525 0.057757 -0.018812 190640.000000 0 0 1
1.536382 -32.065060 -26.554010 41.661061 -1.522918 2.261892 0.053201 -0.007529 427061.000000 0 0 1
2.630182 -31.538510 -25.558530 40.679650 -1.487593 2.250147 0.053041 -0.012893 -77689.000000 0 0 1
2.175782 -30.807080 -24.443180 39.386283 -1.500287 2.240306 0.052029 -0.014755 177450.000000 0 0 1
3.240682 -30.056930 -23.894480 38.533975 -1.463393 2.239652 0.035095 -0.008636 -307647.000000 0 0 1
3.185382 -29.541520 -22.417680 37.220968 -1.463384 2.217158 0.048286 -0.007487 -284725.000000 0 0 1
3.308882 -30.599460 -21.434380 37.506110 -1.463080 2.179117 0.057900 -0.015874 508388.000000 0 0 1
3.281282 -30.012570 -20.106580 36.273899 -1.461899 2.158317 0.064223 -0.017974 -401981.000000 0 0 1
3.389182 -31.002130 -18.895680 36.464577 -1.461908 2.115533 0.063659 -0.015751 -561399.000000 0 0 1
2.198782 -31.638870 -18.537980 36.735670 -1.501412 2.099752 0.051802 -0.020850 -271642.000000 0 0 1
1.853882 -32.839280 -19.222180 38.096554 -1.514403 2.099674 0.063936 -0.015438 -524393.000000 0 0 1
2.401182 33.885981 -18.653080 38.755165 1.500054 2.072940 0.056834 -0.016570 893557.000000 0 0 1
3.842282 33.886022 -18.620180 38.855331 1.457890 2.070560 0.061881 -0.010588 773227.000000 0 0 1
4.336682 32.881177 -17.752880 37.618392 1.439664 2.062264 0.066195 -0.027983 -482174.000000 0 0 1
5.573582 32.256706 -18.344880 37.524586 1.399697 2.081597 0.075944 -0.023795 -72099.700000 0 0 1
6.787082 33.035469 -18.330180 38.384922 1.368168 2.068644 0.097275 -0.027858 25008.000000 0 0 1
7.699282 32.239340 -19.025180 38.217947 1.336371 2.091865 0.077900 -0.034646 -354074.000000 0 0 1
9.084782 32.875021 -19.222480 39.151041 1.301182 2.084014 0.064963 -0.035542 -29664.000000 0 0 1
10.001382 32.940683 -18.160080 38.921778 1.276024 2.056215 0.053714 -0.017565 452955.000000 0 0 1
11.307582 33.256050 -18.647880 39.768954 1.243044 2.058847 0.058820 -0.003179 428642.000000 0 0 1
12.277282 33.643093 -17.530880 39.873815 1.220886 2.026015 0.030133 -0.000017 -454493.000000 0 0 1
12.757582 32.547809 -16.761280 38.769270 1.197236 2.017876 0.037266 -0.003472 227572.000000 0 0 1
13.558482 32.981105 -15.641680 38.939028 1.180759 1.984165 0.037568 -0.010581 154040.000000 0 0 1
14.647782 31.944044 -15.321880 38.337182 1.140859 1.981943 0.054462 -0.009294 206850.000000 0 0 1
14.162382 30.852074 -14.600480 36.953993 1.140449 1.976972 0.069853 -0.016268 -287889.000000 0 0 1
15.228682 29.947844 -14.524480 36.602550 1.100366 1.978842 0.073533 -0.019173 -18326.300000 0 0 1
15.014682 28.811664 -13.580680 35.213457 1.090386 1.966727 0.078237 -0.026434 -265480.000000 0 0 1
14.827982 29.077184 -12.206880 34.847663 1.099218 1.928680 0.072582 -0.028837 -716865.000000 0 0 1
13.496782 29.133624 -11.799580 34.207620 1.136961 1.922971 0.097312 -0.028078 -497129.000000 0 0 1
12.885682 27.762624 -11.446080 32.677467 1.136248 1.928660 0.091517 -0.024785 -497494.000000 0 0 1
12.518582 26.982044 -12.565180 32.289772 1.136394 1.970492 0.065536 -0.024941 128247.000000 0 0 1
12.070482 25.620804 -12.353580 30.898755 1.130518 1.982104 0.089489 -0.028064 607602.000000 0 0 1
11.007182 25.283134 -11.238380 29.777443 1.160186 1.957797 0.083477 -0.029016 225733.000000 0 0 1
9.807082 26.009654 -11.407280 30.046747 1.210225 1.960215 0.072966 -0.025456 64181.200000 0 0 1
9.087282 26.126204 -10.187180 29.477718 1.236063 1.923663 0.064638 -0.014860 246351.000000 0 0 1
7.929282 27.145914 -10.261980 30.084588 1.286604 1.918888 0.070390 -0.020159 296186.000000 0 0 1
8.475582 28.434714 -10.495380 31.472551 1.281110 1.910786 0.071748 -0.022385 322914.000000 0 0 1
7.492082 29.430994 -10.263980 32.057199 1.321526 1.896713 0.056061 -0.019493 85774.900000 0 0 1
8.107782 30.823124 -10.445980 33.539821 1.313581 1.887515 0.086528 -0.028428 652863.000000 0 0 1
9.205482 31.051894 -9.536080 33.762373 1.282595 1.857140 0.080303 -0.029079 391775.000000 0 0 1
9.689682 32.402152 -9.460680 35.118284 1.280216 1.843561 0.093251 -0.033648 290892.000000 0 0 1
10.629782 32.853480 -10.638680 36.132049 1.257875 1.869665 0.067390 -0.018910 789138.000000 0 0 1
12.019682 32.528507 -10.429580 36.212604 1.216846 1.862944 0.072212 -0.024376 729550.000000 0 0 1
12.716782 33.121910 -11.509680 37.299466 1.204212 1.884491 0.071206 -0.018638 -250631.000000 0 0 1
14.248582 33.129147 -11.464380 37.841703 1.164621 1.878589 0.071236 -0.027448 -65482.100000 0 0 1
14.872182 33.900133 -10.455580 38.467129 1.157374 1.846065 0.067555 -0.028444 458558.000000 0 0 1
16.287282 33.844093 -10.647580 39.039328 1.122265 1.847036 0.059853 -0.031489 311495.000000 0 0 1
17.073882 -33.330830 -9.696480 38.684408 -1.097393 1.824154 0.075242 -0.035153 -237269.000000 0 0 1
17.155482 -33.798330 -8.390780 38.820650 -1.101100 1.788658 0.072235 -0.028052 23468.700000 0 0 1
17.654982 -32.822620 -7.514380 38.019583 -1.077298 1.769751 0.064615 -0.025740 -571407.000000 0 0 1
17.907582 -33.401020 -6.057680 38.379749 -1.078657 1.729294 0.057807 -0.016343 136175.000000 0 0 1
18.801082 33.551680 -6.106980 38.942151 1.060033 1.728268 0.038677 -0.019864 -315008.000000 0 0 1
20.151282 33.927753 -6.048880 39.921868 1.034840 1.722900 0.052367 -0.018785 -363500.000000 0 0 1
21.155882 32.954963 -6.754580 39.739467 1.000091 1.741597 0.037600 -0.018099 393871.000000 0 0 1
21.310782 31.724814 -6.103580 38.702286 0.979291 1.729163 0.034301 -0.006945 -279107.000000 0 0 1
22.183282 31.716224 -4.988880 39.024426 0.960453 1.698987 0.033693 -0.001323 -344724.000000 0 0 1
22.496682 30.254154 -4.508680 37.970288 0.931410 1.689819 0.018419 -0.003249 -584301.000000 0 0 1
23.205582 29.581914 -5.457480 37.991746 0.905608 1.714944 0.017047 -0.001626 -385607.000000 0 0 1
23.610682 28.282324 -4.944480 37.172598 0.875181 1.704206 0.016760 0.002464 -601726.000000 0 0 1
24.597682 27.575404 -5.871780 37.415594 0.842410 1.728382 0.014399 0.007538 1109270.000000 0 0 1
25.897782 28.268344 -5.947580 38.796496 0.829135 1.724705 0.028187 -0.000924 1636240.000000 0 0 1
26.892982 27.650014 -6.743480 39.156485 0.799277 1.743878 0.020343 -0.002862 -273211.000000 0 0 1
27.598282 26.470164 -6.096280 38.723370 0.764537 1.728886 0.033070 0.006159 -862325.000000 0 0 1
28.637082 26.991014 -5.278480 39.704655 0.755816 1.704135 0.044611 0.000141 226821.000000 0 0 1
29.321982 25.905594 -4.573580 39.392843 0.723617 1.687161 0.052281 -0.000787 61993.600000 0 0 1
30.539482 26.431154 -3.809580 40.568199 0.713410 1.664840 0.055390 -0.001710 -367856.000000 0 0 1
30.232682 27.419654 -2.827980 40.912711 0.736644 1.639974 0.062096 -0.007728 -720772.000000 0 0 1
31.299582 27.672554 -1.999280 41.826202 0.723971 1.618614 0.076727 -0.018535 -571442.000000 0 0 1
30.910682 28.748894 -1.001180 42.225247 0.749179 1.594509 0.094323 -0.011862 52462.600000 0 0 1
30.895082 30.026684 -1.554180 43.110594 0.771145 1.606855 0.075603 0.000866 -32568.800000 0 0 1
30.546682 31.066704 -0.617680 43.573173 0.793838 1.584973 0.082254 -0.003078 -99512.300000 0 0 1
33.881800 23.040000 19.146767 45.226283 0.597184 1.133651 0.125829 -0.020701 232411.000000 0 0 1
34.064470 22.574000 20.449067 45.696148 0.585241 1.106827 0.111740 -0.040353 11903.200000 0 0 1
34.933850 23.451900 21.130067 47.083386 0.591219 1.105397 0.115619 -0.032398 47305.400000 0 0 1
34.822440 23.306300 22.707667 47.659460 0.589816 1.074176 0.085898 -0.023094 824718.000000 0 0 1
33.563050 23.809500 23.211007 47.245333 0.617004 1.057230 0.072854 -0.025624 838186.000000 0 0 1
33.331600 23.591300 24.571567 47.658230 0.615926 1.029113 0.079193 -0.020563 -597581.000000 0 0 1
31.982130 24.192500 24.943107 47.225971 0.647609 1.014358 0.050965 -0.015028 -361059.000000 0 0 1
31.923250 25.590800 24.754507 47.820169 0.675737 1.026685 0.029964 -0.015852 -178228.000000 0 0 1
30.845450 26.188600 25.430997 47.791424 0.703929 1.009688 0.018397 -0.011404 -140511.000000 0 0 1
30.972450 27.663200 25.582737 48.775217 0.729020 1.018665 0.000743 -0.000682 -194140.000000 0 0 1
30.749480 28.470800 24.431207 48.507740 0.746939 1.042971 0.000652 0.000558 276462.000000 0 0 1
30.483340 29.805300 24.779327 49.311307 0.774152 1.044299 -0.004739 -0.003166 -115592.000000 0 0 1
30.464660 30.676300 23.594747 49.252848 0.788860 1.071220 0.016710 -0.015592 124270.000000 0 0 1
31.782850 30.920300 23.134947 50.014401 0.771643 1.089909 0.000485 -0.016172 13104.200000 0 0 1
31.702450 32.013000 22.198267 50.225896 0.790272 1.113004 0.015866 -0.019976 -149906.000000 0 0 1
32.977510 32.577700 21.552067 51.120586 0.779299 1.135595 0.009950 -0.022677 -155381.000000 0 0 1
33.782520 33.279200 22.455567 52.469194 0.777893 1.128544 0.013680 -0.011813 -324068.000000 0 0 1
35.097560 33.419300 21.978367 53.214067 0.760909 1.145031 0.012306 0.005023 68238.700000 0 0 1
35.862040 -33.458055 22.677267 54.035042 -0.750733 1.137707 0.021843 0.003716 -149763.000000 0 0 1
35.484010 -32.181355 22.183567 52.790768 -0.736628 1.137112 0.026357 0.000484 109277.000000 0 0 1
35.778510 -31.187055 23.158497 52.811459 -0.716941 1.116853 0.032094 -0.001503 -974237.000000 0 0 1
35.115140 -29.818755 22.897667 51.444478 -0.704013 1.109516 0.042111 -0.002682 -259260.000000 0 0 1
33.774670 -29.757655 23.300557 50.686905 -0.722254 1.093144 0.039399 -0.004235 356638.000000 0 0 1
32.799960 -30.204755 22.326367 49.866133 -0.744231 1.106576 0.048213 -0.001950 430405.000000 0 0 1
32.143000 -31.651055 22.613467 50.461179 -0.777687 1.106117 0.032137 -0.001178 -44445.900000 0 0 1
31.180770 -31.618555 23.641817 50.308140 -0.792369 1.081573 0.043276 -0.007270 133865.000000 0 0 1
30.464600 -32.852955 23.733107 50.701764 -0.823101 1.083666 0.030464 -0.009740 -45234.500000 0 0 1
29.734050 -32.949455 25.070707 50.973725 -0.836649 1.056599 0.024408 -0.016261 -395026.000000 0 0 1
29.187470 33.873200 25.320837 51.385279 0.859567 1.055533 0.024550 -0.021946 302347.000000 0 0 1
28.330050 33.793300 26.468917 51.431337 0.873114 1.030202 0.024506 -0.023328 -172447.000000 0 0 1
27.912750 32.322200 26.764017 50.399989 0.858472 1.010978 0.014713 -0.012499 304288.000000 0 0 1
27.295850 31.721700 25.624847 49.070994 0.860250 1.021368 0.029329 -0.016391 205580.000000 0 0 1
25.890150 31.917900 25.597777 48.417955 0.889295 1.013747 0.046157 -0.026061 -8297.300000 0 0 1
25.309050 31.612000 24.149627 47.149454 0.895680 1.033060 0.072960 -0.027804 106726.000000 0 0 1
25.597250 32.578400 23.134517 47.452895 0.904828 1.061542 0.086219 -0.034510 1332840.000000 0 0 1
26.962750 32.629200 22.636367 48.000622 0.880201 1.079709 0.057583 -0.023124 1013250.000000 0 0 1
27.146250 33.604400 21.487667 48.248258 0.891306 1.109224 0.071686 -0.022580 -104722.000000 0 0 1
28.441050 33.817400 20.962767 48.907540 0.871540 1.127831 0.072420 -0.025684 -115100.000000 0 0 1
28.446750 -33.772155 19.632467 48.324008 -0.870781 1.152431 0.068088 -0.022631 -544246.000000 0 0 1
29.756510 -33.392555 18.942967 48.573126 -0.842913 1.170177 0.070167 -0.024419 -164632.000000 0 0 1
30.485820 33.530500 18.570067 48.974759 0.832923 1.181890 0.063301 -0.024411 283480.000000 0 0 1
31.683400 33.803100 17.832267 49.643501 0.817755 1.203379 0.069219 -0.020718 343851.000000 0 0 1
32.369600 32.527900 17.244567 49.022754 0.787837 1.211339 0.053739 -0.021829 267162.000000 0 0 1
33.166160 31.842300 18.244167 49.464895 0.765037 1.193046 0.045159 -0.014142 329352.000000 0 0 1
34.019380 30.833100 17.753667 49.225918 0.736306 1.201824 0.073598 -0.023678 26298.700000 0 0 1
34.884640 30.242600 18.853067 49.869741 0.714242 1.183111 0.067082 -0.032007 196384.000000 0 0 1
35.864110 31.170600 19.343267 51.303048 0.715496 1.184199 0.065526 -0.023681 844191.000000 0 0 1
36.861180 30.533200 20.168467 51.940254 0.691778 1.172009 0.084768 -0.025337 565278.000000 0 0 1
-36.049185 31.390900 20.585867 52.045272 -0.716435 1.164143 0.101093 -0.025790 -296419.000000 0 0 1
-35.258658 31.789500 19.468067 51.310340 -0.733703 1.181629 0.109066 -0.029494 203775.000000 0 0 1
-34.113234 32.577000 19.797067 51.155621 -0.762367 1.173424 0.089355 -0.016362 398642.000000 0 0 1
-34.224760 33.912500 20.485467 52.355002 -0.780815 1.168774 0.068691 -0.013361 -535262.000000 0 0 1
-34.668510 33.752800 21.808867 53.073381 -0.772016 1.147334 0.059923 -0.010143 -21008.800000 0 0 1
-34.352946 -33.195355 22.634867 52.862025 0.768263 1.128310 0.037935 0.000161 -120358.000000 0 0 1
-34.483478 -33.398955 24.100777 53.716365 0.769423 1.105523 0.043126 -0.009093 39629.000000 0 0 1
-35.778863 -33.610755 24.631257 54.922752 0.754163 1.105742 0.038925 -0.006786 -325387.000000 0 0 1
-35.775061 -34.021455 25.994287 55.794421 0.760279 1.086152 0.043470 -0.005383 -234598.000000 0 0 1
36.990710 33.815700 26.671487 56.773078 0.740587 1.081742 0.024456 -0.010627 -827072.000000 0 0 1
-36.964798 33.304100 27.964567 57.075182 -0.733350 1.058752 0.041179 -0.006260 -601056.000000 0 0 1
35.899850 33.076100 28.564637 56.557635 0.744483 1.041352 0.037667 -0.014843 -556976.000000 0 0 1
35.894470 32.011400 29.690647 56.521476 0.728277 1.017730 0.038731 -0.006937 -314223.000000 0 0 1
35.924270 30.654500 29.310757 55.582120 0.706412 1.015328 0.022329 -0.006142 421455.000000 0 0 1
37.049880 30.119500 28.607457 55.662056 0.682584 1.031014 0.033096 -0.008305 -90910.100000 0 0 1
36.770510 28.640800 28.300837 54.528004 0.661746 1.025098 0.039034 -0.002782 -542408.000000 0 0 1
35.642760 28.508800 27.478987 53.275255 0.674648 1.028864 0.030404 -0.003673 -154610.000000 0 0 1
35.275160 27.200400 27.094057 52.137190 0.656864 1.024333 0.045639 -0.014121 329523.000000 0 0 1
34.853650 26.134400 28.195527 51.891922 0.643394 0.996373 0.036011 -0.017706 -595830.000000 0 0 1
36.045010 25.570000 28.633207 52.658601 0.617001 0.995895 0.030441 -0.010909 -431645.000000 0 0 1
35.844170 24.238000 29.052177 52.118271 0.594577 0.979512 0.040337 -0.017021 -43811.800000 0 0 1
36.463210 23.143100 28.132217 51.542123 0.565542 0.993441 0.049633 -0.019457 -164637.000000 0 0 1
35.922230 23.150300 26.827587 50.458522 0.572468 1.010218 0.055517 -0.010943 -30047.500000 0 0 1
36.629040 22.462000 25.798697 50.117869 0.550090 1.030068 0.065132 -0.031573 -535811.000000 0 0 1
36.232090 20.991600 25.819397 49.194033 0.525108 1.018260 0.076166 -0.036549 453394.000000 0 0 1
34.907990 20.680800 25.339767 47.836880 0.534840 1.012535 0.097123 -0.016904 1019710.000000 0 0 1
34.516100 19.329700 25.690467 47.169891 0.510503 0.994840 0.106521 -0.013433 -299986.000000 0 0 1
34.267400 18.932800 27.182697 47.661354 0.504762 0.963889 0.077440 0.004410 568657.000000 0 0 1
33.122280 19.541800 27.838807 47.475958 0.533026 0.944217 0.062279 -0.007532 1066140.000000 0 0 1
33.170690 20.950600 27.890867 48.136502 0.563331 0.952789 0.064954 -0.031374 -1700430.000000 0 0 1
32.299000 21.420100 29.006737 48.409058 0.585586 0.928294 0.065022 -0.024834 347677.000000 0 0 1
30.888510 21.229400 28.790387 47.261759 0.602146 0.915784 0.069032 -0.025737 1291160.000000 0 0 1
30.153520 22.030000 27.852947 46.586933 0.630966 0.929955 0.048992 -0.020014 -94867.200000 0 0 1
29.829140 23.448100 28.304427 47.336367 0.666196 0.929865 0.042160 -0.012571 -561524.000000 0 0 1
31.026970 24.178000 28.211977 48.406242 0.661965 0.948605 0.049915 -0.015961 34414.800000 0 0 1
31.046900 25.339300 29.008087 49.471803 0.684518 0.944243 0.034163 -0.006862 -17731.200000 0 0 1
31.276220 25.161700 30.532217 50.433415 0.677478 0.920532 0.032165 -0.012824 -212422.000000 0 0 1
32.645280 24.860800 30.722057 51.260301 0.650848 0.928127 0.024190 -0.004211 220203.000000 0 0 1
33.067490 25.060100 32.089057 52.451645 0.648504 0.912483 0.039001 -0.004418 216357.000000 0 0 1
32.647930 23.874500 33.065630 52.241889 0.631407 0.885460 0.054166 -0.005598 -145349.000000 0 0 1
33.153090 23.952600 -33.543970 52.896620 0.625658 2.257695 0.051385 -0.022887 -16521.700000 0 0 1
32.634390 22.910700 -32.761450 51.606358 0.612095 2.258589 0.043968 -0.033992 -358830.000000 0 0 1
33.266000 22.653700 -31.368980 51.027736 0.597851 2.232857 0.054267 -0.035935 -331523.000000 0 0 1
32.805260 23.628500 -30.473280 50.627185 0.624198 2.216694 0.051799 -0.045696 430548.000000 0 0 1
33.279010 23.404300 -29.094070 50.017184 0.612921 2.191591 0.074558 -0.054502 268856.000000 0 0 1
34.679000 23.934100 -28.685300 50.973725 0.604092 2.168501 0.087513 -0.028293 238381.000000 0 0 1
35.291630 23.196500 -27.676410 50.493172 0.581476 2.150913 0.078483 -0.029420 -42704.800000 0 0 1
36.429500 23.880100 -27.145220 51.324757 0.580243 2.128090 0.108196 -0.021091 362936.000000 0 0 1
-36.969518 23.026400 -26.068870 50.759692 -0.557050 2.110142 0.098574 -0.016343 133297.000000 0 0 1
-36.151608 22.024600 -26.710620 50.054760 -0.547178 2.133681 0.072744 -0.017113 314409.000000 0 0 1
-36.417768 20.751400 -26.188180 49.423630 -0.517929 2.129246 0.052504 -0.007292 -150267.000000 0 0 1
-35.262686 19.785400 -26.505860 48.347489 -0.511315 2.151051 0.062255 0.000144 -515651.000000 0 0 1
-34.082958 20.192600 -25.906930 47.334535 -0.534853 2.149950 0.057933 -0.010311 -483562.000000 0 0 1
-33.031268 19.225900 -25.998080 46.223372 -0.527118 2.168136 0.042301 -0.012650 955111.000000 0 0 1
-31.762658 19.574100 -25.154590 44.997392 -0.552291 2.164004 0.044194 -0.014601 390409.000000 0 0 1
-32.046968 19.698100 -23.816080 44.522230 -0.551132 2.135216 0.039890 -0.008525 22564.000000 0 0 1
-30.850258 19.831300 -23.098280 43.342236 -0.571314 2.132853 0.046102 -0.004756 51789.300000 0 0 1
-31.232598 20.242100 -21.643880 43.054330 -0.575044 2.097528 0.038648 -0.008628 191185.000000 0 0 1
-31.952308 19.203400 -21.020580 42.797025 -0.541156 2.084228 0.006415 0.001183 -70789.500000 0 0 1
-32.454058 19.633200 -19.772780 42.774891 -0.544054 2.051330 0.008996 0.007507 -405541.000000 0 0 1
-33.352398 18.512300 -19.097680 42.659221 -0.506713 2.034965 -0.009553 0.007615 477747.000000 0 0 1
-34.121027 18.874800 -17.938380 42.921883 -0.505275 2.001963 -0.005385 0.000477 925955.000000 0 0 1
-35.032685 19.981800 -18.104380 44.207804 -0.518352 1.992734 -0.002914 0.000392 -1023420.000000 0 0 1
-36.190868 20.032300 -17.163780 44.784678 -0.505540 1.964110 0.011681 -0.007784 -1031490.000000 0 0 1
-35.770725 20.474900 -15.929380 44.187232 -0.519873 1.939597 0.014616 -0.015882 225892.000000 0 0 1
-36.793838 20.326500 -14.943680 44.612405 -0.504717 1.912366 0.026625 -0.007751 -702159.000000 0 0 1
-36.621848 21.155300 -13.628580 44.434724 -0.523838 1.882531 0.043200 -0.010881 -250506.000000 0 0 1
-36.869658 22.554700 -13.790380 45.368059 -0.549008 1.879650 0.050136 -0.020627 -166150.000000 0 0 1
35.886180 22.816500 -14.000880 44.770920 0.566329 1.888854 0.061858 -0.018756 -685305.000000 0 0 1
35.527260 24.212400 -14.473480 45.364173 0.598213 1.895524 0.063055 -0.021824 49416.800000 0 0 1
35.838930 25.195800 -13.506780 45.844197 0.612756 1.869858 0.063833 -0.023910 -12236.300000 0 0 1
35.548520 26.497100 -14.013180 46.499062 0.640537 1.876920 0.049441 -0.015298 369587.000000 0 0 1
36.783230 27.380600 -14.408980 48.065809 0.639893 1.875254 0.072685 -0.021991 550959.000000 0 0 1
-36.888228 27.075600 -15.739680 48.389741 -0.633176 1.902092 0.078234 -0.017006 85815.000000 0 0 1
-35.779801 27.901600 -16.050880 48.128206 -0.662311 1.910813 0.072336 -0.022782 -574081.000000 0 0 1
-35.295801 27.743300 -17.531580 48.195857 -0.666160 1.943094 0.074786 -0.021895 -88965.800000 0 0 1
-34.810208 26.452200 -17.864380 47.229287 -0.649806 1.958699 0.066396 -0.026644 658644.000000 0 0 1
-33.455758 26.187800 -17.497180 45.948231 -0.664139 1.961460 0.061033 -0.018934 228555.000000 0 0 1
-33.037658 24.867200 -18.137080 45.153274 -0.645222 1.984145 0.051940 -0.020431 -100038.000000 0 0 1
-32.824878 24.914300 -19.547480 45.610294 -0.649240 2.013712 0.044392 -0.011704 192919.000000 0 0 1
-32.226008 23.707900 -19.964180 44.711840 -0.634271 2.033655 0.033296 -0.008305 -203986.000000 0 0 1
-31.805418 23.772900 -21.409380 45.112049 -0.641866 2.065286 0.026849 0.002777 -155705.000000 0 0 1
-32.914988 23.913600 -22.264680 46.378580 -0.628308 2.071524 0.050797 0.000389 310872.000000 0 0 1
-32.599358 23.414400 -23.595280 46.558453 -0.622868 2.102251 0.057742 0.000080 282820.000000 0 0 1
-33.573978 23.928100 -24.697380 48.059615 -0.619197 2.110510 0.034608 0.003409 129034.000000 0 0 1
-33.403578 25.295700 -24.945780 48.764366 -0.648141 2.107793 0.021323 0.007585 -758880.000000 0 0 1
-34.340294 25.731000 -25.822080 50.081134 -0.643050 2.112510 0.032986 -0.005187 -921167.000000 0 0 1
-34.102735 27.250000 -26.165680 50.894026 -0.674165 2.110779 0.015550 0.005121 752669.000000 0 0 1
-32.941928 27.556000 -26.964940 50.711062 -0.696606 2.131446 0.001057 0.008353 255924.000000 0 0 1
-32.478868 28.864700 -26.752620 51.026958 -0.726549 2.122670 0.008152 -0.005487 -22728.300000 0 0 1
-31.163658 29.059400 -27.539110 50.734849 -0.750471 2.144569 0.018999 -0.000086 -184658.000000 0 0 1
-30.031258 28.485400 -26.946600 49.390422 -0.758987 2.147882 -0.009254 0.003070 960486.000000 0 0 1
-28.800388 28.693800 -27.725420 49.208693 -0.783544 2.169322 0.027875 0.000235 1684630.000000 0 0 1
-27.914238 29.904900 -27.381870 49.226767 -0.819814 2.160650 0.019092 -0.002508 -151673.000000 0 0 1
-27.155488 29.903400 -26.177220 48.133987 -0.833520 2.145803 0.020223 0.001327 287982.000000 0 0 1
-27.944778 30.146200 -24.985280 48.103724 -0.823276 2.116950 0.012604 0.008567 188414.000000 0 0 1
-27.134658 30.504500 -23.703180 47.208632 -0.843796 2.096815 -0.009061 0.002998 -141011.000000 0 0 1
-26.686828 31.785300 -23.738980 47.812459 -0.872373 2.090361 0.001443 0.009080 -60575.000000 0 0 1
-25.951498 32.137400 -22.581080 47.076511 -0.891489 2.071072 0.011746 0.025480 -354735.000000 0 0 1
-25.439478 33.535600 -22.718980 47.832579 -0.921826 2.065725 0.006738 0.034022 -527295.000000 0 0 1
-26.344428 -33.463755 -22.583680 48.206580 0.903877 2.058363 -0.003772 0.022706 116590.000000 0 0 1
-25.633128 -32.230455 -22.805180 47.073726 0.898923 2.076538 0.011183 0.021728 415707.000000 0 0 1
17.102282 8.836500 -24.660480 31.284358 0.476907 2.478787 0.042808 -0.027929 -937118.000000 0 0 1
15.869182 8.239000 -24.872080 30.632212 0.478876 2.518296 0.025636 -0.028876 -482133.000000 0 0 1
16.112882 6.852400 -25.031490 30.547600 0.402103 2.531205 0.022544 -0.036701 137654.000000 0 0 1
14.791382 6.097200 -25.232110 29.876750 0.390990 2.576502 0.065399 -0.043305 -134771.000000 0 0 1
13.933482 6.121100 -24.142880 28.539244 0.413928 2.579147 0.074499 -0.036409 -1015300.000000 0 0 1
12.684382 5.587600 -24.404880 28.066225 0.414934 2.625079 0.070428 -0.033805 -945679.000000 0 0 1
11.817482 5.660600 -23.134080 26.587233 0.446709 2.626242 0.071776 -0.036966 -294966.000000 0 0 1
12.346582 4.927500 -22.017080 25.719062 0.379729 2.598396 0.069752 -0.023435 331667.000000 0 0 1
11.551882 5.059400 -20.839480 24.358314 0.412806 2.597387 0.072523 -0.021221 -71913.500000 0 1 0
11.672082 6.403800 -20.078680 24.091483 0.501800 2.556091 0.067269 -0.029347 -185992.000000 0 1 0
11.321082 6.467600 -18.727280 22.819022 0.519040 2.533409 0.060456 -0.019433 -287349.000000 0 1 0
11.350482 7.724400 -18.090580 22.710546 0.597542 2.492399 0.062092 -0.023985 -7932.350000 0 1 0
12.761382 8.254400 -17.761980 23.376825 0.574141 2.433819 0.041360 -0.016701 -106698.000000 0 1 0
13.187982 7.642900 -16.588580 22.528155 0.525236 2.398454 0.049455 -0.025146 303638.000000 0 1 0
14.563382 7.892000 -16.352080 23.275873 0.496609 2.349748 0.043507 -0.023302 -184952.000000 0 1 0
15.075982 7.541800 -14.966980 22.542725 0.463850 2.296870 0.050576 -0.030104 496481.000000 0 1 0
16.314282 8.226800 -14.700880 23.451053 0.467058 2.248332 0.036054 -0.036477 1211090.000000 0 1 0
16.781582 8.078300 -13.349480 22.914821 0.448640 2.192683 0.027438 -0.036824 290811.000000 0 1 0
17.733682 9.230100 -12.897880 23.791459 0.479900 2.143757 0.081281 -0.039020 309749.000000 0 1 0
16.917282 10.354600 -12.568580 23.481511 0.549249 2.135605 0.104493 -0.035922 1002020.000000 0 1 0
17.641682 11.526900 -12.130080 24.315370 0.578755 2.093085 0.143457 -0.053772 -143109.000000 0 1 0
16.781582 12.749400 -11.755380 24.132087 0.649697 2.079593 0.153616 -0.043201 535305.000000 0 1 0
15.647582 12.525000 -10.877780 22.804573 0.675011 2.068034 0.154550 -0.026872 1311510.000000 0 1 0
15.146782 13.670700 -10.189780 22.806680 0.734221 2.033970 0.081581 -0.021463 22531.500000 0 1 0
14.531182 14.923300 -10.926780 23.521366 0.798710 2.053919 0.074167 -0.019427 -58082.300000 0 1 0
13.578482 15.517300 -10.067980 22.946154 0.851936 2.025021 0.114422 -0.022793 110363.000000 0 1 0
13.217582 16.822800 -10.420480 23.797005 0.904839 2.024047 0.108983 -0.021967 221529.000000 0 1 0
12.150282 17.342500 -9.413480 23.173374 0.959663 1.989110 0.105255 -0.020846 244566.000000 0 1 0
12.598582 17.234200 -8.065680 22.820979 0.939552 1.932034 0.083399 -0.019868 221584.000000 0 1 0
11.563482 17.544500 -7.170480 22.202238 0.988054 1.899654 0.071767 -0.017347 4131.810000 0 1 0
11.996882 17.227200 -5.725980 21.759789 0.962496 1.837077 0.063585 -0.016799 -118696.000000 0 1 0
13.067182 17.977300 -5.271380 22.841235 0.942263 1.803679 0.076901 -0.028311 181788.000000 0 1 0
13.745982 17.412600 -4.106580 22.561353 0.902535 1.753835 0.092851 -0.029518 554460.000000 0 1 0
14.870982 18.333600 -3.476380 23.861102 0.889304 1.717009 0.088897 -0.037445 -132355.000000 0 1 0
15.932782 18.455100 -4.368680 24.769530 0.858616 1.748097 0.093871 -0.047468 -567976.000000 0 1 0
16.570082 19.695900 -4.161480 26.073243 0.871377 1.731089 0.076450 -0.038108 -626676.000000 0 0 1
17.854182 19.710900 -5.000880 27.061045 0.834785 1.756665 0.056436 -0.032682 -522952.000000 0 0 1
18.900882 18.941100 -4.456380 27.126885 0.786461 1.735823 0.063528 -0.047945 37894.800000 0 0 1
19.189382 17.935100 -5.353580 26.805988 0.751625 1.771864 0.082928 -0.047592 -693301.000000 0 0 1
20.218182 16.912200 -4.896880 26.810013 0.696595 1.754479 0.098992 -0.050105 -959569.000000 0 0 1
21.508282 17.418600 -4.775780 28.085973 0.680722 1.741668 0.091327 -0.054640 -463482.000000 0 0 1
22.279582 16.457300 -4.037380 27.991479 0.636212 1.715537 0.101040 -0.054977 -37792.800000 0 0 1
23.779282 16.600900 -4.346980 29.324740 0.609466 1.719581 0.107536 -0.050967 116222.000000 0 0 1
24.502482 17.715600 -3.791680 30.472790 0.626004 1.695548 0.125248 -0.045029 1448300.000000 0 0 1
25.913682 17.659800 -4.076280 31.622832 0.598192 1.700059 0.099820 -0.038535 1188860.000000 0 0 1
26.849782 18.727400 -3.456180 32.917647 0.609038 1.675985 0.120125 -0.031947 126424.000000 0 0 1
26.664282 19.918300 -4.183980 33.544422 0.641580 1.695852 0.125426 -0.031828 212624.000000 0 0 1
26.716082 20.995700 -3.248580 34.133879 0.666073 1.666112 0.114325 -0.003679 -265855.000000 0 0 1
26.776582 22.403500 -3.953980 35.135966 0.696712 1.683569 0.077907 -0.002484 63307.500000 0 0 1
27.914982 22.734600 -4.739080 36.312079 0.683474 1.701679 0.075018 0.005469 293446.000000 0 0 1
28.091882 21.970400 -5.919580 36.150985 0.663725 1.735283 0.081294 -0.004358 554669.000000 0 0 1
29.248182 22.465600 -6.892080 37.518796 0.654986 1.755542 0.069471 -0.003234 638612.000000 0 0 1
28.941182 23.690800 -7.511080 38.147901 0.685971 1.768985 0.060049 -0.002125 547818.000000 0 0 1
30.073882 24.361800 -8.072280 39.536026 0.680848 1.776418 0.053018 -0.001527 124976.000000 0 0 1
30.841282 23.814200 -9.293380 40.058304 0.657529 1.804926 0.057365 -0.010790 -200583.000000 0 0 1
30.238182 23.857800 -10.551380 39.935872 0.667995 1.838179 0.049756 -0.003316 -290878.000000 0 0 1
31.142282 23.284900 -11.441480 40.533144 0.642024 1.856961 0.038699 -0.008653 22126.000000 0 0 1
30.452482 22.860800 -12.761780 40.160090 0.643952 1.894176 0.057896 -0.007233 100310.000000 0 0 1
30.640182 23.765200 -13.851380 41.176039 0.659699 1.913882 0.054697 -0.011484 31140.100000 0 0 1
30.406182 23.214400 -15.113380 41.132208 0.652070 1.947045 0.058898 -0.011682 -62484.000000 0 0 1
30.672882 24.159100 -16.325680 42.320392 0.667157 1.966832 0.055876 -0.004155 1442630.000000 0 0 1
32.079082 24.471900 -16.547680 43.609255 0.651682 1.960002 0.062191 -0.002429 1332830.000000 0 0 1
32.290982 24.925100 -17.883880 44.539884 0.657364 1.983978 0.076038 -0.012276 -233552.000000 0 0 1
33.729682 25.398700 -18.080480 45.931353 0.645423 1.975386 0.079359 -0.017080 -831777.000000 0 0 1
34.683682 24.426300 -18.011280 46.086963 0.613579 1.972309 0.089240 -0.008265 -1461770.000000 0 0 1
35.965282 24.919300 -18.224380 47.398323 0.605925 1.965456 0.085719 -0.017877 -511329.000000 0 0 1
37.044982 23.817000 -18.020380 47.584811 0.571383 1.959188 0.066261 -0.019780 -17236.800000 0 0 1
-36.993887 22.858400 -19.089380 47.491668 -0.553475 1.984444 0.053177 -0.008756 537023.000000 0 0 1
-36.059987 23.299400 -20.090380 47.400507 -0.573649 2.008481 0.079571 -0.005490 -55605.100000 0 0 1
-36.156087 22.557900 -21.453380 47.711309 -0.557810 2.037170 0.075417 -0.012435 8379.920000 0 0 1
-35.976687 21.149600 -21.346880 46.875547 -0.531452 2.043612 0.041526 -0.007714 273645.000000 0 0 1
-35.732387 20.512100 -22.615880 47.000295 -0.521118 2.072803 0.032426 -0.009795 768.437000 0 0 1
-35.543187 19.006400 -22.494780 46.158168 -0.491053 2.079839 0.021803 -0.005635 393645.000000 0 0 1
-36.663387 18.209000 -22.142480 46.540961 -0.460967 2.066628 0.026032 -0.007653 373292.000000 0 0 1
-36.201687 16.866700 -22.263780 45.724431 -0.436005 2.079347 0.017634 -0.006856 90309.400000 0 0 1
36.848382 15.765200 -22.140480 45.788051 0.404273 2.075494 0.008503 -0.005664 583580.000000 0 0 1
35.726182 15.814500 -23.045080 45.360051 0.416732 2.103713 0.061536 -0.008378 1331350.000000 0 0 1
34.683982 14.851300 -22.815980 44.092047 0.404569 2.114679 0.078606 -0.000455 416310.000000 0 0 1
34.889882 13.406700 -23.461180 44.130153 0.366862 2.131327 0.030954 -0.007747 -401421.000000 0 0 1
34.675582 13.510000 -24.854980 44.751381 0.371519 2.159642 0.036738 0.007086 135561.000000 0 0 1
34.923682 12.226900 -25.447280 44.907958 0.336767 2.173236 0.028604 0.004452 -190664.000000 0 0 1
34.768982 12.140100 -26.958670 45.640267 0.335930 2.202694 0.040551 0.007995 145565.000000 0 0 1
33.466982 12.231000 -27.524040 45.024538 0.350385 2.228514 0.020696 0.008164 162224.000000 0 0 1
33.134882 13.550600 -27.817360 45.335909 0.388200 2.231387 0.030619 0.006783 -242216.000000 0 0 1
33.329582 13.991800 -29.292550 46.526175 0.397459 2.251825 0.044803 -0.001153 694007.000000 0 0 1
34.705182 14.201200 -29.639050 47.797458 0.388408 2.239662 0.048800 0.001236 781975.000000 0 0 1
35.152182 14.111900 -31.009300 48.953021 0.381757 2.256800 0.052165 -0.002059 234641.000000 0 0 1
36.669582 14.276900 -31.307840 50.285872 0.371282 2.242854 0.092675 -0.009290 1083250.000000 0 0 1
-36.470587 13.302000 -30.888400 49.609880 -0.349739 2.242890 0.087792 -0.003828 548052.000000 0 0 1
-36.330687 13.131500 -29.475980 48.592062 -0.346833 2.222574 0.073060 -0.008204 -1130400.000000 0 0 1
-35.142387 12.327900 -29.002500 47.202855 -0.337386 2.232450 0.074995 -0.010639 -506351.000000 0 0 1
-35.242487 11.087000 -29.573220 47.323671 -0.304789 2.245818 0.073415 -0.016491 -533709.000000 0 0 1
-34.212287 10.247000 -29.255290 46.166585 -0.291009 2.257110 0.071779 -0.021927 -806336.000000 0 0 1
-34.414587 8.798900 -29.725710 46.318487 -0.250311 2.267597 0.077369 -0.017156 -374042.000000 0 0 1
-34.599087 8.562400 -31.123230 47.318780 -0.242601 2.288605 0.075042 -0.016376 144022.000000 0 0 1
-34.923787 7.286600 -31.558860 47.631157 -0.205692 2.295038 0.071967 -0.022907 269887.000000 0 0 1
-36.285987 6.631100 -31.165080 48.289818 -0.180751 2.272311 0.080178 -0.011794 283678.000000 0 0 1
-36.219887 6.220600 -29.830750 47.333389 -0.170086 2.252641 0.073396 -0.018347 283659.000000 0 0 1
36.649982 5.639400 -29.487940 47.376815 0.152674 2.242618 0.065441 -0.008918 -180723.000000 0 0 1
36.689982 4.762900 -28.229030 46.537277 0.129093 2.222560 0.062858 -0.008139 -411279.000000 0 0 1
-36.714287 3.585800 -28.346570 46.522305 -0.097359 2.225988 0.067345 -0.001543 310059.000000 0 0 1
36.914882 2.662800 -27.325110 46.005007 0.072009 2.206768 0.071430 -0.001376 190037.000000 0 0 1
-36.380887 1.329100 -27.341890 45.529270 -0.036517 2.214966 0.112454 -0.008944 876507.000000 0 0 1
-35.182187 1.385100 -26.537630 44.090255 -0.039349 2.216666 0.114535 -0.010826 541822.000000 0 0 1
-34.550087 0.156200 -26.387750 43.474662 -0.004521 2.223037 0.129311 -0.016148 -1092380.000000 0 0 1
-33.336987 0.286600 -25.531480 41.991586 -0.008597 2.224353 0.129333 -0.013706 -1128140.000000 0 0 1
-33.656587 0.396900 -24.172680 41.439617 -0.011792 2.193610 0.117997 -0.014795 805595.000000 0 0 1
-32.462587 0.427600 -23.376280 40.005660 -0.013171 2.194844 0.144132 -0.012397 536285.000000 0 0 1
-32.715687 0.300000 -21.895280 39.367619 -0.009170 2.160572 0.131581 -0.002872 -644727.000000 0 0 1
-32.733287 -0.983200 -21.348280 39.091992 0.030028 2.148502 0.147868 -0.016465 424455.000000 0 0 1
-33.352287 -0.989300 -20.055580 38.930451 0.029653 2.111996 0.124938 -0.020896 311564.000000 0 0 1
-34.881987 -0.787500 -19.969980 40.201658 0.022572 2.090641 0.106427 -0.016653 -25861.600000 0 0 1
-35.715087 -1.845800 -20.500980 41.222137 0.051635 2.091314 0.093727 -0.018736 255536.000000 0 0 1
37.046882 -1.580600 -20.185980 42.218995 -0.042639 2.069316 0.070417 -0.016093 323536.000000 0 0 1
36.310882 -2.925800 -19.749080 41.437502 -0.080403 2.067579 0.058204 -0.021429 -31174.400000 0 0 1
35.918982 -3.797400 -20.800080 41.680173 -0.105330 2.093287 0.055587 -0.016482 254008.000000 0 0 1
36.984682 -4.514100 -21.418680 42.976780 -0.121453 2.092523 0.049608 -0.019269 -126815.000000 0 0 1
36.612682 -5.531200 -22.546580 43.352404 -0.149940 2.117737 0.046851 -0.019216 -669631.000000 0 0 1
36.179182 -6.758400 -22.000280 42.879150 -0.184675 2.109561 0.049278 -0.015447 196075.000000 0 0 1
35.650882 -7.645100 -22.948180 43.081921 -0.211244 2.132541 0.046284 -0.011680 227357.000000 0 0 1
34.291982 -7.378300 -23.653080 42.306590 -0.211930 2.164081 0.030439 -0.008534 -250651.000000 0 0 1
34.228982 -6.285500 -24.561080 42.595509 -0.181608 2.185372 0.040997 -0.014613 -583273.000000 0 0 1
32.925982 -5.824700 -24.752880 41.602313 -0.175091 2.208047 0.047623 -0.006338 -461251.000000 0 0 1
32.849782 -4.745600 -25.869280 42.081451 -0.143471 2.232856 0.073426 -0.030581 -67743.500000 0 0 1
32.733582 -5.230900 -27.205970 42.883732 -0.158462 2.258044 0.057061 -0.033236 105177.000000 0 0 1
32.125982 -4.245900 -28.001840 42.827671 -0.131403 2.283426 0.064730 -0.037408 -106924.000000 0 0 1
31.878082 -4.720800 -29.454520 43.658525 -0.147021 2.311296 0.063926 -0.033633 -79718.100000 0 0 1
31.356082 -3.627900 -30.161440 43.658653 -0.115188 2.333456 0.066197 -0.044798 -137332.000000 0 0 1
31.082482 -3.875800 -31.538260 44.450021 -0.124054 2.359616 0.087101 -0.051079 -528132.000000 0 0 1
30.603682 -2.614000 -32.263690 44.546201 -0.085208 2.380778 0.086229 -0.041814 244653.000000 0 0 1
29.507782 -1.871400 -31.691320 43.342255 -0.063336 2.390858 0.080706 -0.033919 2109950.000000 0 0 1
28.134082 -2.364100 -31.732420 42.474251 -0.083833 2.414482 0.089040 -0.031873 1573980.000000 0 0 1
27.503282 -2.621900 -33.110910 43.123512 -0.095043 2.446221 0.097851 -0.039079 -421816.000000 0 0 1
28.140582 -3.645700 -33.934210 44.234761 -0.128836 2.445166 0.112183 -0.050042 49573.200000 0 0 1
27.520682 -3.705700 32.750839 42.938766 -0.133846 0.703267 0.087210 -0.040725 -786763.000000 0 0 1
28.090582 -4.813500 31.780427 42.687775 -0.169708 0.731033 0.072275 -0.052536 -590742.000000 0 0 1
29.346682 -4.618400 31.236977 43.108075 -0.156094 0.760313 0.087017 -0.046543 -745510.000000 0 0 1
29.559782 -3.525800 30.450157 42.584317 -0.118716 0.774093 0.116041 -0.045977 -719499.000000 0 0 1
30.107582 -2.226200 31.103257 43.345531 -0.073807 0.770496 0.095245 -0.041382 254527.000000 0 0 1
31.457282 -2.445100 31.542347 44.614558 -0.077572 0.785554 0.083598 -0.033504 605583.000000 0 0 1
32.029182 -1.280600 32.148862 45.398874 -0.039961 0.783933 0.072658 -0.024463 968306.000000 0 0 1
33.548282 -1.507800 32.509815 46.740226 -0.044914 0.801622 0.059303 -0.023315 1058990.000000 0 0 1
34.340682 -1.736900 31.337267 46.522291 -0.050535 0.831732 0.070443 -0.021575 907600.000000 0 0 1
35.725482 -1.800700 31.734117 47.818477 -0.050361 0.845126 0.059298 -0.013544 641988.000000 0 0 1
36.736582 -2.359700 30.760637 47.972507 -0.064145 0.874717 0.058396 -0.009990 -205315.000000 0 0 1
36.986682 -1.509900 29.656467 47.432062 -0.040800 0.895356 0.064011 -0.004704 675509.000000 0 0 1
-36.036887 -2.000400 28.842807 46.201367 0.055453 0.896581 0.067116 -0.005044 737952.000000 0 0 1
-36.025787 -1.385400 27.411647 45.289900 0.038437 0.920718 0.082948 -0.004803 -92968.200000 0 0 1
37.025982 -1.851500 26.638077 45.650176 -0.049964 0.947732 0.103083 -0.023097 -310401.000000 0 0 1
-36.868287 -1.414600 25.342797 44.760798 0.038350 0.968929 0.118459 -0.022801 141117.000000 0 0 1
-26.958988 15.139100 12.722220 33.434029 -0.511675 1.180441 0.111816 -0.007791 717702.000000 0 0 1
-28.234738 14.482200 12.834020 34.229324 -0.473931 1.186462 0.113510 -0.003422 906072.000000 0 0 1
-29.198178 15.250500 13.530620 35.611642 -0.481336 1.181055 0.110492 -0.006895 336861.000000 0 0 1
-30.590328 14.563400 13.523020 36.479211 -0.444328 1.191029 0.106634 -0.012211 521186.000000 0 0 1
-31.642038 15.327800 14.088320 37.876652 -0.451100 1.189685 0.094929 -0.013864 35368.300000 0 0 1
-32.808058 14.595300 14.385820 38.682597 -0.418579 1.189748 0.104037 -0.029548 268687.000000 0 0 1
-33.736098 15.191600 15.447620 40.094114 -0.423109 1.175281 0.093660 -0.020026 -159037.000000 0 0 1
-33.115098 15.331600 16.690620 40.127852 -0.433595 1.141824 0.070270 -0.009672 383104.000000 0 0 1
-34.011258 15.696000 17.758920 41.454907 -0.432371 1.128085 0.063407 -0.014098 226308.000000 0 0 1
-33.230588 15.849800 19.050320 41.453623 -0.445050 1.093300 0.066122 0.000195 -88059.800000 0 0 1
-32.574298 14.746500 19.673320 40.811563 -0.425100 1.067800 0.061797 -0.010994 238619.000000 0 0 1
-31.389758 15.164400 20.331520 40.356494 -0.450037 1.042806 0.073416 -0.005619 -142583.000000 0 0 1
-31.486628 15.685400 21.790420 41.379487 -0.462175 1.016201 0.080702 -0.019786 -289561.000000 0 0 1
-32.181178 16.938400 21.803320 42.401915 -0.484501 1.030715 0.052929 -0.018975 322772.000000 0 0 1
-32.392948 17.599400 23.059620 43.483193 -0.497692 1.011829 0.051919 -0.034331 -775875.000000 0 0 1
-33.258528 16.907200 24.169520 44.453895 -0.470311 0.995959 0.047121 -0.023847 1376020.000000 0 0 1
-34.625603 16.531000 23.862920 45.184569 -0.445422 1.014410 0.111387 -0.016440 1210690.000000 0 0 1
-35.486941 17.606200 23.637020 46.130359 -0.460548 1.032824 0.125024 -0.027805 -950862.000000 0 0 1
-36.957468 17.234500 23.368120 46.999484 -0.436353 1.050428 0.078855 -0.030087 218170.000000 0 0 1
36.511570 16.627700 24.479720 46.998211 0.427343 1.022932 0.104150 -0.023671 228316.000000 0 0 1
35.524790 15.642200 24.188120 45.735700 0.414773 1.013531 0.132402 -0.026289 574946.000000 0 0 1
34.978980 14.781300 25.387520 45.678682 0.399816 0.981490 0.140601 -0.011262 -623993.000000 0 0 1
33.992780 15.447600 26.090920 45.550780 0.426538 0.960894 0.105844 -0.011351 -543704.000000 0 0 1
33.666240 14.943600 27.372420 45.890917 0.417749 0.931704 0.106199 -0.008899 626195.000000 0 0 1
32.574950 13.817100 27.310820 44.698104 0.401162 0.913465 0.112329 -0.008269 195600.000000 0 0 1
33.185620 12.543200 27.068520 44.624231 0.361373 0.919035 0.110619 -0.012254 -582502.000000 0 0 1
32.393610 11.457000 27.311320 43.892106 0.339950 0.899198 0.094424 -0.005668 -355112.000000 0 0 1
33.003300 10.085000 26.829120 43.711860 0.296564 0.909967 0.108618 -0.017457 16574.400000 0 0 1
34.047120 9.596600 27.619020 44.878852 0.274735 0.907887 0.101505 -0.012192 -246772.000000 0 0 1
34.577830 8.362600 27.213820 44.790081 0.237292 0.917779 0.114770 -0.010653 308745.000000 0 0 1
35.665780 7.800300 28.219320 46.143500 0.215315 0.912771 0.091507 -0.009408 384316.000000 0 0 1
36.822570 8.597700 28.155820 47.144165 0.229380 0.930756 0.084084 -0.013008 -663297.000000 0 0 1
-36.181148 7.844500 28.578620 46.769105 -0.213507 0.913400 0.089288 -0.014519 -486173.000000 0 0 1
-34.928509 8.693400 28.790820 46.092161 -0.243935 0.896131 0.083572 -0.015285 -255158.000000 0 0 1
-34.234038 9.075900 27.641420 44.926489 -0.259152 0.908082 0.078919 -0.012662 847754.000000 0 0 1
-33.017598 9.813500 27.908820 44.332480 -0.288905 0.889843 0.078416 -0.008543 903933.000000 0 0 1
-32.242058 10.343400 26.700820 43.121573 -0.310433 0.903075 0.066130 -0.006803 -313575.000000 0 0 1
-31.547838 9.361800 25.983120 41.928891 -0.288472 0.902442 0.074371 -0.013499 350425.000000 0 0 1
-30.939058 9.866000 24.780920 40.849202 -0.308691 0.918964 0.078167 -0.013211 27762.100000 0 0 1
-30.224108 8.726200 23.990120 39.562218 -0.281073 0.919284 0.086063 -0.021774 72454.900000 0 0 1
-29.464028 9.169800 22.894220 38.423424 -0.301718 0.932485 0.093032 -0.022210 36427.200000 0 0 1
-28.653358 8.193300 22.280820 37.209945 -0.278513 0.928811 0.104143 -0.023913 255971.000000 0 0 1
-27.542148 8.832200 21.387520 35.972263 -0.310319 0.934083 0.092615 -0.023576 -419384.000000 0 0 1
-26.426998 9.254300 22.184920 35.723927 -0.336838 0.900766 0.100019 -0.019761 63989.000000 0 0 1
-25.395768 9.820700 21.454120 34.665119 -0.368994 0.903459 0.100632 -0.015917 185979.000000 0 0 1
-24.595818 8.997500 20.380920 33.185707 -0.350693 0.909491 0.085676 -0.027614 -343470.000000 0 0 1
-25.402168 8.775200 19.215120 33.037783 -0.332616 0.950089 0.091456 -0.030828 661919.000000 0 0 1
-24.702118 8.013400 18.223620 31.725535 -0.313690 0.958907 0.089407 -0.033008 -166196.000000 0 0 1
-24.408618 6.505000 18.475420 31.295955 -0.260451 0.939310 0.088400 -0.028979 -286780.000000 0 0 1
-23.249118 6.228400 19.247720 30.818650 -0.261752 0.896244 0.059663 -0.021543 445357.000000 0 0 1
-23.184118 4.915400 19.839220 30.907267 -0.208922 0.873829 0.061503 -0.021371 -142908.000000 0 0 1
-23.080218 3.665000 18.950620 30.087451 -0.157479 0.889435 0.068066 -0.030356 170082.000000 0 0 1
-24.374718 3.362200 18.408220 30.729364 -0.137073 0.928491 0.088145 -0.037342 851614.000000 0 0 1
-24.381518 2.679300 17.133820 29.919974 -0.109451 0.961056 0.078865 -0.030704 -235870.000000 0 0 1
-24.264318 1.179000 17.212520 29.772773 -0.048552 0.954362 0.080843 -0.029096 -590475.000000 0 0 1
-23.019418 0.684900 17.653820 29.017582 -0.029744 0.916774 0.050909 -0.017146 310303.000000 0 0 1
-23.262118 -0.594500 18.275020 29.588104 0.025551 0.905048 0.080084 -0.025098 -1251410.000000 0 0 1
-22.040418 -1.395100 18.527620 28.827054 0.063213 0.872758 0.079368 -0.015067 -1123190.000000 0 0 1
-21.108718 -0.790700 19.428920 28.699932 0.037441 0.827162 0.054187 -0.014457 -118681.000000 0 0 1
-20.112318 -1.754500 19.667520 28.185013 0.087015 0.798474 0.049506 -0.010322 -386009.000000 0 0 1
-19.090318 -1.209800 20.737220 28.212340 0.063288 0.745070 0.054176 -0.013785 371458.000000 0 0 1
-19.562318 -1.008300 22.046320 29.491375 0.051497 0.726428 0.051123 -0.020822 42455.500000 0 0 1
-18.425618 -0.911500 22.891520 29.399931 0.049429 0.678325 0.046297 -0.018067 25124.000000 0 0 1
-18.791118 -1.026600 24.409620 30.821901 0.054578 0.656789 0.059852 -0.021800 128765.000000 0 0 1
-19.589118 0.033300 24.872420 31.660258 -0.001700 0.667125 0.052873 -0.025527 -878473.000000 0 0 1
-20.950418 -0.229300 24.730320 32.412364 0.010944 0.702870 0.095377 -0.024793 -1111250.000000 0 0 1
-21.772718 0.850400 25.438420 33.494591 -0.039038 0.708285 0.082175 -0.027476 -403321.000000 0 0 1
-21.520918 2.157800 24.943820 33.015151 -0.099931 0.714339 0.068137 -0.025341 218790.000000 0 0 1
-22.673118 2.820800 24.465320 33.475052 -0.123776 0.751226 0.075771 -0.021870 -153243.000000 0 0 1
-22.136118 3.994800 23.617020 32.614871 -0.178544 0.761041 0.074413 -0.017991 428080.000000 0 0 1
-21.599918 3.722400 22.319820 31.282377 -0.170658 0.776323 0.080251 -0.024538 37545.000000 0 0 1
-20.389818 3.020400 22.248420 30.329189 -0.147063 0.747244 0.047848 -0.015686 -689998.000000 0 0 1
-20.073418 2.450100 20.843820 29.041521 -0.121456 0.770267 0.043602 -0.017000 -122635.000000 0 0 1
-19.467818 3.249300 19.824920 27.974655 -0.165382 0.783179 0.035086 -0.009805 431662.000000 0 0 1
-19.277918 2.355500 18.747220 26.993421 -0.121584 0.803057 0.049205 -0.018411 -27118.000000 0 0 1
-18.853118 3.128700 17.462920 25.887881 -0.164453 0.830428 0.047573 -0.015726 -1221790.000000 0 0 1
-17.532318 3.492800 17.413820 24.956421 -0.196646 0.798518 0.064236 -0.022635 -859108.000000 0 1 0
-17.188118 4.345700 16.283520 24.072173 -0.247642 0.827870 0.071744 -0.019876 778104.000000 0 1 0
-15.744218 4.968700 16.300920 23.201042 -0.305696 0.791760 0.084781 -0.013531 608145.000000 0 1 0
-15.662518 6.036900 17.243620 24.064519 -0.367889 0.771941 0.093444 -0.018950 437877.000000 0 1 0
-16.435118 7.220900 16.935220 24.679063 -0.413969 0.814519 0.098222 -0.031132 69809.800000 0 1 0
-16.031018 8.045700 15.668820 23.816774 -0.465153 0.852783 0.079846 -0.029478 -57280.100000 0 1 0
-16.255218 7.388500 14.413120 22.946897 -0.426615 0.891678 0.107850 -0.028560 52838.800000 0 1 0
-17.581018 7.527000 13.979820 23.689308 -0.404521 0.939574 0.069741 -0.035380 -263900.000000 0 1 0
-17.861918 6.562300 12.808220 22.938230 -0.352083 0.978366 0.075096 -0.034995 -71806.000000 0 1 0
-17.548718 5.297400 13.235020 22.609416 -0.293170 0.945452 0.070090 -0.027173 609570.000000 0 1 0
-18.198918 4.303500 12.406220 22.441814 -0.232205 0.985055 0.075684 -0.029161 305493.000000 0 1 0
-17.807818 2.814000 12.678520 22.040459 -0.156725 0.957901 0.069856 -0.009047 -476735.000000 0 1 0
-18.287118 2.343900 13.882620 23.078988 -0.127477 0.925386 0.055866 -0.016233 102437.000000 0 1 0
-18.056018 0.955300 14.070020 22.910649 -0.052858 0.909519 0.058620 -0.007912 -390988.000000 0 1 0
-19.114118 0.228500 14.934820 24.258000 -0.011954 0.907566 0.079498 -0.017560 -462057.000000 0 1 0
-20.298018 0.197300 14.187320 24.765470 -0.009720 0.960797 0.083814 -0.016809 -815783.000000 0 1 0
-21.403318 0.007500 15.027020 26.151738 -0.000350 0.958670 0.082482 -0.024042 -501514.000000 0 0 1
-22.656618 -0.108000 14.113920 26.693384 0.004767 1.013678 0.097367 -0.022707 -302662.000000 0 0 1
-22.680018 -1.329500 13.440320 26.396837 0.058553 1.036583 0.122561 -0.034509 450052.000000 0 0 1
-23.896718 -1.562800 12.763520 27.136745 0.065305 1.081119 0.137649 -0.029402 -54284.600000 0 0 1
-23.866618 -2.844500 11.921720 26.829723 0.118624 1.110351 0.142569 -0.040898 -132010.000000 0 0 1
-23.740918 -4.031200 12.718820 27.233255 0.168195 1.084864 0.130548 -0.036024 426427.000000 0 0 1
-23.980118 -5.216700 12.017620 27.325505 0.214205 1.115426 0.157560 -0.044081 -211106.000000 0 0 1
-24.000818 -6.498300 12.861220 27.994252 0.264414 1.093450 0.148183 -0.035114 854862.000000 0 0 1
-25.150248 -6.667900 13.735020 29.421874 0.259160 1.085093 0.132943 -0.027032 1019700.000000 0 0 1
-25.457448 -7.992400 14.125220 30.190760 0.304207 1.083922 0.152706 -0.044219 262548.000000 0 0 1
-26.571258 -8.012500 15.220220 31.652599 0.292876 1.069170 0.151496 -0.035224 592883.000000 0 0 1
-27.837168 -7.528700 14.751920 32.391487 0.264136 1.097946 0.126595 -0.035235 498960.000000 0 0 1
-28.720998 -7.955300 15.782520 33.723441 0.270211 1.083772 0.115609 -0.026205 -677924.000000 0 0 1
-30.148178 -7.391000 15.853020 34.854810 0.240414 1.098615 0.099013 -0.023545 -223805.000000 0 0 1
-31.056418 -7.746700 14.839620 35.280686 0.244451 1.136672 0.089840 -0.016517 494577.000000 0 0 1
-31.517108 -9.092200 14.580820 35.897027 0.280859 1.152522 0.093526 -0.021652 -361299.000000 0 0 1
-31.901578 -10.007700 15.828420 36.991940 0.303983 1.128641 0.081270 -0.020207 -565906.000000 0 0 1
-30.784388 -10.306100 16.655720 36.487084 0.323055 1.096758 0.087542 -0.016526 286308.000000 0 0 1
-31.002248 -11.253200 17.671320 37.417235 0.348191 1.078923 0.083129 -0.018496 546243.000000 0 0 1
-29.751908 -11.321500 18.609820 36.873809 0.363610 1.041774 0.091812 -0.006089 162852.000000 0 0 1
-28.585738 -11.951800 18.230320 35.949054 0.396015 1.038962 0.094604 -0.014827 -890264.000000 0 0 1
-27.579968 -11.792200 19.196120 35.611819 0.404040 1.001502 0.096054 -0.020431 762303.000000 0 0 1
-26.283868 -12.590000 18.745920 34.651975 0.446708 0.999198 0.118124 -0.020601 478822.000000 0 0 1
-25.766938 -12.251500 17.508320 33.475000 0.443835 1.020398 0.106707 -0.016456 -424693.000000 0 0 1
-24.724218 -13.078500 17.119420 32.793424 0.486558 1.021557 0.097617 -0.023384 -654618.000000 0 0 1
-24.289118 -12.879900 15.674820 31.647323 0.487573 1.052620 0.091182 -0.022407 -399419.000000 0 0 1
-23.525118 -11.745200 15.330220 30.436763 0.463057 1.042949 0.092783 -0.027019 -235108.000000 0 0 1
-23.023118 -11.876400 14.051020 29.471071 0.476244 1.073816 0.090581 -0.024862 217613.000000 0 0 1
-21.779318 -10.944300 13.866220 28.042619 0.465653 1.053572 0.083677 -0.028970 211728.000000 0 0 1
-21.996918 -9.483900 13.980120 27.735402 0.407065 1.042511 0.096938 -0.036631 36839.100000 0 0 1
-20.812818 -8.787000 13.691720 26.416812 0.399490 1.025939 0.103725 -0.036858 249554.000000 0 0 1
-20.150218 -8.727500 12.235720 25.137888 0.408730 1.062438 0.136842 -0.033841 55537.900000 0 0 1
-19.580618 -9.884200 11.667220 24.843954 0.467476 1.081936 0.130805 -0.039518 422255.000000 0 1 0
-19.350018 -9.756700 10.284820 23.987370 0.467019 1.127677 0.151023 -0.032173 -772576.000000 0 1 0
-18.766718 -11.008600 9.661120 23.805802 0.530510 1.152909 0.137640 -0.027657 1187870.000000 0 1 0
-17.343718 -11.274200 9.742120 22.865280 0.576407 1.130656 0.148358 -0.035877 1628460.000000 0 1 0
-16.728618 -11.415200 11.042320 23.066996 0.598799 1.071616 0.138987 -0.031937 245065.000000 0 1 0
-15.212518 -11.775200 10.993020 22.156772 0.658714 1.051641 0.147913 -0.036526 480688.000000 0 1 0
-14.979518 -13.158900 10.808120 22.679464 0.720786 1.074059 0.131809 -0.037009 654498.000000 0 1 0
-13.589218 -13.386400 10.592220 21.818746 0.777880 1.063902 0.154656 -0.047478 231971.000000 0 1 0
-13.131118 -14.792000 10.701520 22.488932 0.844809 1.074858 0.154240 -0.043270 -300981.000000 0 1 0
-13.208818 -15.574900 9.495420 22.521399 0.867416 1.135568 0.110485 -0.041767 151132.000000 0 1 0
-12.917418 -16.926900 9.822720 23.449210 0.918945 1.138570 0.091266 -0.032777 104017.000000 0 1 0
-13.132518 -17.948500 8.727420 23.890993 0.939125 1.196839 0.072291 -0.018745 -102300.000000 0 1 0
-12.279718 -17.751700 7.622120 22.891288 0.965630 1.231344 0.078552 -0.016956 17186.900000 0 1 0
-12.717318 -18.474000 6.463220 23.340781 0.967905 1.290223 0.056062 -0.017295 134219.000000 0 1 0
-11.793118 -18.175300 5.252620 22.293703 0.995227 1.332950 0.052378 -0.017394 214079.000000 0 1 0
-12.176918 -18.815500 4.033920 22.772196 0.996410 1.392714 0.068118 -0.020851 744045.000000 0 1 0
-11.051818 -18.743100 3.142020 21.984512 1.038024 1.427386 0.066918 -0.024830 734916.000000 0 1 0
-11.265418 -19.517100 1.844820 22.610400 1.047305 1.489114 0.072580 -0.025015 70917.900000 0 1 0
-11.240518 -20.896700 2.150320 23.825306 1.077284 1.480420 0.075578 -0.031311 -337096.000000 0 1 0
-11.849118 -21.752400 1.207620 24.799735 1.072011 1.522082 0.083480 -0.029893 -215609.000000 0 1 0
-11.058318 -22.046200 -0.103280 24.664388 1.105872 1.574984 0.097230 -0.026372 4244.280000 0 1 0
-10.884118 -20.983900 -0.996380 23.659689 1.092310 1.612922 0.085977 -0.036408 583834.000000 0 1 0
-11.833018 -21.043800 -2.118880 24.235336 1.058556 1.658337 0.097396 -0.030798 1086450.000000 0 1 0
-13.128618 -20.235200 -1.840880 24.191172 0.995264 1.646967 0.104458 -0.024543 356306.000000 0 1 0
-13.945518 -20.561200 -0.697780 24.854121 0.974821 1.598875 0.106786 -0.018629 -428964.000000 0 1 0
-14.985118 -19.657700 -0.668380 24.727023 0.919468 1.597830 0.111929 -0.004554 -676753.000000 0 1 0
27.353482 -20.558400 -3.693580 34.416614 -0.644513 1.678323 0.077531 -0.027062 -439422.000000 0 0 1
26.021882 -20.543800 -3.262080 33.314069 -0.668294 1.668872 0.089696 -0.034571 -273297.000000 0 0 1
25.812082 -21.573300 -2.320480 33.720253 -0.696182 1.639666 0.058744 -0.025979 75136.200000 0 0 1
24.385982 -21.565500 -1.708580 32.598560 -0.724096 1.623233 0.049750 -0.030870 -48600.700000 0 0 1
23.348682 -21.808400 -2.631180 32.057610 -0.751302 1.652965 0.059270 -0.036014 -427685.000000 0 0 1
22.251182 -22.157400 -1.808380 31.453707 -0.783286 1.628321 0.062970 -0.033959 -380686.000000 0 0 1
21.174682 -22.954300 -2.544680 31.332769 -0.825704 1.652101 0.082877 -0.043670 -126330.000000 0 0 1
20.574682 -22.217800 -3.588180 30.493003 -0.823777 1.688742 0.090850 -0.047764 -318830.000000 0 0 1
19.564682 -22.949300 -4.263980 30.456997 -0.864842 1.711258 0.093464 -0.044259 -333800.000000 0 0 1
18.728082 -22.053500 -5.141380 29.385910 -0.866760 1.746662 0.086218 -0.028885 105944.000000 0 0 1
17.611382 -21.373200 -4.532580 28.062764 -0.881595 1.733023 0.082940 -0.024698 693545.000000 0 0 1
17.965682 -20.412500 -3.558080 27.424365 -0.849067 1.700905 0.073773 -0.031153 -897227.000000 0 0 1
16.802382 -19.834400 -2.760380 26.140833 -0.867969 1.676590 0.082787 -0.020762 -278588.000000 0 0 1
16.271982 -20.841600 -1.899880 26.509606 -0.907907 1.642525 0.077406 -0.023240 449473.000000 0 0 1
15.141782 -20.323000 -1.199480 25.371966 -0.930467 1.618090 0.071533 -0.009139 -56970.800000 0 0 1
14.705382 -21.042500 0.128720 25.672001 -0.960848 1.565782 0.077949 -0.016738 230818.000000 0 0 1
13.896682 -22.227600 0.131120 26.214522 -1.012054 1.565795 0.074072 -0.023325 155159.000000 0 0 1
13.420482 -22.456500 1.443020 26.200878 -1.032128 1.515693 0.072172 -0.020807 -212285.000000 0 0 1
12.355782 -23.536500 1.607220 26.631097 -1.087379 1.510408 0.070889 -0.027671 302887.000000 0 0 1
12.979382 -24.813500 1.879020 28.066080 -1.088858 1.503796 0.075949 -0.025009 624274.000000 0 0 1
12.013282 -25.803870 1.684820 28.513107 -1.135077 1.511673 0.074072 -0.019611 179506.000000 0 0 1
12.560182 -27.087140 2.308220 29.946606 -1.136612 1.493642 0.078115 -0.020627 123102.000000 0 0 1
12.038782 -27.200000 3.605520 29.962844 -1.154111 1.450171 0.094911 -0.025341 60714.300000 0 0 1
12.559182 -28.286220 4.299720 31.246294 -1.152940 1.432751 0.089494 -0.022231 -40014.600000 0 0 1
12.100682 -28.408750 5.761920 31.411515 -1.168122 1.386318 0.097991 -0.027607 -49631.700000 0 0 1
12.721682 -29.572310 6.274920 32.798435 -1.164539 1.378292 0.088271 -0.025485 -121652.000000 0 0 1
12.387282 -29.866970 7.598620 33.214751 -1.177641 1.339980 0.090372 -0.018093 -286744.000000 0 0 1
13.187682 -31.034260 8.099720 34.679183 -1.168977 1.335058 0.091257 -0.016423 -358843.000000 0 0 1
13.035582 -31.410930 9.447120 35.296189 -1.177425 1.299840 0.091208 -0.017315 -132319.000000 0 0 1
12.045582 -32.424110 9.589320 35.893927 -1.215097 1.300355 0.076124 -0.017472 358591.000000 0 0 1
11.687282 -32.746080 11.080020 36.491988 -1.227982 1.262297 0.076694 -0.012962 -271803.000000 0 0 1
12.717182 -33.442710 11.728220 37.652260 -1.207415 1.254038 0.084947 -0.015576 -171725.000000 0 0 1
12.548382 -33.716600 13.106620 38.289091 -1.214507 1.221425 0.085487 -0.011009 -633759.000000 0 0 1
11.382482 33.489834 13.528820 37.870290 1.243167 1.205484 0.083327 -0.006454 -570207.000000 0 0 1
11.480982 32.246907 12.841520 36.559275 1.228757 1.211888 0.090136 -0.004628 -398935.000000 0 0 1
10.427182 31.363774 13.010920 35.520367 1.249833 1.195773 0.080877 -0.000374 -577010.000000 0 0 1
10.519982 30.281204 11.959420 34.214749 1.236431 1.213716 0.086568 -0.001095 -369037.000000 0 0 1
10.091582 30.600024 10.676220 33.943824 1.252238 1.250839 0.088109 -0.008191 356346.000000 0 0 1
10.916582 31.546354 9.939420 34.830106 1.237646 1.281405 0.056796 -0.011230 224218.000000 0 0 1
10.461282 31.771404 8.525420 34.518739 1.252710 1.321234 0.051042 -0.011623 -38937.500000 0 0 1
9.486082 32.788701 8.462520 35.166730 1.289176 1.327771 0.067157 -0.011672 -34400.500000 0 0 1
8.915282 32.928984 7.160120 34.857819 1.306392 1.363914 0.061866 -0.015841 52374.800000 0 0 1
9.405382 -33.968180 6.289920 35.803094 -1.300676 1.394199 0.063116 -0.007554 166726.000000 0 0 1
8.858482 -32.738210 6.845520 34.599483 -1.306539 1.371632 0.066937 -0.004724 364028.000000 0 0 1
9.294482 -31.612980 6.123820 33.515207 -1.284845 1.387046 0.080423 -0.021456 -15186.300000 0 0 1
8.490782 -30.377480 6.573920 32.219576 -1.298243 1.365319 0.074940 -0.018626 82960.100000 0 0 1
8.636882 -30.036490 7.911020 32.239273 -1.290804 1.322880 0.094593 -0.017115 -65850.700000 0 0 1
7.814282 -28.952440 8.262720 31.105937 -1.307177 1.301937 0.100028 -0.017681 -62954.000000 0 0 1
8.320282 -27.555440 7.789420 29.819531 -1.277554 1.306512 0.105210 -0.023392 -70425.600000 0 0 1
9.327982 -27.060730 8.656420 29.903645 -1.238846 1.277116 0.102743 -0.025134 637814.000000 0 0 1
10.229482 -26.026030 8.188720 29.138491 -1.196297 1.285932 0.110879 -0.031744 789364.000000 0 0 1
9.584582 -24.885200 7.339820 27.658820 -1.203155 1.302209 0.088915 -0.031000 -258818.000000 0 0 1
9.388482 -25.204470 5.994920 27.556269 -1.214226 1.351491 0.087025 -0.032396 -559469.000000 0 0 1
8.556482 -24.293900 5.352220 26.306904 -1.232157 1.365913 0.082258 -0.032149 77144.400000 0 0 1
8.123682 -24.754500 3.944720 26.350338 -1.253700 1.420529 0.080004 -0.030937 548636.000000 0 0 1
7.187482 -25.827200 3.776220 27.073308 -1.299373 1.430859 0.050092 -0.026409 60411.500000 0 0 1
7.728482 -27.093870 4.119220 28.474115 -1.292927 1.425622 0.060170 -0.022557 302325.000000 0 0 1
6.806782 -28.308420 3.741420 29.354678 -1.334825 1.442993 0.059904 -0.022595 72741.600000 0 0 1
5.706082 -28.455340 4.614620 29.386399 -1.372893 1.413111 0.047002 -0.016061 -133677.000000 0 0 1
4.800182 -29.458970 4.129120 30.131749 -1.409271 1.433328 0.048366 -0.012124 263110.000000 0 0 1
5.174882 -30.960760 4.211620 31.671530 -1.405184 1.437423 0.049438 -0.005379 780977.000000 0 0 1
6.346382 -31.430610 3.477120 32.252910 -1.371558 1.462778 0.048425 -0.007817 1049390.000000 0 0 1
6.573482 -32.775190 3.773120 33.640157 -1.372860 1.458399 0.047574 -0.008270 103010.000000 0 0 1
7.537282 -33.587750 2.838420 34.539893 -1.350048 1.488526 0.056449 -0.010912 178106.000000 0 0 1
7.115982 -33.765680 1.490620 34.539547 -1.363090 1.527626 0.054933 -0.013508 71477.300000 0 0 1
8.042182 33.502134 0.719820 34.461396 1.335204 1.549907 0.047748 -0.014490 -366132.000000 0 0 1
7.554982 32.855218 -0.630180 33.718545 1.344778 1.589487 0.067551 -0.012599 683568.000000 0 0 1
6.427182 31.964604 -0.556480 32.609113 1.372370 1.587862 0.055398 -0.008785 362705.000000 0 0 1
5.201582 32.615239 -0.279780 33.028602 1.412645 1.579267 0.055441 -0.016307 -276282.000000 0 0 1
4.085082 31.598874 0.125620 31.862086 1.442230 1.566854 0.045141 -0.013786 91269.300000 0 0 1
3.768082 30.687554 -0.908680 30.931378 1.448619 1.600178 0.061553 -0.015029 179181.000000 0 0 1
2.756382 29.751034 -0.540180 29.883331 1.478412 1.588874 0.058007 -0.023660 274209.000000 0 0 1
2.528782 28.654104 -1.579180 28.808788 1.482772 1.625640 0.068284 -0.014333 -16883.900000 0 0 1
2.027982 29.120254 -2.801980 29.324955 1.501267 1.666492 0.085172 -0.025871 -56086.800000 0 0 1
1.915582 28.100454 -3.785180 28.418877 1.502733 1.704386 0.091770 -0.034725 -322878.000000 0 0 1
1.575982 28.779304 -5.089380 29.268308 1.516090 1.745572 0.097032 -0.042371 -118866.000000 0 0 1
0.345282 29.463494 -5.158880 29.913722 1.559078 1.744122 0.094535 -0.040375 25258.000000 0 0 1
0.274882 30.315144 -6.278580 30.959717 1.561729 1.775011 0.077923 -0.032600 -56997.700000 0 0 1
0.239882 29.768784 -7.694280 30.748008 1.562738 1.823721 0.074814 -0.029776 -236061.000000 0 0 1
-1.001718 29.217704 -8.105580 30.337734 -1.536525 1.841260 0.089868 -0.031727 149211.000000 0 0 1
-1.086118 28.618974 -9.398080 30.142151 -1.532864 1.887875 0.082505 -0.025990 -134202.000000 0 0 1
-1.377918 29.675604 -10.507280 31.510999 -1.524397 1.910755 0.065959 -0.023752 -1121900.000000 0 0 1
-0.291318 30.404434 -10.933580 32.311881 -1.561215 1.915987 0.060675 -0.021252 -1048520.000000 0 0 1
-0.455618 31.722844 -11.454580 33.730607 -1.556435 1.917277 0.046738 -0.025399 -217433.000000 0 0 1
-0.763418 32.794281 -10.428880 34.421058 -1.547522 1.878614 0.042099 -0.024897 889159.000000 0 0 1
0.372882 33.234961 -9.629380 34.603853 1.559577 1.852794 0.042159 -0.035390 674861.000000 0 0 1
-0.053718 33.759071 -8.386380 34.785186 -1.569205 1.814286 0.046510 -0.033095 -301408.000000 0 0 1
1.028082 33.865619 -7.302380 34.659225 1.540448 1.783078 0.065209 -0.040034 188683.000000 0 0 1
1.975882 -33.159470 -7.628880 34.083051 -1.511279 1.796541 0.082773 -0.034466 -157477.000000 0 0 1
2.813382 -32.929820 -6.548280 33.692256 -1.485568 1.766397 0.086417 -0.050758 -449467.000000 0 0 1
4.097282 -32.137580 -6.917880 33.128067 -1.443989 1.781167 0.065261 -0.046012 145897.000000 0 0 1
4.978082 -32.725490 -7.857980 34.021859 -1.419837 1.803869 0.070324 -0.037751 82176.800000 0 0 1
6.001682 -33.473450 -7.230080 34.767314 -1.393385 1.780281 0.096200 -0.032787 -676282.000000 0 0 1
6.358682 33.376901 -8.044380 34.916507 1.382541 1.803274 0.099514 -0.023418 144888.000000 0 0 1
5.305582 32.463928 -8.366780 33.941992 1.408798 1.819866 0.085472 -0.021780 33245.900000 0 0 1
4.434382 32.760349 -9.406480 34.371298 1.436256 1.848006 0.088665 -0.025468 96761.900000 0 0 1
3.431382 31.640064 -9.805780 33.301973 1.462768 1.869677 0.073262 -0.039790 325929.000000 0 0 1
4.016982 30.615024 -10.604980 32.647840 1.440332 1.901628 0.071430 -0.021344 181931.000000 0 0 1
3.259582 29.429534 -10.559880 31.436180 1.460487 1.913373 0.054360 -0.024470 269021.000000 0 0 1
4.149082 28.323824 -11.158180 30.723914 1.425344 1.942470 0.049409 -0.022453 39175.600000 0 0 1
4.218782 28.690364 -12.520280 31.586271 1.424797 1.978371 0.051978 -0.019416 -478525.000000 0 0 1
5.354982 28.212804 -13.153780 31.585758 1.383221 2.000330 0.048816 -0.024755 -384653.000000 0 0 1
5.423382 28.786994 -14.597980 32.729270 1.384582 2.033112 0.054628 -0.021163 146237.000000 0 0 1
4.449282 28.145644 -15.409280 32.394742 1.414013 2.066524 0.060600 -0.021254 304451.000000 0 0 1
4.576382 28.653514 -16.705680 33.482039 1.412419 2.093177 0.081623 -0.027180 183547.000000 0 0 1
3.441582 28.255484 -17.697980 33.517688 1.449591 2.127063 0.071068 -0.025847 178513.000000 0 0 1
3.638482 26.962534 -18.282580 32.779102 1.436661 2.162470 0.085747 -0.016520 122684.000000 0 0 1
2.668882 26.578974 -19.239680 32.920056 1.470719 2.194982 0.100307 -0.026941 147184.000000 0 0 1
3.111782 25.298124 -19.983080 32.388297 1.448407 2.235702 0.106766 -0.030953 152975.000000 0 0 1
3.323182 24.161074 -19.175880 31.024433 1.434111 2.237107 0.111035 -0.038589 441798.000000 0 0 1
4.226782 23.302574 -19.894980 30.930339 1.391360 2.269491 0.104416 -0.033849 249461.000000 0 0 1
4.812482 22.126254 -19.101880 29.624533 1.356631 2.271557 0.095937 -0.031437 -512736.000000 0 0 1
3.899182 21.186854 -18.662980 28.502513 1.388795 2.284693 0.124841 -0.032667 -470460.000000 0 0 1
4.590682 20.166054 -17.966080 27.395696 1.346967 2.286037 0.109017 -0.026985 524911.000000 0 0 1
3.696082 18.919154 -17.670180 26.150157 1.377864 2.312737 0.104327 -0.036222 1046850.000000 0 0 1
2.507082 19.168754 -16.887080 25.669049 1.440745 2.288793 0.085926 -0.025834 844051.000000 0 0 1
1.625282 18.071854 -16.641580 24.620635 1.481103 2.313009 0.054361 -0.016482 189719.000000 0 1 0
2.059782 17.070854 -15.537080 23.174504 1.450716 2.305596 0.061648 -0.013098 438771.000000 0 1 0
3.065082 16.082154 -15.860780 22.794621 1.382466 2.340347 0.075121 -0.030930 323354.000000 0 1 0
2.677382 15.143154 -16.858880 22.818969 1.395800 2.402099 0.083771 -0.033462 -386612.000000 0 1 0
2.768082 15.328454 -18.378180 24.091104 1.392137 2.438524 0.071718 -0.032205 -561628.000000 0 1 0
4.020582 15.634554 -18.945980 24.890852 1.319090 2.435900 0.099899 -0.033508 -442411.000000 0 1 0
4.004282 16.054654 -20.277680 26.171941 1.326368 2.457174 0.092455 -0.037169 -519616.000000 0 0 1
4.272482 15.033754 -21.355680 26.463805 1.293904 2.509812 0.096166 -0.036862 -7531.160000 0 0 1
3.383382 13.963454 -21.579380 25.924795 1.333075 2.554192 0.095908 -0.035033 -468904.000000 0 0 1
2.171782 14.307154 -22.205680 26.504783 1.420149 2.564036 0.096547 -0.036090 116920.000000 0 0 1
1.364782 13.028954 -22.647480 26.163422 1.466427 2.617176 0.095281 -0.036440 125882.000000 0 0 1
0.828382 12.218554 -21.664680 24.886496 1.503103 2.627094 0.090094 -0.032695 -415360.000000 0 1 0
0.275982 11.110354 -22.199080 24.825698 1.545961 2.677432 0.068455 -0.027734 -396272.000000 0 1 0
-0.482118 10.301354 -21.076680 23.464373 -1.524029 2.686549 0.039857 -0.027952 -662779.000000 0 1 0
-1.702518 10.928154 -20.792880 23.551369 -1.416247 2.652743 0.035700 -0.016904 -323229.000000 0 1 0
-2.415918 10.300554 -19.720480 22.379353 -1.340418 2.649172 0.031995 -0.009801 302445.000000 0 1 0
-3.473918 9.281054 -20.207280 22.506449 -1.212638 2.685645 0.045820 -0.010522 -429278.000000 0 1 0
-2.893118 8.106454 -20.708580 22.426102 -1.227996 2.747679 0.040829 -0.018579 203542.000000 0 1 0
-3.882918 7.122254 -21.005280 22.517224 -1.071660 2.773052 0.048617 -0.016692 -51122.000000 0 1 0
-3.269018 5.964054 -21.818880 22.854320 -1.069398 2.839426 0.051251 -0.023944 337562.000000 0 1 0
-2.403318 5.081654 -21.057880 21.795263 -1.129030 2.880730 0.044011 -0.015012 347494.000000 0 1 0
-1.868318 4.054754 -21.812780 22.264973 -1.139020 2.939708 0.059898 -0.020956 -200775.000000 0 1 0
-0.995618 3.086954 -20.982680 21.231896 -1.258805 2.988225 0.049908 -0.019771 -715272.000000 0 1 0
0.341182 3.424354 -20.812080 21.094675 1.471490 2.977724 0.044792 -0.020877 -664191.000000 0 1 0
0.959182 2.352254 -20.087280 20.247270 1.183609 3.015797 0.038306 -0.015189 -234573.000000 0 1 0
2.480082 2.401754 -20.223280 20.515855 0.769355 2.972507 0.033483 -0.013466 -14421.500000 0 1 0
3.118482 1.982254 -21.455980 21.771848 0.566219 2.971045 0.044428 -0.005766 162569.000000 0 1 0
4.519782 1.926954 -21.354880 21.912839 0.403003 2.915445 0.062576 -0.005957 -228945.000000 0 1 0
5.234382 1.021054 -22.347680 22.975207 0.192648 2.907334 0.056141 -0.010825 43514.400000 0 1 0
6.631282 0.883854 -22.138780 23.127488 0.132505 2.848136 0.049230 -0.019473 70920.100000 0 1 0
7.269082 0.482754 -23.284680 24.397724 0.066315 2.838370 0.052563 -0.020621 -948342.000000 0 1 0
8.778982 0.618254 -23.159780 24.775556 0.070308 2.778445 0.058291 -0.028242 -620395.000000 0 1 0
9.327982 1.897354 -23.373880 25.237858 0.200667 2.754853 0.056185 -0.031090 1105250.000000 0 0 1
10.747782 1.830154 -23.116580 25.558571 0.168664 2.700897 0.058732 -0.033036 599197.000000 0 0 1
14.461382 -20.231700 22.411067 33.476995 -0.950214 0.837332 0.097863 -0.005425 -683274.000000 0 0 1
13.733982 -21.392400 22.819067 34.160897 -1.000064 0.839295 0.096162 -0.005038 1407390.000000 0 0 1
12.295682 -21.262400 22.906117 33.585170 -1.046498 0.820261 0.082708 -0.018319 1498620.000000 0 0 1
11.575382 -21.099700 21.527767 32.289806 -1.069025 0.841018 0.093951 -0.017620 -724177.000000 0 0 1
11.678282 -19.807600 20.990067 31.133683 -1.038069 0.830927 0.106952 -0.023370 -123343.000000 0 0 1
10.938482 -19.754600 19.800467 30.032534 -1.065103 0.850908 0.124180 -0.019192 39548.700000 0 0 1
11.238382 -18.466600 18.993767 28.776375 -1.024093 0.849915 0.126640 -0.030689 -380841.000000 0 0 1
10.471182 -17.433500 19.473367 28.156431 -1.029910 0.807076 0.152297 -0.031058 -401038.000000 0 0 1
10.560982 -16.278300 18.679767 26.934199 -0.995282 0.804414 0.143469 -0.030153 270553.000000 0 0 1
9.483082 -15.174200 18.998167 26.098191 -1.012235 0.755470 0.111797 -0.034584 438151.000000 0 0 1
8.174682 -15.576700 18.680867 25.659965 -1.087505 0.755373 0.088967 -0.030229 -183322.000000 0 0 1
7.210082 -14.556700 18.806867 24.851178 -1.110908 0.712424 0.059456 -0.026149 -739780.000000 0 1 0
5.819482 -14.828500 18.317567 24.275174 -1.196813 0.715782 0.017977 -0.016194 -1034540.000000 0 1 0
5.658882 -15.093500 16.925567 23.373308 -1.212094 0.761008 0.009214 -0.011329 328722.000000 0 1 0
4.298182 -15.165100 16.481867 22.805845 -1.294614 0.763090 -0.000710 -0.012753 355220.000000 0 1 0
3.684282 -16.553800 16.630267 23.752222 -1.351802 0.795180 -0.001276 -0.004836 297455.000000 0 1 0
2.290682 -16.479300 16.283867 23.280440 -1.432678 0.796147 0.005153 -0.002311 456716.000000 0 1 0
1.716482 -17.751500 16.499167 24.295773 -1.474401 0.824266 0.012795 -0.011354 -178768.000000 0 1 0
0.216782 -17.685800 16.185767 23.975270 -1.558540 0.829693 0.032335 -0.004378 -327717.000000 0 1 0
-0.025018 -17.310700 14.820667 22.788443 1.569351 0.862739 0.031753 -0.009558 -108433.000000 0 1 0
-1.414618 -17.360700 14.583267 22.717102 1.489492 0.873756 0.036450 -0.010364 -192902.000000 0 1 0
-1.864118 -17.724300 13.170167 22.160304 1.466009 0.934385 0.030863 -0.020387 364326.000000 0 1 0
-3.226218 -18.129900 13.058467 22.574883 1.394690 0.953968 0.028918 -0.023948 472384.000000 0 1 0
-3.230818 -19.457000 12.524167 23.363814 1.406249 1.005046 0.043885 -0.027649 -270887.000000 0 1 0
-4.659518 -19.976100 12.422267 23.980584 1.341639 1.026269 0.039613 -0.027870 -261704.000000 0 1 0
-5.125118 -20.507600 13.636067 25.154937 1.325899 0.997882 0.037124 -0.030646 -667871.000000 0 0 1
-6.426418 -20.968300 13.461967 25.733112 1.273403 1.020268 0.031371 -0.031421 -436993.000000 0 0 1
-7.139518 -21.620600 14.674867 27.088278 1.251852 0.998288 0.042559 -0.028000 623591.000000 0 0 1
-8.557618 -21.572500 14.572067 27.403481 1.193146 1.010119 0.049557 -0.030876 149452.000000 0 0 1
-9.219318 -22.426700 15.457667 28.755733 1.180769 1.003266 0.050976 -0.030716 -670747.000000 0 0 1
-10.709918 -22.161000 15.475167 29.073925 1.120616 1.009517 0.072638 -0.032108 -628099.000000 0 0 1
-10.986618 -20.909500 16.105067 28.588217 1.087007 0.972366 0.067159 -0.030044 -406008.000000 0 0 1
-12.335018 -20.539100 16.003467 28.811773 1.029963 0.981894 0.066343 -0.025602 -326109.000000 0 0 1
-12.598318 -19.210600 16.820967 28.472965 0.990354 0.938784 0.071356 -0.017592 -224119.000000 0 0 1
-12.481418 -19.467500 18.207567 29.432718 1.000674 0.903816 0.065821 -0.017114 -67707.000000 0 0 1
-12.959218 -18.401800 18.964067 29.431334 0.957233 0.870624 0.059034 -0.014823 -510108.000000 0 0 1
-13.463018 -18.948700 20.299667 30.860697 0.953059 0.852924 0.054133 -0.017368 -452382.000000 0 0 1
-14.703618 -19.572900 20.110367 31.681567 0.926513 0.883091 0.078559 -0.018473 -363905.000000 0 0 1
-15.120918 -20.265400 21.276067 33.045418 0.929767 0.871286 0.068108 -0.011570 294034.000000 0 0 1
-16.584318 -20.749100 21.061467 33.899118 0.896495 0.900398 0.075525 -0.021005 -251461.000000 0 0 1
-16.704218 -21.896500 20.188567 34.147707 0.919108 0.938234 0.074726 -0.019158 117568.000000 0 0 1
-17.998218 -22.288000 19.787667 34.817274 0.891481 0.966323 0.061379 -0.019433 91363.600000 0 0 1
-18.927618 -22.897700 20.859467 36.299818 0.880035 0.958627 0.066523 -0.026156 -682280.000000 0 0 1
-19.513318 -22.005700 21.812667 36.617112 0.845356 0.932664 0.078284 -0.026184 -71436.500000 0 0 1
-20.269118 -22.701400 22.744367 37.993381 0.841941 0.928994 0.070998 -0.021608 -317003.000000 0 0 1
-21.053018 -21.755200 23.653617 38.418901 0.801800 0.907552 0.072742 -0.014099 -816965.000000 0 0 1
-21.913718 -20.928300 22.992337 38.037513 0.762401 0.921702 0.072536 -0.012554 -542007.000000 0 0 1
-22.341218 -19.986400 23.955707 38.372675 0.729822 0.896573 0.082293 -0.014543 193193.000000 0 0 1
-23.416118 -18.968100 23.459117 38.189444 0.680836 0.909320 0.080333 -0.014856 -25722.000000 0 0 1
-22.907618 -18.015900 22.524367 36.833121 0.666429 0.912810 0.092983 -0.014787 -364494.000000 0 0 1
-23.803718 -17.031400 22.111067 36.682215 0.621049 0.923824 0.076372 -0.012803 -615858.000000 0 0 1
-23.441518 -16.467500 20.722967 35.357103 0.612397 0.944553 0.087130 -0.014711 568126.000000 0 0 1
-22.252918 -15.652900 20.668767 34.167289 0.613010 0.921120 0.100912 -0.017905 495294.000000 0 0 1
-22.073418 -15.208600 19.350067 33.059982 0.603306 0.945544 0.089727 -0.015776 -137173.000000 0 0 1
-20.903518 -14.244100 19.174267 31.741204 0.598148 0.922184 0.090619 -0.026471 -144543.000000 0 0 1
-20.714018 -13.898100 17.785667 30.635889 0.590963 0.951392 0.083758 -0.023686 83766.300000 0 0 1
-19.739618 -12.855400 17.635667 29.426699 0.577253 0.928159 0.094756 -0.036602 184442.000000 0 0 1
-19.088618 -12.980500 16.227467 28.217006 0.597185 0.958076 0.093683 -0.037568 55018.400000 0 0 1
-18.647818 -11.793800 15.577267 27.009001 0.563938 0.956059 0.091560 -0.035847 948058.000000 0 0 1
-17.269418 -11.445300 15.804667 26.057920 0.585286 0.919119 0.097749 -0.040828 705001.000000 0 0 1
-16.885918 -10.220000 14.904767 24.733272 0.544262 0.924016 0.103355 -0.043749 -17939.800000 0 1 0
-17.003918 -8.954700 15.564767 24.730182 0.484721 0.890037 0.101324 -0.036990 191732.000000 0 1 0
-16.925718 -7.798000 14.685267 23.726479 0.431732 0.903404 0.108193 -0.037209 -841986.000000 0 1 0
-16.997818 -6.481700 15.478867 23.885845 0.364305 0.865795 0.103036 -0.030857 548965.000000 0 1 0
-16.027718 -6.183300 16.491067 23.813363 0.368195 0.805829 0.068293 -0.023176 421478.000000 0 1 0
-14.663518 -6.332000 16.135267 22.703741 0.407633 0.780321 0.066523 -0.018825 -830378.000000 0 1 0
-13.710118 -6.413100 17.285367 22.975620 0.437528 0.719197 0.048318 -0.017026 -534280.000000 0 1 0
-13.939518 -7.517600 18.236467 24.153535 0.494592 0.715108 0.045833 -0.021494 39593.000000 0 1 0
-13.657518 -8.789800 17.667967 23.998864 0.571854 0.743358 0.063624 -0.014292 -382716.000000 0 1 0
-13.623218 -9.990700 18.650367 25.164308 0.632765 0.736024 0.061263 -0.015485 226274.000000 0 0 1
-14.876318 -10.438000 19.127667 26.384169 0.611834 0.759809 0.060497 -0.017697 -87130.600000 0 0 1
-15.541618 -9.597000 20.032667 27.110000 0.553190 0.739300 0.051815 -0.019072 -597427.000000 0 0 1
-16.940018 -10.182300 20.442567 28.434873 0.541213 0.768540 0.059136 -0.017144 1472690.000000 0 0 1
-18.011218 -10.244900 19.463767 28.428862 0.517167 0.816675 0.084202 -0.027047 893972.000000 0 0 1
-18.413918 -8.997800 18.978967 27.932669 0.454519 0.823778 0.087849 -0.029316 -927276.000000 0 0 1
-19.527418 -9.001300 17.931667 27.998003 0.431928 0.875696 0.126328 -0.032422 652062.000000 0 0 1
-20.861118 -9.190400 18.420167 29.307888 0.414969 0.891166 0.113134 -0.033480 375157.000000 0 0 1
-21.813118 -9.007800 17.411067 29.327425 0.391623 0.935174 0.140462 -0.036620 174502.000000 0 0 1
-23.269518 -9.313400 17.851167 30.771319 0.380714 0.951916 0.135232 -0.028633 90609.700000 0 0 1
-23.780118 -8.354900 18.747267 31.412711 0.337868 0.931283 0.123615 -0.025810 1876770.000000 0 0 1
-25.225378 -8.578600 18.851667 32.638895 0.327809 0.955032 0.113103 -0.018214 1849490.000000 0 0 1
-26.000188 -7.467300 19.688267 33.457409 0.279674 0.941646 0.120361 -0.025265 94952.500000 0 0 1
-26.019968 -7.661000 21.036167 34.325647 0.286337 0.911145 0.135775 -0.032061 163231.000000 0 0 1
-26.717908 -6.603600 21.626467 35.002261 0.242304 0.904779 0.120394 -0.028965 -544429.000000 0 0 1
-26.740258 -6.517000 23.213417 36.005214 0.239055 0.870134 0.107971 -0.022264 698422.000000 0 0 1
-25.543238 -6.099600 23.882967 35.497300 0.234405 0.832795 0.098222 -0.029301 426174.000000 0 0 1
-24.474018 -7.016600 23.902987 34.922243 0.279207 0.816929 0.109706 -0.029961 174989.000000 0 0 1
-23.410218 -6.672000 25.010957 34.901317 0.277643 0.771853 0.096218 -0.020867 370585.000000 0 0 1
-22.848818 -5.361800 24.880127 34.202897 0.230494 0.756231 0.070396 -0.018582 601428.000000 0 0 1
-21.905318 -5.168900 25.958617 34.357100 0.231727 0.714298 0.082833 -0.026077 186176.000000 0 0 1
-21.143418 -3.847700 25.723057 33.519019 0.180011 0.695994 0.078458 -0.028364 -305115.000000 0 0 1
-20.171118 -3.567900 26.701767 33.653949 0.175071 0.654386 0.076454 -0.024813 -330840.000000 0 0 1
-20.616418 -3.315000 28.002787 34.931104 0.159430 0.640733 0.081445 -0.025058 -354679.000000 0 0 1
-21.417218 -2.038200 28.283417 35.535942 0.094881 0.650287 0.091493 -0.030082 676306.000000 0 0 1
-22.768318 -2.071600 27.823867 36.011879 0.090736 0.687822 0.085143 -0.027510 99274.700000 0 0 1
-23.570318 -1.133800 28.529497 37.024014 0.048066 0.691065 0.091056 -0.026301 385067.000000 0 0 1
-24.910818 -0.939300 27.776907 37.322751 0.037689 0.731407 0.086949 -0.025565 -538262.000000 0 0 1
-24.643018 -0.412800 26.480547 36.175519 0.016750 0.749541 0.082364 -0.029997 -257574.000000 0 0 1
-25.778108 -0.210300 25.703277 36.403483 0.008158 0.786868 0.089376 -0.030622 -701375.000000 0 0 1
-26.644498 -1.401700 25.296207 36.766726 0.052559 0.812041 0.079743 -0.027647 -594483.000000 0 0 1
-27.533988 -1.805200 26.306017 38.123298 0.065469 0.809273 0.067089 -0.020973 113849.000000 0 0 1
-28.292908 -3.002800 26.033457 38.564833 0.105737 0.829754 0.060599 -0.017038 144845.000000 0 0 1
-27.522638 -4.320400 26.007427 38.112305 0.155706 0.819770 0.074567 -0.023611 -276521.000000 0 0 1
-27.233068 -4.733300 27.334737 38.874568 0.172088 0.790975 0.057841 -0.014639 197805.000000 0 0 1
-26.313728 -5.838800 27.349657 38.399318 0.218354 0.778107 0.063158 -0.029002 162433.000000 0 0 1
-25.795398 -6.233100 28.775947 39.144722 0.237091 0.744957 0.049892 -0.022073 -264176.000000 0 0 1
-26.793958 -6.841000 29.551387 40.472213 0.249978 0.752233 0.068494 -0.017188 6145.910000 0 0 1
-26.387438 -7.094000 30.845267 41.207430 0.262630 0.724944 0.068298 -0.008662 47425.000000 0 0 1
-27.617828 -7.592800 31.654437 42.689559 0.268295 0.735489 0.047665 -0.014619 458747.000000 0 0 1
-28.201818 -8.802600 31.135617 42.921498 0.302547 0.759169 0.046098 -0.018236 222633.000000 0 0 1
-29.441298 -9.069200 31.759077 44.245671 0.298820 0.770174 0.043448 -0.015247 119120.000000 0 0 1
-30.505968 -9.645100 30.793987 44.406213 0.306226 0.804514 0.035258 -0.019752 -361615.000000 0 0 1
-30.391588 -11.000500 30.552587 44.476064 0.347288 0.813520 0.042562 -0.020479 -410173.000000 0 0 1
-31.236368 -11.399100 29.533237 44.473164 0.349913 0.844549 0.030315 -0.020657 -551544.000000 0 0 1
-30.842048 -12.656900 28.731127 44.010303 0.389421 0.859485 0.033093 -0.013975 -254443.000000 0 0 1
-29.779698 -12.376100 27.865187 42.620030 0.393872 0.858194 0.048822 -0.019591 -121068.000000 0 0 1
-28.959538 -13.485400 27.558077 42.189555 0.435803 0.858998 0.063198 -0.018068 395131.000000 0 0 1
-27.667408 -13.045800 26.790977 40.662450 0.440607 0.851490 0.071714 -0.020925 913815.000000 0 0 1
-26.550368 -12.499300 27.523987 40.233375 0.439997 0.817416 0.063010 -0.023392 613175.000000 0 0 1
-26.644618 -11.158900 28.000617 40.230477 0.396612 0.800978 0.066872 -0.032914 -298233.000000 0 0 1
-26.690938 -9.957400 26.946757 39.213311 0.357071 0.813191 0.075293 -0.032297 1119760.000000 0 0 1
-25.424968 -9.780400 26.249657 37.830276 0.367227 0.803933 0.084800 -0.025221 976575.000000 0 0 1
-25.180368 -10.532800 25.070707 37.061182 0.396177 0.827840 0.077111 -0.022853 90741.800000 0 0 1
-26.145028 -10.305100 23.842657 36.854171 0.375454 0.867224 0.090492 -0.017893 79977.800000 0 0 1
-27.417788 -10.871400 24.109177 38.094290 0.377493 0.885527 0.074104 -0.018173 -427416.000000 0 0 1
-28.218978 -10.658500 22.998897 37.932356 0.361142 0.919380 0.100110 -0.019952 -537152.000000 0 0 1
-29.546068 -11.439900 22.897567 39.091432 0.369413 0.944999 0.092701 -0.021509 621092.000000 0 0 1
-30.677418 -10.961200 23.634857 40.247464 0.343168 0.943154 0.083940 -0.021637 144912.000000 0 0 1
-30.579198 -10.968000 25.030397 41.011037 0.344382 0.914315 0.088598 -0.019187 -767600.000000 0 0 1
-31.919678 -10.622300 25.698677 42.333452 0.321254 0.918449 0.041351 -0.021015 -506114.000000 0 0 1
-32.427538 -9.345500 25.463687 42.276270 0.280593 0.924397 0.059813 -0.028759 573539.000000 0 0 1
-33.807898 -9.114100 25.786687 43.485562 0.263325 0.936024 0.051812 -0.020601 1030430.000000 0 0 1
-34.253092 -9.147700 27.275047 44.731230 0.260971 0.915046 0.034147 -0.020264 -390558.000000 0 0 1
-34.480639 -10.490700 27.702637 45.457732 0.295350 0.915473 0.040492 -0.029490 226067.000000 0 0 1
-35.044813 -10.541300 29.031127 46.712571 0.292186 0.900160 0.044751 -0.027387 -574387.000000 0 0 1
-35.695270 -11.872200 29.441187 47.769080 0.321089 0.906731 0.041187 -0.024328 1518940.000000 0 0 1
-36.983058 -12.245400 28.846247 48.474761 0.319747 0.933434 0.029407 -0.019779 697229.000000 0 0 1
36.036830 -11.578500 29.361797 47.904383 -0.310878 0.911039 0.032610 -0.014895 -1473630.000000 0 0 1
34.764940 -12.017500 28.665347 46.633931 -0.332820 0.908805 0.043933 -0.016236 -612921.000000 0 0 1
34.629340 -11.566600 27.274587 45.572805 -0.322361 0.929189 0.043803 -0.016269 -229174.000000 0 0 1
33.623660 -12.290600 26.589777 44.594009 -0.350446 0.931958 0.048977 -0.006750 77856.900000 0 0 1
33.409760 -11.812100 25.122707 43.438327 -0.339836 0.954087 0.050827 -0.023327 -91652.400000 0 0 1
32.837520 -10.584400 24.900217 42.548244 -0.311812 0.945641 0.067795 -0.033086 -98634.300000 0 0 1
33.231570 -10.074200 23.637647 42.006727 -0.294346 0.973135 0.056306 -0.028839 -279973.000000 0 0 1
32.917990 -8.583400 23.373887 41.274780 -0.255071 0.968787 0.095517 -0.022384 -894152.000000 0 0 1
31.559070 -8.332000 23.294647 40.100346 -0.258123 0.950951 0.107194 -0.027399 -948679.000000 0 0 1
31.439450 -7.006900 23.059027 39.613816 -0.219286 0.949493 0.118639 -0.020749 459534.000000 0 0 1
29.945360 -6.710600 22.734567 38.191849 -0.220453 0.933191 0.114482 -0.016244 343228.000000 0 0 1
29.583630 -7.245400 21.513367 37.289569 -0.240185 0.955835 0.117357 -0.021126 641398.000000 0 0 1
28.289050 -6.812300 21.059967 35.919354 -0.236311 0.944297 0.128173 -0.035746 473058.000000 0 0 1
15.190582 -16.918100 26.431247 34.865265 -0.839149 0.710407 0.083550 -0.010340 411288.000000 0 0 1
14.421082 -18.098000 26.192447 34.950673 -0.897990 0.723623 0.072592 -0.006417 434919.000000 0 0 1
15.362082 -19.146400 26.190377 35.895878 -0.894625 0.753029 0.066325 -0.002655 -1032010.000000 0 0 1
14.828482 -20.563000 26.116167 36.397459 -0.946033 0.770551 0.049863 -0.011361 2244.230000 0 0 1
14.213382 -21.037400 27.361947 37.326513 -0.976618 0.748011 0.053149 -0.015596 374521.000000 0 0 1
12.990482 -20.385300 27.616257 36.701100 -1.003438 0.719001 0.059667 -0.007517 -912167.000000 0 0 1
12.154282 -20.971100 28.804827 37.646138 -1.045532 0.699527 0.062689 -0.017280 295803.000000 0 0 1
12.529782 -20.473400 30.099367 38.498409 -1.021598 0.673194 0.073125 -0.019430 487988.000000 0 0 1
11.553582 -19.568300 30.642977 38.149649 -1.037448 0.638097 0.083798 -0.022523 391541.000000 0 0 1
11.526882 -18.097000 30.042097 36.917449 -1.003650 0.620197 0.073767 -0.015251 545309.000000 0 0 1
12.661582 -17.311000 30.385777 37.192497 -0.939294 0.614630 0.072824 -0.001276 -20320.900000 0 0 1
12.341282 -16.013700 29.957257 36.141155 -0.914197 0.593665 0.065349 0.002770 80129.000000 0 0 1
13.277282 -14.868400 30.356687 36.316443 -0.841870 0.581037 0.062413 -0.000478 206116.000000 0 0 1
12.843382 -13.623300 29.776227 35.173434 -0.814858 0.561318 0.073136 -0.000430 337137.000000 0 0 1
13.637382 -12.610600 30.362827 35.593633 -0.746300 0.549011 0.073188 -0.001954 59536.400000 0 0 1
13.124882 -11.259700 29.834757 34.484143 -0.709057 0.525301 0.071744 -0.006016 -85801.600000 0 0 1
13.376182 -10.632900 28.581747 33.300106 -0.671631 0.538833 0.078413 -0.009123 -382152.000000 0 0 1
14.701682 -10.697900 28.125307 33.490557 -0.629053 0.573885 0.083599 -0.011024 -450171.000000 0 0 1
15.027682 -9.527500 27.043687 32.372295 -0.565043 0.581943 0.074384 -0.011351 66285.300000 0 0 1
15.314282 -8.236300 27.496897 32.533725 -0.493443 0.563892 0.067911 -0.017150 237038.000000 0 0 1
16.613882 -8.124500 28.060457 33.606812 -0.454824 0.582730 0.078377 -0.027527 -310667.000000 0 0 1
16.975682 -6.674200 27.979187 33.399905 -0.374598 0.577733 0.074981 -0.032253 -512800.000000 0 0 1
18.290382 -6.334800 28.328547 34.309975 -0.333416 0.599416 0.079886 -0.040314 -390938.000000 0 0 1
18.664982 -5.066100 27.838417 33.897262 -0.265037 0.607183 0.082291 -0.036574 539002.000000 0 0 1
20.187382 -4.975200 27.500737 34.475695 -0.241636 0.647350 0.073699 -0.032199 -465653.000000 0 0 1
20.569382 -5.683200 26.291847 33.862361 -0.269569 0.681811 0.080127 -0.028872 -487219.000000 0 0 1
21.871382 -5.443600 25.883127 34.320932 -0.243935 0.716438 0.092763 -0.024545 -117611.000000 0 0 1
23.029982 -5.879500 26.847867 35.857448 -0.249958 0.724639 0.090265 -0.030775 -607627.000000 0 0 1
23.725882 -4.792600 27.450497 36.598037 -0.199317 0.722653 0.093134 -0.026314 439553.000000 0 0 1
24.702782 -5.238200 28.393287 37.997960 -0.208954 0.726909 0.096782 -0.042371 400249.000000 0 0 1
25.447382 -4.094600 29.187527 38.939013 -0.159537 0.723384 0.107300 -0.032839 -156850.000000 0 0 1
26.192082 -3.321000 28.292757 38.697988 -0.126121 0.750839 0.089981 -0.023218 -151255.000000 0 0 1
26.420782 -2.015400 28.696087 39.058738 -0.076133 0.745586 0.079984 -0.024352 -639402.000000 0 0 1
27.330382 -1.242800 27.766417 38.980357 -0.045442 0.778001 0.087023 -0.025553 400247.000000 0 0 1
28.718082 -1.553300 27.908197 40.075035 -0.054035 0.800429 0.100123 -0.023171 584634.000000 0 0 1
29.545182 -0.784900 27.024947 40.048491 -0.026560 0.830095 0.102564 -0.009075 775184.000000 0 0 1
31.070482 -0.913000 27.299577 41.369981 -0.029376 0.850126 0.094190 -0.016491 240600.000000 0 0 1
31.455582 -0.097000 28.380117 42.366190 -0.003084 0.836754 0.084020 -0.003330 566800.000000 0 0 1
32.856582 -0.132300 28.674237 43.609453 -0.004027 0.853269 0.098080 -0.013859 690580.000000 0 0 1
33.292482 1.005400 29.581287 44.547197 0.030190 0.844582 0.093025 -0.017199 -135953.000000 0 0 1
33.243582 2.259500 28.906037 44.111224 0.067864 0.856218 0.095834 -0.011767 26286.600000 0 0 1
33.402382 3.362600 29.792217 44.884322 0.100331 0.844968 0.086364 -0.011311 -184093.000000 0 0 1
33.148482 4.673100 29.051617 44.324442 0.140052 0.856043 0.089785 -0.014566 -41453.100000 0 0 1
33.324582 5.818600 29.930547 45.168811 0.172861 0.846461 0.087632 -0.011526 355235.000000 0 0 1
32.128382 6.159300 30.601537 44.795357 0.189411 0.818741 0.091088 -0.005349 -335103.000000 0 0 1
32.407482 7.233400 31.694027 45.902923 0.219602 0.808675 0.080601 -0.009448 -193749.000000 0 0 1
32.917982 6.559000 32.801453 46.931326 0.196677 0.796904 0.074579 -0.004228 30655.100000 0 0 1
32.932082 7.427200 33.930777 47.864214 0.221820 0.782864 0.067833 -0.010940 -143798.000000 0 0 1
33.631882 6.800700 -32.782750 47.455892 0.199520 2.333398 0.061445 -0.007594 -251268.000000 0 0 1
32.859482 5.810300 -32.166510 46.348565 0.175014 2.337845 0.050397 -0.012500 67693.900000 0 0 1
33.112882 4.564300 -32.661030 46.733699 0.136977 2.344620 0.069433 -0.016893 -172628.000000 0 0 1
32.408282 3.462700 -31.816420 45.547465 0.106442 2.344142 0.066958 -0.020236 -81518.000000 0 0 1
32.790682 2.166200 -32.126190 45.956646 0.065966 2.344870 0.066104 -0.019761 106964.000000 0 0 1
32.948882 1.348200 -30.975630 45.243078 0.040895 2.324918 0.058367 -0.014671 -23731.100000 0 0 1
33.443282 -0.070800 -31.362990 45.848612 -0.002117 2.324104 0.054568 -0.024234 -731150.000000 0 0 1
34.710582 -0.013500 -31.934580 47.166112 -0.000389 2.314565 0.058994 -0.018181 -561002.000000 0 0 1
35.470082 -1.181100 -32.143880 47.882677 -0.033286 2.306764 0.044590 -0.012738 373335.000000 0 0 1
36.329582 -1.457100 -30.888140 47.707849 -0.040086 2.275022 0.049983 -0.019514 -956639.000000 0 0 1
35.527682 -1.861600 -29.772840 46.390772 -0.052351 2.267618 0.043991 -0.021363 77769.300000 0 0 1
36.255882 -1.818400 -28.571520 46.196616 -0.050113 2.237599 0.049184 -0.022498 -321227.000000 0 0 1
35.365982 -1.738400 -27.306370 44.714791 -0.049115 2.227714 0.059035 -0.025574 422214.000000 0 0 1
34.684682 -0.455000 -27.189720 44.073973 -0.013117 2.235608 0.050321 -0.023441 348484.000000 0 0 1
33.667282 -0.418500 -26.237430 42.685639 -0.012430 2.232759 0.052606 -0.017165 -172116.000000 0 0 1
32.903482 0.922600 -26.155470 42.042822 0.028032 2.242238 0.038548 -0.005311 -67008.900000 0 0 1
32.085582 1.224500 -27.268400 42.125403 0.038145 2.274853 0.051673 -0.013002 417591.000000 0 0 1
31.471882 2.512000 -27.052470 41.576744 0.079648 2.279254 0.055220 -0.007186 507936.000000 0 0 1
30.610582 3.172800 -28.180790 41.728064 0.103282 2.312227 0.080231 -0.010765 576739.000000 0 0 1
29.568182 4.048700 -27.729840 40.738353 0.136081 2.319489 0.064868 -0.010451 585607.000000 0 0 1
28.836682 4.381100 -28.914980 41.070967 0.150775 2.351845 0.051874 -0.016667 -127706.000000 0 0 1
27.677382 5.356500 -28.606410 40.162872 0.191170 2.363509 0.050037 -0.013555 -51813.100000 0 0 1
26.604482 4.724800 -27.920290 38.854405 0.175762 2.372565 0.070624 -0.010780 220317.000000 0 0 1
25.680882 5.660900 -27.451530 38.014997 0.216963 2.377664 0.081838 -0.015533 -714384.000000 0 0 1
24.277082 5.200600 -27.092280 36.747988 0.211029 2.399780 0.092108 -0.004843 -247029.000000 0 0 1
23.493882 4.851100 -28.245850 37.058382 0.203622 2.437499 0.108432 -0.014398 647876.000000 0 0 1
22.191882 4.390100 -27.890380 35.911362 0.195303 2.460119 0.095144 -0.014126 359575.000000 0 0 1
21.415982 4.041000 -29.210120 36.444548 0.186498 2.500587 0.084415 -0.015171 -92185.900000 0 0 1
21.833782 2.915500 -29.971390 37.195408 0.132746 2.507791 0.078247 -0.022605 393639.000000 0 0 1
21.034082 2.733000 -31.166720 37.699686 0.129208 2.544032 0.062610 -0.026451 281193.000000 0 0 1
21.496882 3.525600 -32.428120 39.065698 0.162558 2.550069 0.063885 -0.018982 199435.000000 0 0 1
22.789582 3.143200 -32.889520 40.136832 0.137058 2.531221 0.072543 -0.022966 305276.000000 0 0 1
23.187082 3.906800 33.885621 41.244869 0.166923 0.606634 0.057737 -0.026979 -419260.000000 0 0 1
24.650282 3.562100 33.613131 41.835004 0.143512 0.637697 0.092885 -0.019250 -398318.000000 0 0 1
24.759082 2.303000 33.072644 41.377720 0.092749 0.644690 0.115524 -0.026631 -14170.900000 0 0 1
26.122682 1.990000 32.887403 42.046830 0.076032 0.672669 0.116806 -0.027600 -301159.000000 0 0 1
26.256582 0.442900 32.720812 41.955403 0.016867 0.676298 0.091677 -0.024451 -598378.000000 0 0 1
25.838682 -0.169100 31.493537 40.737071 -0.006544 0.687094 0.087125 -0.022886 1113250.000000 0 0 1
24.421982 -0.314900 31.267017 39.675669 -0.012893 0.663137 0.102005 -0.040254 1172320.000000 0 0 1
23.621082 -1.306100 32.194534 39.951839 -0.055238 0.633714 0.102331 -0.050269 -272370.000000 0 0 1
23.724482 -2.640300 31.690827 39.675317 -0.110834 0.645575 0.102777 -0.054406 -106696.000000 0 0 1
22.918082 -3.547900 32.380358 39.828554 -0.153589 0.621521 0.124836 -0.050670 -459336.000000 0 0 1
22.866482 -4.998300 31.837607 39.515721 -0.215201 0.633949 0.118735 -0.054480 -308665.000000 0 0 1
24.008082 -5.734200 32.183513 40.559186 -0.234452 0.654266 0.112727 -0.042449 -264867.000000 0 0 1
23.827782 -7.124600 31.993926 40.523258 -0.290543 0.660770 0.119806 -0.049204 -136574.000000 0 0 1
25.140682 -7.940500 31.935767 41.412542 -0.305927 0.690132 0.102588 -0.036882 572320.000000 0 0 1
25.881782 -7.550800 30.733067 40.882791 -0.283863 0.720106 0.110984 -0.043395 430201.000000 0 0 1
27.033982 -8.347900 30.486447 41.592633 -0.299504 0.748108 0.103839 -0.040194 217823.000000 0 0 1
27.416082 -8.168600 28.948697 40.698829 -0.289574 0.779464 0.102818 -0.033717 448374.000000 0 0 1
26.463782 -8.599900 27.952867 39.441765 -0.314204 0.783125 0.084379 -0.032192 204263.000000 0 0 1
26.880182 -7.974800 26.728837 38.737222 -0.288408 0.809302 0.098257 -0.034026 398885.000000 0 0 1
26.162782 -8.693600 25.557057 37.592992 -0.320810 0.823258 0.082907 -0.032554 923809.000000 0 0 1
24.747582 -8.484200 25.448937 36.497573 -0.330273 0.799204 0.092547 -0.035407 302063.000000 0 0 1
24.265982 -9.443300 24.548817 35.786285 -0.371125 0.814841 0.116527 -0.040637 572673.000000 0 0 1
22.828282 -9.007700 24.106207 34.400267 -0.375830 0.794339 0.097834 -0.027771 595443.000000 0 0 1
21.794982 -9.190400 25.058657 34.458976 -0.399051 0.756559 0.083463 -0.022015 182304.000000 0 0 1
20.605182 -8.546100 24.588667 33.199577 -0.393161 0.736786 0.080508 -0.017192 253338.000000 0 0 1
19.515882 -8.465100 25.652417 33.325277 -0.409262 0.692333 0.078129 -0.022822 -736708.000000 0 0 1
18.832382 -9.658200 25.995317 33.521575 -0.473875 0.683321 0.089478 -0.020376 3780.060000 0 0 1
19.562282 -10.720900 26.655067 34.757923 -0.501337 0.696835 0.087614 -0.025960 -196180.000000 0 0 1
18.790882 -11.764500 27.547717 35.360676 -0.559372 0.677648 0.079651 -0.021013 25314.300000 0 0 1
17.964782 -12.582100 26.740507 34.584641 -0.610978 0.686940 0.088253 -0.014655 339822.000000 0 0 1
17.134582 -13.497400 27.448747 35.060055 -0.667213 0.671472 0.093663 -0.011595 295372.000000 0 0 1
17.911082 -14.650500 28.164687 36.451250 -0.685595 0.687764 0.091228 -0.004249 -439757.000000 0 0 1
17.026082 -15.402700 28.913207 36.920241 -0.735380 0.671119 0.072560 -0.000736 -133198.000000 0 0 1
17.620182 -16.528400 29.582167 38.193762 -0.753438 0.684827 0.088701 -0.008293 -31293.500000 0 0 1
17.933982 -17.816400 28.694317 38.241544 -0.782109 0.722214 0.091663 -0.004911 127838.000000 0 0 1
18.972782 -17.546900 27.764067 37.930246 -0.746374 0.749577 0.080217 -0.004314 418565.000000 0 0 1
19.407282 -18.695100 27.065107 38.192531 -0.766709 0.783214 0.069818 0.002022 -16422.700000 0 0 1
20.500082 -18.341100 26.016137 37.861441 -0.729870 0.813250 0.075064 -0.012085 -5781.380000 0 0 1
21.752582 -18.136900 26.642247 38.883561 -0.695003 0.815945 0.080450 -0.018212 44555.200000 0 0 1
22.651782 -17.678400 25.621747 38.498091 -0.662701 0.842589 0.079537 -0.013348 972172.000000 0 0 1
24.140982 -17.556800 26.105807 39.655282 -0.628789 0.852214 0.078023 -0.012474 446181.000000 0 0 1
24.841482 -18.749700 26.251297 40.715858 -0.646549 0.870108 0.074591 -0.016629 -1008290.000000 0 0 1
26.183482 -18.432800 26.396107 41.498160 -0.613396 0.881390 0.077171 -0.015428 -911328.000000 0 0 1
27.015082 -19.737900 26.601817 42.744076 -0.630986 0.899054 0.071750 -0.016084 -97726.000000 0 0 1
26.829782 -20.337700 27.841597 43.687685 -0.648619 0.879824 0.075490 -0.010679 91168.200000 0 0 1
27.593882 -21.540100 27.867197 44.743479 -0.662806 0.898452 0.081299 -0.021446 267339.000000 0 0 1
26.949182 -22.580700 28.795707 45.446003 -0.697427 0.884567 0.068827 -0.017851 17408.100000 0 0 1
26.832782 -22.234700 30.165977 46.090848 -0.691962 0.857289 0.054201 -0.016508 -112382.000000 0 0 1
26.222782 -23.287500 30.862647 46.716645 -0.726181 0.849132 0.049418 -0.010398 -527312.000000 0 0 1
25.885982 -23.068000 32.347543 47.419197 -0.727898 0.820082 0.032724 -0.010002 -38864.800000 0 0 1
25.520682 -24.243600 33.020846 48.264207 -0.759741 0.817333 0.031007 -0.011295 -14567.200000 0 0 1
25.439382 -24.104500 -33.514410 48.491285 -0.758461 2.333866 0.027829 -0.008991 -283924.000000 0 0 1
25.124782 -25.548640 -32.867250 48.623490 -0.793762 2.313055 0.029159 -0.008054 223131.000000 0 0 1
23.849282 -26.107150 -33.038590 48.393388 -0.830564 2.322260 0.049512 -0.016117 -219168.000000 0 0 1
23.345182 -26.416100 33.535602 48.656392 -0.847033 0.810366 0.045481 -0.018183 -46588.100000 0 0 1
22.083182 -27.273050 33.442772 48.475821 -0.890164 0.809465 0.074835 -0.025533 -41216.700000 0 0 1
22.282182 -28.585370 33.850192 49.592888 -0.908683 0.819535 0.082355 -0.034823 445667.000000 0 0 1
21.033982 -29.280170 33.818943 49.431545 -0.947848 0.817349 0.110895 -0.040716 183890.000000 0 0 1
21.139482 -30.803610 33.887073 50.438813 -0.969347 0.834099 0.091925 -0.040452 -62658.600000 0 0 1
21.727582 -31.417990 -32.904650 50.417199 -0.965754 2.281870 0.079833 -0.047921 -715583.000000 0 0 1
23.087482 -31.594990 -33.077510 51.238627 -0.939741 2.272550 0.060091 -0.033594 -1241070.000000 0 0 1
23.726582 -32.518500 -31.965130 51.402073 -0.940458 2.241918 0.050596 -0.036848 -738218.000000 0 0 1
25.037582 -32.831390 -32.345470 52.450073 -0.919273 2.235328 0.050111 -0.024180 -331432.000000 0 0 1
25.854182 -33.491980 -31.413630 52.696941 -0.913394 2.209455 0.048008 -0.009919 165741.000000 0 0 1
26.294082 -32.691800 -30.169810 51.675429 -0.893438 2.194238 0.042913 -0.024432 -600533.000000 0 0 1
26.923982 -33.370840 -29.086210 51.812367 -0.891916 2.166844 0.058738 -0.009781 -103924.000000 0 0 1
27.251582 -32.499740 -28.083860 50.868311 -0.873007 2.155665 0.052806 -0.012230 -952808.000000 0 0 1
27.504982 -33.292800 -26.759680 50.803691 -0.880310 2.125542 0.064203 -0.018068 721462.000000 0 0 1
28.828082 -33.856620 -26.750810 51.893495 -0.865446 2.112381 0.064668 -0.003682 344830.000000 0 0 1
29.724582 -32.916220 -26.238800 51.531572 -0.836306 2.105027 0.067459 -0.020836 -822365.000000 0 0 1
-27.706898 -30.862355 9.549720 42.560008 0.839222 1.344487 0.047132 -0.006806 -126920.000000 0 0 1
-27.356828 -32.101555 10.219620 43.397540 0.865029 1.333075 0.056821 -0.011174 209706.000000 0 0 1
-26.006968 -32.091355 10.660920 42.659965 0.889743 1.318215 0.038314 -0.006664 253980.000000 0 0 1
-25.701848 -33.046055 11.860420 43.512025 0.909765 1.294725 0.038353 -0.010416 38822.700000 0 0 1
-25.737098 33.640200 11.511620 43.892809 -0.917720 1.305426 0.052549 0.004258 -66176.500000 0 0 1
-27.058458 33.179500 11.290120 44.277604 -0.886665 1.312964 0.042753 -0.021343 90357.200000 0 0 1
-26.984568 31.634500 11.134020 43.045033 -0.864557 1.309162 0.057806 -0.014674 42097.300000 0 0 1
-26.671688 31.294600 9.806920 42.271818 -0.864981 1.336667 0.096778 -0.027001 -66885.900000 0 0 1
-26.722058 29.858700 9.585220 41.200568 -0.840778 1.335997 0.117437 -0.023773 -12313.000000 0 0 1
-26.103748 29.573100 8.169420 40.282916 -0.847630 1.366579 0.093711 -0.012556 210407.000000 0 0 1
-24.689418 29.534300 8.240120 39.366760 -0.874511 1.359920 0.068274 -0.007294 182834.000000 0 0 1
-24.101818 29.292600 6.989820 38.572161 -0.882309 1.388575 0.045453 -0.002242 517541.000000 0 0 1
-22.887218 28.280500 7.043020 37.056923 -0.890414 1.379574 0.080540 -0.004835 402617.000000 0 0 1
-23.134218 26.859800 7.216120 36.176143 -0.859781 1.369977 0.077792 -0.013667 -582.962000 0 0 1
-23.770118 26.231700 6.144220 35.928708 -0.834588 1.398940 0.064149 -0.013268 -552437.000000 0 0 1
-24.096318 24.721800 6.454520 35.120660 -0.798210 1.385964 0.088696 -0.010175 -1067620.000000 0 0 1
-25.172188 24.598400 7.330920 35.950838 -0.773870 1.365441 0.109842 -0.023372 -146099.000000 0 0 1
-25.540288 23.262700 7.602320 35.373080 -0.738763 1.354188 0.110903 -0.031783 -104591.000000 0 0 1
-26.072438 22.407800 6.454920 34.979244 -0.709951 1.385197 0.096257 -0.035287 -1549950.000000 0 0 1
-27.372588 22.747200 6.110620 36.111402 -0.693372 1.400762 0.105739 -0.041013 -564557.000000 0 0 1
-27.870718 22.139000 4.935720 35.934295 -0.671284 1.433007 0.094882 -0.037666 -58578.200000 0 0 1
-27.562998 22.977100 3.705020 36.074827 -0.694908 1.467911 0.077160 -0.046599 747703.000000 0 0 1
-26.163368 23.305000 3.529120 35.215047 -0.727681 1.470412 0.080739 -0.044784 1238690.000000 0 0 1
-25.860448 24.052000 2.347620 35.394531 -0.749182 1.504420 0.060678 -0.044579 -434177.000000 0 0 1
-24.434218 24.582900 2.357320 34.740566 -0.788431 1.502889 0.060044 -0.035588 -365303.000000 0 0 1
-24.095218 25.378100 1.194120 35.015046 -0.811323 1.536687 0.034790 -0.036854 200223.000000 0 0 1
-22.743618 25.823000 1.376720 34.438276 -0.848719 1.530809 0.042727 -0.028897 168799.000000 0 0 1
-22.157418 26.543100 0.124220 34.576043 -0.875210 1.567204 0.048348 -0.026012 123617.000000 0 0 1
-21.643118 25.728300 -0.923180 33.633648 -0.871423 1.598248 0.050378 -0.027116 132323.000000 0 0 1
-20.518418 24.922500 -0.656980 32.288823 -0.882015 1.591145 0.050246 -0.032369 -530583.000000 0 0 1
-20.213218 23.960100 -1.816880 31.400026 -0.870018 1.628691 0.059915 -0.039340 1392.190000 0 0 1
-21.194418 22.952500 -2.030880 31.307269 -0.825201 1.635711 0.060354 -0.039382 434625.000000 0 0 1
-20.700418 21.895300 -2.842180 30.265318 -0.813442 1.664844 0.065147 -0.036132 -75178.100000 0 0 1
-21.912718 21.342600 -3.601580 30.800084 -0.772219 1.687999 0.062019 -0.030390 -2632.770000 0 0 1
-22.360818 22.244400 -4.585880 31.872399 -0.782788 1.715180 0.051071 -0.022148 -44972.100000 0 0 1
-23.611718 21.838900 -5.086080 32.562540 -0.746413 1.727633 0.044375 -0.015085 -123030.000000 0 0 1
-24.116418 22.398300 -6.421180 33.533819 -0.748478 1.763470 0.054191 -0.002309 -291875.000000 0 0 1
-23.300918 22.128100 -7.546180 33.008036 -0.759587 1.801453 0.061890 -0.017083 78979.000000 0 0 1
-23.657218 22.928700 -8.635880 34.058298 -0.769761 1.827157 0.066805 -0.017441 -255674.000000 0 0 1
-22.839518 22.607600 -9.919780 33.632562 -0.780295 1.870195 0.072734 -0.020310 191043.000000 0 0 1
-23.235218 21.355600 -10.518680 33.265292 -0.743271 1.892524 0.053946 -0.020594 485283.000000 0 0 1
-22.439618 21.068200 -11.687380 32.924161 -0.753887 1.933688 0.054335 -0.019150 479431.000000 0 0 1
-23.241018 20.901000 -13.044380 33.869641 -0.732437 1.966150 0.052798 -0.019340 499870.000000 0 0 1
-24.073418 19.736000 -13.038080 33.749529 -0.686713 1.967434 0.057225 -0.014507 622304.000000 0 0 1
-25.201998 19.897000 -13.896880 34.987921 -0.668306 1.979250 0.062126 -0.020847 856604.000000 0 0 1
-26.138148 18.616100 -14.027280 35.021801 -0.618880 1.982891 0.090364 -0.031596 162659.000000 0 0 1
-25.655478 17.593200 -14.916380 34.499604 -0.601097 2.017909 0.081663 -0.031192 -361988.000000 0 0 1
-26.433658 16.458000 -15.060380 34.589292 -0.556883 2.021285 0.086495 -0.034181 -517042.000000 0 0 1
-26.164378 15.694200 -16.374980 34.626905 -0.540295 2.063373 0.096249 -0.028714 530948.000000 0 0 1
-24.879318 15.078100 -16.427780 33.409603 -0.544856 2.084847 0.105109 -0.028879 363179.000000 0 0 1
-24.617218 14.532200 -17.696180 33.620635 -0.533276 2.125097 0.101774 -0.033880 -76662.800000 0 0 1
-23.944218 13.161700 -17.662480 32.534891 -0.502599 2.144657 0.102987 -0.028187 -130919.000000 0 0 1
-22.692818 13.179100 -17.012980 31.274497 -0.526153 2.145980 0.117733 -0.037725 281095.000000 0 0 1
-21.963718 11.948200 -17.268680 30.387032 -0.498223 2.175224 0.121628 -0.024632 1264120.000000 0 0 1
-20.565818 11.850800 -16.538880 28.929724 -0.522764 2.179362 0.117419 -0.031244 591474.000000 0 0 1
-19.607118 12.789200 -16.888380 28.865552 -0.577972 2.195763 0.111588 -0.028982 -311136.000000 0 0 1
-18.535418 12.797500 -15.984980 27.619872 -0.604278 2.187990 0.105063 -0.017165 -121566.000000 0 0 1
-17.665918 14.069800 -15.999680 27.677314 -0.672565 2.187169 0.108029 -0.023240 -347626.000000 0 0 1
-16.900918 14.231700 -17.151780 27.970804 -0.699870 2.230905 0.111443 -0.026331 138659.000000 0 0 1
-16.096118 15.398400 -17.122780 28.096002 -0.763248 2.226148 0.108582 -0.016647 -294626.000000 0 0 1
-15.116218 15.503600 -18.283580 28.339918 -0.798049 2.272020 0.122548 -0.022208 67035.700000 0 0 1
-14.141118 14.462900 -18.325780 27.294339 -0.796647 2.306910 0.114266 -0.021105 -527576.000000 0 0 1
-13.272918 14.665300 -19.371380 27.685588 -0.835195 2.345762 0.126561 -0.027858 -1382710.000000 0 0 1
-12.230018 13.613000 -19.518680 26.755672 -0.838862 2.388410 0.112492 -0.028163 -921371.000000 0 0 1
-12.656518 12.326600 -19.875280 26.592467 -0.772193 2.414940 0.123809 -0.029301 -97247.800000 0 0 1
-11.580818 11.393700 -19.851880 25.652074 -0.777254 2.455757 0.104070 -0.014431 106244.000000 0 0 1
-11.945218 10.087600 -20.603980 25.864491 -0.701286 2.492467 0.113040 -0.027400 -223792.000000 0 0 1
-11.802218 10.144700 -21.997380 26.946095 -0.710017 2.525855 0.111250 -0.038809 -220916.000000 0 0 1
-11.989918 8.890200 -22.606980 27.090023 -0.638021 2.558045 0.106322 -0.019196 -60310.700000 0 0 1
-11.739518 8.766700 -24.125680 28.226225 -0.641430 2.595819 0.093047 -0.026341 375661.000000 0 0 1
-10.376618 8.852100 -24.549780 28.084259 -0.706280 2.634474 0.088008 -0.025063 147595.000000 0 0 1
-10.036218 8.277300 -25.774640 28.871638 -0.689647 2.674169 0.061341 -0.036618 -119417.000000 0 0 1
-9.734218 9.168800 -26.957580 30.092076 -0.755496 2.681106 0.091113 -0.040720 6116.990000 0 0 1
-8.463818 9.790500 -27.064670 29.999775 -0.857948 2.695553 0.080359 -0.041355 183662.000000 0 0 1
-8.187918 10.978800 -26.295920 29.648802 -0.929993 2.661416 0.063708 -0.032614 338849.000000 0 0 1
-6.707018 11.454100 -26.407850 29.555965 -1.041065 2.675846 0.063939 -0.033760 350167.000000 0 0 1
-6.425818 11.941300 -27.704210 30.844919 -1.077122 2.686402 0.071200 -0.043009 699475.000000 0 0 1
-5.073818 12.392300 -27.835890 30.889311 -1.182184 2.693210 0.080099 -0.033224 431636.000000 0 0 1
-4.684518 12.722000 -29.285410 32.271183 -1.217981 2.708039 0.073056 -0.028343 99628.900000 0 0 1
-3.275718 12.805600 -29.409050 32.242921 -1.320363 2.719195 0.095793 -0.039525 172508.000000 0 0 1
-2.833318 12.624100 -30.743470 33.355008 -1.350018 2.743249 0.097246 -0.036489 -207793.000000 0 0 1
-1.305818 12.497800 -30.828900 33.291459 -1.466690 2.754553 0.131997 -0.055001 -584213.000000 0 0 1
-0.793118 11.408700 -30.048010 32.150745 -1.501389 2.777923 0.116431 -0.034043 334618.000000 0 0 1
0.552482 11.011900 -30.251590 32.198228 1.520667 2.792087 0.135343 -0.045266 366859.000000 0 0 1
1.147882 10.663400 -31.626110 33.395158 1.463562 2.814644 0.145984 -0.044133 -577343.000000 0 0 1
1.403082 11.781800 -32.418630 34.521689 1.452266 2.790740 0.151828 -0.050707 113328.000000 0 0 1
1.353182 11.454900 -33.780680 35.695661 1.453210 2.812551 0.167888 -0.047193 -53587.000000 0 0 1
1.934082 12.521800 33.173315 35.510632 1.417550 0.364843 0.158176 -0.053377 27208.600000 0 0 1
3.350482 12.481500 33.038356 35.476000 1.308543 0.372865 0.164949 -0.054814 251877.000000 0 0 1
3.859282 13.269400 32.000381 34.856785 1.287764 0.407655 0.152863 -0.044953 2112980.000000 0 0 1
5.458282 13.119300 31.835697 34.862881 1.176531 0.419804 0.145258 -0.042776 2058050.000000 0 0 1
5.870382 11.869400 31.276697 33.964332 1.111493 0.400493 0.165294 -0.049002 -306159.000000 0 0 1
7.255182 11.698000 31.388177 34.273876 1.015651 0.413289 0.151038 -0.029991 -239403.000000 0 0 1
7.867582 10.533700 30.583187 33.289473 0.929285 0.406009 0.120912 -0.018926 -101028.000000 0 0 1
7.870782 10.725500 29.175487 32.065474 0.937719 0.427820 0.123527 -0.027052 147670.000000 0 0 1
8.663382 9.721600 28.567957 31.395730 0.842894 0.427678 0.100941 -0.023142 372215.000000 0 0 1
7.791382 8.797400 27.667447 30.059733 0.845968 0.401654 0.085911 -0.015609 120175.000000 0 0 1
7.111782 7.804100 28.392967 30.292607 0.831780 0.356023 0.100734 -0.022939 -84539.200000 0 0 1
6.413282 6.981000 27.445547 29.036574 0.827758 0.332571 0.098938 -0.022654 -85008.400000 0 0 1
5.613982 5.828900 28.094067 29.236441 0.804178 0.280467 0.116558 -0.034001 375017.000000 0 0 1
6.394482 4.761500 28.598567 29.689044 0.640053 0.271871 0.090362 -0.031460 442923.000000 0 0 1
5.482582 4.013400 29.384457 30.159782 0.631899 0.227236 0.091053 -0.036355 76323.100000 0 0 1
6.028882 2.665500 29.947577 30.664470 0.416283 0.216658 0.097177 -0.026985 24399.900000 0 0 1
6.187182 1.595200 28.991767 29.687514 0.252328 0.216923 0.091076 -0.023198 580357.000000 0 0 1
7.522482 1.492500 28.482617 29.497030 0.195862 0.263018 0.083591 -0.019238 400952.000000 0 0 1
7.797982 0.119600 27.760377 28.835072 0.015336 0.273877 0.074683 -0.017502 -192525.000000 0 0 1
7.995982 -1.009300 28.549327 29.665106 -0.125562 0.275139 0.053341 -0.022205 57585.800000 0 0 1
8.166982 -2.261500 27.918367 29.176175 -0.270139 0.294700 0.065948 -0.019859 -421193.000000 0 0 1
8.639782 -3.370200 28.898277 30.349868 -0.371925 0.310531 0.062774 -0.012041 1211340.000000 0 0 1
9.995982 -3.176800 29.376847 31.193122 -0.307713 0.342931 0.059825 -0.020852 692346.000000 0 0 1
10.895182 -3.917000 28.600627 30.855206 -0.345128 0.384649 0.060435 -0.012008 -946823.000000 0 0 1
12.360782 -3.805000 29.058347 31.806517 -0.298623 0.418752 0.045133 -0.018421 -42395.100000 0 0 1
13.200082 -4.806100 28.552217 31.820903 -0.349177 0.457230 0.052270 -0.022072 -122218.000000 0 0 1
13.228482 -5.960700 29.389637 32.776111 -0.423349 0.458588 0.071534 -0.023694 -502231.000000 0 0 1
12.366482 -7.132900 28.880397 32.216230 -0.523181 0.459093 0.075112 -0.019271 -682298.000000 0 0 1
11.004682 -6.865000 28.907367 31.683862 -0.557754 0.421763 0.070335 -0.017574 -871467.000000 0 0 1
10.250582 -8.022700 28.575877 31.400938 -0.664077 0.427434 0.072953 -0.016459 -154860.000000 0 0 1
8.775882 -7.743700 28.292767 30.617996 -0.722997 0.392236 0.087124 -0.021439 345263.000000 0 0 1
8.009082 -7.397600 29.491067 31.441898 -0.745730 0.354113 0.104259 -0.023024 683274.000000 0 0 1
6.603982 -7.356800 29.320557 30.942369 -0.839270 0.325202 0.098078 -0.022969 360730.000000 0 0 1
5.762282 -6.879500 30.502007 31.794715 -0.873544 0.286134 0.096558 -0.023198 -11745.300000 0 0 1
5.926682 -7.738500 31.584087 33.053964 -0.917216 0.299341 0.099495 -0.022918 -7164.820000 0 0 1
5.454482 -7.142100 32.806656 34.015256 -0.918579 0.267371 0.097858 -0.019348 -27289.000000 0 0 1
6.112982 -5.869000 33.438079 34.495201 -0.765039 0.248207 0.098870 -0.023462 21399.300000 0 0 1
5.959982 -4.696400 32.585077 33.456910 -0.667374 0.228790 0.104695 -0.017638 -60654.900000 0 0 1
6.529482 -3.515800 33.181442 34.000046 -0.493933 0.219881 0.088254 -0.014257 211231.000000 0 0 1
6.561482 -2.341700 32.232639 32.976956 -0.342796 0.212867 0.081214 -0.012275 -1141150.000000 0 0 1
5.295982 -1.965300 31.898217 32.394538 -0.355341 0.175274 0.093053 -0.016777 -1292620.000000 0 0 1
5.380082 -0.833500 31.046417 31.520153 -0.153701 0.173594 0.079219 -0.021666 -526121.000000 0 0 1
3.974982 -0.316400 30.853167 31.109782 -0.079430 0.128530 0.092282 -0.023703 -495372.000000 0 0 1
3.267582 0.079100 32.037348 32.203650 0.024203 0.101671 0.091379 -0.029247 147374.000000 0 0 1
1.990382 0.592900 31.671167 31.739187 0.289513 0.065480 0.096130 -0.025579 42757.100000 0 0 1
1.143582 0.909000 32.877684 32.910123 0.671606 0.044403 0.086923 -0.028541 -374977.000000 0 0 1
1.533282 2.123400 33.523950 33.626106 0.945399 0.077968 0.083134 -0.022113 -110742.000000 0 0 1
0.735982 2.511100 -33.298320 33.400979 1.285690 3.063169 0.069628 -0.023818 -169389.000000 0 0 1
1.435582 3.515900 -32.413520 32.635238 1.183146 3.024961 0.072820 -0.021219 -242605.000000 0 0 1
2.385882 3.063900 -31.485800 31.724368 0.909174 3.018878 0.059409 -0.003929 -338299.000000 0 0 1
3.084882 4.189000 -30.989790 31.423420 0.936040 2.975271 0.060456 -0.008352 174179.000000 0 0 1
4.347782 3.734300 -30.195470 30.734584 0.709637 2.954016 0.069642 -0.010440 27705.600000 0 0 1
3.989182 2.962900 -29.110470 29.531540 0.638834 2.972523 0.062350 -0.007475 467829.000000 0 0 1
4.956782 3.079200 -28.070860 28.670967 0.555869 2.936633 0.057603 -0.010994 17300.100000 0 0 1
4.485482 2.362900 -26.813900 27.288974 0.484848 2.954725 0.053310 -0.008805 -67986.600000 0 0 1
4.549082 0.896600 -26.831070 27.228742 0.194600 2.970476 0.053432 -0.011942 288191.000000 0 0 1
3.907982 0.437700 -25.665760 25.965268 0.111537 2.989559 0.070062 -0.012492 -359979.000000 0 0 1
4.152882 -1.031600 -25.402710 25.760596 -0.243478 2.974709 0.064879 -0.020749 -462072.000000 0 0 1
5.448082 -1.329600 -24.969080 25.591100 -0.239370 2.920662 0.060196 -0.023069 -413397.000000 0 0 1
5.611682 -2.715800 -24.842280 25.612603 -0.450729 2.895715 0.073201 -0.027356 -220854.000000 0 0 1
7.023082 -3.181000 -24.439880 25.627138 -0.425292 2.836010 0.074659 -0.035092 332943.000000 0 0 1
8.009082 -3.117800 -25.474540 26.885280 -0.371234 2.816207 0.073275 -0.029766 379137.000000 0 0 1
9.249582 -3.548600 -24.891480 26.790542 -0.366332 2.762807 0.068319 -0.027648 648611.000000 0 0 1
-30.216728 -3.269800 18.016767 35.331943 0.107792 1.035695 0.131502 -0.033862 265886.000000 0 0 1
-31.593178 -3.498400 18.251267 36.653465 0.110283 1.049573 0.094574 -0.002517 -183332.000000 0 0 1
-31.792718 -4.753800 18.818367 37.249248 0.148425 1.041181 0.092538 -0.015673 -829376.000000 0 0 1
-33.220758 -4.960900 19.259167 38.718792 0.148236 1.050184 0.078873 -0.013430 -470116.000000 0 0 1
-34.106014 -4.944900 18.128767 38.940011 0.143983 1.086533 0.065585 -0.014216 87732.800000 0 0 1
-35.463752 -4.952000 18.505267 40.306885 0.138738 1.093804 0.075322 -0.010576 -303228.000000 0 0 1
-36.363748 -4.697400 17.299467 40.542069 0.128467 1.129951 0.049990 -0.011207 100234.000000 0 0 1
36.364540 -4.802000 17.597567 40.683084 -0.131292 1.123474 0.082774 -0.013938 -198393.000000 0 0 1
35.556120 -4.797300 16.469667 39.477864 -0.134112 1.140448 0.058986 -0.018923 509307.000000 0 0 1
34.117750 -5.301500 16.828967 38.410167 -0.154155 1.117270 0.058828 -0.017479 429966.000000 0 0 1
33.375240 -4.601500 17.779867 38.094673 -0.137008 1.085208 0.085195 -0.025714 -128561.000000 0 0 1
32.263380 -5.387900 18.134567 37.400771 -0.165470 1.064580 0.143045 -0.031891 30806.900000 0 0 1
31.395260 -4.925600 19.354167 37.208973 -0.155621 1.023772 0.145133 -0.027182 203373.000000 0 0 1
30.315400 -4.049700 19.149367 36.084925 -0.132799 1.011400 0.149559 -0.026935 198363.000000 0 0 1
30.719980 -2.720300 18.922267 36.182446 -0.088321 1.020467 0.147881 -0.037735 -222594.000000 0 0 1
29.632600 -1.694600 19.279667 35.393053 -0.057125 0.994729 0.134964 -0.019832 -165990.000000 0 0 1
30.069890 -0.387700 19.177767 35.667007 -0.012893 1.003102 0.131987 -0.025607 -49333.100000 0 0 1
29.093180 0.513700 19.689967 35.133628 0.017655 0.975890 0.113705 -0.016113 248517.000000 0 0 1
29.170040 2.065900 19.186867 34.975635 0.070705 0.990134 0.118041 -0.016248 -13905.800000 0 0 1
28.862650 2.153800 17.775567 33.965604 0.074484 1.020030 0.118005 -0.024008 97336.600000 0 0 1
28.810150 3.467500 17.385367 33.827493 0.119781 1.031023 0.107732 -0.018494 97301.000000 0 0 1
28.178650 3.586900 15.963967 32.584512 0.126611 1.058793 0.106011 -0.023645 -197563.000000 0 0 1
28.142450 4.884700 15.483467 32.489930 0.171858 1.074056 0.100981 -0.012834 244323.000000 0 0 1
27.766850 4.859100 14.118767 31.526947 0.173242 1.106457 0.087992 -0.014631 -131326.000000 0 0 1
27.376350 6.276000 13.534367 31.177425 0.225355 1.121749 0.087950 -0.000085 -51988.500000 0 0 1
26.185250 6.766700 14.107767 30.503847 0.252884 1.089993 0.082013 -0.006921 -92534.400000 0 0 1
25.677550 7.923800 13.482367 30.064887 0.299318 1.105774 0.093848 -0.023351 -358548.000000 0 0 1
24.357850 8.312100 14.191267 29.390269 0.328858 1.066883 0.091440 -0.030499 546798.000000 0 0 1
23.183050 7.533000 13.894767 28.058233 0.314174 1.052718 0.103409 -0.026507 1143630.000000 0 0 1
23.125950 6.242900 14.396267 27.947019 0.263667 1.029640 0.119669 -0.031393 -1430050.000000 0 0 1
21.854750 5.490600 14.040767 26.550328 0.246137 1.013568 0.133206 -0.028135 -718262.000000 0 0 1
21.640650 5.259200 12.640967 25.608026 0.238402 1.054534 0.147068 -0.035196 310146.000000 0 0 1
20.534650 4.428600 12.447567 24.417745 0.212411 1.035873 0.134896 -0.030878 -389329.000000 0 1 0
20.144850 4.395200 10.964367 23.352733 0.214813 1.082059 0.137716 -0.031930 322948.000000 0 1 0
21.130350 3.630800 10.283867 23.778821 0.170167 1.123555 0.154170 -0.034171 1248190.000000 0 1 0
20.595350 3.473700 8.971667 22.731605 0.167092 1.165079 0.147813 -0.029522 936328.000000 0 1 0
21.663950 2.776200 8.031867 23.271118 0.127454 1.218405 0.142137 -0.018859 -92953.900000 0 1 0
21.982450 1.490600 8.461767 23.601939 0.067705 1.204114 0.149673 -0.024033 829358.000000 0 1 0
22.896750 0.826500 7.606267 24.141242 0.036081 1.250262 0.145884 -0.008453 454193.000000 0 1 0
24.421050 1.177200 7.547967 25.587991 0.048167 1.271361 0.147262 -0.006091 435997.000000 0 0 1
25.271550 0.632700 8.556867 26.688416 0.025031 1.244411 0.128018 0.005096 499225.000000 0 0 1
25.127150 1.135500 9.882967 27.024731 0.045159 1.196411 0.125927 -0.004783 -272433.000000 0 0 1
26.041250 0.422300 10.937167 28.247950 0.016215 1.173220 0.104016 -0.008105 1059480.000000 0 0 1
27.445750 0.726300 10.906467 29.542304 0.026457 1.192668 0.116379 -0.015755 708310.000000 0 0 1
28.114950 0.068700 11.916467 30.536164 0.002444 1.169903 0.122568 -0.022234 -71463.500000 0 0 1
29.645040 0.298500 11.938667 31.960120 0.010069 1.187964 0.126669 -0.024025 281594.000000 0 0 1
30.100610 1.576100 12.390767 32.589292 0.052313 1.180773 0.120240 -0.018594 478099.000000 0 0 1
31.446880 1.509000 12.848867 34.004069 0.047949 1.183310 0.116170 -0.029310 204987.000000 0 0 1
32.043650 2.896100 13.162367 34.762492 0.090135 1.182473 0.111499 -0.030011 -121109.000000 0 0 1
32.359440 3.561900 11.980267 34.689297 0.109632 1.218175 0.104815 -0.033619 49385.600000 0 0 1
33.119220 4.724400 12.089567 35.571904 0.141692 1.224025 0.095890 -0.029330 686768.000000 0 0 1
34.609650 4.650900 11.594567 36.795282 0.133581 1.250224 0.112911 -0.031267 312941.000000 0 0 1
35.359020 3.786200 12.356867 37.646883 0.106672 1.236366 0.111226 -0.038718 -128551.000000 0 0 1
36.670790 3.688700 11.832267 38.708602 0.100252 1.260149 0.118693 -0.029681 340070.000000 0 0 1
-36.464978 2.787800 12.682967 38.708192 -0.076303 1.236975 0.133377 -0.023180 -75946.600000 0 0 1
-36.527068 1.362000 12.494867 38.629050 -0.037270 1.241415 0.133662 -0.021039 936911.000000 0 0 1
36.432740 0.656400 13.022767 38.695838 0.018015 1.227554 0.114325 -0.028859 498062.000000 0 0 1
36.289690 0.543800 14.561467 39.105929 0.014984 1.189246 0.122270 -0.022145 -510208.000000 0 0 1
-36.864498 -0.236800 15.232267 39.888210 0.006423 1.178973 0.111712 -0.020209 183863.000000 0 0 1
36.994230 -0.170200 16.621367 40.557020 -0.004601 1.148532 0.116811 -0.017361 -137786.000000 0 0 1
-36.058193 -0.969300 17.404067 40.050398 0.026875 1.121253 0.107890 -0.008132 482326.000000 0 0 1
-34.789580 -0.293600 17.505067 38.946482 0.008439 1.104630 0.115246 -0.014024 916193.000000 0 0 1
-33.807148 -1.118100 18.148867 38.386909 0.033061 1.078344 0.122221 -0.016334 213766.000000 0 0 1
-33.831808 -1.145900 19.709567 39.171053 0.033858 1.043537 0.117317 -0.021757 -886547.000000 0 0 1
-34.847597 -1.956900 20.191067 40.322000 0.056097 1.046336 0.110524 -0.026328 -324887.000000 0 0 1
-34.811964 -1.875500 21.626067 41.025323 0.053823 1.015565 0.102198 -0.031470 316737.000000 0 0 1
-35.554897 -3.098300 22.305867 42.086838 0.086922 1.012200 0.084564 -0.029036 312415.000000 0 0 1
-34.817973 -4.321800 22.368167 41.608943 0.123494 1.003231 0.090379 -0.030335 290221.000000 0 0 1
-35.404580 -5.275500 23.265967 42.692159 0.147918 0.994442 0.073753 -0.030731 -27229.400000 0 0 1
-35.233365 -4.970600 24.783467 43.362624 0.140152 0.962415 0.084980 -0.033476 484030.000000 0 0 1
-33.873518 -4.695400 25.099137 42.419674 0.137738 0.937647 0.084028 -0.034182 92626.100000 0 0 1
-33.815798 -4.546400 26.533267 43.222590 0.133645 0.909836 0.070331 -0.031410 -119913.000000 0 0 1
-32.537538 -3.843700 26.990547 42.449442 0.117586 0.881715 0.072418 -0.022462 -359549.000000 0 0 1
-32.534948 -2.402300 26.837677 42.243992 0.073704 0.882397 0.081599 -0.025260 51778.000000 0 0 1
-32.193428 -1.944000 25.552917 41.147874 0.060312 0.900776 0.097491 -0.032186 -144005.000000 0 0 1
-32.158068 -0.428000 25.461507 41.019665 0.013308 0.901142 0.100662 -0.033334 658245.000000 0 0 1
-33.492298 0.078500 25.341327 41.999084 -0.002344 0.923066 0.112496 -0.032935 609221.000000 0 0 1
-33.488078 1.444900 24.935107 41.776772 -0.043120 0.931208 0.123463 -0.028132 -457503.000000 0 0 1
-34.886457 1.939100 24.590297 42.725961 -0.055526 0.957538 0.129681 -0.023681 -436205.000000 0 0 1
-35.444149 1.293500 23.457317 42.523013 -0.036478 0.986469 0.148796 -0.019994 -90119.200000 0 0 1
-36.513018 2.018100 22.864267 43.128273 -0.055215 1.012024 0.144736 -0.009747 345056.000000 0 0 1
-36.100418 3.274400 22.048667 42.427652 -0.090455 1.024324 0.143796 -0.008800 -206621.000000 0 0 1
-35.405112 3.065600 20.842867 41.198847 -0.086371 1.040361 0.135437 -0.015253 -29307.600000 0 0 1
-36.240608 3.000600 19.688967 41.352639 -0.082608 1.074555 0.152651 -0.011827 172393.000000 0 0 1
-35.491485 2.649100 18.377967 40.055124 -0.074502 1.094133 0.162831 -0.015432 106173.000000 0 0 1
-34.648473 3.636800 17.811767 39.128022 -0.104580 1.098180 0.144190 -0.027909 203170.000000 0 0 1
-34.042778 3.075700 16.639267 38.016258 -0.090103 1.117770 0.153337 -0.012617 -250034.000000 0 0 1
-33.232048 4.139800 15.924967 37.082497 -0.123934 1.126916 0.147963 -0.014090 -518186.000000 0 0 1
-33.955868 5.173000 15.339167 37.617163 -0.151182 1.150785 0.145669 -0.018844 -376278.000000 0 0 1
-33.132748 5.928200 14.482167 36.642267 -0.177049 1.164477 0.155604 -0.015454 -1022260.000000 0 0 1
-33.818218 7.029100 13.706167 37.160990 -0.204932 1.193044 0.154225 -0.029488 636771.000000 0 0 1
-32.821618 7.562000 12.806167 36.033878 -0.226445 1.207462 0.182739 -0.030013 1112530.000000 0 0 1
-33.410788 8.658300 12.073167 36.565124 -0.253569 1.234299 0.152630 -0.035490 398537.000000 0 0 1
-32.342998 9.445000 11.289367 35.534876 -0.284125 1.247495 0.185008 -0.039030 264982.000000 0 0 1
-32.945818 10.637900 10.860167 36.284089 -0.312323 1.266828 0.152071 -0.016155 381718.000000 0 0 1
-32.019518 11.459200 10.133267 35.485855 -0.343679 1.281208 0.162792 -0.038392 401045.000000 0 0 1
-32.297428 12.976800 10.259067 36.287321 -0.382049 1.284170 0.135970 -0.023102 -170026.000000 0 0 1
-31.357428 13.639600 9.488367 35.487408 -0.410287 1.300131 0.149099 -0.026268 -277637.000000 0 0 1
-31.606348 15.011100 9.514167 36.260361 -0.443399 1.305304 0.119052 -0.011786 174059.000000 0 0 1
-30.581138 15.794600 8.633067 35.485282 -0.476746 1.325044 0.115805 -0.008011 373373.000000 0 0 1
-29.252488 15.635500 9.084767 34.390550 -0.490866 1.303459 0.135501 -0.001552 -279925.000000 0 0 1
-28.299038 16.269700 8.276967 33.675613 -0.521775 1.322467 0.115736 -0.015261 380936.000000 0 0 1
-26.909328 16.136500 9.020867 32.647735 -0.540171 1.290845 0.124493 -0.010255 409335.000000 0 0 1
-26.619858 16.743400 10.242767 33.073745 -0.561457 1.255924 0.114213 -0.011976 97534.600000 0 0 1
-26.932858 18.135500 10.277267 34.057267 -0.592622 1.264254 0.110554 -0.020740 -255900.000000 0 0 1
-26.839398 18.814600 11.712867 34.807093 -0.611401 1.227590 0.118806 -0.006506 -49833.200000 0 0 1
-25.557928 18.871500 12.300867 34.068351 -0.636024 1.201387 0.109260 -0.003386 11482.700000 0 0 1
-25.492668 19.301300 13.637267 34.761924 -0.648050 1.167660 0.108822 -0.010177 -57245.100000 0 0 1
-25.965188 18.305700 14.666367 34.991313 -0.614080 1.138295 0.102912 -0.010812 486143.000000 0 0 1
-24.948218 17.328500 14.951467 33.856120 -0.607078 1.113395 0.101503 -0.011983 815463.000000 0 0 1
-25.448688 16.412600 15.927367 34.215350 -0.572802 1.086593 0.109323 -0.008531 -66611.300000 0 0 1
-24.364318 15.406300 16.321867 33.126688 -0.563853 1.055594 0.094856 -0.005552 -49219.900000 0 0 1
-23.450318 16.058100 17.230267 33.236458 -0.600432 1.025800 0.093065 -0.002393 459110.000000 0 0 1
-22.395818 15.150300 17.587867 32.255811 -0.594765 0.994095 0.083373 -0.010531 76286.000000 0 0 1
-22.696818 13.827500 18.390867 32.319798 -0.547176 0.965473 0.091140 -0.007624 -462695.000000 0 0 1
-23.178218 14.128900 19.713467 33.548121 -0.547431 0.942685 0.090393 -0.007984 269915.000000 0 0 1
-23.224218 13.011100 20.543367 33.625630 -0.510670 0.913544 0.087827 -0.012100 -618804.000000 0 0 1
-22.843418 13.218100 22.045167 34.387924 -0.524565 0.874901 0.086979 -0.008446 14122.400000 0 0 1
-21.513018 13.535500 22.387167 33.870415 -0.561597 0.848692 0.079015 -0.004004 -11607.100000 0 0 1
-21.091018 14.799000 21.986167 33.870828 -0.611848 0.864372 0.063359 0.004781 530986.000000 0 0 1
-19.551818 14.945000 22.365267 33.254050 -0.652640 0.833137 0.058762 -0.001339 1621240.000000 0 0 1
-18.589518 14.450200 21.439967 31.844162 -0.660764 0.832163 0.041900 -0.000424 257914.000000 0 0 1
-18.340518 15.292500 20.258967 31.315506 -0.695019 0.867244 0.050475 -0.003268 -1008120.000000 0 0 1
-17.172618 14.691100 19.410967 29.791155 -0.707676 0.861147 0.037889 0.001797 1243100.000000 0 0 1
-15.902718 14.634200 20.081567 29.501281 -0.743882 0.822076 0.031896 0.001934 809373.000000 0 0 1
-15.275618 15.798600 20.559967 30.094061 -0.802227 0.818674 0.020994 -0.005827 -799458.000000 0 0 1
-14.243218 15.581200 21.690667 30.267608 -0.830230 0.771838 0.007193 -0.001906 -704570.000000 0 0 1
-12.969518 15.236500 21.287067 29.214698 -0.865598 0.754459 0.014766 0.005881 -768779.000000 0 0 1
-12.241318 14.687800 22.385067 29.439303 -0.875998 0.706898 0.036680 0.006307 1742320.000000 0 0 1
-10.710318 14.294400 22.148667 28.453546 -0.927765 0.678659 0.021682 0.001796 554359.000000 0 0 1
-10.369918 13.163600 22.866567 28.349523 -0.903556 0.632428 0.039747 -0.003713 687876.000000 0 0 1
-9.118418 12.543800 22.549967 27.367746 -0.942227 0.602429 0.051013 0.004869 1276580.000000 0 0 1
-7.764018 13.293100 22.774067 27.488991 -1.042177 0.594409 0.047307 0.011942 -168630.000000 0 0 1
-7.357418 14.015600 21.649867 26.819497 -1.087392 0.631329 0.040075 0.005317 -1963.650000 0 0 1
-6.693618 15.249900 21.845167 27.469534 -1.157187 0.651375 0.043637 0.007699 454769.000000 0 0 1
-7.628718 16.392600 22.481067 28.849837 -1.135230 0.677337 0.046388 -0.001624 973643.000000 0 0 1
-8.653918 16.957200 21.664267 28.840552 -1.098912 0.720958 0.001700 0.003696 -6815.460000 0 0 1
-8.153618 17.693200 20.512467 28.289435 -1.138970 0.759627 0.024434 -0.003176 -1949460.000000 0 0 1
-9.306718 17.981900 19.599467 28.179831 -1.093199 0.801661 0.035480 0.001637 -426730.000000 0 0 1
-10.301118 18.855000 20.023367 29.369360 -1.070772 0.820607 0.006154 0.003880 -223817.000000 0 0 1
-11.303818 18.173800 20.786667 29.835362 -1.014369 0.799992 0.009560 0.003449 -1151660.000000 0 0 1
-12.648918 18.872800 20.835667 30.826981 -0.980338 0.828624 0.004308 -0.003475 -315842.000000 0 0 1
-13.446018 18.643800 19.643067 30.236349 -0.945980 0.863671 0.017189 -0.000026 -99063.200000 0 0 1
-14.535218 19.519500 19.700167 31.311021 -0.930727 0.890303 0.014146 -0.005274 -676368.000000 0 0 1
-15.208618 19.520600 18.358567 30.812220 -0.908926 0.932509 0.026745 -0.004056 -239220.000000 0 0 1
-15.878618 18.288700 18.058367 30.211119 -0.855819 0.930118 0.040364 -0.004363 262358.000000 0 0 1
-16.669218 18.345200 16.898667 29.999569 -0.833227 0.972426 0.047902 -0.014144 -786935.000000 0 0 1
-17.451518 17.035200 16.619967 29.512317 -0.773327 0.972599 0.044681 -0.015549 863770.000000 0 0 1
-18.559418 16.622700 17.431567 30.407659 -0.730405 0.960314 0.051390 -0.011833 284347.000000 0 0 1
-19.627918 17.525200 17.513367 31.608636 -0.728862 0.983552 0.064746 -0.014438 -900333.000000 0 0 1
35.495070 -9.569000 11.891920 38.637851 -0.263327 1.257938 0.053831 -0.013001 1081400.000000 0 0 1
34.101680 -9.882400 11.665020 37.371903 -0.282066 1.253359 0.081492 -0.013965 1229310.000000 0 0 1
33.704870 -11.125400 12.339020 37.577177 -0.318822 1.236225 0.065158 -0.014902 357089.000000 0 0 1
32.217090 -11.550600 12.180320 36.327915 -0.344248 1.228885 0.100737 -0.011752 579340.000000 0 0 1
31.325340 -10.614500 12.826520 35.474838 -0.326705 1.200849 0.109293 -0.009358 1368590.000000 0 0 1
29.952060 -11.060100 12.867420 34.424152 -0.353729 1.187704 0.110804 -0.007350 1196570.000000 0 0 1
29.489890 -11.947700 14.091720 34.799105 -0.384934 1.153878 0.110149 -0.010190 -486115.000000 0 0 1
29.245430 -11.169200 15.248720 34.821971 -0.364817 1.117529 0.125187 -0.013822 47190.900000 0 0 1
28.442050 -11.778200 16.257320 34.813455 -0.392613 1.084920 0.129067 -0.022533 509921.000000 0 0 1
26.930350 -11.471300 16.068520 33.392092 -0.402685 1.068765 0.133240 -0.026245 93330.900000 0 0 1
26.663350 -10.082800 16.294820 32.834711 -0.361531 1.051501 0.122545 -0.025869 -1075740.000000 0 0 1
25.565650 -9.662300 15.591920 31.465385 -0.361346 1.052356 0.154015 -0.027526 -680599.000000 0 0 1
25.120750 -8.241600 15.926020 30.864448 -0.317015 1.028623 0.175708 -0.032978 473794.000000 0 0 1
26.185850 -7.339200 15.605520 31.354343 -0.273262 1.049834 0.167094 -0.029885 310961.000000 0 0 1
26.170250 -6.110700 16.333120 31.448266 -0.229388 1.024689 0.161629 -0.040186 372247.000000 0 0 1
27.548150 -5.397900 16.206920 32.414536 -0.193493 1.047210 0.163240 -0.037237 458446.000000 0 0 1
27.930850 -5.000500 14.890420 32.044687 -0.177155 1.087527 0.166968 -0.041401 -98305.300000 0 0 1
29.268040 -4.583200 14.849020 33.137853 -0.155333 1.106159 0.164945 -0.037650 -208760.000000 0 0 1
29.683540 -3.785800 13.631720 32.882649 -0.126854 1.143341 0.162108 -0.039484 -41341.400000 0 0 1
29.926920 -4.577300 12.483820 32.747793 -0.151773 1.179690 0.151094 -0.045137 185107.000000 0 0 1
30.238650 -3.752000 11.341720 32.512891 -0.123449 1.214466 0.140056 -0.038248 -8990.980000 0 0 1
30.779560 -4.514100 10.130220 32.716659 -0.145621 1.255987 0.151412 -0.034758 294409.000000 0 0 1
32.076570 -5.055000 10.365220 34.086613 -0.156306 1.261819 0.123860 -0.037589 251136.000000 0 0 1
32.553070 -5.572200 9.172520 34.276623 -0.169530 1.299892 0.118961 -0.032143 -405962.000000 0 0 1
33.833960 -6.404100 9.233820 35.651266 -0.187067 1.308805 0.098625 -0.026640 494503.000000 0 0 1
35.043990 -5.630100 9.241020 36.676637 -0.159297 1.316092 0.097582 -0.025587 639704.000000 0 0 1
36.144240 -6.322800 8.668820 37.703214 -0.173180 1.338798 0.088486 -0.032384 148137.000000 0 0 1
-36.769768 -5.425500 8.375220 38.099819 0.146496 1.349163 0.086259 -0.023579 -182589.000000 0 0 1
-36.748018 -4.854000 7.110620 37.743067 0.131328 1.381268 0.095887 -0.028099 -361086.000000 0 0 1
-35.640589 -4.032300 6.907620 36.527062 0.112659 1.380541 0.104970 -0.017952 -351516.000000 0 0 1
-35.667241 -3.389400 5.503520 36.248157 0.094744 1.418378 0.117710 -0.027276 -19073.000000 0 0 1
-35.175995 -4.258300 4.481720 35.715117 0.120471 1.444979 0.113702 -0.034343 230662.000000 0 0 1
-35.160199 -3.463900 3.318820 35.485952 0.098201 1.477135 0.125678 -0.025743 -180024.000000 0 0 1
-34.456740 -4.095200 2.154220 34.766051 0.118296 1.508793 0.144080 -0.033264 -169953.000000 0 0 1
-35.160408 -5.250300 1.681620 35.589995 0.148229 1.523529 0.142112 -0.025204 781286.000000 0 0 1
-36.149998 -5.084200 0.635020 36.511296 0.139725 1.553403 0.134931 -0.024966 658230.000000 0 0 1
-35.518807 -5.240300 -0.786180 35.911899 0.146479 1.592690 0.173513 -0.032166 -822920.000000 0 0 1
-35.036637 -6.546500 -1.105480 35.660128 0.184717 1.601802 0.159252 -0.042509 479619.000000 0 0 1
-34.086728 -6.618900 -2.154580 34.790187 0.191791 1.632767 0.160547 -0.042588 -532077.000000 0 0 1
-32.724478 -6.035000 -1.793680 33.324616 0.182369 1.624647 0.150656 -0.044900 -1417570.000000 0 0 1
-32.060658 -6.910700 -0.895980 32.809242 0.212303 1.598109 0.141925 -0.041109 -197257.000000 0 0 1
-30.843348 -6.387300 -0.416580 31.500528 0.204202 1.584021 0.147381 -0.046273 -469853.000000 0 0 1
-30.337948 -7.428200 0.559020 31.239106 0.240124 1.552901 0.138590 -0.036610 -596573.000000 0 0 1
-29.690828 -8.494000 -0.028380 30.881939 0.278639 1.571715 0.148687 -0.032102 136910.000000 0 0 1
-29.272388 -9.521200 0.812520 30.792632 0.314469 1.544406 0.144031 -0.029962 -108281.000000 0 0 1
-29.078618 -10.790300 -0.030780 31.016086 0.355324 1.571789 0.134312 -0.028795 199479.000000 0 0 1
-28.026458 -10.595800 -1.000280 29.979225 0.361454 1.604168 0.147652 -0.031489 788657.000000 0 0 1
-27.414338 -11.804900 -1.473280 29.884313 0.406613 1.620116 0.135448 -0.017271 95777.400000 0 0 1
-28.293548 -12.813900 -2.277480 31.143343 0.425256 1.643991 0.142389 -0.024707 -80878.400000 0 0 1
-29.101028 -13.650400 -1.453780 32.176338 0.438598 1.615993 0.151570 -0.032621 356791.000000 0 0 1
-29.840828 -14.533200 -2.272980 33.269436 0.453213 1.639170 0.130764 -0.034463 -29182.100000 0 0 1
-30.959288 -15.367300 -1.577780 34.599434 0.460740 1.616413 0.110844 -0.027760 196948.000000 0 0 1
-30.387808 -16.430900 -0.798580 34.554755 0.495680 1.593909 0.079769 -0.019956 433072.000000 0 0 1
-31.259318 -17.051200 0.144320 35.607713 0.499363 1.566743 0.089408 -0.007706 -73648.900000 0 0 1
-31.484418 -18.542400 -0.121180 36.539073 0.532247 1.574113 0.093490 -0.009185 -504012.000000 0 0 1
-30.350858 -19.351200 0.035220 35.995066 0.567597 1.569818 0.099663 -0.016246 -93218.500000 0 0 1
-30.615618 -20.750700 -0.068480 36.985299 0.595658 1.572648 0.099715 -0.020954 442879.000000 0 0 1
-31.506778 -21.472600 1.008020 38.141391 0.598217 1.544365 0.104991 -0.022898 600625.000000 0 0 1
-30.718878 -21.518000 2.229920 37.571883 0.611049 1.511411 0.109101 -0.022643 826453.000000 0 0 1
-31.498208 -22.063800 3.287620 38.597368 0.611047 1.485516 0.103276 -0.021487 22534.200000 0 0 1
-30.735878 -22.177200 4.583520 38.177625 0.625037 1.450448 0.094146 -0.015032 -326347.000000 0 0 1
-30.240648 -20.964000 5.053720 37.141974 0.606174 1.434308 0.081251 -0.016553 -248147.000000 0 0 1
-29.542148 -21.178900 6.247920 36.882528 0.621981 1.400575 0.077245 -0.019391 -163527.000000 0 0 1
-29.039208 -19.765400 6.751120 35.770439 0.597618 1.380923 0.081062 -0.014310 -390372.000000 0 0 1
-28.349968 -19.965600 7.933420 35.570845 0.613576 1.345873 0.071053 -0.020502 -355878.000000 0 0 1
-27.850078 -18.647300 8.332320 34.536592 0.590003 1.327132 0.085797 -0.027241 627369.000000 0 0 1
-26.754928 -18.561000 9.444520 33.904806 0.606513 1.288502 0.087718 -0.017660 321678.000000 0 0 1
-27.195008 -19.159400 10.669920 34.935631 0.613752 1.260420 0.076981 -0.024024 356846.000000 0 0 1
-26.179488 -19.379600 11.673120 34.600524 0.637238 1.226676 0.068779 -0.014864 453476.000000 0 0 1
-25.819368 -18.183100 12.583220 33.994151 0.613568 1.191617 0.065958 -0.026063 -742214.000000 0 0 1
-25.110528 -17.115700 11.985220 32.666976 0.598280 1.195132 0.067670 -0.020073 150702.000000 0 0 1
-24.713518 -16.051300 12.843920 32.146049 0.576020 1.159772 0.061454 -0.010528 504760.000000 0 0 1
-23.784118 -16.427000 14.068520 32.147377 0.604437 1.117840 0.059867 -0.017311 -555536.000000 0 0 1
-24.503818 -16.896800 15.162820 33.404342 0.603683 1.099639 0.054636 -0.030235 -59279.500000 0 0 1
-23.720618 -17.443100 16.238420 33.624630 0.634063 1.066796 0.067887 -0.027916 97353.700000 0 0 1
-24.613218 -18.005100 17.375320 35.098374 0.631570 1.052908 0.068687 -0.017210 231421.000000 0 0 1
-25.342298 -17.001900 18.051520 35.456368 0.590921 1.036635 0.078472 -0.025986 583679.000000 0 0 1
-26.441928 -17.544900 18.792420 36.880268 0.585825 1.036132 0.060327 -0.013761 632930.000000 0 0 1
-27.426858 -16.563800 19.480620 37.497821 0.543301 1.024515 0.057822 -0.016521 273366.000000 0 0 1
-26.824898 -16.031700 20.658420 37.461459 0.538684 0.986685 0.073983 -0.020780 524496.000000 0 0 1
-27.701608 -15.185700 21.391520 38.152087 0.501451 0.975577 0.074572 -0.020920 77633.600000 0 0 1
-26.892708 -14.410300 22.436920 37.872020 0.491910 0.936711 0.080082 -0.019994 -92733.500000 0 0 1
-25.970978 -13.557900 21.801720 36.518808 0.481124 0.931040 0.082198 -0.020459 154714.000000 0 0 1
-24.803318 -13.434300 22.601120 36.145479 0.496397 0.895303 0.082900 -0.022657 -158258.000000 0 0 1
-23.640918 -12.750800 21.885120 34.647285 0.494632 0.887111 0.093852 -0.025091 -406438.000000 0 0 1
-23.809618 -11.352300 21.716520 34.166941 0.444912 0.882010 0.111952 -0.018181 -100199.000000 0 0 1
-22.643218 -10.762900 21.222920 32.847643 0.443714 0.868330 0.107401 -0.025877 -944571.000000 0 0 1
-22.470118 -9.291600 21.619220 32.536606 0.392098 0.844028 0.107390 -0.021981 -38422.200000 0 0 1
-21.956318 -9.051700 22.929220 33.011548 0.391030 0.802958 0.099153 -0.021665 565525.000000 0 0 1
-20.583318 -9.419900 23.040920 32.300023 0.429195 0.776543 0.071864 -0.012210 -48640.800000 0 0 1
-20.238718 -9.696100 24.505920 33.228906 0.446777 0.741453 0.049588 -0.016627 96248.100000 0 0 1
-20.554218 -10.980500 24.960820 34.148057 0.490648 0.751071 0.067689 -0.015376 -15437.400000 0 0 1
-19.851618 -11.243700 26.165120 34.714853 0.515337 0.717099 0.066356 -0.010702 -490275.000000 0 0 1
-19.956718 -12.674400 26.773120 35.717096 0.565825 0.723356 0.069857 -0.022717 1333510.000000 0 0 1
-21.208118 -12.790300 27.505020 37.012189 0.542685 0.733054 0.075748 -0.020057 1308380.000000 0 0 1
-22.347218 -13.181300 26.711220 37.237536 0.532916 0.770849 0.074402 -0.014363 992230.000000 0 0 1
-23.587318 -13.603400 27.580420 38.756853 0.523130 0.778985 0.077704 -0.013976 289757.000000 0 0 1
-23.362518 -14.700600 28.431120 39.626298 0.561642 0.770617 0.065200 -0.011358 347041.000000 0 0 1
-22.358318 -14.670000 29.478020 39.800213 0.580674 0.736759 0.060420 -0.008499 539137.000000 0 0 1
-22.738718 -15.479700 30.729820 41.243087 0.597699 0.730126 0.051650 -0.013012 -508097.000000 0 0 1
-22.568018 -16.890900 30.554020 41.571217 0.642505 0.745159 0.056033 -0.016219 -95419.000000 0 0 1
-22.697918 -17.668000 31.727820 42.825323 0.661429 0.736438 0.061686 -0.012580 -168998.000000 0 0 1
-24.142618 -17.920500 32.196720 44.052686 0.638540 0.751203 0.067637 -0.015891 150161.000000 0 0 1
-24.846118 -16.877700 32.891820 44.542768 0.596690 0.740054 0.064227 -0.020599 -473060.000000 0 0 1
-26.136308 -17.289400 33.226620 45.673167 0.584423 0.756145 0.073068 -0.029210 -735446.000000 0 0 1
-26.917028 -16.283700 -33.884828 46.237073 0.544058 2.393297 0.070119 -0.028244 -327774.000000 0 0 1
-26.466308 -16.088400 -32.538328 44.922655 0.546195 2.380842 0.071033 -0.030707 116938.000000 0 0 1
-27.247708 -15.095300 -31.855928 44.554527 0.505911 2.367403 0.058479 -0.016498 -173365.000000 0 0 1
-26.583118 -14.586500 -30.575028 43.061125 0.501855 2.360348 0.061594 -0.009062 -460357.000000 0 0 1
-26.937618 -15.368800 -29.512028 42.811156 0.518471 2.331393 0.069965 -0.006853 272020.000000 0 0 1
-26.182928 -15.054600 -28.333728 41.412400 0.521818 2.324281 0.078570 -0.000134 -49330.700000 0 0 1
-26.612128 -15.877800 -27.125528 41.183786 0.537944 2.289814 0.090604 -0.006877 12493.300000 0 0 1
-27.834028 -15.530600 -26.517528 41.462175 0.508943 2.264721 0.084473 -0.008997 -23817.700000 0 0 1
-27.777838 -14.311300 -25.737528 40.482613 0.475738 2.259799 0.087463 -0.001986 -346500.000000 0 0 1
-26.990888 -14.252200 -24.399828 39.076654 0.485825 2.245171 0.101022 -0.015063 451136.000000 0 0 1
-25.585108 -14.084300 -24.610228 38.191997 0.503218 2.271011 0.096418 -0.025747 714870.000000 0 0 1
-24.897618 -14.416900 -23.399228 37.084529 0.524871 2.253599 0.100917 -0.020804 589929.000000 0 0 1
-23.948818 -15.699800 -23.519528 37.056684 0.580271 2.258404 0.095451 -0.014729 727105.000000 0 0 1
-23.074218 -15.656200 -24.667328 37.229199 0.596160 2.295055 0.087983 -0.011709 289826.000000 0 0 1
-22.681718 -16.956200 -24.972828 37.757320 0.641945 2.293485 0.097765 -0.016410 135192.000000 0 0 1
-21.841118 -17.144300 -26.296128 38.241964 0.665500 2.329009 0.077242 -0.010787 522799.000000 0 0 1
-22.573318 -17.182200 -27.528328 39.529629 0.650614 2.341161 0.089023 -0.013304 165654.000000 0 0 1
-23.390218 -18.324600 -27.681728 40.609991 0.664555 2.320809 0.099758 -0.022469 -22910.900000 0 0 1
-24.118418 -18.394900 -29.052428 42.001358 0.651574 2.334640 0.100393 -0.024462 350058.000000 0 0 1
-23.196218 -18.513300 -30.156228 42.310813 0.673592 2.364180 0.095051 -0.020049 769543.000000 0 0 1
-23.837218 -18.393100 -31.438328 43.530307 0.657190 2.377799 0.089066 -0.022345 251336.000000 0 0 1
-22.881118 -18.816800 -32.608928 44.056325 0.688235 2.404111 0.091523 -0.021673 1200170.000000 0 0 1
-21.653118 -18.008200 -32.693928 43.151428 0.693755 2.430510 0.085257 -0.014592 1747430.000000 0 0 1
-20.437918 -18.661500 -32.334228 42.561278 0.739996 2.433663 0.073107 -0.017588 521386.000000 0 0 1
-19.975818 -19.845100 -33.211128 43.541249 0.782116 2.438353 0.069689 -0.012867 -1011180.000000 0 0 1
-19.746818 -19.454100 33.383820 43.392145 0.777931 0.692971 0.069233 -0.012225 63977.100000 0 0 1
-19.529018 -20.576100 32.541820 43.170922 0.811501 0.716985 0.073750 -0.017869 -260156.000000 0 0 1
-20.754418 -21.261800 31.911120 43.601945 0.797473 0.749729 0.082002 -0.021431 -755514.000000 0 0 1
-21.609718 -21.900800 32.807220 44.977090 0.792088 0.753322 0.089300 -0.018030 -553349.000000 0 0 1
-22.796118 -22.267300 32.152020 45.268621 0.773664 0.780944 0.102568 -0.017318 -252319.000000 0 0 1
-22.735418 -23.505700 31.249520 45.232175 0.802055 0.808106 0.109750 -0.013819 -661987.000000 0 0 1
-22.366418 -24.706000 31.885720 46.123120 0.835059 0.807485 0.121710 -0.013956 68985.600000 0 0 1
-22.338318 -25.799320 31.025920 46.121720 0.857173 0.832949 0.125634 -0.004230 16171.400000 0 0 1
-21.937518 -27.114160 31.738220 47.156622 0.890543 0.832487 0.131074 -0.018928 172270.000000 0 0 1
-22.894918 -27.491710 32.719620 48.482419 0.876377 0.830000 0.116537 -0.016492 -26101.700000 0 0 1
-22.545318 -28.682130 33.337120 49.419829 0.904625 0.830415 0.118904 -0.029994 -723305.000000 0 0 1
-23.632718 -29.358760 -33.740128 50.584962 0.893036 2.300970 0.089705 -0.016129 457816.000000 0 0 1
-24.793318 -29.790880 33.454620 51.199773 0.876701 0.858711 0.072590 -0.014958 1222340.000000 0 0 1
-25.803678 -28.864870 33.021020 50.886131 0.841335 0.864632 0.066738 -0.009953 108223.000000 0 0 1
-26.857988 -28.464750 -33.864828 51.753455 0.814433 2.284118 0.032938 -0.003213 -844934.000000 0 0 1
-27.885538 -27.697070 33.540120 51.668855 0.782007 0.864348 0.035695 -0.008545 -222075.000000 0 0 1
-28.831598 -27.438280 -33.338728 51.919082 0.760642 2.268068 0.042992 -0.005131 1110400.000000 0 0 1
-30.074918 -26.521280 -33.739628 52.404594 0.722691 2.270289 0.039834 -0.006539 1168490.000000 0 0 1
-31.057618 -27.304370 33.524220 53.235116 0.721177 0.889579 0.024406 -0.002923 -622749.000000 0 0 1
-32.123598 -26.612310 32.985320 53.180560 0.691840 0.901733 0.040524 -0.012246 -393875.000000 0 0 1
