# x y z rho theta phi s1 s2 stress_xx np intf bulk
-0.825329 -10.629351 -14.489478 17.989142 1.493306 2.507242 -0.003923 0.002719 266755.000000 1 0 0
2.174771 -13.401851 -13.048978 18.831226 -1.409925 2.336360 0.006646 0.005425 396393.000000 1 0 0
2.117671 -11.180651 -14.851778 18.710072 -1.383609 2.487804 -0.000073 0.008624 1020700.000000 1 0 0
-5.567829 -6.287251 -16.649078 18.647307 0.846009 2.674410 0.009746 -0.003555 -1040960.000000 1 0 0
4.539871 -14.103251 -11.488278 18.748137 -1.259369 2.230356 0.004641 0.004208 654320.000000 1 0 0
14.001071 -10.634451 -7.993378 19.313612 -0.649582 1.997501 0.007262 0.001845 107118.000000 1 0 0
7.122771 10.876549 -10.849878 16.933784 0.991002 2.266237 0.008043 -0.002058 1306570.000000 1 0 0
5.707071 -4.163351 -12.669478 14.505855 -0.630256 2.632946 -0.000132 0.001101 2103150.000000 1 0 0
13.669071 0.544849 -9.939678 16.909688 0.039839 2.199145 0.009960 -0.000668 869392.000000 1 0 0
14.147971 5.109749 -10.372678 18.272029 0.346586 2.174482 0.004528 0.001446 638825.000000 1 0 0
4.004771 4.401649 -13.428278 14.687796 0.832574 2.724443 0.006313 0.002902 1710990.000000 1 0 0
10.357371 -4.984551 -13.696878 17.880865 -0.448541 2.443404 0.017420 -0.001467 -33420.200000 1 0 0
2.555771 -7.546951 -12.086478 14.476581 -1.244269 2.558745 -0.005478 0.003829 895788.000000 1 0 0
-5.471529 -2.034151 -15.155478 16.240810 0.355936 2.773937 0.007647 -0.006587 77987.700000 1 0 0
10.672171 0.059149 -9.614078 14.364165 0.005542 2.304076 0.007465 -0.000299 2466970.000000 1 0 0
-1.664929 -9.376351 -17.025678 19.507990 1.395061 2.631612 -0.000526 -0.004298 827932.000000 1 0 0
8.725371 1.618149 -17.907078 19.985343 0.183370 2.681498 0.013115 0.005854 446160.000000 1 0 0
16.508871 -5.858751 -8.772878 19.591610 -0.341020 2.035086 0.005329 0.005796 -794599.000000 1 0 0
10.116471 7.562349 -9.983278 16.099626 0.641917 2.239659 0.004644 -0.002419 2050960.000000 1 0 0
13.822771 -2.243051 -10.551478 17.533795 -0.160870 2.216524 0.013779 -0.003912 -1263270.000000 1 0 0
7.267171 -1.879051 -13.714378 15.634154 -0.253025 2.640808 0.006377 -0.001192 578040.000000 1 0 0
-2.835829 6.725449 -13.802878 15.613873 -1.171761 2.655176 0.002941 0.001755 528492.000000 1 0 0
11.195871 1.834049 -13.820278 17.880474 0.162373 2.454236 0.005474 -0.005192 484040.000000 1 0 0
-2.318029 10.866449 -12.947978 17.061744 -1.360627 2.432402 0.001991 0.002693 -2547020.000000 1 0 0
2.875171 -1.034851 -15.364378 15.665300 -0.345491 2.945270 0.002103 0.001162 175344.000000 1 0 0
-9.081929 0.396149 -15.271278 17.772178 -0.043592 2.604657 0.008006 0.002978 -363475.000000 1 0 0
2.365771 -1.810951 -18.176078 18.418638 -0.653335 2.979122 0.009967 -0.004493 -90820.800000 1 0 0
1.010271 7.941849 -13.253678 15.483979 1.444267 2.598202 0.008789 -0.000514 667746.000000 1 0 0
9.366071 -9.007051 -9.891578 16.330755 -0.765860 2.221445 0.009586 -0.000202 -257671.000000 1 0 0
3.912871 7.378249 -13.555578 15.921772 1.083184 2.589419 0.003798 0.000540 1348090.000000 1 0 0
-2.734429 9.240549 -15.495478 18.247594 -1.283090 2.585226 0.003344 0.002475 1742460.000000 1 0 0
5.511571 -7.644351 -15.333578 17.998115 -0.946116 2.590503 0.003620 -0.001964 120988.000000 1 0 0
4.296671 7.260949 -16.538478 18.566206 1.036465 2.669864 0.012122 0.005240 1284540.000000 1 0 0
-0.306729 5.159949 -13.500178 14.455932 -1.511422 2.775924 0.009274 -0.000153 902939.000000 1 0 0
8.746271 4.250649 -16.685178 19.312184 0.452381 2.613901 0.004608 0.005018 -928003.000000 1 0 0
5.337771 0.309749 -14.410978 15.370882 0.057965 2.786316 0.000092 0.005310 117491.000000 1 0 0
6.236371 8.013749 -11.579478 15.401195 0.909485 2.421669 0.002750 0.000824 -650594.000000 1 0 0
2.810571 -8.408651 -15.106478 17.516004 -1.248223 2.610864 -0.002308 -0.000098 495844.000000 1 0 0
4.010971 11.564749 -13.807378 18.451964 1.236951 2.416273 0.005979 -0.005596 -659267.000000 1 0 0
0.685871 -4.505351 -13.809178 14.541733 -1.419722 2.822830 0.000036 -0.000952 -132455.000000 1 0 0
8.477771 -0.185051 -11.664478 14.421057 -0.021824 2.512991 0.002304 -0.000187 649292.000000 1 0 0
-0.828129 -5.034551 -16.322878 17.101721 1.407767 2.838635 -0.005301 -0.008930 -963498.000000 1 0 0
4.502471 1.020749 -11.792878 12.664365 0.222940 2.768449 -0.000236 -0.001696 1059140.000000 1 0 0
-2.903629 -7.038051 -15.668178 17.420018 1.179508 2.689272 -0.003877 -0.001506 2749470.000000 1 0 0
11.391571 -3.780251 -11.373678 16.535378 -0.320412 2.329304 0.014386 -0.005936 132422.000000 1 0 0
6.474571 -7.037951 -12.536678 15.767724 -0.827067 2.489944 0.004275 -0.000892 -1415360.000000 1 0 0
3.458371 -3.972551 -14.774978 15.685709 -0.854483 2.799155 0.003893 -0.000965 2772700.000000 1 0 0
-0.572629 -1.448151 -18.415878 18.481602 1.194244 3.057233 0.011541 -0.010615 -205274.000000 1 0 0
14.926971 2.998849 -8.450078 17.412966 0.198262 2.077474 0.010267 0.004045 -401983.000000 1 0 0
6.805771 4.298649 -14.361178 16.463303 0.563344 2.630713 0.003333 0.003763 3204720.000000 1 0 0
10.152671 -9.615451 -13.928978 19.737022 -0.758229 2.354247 0.028960 -0.007140 -2030200.000000 1 0 0
9.135171 -3.187551 -15.578878 18.338846 -0.335723 2.585836 0.011105 -0.007726 -539507.000000 1 0 0
-5.139029 -2.118251 -18.020078 18.857885 0.390970 2.842393 -0.002252 -0.004415 737009.000000 1 0 0
5.022871 -9.070551 -11.185178 15.251634 -1.065074 2.394071 -0.004935 0.004020 2197460.000000 1 0 0
-2.568229 4.028149 -17.211578 17.862256 -1.003209 2.870850 0.006568 0.003757 2110500.000000 1 0 0
9.486671 9.265049 -14.487178 19.639663 0.773580 2.400378 0.015417 -0.007455 326001.000000 1 0 0
9.841871 9.995749 -11.638378 18.227157 0.793155 2.263368 0.005912 -0.002845 -165794.000000 1 0 0
12.013671 -5.968051 -9.665478 16.533825 -0.461062 2.195169 0.021706 -0.002495 1470750.000000 1 0 0
8.087471 6.909149 -13.615978 17.278263 0.706987 2.478416 0.007386 0.001394 384707.000000 1 0 0
3.932571 -4.218351 -17.708678 18.624094 -0.820445 2.826759 0.014841 -0.003685 -1544060.000000 1 0 0
9.323671 -7.370851 -12.326878 17.123440 -0.668954 2.374430 0.015279 -0.008085 1397870.000000 1 0 0
12.005871 -8.696351 -8.890778 17.286220 -0.626876 2.111020 0.016386 0.000632 1175060.000000 1 0 0
-2.822829 -2.450551 -13.923978 14.417029 0.714919 2.879311 0.001899 -0.005757 -2060290.000000 1 0 0
-0.403729 6.120049 -17.678278 18.712015 -1.504923 2.807644 0.014469 0.004923 2032110.000000 1 0 0
1.049771 -8.444151 -17.559878 19.512945 -1.447112 2.690357 -0.003746 -0.007449 664551.000000 1 0 0
0.000371 8.575949 -16.039778 18.188496 1.570753 2.650597 0.008672 0.004010 -523916.000000 1 0 0
1.737571 3.493849 -14.955378 15.456049 1.109293 2.886369 0.009720 0.002104 2525110.000000 1 0 0
-1.875329 -0.440851 -15.871578 15.988064 0.230887 3.020806 0.007243 -0.009094 -457194.000000 1 0 0
14.135271 -4.269551 -8.467978 17.021798 -0.293336 2.091486 0.010455 0.000424 204029.000000 1 0 0
0.625471 0.710549 -14.618978 14.649594 0.848993 3.076930 0.002599 -0.000993 2094510.000000 1 0 0
8.731771 2.638649 -12.555378 15.519143 0.293464 2.513288 0.002632 0.001642 1397950.000000 1 0 0
5.930471 1.041249 -17.236578 18.257993 0.173805 2.805518 0.013645 0.009310 94538.400000 1 0 0
15.202371 1.593749 -12.415378 19.692479 0.104454 2.252946 -0.001239 -0.000034 1166260.000000 1 0 0
8.825171 -11.220051 -11.878878 18.570970 -0.904308 2.264836 0.014735 -0.001635 708032.000000 1 0 0
-4.529629 0.732449 -15.080978 15.763563 -0.160314 2.846237 0.008138 -0.004144 627663.000000 1 0 0
2.352671 5.106749 -17.308278 18.198638 1.139081 2.827495 0.018720 0.002000 2961160.000000 1 0 0
5.951171 -11.740951 -12.382378 18.071792 -1.101665 2.325643 0.002106 0.003748 536012.000000 1 0 0
12.838771 7.247349 -8.678678 17.107821 0.513899 2.102837 0.010215 0.001524 1286900.000000 1 0 0
-5.120429 3.609649 -15.725278 16.927278 -0.614041 2.762472 0.004184 0.000502 1728210.000000 1 0 0
-0.547529 -4.356251 -19.182878 19.678910 1.445764 2.916591 0.003205 -0.011016 -1562510.000000 1 0 0
9.696371 4.412649 -10.281378 14.805330 0.427073 2.338434 0.001359 0.002112 739662.000000 1 0 0
13.285971 3.678749 -12.819678 18.825365 0.270122 2.319895 -0.000557 -0.002693 1555240.000000 1 0 0
-6.298629 5.754349 -17.259678 19.253097 -0.740272 2.682517 -0.002073 0.008325 -2218000.000000 1 0 0
-10.208329 3.097149 -15.508878 18.823592 -0.294568 2.539066 0.010163 0.010107 -1274950.000000 1 0 0
10.773571 13.473849 -8.319178 19.152628 0.896305 2.020126 0.021708 0.000297 -261683.000000 1 0 0
7.419071 13.380249 -12.351478 19.662977 1.064521 2.249981 0.007584 -0.004343 -565961.000000 1 0 0
5.343971 15.091949 -11.233478 19.558016 1.230479 2.182627 0.002642 -0.008386 -185816.000000 1 0 0
14.125571 9.586749 -10.047078 19.808616 0.596274 2.102738 0.020271 -0.001624 -2273250.000000 1 0 0
8.221071 -17.292151 -2.216078 19.274737 -1.127004 1.686024 0.014978 0.002522 96457.500000 1 0 0
0.607671 -16.053251 -0.051378 16.064830 -1.532961 1.573994 0.016741 -0.006164 2987600.000000 1 0 0
-9.193829 -11.662351 7.564822 16.666237 0.903209 1.099658 0.008800 -0.001431 285808.000000 1 0 0
1.897671 -15.843051 -2.663878 16.177134 -1.451585 1.736219 0.011767 -0.004617 1788280.000000 1 0 0
-1.428029 -10.961051 -9.576878 14.625338 1.441244 2.284733 0.002197 0.003951 1865780.000000 1 0 0
-4.861829 -12.573751 -13.012878 18.736904 1.201838 2.338528 0.005867 -0.001989 409457.000000 1 0 0
-8.465229 -17.873951 -1.745178 19.854064 1.128485 1.658810 0.008974 -0.010413 -475370.000000 1 0 0
-11.349029 -7.100451 -8.944378 16.100272 0.559062 2.159811 0.015005 0.000512 3232540.000000 1 0 0
-13.548529 -11.438151 -4.576078 18.312139 0.701138 1.823366 -0.001387 0.002605 576610.000000 1 0 0
-5.675729 -13.547051 9.699222 17.601460 1.174049 0.987179 -0.000696 -0.002715 280528.000000 1 0 0
0.028671 -13.938751 -3.718278 14.426198 -1.568739 1.831484 0.008944 0.000616 371513.000000 1 0 0
-14.681729 -11.530851 1.956922 18.770808 0.665767 1.466353 -0.007332 0.003403 1192570.000000 1 0 0
-4.006429 -16.483851 -7.454378 18.529343 1.332368 1.984825 0.000022 -0.004203 -853910.000000 1 0 0
0.468771 -15.180751 -9.246978 17.781495 -1.539927 2.117687 0.003761 0.004037 774331.000000 1 0 0
4.444771 -14.229551 -2.657578 15.142616 -1.268037 1.747213 0.004857 0.001853 536087.000000 1 0 0
-3.591629 -18.045451 -2.442878 18.560866 1.374331 1.702794 0.002356 -0.008575 620511.000000 1 0 0
-0.978229 -13.524551 0.655122 13.575699 1.498592 1.522521 0.013949 -0.004687 3279560.000000 1 0 0
-8.483729 -11.357751 -10.437678 17.604468 0.929247 2.205451 0.017941 -0.009660 1133300.000000 1 0 0
-3.771229 -14.113451 -0.373278 14.613384 1.309688 1.596343 0.007030 -0.001658 4460030.000000 1 0 0
-1.650529 -14.873351 -7.289978 16.645858 1.460276 2.024108 -0.002486 0.003052 689091.000000 1 0 0
-14.141929 -7.879051 -1.762978 16.284400 0.508309 1.679271 -0.004973 0.005065 1016990.000000 1 0 0
-10.667729 -7.388651 -11.739178 17.498597 0.605754 2.306169 0.016163 0.001903 -308437.000000 1 0 0
-9.622229 -14.653851 6.873622 18.830011 0.989771 1.197125 0.001343 0.001425 75632.500000 1 0 0
-2.458729 -14.204451 -12.411478 19.022528 1.399399 2.281625 0.014482 0.000240 547420.000000 1 0 0
2.235571 -17.746051 -4.814178 18.522862 -1.445481 1.833720 0.014032 -0.005218 -737818.000000 1 0 0
-6.556129 -9.736851 -9.213678 14.922498 0.978194 2.236274 0.005122 -0.007431 1156460.000000 1 0 0
-11.071029 -15.362551 0.354822 18.939418 0.946345 1.552061 -0.001234 -0.003532 -431993.000000 1 0 0
-12.625829 -11.004451 4.181122 17.262424 0.716891 1.326154 -0.000552 0.005157 1172700.000000 1 0 0
-17.040129 -8.755551 -1.558178 19.221176 0.474642 1.651951 -0.000601 0.003357 1844290.000000 1 0 0
-1.477729 -19.267651 -4.037078 19.741430 1.494251 1.776747 -0.000891 -0.001630 -864354.000000 1 0 0
3.285171 -14.236351 -8.731678 17.020818 -1.344007 2.109472 0.004244 0.005652 325811.000000 1 0 0
-4.359729 -7.916851 -13.162078 15.966342 1.067424 2.539874 0.001082 0.002764 1455580.000000 1 0 0
5.538371 -16.687251 1.237122 17.625787 -1.250343 1.500550 0.017198 0.002118 4881210.000000 1 0 0
-2.906329 -13.713651 -3.224078 14.384215 1.361957 1.796857 0.002687 0.000663 -1358050.000000 1 0 0
-0.464929 -13.989451 3.682822 14.473565 1.537574 1.313516 0.014894 -0.005075 -848648.000000 1 0 0
1.115071 -16.251751 7.119522 17.777806 -1.502291 1.158764 0.026191 -0.009797 1407620.000000 1 0 0
-5.580929 -10.158651 -14.676478 18.701443 1.068432 2.473134 0.005316 0.000668 123201.000000 1 0 0
-0.460729 -17.288351 -5.929878 18.282856 1.544153 1.901111 0.004035 -0.000475 -282851.000000 1 0 0
-6.583229 -13.401351 -1.258578 14.983963 1.114184 1.654890 0.003204 -0.002212 3660840.000000 1 0 0
-1.790029 -17.732751 -0.174378 17.823722 1.470192 1.580580 0.015355 -0.008789 1951060.000000 1 0 0
-9.462629 -9.802351 -4.892978 14.476487 0.803031 1.915582 0.014416 -0.001491 3992360.000000 1 0 0
-0.816129 -16.724551 4.911022 17.449780 1.522037 1.285505 0.017705 -0.008177 2876910.000000 1 0 0
-6.791029 -9.919351 -6.347078 13.594006 0.970464 2.056581 0.013719 -0.001860 2791170.000000 1 0 0
-6.118929 -14.696551 -8.589378 18.088873 1.176274 2.065582 0.006907 -0.004866 -834196.000000 1 0 0
-5.781629 -12.298451 -10.241678 17.016789 1.131345 2.216621 0.005847 -0.006097 -636361.000000 1 0 0
-10.769129 -12.147151 -8.798678 18.464673 0.845459 2.067482 0.026391 -0.020109 412694.000000 1 0 0
3.823971 -17.187751 6.753122 18.858584 -1.351880 1.204572 0.030741 -0.010278 -368264.000000 1 0 0
-6.696229 -14.385851 -4.136478 16.398251 1.135150 1.825802 0.006694 -0.005830 -1158630.000000 1 0 0
-2.908029 -12.164051 -7.214678 14.438572 1.336133 2.094027 0.004185 -0.000369 3529090.000000 1 0 0
-7.142729 -12.824851 4.425322 15.332282 1.062637 1.278003 0.004455 -0.001327 1072550.000000 1 0 0
2.520271 -16.454151 2.304322 16.804784 -1.418808 1.433240 0.024184 -0.005441 3960100.000000 1 0 0
-6.266629 -12.033151 7.233022 15.374784 1.090663 1.080999 0.003559 -0.001795 1806980.000000 1 0 0
-11.177829 -12.852251 -1.015878 17.063301 0.854966 1.630367 -0.006135 0.004721 1017740.000000 1 0 0
-14.197629 -8.597551 4.665822 17.241243 0.544499 1.296760 0.000328 0.005894 -585216.000000 1 0 0
-8.234329 -15.527151 4.375522 18.111924 1.083189 1.326800 -0.003537 -0.000849 848591.000000 1 0 0
-16.437529 -9.114151 1.288522 18.839331 0.506270 1.502348 -0.009882 0.006632 191676.000000 1 0 0
-6.790129 -17.055151 2.370422 18.509536 1.191905 1.442379 0.007342 -0.006046 3515230.000000 1 0 0
-11.622429 -14.902851 -4.661078 19.465392 0.908445 1.812600 0.018914 -0.006208 -505332.000000 1 0 0
-10.048229 -10.105651 -12.541378 18.983605 0.788247 2.292471 0.020796 0.000283 -2736640.000000 1 0 0
-4.360029 -15.938951 -4.504078 17.127368 1.303783 1.836901 -0.001628 -0.003800 -230098.000000 1 0 0
-11.780529 -8.230251 0.042522 14.370794 0.609807 1.567837 -0.006980 0.004568 1622880.000000 1 0 0
-9.642429 -11.176451 3.516822 15.174239 0.858949 1.336907 -0.002178 0.004709 1617780.000000 1 0 0
-14.091429 -12.863451 -0.576478 19.088454 0.739873 1.601001 -0.011549 0.006394 1293880.000000 1 0 0
5.618871 -14.879851 -7.141278 17.435009 -1.209734 1.992805 0.006373 -0.004195 87181.400000 1 0 0
-7.522829 -10.586551 -1.276178 13.049776 0.952990 1.668746 0.000603 0.001967 1419560.000000 1 0 0
-11.641429 -8.201851 -6.117878 15.499086 0.613766 1.976565 0.012441 -0.000601 305033.000000 1 0 0
-14.407929 -6.626151 -9.309278 18.389044 0.431053 2.101616 0.007397 0.000806 1760930.000000 1 0 0
-3.988529 -16.483051 1.438822 17.019681 1.333382 1.486157 0.007606 -0.005939 1887460.000000 1 0 0
-8.088029 -15.593551 0.079422 17.566484 1.092318 1.566275 0.007916 -0.003951 1586770.000000 1 0 0
1.033871 -18.582651 3.665222 18.968860 -1.515217 1.376350 0.024440 -0.011004 -1399240.000000 1 0 0
-14.122129 -8.662251 -4.560678 17.183390 0.550201 1.839428 -0.003171 0.001248 73869.900000 1 0 0
-3.203729 -14.616851 10.993122 18.567847 1.355028 0.937194 -0.013015 -0.005007 1089350.000000 1 0 0
-10.754529 -12.159851 -3.816678 16.675998 0.846651 1.801716 0.004513 -0.002367 3145030.000000 1 0 0
-9.954729 -10.673651 0.613522 14.608212 0.820235 1.528786 -0.001720 0.005237 1270930.000000 1 0 0
-0.052229 -13.057951 -11.244778 17.232465 1.566797 2.281721 0.010427 -0.000171 1420620.000000 1 0 0
-5.906129 -12.734751 -6.407178 15.430754 1.136542 1.998982 0.002985 -0.008075 2097600.000000 1 0 0
1.617971 -15.939851 10.024422 18.899358 -1.469638 1.011711 0.024837 -0.007681 371879.000000 1 0 0
-9.006429 -15.741251 -5.523978 18.958299 1.051103 1.866460 0.018274 -0.011983 1196370.000000 1 0 0
-3.407729 -15.580951 5.870822 16.995447 1.355476 1.218094 0.007119 -0.005159 -526580.000000 1 0 0
-17.353229 -5.469051 -6.544978 19.336024 0.305307 1.916104 -0.006130 0.000671 -1093870.000000 1 0 0
18.928971 5.644849 -2.855078 19.957999 0.289816 1.714343 0.010330 0.010548 -853770.000000 1 0 0
12.761871 -12.414151 -5.956678 18.773878 -0.771587 1.893662 0.007314 0.002379 -1114190.000000 1 0 0
11.021571 -13.515951 -1.743278 17.526978 -0.886706 1.670424 0.010022 0.003624 1744330.000000 1 0 0
18.760071 -2.956551 4.670622 19.557509 -0.156312 1.329651 0.032323 -0.000711 -542611.000000 1 0 0
8.731271 -16.936751 4.893522 19.673210 -1.094808 1.319417 0.027004 -0.013636 -671439.000000 1 0 0
18.071271 -1.198751 6.902422 19.381725 -0.066238 1.206673 0.043063 -0.005119 -435177.000000 1 0 0
17.977771 -4.231851 -5.025278 19.140591 -0.231185 1.836456 0.022208 -0.005751 -853513.000000 1 0 0
5.464971 -11.784451 14.681022 19.602847 -1.136572 0.724361 0.004767 0.004717 -400554.000000 1 0 0
15.963171 -8.864651 -0.868278 18.280010 -0.506918 1.618313 0.006160 -0.000145 1027100.000000 1 0 0
13.858671 -12.660051 -1.466678 18.827926 -0.740230 1.648774 0.015742 0.006393 -193037.000000 1 0 0
10.970271 -2.033651 14.014222 17.913152 -0.183298 0.672378 0.002236 -0.002015 2256.310000 1 0 0
16.965571 -6.061351 -1.424778 18.072094 -0.343140 1.649717 0.015023 -0.002056 -908953.000000 1 0 0
17.738671 3.646649 -1.086278 18.142174 0.202752 1.630708 0.010915 0.009655 303202.000000 1 0 0
9.660871 -11.082051 9.361422 17.429300 -0.853805 1.003791 -0.002491 -0.003090 569854.000000 1 0 0
9.059671 -11.188151 4.167022 14.987209 -0.890135 1.289045 0.003585 -0.003867 108921.000000 1 0 0
13.916771 -10.326851 6.730522 18.590866 -0.638390 1.200348 0.023914 -0.007266 258165.000000 1 0 0
16.162771 -0.456251 -4.600878 16.811050 -0.028221 1.848015 0.014303 -0.001504 -227015.000000 1 0 0
15.788471 -0.498851 -1.595478 15.876719 -0.031585 1.671458 0.024694 -0.000743 1310390.000000 1 0 0
12.924171 -5.213951 -0.334478 13.940278 -0.383457 1.594792 0.013966 -0.003981 761159.000000 1 0 0
14.257271 -7.581251 1.046022 16.181449 -0.488721 1.506108 0.017791 -0.001425 2254700.000000 1 0 0
15.557971 2.382149 3.746922 16.179138 0.151934 1.337085 0.016358 0.002780 1327040.000000 1 0 0
15.840771 -7.283251 5.001422 18.138081 -0.430956 1.291435 0.030285 -0.006705 -1687550.000000 1 0 0
13.610471 -12.312551 3.251222 18.639052 -0.735372 1.395469 0.013069 0.000890 903796.000000 1 0 0
13.911871 -1.088051 9.351022 16.797786 -0.078051 0.980410 0.018742 -0.005277 -290299.000000 1 0 0
14.210271 -2.873151 -1.589478 14.584692 -0.199499 1.679996 0.011639 -0.001270 599477.000000 1 0 0
14.960771 1.727349 9.191222 17.643326 0.114950 1.022837 0.018235 -0.004498 -3494980.000000 1 0 0
14.335371 -10.189051 -3.039678 17.848229 -0.617913 1.741938 0.004286 0.003120 29380.400000 1 0 0
7.420371 -12.675751 6.062422 15.889919 -1.041182 1.179349 0.000965 -0.004317 -212174.000000 1 0 0
12.353871 -4.804151 6.916822 14.951268 -0.370882 1.089843 0.017245 -0.004945 1577510.000000 1 0 0
14.966771 -9.026051 -5.690678 18.380904 -0.542676 1.885566 0.011174 0.003016 21297.400000 1 0 0
14.294871 -4.692851 4.668522 15.753136 -0.317204 1.269922 0.021063 -0.007303 795084.000000 1 0 0
17.226071 -4.257751 1.026322 17.774119 -0.242312 1.513022 0.029027 -0.005908 -1748290.000000 1 0 0
10.207771 -14.514351 1.007122 17.772993 -0.957867 1.514100 0.012372 -0.002018 -2261.620000 1 0 0
16.326871 -2.730651 8.655722 18.680061 -0.165715 1.089005 0.037684 -0.010455 632415.000000 1 0 0
16.096571 -2.730951 3.357922 16.668333 -0.168060 1.367953 0.028255 -0.000657 2318310.000000 1 0 0
7.820271 -15.340751 2.627622 17.418372 -1.099362 1.419365 0.013586 -0.005342 2137540.000000 1 0 0
16.449671 -7.111351 7.873622 19.574394 -0.408046 1.156833 0.032539 -0.008972 -160246.000000 1 0 0
10.099571 -8.607051 5.030822 14.191259 -0.705781 1.208415 0.000405 -0.004875 1854890.000000 1 0 0
10.910471 -11.963351 2.077922 16.324151 -0.831396 1.443159 0.009189 -0.000430 587511.000000 1 0 0
12.140871 -7.344751 11.995222 18.580405 -0.544059 0.869008 0.013686 -0.009126 -507535.000000 1 0 0
15.158371 -10.101351 4.223522 18.698974 -0.587809 1.342961 0.025377 -0.004204 -167386.000000 1 0 0
7.196271 -10.278951 7.702622 14.723231 -0.960005 1.020240 -0.004788 -0.003110 1241500.000000 1 0 0
15.224171 -3.332551 -4.323578 16.173268 -0.215500 1.841416 0.016362 -0.004289 1575710.000000 1 0 0
11.723671 -9.039951 9.666322 17.680581 -0.656860 0.992355 0.008743 -0.008417 -2166200.000000 1 0 0
16.916771 -6.794651 2.389122 18.386199 -0.381930 1.440487 0.024909 -0.003832 2020260.000000 1 0 0
17.602971 3.748049 2.010222 18.109485 0.209789 1.459563 0.018080 0.004622 627695.000000 1 0 0
14.563571 -5.067951 8.830422 17.769583 -0.334881 1.050727 0.032624 -0.013832 633929.000000 1 0 0
12.702871 -12.857751 6.047822 19.059403 -0.791457 1.247900 0.006538 0.000189 497620.000000 1 0 0
18.294771 0.773649 -1.020678 18.339546 0.042263 1.626480 0.032828 0.003165 -76833.600000 1 0 0
11.569571 -2.113251 11.108222 16.177558 -0.180664 0.813934 0.006103 -0.003122 1336030.000000 1 0 0
5.787371 -12.626651 10.394422 17.348487 -1.141024 0.928352 0.002610 0.002628 -1294410.000000 1 0 0
10.652071 -4.980451 11.024922 16.118946 -0.437358 0.817601 0.008337 -0.004783 1971610.000000 1 0 0
17.850871 1.189249 5.214122 18.634779 0.066523 1.287204 0.027892 0.003387 -1324980.000000 1 0 0
12.200571 -7.875051 7.020922 16.129591 -0.573181 1.120445 0.018388 -0.011155 -1100190.000000 1 0 0
10.439971 -7.980151 14.221122 19.362751 -0.652644 0.745929 0.004690 -0.003245 -983919.000000 1 0 0
14.170471 -0.427451 3.910622 14.706391 -0.030156 1.301645 0.011097 0.005163 1337860.000000 1 0 0
11.632571 -7.739651 2.483422 14.191064 -0.587086 1.394892 0.009748 -0.002383 1511460.000000 1 0 0
9.360671 6.069549 3.541422 11.704839 0.575256 1.263418 0.001449 0.001717 1719140.000000 1 0 0
-3.976229 14.792049 -9.963678 18.272657 -1.308195 2.147517 -0.005724 -0.005965 -1258870.000000 1 0 0
8.790171 -6.430151 9.216622 14.267448 -0.631566 0.868477 -0.000519 -0.003130 463338.000000 1 0 0
5.818871 -10.466051 -8.518678 14.695760 -1.063377 2.189119 -0.003814 0.000800 -134008.000000 1 0 0
5.422371 1.091349 0.656022 5.569876 0.198614 1.452742 0.002808 0.000003 3234540.000000 1 0 0
-0.502929 9.904649 11.020522 14.825887 -1.520063 0.732762 -0.008142 0.004667 -993361.000000 1 0 0
-6.313929 -5.168151 1.140522 8.238706 0.685939 1.431916 0.003027 -0.001331 2054230.000000 1 0 0
-1.054929 4.056649 -10.858578 11.639501 -1.316382 2.773200 0.004687 -0.003771 1029370.000000 1 0 0
10.983371 5.658249 1.302722 12.423659 0.475706 1.465745 0.001602 0.004380 2055160.000000 1 0 0
-10.077929 -1.860151 -13.604078 17.032198 0.182522 2.495973 0.015137 -0.001320 -389455.000000 1 0 0
7.341571 10.912449 -6.038978 14.472369 0.978580 2.001243 0.001246 0.000860 -73145.600000 1 0 0
-12.396829 -2.878051 -9.603178 15.943198 0.228119 2.217222 0.008935 -0.003134 42996.700000 1 0 0
-3.926129 -8.725651 2.472322 9.882502 1.147982 1.317939 0.007235 -0.000432 303145.000000 1 0 0
8.012471 -6.552551 -5.891978 11.910123 -0.685497 2.088290 0.000640 -0.003531 1557270.000000 1 0 0
14.297171 3.071549 -4.202278 15.215211 0.211620 1.850623 0.013253 0.005736 -116012.000000 1 0 0
-2.604829 -5.039651 9.811922 11.333889 1.093746 0.524218 -0.002393 -0.000747 1544400.000000 1 0 0
3.497971 -1.792151 -4.592178 6.044477 -0.473471 2.433696 -0.001429 0.001058 -945265.000000 1 0 0
-3.943829 8.467149 -3.435478 9.952332 -1.134897 1.923241 -0.002706 -0.000602 951969.000000 1 0 0
5.870071 -0.005451 11.705822 13.095191 -0.000929 0.464820 -0.004554 -0.004046 1785630.000000 1 0 0
7.074471 4.710449 12.449422 15.073970 0.587428 0.599020 -0.004095 0.005272 656704.000000 1 0 0
1.063971 -14.473051 12.508922 19.159185 -1.497414 0.859397 0.002039 -0.001060 363627.000000 1 0 0
2.940471 8.777149 -9.125478 12.998425 1.247534 2.349061 0.006255 -0.000442 2417770.000000 1 0 0
-4.406729 -8.818851 -4.601678 10.879652 1.107393 2.007508 0.006704 0.001242 2380330.000000 1 0 0
5.665471 -6.506651 -4.039678 9.526440 -0.854396 2.008708 0.000673 -0.001185 2167420.000000 1 0 0
-3.022929 3.420849 8.610522 9.745840 -0.847072 0.487498 -0.002494 -0.000776 1318840.000000 1 0 0
-3.774629 3.129049 -11.119278 12.152247 -0.692157 2.726298 0.004007 -0.004368 265319.000000 1 0 0
2.923371 -6.117651 8.463322 10.844334 -1.125018 0.675431 -0.005744 -0.000937 -1130070.000000 1 0 0
-5.157129 -8.783851 10.496122 14.626025 1.039905 0.770398 -0.000405 0.001410 2097130.000000 1 0 0
-13.295729 -2.440951 6.594122 15.040515 0.181567 1.116952 0.001198 -0.000911 -168510.000000 1 0 0
3.950571 -5.845251 -8.404178 10.972884 -0.976456 2.443243 -0.004177 0.001648 3061630.000000 1 0 0
2.982671 -0.638251 12.316722 12.688788 -0.210807 0.242763 -0.005167 -0.001079 1203890.000000 1 0 0
1.453071 -1.375251 -7.619578 7.877861 -0.757891 2.884818 -0.002338 -0.001460 -37873.100000 1 0 0
3.612271 -3.528251 3.436722 6.108037 -0.773632 0.973202 0.001639 -0.003381 1911710.000000 1 0 0
1.568271 0.523649 -11.858678 11.973384 0.322262 3.003062 -0.001495 -0.003460 443997.000000 1 0 0
4.066771 3.640549 -10.603478 11.925853 0.730154 2.666208 -0.001267 0.000725 499926.000000 1 0 0
2.843371 3.242349 3.369322 5.472652 0.850864 0.907566 -0.005217 0.001503 -267319.000000 1 0 0
-5.234729 0.845049 2.648122 5.926976 -0.160050 1.107621 0.000102 -0.002124 820444.000000 1 0 0
-9.510229 -9.213751 5.730722 14.428404 0.769565 1.162351 0.002724 0.001270 -2797860.000000 1 0 0
-3.040129 3.895649 -0.596978 4.977434 -0.908127 1.691023 -0.000662 -0.003367 750419.000000 1 0 0
-15.872729 -6.429051 5.046222 17.853307 0.384842 1.284242 0.011186 -0.000422 1569180.000000 1 0 0
0.941271 6.725149 -8.085778 10.559045 1.431737 2.443031 0.001872 -0.000030 822437.000000 1 0 0
-1.667729 6.649749 -9.519378 11.731114 -1.325069 2.517449 0.001190 -0.000186 -142328.000000 1 0 0
2.060671 -0.392751 5.354022 5.750319 -0.188335 0.373427 -0.002256 -0.000942 1747020.000000 1 0 0
-3.382929 -0.595251 -6.329778 7.201710 0.174174 2.644404 0.004695 -0.003703 639403.000000 1 0 0
1.859571 -1.155651 -2.327678 3.195562 -0.556050 2.386794 0.004035 0.000018 1508440.000000 1 0 0
2.458771 -8.505851 -7.674078 11.716933 -1.289399 2.284921 -0.004005 0.004229 912177.000000 1 0 0
-2.437829 14.055749 -5.601178 15.325805 -1.399065 1.944938 -0.000344 -0.000671 1645100.000000 1 0 0
6.818771 -5.014451 -8.198678 11.783831 -0.634084 2.340269 0.001689 -0.002734 3385520.000000 1 0 0
-14.150829 -4.922051 -2.293678 15.156962 0.334738 1.722708 -0.002206 0.000823 107906.000000 1 0 0
-2.741529 6.933349 -6.790178 10.084336 -1.194251 2.309512 -0.004558 0.000091 -2953650.000000 1 0 0
-5.697929 -1.149151 -8.132578 9.996288 0.199009 2.521044 0.009979 -0.008617 327822.000000 1 0 0
-5.784729 -10.594751 3.567122 12.587144 1.071030 1.283465 0.003204 -0.001828 -2378880.000000 1 0 0
8.012671 -7.509251 6.651522 12.838789 -0.752977 1.026191 -0.004253 -0.003740 -269737.000000 1 0 0
8.672771 -5.997351 13.132022 16.841472 -0.605009 0.676541 -0.002673 0.002209 477462.000000 1 0 0
-4.627429 9.604349 -0.757978 10.687897 -1.121810 1.641775 0.000393 -0.003277 -448386.000000 1 0 0
2.723171 6.524949 12.196822 14.097982 1.175425 0.525354 -0.003177 0.004030 -45858.200000 1 0 0
5.961771 -2.933351 10.851922 12.724444 -0.457249 0.549395 -0.004552 -0.002637 -1972580.000000 1 0 0
-9.625529 -6.384451 -1.086678 11.601418 0.585656 1.664602 0.000982 -0.000040 -1074550.000000 1 0 0
0.820871 -13.459851 6.290522 14.879922 -1.509885 1.134316 0.007144 -0.002553 753895.000000 1 0 0
-0.650329 -3.185451 8.709422 9.296454 1.369408 0.357272 -0.005041 -0.000871 1263190.000000 1 0 0
4.215071 0.742649 3.513622 5.537499 0.174399 0.883416 -0.002869 0.001965 1222020.000000 1 0 0
-10.145729 5.579149 8.288122 14.239231 -0.502767 0.949533 -0.006822 -0.006532 24331.400000 1 0 0
9.367771 7.890849 0.041122 12.248360 0.700030 1.567439 -0.000055 0.002890 772089.000000 1 0 0
4.334571 2.870649 8.169722 9.683671 0.584951 0.566733 -0.006823 0.000306 3381760.000000 1 0 0
1.305371 2.689349 -9.848078 10.291804 1.118909 2.846879 0.000303 -0.003663 2154270.000000 1 0 0
-1.434229 -10.248451 3.115822 10.807225 1.431753 1.278336 0.010830 -0.002785 -1588320.000000 1 0 0
-9.839829 9.531849 9.077822 16.434270 -0.769501 0.985590 -0.005479 -0.009678 1443410.000000 1 0 0
9.713371 -2.022551 -7.663778 12.536897 -0.205290 2.228496 0.010562 -0.003162 1833360.000000 1 0 0
-5.152129 -1.815351 6.724622 8.663745 0.338767 0.682213 0.000839 -0.002122 253788.000000 1 0 0
3.123671 -7.732351 -4.916978 9.681077 -1.186869 2.103537 -0.004407 0.002096 2528970.000000 1 0 0
-5.101929 4.915949 -13.060778 14.858673 -0.766835 2.644558 0.000101 -0.001914 1928690.000000 1 0 0
-5.617429 9.562249 5.472122 12.366739 -1.039649 1.112426 -0.000712 -0.000344 1423190.000000 1 0 0
-0.404729 -1.722151 -9.468778 9.632620 1.339971 2.956890 -0.001563 -0.005361 -216321.000000 1 0 0
-16.770129 0.332649 6.361722 17.939325 -0.019833 1.208284 0.005140 -0.007008 -665736.000000 1 0 0
-5.942929 -2.876351 4.134722 7.790233 0.450762 1.011303 -0.003420 -0.001240 2230090.000000 1 0 0
0.973071 -5.579951 -5.147678 7.653843 -1.398146 2.308461 -0.000436 0.001073 246276.000000 1 0 0
-7.001329 1.462749 -8.489078 11.100572 -0.205962 2.441438 0.006340 -0.004122 337842.000000 1 0 0
8.102671 1.900949 4.794122 9.604712 0.230440 1.048187 -0.004453 0.002998 1676240.000000 1 0 0
0.532071 -8.064251 -0.530278 8.099163 -1.504913 1.636316 0.004625 0.002723 15712.000000 1 0 0
5.537971 5.437949 -3.416678 8.480218 0.776286 1.985479 -0.000130 0.002775 320450.000000 1 0 0
-0.791629 -0.374751 -1.167978 1.459893 0.442136 2.498164 0.002252 0.000826 715622.000000 1 0 0
9.088171 6.463849 -6.325078 12.821186 0.618228 2.086710 0.001686 0.002387 839188.000000 1 0 0
-14.959429 -7.002951 2.545022 16.712360 0.437828 1.417918 -0.003113 0.004823 57381.900000 1 0 0
-6.345229 6.860349 8.879522 12.890781 -0.824386 0.810926 -0.002110 -0.002810 51099.100000 1 0 0
-9.432329 -3.173351 -9.654878 13.865629 0.324538 2.341050 0.010041 -0.001026 1526690.000000 1 0 0
14.941071 3.441449 -1.246078 15.382844 0.226386 1.651890 0.009549 0.004360 1123480.000000 1 0 0
12.063371 1.688049 -5.825878 13.502418 0.139029 2.016917 0.011705 0.001686 -1051250.000000 1 0 0
1.715871 -9.510251 12.768822 16.013491 -1.392293 0.647857 -0.010778 0.000706 -2146200.000000 1 0 0
-3.555029 6.336949 7.898622 10.732352 -1.059547 0.743707 -0.001450 0.001178 1071830.000000 1 0 0
-4.055629 13.161549 -12.432278 18.553599 -1.271886 2.305104 -0.003159 -0.003344 912471.000000 1 0 0
-10.214329 7.797649 6.465922 14.385548 -0.652024 1.104621 -0.007377 -0.008487 775693.000000 1 0 0
8.015071 -9.208751 -7.093978 14.119737 -0.854592 2.097187 0.000690 -0.000551 790773.000000 1 0 0
5.831471 -3.837751 -0.343178 6.989432 -0.582056 1.619916 0.004094 -0.000917 295541.000000 1 0 0
-1.616829 -4.485051 4.162122 6.328750 1.224804 0.853097 0.000989 -0.000103 1007720.000000 1 0 0
9.931271 -2.017051 -2.568278 10.454410 -0.200376 1.819002 0.005189 -0.002115 -2736270.000000 1 0 0
13.546371 6.924349 1.520522 15.289302 0.472535 1.471182 0.003510 0.005410 -412652.000000 1 0 0
5.385571 -3.613351 -3.183578 7.224669 -0.590950 2.027123 0.003404 -0.003882 -1724930.000000 1 0 0
-12.219129 -5.957251 1.963722 13.735070 0.453626 1.427333 -0.002900 0.003342 3173380.000000 1 0 0
3.712371 -5.820051 -0.236978 6.907304 -1.003004 1.605111 0.004260 0.000973 835739.000000 1 0 0
-5.097129 3.719649 -8.687178 10.737019 -0.630417 2.513393 0.003779 -0.002818 1214120.000000 1 0 0
-1.756629 -9.353751 7.202522 11.935440 1.385159 0.922967 -0.001000 -0.002765 2153140.000000 1 0 0
-7.400029 -7.383051 2.548622 10.759431 0.784250 1.331650 0.005619 -0.001160 -2901620.000000 1 0 0
-5.699729 13.170749 -8.499978 16.679483 -1.162374 2.105524 -0.004466 -0.006890 941107.000000 1 0 0
9.238671 -13.908751 -4.222178 17.223042 -0.984479 1.818468 0.011101 0.001716 985366.000000 1 0 0
-6.503429 -5.184151 -6.768678 10.723107 0.672995 2.253926 0.009236 -0.000675 973138.000000 1 0 0
3.348771 0.505949 -6.292078 7.145663 0.149951 2.647807 -0.000167 -0.001635 899072.000000 1 0 0
-3.555629 5.750949 4.958922 8.384916 -1.017052 0.937990 0.000862 0.000541 822811.000000 1 0 0
-2.558729 -10.703351 -2.851978 11.368491 1.336142 1.824372 0.005506 0.003961 1969550.000000 1 0 0
-12.530329 -0.428051 1.665622 12.647793 0.034148 1.438720 0.000734 -0.002746 777200.000000 1 0 0
8.390671 -11.987251 -6.100578 15.852905 -0.960093 1.965813 0.004589 -0.000548 -1030390.000000 1 0 0
6.122071 3.955849 1.029022 7.361208 0.573672 1.430547 -0.000785 0.002226 -305855.000000 1 0 0
3.390571 -4.793751 -11.022478 12.488837 -0.955195 2.652132 -0.006687 0.002913 -598484.000000 1 0 0
-7.594929 4.275249 8.594322 12.240224 -0.512700 0.792401 -0.000240 -0.003218 2035870.000000 1 0 0
8.261071 8.788149 4.130322 12.748977 0.816303 1.240871 0.003769 0.003635 1385860.000000 1 0 0
0.264971 10.616849 -6.387478 12.393045 1.545844 2.112280 0.001389 0.001505 1310640.000000 1 0 0
5.461171 8.199849 3.298622 10.389553 0.983249 1.247711 -0.000676 0.003808 3643650.000000 1 0 0
8.095171 6.717249 -3.740878 11.164560 0.692640 1.912473 -0.002670 0.003139 -542176.000000 1 0 0
10.471871 2.523149 -8.256878 13.572118 0.236439 2.224802 0.001102 0.002319 1062230.000000 1 0 0
3.300171 -12.513151 -0.309778 12.944730 -1.312932 1.594729 0.006431 0.002041 -1661760.000000 1 0 0
0.650571 2.135249 5.286922 5.738822 1.275050 0.399500 -0.000276 -0.000682 -239095.000000 1 0 0
-4.820229 13.438049 1.428122 14.347658 -1.226392 1.471094 -0.001366 0.001199 2213230.000000 1 0 0
8.183371 4.077949 -8.005178 12.152370 0.462304 2.289931 0.002246 0.001850 -780301.000000 1 0 0
-13.884029 -0.457451 -3.637378 14.359876 0.032936 1.826888 -0.001031 -0.004148 1191460.000000 1 0 0
-8.547929 0.094249 -0.508978 8.563588 -0.011025 1.630267 -0.000456 -0.002953 -22001.400000 1 0 0
1.775071 -3.867051 -1.148578 4.407288 -1.140463 1.834449 0.006002 0.002875 -606648.000000 1 0 0
8.156971 -5.595951 -0.293478 9.896311 -0.601290 1.600456 0.004873 -0.003107 3075500.000000 1 0 0
-2.278029 -1.144351 7.425522 7.850945 0.465520 0.330708 0.000379 -0.002646 1764770.000000 1 0 0
-5.858029 8.838949 -11.709378 15.797248 -0.985509 2.405696 -0.005561 0.003655 -2127240.000000 1 0 0
-6.176329 9.192349 -8.869878 14.188765 -0.979180 2.246099 -0.009508 0.002776 -371115.000000 1 0 0
-1.562829 14.017549 -8.458378 16.446224 -1.459764 2.110994 0.005637 -0.005644 -1228040.000000 1 0 0
-1.411129 7.179249 9.806422 12.235147 -1.376714 0.641003 -0.002802 0.001348 -131873.000000 1 0 0
10.021871 2.327449 -4.016478 11.044773 0.228192 1.942984 0.002714 0.001841 -1238410.000000 1 0 0
-2.922329 -7.431851 -7.012878 10.627929 1.196151 2.291420 0.008011 -0.000020 253107.000000 1 0 0
-5.596529 -5.027851 -1.478378 7.667205 0.731923 1.764830 0.004410 -0.001340 -133445.000000 1 0 0
5.648371 7.419849 -8.792878 12.816901 0.920133 2.326825 0.003041 0.001394 330886.000000 1 0 0
-9.547129 5.185949 -7.552078 13.231615 -0.497603 2.178228 -0.001102 0.000942 593249.000000 1 0 0
-0.410829 6.180849 -5.338978 8.177797 -1.504426 2.282154 -0.000376 0.001366 -1483630.000000 1 0 0
-8.174929 2.766049 -6.342578 10.710219 -0.326266 2.204581 0.004680 -0.002440 2114270.000000 1 0 0
3.694271 1.325849 -1.916978 4.368102 0.344575 2.025124 -0.000483 0.000450 3352530.000000 1 0 0
-6.697629 12.511549 -3.429878 14.600040 -1.079297 1.807935 0.001483 -0.000149 1738870.000000 1 0 0
-6.525629 3.123949 -2.373678 7.614279 -0.446479 1.887820 0.000565 -0.001224 -853800.000000 1 0 0
12.146171 3.973649 -0.791578 12.804138 0.316177 1.632658 0.003666 0.003227 346139.000000 1 0 0
2.243571 12.371249 -5.492478 13.720376 1.391393 1.982657 0.004654 0.000657 -712277.000000 1 0 0
-9.185029 -1.405451 -4.304178 10.240410 0.151838 2.004587 0.001827 -0.001536 -853862.000000 1 0 0
-1.041029 5.845549 3.406922 6.845532 -1.394555 1.049868 -0.001043 -0.000814 2070850.000000 1 0 0
11.507671 2.665949 12.109122 16.916401 0.227651 0.772997 0.000886 0.001530 262368.000000 1 0 0
-7.101129 -2.358551 -5.721178 9.419165 0.320674 2.223577 0.007158 -0.002834 742636.000000 1 0 0
7.447171 -7.466751 10.816022 15.106259 -0.786711 0.772746 -0.006576 0.000955 -437130.000000 1 0 0
-5.472129 -1.998751 -10.912878 12.370534 0.350204 2.651241 0.012445 -0.004799 -989554.000000 1 0 0
0.825671 -6.208951 4.481822 7.701918 -1.438591 0.949721 0.000774 0.000148 387758.000000 1 0 0
-4.837329 -9.408351 7.404422 12.912873 1.095891 0.960129 -0.002536 0.000141 3752890.000000 1 0 0
-8.772929 9.290649 1.649722 12.884177 -0.814051 1.442401 0.009448 -0.006784 304549.000000 1 0 0
-8.069229 7.175649 -9.110078 14.127842 -0.726850 2.271599 -0.003559 0.003266 -870927.000000 1 0 0
-1.166029 -10.595151 -0.043678 10.659210 1.461184 1.574894 0.009015 0.000411 118106.000000 1 0 0
-3.947229 10.247049 7.818322 13.479940 -1.203108 0.952072 -0.000498 0.000589 2291070.000000 1 0 0
-7.452929 11.972649 2.006522 14.244880 -1.013999 1.429467 0.005429 -0.006948 2702140.000000 1 0 0
-8.235829 -8.269751 -2.891378 12.024048 0.787453 1.813643 0.008045 -0.000805 -145557.000000 1 0 0
5.421971 4.630149 -8.040978 10.746784 0.706789 2.416174 0.001667 0.002464 745743.000000 1 0 0
-8.908929 -0.095951 -10.199778 13.543031 0.010770 2.423616 0.006332 -0.002271 -830447.000000 1 0 0
-15.133229 -2.202151 -1.556978 15.371671 0.144503 1.672259 -0.001061 -0.002175 -750897.000000 1 0 0
-7.192029 -5.736051 8.745222 12.692772 0.673249 0.810699 0.001042 0.003126 -1326620.000000 1 0 0
8.139271 3.527749 -0.930678 8.919580 0.408983 1.675328 0.000276 0.003501 541276.000000 1 0 0
11.894771 7.276749 -5.873378 15.130539 0.549022 1.969453 0.004383 0.003641 -274346.000000 1 0 0
3.788871 13.360849 -9.499678 16.825924 1.294471 2.170728 0.001478 -0.005794 621472.000000 1 0 0
-9.686329 5.508549 -0.492878 11.154013 -0.517082 1.614999 0.002206 -0.006221 2082930.000000 1 0 0
11.244571 -1.283551 -5.205478 12.457322 -0.113657 2.001890 0.013626 -0.003152 -596917.000000 1 0 0
10.549371 1.724549 -1.180078 10.754342 0.162041 1.680748 0.001134 0.002330 -610633.000000 1 0 0
14.670671 5.006949 4.847022 16.241667 0.328894 1.267748 0.005673 0.001322 3708970.000000 1 0 0
0.823771 -0.911851 10.266422 10.339705 -0.836103 0.119129 -0.001884 -0.002332 2156520.000000 1 0 0
-7.933229 1.387049 -12.632178 14.981053 -0.173091 2.574024 0.001877 0.001130 55403.500000 1 0 0
3.184671 -11.430551 -7.869878 14.238490 -1.299077 2.156419 0.000440 0.001882 -929394.000000 1 0 0
2.848171 4.958549 -6.781978 8.870993 1.049416 2.441080 -0.000256 0.002511 -1567240.000000 1 0 0
6.481171 7.982449 0.637922 10.302039 0.888825 1.508835 -0.000645 0.001485 -907055.000000 1 0 0
-9.115629 -5.346851 6.756022 12.543020 0.530478 1.001988 -0.000657 0.001188 -3800420.000000 1 0 0
-0.239429 -6.836851 -11.876478 13.705860 1.535790 2.618995 -0.000482 0.002073 3401700.000000 1 0 0
6.402571 -13.394451 -4.651978 15.557800 -1.124902 1.874454 0.005402 -0.002125 3282190.000000 1 0 0
-3.216329 -0.293151 10.113422 10.616592 0.090893 0.309108 -0.002073 -0.001338 32626.200000 1 0 0
8.637071 8.464949 7.002622 13.974658 0.775334 1.045933 0.000271 0.002416 -277771.000000 1 0 0
-7.882029 5.729449 -2.692278 10.109467 -0.628553 1.840362 0.003722 -0.004797 268135.000000 1 0 0
-5.320329 5.819749 -6.347878 10.122793 -0.830199 2.248605 -0.002674 -0.000561 50090.700000 1 0 0
3.375671 -13.726651 2.488122 14.352939 -1.329660 1.396563 0.014842 -0.004346 -1935010.000000 1 0 0
-11.286529 -6.945751 6.564822 14.789391 0.551667 1.110864 0.005243 0.000688 -1485950.000000 1 0 0
-12.865129 -3.656351 -6.750078 14.981455 0.276905 2.038191 0.007187 -0.003408 -1326000.000000 1 0 0
5.957871 0.469349 -7.336678 9.462735 0.078616 2.458023 -0.000035 0.000694 -488358.000000 1 0 0
-1.423429 2.180549 -2.510678 3.617243 -0.992466 2.337946 0.000014 -0.001734 4236500.000000 1 0 0
7.571471 0.848749 -4.990278 9.107712 0.111632 2.150669 0.002558 0.001309 309842.000000 1 0 0
3.653471 -4.607651 10.766322 12.267518 -0.900391 0.499904 -0.007923 -0.000180 1085860.000000 1 0 0
6.014771 -2.519651 2.105522 6.852688 -0.396702 1.258489 0.004446 -0.002964 727858.000000 1 0 0
-6.253229 7.825249 1.085722 10.075524 -0.896599 1.462828 0.001776 -0.005167 2618180.000000 1 0 0
5.978271 -3.555051 7.887922 10.516531 -0.536485 0.722659 -0.001070 -0.003713 195544.000000 1 0 0
6.672671 -2.189051 -7.867278 10.545641 -0.316999 2.412864 0.002610 -0.003968 739952.000000 1 0 0
12.096671 -8.102251 -5.883878 15.703373 -0.590163 1.954857 0.010717 -0.002199 -581123.000000 1 0 0
5.483571 -9.725751 9.957122 14.960082 -1.057405 0.842526 -0.008331 0.002762 1095490.000000 1 0 0
-6.588229 7.516849 -4.400178 10.921051 -0.851139 1.985488 -0.001846 -0.002585 883046.000000 1 0 0
-1.434529 -7.689551 9.746622 12.497348 1.386361 0.676298 -0.006767 -0.000297 -420494.000000 1 0 0
10.061871 -9.368651 0.733822 13.767765 -0.749736 1.517471 0.004329 -0.000802 1021940.000000 1 0 0
11.133771 6.050049 9.856922 16.053749 0.497759 0.909684 0.004106 0.002348 1411040.000000 1 0 0
-15.199529 -4.111451 -5.057478 16.538071 0.264176 1.881584 -0.005427 0.000399 2315440.000000 1 0 0
-4.740129 -4.575851 7.840522 10.241144 0.767766 0.698838 0.000237 -0.001210 -115561.000000 1 0 0
2.953871 11.021749 -11.087878 15.910542 1.308946 2.341846 0.007230 -0.002501 411829.000000 1 0 0
9.919071 -1.475751 1.623422 10.158804 -0.147696 1.410304 0.002204 0.000322 112547.000000 1 0 0
-1.629529 -2.664651 0.707622 3.202571 1.021938 1.348003 0.000854 0.000443 639414.000000 1 0 0
1.574371 3.050349 0.912722 3.551948 1.094330 1.310917 -0.002042 0.000155 83901.100000 1 0 0
-8.941729 -2.313951 4.309322 10.192112 0.253226 1.134253 0.000716 -0.003076 3485830.000000 1 0 0
9.966571 4.873249 -2.669778 11.410907 0.454776 1.806952 -0.002595 0.004381 1711160.000000 1 0 0
2.599771 8.481449 2.484722 9.212363 1.273365 1.297698 -0.002333 0.000186 2315800.000000 1 0 0
-8.048529 -0.021251 2.451822 8.413721 0.002640 1.275098 -0.002804 -0.002924 2026380.000000 1 0 0
6.861171 1.949849 13.748022 15.488244 0.276886 0.478596 -0.007364 -0.004772 -705389.000000 1 0 0
6.863271 4.398749 3.810322 8.998446 0.569960 1.133555 -0.004542 0.002811 1072640.000000 1 0 0
-0.257629 3.317149 7.829622 8.507222 -1.493286 0.401822 -0.003184 -0.000937 192399.000000 1 0 0
2.631071 -10.314651 9.184522 14.059517 -1.321041 0.858914 -0.000015 -0.004780 3458000.000000 1 0 0
1.281871 -4.464851 6.832622 8.262131 -1.291213 0.597080 -0.003993 -0.000679 -531467.000000 1 0 0
-0.078429 10.845449 -1.930378 11.016182 -1.563565 1.746937 0.000376 -0.001136 1303010.000000 1 0 0
8.822171 5.460449 8.065622 13.141593 0.554234 0.909998 -0.004457 0.003685 214586.000000 1 0 0
2.713071 11.385549 -2.896778 12.057479 1.336868 1.813417 0.003296 -0.000880 1771470.000000 1 0 0
1.422871 2.484649 -6.800078 7.378286 1.050719 2.743066 -0.000569 -0.000891 676113.000000 1 0 0
-13.557029 -2.143451 3.562722 14.180282 0.156808 1.316830 0.003008 -0.003813 1533310.000000 1 0 0
-0.990029 -10.597951 -5.444778 11.955849 1.477650 2.043626 0.002629 0.000963 2274530.000000 1 0 0
-5.657429 2.824149 0.372422 6.334116 -0.463002 1.511966 0.002574 -0.004665 597756.000000 1 0 0
3.791871 7.232049 -5.073678 9.613689 1.087887 2.126752 0.000172 0.001007 -1377140.000000 1 0 0
2.952671 9.766249 -6.473278 12.083096 1.277199 2.136168 0.004205 0.000857 1530530.000000 1 0 0
-12.184829 1.746449 -2.577478 12.576309 -0.142360 1.777206 0.002825 -0.006270 646550.000000 1 0 0
-2.457829 9.660649 -5.739678 11.502737 -1.321665 2.093222 -0.005568 0.000506 327612.000000 1 0 0
-1.320429 3.386349 1.786522 4.050007 -1.199004 1.113955 -0.002238 -0.001293 -277335.000000 1 0 0
12.925371 3.713149 9.731022 16.599563 0.279743 0.944409 0.009714 0.001286 -576788.000000 1 0 0
-2.550529 -9.560751 11.743922 15.356851 1.310097 0.700166 -0.008811 -0.000526 1086480.000000 1 0 0
-0.422629 -8.875451 -7.550178 11.660079 1.523215 2.275127 0.004335 0.001929 2600000.000000 1 0 0
2.436771 7.636049 -0.484478 8.030057 1.261897 1.631166 -0.002291 0.000602 872697.000000 1 0 0
-11.812429 -1.201651 -5.599978 13.127726 0.101379 2.011500 0.002196 -0.001843 -1301260.000000 1 0 0
-6.137129 -7.184451 -10.971578 14.479510 0.863855 2.430626 0.004362 -0.001237 410568.000000 1 0 0
-4.814029 -2.271951 -1.324178 5.485443 0.440952 1.814603 0.000888 -0.000729 -887394.000000 1 0 0
-10.437229 3.726249 4.451522 11.943062 -0.342911 1.188848 0.000882 -0.007257 2313590.000000 1 0 0
6.732971 9.312349 -3.632378 12.051843 0.944790 1.876953 0.000522 0.003352 1031450.000000 1 0 0
1.237771 -2.607251 -11.632078 11.984785 -1.127559 2.898385 -0.003486 -0.000808 -1194060.000000 1 0 0
1.260771 8.714949 7.572322 11.613782 1.427125 0.860562 -0.005094 0.007540 975550.000000 1 0 0
10.323171 0.425249 10.548222 14.765286 0.041170 0.775040 -0.005301 -0.000855 825828.000000 1 0 0
-5.162929 -0.890751 -3.910678 6.537788 0.170846 2.212006 0.006050 -0.002804 1028790.000000 1 0 0
11.764771 5.660349 5.498522 14.166267 0.448436 1.172182 0.002081 0.005411 3156970.000000 1 0 0
9.941971 -3.521351 3.715722 11.182544 -0.340403 1.232078 0.008210 -0.005093 -761461.000000 1 0 0
7.360671 -1.729151 -3.356178 8.272446 -0.230734 1.988547 0.004580 0.000576 -4081930.000000 1 0 0
2.343871 9.176749 10.526822 14.160524 1.320729 0.732669 -0.004127 0.006325 1517940.000000 1 0 0
2.406571 -11.083751 6.369722 13.008247 -1.356989 1.059087 0.000938 -0.002387 1415350.000000 1 0 0
5.907071 -7.511951 -1.242778 9.636773 -0.904430 1.700119 0.000106 -0.001361 1056460.000000 1 0 0
-0.341629 -5.583551 -2.315478 6.054270 1.509688 1.963247 0.004270 0.003000 2542650.000000 1 0 0
7.752671 -5.037251 2.665822 9.622079 -0.576195 1.290071 0.002860 -0.005205 1743230.000000 1 0 0
-2.813129 -12.543251 4.731222 13.697858 1.350173 1.218133 0.009522 -0.004924 -361497.000000 1 0 0
4.830971 -10.300851 -1.124678 11.432879 -1.132265 1.669328 0.002680 0.000589 1019690.000000 1 0 0
0.951671 0.198249 1.121022 1.483803 0.205379 0.714370 -0.001783 0.000054 -337080.000000 1 0 0
-1.604929 8.620549 2.401622 9.091614 -1.386729 1.303466 -0.001458 0.001705 -695546.000000 1 0 0
-7.520729 0.669249 -3.136878 8.176140 -0.088753 1.964555 0.000378 0.000019 -807808.000000 1 0 0
4.330471 -6.405951 12.815622 14.967610 -0.976355 0.542881 -0.005446 -0.000034 -207370.000000 1 0 0
-5.133929 13.009049 8.459422 16.344859 -1.194917 1.026801 -0.001715 -0.005120 -378372.000000 1 0 0
0.717871 6.022849 8.307822 10.286397 1.452165 0.630638 -0.003499 0.004552 448416.000000 1 0 0
7.988371 -0.546951 -0.683378 8.036183 -0.068362 1.655937 0.005516 0.000537 4109620.000000 1 0 0
2.442571 -9.212851 -2.399878 9.828641 -1.311632 1.817462 -0.001092 0.002162 907416.000000 1 0 0
-7.061729 12.096649 4.873422 14.830616 -1.042392 1.235970 -0.001523 -0.003485 982218.000000 1 0 0
-14.969829 0.336649 0.120822 14.974101 -0.022485 1.562728 0.003336 -0.006262 1683750.000000 1 0 0
6.924971 -0.520651 3.992722 8.010501 -0.075043 1.049003 0.000196 0.000228 663599.000000 1 0 0
-4.211729 -5.075351 5.061422 8.313594 0.878123 0.916233 0.001517 -0.001222 1175400.000000 1 0 0
2.978771 5.126649 6.894822 9.093634 1.044437 0.710243 -0.005780 0.002274 -831782.000000 1 0 0
2.073371 -7.250151 1.839822 7.761991 -1.292255 1.331489 0.000902 0.000997 2572450.000000 1 0 0
-2.421229 6.443649 -1.761778 7.105408 -1.211364 1.821359 -0.001893 0.000605 2064940.000000 1 0 0
2.721971 -3.739551 -6.588678 8.050096 -0.941598 2.529521 -0.005215 -0.000577 -715265.000000 1 0 0
-5.112329 0.872949 -12.236878 13.290565 -0.169123 2.740716 0.006701 -0.001019 -88562.800000 1 0 0
-7.471429 6.341849 -11.893978 15.411295 -0.703805 2.452417 -0.002072 0.001105 1899300.000000 1 0 0
-1.036729 11.260049 -9.013178 14.460321 -1.478984 2.243757 0.002087 -0.000297 234394.000000 1 0 0
4.642971 5.859949 -0.647478 7.504359 0.900754 1.657184 -0.000867 0.002086 63375.400000 1 0 0
-2.569129 13.325549 3.526422 14.021638 -1.380336 1.316568 -0.005492 0.003652 121043.000000 1 0 0
1.339671 -8.039951 10.120622 12.994711 -1.405686 0.678004 -0.002938 -0.003086 -1355570.000000 1 0 0
12.967471 -0.373351 -0.939378 13.006811 -0.028783 1.643081 0.011169 -0.001800 1144110.000000 1 0 0
-1.007529 3.175549 -5.398478 6.343721 -1.263565 2.588674 0.001588 -0.003154 -194389.000000 1 0 0
6.604571 0.994149 7.307322 9.899780 0.149403 0.740502 -0.004636 0.001073 974635.000000 1 0 0
5.379771 -6.236551 6.904322 10.747380 -0.859021 0.873146 -0.002751 -0.003752 652063.000000 1 0 0
12.220271 -4.889151 2.593422 13.415091 -0.380580 1.376250 0.011868 -0.003603 -442528.000000 1 0 0
4.382471 -9.221651 13.866322 17.219750 -1.127155 0.634688 -0.005780 0.004805 -27185.000000 1 0 0
-2.805229 -4.330551 -1.356978 5.335201 0.995986 1.827966 0.006001 0.000474 1943040.000000 1 0 0
-9.304929 -5.172451 -7.594178 13.076983 0.507349 2.190420 0.010967 -0.001356 307252.000000 1 0 0
-10.632529 -3.055751 7.929122 13.610998 0.279854 0.948931 0.000980 0.000305 -162413.000000 1 0 0
12.065071 -0.760751 1.776122 12.218809 -0.062971 1.424920 0.006685 0.002315 -99614.100000 1 0 0
-7.545229 4.629049 4.292522 9.837902 -0.550292 1.119286 0.004260 -0.006198 2522640.000000 1 0 0
-1.092429 10.508549 6.912622 12.625662 -1.467212 0.991416 -0.001165 0.004879 2434740.000000 1 0 0
7.362171 -10.076751 1.823922 12.612262 -0.939821 1.425672 -0.000841 -0.000450 3571960.000000 1 0 0
-4.280429 -1.761451 1.743522 4.946176 0.390392 1.210556 -0.001868 0.000131 1322130.000000 1 0 0
6.642071 -15.070751 -1.005578 16.500177 -1.155681 1.631778 0.007603 0.001423 -1681550.000000 1 0 0
-10.399929 1.735449 2.325522 10.797146 -0.165348 1.353712 -0.000688 -0.003566 772145.000000 1 0 0
-3.039129 8.456849 -11.406378 14.521021 -1.225799 2.474313 -0.002424 0.002001 -1194560.000000 1 0 0
-1.218629 -5.095351 -6.954278 8.706873 1.336041 2.495947 -0.000018 -0.000955 -115769.000000 1 0 0
12.750171 -0.605651 6.581022 14.361181 -0.047466 1.094770 0.008809 -0.002325 3170660.000000 1 0 0
5.988671 -13.477451 3.762622 15.220486 -1.152653 1.320999 0.006010 -0.001372 66913.400000 1 0 0
-5.481129 3.513149 -4.933178 8.168307 -0.569989 2.219233 0.000290 -0.001604 2768980.000000 1 0 0
-4.384529 8.090149 3.358822 9.795728 -1.074148 1.220808 0.001872 -0.000170 569187.000000 1 0 0
13.955571 6.145349 -3.908078 15.741548 0.414801 1.821685 0.017142 0.005395 33305.700000 1 0 0
-6.803529 -8.483751 5.307822 12.101034 0.894869 1.116728 0.003152 0.000261 126908.000000 1 0 0
1.701071 11.389649 2.767122 11.843762 1.422540 1.334981 -0.001863 0.000851 957834.000000 1 0 0
-7.423929 7.217949 5.958422 11.946393 -0.771331 1.048625 -0.000956 -0.004429 198200.000000 1 0 0
-17.440129 -3.953151 5.366822 18.670519 0.222903 1.279234 0.015379 -0.006337 -1759080.000000 1 0 0
7.491271 -13.027451 -8.574978 17.302135 -1.048934 2.089324 0.008487 -0.002383 -766588.000000 1 0 0
-2.237829 12.859549 -2.837978 13.357769 -1.398501 1.784887 -0.002872 0.000286 2070230.000000 1 0 0
-5.467129 13.861149 -5.759878 15.974891 -1.195109 1.939663 -0.002848 -0.002565 2548240.000000 1 0 0
-5.597129 2.444649 7.425522 9.614704 -0.411796 0.688328 0.002179 -0.003195 1430170.000000 1 0 0
-7.372929 5.149649 1.418722 9.104490 -0.609687 1.414332 0.004071 -0.005631 477145.000000 1 0 0
10.754871 -5.645451 -5.081778 13.166732 -0.483385 1.967040 0.008248 -0.004683 2333540.000000 1 0 0
-9.517229 -0.699751 6.823422 11.731427 0.073393 0.950058 -0.000362 -0.003728 1093250.000000 1 0 0
-11.227929 -4.469751 -2.579178 12.357072 0.378861 1.781063 -0.000898 -0.000021 1456820.000000 1 0 0
6.415571 -4.313951 13.485022 15.543987 -0.591974 0.520563 -0.007169 -0.004441 -1113890.000000 1 0 0
0.228871 10.328349 -11.609678 15.540650 1.548640 2.414413 0.003291 -0.002469 -1765500.000000 1 0 0
-11.738829 -3.219951 1.421222 12.255124 0.267715 1.454565 -0.002467 -0.000748 3972980.000000 1 0 0
5.220371 5.970449 5.442922 9.618936 0.852324 0.969327 -0.004030 0.003944 -5832880.000000 1 0 0
-7.107129 -0.018351 8.118722 10.790054 0.002582 0.719058 -0.000185 -0.002193 1006450.000000 1 0 0
1.790971 1.977649 9.557422 9.922852 0.834893 0.272233 -0.003423 -0.001022 1599930.000000 1 0 0
10.538771 -4.911551 -2.093778 11.814099 -0.436117 1.748965 0.005735 -0.003059 1645030.000000 1 0 0
-9.678429 -2.331551 -1.647178 10.090655 0.236397 1.734768 -0.000059 -0.001439 -1995040.000000 1 0 0
-1.995529 -5.178051 -9.959378 11.401033 1.202955 2.633246 0.006802 -0.004147 1202380.000000 1 0 0
7.573271 -1.644451 6.636422 10.202977 -0.213820 0.862633 -0.002851 -0.003738 1862440.000000 1 0 0
1.503071 -11.858151 -2.625378 12.237956 -1.444714 1.787004 0.004484 0.003910 -4064080.000000 1 0 0
-0.749229 -1.424151 4.820522 5.082026 1.086497 0.322192 -0.000648 -0.002749 2573310.000000 1 0 0
7.615771 1.495349 9.937122 12.608823 0.193883 0.663066 -0.006564 0.000186 534726.000000 1 0 0
-3.853829 10.793949 -8.024378 13.991139 -1.227867 2.181608 -0.002869 0.001124 2523330.000000 1 0 0
-9.494629 12.587449 6.421422 17.024292 -0.924553 1.184034 -0.003632 -0.007149 964790.000000 1 0 0
-2.519929 -2.400451 -11.120478 11.652349 0.761121 2.838289 0.007609 -0.006803 -1740610.000000 1 0 0
1.160171 -11.924851 11.100022 16.332745 -1.473811 0.823555 -0.001396 -0.000456 1898750.000000 1 0 0
1.394471 3.470049 -1.876378 4.184087 1.188688 2.035833 -0.001525 0.000943 2277490.000000 1 0 0
-1.949429 -9.336851 -12.191478 15.479315 1.364965 2.477697 0.001634 0.002065 1056210.000000 1 0 0
1.328471 -2.630251 1.539522 3.324633 -1.103098 1.089346 0.005279 -0.000695 3274060.000000 1 0 0
-1.052129 -2.198451 -6.773578 7.198717 1.124433 2.796200 0.000561 -0.003524 112750.000000 1 0 0
1.922871 5.865649 4.079522 7.399038 1.254017 0.986805 -0.007509 0.002022 -2014550.000000 1 0 0
-11.007429 8.589049 3.606822 14.420278 -0.662610 1.317991 -0.002859 -0.011573 1916400.000000 1 0 0
-16.369229 -1.392051 3.995222 16.907137 0.084837 1.332236 0.007758 -0.004088 657414.000000 1 0 0
-12.249729 0.333849 6.733522 13.982405 -0.027247 1.068350 0.002830 -0.005492 445664.000000 1 0 0
-5.060529 2.971849 4.645322 7.484642 -0.531000 0.901228 0.000791 -0.000906 745760.000000 1 0 0
5.191771 -6.051551 3.914422 8.882480 -0.861720 1.114429 -0.002571 -0.002701 1013760.000000 1 0 0
9.973571 3.398649 6.342222 12.298240 0.328425 1.028970 -0.003907 0.005937 291406.000000 1 0 0
-12.113129 5.835049 3.099922 13.798015 -0.448911 1.344198 0.001043 -0.010217 926450.000000 1 0 0
-4.831729 12.439049 -1.305778 13.408229 -1.200302 1.668337 -0.002848 0.000470 1647250.000000 1 0 0
-1.732729 -12.182551 10.397422 16.109726 1.429514 0.869233 -0.005147 -0.003152 1267580.000000 1 0 0
5.131471 6.262749 14.031022 16.199494 0.884359 0.523370 -0.001474 0.003332 1918740.000000 1 0 0
12.925171 -3.635151 -5.956178 14.688445 -0.274164 1.988323 0.010971 -0.004646 1085960.000000 1 0 0
3.512371 -2.618251 6.410522 7.764456 -0.640574 0.599489 -0.003610 -0.001415 32273.700000 1 0 0
7.189971 -11.953051 -0.635278 13.963334 -1.029262 1.616308 0.002168 0.003630 -1065720.000000 1 0 0
-6.169529 -6.569051 -4.069178 9.888060 0.816751 1.994922 0.006770 -0.000038 13684.800000 1 0 0
0.352971 -9.036551 5.120222 10.392330 -1.531756 1.055615 0.004639 -0.002679 2708240.000000 1 0 0
-10.238729 2.548349 -0.405078 10.558870 -0.243937 1.609169 0.001277 -0.004332 -1983210.000000 1 0 0
-1.813829 9.006149 -0.403478 9.195841 -1.372056 1.614687 0.001536 -0.002545 739168.000000 1 0 0
-3.421229 2.316049 -6.660078 7.837444 -0.595098 2.586358 0.004230 -0.004613 52555.600000 1 0 0
-12.660729 3.067949 6.357322 14.495583 -0.237738 1.116790 -0.001950 -0.009260 -841577.000000 1 0 0
11.406071 1.614049 8.042222 14.049233 0.140575 0.961328 -0.000434 -0.000837 -2876210.000000 1 0 0
6.010971 2.557649 -3.153578 7.253854 0.402291 2.020552 -0.000571 0.002847 723432.000000 1 0 0
10.448371 -2.501851 6.476322 12.544738 -0.235024 1.028320 0.009143 -0.006279 1820430.000000 1 0 0
-0.894429 10.999849 4.050922 11.756132 -1.489662 1.219006 0.000113 0.002604 806387.000000 1 0 0
-1.661629 -12.266351 7.446322 14.445487 1.436154 1.029232 -0.001567 0.000243 305474.000000 1 0 0
8.072071 8.706849 -7.837278 14.226401 0.823212 2.154235 0.000680 -0.000588 2207540.000000 1 0 0
-4.619329 -5.952751 -8.775878 11.566740 0.910862 2.432137 0.008589 -0.003302 840531.000000 1 0 0
-8.526329 -5.386851 -11.663978 15.419625 0.563467 2.428645 0.010428 -0.000677 3104250.000000 1 0 0
5.969771 -0.606051 -9.960778 11.628524 -0.101173 2.599404 0.001771 -0.000192 445005.000000 1 0 0
-11.131729 -5.435451 -5.380178 13.505770 0.454231 1.980526 0.004751 -0.002350 -1049240.000000 1 0 0
3.874871 8.829349 -2.768878 10.031885 1.157243 1.850434 0.002741 -0.000107 1139930.000000 1 0 0
11.638771 -10.363851 -4.040278 16.099511 -0.727519 1.824465 0.007066 -0.000341 5940.720000 1 0 0
4.043571 -11.422751 3.992522 12.758132 -1.230569 1.252510 0.002369 -0.001540 354122.000000 1 0 0
-0.972629 0.926949 3.233022 3.501096 -0.761355 0.393868 -0.000454 -0.002040 -9641.100000 1 0 0
-10.580429 -5.012151 4.537322 12.556052 0.442403 1.201065 0.002769 -0.001236 2876990.000000 1 0 0
4.611471 -8.749551 2.803722 10.280134 -1.085742 1.294565 -0.002609 0.000481 4211360.000000 1 0 0
-3.683929 -5.866151 2.657322 7.419193 1.010044 1.204491 0.002218 0.000878 2375040.000000 1 0 0
9.987271 5.016049 12.414722 16.704240 0.465441 0.732944 -0.002456 0.003204 1944550.000000 1 0 0
1.605271 -12.313151 -5.361178 13.525266 -1.441157 1.978369 0.001622 0.002646 500004.000000 1 0 0
9.787671 -10.800951 -1.791678 14.685679 -0.834574 1.693103 0.003950 -0.000194 1737960.000000 1 0 0
9.579771 -4.447051 -9.221078 14.020576 -0.434610 2.288534 0.010874 -0.005938 1972900.000000 1 0 0
-7.375029 -3.100051 -13.090478 15.341512 0.397921 2.593024 0.007118 0.000210 2698600.000000 1 0 0
0.468971 6.213649 -2.490778 6.710689 1.495465 1.951060 -0.001832 0.000680 1776650.000000 1 0 0
-6.067129 -9.560551 1.080822 11.374637 1.005323 1.475632 0.003183 -0.001447 -528855.000000 1 0 0
-8.870929 -3.990051 0.583622 9.744460 0.422679 1.510868 -0.005639 0.000964 1660880.000000 1 0 0
1.873671 3.691349 12.054422 12.745422 1.101100 0.330795 -0.003298 -0.000992 -5257.900000 1 0 0
6.726371 4.295849 9.655422 12.526993 0.568360 0.690749 -0.003904 0.004353 1308350.000000 1 0 0
-8.201429 9.880749 -3.528278 13.316959 -0.878004 1.838944 0.000780 0.000574 2274400.000000 1 0 0
16.332471 2.128749 -6.011878 17.533507 0.129608 1.920777 0.013898 0.002429 -1778010.000000 1 0 0
-10.906629 2.719549 -5.149078 12.363798 -0.244365 2.000349 0.005251 -0.003379 3334860.000000 1 0 0
-13.765129 4.037349 1.401422 14.413291 -0.285301 1.473411 0.001450 -0.005435 -23470.900000 1 0 0
-17.427629 10.432149 3.221322 20.565235 -0.539388 1.413509 0.027050 -0.009984 -812622.000000 1 0 0
-14.345729 2.904549 -1.216878 14.687312 -0.199767 1.653744 0.001414 -0.005520 228151.000000 1 0 0
-14.368629 5.109949 5.073422 16.071985 -0.341684 1.249635 -0.002944 -0.008927 572601.000000 1 0 0
-17.516329 7.515749 3.030822 19.300108 -0.405314 1.413107 0.020258 -0.010269 -1510420.000000 1 0 0
-15.235729 12.625049 -3.176778 20.040240 -0.691966 1.729988 0.051909 -0.004106 -591239.000000 1 0 0
-8.426129 12.491849 -9.571678 17.851133 -0.977369 2.136718 -0.005731 -0.009011 385454.000000 1 0 0
-12.361829 8.863749 -9.869978 18.132769 -0.622061 2.146371 0.003152 0.002830 -1447750.000000 1 0 0
-13.766929 -3.569351 -12.200078 18.737943 0.253684 2.279815 0.002007 0.003878 464318.000000 1 0 0
-14.743229 5.702549 -7.606578 17.542574 -0.369068 2.019288 0.012400 0.004103 1286120.000000 1 0 0
-10.729329 13.600349 -8.303178 19.210173 -0.902860 2.017759 0.004121 -0.008090 -1483300.000000 1 0 0
-10.838229 13.562449 3.984622 17.812480 -0.896583 1.345189 0.009227 -0.005390 -255831.000000 1 0 0
-15.210029 3.314149 2.972922 15.848244 -0.214539 1.382092 -0.001763 -0.006040 -501004.000000 1 0 0
-11.114829 9.448049 -12.542178 19.238277 -0.704517 2.280935 -0.001687 0.002208 -1120430.000000 1 0 0
-12.843129 11.652449 -9.018378 19.546270 -0.736828 2.050353 0.007387 -0.011573 3650.370000 1 0 0
-8.858329 14.559049 -3.506378 17.399155 -1.024193 1.773712 0.014949 -0.005960 -688034.000000 1 0 0
-16.590829 8.279749 -4.207778 19.013554 -0.462892 1.793948 0.018520 0.001822 -1134300.000000 1 0 0
-16.817329 6.707449 0.258722 18.107440 -0.379507 1.556508 0.007818 -0.004473 -629381.000000 1 0 0
-10.543729 2.830649 -12.596378 16.668879 -0.262283 2.427492 0.008277 0.002434 605886.000000 1 0 0
-16.859629 0.956849 2.280922 17.040107 -0.056693 1.436537 0.005602 -0.006257 153550.000000 1 0 0
-12.673029 1.244749 -7.052378 14.556480 -0.097906 2.076569 0.004323 -0.004465 2155330.000000 1 0 0
-12.204329 8.990449 -5.474178 16.116465 -0.634909 1.917356 0.013718 -0.002252 -1568410.000000 1 0 0
-9.637129 13.775749 1.323522 16.864081 -0.960358 1.492234 0.026247 -0.007923 -14541.100000 1 0 0
-12.204429 11.117449 2.844722 16.752260 -0.738824 1.400158 0.008277 -0.007263 -2095950.000000 1 0 0
-12.486729 6.887549 -3.671478 14.725369 -0.504063 1.822785 0.004439 -0.003087 116727.000000 1 0 0
-15.971829 3.596549 -9.191278 18.775358 -0.221487 2.082358 0.020906 -0.005286 -556838.000000 1 0 0
-15.006029 5.835249 -4.636378 16.754911 -0.370866 1.851173 0.011474 0.001100 2621940.000000 1 0 0
-17.805629 5.414849 7.533522 20.077723 -0.295222 1.186164 0.008229 -0.004331 -1853370.000000 1 0 0
-15.888129 10.082449 -2.011978 18.924494 -0.565466 1.677314 0.032419 -0.002046 -898234.000000 1 0 0
-8.736929 9.932749 -8.324178 15.629631 -0.849362 2.132454 -0.004815 -0.001516 -2068770.000000 1 0 0
-16.975929 4.255349 -1.308478 17.549994 -0.245609 1.645423 0.002671 -0.002782 143059.000000 1 0 0
-10.149629 5.448049 -4.638078 12.418050 -0.492632 1.953570 0.001691 -0.002680 605273.000000 1 0 0
-18.190429 2.859849 6.131522 19.407885 -0.155941 1.249360 0.009641 -0.002906 -1082450.000000 1 0 0
-10.160229 10.092049 -5.736278 15.426749 -0.782032 1.951786 0.002335 -0.002994 -74246.500000 1 0 0
-15.356529 0.486249 -5.923678 16.466614 -0.031653 1.938784 -0.001362 -0.003593 -292514.000000 1 0 0
-16.341629 -4.141151 -8.868778 19.048706 0.248187 2.055091 -0.007024 -0.007427 -448228.000000 1 0 0
-9.971529 9.637049 -1.071278 13.908693 -0.768342 1.647895 0.005825 -0.005436 1999810.000000 1 0 0
-17.329129 -2.916551 -3.316078 17.882991 0.166741 1.757308 0.000568 -0.004566 295818.000000 1 0 0
-12.038529 5.143549 -11.609878 17.497758 -0.403781 2.296292 0.008193 0.005141 401164.000000 1 0 0
-16.282329 7.205849 5.780122 18.720265 -0.416647 1.256904 0.009359 -0.010136 -414465.000000 1 0 0
-12.069529 5.998449 -8.858978 16.128745 -0.461238 2.152282 0.007327 0.001577 1636660.000000 1 0 0
-14.501529 8.266549 -0.090578 16.692465 -0.518104 1.576223 0.017613 -0.007512 -874121.000000 1 0 0
-14.892729 11.844649 3.832822 19.410812 -0.671887 1.372032 0.010158 -0.010733 1532810.000000 1 0 0
-17.276829 4.127949 -4.146978 18.240784 -0.234533 1.800148 0.007458 -0.002300 339732.000000 1 0 0
-13.973029 13.397549 -0.594778 19.367334 -0.764376 1.601512 0.029523 -0.002758 -334923.000000 1 0 0
-10.095529 6.850349 -13.158678 17.944297 -0.596186 2.393970 -0.003973 0.001523 304269.000000 1 0 0
-15.838429 -1.127751 -8.386078 17.957003 0.071083 2.056701 0.000023 -0.007549 -56814.900000 1 0 0
-11.539029 11.817149 0.056522 16.516579 -0.797305 1.567374 0.024809 -0.007870 1095260.000000 1 0 0
-11.957229 7.445349 -0.937678 14.116933 -0.556919 1.637267 0.002597 -0.003578 1042260.000000 1 0 0
-11.422329 0.159349 -11.729778 16.373231 -0.013950 2.369425 0.009402 -0.003900 151342.000000 1 0 0
-19.078029 -1.135851 -4.735278 19.689698 0.059467 1.813672 0.010423 -0.007059 -2526790.000000 1 0 0
-17.910129 1.513549 -5.175478 18.704254 -0.084308 1.851155 0.000841 -0.003414 -1570950.000000 1 0 0
-13.277129 -0.084251 -9.531178 16.344192 0.006345 2.193402 0.004358 -0.005175 -156971.000000 1 0 0
-6.105329 11.237449 -13.337278 18.478049 -1.073110 2.377182 -0.014698 0.003511 -1142300.000000 1 0 0
16.356871 5.840349 7.200022 18.801522 0.342949 1.177810 0.013734 0.002893 -1292390.000000 1 0 0
14.837971 10.202849 -5.453578 18.815021 0.602367 1.864869 0.030804 0.003243 924387.000000 1 0 0
2.399871 16.886849 4.380122 17.609955 1.429627 1.319428 0.006975 -0.003008 2359540.000000 1 0 0
-3.844929 18.101649 -5.973078 19.445587 -1.361499 1.883013 -0.001982 -0.006699 -27529.600000 1 0 0
5.472471 14.587049 5.663922 16.577393 1.211886 1.222108 0.003271 -0.000104 -775703.000000 1 0 0
9.749671 5.866849 15.182822 18.973510 0.541704 0.643148 0.005267 -0.001619 -1668730.000000 1 0 0
4.695071 12.710349 -1.155478 13.598963 1.216953 1.655867 -0.002444 0.000239 2118330.000000 1 0 0
3.569971 13.553649 13.154822 19.222264 1.313250 0.817080 -0.001576 0.006420 -526116.000000 1 0 0
-0.706329 12.401849 9.187822 15.450593 -1.513904 0.933956 -0.007750 0.002452 644411.000000 1 0 0
-7.743129 13.891149 8.359422 17.966636 -1.062278 1.086851 0.005230 -0.011289 1341910.000000 1 0 0
11.335771 12.808549 -4.193478 17.610902 0.846322 1.811224 0.013372 0.000283 -258009.000000 1 0 0
-5.712529 16.167549 0.729722 17.162608 -1.231155 1.528265 0.000758 0.000633 1598010.000000 1 0 0
3.283771 10.592849 6.825622 13.022316 1.270192 1.019082 -0.004008 0.008090 3488810.000000 1 0 0
-1.167529 15.521149 2.429222 15.753422 -1.495716 1.415976 -0.001545 0.001084 -2504450.000000 1 0 0
9.919471 8.820449 9.597422 16.380071 0.726819 0.944781 0.008730 0.003265 3867220.000000 1 0 0
7.286371 12.297649 6.257322 15.603764 1.035909 1.158173 0.004842 0.003298 1453020.000000 1 0 0
11.811871 13.926149 -1.467478 18.319700 0.867360 1.650986 0.011933 -0.000481 -1117820.000000 1 0 0
9.644371 15.913849 -1.233378 18.649013 1.025950 1.636981 0.002967 -0.000999 -732489.000000 1 0 0
10.154971 13.781749 3.012622 17.382058 0.935770 1.396599 0.007782 0.002632 2668430.000000 1 0 0
-5.943129 14.497449 6.217322 16.856806 -1.181748 1.193045 -0.008819 -0.005838 1287850.000000 1 0 0
-0.972229 18.165149 -6.317478 19.256905 -1.517326 1.905049 0.014563 -0.002817 855722.000000 1 0 0
-3.434829 15.675749 5.431422 16.941886 -1.355088 1.244443 -0.010482 -0.000100 1162990.000000 1 0 0
7.009071 12.252649 10.693022 17.708619 1.051185 0.922497 0.002355 0.002539 3680620.000000 1 0 0
1.522671 14.628849 6.228922 15.972514 1.467083 1.170189 -0.003383 0.001979 1830610.000000 1 0 0
17.448371 7.768949 -1.375678 19.149274 0.418900 1.642698 0.014301 0.012143 201543.000000 1 0 0
2.165671 16.191849 -3.332178 16.672418 1.437835 1.772013 -0.002387 -0.000675 -410027.000000 1 0 0
6.744671 11.141449 0.558622 13.035894 1.026439 1.527931 0.003108 0.000755 1475260.000000 1 0 0
12.654171 9.195449 3.224722 15.971323 0.628404 1.367492 0.004052 0.005951 -911027.000000 1 0 0
6.077571 14.387649 -3.385178 15.981262 1.171117 1.784235 -0.004689 0.002251 1377740.000000 1 0 0
3.134971 16.517449 1.605222 16.888780 1.383230 1.475606 0.002775 -0.006688 -691807.000000 1 0 0
2.766471 19.004549 -2.638478 19.385247 1.426243 1.707328 -0.001984 -0.000280 -116787.000000 1 0 0
3.954271 11.835949 10.796322 16.501107 1.248365 0.857568 -0.001611 0.002827 1563660.000000 1 0 0
8.073171 11.576149 3.351322 14.505677 0.961820 1.337655 0.001331 0.006114 142692.000000 1 0 0
0.794771 12.570649 0.254222 12.598314 1.507656 1.550616 0.001758 -0.001564 -1642830.000000 1 0 0
11.970771 9.873749 -4.547578 16.170057 0.689694 1.855877 0.009451 0.004216 487862.000000 1 0 0
-1.242729 16.384049 9.991122 19.230287 -1.495091 1.024471 -0.006911 0.000585 413317.000000 1 0 0
8.280771 14.872749 -7.905878 18.768930 1.062767 2.005588 0.007382 0.003119 1328320.000000 1 0 0
14.445771 7.548549 -1.265778 16.348183 0.481520 1.648300 0.009683 0.004355 493751.000000 1 0 0
12.512471 8.352449 6.027822 16.206788 0.588600 1.189707 0.006941 0.002748 -278838.000000 1 0 0
-3.035729 14.183849 10.142922 17.699607 -1.359950 0.960562 -0.002079 -0.002577 2447910.000000 1 0 0
-4.546829 17.212949 -3.220078 18.092213 -1.312543 1.749731 -0.000729 -0.001339 1790060.000000 1 0 0
-7.112929 16.455949 -1.842578 18.021851 -1.162809 1.673217 0.010710 0.000976 1275490.000000 1 0 0
8.329471 11.202849 -1.895178 14.088137 0.931459 1.705728 0.001431 0.000260 -1764310.000000 1 0 0
8.556271 12.960649 -4.143778 16.073552 0.987303 1.831542 0.011359 0.001911 1038790.000000 1 0 0
2.599471 14.856749 -7.282778 16.748704 1.397581 2.020642 -0.002083 -0.004759 250262.000000 1 0 0
11.359071 11.345649 9.779322 18.798601 0.784807 1.023693 0.018742 0.000509 1788240.000000 1 0 0
8.643671 15.760749 1.449322 18.033713 1.069159 1.490342 0.002573 0.002668 499738.000000 1 0 0
6.085571 9.920549 7.840522 14.033006 1.020560 0.977955 -0.000917 0.008709 3194600.000000 1 0 0
14.545771 11.280149 2.550922 18.583014 0.659618 1.433090 0.024626 0.005563 2734350.000000 1 0 0
12.145471 12.588649 1.176022 17.531959 0.803314 1.503667 0.015471 0.003694 3093240.000000 1 0 0
5.271471 15.913949 8.226522 18.673988 1.250923 1.114603 0.013191 -0.002850 155178.000000 1 0 0
11.488071 15.022749 5.131222 19.595617 0.917946 1.305852 0.019283 0.002756 17666.000000 1 0 0
5.969871 16.936049 1.864122 18.053921 1.231901 1.467359 -0.004513 -0.005879 1047900.000000 1 0 0
-0.549629 16.139249 -4.332678 16.719735 -1.536754 1.832923 0.006459 -0.003768 681286.000000 1 0 0
16.127971 6.331949 2.604022 17.521015 0.374117 1.421621 0.008007 0.004503 -17886.800000 1 0 0
7.714871 16.806449 -3.156078 18.759978 1.140448 1.739835 -0.003261 -0.000867 278487.000000 1 0 0
14.812771 8.189049 7.475022 18.502828 0.505019 1.154918 0.014063 0.002873 -1325420.000000 1 0 0
2.141371 12.906049 8.624822 15.669688 1.406374 0.987936 -0.003339 0.005743 2186410.000000 1 0 0
15.916071 7.466149 -5.698778 18.480821 0.438619 1.884267 0.009032 0.010113 -1731270.000000 1 0 0
-2.879529 16.962649 0.640422 17.217238 -1.402642 1.533591 -0.005349 0.000352 -492759.000000 1 0 0
-2.928429 18.516249 4.564522 19.294093 -1.413941 1.331956 -0.008595 -0.000859 800772.000000 1 0 0
-0.773029 18.963749 0.797722 18.996255 -1.530055 1.528790 -0.003968 -0.005307 542315.000000 1 0 0
6.982171 16.887049 -6.015278 19.238157 1.178738 1.888804 -0.001890 0.004227 -124325.000000 1 0 0
10.917271 9.981449 0.874322 14.818251 0.740649 1.511759 0.003845 0.003623 -1685020.000000 1 0 0
9.003471 8.584149 14.361622 19.000166 0.761561 0.713817 0.005756 -0.004036 588478.000000 1 0 0
6.435971 12.512749 -8.317878 16.345571 1.095732 2.104676 0.008558 -0.002988 925932.000000 1 0 0
6.198771 8.968849 13.282822 17.184248 0.966038 0.687295 0.001913 -0.003441 1095670.000000 1 0 0
16.675971 9.277849 2.824222 19.291001 0.507713 1.423867 0.015440 0.001202 -414905.000000 1 0 0
2.586071 14.738949 -0.734778 14.982132 1.397106 1.619860 -0.000135 -0.001385 2109530.000000 1 0 0
9.172371 12.935949 8.392122 17.941541 0.954015 1.084055 0.013047 0.000232 2865700.000000 1 0 0
7.165071 9.340649 10.614722 15.851129 0.916450 0.837058 -0.001164 0.004877 107312.000000 1 0 0
4.411571 15.949449 -5.310278 17.379469 1.300946 1.881311 0.000784 0.000852 1669290.000000 1 0 0
0.249171 16.314049 -8.215578 18.267622 1.555524 2.037264 0.001876 -0.003633 1524360.000000 1 0 0
-2.357229 15.702149 -2.062578 16.011503 -1.421788 1.699974 -0.004328 0.002294 636220.000000 1 0 0
13.326071 10.502449 7.744622 18.651133 0.667451 1.142594 0.023043 -0.000130 1815270.000000 1 0 0
-0.943229 16.001449 7.084322 17.524944 -1.511918 1.154646 -0.003394 0.002369 2994530.000000 1 0 0
13.333671 13.352349 6.621922 19.998046 0.786098 1.233297 0.025868 0.003261 -96016.500000 1 0 0
5.342171 17.451449 4.626322 18.828030 1.273738 1.322539 0.001103 -0.004669 457432.000000 1 0 0
10.784771 9.484649 -1.833278 14.478631 0.721344 1.697757 0.000383 0.001865 -496161.000000 1 0 0
3.308171 12.765549 4.813722 14.038346 1.317226 1.220796 -0.001967 0.005088 1636850.000000 1 0 0
-0.134629 18.021449 3.519922 18.362478 -1.563326 1.377912 -0.006587 -0.000402 1409720.000000 1 0 0
-7.707429 15.867949 -5.875778 18.593575 -1.118635 1.892319 0.010696 -0.008489 317927.000000 1 0 0
-12.468829 -8.985651 8.388622 17.509500 0.624450 1.071179 0.010231 0.002961 -119731.000000 1 0 0
-13.383329 -11.522051 6.984722 18.990985 0.710803 1.194163 0.013052 0.002370 509024.000000 1 0 0
-6.239129 -12.453851 12.326222 18.600024 1.106365 0.846379 0.002539 0.005729 -148457.000000 1 0 0
-1.784929 -10.622651 14.517822 18.077440 1.404321 0.638332 -0.010336 0.004555 988964.000000 1 0 0
-8.852829 2.873449 10.960622 14.379309 -0.313852 0.704015 0.002891 -0.004409 1250300.000000 1 0 0
0.487971 9.891349 15.417522 18.324216 1.521503 0.570975 -0.011365 0.005362 851363.000000 1 0 0
1.041071 -6.755951 16.527422 17.885256 -1.417902 0.392173 -0.007790 -0.008440 1659810.000000 1 0 0
5.950571 2.155449 17.888422 18.975007 0.347524 0.340056 -0.003189 -0.005877 624344.000000 1 0 0
-4.965329 -2.994451 17.529622 18.463718 0.542675 0.319447 0.006125 -0.007775 627326.000000 1 0 0
-4.356829 8.178549 13.087222 16.035773 -1.081321 0.616120 -0.007707 -0.001526 -322000.000000 1 0 0
0.147471 -4.942651 18.510322 19.159425 -1.540969 0.261044 -0.005259 -0.011471 907732.000000 1 0 0
-11.705029 2.201749 11.142222 16.309645 -0.185930 0.818705 0.000938 -0.003570 253943.000000 1 0 0
-3.457429 -6.237351 14.309722 15.988324 1.064650 0.462341 0.001179 -0.005166 -786978.000000 1 0 0
-7.429229 -2.271251 14.580022 16.520565 0.296695 0.489564 0.000299 0.000432 208323.000000 1 0 0
-6.114929 -1.065551 10.639222 12.317500 0.172522 0.528135 -0.000829 -0.001855 1813030.000000 1 0 0
-4.015929 2.479149 11.118222 12.078441 -0.553064 0.401434 -0.003362 0.001326 1898330.000000 1 0 0
-6.449729 6.226849 13.591022 16.281540 -0.767818 0.583117 -0.005666 -0.005188 655355.000000 1 0 0
-8.987829 5.478649 12.567322 16.393116 -0.547422 0.697233 -0.002524 -0.005441 -1041970.000000 1 0 0
-12.030229 -2.119051 15.856122 20.015829 0.174355 0.656425 -0.005748 0.003026 1114370.000000 1 0 0
-3.468829 -7.660251 16.962222 18.932226 1.145587 0.460243 0.003503 -0.003235 -664252.000000 1 0 0
-0.625329 -5.464851 14.325122 15.344861 1.456864 0.366617 -0.000619 -0.002702 2754550.000000 1 0 0
-14.101629 -2.151751 13.671722 19.758592 0.151421 0.806626 0.002324 0.000539 -1197400.000000 1 0 0
-6.556529 1.474449 12.186922 13.917009 -0.221203 0.503943 0.000688 0.000615 2573100.000000 1 0 0
2.171671 -2.402151 14.479122 14.836828 -0.835747 0.220031 -0.008364 -0.002309 1004750.000000 1 0 0
-12.644129 4.078449 9.122022 16.115801 -0.312020 0.969115 -0.004713 -0.006120 290146.000000 1 0 0
-9.061129 -2.960851 12.516622 15.733294 0.315827 0.650881 -0.001578 0.002896 -44666.800000 1 0 0
-7.118329 -7.195151 15.332522 18.371909 0.790765 0.583457 0.012604 -0.003853 398627.000000 1 0 0
-3.352629 6.060649 19.504222 20.697494 -1.065515 0.341220 0.008968 -0.001875 -335455.000000 1 0 0
0.623871 5.338949 16.145322 17.016610 1.454471 0.321388 -0.002120 -0.004301 359422.000000 1 0 0
3.323371 1.454349 16.800922 17.188104 0.412505 0.212656 -0.011665 -0.003037 1445200.000000 1 0 0
-11.592929 11.419049 7.853822 18.068570 -0.777842 1.121127 -0.005221 -0.013362 -1757120.000000 1 0 0
0.764071 -9.530751 15.500122 18.211886 -1.490798 0.552721 -0.015264 0.006807 -627743.000000 1 0 0
-2.363329 -3.558351 18.778922 19.258637 0.984528 0.223666 0.006264 -0.017968 1341130.000000 1 0 0
-12.909529 2.324649 13.714322 18.977423 -0.178163 0.763146 -0.000841 -0.005702 -936873.000000 1 0 0
-5.316229 -0.591451 15.639622 16.529062 0.110798 0.329546 0.003735 0.004457 -146223.000000 1 0 0
-4.553529 -6.083651 11.595022 13.863260 0.928265 0.580142 0.000493 -0.000655 -99696.200000 1 0 0
2.317871 1.708149 13.980922 14.274329 0.635095 0.203104 -0.005682 -0.001466 -623534.000000 1 0 0
0.050371 3.217749 14.245422 14.604400 1.555144 0.222178 -0.000551 -0.002053 -887470.000000 1 0 0
-12.919929 7.050349 12.143022 19.081011 -0.499533 0.880983 -0.001460 -0.008907 471362.000000 1 0 0
0.829671 1.515349 18.320322 18.401599 1.069866 0.094022 -0.000916 -0.000396 952554.000000 1 0 0
-2.021229 6.468549 12.465822 14.188876 -1.267939 0.497951 -0.007194 0.000414 650246.000000 1 0 0
-13.369229 -2.515151 10.920722 17.444897 0.185956 0.894367 -0.000741 -0.001335 730026.000000 1 0 0
-2.580929 3.695249 13.461022 14.195604 -0.961115 0.323109 -0.005058 -0.001369 -316531.000000 1 0 0
3.449471 6.081549 16.440722 17.865649 1.054842 0.402098 -0.005049 -0.002695 581643.000000 1 0 0
-3.685729 12.347949 12.328022 17.833580 -1.280726 0.807535 -0.008372 -0.002433 1806820.000000 1 0 0
3.623571 -1.482251 16.996522 17.441591 -0.388291 0.226393 -0.005427 -0.005056 499724.000000 1 0 0
-15.792029 0.632549 9.111222 18.242880 -0.040034 1.047844 0.001062 -0.001843 613443.000000 1 0 0
-4.722029 4.592949 15.182022 16.549518 -0.771542 0.409376 -0.000564 -0.005156 -910509.000000 1 0 0
-8.040829 -8.129351 10.510022 15.530674 0.790873 0.827489 0.007318 -0.000364 3883660.000000 1 0 0
-2.561729 -0.428651 14.770422 14.997052 0.165793 0.174068 0.000086 0.003561 1806400.000000 1 0 0
-1.908129 0.996049 17.326422 17.459610 -0.481095 0.123597 -0.003333 0.002122 238663.000000 1 0 0
-0.788929 -2.586851 14.381322 14.633408 1.274780 0.185884 -0.000183 0.000244 913936.000000 1 0 0
5.075471 -8.252051 16.534322 19.163522 -1.019380 0.530010 -0.003071 0.004512 596095.000000 1 0 0
-4.458629 10.014249 10.683522 15.306933 -1.151917 0.798261 -0.006344 -0.002427 -1395900.000000 1 0 0
-6.167729 2.055949 15.216122 16.546848 -0.321756 0.403791 0.004895 0.001568 119118.000000 1 0 0
-4.971329 6.785649 17.272222 19.211684 -0.938509 0.453206 0.000050 -0.000869 -1094170.000000 1 0 0
-4.064329 9.148149 15.708422 18.626914 -1.152710 0.567368 -0.006716 0.002733 -267652.000000 1 0 0
-4.388129 -9.774651 18.627022 21.488728 1.148833 0.521992 0.007570 -0.000840 -1534330.000000 1 0 0
-6.855429 -4.000051 11.068322 13.620025 0.528189 0.622110 -0.001258 0.001370 1112100.000000 1 0 0
-2.194629 -0.837951 19.664722 19.804541 0.364736 0.118897 -0.000722 0.001282 65222.200000 1 0 0
-5.706829 -4.553751 15.286522 16.940552 0.673488 0.445576 0.008322 -0.003578 687509.000000 1 0 0
-12.873929 0.102249 9.651222 16.090202 -0.007942 0.927520 -0.001774 -0.002429 2045100.000000 1 0 0
-14.227329 8.966949 10.448822 19.799014 -0.562374 1.014853 -0.013856 -0.002502 -940256.000000 1 0 0
-8.274429 10.439349 13.000322 18.613290 -0.900572 0.797577 -0.004471 -0.011822 131695.000000 1 0 0
-10.387029 7.197749 10.758522 16.596498 -0.605982 0.865525 -0.005811 -0.006049 -1872790.000000 1 0 0
-9.824829 -6.438251 14.885422 18.961913 0.580095 0.668073 0.009199 0.001542 -1941560.000000 1 0 0
-0.817629 -13.357351 14.537622 19.759297 1.509661 0.744044 -0.018950 0.000094 -187049.000000 1 0 0
3.844871 -5.649651 16.931522 18.258643 -0.973244 0.383621 0.000166 -0.003559 1156040.000000 1 0 0
-7.233829 9.370749 10.459822 15.797060 -0.913389 0.847129 -0.008972 -0.007346 1398300.000000 1 0 0
-10.289929 -6.719551 11.935222 17.131390 0.578497 0.800027 0.001463 0.001443 835914.000000 1 0 0
-10.929929 -3.950051 10.723222 15.813088 0.346792 0.825590 -0.000986 0.004023 -1219090.000000 1 0 0
-10.154129 -10.216451 9.906522 17.482030 0.788458 0.968339 0.019545 -0.001705 946685.000000 1 0 0
-9.766529 -3.616551 15.264222 18.478664 0.354644 0.598741 0.002635 -0.000301 1621390.000000 1 0 0
5.581771 -3.316551 16.030522 17.295471 -0.536126 0.384830 -0.004178 -0.004559 -556195.000000 1 0 0
-11.119729 0.568649 15.164022 18.812743 -0.051094 0.633348 0.002162 -0.009008 420101.000000 1 0 0
-3.234429 3.177749 18.869322 19.406466 -0.776559 0.235827 -0.000920 0.001218 682983.000000 1 0 0
0.421471 7.321849 14.015522 15.818406 1.513296 0.482094 -0.007566 -0.001531 1318440.000000 1 0 0
-13.133829 -7.513751 12.314522 19.509008 0.519646 0.887668 -0.001624 0.004448 598620.000000 1 0 0
-1.533929 -1.113751 12.172322 12.319042 0.628014 0.154491 -0.002658 -0.000260 -1156650.000000 1 0 0
1.964071 -4.972551 13.039722 14.093197 -1.194623 0.389104 -0.004874 -0.004359 1600090.000000 1 0 0
-14.751429 -3.899051 8.702122 17.565141 0.258407 1.052478 0.004982 -0.006132 -13039.900000 1 0 0
8.073271 0.913549 16.159722 18.087258 0.112678 0.465870 0.007875 -0.010222 442806.000000 1 0 0
-1.234529 11.311049 13.448122 17.615785 -1.462083 0.702215 -0.014840 0.003698 2354570.000000 1 0 0
2.793471 -12.274851 -13.986778 18.817689 -1.347031 2.408754 0.003629 0.008657 -538912.000000 1 0 0
0.750571 -10.685951 -14.140878 17.740274 -1.500672 2.493283 -0.004834 0.007655 279558.000000 1 0 0
3.257271 -14.384051 -12.389778 19.261810 -1.348102 2.269506 0.007913 0.004558 -577865.000000 1 0 0
-4.995229 -10.254251 -16.161778 19.781432 1.117492 2.527016 -0.000694 -0.007461 -363264.000000 1 0 0
-1.133029 -12.033951 -15.218678 19.434708 1.476920 2.470378 0.004056 0.006287 -29950.900000 1 0 0
5.748571 -15.027251 -12.007578 20.076012 -1.205429 2.211932 -0.001025 0.008013 271327.000000 1 0 0
1.845871 -11.884451 -16.240778 20.209163 -1.416709 2.504173 -0.004436 0.011519 -504175.000000 1 0 0
1.297971 -14.363851 -14.017878 20.112331 -1.480677 2.341973 0.015426 0.008939 -428236.000000 1 0 0
-1.178829 -10.557251 -16.047578 19.244998 1.459596 2.556855 -0.000391 -0.003077 -309033.000000 1 0 0
-6.021929 -5.666951 -15.218878 17.320283 0.755039 2.643873 0.010434 -0.000470 108436.000000 1 0 0
-6.276629 -7.691951 -16.944178 19.638415 0.886375 2.611594 0.005282 0.009926 555356.000000 1 0 0
4.953971 -12.568851 -11.455278 17.712742 -1.195346 2.274079 0.000231 0.006445 -179757.000000 1 0 0
-1.990829 -15.537551 -13.227178 20.502125 1.443361 2.272031 0.012627 0.004136 159263.000000 1 0 0
15.745871 -7.312251 -8.890978 19.505152 -0.434757 2.044098 -0.008112 0.012815 802158.000000 1 0 0
19.240471 -3.505651 -4.347178 20.034552 -0.180225 1.789520 0.010581 -0.005311 612545.000000 1 0 0
14.672371 -11.775951 -8.904678 20.814533 -0.676320 2.012865 -0.006614 0.000763 158076.000000 1 0 0
17.916471 -3.587251 -6.510778 19.397385 -0.197608 1.913094 0.031129 -0.001523 442766.000000 1 0 0
9.693971 -9.206951 -15.411978 20.402698 -0.759637 2.427044 0.037497 -0.011483 89043.800000 1 0 0
1.347371 1.974049 -15.238878 15.425164 0.971884 2.986022 0.008663 -0.001987 21505.400000 1 0 0
4.866471 -4.390651 -14.080278 15.531084 -0.734043 2.705921 -0.000115 0.001449 1086320.000000 1 0 0
13.163271 -5.487951 -8.615378 16.661754 -0.395002 2.114227 0.017471 -0.000499 -317863.000000 1 0 0
2.986071 1.111449 -12.234778 12.642853 0.356323 2.886829 -0.001502 -0.002343 -2969610.000000 1 0 0
0.593071 6.390249 -13.039978 14.533686 1.478253 2.684239 0.010953 -0.000584 -15181.700000 1 0 0
3.061571 -1.111451 -16.943878 17.254088 -0.348238 2.951682 0.010524 0.001372 -175977.000000 1 0 0
13.189471 4.454849 -11.450878 18.025827 0.325727 2.259126 0.001936 0.001514 870822.000000 1 0 0
-3.868729 9.539349 -16.619778 19.549508 -1.185510 2.587043 0.001847 0.004370 377571.000000 1 0 0
-0.179229 -5.089051 -17.788378 18.502890 1.535592 2.862783 -0.003425 -0.008814 762729.000000 1 0 0
-0.548629 -8.405551 -17.702878 19.604749 1.505619 2.697473 -0.004951 -0.004314 -386470.000000 1 0 0
5.645971 -10.193551 -12.184778 16.859842 -1.064982 2.378512 0.004093 0.001058 483365.000000 1 0 0
1.434671 -9.800051 -18.228378 20.745434 -1.425435 2.643864 -0.007821 -0.002984 -785017.000000 1 0 0
11.050071 8.822949 -14.548878 20.288380 0.673796 2.370435 0.024344 -0.005539 383906.000000 1 0 0
11.016171 -3.716351 -12.919178 17.380231 -0.325365 2.408825 0.016136 -0.005449 516323.000000 1 0 0
4.917371 7.560849 -12.327278 15.274448 0.994159 2.509939 0.001588 0.000553 -734212.000000 1 0 0
9.656871 -5.890351 -12.653978 16.972759 -0.547714 2.412151 0.016212 -0.004155 -1321630.000000 1 0 0
-3.155229 0.445749 -15.850678 16.167812 -0.140344 2.943201 0.010963 -0.006309 -2151720.000000 1 0 0
-0.797629 10.901049 -12.685578 16.744939 -1.497757 2.430389 0.006297 -0.002595 -2831450.000000 1 0 0
6.597971 -5.457151 -12.473178 15.129239 -0.691046 2.540012 0.004985 0.000538 -35837.100000 1 0 0
17.915771 -6.117351 -8.032578 20.564998 -0.329038 1.972074 0.002692 0.003297 566546.000000 1 0 0
12.952071 4.728749 -13.987878 19.641230 0.350060 2.363380 -0.008553 -0.002452 359683.000000 1 0 0
14.147971 0.883549 -11.426778 18.207608 0.062370 2.249241 0.007093 -0.002878 -11197.800000 1 0 0
15.186971 6.147849 -11.086378 19.782515 0.384647 2.165681 0.010221 -0.001021 674748.000000 1 0 0
8.262071 1.325849 -11.780078 14.449565 0.159118 2.523965 -0.002577 0.005521 560494.000000 1 0 0
9.875471 1.202149 -8.918478 13.360739 0.121135 2.301661 0.001967 0.001277 368832.000000 1 0 0
-0.070729 -5.707351 -13.029178 14.224568 1.558404 2.728698 -0.003430 -0.000914 242117.000000 1 0 0
10.560071 -5.663851 -9.026378 15.002327 -0.492300 2.216381 0.014182 -0.005392 3992.700000 1 0 0
10.278871 8.483049 -11.296778 17.470962 0.689973 2.273919 0.007476 -0.003489 643999.000000 1 0 0
8.522271 7.978549 -14.721078 18.788201 0.752459 2.471120 0.017617 0.000723 1045160.000000 1 0 0
8.716271 10.570049 -10.715978 17.393433 0.881223 2.234570 0.004200 -0.002777 -91597.400000 1 0 0
7.133271 1.779249 -17.976678 19.421901 0.244442 2.753382 0.011755 0.012230 -831358.000000 1 0 0
12.070771 2.618349 -12.716278 17.727464 0.213607 2.370746 0.002370 -0.005572 -309570.000000 1 0 0
2.809271 -0.864751 -19.405578 19.626927 -0.298616 2.991266 0.020889 -0.006126 5589.160000 1 0 0
10.422871 -2.258851 -15.492678 18.808554 -0.213420 2.538709 0.018093 -0.002517 -375025.000000 1 0 0
8.357471 -0.937251 -13.060278 15.533725 -0.111679 2.569499 0.004204 0.000738 285859.000000 1 0 0
0.392471 4.363049 -14.739478 15.376685 1.481084 2.852701 0.011894 0.001398 693602.000000 1 0 0
4.008971 -7.635251 -15.833578 18.029728 -1.087302 2.642867 0.003559 -0.006399 -1549050.000000 1 0 0
11.468371 -5.854451 -14.490278 19.384692 -0.472002 2.415104 0.013078 -0.002700 -250251.000000 1 0 0
-5.995829 4.220849 -16.901278 18.423320 -0.613382 2.732256 0.004124 0.000593 -119846.000000 1 0 0
11.415971 7.849149 -9.106278 16.578837 0.602327 2.152288 0.006739 -0.002567 -689646.000000 1 0 0
9.453471 6.170049 -13.158178 17.337107 0.578254 2.432511 0.006547 -0.002478 243315.000000 1 0 0
12.101271 0.606149 -10.151478 15.806982 0.050048 2.268181 0.004073 0.002138 -933292.000000 1 0 0
5.511371 -7.348051 -13.774578 16.556209 -0.927266 2.553479 0.003117 -0.000887 -697466.000000 1 0 0
8.584971 -10.195451 -10.685478 17.082985 -0.870942 2.246574 0.008000 0.000041 262162.000000 1 0 0
9.880971 5.005549 -15.849178 19.336120 0.468902 2.531626 0.012269 -0.001054 -280604.000000 1 0 0
9.852871 -0.481051 -10.897078 14.698870 -0.048785 2.405883 0.004184 -0.001194 -62616.700000 1 0 0
-1.728429 5.598949 -14.035778 15.209824 -1.271372 2.746108 0.005931 0.001257 -857861.000000 1 0 0
1.397871 -0.647351 -14.954478 15.033613 -0.433693 3.038943 0.000781 -0.002084 -1250250.000000 1 0 0
11.492271 -10.450451 -13.979678 20.897742 -0.737955 2.303600 0.024387 -0.009741 -797684.000000 1 0 0
9.369671 -7.692851 -10.807978 16.241400 -0.687438 2.298904 0.010688 -0.005907 -406971.000000 1 0 0
14.086171 -0.985251 -9.605978 17.078224 -0.069831 2.168166 0.009497 -0.000696 866373.000000 1 0 0
4.036371 11.259949 -12.276878 17.140609 1.226595 2.369203 0.008495 -0.005324 -128337.000000 1 0 0
-1.343429 2.975149 -17.024178 17.334329 -1.146654 2.952141 0.004985 -0.001637 862702.000000 1 0 0
5.905571 -0.448251 -17.834578 18.792255 -0.075758 2.820968 0.004511 0.011643 83340.400000 1 0 0
6.355071 -6.528951 -16.177078 18.566421 -0.798893 2.628659 0.007952 -0.000388 418621.000000 1 0 0
-1.703629 -5.166751 -19.930178 20.659372 1.252293 2.875113 0.004939 -0.016707 -855850.000000 1 0 0
0.132271 -4.286951 -15.307578 15.897087 -1.539952 2.868410 -0.004251 -0.006298 -545742.000000 1 0 0
0.521571 0.847149 -13.026678 13.064610 1.018929 3.065372 0.000342 -0.004772 749354.000000 1 0 0
15.364571 0.707349 -13.736078 20.621596 0.046005 2.299766 -0.011919 0.001459 669640.000000 1 0 0
-0.200229 7.033849 -16.404778 17.850262 -1.542338 2.736388 0.009796 0.006180 -59175.800000 1 0 0
-4.531029 -0.615951 -18.138678 18.706182 0.135112 2.894641 0.000436 -0.012032 -474324.000000 1 0 0
10.399171 -8.364051 -12.989878 18.623561 -0.677357 2.342695 0.017637 -0.014426 579746.000000 1 0 0
4.222371 8.599149 -17.408178 19.870039 1.114357 2.638513 0.012541 -0.003818 -427401.000000 1 0 0
9.234171 0.351449 -17.102478 19.439346 0.038041 2.646210 0.006526 0.011228 56064.900000 1 0 0
3.342871 4.841549 -18.538878 19.450074 0.966505 2.834287 0.021519 0.004865 -265081.000000 1 0 0
1.585971 -8.183051 -16.134778 18.160636 -1.379358 2.664749 -0.002422 -0.001172 130198.000000 1 0 0
4.516071 7.764949 -14.991078 17.476320 1.044018 2.601758 0.006839 0.002487 847587.000000 1 0 0
-5.581429 -0.434151 -15.239478 16.235225 0.077629 2.789542 0.006661 -0.003286 -326723.000000 1 0 0
2.684471 3.525149 -13.654578 14.355506 0.919963 2.827812 0.007486 0.002840 -188810.000000 1 0 0
-2.404929 -10.164551 -18.229678 21.010068 1.338469 2.621280 0.003276 -0.005337 31818.300000 1 0 0
6.187471 -9.079251 -15.516178 19.012348 -0.972598 2.525445 0.008656 -0.003558 -10165.200000 1 0 0
-1.837129 5.409749 -17.487678 18.397264 -1.243420 2.825826 0.010190 0.004524 760286.000000 1 0 0
10.055371 -12.213751 -11.665378 19.656226 -0.882019 2.206160 0.017488 0.002397 -195212.000000 1 0 0
10.783771 3.581849 -9.438078 14.771482 0.320687 2.263915 -0.001073 -0.000252 -1117830.000000 1 0 0
4.787071 -0.389451 -11.040478 12.039928 -0.081176 2.731261 0.002432 -0.001866 493705.000000 1 0 0
6.305971 9.577549 -11.297778 16.097655 0.988530 2.348756 0.005067 -0.005355 300015.000000 1 0 0
10.785771 -9.566951 -9.450978 17.238921 -0.725585 2.151049 0.017266 0.000248 -1133270.000000 1 0 0
3.219071 -2.423451 -14.622978 15.167960 -0.645317 2.872717 0.001769 0.000320 29333.300000 1 0 0
9.184071 -4.489451 -14.657878 17.870526 -0.454672 2.532603 0.016910 -0.006619 575322.000000 1 0 0
-3.993429 -6.392151 -16.654378 18.280464 1.012384 2.716615 -0.006397 -0.004179 -1246560.000000 1 0 0
5.883671 -7.693451 -11.221778 14.823464 -0.917913 2.429549 -0.000659 0.001744 341851.000000 1 0 0
5.624471 6.453149 -16.960678 18.998484 0.853903 2.674183 0.012001 0.000585 -115043.000000 1 0 0
9.280471 1.337549 -19.389478 21.537596 0.143139 2.691167 0.023209 0.000582 574882.000000 1 0 0
13.110771 5.928849 -9.475478 17.228704 0.424692 2.153139 0.002383 0.002686 579602.000000 1 0 0
-1.617329 -0.848451 -17.372878 17.468615 0.483133 3.036850 0.008419 -0.007833 70492.800000 1 0 0
-0.642329 -0.275651 -19.544978 19.557473 0.405375 3.105845 0.011323 -0.013164 208766.000000 1 0 0
2.890271 6.459949 -16.618578 18.062717 1.150095 2.739001 0.012704 0.005196 557280.000000 1 0 0
7.539971 3.859949 -15.719178 17.856173 0.473147 2.647336 0.002849 0.007214 17142.200000 1 0 0
3.088871 -9.946151 -15.010578 18.269770 -1.269680 2.535021 0.000364 0.003887 -183175.000000 1 0 0
9.018471 -10.481351 -13.274678 19.167906 -0.860278 2.335810 0.023813 -0.005988 -596942.000000 1 0 0
3.846471 0.097049 -14.849978 15.340359 0.025225 2.888064 0.003423 0.001146 -2818020.000000 1 0 0
-1.115329 -2.840551 -19.041178 19.284168 1.196646 2.982677 0.010759 -0.007934 839344.000000 1 0 0
9.251171 9.997549 -13.100178 18.898408 0.824154 2.336701 0.011117 -0.008516 -65622.000000 1 0 0
4.803471 2.210049 -10.766378 11.994688 0.431216 2.685081 -0.006274 0.001082 860893.000000 1 0 0
-0.311929 7.089549 -18.948878 20.234104 -1.526826 2.783258 0.024609 0.003564 115079.000000 1 0 0
0.838071 -1.757551 -17.828578 17.934591 -1.125848 3.032809 0.013444 -0.006573 -3617510.000000 1 0 0
-4.390129 -2.322751 -14.040078 14.892689 0.486644 2.801578 0.008481 -0.008051 -3093840.000000 1 0 0
10.073571 5.971949 -10.300478 15.596181 0.535133 2.292213 0.004357 0.000482 86330.200000 1 0 0
8.259471 5.225749 -17.839678 20.341618 0.564116 2.640387 0.015722 0.004183 -243974.000000 1 0 0
11.353771 0.254349 -13.535778 17.668902 0.022398 2.443515 0.005858 0.000025 393978.000000 1 0 0
6.881971 11.943749 -12.008578 18.281701 1.048062 2.287447 0.010628 -0.003570 -434704.000000 1 0 0
-0.853329 0.576149 -15.257778 15.292479 -0.593872 3.074213 0.005462 -0.005874 -390556.000000 1 0 0
-4.332429 -3.080751 -19.020678 19.749612 0.618131 2.869056 0.005174 -0.002401 -72165.700000 1 0 0
5.776071 -11.943051 -13.935878 19.240794 -1.120327 2.380798 0.003423 -0.001581 -38671.300000 1 0 0
2.242971 -4.744551 -14.058478 15.006082 -1.129188 2.784314 -0.000749 0.000313 -745390.000000 1 0 0
11.766271 2.082149 -15.279278 19.396825 0.175146 2.477896 0.013894 -0.004741 349792.000000 1 0 0
9.651271 2.245049 -13.756578 16.953782 0.228552 2.517368 0.005454 -0.002774 -520103.000000 1 0 0
-2.037629 -4.061451 -16.519778 17.133312 1.105790 2.873171 -0.008409 -0.008781 -2183820.000000 1 0 0
-2.939929 10.336949 -14.363178 17.938689 -1.293703 2.499228 -0.000731 0.004763 410127.000000 1 0 0
3.513671 5.875849 -13.725178 15.337927 1.031860 2.678896 0.003648 0.002363 -197850.000000 1 0 0
-5.029529 -2.681951 -16.515578 17.471501 0.489885 2.809269 0.006149 -0.007657 349554.000000 1 0 0
-4.312529 6.180749 -13.546378 15.501739 -0.961592 2.633886 0.000427 0.002221 -364495.000000 1 0 0
5.910371 -1.129851 -14.041578 15.276615 -0.188885 2.736726 0.003272 0.000082 -814849.000000 1 0 0
6.771671 -2.991251 -12.673478 14.677198 -0.415955 2.612927 0.001994 -0.001267 858601.000000 1 0 0
2.896471 -3.290851 -18.427278 18.941590 -0.849052 2.908028 0.011746 -0.005971 -967768.000000 1 0 0
7.468271 -12.050251 -11.981878 18.562032 -1.015974 2.272480 0.005379 0.002343 -771161.000000 1 0 0
-6.162729 -5.381851 -17.774478 19.567208 0.717861 2.710192 0.026572 -0.004443 358904.000000 1 0 0
0.489071 8.800549 -11.960078 14.857063 1.515281 2.506488 0.006493 -0.001134 377222.000000 1 0 0
0.303571 8.663849 -14.474778 16.872274 1.535772 2.601971 0.008056 0.001347 29742.900000 1 0 0
7.824771 -2.391251 -15.115978 17.188307 -0.296587 2.645468 0.012154 -0.004829 620651.000000 1 0 0
14.332771 1.553649 -8.855278 16.919163 0.107977 2.121618 0.009112 0.004659 551363.000000 1 0 0
2.759971 11.016649 -14.687878 18.566576 1.325321 2.483389 0.009774 0.002257 112323.000000 1 0 0
6.144371 0.904149 -15.678278 16.863546 0.146102 2.764432 0.004910 0.007199 600187.000000 1 0 0
16.714071 -5.390951 -10.306378 20.362808 -0.312005 2.101497 0.015572 -0.002955 597510.000000 1 0 0
4.822971 -4.193451 -11.293778 12.976729 -0.715692 2.626628 -0.002085 0.002891 -1453600.000000 1 0 0
8.923971 -3.568751 -17.120278 19.633572 -0.380425 2.630049 0.010948 -0.003755 706762.000000 1 0 0
13.363671 -9.548551 -8.922578 18.691574 -0.620402 2.068442 0.013832 0.004245 42098.600000 1 0 0
2.367471 -7.775251 -13.718378 15.945323 -1.275227 2.606730 -0.004461 0.003946 303897.000000 1 0 0
-6.720729 -2.242551 -18.451478 19.764976 0.322060 2.774972 0.001697 -0.005978 1256270.000000 1 0 0
-1.420229 -6.392051 -15.734978 17.043031 1.352161 2.747252 -0.005440 -0.005858 1015840.000000 1 0 0
1.677071 -7.375251 -18.520478 20.005374 -1.347207 2.753877 0.003838 -0.006476 -149382.000000 1 0 0
5.281771 10.875849 -14.539878 18.910030 1.118701 2.447912 0.012246 -0.010842 -27803.600000 1 0 0
5.278171 -3.394451 -17.647878 18.730429 -0.571517 2.799944 0.009577 -0.000080 -1404180.000000 1 0 0
4.003571 13.202149 -14.096178 19.723781 1.276359 2.366962 0.004590 -0.006960 -132289.000000 1 0 0
9.249171 10.294849 -15.665378 20.902994 0.838851 2.418000 0.017414 -0.013884 305837.000000 1 0 0
2.626771 3.981449 -16.214578 16.901609 0.987596 2.855490 0.013145 0.000927 515709.000000 1 0 0
16.649971 1.600149 -11.615278 20.364103 0.095811 2.177765 0.002001 0.005130 1352040.000000 1 0 0
10.027471 -3.667751 -10.576778 15.028999 -0.350654 2.351470 0.011709 -0.005541 -444614.000000 1 0 0
14.559071 -2.085151 -11.944478 18.946898 -0.142253 2.252889 0.008254 -0.002620 -66642.100000 1 0 0
-2.718929 -8.510451 -16.213378 18.511995 1.261564 2.637951 0.000237 0.002832 -181589.000000 1 0 0
13.976871 8.329249 -9.061278 18.623535 0.537422 2.078933 0.018775 0.001148 743242.000000 1 0 0
-8.328529 0.025149 -16.621578 18.591446 -0.003020 2.677090 -0.001174 0.001428 -339525.000000 1 0 0
-3.578429 4.068549 -15.968378 16.862602 -0.849404 2.814467 0.004571 0.001105 537614.000000 1 0 0
15.127071 4.087649 -9.615578 18.384681 0.263918 2.121188 0.011023 0.005802 612161.000000 1 0 0
5.422871 1.240949 -13.126478 14.256644 0.224963 2.740736 0.002522 0.000980 602841.000000 1 0 0
7.843971 -7.723451 -12.867678 16.933892 -0.777657 2.433920 0.015048 -0.003408 -2120600.000000 1 0 0
3.224271 -6.146851 -11.880678 13.759731 -1.087710 2.612842 -0.003241 0.003336 -1002070.000000 1 0 0
-3.431329 3.641349 -18.551078 19.213952 -0.815084 2.878155 0.014580 0.001224 205892.000000 1 0 0
0.813471 5.084749 -17.812678 18.542058 1.412158 2.860178 0.017588 -0.002694 344296.000000 1 0 0
6.313971 7.250949 -10.211778 14.025794 0.854362 2.386300 0.002183 0.001749 -80359.200000 1 0 0
9.560571 3.707849 -11.721078 15.573578 0.369969 2.422837 0.003633 0.000504 -27143.900000 1 0 0
4.505671 1.668049 -17.604178 18.248028 0.354566 2.875162 0.015253 0.008096 -263348.000000 1 0 0
2.591271 8.235949 -13.279578 15.839594 1.265973 2.565098 0.007335 -0.002133 -215980.000000 1 0 0
14.367871 -3.547251 -9.863578 17.785074 -0.242047 2.158677 0.008059 0.001602 15070.800000 1 0 0
-1.300129 9.440049 -16.252278 18.839888 -1.433933 2.611287 0.013030 0.003672 -606700.000000 1 0 0
-5.209529 2.002049 -15.737478 16.697772 -0.366904 2.800799 0.006973 -0.003656 542089.000000 1 0 0
4.405671 4.496749 -11.895678 13.458746 0.795629 2.654852 0.004210 -0.001331 597005.000000 1 0 0
9.380971 2.943449 -17.290778 19.890639 0.304040 2.624565 0.008413 -0.002759 645795.000000 1 0 0
-4.267429 14.426249 -13.405678 20.150430 -1.283188 2.298665 0.004402 -0.006062 -229869.000000 1 0 0
15.553171 -4.864451 -8.018278 18.161960 -0.303124 2.028052 0.004144 0.000884 -208733.000000 1 0 0
1.204871 9.258049 -16.870078 19.281149 1.441381 2.636133 0.010054 0.002236 -309223.000000 1 0 0
0.450871 -3.199751 -12.894778 13.293494 -1.430810 2.896055 -0.003112 -0.001348 121170.000000 1 0 0
7.432371 3.476849 -13.099178 15.456943 0.437556 2.581983 0.001459 0.003242 1145770.000000 1 0 0
-2.973529 7.684949 -15.091478 17.194564 -1.201609 2.641815 0.002370 0.004191 377718.000000 1 0 0
12.158671 -5.157451 -11.036078 17.211264 -0.401175 2.266874 0.020351 -0.005350 -417894.000000 1 0 0
0.766371 -4.385951 -20.117978 20.604779 -1.397810 2.923789 0.010808 -0.011578 -261231.000000 1 0 0
3.426271 -4.554751 -16.262678 17.232521 -0.925862 2.804500 0.010039 -0.007178 524284.000000 1 0 0
-5.662929 4.076349 -14.306178 15.917038 -0.623911 2.687813 -0.002152 0.001550 533658.000000 1 0 0
12.259071 -7.513551 -9.955478 17.488562 -0.549849 2.176398 0.018508 -0.000070 203840.000000 1 0 0
-1.953429 -1.689651 -14.986978 15.207903 0.713119 2.970933 0.005921 -0.004866 270191.000000 1 0 0
6.970971 5.904549 -14.144378 16.838098 0.702761 2.568121 0.009221 -0.002832 -113355.000000 1 0 0
4.287671 -5.551251 -18.471878 19.758815 -0.913126 2.778682 0.017194 -0.007556 115625.000000 1 0 0
7.567271 7.676949 -12.357678 16.398516 0.792593 2.424295 0.005663 -0.002846 -1366720.000000 1 0 0
12.293971 -2.510751 -10.937478 16.645540 -0.201456 2.287737 0.018124 -0.009043 -635056.000000 1 0 0
7.358071 -0.767351 -10.704878 13.012473 -0.103911 2.536875 0.002449 -0.002323 -1320090.000000 1 0 0
5.219171 4.034449 -14.409078 15.847336 0.658063 2.712258 0.002077 0.004625 -45009.600000 1 0 0
14.764671 3.054049 -12.946478 19.872947 0.203972 2.280307 -0.000748 -0.002888 704560.000000 1 0 0
-6.782829 6.555749 -15.958278 18.537833 -0.768375 2.607732 0.002188 0.009601 691534.000000 1 0 0
-11.225429 3.730949 -16.584678 20.371102 -0.320880 2.522022 0.016711 0.000360 368666.000000 1 0 0
-5.001329 6.457949 -17.882178 19.659366 -0.911833 2.713119 0.002647 0.008582 -284254.000000 1 0 0
-10.159829 1.529249 -15.712278 18.773290 -0.149398 2.562480 0.013282 0.000584 740625.000000 1 0 0
-7.535029 5.833749 -18.220478 20.561982 -0.658821 2.659711 -0.006242 0.010595 -1005530.000000 1 0 0
-8.808729 3.816249 -15.634478 18.346508 -0.408825 2.590929 -0.000727 0.010988 -1480290.000000 1 0 0
9.003671 13.396849 -12.232978 20.253084 0.979060 2.219314 0.013333 -0.000228 -1160060.000000 1 0 0
13.618971 9.104249 -11.493078 20.011361 0.589269 2.182579 -0.001994 -0.004226 -28090.700000 1 0 0
8.349371 16.006049 -9.123378 20.227249 1.089988 2.038731 0.014299 -0.001439 6529.000000 1 0 0
6.996271 13.681649 -13.860178 20.693957 1.098101 2.304694 0.004094 -0.006581 -299193.000000 1 0 0
4.960071 15.874649 -12.610378 20.871713 1.267955 2.219539 0.004720 -0.008723 77628.600000 1 0 0
11.181871 10.901449 -11.491878 19.389149 0.772700 2.205199 0.010560 -0.008042 536611.000000 1 0 0
15.665071 9.875349 -10.209778 21.146076 0.562477 2.074670 0.031377 0.009970 -1025600.000000 1 0 0
13.329571 10.830049 -9.408478 19.582821 0.682306 2.071959 0.040779 -0.001666 -69088.600000 1 0 0
10.442371 11.939549 -8.155078 17.835393 0.852191 2.045687 0.013122 0.004919 256801.000000 1 0 0
5.423471 16.152449 -10.012378 19.762676 1.246856 2.102069 0.003003 -0.008565 -364776.000000 1 0 0
6.819371 14.513149 -11.367878 19.656143 1.131538 2.187485 0.009546 -0.004190 -413729.000000 1 0 0
10.706371 13.869149 -9.860478 20.104942 0.913391 2.083403 0.017764 0.003653 -165008.000000 1 0 0
8.260371 -18.743251 -1.451778 20.534139 -1.155693 1.641556 0.024022 0.013096 -429287.000000 1 0 0
7.374471 -17.398151 -3.578678 19.232405 -1.169887 1.757963 0.024923 0.001477 -125024.000000 1 0 0
4.346871 -18.473951 5.970022 19.895309 -1.339703 1.266028 0.029850 0.003495 -100518.000000 1 0 0
9.738671 -16.929551 -2.640178 19.708423 -1.048777 1.705162 0.020344 0.000254 -560459.000000 1 0 0
-9.628729 -12.298251 -9.920878 18.503600 0.906548 2.136677 0.025250 -0.014169 -253816.000000 1 0 0
-5.134729 -6.871451 -12.223778 14.933286 0.929054 2.529695 0.002871 0.000960 868524.000000 1 0 0
-10.811729 -9.506151 -5.772178 15.510591 0.721229 1.952115 0.012477 0.000073 566163.000000 1 0 0
-4.651429 -11.269051 -13.973178 18.543921 1.179337 2.424193 0.007223 -0.004642 645151.000000 1 0 0
-3.160829 -15.640651 7.455322 17.612570 1.371391 1.133717 0.004726 -0.002830 -3586.450000 1 0 0
-4.836929 -12.067451 -11.497378 17.355373 1.189579 2.294905 0.004308 -0.002998 497470.000000 1 0 0
-14.336829 -12.657251 -3.953978 19.529071 0.723258 1.774672 -0.003759 -0.003073 -360106.000000 1 0 0
-3.243729 -12.134451 -3.136578 12.946227 1.309588 1.815509 0.004569 0.000008 743316.000000 1 0 0
-2.550129 -17.300751 -1.517978 17.553444 1.424450 1.657382 0.003771 -0.005183 -906774.000000 1 0 0
-5.878029 -12.128751 3.758822 13.992375 1.119515 1.298822 0.004096 -0.002867 -15139.000000 1 0 0
-8.814329 -10.801351 -11.909978 18.336007 0.886351 2.277776 0.016793 -0.002234 -701422.000000 1 0 0
-9.976029 -12.175851 -7.357878 17.375583 0.884380 2.008058 0.021388 -0.010177 702720.000000 1 0 0
-11.107229 -15.005051 6.358322 19.721824 0.933576 1.242532 0.009460 -0.003465 -145025.000000 1 0 0
-9.573829 -15.732051 0.675122 18.428549 1.024110 1.534154 0.002844 0.001117 -1649880.000000 1 0 0
-14.848429 -7.657051 -8.201178 18.610900 0.476113 2.027136 -0.006299 0.002636 -395423.000000 1 0 0
-2.416929 -16.575351 5.112122 17.513355 1.426002 1.274585 0.009908 -0.009037 39468.300000 1 0 0
4.309671 -15.913751 5.986422 17.540182 -1.306326 1.222499 0.023267 -0.003914 -584675.000000 1 0 0
4.136371 -14.623251 -10.020878 18.203489 -1.295135 2.153750 0.002034 0.003880 117231.000000 1 0 0
-7.684529 -14.107151 -0.313278 16.067416 1.072011 1.590295 0.003406 0.002607 740751.000000 1 0 0
2.910071 -15.002851 9.740022 18.122419 -1.379208 1.003378 0.018762 -0.006962 -281624.000000 1 0 0
2.101571 -17.396351 10.473922 20.414521 -1.450574 1.032048 0.037685 -0.005588 -448472.000000 1 0 0
-8.300329 -17.176851 -5.685178 19.906304 1.120656 1.860426 0.016112 -0.007808 -167393.000000 1 0 0
-6.363829 -9.132451 -7.708878 13.539822 0.962196 2.176510 0.013770 -0.004903 462880.000000 1 0 0
-6.033329 -13.120351 -4.843078 15.231549 1.139785 1.894377 0.004112 -0.004719 -442445.000000 1 0 0
2.204671 -19.358951 -4.837178 20.075554 -1.457401 1.814140 0.013100 -0.006882 155724.000000 1 0 0
-5.460029 -12.999751 8.224822 16.323393 1.173160 1.042726 0.002035 -0.000994 984406.000000 1 0 0
2.108071 -17.466551 3.476222 17.933446 -1.450685 1.375721 0.023749 -0.010486 -619562.000000 1 0 0
-17.504729 -9.969051 -2.528678 20.302506 0.517696 1.695671 -0.007729 0.000223 592081.000000 1 0 0
-3.518229 -15.441551 2.541122 16.039848 1.346779 1.411700 0.010000 -0.008892 16116.100000 1 0 0
-10.060629 -10.463851 -14.090178 20.229720 0.805042 2.341317 0.018816 -0.005421 -393141.000000 1 0 0
6.017471 -14.587951 -5.633178 16.755625 -1.179564 1.913671 0.003699 -0.004660 369408.000000 1 0 0
-7.272929 -12.341651 -10.688978 17.873615 1.038282 2.211839 0.008934 -0.011461 -3342270.000000 1 0 0
-7.534529 -14.201451 3.811322 16.522001 1.083011 1.338018 0.007746 -0.003621 813692.000000 1 0 0
3.084671 -14.907151 -3.153578 15.546170 -1.366751 1.775066 0.007102 -0.001300 -781187.000000 1 0 0
-7.629429 -11.446351 7.802322 15.814657 0.982883 1.054848 0.004402 -0.004495 -1494910.000000 1 0 0
-12.680429 -12.308351 -1.104078 17.706151 0.770509 1.633192 -0.008540 0.008238 -633547.000000 1 0 0
-2.002729 -13.659651 4.010622 14.376442 1.425217 1.288073 0.008817 -0.003696 -1395450.000000 1 0 0
-3.240829 -14.033651 5.338722 15.360608 1.343842 1.215829 0.004861 -0.004596 288965.000000 1 0 0
-14.460429 -10.186251 -4.325678 18.209207 0.613688 1.810644 -0.008058 0.002699 535303.000000 1 0 0
-6.293529 -8.682151 -10.381378 14.925189 0.943566 2.339997 0.006231 -0.004461 352592.000000 1 0 0
0.703071 -19.445651 2.309622 19.594949 -1.534656 1.452653 0.021997 -0.010284 181185.000000 1 0 0
6.310571 -13.925751 -8.160478 17.330414 -1.145319 2.061080 0.006006 -0.003360 -3509700.000000 1 0 0
-4.021829 -16.733451 -5.877478 18.185935 1.334924 1.899893 -0.001759 -0.003597 -102084.000000 1 0 0
-3.681829 -13.618251 -13.228178 19.339010 1.306749 2.324049 0.014114 0.000864 -740028.000000 1 0 0
-8.200629 -14.676451 -4.601078 17.430389 1.061252 1.837931 0.008231 -0.005351 -385015.000000 1 0 0
-4.426129 -14.520451 9.965622 18.158958 1.274923 0.989869 -0.005391 -0.001393 -110048.000000 1 0 0
-0.349329 -12.048451 -10.066478 15.704177 1.541811 2.266605 0.005868 0.003916 837458.000000 1 0 0
2.265671 -17.352551 6.888122 18.806662 -1.440964 1.195810 0.028927 -0.008636 -1781550.000000 1 0 0
-2.916229 -19.182951 -3.349878 19.690396 1.419930 1.741755 0.000978 -0.005176 -435574.000000 1 0 0
0.466571 -15.300751 -3.092278 15.617069 -1.540312 1.770120 0.010267 -0.003604 -368529.000000 1 0 0
5.983571 -18.039751 0.553822 19.014270 -1.250527 1.541666 0.020200 -0.002118 -297176.000000 1 0 0
-7.235129 -16.689951 3.904322 18.604980 1.161746 1.359371 0.003071 -0.003889 195986.000000 1 0 0
-5.283029 -13.643551 -9.501078 17.444981 1.201357 2.146745 0.004003 -0.006249 -90337.600000 1 0 0
5.563371 -15.217051 -2.181278 16.348324 -1.220291 1.704621 0.006537 0.000206 -620800.000000 1 0 0
-8.921629 -10.267051 -0.543078 13.612595 0.855399 1.610702 -0.001209 0.003360 -574740.000000 1 0 0
-7.611129 -18.289451 -3.035578 20.041159 1.176447 1.722849 0.010978 -0.013353 320886.000000 1 0 0
7.754471 -16.181051 -1.231078 17.985377 -1.123901 1.639299 0.009553 0.003283 -938802.000000 1 0 0
-8.078129 -10.213651 -9.424178 16.074513 0.901620 2.197256 0.015731 -0.006324 -588719.000000 1 0 0
-9.166629 -15.235751 -7.071778 19.135445 1.029163 1.949336 0.021741 -0.012079 25494.000000 1 0 0
-11.435029 -10.590851 -11.988878 19.663652 0.747090 2.226475 0.023922 0.006268 -1163010.000000 1 0 0
6.623771 -16.398451 2.379422 17.845033 -1.186910 1.437060 0.023265 -0.001973 177602.000000 1 0 0
-2.303529 -11.112151 -6.187578 12.925644 1.366393 2.069976 0.004213 0.001153 -32494.800000 1 0 0
-12.344229 -15.183151 -3.215778 19.830514 0.888166 1.733679 -0.004589 -0.011965 -240252.000000 1 0 0
-0.409129 -19.683751 -2.959878 19.909252 1.550014 1.720018 0.015790 -0.007894 -728987.000000 1 0 0
-5.910029 -15.640351 -4.707478 17.369783 1.209511 1.845244 -0.000721 -0.004357 -2154500.000000 1 0 0
1.820671 -15.986251 -1.119478 16.128493 -1.457395 1.640262 0.017437 -0.003820 707816.000000 1 0 0
-13.332429 -11.772851 5.368322 18.578820 0.723356 1.277668 0.012754 0.000645 180763.000000 1 0 0
1.991571 -15.167651 -8.789078 17.642899 -1.440239 2.092278 0.007684 0.005433 -1113630.000000 1 0 0
-11.941529 -16.664851 0.047022 20.501697 0.949036 1.568503 0.010857 -0.007160 284363.000000 1 0 0
-7.728629 -16.631551 -1.010078 18.367375 1.135788 1.625817 0.009914 -0.005045 647557.000000 1 0 0
-3.089829 -14.413451 -1.809378 14.851548 1.359621 1.692931 0.006665 -0.002439 339925.000000 1 0 0
-1.902229 -10.406851 -13.390678 17.065500 1.390006 2.472950 0.004805 0.003958 -816894.000000 1 0 0
1.618471 -19.563351 4.802322 20.209068 -1.488255 1.330869 0.029449 -0.009249 -29540.000000 1 0 0
-17.354529 -9.351151 2.608422 19.885361 0.494227 1.439244 -0.005179 0.004861 -171101.000000 1 0 0
-2.911829 -15.491051 -8.020278 17.685482 1.384996 2.041479 0.000707 -0.003400 -1071090.000000 1 0 0
-10.423929 -12.119451 0.218022 15.987086 0.860468 1.557159 -0.004672 0.006150 474633.000000 1 0 0
-6.906029 -11.484751 -6.560378 14.920835 1.029406 2.026038 0.005721 -0.006461 338483.000000 1 0 0
-2.246429 -13.519451 -6.686978 15.249186 1.406138 2.024741 -0.004061 0.002759 725994.000000 1 0 0
-14.369129 -14.414751 -0.925678 20.374342 0.786983 1.616245 0.005034 0.001566 314668.000000 1 0 0
-9.525729 -11.324651 -4.445178 15.451435 0.871463 1.862607 0.011933 -0.002577 943018.000000 1 0 0
9.406671 -15.122151 -5.253078 18.567707 -1.014324 1.857628 0.013469 -0.000820 56723.100000 1 0 0
-5.530929 -10.960751 -9.405078 15.465598 1.103466 2.224498 0.005266 -0.007085 -412063.000000 1 0 0
-10.508429 -15.978951 -4.952978 19.755656 0.989068 1.824212 0.017784 -0.010663 -84151.300000 1 0 0
2.074271 -17.291251 -3.291678 17.723575 -1.451406 1.757604 0.014000 -0.005092 488345.000000 1 0 0
-0.424229 -14.455051 -8.197778 16.623238 1.541457 2.086505 0.002236 0.002969 -804562.000000 1 0 0
-0.595729 -18.261251 -7.221378 19.646284 1.538185 1.947191 -0.001191 0.001794 214612.000000 1 0 0
-1.905029 -9.946851 -10.726578 14.752236 1.381567 2.384907 0.004451 0.001089 335771.000000 1 0 0
-5.189129 -17.308551 2.089822 18.190117 1.279522 1.455654 0.008843 -0.007413 1184150.000000 1 0 0
0.210771 -12.716151 -2.697078 13.000737 -1.554223 1.779770 0.005903 0.001781 -2434410.000000 1 0 0
2.537171 -14.968851 2.961522 15.468495 -1.402895 1.378152 0.018885 -0.001109 -1064830.000000 1 0 0
-9.524029 -13.064351 6.795222 17.537373 0.940865 1.172910 0.002976 -0.003231 -246458.000000 1 0 0
-1.034829 -17.849651 -4.589078 18.459159 1.512886 1.822038 -0.000727 -0.001996 -446765.000000 1 0 0
-9.929629 -17.395551 -2.228478 20.153631 1.052113 1.681597 0.014401 -0.019967 -89911.500000 1 0 0
1.205471 -16.220251 1.406122 16.325651 -1.496614 1.484560 0.017280 -0.010397 392571.000000 1 0 0
-0.331729 -18.022051 4.171322 18.501467 1.552392 1.343382 0.023699 -0.012349 -1334830.000000 1 0 0
-17.378529 -9.065251 -0.029478 19.600840 0.480806 1.572300 -0.009072 0.002812 999288.000000 1 0 0
-14.960929 -7.154451 -10.694678 19.733011 0.446063 2.143574 0.020291 -0.002257 475061.000000 1 0 0
2.913171 -12.669951 -8.825878 15.713381 -1.344797 2.167210 0.000470 0.002644 712850.000000 1 0 0
-11.707829 -14.652251 1.615422 18.824753 0.896637 1.484877 -0.005411 0.001946 -163167.000000 1 0 0
-2.140929 -15.701551 10.439322 18.976347 1.435281 0.988285 -0.015085 -0.002035 -363889.000000 1 0 0
-7.211329 -15.910451 1.360522 17.521322 1.145247 1.493069 0.009656 -0.006772 -839790.000000 1 0 0
-12.652729 -14.977051 -5.855878 20.462036 0.869324 1.861037 0.013638 -0.010192 -428223.000000 1 0 0
0.811071 -13.666851 -5.115378 14.615326 -1.511520 1.928368 0.003217 0.000975 501059.000000 1 0 0
6.050071 -16.304351 -7.633878 18.992401 -1.215475 1.984435 0.008767 -0.005620 -53127.000000 1 0 0
-6.668229 -12.928251 5.954322 15.718108 1.094599 1.182276 0.004697 -0.001068 -67236.900000 1 0 0
-2.609929 -13.570551 0.643322 13.834213 1.380793 1.524277 0.012268 -0.004831 1866980.000000 1 0 0
-4.331929 -15.490051 0.223622 16.085935 1.298104 1.556894 0.005426 -0.002084 223408.000000 1 0 0
-17.765229 -7.421351 -2.176878 19.375722 0.395710 1.683385 -0.002522 0.003497 902784.000000 1 0 0
1.356571 -12.665451 -11.917678 17.443766 -1.464095 2.322940 0.010130 0.004642 62162.500000 1 0 0
1.101771 -17.065651 -5.719278 18.032207 -1.506325 1.893540 0.003932 -0.001404 -904658.000000 1 0 0
-12.807529 -6.481851 -9.360578 17.136733 0.468513 2.148652 0.010263 0.007239 1063210.000000 1 0 0
-11.802229 -13.384951 -8.767678 19.882699 0.848154 2.027476 0.040199 -0.023535 431374.000000 1 0 0
-4.348929 -9.849451 3.571822 11.343843 1.155000 1.250478 0.007897 -0.001681 -3197760.000000 1 0 0
-7.034529 -14.355951 9.667822 18.682738 1.115174 1.026901 0.002765 0.000013 -1233190.000000 1 0 0
-5.409629 -15.998651 -8.030078 18.700350 1.244735 2.014633 -0.000412 -0.006099 -847909.000000 1 0 0
-0.262329 -13.585451 2.121722 13.752636 1.551489 1.415900 0.014423 -0.005110 609960.000000 1 0 0
-11.001729 -13.425851 -4.722178 17.988621 0.884311 1.836418 0.017745 -0.005570 -725871.000000 1 0 0
-9.818229 -10.473051 6.702422 15.843134 0.817658 1.133989 0.007627 0.002263 -184253.000000 1 0 0
-15.548529 -8.030651 -4.867678 18.164317 0.476752 1.842092 -0.001638 0.005542 -464080.000000 1 0 0
-14.488529 -7.236651 5.520522 17.110311 0.463227 1.242276 0.002082 0.002534 1160920.000000 1 0 0
-1.803129 -19.345251 -0.074078 19.429243 1.477857 1.574609 0.018717 -0.007374 -387815.000000 1 0 0
-15.320529 -12.028551 -1.262878 19.519209 0.665606 1.635541 -0.005730 0.007425 1025160.000000 1 0 0
-4.506929 -12.124051 -6.920178 14.669488 1.214892 2.062059 0.006671 -0.003943 281165.000000 1 0 0
-7.674229 -18.348851 2.020322 19.991394 1.174665 1.469564 0.011979 -0.006932 250494.000000 1 0 0
-2.593329 -11.723951 -8.742078 14.852620 1.353102 2.200108 0.003522 0.002422 381361.000000 1 0 0
-1.583729 -20.344051 -5.245378 21.068996 1.493106 1.822405 -0.006421 0.003061 -22108.900000 1 0 0
-5.503829 -8.752851 -13.901578 17.325080 1.009466 2.502096 0.004263 0.000766 619716.000000 1 0 0
-8.633229 -19.111151 -0.745278 20.983903 1.146498 1.606320 0.011069 -0.004047 24386.000000 1 0 0
-17.054329 -7.230151 5.747822 19.394914 0.400979 1.269920 0.010024 0.001000 -812388.000000 1 0 0
-3.682529 -14.506251 -4.366478 15.590333 1.322190 1.854670 0.000668 0.000542 -3898280.000000 1 0 0
-2.987829 -14.723351 -10.954078 18.592902 1.370584 2.200807 0.000771 -0.002148 -81517.700000 1 0 0
-0.210929 -16.707551 6.406322 17.894908 1.558172 1.204675 0.022773 -0.010783 -1302290.000000 1 0 0
-11.152229 -11.532451 3.873022 16.503634 0.802158 1.333910 -0.002578 0.004460 -1074100.000000 1 0 0
-0.321729 -14.739351 -0.247778 14.744944 1.548972 1.587601 0.010540 -0.001359 795473.000000 1 0 0
-7.271529 -9.462751 -2.399678 12.172808 0.915600 1.769230 0.007629 0.001171 285813.000000 1 0 0
-11.084829 -14.444351 -0.915378 18.230486 0.916242 1.621029 -0.005069 -0.003676 -142011.000000 1 0 0
0.209971 -14.539051 -10.649478 18.023304 -1.556355 2.202936 0.006219 0.000988 46002.400000 1 0 0
-1.524529 -13.937751 -3.898878 14.552881 1.461848 1.842021 0.001382 0.000250 -4070920.000000 1 0 0
-11.391229 -8.015351 -7.678178 15.904728 0.613166 2.074601 0.013552 -0.000809 536338.000000 1 0 0
-0.243129 -17.403651 -0.247978 17.407116 1.556827 1.585043 0.016407 -0.008043 -731523.000000 1 0 0
-12.814429 -9.427351 4.582222 16.555401 0.634275 1.290354 -0.001046 0.005177 -239190.000000 1 0 0
3.938471 -16.881251 1.604222 17.408668 -1.341592 1.478515 0.016682 -0.004198 3570430.000000 1 0 0
-3.893229 -17.899551 -8.155478 20.051508 1.356628 1.989664 0.002952 -0.004330 45637.400000 1 0 0
-13.341929 -11.197051 2.748722 17.633392 0.698213 1.414276 -0.007344 0.003411 -38784.100000 1 0 0
-8.554729 -12.078051 4.307222 15.414761 0.954530 1.287604 0.001850 -0.001696 -301158.000000 1 0 0
-8.222529 -9.430651 -5.903578 13.834717 0.853728 2.011661 0.013263 -0.002111 -249920.000000 1 0 0
3.670571 -17.396751 -5.391878 18.579354 -1.362854 1.865241 0.007882 -0.000363 -738839.000000 1 0 0
-2.531929 -13.206051 11.315822 17.574364 1.381370 0.871235 -0.010525 -0.002495 -89115.800000 1 0 0
0.052071 -16.723451 -9.470978 19.219156 -1.567683 2.086088 0.006183 0.002192 115905.000000 1 0 0
-7.133629 -10.579351 -14.694678 19.461369 0.977529 2.426556 0.009771 0.004314 -566047.000000 1 0 0
-4.660829 -18.766551 -1.496178 19.394466 1.327363 1.648018 0.012725 -0.017646 -947622.000000 1 0 0
-2.583629 -17.237351 1.164222 17.468738 1.422018 1.504101 0.019351 -0.010920 1332480.000000 1 0 0
4.064671 -14.682851 -7.430178 16.950375 -1.300728 2.024557 0.001234 0.003018 -809504.000000 1 0 0
-1.139429 -15.845951 -6.138678 17.031613 1.499013 1.939524 -0.001842 0.002319 -474864.000000 1 0 0
-9.534629 -15.153751 8.407822 19.779707 1.009188 1.131754 0.006532 -0.002372 -622515.000000 1 0 0
-7.258129 -12.040851 -1.824278 14.177113 1.028326 1.699832 0.001343 -0.000554 725559.000000 1 0 0
-7.439229 -15.128651 -9.366578 19.286031 1.113786 2.077922 0.017056 -0.013915 -561142.000000 1 0 0
-5.120629 -13.227451 -0.504078 14.192970 1.201441 1.606320 0.005861 -0.001087 2755520.000000 1 0 0
-6.567829 -13.754551 -7.425578 16.954742 1.125308 2.024130 0.006182 -0.007112 227606.000000 1 0 0
5.670971 -15.490751 0.194322 16.497304 -1.219862 1.559017 0.008326 0.001817 382528.000000 1 0 0
-14.153129 -12.689651 0.983522 19.034328 0.730932 1.519102 -0.029938 -0.002567 1051830.000000 1 0 0
0.709471 -15.229251 11.165222 18.896974 -1.524244 0.938688 0.014148 -0.010166 34863.300000 1 0 0
-9.250329 -10.833651 2.038622 14.390711 0.864071 1.428656 -0.001140 0.004544 -527934.000000 1 0 0
-9.499429 -8.928251 -3.562478 13.514587 0.754412 1.837551 0.007711 0.000196 -913531.000000 1 0 0
-12.168629 -7.495751 -12.330878 18.876238 0.552094 2.282664 0.018183 0.003336 184968.000000 1 0 0
-13.249129 -8.374051 -0.539478 15.682959 0.563650 1.605202 -0.004838 0.005330 -738668.000000 1 0 0
-11.200529 -9.663351 0.549622 14.803185 0.711855 1.533659 -0.007578 0.006468 486831.000000 1 0 0
-15.789229 -12.242151 2.909522 20.189981 0.659528 1.426186 0.001303 0.008371 341361.000000 1 0 0
-10.371929 -12.516251 -2.343978 16.423388 0.878812 1.714007 0.005320 -0.001195 457904.000000 1 0 0
-3.466129 -8.838951 -12.185278 15.447398 1.197082 2.479690 -0.000881 0.002533 -326015.000000 1 0 0
-0.313729 -15.556651 3.969622 16.058198 1.550632 1.321005 0.016430 -0.006641 -726720.000000 1 0 0
-15.709229 -7.695151 1.331722 17.543338 0.455494 1.494813 -0.006197 0.004757 57933.500000 1 0 0
-6.239529 -13.334751 -13.375178 19.890769 1.133145 2.308285 0.012881 -0.002819 -69725.700000 1 0 0
-15.263729 -10.214551 1.179922 18.404095 0.589757 1.506640 -0.006166 0.002978 678888.000000 1 0 0
-9.798729 -8.476551 -12.491578 17.997403 0.713176 2.337933 0.017879 0.000934 169094.000000 1 0 0
-13.275329 -11.688851 -6.141478 18.723818 0.721933 1.904986 0.008077 -0.003593 -201866.000000 1 0 0
-12.144229 -11.256051 -3.767678 16.981648 0.747461 1.794526 0.000531 0.002229 1447760.000000 1 0 0
-11.559129 -10.761251 -8.939578 18.147563 0.749667 2.085877 0.010897 -0.016618 171836.000000 1 0 0
-13.174929 -8.444351 -5.846278 16.705232 0.569980 1.928332 0.002268 0.000575 -1415300.000000 1 0 0
-13.459129 -8.084851 -3.217478 16.027013 0.540931 1.772923 -0.000068 0.000625 397410.000000 1 0 0
-4.308829 -16.898751 -3.259478 17.741420 1.321137 1.755567 -0.000132 -0.009545 32422.000000 1 0 0
-15.419829 -8.766751 -1.738578 17.822730 0.516964 1.668500 -0.002868 0.003116 -945594.000000 1 0 0
-9.648229 -15.799351 3.664922 18.871658 1.022566 1.375352 0.002739 -0.002090 -719895.000000 1 0 0
4.614771 -17.197751 8.167722 19.590060 -1.308636 1.140729 0.035584 -0.022093 531132.000000 1 0 0
-8.460329 -15.372251 5.996122 18.542836 1.067674 1.241512 0.002673 -0.001880 461595.000000 1 0 0
0.825571 -16.012751 8.653222 18.219989 -1.519285 1.075912 0.024929 -0.012085 -805.877000 1 0 0
-10.785629 -7.882551 -10.185878 16.799301 0.631124 2.222230 0.013993 0.000003 695506.000000 1 0 0
-4.878929 -16.101551 5.518122 17.706314 1.276580 1.253870 0.006111 -0.010076 -895094.000000 1 0 0
-1.260629 -13.147851 -12.250378 18.014631 1.475208 2.318591 0.006003 0.000589 -677825.000000 1 0 0
-6.413129 -14.344051 -2.547278 15.917558 1.150362 1.731517 0.004686 -0.000602 154502.000000 1 0 0
-17.592829 -6.927651 -7.224778 20.240983 0.375130 1.935784 -0.009830 -0.001718 -445227.000000 1 0 0
-17.243229 -4.188051 -10.172878 20.453757 0.238267 2.091349 -0.000235 -0.006362 154228.000000 1 0 0
-15.127529 -5.234151 -8.951478 18.340323 0.333108 2.080681 -0.009485 -0.006209 789842.000000 1 0 0
-15.938029 -5.334151 -5.820378 17.786251 0.322963 1.904178 -0.009773 0.000990 -59991.200000 1 0 0
-15.235129 -4.308951 -12.290278 20.043132 0.275631 2.230891 0.017037 -0.002749 1024090.000000 1 0 0
-18.448829 -5.157451 -5.475178 19.923257 0.272595 1.849192 -0.013390 0.001944 -1442010.000000 1 0 0
-17.331029 -4.346551 -7.635478 19.430841 0.245728 1.974641 -0.005674 -0.006928 759299.000000 1 0 0
12.206271 -7.925351 8.638722 16.924295 -0.575873 1.035108 0.018346 -0.009613 167781.000000 1 0 0
16.133371 -3.408351 1.873822 16.595593 -0.208200 1.457644 0.026445 -0.004068 445557.000000 1 0 0
11.788371 -2.164051 12.661622 17.434606 -0.181554 0.757967 0.007686 -0.001453 139211.000000 1 0 0
9.688871 -10.100751 5.126322 14.905656 -0.806208 1.219710 -0.001827 -0.004027 293436.000000 1 0 0
16.931671 -2.214451 7.315222 18.576807 -0.130049 1.166053 0.037389 -0.007913 -237903.000000 1 0 0
5.113371 -12.856051 8.962322 16.484776 -1.192239 0.995989 0.006482 -0.004074 -295761.000000 1 0 0
15.164571 -9.046451 -2.255778 17.801433 -0.537880 1.697857 0.004163 -0.000921 668628.000000 1 0 0
10.893871 -8.497551 6.402522 15.227511 -0.662445 1.136847 0.008530 -0.008635 -3065970.000000 1 0 0
20.045271 -3.119151 3.718022 20.624395 -0.154367 1.389532 0.038135 -0.005703 368820.000000 1 0 0
13.476971 -8.790151 6.724022 17.438692 -0.577945 1.174959 0.022841 -0.007806 -1035710.000000 1 0 0
8.216871 -11.024051 8.692322 16.266626 -0.930272 1.007040 -0.005970 -0.004132 -1150750.000000 1 0 0
16.897871 0.102349 -0.620078 16.909554 0.006057 1.607475 0.028682 0.001761 -262716.000000 1 0 0
12.422771 -12.427051 2.205722 17.709377 -0.785570 1.445921 0.013792 -0.001830 -1452120.000000 1 0 0
10.388271 -11.686351 3.495422 16.022014 -0.844135 1.350864 0.006501 -0.002812 -986131.000000 1 0 0
16.362971 2.802049 2.459022 16.782285 0.169598 1.423742 0.018914 0.003271 201546.000000 1 0 0
18.454471 -3.336551 0.689722 18.766347 -0.178867 1.534035 0.030289 -0.005478 -738140.000000 1 0 0
13.586671 -11.695251 -0.212978 17.928243 -0.710724 1.582676 0.017463 0.004135 -370089.000000 1 0 0
16.916971 -7.548451 -0.875178 18.545322 -0.419694 1.618005 0.013923 -0.002314 648884.000000 1 0 0
10.135171 -5.685651 9.711922 15.144958 -0.511236 0.874651 0.008611 -0.006799 479484.000000 1 0 0
11.179171 -13.436951 6.159222 18.532715 -0.876862 1.232009 0.010934 -0.001769 535033.000000 1 0 0
13.001971 -1.753651 10.470822 16.785847 -0.134067 0.897215 0.022882 -0.004844 266043.000000 1 0 0
15.625171 -2.091951 -1.415878 15.828043 -0.133092 1.660370 0.023532 -0.002601 759591.000000 1 0 0
10.425471 -12.410451 8.874022 18.478582 -0.872104 1.069876 0.006014 -0.009423 134495.000000 1 0 0
14.564371 1.100849 3.569422 15.035742 0.075442 1.331112 0.015312 0.004299 1211730.000000 1 0 0
14.828971 -6.103551 5.168322 16.848242 -0.390463 1.259012 0.027608 -0.009224 -1387860.000000 1 0 0
14.295271 -3.489251 -3.043878 15.026471 -0.239403 1.774776 0.013380 -0.003540 827331.000000 1 0 0
14.014771 0.512649 9.690922 17.046718 0.036563 0.966125 0.016829 -0.003749 139547.000000 1 0 0
15.482171 -3.689551 4.508122 16.541873 -0.233946 1.294777 0.025134 -0.003578 -1160400.000000 1 0 0
18.560071 4.875349 -4.215278 19.647235 0.256876 1.787026 0.001564 0.003902 784208.000000 1 0 0
18.255071 -5.822051 -5.057578 19.817240 -0.308730 1.828862 0.037016 -0.003639 635003.000000 1 0 0
17.330571 -0.037651 6.072822 18.363803 -0.002173 1.233756 0.036852 0.002012 733883.000000 1 0 0
16.970971 -6.837251 3.974622 18.723234 -0.382986 1.356886 0.026485 -0.005749 -48022.700000 1 0 0
9.516571 -6.697551 14.239622 18.389920 -0.613257 0.685162 -0.002046 0.002735 -1287710.000000 1 0 0
8.633271 -12.395651 5.074022 15.935220 -0.962440 1.246739 0.006195 -0.004923 -2073460.000000 1 0 0
16.885771 -10.119251 -0.639278 19.696121 -0.539888 1.603259 0.013796 0.003033 -469982.000000 1 0 0
14.910471 -8.834251 0.364522 17.334907 -0.534876 1.549767 0.022586 -0.005911 202164.000000 1 0 0
9.914971 -13.010051 1.405622 16.417791 -0.919596 1.485076 0.006314 -0.000637 209320.000000 1 0 0
16.656871 -8.369351 8.841422 20.631726 -0.465611 1.127925 0.039881 -0.014753 416765.000000 1 0 0
19.093971 -0.051651 -2.131578 19.212652 -0.002705 1.681972 0.025968 0.004879 22985.400000 1 0 0
13.248371 -1.360151 7.915022 15.492479 -0.102307 1.034571 0.010946 -0.004037 91518.500000 1 0 0
12.783671 -9.869251 -3.025278 16.430967 -0.657446 1.755973 0.005874 0.001230 -1530620.000000 1 0 0
8.851071 -15.261551 1.354522 17.694381 -1.045243 1.494170 0.014925 0.000077 -245114.000000 1 0 0
11.343971 -8.340051 11.062622 17.905969 -0.633960 0.904832 0.012751 -0.007729 -333452.000000 1 0 0
13.978071 -4.026251 -0.506378 14.555191 -0.280449 1.605594 0.015736 -0.004050 -577022.000000 1 0 0
7.203271 -13.368251 10.501022 18.462630 -1.076566 0.965785 0.015537 -0.000474 -357209.000000 1 0 0
15.388171 -6.781851 1.865422 16.919489 -0.415109 1.460319 0.019202 -0.006471 -142509.000000 1 0 0
15.769971 -6.073151 -2.485678 17.080800 -0.367603 1.716840 0.010317 -0.002534 -78991.600000 1 0 0
11.113571 -8.531551 3.788222 14.513768 -0.654714 1.306729 0.011093 -0.005583 525653.000000 1 0 0
10.681071 -14.512851 -0.514378 18.026999 -0.936333 1.599334 0.017704 0.003225 604123.000000 1 0 0
13.203871 -13.148651 4.539122 19.178969 -0.783303 1.331857 0.005473 0.003786 371159.000000 1 0 0
12.681971 -11.286651 6.434222 18.155442 -0.727249 1.208528 0.007895 -0.003527 -275338.000000 1 0 0
10.879571 -10.621351 1.264122 15.257004 -0.773389 1.487846 0.004000 0.000807 259918.000000 1 0 0
13.730471 -7.639151 11.948322 19.739424 -0.507717 0.920651 0.028737 -0.012432 219187.000000 1 0 0
15.275271 -1.804551 -4.815878 16.117785 -0.117590 1.874224 0.016308 -0.004018 -105996.000000 1 0 0
12.837571 -11.285451 -7.120778 18.516752 -0.721145 1.965526 0.011550 -0.000805 -226232.000000 1 0 0
17.682171 -5.447551 1.939822 18.603706 -0.298854 1.466336 0.029506 -0.002914 534421.000000 1 0 0
10.535971 -9.818451 8.978122 16.971015 -0.750161 1.013343 -0.005021 -0.007523 -1542340.000000 1 0 0
16.347871 1.478649 9.869822 19.153398 0.090204 1.029434 0.028193 -0.006900 -1142640.000000 1 0 0
18.053671 3.543949 0.513122 18.405377 0.193836 1.542914 0.002529 0.003562 380130.000000 1 0 0
13.173371 -4.196151 5.702822 14.955519 -0.308371 1.179574 0.022043 -0.010184 -1288940.000000 1 0 0
12.116171 -6.323251 6.496622 15.132455 -0.481002 1.127060 0.021333 -0.011991 -492450.000000 1 0 0
16.557471 -10.527451 3.559422 19.941077 -0.566337 1.391338 0.019774 0.003612 21705.700000 1 0 0
16.257271 -8.136151 -5.462778 18.982564 -0.464017 1.862703 0.009038 0.001987 -619918.000000 1 0 0
13.949271 -0.670351 5.470522 14.998605 -0.048019 1.197448 0.014867 0.002558 1287230.000000 1 0 0
18.469471 -4.438051 5.143622 19.679291 -0.235820 1.306353 0.048632 -0.001916 237133.000000 1 0 0
13.580871 -13.672351 7.088622 20.533431 -0.788755 1.218319 0.016154 -0.000538 -392820.000000 1 0 0
14.945771 -13.776951 -1.030478 20.352944 -0.744727 1.621448 0.014142 0.010288 438885.000000 1 0 0
17.736971 -6.147351 8.032922 20.418567 -0.333628 1.166456 0.042865 -0.006179 110389.000000 1 0 0
14.378371 3.190349 9.450422 17.499324 0.218348 1.000306 0.016290 -0.002720 -1173920.000000 1 0 0
18.904571 3.425649 2.874722 19.426320 0.179262 1.422270 0.027761 -0.002296 -153019.000000 1 0 0
14.674371 -10.770251 8.036922 19.897929 -0.633150 1.155012 0.024048 -0.010462 -654027.000000 1 0 0
14.664671 -5.043451 10.431822 18.689887 -0.331247 0.978638 0.032415 -0.016961 6682.790000 1 0 0
17.805771 -8.073551 1.899022 19.642657 -0.425697 1.473967 0.030087 -0.007929 343080.000000 1 0 0
18.448971 -5.755551 -1.980078 19.427084 -0.302403 1.672897 0.018256 -0.001654 500798.000000 1 0 0
14.196271 -13.010551 -5.594878 20.052711 -0.741844 1.853558 0.003901 0.005994 -894947.000000 1 0 0
15.327771 -1.733651 9.422122 18.075467 -0.112627 1.022463 0.036149 -0.012998 -1200060.000000 1 0 0
12.800071 -10.141051 10.034622 19.167065 -0.670007 1.019802 0.003492 -0.015398 -1928480.000000 1 0 0
16.624971 2.104749 4.871322 17.451344 0.125932 1.287901 0.021569 0.001072 -1643810.000000 1 0 0
15.046471 2.464649 0.003722 15.246993 0.162361 1.570552 0.013499 0.004575 -1535550.000000 1 0 0
15.078671 -9.918351 -7.028478 19.368518 -0.581821 1.942155 0.009791 0.004694 890720.000000 1 0 0
16.002671 -0.018451 -3.082278 16.296817 -0.001153 1.761076 0.012116 0.000837 -42138.300000 1 0 0
11.957071 2.460649 13.642122 18.306661 0.202957 0.729962 0.007951 -0.000984 -111021.000000 1 0 0
17.513171 -3.210651 9.633722 20.244210 -0.181314 1.074837 0.034644 -0.010347 470671.000000 1 0 0
7.723371 -18.150951 4.541022 20.241748 -1.168496 1.344531 0.032091 -0.012084 -7056.060000 1 0 0
6.815371 -11.257951 6.465522 14.662664 -1.026428 1.114138 0.002083 -0.002963 -451118.000000 1 0 0
17.979471 2.202949 -1.656078 18.189474 0.121918 1.661969 0.020401 0.006678 374852.000000 1 0 0
17.569671 -2.321151 3.825622 18.130539 -0.131351 1.358194 0.027191 0.000462 -993338.000000 1 0 0
12.600771 -13.480651 -1.981478 18.558923 -0.819121 1.677767 0.009824 0.007865 -1121800.000000 1 0 0
15.110371 -8.503751 4.328522 17.871015 -0.512599 1.326154 0.032701 -0.005899 -744915.000000 1 0 0
11.466871 -3.057051 15.112222 19.214941 -0.260539 0.665703 0.013133 -0.002402 -40283.800000 1 0 0
11.866671 -13.600051 -6.484978 19.179004 -0.853358 1.915724 0.000609 -0.005130 -763288.000000 1 0 0
10.645771 -12.042751 -1.334478 16.128891 -0.846893 1.653629 0.006817 -0.000497 -1109750.000000 1 0 0
13.144671 -8.074551 2.095922 15.568354 -0.550856 1.435759 0.015882 -0.001622 -548741.000000 1 0 0
8.699871 -7.879351 9.932322 15.376051 -0.735948 0.868515 -0.001676 -0.002058 -1859200.000000 1 0 0
15.503771 -3.945751 8.171422 17.964075 -0.249212 1.098564 0.036515 -0.013729 -538859.000000 1 0 0
10.222271 -17.443051 5.116022 20.854940 -1.040707 1.322952 0.025185 -0.014275 -694523.000000 1 0 0
15.047271 -6.469851 8.301222 18.362724 -0.406071 1.101713 0.032045 -0.009012 -214407.000000 1 0 0
16.687171 -4.924451 -0.331578 17.401777 -0.286959 1.589852 0.026275 -0.004267 -441374.000000 1 0 0
13.896971 -10.753851 3.516222 17.920238 -0.658577 1.373300 0.018966 -0.002215 -246940.000000 1 0 0
14.870971 -10.108451 -4.531878 18.543583 -0.597001 1.817688 0.008591 0.001087 63439.800000 1 0 0
13.612771 -6.599551 -0.027778 15.128198 -0.451419 1.572632 0.017469 -0.004079 -306319.000000 1 0 0
17.725471 -0.835451 -4.752578 18.370555 -0.047098 1.832479 0.012313 -0.005028 5544.720000 1 0 0
14.372171 0.171049 -1.347778 14.436241 0.011901 1.664293 0.013757 0.000812 -2459720.000000 1 0 0
4.840271 -13.090351 11.576622 18.132945 -1.216629 0.878339 0.005507 0.004234 -303542.000000 1 0 0
11.772671 -7.549951 13.511822 19.446513 -0.570243 0.802627 0.009244 -0.004221 -786991.000000 1 0 0
11.958071 -5.818751 11.561022 17.621310 -0.452867 0.855181 0.016287 -0.006732 1109390.000000 1 0 0
13.090571 -4.828851 8.321522 16.245879 -0.353395 1.033025 0.026515 -0.011766 -1833380.000000 1 0 0
15.281271 -1.347551 3.257522 15.682620 -0.087956 1.361557 0.025741 0.001517 -264741.000000 1 0 0
15.048971 -10.658351 5.654522 19.288483 -0.616238 1.273271 0.025149 -0.004858 52423.500000 1 0 0
13.661671 -8.053251 -5.774478 16.877224 -0.532647 1.919996 0.011215 0.000986 -1226720.000000 1 0 0
9.413671 -2.421951 13.726022 16.819237 -0.251819 0.616182 -0.002874 -0.000623 367793.000000 1 0 0
9.692071 -9.275651 13.621722 19.118715 -0.763448 0.777769 0.006718 0.005273 -101748.000000 1 0 0
20.400571 6.235049 -2.934678 21.533032 0.296615 1.707509 0.020663 0.005512 -830417.000000 1 0 0
11.163271 -3.534551 10.531922 15.749065 -0.306637 0.838293 0.011967 -0.006125 956234.000000 1 0 0
10.280971 -14.033551 -3.044978 17.660997 -0.938525 1.744075 0.009782 0.000942 -264656.000000 1 0 0
14.831371 -13.138551 2.567022 19.979507 -0.724949 1.441957 0.012248 0.012002 251032.000000 1 0 0
11.126171 -0.520751 14.544022 18.319155 -0.046770 0.653560 0.012567 -0.007367 315944.000000 1 0 0
19.066471 -2.022351 5.961722 20.078903 -0.105673 1.269336 0.049438 -0.003694 651375.000000 1 0 0
18.939471 -0.688451 8.134822 20.624084 -0.036334 1.165345 0.044076 -0.003979 351586.000000 1 0 0
19.251471 0.904049 0.240622 19.274188 0.046926 1.558312 0.037918 0.003555 -106552.000000 1 0 0
18.569471 0.638949 3.889522 18.983200 0.034395 1.364442 0.032062 0.000652 36065.700000 1 0 0
16.699171 -3.951851 -4.153378 17.655877 -0.232375 1.808262 0.016841 -0.005971 -650535.000000 1 0 0
10.846471 -8.351951 15.707122 20.835419 -0.656188 0.716869 0.020794 -0.003719 295388.000000 1 0 0
16.437771 -7.775851 6.440622 19.291080 -0.441854 1.230395 0.030252 -0.005252 493544.000000 1 0 0
18.814771 2.052449 6.142222 19.898117 0.108657 1.256988 0.031108 -0.002075 -259353.000000 1 0 0
15.181271 1.639749 7.621022 17.065748 0.107594 1.107870 0.015797 -0.001686 -22258.200000 1 0 0
8.685971 -15.778751 3.810222 18.410129 -1.067581 1.362326 0.015326 -0.011650 -395714.000000 1 0 0
11.327471 -15.214551 1.957222 19.068951 -0.930814 1.467976 0.011037 0.004508 377332.000000 1 0 0
8.240271 -16.102751 6.152022 19.106230 -1.097808 1.242965 0.026669 -0.010121 -134193.000000 1 0 0
14.510671 -11.652651 -2.551878 18.784460 -0.676592 1.707068 0.002976 0.004415 631604.000000 1 0 0
13.700071 -4.896751 3.180122 14.892390 -0.343274 1.355599 0.015029 -0.002230 -1322180.000000 1 0 0
-1.036029 10.281049 -5.594578 11.750431 -1.470365 2.067030 -0.001996 0.001597 -2944880.000000 1 0 0
8.190671 -1.669251 -8.017278 11.582324 -0.201046 2.335328 0.001885 -0.003667 -1530510.000000 1 0 0
2.960071 -10.337651 7.651022 13.197242 -1.291919 0.952382 -0.000237 -0.003793 454349.000000 1 0 0
-6.213929 1.259349 8.300222 10.444738 -0.199957 0.652317 -0.000610 -0.001780 -339202.000000 1 0 0
7.326971 -6.182751 -7.257078 12.023980 -0.700904 2.218743 -0.000197 -0.002664 66657.000000 1 0 0
-11.331229 -4.405851 -4.162878 12.850596 0.370835 1.900692 0.001380 -0.001202 -21257.100000 1 0 0
2.115671 -3.251551 2.851922 4.814780 -0.993954 0.936853 0.002425 -0.001468 1323760.000000 1 0 0
-3.631129 -4.250751 8.951222 10.553595 0.863850 0.558279 -0.002618 -0.000663 -2985270.000000 1 0 0
-4.829329 -1.077451 -2.402878 5.500649 0.219511 2.022874 0.000591 0.000245 -380492.000000 1 0 0
4.986171 -5.130351 -3.608478 8.012710 -0.799649 2.037947 0.003508 -0.002275 -112224.000000 1 0 0
2.765871 14.334949 -8.794178 17.043426 1.380193 2.112955 0.001642 -0.005613 -506236.000000 1 0 0
5.313971 -5.424751 13.589322 15.567141 -0.795714 0.509581 -0.008607 -0.001230 -1651220.000000 1 0 0
-4.683829 -0.861851 9.899222 10.985246 0.181970 0.448409 0.000738 -0.001256 -1517690.000000 1 0 0
-0.926529 11.937649 -2.626178 12.258170 -1.493338 1.786709 -0.001446 -0.001203 239176.000000 1 0 0
3.057171 9.506049 -10.542578 14.520923 1.259640 2.383323 0.008171 -0.001878 -720551.000000 1 0 0
-10.603129 2.771849 1.145522 11.019152 -0.255696 1.466651 -0.000429 -0.004661 152677.000000 1 0 0
5.700071 -9.036151 -0.805378 10.714078 -1.008032 1.646037 -0.000876 -0.000168 497830.000000 1 0 0
-6.913829 5.442649 9.359422 12.846098 -0.666895 0.754548 -0.000067 -0.003885 -180615.000000 1 0 0
-5.361629 -1.818751 5.162622 7.662088 0.327036 0.831473 0.001186 -0.003007 715708.000000 1 0 0
6.491971 -3.692851 -7.345878 10.475913 -0.517188 2.347898 0.002354 -0.002935 420746.000000 1 0 0
6.255671 4.828949 11.096922 13.623283 0.657390 0.618834 -0.001596 0.002426 237230.000000 1 0 0
3.888371 -9.926351 3.557922 11.238803 -1.197446 1.248680 -0.001350 0.000090 790163.000000 1 0 0
-6.608129 6.563749 -5.686578 10.912715 -0.782029 2.118932 -0.003008 -0.001679 373877.000000 1 0 0
-11.032829 8.440449 5.230822 14.843382 -0.653051 1.210661 -0.006191 -0.010487 377949.000000 1 0 0
-9.161829 -5.492251 5.156622 11.861479 0.540030 1.121050 -0.000639 -0.001425 -977806.000000 1 0 0
3.175471 9.817649 -8.025178 13.071852 1.257971 2.231824 0.006197 -0.001133 639700.000000 1 0 0
-8.173429 -8.505951 6.069822 13.266457 0.805332 1.095579 0.002758 0.000827 -3663190.000000 1 0 0
-7.813029 -5.729451 -7.570978 12.295924 0.632740 2.234109 0.009867 -0.001819 5465.970000 1 0 0
9.143771 -1.809551 7.069022 11.698465 -0.195375 0.921948 -0.000199 -0.006156 1492200.000000 1 0 0
-4.031729 -0.383451 -4.904978 6.360871 0.094823 2.451390 0.004161 -0.003220 -665265.000000 1 0 0
9.034571 1.188649 -4.492778 10.159794 0.130815 2.028859 0.001215 0.002186 -2715720.000000 1 0 0
-1.922529 -10.722951 10.823522 15.356641 1.393390 0.788640 -0.009821 -0.002543 12822.600000 1 0 0
-12.920329 0.347049 -2.671778 13.198248 -0.026854 1.774639 0.001116 -0.005605 -702811.000000 1 0 0
-9.790229 -5.096151 -6.101978 12.611641 0.479940 2.075830 0.007366 -0.002454 -1793450.000000 1 0 0
-5.464329 8.373349 -0.193278 10.000461 -0.992605 1.590124 0.001662 -0.003133 279602.000000 1 0 0
6.284871 9.606549 0.414122 11.487249 0.991455 1.534738 0.002755 0.000435 405990.000000 1 0 0
-0.565329 -12.086251 0.010222 12.099470 1.524056 1.569951 0.011186 -0.000145 -297860.000000 1 0 0
6.305571 4.742049 2.403922 8.247793 0.644806 1.275041 -0.001397 0.000869 255065.000000 1 0 0
3.509171 -7.416851 -8.277878 11.655352 -1.128871 2.360609 -0.002690 0.002218 751611.000000 1 0 0
-6.678929 -9.854751 4.644822 12.778833 0.975169 1.198798 0.004586 0.000853 -3130440.000000 1 0 0
-0.122729 6.558849 -9.284278 11.367998 -1.552087 2.526471 0.002199 -0.001516 -1924530.000000 1 0 0
-17.306929 -2.613151 4.490422 18.069927 0.149857 1.319662 0.013473 -0.005461 716907.000000 1 0 0
-8.380029 0.951949 -9.133878 12.432169 -0.113112 2.396016 0.007012 -0.002272 721691.000000 1 0 0
-10.022729 -5.952251 -11.916178 16.669724 0.535904 2.367191 0.012032 0.005747 80473.100000 1 0 0
2.206971 9.384849 6.442322 11.595241 1.339830 0.981711 -0.005011 0.005838 1509180.000000 1 0 0
-11.374829 1.700549 -1.189178 11.562558 -0.148402 1.673826 0.000882 -0.006385 -1198920.000000 1 0 0
-6.040029 -5.441551 -2.973278 8.656374 0.733320 1.921415 0.010124 -0.001065 690207.000000 1 0 0
-6.944829 -8.258151 1.322722 10.870939 0.871570 1.448819 0.003106 0.000977 -485975.000000 1 0 0
0.051071 11.045449 -7.883978 13.570617 1.566173 2.190703 0.003848 0.000007 412033.000000 1 0 0
-2.852429 9.238249 -4.250278 10.561556 -1.271320 1.984965 -0.003890 -0.000545 -484829.000000 1 0 0
3.387971 -4.795551 9.232422 10.941356 -0.955733 0.566453 -0.003293 -0.003182 -1931280.000000 1 0 0
-8.995929 1.636549 -0.487778 9.156580 -0.179953 1.624092 -0.000925 -0.002992 -2988000.000000 1 0 0
2.520871 3.589849 -10.325578 11.218706 0.958581 2.739872 -0.002293 -0.001097 -1475830.000000 1 0 0
-13.629129 0.500749 1.003722 13.675210 -0.036725 1.497333 0.000039 -0.004801 -41004.200000 1 0 0
9.391671 -12.570251 -5.059378 16.486722 -0.929132 1.882705 0.009790 0.001239 -2827580.000000 1 0 0
-4.706529 9.467149 -8.335278 13.463105 -1.109437 2.238418 -0.007491 0.001136 -564817.000000 1 0 0
-2.311929 7.142549 8.454822 11.306858 -1.257755 0.726114 -0.000937 0.000926 -700176.000000 1 0 0
-10.701629 -1.185251 -4.523978 11.678872 0.110305 1.968567 0.000270 -0.002458 -4138060.000000 1 0 0
2.522971 -7.166651 9.549622 12.203342 -1.232302 0.672059 -0.007033 -0.000784 -1240100.000000 1 0 0
-16.055429 -6.307551 3.472322 17.595995 0.374337 1.372157 0.003772 0.003667 -191881.000000 1 0 0
-10.825629 -0.066551 6.120822 12.436364 0.006147 1.056214 0.001454 -0.006354 -275596.000000 1 0 0
-8.344729 9.964749 9.473022 16.083186 -0.873648 0.940974 -0.004389 -0.008619 24960.200000 1 0 0
0.186871 -5.950251 -3.815278 7.070838 -1.539401 2.140734 0.000079 0.002829 225191.000000 1 0 0
4.942171 1.413949 -2.934178 5.918928 0.278655 2.089469 -0.001211 0.003301 473233.000000 1 0 0
0.454371 5.406449 3.754522 6.597922 1.486951 0.965451 -0.000871 0.000904 -2003720.000000 1 0 0
6.024371 -11.300351 -1.507378 12.894308 -1.081010 1.687967 0.001319 -0.000218 -1263070.000000 1 0 0
6.365871 -13.618351 5.301022 15.940032 -1.133528 1.231779 0.008473 -0.004185 -336612.000000 1 0 0
8.213871 -8.119351 -5.919978 12.978354 -0.779611 2.044452 0.001825 -0.002857 641881.000000 1 0 0
-13.092529 -1.224651 -4.717078 13.970144 0.093267 1.915220 0.001609 -0.003315 -3652340.000000 1 0 0
-6.833729 -1.501051 -7.047378 9.930687 0.216220 2.359807 0.006664 -0.004426 236464.000000 1 0 0
-5.580529 12.792449 -4.591078 14.692415 -1.159447 1.888598 -0.004045 -0.000320 1448320.000000 1 0 0
-4.291329 6.986249 -6.667478 10.567802 -1.019962 2.253540 -0.003935 0.000814 -3027470.000000 1 0 0
-9.392529 -3.660951 -8.099678 12.931626 0.371659 2.247654 0.007235 -0.001633 469535.000000 1 0 0
-2.317729 -6.462751 9.198822 11.478560 1.226455 0.641178 -0.005967 0.000019 -324525.000000 1 0 0
7.404371 -6.099851 9.971322 13.836913 -0.689096 0.766083 -0.005965 0.000816 43913.700000 1 0 0
9.546271 -4.985151 12.193622 16.268603 -0.481257 0.723462 0.002210 -0.001363 31479.800000 1 0 0
-6.415929 2.828749 -9.083178 11.474759 -0.415256 2.484185 0.003724 -0.002838 657497.000000 1 0 0
7.444371 5.487049 8.893022 12.830129 0.635177 0.804966 -0.006675 0.003840 -153700.000000 1 0 0
12.674771 3.402849 11.287622 17.310101 0.262289 0.860468 0.005805 0.003394 -147132.000000 1 0 0
-7.550929 -7.362951 -3.937978 11.257764 0.772795 1.928155 0.010381 -0.003112 -987721.000000 1 0 0
2.156171 1.459949 -5.887578 6.437709 0.595193 2.725179 0.002485 0.000795 -617067.000000 1 0 0
12.850571 6.954549 -7.118378 16.253437 0.496051 2.024126 0.011201 0.004863 131087.000000 1 0 0
0.792171 -7.858851 1.051522 7.968361 -1.470336 1.438448 0.003727 0.002703 1154290.000000 1 0 0
-10.303029 -5.982551 -8.519078 14.646434 0.526077 2.191550 0.007151 0.000219 -530706.000000 1 0 0
-6.616629 0.240649 3.152622 7.333261 -0.036354 1.126406 -0.000032 -0.003664 -380461.000000 1 0 0
10.757271 -8.005551 1.178322 13.460913 -0.639778 1.483148 0.003971 -0.002079 -319627.000000 1 0 0
6.241071 1.040649 10.581122 12.328587 0.165222 0.538928 -0.003754 -0.002073 -587657.000000 1 0 0
-12.949829 5.356549 1.818722 14.131470 -0.392208 1.441738 0.001542 -0.007593 357880.000000 1 0 0
2.167471 7.406349 3.613522 8.521119 1.286096 1.132865 -0.005308 0.001981 -94065.000000 1 0 0
10.066471 -9.489351 -0.891878 13.862794 -0.755895 1.635177 0.004141 -0.000725 786695.000000 1 0 0
6.817271 -11.606551 -9.005678 16.195353 -1.039720 2.160441 0.001480 -0.002471 -228419.000000 1 0 0
10.174571 3.527849 11.973222 16.103591 0.333760 0.732489 -0.004512 0.000945 -696160.000000 1 0 0
-11.007029 -3.074951 -1.964378 11.596068 0.272417 1.741018 -0.004751 0.000458 -1468150.000000 1 0 0
12.345471 0.915349 6.946022 14.194919 0.074009 1.059473 0.006742 0.000607 -168414.000000 1 0 0
-9.570529 9.062449 3.010422 13.519824 -0.758137 1.346247 0.001735 -0.010584 833360.000000 1 0 0
-6.602329 7.664649 -8.805378 13.411647 -0.859721 2.287028 -0.006164 0.001595 -1551670.000000 1 0 0
8.469571 5.396149 12.116222 15.737055 0.567269 0.692086 -0.005341 0.005810 -2035420.000000 1 0 0
1.380671 4.883549 -2.655378 5.727681 1.295268 2.052855 -0.002273 0.000783 828933.000000 1 0 0
1.296871 0.413049 9.459622 9.557036 0.308339 0.142900 -0.002397 -0.001597 1092570.000000 1 0 0
2.690571 12.580149 -4.002678 13.472964 1.360096 1.872440 0.005174 -0.000265 445852.000000 1 0 0
2.119271 0.488149 13.016022 13.196455 0.226390 0.165554 -0.006470 -0.002162 -247083.000000 1 0 0
-12.259929 -1.803151 0.786122 12.416731 0.146030 1.507442 -0.004379 -0.001807 25284.500000 1 0 0
3.295971 8.764049 -1.242678 9.445434 1.211080 1.702743 0.000592 0.001511 144133.000000 1 0 0
3.713671 -2.807351 -5.796078 7.434184 -0.647299 2.464907 -0.001876 -0.000166 -868852.000000 1 0 0
-7.832329 -7.132751 9.267722 14.075233 0.738685 0.852050 0.002341 0.002773 207165.000000 1 0 0
-7.004829 10.926649 -3.339878 13.402018 -1.000719 1.822658 0.004105 0.001220 560.358000 1 0 0
0.432271 0.524949 2.542822 2.632180 0.881917 0.261313 -0.002587 -0.001258 -1047900.000000 1 0 0
-7.087829 4.556849 -2.060678 8.674594 -0.571376 1.810643 0.003965 -0.003706 -865969.000000 1 0 0
-6.777529 -3.912051 -5.892078 9.795694 0.523493 2.216170 0.006685 -0.001092 328546.000000 1 0 0
2.862771 -6.235751 13.406322 15.060197 -1.140409 0.473051 -0.007070 -0.002398 -1370750.000000 1 0 0
-5.406229 -0.620151 -11.720478 12.922132 0.114211 2.706920 0.012531 -0.005394 -297887.000000 1 0 0
11.824771 2.410249 -0.578178 12.081755 0.201076 1.618670 0.004045 0.003300 -1071390.000000 1 0 0
6.060471 -11.045351 10.683822 16.518872 -1.068960 0.867462 -0.000540 0.002245 492585.000000 1 0 0
-8.154429 6.346349 -10.461578 14.704267 -0.661350 2.362378 -0.003888 0.002987 523887.000000 1 0 0
2.900571 7.880349 11.322322 14.096389 1.218109 0.638136 -0.003152 0.004531 975306.000000 1 0 0
-6.329929 -10.229051 -0.299778 12.032928 1.016654 1.595712 0.007285 -0.000087 -119716.000000 1 0 0
11.309471 4.258849 6.148522 13.558991 0.360150 1.100148 0.001339 0.004189 43216.900000 1 0 0
-7.853229 10.579449 1.497422 13.260476 -0.932235 1.457631 0.002650 -0.005196 710324.000000 1 0 0
4.454571 -2.404251 -3.536078 6.174745 -0.494922 2.180553 0.004767 0.000198 -5318660.000000 1 0 0
6.426371 6.385249 6.292222 11.030037 0.782188 0.963727 -0.002435 0.003619 -5209780.000000 1 0 0
-0.389629 10.447049 -10.196878 14.603731 -1.533518 2.343729 0.001291 0.001153 -231053.000000 1 0 0
13.903071 6.489049 -2.340478 15.520341 0.436683 1.722174 0.008257 0.002767 636602.000000 1 0 0
1.383571 9.464949 -6.207278 11.403062 1.425646 2.146413 0.003380 0.001119 264510.000000 1 0 0
0.649271 7.254249 7.283522 10.300261 1.481532 0.785379 -0.004049 0.004347 35161.100000 1 0 0
12.290171 6.169149 2.038322 13.901851 0.465213 1.423643 0.002500 0.002673 -2362750.000000 1 0 0
-6.775729 6.779149 -3.014078 10.047489 -0.785650 1.875471 -0.000246 -0.003040 -184820.000000 1 0 0
1.056371 9.824549 11.174322 14.916540 1.463684 0.724059 -0.005065 0.004635 -2499120.000000 1 0 0
-3.690929 13.585149 -10.963078 17.842878 -1.305511 2.232451 -0.006667 -0.006246 -327038.000000 1 0 0
-9.985129 -5.422651 -2.267378 11.586585 0.497509 1.767757 0.002353 0.001188 -51649.400000 1 0 0
-4.037229 3.872149 -12.503478 13.697800 -0.764530 2.720907 0.002560 -0.002274 -289303.000000 1 0 0
-3.180429 8.591349 2.458822 9.485368 -1.216250 1.308579 0.000618 0.001211 -2358160.000000 1 0 0
7.091371 8.905749 7.153422 13.445124 0.898335 1.009781 0.000912 0.004976 -184178.000000 1 0 0
-1.365529 -2.255651 -8.319878 8.727714 1.026429 2.834681 0.002412 -0.004672 -983464.000000 1 0 0
0.866471 -1.267851 4.880222 5.116130 -0.971287 0.304859 -0.001021 -0.002166 -1035700.000000 1 0 0
2.670571 -8.716251 -6.098178 10.967805 -1.273488 2.160370 -0.004949 0.002360 164791.000000 1 0 0
5.385571 3.879949 8.861922 11.072129 0.624309 0.642866 -0.003630 0.002690 674364.000000 1 0 0
6.165771 -7.371951 -2.791078 10.007623 -0.874261 1.853440 0.000705 -0.002020 857551.000000 1 0 0
1.671471 2.328749 -8.349278 8.827646 0.948253 2.810877 -0.000788 -0.001926 125243.000000 1 0 0
-5.352729 11.041349 -0.708278 12.290840 -1.119391 1.628455 -0.001857 -0.001303 503672.000000 1 0 0
-5.349929 3.294249 -3.395178 7.141502 -0.551924 2.066232 -0.000473 0.000831 -201864.000000 1 0 0
2.115471 13.724349 -6.243678 15.225521 1.417860 1.993338 0.001126 -0.003486 654090.000000 1 0 0
-5.357429 -2.568251 2.687122 6.520628 0.447017 1.146043 -0.006195 -0.001393 776982.000000 1 0 0
10.499771 -3.346751 -1.854978 11.175280 -0.308564 1.737558 0.002818 -0.001499 -79328.500000 1 0 0
2.282371 -3.301951 7.051722 8.114116 -0.965988 0.517480 -0.003329 -0.002639 -3164190.000000 1 0 0
-2.936329 9.998349 -11.774178 15.723240 -1.285146 2.417105 -0.001609 0.004449 -2331950.000000 1 0 0
0.471571 -2.131351 9.281522 9.534762 -1.353050 0.230989 -0.002564 -0.003010 967478.000000 1 0 0
9.528171 2.640449 5.018822 11.088128 0.270336 1.101083 -0.001054 0.001144 269242.000000 1 0 0
13.403671 2.050749 -5.042678 14.466947 0.151822 1.926836 0.010144 0.003160 -2424230.000000 1 0 0
-6.476629 3.773749 7.551722 10.640320 -0.527581 0.781686 0.001431 -0.003122 359742.000000 1 0 0
10.636571 -0.058751 1.900122 10.805117 -0.005523 1.394023 0.002702 0.003732 623310.000000 1 0 0
15.348771 6.671149 -4.429978 17.312241 0.410005 1.829561 0.016064 0.004390 -578329.000000 1 0 0
8.008771 -4.761551 -9.250878 13.129795 -0.536397 2.352615 0.006002 -0.002320 420770.000000 1 0 0
4.521071 5.574549 -2.190278 7.504199 0.889372 1.866982 -0.000026 0.001422 353583.000000 1 0 0
-1.544029 -10.556751 1.535622 10.779015 1.425566 1.427846 0.008758 -0.000676 -733071.000000 1 0 0
-2.784729 12.342349 -12.948578 18.103976 -1.348888 2.367755 -0.000568 -0.000960 -55277.800000 1 0 0
8.257071 4.132949 -9.624478 13.337581 0.464075 2.376916 0.003844 0.001064 -930179.000000 1 0 0
4.098571 7.642549 -8.999578 12.497969 1.078545 2.374719 0.004345 -0.001533 -1093530.000000 1 0 0
-1.855329 -5.025651 -2.461978 5.895825 1.217145 2.001577 0.007437 0.001095 534150.000000 1 0 0
-3.308929 -9.403651 6.846622 12.093548 1.232450 0.968983 -0.000316 -0.001467 83827.900000 1 0 0
1.106671 7.177049 -1.299778 7.377274 1.417805 1.747908 -0.001587 0.000493 1125610.000000 1 0 0
0.296671 -0.983251 -2.155078 2.387291 -1.277758 2.696869 0.004991 0.002655 -1593610.000000 1 0 0
4.012971 -6.807551 7.503022 10.896882 -1.038142 0.811312 -0.000896 -0.002529 -513219.000000 1 0 0
-13.902629 3.915449 5.949622 15.620878 -0.274523 1.180052 -0.003899 -0.006291 -1120680.000000 1 0 0
4.123971 6.138449 12.779422 14.764868 0.979230 0.524591 0.000507 0.006717 -2144470.000000 1 0 0
8.212971 10.156749 -7.142878 14.887348 0.890820 2.071218 0.003283 -0.000890 -28759.500000 1 0 0
12.502571 5.273949 9.510022 16.570134 0.399182 0.959505 0.008222 0.003333 388288.000000 1 0 0
7.542871 4.108149 0.372522 8.597125 0.498719 1.527452 0.000148 0.003123 -1503360.000000 1 0 0
-10.810929 -7.404451 -0.928778 13.136389 0.600523 1.641558 0.000819 0.002290 -1387110.000000 1 0 0
10.515371 6.815249 0.320422 12.534884 0.575054 1.545231 0.003035 0.003745 -429511.000000 1 0 0
14.645471 3.546949 4.250422 15.656844 0.237612 1.295872 0.009795 0.002676 213560.000000 1 0 0
2.267171 5.586849 8.280422 10.242965 1.185296 0.629366 -0.007910 0.003746 220710.000000 1 0 0
4.277471 0.099749 11.766022 12.519824 0.023315 0.348777 -0.004279 -0.003085 -1373840.000000 1 0 0
-1.596629 -1.513451 -0.403178 2.236585 0.758660 1.752052 0.005098 -0.000809 -964418.000000 1 0 0
3.023271 -5.128651 -9.502478 11.213399 -1.038143 2.581906 -0.007393 0.002304 807966.000000 1 0 0
-4.028229 -5.334351 -1.295378 6.808813 0.924008 1.762213 0.004693 -0.000321 -1050520.000000 1 0 0
-1.593629 -8.853951 8.705422 12.518645 1.392712 0.801825 -0.003102 -0.002651 37984.900000 1 0 0
3.916971 8.565149 -5.966778 11.149299 1.141876 2.135506 0.004979 0.002534 243078.000000 1 0 0
-14.200329 -1.686251 -2.710978 14.554800 0.118194 1.758151 -0.003695 -0.002758 -563573.000000 1 0 0
8.754071 -10.499551 -6.500878 15.137230 -0.875808 2.014694 -0.003432 -0.000219 332738.000000 1 0 0
14.844371 6.011049 1.735822 16.109039 0.384756 1.462832 0.003584 0.005361 -683492.000000 1 0 0
-5.879029 0.354449 -8.577078 10.404561 -0.060217 2.539863 0.007957 -0.008327 -501852.000000 1 0 0
-8.049629 -4.537951 -12.984678 15.937107 0.513336 2.523086 0.006991 -0.001751 746770.000000 1 0 0
0.893871 -10.699851 12.104122 16.180099 -1.487449 0.725622 -0.005579 -0.000628 -568928.000000 1 0 0
0.358271 11.824149 3.457722 12.324557 1.540506 1.286424 -0.000159 0.000241 -1624270.000000 1 0 0
5.098671 -13.215851 -3.715678 14.644502 -1.202591 1.827326 0.002475 -0.000436 1061570.000000 1 0 0
-7.358629 1.565049 -6.925278 10.225374 -0.209560 2.314834 0.005498 -0.002636 571144.000000 1 0 0
1.484971 2.820749 4.127722 5.215348 1.086217 0.657608 -0.003293 0.000321 -1319650.000000 1 0 0
17.303971 5.336149 2.246022 18.246822 0.299124 1.447392 0.010284 0.000250 162207.000000 1 0 0
2.575871 -8.062151 -3.509878 9.162567 -1.261545 1.963911 -0.002438 0.003343 255822.000000 1 0 0
-0.264429 -9.443851 -0.671378 9.471378 1.542804 1.641741 0.011079 0.003209 -1957810.000000 1 0 0
0.755171 11.913149 -5.573078 13.173936 1.507491 2.007592 0.002118 -0.000556 -1688920.000000 1 0 0
5.850071 -5.125651 7.884922 11.075542 -0.719492 0.778565 -0.004584 -0.003074 -2165940.000000 1 0 0
-6.019829 -2.047751 -9.412878 11.359309 0.327889 2.547486 0.011588 -0.005267 -68497.100000 1 0 0
2.121371 -1.297051 11.120922 11.395502 -0.548775 0.219967 -0.008210 -0.000646 -106155.000000 1 0 0
17.913771 2.095249 -5.799778 18.945466 0.116434 1.881922 0.002144 0.003627 -640267.000000 1 0 0
-8.875129 4.815249 7.788522 12.752083 -0.497110 0.913770 0.001627 -0.006934 -1476370.000000 1 0 0
11.375871 -7.101751 -4.906578 14.280049 -0.558083 1.921540 0.012882 -0.004603 -99013.200000 1 0 0
10.812571 0.561749 9.039022 14.104296 0.051907 0.875165 -0.001792 0.000475 -49442.500000 1 0 0
-8.464629 -7.305251 -1.630978 11.299413 0.712012 1.715644 0.005240 0.000291 -1413740.000000 1 0 0
10.233571 -10.376351 -3.298578 14.942398 -0.792326 1.793383 0.007958 -0.000584 -94554.200000 1 0 0
7.683371 -13.949251 -3.817078 16.376382 -1.067332 1.806044 0.006597 -0.001354 -53992.900000 1 0 0
1.736771 -1.062951 -11.698578 11.874467 -0.549216 2.969261 -0.004525 -0.004366 4432.560000 1 0 0
-11.778129 -2.546351 -6.377878 13.633985 0.212916 2.057588 0.003926 -0.002419 40178.400000 1 0 0
2.637771 -12.056451 -6.491578 13.944764 -1.355405 2.055019 0.000106 0.001700 -199021.000000 1 0 0
-5.462129 1.474949 1.173822 5.778251 -0.263742 1.366228 -0.001655 -0.003375 231846.000000 1 0 0
0.162671 6.797949 -3.937478 7.857627 1.546871 2.095669 0.000072 0.000493 992212.000000 1 0 0
5.513471 -11.936751 3.692522 13.657200 -1.138098 1.297017 -0.002968 -0.002010 -2925090.000000 1 0 0
-4.494129 -9.357551 1.093022 10.438183 1.123059 1.465890 0.007050 0.000570 -914990.000000 1 0 0
7.052371 -6.120651 -4.716678 10.461613 -0.714786 2.038520 0.003032 -0.002133 -405225.000000 1 0 0
-7.133029 -5.910551 2.251822 9.533385 0.691949 1.332339 0.000141 -0.000474 -29052.500000 1 0 0
-6.324329 -0.853551 7.046622 9.506870 0.134152 0.735920 -0.001808 -0.002705 -2018790.000000 1 0 0
4.141371 -5.022551 3.217022 7.261281 -0.881261 1.111812 -0.003094 -0.001367 -659951.000000 1 0 0
-2.475229 10.643949 -8.812878 14.038776 -1.342309 2.249459 -0.004088 0.001568 -986636.000000 1 0 0
-2.351229 -4.933151 2.824022 6.151370 1.126029 1.093828 0.002307 0.000505 -183706.000000 1 0 0
15.183071 5.131049 6.392122 17.254348 0.325896 1.191287 0.012771 -0.000907 316380.000000 1 0 0
6.726471 0.175149 0.177622 6.731095 0.026033 1.544405 0.001529 0.000443 4513140.000000 1 0 0
-9.723729 9.174649 0.407922 13.375032 -0.756352 1.540293 0.005861 -0.008608 -1995210.000000 1 0 0
7.170171 10.392249 -2.540878 12.878907 0.966845 1.769389 -0.002036 0.002321 -636837.000000 1 0 0
1.636071 -4.174051 -5.482378 7.082083 -1.197238 2.456119 -0.002109 0.000502 -535074.000000 1 0 0
0.948971 -8.094051 -7.883378 11.338512 -1.454086 2.339598 -0.003903 0.003993 -579021.000000 1 0 0
-10.406029 0.337749 -10.512678 14.795807 -0.032446 2.361029 0.006902 -0.002041 -2998350.000000 1 0 0
5.801671 -2.524051 0.553122 6.351076 -0.410357 1.483595 0.004423 -0.000659 303526.000000 1 0 0
-3.324229 5.370149 -1.072278 6.406152 -1.016509 1.738970 -0.000326 -0.002869 540905.000000 1 0 0
-0.339429 4.626649 -5.148878 6.930515 -1.497564 2.408231 0.000085 -0.000401 -1075710.000000 1 0 0
3.911971 -9.788451 10.043522 14.559864 -1.190590 0.809571 -0.005444 0.000105 -1654440.000000 1 0 0
7.251771 -13.567651 -0.792778 15.404474 -1.079939 1.622283 0.004355 0.000799 327254.000000 1 0 0
13.037171 -0.284051 0.612022 13.054619 -0.021784 1.523897 0.005908 -0.000503 550688.000000 1 0 0
9.232471 2.433549 -0.608878 9.567205 0.257724 1.634482 0.000843 0.002835 -407296.000000 1 0 0
-0.711329 -5.769651 4.547822 7.380891 1.448127 0.906936 0.000597 0.001689 -562936.000000 1 0 0
11.446171 -3.812951 3.343622 12.519314 -0.321559 1.300438 0.009805 -0.003752 -2438200.000000 1 0 0
1.628371 -8.292751 11.704122 14.436336 -1.376902 0.625380 -0.007461 -0.002334 327860.000000 1 0 0
9.409471 -5.796451 -5.899778 12.527744 -0.552118 2.061149 0.003333 -0.006062 -1377570.000000 1 0 0
3.201971 6.295749 -0.206578 7.066240 1.100298 1.600035 -0.001934 0.002400 -2014890.000000 1 0 0
6.373571 -1.485551 11.359222 13.109584 -0.228992 0.522684 -0.003314 -0.004286 429426.000000 1 0 0
-4.941629 -7.511651 -3.849778 9.780869 0.988914 1.975344 0.009323 0.000915 -719618.000000 1 0 0
-3.436729 -8.365151 -5.820678 10.754866 1.180981 2.142676 0.009756 0.004146 7730.590000 1 0 0
9.794471 5.210549 2.292722 11.328639 0.488910 1.367006 0.000694 0.001154 211250.000000 1 0 0
8.815271 -1.454251 0.404522 8.943572 -0.163497 1.525550 0.003731 -0.000076 1069630.000000 1 0 0
-3.860629 9.599349 9.233722 13.867717 -1.188415 0.842173 -0.004200 -0.001637 261546.000000 1 0 0
-14.277629 -3.380451 -6.132078 15.902218 0.232484 1.966667 -0.004556 -0.002724 -2022240.000000 1 0 0
10.638071 6.320549 -5.963278 13.736032 0.536103 2.019873 0.003366 0.001224 -1272820.000000 1 0 0
-1.779629 4.572049 2.755022 5.626798 -1.199599 1.059137 -0.001014 -0.002432 509046.000000 1 0 0
6.922171 -3.669651 2.710122 8.290208 -0.487460 1.237768 0.002294 -0.004971 -1213770.000000 1 0 0
8.269371 -11.296151 -1.596278 14.090196 -0.938881 1.684330 0.003524 -0.001139 -1272870.000000 1 0 0
4.494371 0.552449 1.878322 4.902312 0.122307 1.177592 0.001691 -0.000092 346476.000000 1 0 0
-10.769329 2.359549 3.733922 11.639935 -0.215691 1.244238 0.000592 -0.006119 268964.000000 1 0 0
-0.984829 -2.969251 4.365922 5.370998 1.250538 0.621734 0.000571 -0.001013 446775.000000 1 0 0
8.600171 -8.671751 -8.508478 14.884771 -0.789542 2.179279 0.002510 0.000388 -268252.000000 1 0 0
12.112671 -4.784851 0.995622 13.061503 -0.376213 1.494497 0.008434 -0.002538 279281.000000 1 0 0
3.015571 4.862749 3.500822 6.707887 1.015702 1.021724 -0.006564 0.000687 -837799.000000 1 0 0
6.147171 7.511749 2.059722 9.922527 0.884972 1.361695 -0.002336 0.002084 -393767.000000 1 0 0
-1.569329 -1.287351 -10.419178 10.615052 0.687009 2.949189 0.004918 -0.005591 551272.000000 1 0 0
-0.839829 -8.628951 6.140222 10.623862 1.473775 0.954563 0.002760 -0.001198 50663.500000 1 0 0
-4.162929 -0.303751 2.363422 4.796666 0.072837 1.055581 -0.002398 -0.001799 434715.000000 1 0 0
-8.333629 6.037249 -8.052478 13.066757 -0.626944 2.234777 -0.003180 0.000829 -645252.000000 1 0 0
6.559371 11.328549 -9.404478 16.118485 1.045952 2.193778 0.008354 -0.000659 328376.000000 1 0 0
-11.134129 -5.784151 3.185822 12.945065 0.479124 1.322139 -0.001208 0.001033 1382860.000000 1 0 0
1.568871 -6.303751 3.053122 7.177756 -1.326873 1.131438 -0.001102 -0.000150 288945.000000 1 0 0
10.137071 2.239649 7.400422 12.749215 0.217443 0.951502 -0.004106 0.004621 -1575300.000000 1 0 0
-4.025429 -2.495451 -10.675478 11.678921 0.554939 2.724032 0.010101 -0.007417 -3506040.000000 1 0 0
-8.186429 11.810449 5.948422 15.552751 -0.964682 1.178331 -0.001725 -0.003072 -198543.000000 1 0 0
6.989171 5.914049 -2.983378 9.629384 0.702268 1.885800 -0.000377 0.003456 -3662370.000000 1 0 0
3.881771 -9.857851 -2.264678 10.833935 -1.195668 1.781385 -0.002049 0.000317 -2642360.000000 1 0 0
8.542871 -12.888151 -7.367478 17.127896 -0.985443 2.015450 0.007600 -0.003889 831674.000000 1 0 0
-1.042529 9.494849 3.555422 10.192156 -1.461435 1.214464 0.000149 0.002350 -369022.000000 1 0 0
0.507071 -13.211651 4.707922 14.034578 -1.532435 1.228712 0.010056 -0.003088 -502274.000000 1 0 0
-11.273429 -7.014951 -5.090378 14.220116 0.556623 1.936889 0.005902 -0.001357 -83955.600000 1 0 0
3.634971 10.255149 -3.403778 11.400298 1.230160 1.873989 0.004164 0.000284 -1125810.000000 1 0 0
11.635671 -8.110851 -7.415378 16.005080 -0.608755 2.052528 0.018067 -0.002209 292276.000000 1 0 0
11.721971 -4.687451 -5.941678 13.952790 -0.380408 2.010688 0.012297 -0.005636 -128758.000000 1 0 0
1.288471 -10.299951 -2.675778 10.719559 -1.446348 1.823080 -0.000010 0.004503 -734104.000000 1 0 0
2.348471 -11.963951 -3.974078 12.823601 -1.376965 1.885888 0.002516 0.003593 -1143930.000000 1 0 0
-7.672829 -5.606551 7.236022 11.944276 0.631036 0.920006 -0.001662 0.002834 -2979190.000000 1 0 0
-7.194029 -0.850851 9.485422 11.935294 0.117725 0.652222 -0.000654 -0.002225 -90485.100000 1 0 0
16.198771 2.709149 -7.495578 18.053347 0.165710 1.998948 0.013303 0.004033 176236.000000 1 0 0
-1.979629 6.345849 -5.531578 8.647953 -1.268407 2.264826 -0.001643 0.001697 -1006360.000000 1 0 0
7.670271 1.005949 8.468122 11.469703 0.130405 0.740245 -0.003683 -0.001709 -323089.000000 1 0 0
7.975571 8.321049 -3.727878 12.113904 0.806594 1.883608 -0.001333 0.003942 -37526.800000 1 0 0
8.105471 0.517149 4.079022 9.088703 0.063716 1.105373 0.000770 0.000487 -97762.800000 1 0 0
-6.937829 5.862549 5.171422 10.452108 -0.701591 1.053223 0.003286 -0.005337 -17711.500000 1 0 0
-5.995029 -2.070951 -4.560178 7.811814 0.332611 2.194141 0.005629 -0.002517 319859.000000 1 0 0
-15.114729 -2.036951 3.203322 15.584142 0.133959 1.363771 0.007158 -0.005026 -241190.000000 1 0 0
1.094871 1.314649 -10.555778 10.693526 0.876359 2.980912 0.000447 -0.005765 453070.000000 1 0 0
1.301371 -9.391451 9.245022 13.242483 -1.433103 0.798009 -0.000885 -0.004561 215897.000000 1 0 0
-0.143129 -6.732151 -1.167178 6.834080 1.549539 1.742426 0.005254 0.003586 378902.000000 1 0 0
-0.443829 -10.107751 -8.618178 13.290471 1.526915 2.276340 0.002227 0.002281 611076.000000 1 0 0
-4.303629 6.545549 3.796922 8.705289 -0.989174 1.119466 0.001370 -0.000702 -198071.000000 1 0 0
10.750271 -1.177251 -8.568178 13.797388 -0.109074 2.240814 0.011769 -0.000419 711794.000000 1 0 0
3.045571 -1.100151 6.384422 7.158679 -0.346644 0.469392 -0.002064 -0.000065 729294.000000 1 0 0
1.748371 -12.388151 6.924222 14.299229 -1.430590 1.065305 0.007828 -0.001854 -1088370.000000 1 0 0
2.813171 -5.075251 -1.351578 5.958093 -1.064664 1.799636 0.008861 0.002468 -243334.000000 1 0 0
-0.936529 9.515249 -1.646178 9.701905 -1.472688 1.741297 -0.000178 -0.002723 451056.000000 1 0 0
4.495071 -2.499451 2.648322 5.785026 -0.507471 1.095289 0.003876 -0.002147 -551239.000000 1 0 0
17.853671 6.822149 -2.611378 19.290271 0.364994 1.706586 0.014178 0.012194 756261.000000 1 0 0
-7.047129 3.507949 -5.400278 9.546242 -0.461873 2.172074 0.002291 -0.002750 1417580.000000 1 0 0
-13.846929 -5.954551 2.219922 15.235556 0.406121 1.424569 -0.004702 0.003774 1350540.000000 1 0 0
6.651471 -6.046651 3.265722 9.563942 -0.737803 1.222324 -0.000463 -0.004705 157121.000000 1 0 0
-4.522629 1.944649 3.591622 6.093897 -0.406083 0.940505 0.001033 -0.002988 374058.000000 1 0 0
6.912171 -12.126451 -5.485278 14.997240 -1.052722 1.945238 0.003358 -0.000355 -441444.000000 1 0 0
2.989271 -12.380951 3.216522 13.136579 -1.333889 1.323429 0.008251 -0.003570 123118.000000 1 0 0
3.308171 11.329149 -6.099378 13.285181 1.286690 2.047791 0.003006 0.001537 -309695.000000 1 0 0
-5.672429 -8.376851 6.443022 11.994191 0.975567 1.003708 0.001144 0.001359 44231.900000 1 0 0
-3.906629 6.516249 6.340422 9.895666 -1.030729 0.875351 0.002963 -0.000222 462587.000000 1 0 0
4.231271 4.291749 -7.086478 9.302738 0.792494 2.436826 0.000165 0.001627 -2668690.000000 1 0 0
-0.283529 -2.667651 1.628322 3.138182 1.464910 1.025263 0.000946 0.000526 533672.000000 1 0 0
-13.284029 -0.843551 6.612622 14.862832 0.063416 1.109723 -0.000136 -0.002497 -526837.000000 1 0 0
-0.492629 -9.196851 -5.975078 10.978447 1.517282 2.146297 0.001137 0.003024 150896.000000 1 0 0
2.079471 -1.545251 -3.868278 4.655703 -0.639069 2.551463 -0.000210 0.001732 -36494.200000 1 0 0
11.358571 -2.109551 1.186922 11.613618 -0.183631 1.468417 0.005954 -0.000102 1165040.000000 1 0 0
0.428071 -4.242151 -1.908578 4.671377 -1.470228 1.991682 0.004303 0.001541 -1154430.000000 1 0 0
1.141871 -7.526551 -11.318778 13.640659 -1.420232 2.549514 -0.003887 0.001176 837541.000000 1 0 0
-4.370829 4.128949 -10.020178 11.685732 -0.756949 2.601131 0.002064 -0.001143 -351806.000000 1 0 0
-0.999229 5.758249 -2.101178 6.210543 -1.398977 1.915932 -0.001122 0.000143 -1055290.000000 1 0 0
-11.280629 1.831349 -3.902178 12.076151 -0.160940 1.899832 0.005210 -0.005207 60132.500000 1 0 0
-1.898229 -11.317851 4.239322 12.233923 1.404623 1.216936 0.011173 -0.003632 -246264.000000 1 0 0
-3.551929 -5.316151 -9.729778 11.642433 0.981775 2.560233 0.004954 -0.000394 -1810020.000000 1 0 0
-12.727629 -3.711451 -8.334178 15.659691 0.283738 2.132000 0.005897 -0.001849 -169352.000000 1 0 0
11.375371 4.335049 0.555922 12.186089 0.364100 1.525161 0.002271 0.005196 322871.000000 1 0 0
-8.892929 -2.269451 -3.012478 9.659690 0.249864 1.887947 0.000746 -0.002464 -437802.000000 1 0 0
-2.375029 -6.083651 -6.394878 9.140352 1.198597 2.345678 0.003654 0.000147 151911.000000 1 0 0
-0.011729 2.744649 -1.881278 3.327528 -1.566523 2.171676 -0.000159 -0.000381 7357.060000 1 0 0
8.088271 6.134049 -5.186378 11.399351 0.648848 2.043136 0.001958 0.003202 -1039800.000000 1 0 0
-9.746929 -0.921851 -0.882978 9.830162 0.094298 1.660741 -0.000838 -0.001989 -65107.500000 1 0 0
6.084571 0.592049 -8.899878 10.797238 0.096998 2.539714 0.000407 0.000648 385954.000000 1 0 0
-4.071629 2.513849 7.819822 9.167727 -0.553120 0.549142 -0.001748 -0.000678 -897463.000000 1 0 0
-10.103229 -3.262051 1.398522 10.708505 0.312306 1.439823 -0.002520 -0.001198 2353960.000000 1 0 0
-1.765329 -8.053151 -7.875278 11.401300 1.355000 2.333301 0.002893 -0.001733 -866850.000000 1 0 0
-9.497429 -9.795751 4.262722 14.294359 0.800859 1.267979 -0.000917 0.001275 -752841.000000 1 0 0
-1.118929 -10.775751 7.318122 13.073780 1.467329 0.976705 0.001553 -0.002636 -280945.000000 1 0 0
9.509771 3.822849 -3.829478 10.941427 0.382222 1.928365 -0.000187 0.003567 -300126.000000 1 0 0
12.819771 -0.906151 3.205822 13.245563 -0.070567 1.326339 0.008465 0.002617 -254208.000000 1 0 0
6.417971 11.920149 -6.831378 15.164037 1.076892 2.038120 0.006215 0.000416 15245.100000 1 0 0
-11.788129 0.024449 -6.549678 13.485506 -0.002074 2.077940 0.002769 -0.003590 543230.000000 1 0 0
-7.541729 -6.695051 -11.444778 15.253994 0.725997 2.419283 0.010991 -0.001836 -1791860.000000 1 0 0
4.140771 6.106549 6.596222 9.896771 0.974929 0.841289 -0.005617 0.003746 -3060890.000000 1 0 0
-4.328229 -1.391751 -7.357478 8.648874 0.311110 2.588086 0.004758 -0.006475 -780686.000000 1 0 0
9.512371 9.248849 0.806922 13.292010 0.771353 1.510052 0.002592 0.002350 -2003510.000000 1 0 0
-8.897529 3.906449 4.801122 10.838687 -0.413710 1.111897 0.002677 -0.006120 -206519.000000 1 0 0
-6.904829 7.790349 -12.169778 16.014671 -0.845585 2.433978 -0.006312 0.001648 -1136090.000000 1 0 0
11.098071 -3.802251 7.189222 13.758968 -0.330071 1.021002 0.009669 -0.002687 205217.000000 1 0 0
11.912571 6.926149 6.473522 15.224565 0.526642 1.131611 0.007820 0.003767 -97832.000000 1 0 0
-9.961429 -0.814551 -14.773878 17.837069 0.081589 2.546806 0.013772 0.002625 333348.000000 1 0 0
1.673171 -13.059451 12.128722 17.901247 -1.443371 0.826390 0.003332 0.002003 141603.000000 1 0 0
2.840571 2.952649 13.072622 13.699651 0.804742 0.303721 -0.006736 0.000107 -1664990.000000 1 0 0
-2.606429 -1.334251 11.072022 11.452658 0.473128 0.258539 -0.001395 -0.000850 -1328350.000000 1 0 0
2.551471 -10.002151 -8.285878 13.236646 -1.321031 2.247184 -0.004237 0.005098 -1062700.000000 1 0 0
13.908371 3.712049 -7.422178 16.196012 0.260814 2.046846 0.011125 0.004164 -2495390.000000 1 0 0
7.300571 -1.602351 5.054022 9.022694 -0.216057 0.976235 -0.002843 -0.001614 425076.000000 1 0 0
-1.171029 8.710649 10.188022 13.455204 -1.437161 0.711810 -0.003849 0.000836 46522.600000 1 0 0
-12.112229 -4.728951 0.923722 13.035426 0.372227 1.499874 -0.004412 0.000557 -45735.300000 1 0 0
-4.765229 4.897549 -5.205578 8.590194 -0.799091 2.221807 -0.001162 -0.001171 -333395.000000 1 0 0
-11.170729 0.358149 1.948422 11.345035 -0.032050 1.398198 -0.003142 -0.002152 -1418720.000000 1 0 0
-1.429529 2.375949 -4.095278 4.945704 -1.029152 2.546413 0.001067 -0.002231 664965.000000 1 0 0
3.170771 -9.868551 13.087722 16.695226 -1.259914 0.669842 -0.003241 0.003202 -4385760.000000 1 0 0
8.953171 4.691149 -1.478078 10.215227 0.482635 1.716000 -0.000512 0.002398 -1889420.000000 1 0 0
4.048771 2.317549 3.885722 6.071443 0.519884 0.876298 -0.004942 0.002867 136125.000000 1 0 0
-5.446329 -3.211351 7.447522 9.769384 0.532764 0.703886 0.000251 -0.000786 -290261.000000 1 0 0
1.680371 -5.736951 7.651822 9.710131 -1.285863 0.663203 -0.006494 -0.000298 -1853380.000000 1 0 0
-5.828129 -6.261151 -9.751978 12.971899 0.821202 2.421549 0.008332 -0.001743 -282443.000000 1 0 0
-11.688229 -5.695751 5.533522 14.130681 0.453441 1.168431 0.003396 0.000713 -2454130.000000 1 0 0
10.574071 6.208349 4.529022 13.071596 0.530902 1.216982 0.000684 0.003290 -489253.000000 1 0 0
1.431071 -3.701951 0.380122 3.987091 -1.201919 1.475313 0.010103 0.000622 -425898.000000 1 0 0
8.805971 4.316849 6.931122 12.009195 0.455792 0.955560 -0.004607 0.004886 -122413.000000 1 0 0
-7.896729 12.006049 3.529822 14.797405 -0.989007 1.329931 0.005777 -0.006981 6941.130000 1 0 0
-6.130929 13.078549 -6.990478 16.046916 -1.132437 2.021532 -0.002805 -0.006572 551574.000000 1 0 0
4.475471 -6.988951 -0.911678 8.349038 -1.001225 1.680210 0.002829 0.000324 -1911990.000000 1 0 0
-1.972529 -8.186151 11.164922 13.984256 1.334345 0.646176 -0.007731 -0.001613 -695540.000000 1 0 0
11.584871 8.853449 -5.770378 15.680882 0.652543 1.947641 0.009828 0.003231 443183.000000 1 0 0
-3.425029 -2.944151 -1.812478 4.866613 0.710040 1.952423 0.005406 -0.000820 -1754940.000000 1 0 0
-1.968129 5.899349 4.698822 7.794535 -1.248790 0.923746 -0.002051 -0.001159 551731.000000 1 0 0
0.426471 -11.356551 -5.724278 12.724798 -1.533261 2.037396 -0.000685 0.001536 553256.000000 1 0 0
-8.899129 6.321949 -1.609378 11.034112 -0.617672 1.717173 0.003944 -0.005240 -619278.000000 1 0 0
2.921271 -0.009351 4.023222 4.971944 -0.003201 0.628033 -0.003916 0.000185 -709177.000000 1 0 0
-10.098229 4.044949 -1.014278 10.925411 -0.380989 1.663767 0.004820 -0.006720 94799.800000 1 0 0
6.484071 5.448049 13.732822 16.134275 0.698789 0.552608 0.006014 0.003437 -213210.000000 1 0 0
-8.790029 -1.569751 5.680822 10.583027 0.176720 1.004173 -0.000759 -0.003768 -199008.000000 1 0 0
12.977571 -1.889551 -1.405878 13.189550 -0.144585 1.677589 0.010876 -0.002955 -1902400.000000 1 0 0
5.230671 -5.613451 5.444822 9.408339 -0.820682 0.953634 -0.001840 -0.004203 86713.800000 1 0 0
-8.957429 -1.197651 3.140022 9.567113 0.132916 1.236388 -0.003170 -0.002110 765194.000000 1 0 0
2.029871 5.496649 5.640722 8.133343 1.217039 0.804418 -0.003191 0.000854 -1337080.000000 1 0 0
9.198671 2.995649 -7.453278 12.212322 0.314830 2.227246 0.002414 0.002064 -1283480.000000 1 0 0
2.374571 -2.455151 -1.621678 3.781031 -0.802081 2.014069 0.002822 0.003288 -452395.000000 1 0 0
-6.199629 0.347249 -3.902478 7.333847 -0.055953 2.131897 -0.000101 -0.000157 -1895120.000000 1 0 0
-4.040329 4.177749 4.981722 7.654763 -0.802118 0.862158 0.001249 -0.002401 432567.000000 1 0 0
-6.418029 1.765149 -12.403778 14.076951 -0.268394 2.649066 0.004532 0.000600 -2174460.000000 1 0 0
-0.143929 3.057549 6.231622 6.942797 -1.523758 0.456578 -0.001760 -0.000990 915081.000000 1 0 0
-8.682729 9.486249 -2.066378 13.024923 -0.829594 1.730117 0.002837 -0.001167 938525.000000 1 0 0
-1.299329 -3.648551 -6.240178 7.344386 1.228678 2.586123 -0.000967 0.000890 213686.000000 1 0 0
-3.277829 7.082649 -2.965878 8.348923 -1.137351 1.933968 -0.001944 0.001137 1063610.000000 1 0 0
7.073171 -0.561951 -4.398178 8.348024 -0.079282 2.125690 0.002896 0.002006 -82518.000000 1 0 0
-5.272429 -10.829951 6.890722 13.876902 1.117734 1.051165 0.003565 -0.002765 2954.340000 1 0 0
9.798171 8.339649 -1.434978 12.946546 0.705158 1.681863 0.000232 0.002591 -379556.000000 1 0 0
13.700171 4.576549 -4.229478 15.050846 0.322396 1.855645 0.007215 0.002088 703905.000000 1 0 0
4.610871 1.209749 -6.932378 8.413173 0.256586 2.539215 -0.001624 -0.000056 -1115680.000000 1 0 0
8.961271 -4.797551 3.627322 10.792513 -0.491538 1.228027 0.002567 -0.006067 -723280.000000 1 0 0
-8.712029 -3.206751 -0.764078 9.314855 0.352693 1.652916 -0.004496 0.000733 -63434.500000 1 0 0
-8.537229 -4.261951 -10.475978 14.170202 0.463023 2.402821 0.006993 -0.002037 34646.700000 1 0 0
10.352671 -1.146351 10.744122 14.964226 -0.110281 0.769890 -0.003189 -0.003305 785563.000000 1 0 0
2.188471 -11.688551 9.892822 15.468664 -1.385707 0.876897 -0.001656 -0.003487 98827.700000 1 0 0
-6.435429 -10.659151 2.134522 12.632832 1.027626 1.401016 0.008106 0.001013 -1339010.000000 1 0 0
-3.697829 -1.210451 6.720722 7.765773 0.316348 0.524791 0.003289 -0.001658 -1864490.000000 1 0 0
4.818071 -7.599951 3.885022 9.801350 -1.005779 1.163230 -0.002967 -0.000791 136235.000000 1 0 0
11.612671 -9.470851 -5.320478 15.901529 -0.684158 1.911965 0.012779 -0.002007 14293.900000 1 0 0
11.318371 1.182749 11.558822 16.220690 0.104120 0.777603 -0.001030 0.001136 140190.000000 1 0 0
-10.219529 -3.381851 4.373022 11.618908 0.319577 1.184920 0.003612 -0.001997 1330520.000000 1 0 0
2.053971 8.701149 8.997422 12.683942 1.338983 0.782213 -0.005956 0.007345 -47049.400000 1 0 0
6.647571 8.927349 4.171222 11.886415 0.930741 1.212239 -0.001489 0.004407 1150800.000000 1 0 0
-4.273829 3.603349 0.362622 5.601896 -0.700486 1.506019 0.002438 -0.005454 -1110830.000000 1 0 0
4.951771 7.046349 4.294422 9.623572 0.958232 1.108237 -0.002539 0.003551 -1067170.000000 1 0 0
-8.343929 12.881149 1.076622 15.385196 -0.995995 1.500761 0.010490 -0.007769 -293393.000000 1 0 0
8.806571 8.141149 -9.177178 15.101476 0.746155 2.223958 0.000916 -0.001964 31140.100000 1 0 0
7.201071 1.840849 6.108922 9.620971 0.250276 0.882841 -0.005531 0.003111 -907631.000000 1 0 0
11.560871 -6.278851 3.029522 13.500211 -0.497540 1.344463 0.008524 -0.002925 216501.000000 1 0 0
11.453571 4.775449 -2.011678 12.571239 0.395024 1.731510 0.003009 0.005844 732018.000000 1 0 0
-3.969629 14.418549 -5.892978 16.074194 -1.302138 1.946160 -0.003970 -0.000217 -295833.000000 1 0 0
7.039771 -3.089251 6.820622 10.277292 -0.413525 0.845096 -0.000320 -0.004930 -1048370.000000 1 0 0
-7.821429 -0.308451 0.860922 7.874712 0.039416 1.461250 0.002463 -0.001357 205094.000000 1 0 0
-3.199429 1.148149 10.814022 11.335681 -0.344547 0.304554 -0.001532 0.000761 21098.800000 1 0 0
7.154871 -1.288651 -1.834978 7.497996 -0.178198 1.818037 0.005769 0.000882 -2155800.000000 1 0 0
-7.812929 5.319549 2.924122 9.893935 -0.597768 1.270768 0.004489 -0.005144 829278.000000 1 0 0
9.455571 -2.166451 2.989422 10.150762 -0.225232 1.271862 0.002095 -0.003683 -2014970.000000 1 0 0
0.237271 3.428249 1.708422 3.837694 1.501696 1.109433 -0.002097 -0.000060 -4044370.000000 1 0 0
-7.536529 -3.054951 4.132322 9.121846 0.385112 1.100653 -0.002157 -0.001491 -141303.000000 1 0 0
-2.238729 8.457849 -6.792678 11.076443 -1.312038 2.230971 -0.004980 0.000763 -333728.000000 1 0 0
4.516071 9.757449 7.486222 13.101383 1.137322 0.962577 -0.005538 0.009732 1087530.000000 1 0 0
-11.902029 -3.080851 6.975622 14.135390 0.253291 1.054703 0.001373 -0.001110 -1537620.000000 1 0 0
-4.649929 2.375149 -5.690778 7.723220 -0.472244 2.399181 0.003339 -0.003785 -886361.000000 1 0 0
-2.698629 2.982649 -1.869878 4.435678 -0.835349 2.005955 0.000539 -0.001146 1422810.000000 1 0 0
2.388171 5.149549 11.475322 12.802509 1.136556 0.459366 -0.003752 -0.000991 469113.000000 1 0 0
-0.656629 1.694849 4.549822 4.899444 -1.201176 0.380065 0.000504 -0.002103 -501606.000000 1 0 0
5.174871 1.657249 7.531422 9.286984 0.309929 0.624996 -0.003980 -0.000408 80018.900000 1 0 0
3.336871 -8.250051 1.971322 9.115051 -1.186445 1.352803 -0.000425 0.001350 1384160.000000 1 0 0
5.140871 6.438349 -4.682578 9.476678 0.896985 2.087614 0.001683 0.001503 -1678040.000000 1 0 0
-3.992829 2.813849 -8.025278 9.394973 -0.613890 2.594825 0.005631 -0.005844 -301029.000000 1 0 0
-8.665229 -2.123951 -12.969078 15.741485 0.240373 2.539018 0.007884 -0.000246 -346993.000000 1 0 0
-7.822329 8.163849 1.180722 11.367998 -0.806758 1.466745 0.003516 -0.006791 -872144.000000 1 0 0
7.241871 0.993749 -6.551178 9.815812 0.136371 2.301523 -0.000302 0.001704 151134.000000 1 0 0
9.005671 8.868649 5.517622 13.791272 0.777732 1.159191 0.002084 0.004563 169532.000000 1 0 0
9.435371 -1.110651 -1.293078 9.588108 -0.117172 1.706071 0.004014 0.000222 783028.000000 1 0 0
5.435771 0.036749 4.292322 6.926253 0.006760 0.902413 -0.002975 0.000654 53744.900000 1 0 0
-4.067929 -7.284151 -8.084678 11.617613 1.061479 2.340466 0.016750 -0.003997 -844446.000000 1 0 0
-2.049929 7.452349 -0.582178 7.751042 -1.302364 1.645977 0.000775 -0.001984 164678.000000 1 0 0
13.413271 -3.293551 -7.444278 15.690143 -0.240781 2.065142 0.009320 -0.002434 1061610.000000 1 0 0
-4.814529 -5.132751 1.735022 7.248112 0.817378 1.329073 0.003219 -0.002291 653247.000000 1 0 0
-8.857629 1.352549 2.482922 9.297951 -0.151528 1.300476 0.000909 -0.003771 -810109.000000 1 0 0
-0.938329 11.211249 10.202722 15.187762 -1.487296 0.834197 -0.006321 0.002412 355655.000000 1 0 0
-8.543229 0.375949 7.485822 11.365106 -0.043977 0.851750 -0.000851 -0.004013 311789.000000 1 0 0
-6.012629 13.130349 -2.113878 14.595419 -1.141377 1.716139 -0.002135 0.000496 262147.000000 1 0 0
-12.889329 -0.745751 3.204922 13.302724 0.057794 1.327480 0.004359 -0.004436 434984.000000 1 0 0
-6.656729 12.752549 8.702122 16.812688 -1.089710 1.026761 0.001244 -0.007226 -1725170.000000 1 0 0
-8.063929 0.774649 -14.094778 16.256992 -0.095770 2.619942 0.002020 0.003128 -16110.600000 1 0 0
7.334671 2.928849 3.843622 8.783449 0.379916 1.117870 -0.002597 0.004240 -209140.000000 1 0 0
-1.612129 0.652949 -2.076378 2.708625 -0.384829 2.444295 0.000846 -0.001662 476619.000000 1 0 0
-6.272729 9.649849 -10.390578 15.505832 -0.994397 2.305150 -0.007776 0.002927 -343411.000000 1 0 0
-10.061729 13.708549 5.387722 17.837888 -0.937630 1.263966 0.000238 -0.008209 1069700.000000 1 0 0
-5.709329 8.259649 2.520022 10.352234 -0.965980 1.324898 0.000569 -0.003724 -1322160.000000 1 0 0
-2.351329 -10.691851 -1.194378 11.012310 1.354324 1.679469 0.008225 0.003253 430821.000000 1 0 0
-2.265729 -12.301251 8.917322 15.361411 1.388651 0.951452 -0.003811 -0.001047 87763.300000 1 0 0
-14.694729 -6.358151 -1.736878 16.105213 0.408360 1.678852 0.003454 0.004654 821641.000000 1 0 0
-2.763629 -9.443551 3.304322 10.379636 1.286099 1.246811 0.007830 -0.001171 -1036330.000000 1 0 0
4.591471 -2.777551 7.573522 9.281952 -0.544042 0.616442 -0.005650 -0.001444 -1113620.000000 1 0 0
-15.043929 -1.186751 -0.323178 15.094126 0.078723 1.592209 0.002610 -0.004835 163989.000000 1 0 0
5.470371 8.691349 -2.834378 10.653554 1.009036 1.840089 0.000067 0.001874 -585398.000000 1 0 0
-5.658029 -5.697051 8.511222 11.700880 0.788835 0.756271 0.000249 0.002046 -3774790.000000 1 0 0
3.527071 3.645049 7.006522 8.649738 0.801846 0.626598 -0.006495 0.002198 -98743.400000 1 0 0
3.341171 2.256849 9.325722 10.160014 0.594070 0.408079 -0.001424 -0.002848 106450.000000 1 0 0
9.864271 -3.271451 5.228122 11.633550 -0.320232 1.104702 0.004518 -0.004528 -309567.000000 1 0 0
6.463871 10.006849 -5.002978 12.920853 0.997277 1.968391 0.003242 0.001383 421563.000000 1 0 0
-4.540629 12.078049 -8.656578 15.538112 -1.211201 2.161709 -0.007145 -0.001756 -626244.000000 1 0 0
-3.291929 -7.304251 2.058822 8.272099 1.147371 1.319265 0.007194 0.000333 1172490.000000 1 0 0
-7.392229 -3.949451 1.169222 8.462287 0.490687 1.432184 0.000318 -0.000143 1114490.000000 1 0 0
-2.000429 -3.943951 -10.980878 11.837911 1.101394 2.758740 0.006445 -0.003456 -513872.000000 1 0 0
-5.240629 8.371149 -4.387778 10.807077 -1.011453 1.988880 -0.002760 -0.002076 -305763.000000 1 0 0
-10.948629 -3.206551 -10.200978 15.304065 0.284905 2.300372 0.011546 0.000329 -307686.000000 1 0 0
4.721771 -11.282751 -7.712978 14.459793 -1.174449 2.133422 0.000871 -0.001248 -3315580.000000 1 0 0
-9.487129 -3.875751 7.238622 12.546901 0.387836 0.955837 0.000149 0.001600 -716580.000000 1 0 0
-5.655029 -9.698951 -5.163178 12.357484 1.042929 2.001839 0.008828 -0.001617 1811960.000000 1 0 0
4.975571 4.390749 -9.569678 11.645330 0.723040 2.535291 -0.001698 0.004004 376662.000000 1 0 0
-3.426029 -7.118751 -14.169478 16.223082 1.122246 2.632967 -0.005193 0.002593 -117700.000000 1 0 0
0.730671 -0.765651 -8.884978 8.947789 -0.808771 3.023035 -0.002241 -0.006142 -16131.300000 1 0 0
-7.741629 2.190849 -2.895478 8.550815 -0.275785 1.916246 0.002987 -0.003129 207507.000000 1 0 0
-2.392629 7.662249 -12.584078 14.926277 -1.268128 2.573785 0.002067 0.001141 -128378.000000 1 0 0
-9.710029 8.800749 7.644322 15.171470 -0.736316 1.042733 -0.007248 -0.009161 -446073.000000 1 0 0
-10.707429 -3.210551 -14.285378 18.139148 0.291313 2.477610 0.020244 0.001363 81597.900000 1 0 0
-3.104229 4.837149 7.900822 9.770222 -1.000244 0.628920 -0.000289 -0.001158 -300715.000000 1 0 0
8.780771 -2.354651 -3.543378 9.757143 -0.261996 1.942451 0.004095 0.000328 -5506580.000000 1 0 0
1.959871 -8.410251 -1.117478 8.707593 -1.341849 1.699485 0.001347 0.004150 -1498040.000000 1 0 0
-13.543029 -2.686151 5.067022 14.707269 0.195801 1.219064 0.002887 -0.005038 335258.000000 1 0 0
7.063271 2.787849 -1.925678 7.833909 0.375926 1.819155 0.000800 0.002085 1342550.000000 1 0 0
-11.113029 4.468149 8.854422 14.895119 -0.382284 0.934213 -0.007067 -0.005701 -1293310.000000 1 0 0
-1.920929 -2.501551 8.058822 8.654036 0.915940 0.373047 -0.002694 -0.002017 -1491680.000000 1 0 0
3.078771 12.022749 -9.864878 15.853742 1.320105 2.242401 0.003613 -0.005371 439304.000000 1 0 0
3.630271 -4.984651 -7.096878 9.401664 -0.941335 2.426227 -0.005885 -0.001027 203511.000000 1 0 0
8.195871 -13.789951 -9.801978 18.799304 -1.034552 2.119288 0.001617 0.004497 239682.000000 1 0 0
-6.312929 -5.854951 -0.333378 8.616535 0.747778 1.609496 0.005623 -0.000372 -851016.000000 1 0 0
-1.203729 -4.203551 9.785722 10.718170 1.291900 0.420210 -0.005021 -0.000537 1413330.000000 1 0 0
2.816171 3.246849 1.851122 4.679690 0.856313 1.164113 -0.004667 0.001702 -776126.000000 1 0 0
-9.100029 13.260149 7.792422 17.870756 -0.969345 1.119599 0.000313 -0.016710 -576298.000000 1 0 0
4.023571 -11.106451 0.048022 11.812903 -1.223230 1.566731 0.003791 0.001814 129985.000000 1 0 0
-12.445529 -1.366151 -9.054878 15.451485 0.109333 2.196935 0.006257 -0.004653 194237.000000 1 0 0
-4.220429 0.874349 -13.550178 14.219136 -0.204281 2.833632 0.006916 -0.003444 413676.000000 1 0 0
3.896971 -3.202551 4.995522 7.099152 -0.687896 0.790234 -0.002187 -0.000575 -402612.000000 1 0 0
1.786671 -1.197851 1.119122 2.424763 -0.590609 1.091067 0.002396 0.000883 518621.000000 1 0 0
7.998671 -8.989451 7.323522 14.086268 -0.843654 1.024057 0.000212 -0.004539 -1217300.000000 1 0 0
-0.105429 2.268749 -6.363978 6.757111 -1.524360 2.798799 -0.000880 -0.002686 -858769.000000 1 0 0
-3.655429 -9.643251 -3.414878 10.863510 1.208466 1.890562 0.008643 0.003031 694709.000000 1 0 0
-9.373329 2.297549 -5.443478 11.080139 -0.240376 2.084358 0.003969 -0.003026 -303877.000000 1 0 0
8.812871 -7.633051 5.274022 12.796307 -0.713781 1.145982 -0.001810 -0.004250 1080560.000000 1 0 0
-5.553129 -4.330651 4.598622 8.410654 0.662338 0.992305 -0.001526 -0.001061 -286468.000000 1 0 0
-0.165129 -12.480251 10.378122 16.232355 1.557566 0.877146 -0.000948 -0.001682 -1390630.000000 1 0 0
-14.137429 -8.195551 3.146122 16.641275 0.525364 1.380596 -0.008241 0.003050 -1407890.000000 1 0 0
10.922171 -1.257651 -3.604678 11.570186 -0.114642 1.887619 0.010252 -0.002458 172515.000000 1 0 0
-13.685529 3.014249 2.638222 14.259720 -0.216790 1.384712 -0.001173 -0.005607 -1655170.000000 1 0 0
-6.260229 6.196849 0.954522 8.860165 -0.780310 1.462855 0.004388 -0.005271 760906.000000 1 0 0
7.146471 -6.822251 -0.462578 9.890861 -0.762192 1.617582 0.003115 -0.002670 514044.000000 1 0 0
-6.798329 7.850349 10.039422 14.444212 -0.857092 0.802310 -0.001085 -0.005002 236797.000000 1 0 0
-12.602629 -5.017151 -1.971178 13.707064 0.378870 1.715104 -0.003700 0.000807 -1698580.000000 1 0 0
-9.319129 -5.520451 0.218322 10.833707 0.534797 1.550643 -0.001997 0.000770 -1458750.000000 1 0 0
-1.844529 1.926549 2.276422 3.506562 -0.807144 0.864278 0.000524 -0.000727 424725.000000 1 0 0
-7.096329 7.349449 7.530922 12.692008 -0.802918 0.935570 -0.001207 -0.004480 -220715.000000 1 0 0
5.684371 7.045849 -0.418478 9.062626 0.891942 1.616989 -0.000626 0.001017 -1115370.000000 1 0 0
-0.111229 -3.953651 7.412822 8.402003 1.542670 0.490137 -0.003565 -0.001087 -489365.000000 1 0 0
6.466371 0.532149 13.114322 14.631561 0.082110 0.459434 -0.004073 -0.004374 693446.000000 1 0 0
5.819871 6.142349 -7.886778 11.567222 0.812350 2.321046 0.000988 0.001497 -348854.000000 1 0 0
9.966671 5.257649 9.159522 14.521510 0.485423 0.888270 -0.005423 0.003617 -2231950.000000 1 0 0
-1.123429 -5.015851 -8.567978 9.991551 1.350457 2.601230 0.007289 -0.002764 1273650.000000 1 0 0
9.949671 -3.560651 -7.985678 13.245574 -0.343665 2.217920 0.010423 -0.009004 664463.000000 1 0 0
8.427671 -5.478351 1.285122 10.133583 -0.576406 1.443636 0.003810 -0.004913 1148620.000000 1 0 0
15.680971 3.137949 -4.958178 16.742852 0.197503 1.871442 0.016400 0.004788 -1072230.000000 1 0 0
-6.859829 3.693249 0.959822 7.849752 -0.493884 1.448215 0.003132 -0.005237 401441.000000 1 0 0
-1.738529 3.839549 0.343422 4.228777 -1.145620 1.489496 -0.000214 -0.002372 -119945.000000 1 0 0
-2.624329 10.022149 6.930622 12.464513 -1.314693 0.981197 -0.001046 0.002805 -64841.500000 1 0 0
5.494171 -5.684151 -8.850778 11.867256 -0.802392 2.412554 -0.003093 -0.001450 248268.000000 1 0 0
-1.251329 -0.823751 6.231822 6.409368 0.582189 0.235923 0.000053 -0.004364 -73110.800000 1 0 0
-5.514329 4.968949 -7.723678 10.712305 -0.733421 2.376055 -0.002669 -0.000569 -106734.000000 1 0 0
6.764771 -1.185451 2.563822 7.330798 -0.173477 1.213510 0.000005 0.000423 -981994.000000 1 0 0
8.808771 7.516549 3.268022 12.032162 0.706408 1.295734 0.000196 0.001784 181776.000000 1 0 0
-5.257529 -4.958651 -7.699778 10.560133 0.756151 2.387856 0.008816 -0.005145 98427.900000 1 0 0
-2.202129 8.030349 -10.093978 13.085269 -1.303150 2.451835 -0.002374 0.000593 492546.000000 1 0 0
-2.855729 -2.426251 1.679322 4.106337 0.704267 1.149484 -0.003692 0.003285 -1388440.000000 1 0 0
5.897771 -2.015751 -9.230678 11.137880 -0.329335 2.547692 -0.000618 -0.001111 856196.000000 1 0 0
1.117571 -7.622051 5.206422 9.297928 -1.425210 0.976465 -0.002017 0.000262 275301.000000 1 0 0
1.817871 12.009949 1.340522 12.220496 1.420573 1.460881 0.000586 -0.001661 439702.000000 1 0 0
-1.076429 7.145249 2.453822 7.631155 -1.421271 1.243427 -0.000539 0.001737 428413.000000 1 0 0
8.805271 7.972649 -6.708378 13.641784 0.735813 2.084897 0.001482 -0.000847 -394253.000000 1 0 0
3.712871 -11.490951 5.539822 13.285970 -1.258272 1.140690 0.004894 -0.004285 414061.000000 1 0 0
7.854571 -7.165451 12.345122 16.292330 -0.739550 0.710975 -0.004914 0.003253 167435.000000 1 0 0
-8.621829 0.038749 -4.117478 9.554636 -0.004494 2.016331 0.003105 -0.001303 -813412.000000 1 0 0
-3.279429 -5.215451 11.204722 12.786766 1.009475 0.502721 -0.001339 -0.002430 -281114.000000 1 0 0
-8.213929 0.220549 -11.598178 14.213902 -0.026844 2.525209 0.006144 -0.002668 -1569770.000000 1 0 0
1.393171 -5.035151 5.350722 7.478228 -1.300861 0.773447 -0.003282 0.001116 -912901.000000 1 0 0
6.700271 3.805149 -7.602878 10.824811 0.516489 2.349499 -0.000213 0.001726 -1957910.000000 1 0 0
16.309871 4.301749 -1.381678 16.924124 0.257879 1.652527 0.009881 0.009119 -180662.000000 1 0 0
7.854371 7.452149 0.158322 10.828238 0.759126 1.556175 -0.001258 -0.000096 -3067440.000000 1 0 0
5.478271 -10.393551 13.854322 18.165340 -1.085717 0.703351 -0.001998 0.006045 230709.000000 1 0 0
-5.085529 -9.400151 8.985622 13.963053 1.074885 0.871697 -0.004146 -0.000338 331525.000000 1 0 0
-12.595929 -3.194851 2.862222 13.306270 0.248403 1.353999 0.000282 -0.000601 576980.000000 1 0 0
-2.074629 -1.365451 -5.929278 6.428443 0.582095 2.744917 0.004121 -0.003807 -1581800.000000 1 0 0
-2.313529 13.015349 -4.427578 13.941132 -1.394880 1.893984 -0.000122 0.001481 450723.000000 1 0 0
3.938971 -0.327551 -5.069278 6.428091 -0.082966 2.479347 -0.000122 0.001049 -126152.000000 1 0 0
-8.798929 3.773349 -7.436478 12.122727 -0.405120 2.231196 0.001766 -0.001430 664219.000000 1 0 0
-4.561729 8.022749 -11.374278 14.647460 -1.053786 2.459945 -0.002303 0.002941 -2860860.000000 1 0 0
-10.123729 -6.350751 7.410522 14.061926 0.560261 1.015739 0.002832 0.001206 -2899520.000000 1 0 0
8.104371 5.330549 4.191722 10.567219 0.581795 1.162908 -0.003843 0.003340 -939303.000000 1 0 0
-6.749829 -7.556551 4.015122 10.898755 0.841727 1.193507 0.003244 -0.000714 -764635.000000 1 0 0
-4.183729 11.800049 8.113922 14.919131 -1.230072 0.995766 0.000468 -0.001596 -186470.000000 1 0 0
-7.229729 9.943249 -7.939278 14.634525 -0.942113 2.144211 -0.005888 -0.001624 -2768740.000000 1 0 0
13.101271 5.416749 4.681022 14.929717 0.392049 1.251881 0.001559 0.002765 588739.000000 1 0 0
5.356971 3.891649 -3.778978 7.623827 0.628267 2.089414 0.000835 0.002685 720712.000000 1 0 0
-2.840029 -4.223051 5.130622 7.226563 0.978762 0.781345 -0.000184 -0.000508 -636478.000000 1 0 0
12.441871 -2.281951 -5.326978 13.725310 -0.181393 1.969380 0.014253 -0.007654 -1911530.000000 1 0 0
-5.215329 9.636949 7.014522 13.010533 -1.074750 1.001379 -0.002153 0.000078 241216.000000 1 0 0
1.717171 3.870049 -0.411178 4.253824 1.153187 1.667608 -0.001313 0.001066 358799.000000 1 0 0
-0.123929 9.462549 7.659122 12.174454 -1.557700 0.890383 -0.001876 0.005391 -425459.000000 1 0 0
-5.517629 2.122649 5.908122 8.357977 -0.367250 0.785713 0.001431 -0.002589 818515.000000 1 0 0
8.849871 0.972549 10.785722 13.985631 0.109455 0.690072 -0.006609 0.001486 -1523060.000000 1 0 0
0.441371 -2.811351 -10.289078 10.675375 -1.415071 2.871755 -0.003155 -0.003916 -2364150.000000 1 0 0
1.268371 10.629649 -2.718878 11.044931 1.452034 1.819518 -0.000136 0.000184 -289777.000000 1 0 0
2.251771 -4.400951 11.580922 12.591926 -1.097868 0.403455 -0.006798 -0.001741 525810.000000 1 0 0
6.484371 -3.112551 9.348922 11.795651 -0.447527 0.655778 -0.004204 -0.004697 256357.000000 1 0 0
-10.680029 -8.143651 5.729122 14.601538 0.651461 1.167596 0.001255 0.000838 -1349900.000000 1 0 0
-2.946729 0.833149 -6.956878 7.601020 -0.275545 2.726939 0.004487 -0.004171 555908.000000 1 0 0
11.072471 2.619449 -5.122378 12.477976 0.232302 1.993813 0.004791 0.002348 -3115890.000000 1 0 0
-2.020529 -4.122251 0.050322 4.591081 1.115058 1.559835 0.000906 0.001612 1278090.000000 1 0 0
-1.312329 -6.391451 -10.756278 12.580555 1.368285 2.596332 0.001854 -0.000969 1393570.000000 1 0 0
0.277071 6.883649 -6.622478 9.556077 1.530567 2.336455 0.001419 0.001333 -3030010.000000 1 0 0
1.979571 3.792449 -6.226878 7.554825 1.089722 2.539629 -0.002967 0.000510 -2688730.000000 1 0 0
1.600671 -14.819851 6.612722 16.306999 -1.463205 1.153255 0.019884 -0.007038 -204539.000000 1 0 0
-1.798829 5.479349 -10.588978 12.057591 -1.253589 2.642882 0.003207 -0.001531 56115.600000 1 0 0
13.711871 4.239349 -0.713878 14.370007 0.299852 1.620495 0.007950 0.004514 -1550240.000000 1 0 0
-2.315129 3.441549 -6.223578 7.479105 -0.978629 2.553732 0.002755 -0.003356 -1008200.000000 1 0 0
5.502771 7.819149 14.159922 17.085753 0.957554 0.593915 0.001875 0.000810 599127.000000 1 0 0
15.846771 0.620849 -5.794578 16.884393 0.039158 1.921109 0.010259 0.000116 233240.000000 1 0 0
6.146171 -8.417051 10.617122 14.877683 -0.940085 0.776134 -0.009438 0.002826 1053470.000000 1 0 0
0.121971 -5.785551 -6.459778 8.672728 -1.549717 2.411088 -0.000631 0.001049 -1523690.000000 1 0 0
8.688171 5.517949 -7.529578 12.752514 0.565837 2.202399 0.001573 0.003326 -220569.000000 1 0 0
-15.975229 -0.489251 5.239622 16.819660 0.030616 1.254007 0.002404 -0.006461 -36717.700000 1 0 0
-0.379329 4.157049 -12.298878 12.987969 -1.479799 2.814386 0.004461 -0.003531 341603.000000 1 0 0
-11.315429 3.690449 5.816422 13.247230 -0.315265 1.116236 -0.000047 -0.007162 -629753.000000 1 0 0
5.188771 -9.586551 -9.649378 14.558015 -1.074692 2.295378 -0.006096 0.003791 -310941.000000 1 0 0
1.508871 11.227049 -11.716778 16.297429 1.437201 2.373064 0.006328 -0.002876 -2374490.000000 1 0 0
6.047071 2.391349 1.279822 6.627485 0.376583 1.376467 0.002175 0.002172 -254027.000000 1 0 0
5.634271 4.587449 4.854222 8.738030 0.683342 0.981798 -0.006495 0.003472 118999.000000 1 0 0
0.353771 -1.465951 -6.459678 6.633371 -1.333999 2.912247 -0.000832 -0.000137 -359047.000000 1 0 0
12.694771 6.840249 -4.591378 15.133637 0.494222 1.879044 0.007926 0.003360 -252634.000000 1 0 0
7.248271 3.101449 12.755922 14.995665 0.404314 0.553594 -0.004406 -0.001556 -64319.300000 1 0 0
-2.354329 -0.200951 8.748022 9.061520 0.085147 0.263810 -0.002514 -0.003381 764028.000000 1 0 0
2.222271 -15.279951 13.269622 20.359230 -1.426372 0.860875 0.007848 -0.001233 153358.000000 1 0 0
18.930471 4.552049 -1.699878 19.544141 0.235981 1.657883 0.014153 0.010958 1331820.000000 1 0 0
-0.488729 -13.322351 7.189322 15.146295 1.534128 1.076220 -0.001872 -0.002095 -1363910.000000 1 0 0
4.472571 1.639649 -0.558978 4.796331 0.351387 1.687605 0.001932 0.000535 869604.000000 1 0 0
2.710871 -0.408251 -7.421278 7.911438 -0.149474 2.787738 -0.003305 -0.000561 139194.000000 1 0 0
7.285071 -11.399951 0.886922 13.557941 -1.002162 1.505332 -0.002132 0.001001 273074.000000 1 0 0
-11.832829 -7.328651 1.338422 13.982716 0.554525 1.474930 -0.003376 0.004416 185411.000000 1 0 0
0.073271 -7.196451 9.937222 12.269583 -1.560615 0.626803 -0.004842 -0.001897 -3005340.000000 1 0 0
-4.705029 -7.260651 10.536922 13.633821 0.995816 0.687474 -0.000641 0.003038 -1703330.000000 1 0 0
11.817571 0.741149 -1.470978 11.931809 0.062634 1.694393 0.007561 -0.000320 2163600.000000 1 0 0
6.467871 -9.516351 -7.377978 13.668535 -0.973853 2.140970 -0.006956 -0.001571 -179510.000000 1 0 0
-10.942429 4.873749 3.489322 12.476600 -0.419021 1.287347 -0.000988 -0.007934 -521431.000000 1 0 0
5.975171 -9.213551 2.023622 11.166344 -0.995462 1.388564 -0.004286 0.000601 2529900.000000 1 0 0
11.433671 -1.366751 6.010322 12.989257 -0.118973 1.089741 0.011096 -0.004307 -213434.000000 1 0 0
-6.443629 3.500549 4.132122 8.417163 -0.497652 1.057655 0.002771 -0.004758 -1732500.000000 1 0 0
9.526671 6.338349 -3.173478 11.874472 0.587074 1.841337 0.000709 0.004116 -211094.000000 1 0 0
-2.334229 6.650649 10.944722 13.017938 -1.233251 0.572145 -0.008394 -0.000263 -232384.000000 1 0 0
1.802371 9.815949 2.802822 10.366157 1.389203 1.297007 -0.004505 0.001848 -757619.000000 1 0 0
2.879071 6.085249 -5.657378 8.793477 1.128881 2.269676 -0.002106 0.002159 -1577950.000000 1 0 0
11.859871 0.083449 -5.684978 13.152280 0.007036 2.017775 0.013406 -0.001183 451682.000000 1 0 0
-2.766629 -12.536451 6.304222 14.302449 1.353591 1.114330 0.001543 -0.001880 57936.900000 1 0 0
10.828571 1.833149 -2.744878 11.320457 0.167698 1.815708 0.005041 0.002445 651064.000000 1 0 0
-8.788129 5.400449 0.826922 10.347940 -0.551025 1.490799 0.002062 -0.007167 -1398190.000000 1 0 0
1.286171 -10.274451 5.552822 11.749571 -1.446263 1.078560 0.001795 -0.002083 18496.800000 1 0 0
9.504571 -5.773151 -1.173478 11.182271 -0.545849 1.675931 0.005534 -0.004308 961111.000000 1 0 0
-7.770729 8.571649 -4.368478 12.366932 -0.834368 1.931827 -0.000218 -0.001522 -971662.000000 1 0 0
-7.492229 -0.045151 -1.691178 7.680861 0.006026 1.792796 -0.002412 -0.001596 -1520890.000000 1 0 0
4.166271 8.971249 2.732922 10.262065 1.136030 1.301230 -0.000278 -0.000011 1883660.000000 1 0 0
-1.272229 -10.536651 -3.844978 11.288199 1.450635 1.918372 0.007320 0.003329 -477779.000000 1 0 0
3.194471 7.731849 -3.722478 9.156581 1.178999 1.989456 0.003085 -0.000630 -361193.000000 1 0 0
-4.295529 1.596949 -11.080178 11.990503 -0.355936 2.749416 0.005626 -0.005454 -81614.000000 1 0 0
1.304271 2.736949 10.895822 11.309772 1.126091 0.271391 -0.002507 -0.002126 569329.000000 1 0 0
2.101571 5.638149 -8.025978 10.031034 1.214007 2.498283 -0.001584 0.000244 -37788.700000 1 0 0
15.633871 6.063849 4.109122 17.264793 0.370003 1.330484 0.010676 -0.000040 745629.000000 1 0 0
-4.409729 9.021649 4.624722 11.055493 -1.116154 1.139203 0.001355 0.000237 -368540.000000 1 0 0
-0.999729 -8.108051 -12.506478 14.938271 1.448115 2.562959 0.001493 0.000716 -62396.500000 1 0 0
14.274271 -4.155551 -5.291578 15.780501 -0.283292 1.912745 0.006122 -0.003585 527632.000000 1 0 0
-6.080729 -6.204251 -5.604678 10.338298 0.795453 2.143763 0.009591 0.000790 656604.000000 1 0 0
-8.990729 2.562949 -12.414178 15.540712 -0.277700 2.496122 0.000922 0.001127 -621320.000000 1 0 0
10.512571 5.296249 13.933922 18.240575 0.466684 0.701466 0.006506 0.000305 814857.000000 1 0 0
-0.437029 10.838849 5.529622 12.175728 -1.530498 1.099377 -0.001675 0.006024 583546.000000 1 0 0
0.446771 11.257449 -0.526578 11.278610 1.531130 1.617501 0.000474 -0.001385 122697.000000 1 0 0
-1.405729 -0.491351 3.675122 3.965353 0.336260 0.384974 -0.000204 -0.001515 -23933.700000 1 0 0
-4.783829 6.654649 8.871422 12.077728 -0.947518 0.745826 -0.001976 -0.001808 -1736270.000000 1 0 0
3.467471 -8.734051 -11.498578 14.850060 -1.192874 2.456423 -0.007665 0.005373 755943.000000 1 0 0
6.598571 -3.905551 11.918722 14.172170 -0.534426 0.571677 -0.001353 -0.001932 -978156.000000 1 0 0
-2.415529 -1.843151 -12.574178 12.936071 0.651796 2.904498 0.003409 -0.007510 929530.000000 1 0 0
-16.156929 -4.920451 5.523822 17.769913 0.295618 1.254706 0.014641 -0.002033 783651.000000 1 0 0
-8.978829 7.193349 5.663522 12.823382 -0.675439 1.113353 -0.009078 -0.004402 -2952470.000000 1 0 0
-12.847829 1.558449 5.931922 14.236684 -0.120711 1.141023 -0.000160 -0.008064 397803.000000 1 0 0
-3.619529 3.624249 10.081022 11.307660 -0.786050 0.470103 -0.001438 -0.000168 751338.000000 1 0 0
2.046071 -12.233751 -1.195278 12.461130 -1.405082 1.666865 0.008746 0.003169 -3125860.000000 1 0 0
10.337971 -5.154751 -3.631978 12.109350 -0.462545 1.875417 0.008619 -0.002219 519165.000000 1 0 0
3.108471 -13.455151 0.949822 13.842176 -1.343755 1.502124 0.009925 -0.000131 298558.000000 1 0 0
9.961271 -1.753551 -6.073278 11.797736 -0.174252 2.111551 0.010781 -0.001570 700522.000000 1 0 0
11.972171 -5.402351 -1.605278 13.232354 -0.423887 1.692411 0.012724 -0.004166 -1013840.000000 1 0 0
1.448871 0.933249 5.953122 6.197567 0.572232 0.281795 -0.002662 -0.002898 63181.300000 1 0 0
-10.707029 11.576349 6.561422 17.079361 -0.824390 1.176485 -0.004420 -0.012785 -574674.000000 1 0 0
4.776171 -14.196851 3.040022 15.284113 -1.246266 1.370560 0.010295 -0.002252 -3423040.000000 1 0 0
5.129271 -3.348851 -1.695478 6.356010 -0.578404 1.840818 0.006613 -0.000722 -1187110.000000 1 0 0
2.085271 -2.851751 -7.748478 8.515853 -0.939420 2.713812 -0.006850 0.000275 -61878.800000 1 0 0
-2.785329 14.923849 -8.960378 17.628605 -1.386283 2.103990 0.001098 -0.004481 -1724530.000000 1 0 0
-2.382429 6.175749 -8.183978 10.525841 -1.202616 2.461498 -0.000658 -0.000077 -155613.000000 1 0 0
2.553471 -3.488351 -11.451078 12.239934 -0.938915 2.780611 -0.008045 0.002106 -1230280.000000 1 0 0
14.660871 2.689649 -2.657978 15.140680 0.181440 1.747263 0.014536 0.005116 708489.000000 1 0 0
-3.454729 13.211049 2.194022 13.830427 -1.315021 1.411486 -0.004091 0.002531 -951552.000000 1 0 0
7.687171 -5.098251 13.995022 16.761426 -0.585610 0.582747 -0.004925 -0.000721 -1488340.000000 1 0 0
-11.492629 7.263349 2.912422 13.903919 -0.563618 1.359766 -0.002142 -0.009998 671476.000000 1 0 0
-2.251829 11.794649 3.926822 12.633464 -1.382147 1.254733 -0.002595 0.003696 -468683.000000 1 0 0
1.801571 1.492849 0.718222 2.447468 0.691960 1.272957 -0.001407 0.000987 -665236.000000 1 0 0
-6.925529 8.622349 5.330622 12.276945 -0.894103 1.121649 -0.000065 -0.003767 91645.800000 1 0 0
-1.151629 9.230249 1.035922 9.359320 -1.446671 1.459886 -0.000232 0.000867 38483.000000 1 0 0
4.992971 13.142449 -8.479678 16.418242 1.207726 2.113530 0.003443 -0.006904 -1650280.000000 1 0 0
8.902171 6.905649 7.258822 13.402505 0.659764 0.998455 -0.004992 0.002741 -1186610.000000 1 0 0
7.235671 -13.858251 2.908622 15.901765 -1.089610 1.386849 0.007519 -0.001735 -1384030.000000 1 0 0
4.168171 -13.491251 -1.255678 14.176185 -1.271146 1.659489 0.004383 0.005570 -3038960.000000 1 0 0
12.036971 -11.832751 -4.610178 17.497326 -0.776843 1.837423 0.001595 0.004542 -689314.000000 1 0 0
2.896971 -0.056551 -1.739278 3.379456 -0.019518 2.111410 0.003023 -0.000179 1514850.000000 1 0 0
-13.489929 -3.061151 -10.748378 17.517890 0.223142 2.231365 0.002460 -0.003460 -79827.700000 1 0 0
-6.445629 13.615549 4.967522 15.862080 -1.128653 1.252268 -0.000629 -0.006749 763646.000000 1 0 0
7.324271 -4.303651 -0.676078 8.521939 -0.531243 1.650214 0.002277 -0.001342 -478997.000000 1 0 0
11.792571 2.133049 -7.370478 14.069064 0.178946 2.122194 0.009798 0.002823 -207945.000000 1 0 0
-7.571129 -4.469251 9.682322 13.078362 0.533258 0.737233 -0.000939 0.003101 571805.000000 1 0 0
1.108871 2.667549 8.345022 8.830901 1.176839 0.333264 -0.004447 -0.001679 -1473410.000000 1 0 0
1.529871 8.087549 -8.719178 11.990539 1.383842 2.384989 0.003197 -0.000825 355220.000000 1 0 0
-8.662329 -2.179151 -5.555178 10.518776 0.246452 2.127182 0.005640 -0.002909 -1221500.000000 1 0 0
6.537371 -0.555051 7.101022 9.667979 -0.084701 0.745883 -0.004841 -0.001509 -171181.000000 1 0 0
-10.846429 6.460049 7.083722 14.476062 -0.537172 1.059463 -0.003159 -0.008505 716549.000000 1 0 0
-5.869729 11.031649 4.885222 13.417019 -1.081815 1.198123 -0.003072 -0.001749 283122.000000 1 0 0
5.954571 -1.103451 -6.966178 9.230501 -0.183233 2.425980 0.000036 -0.000863 -980169.000000 1 0 0
4.431371 -5.902151 11.317922 13.511765 -0.926780 0.577858 -0.006265 -0.002624 -1367370.000000 1 0 0
-8.995129 -7.424851 2.646522 11.960135 0.690056 1.347671 0.000094 0.001799 -1589760.000000 1 0 0
-1.316829 12.807949 -9.425378 15.956671 -1.468343 2.202705 0.011075 -0.002091 550335.000000 1 0 0
-4.575429 9.352749 -2.282878 10.659268 -1.115820 1.786637 -0.000709 -0.002739 593639.000000 1 0 0
-3.200129 9.803249 -0.190678 10.314110 -1.255267 1.589284 0.001703 -0.002772 -2475180.000000 1 0 0
-3.408229 10.746349 -6.464778 12.995899 -1.263679 2.091450 -0.003930 0.000704 749424.000000 1 0 0
4.904271 -4.925951 0.361322 6.960418 -0.787604 1.518862 0.003548 -0.000805 -213150.000000 1 0 0
-2.200629 2.978749 -10.977978 11.585841 -0.934517 2.816227 0.005035 -0.004816 -1371600.000000 1 0 0
-3.558729 12.149549 -2.283078 12.864235 -1.285856 1.749216 -0.002812 -0.000446 116414.000000 1 0 0
-0.252629 0.348549 0.091522 0.440096 -0.943618 1.361308 -0.003477 0.001585 -1468830.000000 1 0 0
-4.850729 -1.720551 0.214722 5.151308 0.340855 1.529101 -0.002755 0.000557 351446.000000 1 0 0
2.624671 2.502549 -2.341078 4.316514 0.761584 2.144033 -0.006998 -0.000567 2198840.000000 1 0 0
5.924271 -9.712251 8.457822 14.176021 -1.023071 0.931503 -0.004821 -0.002394 -901812.000000 1 0 0
-4.306229 -5.535951 6.573122 9.612299 0.909698 0.817805 -0.001283 -0.001519 115234.000000 1 0 0
-6.324429 5.252149 -12.072478 14.605759 -0.693037 2.543757 -0.002631 0.002476 317162.000000 1 0 0
-12.948529 3.091149 7.930322 15.495471 -0.234340 1.033537 -0.004222 -0.006156 638727.000000 1 0 0
4.699471 -7.371751 -4.985678 10.064031 -1.003261 2.089087 -0.003119 -0.001079 542783.000000 1 0 0
-5.941929 2.392249 -1.111678 6.501169 -0.382750 1.742637 0.001316 -0.002916 -616732.000000 1 0 0
-6.733729 -2.775951 -14.558578 16.278858 0.391018 2.677715 0.007536 -0.003366 -388939.000000 1 0 0
2.669371 -6.149151 0.888722 6.762206 -1.161240 1.438990 0.001917 0.002026 -419664.000000 1 0 0
4.874771 -7.891051 13.089822 16.042927 -1.017421 0.616469 -0.007567 0.003891 92400.800000 1 0 0
-9.977729 -1.620051 8.047922 12.920863 0.160962 0.898400 0.003867 -0.001591 37255.900000 1 0 0
-4.294129 13.313649 -0.102678 13.989401 -1.258795 1.578136 -0.003512 0.001532 764266.000000 1 0 0
6.813371 2.095749 -4.404178 8.379199 0.298409 2.124227 -0.000079 0.004912 -1617110.000000 1 0 0
4.996571 4.495549 0.052122 6.721488 0.732664 1.563042 -0.001582 0.001752 -596670.000000 1 0 0
-5.859029 12.247749 1.771722 13.692136 -1.124597 1.441035 -0.000655 -0.001752 1364530.000000 1 0 0
6.442471 -7.320051 6.629822 11.791655 -0.849078 0.973696 -0.005237 -0.003558 -2419840.000000 1 0 0
-0.176229 4.876249 7.782322 9.185499 -1.534672 0.560029 -0.001894 -0.000625 -1530780.000000 1 0 0
-5.893429 -3.416151 -1.536478 6.983077 0.525325 1.792640 0.000153 -0.000597 -992665.000000 1 0 0
2.271171 -6.432851 -5.129678 8.535419 -1.231400 2.215532 -0.003267 0.002434 -1534180.000000 1 0 0
-14.315529 -4.778751 -3.867978 15.579862 0.322185 1.821688 -0.003791 -0.002041 -58368.600000 1 0 0
-12.335629 -5.063651 -6.338478 14.764302 0.389517 2.014526 0.008266 -0.003012 -1496830.000000 1 0 0
-14.765329 -3.728051 -1.388278 15.291848 0.247318 1.661707 -0.000953 -0.001454 326620.000000 1 0 0
11.927171 2.926049 8.812822 15.115720 0.240575 0.948351 0.002516 -0.000378 -1688620.000000 1 0 0
8.735171 -6.489251 7.620822 13.284973 -0.638934 0.959851 0.000104 -0.004198 9043.700000 1 0 0
-8.856729 -1.643851 -9.708578 13.243881 0.183516 2.393608 0.006686 -0.002821 60023.400000 1 0 0
-8.739129 5.141349 -3.905478 10.865478 -0.531782 1.938463 0.003249 -0.005097 -170663.000000 1 0 0
-4.050129 -6.370651 4.163022 8.620875 1.004505 1.066833 0.006023 -0.001258 -973195.000000 1 0 0
-0.284729 -9.247351 3.661622 9.949977 1.540016 1.193936 0.005237 -0.001952 513072.000000 1 0 0
7.890271 -10.518551 3.248022 13.544222 -0.927213 1.328628 -0.002041 -0.002206 225168.000000 1 0 0
-0.009429 6.438749 9.669322 11.616943 -1.569332 0.587468 -0.005929 0.002133 -277404.000000 1 0 0
-0.068629 3.541649 -9.727778 10.352664 -1.551421 2.792373 0.002391 -0.002664 20351.500000 1 0 0
4.445471 -3.213251 10.973822 12.268332 -0.625874 0.463521 -0.004037 -0.003349 -3402900.000000 1 0 0
8.565771 -9.145451 1.262922 12.593914 -0.818116 1.470347 -0.000496 0.000417 250792.000000 1 0 0
-0.213629 -0.590151 11.483522 11.500661 1.223480 0.054600 0.000874 -0.000722 -1714330.000000 1 0 0
10.925671 5.927949 11.425022 16.883187 0.497121 0.827511 0.004554 0.001810 747814.000000 1 0 0
-6.300629 -2.983051 -11.877178 13.771851 0.442185 2.610836 0.009804 -0.004937 437631.000000 1 0 0
-1.561529 2.859649 8.579822 9.177653 -1.070986 0.362931 0.001805 -0.004369 -2080300.000000 1 0 0
-1.850929 13.555949 -6.973678 15.356493 -1.435095 2.042180 -0.001376 -0.001709 731750.000000 1 0 0
7.700771 3.083349 9.833522 12.864955 0.380847 0.700740 -0.004785 0.001956 -244109.000000 1 0 0
6.463571 8.527149 -7.952478 13.331614 0.922195 2.209945 0.006749 0.000271 1099850.000000 1 0 0
6.813171 -3.176051 -3.671678 8.365872 -0.436214 2.025157 0.004042 -0.000859 -2221260.000000 1 0 0
2.118271 8.061149 1.033922 8.398702 1.313830 1.447378 -0.002004 -0.000575 760454.000000 1 0 0
-17.578829 6.643649 6.470822 19.875232 -0.361341 1.239180 0.016350 -0.003589 -491418.000000 1 0 0
-14.720129 2.859549 -9.902478 17.969927 -0.191871 2.154428 0.013579 -0.005492 -69612.300000 1 0 0
-18.314129 0.199449 -4.320478 18.817907 -0.010890 1.802457 0.013876 -0.005680 252169.000000 1 0 0
-12.997829 7.945949 0.129022 15.234773 -0.548708 1.562327 0.003842 -0.008136 -2711090.000000 1 0 0
-12.656729 -4.620551 -12.685578 18.505842 0.350034 2.326073 0.014969 0.005560 -378711.000000 1 0 0
-17.342129 -0.652851 -8.772178 19.445482 0.037628 2.038812 -0.004570 -0.010754 486942.000000 1 0 0
-16.605929 -2.093551 -2.121378 16.871280 0.125411 1.696869 0.003233 -0.006601 -541031.000000 1 0 0
-15.361929 4.081549 1.600022 15.975230 -0.259693 1.470472 0.000244 -0.004063 -889887.000000 1 0 0
-13.208729 5.866749 4.292122 15.076856 -0.417984 1.282121 -0.005755 -0.008017 99487.900000 1 0 0
-9.890029 14.145349 2.857322 17.494795 -0.960626 1.406737 0.023383 -0.007344 -333128.000000 1 0 0
-11.915029 2.524749 -6.476478 13.794457 -0.208808 2.059519 0.003403 -0.001414 1591840.000000 1 0 0
-15.866629 10.589749 3.587122 19.410310 -0.588526 1.384923 0.010001 -0.008365 360009.000000 1 0 0
-12.754829 1.180249 -8.653878 15.458598 -0.092271 2.164953 0.005832 -0.003634 312744.000000 1 0 0
-12.218629 14.400949 3.886922 19.281867 -0.867197 1.367821 0.016557 -0.006664 419210.000000 1 0 0
-10.558329 11.106749 -0.984978 15.356053 -0.810706 1.634983 0.014110 -0.005132 358999.000000 1 0 0
-16.862229 5.682149 8.804222 19.852857 -0.325024 1.111326 0.000287 -0.005045 48405.500000 1 0 0
-11.580929 12.593449 -9.175678 19.414066 -0.827258 2.063070 0.006652 -0.007266 -1747850.000000 1 0 0
-17.160929 -0.454651 2.983422 17.424265 0.026487 1.398726 0.009429 -0.005796 555612.000000 1 0 0
-13.305229 14.855649 -0.403478 19.946985 -0.840398 1.591025 0.043469 -0.002865 129135.000000 1 0 0
-16.555529 4.611949 -10.248578 20.009722 -0.271686 2.108517 0.018992 -0.002363 376506.000000 1 0 0
-11.877429 7.608149 -8.977178 16.719658 -0.569707 2.137582 0.004871 0.002640 74636.000000 1 0 0
-14.893829 13.480949 -1.891878 20.177744 -0.735646 1.664695 0.041916 -0.008208 912659.000000 1 0 0
-11.698129 10.510149 -5.492278 16.657568 -0.731956 1.906800 0.013432 -0.004215 965153.000000 1 0 0
-17.658729 2.848449 -0.858878 17.907597 -0.159928 1.618776 0.005411 -0.002158 -390300.000000 1 0 0
-9.351229 15.215649 0.650822 17.871347 -1.019725 1.534371 0.028188 -0.007110 236448.000000 1 0 0
-8.085029 13.207449 -3.697578 15.920945 -1.021486 1.805183 0.003589 -0.003478 -1353630.000000 1 0 0
-17.763529 11.491349 2.090922 21.259493 -0.574198 1.472285 0.031407 0.000931 179195.000000 1 0 0
-8.083629 15.727649 -7.465578 19.194761 -1.096031 1.970275 0.013608 -0.012240 -122016.000000 1 0 0
-6.313129 15.183949 -5.454978 17.325262 -1.176764 1.891102 0.000209 -0.003650 -646474.000000 1 0 0
-17.325229 5.319149 -0.214478 18.124649 -0.297882 1.582630 0.011812 -0.003321 332968.000000 1 0 0
-5.405829 12.309849 -12.429878 18.310031 -1.157005 2.317000 -0.011665 -0.000785 -472416.000000 1 0 0
-11.218129 3.783949 -11.486278 16.495432 -0.325322 2.341069 0.009231 0.001445 659656.000000 1 0 0
-11.836329 10.934049 1.333922 16.168842 -0.745794 1.488203 0.015212 -0.008146 197644.000000 1 0 0
-12.921229 0.092549 -11.108678 17.040230 -0.007162 2.280895 0.009822 -0.004873 1385910.000000 1 0 0
-13.861729 -2.328351 -13.210978 19.289860 0.166416 2.325217 -0.001724 0.005975 219768.000000 1 0 0
-18.740929 -2.238751 -3.654978 19.224809 0.118894 1.762078 0.008816 -0.004139 930768.000000 1 0 0
-18.345629 4.813849 -5.161678 19.656504 -0.256613 1.836506 0.022506 -0.002800 768708.000000 1 0 0
-8.282629 15.461449 -2.327178 17.693900 -1.079002 1.702703 0.021065 -0.003675 295810.000000 1 0 0
-15.752829 9.218949 -5.251878 18.992706 -0.529485 1.850968 0.010683 0.002842 -27053.100000 1 0 0
-18.272329 1.694049 2.008622 18.460292 -0.092447 1.461773 0.017024 -0.008248 36717.300000 1 0 0
-15.652529 -2.665651 -8.729678 18.119455 0.168683 2.073487 -0.004731 -0.006437 265557.000000 1 0 0
-9.612329 10.524049 -7.155478 15.948459 -0.830645 2.036065 0.000942 -0.004459 -295038.000000 1 0 0
-13.744229 11.878749 -7.671678 19.719613 -0.712721 1.970383 0.022242 -0.016062 620081.000000 1 0 0
-10.954729 6.520049 -3.856078 13.318651 -0.536869 1.864527 0.002982 -0.003755 -1596410.000000 1 0 0
-13.223029 4.981849 -12.684278 18.988371 -0.360309 2.302318 0.015186 0.002217 539717.000000 1 0 0
-17.841829 9.018749 2.682522 20.170886 -0.468025 1.437411 0.033361 -0.009767 939758.000000 1 0 0
-13.266929 8.694649 -6.599778 17.180378 -0.580136 1.965079 0.010137 0.001899 -858367.000000 1 0 0
-15.774629 6.954149 -3.732378 17.638871 -0.415214 1.784008 0.011920 -0.001252 39143.400000 1 0 0
-14.835429 -0.365451 -9.327478 17.527845 0.024629 2.131937 0.001917 -0.009006 -863579.000000 1 0 0
-9.920729 5.888949 -6.165578 13.081091 -0.535701 2.061600 0.000138 -0.001580 293942.000000 1 0 0
-12.934629 12.179949 -0.647378 17.778495 -0.755358 1.607218 0.029645 -0.008991 16907.100000 1 0 0
-10.742029 3.433249 -14.053378 18.018763 -0.309348 2.465351 0.008681 0.007403 479167.000000 1 0 0
-10.998329 6.309149 -11.989078 17.450117 -0.520816 2.328216 0.000642 0.004986 -507998.000000 1 0 0
-5.793729 11.614249 -14.875978 19.742158 -1.108072 2.424186 -0.004866 -0.003793 -213709.000000 1 0 0
-15.673629 13.203149 3.606022 20.808392 -0.700053 1.396620 0.014526 -0.009957 176502.000000 1 0 0
-15.148929 11.076749 -2.959378 18.998483 -0.631354 1.727202 0.039821 -0.001590 338035.000000 1 0 0
-17.982329 7.842749 -4.813578 20.200084 -0.411265 1.811406 0.011285 0.002524 -746362.000000 1 0 0
-4.092229 16.219749 -10.693378 19.853839 -1.323655 2.139577 0.003682 -0.008194 111573.000000 1 0 0
-15.723429 4.396549 -4.481978 16.930564 -0.272654 1.838717 0.009004 -0.000248 612911.000000 1 0 0
-18.567829 -1.649551 -6.153678 19.630411 0.088607 1.889648 0.002134 -0.005709 194395.000000 1 0 0
-10.686429 8.557949 -5.791578 14.865417 -0.675243 1.970994 0.004955 0.000573 615434.000000 1 0 0
-11.155729 13.466549 -6.736878 18.739897 -0.878975 1.938522 0.009483 -0.008680 249603.000000 1 0 0
-9.374229 10.517149 -4.460778 14.777860 -0.842793 1.877435 0.000050 -0.001310 -477423.000000 1 0 0
-11.022329 6.359249 -0.219078 12.727128 -0.523293 1.588011 0.001208 -0.007685 -271348.000000 1 0 0
-14.735129 9.235349 -1.316478 17.439863 -0.559862 1.646355 0.025349 -0.004557 106244.000000 1 0 0
-18.766729 3.573549 4.773722 19.691338 -0.188167 1.325929 0.017604 -0.005690 514461.000000 1 0 0
-15.082829 13.001149 0.479622 19.918626 -0.711410 1.546715 0.028898 -0.006298 423532.000000 1 0 0
-17.205429 2.614049 -8.927678 19.559230 -0.150779 2.044790 0.023512 -0.005942 209385.000000 1 0 0
-9.100629 8.400649 -8.827978 15.209390 -0.745424 2.190052 -0.003289 0.003331 -1902590.000000 1 0 0
-17.620129 4.699149 -2.708978 18.436093 -0.260626 1.718269 0.006068 0.000107 871621.000000 1 0 0
-13.412229 5.811849 -4.391078 15.262603 -0.408900 1.862623 0.006841 0.000945 -466647.000000 1 0 0
-12.205529 9.643949 3.390822 15.921004 -0.668693 1.356175 -0.003222 -0.009082 1134890.000000 1 0 0
-17.441629 2.553449 -4.063178 18.089775 -0.145367 1.797341 0.002269 -0.002922 901441.000000 1 0 0
-11.404029 1.476649 -12.598978 17.057744 -0.128768 2.401799 0.017400 -0.001389 834764.000000 1 0 0
-11.106529 12.034349 3.551422 16.756883 -0.825471 1.357239 0.008378 -0.008597 52150.600000 1 0 0
-16.701729 13.004349 -3.743978 21.496005 -0.661570 1.745860 0.051735 -0.004805 501934.000000 1 0 0
-11.034029 4.149149 -4.582678 12.647773 -0.359675 1.941564 0.000418 -0.002897 -318913.000000 1 0 0
-11.024829 15.091749 -8.745978 20.634919 -0.939879 2.008481 0.015952 -0.008216 -77517.100000 1 0 0
-15.350729 6.955349 -0.307078 16.855743 -0.425425 1.589015 0.009223 -0.004378 -1103730.000000 1 0 0
-12.750429 8.422949 -4.119478 15.826864 -0.583792 1.834113 0.007116 -0.002552 606751.000000 1 0 0
-19.161829 2.112849 -5.932778 20.170218 -0.109820 1.869347 0.016730 -0.003815 -511500.000000 1 0 0
-12.416329 10.127849 -8.898078 18.327966 -0.684234 2.077722 0.006639 -0.005206 627598.000000 1 0 0
-16.774529 10.883449 -0.930578 20.017499 -0.575537 1.617301 0.028824 -0.001593 406877.000000 1 0 0
-10.716029 6.485049 -14.594378 19.232395 -0.544214 2.432332 0.002830 -0.001182 -68738.300000 1 0 0
-14.207829 13.063449 -4.335078 19.781532 -0.743460 1.791737 0.044429 -0.001801 254119.000000 1 0 0
-17.884629 7.777849 -0.322678 19.505359 -0.410218 1.587340 0.014941 -0.000748 290022.000000 1 0 0
-12.723629 6.728449 -2.120978 14.548585 -0.486433 1.717104 0.002994 -0.002640 -61142.600000 1 0 0
-13.796329 8.623549 -10.519378 19.374251 -0.558643 2.144750 0.008117 -0.001573 -857942.000000 1 0 0
-14.950729 1.442549 -1.030478 15.055469 -0.096189 1.639295 0.001031 -0.003368 -1230660.000000 1 0 0
-13.315729 2.835849 -2.435978 13.830570 -0.209835 1.747850 -0.000611 -0.005516 -258919.000000 1 0 0
-11.263829 9.125649 -11.004778 18.200452 -0.680913 2.220114 -0.000143 -0.001454 165133.000000 1 0 0
-15.517129 4.323849 -7.875078 17.930249 -0.271756 2.025511 0.016959 0.000383 704455.000000 1 0 0
-18.244629 10.697749 4.534822 21.630371 -0.530323 1.359579 0.026567 -0.005170 81154.200000 1 0 0
-15.186329 6.269049 -6.158478 17.545724 -0.391499 1.929431 0.011710 0.004037 714409.000000 1 0 0
-7.695829 11.215049 -13.135878 18.909109 -0.969388 2.338778 -0.013161 0.000512 -895325.000000 1 0 0
-16.832329 9.053049 -2.843678 19.322823 -0.493457 1.718500 0.022023 0.003685 1125760.000000 1 0 0
-20.625129 -0.904751 -4.808778 21.197615 0.043838 1.799643 0.016485 -0.004834 -1302210.000000 1 0 0
-15.432929 4.351349 4.152022 16.563479 -0.274818 1.317421 0.001690 -0.007616 84939.800000 1 0 0
-6.848529 12.687149 -9.473478 17.251460 -1.075818 2.152132 -0.005677 -0.003228 -1260620.000000 1 0 0
-17.144729 1.742449 5.762822 18.171075 -0.101284 1.248081 0.004306 -0.007970 -391433.000000 1 0 0
-10.362229 14.259549 -3.151578 17.906506 -0.942383 1.747720 0.028411 -0.010727 -999027.000000 1 0 0
-10.025129 8.438149 -13.123778 18.545596 -0.699656 2.356962 -0.009577 0.004543 -101739.000000 1 0 0
-13.623629 11.692549 2.855222 18.178869 -0.709267 1.413081 0.012240 -0.008850 -2021810.000000 1 0 0
-16.793529 6.735049 1.875522 18.190687 -0.381411 1.467509 0.006972 -0.007968 565570.000000 1 0 0
-9.206529 13.303249 -8.450478 18.252320 -0.965425 2.052152 0.001634 -0.013502 -2014510.000000 1 0 0
-5.609229 9.765449 -12.957878 17.167820 -1.049417 2.426111 -0.006708 0.003693 -626564.000000 1 0 0
-15.938629 1.907949 3.144722 16.357550 -0.119139 1.377343 0.000754 -0.007594 -607766.000000 1 0 0
-18.670329 -4.734451 4.783222 19.846295 0.248347 1.327386 0.018188 0.001083 -629249.000000 1 0 0
-5.221429 14.568549 -9.057278 17.931543 -1.226654 2.100298 -0.001936 -0.007861 -1398600.000000 1 0 0
-15.486529 -0.828951 -6.845978 16.952497 0.053476 1.986499 0.005101 -0.005959 687349.000000 1 0 0
-8.873729 10.976749 -9.496978 17.012486 -0.890947 2.163054 -0.007251 -0.003814 184795.000000 1 0 0
-16.682729 1.330249 -6.144378 17.827967 -0.079570 1.922660 -0.004166 -0.004126 -1135480.000000 1 0 0
-11.147329 8.697749 -1.544778 14.223225 -0.662584 1.679621 0.004919 -0.007669 -984775.000000 1 0 0
-10.736729 11.014549 -12.718078 19.958636 -0.798170 2.261684 -0.000016 -0.002311 -247587.000000 1 0 0
-13.789529 11.859449 -10.340578 20.921883 -0.710290 2.087765 0.013921 -0.007500 531438.000000 1 0 0
-13.128029 5.668449 -7.693278 16.237703 -0.407601 2.064387 0.009261 0.004804 909171.000000 1 0 0
-8.865529 15.324249 -4.896778 18.368687 -1.046314 1.840642 0.013862 -0.009774 507714.000000 1 0 0
-8.688829 6.162649 -12.913578 16.740206 -0.616914 2.451852 -0.002910 0.000481 -564809.000000 1 0 0
-16.436329 7.539549 4.233922 18.572125 -0.430076 1.340802 0.016757 -0.009524 599856.000000 1 0 0
-12.725529 5.435549 -10.194578 17.187603 -0.403680 2.205744 0.008730 0.003659 736366.000000 1 0 0
-12.398129 9.074449 -13.367978 20.365708 -0.631830 2.286828 0.007315 -0.001856 -2089610.000000 1 0 0
-10.722429 5.164849 -8.634178 14.703577 -0.448890 2.198412 -0.001648 0.004727 -731062.000000 1 0 0
-17.585729 -4.399851 -2.792578 18.341621 0.245162 1.723644 -0.006762 -0.003863 122625.000000 1 0 0
-8.896229 13.120449 -10.963178 19.273825 -0.974959 2.175857 0.002134 -0.007357 170552.000000 1 0 0
-15.017929 6.256549 5.974222 17.331299 -0.394739 1.218870 -0.000782 -0.011152 -314676.000000 1 0 0
-16.324729 -3.029451 -4.575678 17.222404 0.183487 1.839707 -0.003943 -0.002201 592123.000000 1 0 0
-11.055029 -1.174851 -12.558378 16.772203 0.105876 2.416988 0.012055 0.001792 -1572.030000 1 0 0
-15.315829 6.823549 -8.638478 18.861568 -0.419124 2.046533 0.010044 0.004574 164250.000000 1 0 0
-14.886429 9.056849 1.241622 17.469228 -0.546570 1.499662 0.014649 -0.007316 -324331.000000 1 0 0
-19.316629 5.479249 7.981122 21.606773 -0.276394 1.192454 0.021099 -0.001675 -1136950.000000 1 0 0
-16.324029 0.784849 0.834022 16.364153 -0.048042 1.519808 0.007868 -0.005535 -245903.000000 1 0 0
-17.426529 3.988449 6.945022 19.178764 -0.224997 1.200255 0.005143 -0.002031 613340.000000 1 0 0
-15.390929 4.077049 -1.454978 15.988120 -0.258952 1.661926 0.001658 -0.003542 -1217760.000000 1 0 0
-10.894029 13.184449 0.560522 17.112094 -0.880236 1.538035 0.028834 -0.011855 -1026750.000000 1 0 0
-13.418229 3.382449 -0.028378 13.838014 -0.246934 1.572847 0.001462 -0.005308 -569225.000000 1 0 0
-15.229729 0.093349 -4.366578 15.843622 -0.006129 1.850015 0.000467 -0.002423 380758.000000 1 0 0
-18.861029 6.775649 3.466422 20.338730 -0.344883 1.399526 0.023110 -0.007299 200166.000000 1 0 0
-14.139729 1.383249 -6.373278 15.571255 -0.097517 1.992480 0.001543 -0.004263 -406727.000000 1 0 0
-14.306329 11.850749 5.343422 19.330377 -0.691794 1.290723 0.005026 -0.017277 519681.000000 1 0 0
17.745471 5.484149 6.518322 19.684160 0.299734 1.233279 0.017089 -0.000538 -624955.000000 1 0 0
18.464871 7.490749 -0.160578 19.927081 0.385390 1.578855 0.015226 0.006986 280423.000000 1 0 0
16.496571 5.191149 8.667822 19.344664 0.304870 1.106188 0.016028 0.005263 300284.000000 1 0 0
11.775871 12.205249 11.073522 20.254928 0.803301 0.992369 0.027983 -0.004463 510508.000000 1 0 0
-2.226429 16.370649 -0.613278 16.532732 -1.435624 1.607900 -0.005761 0.003529 -664888.000000 1 0 0
15.331571 12.490949 3.228722 20.037603 0.683653 1.408958 0.030160 0.003209 -92995.500000 1 0 0
13.525271 11.758449 6.766322 19.156649 0.715632 1.209796 0.022790 0.005628 583007.000000 1 0 0
-0.565629 15.824649 8.614422 18.026306 -1.535068 1.072556 -0.007257 0.001334 280215.000000 1 0 0
0.757371 12.921349 9.434522 16.017025 1.512249 0.940937 -0.005974 0.004545 -1556430.000000 1 0 0
0.840871 15.567849 -3.878878 16.065823 1.516835 1.814642 0.001055 -0.000964 -2007660.000000 1 0 0
5.305971 10.315349 13.466022 17.773393 1.095714 0.711090 0.003716 -0.001910 208313.000000 1 0 0
-1.315529 16.474249 -2.996278 16.796106 -1.491112 1.750148 -0.000258 -0.000361 -629192.000000 1 0 0
8.680471 10.131949 3.391622 13.766265 0.862401 1.321861 0.001744 0.003429 430077.000000 1 0 0
12.552871 13.576849 -4.960278 19.144444 0.824566 1.832884 0.029976 -0.007892 687269.000000 1 0 0
2.397271 11.518149 7.827122 14.130764 1.365596 0.983747 -0.002979 0.007625 640356.000000 1 0 0
-0.288329 14.884549 -8.566278 17.175973 -1.551428 2.092936 0.008258 -0.008946 -2588640.000000 1 0 0
2.424371 15.930149 0.332322 16.116999 1.419768 1.550176 0.001554 -0.002188 -707499.000000 1 0 0
1.929571 13.369849 5.323822 14.519614 1.427463 1.195375 0.001293 0.002915 -145734.000000 1 0 0
17.650671 9.271949 -1.896478 20.027777 0.483684 1.665631 0.015183 0.012044 560877.000000 1 0 0
-7.186529 14.828749 7.196022 17.981121 -1.119516 1.159063 0.002766 -0.011601 -765154.000000 1 0 0
8.538471 15.877249 -0.139778 18.028091 1.077383 1.578550 -0.000365 -0.000918 -871855.000000 1 0 0
15.610871 10.183149 2.055222 18.751527 0.577998 1.460973 0.011938 -0.000816 -225200.000000 1 0 0
14.109771 7.425549 8.711622 18.169116 0.484442 1.070741 0.009909 0.001803 -1493750.000000 1 0 0
4.235471 18.682349 -2.069178 19.267872 1.347855 1.678394 0.000410 -0.002083 -130175.000000 1 0 0
-0.306129 17.546549 -5.010178 18.250397 -1.553351 1.848891 0.005625 -0.001725 469055.000000 1 0 0
1.288271 13.759349 -0.663978 13.835469 1.477440 1.618806 -0.000843 -0.002503 508060.000000 1 0 0
10.157171 14.780549 4.275222 18.436656 0.968714 1.336779 0.008058 -0.001068 297344.000000 1 0 0
-1.487529 15.271849 -5.325578 16.242041 -1.473699 1.904864 0.003501 -0.001479 383623.000000 1 0 0
14.993371 8.737749 -6.022278 18.368921 0.527657 1.904825 0.014563 0.004088 69531.500000 1 0 0
-2.256829 18.370449 0.994122 18.535235 -1.448558 1.517136 -0.008721 -0.000191 -367103.000000 1 0 0
-3.748429 19.308449 3.462222 19.971327 -1.379047 1.396556 -0.000025 -0.002330 -255887.000000 1 0 0
1.903371 17.652049 -2.704778 17.959217 1.463384 1.721978 -0.001459 -0.002098 139521.000000 1 0 0
3.014571 12.049549 3.411122 12.880800 1.325647 1.302777 -0.002331 0.003846 690348.000000 1 0 0
-2.554129 15.993149 1.844722 16.300533 -1.412432 1.457384 -0.002905 -0.004042 -1340510.000000 1 0 0
11.672571 12.805749 -2.597278 17.520901 0.831658 1.719584 0.000648 0.003415 161596.000000 1 0 0
7.228671 11.731349 4.729722 14.568751 1.018562 1.240156 0.000625 0.004453 228459.000000 1 0 0
7.187471 15.925449 2.028922 17.589661 1.146845 1.455192 -0.003122 -0.001532 -1566270.000000 1 0 0
5.419671 12.289849 10.372322 16.970512 1.155462 0.913225 -0.001866 0.009978 -205763.000000 1 0 0
-1.292229 14.097949 3.125722 14.498005 -1.479391 1.353493 -0.003493 0.000415 -2003100.000000 1 0 0
4.661571 16.045849 1.639422 16.789497 1.288063 1.472995 -0.000343 -0.006951 -1191610.000000 1 0 0
7.437071 13.151649 11.964422 19.272345 1.056142 0.901024 0.012190 0.000059 333189.000000 1 0 0
0.622171 17.065149 -9.587178 19.583677 1.534354 2.082369 0.000240 -0.004971 236840.000000 1 0 0
9.670571 9.596449 15.457622 20.604608 0.781551 0.722428 0.012354 -0.008435 -217343.000000 1 0 0
13.518471 7.433649 0.009022 15.427517 0.502757 1.570212 0.002501 0.004066 -75700.100000 1 0 0
12.479971 13.433849 -0.129578 18.336705 0.822191 1.577863 0.016600 -0.000517 390609.000000 1 0 0
9.436371 12.378049 3.341322 15.919347 0.919440 1.359333 0.003790 0.007243 160629.000000 1 0 0
-0.679829 12.889249 0.695922 12.925912 -1.518101 1.516931 0.000268 -0.001417 -1305720.000000 1 0 0
15.986671 7.399549 -0.892178 17.638678 0.433495 1.621399 0.014989 0.007973 -1345860.000000 1 0 0
-4.046929 18.542049 -2.581278 19.153282 -1.355909 1.705977 -0.003958 0.003752 -95615.000000 1 0 0
11.593971 9.138849 -3.148278 15.094713 0.667530 1.780907 0.006126 0.001373 -35453.000000 1 0 0
14.733571 9.704449 7.925322 19.340764 0.582441 1.148591 0.021270 0.001605 651975.000000 1 0 0
4.511471 13.832549 4.649122 15.274394 1.255526 1.261516 0.001262 0.005601 80785.500000 1 0 0
2.200771 15.944649 5.674522 17.066793 1.433637 1.231855 0.003333 0.002258 112128.000000 1 0 0
6.068871 18.467449 5.595622 20.228417 1.253289 1.290519 0.012033 -0.014299 -370645.000000 1 0 0
10.588871 17.150649 -0.934778 20.177779 1.017678 1.617140 0.024677 -0.007933 -1210910.000000 1 0 0
9.984171 13.610149 -4.382878 17.439307 0.937885 1.824842 0.012436 -0.001997 -1460300.000000 1 0 0
16.688971 7.799049 2.302022 18.564650 0.437162 1.446476 0.012435 0.001456 421505.000000 1 0 0
3.970371 13.948049 -0.443778 14.508923 1.293477 1.601388 -0.001909 -0.002544 1037360.000000 1 0 0
5.548771 13.172249 -2.460778 14.503532 1.172109 1.741289 -0.001040 0.000043 -179303.000000 1 0 0
-6.130529 16.969449 -3.017378 18.293446 -1.224118 1.736497 0.003070 0.000009 206462.000000 1 0 0
18.186371 9.827749 2.518522 20.824785 0.495436 1.449561 0.022751 -0.002422 1137700.000000 1 0 0
7.892771 12.805549 9.437022 17.757683 1.018437 1.010505 0.012481 -0.001150 2186760.000000 1 0 0
-2.500029 15.724149 6.746622 17.292077 -1.413123 1.169994 -0.009002 0.001250 208185.000000 1 0 0
11.083471 16.065849 6.239922 20.491253 0.966896 1.261366 0.017954 -0.001095 116760.000000 1 0 0
13.592671 11.893149 1.412422 18.116364 0.718812 1.492753 0.024526 0.003266 1261510.000000 1 0 0
17.381371 7.975449 -5.385578 19.867669 0.430189 1.845303 -0.001682 0.016829 -942745.000000 1 0 0
9.453171 9.275549 8.096522 15.522626 0.775915 1.022077 0.005889 0.003918 -158201.000000 1 0 0
-2.002229 14.197449 -1.961778 14.471526 -1.430693 1.706776 -0.003996 0.000698 411902.000000 1 0 0
10.929071 11.588349 0.833922 15.950857 0.814668 1.518492 0.004674 0.006537 414315.000000 1 0 0
11.657071 9.737749 -0.525378 15.198259 0.695928 1.605372 0.001793 0.004198 -1881090.000000 1 0 0
-0.258529 15.740949 11.115522 19.271719 -1.554374 0.956016 0.000535 -0.008330 -180204.000000 1 0 0
1.913771 20.024149 -1.726078 20.189314 1.475513 1.656395 0.001791 -0.010424 -90092.200000 1 0 0
9.322071 14.344949 1.789322 17.201170 0.994526 1.466585 0.000227 0.002326 -107434.000000 1 0 0
8.378171 11.729149 -5.168778 15.312836 0.950535 1.915104 0.007142 0.000236 -923485.000000 1 0 0
10.523271 10.075549 10.267122 17.823291 0.763666 0.956907 0.006198 0.001277 -320850.000000 1 0 0
-4.963729 15.721749 5.880422 17.504038 -1.264977 1.228186 -0.013834 -0.002206 -128308.000000 1 0 0
14.381171 9.033749 -1.821278 17.080508 0.560872 1.677628 0.022493 0.005916 -286851.000000 1 0 0
12.199471 9.627049 6.991522 17.040791 0.668082 1.148034 0.009570 0.002048 -1261060.000000 1 0 0
3.199771 12.884749 9.834222 16.521719 1.327383 0.933245 -0.003551 0.003488 -327365.000000 1 0 0
8.514971 12.587949 -2.609278 15.419777 0.976059 1.740831 0.002671 0.000391 -733738.000000 1 0 0
9.550971 16.969449 1.994022 19.574457 1.058154 1.468751 0.012451 -0.001798 151171.000000 1 0 0
9.748271 14.357149 -7.452478 18.886396 0.974315 1.976423 0.020358 -0.006167 472564.000000 1 0 0
6.515071 11.443249 7.380922 15.095433 1.053228 1.059910 0.001427 0.006876 -664700.000000 1 0 0
5.490471 17.100549 -5.499878 18.783575 1.260123 1.867953 -0.000635 0.004731 -1623950.000000 1 0 0
-4.070929 17.139149 -4.732178 18.240515 -1.337595 1.833231 -0.005981 -0.004189 53126.300000 1 0 0
-0.114329 18.353049 -0.514578 18.360617 -1.564567 1.598826 -0.001415 -0.007485 -1089770.000000 1 0 0
6.556971 15.789849 -2.727778 17.313404 1.177200 1.729008 -0.003742 0.004404 -125777.000000 1 0 0
-0.846829 20.595849 0.724722 20.625987 -1.529703 1.535653 -0.000492 -0.003742 103376.000000 1 0 0
-1.376029 18.787149 4.175622 19.294721 -1.497684 1.352658 -0.007426 -0.002425 179986.000000 1 0 0
7.321971 13.941649 -4.313678 16.327543 1.087203 1.838167 0.005267 0.004756 -368812.000000 1 0 0
-0.943829 11.857449 7.745122 14.194253 -1.491366 0.993629 -0.000484 0.003800 512442.000000 1 0 0
7.637171 10.810949 10.949622 17.178394 0.955768 0.879668 0.003160 0.001377 318177.000000 1 0 0
1.546171 16.074549 -7.266878 17.708452 1.474904 1.993647 -0.000913 -0.005019 301001.000000 1 0 0
8.805671 7.117749 14.851122 18.675064 0.679790 0.651396 0.002553 -0.001095 161867.000000 1 0 0
11.259171 11.300649 -4.766778 16.649197 0.787237 1.861166 0.011802 0.001948 -441354.000000 1 0 0
-3.302829 16.981449 4.473022 17.868582 -1.378698 1.317776 -0.006728 -0.000572 -307223.000000 1 0 0
3.964671 15.550349 -6.786678 17.423862 1.321158 1.970890 0.002910 -0.002003 22465.900000 1 0 0
-4.519929 14.035849 9.522722 17.553263 -1.259255 0.997381 -0.000012 -0.003887 220911.000000 1 0 0
6.181071 17.955849 0.616322 18.999947 1.239265 1.538353 -0.005143 -0.006575 25592.700000 1 0 0
9.785671 10.685749 -2.140578 14.646729 0.829337 1.717469 0.001429 0.002023 -1751930.000000 1 0 0
7.543771 18.238549 -2.421978 19.885148 1.178607 1.692898 0.003314 0.001326 -203448.000000 1 0 0
3.487471 10.311149 10.513022 15.132940 1.244651 0.802778 -0.003146 0.006406 409045.000000 1 0 0
0.138271 18.526949 2.008422 18.636006 1.563333 1.462816 -0.007435 -0.003224 -329200.000000 1 0 0
-0.947329 17.143649 -7.515078 18.742426 -1.515594 1.983368 0.012217 -0.002289 33113.900000 1 0 0
9.962071 8.589049 13.093522 18.559497 0.711520 0.787683 0.009983 -0.003726 -187872.000000 1 0 0
3.821271 11.551849 5.697422 13.435324 1.251334 1.132869 -0.003561 0.006064 420623.000000 1 0 0
13.178871 14.028049 8.072722 20.871934 0.816600 1.173666 0.026802 0.000174 72350.300000 1 0 0
-0.580229 17.537349 6.848322 18.835997 -1.537723 1.198692 -0.002711 0.005769 -463778.000000 1 0 0
12.015271 13.655349 5.766622 19.081122 0.849201 1.263780 0.014801 0.006025 -322684.000000 1 0 0
4.989571 14.714049 -4.490278 16.172868 1.243863 1.852136 0.001588 0.000004 -895110.000000 1 0 0
3.767171 17.686349 4.688422 18.681002 1.360934 1.317111 0.003362 -0.002479 -793001.000000 1 0 0
7.117171 11.591449 2.067322 13.758257 1.020145 1.419965 0.001551 0.002243 427833.000000 1 0 0
6.347171 8.628049 11.761322 15.907813 0.936547 0.738703 -0.000337 0.002019 395478.000000 1 0 0
-5.432529 14.932449 1.719322 15.982693 -1.221875 1.463014 0.001742 0.002447 213008.000000 1 0 0
6.799971 13.808449 6.079122 16.548976 1.113207 1.194647 0.005660 0.003345 -412078.000000 1 0 0
5.820671 15.925049 4.870222 17.641045 1.220377 1.291090 0.001334 -0.006497 499302.000000 1 0 0
1.188071 17.983149 4.373622 18.545450 1.504826 1.332721 0.004055 -0.001139 -236291.000000 1 0 0
7.341871 18.130649 -6.979078 20.768510 1.186036 1.913507 -0.003596 0.005831 402000.000000 1 0 0
-2.389529 18.731849 -5.887278 19.780092 -1.443917 1.873012 0.009266 -0.003706 -2036260.000000 1 0 0
13.505971 10.257549 -4.534678 17.555394 0.649542 1.832065 0.021868 0.008713 -1062610.000000 1 0 0
-1.318329 17.945149 10.074122 20.621695 -1.497464 1.060403 0.001630 0.000440 -168392.000000 1 0 0
3.427971 11.785849 -1.569778 12.374224 1.287751 1.697998 0.002347 -0.001074 347093.000000 1 0 0
4.302571 13.938249 -10.920178 18.221888 1.271388 2.213409 0.000848 -0.011281 -240442.000000 1 0 0
11.628471 13.453549 2.418022 17.946201 0.858035 1.435648 0.016287 0.005866 671780.000000 1 0 0
15.876271 6.582849 -7.046778 18.575440 0.393058 1.959901 0.003180 0.005858 42735.000000 1 0 0
2.502371 16.060349 3.008622 16.530229 1.416229 1.387769 0.002780 -0.001342 -267098.000000 1 0 0
13.497471 10.530849 3.563922 17.486625 0.662556 1.365550 0.012893 0.009482 852161.000000 1 0 0
-4.924629 19.252549 -6.109878 20.790460 -1.320375 1.869079 -0.001571 -0.004610 -495757.000000 1 0 0
5.505571 12.045449 0.033022 13.244064 1.142081 1.568303 0.000308 0.001261 198817.000000 1 0 0
5.128971 15.321549 9.714622 18.852854 1.247766 1.029454 0.013061 0.000732 43459.700000 1 0 0
7.620571 9.243249 13.934522 18.376116 0.881325 0.710102 0.000511 -0.005907 -1519530.000000 1 0 0
-4.921729 13.589449 7.033422 16.073754 -1.223319 1.117900 -0.007213 0.000432 -879403.000000 1 0 0
-4.424929 17.048749 0.441122 17.619149 -1.316854 1.545757 -0.001251 -0.002416 -2859920.000000 1 0 0
-0.585729 16.455749 3.502022 16.834456 -1.535217 1.361239 -0.004877 -0.001368 -1506510.000000 1 0 0
7.860471 17.094249 -4.745378 19.404097 1.139797 1.817858 -0.001796 0.004817 -59596.400000 1 0 0
3.146271 16.489949 -4.516478 17.384361 1.382263 1.833613 -0.002081 -0.000409 -848903.000000 1 0 0
9.479671 14.529749 8.285722 19.225789 0.992713 1.125230 0.017233 0.004918 426449.000000 1 0 0
12.814871 10.906549 9.190422 19.173878 0.705124 1.070917 0.025342 -0.003212 1210190.000000 1 0 0
3.528171 12.231149 12.269022 17.679873 1.289962 0.803830 -0.003034 0.006772 228724.000000 1 0 0
-3.281729 19.160349 5.971322 20.335816 -1.401165 1.272768 -0.003250 0.001288 -71943.900000 1 0 0
-2.689329 15.746149 10.107522 18.903325 -1.401636 1.006649 -0.001271 -0.004331 -867374.000000 1 0 0
2.143671 14.264949 7.689522 16.346646 1.421637 1.081048 -0.000137 0.003846 -109622.000000 1 0 0
4.316371 17.194249 8.076222 19.480724 1.324843 1.143321 0.011727 -0.009079 -226340.000000 1 0 0
-1.900229 13.430549 9.363522 16.482295 -1.430244 0.966606 -0.003115 -0.000196 -1377650.000000 1 0 0
5.791071 17.912449 3.116022 19.081455 1.258104 1.406761 -0.004444 -0.005668 587705.000000 1 0 0
7.454971 15.492949 -6.714478 18.457851 1.122314 1.943112 0.007929 -0.000088 -196470.000000 1 0 0
11.037071 7.616549 9.568522 16.473778 0.604043 0.951044 0.009077 0.004818 1036260.000000 1 0 0
9.101571 16.108249 -2.727278 18.701666 1.056490 1.717149 0.006306 -0.014398 -21447.700000 1 0 0
14.634471 11.287949 -6.583978 19.619742 0.657011 1.913016 0.038624 0.002697 581750.000000 1 0 0
10.873371 6.516649 16.133622 20.518057 0.539921 0.665977 0.010620 -0.008011 -228740.000000 1 0 0
8.462671 8.482649 10.293622 15.796544 0.786577 0.861055 0.002159 0.002747 1161170.000000 1 0 0
16.488171 9.277549 4.438922 19.432877 0.512525 1.340338 0.023692 0.005234 55381.700000 1 0 0
-3.235829 14.235049 4.664322 15.325244 -1.347280 1.261535 -0.011456 0.001623 -1071170.000000 1 0 0
4.779871 14.551549 12.891122 20.019385 1.253421 0.871170 0.005786 0.007371 -1402800.000000 1 0 0
16.071771 10.618249 -4.520478 19.785948 0.583844 1.801301 0.031661 0.000236 211679.000000 1 0 0
14.618971 13.979349 5.872222 21.062277 0.763036 1.288249 0.021545 0.003742 -43727.400000 1 0 0
6.160471 9.563149 9.401322 14.757712 0.998517 0.880138 -0.002357 0.009097 268195.000000 1 0 0
10.581571 12.311949 8.815422 18.473370 0.860838 1.073335 0.016551 0.002881 -69288.400000 1 0 0
8.010171 11.497249 -0.339578 14.016593 0.962286 1.595026 0.000461 0.002150 -297712.000000 1 0 0
7.584471 13.580249 -8.520178 17.735298 1.061456 2.071916 0.006104 -0.002007 -1528140.000000 1 0 0
2.851571 15.290449 -2.226678 15.712650 1.386421 1.712987 -0.003219 -0.000020 442077.000000 1 0 0
12.289471 13.671149 -7.815578 19.975351 0.838570 1.972798 0.026606 -0.009126 348611.000000 1 0 0
-8.092329 14.680149 9.708122 19.371118 -1.066999 1.045852 0.014593 -0.015323 191471.000000 1 0 0
11.466371 9.468249 2.228722 15.036376 0.690241 1.422026 0.006211 0.007123 -1723680.000000 1 0 0
12.054471 8.750749 4.581322 15.584428 0.627920 1.272421 0.004182 0.004612 -6445.100000 1 0 0
14.086771 8.042049 6.106622 17.332123 0.518743 1.210737 0.007657 0.003817 -1979880.000000 1 0 0
16.210371 7.463749 7.288422 19.277053 0.431494 1.183066 0.018111 0.001557 -486225.000000 1 0 0
13.605971 8.146249 2.511222 16.055842 0.539482 1.413746 0.002242 0.008780 -1740420.000000 1 0 0
-3.963729 17.201049 -7.295078 19.099879 -1.344315 1.962695 -0.001664 -0.010689 -512265.000000 1 0 0
2.892871 19.607549 -4.094778 20.238377 1.424314 1.774530 -0.014705 0.001880 318260.000000 1 0 0
-0.087929 14.878449 6.246222 16.136644 -1.564887 1.173330 -0.002540 0.004868 1175180.000000 1 0 0
6.799171 16.471149 8.118522 19.581570 1.179311 1.143293 0.018516 0.004215 322398.000000 1 0 0
12.759471 15.042149 -2.040078 19.830085 0.867320 1.673857 0.031868 -0.009331 -953884.000000 1 0 0
12.525571 15.830649 4.179722 20.614787 0.901430 1.366627 0.025775 0.000122 -45304.400000 1 0 0
3.010871 18.093249 1.403322 18.395660 1.405899 1.494437 0.007889 -0.007204 -971545.000000 1 0 0
10.380771 14.514449 -1.166678 17.882695 0.949940 1.636083 0.007293 0.006080 -1600130.000000 1 0 0
-6.360829 15.702349 -0.657578 16.954537 -1.185912 1.609591 0.004764 -0.000325 -282419.000000 1 0 0
-3.881329 15.882449 -2.530478 16.544492 -1.331115 1.724349 0.001060 -0.000139 -266658.000000 1 0 0
-6.766029 17.144449 1.514222 18.493354 -1.194912 1.488825 0.004234 0.002901 610021.000000 1 0 0
-0.065729 19.496149 -6.624178 20.590869 -1.567425 1.898326 0.003171 0.002979 550143.000000 1 0 0
4.844871 14.838249 7.102522 17.149117 1.255197 1.143774 0.008953 -0.000133 -868908.000000 1 0 0
8.764571 12.393849 6.925322 16.684882 0.955274 1.142781 0.012586 0.004232 651988.000000 1 0 0
-7.534929 17.490349 -5.638678 19.861575 -1.164019 1.858654 0.013458 -0.006322 143966.000000 1 0 0
-7.880429 17.732349 -1.298678 19.447980 -1.152601 1.637623 0.023510 -0.000470 -44752.800000 1 0 0
-13.790629 -9.049251 9.247422 18.909924 0.580713 1.059825 0.007952 -0.003889 -970222.000000 1 0 0
-12.708729 -12.718951 7.813622 19.604494 0.785800 1.160847 0.020987 -0.001558 -46902.100000 1 0 0
-3.854229 -15.204351 12.341422 19.958409 1.322531 0.904146 -0.014222 0.002109 105142.000000 1 0 0
-2.177129 -13.925551 15.060522 20.627171 1.415711 0.752284 -0.010943 0.004772 -1815050.000000 1 0 0
-6.905929 -13.846551 12.801622 20.082340 1.108151 0.879603 0.003776 0.006032 255350.000000 1 0 0
-9.902929 -11.521951 8.982822 17.649772 0.860822 1.036834 0.011979 -0.002551 419662.000000 1 0 0
-10.602929 -10.715451 11.344222 18.866223 0.790676 0.925672 0.016700 -0.000590 268583.000000 1 0 0
-5.881029 -12.362651 10.759922 17.412569 1.126769 0.904677 0.007162 0.000419 636850.000000 1 0 0
-12.563329 -10.168851 7.329122 17.747079 0.680451 1.145077 0.009850 0.000533 -171189.000000 1 0 0
-7.341729 -11.372051 12.701122 18.561870 0.997525 0.817210 0.003100 0.005889 -91216.500000 1 0 0
-14.936929 -11.404251 7.463022 20.220423 0.652081 1.192774 0.010184 0.007990 880672.000000 1 0 0
-11.175329 -9.140351 9.332622 17.191039 0.685563 0.996937 0.015791 -0.000365 -339776.000000 1 0 0
-4.870629 -12.101051 13.114422 18.497203 1.188140 0.782724 -0.004784 0.001633 7066.880000 1 0 0
4.071271 -12.548351 14.459022 19.572932 -1.257065 0.739619 0.003010 0.001691 -377503.000000 1 0 0
6.651671 -12.664251 14.094522 20.081921 -1.087167 0.792803 0.021065 0.000324 -747439.000000 1 0 0
6.628471 -8.505951 16.152822 19.421676 -0.908821 0.588651 0.002479 0.006404 113211.000000 1 0 0
0.665871 -1.910051 14.349122 14.490997 -1.235357 0.140047 -0.004868 -0.002022 -1743960.000000 1 0 0
-0.097629 -6.455851 15.435422 16.731402 1.555675 0.396179 -0.000834 -0.006383 -53549.100000 1 0 0
-1.350629 -4.538351 18.088122 18.697620 1.281540 0.256032 0.001034 -0.026357 -1198020.000000 1 0 0
-5.247729 12.627649 12.690022 18.655638 -1.176936 0.822727 -0.000349 -0.011790 408284.000000 1 0 0
-4.181929 8.822849 11.646522 15.197785 -1.128174 0.697687 -0.009656 0.000156 -296990.000000 1 0 0
-0.784629 -4.056251 14.999422 15.558004 1.379719 0.268775 -0.003099 -0.003893 177406.000000 1 0 0
-4.454129 9.283549 14.182822 17.526437 -1.123449 0.627965 -0.007380 -0.000602 232261.000000 1 0 0
-13.225629 -2.231651 16.949922 21.614749 0.167162 0.669418 -0.005016 0.007579 115440.000000 1 0 0
-0.334529 0.926449 17.383722 17.411606 -1.224278 0.056601 -0.001798 0.001966 -1772330.000000 1 0 0
-3.501329 -7.392451 15.361922 17.403916 1.128462 0.489282 -0.001236 -0.007716 14803.300000 1 0 0
-7.427029 5.578749 12.531522 15.598790 -0.644231 0.637872 0.001606 -0.005847 -2329940.000000 1 0 0
-9.816329 10.043949 13.370222 19.390824 -0.796859 0.809980 0.000317 -0.018444 1074120.000000 1 0 0
-5.624529 2.261349 11.131822 12.675429 -0.382273 0.498668 -0.000566 0.000378 51649.600000 1 0 0
-7.145829 -7.279551 16.918822 19.756044 0.794668 0.542565 0.011580 -0.006478 -194227.000000 1 0 0
-4.813329 2.927749 18.628722 19.461992 -0.546470 0.293681 0.002722 0.000009 66648.100000 1 0 0
1.096671 -8.378151 16.559122 18.590337 -1.440640 0.471830 -0.007306 0.001644 516484.000000 1 0 0
-14.838729 -3.567851 13.930222 20.663217 0.235963 0.830976 0.006172 -0.002541 168970.000000 1 0 0
-14.284329 1.878949 13.029022 19.424930 -0.130788 0.835594 -0.004412 -0.002243 -720400.000000 1 0 0
-5.394129 0.935349 16.060222 16.967682 -0.171694 0.328528 0.004709 0.001544 -380085.000000 1 0 0
4.640271 5.706249 15.447622 17.109133 0.888064 0.444356 -0.000502 0.004102 28399.300000 1 0 0
-1.122529 -11.930251 13.957022 18.395364 1.476982 0.709443 -0.015675 -0.000690 -110653.000000 1 0 0
-5.783129 -4.163851 16.814822 18.262543 0.624023 0.400856 0.008153 -0.005210 235316.000000 1 0 0
-12.792729 -1.463351 9.877022 16.228089 0.113894 0.916454 -0.003905 -0.000711 -833208.000000 1 0 0
-14.140629 10.588949 10.523322 20.562673 -0.642753 1.033555 -0.013741 0.005304 345605.000000 1 0 0
-3.377629 -3.157751 17.583222 18.181019 0.751767 0.257146 0.006698 -0.014513 -794453.000000 1 0 0
-7.888929 9.343949 11.915622 17.074151 -0.869631 0.798370 -0.006069 -0.010051 39374.900000 1 0 0
-4.040429 10.565449 16.497122 20.002720 -1.205537 0.601047 -0.014992 0.006492 242529.000000 1 0 0
-12.297029 12.781449 8.251622 19.561995 -0.804712 1.135346 0.000453 -0.015120 -315977.000000 1 0 0
-12.745929 3.199649 10.426122 16.774996 -0.245951 0.900105 -0.002642 -0.003817 751964.000000 1 0 0
-10.056129 -3.435151 13.663022 17.309078 0.329170 0.661037 -0.000841 0.001911 -1783830.000000 1 0 0
-4.075329 -6.432751 17.782622 19.344514 1.006088 0.404602 0.009574 -0.004480 -470168.000000 1 0 0
1.127771 -3.770351 17.959122 18.385252 -1.280151 0.215722 -0.006470 -0.007402 -904417.000000 1 0 0
-6.014829 1.851549 13.659122 15.039216 -0.298625 0.431753 0.003253 0.003827 -361668.000000 1 0 0
-10.507829 8.710949 10.299022 17.098683 -0.692173 0.924382 -0.004598 -0.012614 -49173.200000 1 0 0
4.454071 2.357349 17.416322 18.130751 0.486778 0.281659 -0.007561 -0.004795 -1832690.000000 1 0 0
0.414371 -5.361251 13.133322 14.191507 -1.493660 0.388613 -0.003288 -0.002800 -628578.000000 1 0 0
-4.502829 5.804049 20.587922 21.859208 -0.910981 0.342726 0.024185 -0.007842 -403682.000000 1 0 0
-10.680929 10.869649 8.958622 17.677342 -0.794155 1.039344 -0.005732 -0.012908 -938866.000000 1 0 0
0.626371 4.034149 12.966722 13.594211 1.416759 0.305018 0.001118 0.000374 -2870100.000000 1 0 0
-3.166829 7.136849 13.321022 15.440630 -1.153169 0.530162 -0.005315 -0.001341 -1071280.000000 1 0 0
0.742571 8.825349 14.266022 16.791593 1.486853 0.555583 -0.006726 0.005609 376629.000000 1 0 0
-4.220229 -6.715251 13.019522 15.245094 1.009717 0.547144 0.004020 -0.002162 -299766.000000 1 0 0
-5.121229 8.169349 16.478022 19.091633 -1.010844 0.529417 0.002021 0.000869 714786.000000 1 0 0
1.771871 -10.758151 15.859522 19.245825 -1.407561 0.602273 -0.010001 0.009461 208512.000000 1 0 0
-15.012629 -1.055451 14.342822 20.789650 0.070189 0.809443 0.001197 0.000396 35323.400000 1 0 0
-13.706429 -5.107051 8.515022 16.924945 0.356667 1.043609 0.006298 0.000553 -648355.000000 1 0 0
-13.972629 -1.755451 12.134122 18.589053 0.124980 0.859579 -0.001130 -0.000163 163204.000000 1 0 0
9.364871 1.293549 17.023222 19.472138 0.137259 0.506939 0.018945 -0.011584 -594877.000000 1 0 0
4.951171 -6.727351 16.736822 18.705415 -0.936331 0.462907 -0.000792 -0.003874 -556548.000000 1 0 0
-6.093129 -2.608551 11.017022 12.857120 0.404505 0.541608 -0.003604 0.001381 156567.000000 1 0 0
0.566471 -6.345951 17.959722 19.056327 -1.481767 0.340899 -0.005618 -0.007131 -419482.000000 1 0 0
-8.271129 11.929149 12.389622 19.084520 -0.964544 0.864267 -0.006179 -0.004685 -60792.400000 1 0 0
-6.579829 -5.778051 14.842222 17.232863 0.720609 0.533024 0.006961 -0.003075 -1734480.000000 1 0 0
-4.357329 -8.939751 17.293722 19.949393 1.117271 0.521888 0.009531 0.000511 46397.500000 1 0 0
2.472171 -6.110451 16.224122 17.512035 -1.186347 0.385912 -0.008104 -0.006468 -349099.000000 1 0 0
2.183071 5.214349 16.009022 16.977751 1.174303 0.339440 -0.001536 -0.004257 -2330960.000000 1 0 0
1.054571 -8.930751 14.063522 16.692905 -1.453258 0.568917 -0.011689 0.000301 -855524.000000 1 0 0
-9.999529 -2.724951 11.266922 15.308804 0.266048 0.743688 -0.003378 0.001905 11630.800000 1 0 0
-1.239429 10.078049 12.420922 16.043147 -1.448428 0.685315 -0.010155 -0.000287 -397765.000000 1 0 0
-12.347629 -3.676151 11.327122 17.154642 0.289365 0.849585 0.000152 0.001483 -2165920.000000 1 0 0
-2.025529 6.626349 20.200222 21.355567 -1.274139 0.330440 -0.001757 0.002963 -127875.000000 1 0 0
0.229071 -13.315351 15.766022 20.637793 -1.553595 0.701400 -0.018499 0.003898 -340176.000000 1 0 0
4.086471 -8.807351 15.411322 18.214761 -1.136374 0.562190 -0.003112 0.004232 -761376.000000 1 0 0
4.428671 -4.408751 16.172422 17.337746 -0.783144 0.368727 -0.005568 -0.000305 -899785.000000 1 0 0
8.043971 1.735849 14.794422 16.929074 0.212536 0.507615 -0.005070 -0.003903 316931.000000 1 0 0
-6.280629 -0.077251 11.891922 13.448795 0.012299 0.485939 -0.002355 0.001629 189051.000000 1 0 0
-3.253329 -10.837651 18.696122 21.853691 1.279167 0.544255 0.001656 0.001287 -1256170.000000 1 0 0
3.240271 -1.644251 13.510422 13.990512 -0.469584 0.262730 -0.005709 -0.002062 873507.000000 1 0 0
-2.562529 8.604649 15.765922 18.143066 -1.281352 0.517663 -0.009415 -0.000353 -1706730.000000 1 0 0
-3.305629 4.039249 14.818522 15.710866 -0.884950 0.338656 -0.001061 -0.002206 -1284650.000000 1 0 0
-4.325229 -8.947151 19.981422 22.316280 1.120501 0.461525 0.009234 -0.003724 -4567.500000 1 0 0
-5.476829 -2.957151 19.053022 20.043903 0.495086 0.315748 0.008800 -0.012706 -1258620.000000 1 0 0
-6.648929 -8.729451 11.090222 15.601429 0.919870 0.780095 0.006747 -0.001463 -148452.000000 1 0 0
-11.768229 2.621749 12.680022 17.497078 -0.219202 0.760207 0.001263 -0.006156 -552877.000000 1 0 0
-11.610529 -7.557651 11.768222 18.177281 0.577029 0.866610 0.005944 0.003533 -370837.000000 1 0 0
-10.898729 -7.117451 15.770922 20.449019 0.578519 0.690023 0.010217 -0.006929 -1235950.000000 1 0 0
0.172971 5.595949 17.695622 18.560162 1.539896 0.306420 -0.003562 -0.002800 67676.900000 1 0 0
-2.060329 -0.048851 13.256722 13.415961 0.023706 0.154227 0.000903 0.002608 287543.000000 1 0 0
-5.804829 -10.548851 18.610922 22.166207 1.067738 0.574235 0.002631 0.007399 -123808.000000 1 0 0
0.327071 2.717549 19.314422 19.507408 1.451017 0.140778 0.001417 -0.002517 44707.300000 1 0 0
-0.749329 10.791349 14.887722 18.402689 -1.501470 0.628352 -0.013238 0.005045 629516.000000 1 0 0
-12.715629 -2.286251 14.433322 19.370982 0.177898 0.730111 0.005093 0.003415 -1083710.000000 1 0 0
-13.582829 8.430149 11.812322 19.876912 -0.555463 0.934434 -0.002529 -0.007468 189194.000000 1 0 0
-18.034929 -0.473951 6.874722 19.306608 0.026274 1.206725 0.016930 -0.007366 -966986.000000 1 0 0
-1.978729 -7.930551 17.500922 19.315571 1.326282 0.436936 -0.000962 -0.007327 -1640670.000000 1 0 0
5.571971 2.444649 14.521822 15.745046 0.413451 0.396779 -0.004479 -0.001922 -2789240.000000 1 0 0
-14.078129 -6.658151 11.359022 19.275686 0.441769 0.940613 0.006255 0.004144 200446.000000 1 0 0
3.253771 7.636549 16.388722 18.371013 1.168012 0.468832 -0.007745 -0.005372 -55297.700000 1 0 0
0.865971 1.911649 14.550622 14.701187 1.145453 0.143243 -0.000784 -0.002030 -2291770.000000 1 0 0
-14.355829 0.717049 9.784122 17.387727 -0.049907 0.973145 0.000886 -0.003278 -1208970.000000 1 0 0
-9.466429 -5.116751 15.625022 18.971972 0.495532 0.603094 -0.000067 0.005721 -666208.000000 1 0 0
-2.530629 -0.094751 18.261322 18.436077 0.037424 0.137797 -0.000555 0.001767 45347.100000 1 0 0
6.623371 3.593649 17.766222 19.298238 0.497122 0.401147 0.005708 -0.004943 -621930.000000 1 0 0
-4.096629 -0.875751 14.647122 15.234418 0.210604 0.278571 0.002938 0.003719 -420186.000000 1 0 0
4.752071 -8.995451 17.913322 20.600666 -1.084786 0.516505 -0.000563 0.007489 -170451.000000 1 0 0
1.788171 6.696049 13.457822 15.137622 1.309837 0.475571 -0.005189 0.003162 -871308.000000 1 0 0
-3.589129 -0.898351 20.486622 20.818035 0.245259 0.178672 0.004807 -0.001314 -356027.000000 1 0 0
-10.531729 1.770149 16.032622 19.263845 -0.166521 0.587616 0.007940 -0.017005 -777074.000000 1 0 0
-3.828229 7.056849 18.368222 20.046098 -1.073742 0.412057 0.001114 -0.000946 310829.000000 1 0 0
-12.551729 1.062349 14.624422 19.301508 -0.084436 0.711041 0.002182 -0.003501 227575.000000 1 0 0
-16.209629 -4.602751 8.691822 18.960094 0.276669 1.094572 0.014639 -0.001213 -534428.000000 1 0 0
-2.396229 0.759949 15.805422 16.004087 -0.307110 0.157729 0.001655 0.004532 -444920.000000 1 0 0
-13.724529 -9.012051 12.414222 20.583796 0.581028 0.923406 0.001741 -0.003137 433562.000000 1 0 0
6.106371 -3.135551 14.542822 16.081453 -0.474380 0.441006 -0.002506 -0.001573 670481.000000 1 0 0
-15.708829 0.580649 7.535622 17.432443 -0.036946 1.123781 0.003116 -0.002462 418711.000000 1 0 0
-14.010529 5.840549 12.056022 19.384391 -0.394963 0.899572 0.000783 -0.018134 326610.000000 1 0 0
0.157871 9.264049 16.828222 19.210325 1.553757 0.503293 -0.007920 -0.001612 -400025.000000 1 0 0
-10.322429 -5.441551 10.940522 15.995563 0.485137 0.817602 -0.004664 0.002000 111695.000000 1 0 0
-3.171029 -10.904351 15.276322 19.034871 1.287797 0.639249 -0.005711 0.003735 -594086.000000 1 0 0
-3.602429 2.898749 12.564822 13.388614 -0.677579 0.352621 -0.001529 0.000196 -1212560.000000 1 0 0
-12.402229 -7.588851 7.587722 16.400594 0.549119 1.089815 0.006976 0.003841 798764.000000 1 0 0
-8.203829 -1.865351 13.239422 15.686448 0.223574 0.566091 -0.001128 0.001924 -804571.000000 1 0 0
-9.726229 6.464449 9.525322 15.070514 -0.586599 0.886600 -0.007221 -0.005044 -941864.000000 1 0 0
-17.991329 -3.469651 6.784822 19.538685 0.190512 1.216159 0.014623 -0.004834 358986.000000 1 0 0
-1.229329 -0.009351 20.646522 20.683090 0.007606 0.059473 -0.003325 -0.000445 -1068210.000000 1 0 0
-2.884029 2.562549 20.343422 20.706016 -0.726442 0.187419 0.003730 0.004043 -425928.000000 1 0 0
-3.644929 11.238049 11.199022 16.278739 -1.257163 0.812130 -0.007829 -0.004766 -1419480.000000 1 0 0
-4.195829 -4.915851 14.880022 16.222997 0.864256 0.409757 0.001945 -0.005116 260017.000000 1 0 0
-0.256329 -14.318851 13.403122 19.614762 1.552897 0.818499 -0.005420 -0.004498 -206821.000000 1 0 0
-12.126029 0.560149 8.313022 14.712603 -0.046161 0.970330 0.000149 -0.004672 -309523.000000 1 0 0
-7.701229 1.893849 15.668622 17.561358 -0.241130 0.468556 -0.001236 0.004066 -1206660.000000 1 0 0
3.517971 -2.204651 18.455322 18.916541 -0.559808 0.221276 -0.002358 -0.005966 -385597.000000 1 0 0
-2.097429 4.902549 12.590622 13.673257 -1.166536 0.400616 -0.006100 0.002064 -498851.000000 1 0 0
-10.379429 -6.148551 13.416522 18.042735 0.534797 0.732362 0.000080 -0.000962 -361482.000000 1 0 0
2.318071 -3.957451 14.254922 14.974568 -1.040922 0.311281 -0.006708 -0.001492 -258634.000000 1 0 0
6.703771 1.098149 16.944622 18.255593 0.162369 0.381283 -0.004440 -0.010325 -735194.000000 1 0 0
-2.029329 -6.000451 13.759422 15.147451 1.244676 0.431438 -0.001768 -0.003030 -2544350.000000 1 0 0
-13.138229 3.646849 14.526922 19.923454 -0.270759 0.753737 0.005018 -0.004815 286645.000000 1 0 0
-13.285829 -6.914951 13.804322 20.368827 0.479894 0.826141 0.003501 0.006984 -253525.000000 1 0 0
-9.581829 6.915149 12.125022 16.930650 -0.625138 0.772514 -0.000804 -0.004663 -518754.000000 1 0 0
-1.212829 -2.534151 12.809322 13.113795 1.124420 0.215908 -0.002590 -0.000160 596802.000000 1 0 0
-0.010329 6.521249 15.334922 16.663932 -1.569212 0.402087 -0.003477 -0.003631 471696.000000 1 0 0
-16.395829 -0.765951 9.684622 19.057854 0.046682 1.037738 0.007198 0.000473 -61769.900000 1 0 0
-1.332229 2.732149 13.731622 14.064029 -1.117108 0.217848 -0.003884 0.000236 -2289360.000000 1 0 0
-11.100329 -3.338851 16.172122 19.897305 0.292180 0.621889 0.002950 -0.003267 325207.000000 1 0 0
-5.181929 -1.490751 16.979122 17.814750 0.280119 0.307499 0.012126 0.001112 300353.000000 1 0 0
-11.823029 6.684649 11.027222 17.494804 -0.514584 0.888839 -0.002535 -0.003868 -3152310.000000 1 0 0
-2.847429 4.714949 18.802722 19.592880 -1.027503 0.284966 0.002053 -0.000317 263188.000000 1 0 0
5.081071 -1.866251 16.420722 17.289890 -0.351998 0.318425 -0.007683 -0.003520 135910.000000 1 0 0
-8.021429 -4.106751 12.150222 15.127347 0.473180 0.638156 0.001008 0.001890 -1603590.000000 1 0 0
-11.261129 -0.735051 16.108822 19.668439 0.065181 0.611097 0.000342 -0.003125 285569.000000 1 0 0
1.932471 2.064149 17.312422 17.541810 0.818334 0.161897 -0.004725 -0.008120 -1166060.000000 1 0 0
-8.916929 -7.464251 11.678122 16.480449 0.696950 0.783278 0.005460 -0.000281 -224089.000000 1 0 0
-7.242629 6.776049 14.894922 17.894950 -0.752128 0.587456 -0.003593 -0.007240 -616448.000000 1 0 0
-5.706929 3.511249 15.690222 17.061095 -0.551565 0.403610 0.001056 -0.000580 -551898.000000 1 0 0
-9.310629 4.303949 11.530222 15.432363 -0.433004 0.727039 -0.003995 -0.005504 100279.000000 1 0 0
-10.090629 0.184149 13.971422 17.235293 -0.018247 0.625571 -0.000900 -0.003930 6727.540000 1 0 0
8.028371 -0.641251 15.890022 17.814565 -0.079704 0.469117 -0.002271 -0.006378 37585.600000 1 0 0
-8.616229 -7.411351 14.726022 18.601700 0.710364 0.657293 0.013313 -0.002530 -1378280.000000 1 0 0
-0.088429 3.979149 15.668722 16.166332 -1.548577 0.248756 -0.000141 -0.005691 297880.000000 1 0 0
-8.042229 3.125749 9.634222 12.933135 -0.370699 0.730373 -0.000210 -0.004239 -613907.000000 1 0 0
-2.096229 -9.640151 13.287122 16.549148 1.356682 0.638671 -0.010747 0.001619 445098.000000 1 0 0
-5.988429 10.372849 10.558122 15.966566 -1.047222 0.848293 -0.002345 -0.006232 -2166260.000000 1 0 0
-8.518729 -2.703851 15.640422 18.013949 0.307343 0.519153 0.004279 -0.001864 -920910.000000 1 0 0
3.862971 5.668249 17.930522 19.197792 0.972588 0.365378 -0.005787 -0.007532 313628.000000 1 0 0
-6.740529 -0.985851 15.185122 16.643154 0.145228 0.421700 0.001607 0.000801 -1806850.000000 1 0 0
-0.747129 -9.956251 15.535522 18.467203 1.495895 0.571206 -0.013947 0.005486 -1634470.000000 1 0 0
-4.378129 5.693849 16.306022 17.817808 -0.915294 0.414909 -0.002643 -0.000794 345584.000000 1 0 0
3.512871 0.027349 17.362922 17.714742 0.007785 0.199631 -0.012164 -0.006966 -815191.000000 1 0 0
1.314171 0.287549 19.271022 19.317920 0.215411 0.069694 -0.004677 -0.005703 -611059.000000 1 0 0
-6.357129 6.314749 17.870422 19.991026 -0.782054 0.464776 0.009071 -0.005396 -1347070.000000 1 0 0
-12.056929 0.700849 10.899322 16.268250 -0.058063 0.836621 0.001386 -0.004821 -10084.800000 1 0 0
-5.296429 5.201649 13.886122 15.745911 -0.776370 0.490945 -0.001892 -0.002498 -1931910.000000 1 0 0
-8.760929 -9.467051 9.992422 16.316477 0.824117 0.911687 0.015500 -0.000506 -813025.000000 1 0 0
6.840671 -3.658651 16.946422 18.637643 -0.491128 0.429299 -0.002669 -0.006432 -468487.000000 1 0 0
-16.745129 1.889749 9.458522 19.324444 -0.112378 1.059327 0.007367 -0.002942 493502.000000 1 0 0
-4.135629 -9.548651 11.473722 15.489560 1.162075 0.736626 -0.002451 -0.001028 93270.900000 1 0 0
-11.091729 -3.961851 9.166222 14.924555 0.343065 0.909462 -0.000940 0.001872 6363.230000 1 0 0
3.622671 -5.404451 18.499322 19.610119 -0.980274 0.338192 -0.008356 -0.006015 -263620.000000 1 0 0
2.457471 -1.967051 16.022922 16.329191 -0.675007 0.193984 -0.006559 -0.002425 -222221.000000 1 0 0
-3.021829 -4.397351 19.995622 20.695242 0.968717 0.260761 0.006294 -0.018940 -890237.000000 1 0 0
-6.295729 -3.395151 14.385322 16.065514 0.494574 0.461431 0.006109 0.000580 202639.000000 1 0 0
-9.544329 4.986549 13.986022 17.651309 -0.481455 0.656144 -0.000010 -0.009998 180127.000000 1 0 0
-5.886729 -5.186551 11.596222 14.000938 0.722251 0.594826 0.003880 0.000742 9471.020000 1 0 0
6.018571 1.603449 19.413722 20.388400 0.260369 0.310456 0.004468 -0.013922 187556.000000 1 0 0
-2.733429 11.988849 13.578322 18.318705 -1.346631 0.735900 -0.008930 0.001652 1345290.000000 1 0 0
3.247871 1.328949 15.196522 15.596444 0.388391 0.226946 -0.006635 -0.001247 -1540670.000000 1 0 0
-5.749529 7.476949 12.961922 16.030386 -0.915266 0.629054 -0.009301 -0.005425 -1512660.000000 1 0 0
-1.715729 -1.670751 15.282222 15.468725 0.772117 0.155442 0.002838 0.002189 -266569.000000 1 0 0
-7.319929 10.296449 14.284122 19.069199 -0.952780 0.724143 0.012675 -0.010306 -242465.000000 1 0 0
-10.235229 2.193149 10.548222 14.860512 -0.211083 0.781560 0.002166 -0.004455 -1268780.000000 1 0 0
-13.599729 5.352349 9.023222 17.176112 -0.374945 1.017687 -0.005605 -0.007813 -348219.000000 1 0 0
0.361771 -5.082351 20.114122 20.749436 -1.499734 0.248096 -0.009472 -0.009852 -266024.000000 1 0 0
-14.492829 -2.873351 7.547122 16.590880 0.195722 1.098541 0.004069 -0.004020 253463.000000 1 0 0
-2.376929 2.464249 17.678522 18.007011 -0.803433 0.191301 -0.005330 0.002325 230153.000000 1 0 0
-6.288629 -8.412451 14.715722 18.079510 0.928873 0.619886 0.010930 -0.000699 -540969.000000 1 0 0
-8.095329 1.931449 11.991222 14.596378 -0.234210 0.606724 -0.001109 0.000202 494020.000000 1 0 0
-14.613429 -3.224951 10.133422 18.073153 0.217203 0.975578 0.006278 -0.005972 1103410.000000 1 0 0
-0.637029 7.150949 12.856822 14.725480 -1.481948 0.509271 -0.004900 0.000192 -1272840.000000 1 0 0
-1.592929 -2.285551 19.404022 19.602991 0.962116 0.142598 0.000819 -0.004783 365536.000000 1 0 0
-12.718329 10.354149 7.408322 17.995764 -0.683287 1.146510 -0.001867 -0.015725 102669.000000 1 0 0
-19.426629 2.297749 6.992322 20.774170 -0.117731 1.227506 0.011332 -0.003876 464914.000000 1 0 0
-15.905329 8.575749 6.580322 19.230798 -0.494494 1.221564 0.001861 -0.008736 568917.000000 1 0 0
-12.386829 7.100049 13.648722 19.751755 -0.520476 0.807907 0.014537 -0.014776 -30127.800000 1 0 0
-15.795229 8.605549 10.342622 20.748845 -0.498857 1.048966 0.000606 0.003668 -6029.870000 1 0 0
1.860871 10.760749 15.495822 18.957243 1.399559 0.613897 -0.006861 0.008110 128529.000000 1 0 0
2.324671 14.472249 12.688522 19.386817 1.411527 0.857285 -0.005052 0.006395 -839285.000000 1 0 0
-3.156829 13.709549 11.644722 18.262444 -1.344476 0.879376 -0.012232 -0.000752 306026.000000 1 0 0
8.916671 4.713149 15.874222 18.807225 0.486247 0.566007 0.005502 -0.001544 -63385.100000 1 0 0
-0.222229 12.475449 13.048622 18.054162 -1.552985 0.763025 -0.011092 0.005351 -343157.000000 1 0 0
3.605871 13.217949 14.738722 20.123280 1.304476 0.748925 -0.003555 0.007469 -101411.000000 1 0 0
-2.612229 -4.048651 -13.878478 14.691068 0.997796 2.807439 -0.002316 -0.006271 -871461.000000 1 0 0
5.757171 -11.551251 16.249022 20.751076 -1.108428 0.671250 0.008695 0.001760 -3750.600000 1 0 0
7.863571 -13.489651 7.373822 17.267880 -1.043020 1.129596 -0.001368 -0.007646 -823328.000000 1 0 0
-0.047429 15.455049 1.347522 15.513755 -1.567727 1.483827 -0.003787 -0.001333 -3003900.000000 1 0 0
-13.467829 8.392949 9.139822 18.312847 -0.557293 1.048244 -0.012882 -0.001189 387940.000000 1 0 0
-15.405329 -9.592451 4.870922 18.790028 0.556923 1.308572 0.000858 0.002340 -1981600.000000 1 0 0
9.373971 -11.119451 10.936522 18.196731 -0.870366 0.926025 -0.004655 -0.005410 58595.000000 1 0 0
-5.568329 -10.124651 -16.908278 20.479373 1.067970 2.542105 0.010407 -0.000068 69950.100000 1 0 0
-1.897329 -12.414251 -14.801978 19.411647 1.419135 2.438012 0.005836 0.002402 -79533.900000 1 0 0
5.533271 -15.939851 -11.854578 20.621032 -1.236677 2.183251 0.004780 0.005130 402927.000000 1 0 0
2.669471 -11.822951 -16.710378 20.643279 -1.348733 2.514067 0.003953 0.006014 316411.000000 1 0 0
0.640471 -13.901251 -14.524078 20.114766 -1.524756 2.377572 0.024996 0.008596 310494.000000 1 0 0
-6.452329 -6.340451 -14.705378 17.265052 0.776653 2.590098 0.007564 0.001930 -119109.000000 1 0 0
-5.767829 -8.097051 -17.636678 20.245555 0.951838 2.628312 -0.003583 0.000816 95980.300000 1 0 0
-2.521329 -16.315151 -13.099178 21.074385 1.417470 2.241540 0.015014 0.000278 177341.000000 1 0 0
15.327971 -7.435651 -9.735078 19.621604 -0.451659 2.089945 -0.044918 0.009406 24739.700000 1 0 0
19.164771 -3.322751 -3.418078 19.748731 -0.171672 1.744751 0.015094 -0.012213 77008.400000 1 0 0
15.487571 -11.496551 -9.304578 21.415198 -0.638560 2.020263 -0.015366 0.005121 184582.000000 1 0 0
18.297071 -2.720651 -6.591678 19.637591 -0.147612 1.913109 0.108193 -0.001449 -266118.000000 1 0 0
8.886171 -9.582151 -15.742478 20.459894 -0.823065 2.448746 0.032385 -0.001354 148684.000000 1 0 0
-4.720329 9.836549 -16.321378 19.632284 -1.123377 2.552336 0.000900 0.004945 442283.000000 1 0 0
2.377271 -9.858751 -18.331578 20.949777 -1.334180 2.636284 0.000498 0.002721 47684.800000 1 0 0
11.223771 7.958449 -14.902478 20.282845 0.616788 2.396070 0.020285 -0.030512 505110.000000 1 0 0
18.696071 -5.953251 -8.548978 21.402553 -0.308271 1.981699 0.015286 0.006407 275512.000000 1 0 0
12.325671 5.431549 -13.860378 19.327027 0.415068 2.370501 -0.004319 0.001869 141155.000000 1 0 0
16.099871 6.001649 -10.867878 20.330676 0.356820 2.134778 0.011640 -0.001425 297333.000000 1 0 0
3.657871 -0.507151 -19.172278 19.524689 -0.137768 2.951308 0.025922 -0.007641 128890.000000 1 0 0
10.543371 -1.830251 -14.653378 18.144806 -0.171880 2.510833 0.017000 -0.004657 214620.000000 1 0 0
12.379071 -5.700251 -14.268178 19.731071 -0.431531 2.379123 0.019636 0.003926 94216.700000 1 0 0
10.185371 6.765049 -13.045678 17.880083 0.586288 2.388563 0.010167 0.000315 413049.000000 1 0 0
10.445171 5.609449 -16.317678 20.170130 0.492837 2.513249 0.006088 -0.004412 437906.000000 1 0 0
11.651471 -10.818351 -14.840978 21.749669 -0.748338 2.321775 0.030133 0.002279 178169.000000 1 0 0
-1.338529 2.112649 -17.422278 17.600873 -1.006052 2.999015 0.003825 -0.005217 246183.000000 1 0 0
6.514371 -1.018051 -17.379478 18.588160 -0.155024 2.778987 0.013072 0.017652 151324.000000 1 0 0
6.305171 -5.636051 -15.856578 17.970846 -0.729422 2.651629 -0.018868 -0.004032 226869.000000 1 0 0
-2.204929 -4.545551 -20.445378 21.060323 1.119161 2.899343 0.013585 -0.021629 165641.000000 1 0 0
15.855171 -0.089851 -13.574078 20.872233 -0.005667 2.278830 -0.008535 0.010288 -37157.900000 1 0 0
-3.707229 -0.639651 -18.611278 18.987690 0.170859 2.942144 -0.000500 -0.007477 -160000.000000 1 0 0
3.479571 9.177949 -17.282778 19.875527 1.208416 2.625088 0.010456 -0.019495 -394185.000000 1 0 0
10.132371 0.374849 -16.794078 19.617505 0.036978 2.598426 0.016944 -0.011323 -118992.000000 1 0 0
4.210471 4.513249 -18.334078 19.345178 0.820092 2.816853 0.023862 0.001729 538326.000000 1 0 0
-2.846729 -10.949451 -17.927578 21.198877 1.316439 2.578644 0.014212 -0.020276 187731.000000 1 0 0
6.506271 -9.079351 -16.411078 19.851691 -0.949016 2.543985 0.024218 -0.001228 196249.000000 1 0 0
10.070771 -12.872451 -10.980978 19.690157 -0.906910 2.162395 -0.002925 0.025458 90302.500000 1 0 0
6.431571 6.919449 -17.143678 19.574207 0.821924 2.637949 0.016845 -0.002055 558093.000000 1 0 0
8.670971 1.639349 -20.052778 21.908608 0.186856 2.727029 0.022650 -0.001469 54375.600000 1 0 0
-1.437929 -0.396851 -20.049678 20.105092 0.269284 3.067330 0.014497 -0.017156 104351.000000 1 0 0
-0.959229 6.871549 -19.609278 20.800531 -1.432098 2.801518 0.019359 -0.003106 32208.100000 1 0 0
8.946071 5.632249 -18.355378 21.181934 0.561885 2.619060 0.025341 -0.004433 39135.800000 1 0 0
12.154071 0.103749 -13.046578 17.831023 0.008536 2.391578 0.004917 -0.001979 11571.700000 1 0 0
-4.103329 -2.614851 -19.816278 20.404892 0.567361 2.900817 -0.009410 -0.009705 361241.000000 1 0 0
6.329571 -11.481351 -14.554678 19.588863 -1.066962 2.408350 0.006042 -0.000773 -33219.300000 1 0 0
11.471271 2.940149 -15.560878 19.554423 0.250904 2.491079 0.023103 -0.005496 -35643.000000 1 0 0
-2.692829 -4.336951 -17.150078 17.893732 1.015148 2.852281 -0.008366 -0.008410 182510.000000 1 0 0
-6.603929 -4.585451 -17.503178 19.261347 0.606925 2.711004 0.010158 -0.013554 -114652.000000 1 0 0
2.995171 10.462749 -15.422978 18.876133 1.291983 2.527094 0.006443 -0.006451 226194.000000 1 0 0
16.966771 -6.038851 -10.953578 21.078897 -0.341941 2.117234 0.005261 0.000732 -225151.000000 1 0 0
9.442271 -2.968951 -17.643678 20.230435 -0.304644 2.630346 -0.000138 -0.001470 -25791.800000 1 0 0
-7.046129 -1.380251 -18.681878 20.014135 0.193438 2.774666 -0.007153 -0.003412 392372.000000 1 0 0
1.788371 -7.611151 -19.433978 20.947730 -1.340015 2.759099 0.003309 -0.009739 171764.000000 1 0 0
5.951671 10.504949 -13.977678 18.470296 1.055329 2.429147 0.013648 -0.007483 384952.000000 1 0 0
5.983471 -3.733251 -18.186678 19.506264 -0.557828 2.771657 0.011697 -0.005671 481972.000000 1 0 0
4.469271 13.384349 -14.903978 20.524223 1.248520 2.383524 0.007161 -0.007256 161557.000000 1 0 0
9.126171 11.194749 -15.386678 21.103537 0.886844 2.387809 0.015876 -0.016892 42737.800000 1 0 0
17.066771 0.746949 -11.643878 20.673957 0.043738 2.169068 0.004983 0.006356 235988.000000 1 0 0
15.046571 -2.853051 -12.218578 19.591652 -0.187390 2.244216 0.005985 -0.002130 344.123000 1 0 0
-8.777429 0.219749 -17.435978 19.521908 -0.025030 2.675096 0.002491 -0.000801 306974.000000 1 0 0
-3.616729 4.407849 -19.080878 19.914562 -0.883668 2.851219 0.021015 0.000543 77791.300000 1 0 0
3.995971 1.910749 -16.840178 17.412936 0.446031 2.884398 0.016097 0.002157 446023.000000 1 0 0
-5.071729 14.357849 -13.906678 20.621977 -1.231240 2.310897 -0.001804 -0.005233 268422.000000 1 0 0
0.921371 9.783249 -17.609178 20.165417 1.476895 2.632601 0.012828 0.000720 321732.000000 1 0 0
1.269371 -5.191751 -20.130778 20.828197 -1.331003 2.882082 0.005475 0.002980 416394.000000 1 0 0
3.867571 -6.328251 -18.122378 19.581252 -1.022212 2.753140 0.016330 -0.014387 24591.600000 1 0 0
-7.107729 7.384349 -16.290378 19.246424 -0.804484 2.580005 -0.005860 0.011139 42939.700000 1 0 0
-11.769229 3.183849 -17.139178 21.033380 -0.264199 2.523277 0.026217 -0.002635 312032.000000 1 0 0
-4.467729 6.830349 -17.190078 19.029268 -0.991544 2.698312 0.002093 0.008731 309608.000000 1 0 0
-8.248129 5.301749 -17.887378 20.398492 -0.571284 2.640165 0.005180 0.002184 208183.000000 1 0 0
-8.831229 4.696649 -15.278478 18.261462 -0.488781 2.561937 -0.005960 -0.000152 495680.000000 1 0 0
9.346071 14.280749 -12.295678 21.035031 0.991297 2.195101 0.004141 -0.003612 438825.000000 1 0 0
13.808971 9.757349 -12.156378 20.824770 0.615138 2.194131 0.009175 -0.005554 196710.000000 1 0 0
8.808971 15.732849 -9.908678 20.574314 1.060377 2.073281 0.004785 0.000119 24132.100000 1 0 0
7.691571 14.137049 -14.320378 21.542740 1.072516 2.297946 0.011140 -0.009218 314835.000000 1 0 0
4.205871 15.491949 -13.043078 20.683610 1.305699 2.253122 0.003383 -0.012621 190086.000000 1 0 0
11.101771 11.825549 -11.696978 19.997805 0.816956 2.195569 0.014521 -0.000869 331098.000000 1 0 0
15.805371 10.746949 -10.560578 21.836494 0.597146 2.075583 0.029657 0.003759 267691.000000 1 0 0
13.433371 11.616649 -9.930978 20.347636 0.713001 2.080668 0.037676 -0.001890 23298.900000 1 0 0
10.978771 11.457249 -7.536878 17.567199 0.806721 2.014216 0.015498 -0.000808 59425.500000 1 0 0
5.917471 16.960249 -10.090178 20.602869 1.235100 2.082595 0.025544 0.000823 72552.900000 1 0 0
11.557071 13.858749 -10.283278 20.769608 0.875713 2.088760 0.029964 -0.011880 42779.200000 1 0 0
8.888371 -19.370751 -1.790078 21.387695 -1.140603 1.654591 0.040012 0.004799 363179.000000 1 0 0
7.858271 -17.251251 -4.382978 19.456839 -1.143362 1.798013 0.024629 0.008988 102797.000000 1 0 0
3.905671 -18.732051 5.169322 19.820845 -1.365239 1.306943 0.034872 -0.017537 -47163.800000 1 0 0
10.167271 -17.667851 -3.056978 20.612411 -1.048611 1.719653 0.016836 0.006933 619873.000000 1 0 0
-2.963829 -14.808851 7.869822 17.029987 1.373267 1.090417 0.013328 -0.033331 127973.000000 1 0 0
-15.260529 -12.693851 -4.172778 20.283729 0.693838 1.777996 -0.009540 0.002276 58336.800000 1 0 0
-9.322929 -12.865751 -7.354378 17.508039 0.943730 2.004305 0.020267 -0.010459 119128.000000 1 0 0
-11.550829 -15.562351 6.986822 20.601556 0.932287 1.224793 0.012277 0.005077 207752.000000 1 0 0
-15.776029 -7.855751 -8.253178 19.460495 0.462010 2.008763 0.077356 -0.002670 -430502.000000 1 0 0
5.241771 -15.820051 6.144122 17.762331 -1.250843 1.217591 0.026028 -0.007448 338696.000000 1 0 0
2.791971 -14.286951 9.126822 17.181704 -1.377807 1.010787 0.017516 -0.005586 432069.000000 1 0 0
2.808271 -17.671151 9.901622 20.449892 -1.413196 1.065360 0.018650 -0.000756 125155.000000 1 0 0
-7.421129 -17.115951 -6.039878 19.608903 1.161681 1.883904 -0.032694 -0.003621 10979.800000 1 0 0
2.167571 -19.852751 -4.026478 20.372595 -1.462045 1.769748 0.021162 -0.003039 82618.000000 1 0 0
-17.141129 -10.842851 -2.447078 20.429731 0.564020 1.690865 -0.089413 0.005909 -205053.000000 1 0 0
-4.171329 -14.814351 2.828422 15.648161 1.296329 1.389046 0.007930 -0.006886 65539.200000 1 0 0
-10.119929 -9.707751 -14.662278 20.288809 0.764613 2.378465 0.003812 0.001340 344134.000000 1 0 0
0.260671 -20.247151 2.563622 20.410469 -1.557923 1.444860 0.020107 -0.010181 308270.000000 1 0 0
6.819371 -18.372351 0.859022 19.615938 -1.215383 1.526990 0.022739 0.001117 261895.000000 1 0 0
-7.904529 -19.024051 -3.561778 20.906515 1.176998 1.741998 0.008625 -0.015408 -75825.400000 1 0 0
-9.238429 -15.896651 -7.750378 19.952956 1.044348 1.969726 0.028774 -0.010926 -117634.000000 1 0 0
-11.591529 -11.466951 -12.321278 20.436937 0.779996 2.217918 0.005212 0.010299 300295.000000 1 0 0
-13.288429 -15.165151 -3.318678 20.434720 0.851260 1.733923 -0.005952 -0.003455 114598.000000 1 0 0
-0.539129 -20.543351 -2.576778 20.711343 1.544559 1.695533 0.015055 -0.005558 248068.000000 1 0 0
-12.157929 -16.669751 -0.877978 20.651070 0.940649 1.613324 0.005141 -0.004921 166092.000000 1 0 0
0.979771 -19.996951 5.356122 20.725010 -1.521839 1.309392 0.025055 -0.015083 199467.000000 1 0 0
-18.273929 -9.148951 2.480522 20.586228 0.464172 1.450009 0.011351 0.011154 36052.000000 1 0 0
-15.125529 -14.756351 -0.463378 21.136373 0.773044 1.592721 -0.000862 -0.006157 -4103.180000 1 0 0
10.061171 -15.698951 -4.877078 19.273560 -1.000858 1.826623 0.016805 0.002332 -85826.000000 1 0 0
-0.187429 -19.113751 -7.126178 20.399829 1.560991 1.927647 -0.002850 0.004744 110606.000000 1 0 0
-10.179429 -17.670751 -3.102778 20.627735 1.048165 1.721787 0.008573 0.016517 469735.000000 1 0 0
-14.496829 -6.854751 -11.467478 19.714176 0.441688 2.191597 0.008356 0.003259 851.790000 1 0 0
-12.414929 -15.144951 2.015122 19.686562 0.884134 1.468256 0.003562 -0.005306 177793.000000 1 0 0
-2.524229 -16.312551 9.821022 19.207382 1.417272 1.034082 -0.011008 -0.012821 441882.000000 1 0 0
-12.393629 -14.327551 -6.498978 20.027917 0.857646 1.901275 0.008464 -0.011218 223796.000000 1 0 0
5.666571 -16.973151 -7.078778 19.243362 -1.248576 1.947498 0.016827 -0.006722 32570.100000 1 0 0
-17.662029 -7.318951 -3.115678 19.370642 0.392849 1.732343 -0.007733 0.004423 21112.600000 1 0 0
-12.436429 -13.278451 -9.466978 20.508674 0.818131 2.050604 0.048570 -0.030408 83497.100000 1 0 0
-7.086729 -14.787751 8.823322 18.621233 1.123903 1.077160 0.002232 -0.003973 394768.000000 1 0 0
-15.790229 -8.032551 -5.786378 18.636936 0.470586 1.886493 0.003396 0.006600 331899.000000 1 0 0
-0.936629 -19.688551 -0.258178 19.712508 1.523260 1.583894 0.022162 -0.006697 192761.000000 1 0 0
-14.962329 -11.255951 -1.683978 18.799029 0.644963 1.660494 -0.005824 0.004213 174189.000000 1 0 0
-7.212429 -19.025651 1.539622 20.405023 1.208445 1.495271 0.010351 -0.011997 55430.100000 1 0 0
-2.494129 -20.411851 -5.508178 21.288597 1.449209 1.832512 -0.002850 -0.002090 193151.000000 1 0 0
-9.558029 -19.328551 -0.738578 21.575317 1.111556 1.605036 0.016341 -0.017749 28624.300000 1 0 0
-17.702229 -7.570251 5.141922 19.927794 0.404108 1.309816 0.007460 0.006805 51327.900000 1 0 0
-2.859129 -15.645351 -10.765178 19.205225 1.390045 2.165827 0.004176 0.001487 36540.000000 1 0 0
-2.997129 -18.191351 -8.274878 20.208455 1.407508 1.992676 0.001207 0.002433 149553.000000 1 0 0
3.831271 -17.750651 -6.258678 19.207689 -1.358219 1.902699 0.009339 0.027482 316268.000000 1 0 0
0.544171 -17.206551 -10.124378 19.971594 -1.539181 2.102426 0.006067 0.006757 -198358.000000 1 0 0
-7.471829 -11.207751 -14.067478 19.476546 0.982794 2.377887 0.000711 -0.028198 303460.000000 1 0 0
-5.488429 -18.955051 -1.922778 19.827100 1.288954 1.667926 0.014346 -0.024018 139275.000000 1 0 0
-10.389729 -15.414351 8.729422 20.536589 0.977714 1.131761 0.009748 -0.016063 -362867.000000 1 0 0
-7.320829 -15.403751 -10.268078 19.907373 1.127134 2.112729 0.017042 -0.007985 51180.400000 1 0 0
-12.569929 -8.344351 -12.184778 19.393301 0.586039 2.250160 0.016202 0.000038 227776.000000 1 0 0
-15.618529 -13.162051 3.074622 20.655056 0.700253 1.421385 0.000329 0.007440 201886.000000 1 0 0
-6.367929 -14.193851 -12.990578 20.267487 1.149074 2.266540 0.005310 0.002314 521485.000000 1 0 0
-13.963029 -12.048951 -6.689178 19.618576 0.711946 1.918736 0.005318 0.001385 178120.000000 1 0 0
-12.415529 -10.750551 -8.528578 18.505576 0.713650 2.049766 0.046503 0.003781 210410.000000 1 0 0
-9.932729 -15.002051 3.233622 18.280508 0.985968 1.392972 -0.002635 0.005214 342189.000000 1 0 0
4.481571 -18.035551 8.595222 20.475435 -1.327244 1.137591 0.032881 -0.014024 232098.000000 1 0 0
-4.867229 -16.715851 4.793622 18.057918 1.287456 1.302117 0.006581 -0.009225 324850.000000 1 0 0
-18.464429 -7.284951 -7.101778 21.081767 0.375790 1.914385 -0.007515 0.000856 84670.400000 1 0 0
-17.032529 -3.549651 -10.844078 20.501246 0.205463 2.128156 0.010270 -0.009024 -207540.000000 1 0 0
-15.732529 -4.098051 -13.071678 20.860855 0.254820 2.247996 0.011255 -0.004220 395841.000000 1 0 0
-19.208829 -4.815451 -5.931178 20.672362 0.245627 1.861800 0.000646 0.001487 -158079.000000 1 0 0
5.612171 -13.413651 8.376922 16.780802 -1.174536 1.048125 0.026190 -0.010970 111806.000000 1 0 0
19.968671 -3.001451 2.778522 20.383246 -0.149191 1.434057 0.030768 -0.002183 7876.940000 1 0 0
18.369271 -2.762451 -0.062378 18.575929 -0.149266 1.574154 0.040206 -0.005770 289522.000000 1 0 0
14.365471 -11.567351 0.315822 18.446412 -0.677915 1.553674 0.022165 0.006302 112635.000000 1 0 0
11.025871 -14.119051 5.516122 18.744200 -0.907797 1.272090 0.009302 0.007621 487415.000000 1 0 0
9.965071 -13.183451 9.179022 18.903980 -0.923544 1.063792 0.015980 -0.001473 302085.000000 1 0 0
19.176871 4.182749 -4.420978 20.119463 0.214751 1.792341 0.066516 0.012167 1063.370000 1 0 0
18.932571 -6.117051 -4.460578 20.390128 -0.312509 1.791342 0.026324 -0.004016 -68521.700000 1 0 0
17.772771 -9.936051 -0.352678 20.364697 -0.509773 1.588115 0.028280 -0.002153 349661.000000 1 0 0
17.548471 -8.675451 8.959522 21.528709 -0.459134 1.141571 0.076362 -0.013855 -224118.000000 1 0 0
20.039671 -0.001751 -2.055678 20.144831 -0.000087 1.673019 0.037154 0.001776 71363.000000 1 0 0
7.511271 -13.305151 11.397422 19.061675 -1.056860 0.929888 0.013423 -0.001049 429417.000000 1 0 0
15.920271 -6.599751 -3.261878 17.540000 -0.392986 1.757853 0.004082 -0.000532 413442.000000 1 0 0
14.189171 -6.831051 12.145722 19.887544 -0.448679 0.913827 0.032925 -0.021458 266193.000000 1 0 0
16.242271 1.175249 10.763822 19.520565 0.072232 0.986744 0.028607 -0.009772 157313.000000 1 0 0
16.558371 -10.378051 2.621322 19.716869 -0.559861 1.437453 0.013536 -0.000411 369313.000000 1 0 0
16.273071 -7.236151 -5.766478 18.719695 -0.418413 1.883932 0.013214 0.003741 253734.000000 1 0 0
18.551671 -4.736151 6.041922 20.077361 -0.249956 1.265126 0.114384 -0.007535 -65887.400000 1 0 0
13.280471 -13.602851 7.987122 20.620441 -0.797389 1.173052 0.020730 -0.005314 276463.000000 1 0 0
15.166571 -14.190451 -1.856778 20.852851 -0.752160 1.659956 0.013341 0.003330 154668.000000 1 0 0
18.571371 -6.594451 7.952522 21.251475 -0.341199 1.187251 0.052255 -0.012248 100320.000000 1 0 0
19.751871 3.593749 2.479322 20.228655 0.179976 1.447923 0.024783 -0.000855 375130.000000 1 0 0
15.555871 -10.416951 8.062522 20.383872 -0.590063 1.164147 0.044591 -0.029065 320980.000000 1 0 0
13.864171 -4.723851 10.831422 18.216742 -0.328387 0.934046 0.026597 -0.013276 -581323.000000 1 0 0
18.723171 -7.834151 1.958122 20.390323 -0.396284 1.474616 0.027283 -0.007043 84691.500000 1 0 0
19.117871 -5.690251 -1.308678 19.989612 -0.289291 1.636311 0.024221 -0.004727 326052.000000 1 0 0
14.428971 -13.646351 -6.261278 20.823585 -0.757530 1.876204 -0.001209 0.004655 397870.000000 1 0 0
13.686771 -9.824151 10.160622 19.674346 -0.622562 1.028108 0.017630 -0.012447 441452.000000 1 0 0
14.283371 2.121849 0.453922 14.447248 0.147475 1.539372 0.006180 0.001818 -167084.000000 1 0 0
12.767471 2.915549 13.839022 19.053275 0.224508 0.757825 0.003610 -0.007421 -90626.600000 1 0 0
18.255671 -3.642751 9.228122 20.777329 -0.196954 1.110578 0.042820 -0.012511 193865.000000 1 0 0
7.025971 -18.404551 5.134122 20.358069 -1.206119 1.315853 0.020086 -0.016077 537959.000000 1 0 0
12.151771 -2.742851 15.690722 20.034658 -0.221996 0.671034 0.016015 0.017048 160419.000000 1 0 0
11.193671 -13.283251 -7.075978 18.756665 -0.870561 1.957623 -0.002680 -0.006198 88103.000000 1 0 0
10.566171 -17.995451 4.423822 21.331911 -1.039873 1.361900 0.014863 -0.007018 531170.000000 1 0 0
18.221071 -0.045851 -4.569878 18.785455 -0.002516 1.816529 0.015710 -0.013236 142025.000000 1 0 0
4.490871 -13.962351 11.435022 18.597712 -1.259605 0.908586 0.012343 0.000185 259371.000000 1 0 0
8.970571 -2.644051 14.536422 17.284956 -0.286631 0.571692 -0.003656 -0.001358 404961.000000 1 0 0
8.798271 -9.441251 13.897522 18.965440 -0.820636 0.748396 -0.002644 0.001474 506659.000000 1 0 0
21.130971 5.644549 -2.792278 22.049392 0.261028 1.697775 0.021978 0.008046 252581.000000 1 0 0
14.510271 -13.929951 2.151022 20.229147 -0.764996 1.464262 0.007951 0.013485 295877.000000 1 0 0
10.823571 0.146149 13.938922 17.648360 0.013502 0.660291 0.009170 -0.032491 123496.000000 1 0 0
19.196471 0.226049 8.144722 20.854066 0.011775 1.169559 0.039968 -0.010638 159896.000000 1 0 0
19.794971 1.682749 0.270222 19.868204 0.084805 1.557195 0.019027 0.009180 244005.000000 1 0 0
18.066971 0.305149 3.155622 18.343023 0.016888 1.397902 0.029411 0.003157 -26701.100000 1 0 0
10.175171 -8.747751 16.250522 21.074551 -0.710107 0.690234 0.017151 0.007689 125552.000000 1 0 0
19.073771 2.774149 5.581322 20.066285 0.144430 1.288935 0.031141 -0.003651 -23154.800000 1 0 0
15.493071 2.453049 7.241722 17.277015 0.157028 1.138284 0.025262 -0.001773 40748.600000 1 0 0
11.238271 -16.146551 2.118122 19.786265 -0.962749 1.463541 -0.008462 0.010689 147900.000000 1 0 0
8.955871 -15.930051 6.752522 19.482574 -1.058635 1.216860 0.028447 -0.012668 164308.000000 1 0 0
6.233571 6.791349 7.129222 11.653567 0.828196 0.912509 -0.001698 0.003323 -868328.000000 1 0 0
18.461671 1.781949 -6.509878 19.656733 0.096223 1.908348 0.001433 0.005004 242535.000000 1 0 0
14.298071 4.452849 -6.972878 16.519193 0.301910 2.006565 0.017996 -0.002791 349122.000000 1 0 0
-10.523529 -4.065951 -13.915378 17.914083 0.368699 2.460340 0.014238 -0.000128 -170554.000000 1 0 0
7.571071 -14.077751 -10.457178 19.101224 -1.077365 2.150124 -0.007140 0.005389 -147358.000000 1 0 0
1.837371 -15.872351 13.904722 21.181330 -1.455550 0.854678 -0.003170 -0.002603 498347.000000 1 0 0
-9.454029 -8.005951 2.051322 12.557143 0.702651 1.406702 0.001530 0.004212 298130.000000 1 0 0
-13.823929 3.164149 -9.822078 17.250683 -0.225013 2.176540 0.011814 -0.001369 507752.000000 1 0 0
-12.747129 -5.020851 -13.542378 19.263807 0.375220 2.350398 0.014646 0.009758 105102.000000 1 0 0
-18.043429 -0.638451 -8.131578 19.801402 0.035369 1.993970 0.031949 -0.026118 443711.000000 1 0 0
-12.313429 14.990549 4.625722 19.943280 -0.883134 1.336721 0.017826 -0.013322 432085.000000 1 0 0
-16.439729 6.533049 8.799822 19.758094 -0.378258 1.109200 -0.041766 -0.002483 287178.000000 1 0 0
-13.520429 15.449949 0.305722 20.532813 -0.851903 1.555906 0.030886 -0.010780 82344.300000 1 0 0
-15.949129 5.223549 -10.649478 19.876407 -0.316503 2.136233 0.015951 -0.000174 -72090.600000 1 0 0
-18.185729 2.846649 -0.068478 18.407304 -0.155272 1.574516 0.026851 -0.003626 15341.600000 1 0 0
-9.543729 15.179649 -0.278778 17.932714 -1.009527 1.586343 0.021808 -0.008752 16300.100000 1 0 0
-18.307129 12.169749 2.474222 22.121834 -0.586678 1.458717 0.039886 -0.002102 -36503.400000 1 0 0
-8.649529 16.410349 -7.806478 20.125978 -1.085722 1.969127 0.022901 -0.016116 -159761.000000 1 0 0
-14.230529 -1.589951 -12.740678 19.166658 0.111267 2.297930 -0.028248 -0.019001 31511.600000 1 0 0
-18.779029 5.578449 -4.800878 20.169766 -0.288755 1.811127 0.016680 -0.001264 -19285.400000 1 0 0
-16.229829 9.463749 -6.036078 19.733325 -0.527907 1.881661 0.008426 0.011695 67853.800000 1 0 0
-18.982329 1.192149 2.391422 19.169479 -0.062721 1.445719 0.021173 -0.010219 160903.000000 1 0 0
-13.350329 12.452449 -7.024878 19.561280 -0.750614 1.938123 0.018254 0.006690 -195742.000000 1 0 0
-12.919129 4.865049 -13.576778 19.362373 -0.360153 2.347867 0.013288 -0.004656 -89615.500000 1 0 0
-13.764329 9.466649 -6.842778 18.052640 -0.602469 1.959561 0.011564 -0.001315 129776.000000 1 0 0
-6.578129 11.482349 -15.395378 20.301078 -1.050549 2.431579 -0.003116 -0.019717 -134938.000000 1 0 0
-15.518029 13.644749 2.779422 20.849786 -0.721251 1.437091 0.041275 -0.018408 31111.700000 1 0 0
-18.671029 8.490749 -4.722478 21.047611 -0.426801 1.797094 0.028895 -0.001294 279296.000000 1 0 0
-3.956229 16.899049 -10.043378 20.052407 -1.340828 2.095384 0.003236 -0.006820 -41232.600000 1 0 0
-19.167729 -2.250351 -6.579878 20.390211 0.116868 1.899375 -0.001031 -0.007125 -100544.000000 1 0 0
-10.584629 13.878949 -6.099478 18.489544 -0.919255 1.906981 0.009429 -0.013077 -136088.000000 1 0 0
-19.420829 3.000749 4.391022 20.135893 -0.153300 1.350961 0.031610 -0.006733 131246.000000 1 0 0
-15.177129 12.067749 0.628722 19.400286 -0.671763 1.538383 0.017774 -0.009388 139919.000000 1 0 0
-17.201929 1.875349 -9.525078 19.752225 -0.108591 2.073993 -0.012079 0.004847 344322.000000 1 0 0
-16.795129 13.941449 -3.868778 22.167720 -0.692820 1.746218 0.037238 0.038452 330783.000000 1 0 0
-10.273529 15.662249 -8.633378 20.624904 -0.990255 2.002688 0.006667 -0.009444 -356605.000000 1 0 0
-18.906429 2.386349 -6.805878 20.235308 -0.125555 1.913821 0.005106 -0.006212 260305.000000 1 0 0
-17.199229 10.406849 -0.227078 20.103919 -0.544144 1.582092 0.024880 0.002276 -8736.070000 1 0 0
-11.631629 6.719949 -14.689478 19.905609 -0.523884 2.400834 0.008730 -0.003314 352273.000000 1 0 0
-13.636529 12.387449 -4.680178 19.008100 -0.737438 1.819575 0.036928 -0.010063 349345.000000 1 0 0
-18.677729 7.352749 -0.627578 20.082687 -0.375032 1.602051 0.010922 0.001502 -56530.400000 1 0 0
-14.516229 8.797049 -9.924278 19.662153 -0.544830 2.099877 0.014121 -0.007272 418755.000000 1 0 0
-18.429529 11.612349 4.713722 22.287067 -0.562255 1.357687 0.019532 -0.005268 125001.000000 1 0 0
-8.135029 11.889049 -13.641078 19.839536 -0.970722 2.328934 -0.015288 -0.004158 466267.000000 1 0 0
-21.027629 -1.680051 -5.182378 21.721897 0.079728 1.811698 0.007108 -0.011477 234591.000000 1 0 0
-10.475229 13.361249 -2.863878 17.217874 -0.905887 1.737905 0.023471 -0.005656 345764.000000 1 0 0
-18.682529 -4.916251 3.850822 19.698610 0.257314 1.374042 0.009996 0.001588 2429.660000 1 0 0
-11.480229 11.601149 -12.641678 20.644475 -0.790637 2.229828 0.009234 -0.005595 167824.000000 1 0 0
-14.680129 11.562149 -10.195778 21.287164 -0.667137 2.070270 0.023754 -0.007153 178758.000000 1 0 0
-12.851029 9.724849 -13.891878 21.276887 -0.647799 2.282215 0.023930 -0.004802 419012.000000 1 0 0
-18.353629 -4.875351 -3.087078 19.239407 0.259638 1.731949 -0.005094 -0.001816 -446803.000000 1 0 0
-9.096629 12.498749 -11.652878 19.358640 -0.941653 2.216734 -0.006479 -0.003606 -89468.500000 1 0 0
-15.770929 7.501549 -8.153078 19.273508 -0.443984 2.007572 0.013473 0.006471 -29778.400000 1 0 0
-14.466929 8.709049 2.019722 17.006436 -0.541887 1.451753 0.013914 -0.007217 -105341.000000 1 0 0
-19.744329 6.299149 7.763722 22.131272 -0.308828 1.212368 0.034008 -0.005568 241346.000000 1 0 0
-18.657929 5.877549 3.699922 19.908624 -0.305176 1.383864 0.005120 -0.006369 239879.000000 1 0 0
-14.854329 12.365649 5.924022 20.215202 -0.694223 1.273383 0.021710 -0.021964 -126598.000000 1 0 0
18.011971 6.219249 5.978722 19.971361 0.332467 1.266769 0.004900 0.000112 147893.000000 1 0 0
18.357971 8.095049 0.564622 20.071465 0.415307 1.542662 0.022537 0.011114 -127496.000000 1 0 0
16.762271 4.279849 8.628822 19.332548 0.249985 1.108129 0.015307 0.000040 -49061.100000 1 0 0
12.506271 12.765849 10.839522 20.901410 0.795669 1.025581 0.045105 -0.014904 207472.000000 1 0 0
15.590071 12.375049 4.135522 20.329650 0.670935 1.365943 0.030588 0.001015 184208.000000 1 0 0
5.253971 10.440049 14.406322 18.551036 1.104551 0.681581 0.002021 0.003636 196790.000000 1 0 0
13.159971 13.018449 -5.431678 19.291655 0.779992 1.856211 0.030289 -0.006285 227775.000000 1 0 0
17.597171 9.217649 -2.843378 20.067642 0.482517 1.712964 0.003604 0.009682 -17558.300000 1 0 0
14.391671 7.667249 9.586122 18.915619 0.489508 1.039347 0.007763 0.003917 130579.000000 1 0 0
4.719871 19.496549 -1.998678 20.159050 1.333278 1.670105 -0.008435 0.003687 546403.000000 1 0 0
-4.199029 20.090049 3.759822 20.865718 -1.364752 1.389615 -0.013429 0.039778 386688.000000 1 0 0
6.969871 13.976749 12.022422 19.709572 1.108208 0.914762 0.016772 0.020037 -65281.800000 1 0 0
0.643871 16.481349 -10.336378 19.465101 1.531750 2.130601 0.000664 -0.009954 -22348.100000 1 0 0
10.600071 9.475349 15.612022 21.115846 0.729432 0.738690 0.018413 -0.006850 168347.000000 1 0 0
-1.286429 12.217149 0.983922 12.324031 -1.465886 1.490874 -0.002795 0.000613 622761.000000 1 0 0
-4.740729 19.188649 -2.524978 19.926221 -1.328588 1.697854 -0.001818 0.011539 159093.000000 1 0 0
5.754171 18.577649 6.485122 20.501130 1.270431 1.248938 0.013625 -0.011979 217586.000000 1 0 0
11.511071 16.999949 -1.105878 20.560301 0.975589 1.624609 0.037800 -0.017817 253127.000000 1 0 0
18.469371 10.622949 2.954522 21.510321 0.521959 1.433007 0.019900 0.004149 301968.000000 1 0 0
11.224371 15.684849 7.098722 20.552198 0.949665 1.218132 0.018702 -0.003470 -231329.000000 1 0 0
18.051271 7.310649 -5.277178 20.177774 0.384804 1.835408 -0.003076 0.016829 389574.000000 1 0 0
0.601471 15.455149 10.830422 18.881775 1.531899 0.959913 -0.007995 -0.000372 527671.000000 1 0 0
0.983371 20.052049 -1.915978 20.167366 1.521795 1.665944 -0.002083 -0.007443 314185.000000 1 0 0
13.954171 9.687749 -1.280478 17.035580 0.606860 1.646032 0.013037 -0.000000 -342421.000000 1 0 0
9.672771 17.715249 1.418322 20.233739 1.071019 1.500642 0.017354 -0.007234 162262.000000 1 0 0
0.618471 17.772049 -0.347678 17.786206 1.536010 1.590345 -0.003383 0.004599 80866.000000 1 0 0
-0.037429 20.995149 1.021422 21.020014 -1.569014 1.522184 0.005602 0.000034 294691.000000 1 0 0
6.518971 17.588749 -0.191978 18.758943 1.215860 1.581030 0.000615 -0.011726 -11183.300000 1 0 0
6.916071 18.852249 -2.785078 20.273036 1.219184 1.708611 -0.009511 -0.006604 77874.100000 1 0 0
10.152371 9.464849 12.778522 18.866495 0.750366 0.826692 0.012432 -0.003544 207585.000000 1 0 0
13.230571 14.976049 8.108422 21.565634 0.847201 1.185333 0.027890 -0.000648 2561.660000 1 0 0
0.312871 17.839349 6.964922 19.153339 1.553260 1.198624 -0.001850 0.004851 173570.000000 1 0 0
6.779371 18.052949 -7.740678 20.779483 1.211564 1.952514 -0.008752 -0.000883 140625.000000 1 0 0
-1.006629 18.415449 9.309922 20.659543 -1.516188 1.103319 0.018371 -0.011354 180084.000000 1 0 0
15.829771 7.051049 -7.872078 19.033354 0.419047 1.997194 0.017266 0.009296 -244245.000000 1 0 0
-4.992529 19.595549 -6.993178 21.396622 -1.321325 1.903750 -0.007271 -0.008111 396325.000000 1 0 0
4.342871 15.574049 10.184522 19.108533 1.298852 1.008674 0.006423 -0.000712 236281.000000 1 0 0
8.819471 15.029149 7.819622 19.099866 1.040121 1.148992 0.012908 0.010333 -68134.200000 1 0 0
-2.550129 19.185049 6.576722 20.440708 -1.438648 1.243223 -0.006110 0.001214 89223.400000 1 0 0
4.500171 17.963449 8.602622 20.419161 1.325330 1.135916 0.010141 -0.011046 104032.000000 1 0 0
13.946671 11.038949 -7.189978 19.184989 0.669543 1.954946 -0.038426 -0.025650 -114924.000000 1 0 0
11.698571 6.567149 15.665622 20.625124 0.511526 0.708190 0.019578 -0.009311 140503.000000 1 0 0
17.229071 8.981049 4.954222 20.051046 0.480521 1.321130 0.018521 0.003527 209832.000000 1 0 0
4.591171 15.452649 13.125522 20.788038 1.281991 0.887442 -0.013093 0.038544 437341.000000 1 0 0
16.488971 11.458849 -4.668378 20.615168 0.607322 1.799231 0.067356 0.033499 82705.600000 1 0 0
15.110071 14.608349 6.387622 21.966334 0.768517 1.275742 0.023580 0.027888 82002.600000 1 0 0
12.651771 14.547449 -7.872678 20.824856 0.854982 1.958477 0.036445 -0.006418 342192.000000 1 0 0
-8.160929 15.627649 9.698822 20.121912 -1.089538 1.067857 0.016150 -0.007849 218938.000000 1 0 0
-4.827329 16.818249 -7.396078 18.996278 -1.291281 1.970715 -0.000864 0.004004 68144.400000 1 0 0
2.144371 19.691849 -4.673678 20.352162 1.462327 1.802504 -0.014738 -0.001326 -77252.400000 1 0 0
7.103071 16.756249 8.972322 20.291083 1.169853 1.112768 0.018343 -0.001194 401942.000000 1 0 0
13.314871 15.466549 -1.396678 20.456066 0.860019 1.639126 0.043817 -0.010866 82519.500000 1 0 0
12.534571 16.736549 4.465922 21.381581 0.927978 1.360379 0.032777 -0.010394 187340.000000 1 0 0
3.345671 18.433249 0.581822 18.743444 1.391249 1.539750 0.019345 -0.007488 136500.000000 1 0 0
-6.397829 18.000249 1.700322 19.178954 -1.229292 1.482024 -0.031415 0.027396 270414.000000 1 0 0
0.190571 20.026749 -5.878978 20.872694 1.561281 1.856319 -0.000025 0.008905 174189.000000 1 0 0
-7.357829 17.952849 -6.449378 20.445951 -1.181834 1.891712 0.013136 -0.009253 80471.800000 1 0 0
-7.396829 18.549949 -1.308178 20.013121 -1.191366 1.636209 0.014832 0.003616 45721.200000 1 0 0
-14.455729 -8.432451 8.965022 18.985414 0.528071 1.079005 0.006342 -0.003462 364926.000000 1 0 0
-13.198529 -13.523651 7.690822 20.401937 0.797564 1.184279 0.012897 0.001440 79321.000000 1 0 0
-3.856929 -16.141151 12.498922 20.775844 1.336244 0.925283 -0.002870 0.006160 174178.000000 1 0 0
-2.150629 -14.540751 15.783922 21.568283 1.423957 0.749820 -0.015352 0.007817 491193.000000 1 0 0
-7.105829 -13.946951 13.724922 20.817871 1.099586 0.850928 -0.019264 0.016204 -5148.630000 1 0 0
-10.023629 -11.350851 11.748122 19.165942 0.847412 0.910984 0.022902 0.008400 158381.000000 1 0 0
-6.999229 -10.579051 13.096422 18.232438 0.986301 0.769436 0.005505 0.001339 413963.000000 1 0 0
-15.436129 -12.205751 7.567422 21.083650 0.669061 1.203682 0.011733 0.007522 380422.000000 1 0 0
-4.299629 -12.815951 13.369922 19.012896 1.247106 0.790904 -0.004762 0.005559 587542.000000 1 0 0
3.645171 -12.242151 13.667122 18.706891 -1.281400 0.751606 0.004415 -0.008725 412258.000000 1 0 0
6.455071 -13.585551 13.972122 20.529377 -1.127232 0.822227 0.016339 -0.013433 348971.000000 1 0 0
7.106771 -9.035851 16.779522 20.339743 -0.904336 0.600661 0.007342 0.004651 520674.000000 1 0 0
-5.356429 13.197249 13.442522 19.584691 -1.185236 0.814298 0.000449 -0.006335 629806.000000 1 0 0
-13.087029 -1.680851 17.711422 22.085970 0.127737 0.640276 0.001738 -0.003473 359035.000000 1 0 0
-10.051629 9.125149 13.425622 19.093217 -0.737123 0.790962 -0.004128 -0.017725 466230.000000 1 0 0
-7.993829 -7.439051 17.316422 20.471914 0.749466 0.562616 0.011308 -0.003662 145741.000000 1 0 0
-5.123629 2.030549 18.665922 19.462563 -0.377322 0.287104 0.007269 0.008578 578982.000000 1 0 0
-15.527229 -3.584351 14.584622 21.602167 0.226869 0.829633 0.018127 -0.001095 162009.000000 1 0 0
-14.711029 2.550249 12.509522 19.478354 -0.171650 0.873396 0.001925 -0.000804 234776.000000 1 0 0
-13.289329 10.852749 10.194422 19.957822 -0.684812 1.034683 -0.069789 0.027039 -162981.000000 1 0 0
-3.771129 11.273749 15.924222 19.872083 -1.247991 0.641271 -0.027452 0.007350 252512.000000 1 0 0
-12.924629 13.029249 7.582822 19.857154 -0.789429 1.178979 0.001439 -0.034605 98682.800000 1 0 0
-3.825229 -6.279151 18.686122 20.080619 1.023643 0.374870 0.011537 -0.006278 190683.000000 1 0 0
0.728771 -2.909951 17.904422 18.153987 -1.325403 0.166004 -0.006361 -0.012403 73942.700000 1 0 0
-4.572329 6.492949 21.238422 22.674549 -0.957258 0.357817 0.013903 0.001443 152006.000000 1 0 0
2.149971 -10.703151 16.729322 19.976237 -1.372562 0.578175 -0.007346 0.007652 383570.000000 1 0 0
-14.909329 -0.163051 14.033822 20.475909 0.010936 0.815668 -0.016699 0.007100 -36932.200000 1 0 0
-13.738629 -5.354351 7.598322 16.587752 0.371621 1.094976 -0.000442 -0.000795 292761.000000 1 0 0
10.096671 0.748849 16.758022 19.578939 0.074032 0.543467 0.019008 0.003499 165998.000000 1 0 0
-7.521529 12.133649 11.842922 18.548683 -1.015880 0.878278 0.002931 -0.014887 10072.500000 1 0 0
-1.783029 7.459649 19.813922 21.246578 -1.336175 0.369328 -0.003114 -0.015066 437548.000000 1 0 0
1.138571 -13.508451 15.571422 20.645672 -1.486709 0.716328 -0.014796 0.003621 695604.000000 1 0 0
-3.227929 -11.461551 17.980122 21.565516 1.296276 0.584942 -0.006601 -0.001671 443444.000000 1 0 0
-2.249229 8.561049 16.661722 18.866997 -1.313875 0.488336 -0.007194 -0.008659 327575.000000 1 0 0
-4.856529 -9.362051 20.650822 23.188151 1.092264 0.472185 0.032787 -0.010941 163641.000000 1 0 0
-6.329829 -3.375251 19.047222 20.353273 0.489876 0.360187 0.006870 -0.013398 238919.000000 1 0 0
-10.501429 -7.857151 16.215222 20.855413 0.642347 0.680105 0.019431 -0.004737 162234.000000 1 0 0
-0.753229 5.489649 17.878122 18.717127 -1.434439 0.300548 0.007124 -0.014697 -220477.000000 1 0 0
-5.981229 -11.053351 19.396422 23.112180 1.074794 0.574932 0.008593 0.008672 482990.000000 1 0 0
0.633471 3.573649 19.039222 19.382059 1.395357 0.188366 0.002079 0.001603 82478.500000 1 0 0
-18.332829 -0.348051 7.767922 19.913673 0.018983 1.170078 0.004709 -0.000864 72936.800000 1 0 0
-1.625029 -8.810851 17.550622 19.705232 1.388411 0.472006 -0.003577 -0.001154 427003.000000 1 0 0
5.697171 3.315549 14.880222 16.274877 0.527052 0.417005 -0.002536 -0.005872 425844.000000 1 0 0
-13.725929 -6.447751 10.502222 18.446444 0.439156 0.965099 0.003857 -0.000359 115368.000000 1 0 0
4.007171 8.085149 16.754422 19.029916 1.110658 0.494038 -0.008157 -0.005008 197055.000000 1 0 0
6.152771 4.371349 17.490322 19.049321 0.617717 0.407386 0.005800 -0.029946 57643.800000 1 0 0
5.499071 -9.439251 18.297622 21.310613 -1.043288 0.538234 0.010677 0.015925 338053.000000 1 0 0
-4.348929 -0.650151 19.973122 20.451442 0.148398 0.216702 0.003715 0.000527 746221.000000 1 0 0
-10.928729 1.861349 16.890822 20.204000 -0.168698 0.580819 0.024329 -0.015946 60344.100000 1 0 0
-16.873629 -3.986751 8.978322 19.524954 0.232016 1.092983 0.018626 -0.003367 367502.000000 1 0 0
-13.385229 -9.625751 11.773322 20.259086 0.623451 0.950670 0.021490 -0.010052 202840.000000 1 0 0
-14.769329 5.964549 12.614122 20.318095 -0.383818 0.900993 0.003866 -0.020841 192797.000000 1 0 0
0.922171 8.841649 17.202322 19.363498 1.466874 0.476972 -0.013480 -0.010400 344630.000000 1 0 0
-3.828029 -10.248851 15.073222 18.625111 1.213334 0.627844 0.000479 -0.000677 658770.000000 1 0 0
-18.535829 -2.691951 6.820222 19.933364 0.144221 1.221591 0.073766 -0.011700 -298770.000000 1 0 0
-0.548329 -0.576251 20.989022 21.004090 0.810222 0.037880 -0.003715 -0.007797 312751.000000 1 0 0
-2.010529 2.189149 20.348922 20.564854 -0.827904 0.145041 -0.007940 -0.004389 69244.100000 1 0 0
-8.043529 2.604349 16.198222 18.271929 -0.313130 0.481052 0.000164 0.005729 511247.000000 1 0 0
2.698871 -2.031351 18.904222 19.203643 -0.645206 0.176819 -0.006998 -0.004138 -30976.500000 1 0 0
-12.829629 4.394549 14.028822 19.512029 -0.330006 0.768458 0.005290 -0.009895 107158.000000 1 0 0
-13.549729 -6.002451 13.822322 20.265270 0.417013 0.820208 0.022284 0.011268 33230.600000 1 0 0
-17.138329 -1.126051 9.213922 19.490682 0.065609 1.078405 0.000894 -0.014883 122908.000000 1 0 0
-7.213329 7.725549 14.901722 18.269580 -0.819672 0.616931 0.000943 -0.009271 -115686.000000 1 0 0
-9.404529 0.840049 13.930722 16.829019 -0.089087 0.595657 0.004797 -0.006712 59969.900000 1 0 0
7.290071 -0.797251 15.312922 16.978408 -0.108928 0.446635 -0.006815 -0.003574 147750.000000 1 0 0
3.610671 6.307349 18.586622 19.957007 1.050877 0.372740 -0.008421 -0.000866 -33760.000000 1 0 0
1.541971 0.579549 20.145822 20.213058 0.359515 0.081587 -0.005031 -0.003216 153958.000000 1 0 0
-7.066129 6.823649 17.494922 20.064014 -0.767942 0.511614 0.008690 -0.012750 494924.000000 1 0 0
7.538971 -3.035451 16.783622 18.647788 -0.382776 0.450951 -0.003496 0.002848 357980.000000 1 0 0
-16.485729 2.711749 9.059022 19.005229 -0.163031 1.073946 0.013340 -0.005936 126760.000000 1 0 0
4.468471 -5.396651 18.931622 20.186565 -0.879209 0.354464 0.013727 -0.012875 180719.000000 1 0 0
-3.408129 -3.906151 20.711222 21.350131 0.853382 0.245258 0.000103 -0.006685 386987.000000 1 0 0
-9.741229 5.701749 14.579522 18.438111 -0.529556 0.658800 0.003910 -0.009867 -22368.200000 1 0 0
6.637871 2.142049 19.892122 21.079521 0.312151 0.337243 0.022198 -0.012891 854.606000 1 0 0
-6.760329 11.047749 14.442122 19.399219 -1.021659 0.731057 -0.006599 -0.016046 289015.000000 1 0 0
-14.504829 5.066749 9.063422 17.838375 -0.336064 1.037836 -0.002623 -0.009717 -126300.000000 1 0 0
1.201271 -5.494951 20.279922 21.045493 -1.355569 0.270554 -0.003915 -0.010625 352057.000000 1 0 0
-6.099029 -8.399251 13.784922 17.256003 0.942742 0.645419 0.010430 0.002389 374096.000000 1 0 0
-12.815329 10.156949 6.484122 17.590910 -0.670189 1.193287 -0.012515 -0.019333 111418.000000 1 0 0
-19.413729 2.564049 7.904122 21.117348 -0.131314 1.187160 -0.015812 0.003116 -64561.000000 1 0 0
-15.614829 9.284749 6.018722 19.137776 -0.536448 1.250872 -0.004118 -0.011979 86559.200000 1 0 0
-12.958129 7.673849 14.145522 20.661483 -0.534667 0.816697 0.014303 -0.013809 198391.000000 1 0 0
-16.357129 9.328049 10.597022 21.607060 -0.518275 1.058199 0.003343 -0.004524 437973.000000 1 0 0
2.661871 10.253549 15.434422 18.720102 1.316798 0.601507 -0.008537 -0.010836 522944.000000 1 0 0
1.458771 14.125249 12.868122 19.163487 1.467887 0.834576 -0.004010 -0.022952 149387.000000 1 0 0
8.359271 5.046749 16.567522 19.230961 0.543158 0.532575 -0.001559 -0.009413 99612.500000 1 0 0
-0.521629 13.356549 13.239522 18.813677 -1.531762 0.790179 -0.008219 0.010254 43625.700000 1 0 0
3.579671 12.285149 14.916322 19.652877 1.287265 0.709037 -0.007258 0.005673 28810.200000 1 0 0
-3.272729 -4.511351 -13.376278 14.490958 0.943198 2.746803 -0.008266 -0.007513 151404.000000 1 0 0
5.246771 -11.999751 16.913022 21.390955 -1.158604 0.658906 -0.031318 0.022415 248514.000000 1 0 0
8.813171 -13.514851 7.373922 17.739727 -0.992939 1.142114 0.006296 -0.012964 176293.000000 1 0 0
-0.390229 15.310449 0.473322 15.322733 -1.545314 1.539901 -0.004368 0.000535 -386412.000000 1 0 0
-13.990229 8.228849 8.363422 18.258896 -0.531687 1.095000 -0.005976 -0.005223 -66578.500000 1 0 0
-15.852229 -9.550451 5.708122 19.367161 0.542232 1.271621 0.000695 0.007099 275084.000000 1 0 0
8.711871 -10.513351 11.247722 17.690068 -0.878829 0.881724 -0.021277 0.002445 189025.000000 1 0 0
-24.823429 6.404549 31.739275 40.799540 -0.252498 0.679428 0.025630 0.003770 121122.000000 0 0 1
-23.710129 5.605949 31.355105 39.708179 -0.232173 0.660577 0.023880 0.004463 471909.000000 0 0 1
-22.693429 5.663349 32.347325 39.917598 -0.244564 0.626043 0.014382 0.005055 650361.000000 0 0 1
-21.413229 4.805149 32.060145 38.851882 -0.220744 0.600260 0.004166 0.000550 316842.000000 0 0 1
-21.579529 3.405949 32.092695 38.822901 -0.156541 0.597680 -0.004927 -0.006836 108629.000000 0 0 1
-20.329829 2.775149 31.865975 37.900445 -0.135668 0.572072 -0.006467 -0.005646 185386.000000 0 0 1
-20.049929 1.604049 32.888865 38.551914 -0.079833 0.548887 -0.014471 -0.000218 -88801.400000 0 0 1
-20.665129 0.391949 32.524155 38.535981 -0.018964 0.566109 -0.015628 0.009486 208838.000000 0 0 1
-20.533029 -0.499751 33.561024 39.347139 0.024334 0.549191 -0.017697 0.011204 -62886.800000 0 0 1
-21.058929 -1.905851 33.309050 39.453815 0.090255 0.565624 -0.010708 -0.009438 -85459.900000 0 0 1
-20.106529 -2.556551 32.473075 38.279355 0.126472 0.557995 -0.017030 -0.008759 404218.000000 0 0 1
-20.133229 -3.981951 32.580345 38.505606 0.195260 0.562134 -0.005725 -0.016773 -241475.000000 0 0 1
-21.388229 -4.778651 32.052765 38.828747 0.219814 0.599725 0.000133 -0.013559 1184430.000000 0 0 1
-22.567029 -4.587151 32.877925 40.140636 0.200536 0.611011 0.000427 -0.010285 1036550.000000 0 0 1
-22.594629 -5.292351 34.133583 41.275025 0.230083 0.597083 0.012026 -0.003900 -1256140.000000 0 0 1
-23.794329 -4.750251 -34.206869 41.938584 0.197047 2.524634 0.006101 0.000992 -663282.000000 0 0 1
-23.849529 -5.201951 -32.878698 40.949592 0.214752 2.502952 0.024750 0.009374 762235.000000 0 0 1
-25.001529 -4.613251 -32.238758 41.057229 0.182466 2.473840 0.013626 0.005107 602695.000000 0 0 1
-25.371979 -5.117651 -30.836238 40.259176 0.199034 2.443303 0.003141 0.020868 -431070.000000 0 0 1
-25.852599 -6.426051 -30.718278 40.660344 0.243628 2.427190 0.011358 0.007605 506562.000000 0 0 1
-25.619279 -6.867351 -29.399498 39.595940 0.261897 2.407573 -0.006285 0.015807 -195989.000000 0 0 1
-25.871939 -8.353651 -29.134448 39.849175 0.312317 2.390755 -0.008691 0.012405 -67682.500000 0 0 1
-27.237879 -8.707351 -29.106368 40.803194 0.309411 2.365043 0.017069 0.006714 -161732.000000 0 0 1
-27.400679 -10.070851 -28.797528 41.006303 0.352215 2.349379 0.009702 0.004187 171060.000000 0 0 1
-28.855669 -10.376351 -28.395858 41.792859 0.345197 2.317799 0.028777 0.001648 201763.000000 0 0 1
-28.931269 -11.364651 -27.438448 41.461332 0.374298 2.293992 0.029679 0.000348 -677861.000000 0 0 1
-30.254899 -11.443551 -27.009338 42.140457 0.361606 2.266513 0.027819 0.008672 -458350.000000 0 0 1
-30.325899 -12.342051 -25.762778 41.661818 0.386510 2.237474 0.030592 0.005403 -2727.710000 0 0 1
-29.827909 -11.628251 -24.664578 40.413634 0.371721 2.227240 0.034237 0.004406 157210.000000 0 0 1
-29.718439 -12.467451 -23.562778 39.922769 0.397219 2.202114 0.036573 -0.001339 -166093.000000 0 0 1
-29.246559 -11.647751 -22.322878 38.591997 0.379006 2.187603 0.041420 -0.006086 73093.500000 0 0 1
-29.014449 -12.336551 -21.100478 37.937566 0.402029 2.160590 0.032909 -0.007161 381097.000000 0 0 1
-27.804779 -13.071551 -21.023378 37.228398 0.439458 2.170882 0.038420 -0.012677 -249753.000000 0 0 1
-27.408939 -13.483551 -19.606178 36.296808 0.457179 2.141427 0.051250 -0.020914 -156155.000000 0 0 1
-27.012709 -12.427951 -18.749778 35.152448 0.431203 2.133393 0.034083 -0.016592 231751.000000 0 0 1
-26.600599 -12.926051 -17.500578 34.364879 0.452329 2.105118 0.032544 -0.012897 -83491.800000 0 0 1
-26.475289 -11.723351 -16.553378 33.352544 0.416853 2.090146 0.024479 -0.021137 -437754.000000 0 0 1
-25.350799 -10.926951 -16.771278 32.300728 0.406967 2.116738 0.032242 -0.021412 -229190.000000 0 0 1
-25.371369 -9.728351 -16.027778 31.547375 0.366148 2.103721 0.036482 -0.023131 -655661.000000 0 0 1
-24.052229 -8.973851 -15.951578 30.224040 0.357103 2.126779 0.037441 -0.022035 -537031.000000 0 0 1
-23.005829 -9.521951 -15.209778 29.176584 0.392425 2.119171 0.015416 -0.026037 613753.000000 0 0 1
-21.804829 -8.729451 -15.323678 28.044055 0.380804 2.148873 0.027211 -0.041477 777939.000000 0 0 1
-20.710429 -9.181251 -14.321578 26.801583 0.417281 2.134542 0.002882 -0.007054 -140884.000000 0 0 1
-20.084229 -10.417851 -14.657478 26.958293 0.478502 2.145647 0.000446 -0.006224 -305683.000000 0 0 1
-19.066729 -10.620751 -13.716178 25.777394 0.508225 2.131876 0.005069 -0.000306 -504905.000000 0 0 1
-18.062729 -11.692851 -14.186178 25.772710 0.574508 2.153680 0.012718 0.004056 -1648.150000 0 0 1
-17.256529 -11.396251 -15.344878 25.751264 0.583653 2.209168 0.027684 -0.001650 227570.000000 0 0 1
-17.915629 -11.207551 -16.563378 26.850036 0.559012 2.235575 0.020683 -0.009853 11211.400000 0 0 1
-16.911929 -10.735051 -17.693578 26.726716 0.565588 2.294305 0.012344 -0.001466 764694.000000 0 0 1
-17.606729 -10.874551 -18.921478 28.040597 0.553286 2.311475 0.007176 -0.000294 645001.000000 0 0 1
-17.020829 -10.087251 -19.943778 28.092980 0.534991 2.360181 0.009267 -0.001786 205603.000000 0 0 1
-17.750729 -10.492251 -21.257578 29.615204 0.533841 2.371423 0.010911 -0.002332 -709715.000000 0 0 1
-19.019129 -9.999851 -21.389978 30.319226 0.484057 2.353914 0.007310 -0.014057 -853725.000000 0 0 1
-19.707529 -10.367151 -22.573578 31.708531 0.484270 2.363009 0.002582 -0.004291 -729252.000000 0 0 1
-21.059729 -9.741651 -22.734078 32.484616 0.433260 2.345972 -0.006360 -0.008221 -999678.000000 0 0 1
-20.953729 -8.376851 -23.102478 32.294812 0.380315 2.367938 -0.006933 -0.015672 370942.000000 0 0 1
-22.110229 -7.945351 -23.787578 33.434110 0.344982 2.362393 0.003851 -0.019082 239872.000000 0 0 1
-21.561329 -7.348851 -25.135388 33.921737 0.328487 2.405327 -0.008763 -0.020317 447534.000000 0 0 1
-20.767629 -8.278151 -25.884618 34.202860 0.379306 2.429195 0.004894 -0.022596 296574.000000 0 0 1
-20.405929 -7.663851 -27.096838 34.776072 0.359270 2.464154 0.003579 -0.031113 -129828.000000 0 0 1
-19.105429 -8.192451 -27.748568 34.671555 0.405087 2.498636 0.031607 -0.033575 -219557.000000 0 0 1
-19.280929 -9.280451 -28.584698 35.706665 0.448599 2.498996 0.030464 -0.026974 -1278230.000000 0 0 1
-18.125029 -9.690551 -29.143628 35.661948 0.490982 2.527366 0.008307 -0.017569 -1545380.000000 0 0 1
-18.214029 -10.969051 -30.034428 36.798611 0.542058 2.525571 0.013781 -0.009973 -29084.800000 0 0 1
-18.815529 -10.817451 -31.344748 38.125249 0.521775 2.535977 0.022467 -0.006061 551061.000000 0 0 1
-18.713729 -12.027251 -32.095428 39.050927 0.571224 2.535511 0.000020 0.000495 -152363.000000 0 0 1
-19.195929 -11.959151 -33.563518 40.472395 0.557163 2.548640 -0.015015 0.003724 334839.000000 0 0 1
-18.455729 -10.983051 -34.321537 40.487149 0.536811 2.582458 -0.004715 0.005105 127670.000000 0 0 1
-18.819929 -11.032951 33.399049 39.892508 0.530239 0.578605 -0.001459 -0.002404 -985950.000000 0 0 1
-18.205429 -12.046851 32.369515 39.042922 0.584568 0.593345 0.004824 0.000591 -61654.500000 0 0 1
-16.812929 -11.801651 32.188435 38.184406 0.612026 0.568010 0.004664 -0.002637 619603.000000 0 0 1
-16.244729 -12.577351 31.101655 37.274574 0.658836 0.583765 0.010654 0.000702 176813.000000 0 0 1
-16.191729 -14.120151 31.135115 37.827848 0.717162 0.603994 0.007836 0.002573 -1314370.000000 0 0 1
-17.418529 -14.706051 30.816435 38.331785 0.701162 0.636906 0.006110 0.000810 -454103.000000 0 0 1
-17.562429 -16.035851 31.236185 39.259224 0.739993 0.650734 0.018107 0.002115 -84553.500000 0 0 1
-17.995729 -16.191951 32.733105 40.712181 0.732686 0.636783 -0.000371 -0.002146 -620364.000000 0 0 1
-16.935529 -15.994151 33.628374 40.908343 0.756818 0.605809 -0.000954 0.002353 -542932.000000 0 0 1
-17.298029 -15.865051 -34.088853 41.388060 0.742215 2.538596 0.000517 0.004861 -390095.000000 0 0 1
-16.287729 -15.221351 -33.164708 39.960950 0.751568 2.549775 0.006768 -0.002235 -355606.000000 0 0 1
-16.073029 -13.858051 -33.430878 39.598124 0.711530 2.575968 0.014123 -0.001393 -384968.000000 0 0 1
-14.995029 -13.307751 -32.712058 38.366989 0.725853 2.591755 0.026548 -0.008586 -16758.700000 0 0 1
-15.198329 -13.048351 -31.174218 37.055101 0.709430 2.570468 0.032241 -0.009347 -338563.000000 0 0 1
-15.457929 -14.216651 -30.400898 36.949632 0.743593 2.537057 0.031145 -0.009702 -224013.000000 0 0 1
-15.764329 -13.989551 -29.023448 35.868958 0.725820 2.513504 0.024812 -0.007676 -309464.000000 0 0 1
-15.898829 -15.239651 -28.128708 35.724557 0.764232 2.477339 0.015667 0.007252 1143440.000000 0 0 1
-14.625329 -15.874651 -27.825268 35.215768 0.826337 2.481828 0.034349 -0.013306 905448.000000 0 0 1
-14.002129 -16.444351 -28.982528 36.145030 0.865440 2.501164 0.035410 -0.019052 -493394.000000 0 0 1
-12.527929 -16.786051 -28.668958 35.505347 0.929648 2.510621 0.046063 -0.013513 5930.790000 0 0 1
-11.661729 -15.681751 -28.804038 34.807842 0.931372 2.545465 0.039356 -0.009230 443744.000000 0 0 1
-10.294729 -16.101251 -28.650458 34.439519 1.001927 2.553331 0.027056 -0.007901 1441740.000000 0 0 1
-9.254329 -14.956351 -28.436588 33.436127 1.016700 2.587684 0.014629 -0.010822 355492.000000 0 0 1
-9.501029 -14.363251 -27.210058 32.201860 0.986392 2.577332 0.012884 -0.012926 -295605.000000 0 0 1
-8.495929 -13.462451 -26.802508 31.173592 1.007834 2.605640 0.019789 -0.009367 -80050.500000 0 0 1
-8.303229 -12.081351 -27.562668 31.218637 0.968661 2.652781 0.014838 -0.016502 -163617.000000 0 0 1
-7.695729 -12.211551 -28.865178 32.272972 1.008466 2.677900 0.020958 -0.017796 430351.000000 0 0 1
-7.908329 -11.003251 -29.551448 32.510018 0.947612 2.711663 0.016194 -0.021158 274953.000000 0 0 1
-6.839829 -10.897651 -30.693618 33.281230 1.010299 2.744657 0.005417 -0.009180 1142890.000000 0 0 1
-5.486429 -10.653351 -30.284438 32.569034 1.095224 2.764811 0.017287 -0.009048 503305.000000 0 0 1
-4.602629 -10.429651 -31.318838 33.329138 1.155199 2.792500 0.026475 -0.010467 -384354.000000 0 0 1
-4.152229 -8.973051 -31.347668 32.869940 1.137395 2.836064 0.021737 -0.008579 -13645.500000 0 0 1
-3.025529 -8.684551 -32.194278 33.482037 1.235565 2.863347 0.026305 -0.008835 696284.000000 0 0 1
-3.104929 -7.335351 -32.615898 33.574466 1.170381 2.902062 0.023451 -0.004991 -164357.000000 0 0 1
-1.785629 -6.800651 -33.195348 33.931821 1.314025 2.932866 0.031923 -0.005908 -238978.000000 0 0 1
-1.358429 -7.444051 -34.312592 35.137063 1.390297 2.924536 0.028258 -0.014219 -241411.000000 0 0 1
-0.084529 -6.970251 34.355924 35.055970 1.558670 0.200181 0.014979 0.001989 162658.000000 0 0 1
0.448671 -7.575451 33.034471 33.894911 -1.511638 0.225804 -0.003367 0.007037 -321027.000000 0 0 1
-0.002529 -7.049551 31.820525 32.592054 1.570438 0.218020 -0.018668 0.013991 -55682.200000 0 0 1
0.561471 -7.703551 30.714995 31.671294 -1.498040 0.246364 -0.021442 0.007842 -65928.800000 0 0 1
0.305971 -7.097351 29.274965 30.124567 -1.527712 0.238061 -0.021630 0.007035 325269.000000 0 0 1
1.290771 -6.148751 28.852175 29.528312 -1.363877 0.214410 -0.013920 0.016939 383128.000000 0 0 1
1.000971 -5.677651 27.565755 28.162182 -1.396289 0.206172 -0.024395 0.009643 78691.500000 0 0 1
-0.085629 -4.560651 27.361135 27.738755 1.552023 0.165194 -0.013123 0.015878 841857.000000 0 0 1
-1.401529 -5.028451 27.587225 28.076762 1.298975 0.187011 -0.018997 0.017857 -1039770.000000 0 0 1
-2.382629 -4.191451 27.180175 27.604476 1.053899 0.175558 -0.014048 0.007579 72943.200000 0 0 1
-3.832429 -4.691851 27.521825 28.180699 0.885879 0.216666 -0.009933 0.007798 588638.000000 0 0 1
-4.344229 -5.685651 26.652025 27.595822 0.918352 0.262288 -0.011097 0.005055 -124567.000000 0 0 1
-5.631729 -6.020651 27.148485 28.372607 0.818763 0.294816 -0.004786 -0.000484 452386.000000 0 0 1
-5.916429 -7.610951 27.222555 28.879027 0.910015 0.340341 0.009861 0.002787 125232.000000 0 0 1
-5.086129 -8.330451 28.104345 29.750955 1.022658 0.334259 0.007086 0.000107 -158284.000000 0 0 1
-5.381329 -9.695651 28.150535 30.255858 1.064103 0.375250 0.003956 -0.003932 -8554.940000 0 0 1
-4.629629 -10.426651 29.277155 31.421335 1.152927 0.371565 0.000751 -0.004558 -70147.800000 0 0 1
-4.997129 -11.776351 29.337035 32.004927 1.169488 0.411202 0.014617 -0.009955 58457.700000 0 0 1
-4.452329 -12.436951 30.464325 33.205061 1.227019 0.409148 0.017003 -0.008571 -279585.000000 0 0 1
-4.781729 -13.934851 30.579515 33.943360 1.240238 0.448962 0.020421 -0.018281 -284696.000000 0 0 1
-6.120929 -14.320851 30.695105 34.420081 1.166883 0.469535 0.032430 -0.023385 -699685.000000 0 0 1
-6.052929 -15.724151 30.529765 34.870523 1.203336 0.504290 0.027647 -0.028204 227675.000000 0 0 1
-6.090229 -16.446451 31.876595 36.382605 1.216147 0.502981 0.043106 -0.023005 -1169680.000000 0 0 1
-7.276829 -16.280251 32.527175 37.094688 1.150463 0.501487 0.045304 -0.015813 -1308800.000000 0 0 1
-7.307629 -16.791851 33.808409 38.449658 1.160327 0.496426 0.039634 -0.020502 924692.000000 0 0 1
-8.798529 -17.149051 34.202407 39.259504 1.096754 0.513180 0.048701 -0.013907 1152660.000000 0 0 1
-9.330929 -18.336951 33.643790 39.436209 1.100086 0.548861 0.048060 -0.016098 313100.000000 0 0 1
-9.821429 -18.297751 32.258625 38.365180 1.078178 0.571980 0.043841 -0.018328 -129726.000000 0 0 1
-10.561229 -19.625951 31.903035 38.916849 1.077115 0.609779 0.041376 -0.021245 235472.000000 0 0 1
-11.642029 -19.894151 32.796965 40.086843 1.041331 0.612614 0.047172 -0.018589 288017.000000 0 0 1
-12.098129 -21.226451 32.698325 40.817979 1.052762 0.641705 0.033234 -0.018714 -149918.000000 0 0 1
-11.431029 -22.235051 33.711096 41.970274 1.095933 0.638126 0.040136 -0.018729 -23660.800000 0 0 1
-10.064829 -22.394651 33.351828 41.414558 1.148416 0.634587 0.020201 -0.018085 -9980.170000 0 0 1
-9.345129 -23.124351 34.351063 42.450707 1.186739 0.628009 0.017293 -0.026525 128394.000000 0 0 1
-9.754429 -24.561351 -34.273358 43.279001 1.192753 2.484738 0.019712 -0.011560 -433613.000000 0 0 1
-9.305329 -25.511751 33.847787 43.394830 1.221045 0.676137 0.015157 -0.009827 56077.600000 0 0 1
-9.613329 -26.821771 34.266640 44.564853 1.226644 0.693652 0.016812 -0.016691 -1126750.000000 0 0 1
-9.216829 -27.832721 33.118400 44.231648 1.251011 0.724624 0.009140 -0.008771 875286.000000 0 0 1
-7.811529 -27.891591 32.789905 43.750871 1.297725 0.723537 0.001605 -0.005450 483123.000000 0 0 1
-7.047829 -28.524181 33.780942 44.771116 1.328565 0.715866 -0.010950 -0.005133 -768155.000000 0 0 1
-5.541229 -28.193381 33.655006 44.251908 1.376726 0.706664 -0.012764 -0.008395 103876.000000 0 0 1
-5.185429 -26.959171 34.103211 43.780299 1.380773 0.677787 -0.007021 -0.003662 -250685.000000 0 0 1
-5.415529 -25.997691 33.091917 42.429740 1.365425 0.676254 0.009579 -0.000149 -562008.000000 0 0 1
-4.855929 -24.649751 33.525000 41.894103 1.376290 0.643114 0.016803 -0.005433 -94475.100000 0 0 1
-3.477629 -24.672751 33.805693 41.995993 1.430769 0.635164 0.020711 -0.007161 -266632.000000 0 0 1
-3.174129 -23.396051 34.270817 41.616573 1.435950 0.603262 0.024615 -0.005801 -452658.000000 0 0 1
33.802641 -15.627651 2.798022 37.345293 -0.433052 1.495803 0.066564 -0.030033 -475502.000000 0 0 1
34.655358 -15.994051 3.816922 38.358472 -0.432390 1.471125 0.046840 -0.030007 -36025.000000 0 0 1
33.949491 -16.444151 4.951522 38.045967 -0.451066 1.440280 0.059809 -0.038585 54206.600000 0 0 1
34.952422 -16.666851 6.109522 39.201811 -0.444952 1.414310 0.041381 -0.018184 336680.000000 0 0 1
-34.891356 -17.835251 5.856822 39.620768 0.472540 1.422431 0.049732 -0.023117 -229722.000000 0 0 1
-34.058279 -17.959351 6.976422 39.130233 0.485258 1.391551 0.042778 -0.014723 150175.000000 0 0 1
-32.778669 -18.801151 6.691722 38.375820 0.520766 1.395527 0.029703 -0.010735 208667.000000 0 0 1
-33.074589 -20.211651 6.706422 39.337201 0.548536 1.399474 0.043065 -0.015816 200969.000000 0 0 1
-32.022679 -20.967251 7.285222 38.963471 0.579716 1.382714 0.023895 -0.002430 81575.600000 0 0 1
-32.344609 -22.461451 7.419422 40.071665 0.606986 1.384568 0.014695 -0.007089 -251311.000000 0 0 1
-32.297189 -23.097351 6.200122 40.187530 0.620822 1.415898 0.026200 -0.002878 112843.000000 0 0 1
-32.689689 -24.473351 6.222322 41.307118 0.642641 1.419585 0.018786 -0.011147 -37576.800000 0 0 1
-32.092679 -25.340861 5.068022 41.204176 0.668376 1.447486 0.024882 -0.013323 -23612.400000 0 0 1
-32.441429 -24.958851 3.758322 41.103717 0.655771 1.479233 0.036249 -0.014373 -22976.900000 0 0 1
-31.871719 -25.873131 2.851422 41.150407 0.681889 1.501448 0.033054 -0.008533 -167270.000000 0 0 1
-32.310429 -25.598761 1.426022 41.246745 0.670013 1.536216 0.037251 -0.008835 -324388.000000 0 0 1
-33.544309 -26.249851 1.175422 42.610527 0.664005 1.543208 0.040724 -0.008247 27850.500000 0 0 1
-34.236352 -25.716991 0.083022 42.819369 0.644243 1.568857 0.035078 -0.007482 -19607.600000 0 0 1
-35.232556 -24.592151 0.446622 42.968667 0.609379 1.560402 0.044112 -0.008847 -780901.000000 0 0 1
34.076171 -24.766451 0.062622 42.125603 -0.628485 1.569310 0.020150 -0.006675 -453326.000000 0 0 1
33.251721 -23.762851 0.640022 40.874927 -0.620481 1.555138 0.046819 -0.010554 651542.000000 0 0 1
31.790591 -23.898551 0.110722 39.771782 -0.644620 1.568012 0.017426 -0.009150 276333.000000 0 0 1
31.499721 -23.659151 -1.267578 39.415664 -0.644199 1.602961 0.029015 -0.023562 -36625.800000 0 0 1
30.122851 -23.585551 -1.567978 38.289984 -0.664276 1.611758 0.026448 -0.013273 58397.400000 0 0 1
29.834601 -23.258251 -3.057978 37.952614 -0.662161 1.651457 0.022877 0.003024 -409484.000000 0 0 1
30.314561 -22.044651 -3.489178 37.644569 -0.628747 1.663617 0.037789 -0.018584 -9818.370000 0 0 1
30.059461 -21.817451 -4.816678 37.453608 -0.627839 1.699757 0.030989 -0.037976 -154587.000000 0 0 1
30.077261 -20.281551 -5.047178 36.625905 -0.593279 1.709040 0.046735 -0.034229 -113980.000000 0 0 1
29.008721 -19.751051 -4.326778 35.360018 -0.597769 1.693467 0.045064 -0.036117 -246923.000000 0 0 1
29.102051 -18.335451 -4.190078 34.650756 -0.562215 1.692016 0.053394 -0.032245 -669921.000000 0 0 1
28.108431 -18.013151 -3.119378 33.530404 -0.569913 1.663962 0.060969 -0.032951 -954985.000000 0 0 1
28.331161 -18.135451 -1.740078 33.683484 -0.569401 1.622479 0.057153 -0.025595 -359554.000000 0 0 1
28.688841 -19.403551 -1.290078 34.658501 -0.594673 1.608027 0.044114 -0.016693 -524674.000000 0 0 1
27.595381 -20.450951 -1.054478 34.363620 -0.637781 1.601487 0.027807 0.000766 -211691.000000 0 0 1
26.726891 -20.102251 0.035722 33.442913 -0.644867 1.569728 0.045259 -0.001026 673385.000000 0 0 1
25.944371 -21.215351 0.465222 33.517427 -0.685456 1.556916 0.020962 -0.008407 -58266.400000 0 0 1
25.091131 -20.946451 1.726322 32.730702 -0.695612 1.518029 0.029807 -0.002880 -532851.000000 0 0 1
24.110731 -21.884551 2.073322 32.627589 -0.737036 1.507208 0.027619 0.018518 -94324.100000 0 0 1
23.356431 -21.413551 3.190622 31.847183 -0.742028 1.470443 0.010417 0.015326 -337076.000000 0 0 1
22.023831 -20.789151 2.820222 30.416962 -0.756567 1.477944 -0.006623 0.007967 -2006650.000000 0 0 1
22.051231 -19.523251 2.204222 29.534263 -0.724667 1.496094 0.006548 -0.002372 183223.000000 0 0 1
22.382131 -18.388351 3.039422 29.126093 -0.687752 1.466252 0.008932 0.009122 -301773.000000 0 0 1
22.421031 -17.043551 2.261222 28.254175 -0.649971 1.490679 0.006289 0.007325 -549877.000000 0 0 1
21.144931 -16.790851 1.767222 27.058526 -0.671123 1.505439 -0.007173 0.003094 -529232.000000 0 0 1
21.036531 -15.595551 1.075122 26.209020 -0.637946 1.529764 -0.001797 0.006372 411176.000000 0 0 1
19.557831 -15.423751 0.620022 24.915563 -0.667765 1.545909 -0.017003 0.013145 267012.000000 0 1 0
18.585831 -15.160551 1.589622 24.037519 -0.684244 1.504617 -0.003277 0.001113 -56529.000000 0 1 0
17.888431 -13.945451 1.439122 22.727574 -0.662165 1.507433 0.012191 -0.003663 -198138.000000 0 1 0
18.519931 -12.664851 2.090422 22.533445 -0.599804 1.477893 0.027382 -0.002959 129154.000000 0 1 0
19.526531 -11.980351 1.336122 22.947754 -0.550318 1.512539 0.023360 -0.002758 644304.000000 0 1 0
19.865731 -10.726051 1.925222 22.658374 -0.495077 1.485726 0.021748 -0.009908 -213258.000000 0 1 0
20.804331 -9.894351 1.041622 23.060862 -0.443930 1.525613 0.025475 -0.011039 -473961.000000 0 1 0
20.163631 -9.266751 -0.031978 22.191118 -0.430790 1.572237 0.029133 -0.009057 138772.000000 0 1 0
21.041231 -8.783551 -0.992978 22.822580 -0.395454 1.614319 0.029878 0.006187 -670141.000000 0 1 0
20.313731 -8.575451 -2.329778 22.172368 -0.399455 1.676066 0.033887 0.004508 -367022.000000 0 1 0
20.989431 -7.906951 -3.386478 22.683569 -0.360270 1.720649 0.020232 0.005289 993795.000000 0 1 0
21.920431 -8.743951 -4.142178 23.960793 -0.379553 1.744542 0.009043 0.008237 882983.000000 0 1 0
21.188531 -9.814251 -5.086178 23.898589 -0.433766 1.785260 -0.010651 0.006016 383608.000000 0 1 0
20.617331 -9.353151 -6.314178 23.503715 -0.425889 1.842783 -0.014907 0.001728 316348.000000 0 1 0
19.204831 -9.297751 -6.269678 22.239212 -0.450876 1.856591 -0.029642 0.014452 -730557.000000 0 1 0
18.674531 -9.323951 -7.735478 22.260094 -0.463077 1.925705 -0.021129 0.021118 -388873.000000 0 1 0
18.697031 -10.648851 -8.349978 23.080276 -0.517727 1.940973 -0.024246 0.022232 758179.000000 0 1 0
19.963931 -10.981051 -8.899978 24.461227 -0.502877 1.943184 -0.019118 0.020548 30067.500000 0 1 0
19.893031 -12.318551 -9.680078 25.321597 -0.554446 1.963065 -0.024628 0.011667 219932.000000 0 0 1
18.945531 -12.442651 -10.754078 25.087903 -0.581112 2.013801 -0.017196 0.012143 587477.000000 0 0 1
18.756931 -13.786051 -11.217978 25.840292 -0.633822 2.019866 -0.016629 0.009374 -290889.000000 0 0 1
17.720431 -14.074751 -12.303878 25.758449 -0.671235 2.068790 -0.003929 0.003589 -297535.000000 0 0 1
17.446331 -15.482651 -12.363878 26.399856 -0.725835 2.058197 0.004094 -0.002471 106611.000000 0 0 1
16.486731 -15.682151 -13.378778 26.395717 -0.760392 2.102328 0.009529 -0.007080 -237187.000000 0 0 1
16.178731 -17.149351 -13.788478 27.312519 -0.814513 2.099994 0.012287 -0.013642 -499454.000000 0 0 1
15.615031 -17.938051 -12.804078 27.010133 -0.854522 2.064678 0.010230 -0.008753 23195.100000 0 0 1
15.726531 -19.311351 -13.072478 28.127242 -0.887356 2.054162 0.011343 -0.004939 -205814.000000 0 0 1
14.754831 -20.235651 -12.275178 27.890260 -0.940773 2.026533 0.013813 -0.004511 -287067.000000 0 0 1
13.419531 -19.995551 -12.600678 27.178722 -0.979713 2.052876 0.010459 -0.005397 -878989.000000 0 0 1
12.588131 -20.813251 -11.811178 27.039903 -1.026845 2.022841 0.003202 -0.004851 662198.000000 0 0 1
11.077131 -20.501151 -12.088378 26.251265 -1.075417 2.049341 0.009052 -0.007135 647644.000000 0 0 1
10.166531 -21.159551 -11.256278 26.034376 -1.122894 2.017907 0.007948 -0.001629 117115.000000 0 0 1
8.815531 -20.886551 -11.628778 25.479209 -1.171412 2.044744 -0.000894 -0.000686 732294.000000 0 0 1
7.772831 -21.451751 -10.619378 25.166758 -1.223171 2.006403 0.005052 -0.001656 85366.400000 0 0 1
7.823031 -22.849451 -10.642578 26.392455 -1.240932 1.985855 0.004370 -0.000969 145897.000000 0 0 1
6.967431 -23.419251 -9.652378 26.271178 -1.281627 1.947022 0.012509 -0.005144 319178.000000 0 0 1
7.042731 -24.985521 -9.567578 27.666132 -1.296052 1.923912 0.013306 0.000236 369389.000000 0 0 1
8.334131 -25.444401 -9.213878 28.315558 -1.254266 1.902231 0.009467 0.007140 -184955.000000 0 0 1
8.509131 -26.781531 -9.665178 29.716517 -1.263159 1.902068 0.010440 0.005781 -820640.000000 0 0 1
9.914931 -27.290201 -9.472178 30.541498 -1.222309 1.886138 0.013382 0.005599 -681183.000000 0 0 1
10.179531 -27.585771 -8.094478 30.497839 -1.217284 1.839427 0.018802 0.002146 -622119.000000 0 0 1
11.519531 -27.920741 -7.917078 31.224149 -1.179493 1.827151 0.031245 0.004562 -654203.000000 0 0 1
11.875131 -27.970841 -6.389678 31.051806 -1.169304 1.778052 0.024717 -0.001932 -121663.000000 0 0 1
11.447031 -29.125121 -5.728578 31.813893 -1.196313 1.751849 0.021850 -0.005376 -110011.000000 0 0 1
10.070031 -29.198351 -5.422678 31.358486 -1.238687 1.744595 0.023873 -0.008594 51053.900000 0 0 1
9.834931 -30.480621 -4.544778 32.348866 -1.258681 1.711755 0.037645 -0.020092 -115138.000000 0 0 1
10.116031 -31.721781 -5.206278 33.700309 -1.262093 1.725905 0.041473 -0.014090 -244181.000000 0 0 1
9.173731 -32.212771 -6.139178 34.051571 -1.293356 1.752078 0.042866 -0.016523 11047.800000 0 0 1
9.428031 -33.596311 -6.633378 35.519031 -1.297206 1.758655 0.043693 -0.009823 -360250.000000 0 0 1
9.113631 34.561152 -5.658878 36.187766 1.312970 1.727816 0.030810 -0.005850 -27325.400000 0 0 1
9.484031 33.270564 -5.983178 35.109482 1.293104 1.742047 0.035496 -0.002468 -260126.000000 0 0 1
9.230631 32.245141 -4.879578 33.893421 1.291988 1.715267 0.050439 0.001200 41082.400000 0 0 1
7.848931 32.011421 -4.752478 33.300493 1.330348 1.714000 0.048661 -0.006371 -390926.000000 0 0 1
7.478931 31.073521 -3.768478 32.182287 1.334604 1.688163 0.033985 -0.008935 271852.000000 0 0 1
6.044331 30.513591 -3.899678 31.349971 1.375241 1.695511 0.030505 -0.014177 244596.000000 0 0 1
5.887031 29.650261 -5.044578 30.647070 1.374796 1.736151 0.022845 -0.008811 -119449.000000 0 0 1
5.311631 30.220081 -6.168978 31.297333 1.396809 1.769204 0.031097 -0.016022 -423788.000000 0 0 1
5.462831 29.462321 -7.520478 30.893826 1.387461 1.816697 0.039101 -0.016197 108533.000000 0 0 1
4.589931 28.354031 -7.736278 29.746740 1.410309 1.833893 0.038654 -0.016254 141422.000000 0 0 1
4.894131 27.289351 -6.808378 28.548472 1.393341 1.811602 0.022847 -0.008551 268235.000000 0 0 1
3.994731 25.999981 -7.087978 27.243281 1.418345 1.833998 0.010295 -0.009637 750784.000000 0 0 1
2.622731 26.244631 -6.815578 27.241724 1.471193 1.823672 0.018450 -0.013848 162571.000000 0 0 1
1.753531 26.756661 -7.826778 27.932996 1.505354 1.854797 0.031970 -0.021044 332891.000000 0 0 1
1.464831 25.888401 -9.064778 27.468623 1.514274 1.907105 0.029750 -0.010632 180349.000000 0 0 1
2.621131 25.707661 -9.894878 27.670612 1.469188 1.936488 0.008408 -0.012335 527200.000000 0 0 1
2.244731 25.073191 -11.108378 27.515447 1.481507 1.986369 0.007495 -0.006476 -665348.000000 0 0 1
2.161331 23.540391 -11.126678 26.127081 1.479239 2.010717 0.012641 0.004028 -366298.000000 0 0 1
0.968331 23.002791 -10.628778 25.358174 1.528725 2.003301 0.026133 0.000679 -326218.000000 0 0 1
1.088331 21.642491 -10.404278 24.038113 1.520552 2.018420 -0.000043 0.002590 -410891.000000 0 1 0
-0.011369 21.098391 -9.490378 23.134596 -1.570257 1.993497 0.016377 0.003725 -376390.000000 0 1 0
-1.250769 20.960591 -10.148078 23.321542 -1.511195 2.020987 0.036315 -0.007154 -623396.000000 0 1 0
-2.101769 20.250091 -9.292978 22.379524 -1.467376 1.999008 0.025903 -0.008591 337375.000000 0 1 0
-3.523669 20.133591 -9.929678 22.723914 -1.397537 2.023024 0.018345 -0.019510 154096.000000 0 1 0
-4.503769 19.413091 -9.279878 21.983362 -1.342833 2.006592 0.013219 -0.022269 -584188.000000 0 1 0
-5.637969 19.268291 -10.095678 22.471681 -1.286139 2.036736 0.019123 -0.015011 -794568.000000 0 1 0
-6.627569 18.225591 -9.554678 21.619175 -1.222021 2.028572 0.017732 -0.011756 -393697.000000 0 1 0
-7.488369 18.692591 -8.540578 21.873046 -1.189767 1.971929 0.022715 -0.010845 431148.000000 0 1 0
-8.741569 19.124991 -9.113778 22.918143 -1.142074 1.979769 0.032243 -0.013579 -42256.100000 0 1 0
-9.726969 19.350991 -7.990478 23.085115 -1.105023 1.924241 0.036224 -0.010426 -444842.000000 0 1 0
-10.124969 18.128791 -7.380278 22.037164 -1.061449 1.912297 0.036999 -0.013893 -260241.000000 0 1 0
-11.030569 18.324991 -6.311678 22.300584 -1.028951 1.857746 0.046715 -0.011010 56435.400000 0 1 0
-11.675869 17.062391 -5.684578 21.442144 -0.970682 1.839117 0.038286 -0.014230 -110085.000000 0 1 0
-12.507969 17.303391 -4.578478 21.836188 -0.944891 1.782038 0.050378 -0.012857 -65071.500000 0 1 0
-13.194969 16.169791 -4.123078 21.273673 -0.886360 1.765842 0.060070 -0.013143 -230759.000000 0 1 0
-14.376969 16.565591 -3.221778 22.169707 -0.856012 1.716636 0.045506 -0.011865 -429552.000000 0 1 0
-15.600269 16.731291 -3.870778 23.201022 -0.820366 1.738417 0.064082 -0.020224 -255140.000000 0 1 0
-16.583669 17.294991 -3.026978 24.151551 -0.806391 1.696459 0.054122 -0.016686 -214475.000000 0 1 0
-17.912769 17.480091 -3.763178 25.309730 -0.773174 1.720035 0.045668 -0.025412 -574610.000000 0 0 1
-17.849169 18.451291 -4.798378 26.116421 -0.801984 1.755576 0.054082 -0.023031 190511.000000 0 0 1
-19.111269 18.749591 -5.373578 27.306833 -0.775846 1.768874 0.032797 -0.022122 219325.000000 0 0 1
-18.977169 19.701291 -6.596878 28.138810 -0.804118 1.807439 0.032343 -0.010299 -41001.000000 0 0 1
-18.515369 21.015591 -6.181778 28.682545 -0.848561 1.788025 0.030056 -0.009051 131504.000000 0 0 1
-18.307569 21.814691 -7.281678 29.395079 -0.872587 1.821120 0.019722 0.011973 78529.800000 0 0 1
-18.201369 23.260191 -6.828278 30.314217 -0.906810 1.797996 0.028961 0.006391 -13505.600000 0 0 1
-16.992469 23.466391 -6.145978 29.617370 -0.944066 1.779828 0.028142 0.004083 -100644.000000 0 0 1
-17.083369 24.652851 -5.341878 30.465394 -0.964813 1.747050 0.028043 0.000541 169433.000000 0 0 1
-15.719069 25.063961 -4.737878 29.962289 -1.010647 1.729591 0.025304 0.006937 -254080.000000 0 0 1
-15.817069 25.738521 -3.489878 30.411025 -1.019762 1.685807 0.023275 -0.001572 210440.000000 0 0 1
-14.638969 26.346891 -2.957878 30.285428 -1.063645 1.668619 0.034261 0.005182 420153.000000 0 0 1
-14.060969 27.551581 -3.754678 31.159238 -1.098902 1.691590 0.033083 0.004673 283059.000000 0 0 1
-14.955169 28.656311 -3.812778 32.548096 -1.089798 1.688209 0.038727 -0.001605 140368.000000 0 0 1
-14.274869 29.631341 -4.522478 33.200017 -1.121856 1.707440 0.025208 0.013635 150613.000000 0 0 1
-14.930569 31.039911 -4.307478 34.712424 -1.122454 1.695207 0.030596 0.006703 234733.000000 0 0 1
-16.261869 31.153591 -4.753678 35.462545 -1.089712 1.705249 0.039293 0.004479 -478932.000000 0 0 1
-16.726969 32.389311 -4.310978 36.707540 -1.094087 1.688509 0.042338 0.000159 -359579.000000 0 0 1
12.973171 -8.909351 18.506245 24.293225 -0.601779 0.704730 0.041036 0.002913 122237.000000 0 1 0
13.674571 -9.956051 19.167145 25.563573 -0.629318 0.723062 0.046952 -0.000612 219103.000000 0 0 1
13.914371 -11.032051 18.282445 25.486539 -0.670368 0.770823 0.047325 0.000244 -48885.400000 0 0 1
14.168971 -12.320051 19.089845 26.776213 -0.715712 0.777114 0.052689 -0.012496 -893141.000000 0 0 1
15.451671 -12.445551 19.614745 27.899535 -0.678055 0.791120 0.039597 -0.013058 -371037.000000 0 0 1
15.622271 -13.668751 20.344045 29.064932 -0.718803 0.795467 0.036032 -0.014546 -88890.800000 0 0 1
16.092071 -14.911651 19.588645 29.411343 -0.747343 0.841931 0.031273 -0.011395 -454593.000000 0 0 1
15.216471 -15.110751 18.500145 28.321920 -0.781912 0.858981 0.038613 -0.016758 439813.000000 0 0 1
15.525371 -16.337651 17.856245 28.754155 -0.810886 0.900782 0.041615 -0.024339 -214018.000000 0 0 1
15.114371 -16.424451 16.367145 27.678335 -0.826913 0.938084 0.041148 -0.023087 74024.000000 0 0 1
13.710171 -16.534851 16.217345 26.914166 -0.878521 0.924094 0.066008 -0.022260 171871.000000 0 0 1
13.286471 -16.392451 14.861645 25.809131 -0.889671 0.957179 0.081528 -0.026406 -52261.400000 0 0 1
12.538171 -17.645651 14.441845 26.021945 -0.953023 0.982449 0.046934 -0.009606 480178.000000 0 0 1
13.438371 -18.628551 13.832545 26.813281 -0.945861 1.028757 0.040836 -0.004619 740575.000000 0 0 1
12.726671 -19.733851 13.362345 27.017500 -0.998004 1.053444 0.040658 -0.005260 -348668.000000 0 0 1
13.671871 -20.762651 12.726745 27.928082 -0.988480 1.097641 0.036869 -0.005914 -96994.800000 0 0 1
14.597771 -21.246151 13.694245 29.189488 -0.968795 1.082468 0.040518 -0.009311 35516.500000 0 0 1
15.010771 -22.529951 13.285145 30.156542 -0.983076 1.114597 0.025635 -0.018304 -137420.000000 0 0 1
15.742971 -23.401051 14.373845 31.655295 -0.978597 1.099464 0.019554 -0.016582 -911497.000000 0 0 1
17.054671 -23.002551 14.457545 32.078026 -0.932806 1.103248 0.000443 -0.017951 -1403570.000000 0 0 1
17.708871 -23.562151 15.559845 33.329984 -0.926284 1.085080 0.017317 -0.021221 -915269.000000 0 0 1
19.050571 -22.937151 15.797345 33.743047 -0.877700 1.083582 0.001879 -0.023461 -1040000.000000 0 0 1
20.081971 -23.501451 15.049745 34.381660 -0.863696 1.117728 0.002981 -0.026398 -238810.000000 0 0 1
21.349471 -22.916851 15.335845 34.873630 -0.820791 1.115471 0.010416 -0.018824 190674.000000 0 0 1
22.507271 -23.764051 14.814845 35.927524 -0.812553 1.145760 0.007214 -0.024351 -472801.000000 0 0 1
22.841571 -24.725151 15.729545 37.154933 -0.824976 1.133656 0.011399 -0.020798 143190.000000 0 0 1
23.900171 -25.527801 15.244545 38.148171 -0.818316 1.159701 0.017280 -0.020480 126361.000000 0 0 1
24.431971 -26.685101 16.151845 39.621937 -0.829447 1.150918 0.015249 -0.016945 374808.000000 0 0 1
25.099871 -26.205481 17.355745 40.223782 -0.806944 1.124664 0.008445 -0.008450 433922.000000 0 0 1
25.422171 -27.291241 18.252245 41.524006 -0.820841 1.115689 0.019164 0.000256 98857.700000 0 0 1
25.706971 -26.753131 19.611345 41.966453 -0.805338 1.084551 0.009373 0.002643 669850.000000 0 0 1
24.495671 -26.409401 20.320245 41.357063 -0.822975 1.057172 0.018265 0.005274 571012.000000 0 0 1
24.667571 -26.015641 21.659545 41.886018 -0.811990 1.027329 0.018222 0.009854 -993091.000000 0 0 1
23.414371 -25.833921 22.477945 41.483518 -0.834488 0.998157 0.018285 0.005866 -780365.000000 0 0 1
22.884671 -27.079091 22.816045 42.161087 -0.869151 0.998976 0.021861 0.010220 -404111.000000 0 0 1
21.782971 -26.958061 23.673345 41.972159 -0.891177 0.971544 0.020858 0.011833 -132516.000000 0 0 1
21.027371 -28.311091 23.822845 42.558150 -0.931967 0.976686 0.038326 0.009345 183129.000000 0 0 1
21.913571 -29.309291 24.362295 43.963172 -0.928790 0.983452 0.031564 0.017293 730003.000000 0 0 1
21.619671 -30.639571 23.950845 44.495353 -0.956313 1.002404 0.040232 0.014145 -238976.000000 0 0 1
22.709271 -31.627831 24.428155 45.964828 -0.948082 1.010481 0.031953 0.022248 74694.900000 0 0 1
22.616271 -31.891481 25.811835 46.848832 -0.953947 0.987282 0.029168 0.017728 491278.000000 0 0 1
23.791071 -32.563121 26.233075 48.109730 -0.939818 0.994078 0.028929 0.012476 -219654.000000 0 0 1
23.645071 -33.173821 27.615905 49.216156 -0.951556 0.975065 0.033764 -0.002679 48854.300000 0 0 1
22.986371 -34.408316 27.830285 49.868128 -0.981839 0.978729 0.022902 0.011834 921083.000000 0 0 1
21.582571 -34.494178 27.577725 49.154721 -1.011703 0.975156 0.025043 0.022945 397617.000000 0 0 1
20.777771 33.462259 28.194325 48.439225 1.015128 0.949542 0.044009 -0.006994 27463.700000 0 0 1
20.508371 33.650594 29.536675 49.248055 1.023457 0.927604 0.042372 -0.007974 53714.800000 0 0 1
19.998171 32.519851 30.138925 48.639720 1.019455 0.902517 0.049730 -0.011599 -211106.000000 0 0 1
19.676471 32.687341 31.630065 49.558922 1.028937 0.878597 0.038684 -0.013721 409096.000000 0 0 1
20.861271 32.717101 32.437105 50.574372 1.003169 0.874508 0.034897 -0.006457 611269.000000 0 0 1
20.600471 33.014631 33.798270 51.542878 1.012931 0.855646 0.024148 -0.014273 -192077.000000 0 0 1
21.890171 33.034701 -34.425851 52.493907 0.985585 2.286047 0.001612 -0.010376 -181304.000000 0 0 1
22.276871 31.722181 -34.229119 51.712555 0.958563 2.294162 0.008534 -0.006063 307377.000000 0 0 1
23.508671 31.549101 -33.532388 51.695497 0.930409 2.276608 -0.008310 0.002601 354820.000000 0 0 1
23.855871 30.024911 -33.380958 50.841776 0.899396 2.287053 -0.001450 -0.000711 -273605.000000 0 0 1
24.138371 29.398721 34.410538 51.293575 0.883340 0.835436 0.006951 -0.005884 61360.000000 0 0 1
23.868171 27.991681 -34.519507 50.446211 0.864744 2.324417 0.036804 -0.019413 -223486.000000 0 0 1
24.099271 27.250191 33.185575 49.240534 0.846684 0.831256 0.048954 -0.021631 -299185.000000 0 0 1
25.444771 26.942391 32.898275 49.554266 0.813978 0.844796 0.041314 -0.019663 224339.000000 0 0 1
25.661871 26.343471 31.627765 48.505934 0.798504 0.860526 0.069969 -0.034567 -321037.000000 0 0 1
26.723871 25.235711 31.740165 48.563818 0.756765 0.858496 0.049029 -0.023510 -481933.000000 0 0 1
26.464971 24.224031 32.701795 48.544884 0.741217 0.831673 0.056194 -0.028115 450244.000000 0 0 1
27.278771 24.441611 33.868101 49.885589 0.730597 0.824512 0.049808 -0.026411 -895554.000000 0 0 1
26.864771 23.816691 -33.865358 49.353958 0.725329 2.327011 0.034835 -0.027504 -660447.000000 0 0 1
25.803371 24.363041 -33.075848 48.511684 0.756695 2.321033 0.036645 -0.030147 699802.000000 0 0 1
24.508071 24.217961 -33.610448 48.133329 0.779444 2.343785 0.043323 -0.021788 -371187.000000 0 0 1
23.952671 22.731691 -33.690508 47.175317 0.759250 2.366213 0.031800 -0.022717 -979962.000000 0 0 1
23.878471 22.181891 -32.408778 45.962447 0.748581 2.353381 0.016728 -0.035251 402121.000000 0 0 1
23.850971 20.740291 -32.359168 45.234326 0.715751 2.367946 0.008807 -0.021650 -179544.000000 0 0 1
23.816371 20.112891 -30.957978 43.933408 0.701292 2.352736 0.008057 -0.025075 418602.000000 0 0 1
22.495171 20.105491 -30.402868 42.832206 0.729362 2.360029 0.000022 -0.016979 820282.000000 0 0 1
22.447271 19.344191 -29.197828 41.600371 0.711283 2.348808 0.001162 -0.014463 248903.000000 0 0 1
21.246171 19.756291 -28.290738 40.522545 0.749078 2.343604 0.013208 -0.014955 244314.000000 0 0 1
21.195971 19.044191 -27.074118 39.305957 0.731976 2.330635 0.013419 -0.006590 -151554.000000 0 0 1
22.023271 19.643891 -26.104848 39.400127 0.728356 2.295024 0.001896 0.002273 -150800.000000 0 0 1
22.054471 18.928491 -24.757278 38.178663 0.709270 2.276354 0.005265 0.008869 -10919.500000 0 0 1
22.751171 17.683291 -24.884878 38.073242 0.660713 2.283135 0.006767 -0.007437 438270.000000 0 0 1
22.857671 17.033091 -23.624478 37.023172 0.640410 2.262824 0.010841 0.000406 -580688.000000 0 0 1
23.764671 15.778591 -23.691178 37.080931 0.586121 2.263870 0.033758 -0.008031 -443699.000000 0 0 1
25.128671 16.150591 -23.768078 38.173462 0.571237 2.242900 0.047126 -0.018454 516984.000000 0 0 1
26.107971 15.111391 -23.765978 38.403151 0.524688 2.238080 0.042232 -0.020924 191471.000000 0 0 1
26.129471 14.155291 -22.546678 37.302469 0.496477 2.219845 0.046098 -0.009605 -1113230.000000 0 0 1
25.003171 13.347591 -22.344478 36.091446 0.490349 2.238402 0.028600 -0.001454 -249750.000000 0 0 1
24.957671 12.781191 -21.044278 35.058606 0.473292 2.214622 0.021972 -0.008334 124513.000000 0 0 1
23.552371 12.180191 -20.770678 33.682225 0.477276 2.235297 0.026628 -0.003552 944211.000000 0 0 1
22.540571 13.190091 -20.624678 33.278119 0.529445 2.239242 0.041050 -0.002494 16500.600000 0 0 1
21.254971 12.792191 -21.003878 32.505028 0.541775 2.273356 0.029884 -0.003033 -279316.000000 0 0 1
20.227171 13.917991 -20.948678 32.275316 0.602684 2.277147 0.031327 -0.003864 -501451.000000 0 0 1
20.583671 14.911591 -21.931678 33.571440 0.626940 2.282710 0.016121 0.004547 267340.000000 0 0 1
19.735671 16.021991 -22.049378 33.650795 0.681912 2.285298 0.009133 0.006906 86469.100000 0 0 1
18.434371 15.880791 -22.918678 33.425909 0.711120 2.326301 0.018141 0.020320 598021.000000 0 0 1
17.430771 15.113091 -22.270478 32.065737 0.714301 2.338557 0.021584 0.006628 383674.000000 0 0 1
16.302471 14.950791 -23.117878 31.995828 0.742176 2.378248 0.022411 -0.006647 20747.000000 0 0 1
15.237871 14.024191 -22.494878 30.575974 0.743946 2.397502 0.029666 -0.008514 238052.000000 0 0 1
13.993271 14.216491 -23.140978 30.552007 0.793311 2.430163 0.031568 -0.009873 -276910.000000 0 0 1
12.899371 13.799491 -22.369878 29.278510 0.819099 2.440344 0.041151 -0.016085 511098.000000 0 0 1
11.536771 13.799391 -23.157778 29.322397 0.874466 2.481221 0.041490 -0.013192 447500.000000 0 0 1
11.256871 15.190591 -23.306078 30.010739 0.933053 2.460033 0.026553 -0.009604 -26824.700000 0 0 1
10.982571 15.510491 -24.627578 31.108034 0.954672 2.484349 0.028497 -0.006087 -540042.000000 0 0 1
10.623371 16.998191 -24.958278 32.011094 1.012218 2.464944 0.028257 -0.007038 160296.000000 0 0 1
11.603371 18.055791 -24.749078 32.759223 0.999613 2.427189 0.022657 0.000251 866363.000000 0 0 1
12.759871 18.012891 -25.601098 33.803769 0.954472 2.430033 0.023407 -0.002148 458971.000000 0 0 1
12.475471 18.153591 -27.125068 34.942232 0.968701 2.459544 0.036927 -0.017468 -309087.000000 0 0 1
13.600671 17.805591 -27.919498 35.798264 0.918495 2.465322 0.015458 -0.013714 136513.000000 0 0 1
13.215071 17.241391 -29.148778 36.353197 0.916835 2.501134 0.026144 -0.025323 -241401.000000 0 0 1
14.084471 17.715591 -30.345738 37.856021 0.899092 2.500779 0.015204 -0.022385 -418683.000000 0 0 1
15.384871 17.211791 -30.257458 38.058557 0.841386 2.489843 -0.000467 -0.019670 -913626.000000 0 0 1
15.988271 17.297391 -31.511438 39.342029 0.824708 2.499695 0.008082 -0.017263 -334188.000000 0 0 1
17.237371 16.395191 -31.564568 39.525324 0.760363 2.495747 0.011705 -0.015027 -307178.000000 0 0 1
18.318471 16.978991 -30.850638 39.694009 0.747468 2.461018 0.010938 -0.016012 389402.000000 0 0 1
19.394371 16.036291 -30.769448 39.750009 0.690902 2.456047 0.008793 -0.009723 -56087.400000 0 0 1
20.725471 16.530891 -31.310798 41.026596 0.673283 2.439021 0.010361 -0.015369 -887887.000000 0 0 1
20.685171 16.685291 -32.696708 42.134902 0.678771 2.459096 0.013805 -0.007423 302746.000000 0 0 1
21.771271 17.465791 -33.188178 43.364701 0.676106 2.442346 0.014475 0.000473 122444.000000 0 0 1
21.625871 17.917391 34.406205 44.412815 0.691889 0.684570 0.000569 0.015046 -320537.000000 0 0 1
22.563271 18.889491 34.013561 44.975954 0.697003 0.713217 0.018327 0.002389 148934.000000 0 0 1
22.223271 19.357391 32.716635 44.033630 0.716584 0.733267 0.029657 0.003385 -408256.000000 0 0 1
23.050971 20.581891 32.283455 44.689853 0.728871 0.763545 0.041125 0.003565 -403476.000000 0 0 1
24.373571 20.156991 32.082355 45.051667 0.690990 0.778278 0.034293 -0.005228 -433699.000000 0 0 1
25.240671 21.281191 32.085185 46.037372 0.700493 0.799678 0.048699 -0.015423 717671.000000 0 0 1
26.754971 20.894791 31.943255 46.613220 0.663028 0.815804 0.031007 -0.017849 498443.000000 0 0 1
27.262271 20.313491 33.106802 47.454501 0.640367 0.798679 0.027490 -0.019523 -1395860.000000 0 0 1
28.625871 20.200291 33.065629 48.174973 0.614518 0.814317 0.027679 -0.021085 -1223710.000000 0 0 1
29.279871 19.519191 34.286838 49.131425 0.587986 0.798392 0.014895 -0.012769 -330411.000000 0 0 1
29.489171 20.355291 -33.603738 49.123928 0.604161 2.324111 0.010649 -0.019372 466671.000000 0 0 1
28.399971 20.528991 -32.692438 47.924872 0.625899 2.321509 0.010135 -0.029727 134224.000000 0 0 1
28.911571 20.564191 -31.237768 47.271165 0.618256 2.292708 0.006476 -0.026354 -30827.000000 0 0 1
29.320871 19.283091 -30.750188 46.659674 0.581740 2.290326 0.007970 -0.020202 292487.000000 0 0 1
29.915471 19.386191 -29.469268 46.251460 0.574991 2.261595 -0.003268 -0.028345 116182.000000 0 0 1
31.389371 18.944691 -29.288878 46.925817 0.543017 2.244843 0.027824 -0.029410 12235.900000 0 0 1
32.253671 19.666691 -30.127908 48.319446 0.547558 2.244027 -0.000791 -0.015528 -403328.000000 0 0 1
33.453671 19.959591 -29.458008 48.839611 0.537941 2.218251 0.029665 -0.019494 -426579.000000 0 0 1
34.367571 20.889791 -30.275208 50.339860 0.546160 2.216069 0.035493 -0.011368 43075.900000 0 0 1
35.057971 20.251691 -31.397068 51.234444 0.523833 2.230410 0.020668 -0.012534 393176.000000 0 0 1
-34.563489 21.153691 -31.792098 51.505834 -0.549214 2.236042 0.018185 -0.011393 -408279.000000 0 0 1
-33.598189 20.630091 -32.813458 51.294854 -0.550667 2.264908 0.030597 -0.021162 -151624.000000 0 0 1
-32.615989 19.707191 -32.320768 49.968072 -0.543516 2.274215 0.042699 -0.013656 1032130.000000 0 0 1
-31.592789 19.448691 -33.308498 49.857918 -0.551815 2.302406 0.034539 -0.006935 415690.000000 0 0 1
-30.755589 18.234891 -32.821508 48.535234 -0.535180 2.313444 0.021596 0.003053 -376021.000000 0 0 1
-31.483189 17.046091 -32.826398 48.572964 -0.496243 2.312868 0.023391 -0.004769 -44973.100000 0 0 1
-30.898589 15.969691 -33.520558 48.305089 -0.477030 2.337735 0.016296 -0.005631 -81962.500000 0 0 1
-31.818089 14.727591 -33.364008 48.398861 -0.433504 2.331395 0.026421 -0.008775 -11519.000000 0 0 1
-31.287189 13.495491 -33.820868 48.009037 -0.407230 2.352471 0.028874 -0.013208 198019.000000 0 0 1
-32.285989 12.487191 -33.687558 48.302863 -0.369048 2.342593 0.032915 -0.017512 101668.000000 0 0 1
-31.791289 10.994491 -33.763048 47.660343 -0.332958 2.358039 0.032401 -0.020423 -39263.700000 0 0 1
-31.289889 10.614191 34.018683 47.423507 -0.327040 0.770822 0.015722 -0.023563 135114.000000 0 0 1
-31.675689 9.284991 33.689075 47.164755 -0.285139 0.775194 0.023994 -0.019512 72072.200000 0 0 1
-30.602589 8.671591 32.745875 45.650928 -0.276123 0.770862 0.027631 -0.008145 -330739.000000 0 0 1
-29.459889 8.371891 33.476214 45.372134 -0.276880 0.740970 0.031432 -0.001403 -123820.000000 0 0 1
-28.422089 8.020291 32.505835 43.917758 -0.275034 0.737499 0.026781 0.006396 680886.000000 0 0 1
19.992471 -3.949151 -31.517178 37.531682 -0.195021 2.567616 0.029673 -0.026064 -624623.000000 0 0 1
21.081371 -3.908551 -32.385158 38.839406 -0.183321 2.556792 0.039093 -0.030940 -794351.000000 0 0 1
22.053371 -2.993151 -32.000698 38.978902 -0.134899 2.533913 0.048069 -0.028572 -409636.000000 0 0 1
21.936071 -1.481151 -32.325888 39.094092 -0.067419 2.544323 0.043381 -0.023421 -728050.000000 0 0 1
23.063171 -0.759051 -31.905458 39.375681 -0.032900 2.515432 0.052600 -0.021220 179374.000000 0 0 1
23.142271 0.494849 -32.553538 39.944241 0.021380 2.523482 0.041402 -0.022464 57318.200000 0 0 1
24.362071 1.357149 -32.050458 40.281313 0.055650 2.490902 0.034192 -0.022099 526648.000000 0 0 1
25.565671 1.152149 -32.760168 41.571139 0.045036 2.478433 0.036546 -0.021324 -851145.000000 0 0 1
26.551171 1.910849 -32.152448 41.742016 0.071845 2.450054 0.040160 -0.014837 420785.000000 0 0 1
27.969771 1.744749 -32.830568 43.164782 0.062299 2.435013 0.046813 -0.018742 650916.000000 0 0 1
27.943871 2.287549 -34.090372 44.138943 0.081680 2.453317 0.043458 -0.026309 268679.000000 0 0 1
28.682471 1.460149 34.060668 44.552725 0.050863 0.700527 0.039079 -0.022461 269124.000000 0 0 1
29.465871 2.300549 32.975715 44.282365 0.077917 0.730757 0.046718 -0.017863 70983.300000 0 0 1
28.625471 3.062849 32.124895 43.137078 0.106592 0.730686 0.056046 -0.012069 171848.000000 0 0 1
28.316671 4.289449 32.707015 43.473923 0.150338 0.719195 0.036281 -0.006678 -170856.000000 0 0 1
27.262671 5.206249 32.063435 42.407807 0.188694 0.713503 0.040559 -0.010490 -23030.700000 0 0 1
27.649871 6.576649 32.290805 43.017017 0.233515 0.721748 0.038445 -0.002564 -98164.600000 0 0 1
26.745971 7.434749 31.695935 42.133772 0.271131 0.719297 0.032165 -0.002342 -747237.000000 0 0 1
26.983671 8.909249 32.039075 42.825174 0.318903 0.725547 0.025357 -0.000367 -22968.900000 0 0 1
28.116571 9.478549 31.440255 43.230476 0.325151 0.756459 0.028424 -0.002975 -198896.000000 0 0 1
28.402571 10.853849 31.772865 43.977574 0.365018 0.763415 0.026307 0.000104 578963.000000 0 0 1
29.787471 11.347449 31.244075 44.634630 0.363974 0.795404 0.029440 -0.000807 -428933.000000 0 0 1
30.879271 10.846849 31.944615 45.734472 0.337803 0.797525 0.038206 -0.015575 -250168.000000 0 0 1
32.099271 10.913549 31.211175 46.082601 0.327733 0.826727 0.037397 -0.016823 75657.400000 0 0 1
32.834871 12.231149 31.339185 47.009299 0.356581 0.841079 0.043335 -0.021928 -934909.000000 0 0 1
33.244671 12.485249 32.700695 48.274476 0.359258 0.826586 0.048267 -0.031185 -34811.000000 0 0 1
33.684671 13.809549 32.887065 49.060368 0.389068 0.836131 0.044326 -0.023924 -181463.000000 0 0 1
32.633971 14.913549 32.753625 48.581786 0.428655 0.830921 0.045164 -0.022279 -925002.000000 0 0 1
32.186471 15.229349 31.427185 47.492841 0.441946 0.847680 0.039971 -0.028153 62855.600000 0 0 1
31.226871 16.257249 31.436185 47.197980 0.480005 0.841897 0.042383 -0.023548 209080.000000 0 0 1
29.767371 15.854649 31.773805 46.336173 0.489401 0.815199 0.033718 -0.014082 -501429.000000 0 0 1
29.167971 15.131749 30.758915 45.009457 0.478558 0.818403 0.031609 -0.005615 -603053.000000 0 0 1
27.773471 15.108249 30.901115 44.209770 0.498211 0.796846 0.013719 -0.012671 -74490.700000 0 0 1
27.040771 14.646849 29.612165 42.692081 0.496416 0.804291 0.013268 0.001357 -91705.600000 0 0 1
27.362171 13.356549 29.224725 42.203914 0.454114 0.805896 0.027716 -0.001945 305322.000000 0 0 1
26.547771 12.921549 28.113275 40.768944 0.452974 0.809893 0.019202 0.000227 234905.000000 0 0 1
26.351171 11.363349 27.984395 40.082867 0.407134 0.797967 0.014352 0.009922 -540460.000000 0 0 1
27.451871 10.614549 27.592305 40.343638 0.368954 0.817658 0.021227 0.003433 -485795.000000 0 0 1
27.073271 9.264449 27.779905 39.881263 0.329708 0.800197 0.021018 0.007750 506732.000000 0 0 1
28.213271 8.283049 27.373615 40.173528 0.285563 0.821144 0.028628 -0.003712 151592.000000 0 0 1
28.542971 8.380549 25.968365 39.487856 0.285586 0.853129 0.019207 -0.002048 177102.000000 0 0 1
29.563871 7.477349 25.586665 39.807168 0.247727 0.872694 0.021924 0.002415 203957.000000 0 0 1
30.065171 7.621349 24.099915 39.278561 0.248265 0.910230 0.030087 0.004265 320605.000000 0 0 1
30.785671 8.798449 23.644745 39.802565 0.278376 0.934711 0.026586 -0.002347 850178.000000 0 0 1
29.928771 9.949149 23.496745 39.329555 0.320935 0.930501 0.025688 -0.010627 -171349.000000 0 0 1
29.391071 9.948249 22.063245 38.073475 0.326374 0.952692 0.026285 0.003294 195577.000000 0 0 1
30.437871 10.266549 21.143745 38.456780 0.325312 0.988665 0.025845 -0.003793 670997.000000 0 0 1
29.951871 10.107349 19.844145 37.323761 0.325454 1.010218 0.023294 -0.009834 -112877.000000 0 0 1
30.915471 10.751649 18.734245 37.713873 0.334692 1.050950 0.031338 -0.026432 1296340.000000 0 0 1
32.212171 10.221549 18.481945 38.518649 0.307270 1.070349 0.036645 -0.016628 548503.000000 0 0 1
33.138871 10.380949 19.534045 39.843792 0.303573 1.058402 0.026075 -0.007939 -530289.000000 0 0 1
34.576171 9.926549 19.178545 40.765973 0.279573 1.080990 0.029346 -0.002581 -33018.200000 0 0 1
34.675971 8.594149 18.729345 40.336964 0.242946 1.087927 0.034174 -0.001351 43448.900000 0 0 1
-34.888089 8.406549 17.843045 40.077713 -0.236450 1.109386 0.033704 0.004524 -124512.000000 0 0 1
-34.626789 6.848449 17.597045 39.440737 -0.195259 1.108322 0.032391 0.000862 -20096.000000 0 0 1
34.850971 6.221749 17.078645 39.306239 0.176663 1.121311 0.030580 0.002612 370286.000000 0 0 1
35.111271 4.953549 16.497245 39.108798 0.140156 1.135334 0.033245 0.001678 599649.000000 0 0 1
33.813671 4.042649 16.486545 37.835347 0.118992 1.119931 0.032171 0.002583 917862.000000 0 0 1
33.488071 3.480949 17.750545 38.061131 0.103574 1.085614 0.025047 0.008811 -571340.000000 0 0 1
32.231671 2.877049 17.654345 36.862364 0.089026 1.071365 0.016497 0.007129 -213867.000000 0 0 1
31.956671 2.051449 18.899445 37.183683 0.064107 1.037619 0.013378 0.007170 -37431.800000 0 0 1
32.682471 0.841449 18.885645 37.756053 0.025740 1.046965 0.016574 0.003633 -34131.500000 0 0 1
32.345471 0.056749 19.995145 38.026813 0.001754 1.017121 0.014839 0.005517 61461.500000 0 0 1
33.028671 -1.339951 20.087545 38.680719 -0.040547 1.024745 0.015572 0.004783 205471.000000 0 0 1
32.587471 -2.163551 21.195345 38.934135 -0.066295 0.995135 0.012992 0.012829 -71281.700000 0 0 1
33.141971 -3.440351 21.149045 39.465280 -0.103436 1.005235 0.022059 0.011436 -300746.000000 0 0 1
32.744771 -4.400951 22.303545 39.862721 -0.133601 0.977003 0.016122 0.019545 -92578.200000 0 0 1
33.086571 -3.916151 23.611245 40.835625 -0.117813 0.954273 0.014563 0.012440 321465.000000 0 0 1
32.630971 -4.786751 24.637255 41.166583 -0.145655 0.929198 0.019155 0.012689 166873.000000 0 0 1
32.775671 -3.965851 25.950925 41.993131 -0.120414 0.904625 -0.006639 0.008927 115430.000000 0 0 1
32.156171 -4.553751 27.068945 42.278644 -0.140678 0.875971 0.028234 0.007209 -137364.000000 0 0 1
32.462871 -3.814651 28.231255 43.190199 -0.116972 0.858399 0.041532 0.001510 -60127.500000 0 0 1
31.618971 -4.118851 29.491505 43.433548 -0.129536 0.824393 0.048018 -0.004731 -26871.900000 0 0 1
31.945871 -5.366751 30.066745 44.196717 -0.166441 0.822633 0.040891 -0.000036 283497.000000 0 0 1
31.087971 -5.651951 31.171955 44.385777 -0.179841 0.792179 0.045326 -0.007859 10602.000000 0 0 1
31.100171 -7.201751 31.459785 44.819682 -0.227555 0.792708 0.046625 -0.009389 556267.000000 0 0 1
32.294771 -7.625651 32.117935 46.180781 -0.231879 0.801705 0.050418 -0.016184 292864.000000 0 0 1
32.835971 -8.823051 31.535695 46.373993 -0.262500 0.822993 0.041138 -0.015439 66491.000000 0 0 1
34.069871 -9.282751 32.313785 47.865502 -0.266005 0.829702 0.039069 -0.010786 -107719.000000 0 0 1
33.779471 -9.778251 33.597940 48.636287 -0.281771 0.808202 0.018574 -0.018683 -598181.000000 0 0 1
34.937671 -10.027151 34.304171 49.979603 -0.279489 0.814320 -0.002892 -0.015646 -722763.000000 0 0 1
34.626171 -10.169451 -33.234348 49.060283 -0.285660 2.315044 0.012158 -0.013277 -436001.000000 0 0 1
34.265971 -8.968951 -32.595768 48.136088 -0.256002 2.314691 0.006776 -0.013971 -65083.800000 0 0 1
-35.251089 -8.220851 -32.230648 48.466858 0.229113 2.298295 0.003661 -0.000615 -556909.000000 0 0 1
35.157671 -6.844351 -31.633608 47.786945 -0.192271 2.294243 0.002788 -0.006761 -284787.000000 0 0 1
34.629971 -6.951151 -30.342178 46.563947 -0.198094 2.280520 -0.001950 -0.002528 -49281.400000 0 0 1
34.049771 -5.764151 -29.921228 45.693459 -0.167696 2.284748 0.007601 -0.003492 -224889.000000 0 0 1
34.148171 -5.470251 -28.430278 44.769431 -0.158842 2.258854 0.002035 0.006484 -44421.900000 0 0 1
-35.136989 -5.287551 -28.074868 45.285366 0.149363 2.239481 -0.012863 0.013368 -84403.600000 0 0 1
-35.042089 -4.718051 -26.777928 44.353866 0.133835 2.218973 -0.012615 0.014922 1449570.000000 0 0 1
-33.520389 -4.526351 -26.367748 42.887789 0.134221 2.232939 -0.004598 0.022385 854125.000000 0 0 1
-33.548189 -3.929851 -25.082328 42.071937 0.116609 2.209527 -0.000628 0.019803 106397.000000 0 0 1
-32.373489 -4.123151 -24.340078 40.712192 0.126680 2.211622 0.006032 0.019552 359581.000000 0 0 1
-31.058389 -3.324851 -24.650578 39.791069 0.106645 2.238902 0.012121 0.024500 345938.000000 0 0 1
-30.501789 -3.772151 -25.900408 40.192280 0.123045 2.271051 0.012048 0.016798 -390958.000000 0 0 1
-29.596089 -2.832251 -26.368648 39.739851 0.095406 2.296326 0.014068 0.009244 -146231.000000 0 0 1
-28.719289 -3.381651 -27.528098 39.925297 0.117209 2.331581 0.016223 0.021604 168821.000000 0 0 1
-29.517989 -3.580751 -28.681118 41.312710 0.120718 2.338166 -0.004514 0.029030 68565.300000 0 0 1
-28.947889 -4.511851 -29.567328 41.624079 0.154617 2.360780 0.009886 0.013237 -690549.000000 0 0 1
-29.799989 -4.654251 -30.914308 43.190228 0.154931 2.368524 -0.003913 0.016088 300641.000000 0 0 1
-31.048189 -5.310551 -30.795308 44.051595 0.169403 2.344897 -0.012961 0.016152 392173.000000 0 0 1
-32.051689 -4.567151 -30.095438 44.202998 0.141540 2.319714 -0.004844 0.014000 -612995.000000 0 0 1
-32.920689 -3.689551 -31.064998 45.413860 0.111608 2.324086 0.016593 0.006585 -719592.000000 0 0 1
-32.403789 -2.523451 -31.713318 45.410438 0.077718 2.343915 0.010556 0.011606 36390.900000 0 0 1
-31.754289 -1.603551 -30.838108 44.293286 0.050456 2.340922 -0.005870 0.015380 113728.000000 0 0 1
-31.139389 -0.404051 -31.599518 44.366140 0.012975 2.363486 0.017481 0.021469 416744.000000 0 0 1
-32.183389 0.491349 -32.037678 45.413927 -0.015266 2.353867 0.008764 0.020899 511203.000000 0 0 1
-31.773289 1.550549 -32.846558 45.725731 -0.048762 2.372208 0.000838 0.024706 -420030.000000 0 0 1
-32.925489 2.417949 -33.329548 46.912611 -0.073305 2.360948 0.030390 0.009476 -263023.000000 0 0 1
-33.707089 1.837249 -34.343146 48.155945 -0.054452 2.364800 0.026845 0.009817 368233.000000 0 0 1
-35.033089 2.374149 -34.321000 49.100763 -0.067665 2.344782 0.030432 0.012207 282329.000000 0 0 1
34.704271 1.739449 33.683264 48.393949 0.050080 0.800954 0.038093 0.006640 -402961.000000 0 0 1
34.946171 2.073849 32.361155 47.673683 0.059275 0.824662 0.026008 0.011283 -128428.000000 0 0 1
-34.651289 1.359549 31.757055 47.022024 -0.039215 0.829336 0.026163 0.010808 -483149.000000 0 0 1
-34.446089 1.665749 30.236345 45.864412 -0.048321 0.850969 0.029650 0.010836 -86876.500000 0 0 1
-34.016789 3.010649 29.984785 45.445498 -0.088275 0.850248 0.022793 0.006228 320293.000000 0 0 1
-33.852989 3.185149 28.597785 44.429757 -0.093812 0.871522 0.013841 0.007178 88792.500000 0 0 1
-33.325389 4.630549 28.245045 43.929558 -0.138066 0.872437 0.015373 0.007499 -133729.000000 0 0 1
-32.733089 4.670049 26.955175 42.659652 -0.141714 0.886838 0.027782 0.010431 117262.000000 0 0 1
-32.350989 5.966949 26.653435 42.339066 -0.182394 0.889857 0.031810 0.006186 -421611.000000 0 0 1
-31.531989 6.002449 25.351445 40.902218 -0.188110 0.902301 0.024287 0.003137 -21047.400000 0 0 1
-30.241489 5.435049 25.426795 39.882443 -0.177823 0.879491 0.026853 0.009427 734586.000000 0 0 1
-29.360689 5.440749 24.271545 38.480640 -0.183229 0.888281 0.031846 0.009048 840467.000000 0 0 1
-29.905489 4.871449 22.888445 37.973019 -0.161477 0.923846 0.043911 -0.002958 -109239.000000 0 0 1
-30.068689 3.420049 22.813945 37.898534 -0.113254 0.924825 0.027699 0.000756 -311622.000000 0 0 1
-30.952889 3.063749 21.810445 37.988990 -0.098660 0.959261 0.031707 -0.001904 -492561.000000 0 0 1
-30.920989 1.530249 21.541845 37.716048 -0.049449 0.962880 0.029048 -0.001501 778137.000000 0 0 1
-29.706089 1.000349 20.964445 36.372522 -0.033662 0.956503 0.040654 -0.002761 826533.000000 0 0 1
-29.504589 1.366349 19.623545 35.460840 -0.046277 0.984372 0.032860 -0.003779 -277808.000000 0 0 1
-28.288489 0.687249 18.978445 34.071869 -0.024290 0.980013 0.039806 -0.003954 -86031.800000 0 0 1
-28.574189 -0.649751 18.674745 34.141654 0.022735 0.992046 0.043233 0.000900 259722.000000 0 0 1
-27.528989 -1.159951 17.873245 32.842710 0.042111 0.995352 0.049118 -0.002811 -135820.000000 0 0 1
-27.434089 -0.851851 16.330945 31.938294 0.031041 1.034067 0.038445 0.000164 -30321.700000 0 0 1
-27.110289 0.510149 16.118045 31.543928 -0.018815 1.034482 0.037039 0.001137 161254.000000 0 0 1
-27.162889 0.838949 14.732645 30.912412 -0.030876 1.074021 0.037976 0.002226 46080.100000 0 0 1
-26.640889 2.287749 14.497645 30.416319 -0.085663 1.073967 0.035737 -0.003186 395513.000000 0 0 1
-25.225989 2.429149 14.479645 29.187521 -0.095999 1.051706 0.025198 -0.009105 338179.000000 0 0 1
-24.910989 3.619349 13.797645 28.705959 -0.144282 1.069396 0.024568 -0.007445 590188.000000 0 0 1
-23.358089 3.766849 13.660445 27.320271 -0.159889 1.047184 0.024508 -0.001316 475157.000000 0 0 1
-22.682589 4.310249 14.777745 27.412768 -0.187786 1.001449 0.024120 -0.002996 415501.000000 0 0 1
-21.375489 4.667949 14.347645 26.164025 -0.215003 0.990379 0.023749 0.004891 234473.000000 0 0 1
-20.487789 5.302349 15.445945 26.200031 -0.253249 0.940308 0.010224 0.004696 -29766.900000 0 0 1
-21.081789 6.491549 15.900345 27.191966 -0.298709 0.946232 0.019869 0.004470 799271.000000 0 0 1
-20.275289 7.015249 16.968845 27.354026 -0.333107 0.901618 0.009578 0.006601 272704.000000 0 0 1
-20.401689 8.530849 17.277945 28.062995 -0.396049 0.907542 0.011892 0.002400 -447912.000000 0 0 1
-19.669789 9.288649 16.350245 27.212315 -0.441185 0.926245 0.016842 -0.001472 379241.000000 0 0 1
-19.937689 10.663549 16.445845 27.958693 -0.491133 0.941941 0.022261 -0.005999 -259564.000000 0 0 1
-19.134489 11.378649 17.553445 28.350057 -0.536489 0.903114 0.029874 -0.009721 -241403.000000 0 0 1
-19.635689 11.279349 18.872045 29.477755 -0.521407 0.876021 0.019566 -0.003728 348562.000000 0 0 1
-18.820289 12.019149 19.749445 29.811135 -0.568339 0.846664 0.018305 0.000903 -345543.000000 0 0 1
-12.155729 -33.111294 -21.069678 41.085896 1.218954 2.109263 0.040721 -0.026263 -708265.000000 0 0 1
-12.767729 -33.628694 -19.912878 41.114798 1.207940 2.076387 0.062364 -0.020538 -479119.000000 0 0 1
-13.968029 -32.919094 -19.776478 40.864185 1.169507 2.075966 0.060218 -0.043877 144935.000000 0 0 1
-15.136529 -33.739994 -19.113578 41.627281 1.149088 2.047846 0.061102 -0.032159 -909157.000000 0 0 1
-15.501529 34.345949 -20.033878 42.676667 -1.146833 2.059446 0.053109 -0.034201 -458785.000000 0 0 1
-16.434429 33.470449 -19.547578 42.100703 -1.114364 2.053646 0.056641 -0.022964 -897048.000000 0 0 1
-17.837829 33.959049 -19.221878 42.905544 -1.087134 2.035328 0.057780 -0.016844 -1522410.000000 0 0 1
-17.943229 -34.354294 -18.051078 42.755332 1.089469 2.006661 0.053252 -0.025690 -325341.000000 0 0 1
-19.294729 -34.271694 -17.673478 43.118295 1.058032 1.993123 0.025108 -0.022813 -111359.000000 0 0 1
-19.729629 34.352549 -16.219178 42.806747 -1.049467 1.959396 0.029959 -0.015447 -361895.000000 0 0 1
-19.329729 33.040449 -16.010078 41.492557 -1.041455 1.966930 0.033475 -0.025441 116547.000000 0 0 1
-19.631629 32.650049 -14.688778 40.831198 -1.029441 1.938790 0.027489 -0.017332 -335864.000000 0 0 1
-19.684429 31.140849 -14.353078 39.537831 -1.007101 1.942305 0.027023 -0.013797 190628.000000 0 0 1
-18.409929 30.543649 -14.175878 38.377018 -1.028363 1.949143 0.018834 -0.012803 30884.200000 0 0 1
-18.473929 29.074949 -14.189178 37.255489 -1.004760 1.961524 0.014180 -0.012925 75611.000000 0 0 1
-17.359929 28.285549 -13.406678 35.793553 -1.020336 1.954714 0.019131 -0.010519 743182.000000 0 0 1
-16.088829 28.561949 -13.995278 35.644118 -1.057802 1.974296 0.020328 -0.013616 -202408.000000 0 0 1
-15.114429 27.598549 -13.672678 34.308425 -1.069757 1.980702 0.033083 -0.016562 548012.000000 0 0 1
-13.749629 28.031949 -14.309078 34.345191 -1.114779 2.000526 0.037933 -0.023376 -3178.310000 0 0 1
-13.867229 28.151549 -15.716078 35.097078 -1.113093 2.035087 0.029782 -0.011860 258181.000000 0 0 1
-12.643629 28.585849 -16.288178 35.246516 -1.154361 2.051182 0.037044 -0.017055 33725.900000 0 0 1
-12.797529 28.817649 -17.769278 36.193658 -1.152871 2.083976 0.046155 -0.026131 -194277.000000 0 0 1
-12.988429 27.620549 -18.471278 35.676072 -1.131235 2.115015 0.009582 -0.019599 183676.000000 0 0 1
-13.358329 27.753749 -19.816078 36.625025 -1.122207 2.142485 0.013395 -0.022952 -129864.000000 0 0 1
-13.006929 26.478049 -20.651878 36.010656 -1.114186 2.181560 -0.002566 -0.004467 1390150.000000 0 0 1
-11.594229 26.456649 -21.018578 35.723396 -1.157769 2.199838 0.009635 -0.007039 1473620.000000 0 0 1
-11.123529 25.390549 -21.805678 35.268973 -1.157885 2.237333 0.007639 -0.008402 18476.200000 0 0 1
-9.805329 25.663849 -22.523878 35.526085 -1.205844 2.257523 0.019510 -0.008188 -58690.900000 0 0 1
-10.069129 26.447249 -23.710478 36.919251 -1.207016 2.268194 0.017529 -0.006754 220687.000000 0 0 1
-8.873429 26.663249 -24.440178 37.242300 -1.249529 2.286631 0.004904 -0.008677 171572.000000 0 0 1
-9.043729 27.480849 -25.711208 38.704681 -1.252868 2.297342 0.016419 -0.009891 -123738.000000 0 0 1
-9.873629 26.741849 -26.579958 38.975751 -1.217103 2.321237 0.009805 -0.006321 -218817.000000 0 0 1
-10.069429 27.260349 -27.846138 40.248322 -1.216962 2.334856 0.022506 -0.003653 -151326.000000 0 0 1
-11.495329 27.013749 -28.374828 40.829108 -1.168472 2.339168 0.013370 0.004811 -129350.000000 0 0 1
-11.701129 27.455449 -29.713308 42.114116 -1.167922 2.353985 0.016317 0.009359 684000.000000 0 0 1
-12.952829 26.862149 -30.123488 42.388387 -1.121493 2.361224 0.005897 0.015618 457887.000000 0 0 1
-13.123629 27.107049 -31.637158 43.679875 -1.119916 2.380809 -0.000652 0.016021 -409798.000000 0 0 1
-12.385729 26.409049 -32.583858 43.732733 -1.132258 2.411433 -0.000535 0.010067 -98080.100000 0 0 1
-12.606029 25.028549 -32.483998 42.901636 -1.104220 2.429772 -0.012532 0.005027 187366.000000 0 0 1
-11.822529 24.196149 -33.528058 43.004145 -1.116301 2.464898 -0.007128 0.010539 412730.000000 0 0 1
-12.461029 24.361149 34.227780 43.821042 -1.097981 0.674401 -0.005352 0.015234 569261.000000 0 0 1
-11.706829 23.754449 33.168699 42.443919 -1.112904 0.673776 -0.015928 0.009401 48152.800000 0 0 1
-12.361429 23.824649 31.712055 41.546038 -1.092182 0.702392 -0.013136 0.021373 -597150.000000 0 0 1
-13.557129 23.140449 31.553125 41.411059 -1.040837 0.704479 -0.016663 0.009303 -554880.000000 0 0 1
-13.762029 22.965149 30.146295 40.318613 -1.030923 0.726202 0.000071 0.013274 737125.000000 0 0 1
-14.917029 21.964449 29.755835 39.879374 -0.974205 0.728542 0.000272 0.007689 589608.000000 0 0 1
-14.502529 20.623049 29.953435 39.151523 -0.957913 0.699655 -0.027048 0.009502 67917.400000 0 0 1
-15.574729 19.720849 30.186995 39.277713 -0.902331 0.694220 -0.022248 0.010182 137268.000000 0 0 1
-15.077029 18.262649 30.227585 38.399844 -0.880659 0.664574 -0.041383 0.005609 -380478.000000 0 0 1
-14.777929 17.911649 28.892865 37.067668 -0.880969 0.676989 -0.023815 -0.002162 343138.000000 0 0 1
-14.096029 16.626249 28.876525 36.179882 -0.867571 0.646599 -0.042059 -0.002409 217888.000000 0 0 1
-13.737929 16.133249 27.479125 34.700356 -0.865415 0.656886 -0.019136 -0.006471 -215645.000000 0 0 1
-12.896929 16.976449 26.758645 34.213384 -0.921119 0.672751 -0.037613 -0.004877 -267102.000000 0 0 1
-12.421129 16.393149 25.542445 32.793845 -0.922384 0.677920 -0.034662 -0.006656 -140855.000000 0 0 1
-11.362029 17.228649 24.832985 32.289304 -0.987782 0.693399 -0.024445 0.002580 -90969.900000 0 0 1
-11.843529 18.366649 24.065475 32.507692 -0.998058 0.737278 -0.022878 0.001734 -169424.000000 0 0 1
-12.161629 19.585749 24.756855 33.829109 -1.015120 0.749806 -0.019661 -0.001931 348871.000000 0 0 1
-11.082929 20.208749 25.735405 34.547589 -1.069165 0.730372 -0.036995 0.003769 524115.000000 0 0 1
-10.820629 19.642049 26.984025 35.086090 -1.067269 0.693395 -0.037523 0.007248 -474448.000000 0 0 1
-11.875529 19.843449 27.878005 36.221179 -1.031509 0.692487 -0.027435 0.008890 -381305.000000 0 0 1
-11.591329 19.313349 29.346015 36.993958 -1.030250 0.654643 -0.034610 0.011657 -841708.000000 0 0 1
-10.874329 20.237949 30.089045 37.857314 -1.077737 0.652116 -0.038345 0.005265 -358594.000000 0 0 1
-10.894629 19.947349 31.419885 38.778845 -1.070899 0.626247 -0.032027 0.003740 -469016.000000 0 0 1
-9.900129 20.782749 32.209055 39.589878 -1.126237 0.620534 -0.028044 -0.000739 -152087.000000 0 0 1
-8.579329 20.280649 32.151765 38.969803 -1.170595 0.600518 -0.026116 -0.005498 105984.000000 0 0 1
-7.662829 21.187949 32.759985 39.760090 -1.223772 0.602465 -0.004394 -0.009667 1224060.000000 0 0 1
-6.327829 20.485249 33.261331 39.572755 -1.271197 0.572571 -0.006705 -0.004883 620795.000000 0 0 1
-6.568829 19.638449 34.351556 40.110442 -1.248007 0.542493 -0.017347 -0.007618 1202670.000000 0 0 1
-5.370629 19.153549 -34.019278 39.408291 -1.297418 2.612473 -0.024705 -0.005419 1449100.000000 0 0 1
-4.511629 18.073949 34.289931 39.023349 -1.326175 0.497658 -0.032944 -0.004248 82033.400000 0 0 1
-5.124729 16.809049 34.270357 38.513171 -1.274869 0.473814 -0.037645 -0.003147 84827.600000 0 0 1
-4.653029 16.063549 33.143466 37.123814 -1.288849 0.467313 -0.024374 -0.000020 -162959.000000 0 0 1
-5.182729 14.634249 32.858705 36.341662 -1.230429 0.441385 -0.027210 -0.000289 -173124.000000 0 0 1
-4.746529 13.683349 33.855499 36.823340 -1.236901 0.404236 -0.018890 -0.002956 39462.600000 0 0 1
-5.566029 12.548249 33.693023 36.382125 -1.153302 0.386889 -0.015766 -0.006309 116359.000000 0 0 1
-4.800729 11.232549 34.078959 36.202108 -1.166899 0.344179 0.005670 -0.015300 391965.000000 0 0 1
-4.590829 11.067449 -33.610618 35.682458 -1.177593 2.799148 0.002990 -0.015717 -177798.000000 0 0 1
-3.736529 9.949649 -33.394688 35.045147 -1.211549 2.833471 0.019249 -0.017380 363268.000000 0 0 1
-3.443629 9.614849 -31.871798 33.468125 -1.226873 2.831493 0.026060 -0.013515 342246.000000 0 0 1
-4.637829 9.217849 -31.213308 32.874744 -1.104643 2.822313 0.023882 -0.011661 143077.000000 0 0 1
-4.391129 8.713649 -29.937608 31.487618 -1.104004 2.826520 0.031793 -0.006762 403975.000000 0 0 1
-5.684129 8.119049 -29.310088 30.940419 -0.960005 2.815519 0.025892 -0.005697 415063.000000 0 0 1
-5.414029 7.006549 -28.495598 29.839614 -0.912919 2.840317 0.031879 -0.003217 1020680.000000 0 0 1
-6.643229 6.260949 -28.292178 29.728426 -0.755782 2.829482 0.036455 -0.012711 710386.000000 0 0 1
-6.650829 5.444449 -26.968128 28.304690 -0.685987 2.833058 0.035341 -0.010503 -236432.000000 0 0 1
-7.007529 6.187949 -25.829028 27.468798 -0.723367 2.794320 0.011671 0.000211 1694990.000000 0 0 1
-5.923129 7.051149 -25.252438 26.879133 -0.872123 2.791909 0.025584 -0.005808 1804960.000000 0 0 1
-6.569829 7.912849 -24.056378 26.162667 -0.877867 2.737584 0.011204 -0.002383 432493.000000 0 0 1
-6.930729 7.084549 -22.985378 25.031049 -0.796373 2.734497 0.007689 -0.001925 -554648.000000 0 0 1
-8.000229 7.698649 -22.345578 24.951908 -0.766190 2.680453 0.000908 0.005363 -460701.000000 0 1 0
-7.789129 7.931449 -20.820978 23.602787 -0.794451 2.651184 -0.002435 0.004555 -287292.000000 0 1 0
-6.867829 8.929049 -20.419978 23.321031 -0.915148 2.637480 -0.020348 0.001726 -104380.000000 0 1 0
-6.733729 9.114949 -19.043878 22.160656 -0.934530 2.604804 -0.008671 0.002262 -138334.000000 0 1 0
-8.059229 9.597149 -18.384778 22.249865 -0.872282 2.543280 -0.019120 0.014465 34368.900000 0 1 0
-7.958229 9.618849 -16.958478 21.058149 -0.879595 2.507006 -0.017197 0.007771 589861.000000 0 1 0
-9.083229 10.102949 -16.193278 21.137570 -0.838497 2.443532 -0.007209 0.008078 504124.000000 0 1 0
-9.484829 11.575349 -16.369978 22.179424 -0.884338 2.401002 -0.009758 0.004533 -416282.000000 0 1 0
-8.609929 12.471449 -15.717078 21.833334 -0.966562 2.374406 -0.014907 0.000697 -136287.000000 0 1 0
-8.930029 13.833049 -15.977478 22.942939 -0.997550 2.341166 0.002107 -0.004065 -106878.000000 0 1 0
-7.769229 14.782649 -15.646778 22.884696 -1.086907 2.323648 0.013400 -0.008110 -363083.000000 0 1 0
-7.379029 14.885949 -14.272678 21.903216 -1.110591 2.280521 0.014960 -0.010507 -191399.000000 0 1 0
-8.182629 15.637849 -13.402278 22.161200 -1.088716 2.220265 0.006733 -0.014393 -686216.000000 0 1 0
-7.360029 16.417649 -12.323278 21.807623 -1.149357 2.171339 0.000593 -0.016171 576001.000000 0 1 0
-6.663329 17.571949 -12.765878 22.718736 -1.208346 2.167489 0.014758 -0.016580 159161.000000 0 1 0
-5.755929 17.561549 -13.863178 23.102520 -1.254072 2.214388 0.015464 -0.011633 -165995.000000 0 1 0
-5.567029 19.014349 -14.338978 24.456974 -1.285976 2.197273 0.044447 -0.007615 233625.000000 0 1 0
-4.987529 19.875349 -13.333878 24.447847 -1.324933 2.147664 0.037982 -0.017528 66904.900000 0 1 0
-4.970629 21.224949 -13.762078 25.779845 -1.340754 2.133921 0.054864 -0.013240 -218824.000000 0 0 1
-4.275029 22.103049 -12.725778 25.860512 -1.379742 2.085289 0.048166 -0.010807 -823492.000000 0 0 1
-4.194429 23.506649 -12.823278 27.103362 -1.394219 2.063631 0.045451 -0.009897 837263.000000 0 0 1
-5.392029 24.328549 -12.971778 28.093047 -1.352688 2.050756 0.045869 -0.011552 553400.000000 0 0 1
-6.400929 24.282149 -11.861778 27.772224 -1.313053 2.012090 0.042168 -0.012163 -759069.000000 0 0 1
-7.028729 23.017349 -11.701778 26.760661 -1.274423 2.023363 0.045488 -0.016784 95547.300000 0 0 1
-7.964229 22.871249 -10.616578 26.443046 -1.235708 1.983938 0.040002 -0.011475 414149.000000 0 0 1
-7.446529 23.114449 -9.183878 25.962900 -1.259136 1.932353 0.032551 -0.006332 -231439.000000 0 0 1
-7.278029 24.492349 -8.906978 27.058809 -1.281951 1.906222 0.020079 -0.003330 -165707.000000 0 0 1
-6.888229 24.773549 -7.588478 26.809726 -1.299599 1.857768 0.015988 -0.006284 103447.000000 0 0 1
-7.029229 26.330249 -7.438578 28.249328 -1.309916 1.837257 0.023073 0.000196 64640.500000 0 0 1
-6.162129 27.181949 -8.192878 29.050877 -1.347865 1.856693 0.011355 -0.002953 24505.500000 0 0 1
-6.405729 27.248049 -9.607878 29.593933 -1.339900 1.901445 0.012755 0.001522 -83229.700000 0 0 1
-5.710229 28.390649 -10.339978 30.749810 -1.372314 1.913741 0.006493 0.001402 289565.000000 0 0 1
-6.300829 29.726049 -10.218278 32.058566 -1.361925 1.895194 0.004120 -0.000814 286426.000000 0 0 1
-6.936829 30.231949 -11.427078 33.055536 -1.345247 1.923774 0.007637 -0.002608 -159567.000000 0 0 1
-7.941829 31.333749 -11.103878 34.178540 -1.322565 1.901680 -0.000371 0.000726 -339460.000000 0 0 1
-9.078129 30.774449 -10.472278 33.751263 -1.283943 1.886282 -0.004222 0.010664 -497964.000000 0 0 1
-10.007629 31.793749 -10.265078 34.876452 -1.265847 1.869547 -0.002862 0.004964 76743.900000 0 0 1
-11.161629 31.370749 -9.303478 34.572541 -1.228966 1.843255 0.004436 0.006695 502543.000000 0 0 1
-11.926729 30.276149 -9.781978 33.979099 -1.195532 1.862811 0.004332 0.003014 -275465.000000 0 0 1
-13.040029 30.039849 -8.957978 33.951145 -1.161251 1.837807 0.022322 0.009084 288806.000000 0 0 1
-13.948329 28.862049 -9.425078 33.412660 -1.120617 1.856759 0.028546 0.004673 24578.300000 0 0 1
-13.580429 27.559349 -8.933978 31.996277 -1.112949 1.853777 0.013457 0.010223 596931.000000 0 0 1
-14.580529 26.637049 -9.414178 31.792310 -1.069969 1.871419 0.029403 0.007080 468298.000000 0 0 1
-14.576129 25.267549 -8.748978 30.454182 -1.047557 1.862186 0.029253 0.007677 96880.900000 0 0 1
-13.438329 24.490949 -9.110978 29.383757 -1.068947 1.886061 0.030724 0.009433 316918.000000 0 0 1
-13.678029 23.087749 -8.822178 28.248247 -1.035957 1.888419 0.040646 0.008184 -321427.000000 0 0 1
-12.667329 22.069049 -9.325478 27.101083 -1.049724 1.922076 0.049314 0.009622 -437245.000000 0 0 1
-12.752829 21.911149 -10.724178 27.527097 -1.043699 1.970979 0.053802 0.004511 193145.000000 0 0 1
-12.301029 20.663149 -11.164578 26.512805 -1.033831 2.005456 0.057461 -0.001769 -199086.000000 0 0 1
-12.493729 20.420949 -12.674278 27.087742 -1.021739 2.057706 0.058133 0.005980 761566.000000 0 0 1
-13.806629 19.938049 -13.002978 27.517744 -0.965138 2.062956 0.051769 0.010165 497952.000000 0 0 1
-13.848929 19.561249 -14.378978 27.949782 -0.954736 2.111171 0.050131 0.013392 273561.000000 0 0 1
-15.234129 19.061749 -14.851578 28.565684 -0.896544 2.117542 0.037093 0.015964 735872.000000 0 0 1
-16.092229 20.109249 -15.338478 29.976835 -0.895909 2.107933 -0.000371 0.016451 416335.000000 0 0 1
-17.432229 19.692649 -15.560778 30.558482 -0.846210 2.105066 -0.012175 0.025359 587372.000000 0 0 1
-18.276429 20.827449 -16.282878 32.139424 -0.850543 2.102071 -0.019966 0.020658 203964.000000 0 0 1
-18.577429 21.925349 -15.430678 32.618210 -0.867870 2.063568 -0.005122 0.019915 206847.000000 0 0 1
-18.870429 23.010249 -16.271378 33.916403 -0.883926 2.071166 -0.008608 0.012021 -132064.000000 0 0 1
-19.093829 24.262749 -15.358278 34.483793 -0.904057 2.032391 -0.006244 0.018823 -369424.000000 0 0 1
-20.297329 24.217649 -14.654778 34.831575 -0.873239 2.005049 -0.005529 0.029159 -213659.000000 0 0 1
-20.441329 25.344949 -13.828978 35.375910 -0.892090 1.972422 0.008713 0.008848 -61687.700000 0 0 1
-25.544849 -0.625951 3.538022 25.796293 0.024499 1.433210 0.043213 -0.015415 -100089.000000 0 0 1
-25.664509 0.000849 4.804922 26.110425 -0.000033 1.385718 0.031616 -0.009930 684814.000000 0 0 1
-26.953359 -0.186451 5.410522 27.491673 0.006917 1.372697 0.027822 -0.000011 152003.000000 0 0 1
-27.350349 0.581849 6.664422 28.156610 -0.021271 1.331837 0.024862 0.004910 -461225.000000 0 0 1
-27.486379 1.927049 6.381022 28.283069 -0.069995 1.343224 0.036238 0.000673 93407.300000 0 0 1
-27.825099 2.642949 7.596122 28.964157 -0.094700 1.305434 0.048456 0.001952 552156.000000 0 0 1
-26.631479 2.879949 8.601822 28.133985 -0.107722 1.260076 0.043370 0.002216 344095.000000 0 0 1
-26.152879 1.788749 9.334322 27.826288 -0.068290 1.228714 0.042356 0.000244 -305274.000000 0 0 1
-25.213669 2.280049 10.232222 27.306155 -0.090184 1.186699 0.037863 -0.004192 -450799.000000 0 0 1
-24.388929 1.126149 10.878622 26.728870 -0.046142 1.151630 0.021127 0.000170 51807.800000 0 0 1
-23.593829 0.338149 9.953122 25.609525 -0.014331 1.171631 0.012248 -0.001786 1144370.000000 0 0 1
-24.324929 -0.712951 9.232822 26.027975 0.029301 1.208174 0.014468 -0.000912 -83709.800000 0 0 1
-23.375429 -1.627851 8.445822 24.907679 0.069527 1.224852 0.026381 -0.002549 -216370.000000 0 1 0
-22.576529 -2.464851 9.254422 24.523855 0.108747 1.183848 0.018979 -0.000739 283067.000000 0 1 0
-21.462329 -2.879551 8.489622 23.259344 0.133371 1.197165 0.020705 -0.001131 -240994.000000 0 1 0
-20.088129 -2.741051 9.158822 22.247029 0.135614 1.146491 0.018627 -0.003802 -423879.000000 0 1 0
-19.647829 -1.408751 9.413822 21.832128 0.071578 1.124984 0.023861 -0.009674 623680.000000 0 1 0
-20.208629 -0.944151 10.632622 22.854601 0.046686 1.086903 0.017698 -0.006605 -231793.000000 0 1 0
-19.793229 0.532049 10.901322 22.602960 -0.026874 1.067522 0.010858 -0.002309 -110447.000000 0 1 0
-20.258529 1.473149 9.968122 22.626127 -0.072590 1.114576 0.009089 0.001829 380299.000000 0 1 0
-20.634729 2.654049 10.689322 23.390118 -0.127918 1.096175 0.012955 0.008226 -247278.000000 0 1 0
-21.276329 3.803249 9.873622 23.762056 -0.176887 1.142281 0.008610 0.007002 -462861.000000 0 1 0
-21.553429 4.848849 10.736122 24.562694 -0.221285 1.118435 0.013396 0.006187 526204.000000 0 1 0
-22.106729 5.956449 10.094222 25.021592 -0.263190 1.155544 0.016269 0.003409 -333727.000000 0 0 1
-22.459329 7.105049 11.079822 26.032012 -0.306390 1.131146 0.022224 0.004256 408625.000000 0 0 1
-23.465029 6.824149 12.084222 27.261787 -0.283016 1.111557 0.029851 0.001306 918280.000000 0 0 1
-23.544129 7.793949 13.079822 28.038427 -0.319681 1.085471 0.030490 0.001564 -383452.000000 0 0 1
-24.317129 7.323349 14.337322 29.163556 -0.292521 1.056850 0.024426 -0.007721 -790457.000000 0 0 1
-25.670939 7.130649 14.112622 30.149782 -0.270941 1.083675 0.024627 -0.008917 -1026110.000000 0 0 1
-26.243489 6.791149 15.357922 31.156158 -0.253220 1.055338 0.023996 -0.015151 -468451.000000 0 0 1
-27.725879 6.417549 15.214522 32.270590 -0.227459 1.079843 0.024119 -0.011797 -389248.000000 0 0 1
-27.990999 5.270049 14.448822 31.938032 -0.186098 1.101340 0.035181 -0.010980 -95153.600000 0 0 1
-28.421269 5.675349 13.188922 31.842201 -0.197094 1.143737 0.037658 0.001735 -775346.000000 0 0 1
-28.689529 4.508049 12.286422 31.533597 -0.155858 1.170567 0.050319 0.002102 -220848.000000 0 0 1
-29.641409 3.619449 12.823622 32.498597 -0.121506 1.165175 0.036521 -0.003925 179278.000000 0 0 1
-29.854369 2.536749 11.927522 32.248787 -0.084767 1.191938 0.039187 -0.001259 -11363.300000 0 0 1
-30.919559 1.506849 12.382622 33.340952 -0.048696 1.190287 0.046447 0.000136 109156.000000 0 0 1
-30.493909 0.616749 13.365422 33.300051 -0.020223 1.157791 0.033050 0.003109 132250.000000 0 0 1
-31.627129 -0.180051 13.662022 34.452265 0.005693 1.163041 0.047692 0.004154 74358.900000 0 0 1
-31.531039 -1.298351 14.693122 34.810630 0.041154 1.135050 0.036716 -0.001693 -215102.000000 0 0 1
-30.998079 -2.548251 14.270122 34.220036 0.082022 1.140642 0.034415 -0.001144 268235.000000 0 0 1
-31.274349 -3.564151 15.215922 34.961584 0.113474 1.120516 0.027929 0.004227 -109329.000000 0 0 1
-31.273639 -4.933051 14.500922 34.823157 0.156449 1.141297 0.031643 -0.001265 -314266.000000 0 0 1
-32.361339 -5.171551 13.652622 35.502046 0.158467 1.176067 0.029345 -0.014604 -125057.000000 0 0 1
-32.315989 -6.490751 13.149622 35.487541 0.198215 1.191204 0.042359 -0.019001 -933642.000000 0 0 1
-33.533519 -6.843551 12.284722 36.362694 0.201316 1.226177 0.052880 -0.009898 520999.000000 0 0 1
-34.773280 -7.069951 12.962622 37.778232 0.200582 1.220555 0.035514 -0.009627 617724.000000 0 0 1
35.231115 -5.862551 13.317222 38.117573 -0.164892 1.213895 0.037366 -0.010392 436896.000000 0 0 1
33.680701 -5.730151 13.007822 36.557184 -0.168518 1.207004 0.033704 -0.007760 1420640.000000 0 0 1
32.772371 -6.401651 13.874022 36.159341 -0.192908 1.177006 0.032021 -0.008800 115056.000000 0 0 1
31.463171 -6.205151 13.346822 34.735755 -0.194721 1.176413 0.021374 -0.005780 167697.000000 0 0 1
30.582251 -7.402451 13.804222 34.360252 -0.237483 1.157370 0.000468 -0.010609 -290993.000000 0 0 1
30.269401 -7.466551 15.191422 34.680907 -0.241842 1.117386 0.014930 -0.005976 -81787.500000 0 0 1
29.387671 -8.539651 15.409222 34.263756 -0.282798 1.104340 0.023062 0.003576 -294826.000000 0 0 1
28.807671 -8.420651 16.858822 34.423962 -0.284383 1.059004 0.007479 -0.004895 48212.000000 0 0 1
29.792401 -8.742951 17.820122 35.799205 -0.285448 1.049759 0.005063 -0.003401 -15859.500000 0 0 1
29.231021 -8.697451 19.109922 35.990101 -0.289200 1.011043 0.012194 -0.002508 -304358.000000 0 0 1
30.192701 -9.008051 20.284222 37.472574 -0.289944 0.998804 0.016313 -0.002845 858267.000000 0 0 1
31.284031 -8.081651 20.544522 38.289438 -0.252805 1.004443 0.019417 -0.004363 516362.000000 0 0 1
32.437571 -8.477651 19.853522 38.964457 -0.255635 1.036159 0.010361 0.006296 14460.300000 0 0 1
33.780441 -7.885351 20.417922 40.251565 -0.229323 1.038796 0.015253 -0.002309 544064.000000 0 0 1
34.018461 -8.397851 21.693522 41.211509 -0.242023 1.016442 0.020167 0.002244 -411277.000000 0 0 1
-35.288280 -8.279051 22.095622 42.450229 0.230444 1.023352 0.015689 0.001201 -417662.000000 0 0 1
-34.954003 -8.966551 23.410222 43.014182 0.251110 0.995308 0.014705 0.001283 -137183.000000 0 0 1
35.203337 -8.210551 24.539822 43.690856 -0.229136 0.974394 0.018455 0.011181 280053.000000 0 0 1
35.110295 -9.139651 25.569622 44.385489 -0.254661 0.956871 0.012535 0.003323 -451857.000000 0 0 1
34.599387 -8.511351 26.891422 44.639772 -0.241208 0.924280 0.027629 0.005117 -483022.000000 0 0 1
-35.091431 -7.872251 27.670822 45.376814 0.220682 0.914987 -0.000802 0.001494 -979595.000000 0 0 1
34.980808 -7.118351 28.646822 45.770823 -0.200752 0.894543 0.009167 -0.003564 -148384.000000 0 0 1
-34.601610 -6.548051 29.606722 46.007677 0.187030 0.871712 0.017349 -0.003603 369643.000000 0 0 1
-34.115302 -7.415051 30.605022 46.427408 0.214024 0.851040 0.011560 -0.005459 -583529.000000 0 0 1
-32.728119 -7.272551 30.773722 45.508700 0.218658 0.828182 0.008474 -0.011371 153536.000000 0 0 1
-32.194249 -7.938551 32.106922 46.155657 0.241760 0.801510 -0.008134 -0.007467 23106.700000 0 0 1
-32.401059 -9.347851 32.083222 46.546150 0.280877 0.810305 -0.011273 -0.008351 110393.000000 0 0 1
-31.977089 -9.939551 33.265722 47.201029 0.301366 0.788702 -0.014701 -0.009046 -303313.000000 0 0 1
-31.934939 -11.462851 33.136822 47.426641 0.344620 0.797223 0.002883 -0.013097 194514.000000 0 0 1
-33.246939 -11.976451 32.931122 48.303759 0.345757 0.820643 -0.002820 -0.014700 328047.000000 0 0 1
-33.349069 -13.325851 33.393722 49.039570 0.380150 0.821731 0.011597 -0.017430 1098400.000000 0 0 1
-34.865191 -13.760051 33.329522 50.157528 0.375898 0.843976 0.011789 -0.014334 1038140.000000 0 0 1
-35.111244 -15.033851 33.825522 51.019429 0.404559 0.845987 0.014053 -0.015455 -74203.300000 0 0 1
34.157351 -15.286451 34.033522 50.583405 -0.420798 0.832782 0.006778 -0.011514 -20546.500000 0 0 1
33.804881 -16.769751 34.369822 51.041936 -0.460503 0.832046 0.005165 -0.006520 88631.600000 0 0 1
34.551561 -17.278451 -33.577600 51.184084 -0.463709 2.286325 0.006753 -0.008148 409405.000000 0 0 1
34.394811 -18.662951 -33.466100 51.490665 -0.497151 2.278308 0.001819 -0.011535 -77191.500000 0 0 1
34.839248 -19.295151 -32.108800 51.157122 -0.505782 2.249328 0.022697 -0.015225 13315.800000 0 0 1
33.830771 -19.020751 -31.163300 49.774103 -0.512186 2.247331 0.023909 -0.011718 78716.800000 0 0 1
34.248391 -19.520851 -29.911500 49.484480 -0.518052 2.219887 0.024281 -0.006851 -1012210.000000 0 0 1
33.120511 -19.445351 -28.884800 48.056442 -0.530887 2.215623 0.034995 -0.002779 524117.000000 0 0 1
32.002761 -20.324251 -29.103500 47.793991 -0.565814 2.225515 0.024356 0.001131 833722.000000 0 0 1
31.109781 -19.911651 -30.134800 47.669681 -0.569345 2.255132 0.019061 0.000901 482006.000000 0 0 1
29.650021 -20.541051 -30.011500 46.922795 -0.605866 2.264765 0.012925 0.008184 1648450.000000 0 0 1
28.702651 -20.019251 -30.948200 46.716204 -0.609026 2.294911 -0.001398 0.011692 822350.000000 0 0 1
27.503261 -20.782051 -31.083400 46.416600 -0.647089 2.304549 0.001127 0.014172 614991.000000 0 0 1
26.456051 -20.202451 -32.048100 46.207601 -0.652163 2.337226 -0.001956 0.015384 368602.000000 0 0 1
26.969321 -20.207751 -33.384900 47.436790 -0.643044 2.351496 0.000077 0.012862 464862.000000 0 0 1
25.891131 -19.969251 -34.279400 47.372977 -0.656980 2.379810 0.018298 0.010378 512421.000000 0 0 1
26.392411 -20.063251 33.295622 46.986081 -0.649991 0.783245 0.021220 0.007079 126405.000000 0 0 1
27.219771 -19.003851 32.886622 46.728922 -0.609492 0.790100 0.010302 0.006674 -63642.300000 0 0 1
27.540891 -18.855751 31.562022 45.936927 -0.600347 0.813343 0.010815 0.003676 -105806.000000 0 0 1
26.561601 -18.013951 30.691622 44.407170 -0.595942 0.807730 0.012642 0.005844 -16667.300000 0 0 1
26.446121 -16.646351 31.092422 44.082162 -0.561789 0.787909 0.011620 -0.001456 344727.000000 0 0 1
25.414931 -16.079051 30.315322 42.702147 -0.564090 0.781405 0.017733 -0.003673 14760.100000 0 0 1
25.157231 -14.646751 30.850922 42.416895 -0.527235 0.756378 0.025494 -0.001590 -468055.000000 0 0 1
26.232211 -13.788851 30.659422 42.641077 -0.483953 0.768417 0.029010 -0.003785 -158967.000000 0 0 1
25.906031 -12.490751 31.125722 42.378672 -0.449271 0.745916 0.056041 -0.010604 269366.000000 0 0 1
27.169471 -11.602551 31.330222 43.062538 -0.403600 0.756050 0.059988 -0.018025 274727.000000 0 0 1
27.760691 -11.095651 30.182122 42.482113 -0.380239 0.780635 0.050981 -0.015193 -1988050.000000 0 0 1
29.113961 -11.119951 30.176722 43.380993 -0.364846 0.801513 0.050317 -0.007664 -1682250.000000 0 0 1
29.632051 -10.662951 28.807622 42.680628 -0.345419 0.829889 0.042234 -0.007257 -240055.000000 0 0 1
29.637141 -9.235851 28.663022 42.251981 -0.302093 0.825237 0.047985 -0.007392 -33584.300000 0 0 1
29.940721 -8.752651 27.333922 41.475281 -0.284408 0.851253 0.035995 -0.001307 219204.000000 0 0 1
30.136681 -7.230151 27.404822 41.370507 -0.235462 0.846746 0.045512 0.004303 686038.000000 0 0 1
28.826241 -6.669651 27.454022 40.362851 -0.227373 0.822788 0.051404 0.000590 347399.000000 0 0 1
28.910461 -5.284151 27.256922 40.083373 -0.180781 0.823026 0.046657 0.001731 302847.000000 0 0 1
27.519791 -4.593651 27.173422 38.946571 -0.165397 0.798600 0.044517 0.002708 585910.000000 0 0 1
26.771321 -4.841951 26.004922 37.635144 -0.178929 0.807960 0.036806 0.008977 -263214.000000 0 0 1
25.473031 -4.320751 26.046222 36.687189 -0.168021 0.781363 0.046549 0.004853 -307602.000000 0 0 1
24.655431 -4.550751 24.728422 35.214975 -0.182520 0.792295 0.041389 0.018775 -92040.300000 0 0 1
25.163431 -3.831851 23.585422 34.700914 -0.151118 0.823474 0.039782 0.022586 286448.000000 0 0 1
24.761131 -4.413251 22.348322 33.645771 -0.176381 0.844341 0.039003 0.016213 -63095.600000 0 0 1
25.238831 -3.619551 21.128622 33.113719 -0.142441 0.878817 0.035855 0.014262 -113878.000000 0 0 1
24.439631 -2.508751 20.847122 32.220985 -0.102293 0.867147 0.031278 0.017481 -38833.400000 0 0 1
24.891831 -1.815551 19.675422 31.780839 -0.072809 0.903204 0.020745 0.009624 -468418.000000 0 0 1
23.805231 -0.891951 19.137622 30.557048 -0.037451 0.894009 0.026329 0.008176 -318086.000000 0 0 1
22.726431 -1.581751 18.572022 29.392390 -0.069488 0.886839 0.030706 0.003173 -268880.000000 0 0 1
21.759831 -0.738551 17.958522 28.223115 -0.033928 0.881097 0.030167 0.002061 346289.000000 0 0 1
20.672631 -1.610851 17.274922 26.988432 -0.077765 0.876186 0.031090 -0.001352 -196671.000000 0 0 1
21.131531 -2.382051 16.225422 26.748459 -0.112251 0.919029 0.050336 -0.010575 -303212.000000 0 0 1
20.054531 -2.971251 15.557222 25.554641 -0.147089 0.916271 0.062963 -0.022603 -488228.000000 0 0 1
20.424331 -3.551051 14.161422 25.105958 -0.172143 0.971494 0.067182 -0.035249 -288336.000000 0 0 1
19.404731 -4.283851 13.532822 24.042301 -0.217278 0.972936 0.075157 -0.036111 425136.000000 0 1 0
19.867331 -4.656551 12.280322 23.815974 -0.230227 1.029049 0.074049 -0.031961 -147308.000000 0 1 0
18.823631 -5.592751 11.654722 22.835071 -0.288806 1.035162 0.078073 -0.036382 -151106.000000 0 1 0
18.778531 -6.785351 12.364122 23.485011 -0.346737 1.016355 0.071329 -0.034030 179765.000000 0 1 0
17.611431 -7.466851 12.026722 22.595539 -0.401004 1.009527 0.065309 -0.023876 -511557.000000 0 1 0
17.500631 -8.953351 12.508422 23.300111 -0.472886 1.004110 0.065938 -0.028548 -220824.000000 0 1 0
18.182231 -9.857251 11.635922 23.730857 -0.496786 1.058329 0.049680 -0.036052 422227.000000 0 1 0
17.611931 -11.108751 11.546322 23.809704 -0.562725 1.064500 0.048223 -0.028839 -116677.000000 0 1 0
18.393231 -11.879751 10.464722 24.268289 -0.573471 1.124963 0.045192 -0.025305 157528.000000 0 1 0
18.147431 -11.340351 9.169122 23.281014 -0.558528 1.165985 0.063049 -0.023122 96276.700000 0 1 0
18.977331 -11.917151 8.205422 23.863917 -0.560731 1.219791 0.061145 -0.026037 -87325.700000 0 1 0
18.762931 -11.348051 6.739322 22.940015 -0.543950 1.272617 0.057603 -0.016704 -72071.000000 0 1 0
18.972231 -9.925951 6.727422 22.443891 -0.482022 1.266372 0.054512 -0.013189 466496.000000 0 1 0
19.349431 -9.536251 5.422622 22.242873 -0.457906 1.324523 0.021952 -0.014474 -440848.000000 0 1 0
19.929831 -8.137151 5.362422 22.184836 -0.387632 1.326663 0.046092 -0.015506 -574471.000000 0 1 0
20.471631 -8.014051 4.081122 22.359970 -0.373132 1.387248 0.041468 -0.014817 435852.000000 0 1 0
20.907831 -6.680151 3.911422 22.294865 -0.309254 1.394443 0.056971 -0.014169 -309509.000000 0 1 0
21.592031 -6.236751 2.569622 22.621136 -0.281192 1.456957 0.045848 -0.007388 354316.000000 0 1 0
20.761931 -6.024151 1.434822 21.665800 -0.282399 1.504523 0.033310 -0.016014 956231.000000 0 1 0
21.580631 -5.327951 0.469722 22.233563 -0.242045 1.549668 0.056847 -0.006858 443185.000000 0 1 0
-25.388269 -15.981751 -0.108378 29.999872 0.561824 1.574409 0.005977 0.003231 392444.000000 0 0 1
-24.465029 -14.928551 -0.408178 28.662971 0.547885 1.585037 0.001816 0.005521 567194.000000 0 0 1
-23.089129 -15.295551 -0.382778 27.698525 0.585082 1.584616 -0.000761 0.004824 1051220.000000 0 0 1
-22.291029 -14.739951 0.869222 26.737832 0.584243 1.538282 -0.006523 -0.003805 -346708.000000 0 0 1
-22.624429 -15.448851 2.055622 27.472848 0.599116 1.495903 -0.003601 0.007849 248069.000000 0 0 1
-21.862729 -15.049651 3.197022 26.733722 0.602878 1.450922 -0.007985 0.012797 3694.330000 0 0 1
-22.383229 -15.784751 4.433422 27.745676 0.614210 1.410321 -0.001082 0.019703 -1090130.000000 0 0 1
-22.276329 -17.225451 4.433722 28.506296 0.658224 1.414627 0.003378 0.009885 155009.000000 0 0 1
-22.583729 -17.859351 5.650922 29.341339 0.669110 1.376993 0.003933 0.002745 -506162.000000 0 0 1
-22.460629 -19.413751 5.510722 30.195060 0.712764 1.387264 -0.007262 0.003454 -13825.200000 0 0 1
-22.833929 -20.200151 6.638722 31.201075 0.724272 1.356385 -0.005119 0.005100 -106133.000000 0 0 1
-23.162729 -21.508051 6.267322 32.224022 0.748373 1.375057 0.001676 -0.001510 -25425.600000 0 0 1
-23.766329 -22.389151 7.411022 33.481872 0.755569 1.347604 0.005588 -0.003159 488877.000000 0 0 1
-22.845829 -22.832551 8.405222 33.375216 0.785107 1.316215 0.012750 -0.000425 197075.000000 0 0 1
-23.594429 -23.412751 9.483222 34.565669 0.781533 1.292879 0.020817 -0.013087 831599.000000 0 0 1
-22.636129 -23.911951 10.619422 34.596934 0.812800 1.258813 0.018997 -0.014131 526062.000000 0 0 1
-22.218629 -22.849851 11.454022 33.867061 0.799403 1.225787 0.027161 -0.009737 -169909.000000 0 0 1
-21.577429 -23.387851 12.598822 34.224368 0.825639 1.193805 0.042870 -0.010337 -219309.000000 0 0 1
-21.827829 -22.457551 13.800922 34.223693 0.799617 1.155724 0.032692 -0.004020 -499747.000000 0 0 1
-23.144329 -22.501951 14.259122 35.289097 0.771326 1.154839 0.028980 -0.006291 -678844.000000 0 0 1
-23.363329 -21.672051 15.362522 35.376970 0.747861 1.121589 0.027113 0.013635 545249.000000 0 0 1
-24.831829 -21.849551 15.864122 36.683688 0.721599 1.123580 0.019264 0.008846 1568850.000000 0 0 1
-25.986009 -21.650951 14.988722 36.995921 0.694646 1.153659 0.015253 0.013086 1276680.000000 0 0 1
-26.305229 -22.730651 14.122922 37.524719 0.712630 1.184929 0.000400 0.015999 -396028.000000 0 0 1
-27.410749 -23.664051 14.652522 39.064471 0.712172 1.186307 -0.009464 0.010321 -208649.000000 0 0 1
-27.024569 -24.291651 15.872422 39.652811 0.732192 1.158969 -0.002136 0.008251 -54800.400000 0 0 1
-28.019249 -25.154171 16.373822 41.059867 0.731568 1.160611 -0.010136 0.010081 -61989.500000 0 0 1
-28.047569 -26.608091 15.854822 41.785548 0.759067 1.181613 -0.002956 0.008804 169248.000000 0 0 1
-28.720579 -26.792761 14.599622 41.903134 0.750685 1.214918 -0.011658 0.006121 62353.900000 0 0 1
-29.838539 -27.633421 14.693722 43.241760 0.747048 1.224088 -0.022702 0.004012 -352826.000000 0 0 1
-30.396929 -28.080731 13.347822 43.481779 0.745811 1.258783 -0.017158 -0.001762 -232714.000000 0 0 1
-29.835479 -29.254521 12.752922 43.687754 0.775567 1.274572 -0.016446 -0.008590 -101772.000000 0 0 1
-30.400189 -29.593841 11.531322 43.965194 0.771959 1.305409 -0.013161 -0.003057 -188345.000000 0 0 1
-29.761819 -30.814821 10.770922 44.173882 0.802779 1.324483 -0.017664 -0.008380 -63673.100000 0 0 1
-30.004079 -32.032001 11.429922 45.353467 0.818076 1.316031 -0.013335 -0.009821 188490.000000 0 0 1
-29.232609 -33.061731 10.803822 45.435075 0.846789 1.330711 -0.003064 -0.002769 -115004.000000 0 0 1
-29.245079 -34.428047 11.502222 46.614013 0.866619 1.321466 0.009162 -0.004247 -586442.000000 0 0 1
-30.537059 34.229235 11.664022 47.330772 -0.842344 1.321795 0.009682 -0.006393 -704011.000000 0 0 1
-30.485729 32.802731 11.753422 46.298400 -0.821992 1.314125 0.015744 -0.013297 291235.000000 0 0 1
-31.854429 32.172721 12.193222 46.887774 -0.790369 1.307721 0.020223 -0.013310 1492920.000000 0 0 1
-32.985179 32.160991 11.302022 47.435083 -0.772747 1.330219 0.014936 -0.012289 1073460.000000 0 0 1
-33.495979 33.453677 10.815622 48.560342 -0.784766 1.346187 0.009039 -0.006993 -1383550.000000 0 0 1
-34.935095 33.433857 10.384522 49.458285 -0.763444 1.359257 0.005274 0.003070 -929666.000000 0 0 1
-35.158215 32.676641 9.183122 48.869139 -0.748832 1.381760 -0.009055 0.007595 -688454.000000 0 0 1
34.130081 32.662011 8.872622 48.066546 0.763422 1.385141 -0.001703 0.006494 -833470.000000 0 0 1
33.833911 32.067961 7.441122 47.206546 0.758608 1.412507 0.004549 0.003731 76465.600000 0 0 1
34.167081 30.690661 7.287322 46.501733 0.731849 1.413437 0.002531 0.004097 55007.600000 0 0 1
33.897631 30.333711 5.933522 45.873632 0.729969 1.441088 0.012452 0.001453 -51340.700000 0 0 1
34.049641 28.882401 5.546822 44.992648 0.703474 1.447199 0.018997 0.002183 -305733.000000 0 0 1
33.198961 27.976791 6.189922 43.854156 0.700241 1.429175 0.010494 0.008401 31085.500000 0 0 1
33.782481 27.478151 7.404322 44.171584 0.682849 1.402375 -0.000398 0.009556 148011.000000 0 0 1
32.807591 26.431971 8.005122 42.884369 0.678186 1.383027 -0.006357 0.016646 120664.000000 0 0 1
32.861681 25.287401 7.169822 42.080270 0.655871 1.399577 -0.001333 0.010275 -198417.000000 0 0 1
31.775511 24.421491 7.318322 40.738804 0.655276 1.390176 -0.005872 0.017709 -860832.000000 0 0 1
31.805791 23.227491 6.309022 39.886444 0.630768 1.411955 -0.000877 0.019453 -221466.000000 0 0 1
32.660221 22.113691 6.519922 39.977678 0.595180 1.406975 0.007810 0.012203 -459939.000000 0 0 1
34.028551 22.386591 6.447022 41.239130 0.581893 1.413820 0.022122 0.004230 -833643.000000 0 0 1
34.896988 21.173591 6.733922 41.369874 0.545365 1.407295 0.006697 0.001867 -304735.000000 0 0 1
34.881631 20.261291 5.613722 40.727902 0.526226 1.432521 0.017323 -0.003619 8238.750000 0 0 1
-35.195183 19.025691 5.954322 40.449126 -0.495580 1.423054 0.011898 -0.000484 -296487.000000 0 0 1
35.168148 17.937691 4.981922 39.791694 0.471659 1.445267 0.017950 -0.006617 -339989.000000 0 0 1
-34.613560 17.896591 3.843822 39.155606 -0.477186 1.472470 0.012813 -0.005753 142283.000000 0 0 1
-35.074915 16.991291 2.806222 39.074653 -0.451113 1.498918 0.011748 -0.006730 -645996.000000 0 0 1
-34.051689 16.519591 1.741222 37.887284 -0.451683 1.524822 0.006282 -0.002948 -296829.000000 0 0 1
-33.007229 15.711791 2.155522 36.619446 -0.444273 1.511900 0.015803 -0.014762 -536690.000000 0 0 1
-31.897079 16.431291 2.640822 35.977562 -0.475682 1.497328 0.015747 -0.011996 -456746.000000 0 0 1
-30.729199 15.444091 2.994322 34.522016 -0.465715 1.483951 -0.006503 -0.003763 -30474.200000 0 0 1
-30.921219 14.557591 4.096222 34.421277 -0.440013 1.451511 0.006160 -0.003900 -439446.000000 0 0 1
-29.712919 14.008891 4.510622 33.157990 -0.440568 1.434339 0.005168 0.003499 -676243.000000 0 0 1
-29.741289 13.275391 5.844122 33.089788 -0.419825 1.393251 0.014263 0.011732 -209247.000000 0 0 1
-30.047119 11.885691 5.667222 32.805738 -0.376680 1.397174 0.008291 0.022220 414523.000000 0 0 1
-29.716359 11.185091 6.817122 32.475243 -0.359993 1.359306 0.014844 0.023697 -114239.000000 0 0 1
-29.786659 9.663891 6.667122 32.016970 -0.313723 1.361024 0.021293 0.008824 -931735.000000 0 0 1
-31.077339 9.200691 6.698922 33.095759 -0.287836 1.366978 0.016343 0.026982 -978974.000000 0 0 1
-31.129739 7.774891 6.558322 32.749369 -0.244751 1.369175 0.028152 0.010745 562456.000000 0 0 1
-32.547989 7.107791 6.576822 33.958017 -0.215003 1.375890 0.032850 0.006383 544622.000000 0 0 1
-33.150089 7.019491 7.879922 34.789292 -0.208667 1.342309 0.036791 0.005734 412431.000000 0 0 1
-34.443509 6.467191 7.631222 35.866634 -0.185601 1.356391 0.020108 0.013098 664847.000000 0 0 1
-35.216902 5.897191 8.874222 36.793462 -0.165914 1.327204 0.020387 0.009067 170469.000000 0 0 1
34.900949 6.904291 9.765522 36.893236 0.195304 1.302907 0.031204 0.007429 -95766.300000 0 0 1
-34.781734 7.466791 10.628022 37.127845 -0.211466 1.280481 0.032862 0.003131 -371546.000000 0 0 1
-35.273405 8.538091 11.638422 38.112531 -0.237487 1.260469 0.023506 0.000410 -872971.000000 0 0 1
34.567471 8.052791 12.625922 37.671891 0.228877 1.229027 0.020269 -0.008072 -32237.600000 0 0 1
34.201051 9.172391 13.468322 37.884566 0.262024 1.207337 0.033783 -0.009267 -168364.000000 0 0 1
33.529501 8.748391 14.838622 37.695444 0.255226 1.166203 0.030579 -0.008595 -115105.000000 0 0 1
32.174741 8.386991 14.705622 36.356717 0.254996 1.154384 0.043423 -0.012567 189119.000000 0 0 1
31.740901 7.837991 15.929722 36.368598 0.242093 1.117415 0.030697 -0.005933 430972.000000 0 0 1
30.231501 7.464791 16.029822 35.023163 0.242079 1.095399 0.034787 -0.000122 160010.000000 0 0 1
29.318791 8.565191 16.040122 34.499848 0.284230 1.087237 0.020214 -0.001819 570414.000000 0 0 1
27.950781 8.201891 16.060222 33.263312 0.285428 1.066923 0.022354 -0.001960 376406.000000 0 0 1
27.414561 7.632491 17.409922 33.360432 0.271534 1.021751 0.024117 0.002503 -760088.000000 0 0 1
27.284421 8.630791 18.433022 34.039778 0.306367 0.998559 0.033515 -0.004098 481312.000000 0 0 1
26.557221 8.172691 19.612022 34.010444 0.298542 0.956178 0.037145 -0.001054 174986.000000 0 0 1
27.279411 7.192391 20.568822 34.913797 0.257790 0.940813 0.036623 -0.005087 160709.000000 0 0 1
26.463081 6.885791 21.705622 34.911929 0.254559 0.899853 0.019651 0.000468 363585.000000 0 0 1
27.103441 5.943591 22.563522 35.763603 0.215876 0.888074 0.031495 0.004117 -599667.000000 0 0 1
26.566691 5.760791 23.991022 36.256653 0.213537 0.847713 0.031224 0.005991 -176122.000000 0 0 1
25.275431 5.200891 24.117622 35.320764 0.202936 0.819185 0.018942 0.006037 120401.000000 0 0 1
24.295831 6.240691 24.262922 34.898754 0.251427 0.802046 0.018462 0.009766 324704.000000 0 0 1
22.808331 5.801991 24.297122 33.826516 0.249097 0.769460 0.021132 0.005064 106787.000000 0 0 1
22.362631 5.218791 23.154922 32.610941 0.229268 0.781248 0.026266 0.014122 -1568460.000000 0 0 1
21.012431 5.435791 23.084622 31.685483 0.253144 0.754586 0.044011 0.002720 -2392190.000000 0 0 1
20.333431 4.512091 22.109322 30.374817 0.218367 0.755566 0.037129 0.006379 734039.000000 0 0 1
19.048831 5.000791 21.617722 29.243662 0.256732 0.738874 0.048319 -0.001841 2079330.000000 0 0 1
17.961431 4.662791 22.532322 29.190069 0.253994 0.688945 0.046113 -0.006000 392553.000000 0 0 1
16.663731 4.379091 21.719222 27.723293 0.256981 0.670633 0.064089 -0.008123 -2860.370000 0 0 1
16.657731 3.060091 21.160322 27.103568 0.181678 0.674978 0.051663 -0.004236 386840.000000 0 0 1
15.625231 2.894591 20.200922 25.702213 0.183175 0.666548 0.061940 -0.012774 476478.000000 0 0 1
14.369831 2.062791 20.565022 25.172749 0.142576 0.614684 0.062942 -0.019998 241001.000000 0 0 1
14.712231 0.644191 20.599522 25.322026 0.043758 0.620647 0.043327 -0.012230 684896.000000 0 0 1
13.755831 -0.060809 21.403422 25.442741 -0.004421 0.571226 0.050456 -0.016219 249024.000000 0 0 1
14.036031 -1.567709 21.664822 25.861794 -0.111231 0.577710 0.034218 -0.003437 20939.800000 0 0 1
13.484831 -2.308609 20.592022 24.722494 -0.169557 0.586421 0.039171 -0.007824 333221.000000 0 1 0
13.849731 -3.703809 20.672722 25.157398 -0.261313 0.606347 0.025075 0.008619 -47212.100000 0 0 1
13.500831 -4.488009 19.409222 24.065173 -0.320932 0.632542 0.028978 0.005558 186301.000000 0 1 0
12.121131 -4.673509 19.162422 23.150851 -0.368003 0.595764 0.030750 0.002587 -44755.300000 0 1 0
11.878831 -5.221009 17.874322 22.087484 -0.414106 0.627920 0.030093 -0.001235 78904.000000 0 1 0
10.377531 -5.401609 17.581822 21.118499 -0.479921 0.587134 0.027533 -0.000953 157982.000000 0 1 0
9.740231 -6.190809 18.563322 21.858525 -0.566179 0.556236 0.026283 0.010293 -571380.000000 0 1 0
8.387831 -6.431409 18.281622 21.117207 -0.654138 0.524206 0.017696 -0.002338 -103169.000000 0 1 0
7.710431 -7.336509 19.338822 22.074083 -0.760553 0.503110 0.021863 -0.001517 -213752.000000 0 1 0
7.769731 -8.714209 19.077122 22.366107 -0.842632 0.549190 0.020095 0.000374 16209.800000 0 1 0
8.970231 -9.296709 19.541122 23.425398 -0.803269 0.584143 0.041201 -0.003841 49596.600000 0 1 0
9.188431 -10.704609 19.054422 23.708372 -0.861468 0.637309 0.050540 -0.011374 -35069.000000 0 1 0
9.344031 -10.690609 17.636522 22.641708 -0.852510 0.677823 0.046264 0.000153 155882.000000 0 1 0
9.795031 -11.978309 17.118222 23.075009 -0.885337 0.734970 0.040451 -0.009047 415375.000000 0 1 0
9.820831 -12.068209 15.589322 22.025379 -0.887711 0.784433 0.036394 -0.009888 272709.000000 0 1 0
10.226331 -13.360009 15.157922 22.645756 -0.917484 0.837464 0.017655 0.002059 -267896.000000 0 1 0
9.767331 -13.570509 13.851022 21.711984 -0.946940 0.878971 0.005241 0.010160 -79822.300000 0 1 0
10.593131 -14.630009 12.968022 22.235583 -0.944099 0.948121 0.015987 -0.001687 674268.000000 0 1 0
11.915931 -14.300609 12.591022 22.472887 -0.876109 0.976077 0.000564 -0.006765 -72731.200000 0 1 0
12.056431 -13.396809 11.587822 21.426843 -0.838010 0.999398 -0.017116 -0.004846 -171728.000000 0 1 0
13.490731 -13.155109 11.034722 21.836249 -0.772803 1.041021 0.011935 -0.016625 435712.000000 0 1 0
14.051031 -14.298909 10.443522 22.604367 -0.794141 1.090532 0.020280 -0.011924 439812.000000 0 1 0
15.395231 -14.099309 9.994022 23.144851 -0.741489 1.124305 0.028225 -0.018972 366257.000000 0 1 0
16.055231 -15.379509 9.498022 24.176686 -0.763905 1.167058 0.018332 -0.020291 -140133.000000 0 1 0
16.425631 -16.244409 10.565622 25.403042 -0.779851 1.141843 0.021768 -0.015693 112541.000000 0 0 1
15.667331 -17.436809 10.550422 25.706399 -0.838799 1.147882 0.045351 -0.012707 123434.000000 0 0 1
15.946331 -18.283409 11.809722 26.982180 -0.853569 1.117773 0.035725 -0.010104 -573805.000000 0 0 1
17.221931 -18.849109 11.912322 28.174229 -0.830478 1.134253 0.057043 -0.013949 -423335.000000 0 0 1
17.347131 -19.603509 13.086122 29.265459 -0.846387 1.107217 0.032998 -0.013018 -570840.000000 0 0 1
18.727931 -20.237409 13.051922 30.506405 -0.824118 1.128692 0.011581 -0.018490 -656550.000000 0 0 1
19.807531 -19.358009 13.240622 30.698287 -0.773921 1.124847 0.011555 -0.020623 -586428.000000 0 0 1
21.043131 -20.040709 13.172022 31.905258 -0.761004 1.145218 0.003427 -0.025565 166934.000000 0 0 1
22.011931 -19.294709 12.234622 31.725335 -0.719711 1.174893 0.003379 -0.015080 -668371.000000 0 0 1
21.701831 -19.274609 10.836522 30.982418 -0.726233 1.213478 0.002866 -0.004488 -365573.000000 0 0 1
20.493131 -18.741709 10.359922 29.640311 -0.740788 1.213736 0.006617 -0.006219 -118103.000000 0 0 1
20.373731 -17.203409 10.515322 28.663883 -0.701229 1.195177 0.029776 -0.007920 -414513.000000 0 0 1
21.199631 -16.603709 9.589922 28.584508 -0.664417 1.228667 0.023605 -0.000012 -393749.000000 0 0 1
21.043531 -15.211309 9.623522 27.691628 -0.625897 1.215866 0.038744 -0.013354 97959.600000 0 0 1
-33.951999 25.313949 7.962822 43.092236 -0.640667 1.384943 0.029142 0.002803 20162.300000 0 0 1
-33.219979 24.388549 8.801922 42.140742 -0.633282 1.360377 0.031240 -0.013191 639496.000000 0 0 1
-32.131489 25.134049 9.343122 41.850292 -0.663808 1.345648 0.034238 -0.011810 -659753.000000 0 0 1
-31.051319 24.314149 9.975922 40.680232 -0.664308 1.323042 0.039117 -0.030246 -1193610.000000 0 0 1
-30.210759 23.619549 9.128222 39.419507 -0.663560 1.337109 0.036278 -0.023958 -438145.000000 0 0 1
-29.425319 22.712749 9.843822 38.452818 -0.657356 1.311917 0.037729 -0.022435 -254852.000000 0 0 1
-28.578399 21.867449 8.858122 37.059095 -0.653142 1.329433 0.033856 -0.028224 -394933.000000 0 0 1
-29.330559 21.023649 8.090522 36.982862 -0.621901 1.350249 0.025309 -0.031885 -773840.000000 0 0 1
-28.552609 20.413949 7.174922 35.825414 -0.620695 1.369158 0.025609 -0.031385 -560159.000000 0 0 1
-29.442149 19.615249 6.198022 35.916760 -0.587700 1.397362 0.016847 -0.022082 -254298.000000 0 0 1
-30.016229 18.471649 6.739122 35.883027 -0.551658 1.381866 0.016727 -0.011125 24237.600000 0 0 1
-31.014799 17.982949 5.889122 36.331611 -0.525448 1.407984 0.003868 -0.008391 -182093.000000 0 0 1
-31.780159 16.723349 6.351722 36.469073 -0.484403 1.395736 0.015766 -0.000319 -226122.000000 0 0 1
-32.578049 16.860449 7.500722 37.441486 -0.477581 1.369100 0.007138 0.001254 -97482.600000 0 0 1
-33.380259 15.704049 7.548222 37.654143 -0.439737 1.368967 0.015023 0.000990 -436801.000000 0 0 1
-34.295223 15.740149 8.811022 38.749822 -0.430280 1.341408 0.007517 0.001034 -458110.000000 0 0 1
-35.230609 16.761549 8.605822 39.952541 -0.444074 1.353694 0.006051 -0.006137 -555350.000000 0 0 1
34.881884 17.143349 9.860322 40.098207 0.456799 1.322344 0.020814 -0.002112 -65033.200000 0 0 1
33.926471 18.342249 9.666322 39.760298 0.495634 1.325220 0.019803 -0.004839 -303323.000000 0 0 1
32.590261 18.161449 9.299722 38.450594 0.508405 1.326512 0.009663 0.001360 -150287.000000 0 0 1
31.982151 19.406949 8.966922 38.469382 0.545409 1.335540 0.001958 0.005180 307792.000000 0 0 1
30.460191 19.302249 8.693722 37.094216 0.564822 1.334227 -0.011667 0.009637 -53141.700000 0 0 1
29.806821 20.564949 8.788122 37.263854 0.603943 1.332719 -0.020557 0.018003 1180010.000000 0 0 1
28.500861 20.634549 8.159122 36.120008 0.626651 1.342941 -0.029247 0.012547 984719.000000 0 0 1
28.426721 20.609349 6.596722 35.725907 0.627308 1.385083 -0.045026 0.024980 -571460.000000 0 0 1
28.538931 19.279049 6.154622 34.986164 0.594117 1.393960 -0.026600 0.016505 56827.700000 0 0 1
28.442511 19.030949 4.778622 34.554141 0.589687 1.432058 -0.025814 0.014471 387176.000000 0 0 1
27.052231 19.177249 4.056222 33.407230 0.616672 1.449079 0.008393 0.015721 -401267.000000 0 0 1
26.100621 18.267149 4.503722 32.174752 0.610641 1.430358 0.011316 0.006673 1628910.000000 0 0 1
24.680531 18.553649 4.280022 31.171864 0.644622 1.433057 0.032655 0.002619 1871170.000000 0 0 1
24.069331 19.830249 4.885022 31.566357 0.689133 1.415418 0.039069 0.005633 -972344.000000 0 0 1
24.641831 20.998749 4.380822 32.670459 0.705746 1.436300 0.023469 0.004438 -99258.900000 0 0 1
24.213331 22.189249 5.052022 33.229070 0.741806 1.418168 0.021579 0.016510 -280551.000000 0 0 1
24.832231 23.546349 4.681622 34.539656 0.758825 1.434834 -0.000892 0.020491 135979.000000 0 0 1
26.197141 23.547849 5.089722 35.590682 0.732191 1.427297 -0.015712 0.026023 303420.000000 0 0 1
26.827871 24.774049 4.786122 36.829270 0.745618 1.440473 -0.013929 0.028069 -64594.600000 0 0 1
28.319811 24.779049 5.202722 37.987909 0.718814 1.433407 -0.034031 0.025628 345059.000000 0 0 1
29.262811 23.861849 4.623822 38.040500 0.684080 1.448945 -0.037913 0.021645 447480.000000 0 0 1
29.546461 23.986049 3.210322 38.192016 0.681899 1.486640 -0.030374 0.009748 -147334.000000 0 0 1
30.435321 25.196049 2.778022 39.608926 0.691497 1.500602 -0.023813 0.004868 -1213340.000000 0 0 1
29.736731 26.411449 2.836722 39.873359 0.726244 1.499593 -0.019793 -0.001328 -267312.000000 0 0 1
30.462251 27.378949 2.135222 41.013592 0.732142 1.518711 0.013031 -0.005538 -895656.000000 0 0 1
29.928331 28.781749 2.411422 41.592175 0.765871 1.512786 0.019745 0.001879 1111650.000000 0 0 1
28.584001 29.055349 1.966822 40.805965 0.793576 1.522578 0.040526 -0.001762 888162.000000 0 0 1
27.583401 28.507449 2.818322 39.767595 0.801871 1.499867 0.012695 0.011878 -547960.000000 0 0 1
26.186971 28.982049 2.350522 39.131082 0.836019 1.510692 -0.008475 0.014615 -109065.000000 0 0 1
25.967051 30.338149 2.749222 40.028105 0.862875 1.502060 0.001008 0.007085 -78030.100000 0 0 1
24.635531 30.736149 2.543022 39.472613 0.895131 1.506327 -0.001822 0.019905 -190690.000000 0 0 1
24.302831 32.130749 3.143622 40.409095 0.923229 1.492923 0.019617 0.007318 -342676.000000 0 0 1
24.310131 32.317949 4.525922 40.692951 0.925877 1.459344 0.013025 -0.013304 62911.300000 0 0 1
25.622911 32.268549 5.038622 41.511210 0.899693 1.449116 0.015919 -0.014705 -82430.500000 0 0 1
25.621541 32.187649 6.614722 41.668485 0.898496 1.411376 0.035397 -0.028597 52544.000000 0 0 1
25.103431 30.944949 7.134022 40.480444 0.889246 1.393637 0.028218 -0.024104 -221315.000000 0 0 1
25.896351 29.819449 6.949722 40.101361 0.855695 1.396613 0.019553 -0.016328 -318085.000000 0 0 1
25.238931 28.469049 7.387122 38.756418 0.845468 1.379019 0.012469 -0.000755 -264021.000000 0 0 1
24.229731 28.054549 6.511022 37.636830 0.858422 1.396926 0.006304 -0.008719 -219349.000000 0 0 1
23.811831 26.757749 6.840722 36.466092 0.843587 1.382087 0.012007 0.004227 262988.000000 0 0 1
22.497931 26.330349 6.093822 35.165023 0.863725 1.396625 0.029339 0.007494 235094.000000 0 0 1
22.635931 26.054049 4.710522 34.833717 0.855485 1.435152 0.013633 0.008341 71574.800000 0 0 1
22.589231 27.218249 3.907122 35.586121 0.878070 1.460781 0.023357 0.004426 -209629.000000 0 0 1
22.889731 26.942749 2.393122 35.434144 0.866552 1.503208 0.013893 0.017324 -221621.000000 0 0 1
24.074731 26.261349 2.074522 35.686899 0.828811 1.512632 -0.017869 0.040232 -168128.000000 0 0 1
24.052331 25.919249 0.691822 35.366661 0.822740 1.551234 -0.017269 0.033042 130531.000000 0 0 1
25.257831 25.119049 0.071222 35.622040 0.782643 1.568797 -0.000676 0.021737 -184826.000000 0 0 1
26.456931 25.866849 0.186722 37.001323 0.774121 1.565750 0.007932 0.021354 709451.000000 0 0 1
27.480351 25.503049 -0.761678 37.498738 0.748096 1.591110 0.003678 0.025982 517578.000000 0 0 1
28.333501 24.278349 -0.437978 37.315108 0.708473 1.582534 -0.003170 0.014831 -1300660.000000 0 0 1
27.587411 23.112249 -0.407378 35.991766 0.697358 1.582115 -0.004643 0.012765 -169388.000000 0 0 1
28.147041 22.104649 0.359622 35.791071 0.665730 1.560748 -0.013256 0.008900 281445.000000 0 0 1
26.999951 21.240549 1.025522 34.368735 0.666571 1.540953 -0.005376 0.013253 663049.000000 0 0 1
26.601041 20.152049 0.280022 33.373625 0.648326 1.562406 0.017468 -0.004861 -550600.000000 0 0 1
25.313531 19.805149 0.647922 32.147139 0.663913 1.550640 0.026457 -0.001952 -1114520.000000 0 0 1
24.881031 18.436549 0.116922 30.967494 0.637709 1.567021 0.037340 -0.009891 -1397770.000000 0 0 1
23.603431 18.199949 0.558222 29.810597 0.656851 1.552070 0.052307 -0.014597 -899975.000000 0 0 1
23.065031 17.056849 -0.169378 28.687287 0.636754 1.576701 0.067683 -0.029383 -231418.000000 0 0 1
21.622431 16.777949 0.258522 27.369617 0.659904 1.561351 0.065860 -0.019157 -758835.000000 0 0 1
21.086831 15.635949 -0.442278 26.255151 0.638041 1.587643 0.061938 -0.023412 726836.000000 0 0 1
19.704731 15.436549 -0.165278 25.031795 0.664532 1.577399 0.072733 -0.018794 1261230.000000 0 0 1
18.589331 16.349349 -0.842478 24.770430 0.721374 1.604814 0.071842 -0.025660 94055.100000 0 1 0
18.569131 17.607349 -0.244378 25.590840 0.758819 1.580346 0.055877 -0.020568 -36524.000000 0 0 1
17.629331 18.487249 -0.800778 25.558030 0.809148 1.602133 0.048321 -0.028189 19161.800000 0 0 1
17.904031 19.912149 -0.253978 26.778956 0.838450 1.580281 0.050032 -0.021964 -498587.000000 0 0 1
17.349431 20.114749 0.977922 26.581238 0.859077 1.533998 0.050927 -0.021563 -196916.000000 0 0 1
17.581531 21.406149 1.497422 27.741228 0.883183 1.516792 0.056959 -0.022949 -156564.000000 0 0 1
16.613631 22.541249 1.002222 28.020084 0.935646 1.535021 0.060058 -0.033770 -15852.200000 0 0 1
15.302831 22.452249 1.485922 27.211911 0.972545 1.516164 0.053358 -0.031808 -688176.000000 0 0 1
14.520331 23.430049 0.885422 27.578817 1.015995 1.538686 0.035013 -0.032214 -146064.000000 0 0 1
13.038231 23.377749 1.316222 26.800131 1.062046 1.521664 0.021370 -0.032937 59872.900000 0 0 1
12.860531 23.741449 2.704022 27.135980 1.074355 1.470984 0.015059 -0.019313 116211.000000 0 0 1
11.476731 23.733349 3.004822 26.533303 1.120379 1.457306 0.002570 -0.022905 326691.000000 0 0 1
11.179731 24.113549 4.493222 26.956236 1.136667 1.403329 0.012704 -0.019371 -363076.000000 0 0 1
11.652131 23.172749 5.404122 26.494395 1.104881 1.365383 0.017014 -0.021692 -24420.200000 0 0 1
10.881931 23.054349 6.606122 26.335532 1.129789 1.317244 0.009910 -0.009967 -835045.000000 0 0 1
11.291531 21.979249 7.628122 25.860671 1.096220 1.271372 0.014852 -0.011984 236564.000000 0 0 1
12.512931 22.117549 8.333822 26.743448 1.055944 1.253898 0.007253 -0.003158 903421.000000 0 0 1
13.701931 21.832649 7.578022 26.866966 1.010337 1.284859 0.011898 -0.005164 1112440.000000 0 0 1
15.072831 21.925149 8.343722 27.884047 0.968531 1.266912 0.006837 -0.000445 532504.000000 0 0 1
15.198431 20.771349 9.190322 27.329531 0.939109 1.227834 0.011094 0.003399 103753.000000 0 0 1
16.465531 20.696449 9.820822 28.211793 0.898761 1.215242 0.019893 -0.005086 190700.000000 0 0 1
16.761631 21.647049 11.054722 29.525478 0.911914 1.187033 0.014003 0.004444 -511639.000000 0 0 1
15.977031 21.333349 12.162722 29.296913 0.927985 1.142685 0.010459 0.001408 -497820.000000 0 0 1
16.171331 22.202049 13.226522 30.485797 0.941282 1.122025 -0.004118 0.007734 -314621.000000 0 0 1
17.154831 21.772549 14.327422 31.202678 0.903470 1.093732 0.013240 0.002062 -428816.000000 0 0 1
18.468631 21.873749 13.866622 31.809345 0.869604 1.119726 0.015265 -0.001327 -574567.000000 0 0 1
19.379431 21.345749 14.835822 32.423833 0.833643 1.095548 0.003964 -0.002693 614223.000000 0 0 1
20.884431 21.610949 14.604722 33.413926 0.802493 1.118441 0.005605 -0.007761 290543.000000 0 0 1
21.521431 21.083349 13.450522 32.993880 0.775116 1.150898 0.013688 -0.005456 651483.000000 0 0 1
22.861131 21.590649 13.352522 34.162513 0.756825 1.169238 0.020235 -0.000318 642218.000000 0 0 1
23.673031 21.082249 12.161022 33.952379 0.727575 1.204480 0.027234 0.005944 -43336.000000 0 0 1
23.302431 21.715849 10.981722 33.692426 0.750170 1.238790 0.033358 0.007287 893817.000000 0 0 1
24.352531 21.558449 10.003822 34.027767 0.724614 1.272398 0.037365 -0.002065 452239.000000 0 0 1
24.160431 22.565349 8.818222 34.215237 0.751274 1.310126 0.020531 0.010023 -62190.000000 0 0 1
24.423831 23.930749 9.072822 35.376834 0.775201 1.311436 0.015579 0.012045 -377673.000000 0 0 1
25.781221 24.249449 9.033922 36.528330 0.754791 1.320890 -0.005940 0.020832 -904760.000000 0 0 1
26.118491 25.539249 9.726822 37.802644 0.774186 1.310564 0.002916 0.025193 562396.000000 0 0 1
27.348111 26.049749 9.149322 38.861532 0.761088 1.333131 -0.005118 0.025979 956815.000000 0 0 1
27.755461 27.224049 9.796922 40.093567 0.775733 1.323945 -0.000079 0.012258 -437471.000000 0 0 1
29.059541 27.674449 9.154922 41.159988 0.760989 1.346497 -0.005105 0.014911 -400365.000000 0 0 1
28.817161 28.349149 7.940722 41.196578 0.777212 1.376830 0.004828 0.009120 632121.000000 0 0 1
30.075191 28.671949 7.338322 42.195364 0.761517 1.395994 0.002018 0.012693 242919.000000 0 0 1
30.069261 29.604549 6.124922 42.639236 0.777611 1.426652 0.023832 0.004220 -147369.000000 0 0 1
29.996281 30.968449 6.468522 43.596599 0.801343 1.421874 0.035088 -0.005120 55999.500000 0 0 1
29.889711 31.689849 5.296622 43.882748 0.814623 1.449802 0.048188 -0.014467 37747.500000 0 0 1
29.861231 33.214949 5.591322 45.013207 0.838517 1.446260 0.031215 -0.011577 396500.000000 0 0 1
28.669491 33.695049 6.206222 44.674525 0.865808 1.431425 0.029369 -0.015721 303274.000000 0 0 1
28.762361 -34.066094 6.453022 45.049014 -0.869615 1.427057 0.027628 -0.016017 400314.000000 0 0 1
27.418351 -33.582594 7.074922 43.927339 -0.886108 1.409032 0.052424 -0.020952 766592.000000 0 0 1
26.331401 -33.683694 6.180022 43.198687 -0.907298 1.427243 0.043640 -0.024380 -7511.150000 0 0 1
25.076031 -33.206794 6.660522 42.140966 -0.924009 1.412077 0.035873 -0.022238 362740.000000 0 0 1
24.051131 -33.376294 5.542822 41.510923 -0.946375 1.436869 0.033178 -0.013830 -470712.000000 0 0 1
24.402431 -32.592794 4.410622 40.953906 -0.928124 1.462890 0.015496 0.005992 436975.000000 0 0 1
23.439931 -32.700694 3.329522 40.371418 -0.948882 1.488230 0.010385 0.001047 473603.000000 0 0 1
23.908431 -31.915494 2.093222 39.932360 -0.927861 1.518353 0.013275 0.013366 -158811.000000 0 0 1
23.998831 -30.505894 2.345122 38.885126 -0.904221 1.510451 0.026729 0.020013 258751.000000 0 0 1
24.765131 -29.912694 1.279422 38.855088 -0.879265 1.537862 0.014103 0.024894 -436204.000000 0 0 1
24.905131 -28.397594 1.405922 37.797691 -0.850826 1.533592 0.014287 0.013733 126415.000000 0 0 1
23.737231 -27.582194 1.392722 36.416661 -0.860181 1.532543 0.023474 0.002425 338428.000000 0 0 1
23.020831 -27.578194 0.154222 35.924075 -0.875224 1.566503 0.017712 0.007553 652125.000000 0 0 1
21.779831 -26.603494 0.066622 34.381846 -0.884767 1.568859 0.005483 0.005090 453729.000000 0 0 1
22.097731 -25.195594 -0.081178 33.513195 -0.850808 1.573219 0.013117 -0.007930 -95305.200000 0 0 1
22.194131 -24.529694 1.153422 33.100086 -0.835343 1.535943 0.014047 0.002335 -169147.000000 0 0 1
20.875931 -24.255294 1.897922 32.058164 -0.860137 1.511559 0.009659 -0.002446 -252696.000000 0 0 1
21.007431 -23.699194 3.199422 31.830806 -0.845535 1.470113 0.003542 -0.002489 704621.000000 0 0 1
19.668531 -23.493094 3.719522 30.864403 -0.873778 1.449991 0.001425 -0.003464 1122770.000000 0 0 1
19.604331 -22.660294 5.051722 30.386487 -0.857578 1.403772 -0.008822 0.002768 -412962.000000 0 0 1
19.941031 -21.290694 5.032722 29.601801 -0.818120 1.399952 -0.009951 0.009697 74592.300000 0 0 1
18.977931 -20.429694 4.455722 28.238054 -0.822221 1.412343 -0.013115 0.006991 -446369.000000 0 0 1
19.282931 -18.961894 4.821122 27.470494 -0.777004 1.394381 -0.009825 0.010072 -98665.100000 0 0 1
19.330131 -18.733494 6.198622 27.622828 -0.769725 1.344467 0.001518 0.002323 277888.000000 0 0 1
18.076531 -18.772094 6.881522 26.953809 -0.804272 1.312630 0.014747 0.008113 563071.000000 0 0 1
17.828171 -26.430291 -12.477878 34.235966 -0.977366 1.943857 0.056149 -0.007853 -76201.800000 0 0 1
18.295771 -25.171381 -12.889878 33.682081 -0.942278 1.963505 0.060792 -0.009281 -155506.000000 0 0 1
17.229771 -24.440051 -13.431978 32.781079 -0.956735 1.992974 0.052377 -0.006846 31644.800000 0 0 1
17.672971 -22.947851 -13.737378 32.057032 -0.914532 2.013661 0.045109 -0.007251 174423.000000 0 0 1
17.810671 -22.040051 -12.637078 31.027078 -0.891133 1.990283 0.050897 -0.008329 -213735.000000 0 0 1
19.036971 -21.974751 -11.936278 31.428819 -0.856909 1.960363 0.041781 -0.013603 -679712.000000 0 0 1
19.025871 -22.822051 -10.633278 31.557826 -0.875864 1.914467 0.034238 -0.013725 700514.000000 0 0 1
18.007171 -22.463051 -9.671578 30.370813 -0.895059 1.894890 0.029397 -0.016532 197480.000000 0 0 1
16.677071 -22.719651 -9.998778 29.904561 -0.937590 1.911718 0.038136 -0.005507 -821820.000000 0 0 1
15.629771 -22.175251 -9.004578 28.585205 -0.956836 1.891262 0.022178 -0.002842 -495319.000000 0 0 1
15.463571 -20.777651 -9.086978 27.448242 -0.930991 1.908222 0.009770 -0.010075 -243763.000000 0 0 1
14.761871 -20.195351 -8.041878 26.276165 -0.939597 1.881840 0.010708 -0.007809 -1265360.000000 0 0 1
13.267871 -20.102651 -8.227978 25.452949 -0.987419 1.899971 0.018114 0.001828 -830446.000000 0 0 1
12.714171 -21.452451 -8.102178 26.220280 -1.035786 1.884942 0.013511 0.000128 1296150.000000 0 0 1
11.277871 -21.446551 -8.364678 25.634211 -1.086676 1.903193 0.008827 0.003314 1437550.000000 0 0 1
10.523371 -22.738351 -8.004078 26.302836 -1.137347 1.880005 0.009095 0.005627 -159006.000000 0 0 1
10.482671 -23.048151 -6.643578 26.177104 -1.143945 1.827396 0.020213 0.002990 147190.000000 0 0 1
10.149571 -24.397751 -6.392178 27.186835 -1.176570 1.808139 0.014748 0.005899 -55653.300000 0 0 1
10.445371 -24.724051 -4.915878 27.286450 -1.171064 1.751944 0.030651 -0.000459 87442.200000 0 0 1
9.983371 -26.012821 -4.479878 28.220628 -1.204345 1.730216 0.055815 -0.000899 -98892.900000 0 0 1
10.337471 -26.110411 -3.118678 28.254965 -1.193818 1.681398 0.029009 -0.008452 196366.000000 0 0 1
9.483171 -27.150661 -2.303678 28.851271 -1.234763 1.650728 0.046543 -0.008543 565860.000000 0 0 1
8.190271 -26.637881 -2.018878 27.941602 -1.272503 1.643113 0.027890 -0.004263 -160033.000000 0 0 1
7.604471 -27.364251 -0.948778 28.417079 -1.299738 1.604190 0.029967 -0.005367 126106.000000 0 0 1
6.983971 -26.545831 0.207022 27.449952 -1.313535 1.563254 0.036925 -0.000508 -145813.000000 0 0 1
5.679771 -26.084321 -0.014578 26.695539 -1.356396 1.571342 0.047383 -0.005824 -520791.000000 0 0 1
5.359371 -25.252951 1.098922 25.838770 -1.361672 1.528254 0.033528 -0.006329 1254000.000000 0 0 1
3.831471 -24.802451 0.987222 25.116058 -1.417528 1.531480 0.033023 -0.008129 1284160.000000 0 0 1
2.963071 -25.889791 1.051122 26.079991 -1.456843 1.530482 0.024608 -0.004656 -1049130.000000 0 0 1
1.637671 -25.484811 1.057922 25.559279 -1.506624 1.529394 0.022961 -0.004607 43303.000000 0 0 1
0.511471 -26.517181 0.695922 26.531242 -1.551510 1.544563 0.026076 -0.002778 614699.000000 0 0 1
0.308671 -27.551921 1.660022 27.603610 -1.559594 1.510622 0.027758 -0.005088 -168613.000000 0 0 1
0.683871 -28.808021 1.143222 28.838806 -1.547062 1.531144 0.023102 -0.006382 -162240.000000 0 0 1
0.185971 -29.936881 2.027122 30.006010 -1.564584 1.503188 0.030483 -0.006042 -80449.500000 0 0 1
0.764571 -29.913631 3.298222 30.104620 -1.545243 1.461017 0.018294 -0.006094 30158.100000 0 0 1
0.083371 -30.767631 4.222622 31.056152 -1.568087 1.434407 0.022285 -0.006172 -42992.900000 0 0 1
0.566771 -30.715171 5.685522 31.242089 -1.552346 1.387794 0.017652 -0.010594 28598.800000 0 0 1
1.853871 -31.258901 5.932922 31.870916 -1.511559 1.383549 0.015035 0.001070 57669.600000 0 0 1
2.166371 -31.044351 7.301522 31.964936 -1.501126 1.340339 0.020878 0.000869 -765105.000000 0 0 1
3.596471 -31.422021 7.571722 32.520901 -1.456835 1.335813 0.014334 0.005183 -826151.000000 0 0 1
3.710471 -32.814211 7.542122 33.873642 -1.458199 1.346260 0.025848 0.005360 -274092.000000 0 0 1
5.040671 -33.231331 7.346222 34.404894 -1.420260 1.355617 0.011801 0.005743 43990.500000 0 0 1
5.032671 34.376879 7.220322 35.485640 1.425432 1.365894 -0.004574 0.013752 -238027.000000 0 0 1
4.805471 34.070690 5.805522 34.894248 1.430676 1.403644 0.000466 0.011466 78709.000000 0 0 1
4.573671 32.664831 5.652422 33.464303 1.431683 1.401074 -0.004638 0.002512 -419801.000000 0 0 1
4.868571 32.201571 4.198122 32.836998 1.420742 1.442598 0.006986 0.003906 -220051.000000 0 0 1
6.207571 32.266851 3.776122 33.074805 1.380736 1.456378 0.006242 0.003528 63079.200000 0 0 1
6.936471 31.056611 4.107322 32.085789 1.351054 1.442433 -0.001513 -0.000119 -797116.000000 0 0 1
8.333271 30.950961 3.556922 32.249917 1.307792 1.460279 -0.008136 0.001438 -340890.000000 0 0 1
9.294871 31.693031 4.363822 33.314949 1.285518 1.439432 -0.008196 -0.003186 478017.000000 0 0 1
10.508771 31.903401 3.653322 33.787691 1.252596 1.462459 -0.002760 -0.004082 1192630.000000 0 0 1
11.799171 32.151631 4.535522 34.547341 1.219071 1.439132 0.014258 -0.010295 871245.000000 0 0 1
12.074971 31.175611 5.544422 33.889000 1.201268 1.406452 0.012311 -0.013208 376103.000000 0 0 1
13.254871 31.560281 6.266922 34.799674 1.173180 1.389723 0.034981 -0.013759 435524.000000 0 0 1
13.855671 30.486641 7.169122 34.246332 1.144220 1.359897 0.032166 -0.015238 -284037.000000 0 0 1
13.396971 30.434341 8.534722 34.330299 1.156128 1.319555 0.018328 -0.005278 390589.000000 0 0 1
14.057071 29.367451 9.236222 33.843112 1.124365 1.294377 0.011303 -0.007387 15554.600000 0 0 1
13.868171 29.535501 10.784022 34.365202 1.131810 1.251597 -0.000615 0.004515 -313041.000000 0 0 1
14.606471 30.542311 11.367622 35.712807 1.124710 1.246854 0.009998 -0.001897 -221845.000000 0 0 1
14.043671 30.901611 12.633922 36.218093 1.144236 1.214475 0.003713 0.006761 239765.000000 0 0 1
14.983971 31.793141 13.498322 37.650072 1.130375 1.204114 0.002789 0.011776 -427586.000000 0 0 1
16.012271 31.108961 14.114022 37.727522 1.095446 1.187366 -0.014038 0.016183 -761914.000000 0 0 1
16.741671 32.069651 14.834322 39.099913 1.089672 1.181654 0.005179 0.011330 -383430.000000 0 0 1
17.838271 31.458761 15.751322 39.445681 1.054967 1.160025 0.005275 0.013125 -272671.000000 0 0 1
18.993271 31.074261 15.057322 39.409098 1.022166 1.178753 -0.004869 0.006137 -257722.000000 0 0 1
19.038971 29.721461 14.681622 38.228232 1.001072 1.176616 -0.008802 0.005053 -850983.000000 0 0 1
20.496871 29.502941 14.283022 38.659410 0.963609 1.192371 0.011827 0.001194 -584723.000000 0 0 1
21.364871 29.455121 15.383822 39.505998 0.943268 1.170811 0.019253 -0.008021 -427317.000000 0 0 1
22.634871 29.097481 14.883622 39.755792 0.909678 1.187072 0.034711 -0.015113 -242743.000000 0 0 1
23.788371 29.274871 15.887022 40.930455 0.888428 1.172177 0.039315 -0.019993 -148779.000000 0 0 1
23.963571 28.059501 16.608122 40.465023 0.863969 1.147869 0.034672 -0.016639 -564086.000000 0 0 1
24.865471 28.296931 17.611822 41.583461 0.849856 1.133458 0.032696 -0.014143 -517854.000000 0 0 1
25.875571 27.170921 17.973022 41.603289 0.809812 1.124076 0.014221 -0.012086 -132632.000000 0 0 1
25.335271 25.960301 18.452622 40.697819 0.797582 1.100214 0.023280 -0.015015 -79070.400000 0 0 1
24.891171 26.002551 19.804022 41.084089 0.807232 1.067819 0.034028 -0.010440 -507105.000000 0 0 1
24.383171 24.698501 20.284322 40.199611 0.791823 1.041889 0.040907 -0.015185 -791704.000000 0 0 1
25.330571 23.727491 20.627722 40.374925 0.752733 1.034560 0.022874 -0.010569 -378490.000000 0 0 1
24.737171 22.488791 20.948422 39.452627 0.737825 1.011044 0.032133 -0.012134 -549891.000000 0 0 1
25.775471 21.368291 20.967922 39.504842 0.692185 1.011289 0.011632 -0.008914 -455719.000000 0 0 1
25.232371 20.076191 20.759422 38.349441 0.672084 0.998787 0.012661 0.002550 272115.000000 0 0 1
26.119271 18.914891 20.733222 38.338700 0.626766 0.999419 0.019257 -0.003332 84982.900000 0 0 1
26.688271 18.589491 22.148822 39.349756 0.608401 0.972942 0.030881 0.000423 41045.300000 0 0 1
25.723771 18.092191 23.104522 39.023822 0.612955 0.937181 0.027474 0.001713 560287.000000 0 0 1
26.312271 17.747791 24.379022 40.020700 0.593410 0.915795 0.037548 -0.000615 -282209.000000 0 0 1
25.371971 17.133791 25.407622 39.785060 0.593958 0.878090 0.022685 0.005512 -204794.000000 0 0 1
25.073471 15.799491 25.035622 38.795428 0.562278 0.869349 0.029246 -0.001727 1509490.000000 0 0 1
23.744371 15.423591 25.517222 38.115757 0.576072 0.837306 0.025225 0.002272 1205510.000000 0 0 1
23.215471 14.125391 24.859722 36.830565 0.546608 0.829865 0.028015 0.006143 -13151.400000 0 0 1
21.917571 13.796291 25.311522 36.213129 0.561802 0.796854 0.009760 0.006769 445672.000000 0 0 1
21.349471 12.654091 24.656622 34.983924 0.535044 0.788657 0.019483 0.005585 -159566.000000 0 0 1
19.995471 12.184391 25.147222 34.360748 0.547272 0.749750 0.019677 -0.002496 -98689.400000 0 0 1
18.843871 13.027091 25.118322 33.995980 0.604875 0.739417 0.030960 -0.007115 694192.000000 0 0 1
17.685271 12.207591 25.302122 33.196257 0.604165 0.704094 0.025830 -0.005965 -245527.000000 0 0 1
16.457971 13.088891 25.472522 33.030793 0.671864 0.690112 0.024873 -0.011380 -643418.000000 0 0 1
16.488271 13.762391 26.685322 34.254531 0.695531 0.677678 0.031604 -0.007931 185239.000000 0 0 1
15.256271 14.403191 26.960522 34.162486 0.756644 0.661315 0.042144 -0.014348 189614.000000 0 0 1
15.154671 14.742091 28.485122 35.473871 0.771599 0.638503 0.028945 -0.000605 -318658.000000 0 0 1
14.815471 13.632291 29.292122 35.543860 0.743831 0.602164 0.032743 0.004192 26998.200000 0 0 1
15.082171 13.770791 30.692122 36.866149 0.739979 0.587140 0.021936 0.011286 104353.000000 0 0 1
16.551071 13.474791 31.095122 37.714912 0.683300 0.601517 0.019292 0.010935 -236879.000000 0 0 1
17.375771 14.509491 30.714622 38.155350 0.695746 0.635140 0.032663 0.003557 -726528.000000 0 0 1
18.721771 14.130591 30.618222 38.570116 0.646546 0.653711 0.013413 0.015139 -323205.000000 0 0 1
19.683871 15.254991 30.202522 39.145394 0.659310 0.689527 0.006299 0.008885 -230822.000000 0 0 1
19.544471 15.745091 28.849822 38.238809 0.678148 0.715959 0.026796 0.005082 67712.000000 0 0 1
19.460971 14.871791 27.730022 36.998023 0.652518 0.723490 0.033822 0.000599 -330705.000000 0 0 1
19.208471 15.673491 26.439222 36.244395 0.684402 0.753249 0.034545 -0.004719 41960.900000 0 0 1
20.272071 16.580091 26.154222 37.012155 0.685548 0.786060 0.035494 0.001444 464987.000000 0 0 1
20.072971 17.183791 24.904722 36.310495 0.708005 0.814981 0.037615 -0.008260 1117050.000000 0 0 1
21.416771 17.923891 24.445222 37.114860 0.696845 0.851790 0.039564 -0.010806 957423.000000 0 0 1
21.232871 18.707091 23.271922 36.638401 0.722243 0.882557 0.034402 -0.024061 537153.000000 0 0 1
22.440971 19.338591 22.836022 37.404040 0.711278 0.914076 0.034233 -0.017416 519827.000000 0 0 1
22.619871 20.716191 23.435822 38.601255 0.741498 0.918358 0.045271 -0.019361 -384210.000000 0 0 1
21.756571 21.636791 22.838322 38.250334 0.782638 0.930946 0.044542 -0.014596 79041.500000 0 0 1
21.935371 22.946391 23.437222 39.458849 0.807921 0.934816 0.058537 -0.012266 -440968.000000 0 0 1
21.017171 24.044391 22.917622 39.307399 0.852477 0.948336 0.057162 -0.018519 -428049.000000 0 0 1
21.425071 24.769101 21.750522 39.314466 0.857663 0.984542 0.060497 -0.016100 418235.000000 0 0 1
20.555271 25.900711 21.452722 39.415546 0.899959 0.995277 0.060824 -0.016315 225599.000000 0 0 1
20.936371 26.670311 20.131122 39.432210 0.905265 1.035001 0.063453 -0.015578 -101964.000000 0 0 1
20.688571 26.008851 18.912422 38.238162 0.898840 1.053427 0.046430 -0.018310 67074.000000 0 0 1
20.941071 26.776831 17.775422 38.360041 0.907091 1.088986 0.037781 -0.029484 -254103.000000 0 0 1
20.827171 26.042111 16.451122 37.183357 0.896208 1.112487 0.014438 -0.008532 -538526.000000 0 0 1
19.560871 25.724481 15.961322 36.043591 0.920673 1.112039 0.015039 -0.000241 -534896.000000 0 0 1
19.691371 25.339541 14.610422 35.260557 0.910175 1.143561 0.016291 0.006985 568567.000000 0 0 1
18.293471 25.442881 13.926622 34.292012 0.947431 1.152594 -0.000144 0.011679 -33623.300000 0 0 1
17.750371 26.758101 13.904422 34.991493 0.985083 1.162152 -0.013544 0.018767 511779.000000 0 0 1
16.660771 27.026071 14.809022 35.032798 1.018354 1.134353 -0.003238 0.026668 1420180.000000 0 0 1
15.266971 26.357921 14.431522 33.705923 1.045798 1.128341 -0.008791 0.009572 85805.500000 0 0 1
15.106771 24.964541 14.614022 32.634529 1.026614 1.106483 -0.015913 0.016619 -249025.000000 0 0 1
15.053371 24.422821 15.934022 32.817240 1.018431 1.063818 -0.014799 0.023646 704569.000000 0 0 1
13.890371 24.897241 16.921722 33.153578 1.061902 1.035142 0.009689 0.014671 708406.000000 0 0 1
14.093671 26.197311 17.339622 34.432444 1.077227 1.043054 0.000291 0.009098 -97246.200000 0 0 1
13.102571 26.653331 18.237622 34.852379 1.113898 1.020099 -0.000205 0.000185 -147848.000000 0 0 1
13.374171 27.982841 18.911722 36.325764 1.124950 1.023226 0.008560 0.000132 -537725.000000 0 0 1
13.329771 29.063271 18.026722 36.705848 1.140775 1.057429 0.002007 0.002181 -222530.000000 0 0 1
14.010371 30.142911 18.561822 38.071339 1.135705 1.061511 0.004841 0.000370 -392630.000000 0 0 1
14.182971 31.309371 17.497222 38.569239 1.145455 1.099931 -0.003870 0.002535 -283175.000000 0 0 1
12.943371 31.944681 17.319522 38.574076 1.185832 1.105157 -0.004597 0.006231 -126282.000000 0 0 1
12.988871 33.201247 16.591622 39.323219 1.197885 1.135224 0.004267 0.004100 485422.000000 0 0 1
11.621371 33.962726 16.680822 39.582482 1.241105 1.135787 0.002493 0.002518 482682.000000 0 0 1
11.539871 -33.886061 16.023622 39.219768 -1.242566 1.149921 0.014280 -0.007528 -80928.100000 0 0 1
12.125071 -32.764081 16.719522 38.730411 -1.216353 1.124431 0.018149 -0.006850 -12739.200000 0 0 1
11.741471 -32.562141 18.215722 39.114802 -1.224722 1.086372 0.014409 -0.007522 -740636.000000 0 0 1
12.461471 -33.357691 19.080822 40.399277 -1.213279 1.078891 0.028626 -0.004876 -99698.100000 0 0 1
12.059971 -33.147641 20.407722 40.751492 -1.221858 1.046291 0.024193 -0.005004 -532768.000000 0 0 1
13.062271 -33.685241 21.460222 42.022131 -1.200874 1.034811 0.042535 -0.000122 -297670.000000 0 0 1
14.227071 -32.918261 21.547522 41.836792 -1.162848 1.029745 0.046447 0.000320 -560159.000000 0 0 1
15.067971 -33.345901 22.582222 42.999414 -1.146389 1.017875 0.036082 0.007852 883634.000000 0 0 1
16.535671 -32.758671 22.412122 42.998397 -1.103338 1.022503 0.062880 0.003048 1176610.000000 0 0 1
16.652071 -31.401581 22.778422 42.216197 -1.083208 1.000875 0.073962 -0.006444 -189298.000000 0 0 1
17.904071 -30.896921 22.402422 42.155000 -1.045604 1.010509 0.058292 -0.004941 -308187.000000 0 0 1
-4.670429 13.673249 17.829545 22.949146 -1.241647 0.681045 -0.014494 0.017126 -303662.000000 0 1 0
-4.201129 14.973149 17.769245 23.613359 -1.297252 0.718934 -0.021088 0.023724 41206.000000 0 1 0
-5.281329 15.849349 17.491945 24.188064 -1.249147 0.762423 -0.017465 0.016345 336245.000000 0 1 0
-4.840629 17.366149 17.502445 25.126687 -1.298957 0.800193 -0.013879 0.021440 -203350.000000 0 0 1
-4.488529 17.860749 18.790145 26.310127 -1.324588 0.775346 -0.016999 0.028115 301780.000000 0 0 1
-4.287929 19.270849 18.821145 27.276133 -1.351855 0.809276 -0.011259 0.011668 -700182.000000 0 0 1
-3.724929 19.817449 20.145245 28.503285 -1.385002 0.785875 -0.010326 0.011905 -365906.000000 0 0 1
-4.703229 19.844049 21.142645 29.375467 -1.338081 0.767371 -0.010360 0.020087 25358.500000 0 0 1
-4.331729 20.644149 22.279745 30.681131 -1.363968 0.758060 -0.008310 0.016519 -240126.000000 0 0 1
-5.440029 20.771249 23.332945 31.709068 -1.314648 0.743883 -0.018249 0.016357 -145139.000000 0 0 1
-5.565029 19.524049 24.112595 31.521029 -1.293125 0.699804 -0.027112 0.013588 289231.000000 0 0 1
-6.350829 19.743849 25.296485 32.711844 -1.259587 0.686747 -0.032705 0.011234 551587.000000 0 0 1
-5.507029 20.465049 26.387145 33.844158 -1.307929 0.676664 -0.032075 0.004367 -380486.000000 0 0 1
-5.278929 21.843549 26.014505 34.376768 -1.333673 0.712474 -0.022035 0.006086 1580300.000000 0 0 1
-4.017829 22.440949 26.479335 34.941298 -1.393633 0.710826 -0.010009 0.013360 1869850.000000 0 0 1
-2.635629 21.858049 26.073825 34.125726 -1.450796 0.701226 -0.003890 0.015571 -209031.000000 0 0 1
-2.370729 20.655249 26.735265 33.867891 -1.456520 0.660968 0.003869 0.014256 -249173.000000 0 0 1
-1.046129 20.260449 26.464785 33.346139 -1.519208 0.654030 0.006249 0.015477 22979.300000 0 0 1
-0.610429 18.909049 27.056245 33.014620 -1.538525 0.610218 0.004554 0.018854 -326492.000000 0 0 1
-0.992329 17.782249 26.318885 31.778558 -1.515050 0.594915 0.007524 0.017813 -127772.000000 0 0 1
-0.479929 16.495449 26.796815 31.470612 -1.541710 0.551982 0.001837 0.019248 1262380.000000 0 0 1
1.010971 16.188749 26.324045 30.920106 1.508428 0.552230 0.007954 0.020399 1070680.000000 0 0 1
1.184871 15.986249 24.905955 29.618755 1.496813 0.571881 0.000437 0.026860 -136521.000000 0 0 1
0.856371 14.672649 24.466445 28.541670 1.512497 0.540953 0.005703 0.025786 -397577.000000 0 0 1
1.079671 14.361249 22.982145 27.121765 1.495758 0.559785 0.003088 0.021501 734365.000000 0 0 1
2.473571 14.332949 22.653245 26.920651 1.399900 0.570776 -0.002210 0.017801 503462.000000 0 0 1
2.792671 13.669549 21.374545 25.525022 1.369271 0.578295 -0.001665 0.008625 1133870.000000 0 0 1
4.300171 13.681249 20.916145 25.360464 1.266262 0.601029 0.002998 0.005019 1038320.000000 0 0 1
4.547471 14.960649 20.360545 25.672014 1.275709 0.654910 0.001951 0.004433 -951216.000000 0 0 1
5.902771 15.109549 20.121545 25.846039 1.198363 0.678499 0.005980 0.000573 -1166070.000000 0 0 1
6.119171 16.217449 19.051945 25.757067 1.209993 0.738204 0.010798 -0.005238 -95158.200000 0 0 1
6.207371 15.689649 17.709045 24.460311 1.194059 0.761226 0.018252 -0.012209 69184.000000 0 1 0
6.493671 16.697049 16.814345 24.569929 1.199886 0.817089 0.017213 -0.007524 -244102.000000 0 1 0
6.504471 16.121649 15.361745 23.199114 1.187309 0.847086 0.019391 -0.004649 -322788.000000 0 1 0
7.486671 15.252749 14.875345 22.582570 1.114503 0.851695 0.012645 -0.007540 -321510.000000 0 1 0
7.625171 13.985449 15.512745 22.234686 1.071629 0.798639 0.014354 -0.010777 -127585.000000 0 1 0
8.697671 13.075849 14.881145 21.635059 0.983830 0.812307 0.013567 -0.013753 264788.000000 0 1 0
10.014471 13.499249 15.151345 22.629242 0.932529 0.837197 0.027310 -0.017425 234550.000000 0 1 0
11.020571 12.912049 14.317645 22.207407 0.864268 0.870134 0.033143 -0.012844 760221.000000 0 1 0
12.415571 13.565849 14.426745 23.373267 0.829642 0.905576 0.036263 -0.007271 -842143.000000 0 1 0
13.090971 13.376449 15.649645 24.397014 0.796184 0.874400 0.027351 -0.009228 324877.000000 0 1 0
14.366071 13.983249 15.751345 25.495492 0.771895 0.904843 0.030735 -0.012545 894509.000000 0 0 1
15.486271 13.569449 14.734445 25.319131 0.719523 0.949673 0.033889 -0.013317 -382286.000000 0 0 1
16.782671 14.105149 14.983245 26.553924 0.698929 0.971263 0.031617 -0.020253 584815.000000 0 0 1
17.704871 13.514149 14.084145 26.352567 0.651960 1.006939 0.029093 -0.008010 -416353.000000 0 0 1
19.131871 14.038849 14.212845 27.660852 0.633048 1.031159 0.019543 -0.006925 -20608.100000 0 0 1
19.819371 13.510549 15.366045 28.486097 0.598327 1.001045 0.018572 -0.016502 878376.000000 0 0 1
21.213571 13.841049 15.357745 29.621792 0.578104 1.025746 -0.007622 -0.003791 735746.000000 0 0 1
22.005471 13.388149 16.587445 30.637014 0.546574 0.998673 0.001193 -0.006904 -63937.500000 0 0 1
22.027871 11.965749 16.772345 30.161528 0.497615 0.981130 0.013215 -0.009285 943087.000000 0 0 1
22.981571 11.571649 17.795745 31.284887 0.466459 0.965715 0.010495 -0.011766 407626.000000 0 0 1
23.124171 10.079949 17.884545 30.922315 0.411071 0.954067 0.020597 -0.001917 -104057.000000 0 0 1
21.976871 9.480449 18.449545 30.219984 0.407265 0.914094 0.022548 -0.004662 336940.000000 0 0 1
21.844471 8.126049 18.044245 29.475555 0.356134 0.911986 0.023467 0.009870 -982040.000000 0 0 1
20.444771 7.586749 18.186645 28.395448 0.355334 0.875676 0.032068 0.012545 -1312500.000000 0 0 1
20.401671 6.217349 17.730845 27.735653 0.295806 0.877235 0.038522 0.006344 501009.000000 0 0 1
19.432071 5.524949 18.489945 27.386283 0.277011 0.829624 0.031914 0.007272 -461191.000000 0 0 1
19.119571 4.088749 18.098845 26.642898 0.210678 0.823971 0.035016 0.016022 -461818.000000 0 0 1
18.242571 4.017349 16.994945 25.253883 0.216759 0.832588 0.022587 0.005838 250410.000000 0 0 1
18.296271 2.807749 16.380945 24.717854 0.152272 0.846355 0.029902 -0.000169 -52234.600000 0 1 0
17.662871 1.526449 17.025945 24.580273 0.086207 0.805616 0.040383 -0.003058 149716.000000 0 1 0
18.392571 0.930749 18.134245 25.845769 0.050561 0.793110 0.046307 -0.005145 78553.200000 0 0 1
17.538571 0.116649 18.875545 25.766281 0.006651 0.748710 0.062725 -0.007025 -598398.000000 0 0 1
18.067371 -0.634751 20.102445 27.035922 -0.035118 0.732439 0.039442 0.006494 -394025.000000 0 0 1
18.607971 -1.939451 19.891545 27.307354 -0.103852 0.754766 0.036749 0.016621 338462.000000 0 0 1
17.702071 -3.010751 20.199145 27.026531 -0.168467 0.726683 0.026684 0.009143 185561.000000 0 0 1
17.851271 -4.136251 19.180145 26.526485 -0.227688 0.762580 0.019895 0.013684 46261.400000 0 0 1
17.169071 -3.904851 17.949845 25.144021 -0.223631 0.775771 0.019789 0.002955 476632.000000 0 0 1
17.191771 -5.093651 17.181945 24.833878 -0.288044 0.806713 0.038371 -0.000401 -283769.000000 0 1 0
16.869771 -4.863151 15.718945 23.565327 -0.280666 0.840572 0.035142 -0.013975 488521.000000 0 1 0
15.492371 -4.662951 15.345645 22.299002 -0.292359 0.811824 0.033982 -0.019186 877426.000000 0 1 0
15.221271 -4.569551 13.962545 21.154681 -0.291648 0.849949 0.037817 -0.021324 303524.000000 0 1 0
15.735171 -3.291951 13.204945 20.803920 -0.206235 0.883133 0.036645 -0.021934 88420.400000 0 1 0
14.981471 -2.182651 13.657845 20.389830 -0.144672 0.836808 0.033906 -0.009329 501544.000000 0 1 0
15.508971 -0.981751 13.141845 20.351906 -0.063218 0.868817 0.031517 -0.009011 -157697.000000 0 1 0
14.416271 0.073449 13.180545 19.533587 0.005095 0.830153 0.024865 -0.005293 -720465.000000 0 1 0
14.794171 1.333149 12.688145 19.535450 0.089870 0.863878 0.021339 -0.003856 122996.000000 0 1 0
15.598371 2.051749 13.593945 20.792166 0.130785 0.858199 0.025915 -0.006527 -351469.000000 0 1 0
15.685971 3.551349 13.159445 20.780586 0.222649 0.885042 0.010365 -0.000253 -27468.000000 0 1 0
14.587371 4.422749 13.396245 20.293138 0.294381 0.849796 0.001499 -0.002337 599022.000000 0 1 0
14.940471 5.623349 12.759345 20.436257 0.359983 0.896499 0.010912 -0.000814 940561.000000 0 1 0
13.909171 6.826349 13.025845 20.241954 0.456245 0.871725 0.011875 0.002700 699810.000000 0 1 0
14.171371 7.939549 12.159045 20.290553 0.510681 0.928237 0.006423 -0.008495 277927.000000 0 1 0
13.300171 9.057649 12.299845 20.253931 0.597872 0.918162 0.009764 0.002167 -166057.000000 0 1 0
13.497371 9.943149 13.614545 21.596320 0.634917 0.888715 0.022752 -0.004852 -51.144600 0 1 0
13.064471 9.332549 14.808545 21.841929 0.620289 0.825776 0.020170 -0.002931 327204.000000 0 1 0
13.596671 9.985349 15.955745 23.219872 0.633440 0.813225 0.032896 -0.010976 -175881.000000 0 1 0
13.191071 9.388749 17.312845 23.704167 0.618569 0.751931 0.039584 -0.016135 1021170.000000 0 1 0
11.767971 9.559749 17.569845 23.207184 0.682228 0.711954 0.020795 -0.016005 1079730.000000 0 1 0
11.272271 8.643049 18.504645 23.327843 0.654137 0.654680 0.031900 -0.017372 -232073.000000 0 1 0
11.522171 8.844549 19.945245 24.673858 0.654677 0.629443 0.034063 -0.017055 -275864.000000 0 1 0
12.885471 8.641949 20.283045 25.536651 0.590772 0.652988 0.044282 -0.014072 154982.000000 0 0 1
13.222171 8.890849 21.624845 26.860880 0.591975 0.635006 0.037499 -0.003700 -1082560.000000 0 0 1
14.717571 8.930049 21.759045 27.745426 0.545376 0.669328 0.047856 -0.004586 -705475.000000 0 0 1
15.394171 9.949049 21.030045 27.896717 0.573760 0.716889 0.046854 -0.000567 569199.000000 0 0 1
16.336971 9.481949 20.042145 27.540725 0.525882 0.755793 0.047097 -0.007308 486949.000000 0 0 1
17.101271 10.539849 19.218445 27.800908 0.552333 0.807526 0.035778 -0.008070 -202071.000000 0 0 1
17.902371 11.288949 20.065345 29.164247 0.562605 0.812051 0.028375 -0.005473 -582234.000000 0 0 1
18.820871 12.035749 19.341745 29.549746 0.568951 0.857211 0.020313 -0.004375 -234851.000000 0 0 1
19.755071 12.921349 20.198645 31.067818 0.579236 0.863019 0.025408 -0.007468 -393760.000000 0 0 1
19.096371 13.968549 20.930545 31.589230 0.631540 0.846532 0.021088 -0.011509 -41635.900000 0 0 1
19.785771 14.550249 22.009245 32.978680 0.634085 0.840114 0.031934 -0.009082 105996.000000 0 0 1
21.071771 15.372149 21.608945 33.871359 0.630261 0.878936 0.020004 -0.012257 853100.000000 0 0 1
22.206971 14.560649 21.299845 34.041819 0.580357 0.894772 0.012080 -0.007050 -84248.400000 0 0 1
23.405571 15.281849 21.266645 35.123010 0.578422 0.920414 0.005753 -0.008248 111863.000000 0 0 1
24.637071 14.339549 21.397645 35.643613 0.527103 0.926893 -0.006924 -0.009475 109566.000000 0 0 1
24.877471 13.513849 20.239845 34.801781 0.497620 0.950133 -0.010749 -0.007121 -51411.500000 0 0 1
26.106471 12.829649 20.340945 35.495095 0.456773 0.960557 0.001399 -0.011516 -101726.000000 0 0 1
26.606971 12.025449 19.151445 34.918765 0.424488 0.990278 0.018643 -0.013075 -213894.000000 0 0 1
27.210271 12.862449 18.170445 35.156884 0.441575 1.027642 0.009295 -0.015909 151633.000000 0 0 1
27.608671 12.135349 17.045945 34.642021 0.414129 1.056342 0.022752 -0.024085 -423605.000000 0 0 1
26.571971 11.876749 15.940945 33.184944 0.420327 1.069723 0.018975 -0.021741 -315116.000000 0 0 1
26.192271 13.009449 15.226145 32.971447 0.460996 1.090775 0.018054 -0.008168 -639102.000000 0 0 1
25.332271 12.615949 14.261145 31.690162 0.462061 1.104011 0.009964 -0.007509 -790477.000000 0 0 1
24.970471 13.669049 13.215545 31.384995 0.500851 1.136162 -0.010235 0.000120 -204118.000000 0 0 1
24.241671 14.712749 13.799845 31.536634 0.545492 1.117889 -0.009914 0.000104 51917.900000 0 0 1
24.162671 15.868749 13.026745 31.707222 0.581103 1.147416 -0.003046 0.002968 -151117.000000 0 0 1
23.144671 16.903049 13.571545 31.710813 0.630787 1.128541 -0.007889 -0.002075 -702638.000000 0 0 1
21.830271 16.594149 13.252245 30.455681 0.649962 1.120611 0.010116 -0.003986 -531396.000000 0 0 1
20.931371 17.638949 13.564145 30.548991 0.700243 1.110724 0.017142 -0.006301 -699849.000000 0 0 1
20.291671 18.376349 12.362945 30.038051 0.735906 1.146614 0.015497 0.000929 433826.000000 0 0 1
19.148771 17.757349 11.763945 28.642438 0.747714 1.147556 0.026577 -0.002345 1096350.000000 0 0 1
17.944771 17.761349 12.558145 28.199066 0.780261 1.109243 0.024052 -0.000436 102695.000000 0 0 1
16.716371 17.123749 11.886445 26.719794 0.797436 1.109784 0.036593 -0.000366 -292316.000000 0 0 1
16.655671 15.780049 11.755345 25.780020 0.758409 1.097316 0.037630 0.000894 440386.000000 0 0 1
15.417071 15.401349 11.165745 24.485944 0.784888 1.097294 0.040275 -0.005335 407842.000000 0 1 0
15.538271 14.020249 10.374645 23.358906 0.734087 1.110581 0.043409 -0.010188 -99177.600000 0 1 0
15.775971 12.928549 11.280745 23.308450 0.686524 1.065603 0.047440 -0.001916 300562.000000 0 1 0
16.356571 11.891849 10.540645 22.804795 0.628643 1.090309 0.048252 0.005672 -162703.000000 0 1 0
16.702971 10.613149 11.355645 22.816197 0.566047 1.049850 0.034812 0.002763 -907283.000000 0 1 0
17.390771 9.689949 10.504845 22.509682 0.508346 1.085262 0.030658 0.005603 655349.000000 0 1 0
18.035471 8.593449 11.157545 22.882665 0.444651 1.061460 0.047801 0.002632 642694.000000 0 1 0
19.216671 8.954849 12.105745 24.413496 0.436074 1.051968 0.039143 -0.004315 -668980.000000 0 1 0
18.765271 9.646749 13.277345 24.929561 0.474844 1.009133 0.029859 -0.006532 435451.000000 0 1 0
19.801571 9.915749 14.233645 26.325291 0.464252 0.999547 0.035888 0.000621 -288958.000000 0 0 1
19.159871 10.272449 15.596345 26.755744 0.492143 0.948484 0.038168 -0.007999 254485.000000 0 0 1
18.603571 9.233449 16.381845 26.452113 0.460705 0.902943 0.042360 -0.003080 493149.000000 0 0 1
17.371771 8.672649 15.954445 25.130411 0.463038 0.882961 0.035197 -0.011100 -286806.000000 0 0 1
16.969371 7.376949 16.621145 24.872502 0.410076 0.838937 0.030433 0.006120 -194555.000000 0 1 0
15.584971 7.282849 16.892445 24.109871 0.437147 0.794496 0.031398 -0.006171 74280.900000 0 1 0
15.214471 5.944949 17.198145 23.719164 0.372501 0.759655 0.037128 0.002559 -200042.000000 0 1 0
13.817171 5.691649 17.804045 23.244205 0.390745 0.698269 0.018049 -0.003837 67799.400000 0 1 0
13.380771 4.326249 17.878945 22.746827 0.312710 0.666489 0.026969 -0.006681 304693.000000 0 1 0
13.159471 3.638849 16.609845 21.501159 0.269778 0.688013 0.036307 -0.007002 -401113.000000 0 1 0
12.928871 2.173249 16.794045 21.305367 0.166536 0.662830 0.034175 -0.013457 7575.310000 0 1 0
14.135371 1.465049 17.009145 22.164523 0.103275 0.696014 0.036875 -0.005531 208188.000000 0 1 0
13.997471 0.050249 16.854745 21.909225 0.003590 0.693053 0.037075 -0.005840 147438.000000 0 1 0
13.019671 -0.780451 17.775745 22.047631 -0.059872 0.633023 0.029820 -0.013287 -217439.000000 0 1 0
11.680071 -0.562751 17.465445 21.018623 -0.048143 0.589982 0.028861 -0.013004 -1105890.000000 0 1 0
10.906771 -1.365351 18.340545 21.382175 -0.124536 0.539921 0.031417 -0.012973 -112431.000000 0 1 0
-24.773729 14.362449 29.219415 40.912000 -0.525393 0.775314 0.045506 -0.000570 -500830.000000 0 0 1
-23.755029 14.497149 30.178265 41.051144 -0.547942 0.744926 0.048038 -0.000944 -41439.400000 0 0 1
-23.085429 13.246849 30.190715 40.247923 -0.520946 0.722555 0.028142 0.010241 -377178.000000 0 0 1
-22.071429 13.214549 31.353375 40.556213 -0.539476 0.687107 0.037894 -0.000558 -498994.000000 0 0 1
-22.562229 13.229049 32.667285 41.847502 -0.530312 0.675128 0.030335 -0.003287 -276296.000000 0 0 1
-21.559229 13.136349 33.646857 42.065128 -0.547240 0.643709 0.007941 0.000333 -384696.000000 0 0 1
-22.118429 13.549849 -34.032108 42.790276 -0.549636 2.490337 0.009878 0.004412 57915.200000 0 0 1
-22.866429 12.554649 -33.360388 42.348651 -0.502108 2.477953 0.014091 -0.000004 149908.000000 0 0 1
-23.187129 12.931449 -32.077438 41.639253 -0.508735 2.450210 -0.004128 -0.003091 -255527.000000 0 0 1
-23.977629 11.887449 -31.257728 41.149529 -0.460260 2.433515 -0.011721 -0.008285 -109017.000000 0 0 1
-23.255729 10.752149 -30.723938 40.004975 -0.433072 2.446513 -0.006513 -0.011833 382110.000000 0 0 1
-23.148929 9.696749 -31.657318 40.399080 -0.396680 2.471260 -0.006714 -0.011236 -77366.400000 0 0 1
-22.363329 8.535149 -30.992548 39.159996 -0.364595 2.483948 -0.001694 -0.003556 -36877.500000 0 0 1
-23.115929 7.828549 -30.017878 38.687276 -0.326541 2.458954 0.003974 -0.001773 383417.000000 0 0 1
-22.291929 7.013849 -29.188188 37.390834 -0.304830 2.466460 -0.003263 0.006393 -47704.000000 0 0 1
-23.053029 6.123049 -28.192068 36.928669 -0.259613 2.439387 0.005181 0.010369 -237542.000000 0 0 1
-23.770929 5.048349 -28.702238 37.607996 -0.209266 2.439040 0.017380 0.000690 -24356.900000 0 0 1
-23.984629 4.010449 -27.743718 36.892547 -0.165676 2.421909 0.035688 0.010901 -442602.000000 0 0 1
-24.745529 2.805649 -28.273298 37.677477 -0.112898 2.419468 0.034760 0.014452 253180.000000 0 0 1
-26.115439 2.962849 -28.602418 38.844471 -0.112969 2.398429 0.019283 0.009893 446097.000000 0 0 1
-26.427189 3.727249 -29.804128 40.007184 -0.140114 2.411285 0.005179 0.011279 -530516.000000 0 0 1
-27.854049 3.417549 -30.299058 41.298433 -0.122085 2.394491 0.006597 0.006376 46319.400000 0 0 1
-28.901049 3.957749 -29.517018 41.499262 -0.136095 2.362094 0.006053 0.007143 1294890.000000 0 0 1
-30.211859 3.994649 -30.151048 42.869562 -0.131459 2.350854 0.003992 0.005140 1517990.000000 0 0 1
-30.564459 5.325949 -30.875218 43.770206 -0.172521 2.353774 0.016001 -0.009917 135831.000000 0 0 1
-29.599869 5.685049 -31.901848 43.888494 -0.189753 2.384570 0.027749 -0.007858 645295.000000 0 0 1
-29.754419 6.976349 -32.550148 44.648707 -0.230304 2.387697 0.028077 -0.008445 -1001730.000000 0 0 1
-29.264609 8.203349 -31.778208 43.972341 -0.273302 2.378477 0.019169 -0.013633 -99192.500000 0 0 1
-27.844929 8.173049 -31.671028 42.955708 -0.285501 2.399854 0.008281 -0.010089 690140.000000 0 0 1
-27.406839 7.542349 -30.417728 41.632440 -0.268552 2.390034 -0.003463 -0.005858 -687396.000000 0 0 1
-27.385089 8.474849 -29.160578 40.891386 -0.300122 2.364739 -0.006300 -0.005408 -1691930.000000 0 0 1
-28.490369 8.773949 -28.461568 41.215824 -0.298745 2.333045 -0.001893 -0.005214 -1235930.000000 0 0 1
-29.141769 7.753149 -27.714308 40.956524 -0.260026 2.314035 0.001116 0.000740 299379.000000 0 0 1
-30.466049 8.240349 -27.057328 41.571414 -0.264156 2.279518 -0.011613 0.000676 153817.000000 0 0 1
-30.207489 9.023049 -25.914548 40.810190 -0.290266 2.258807 -0.029511 0.005441 44614.700000 0 0 1
-30.268939 8.361049 -24.723178 39.966878 -0.269505 2.237745 -0.024140 0.007061 -124876.000000 0 0 1
-29.700649 9.181849 -23.536578 38.992376 -0.299827 2.218830 -0.022751 0.007753 4386.740000 0 0 1
-30.543599 10.234949 -23.066878 39.620026 -0.323333 2.192231 -0.021589 0.005696 332276.000000 0 0 1
-29.791219 11.156049 -22.299978 38.849237 -0.358310 2.182195 -0.020757 0.001764 -141630.000000 0 0 1
-30.653869 12.207649 -21.588778 39.430467 -0.378990 2.150188 -0.025818 0.005212 -41018.100000 0 0 1
-31.346399 11.683749 -20.457078 39.212227 -0.356779 2.119640 -0.032039 0.002651 287043.000000 0 0 1
-31.919669 12.579449 -19.533578 39.479976 -0.375407 2.088369 -0.029508 0.002077 64884.200000 0 0 1
-30.891719 13.259049 -18.570878 38.405445 -0.405432 2.075500 -0.027187 0.006144 131350.000000 0 0 1
-30.366209 12.373749 -17.546978 37.190224 -0.386942 2.062147 -0.010457 0.006623 50368.700000 0 0 1
-31.260449 11.948849 -16.525078 37.323838 -0.365099 2.029458 -0.009420 0.004667 -306971.000000 0 0 1
-31.627019 12.993349 -15.433878 37.513998 -0.389808 1.994804 -0.013073 0.001285 -516303.000000 0 0 1
-32.335529 14.026649 -16.028978 38.720298 -0.409288 1.997606 -0.011951 -0.001283 -139868.000000 0 0 1
-32.914749 14.930849 -15.134478 39.183713 -0.425862 1.967353 -0.014313 -0.005875 -185153.000000 0 0 1
-33.512689 16.122849 -15.824478 40.416094 -0.448411 1.973100 -0.013250 -0.002591 -280640.000000 0 0 1
-34.543972 15.887049 -16.738278 41.543402 -0.431063 1.985491 -0.011249 -0.007786 195499.000000 0 0 1
-34.949546 17.094449 -17.399178 42.619507 -0.454904 1.991326 -0.018251 -0.007521 -303734.000000 0 0 1
35.205887 16.940149 -18.894978 43.398656 0.448474 2.021258 -0.016740 -0.010448 632750.000000 0 0 1
34.078421 16.131949 -19.195278 42.308832 0.442123 2.041703 0.015123 -0.013262 1316440.000000 0 0 1
32.777381 16.580449 -18.777278 41.253535 0.468317 2.043357 0.051266 -0.021268 76469.000000 0 0 1
31.711661 15.528149 -19.026878 40.109537 0.455347 2.065048 0.060146 -0.028021 -644449.000000 0 0 1
31.512731 15.200749 -20.417878 40.509316 0.449443 2.099054 0.061350 -0.024775 667227.000000 0 0 1
30.324421 14.419649 -20.548778 39.366852 0.443867 2.119969 0.029740 -0.016202 197460.000000 0 0 1
30.445091 12.895149 -20.441178 38.871972 0.400645 2.124521 0.026676 0.007489 -188756.000000 0 0 1
30.674071 12.548149 -19.079078 38.240893 0.388309 2.093146 0.036668 0.002306 179749.000000 0 0 1
31.365611 11.314949 -19.010878 38.382849 0.346214 2.088972 0.035201 0.007557 -332189.000000 0 0 1
31.545491 10.906549 -17.565778 37.717733 0.332875 2.055241 0.031064 0.011666 -72482.500000 0 0 1
30.412791 10.447349 -16.823478 36.292070 0.330889 2.052803 0.034356 0.006960 36083.400000 0 0 1
30.663641 10.182149 -15.479378 35.826612 0.320604 2.017576 0.004500 0.010580 -356226.000000 0 0 1
30.139441 11.261049 -14.461778 35.275206 0.357570 1.993218 0.014695 0.001693 -1177840.000000 0 0 1
28.760971 11.315849 -14.363478 34.081540 0.374842 2.005834 0.008614 0.012719 -834653.000000 0 0 1
28.468921 12.339349 -13.466978 33.824525 0.408991 1.980287 0.009153 0.005866 -1289140.000000 0 0 1
26.984561 12.560349 -13.402878 32.643009 0.435639 1.993897 0.021893 0.011689 -1542750.000000 0 0 1
26.333661 11.441049 -12.797178 31.434488 0.409860 1.990080 0.014783 0.011023 -287274.000000 0 0 1
24.944531 11.546549 -12.971378 30.394227 0.433521 2.011716 0.014880 0.010146 -529636.000000 0 0 1
24.391831 10.906249 -14.225978 30.270218 0.420462 2.060049 0.019086 0.007464 -1224220.000000 0 0 1
24.550431 9.517249 -14.361678 29.992657 0.369824 2.070129 0.014808 0.011201 -349627.000000 0 0 1
25.792751 9.117549 -14.838478 31.121956 0.339783 2.067790 0.012244 0.007496 -718052.000000 0 0 1
26.398461 7.912949 -14.137978 30.973794 0.291228 2.044797 -0.002285 0.010657 -68080.400000 0 0 1
25.627601 6.722049 -14.348878 30.130552 0.256519 2.067151 0.015939 0.008920 625491.000000 0 0 1
25.765031 5.857249 -13.205378 29.538554 0.223534 2.034267 -0.005109 0.004826 85471.200000 0 0 1
24.840431 4.598749 -13.281478 28.541078 0.183059 2.054822 -0.002592 0.010520 39313.400000 0 0 1
24.515931 4.013749 -12.027678 27.600835 0.162280 2.021692 -0.018295 0.008441 -227377.000000 0 0 1
23.785431 2.868849 -12.216278 26.892647 0.120034 2.042339 -0.024223 0.007337 -390996.000000 0 0 1
23.171131 2.382049 -10.867378 25.703606 0.102443 2.007325 -0.034438 0.007809 106880.000000 0 0 1
24.148931 1.927449 -9.937778 26.184830 0.079646 1.960078 -0.024335 0.011775 377667.000000 0 0 1
23.491231 1.480849 -8.771078 25.118970 0.062955 1.927494 -0.025880 0.018967 -718020.000000 0 0 1
24.368831 1.095649 -7.566778 25.540096 0.044931 1.871582 -0.011088 0.012313 -638474.000000 0 0 1
24.513331 -0.297751 -7.201578 25.551023 -0.012146 1.856519 -0.018228 0.005764 470781.000000 0 0 1
24.805731 -1.249351 -8.233678 26.166364 -0.050323 1.890902 -0.023397 0.007203 -627175.000000 0 0 1
24.810531 -2.655951 -7.637278 26.094914 -0.106643 1.867817 -0.005759 0.006747 -831259.000000 0 0 1
25.912961 -2.801451 -6.804978 26.937657 -0.107692 1.826183 -0.003225 0.004449 33815.300000 0 0 1
25.907611 -4.077251 -6.183678 26.945615 -0.156096 1.802347 0.009331 -0.001371 964448.000000 0 0 1
27.269311 -4.182451 -5.325378 28.097471 -0.152190 1.761482 0.022317 -0.002708 1529240.000000 0 0 1
28.377781 -4.343151 -6.207178 29.371593 -0.151869 1.783735 0.025318 0.000021 47755.200000 0 0 1
29.551011 -4.702151 -5.506578 30.425234 -0.157797 1.752786 0.028999 -0.000621 -55327.000000 0 0 1
30.678371 -4.924651 -6.555278 31.755099 -0.159167 1.778724 0.044858 -0.010565 -216161.000000 0 0 1
30.541471 -6.112851 -7.269078 31.984182 -0.197539 1.800071 0.038732 -0.012386 2361.470000 0 0 1
31.212851 -6.177151 -8.507778 32.936022 -0.195379 1.832071 0.036276 -0.018782 -1109760.000000 0 0 1
30.991301 -7.514251 -9.334578 33.227384 -0.237873 1.855560 0.032289 -0.017402 151041.000000 0 0 1
29.738441 -7.637551 -10.010278 32.294159 -0.251391 1.885960 0.047937 -0.022847 249751.000000 0 0 1
28.679821 -7.884251 -9.130078 31.113532 -0.268279 1.868624 0.055992 -0.007244 -1125190.000000 0 0 1
27.636501 -6.762451 -9.105078 29.873221 -0.239977 1.880515 0.040047 -0.009105 -877875.000000 0 0 1
26.834051 -6.625051 -10.266678 29.484950 -0.242049 1.926447 0.027062 -0.003795 895701.000000 0 0 1
25.821911 -5.612551 -10.175478 28.316288 -0.214027 1.938368 0.021714 0.000650 562510.000000 0 0 1
24.414931 -6.136351 -9.806678 27.016931 -0.246236 1.942263 0.030878 0.002992 -551788.000000 0 0 1
24.199331 -6.655251 -8.485878 26.493586 -0.268383 1.896842 0.026010 0.001562 391539.000000 0 0 1
22.860631 -7.002251 -8.211278 25.279736 -0.297228 1.901614 0.013551 -0.001889 28614.000000 0 0 1
22.022931 -5.917351 -7.453978 23.991380 -0.262491 1.886719 0.012243 0.008047 -137338.000000 0 1 0
21.557231 -4.994951 -8.417578 23.675290 -0.227689 1.934291 0.008696 0.007239 477135.000000 0 1 0
21.098531 -3.826851 -7.811378 22.821271 -0.179429 1.920144 -0.010423 -0.000515 -434699.000000 0 1 0
20.790631 -2.722951 -8.789878 22.736023 -0.130229 1.967745 -0.028381 0.002209 -2922.800000 0 1 0
22.032231 -2.370051 -9.433178 24.083629 -0.107160 1.973258 -0.022188 0.003870 1321960.000000 0 1 0
21.766731 -1.929751 -10.724278 24.341829 -0.088425 2.027030 -0.029788 0.007298 -282938.000000 0 1 0
22.976631 -1.991851 -11.683778 25.853505 -0.086474 2.039716 -0.011942 0.003414 48436.000000 0 0 1
24.052631 -1.133751 -11.353678 26.621804 -0.047101 2.011394 -0.021247 0.006305 860186.000000 0 0 1
25.225431 -1.432151 -12.125378 28.024957 -0.056713 2.018241 -0.005427 0.006850 596452.000000 0 0 1
26.368731 -0.457251 -11.696078 28.849910 -0.017339 1.988225 0.003516 0.015191 76236.900000 0 0 1
27.642141 -0.738651 -12.260878 30.248350 -0.026716 1.988147 0.010811 0.003906 453810.000000 0 0 1
28.655931 0.199249 -11.993178 31.065067 0.006953 1.967160 0.023272 0.003572 36517.600000 0 0 1
28.609561 1.541249 -12.746478 31.358493 0.053820 1.989390 0.030367 -0.004516 -469100.000000 0 0 1
28.836331 1.375149 -14.155578 32.152844 0.047652 2.026683 0.017631 -0.004959 346104.000000 0 0 1
28.630631 2.603249 -14.805278 32.337071 0.090676 2.046363 0.021406 0.002107 -64506.300000 0 0 1
28.911331 2.654649 -16.321178 33.306051 0.091564 2.082928 0.022252 0.005986 -147090.000000 0 0 1
28.024671 1.865749 -17.078778 32.871688 0.066477 2.117131 0.007828 0.010717 -402013.000000 0 0 1
28.550631 1.645149 -18.363678 33.986316 0.057559 2.141620 0.002540 0.007680 260106.000000 0 0 1
27.601881 0.851849 -19.367478 33.729641 0.030852 2.182420 -0.011125 0.012711 300385.000000 0 0 1
27.566411 -0.574351 -19.175278 33.584642 -0.020832 2.178463 0.000288 0.012486 190350.000000 0 0 1
27.024631 -1.258651 -20.296678 33.821147 -0.046541 2.214445 0.000007 0.013248 -126591.000000 0 0 1
26.920981 -2.781251 -20.211878 33.778611 -0.102946 2.212253 0.000305 0.004599 -356513.000000 0 0 1
25.731621 -3.302851 -19.672778 32.558307 -0.127660 2.219598 -0.000105 0.011545 28989.300000 0 0 1
25.600731 -4.740851 -19.629478 32.606587 -0.183110 2.216812 0.005772 0.006579 -559185.000000 0 0 1
26.264991 -5.446751 -18.473178 32.569543 -0.204479 2.173888 0.002579 0.004132 -640858.000000 0 0 1
27.649381 -5.307951 -18.619478 33.754223 -0.189666 2.155101 -0.001331 0.006714 -554058.000000 0 0 1
28.332001 -5.586351 -17.416278 33.722935 -0.194677 2.113499 0.004048 0.002035 59510.400000 0 0 1
29.862451 -5.406551 -17.526778 35.045466 -0.179108 2.094528 0.009298 0.007908 226878.000000 0 0 1
30.541641 -6.334651 -18.386178 36.207336 -0.204511 2.103428 0.001456 0.007903 -409050.000000 0 0 1
31.746151 -5.806751 -18.839678 37.369371 -0.180912 2.099191 0.004848 0.009131 -476660.000000 0 0 1
32.413621 -6.941151 -19.700878 38.560951 -0.210957 2.107030 0.004327 0.014520 -149979.000000 0 0 1
32.694261 -8.068151 -18.912078 38.622227 -0.241942 2.082506 0.007063 0.013690 -125617.000000 0 0 1
33.339611 -9.024051 -19.692078 39.758535 -0.264337 2.088967 0.004387 0.019893 -317871.000000 0 0 1
34.097081 -10.040951 -18.808178 40.214166 -0.286386 2.057484 0.013689 0.007969 -365151.000000 0 0 1
33.228181 -10.811551 -17.957378 39.287009 -0.314569 2.045508 0.014985 0.000249 587540.000000 0 0 1
33.833871 -11.582251 -16.903678 39.555198 -0.329823 2.012349 0.035123 -0.007025 -22286.300000 0 0 1
34.769131 -10.826051 -15.877478 39.726441 -0.301855 1.981953 0.040524 -0.002533 110025.000000 0 0 1
35.256855 -11.515751 -14.705578 39.898776 -0.315700 1.948269 0.031245 -0.011276 457714.000000 0 0 1
-34.720780 -12.798251 -14.818678 39.861272 0.353152 1.951696 0.031510 -0.012401 99428.900000 0 0 1
-33.304319 -12.772551 -15.477678 38.882827 0.366211 1.980197 0.028649 -0.015513 -10056.700000 0 0 1
-33.157399 -12.177951 -16.782378 39.107081 0.351983 2.014336 0.021039 -0.006061 -565725.000000 0 0 1
-31.870329 -12.277351 -17.325578 38.296565 0.367708 2.040257 0.033205 -0.008753 -256203.000000 0 0 1
-31.650969 -11.316251 -18.495678 38.365759 0.343369 2.073833 0.036059 -0.007007 163377.000000 0 0 1
-31.642349 -9.942751 -18.045078 37.758726 0.304454 2.069064 0.039716 -0.001821 -668484.000000 0 0 1
-32.805019 -9.309851 -18.418178 38.756572 0.276523 2.066019 0.027183 0.002424 -1008930.000000 0 0 1
-33.156709 -8.005451 -17.686078 38.422024 0.236909 2.049142 0.031641 0.004146 -119988.000000 0 0 1
-34.248020 -7.325451 -18.271278 39.502262 0.210719 2.051651 0.018599 0.003530 -86780.400000 0 0 1
-34.689150 -6.239051 -17.549378 39.373132 0.177953 2.032774 0.014622 0.003387 -18335.700000 0 0 1
23.433571 28.263749 -27.346918 45.780189 0.878560 2.210992 0.015475 0.008893 144308.000000 0 0 1
24.291971 27.500549 -26.467878 45.242995 0.847270 2.195696 0.019447 0.008665 269020.000000 0 0 1
25.350371 26.955749 -27.231228 45.943373 0.816081 2.205219 0.015094 0.004031 -173243.000000 0 0 1
26.010471 25.809249 -26.387908 45.155106 0.781515 2.194917 0.008050 0.001984 -448360.000000 0 0 1
26.589471 26.205049 -25.173148 45.026569 0.778117 2.164064 0.017180 0.004725 271739.000000 0 0 1
26.768871 25.136949 -24.248078 44.004635 0.753968 2.154400 0.015402 0.001905 -260189.000000 0 0 1
27.433071 25.621949 -22.939378 43.991735 0.751275 2.119343 0.015228 0.006559 -39070.900000 0 0 1
26.679571 26.485049 -22.098578 43.607390 0.781739 2.102221 0.005617 0.015002 336031.000000 0 0 1
27.486971 26.854549 -20.994478 43.788908 0.773761 2.070821 0.000300 0.018292 186487.000000 0 0 1
26.858471 28.019149 -20.233178 43.770214 0.806545 2.051337 0.007486 0.015156 136722.000000 0 0 1
25.904571 27.756949 -19.219078 42.554294 0.819904 2.039395 0.008502 0.012367 382868.000000 0 0 1
25.291571 28.931949 -18.654878 42.716808 0.852434 2.022735 0.020102 0.004815 40948.200000 0 0 1
24.342971 28.536149 -17.526078 41.401153 0.864530 2.007907 0.024870 0.000633 -284108.000000 0 0 1
23.229671 27.757449 -17.937778 40.396255 0.873968 2.030905 0.015503 0.001906 -176308.000000 0 0 1
22.172571 27.943049 -17.021578 39.524309 0.900037 2.016021 0.018889 -0.006072 -149870.000000 0 0 1
21.114471 26.863349 -17.376878 38.332966 0.904653 2.041276 0.014520 0.007847 -223295.000000 0 0 1
20.552871 27.109549 -18.663878 38.803202 0.922105 2.072578 0.014149 0.004334 -405743.000000 0 0 1
19.664671 26.100049 -19.021778 37.811901 0.925101 2.097936 0.008803 0.006187 -573124.000000 0 0 1
18.948871 26.312749 -20.394778 38.306232 0.946681 2.132246 0.006139 0.012537 -252200.000000 0 0 1
17.839171 27.134749 -20.285078 38.288575 0.989216 2.129155 -0.004418 0.005736 -773909.000000 0 0 1
17.101571 27.100849 -21.508778 38.594653 1.007869 2.161926 0.000230 0.013502 106622.000000 0 0 1
15.925771 28.102049 -21.521278 38.813925 1.055213 2.158526 -0.012057 0.010630 144155.000000 0 0 1
14.857771 27.687449 -20.676078 37.614470 1.078280 2.152782 -0.001870 0.006911 -274002.000000 0 0 1
13.936371 28.720849 -20.504978 37.941583 1.119030 2.141751 -0.008292 0.007213 -25612.100000 0 0 1
13.361571 28.768249 -19.053878 37.002621 1.135986 2.111726 -0.005103 0.002047 211814.000000 0 0 1
12.497071 27.715249 -18.688578 35.687179 1.147186 2.121958 0.003621 0.003009 -309473.000000 0 0 1
12.163171 27.879549 -17.331378 35.008408 1.159414 2.088704 0.008292 0.005840 141305.000000 0 0 1
11.353271 26.679949 -16.739978 33.480491 1.168472 2.094386 0.018469 0.010173 98520.200000 0 0 1
12.131371 25.517949 -16.770278 32.856934 1.127017 2.106450 0.003874 0.008885 -408948.000000 0 0 1
11.414471 24.393849 -16.301978 31.481812 1.133137 2.115100 0.025783 0.012938 549828.000000 0 0 1
12.174971 23.005449 -16.559678 30.849693 1.084046 2.137419 0.009183 0.012312 438732.000000 0 0 1
12.479271 22.831649 -17.907178 31.586127 1.070584 2.173573 0.014819 0.009475 105114.000000 0 0 1
13.376671 21.706349 -18.030378 31.228119 1.018509 2.186308 0.025135 0.009021 162786.000000 0 0 1
12.711371 20.358549 -18.307478 30.186308 1.012647 2.222426 0.024578 0.008487 -109427.000000 0 0 1
11.899171 19.923649 -17.238178 28.908421 1.032410 2.209684 0.021085 0.008389 -162894.000000 0 0 1
11.367871 18.627149 -17.474578 27.956395 1.022849 2.246012 0.027285 0.000967 11445.500000 0 0 1
12.383471 17.453849 -17.418378 27.593243 0.953724 2.253967 0.015230 0.002178 153163.000000 0 0 1
12.963971 17.203749 -16.139478 26.916840 0.925024 2.213804 0.007752 0.002738 -585618.000000 0 0 1
14.096471 16.415749 -16.317278 27.100569 0.861264 2.216926 0.013559 0.002055 -1242260.000000 0 0 1
14.507971 15.763949 -14.984978 26.144462 0.826864 2.181154 0.014791 0.013072 27500.600000 0 0 1
15.389471 16.535649 -14.122778 26.640502 0.821285 2.129543 0.011215 0.011567 2073530.000000 0 0 1
16.750871 16.797749 -14.545878 27.826940 0.786795 2.120842 0.016889 0.011325 1466230.000000 0 0 1
17.761771 15.624549 -14.967178 27.993275 0.721470 2.134914 0.021009 0.003531 217210.000000 0 0 1
18.177371 14.653549 -14.053478 27.251487 0.678475 2.112616 0.024282 0.000967 497027.000000 0 0 1
18.933371 15.182249 -12.973378 27.518753 0.675885 2.061717 0.031623 0.004215 -493676.000000 0 0 1
19.477971 14.186449 -11.974278 26.907806 0.629489 2.031983 0.030338 0.002958 44192.100000 0 0 1
18.432471 13.381949 -11.400578 25.471665 0.627962 2.034852 0.026986 0.000709 837169.000000 0 0 1
18.893971 12.432149 -10.384378 24.887261 0.581975 2.001221 0.023922 0.004897 22358.100000 0 1 0
19.479671 11.114549 -11.007078 24.982925 0.518500 2.027045 0.026603 0.002110 678467.000000 0 1 0
20.700271 11.356249 -11.756978 26.375976 0.501771 2.032803 0.024811 0.004645 1346700.000000 0 0 1
21.232671 10.332349 -12.584678 26.757389 0.452890 2.060456 0.015002 0.006817 -130019.000000 0 0 1
22.001471 9.209549 -11.840478 26.628508 0.396427 2.031584 0.010233 0.011896 -777964.000000 0 0 1
21.143171 8.350049 -11.148978 25.319098 0.376127 2.026772 0.008628 0.010450 273441.000000 0 0 1
21.761371 7.251249 -10.445978 25.204292 0.321645 1.998137 -0.001472 0.018811 -696623.000000 0 0 1
21.942071 5.990249 -11.268178 25.383250 0.266509 2.030767 -0.011891 0.018155 273283.000000 0 0 1
20.765071 5.178349 -11.441678 24.267580 0.244393 2.061765 -0.010101 0.009674 976831.000000 0 1 0
20.003871 5.575249 -12.607578 24.293811 0.271811 2.116433 -0.030780 0.009134 73649.500000 0 1 0
19.095571 4.374549 -12.991478 23.506510 0.225201 2.156368 -0.026501 -0.005968 -289329.000000 0 1 0
19.792671 3.265349 -13.502978 24.181454 0.163505 2.163255 -0.023925 -0.001803 255464.000000 0 1 0
18.994871 2.288149 -14.124078 23.780881 0.119884 2.206726 -0.009034 0.009234 -581690.000000 0 1 0
19.867171 1.243049 -14.772678 24.788741 0.062487 2.209236 0.008937 0.005356 -410225.000000 0 1 0
20.645071 0.447549 -13.906678 24.896083 0.021675 2.163480 -0.001797 0.004076 704550.000000 0 1 0
21.915171 0.188649 -14.516678 26.287720 0.008608 2.155824 -0.011570 -0.004103 149189.000000 0 0 1
22.079471 -1.122051 -15.335978 26.906398 -0.050775 2.177272 -0.005904 0.003772 -414205.000000 0 0 1
21.137571 -1.361051 -16.415178 26.797527 -0.064301 2.230096 -0.005896 0.009104 781254.000000 0 0 1
21.650971 -2.437351 -17.165978 27.737628 -0.112103 2.238099 0.001061 0.003293 -346200.000000 0 0 1
20.592971 -3.170151 -17.960578 27.508229 -0.152744 2.282225 0.004556 -0.002131 -316047.000000 0 0 1
19.698971 -3.995051 -17.225378 26.471183 -0.200091 2.279331 0.002789 -0.004267 538294.000000 0 0 1
18.759271 -4.620551 -18.094178 26.469964 -0.241500 2.323444 0.005140 -0.006697 735853.000000 0 0 1
17.869271 -5.709651 -17.368678 25.565248 -0.309271 2.317722 0.008608 -0.011190 111460.000000 0 0 1
18.787171 -6.672451 -16.956178 26.172340 -0.341264 2.275576 -0.000037 -0.009616 463005.000000 0 0 1
18.201471 -7.679051 -16.163978 25.525194 -0.399235 2.256549 0.005078 -0.001078 33023.400000 0 0 1
19.229471 -8.767151 -15.715478 26.336510 -0.427768 2.210202 0.013531 0.002957 227936.000000 0 0 1
19.771371 -9.535651 -16.799578 27.641664 -0.449384 2.224037 0.011561 -0.000918 872631.000000 0 0 1
20.635671 -10.559151 -16.255478 28.311961 -0.472959 2.182369 0.003499 -0.009005 -28026.300000 0 0 1
21.261171 -11.456651 -17.317678 29.718584 -0.494245 2.192871 0.003925 -0.008563 -11662.400000 0 0 1
22.229471 -10.884351 -18.188278 30.715337 -0.455322 2.204528 0.001596 -0.007813 315168.000000 0 0 1
22.559171 -11.753751 -19.242078 31.895523 -0.480321 2.218410 0.007843 -0.010967 -508893.000000 0 0 1
21.563471 -11.715551 -20.438978 31.937270 -0.497689 2.265259 0.012043 -0.008047 94948.700000 0 0 1
20.267771 -12.221051 -20.280778 31.168038 -0.542607 2.279291 0.016964 -0.019913 -235977.000000 0 0 1
20.149171 -13.572351 -20.091078 31.525374 -0.592783 2.261784 0.013943 -0.010911 -1213750.000000 0 0 1
18.664471 -13.847751 -19.884778 30.586387 -0.638317 2.278537 0.017829 -0.007019 -736572.000000 0 0 1
17.961971 -13.488251 -21.020778 30.764239 -0.644098 2.323050 0.022286 -0.001310 -1325340.000000 0 0 1
16.605071 -13.687851 -20.834478 29.952648 -0.689394 2.340024 0.022069 0.001706 -469386.000000 0 0 1
15.712371 -13.205551 -22.039678 30.116650 -0.698927 2.391771 0.020454 -0.002154 -80225.100000 0 0 1
16.118671 -13.758751 -23.259178 31.465920 -0.706575 2.402658 0.005522 0.005586 487098.000000 0 0 1
15.473771 -13.066551 -24.346278 31.668811 -0.701253 2.447724 0.014587 0.002239 -65033.800000 0 0 1
15.499271 -13.813851 -25.702528 33.040427 -0.727964 2.462132 0.004318 0.005714 469052.000000 0 0 1
14.541171 -14.934351 -25.716988 33.103534 -0.798737 2.460468 0.013454 0.001030 735021.000000 0 0 1
14.651271 -15.588951 -26.944038 34.404307 -0.816396 2.470526 0.013698 0.006214 -335743.000000 0 0 1
15.646371 -16.729351 -27.152868 35.524053 -0.818836 2.440832 0.013695 0.009227 -905386.000000 0 0 1
16.981871 -16.357351 -27.146238 35.956433 -0.766668 2.426414 0.019638 0.010167 -787324.000000 0 0 1
17.767171 -17.493251 -27.331918 36.996215 -0.777630 2.402049 0.022612 0.008144 -1109630.000000 0 0 1
19.264471 -17.368651 -27.288908 37.649361 -0.733693 2.381565 0.011451 0.007841 -980869.000000 0 0 1
19.764171 -17.120351 -26.007208 36.879584 -0.713842 2.353491 0.011787 0.002512 -729398.000000 0 0 1
21.122671 -16.826751 -25.997338 37.485575 -0.672677 2.337173 0.013740 0.003794 -656605.000000 0 0 1
21.560671 -16.110051 -24.642578 36.491820 -0.641704 2.312155 0.011761 -0.000356 -78372.100000 0 0 1
21.300871 -14.726851 -24.539178 35.676021 -0.604913 2.329297 0.023678 -0.008026 153289.000000 0 0 1
19.906371 -14.449151 -24.471178 34.696976 -0.627869 2.353618 0.025518 -0.004020 298742.000000 0 0 1
19.567871 -13.126351 -23.790278 33.484026 -0.590867 2.361000 0.029181 -0.001441 -171074.000000 0 0 1
20.146971 -12.046051 -24.426478 33.877140 -0.538880 2.376086 0.028014 -0.007628 -80066.100000 0 0 1
19.625171 -10.881351 -23.893578 32.778868 -0.506260 2.387557 0.033133 -0.006941 -24808.600000 0 0 1
19.944971 -9.614751 -24.736478 33.198473 -0.449196 2.411494 0.038734 -0.007575 -237253.000000 0 0 1
19.529571 -8.446451 -24.081578 32.135169 -0.408202 2.417927 0.044419 -0.013463 12684.500000 0 0 1
19.614571 -7.292851 -24.973678 32.582229 -0.355969 2.444141 0.032988 -0.009339 -634426.000000 0 0 1
19.130071 -6.058351 -24.206278 31.442123 -0.306700 2.449430 0.033442 -0.016336 395195.000000 0 0 1
17.779571 -6.332851 -23.792778 30.369630 -0.342176 2.470978 0.025081 -0.013037 437203.000000 0 0 1
17.283371 -5.366051 -22.912278 29.197293 -0.301039 2.473073 0.008482 -0.012836 -172077.000000 0 0 1
17.768271 -5.405151 -21.432178 28.359573 -0.295308 2.427564 0.017539 -0.017029 -729365.000000 0 0 1
17.489871 -6.524351 -20.614978 27.810790 -0.357048 2.405739 0.019277 -0.016244 78093.100000 0 0 1
18.207371 -7.706651 -20.879978 28.755422 -0.400405 2.383463 0.025308 -0.012678 -424419.000000 0 0 1
18.073371 -8.835051 -19.846178 28.259081 -0.454683 2.349411 0.033329 -0.013163 1254.860000 0 0 1
16.711771 -9.212551 -19.797578 27.497245 -0.503811 2.374576 0.035059 -0.009627 -36737.400000 0 0 1
16.529771 -10.308151 -18.904378 27.145291 -0.557600 2.341186 0.030797 -0.008774 666241.000000 0 0 1
14.998271 -10.495451 -18.571478 26.076856 -0.610577 2.363399 0.027474 -0.007091 855367.000000 0 0 1
14.423871 -9.696851 -17.559778 24.706735 -0.591877 2.361329 0.041808 -0.006746 150510.000000 0 1 0
14.427071 -8.313551 -17.814178 24.384430 -0.522771 2.389931 0.057053 -0.018115 -823515.000000 0 1 0
13.275171 -7.546451 -17.117878 22.939068 -0.516908 2.413181 0.058943 -0.008810 216369.000000 0 1 0
12.039271 -7.778551 -17.779978 22.838072 -0.573627 2.463106 0.045373 -0.012104 -248010.000000 0 1 0
11.108471 -6.843751 -17.375978 21.729235 -0.552162 2.497523 0.038286 -0.020132 -548925.000000 0 1 0
9.637271 -7.063251 -17.752378 21.398912 -0.632473 2.549174 0.039527 -0.016450 5482.360000 0 1 0
9.243871 -6.822351 -19.083178 22.274679 -0.635803 2.599674 0.026587 -0.015636 442065.000000 0 1 0
7.835671 -6.626451 -19.193178 21.764321 -0.701979 2.650598 0.019388 -0.026330 650275.000000 0 1 0
7.341871 -6.233851 -20.675678 22.808937 -0.703961 2.705651 0.016885 -0.025936 162233.000000 0 1 0
7.388771 -7.189551 -21.659478 23.987842 -0.771734 2.697348 0.020934 -0.020873 -139189.000000 0 1 0
6.548871 -6.811451 -22.719078 24.605692 -0.805049 2.747450 0.020444 -0.019308 -238315.000000 0 1 0
6.685771 -7.669751 -23.954778 26.026064 -0.853835 2.739937 0.019012 -0.015141 -339023.000000 0 0 1
6.076071 -8.971051 -23.837678 26.184600 -0.975470 2.714974 0.017850 -0.019571 101599.000000 0 0 1
6.121971 -9.760451 -24.991378 27.519337 -1.010601 2.709613 0.022070 -0.004334 -230410.000000 0 0 1
5.121671 -10.919851 -24.902578 27.669714 -1.132235 2.690552 0.014586 -0.013951 32939.400000 0 0 1
5.638571 -12.015551 -24.150678 27.557616 -1.132031 2.639070 0.010452 -0.024295 3521.850000 0 0 1
4.701071 -13.065351 -23.986078 27.715256 -1.225407 2.616838 0.017023 -0.033442 -565006.000000 0 0 1
5.206971 -14.264751 -23.128478 27.668071 -1.220801 2.560615 0.025857 -0.028234 -466222.000000 0 0 1
6.081471 -15.202851 -23.726578 28.828137 -1.190271 2.537531 0.039667 -0.019306 1091540.000000 0 0 1
7.391971 -14.720351 -24.157778 29.239155 -1.105422 2.543149 0.031054 -0.013354 1422820.000000 0 0 1
8.377071 -14.380651 -22.964578 28.361070 -1.043326 2.514474 0.037185 0.000004 -687094.000000 0 0 1
8.610571 -15.501951 -22.138078 28.364536 -1.063778 2.466237 0.034193 0.007233 -16302.100000 0 0 1
7.862771 -15.421851 -20.943678 27.171572 -1.099303 2.450882 0.025756 -0.004146 -423749.000000 0 0 1
8.670671 -15.397251 -19.670078 26.441782 -1.057928 2.409686 0.025870 -0.010883 -323678.000000 0 0 1
9.401271 -16.564851 -19.387378 27.178091 -1.054584 2.365057 0.030190 -0.011453 -393996.000000 0 0 1
9.910371 -16.622551 -18.071578 26.478417 -1.033175 2.321977 0.018459 -0.007773 -418837.000000 0 0 1
9.069871 -17.333351 -16.962578 25.892792 -1.088713 2.285122 0.005859 0.002219 -847502.000000 0 0 1
8.905071 -18.737951 -17.123478 26.900271 -1.127150 2.260818 -0.001185 0.000897 90114.100000 0 0 1
8.192771 -19.224251 -18.270478 27.757948 -1.167936 2.289231 0.016730 -0.006074 213657.000000 0 0 1
6.656671 -18.994151 -18.353978 27.238898 -1.233713 2.310156 0.020815 -0.002124 119796.000000 0 0 1
6.294871 -17.640951 -18.097178 26.044892 -1.228047 2.339001 0.015881 -0.003479 -689299.000000 0 0 1
4.944871 -17.433051 -18.444078 25.856276 -1.294407 2.365036 0.021250 -0.000428 144759.000000 0 0 1
4.510571 -16.029751 -17.904478 24.451350 -1.296502 2.392415 0.011791 0.005568 111820.000000 0 1 0
4.643871 -15.850851 -16.552278 23.383604 -1.285799 2.357258 -0.002628 0.007445 35173.500000 0 1 0
4.266571 -14.552951 -16.163178 22.163942 -1.285612 2.388030 -0.004144 0.010452 73012.000000 0 1 0
10.458571 31.122549 -18.179178 37.529685 1.246607 2.076467 0.016075 -0.002600 104724.000000 0 0 1
9.683771 30.287549 -19.094778 37.090721 1.261340 2.111586 0.023732 0.002967 210853.000000 0 0 1
8.714471 29.615349 -18.306178 35.890487 1.284618 2.106047 0.027138 0.009105 24684.900000 0 0 1
7.707871 28.927549 -19.265278 35.600074 1.310392 2.142610 0.040222 0.000235 157798.000000 0 0 1
6.769771 29.806649 -19.853178 36.447425 1.347462 2.146836 0.046718 -0.011502 -72033.500000 0 0 1
5.926871 29.162949 -20.805478 36.310788 1.370294 2.180938 0.060818 -0.025533 548116.000000 0 0 1
4.794471 30.060849 -21.369678 37.192805 1.412636 2.182869 0.059508 -0.025912 602514.000000 0 0 1
3.596771 30.070049 -20.594578 36.623507 1.451749 2.168000 0.064693 -0.025802 -46778.100000 0 0 1
2.612571 30.849049 -21.254478 37.553191 1.486309 2.172422 0.055689 -0.025457 -6249.050000 0 0 1
1.211371 30.500249 -20.647378 36.851687 1.531100 2.165524 0.049740 -0.024609 54946.700000 0 0 1
0.761471 29.215449 -20.982178 35.977411 1.544738 2.193464 0.051203 -0.038695 234167.000000 0 0 1
0.109071 29.146849 -22.276778 36.685222 1.567054 2.223380 0.050597 -0.037834 -337741.000000 0 0 1
-0.583729 27.795049 -22.591578 35.822966 -1.549798 2.253180 0.053504 -0.032330 576455.000000 0 0 1
-1.798229 27.608949 -21.859678 35.260930 -1.505756 2.239463 0.051249 -0.029015 170960.000000 0 0 1
-2.018729 26.237749 -21.851378 34.204933 -1.494008 2.263782 0.060116 -0.031477 -29454.800000 0 0 1
-3.103529 25.816649 -20.831878 33.318139 -1.451156 2.246237 0.049303 -0.024839 8181.400000 0 0 1
-4.370929 26.304949 -21.197078 34.064226 -1.406137 2.242433 0.027376 -0.020078 102513.000000 0 0 1
-5.438429 25.797549 -20.403178 33.337362 -1.363027 2.229410 0.031600 -0.017960 -175902.000000 0 0 1
-6.445429 26.892149 -20.112578 34.194254 -1.335557 2.199610 0.025759 -0.020374 -206402.000000 0 0 1
-7.529529 26.354149 -19.363078 33.558364 -1.292505 2.185844 0.037254 -0.020294 47590.900000 0 0 1
-8.530129 27.341349 -19.038278 34.391401 -1.268379 2.157449 0.041587 -0.020474 651694.000000 0 0 1
-9.663529 26.628249 -18.250078 33.697371 -1.222671 2.143121 0.041491 -0.019591 -163562.000000 0 0 1
-9.288629 25.897949 -17.059778 32.373113 -1.226425 2.125832 0.052861 -0.020625 -91378.600000 0 0 1
-10.441929 25.297249 -16.492478 31.952880 -1.179331 2.113146 0.034066 -0.021594 172449.000000 0 0 1
-10.191829 24.655549 -15.122178 30.666753 -1.178819 2.086461 0.040161 -0.014971 65657.300000 0 0 1
-9.483229 23.424149 -15.284878 29.533877 -1.186117 2.114766 0.045065 -0.016162 -30988.100000 0 0 1
-9.303829 22.863549 -14.024478 28.389947 -1.184331 2.087474 0.054328 -0.015405 -214916.000000 0 0 1
-8.683529 21.449549 -14.195678 27.147819 -1.186129 2.121050 0.061111 -0.011844 -223559.000000 0 0 1
-9.514329 20.379549 -14.600978 26.814866 -1.134013 2.146602 0.052740 -0.007685 -254520.000000 0 0 1
-9.963429 20.382449 -15.978978 27.749628 -1.116129 2.184411 0.059005 -0.008312 -234434.000000 0 0 1
-8.887329 20.230149 -17.048878 27.908919 -1.156867 2.227962 0.052705 -0.010650 -430358.000000 0 0 1
-8.513229 18.922149 -17.197978 26.949828 -1.148019 2.262887 0.045571 -0.008284 -139214.000000 0 0 1
-7.693329 18.769849 -18.368878 27.366224 -1.181804 2.306656 0.047500 -0.008911 494355.000000 0 0 1
-7.029329 17.393349 -18.486578 26.338064 -1.186727 2.348852 0.036751 -0.013527 230762.000000 0 0 1
-8.074329 16.469549 -18.703278 26.196439 -1.114973 2.365938 0.026789 -0.010824 -35794.500000 0 0 1
-7.960329 15.661849 -19.889578 26.537816 -1.100561 2.418073 0.033087 -0.013690 276768.000000 0 0 1
-6.756729 14.676849 -19.956578 25.677389 -1.139355 2.461007 0.032922 -0.009336 344465.000000 0 0 1
-6.813529 13.690649 -18.873378 24.291201 -1.109008 2.460624 0.009177 -0.004573 575289.000000 0 1 0
-5.552329 13.045049 -18.666478 23.440116 -1.168394 2.492028 0.014645 0.001502 545620.000000 0 1 0
-4.765529 13.520449 -17.456778 22.588756 -1.231924 2.454051 0.024068 0.006017 38475.200000 0 1 0
-3.913429 14.661949 -17.613678 23.249287 -1.309966 2.430426 0.023052 -0.009010 78350.700000 0 1 0
-3.403629 15.087549 -16.358778 22.512851 -1.348919 2.384217 0.019800 -0.001224 38511.800000 0 1 0
-2.512029 16.323449 -16.296478 23.202165 -1.418103 2.349516 0.033883 -0.004572 811983.000000 0 1 0
-3.325229 17.505149 -16.538178 24.310465 -1.383076 2.318955 0.031765 -0.009286 1055030.000000 0 1 0
-2.404629 18.586349 -16.695978 25.099607 -1.442135 2.298543 0.043242 -0.011556 341162.000000 0 0 1
-3.133129 19.756749 -17.293378 26.442514 -1.413521 2.283655 0.049943 -0.014002 124616.000000 0 0 1
-3.421629 19.568049 -18.667078 27.259418 -1.397688 2.325117 0.056224 -0.021540 -81404.100000 0 0 1
-4.002229 20.766349 -19.234978 28.587470 -1.380404 2.308846 0.069082 -0.013546 403402.000000 0 0 1
-3.016329 21.971249 -19.517478 29.542613 -1.434364 2.292487 0.055620 -0.007531 85045.400000 0 0 1
-1.977529 21.678749 -20.426178 29.851424 -1.479828 2.324387 0.066325 -0.009522 23167.200000 0 0 1
-0.888529 22.574849 -20.470278 30.486810 -1.531457 2.306956 0.064314 -0.010293 299781.000000 0 0 1
0.175771 22.345349 -19.378078 29.577955 1.562930 2.285181 0.057640 -0.003484 -740959.000000 0 0 1
-0.118129 22.765649 -18.066978 29.063799 -1.565607 2.241620 0.050042 -0.001335 -483415.000000 0 0 1
0.917571 22.342149 -17.208078 28.215802 1.529750 2.226698 0.035365 -0.001759 -264337.000000 0 0 1
0.533571 22.225949 -15.742478 27.241570 1.546794 2.186930 0.038773 -0.004456 -22239.100000 0 0 1
-0.178929 21.065749 -15.295578 26.033680 -1.562303 2.198800 0.033128 0.000645 135944.000000 0 0 1
-0.109229 21.070549 -13.897778 25.241398 -1.565612 2.153873 0.031459 0.000273 247160.000000 0 0 1
-0.989929 19.981049 -13.188478 23.961599 -1.521293 2.153640 0.030113 -0.002388 145916.000000 0 1 0
-0.555529 18.698749 -13.311978 22.959978 -1.541096 2.189268 0.021041 -0.001883 20298.400000 0 1 0
-1.561729 17.827149 -12.810478 22.008057 -1.483415 2.192082 0.013405 -0.004608 401534.000000 0 1 0
-1.270029 16.302749 -12.981378 20.878428 -1.493051 2.241785 0.010073 -0.004902 -475323.000000 0 1 0
-0.158029 15.897649 -12.225578 20.055547 -1.560856 2.226334 0.007075 -0.006939 -208259.000000 0 1 0
-0.020529 14.449049 -12.223878 18.926136 -1.569376 2.272962 0.009110 -0.006794 114704.000000 0 1 0
0.615171 13.766749 -13.454678 19.259548 1.526141 2.344232 0.013002 -0.012137 -239483.000000 0 1 0
-0.228529 13.822649 -14.601578 20.107808 -1.554265 2.383523 0.013606 -0.009510 119611.000000 0 1 0
0.228371 12.942849 -15.625978 20.291394 1.553154 2.449761 0.019150 -0.008214 -513021.000000 0 1 0
-0.508929 12.926849 -16.929178 21.306325 -1.531447 2.489081 0.020016 -0.003601 -557968.000000 0 1 0
-0.372829 14.124349 -17.685378 22.636449 -1.544406 2.467508 0.026079 -0.007008 50283.000000 0 1 0
-0.894529 13.988849 -19.010378 23.619537 -1.506937 2.506233 0.035518 -0.008646 -113697.000000 0 1 0
-1.365929 15.336549 -19.605878 24.929219 -1.481967 2.475856 0.041735 -0.008799 587108.000000 0 1 0
-0.301829 16.316449 -19.785778 25.647507 -1.552300 2.451914 0.040561 -0.009954 506201.000000 0 0 1
-0.759629 17.613249 -19.951578 26.624595 -1.527695 2.417901 0.064814 -0.010745 -237782.000000 0 0 1
0.323671 18.621549 -20.360278 27.593618 1.553417 2.400693 0.075934 -0.007250 -181059.000000 0 0 1
0.931471 18.386449 -21.574378 28.361645 1.520179 2.435169 0.061295 -0.010629 -455393.000000 0 0 1
1.732471 19.464549 -21.916378 29.363204 1.482024 2.413416 0.060585 -0.010079 -152939.000000 0 0 1
2.166771 19.430949 -23.418478 30.507078 1.459744 2.445948 0.067819 -0.012920 126721.000000 0 0 1
3.071171 18.416449 -23.772878 30.228255 1.405555 2.475829 0.049680 -0.009393 -217030.000000 0 0 1
3.275671 18.281449 -25.147418 31.262342 1.393498 2.505461 0.054594 -0.017473 -98299.000000 0 0 1
4.215771 17.112449 -25.507248 31.003683 1.329249 2.536970 0.035471 -0.005623 1220430.000000 0 0 1
5.558571 17.149149 -24.908178 30.747493 1.257351 2.515099 0.027639 -0.000050 1657320.000000 0 0 1
6.401271 16.076049 -25.306638 30.656835 1.191854 2.541850 0.028535 -0.005575 218726.000000 0 0 1
6.932971 16.094849 -26.739588 31.970546 1.164059 2.561445 0.026865 -0.008657 -1177200.000000 0 0 1
8.016671 16.987549 -26.879888 32.792868 1.129868 2.531661 0.012894 -0.003410 75714.300000 0 0 1
8.341571 17.247449 -28.247368 34.131658 1.120321 2.545615 0.026896 -0.008685 39471.700000 0 0 1
8.998071 16.138749 -29.111698 34.480653 1.062179 2.576037 0.035002 -0.016064 395887.000000 0 0 1
10.338571 15.838349 -28.676898 34.352639 0.992486 2.558530 0.038220 -0.013757 728472.000000 0 0 1
10.665971 14.465749 -28.645098 33.816600 0.935456 2.581248 0.034216 -0.007715 -453361.000000 0 0 1
10.153871 13.614649 -27.507958 32.328741 0.929986 2.588459 0.034004 -0.010563 -819121.000000 0 0 1
8.790471 13.348849 -27.590668 31.885876 0.988456 2.616534 0.027523 -0.006003 -637269.000000 0 0 1
8.359171 12.537849 -26.512358 30.495549 0.982760 2.624752 0.041169 -0.005896 484165.000000 0 0 1
7.013971 11.781949 -26.754368 30.063372 1.033829 2.667993 0.042064 -0.017989 214392.000000 0 0 1
5.912771 12.632049 -26.860338 30.265612 1.133012 2.662659 0.042437 -0.018001 -724793.000000 0 0 1
4.716971 11.913849 -26.687548 29.604304 1.193809 2.693962 0.053497 -0.019535 -1001760.000000 0 0 1
3.499271 12.729949 -26.951968 30.011749 1.302537 2.686106 0.061673 -0.027293 -1629380.000000 0 0 1
3.243871 12.957849 -28.341228 31.331354 1.325497 2.701153 0.070592 -0.036044 281143.000000 0 0 1
3.760871 14.217549 -28.862838 32.393615 1.312196 2.670348 0.073116 -0.035128 93831.500000 0 0 1
3.759071 14.361549 -30.400378 33.831460 1.314794 2.687326 0.085847 -0.035071 347437.000000 0 0 1
4.670871 13.421649 -31.025538 34.125382 1.235895 2.712066 0.082143 -0.035450 337979.000000 0 0 1
4.686971 13.527949 -32.452428 35.470173 1.237274 2.726110 0.072078 -0.029960 -811104.000000 0 0 1
5.682071 12.451649 -32.948868 35.678528 1.142690 2.747885 0.071365 -0.024344 624084.000000 0 0 1
7.065871 12.752649 -32.776518 35.872785 1.064833 2.723063 0.077088 -0.021452 620409.000000 0 0 1
7.586171 12.834149 -31.418478 34.776229 1.036952 2.698539 0.069478 -0.021443 -935276.000000 0 0 1
7.672671 11.601849 -30.489088 33.512046 0.986496 2.713586 0.071112 -0.017752 -284221.000000 0 0 1
8.729371 10.775249 -30.887518 33.857742 0.889908 2.719597 0.041483 -0.013200 -241722.000000 0 0 1
8.596271 9.507949 -30.226688 32.832143 0.835713 2.740521 0.042596 -0.014645 291893.000000 0 0 1
9.749071 8.601649 -30.730628 33.367713 0.722952 2.741356 0.018539 -0.005277 832975.000000 0 0 1
10.961071 8.728749 -29.991278 33.103065 0.672506 2.704526 0.029897 -0.007290 -113503.000000 0 0 1
11.743271 7.588849 -30.058168 33.150995 0.573720 2.706201 0.001464 0.000934 -834983.000000 0 0 1
12.748671 7.476149 -28.901018 32.460595 0.530379 2.668891 0.003038 0.013695 277049.000000 0 0 1
13.507771 6.291349 -28.728178 32.362774 0.435881 2.663105 0.007763 0.010427 436128.000000 0 0 1
14.367371 5.869349 -29.785908 33.586767 0.387829 2.661246 -0.008413 0.012820 -828159.000000 0 0 1
15.202871 4.677349 -29.477848 33.495498 0.298471 2.646772 -0.001976 0.005886 -1357.760000 0 0 1
16.088671 4.887749 -28.355358 32.966070 0.294940 2.606336 -0.014364 -0.001987 225321.000000 0 0 1
16.906771 3.790549 -28.155778 33.059870 0.220556 2.589941 -0.009442 -0.006506 -220397.000000 0 0 1
17.689571 3.895249 -26.810708 32.355957 0.216741 2.547430 -0.008457 -0.007321 387240.000000 0 0 1
18.588171 5.011249 -26.723298 32.935807 0.263333 2.517297 0.008953 -0.008732 586821.000000 0 0 1
19.048971 5.213549 -25.376648 32.156160 0.267150 2.480251 0.006137 -0.007273 357738.000000 0 0 1
20.058771 6.410549 -25.145408 32.798490 0.309329 2.444425 -0.000491 -0.005528 255088.000000 0 0 1
19.533771 7.697649 -25.540888 33.062954 0.375383 2.453553 0.008537 -0.004951 648216.000000 0 0 1
20.479971 8.553749 -26.197568 34.335235 0.395641 2.438728 0.015537 -0.012239 -154616.000000 0 0 1
20.753871 8.229049 -27.700978 35.577866 0.377491 2.463230 0.018854 -0.007334 252875.000000 0 0 1
19.689971 8.565749 -28.590688 35.756041 0.410336 2.497433 0.021791 0.001807 1199040.000000 0 0 1
18.560271 7.648749 -28.625548 34.962966 0.390897 2.530008 0.012114 0.007194 654353.000000 0 0 1
17.277071 8.383249 -29.075568 34.844866 0.451757 2.557892 0.008255 0.020487 -213202.000000 0 0 1
17.165671 8.733049 -30.455778 36.034439 0.470624 2.577708 0.004002 0.022720 339430.000000 0 0 1
15.920871 9.363049 -30.712448 35.838461 0.531623 2.600156 -0.005250 0.021027 172762.000000 0 0 1
15.405371 9.284749 -32.179938 36.865708 0.542399 2.631904 -0.012869 0.020505 -20674.400000 0 0 1
14.801771 8.036049 -32.390388 36.507639 0.497385 2.662085 -0.008830 0.018585 -720918.000000 0 0 1
13.743971 8.128349 -33.252108 36.887254 0.534081 2.693910 -0.021872 0.017375 -550047.000000 0 0 1
13.228971 6.743749 -33.799678 36.917503 0.471434 2.727660 -0.025658 0.014360 167907.000000 0 0 1
12.715171 5.937349 -32.747218 35.627349 0.436860 2.736738 -0.002372 0.006209 -35633.600000 0 0 1
11.838671 4.957649 -33.219258 35.612519 0.396580 2.772894 0.001767 -0.003477 52737.200000 0 0 1
11.435271 3.838049 -32.149248 34.337591 0.323818 2.782653 0.014283 -0.008832 -687181.000000 0 0 1
12.514771 3.054749 -31.801508 34.311614 0.239410 2.756714 0.010211 -0.013984 -296851.000000 0 0 1
12.153871 1.963749 -30.930988 33.291123 0.160190 2.762785 0.010515 -0.015357 -239187.000000 0 0 1
11.451871 0.757549 -31.530848 33.554636 0.066054 2.792510 0.011560 -0.013080 66437.800000 0 0 1
12.299771 -0.207251 -32.189748 34.460226 -0.016848 2.776563 0.008456 -0.013941 952124.000000 0 0 1
13.227071 -0.941251 -31.354478 34.043276 -0.071041 2.741483 -0.001762 -0.014354 825840.000000 0 0 1
13.871971 -2.221851 -31.952428 34.904525 -0.158819 2.727356 0.003687 -0.014222 328216.000000 0 0 1
12.960171 -3.290051 -31.899468 34.588532 -0.248607 2.744672 0.012782 -0.012995 370067.000000 0 0 1
13.531071 -4.402151 -32.563448 35.536558 -0.314536 2.729630 0.018430 -0.010211 370825.000000 0 0 1
12.566771 -5.617751 -32.420918 35.222135 -0.420383 2.740078 0.027379 -0.009950 -52949.300000 0 0 1
12.853171 -6.403451 -31.287828 34.425810 -0.462207 2.711310 0.020724 -0.002581 175144.000000 0 0 1
12.497771 -7.778051 -31.558188 34.822573 -0.556695 2.705139 0.016565 -0.000884 43226.100000 0 0 1
12.769571 -8.624951 -30.314268 34.005978 -0.594045 2.671308 -0.003028 0.001582 -35035.800000 0 0 1
14.147471 -8.756551 -30.014828 34.317896 -0.554236 2.635430 0.023808 0.001270 218219.000000 0 0 1
14.331971 -9.414051 -28.722058 33.451253 -0.581180 2.603376 0.023446 0.001121 -20741.100000 0 0 1
14.062371 -10.976251 -28.629278 33.732239 -0.662762 2.584359 0.006299 0.004304 -379301.000000 0 0 1
12.732671 -11.320851 -28.888278 33.538264 -0.726770 2.608723 -0.004964 0.004025 -394204.000000 0 0 1
12.559171 -12.729151 -28.934228 34.014021 -0.792120 2.588028 0.002044 -0.002731 119306.000000 0 0 1
-10.027629 -3.510251 -17.736178 20.674797 0.336726 2.601896 0.018867 0.003330 350161.000000 0 1 0
-10.779629 -2.980151 -18.797378 21.872886 0.269724 2.604875 0.020199 -0.005480 378165.000000 0 1 0
-11.843229 -3.790051 -19.298478 22.957740 0.309720 2.569203 0.025074 -0.001659 -140368.000000 0 1 0
-12.624629 -3.192551 -20.454678 24.248041 0.247690 2.574674 0.023434 -0.015762 -438157.000000 0 1 0
-13.498529 -2.155751 -20.067378 24.280799 0.158365 2.543607 0.020473 -0.016072 182413.000000 0 1 0
-14.119229 -1.610551 -21.245878 25.560396 0.113577 2.552064 0.017957 -0.014061 136043.000000 0 0 1
-14.830829 -0.257951 -21.105978 25.796944 0.017391 2.528997 0.023083 -0.011428 65405.900000 0 0 1
-14.020429 0.895149 -21.361578 25.567376 -0.063760 2.559841 0.024283 -0.011004 90603.100000 0 0 1
-14.687829 2.078749 -20.986178 25.699673 -0.140595 2.526280 0.018881 -0.002435 -356398.000000 0 0 1
-14.144829 3.355249 -21.638378 26.068243 -0.232902 2.550023 0.030333 -0.003848 583074.000000 0 0 1
-12.821129 3.712549 -21.204878 25.056161 -0.281856 2.579786 0.021332 -0.006070 954851.000000 0 0 1
-12.470629 4.952749 -21.841278 25.633723 -0.378050 2.590690 0.021116 -0.009327 1086940.000000 0 0 1
-11.209629 5.689449 -21.182878 24.632092 -0.469669 2.606009 -0.002308 -0.007794 1147710.000000 0 1 0
-11.682329 6.288449 -19.984178 23.987263 -0.493806 2.555514 0.012550 -0.011248 703969.000000 0 1 0
-10.637029 6.584349 -19.080178 22.815636 -0.554275 2.561253 0.001417 -0.006148 -535577.000000 0 1 0
-11.208229 7.016149 -17.737878 22.124264 -0.559305 2.500995 0.013034 -0.007706 233890.000000 0 1 0
-11.812629 8.315349 -17.752578 22.887491 -0.613363 2.458533 0.010646 -0.009008 332548.000000 0 1 0
-12.905429 8.456549 -16.878978 22.868389 -0.580072 2.401035 0.027068 -0.002872 -249491.000000 0 1 0
-13.514929 9.871649 -16.896378 23.782144 -0.630855 2.360955 0.028308 -0.003616 -469868.000000 0 1 0
-12.828429 10.812749 -16.119678 23.266460 -0.700342 2.336201 0.000129 0.004647 467123.000000 0 1 0
-13.571329 12.048349 -16.124778 24.276576 -0.726022 2.297235 0.007589 -0.006457 317984.000000 0 1 0
-12.805429 13.257749 -15.482778 24.072045 -0.802751 2.269447 0.006323 0.001580 -231056.000000 0 1 0
-12.849329 13.192149 -14.073978 23.177897 -0.798562 2.223348 0.029895 -0.003535 -191112.000000 0 1 0
-12.288629 14.255649 -13.416278 23.113426 -0.859366 2.190082 0.027959 -0.009794 -1128940.000000 0 1 0
-12.769129 14.507249 -11.928378 22.711168 -0.849035 2.123771 0.026440 -0.017020 1658200.000000 0 1 0
-14.089329 15.090649 -11.726578 23.743410 -0.819700 2.087351 0.031462 -0.010650 951059.000000 0 1 0
-15.185929 14.451749 -12.287678 24.299229 -0.760631 2.100968 0.026815 -0.001914 -1303390.000000 0 1 0
-16.423329 14.434249 -11.351678 24.636028 -0.721027 2.049665 0.009136 -0.005741 -591622.000000 0 1 0
-17.465829 13.921449 -12.112678 25.408245 -0.672950 2.067719 0.004142 -0.002457 71815.900000 0 0 1
-18.698629 14.117249 -11.386978 26.049927 -0.646686 2.023192 0.032327 -0.006768 435769.000000 0 0 1
-19.982129 13.844549 -12.175778 27.188354 -0.605909 2.035134 0.029269 -0.011378 -327651.000000 0 0 1
-20.210229 12.459749 -12.422078 26.795648 -0.552469 2.052834 0.033851 -0.011954 865284.000000 0 0 1
-21.518729 12.170049 -12.935978 27.901708 -0.514708 2.052880 0.052857 -0.017185 106377.000000 0 0 1
-22.076429 10.798049 -12.481178 27.563497 -0.454907 2.040717 0.048706 -0.016574 -147267.000000 0 0 1
-21.246629 9.656549 -12.684578 26.562506 -0.426588 2.068646 0.052529 -0.017184 262659.000000 0 0 1
-21.456029 8.768649 -11.706578 25.967178 -0.387967 2.038482 0.040547 -0.020604 -474764.000000 0 0 1
-20.391029 7.665849 -11.613678 24.686774 -0.359596 2.060587 0.039666 -0.017525 -435270.000000 0 1 0
-20.351029 6.704749 -12.680578 24.898094 -0.318256 2.105167 0.050444 -0.015074 249149.000000 0 1 0
-19.351929 5.730549 -12.527678 23.754559 -0.287896 2.126310 0.055805 -0.017520 -328840.000000 0 1 0
-19.358129 4.624849 -13.574878 24.091569 -0.234514 2.169376 0.056724 -0.021863 -148819.000000 0 1 0
-20.279429 3.589149 -13.366978 24.552257 -0.175171 2.146505 0.048237 -0.022438 483334.000000 0 1 0
-19.841429 2.557749 -14.224578 24.547159 -0.128202 2.188886 0.049711 -0.027897 -454376.000000 0 1 0
-20.625829 1.287649 -14.092178 25.013443 -0.062348 2.169273 0.031236 -0.017389 -1636700.000000 0 0 1
-21.936529 1.268749 -14.477678 26.313954 -0.057773 2.153388 0.031562 -0.021360 -1023100.000000 0 0 1
-22.479629 -0.017051 -14.194778 26.586194 0.000759 2.134021 0.028450 -0.025064 -412505.000000 0 0 1
-23.721929 -0.270851 -15.058878 28.099343 0.011417 2.136388 0.033128 -0.020047 -153947.000000 0 0 1
-24.898229 0.227149 -14.445978 28.786450 -0.009123 2.096512 0.059430 -0.026378 -210360.000000 0 0 1
-26.064889 -0.113851 -15.134378 30.140352 0.004368 2.096856 0.059733 -0.016927 -762775.000000 0 0 1
-27.311199 0.154349 -14.323978 30.839938 -0.005651 2.053823 0.056496 -0.016054 -886401.000000 0 0 1
-27.548949 -0.700451 -13.257378 30.580930 0.025420 2.019189 0.065443 -0.020087 -102610.000000 0 0 1
-28.806639 -0.440951 -12.689578 31.480824 0.015306 1.985686 0.071699 -0.022881 -64366.600000 0 0 1
-28.903549 -1.185851 -11.323078 31.064988 0.041005 1.943888 0.070043 -0.022817 -386265.000000 0 0 1
-29.198789 -2.579451 -11.283578 31.409266 0.088112 1.938254 0.074912 -0.027443 263646.000000 0 0 1
-28.313739 -3.531451 -11.852078 30.896775 0.124085 1.964490 0.081736 -0.026851 -333832.000000 0 0 1
-28.547549 -4.957751 -11.303578 31.101652 0.171951 1.942754 0.069891 -0.025846 -501726.000000 0 0 1
-29.814319 -5.419451 -11.709878 32.486694 0.179810 1.939548 0.067928 -0.027178 68952.800000 0 0 1
-30.096149 -6.694051 -11.142978 32.783448 0.218859 1.917603 0.063064 -0.026306 -268692.000000 0 0 1
-29.322909 -7.895651 -11.679678 32.535968 0.263027 1.937968 0.056690 -0.027245 -390653.000000 0 0 1
-27.938969 -7.886651 -11.455778 31.209295 0.275123 1.946646 0.050890 -0.025991 -254654.000000 0 0 1
-27.264439 -8.915151 -12.153478 31.153436 0.316029 1.971555 0.056551 -0.024931 275982.000000 0 0 1
-25.784769 -9.075551 -11.719178 29.741538 0.338432 1.975813 0.040934 -0.024913 40627.700000 0 0 1
-24.904629 -8.075051 -12.215078 28.890399 0.313543 2.007337 0.032946 -0.024182 592797.000000 0 0 1
-23.602129 -8.088151 -11.646378 27.533921 0.330145 2.007531 0.026073 -0.017544 231833.000000 0 0 1
-23.430429 -7.529051 -10.159178 26.624810 0.310915 1.962288 0.023648 -0.020142 -480222.000000 0 0 1
-23.757029 -6.176951 -9.937678 26.482232 0.254373 1.955472 0.028989 -0.013917 -530556.000000 0 0 1
-25.104729 -5.889551 -9.882278 27.615098 0.230432 1.936769 0.032121 -0.014873 -1443330.000000 0 0 1
-25.486479 -4.598151 -9.237578 27.496117 0.178495 1.913420 0.047710 -0.021964 -601011.000000 0 0 1
-25.384509 -4.519051 -7.835478 26.947910 0.176178 1.865821 0.039448 -0.021960 453056.000000 0 0 1
-25.691959 -3.207751 -7.419678 26.933586 0.124212 1.849886 0.053473 -0.020728 -37888.700000 0 0 1
-25.634009 -2.867251 -5.856978 26.450477 0.111390 1.794079 0.042427 -0.014242 -1128260.000000 0 0 1
-24.347729 -2.902851 -5.382578 25.103996 0.118665 1.786885 0.040419 -0.008385 -919852.000000 0 0 1
-24.282429 -2.886751 -4.004278 24.779103 0.118327 1.733107 0.031267 -0.001991 -28810.100000 0 1 0
-22.949129 -3.226751 -3.299278 23.408539 0.139689 1.712211 0.022175 -0.001534 -33049.900000 0 1 0
-22.626529 -4.607451 -3.334978 23.330463 0.200884 1.714233 0.019335 -0.001716 689825.000000 0 1 0
-21.305929 -4.956951 -2.939178 22.071537 0.228589 1.704359 0.011048 -0.003290 130752.000000 0 1 0
-21.142929 -6.487251 -2.843178 22.297792 0.297710 1.698654 0.008524 -0.003041 206746.000000 0 1 0
-21.958529 -7.058451 -1.792878 23.134674 0.311013 1.648372 0.022058 -0.003494 732356.000000 0 1 0
-22.130029 -8.419151 -2.128878 23.772935 0.363532 1.660467 -0.004303 -0.006047 -20762.100000 0 1 0
-22.816429 -9.201851 -1.015678 24.623060 0.383347 1.612057 -0.001652 -0.006161 -183423.000000 0 1 0
-21.867929 -9.704051 -0.104678 23.924588 0.417650 1.575172 -0.008161 0.000202 185533.000000 0 1 0
-22.422329 -10.512851 0.910322 24.781234 0.438424 1.534054 -0.005404 0.005826 -41093.300000 0 1 0
-21.323729 -11.153851 1.771122 24.129788 0.481935 1.497330 0.002261 0.004318 209876.000000 0 1 0
-20.510529 -12.118351 1.109722 23.848852 0.533654 1.524248 -0.000888 0.004483 94838.100000 0 1 0
-19.438929 -12.469751 1.954422 23.177282 0.570365 1.486371 -0.006614 0.006024 337259.000000 0 1 0
-18.479029 -13.531851 1.290322 22.940149 0.632064 1.514519 -0.006334 0.004218 -6991.980000 0 1 0
-19.206229 -14.740451 1.168722 24.238937 0.654597 1.522561 -0.010953 0.003601 -120440.000000 0 1 0
-18.603829 -15.891851 0.579322 24.474252 0.706942 1.547123 -0.014243 -0.002514 -235470.000000 0 1 0
-17.486929 -16.600851 1.390422 24.151899 0.759410 1.513195 -0.011701 -0.003025 -1011070.000000 0 1 0
-16.274429 -15.951951 1.279122 22.824503 0.775392 1.514725 -0.006040 -0.000222 -759814.000000 0 1 0
-15.195729 -16.615851 1.920522 22.598343 0.830010 1.485709 -0.001263 -0.004716 387787.000000 0 1 0
-15.124129 -16.573851 3.465822 22.703386 0.831102 1.417540 0.008248 -0.003781 -636991.000000 0 1 0
-14.875629 -15.242551 3.841222 21.641966 0.797580 1.392361 0.006403 -0.003633 17147.700000 0 1 0
-14.124329 -15.020451 5.021322 21.220846 0.816136 1.331909 0.005164 -0.004826 -248172.000000 0 1 0
-14.654029 -15.596651 6.366922 22.327870 0.816548 1.281627 0.010926 0.002144 -633642.000000 0 1 0
-15.335429 -14.628051 7.141622 22.364213 0.761795 1.245771 0.004135 0.006847 250938.000000 0 1 0
-15.701229 -15.012151 8.461622 23.312922 0.762966 1.199355 0.009222 0.007081 -298022.000000 0 1 0
-16.628829 -16.164651 8.801822 24.804959 0.771245 1.208052 -0.001669 0.007320 -381127.000000 0 1 0
-16.052129 -17.437151 8.518022 25.184952 0.826732 1.225773 -0.002592 0.004042 116871.000000 0 0 1
-16.823429 -18.492651 9.073122 26.595628 0.832628 1.222655 -0.000131 -0.000265 212017.000000 0 0 1
-16.346729 -18.972251 10.494122 27.153056 0.859599 1.173984 -0.009922 0.009039 572480.000000 0 0 1
-15.049329 -19.572051 10.511322 26.833475 0.915296 1.168291 0.005307 0.001132 224171.000000 0 0 1
-14.875329 -20.090051 11.822522 27.652443 0.933447 1.129027 0.008564 -0.002191 -201253.000000 0 0 1
-13.493129 -20.759451 11.952222 27.493180 0.994439 1.121053 0.010461 -0.002430 424709.000000 0 0 1
-12.426429 -19.790351 11.936522 26.240326 1.010112 1.098545 0.003899 -0.000935 -256285.000000 0 0 1
-11.258029 -20.471751 12.341022 26.422275 1.068007 1.084823 0.000889 0.002103 -159751.000000 0 0 1
-10.058829 -19.533251 12.496022 25.276046 1.095253 1.053673 0.000145 0.000425 92570.200000 0 0 1
-9.554929 -18.882951 11.334222 24.006814 1.102354 1.079096 0.002590 0.001988 -138781.000000 0 1 0
-8.419729 -18.113551 11.690922 23.144551 1.135678 1.041268 0.005273 0.003697 86015.000000 0 1 0
-7.676129 -17.438151 10.528922 21.768562 1.156129 1.065947 -0.006024 0.000267 78996.300000 0 1 0
-6.687229 -18.294951 9.974322 21.884044 1.220360 1.097547 -0.005854 0.001140 -88834.300000 0 1 0
-5.875829 -17.586751 9.050922 20.633428 1.248351 1.116697 -0.003091 0.000649 -485652.000000 0 1 0
-4.734129 -18.351251 8.420222 20.738383 1.318328 1.152700 -0.000544 -0.004117 -527365.000000 0 1 0
-3.662629 -18.594551 9.269422 21.097260 1.376313 1.115903 0.001473 0.004478 -355009.000000 0 1 0
-2.499729 -19.058351 8.604822 21.059733 1.440379 1.149886 0.004293 -0.004406 256628.000000 0 1 0
-1.269029 -19.431551 9.447822 21.643866 1.505581 1.119077 0.007655 0.001104 -780121.000000 0 1 0
-0.306729 -19.825751 8.535322 21.587177 1.555326 1.164306 0.024642 0.000313 -1271980.000000 0 1 0
0.781171 -20.238351 9.338122 22.302502 -1.532217 1.138780 0.035224 0.004378 -51011.400000 0 1 0
2.014071 -20.692051 8.506222 22.462708 -1.473766 1.182425 0.044996 -0.012489 -277135.000000 0 1 0
1.959671 -21.962051 7.916822 23.427507 -1.481802 1.226081 0.029005 -0.008572 -248226.000000 0 1 0
2.219471 -23.009351 8.823922 24.743037 -1.474634 1.206146 0.025238 -0.002859 -147608.000000 0 1 0
1.617471 -24.356151 8.378322 25.807646 -1.504485 1.240160 0.007660 -0.006278 132107.000000 0 0 1
1.765571 -25.410841 9.250822 27.099922 -1.501427 1.222433 0.011294 -0.004658 -283353.000000 0 0 1
1.260371 -26.595341 8.665222 27.999764 -1.523441 1.256156 0.018076 -0.007819 -658633.000000 0 0 1
1.381171 -27.852521 9.545022 29.475040 -1.521248 1.241017 0.023923 -0.003746 446294.000000 0 0 1
0.747171 -27.756591 10.828722 29.803487 -1.543884 1.198949 0.011830 -0.012194 681601.000000 0 0 1
-0.664929 -27.512851 10.870422 29.589951 1.546633 1.194618 -0.000326 -0.003833 410037.000000 0 0 1
-1.116829 -27.608681 12.312322 30.250287 1.530366 1.151613 0.000034 -0.006007 -216436.000000 0 0 1
-0.911129 -28.847921 12.912822 31.619198 1.539223 1.150112 -0.000077 -0.009723 -114867.000000 0 0 1
-0.881329 -28.763441 14.333022 32.148838 1.540165 1.108691 -0.004939 -0.005228 -478050.000000 0 0 1
-0.823029 -30.119891 15.049222 33.680325 1.543478 1.107583 -0.010391 -0.000644 93653.600000 0 0 1
-0.775829 -29.800051 16.430022 34.038075 1.544768 1.067067 -0.005400 -0.000509 2927.220000 0 0 1
-0.415329 -30.883271 17.245322 35.374427 1.557349 1.061563 -0.004607 0.000732 -55129.200000 0 0 1
-0.727229 -30.558461 18.700322 35.833650 1.547003 1.021761 -0.005007 0.002044 492228.000000 0 0 1
-2.133929 -30.549981 18.933522 36.004628 1.501059 1.017066 -0.006473 0.000874 492039.000000 0 0 1
-2.433129 -30.142891 20.267222 36.404317 1.490251 0.980357 -0.001337 -0.001668 -374628.000000 0 0 1
-3.863229 -30.406291 20.735522 37.005796 1.444420 0.976010 0.010709 -0.000709 -799272.000000 0 0 1
-4.781029 -29.558231 20.137822 36.084334 1.410436 0.978730 0.009768 -0.003791 -342096.000000 0 0 1
-5.994229 -29.321711 20.808822 36.451346 1.369145 0.963236 0.012015 -0.007861 170285.000000 0 0 1
-5.857729 -28.242571 21.931622 36.234678 1.366288 0.920696 0.013710 -0.012604 -497528.000000 0 0 1
-5.183929 -28.624311 23.137522 37.169466 1.391636 0.898879 0.012169 -0.010354 69250.300000 0 0 1
-5.174229 -27.614201 24.123022 37.030217 1.385568 0.861313 0.013591 -0.011649 -499208.000000 0 0 1
-4.087929 -27.818201 25.200622 37.757580 1.424889 0.840041 0.022778 -0.014934 7408.810000 0 0 1
-4.274029 -29.033401 25.927022 39.158858 1.424635 0.847181 0.022509 -0.015199 181379.000000 0 0 1
-3.626429 -30.142171 25.313422 39.528101 1.451061 0.875790 0.022671 -0.013569 -71900.200000 0 0 1
-3.999229 -31.472281 26.052422 41.051516 1.444402 0.883270 0.018071 -0.007259 -232534.000000 0 0 1
-3.526529 -31.503111 27.365422 41.877783 1.459318 0.858651 0.023188 -0.016181 132798.000000 0 0 1
-4.018629 -32.583201 28.135122 43.236552 1.448082 0.862257 0.022711 -0.010868 -389684.000000 0 0 1
-3.686929 -32.601511 29.615622 44.198835 1.458184 0.836514 0.023297 -0.011081 -130276.000000 0 0 1
-2.383229 -33.094181 29.863122 44.639788 1.498907 0.837961 0.010194 -0.014356 251615.000000 0 0 1
-2.093929 -32.892191 31.254422 45.421577 1.507222 0.811934 0.011820 -0.012917 -187725.000000 0 0 1
-28.127339 3.084149 -10.182278 30.072213 -0.109213 1.916219 0.060034 -0.010221 195451.000000 0 0 1
-28.820759 2.730949 -11.394278 31.111474 -0.094474 1.945762 0.050032 -0.023994 391009.000000 0 0 1
-29.532799 3.883749 -11.885378 32.070733 -0.130756 1.950450 0.024109 -0.020183 58001.100000 0 0 1
-30.434179 3.521949 -13.107178 33.323288 -0.115211 1.975051 0.028734 -0.013214 -680405.000000 0 0 1
-31.539759 2.808949 -12.657878 34.100857 -0.088826 1.951086 0.040195 -0.017161 -264853.000000 0 0 1
-32.396169 2.646449 -13.799678 35.312131 -0.081509 1.972288 0.042781 -0.017970 -298803.000000 0 0 1
-33.572589 1.740049 -13.526078 36.236740 -0.051783 1.953327 0.037115 -0.020404 -340114.000000 0 0 1
-33.104799 0.400549 -13.372678 35.705975 -0.012099 1.954678 0.054729 -0.018765 -5486.800000 0 0 1
-34.165726 -0.472151 -13.134978 36.606658 0.013819 1.937793 0.039230 -0.023500 -964709.000000 0 0 1
-33.742299 -1.780651 -12.495378 36.025657 0.052723 1.925003 0.049025 -0.024402 -89512.600000 0 0 1
-33.023149 -2.601351 -13.401678 35.733743 0.078611 1.955239 0.041916 -0.018720 322574.000000 0 0 1
-32.654109 -3.868551 -12.900578 35.322534 0.117921 1.944668 0.049200 -0.022183 114381.000000 0 0 1
-33.057289 -5.036251 -13.869978 36.201167 0.151187 1.963986 0.048649 -0.012939 153225.000000 0 0 1
-32.740219 -6.330951 -13.409978 35.942042 0.191012 1.953144 0.046784 -0.017745 384130.000000 0 0 1
-33.423659 -7.346451 -14.195578 37.048964 0.216358 1.964008 0.047180 -0.013959 -27870.400000 0 0 1
-33.240419 -8.761051 -13.536978 36.944976 0.257706 1.945943 0.045089 -0.016007 1186360.000000 0 0 1
-31.873529 -9.268351 -13.456078 35.817457 0.282982 1.955932 0.041105 -0.017453 1603410.000000 0 0 1
-31.313489 -9.652451 -14.706278 35.916278 0.299010 1.992658 0.029230 -0.015620 -34489.900000 0 0 1
-29.956249 -10.399051 -14.651278 34.931033 0.334126 2.003619 0.032682 -0.017666 165954.000000 0 0 1
-30.163219 -11.697951 -14.002778 35.252512 0.369964 1.979275 0.026241 -0.016823 828423.000000 0 0 1
-28.946269 -12.386451 -13.689078 34.332223 0.404334 1.980921 0.038203 -0.021612 350211.000000 0 0 1
-29.116779 -13.844551 -14.173778 35.218666 0.443843 1.984989 0.044287 -0.025526 21499.200000 0 0 1
-29.256929 -13.910351 -15.550878 35.934601 0.443819 2.018343 0.041713 -0.021097 140705.000000 0 0 1
-29.528269 -15.140251 -16.219878 36.935489 0.473786 2.025438 0.052103 -0.020471 -282155.000000 0 0 1
-28.446689 -16.231251 -16.047078 36.471583 0.518510 2.026382 0.021720 -0.013162 331332.000000 0 0 1
-27.229819 -15.857651 -16.703278 35.664095 0.527350 2.058219 0.018675 -0.015215 343748.000000 0 0 1
-26.378779 -17.041751 -16.737778 35.586718 0.573586 2.060470 0.010976 -0.013786 -52062.900000 0 0 1
-25.017329 -16.670451 -17.300178 34.685254 0.587788 2.092983 0.000538 -0.018101 -490791.000000 0 0 1
-25.091049 -16.270351 -18.644178 35.240466 0.575287 2.128284 0.014857 -0.022596 -938352.000000 0 0 1
-23.825529 -16.059451 -19.147278 34.527961 0.593092 2.158611 0.012521 -0.011851 -1071150.000000 0 0 1
-23.857729 -15.526951 -20.602778 35.139037 0.576947 2.197307 0.020112 -0.013960 80262.000000 0 0 1
-24.302929 -16.476351 -21.613778 36.458989 0.595779 2.205358 0.014081 -0.023249 1059510.000000 0 0 1
-25.728849 -16.430151 -21.781278 37.501301 0.568311 2.190525 0.028942 -0.026587 644903.000000 0 0 1
-26.277879 -17.678551 -22.523578 38.863475 0.592205 2.188981 0.027669 -0.025281 19165.700000 0 0 1
-25.628889 -17.817151 -23.759878 39.227830 0.607496 2.221428 0.022168 -0.009046 95911.700000 0 0 1
-26.155019 -18.974851 -24.355778 40.463983 0.627620 2.216690 0.026266 -0.004088 -609373.000000 0 0 1
-25.608009 -19.276651 -25.781978 41.134776 0.645264 2.248195 0.013482 -0.002672 157386.000000 0 0 1
-24.287429 -19.773451 -25.781418 40.565380 0.683306 2.259520 0.009710 -0.009359 -173627.000000 0 0 1
-24.026829 -21.079351 -25.226958 40.718877 0.720146 2.238952 0.013935 -0.007807 -998046.000000 0 0 1
-22.586629 -21.570151 -25.104698 40.070851 0.762382 2.247861 0.008840 0.003401 -77446.200000 0 0 1
-21.987329 -21.599951 -26.415268 40.592695 0.776511 2.279354 0.008057 -0.003269 229230.000000 0 0 1
-20.573829 -21.704551 -26.341328 39.852673 0.812136 2.292904 0.002456 -0.006137 482506.000000 0 0 1
-19.848929 -21.789051 -27.730708 40.468937 0.831959 2.325722 0.004232 -0.005579 -294475.000000 0 0 1
-20.243129 -22.924351 -28.482058 41.791599 0.847431 2.320642 0.036120 -0.012107 -44707.500000 0 0 1
-20.878729 -22.577151 -29.715458 42.762805 0.824462 2.339064 0.032854 -0.004600 -100994.000000 0 0 1
-19.894929 -22.554851 -30.902538 43.121878 0.847977 2.369758 0.038558 -0.015166 173198.000000 0 0 1
-19.577729 -23.867651 -31.357708 44.002933 0.883822 2.364033 0.048903 -0.026701 53260.800000 0 0 1
-18.835829 -23.836651 -32.566468 44.537055 0.902057 2.390908 0.054425 -0.025956 111457.000000 0 0 1
-18.368329 -25.171241 -33.191598 45.526575 0.940392 2.387744 0.061097 -0.018248 -137870.000000 0 0 1
-17.770929 -24.987651 -34.457112 46.124627 0.952601 2.414400 0.062916 -0.019745 249887.000000 0 0 1
-18.659529 -24.703651 33.479872 45.599893 0.923890 0.746295 0.052703 -0.011634 -223958.000000 0 0 1
-17.849029 -24.559951 32.183945 44.244608 0.942340 0.756257 0.047139 -0.004839 282687.000000 0 0 1
-17.204729 -23.302251 31.893225 43.083354 0.934807 0.737328 0.038936 -0.010943 345513.000000 0 0 1
-16.317929 -23.329351 30.762395 41.914894 0.960433 0.746713 0.040804 -0.007385 873757.000000 0 0 1
-15.530829 -21.984451 30.573165 40.733784 0.955757 0.721887 0.027933 -0.007344 292943.000000 0 0 1
-16.464629 -20.929551 30.332155 40.362975 0.904237 0.720487 0.032256 -0.009060 40501.600000 0 0 1
-15.983029 -19.615351 30.145535 39.356988 0.887082 0.698277 0.026630 -0.007814 158302.000000 0 0 1
-15.000229 -19.152551 31.301425 39.643490 0.906385 0.660684 0.024715 -0.010274 640149.000000 0 0 1
-14.420929 -17.872151 31.141645 38.693397 0.891866 0.635406 0.026500 -0.010640 -167499.000000 0 0 1
-13.680429 -17.371651 32.215945 39.074230 0.903715 0.601513 0.029587 -0.010935 -270079.000000 0 0 1
-13.272729 -15.955051 31.939105 38.089833 0.876915 0.576234 0.026510 -0.008799 -285423.000000 0 0 1
-12.174729 -15.961851 31.038125 36.964441 0.919192 0.574111 0.027647 -0.012946 32625.300000 0 0 1
-11.873129 -14.640251 30.595035 35.935557 0.889389 0.552174 0.020155 -0.007570 -299370.000000 0 0 1
-10.366829 -14.385351 30.604955 35.370506 0.946344 0.525112 0.040044 -0.017354 -251273.000000 0 0 1
-10.063729 -13.015351 30.351845 34.524085 0.912599 0.496721 0.046354 -0.015855 154179.000000 0 0 1
-8.706729 -12.727851 30.697965 34.353608 0.970842 0.465521 0.034401 -0.016198 377748.000000 0 0 1
-8.384029 -11.190351 30.700185 33.734511 0.927795 0.427385 0.026440 -0.010572 4570.080000 0 0 1
-8.989529 -10.492651 31.792655 34.665260 0.862399 0.409969 0.027337 -0.008188 119600.000000 0 0 1
-8.804029 -9.086551 31.655545 34.090319 0.801189 0.380232 0.024846 -0.005417 -505269.000000 0 0 1
-9.606729 -8.208351 32.647405 35.007418 0.707065 0.369286 0.004499 -0.009728 -124385.000000 0 0 1
-10.989429 -8.266251 32.351955 35.153199 0.644908 0.401916 0.018377 -0.014321 423411.000000 0 0 1
-11.895929 -7.565651 33.238207 36.104440 0.566461 0.401150 0.008583 -0.009266 521214.000000 0 0 1
-11.685329 -6.075351 33.571974 36.062920 0.479451 0.373851 -0.005120 0.002206 -643903.000000 0 0 1
-11.975729 -5.166651 32.508195 35.027062 0.407302 0.381552 -0.002408 0.001680 218177.000000 0 0 1
-12.056729 -3.851351 33.039629 35.380993 0.309191 0.365838 -0.006552 0.000576 -472121.000000 0 0 1
-11.561629 -2.666551 32.222185 34.337311 0.226674 0.352821 -0.009745 0.003977 -477051.000000 0 0 1
-10.171629 -2.536351 32.288965 33.948083 0.244372 0.313929 -0.004512 0.001104 -415904.000000 0 0 1
-9.721529 -1.534051 31.373665 32.881123 0.156509 0.303975 -0.007324 0.005945 359275.000000 0 0 1
-8.212429 -1.230651 31.609595 32.682181 0.148745 0.256904 -0.004164 0.006373 313895.000000 0 0 1
-7.991929 -0.577351 32.845745 33.808981 0.072116 0.239278 -0.009788 -0.005759 646835.000000 0 0 1
-6.638329 -0.104451 32.914695 33.577603 0.015733 0.199037 0.008447 -0.007320 640072.000000 0 0 1
-6.469429 0.722149 34.212311 34.826100 -0.111165 0.188023 0.022880 -0.011841 -384046.000000 0 0 1
-7.091729 2.015449 34.212624 34.997975 -0.276896 0.212247 0.020647 -0.016955 -14322.700000 0 0 1
-6.526729 2.955049 33.307533 34.069374 -0.425148 0.211874 0.031029 -0.014138 -266494.000000 0 0 1
-7.241029 4.329349 33.186104 34.241689 -0.538868 0.248947 0.033028 -0.012356 754195.000000 0 0 1
-8.584429 4.202249 32.676685 34.045808 -0.455228 0.284558 0.005230 -0.000340 614019.000000 0 0 1
-9.249329 5.406449 32.909465 34.609430 -0.528962 0.314725 -0.000793 0.000212 -140850.000000 0 0 1
-10.719429 5.446649 32.444165 34.600520 -0.470115 0.354908 -0.014281 0.009893 321693.000000 0 0 1
-11.412629 6.685849 32.634735 35.213273 -0.529934 0.385066 -0.017064 0.006740 141626.000000 0 0 1
-12.725129 6.622749 32.113045 35.171542 -0.479871 0.420119 -0.023206 0.008033 -263514.000000 0 0 1
-13.482929 7.917349 32.247245 35.837949 -0.530964 0.451469 -0.016435 0.004805 -501428.000000 0 0 1
-13.979229 8.059549 33.562952 37.240393 -0.522989 0.448148 -0.010791 0.003290 -331998.000000 0 0 1
-14.834429 9.122549 33.710213 37.942847 -0.551345 0.476846 -0.000014 0.004886 -459871.000000 0 0 1
-15.506729 9.300649 -33.985298 38.496249 -0.540259 2.652631 0.012857 0.011224 191032.000000 0 0 1
-14.548529 9.539649 -32.976418 37.284162 -0.580380 2.656136 0.004958 0.004302 -71143.000000 0 0 1
-15.171529 9.614249 -31.784428 36.508341 -0.564833 2.627232 0.008513 0.003072 -1286410.000000 0 0 1
-14.136429 9.797449 -30.725268 35.211798 -0.606056 2.631265 0.010748 -0.008016 -131054.000000 0 0 1
-13.384629 11.016049 -30.733488 35.285251 -0.688631 2.628032 0.026234 -0.008998 30378.900000 0 0 1
-12.080229 10.921849 -31.263278 35.250692 -0.735081 2.661353 0.022989 -0.015790 -486312.000000 0 0 1
-11.367529 12.227749 -31.387788 35.551818 -0.821839 2.652744 0.012955 -0.015712 -257920.000000 0 0 1
-11.985329 13.236949 -32.186318 36.807934 -0.834981 2.635076 0.010386 -0.019527 41824.700000 0 0 1
-11.087729 14.323249 -32.211198 36.954762 -0.912044 2.629332 -0.004287 -0.010918 -136874.000000 0 0 1
-11.306729 15.498149 -31.223548 36.646210 -0.940510 2.590641 0.005613 -0.006896 -1101300.000000 0 0 1
-12.507929 16.124149 -31.460208 37.499082 -0.911033 2.566165 0.007581 -0.012091 -817857.000000 0 0 1
-12.630029 17.247949 -30.701778 37.411342 -0.938744 2.533351 0.004152 -0.008852 -187567.000000 0 0 1
-14.065929 17.817049 -30.666908 38.154382 -0.902513 2.504382 -0.008909 -0.015217 -301955.000000 0 0 1
-14.549729 18.291449 -31.907498 39.551993 -0.898843 2.509382 -0.010322 -0.015270 190373.000000 0 0 1
-15.843229 18.867149 -31.991288 40.378456 -0.872297 2.485343 -0.011294 -0.014083 380554.000000 0 0 1
-16.149029 20.139349 -31.106968 40.423112 -0.894920 2.448908 -0.027099 -0.007790 -613105.000000 0 0 1
-15.625129 21.282849 -31.674318 41.235503 -0.937507 2.446715 -0.029735 -0.001652 45392.100000 0 0 1
-16.054929 22.538849 -31.112368 41.638202 -0.951848 2.414646 -0.030491 0.001669 247252.000000 0 0 1
-17.383529 23.164249 -31.644558 42.896941 -0.927010 2.400436 -0.021968 0.001911 85953.500000 0 0 1
-18.520029 22.688749 -30.984698 42.635928 -0.886216 2.384342 -0.008614 -0.009853 -691111.000000 0 0 1
-19.586629 22.623949 -31.856368 43.707062 -0.857231 2.387453 0.009686 -0.008855 -830160.000000 0 0 1
-20.804529 21.794349 -31.356598 43.486300 -0.808630 2.376139 0.020963 -0.020332 -160305.000000 0 0 1
-21.675829 22.290549 -30.351448 43.450208 -0.799379 2.344143 0.044833 -0.016390 777605.000000 0 0 1
-22.617429 23.270349 -30.819068 44.753460 -0.799626 2.330410 0.052157 -0.010982 95658.100000 0 0 1
-23.872729 22.750649 -31.562668 45.647576 -0.761336 2.334280 0.058273 -0.024702 -568315.000000 0 0 1
-23.619429 22.123149 -32.843888 46.108916 -0.752699 2.363582 0.067651 -0.011422 -975762.000000 0 0 1
-24.763829 21.908549 -33.551448 47.105535 -0.724297 2.363511 0.077900 -0.011024 -1093730.000000 0 0 1
-24.563929 20.893349 34.298717 47.077814 -0.704825 0.754588 0.072650 0.002544 -68225.900000 0 0 1
-24.402529 19.572549 -34.257389 46.391128 -0.676002 2.401561 0.066145 -0.006435 148434.000000 0 0 1
-24.150029 18.837049 33.632474 45.488478 -0.662427 0.738673 0.051593 -0.015893 -332976.000000 0 0 1
-23.539329 17.460049 33.844826 44.770811 -0.638193 0.713681 0.040438 -0.004552 -415334.000000 0 0 1
-24.452729 16.432249 34.177831 45.122931 -0.591686 0.711416 0.045788 -0.002898 270616.000000 0 0 1
-24.774929 15.706749 33.017619 44.166302 -0.565029 0.726393 0.051399 -0.003483 -292621.000000 0 0 1
-25.723349 14.503849 33.170623 44.411063 -0.513407 0.727409 0.037425 0.001973 -563860.000000 0 0 1
-27.038259 14.841349 33.476726 45.519493 -0.502000 0.744485 0.045806 0.001737 217115.000000 0 0 1
-28.062379 13.796849 33.463905 45.800470 -0.456945 0.751530 0.036341 0.003138 958074.000000 0 0 1
-28.009509 12.640649 -34.526634 46.221284 -0.423933 2.414313 0.017684 -0.003744 -1021250.000000 0 0 1
-26.923299 11.825149 34.313693 45.189907 -0.413850 0.708526 0.015141 -0.003180 -902165.000000 0 0 1
-27.166539 10.518049 -34.287264 44.991851 -0.369397 2.437312 0.025289 -0.006279 310555.000000 0 0 1
-25.856859 9.674449 -34.151493 43.914651 -0.358029 2.461761 0.018527 -0.007520 840145.000000 0 0 1
-25.066029 9.311949 33.751738 43.060399 -0.355696 0.669998 0.014930 0.004276 683162.000000 0 0 1
-24.107329 10.286749 33.385506 42.444935 -0.403315 0.665577 0.009793 0.004247 44585.200000 0 0 1
-22.915129 9.821649 32.508605 40.968003 -0.404924 0.654238 0.017834 0.006315 298114.000000 0 0 1
-23.317629 9.672149 31.154245 40.097996 -0.393199 0.680985 0.018304 0.012740 609674.000000 0 0 1
-22.232229 9.102149 30.413825 38.757217 -0.388594 0.668541 0.004724 0.018201 531628.000000 0 0 1
-22.371729 9.153449 28.883755 37.663658 -0.388371 0.696821 0.020647 0.013114 -121916.000000 0 0 1
-22.440829 10.505749 28.419155 37.704243 -0.437847 0.717063 0.025142 0.005692 196581.000000 0 0 1
-22.213729 10.607149 27.004775 36.540652 -0.445490 0.739161 0.022156 0.003989 -850857.000000 0 0 1
-22.503029 12.055849 26.447035 36.758339 -0.491832 0.767737 0.027873 0.000522 926978.000000 0 0 1
-23.843629 12.534649 26.616095 37.868886 -0.483997 0.791402 0.038944 -0.003896 469658.000000 0 0 1
-24.848029 11.899149 25.864315 37.788584 -0.446607 0.816950 0.035590 -0.001771 -450455.000000 0 0 1
-26.228069 12.510849 26.187785 39.118193 -0.445081 0.837324 0.031729 -0.000503 -121614.000000 0 0 1
-26.469639 13.740249 25.534955 39.261561 -0.478806 0.862711 0.046890 -0.012413 -990214.000000 0 0 1
-27.658709 14.280749 25.973085 40.540660 -0.476618 0.875429 0.035557 -0.012437 -750475.000000 0 0 1
-27.900879 15.622149 25.199735 40.712863 -0.510424 0.903375 0.047615 -0.019969 -360200.000000 0 0 1
-27.056389 16.667549 25.562505 40.783539 -0.552123 0.893376 0.051436 -0.019173 -342253.000000 0 0 1
-27.246729 17.816549 24.686065 40.856033 -0.579110 0.922009 0.042884 -0.018265 -211937.000000 0 0 1
-21.649529 -10.068351 32.044975 39.961909 0.435308 0.640348 0.006208 -0.019010 -658977.000000 0 0 1
-20.904829 -9.423351 31.013235 38.569835 0.423497 0.636670 0.001824 -0.008705 263626.000000 0 0 1
-21.687429 -9.389751 29.847435 38.070741 0.408592 0.669714 0.006365 -0.008376 443053.000000 0 0 1
-20.843329 -8.677251 28.719565 36.531527 0.394486 0.666228 0.012340 -0.012185 120314.000000 0 0 1
-20.698129 -7.280251 28.934275 36.312627 0.338219 0.648799 0.012107 -0.011112 522951.000000 0 0 1
-19.508529 -6.895051 29.647225 36.153594 0.339734 0.609324 0.012337 -0.004987 1882860.000000 0 0 1
-18.103129 -6.918351 28.851485 34.756223 0.365036 0.591492 0.019310 -0.004808 1179310.000000 0 0 1
-17.510529 -8.214451 28.520105 34.460009 0.438636 0.595926 0.012002 -0.016289 543631.000000 0 0 1
-17.090129 -9.001151 29.651235 35.387695 0.484769 0.577378 0.017551 -0.013451 -511440.000000 0 0 1
-15.755929 -8.666551 30.361945 35.287478 0.502882 0.534709 0.026421 -0.010147 798563.000000 0 0 1
-14.619129 -9.205951 29.618075 34.288465 0.561986 0.528050 0.018794 -0.008524 1387900.000000 0 0 1
-13.370329 -8.660351 30.106315 34.061086 0.574777 0.486677 0.027863 -0.013394 801067.000000 0 0 1
-12.160429 -9.489651 29.671595 33.441487 0.662657 0.479406 0.033780 -0.012183 -377816.000000 0 0 1
-11.938829 -9.491651 28.284345 32.134580 0.671699 0.494547 0.039363 -0.013931 187508.000000 0 0 1
-10.811829 -10.339751 28.004125 31.749600 0.763083 0.490641 0.046766 -0.010119 308931.000000 0 0 1
-10.159229 -10.216951 26.616085 30.265690 0.788231 0.496166 0.045031 -0.012433 -331676.000000 0 0 1
-11.010029 -10.587151 25.585695 29.798260 0.765820 0.538204 0.033559 -0.010933 -515499.000000 0 0 1
-10.526029 -10.258451 24.303815 28.402614 0.772525 0.543915 0.024591 -0.011931 -333317.000000 0 0 1
-11.510029 -10.631851 23.201245 27.996692 0.745758 0.593991 0.017707 -0.009663 -982928.000000 0 0 1
-11.640629 -12.045051 23.052545 28.495742 0.802471 0.628378 0.020861 -0.006624 499607.000000 0 0 1
-12.890029 -12.408751 22.465445 28.719787 0.766377 0.672561 0.013730 -0.001257 262415.000000 0 0 1
-14.146929 -12.206051 23.305045 29.870527 0.711882 0.675808 0.006563 -0.001269 -987055.000000 0 0 1
-15.298029 -12.789151 22.720645 30.229452 0.696310 0.720302 0.005225 0.011947 758671.000000 0 0 1
-16.432929 -12.737151 23.607245 31.457561 0.659372 0.722058 0.007260 0.012267 799016.000000 0 0 1
-17.648629 -13.558151 23.121545 32.092108 0.655065 0.766310 0.029918 0.007457 -266703.000000 0 0 1
-17.326029 -14.947751 23.159845 32.557717 0.711840 0.779383 0.029401 0.002643 -324078.000000 0 0 1
-18.425629 -15.742851 22.921445 33.357665 0.707043 0.813249 0.042075 -0.000409 -958020.000000 0 0 1
-19.448129 -15.893251 24.042385 34.768684 0.685149 0.807239 0.033594 -0.000588 -673160.000000 0 0 1
-19.050529 -16.651051 25.209235 35.716742 0.718290 0.787230 0.033595 0.002432 -338819.000000 0 0 1
-19.958829 -16.491551 26.227635 36.853968 0.690560 0.778933 0.035274 0.002188 -471958.000000 0 0 1
-19.545529 -17.356451 27.457575 37.910322 0.726146 0.760811 0.035458 -0.000200 7236.800000 0 0 1
-19.564729 -18.771251 27.269115 38.454429 0.764703 0.782536 0.039462 0.001032 276477.000000 0 0 1
-19.387829 -19.500051 28.510035 39.610125 0.788284 0.767331 0.030620 -0.004144 -250383.000000 0 0 1
-19.320529 -21.082951 28.387645 40.294318 0.828991 0.789068 0.041445 0.000171 -116560.000000 0 0 1
-20.576429 -21.696151 28.222255 41.117004 0.811880 0.814285 0.040824 0.000844 -41989.700000 0 0 1
-20.387229 -22.938451 27.582015 41.262321 0.844215 0.838666 0.046781 0.002631 217328.000000 0 0 1
-21.694929 -23.648551 27.168455 42.048173 0.828456 0.868298 0.042040 0.013639 137751.000000 0 0 1
-22.549429 -24.145851 28.176335 43.421247 0.819573 0.864650 0.045509 0.016532 369608.000000 0 0 1
-23.712529 -24.771251 27.630125 44.037742 0.807231 0.892562 0.032179 0.019497 317973.000000 0 0 1
-24.445029 -25.665531 28.619255 45.555907 0.809750 0.891530 0.015339 0.025680 -434238.000000 0 0 1
-25.138769 -24.988331 29.626775 46.196539 0.782397 0.874579 0.014288 0.025674 -208686.000000 0 0 1
-25.597579 -25.818551 30.623515 47.535600 0.789696 0.870790 0.010795 0.020884 -428383.000000 0 0 1
-26.519529 -25.116191 31.620335 48.311014 0.758227 0.857254 0.011443 0.022337 -734005.000000 0 0 1
-27.579529 -24.587151 30.903085 48.168029 0.728099 0.874255 0.000811 0.024291 -1299950.000000 0 0 1
-28.709139 -24.502151 31.719465 49.302074 0.706500 0.871904 0.009846 0.009746 -1021980.000000 0 0 1
-29.814799 -23.849751 30.901375 49.118508 0.674698 0.890377 0.011746 0.007879 -992682.000000 0 0 1
-30.434559 -24.792751 30.080655 49.454916 0.683595 0.916950 0.002788 0.007097 -51137.000000 0 0 1
-31.712089 -24.443751 29.579215 49.780353 0.656682 0.934532 -0.001565 0.005340 811260.000000 0 0 1
-32.825359 -25.178101 30.423445 51.351991 0.654313 0.936701 -0.008875 0.000329 61226.700000 0 0 1
-32.770329 -26.590041 30.324385 51.966268 0.681657 0.947716 0.000759 -0.005317 -652385.000000 0 0 1
-33.920119 -27.141111 30.837575 53.274482 0.674831 0.953487 0.002647 0.001051 -662926.000000 0 0 1
-33.632879 -28.624971 31.213365 54.081731 0.705133 0.955560 0.008721 -0.004127 -569820.000000 0 0 1
-32.696199 -28.807211 32.182195 54.171861 0.722250 0.934680 0.007696 0.001073 -905780.000000 0 0 1
-32.576959 -30.209061 32.451345 55.017592 0.747702 0.939941 0.007902 -0.003943 446803.000000 0 0 1
-31.613819 -30.631301 33.611423 55.384455 0.769615 0.918674 0.012983 0.001212 580417.000000 0 0 1
-32.137179 -30.189501 -34.188951 55.795059 0.754159 2.230344 0.008111 0.004751 -13085.100000 0 0 1
-31.128139 -30.324871 -33.216018 54.697922 0.772328 2.223407 0.003391 0.004690 69468.200000 0 0 1
-31.565109 -29.897891 -31.805668 53.868734 0.758279 2.202387 0.006080 0.004298 -204246.000000 0 0 1
-31.772279 -28.533901 -31.427638 53.022237 0.731751 2.205235 0.013919 0.003792 199052.000000 0 0 1
-30.629799 -27.673671 -31.511598 51.932624 0.734739 2.222798 0.016259 0.010489 127637.000000 0 0 1
-30.866739 -26.174951 -31.193238 51.096984 0.703331 2.227452 0.021394 0.006413 -137730.000000 0 0 1
-31.279989 -25.893291 -29.857818 50.402277 0.691458 2.204819 0.014514 -0.003115 98909.900000 0 0 1
-31.278609 -24.465351 -29.728068 49.605068 0.663777 2.213416 0.015186 -0.002928 -147319.000000 0 0 1
-30.130589 -23.945951 -28.839668 48.093528 0.671525 2.213870 0.025645 -0.003040 -109672.000000 0 0 1
-29.809869 -22.644651 -29.225458 47.492483 0.649640 2.233652 0.027423 -0.001707 371122.000000 0 0 1
-28.793109 -22.102051 -28.380618 46.076060 0.654680 2.234390 0.035162 -0.004794 258517.000000 0 0 1
-28.582489 -20.614751 -28.770708 45.493739 0.624837 2.255457 0.038660 -0.017322 36912.400000 0 0 1
-27.992839 -20.286051 -30.028548 45.791228 0.627103 2.285999 0.036379 -0.007484 407867.000000 0 0 1
-27.803059 -18.867951 -30.141388 45.138819 0.596238 2.301977 0.029532 -0.006584 -164270.000000 0 0 1
-27.262579 -18.410051 -31.544688 45.576809 0.593946 2.335220 0.029341 -0.005667 593825.000000 0 0 1
-28.179429 -18.196951 -32.661458 46.818587 0.573384 2.342863 0.023084 -0.010105 216445.000000 0 0 1
-29.003889 -17.090251 -32.436998 46.748915 0.532470 2.337626 0.015181 -0.002818 -892938.000000 0 0 1
-29.651739 -16.578851 -33.715508 47.862505 0.509817 2.352408 0.014916 -0.009840 122001.000000 0 0 1
-30.611469 -17.436451 -34.325220 49.186508 0.517770 2.343199 0.012636 -0.013893 621102.000000 0 0 1
-31.950879 -17.162451 -33.896348 49.642429 0.492925 2.322398 0.012290 -0.009066 470029.000000 0 0 1
-32.947659 -17.766751 34.122145 50.651026 0.494546 0.831631 0.013713 -0.015658 -214286.000000 0 0 1
-32.981179 -19.185651 33.980082 51.092987 0.526866 0.843217 0.003158 -0.009383 -434034.000000 0 0 1
-33.833619 -19.440551 32.921895 51.053893 0.521528 0.869975 0.000191 -0.004028 -783991.000000 0 0 1
-34.449510 -20.818351 33.061977 52.089027 0.543586 0.883149 0.002954 -0.010535 -109369.000000 0 0 1
-33.541709 -21.916951 33.155458 52.006570 0.578778 0.879516 0.002428 -0.008768 98645.400000 0 0 1
-34.116832 -22.937951 33.959125 53.322884 0.591917 0.880380 0.001572 -0.006635 -938770.000000 0 0 1
-33.100529 -24.059651 34.171054 53.312032 0.628530 0.875044 0.003464 -0.000481 402704.000000 0 0 1
-32.031739 -23.885951 -33.972678 52.447248 0.640741 2.275423 0.001049 -0.004067 200956.000000 0 0 1
-31.092939 -22.909451 -34.395619 51.717235 0.635003 2.298385 0.003246 -0.006470 -771469.000000 0 0 1
-29.860269 -22.786551 -33.431538 50.284494 0.651836 2.298086 0.009687 -0.003049 94185.400000 0 0 1
-28.887389 -23.763751 -33.702978 50.349656 0.688391 2.304168 0.012596 0.007541 876408.000000 0 0 1
-27.611659 -23.635151 -33.035568 49.115912 0.707958 2.308519 0.014891 0.001110 1048300.000000 0 0 1
-27.555649 -24.128351 -31.602048 48.375413 0.719183 2.282687 0.023432 0.008402 -704660.000000 0 0 1
-27.504609 -25.519431 -31.602518 49.055724 0.747976 2.270795 0.015216 0.006819 -33990.600000 0 0 1
-26.961159 -25.932141 -30.363538 48.180125 0.765946 2.252618 0.018284 -0.003818 -96520.000000 0 0 1
-26.549989 -27.398771 -30.269598 48.701572 0.801130 2.241493 0.016354 -0.002070 236383.000000 0 0 1
-27.690019 -28.245701 -30.288908 49.819421 0.795332 2.224303 0.021828 0.005346 295380.000000 0 0 1
-27.372669 -29.515981 -29.752108 50.056409 0.823056 2.207280 0.025223 -0.000173 -96786.700000 0 0 1
-28.232219 -30.693701 -30.226698 51.505483 0.827146 2.197976 0.025737 0.011344 -342446.000000 0 0 1
-27.809489 -31.044531 -31.511058 52.250142 0.840310 2.218154 0.022927 -0.003742 255609.000000 0 0 1
-28.056529 -32.361791 -31.959038 53.440008 0.856535 2.211844 0.033094 0.000233 -348919.000000 0 0 1
-27.675019 -32.732511 -33.392848 54.336049 0.868926 2.232626 0.017867 -0.003758 -1225690.000000 0 0 1
-26.310879 -32.735651 -33.581238 53.773458 0.893780 2.245281 0.034972 -0.011807 -1212590.000000 0 0 1
-25.923859 -33.508931 34.371375 54.555351 0.912336 0.889208 0.048457 -0.017339 707737.000000 0 0 1
-24.368429 -33.466441 34.147117 53.664221 0.941430 0.881090 0.053401 -0.020838 830105.000000 0 0 1
-23.954229 -34.202917 33.034318 53.243880 0.959831 0.901500 0.047458 -0.017508 -671290.000000 0 0 1
-23.041429 33.956249 33.333350 52.868200 -0.974603 0.888600 0.039536 -0.007079 -917671.000000 0 0 1
-22.945429 33.046491 32.066725 51.447431 -0.963881 0.897852 0.041908 -0.011649 73516.800000 0 0 1
-24.162629 32.450551 31.628865 51.354221 -0.930761 0.907273 0.044226 -0.031722 -59270.700000 0 0 1
-24.071329 31.740901 30.401755 50.111679 -0.921960 0.918919 0.030731 -0.019565 -209708.000000 0 0 1
-25.421379 31.074101 30.094195 50.174763 -0.885122 0.927561 0.035142 -0.013458 -24889.800000 0 0 1
-25.905709 30.080311 30.964065 50.345846 -0.859826 0.908376 0.043452 -0.015838 938115.000000 0 0 1
-27.218529 29.595531 30.598615 50.527409 -0.827212 0.920296 0.041073 -0.013494 1201100.000000 0 0 1
-27.681219 28.524261 31.543485 50.743224 -0.800396 0.899975 0.047724 -0.029391 -553592.000000 0 0 1
-26.795529 27.495251 31.320335 49.547478 -0.798286 0.886500 0.042447 -0.022061 -341058.000000 0 0 1
-27.134219 26.173131 31.794035 49.316927 -0.767371 0.870181 0.033796 -0.014332 90831.100000 0 0 1
-28.158159 25.497191 30.839555 48.929202 -0.735845 0.888870 0.033101 -0.007216 372293.000000 0 0 1
-27.650169 25.240001 29.508015 47.668779 -0.739860 0.903300 0.028133 -0.003054 -19338.600000 0 0 1
-28.478659 24.336141 28.768345 47.232398 -0.707124 0.915895 0.031000 0.002146 81254.100000 0 0 1
-27.875369 23.898191 27.401835 45.815066 -0.708730 0.929672 0.032957 0.002655 -14714.800000 0 0 1
-26.781399 23.006891 27.592805 44.809857 -0.709732 0.907427 0.032682 0.000293 125026.000000 0 0 1
-26.274529 22.733191 26.293815 43.571935 -0.713263 0.922966 0.025567 0.001439 -506458.000000 0 0 1
-24.904329 22.050491 26.303755 42.406807 -0.724694 0.901707 0.018747 -0.003183 -446513.000000 0 0 1
-24.914429 20.717991 26.809825 42.056279 -0.693694 0.879580 0.046182 -0.010675 1913720.000000 0 0 1
-23.543729 20.322291 27.143845 41.280637 -0.712092 0.853242 0.036545 0.004104 1556910.000000 0 0 1
-23.623829 18.974491 27.961115 41.230335 -0.676685 0.825529 0.059598 -0.009341 -587027.000000 0 0 1
-22.393829 18.452591 28.323515 40.548775 -0.689207 0.797490 0.046751 -0.005026 -491477.000000 0 0 1
-22.555629 17.366091 29.209395 40.786349 -0.656130 0.772517 0.050131 -0.007513 278507.000000 0 0 1
-21.306229 16.440491 29.371365 39.836192 -0.657200 0.741726 0.058729 -0.008590 382812.000000 0 0 1
-20.217429 16.943191 30.154735 40.064001 -0.697515 0.718697 0.072182 -0.001549 -181087.000000 0 0 1
-19.241529 15.948591 30.103535 39.125654 -0.692094 0.692885 0.049205 -0.009011 -1402560.000000 0 0 1
-18.099129 16.337391 30.979515 39.423586 -0.734284 0.666789 0.029446 -0.009798 -1174260.000000 0 0 1
-18.466629 16.339591 32.346865 40.673312 -0.724363 0.651319 0.012614 -0.003528 1222170.000000 0 0 1
-17.289129 16.577591 33.161115 40.907090 -0.764391 0.625544 0.011128 -0.002241 196059.000000 0 0 1
-17.439029 16.285191 -34.366442 41.837537 -0.751198 2.534703 0.009391 -0.014496 507579.000000 0 0 1
-18.357529 17.117391 -33.619528 41.955651 -0.750454 2.500280 0.018709 -0.016927 48844.600000 0 0 1
-19.705529 16.878991 -33.849388 42.649611 -0.708291 2.487602 0.022398 -0.012922 -678801.000000 0 0 1
-20.718029 17.698791 -32.974538 42.776210 -0.706968 2.450989 0.022361 -0.023389 184510.000000 0 0 1
-20.929729 17.303791 -31.647378 41.701694 -0.690844 2.432417 0.022698 -0.024604 516819.000000 0 0 1
-21.965929 18.084691 -31.031688 42.101351 -0.688792 2.399522 0.013466 -0.017713 168962.000000 0 0 1
-22.069529 17.930691 -29.464728 40.948065 -0.682295 2.373970 0.019926 -0.025555 -16800.100000 0 0 1
-22.576729 16.704891 -28.936238 40.324533 -0.637016 2.371123 0.016712 -0.028207 366161.000000 0 0 1
-23.997129 16.603791 -28.946618 41.102978 -0.605274 2.352157 0.029913 -0.024034 551298.000000 0 0 1
-24.588029 15.404291 -28.105818 40.395549 -0.559674 2.340281 0.033411 -0.014968 151993.000000 0 0 1
-24.428629 14.086891 -28.609648 40.171014 -0.523077 2.363418 0.002476 -0.007885 176057.000000 0 0 1
-25.238929 13.189591 -27.836368 39.822509 -0.481555 2.344810 -0.009061 -0.002446 108387.000000 0 0 1
-24.905029 11.693891 -27.895588 39.181263 -0.438984 2.363085 0.000988 -0.005317 -177892.000000 0 0 1
-23.898629 11.239391 -27.042728 37.799174 -0.439602 2.368038 -0.000895 -0.005911 -599038.000000 0 0 1
-23.037429 10.305091 -27.585808 37.388432 -0.420623 2.400626 -0.013196 0.000660 90213.600000 0 0 1
-21.936929 9.811191 -26.596908 35.845277 -0.420561 2.406833 0.014644 -0.006566 178346.000000 0 0 1
-22.450929 8.893691 -25.710798 35.273036 -0.377174 2.387522 0.015995 -0.004760 -197210.000000 0 0 1
-21.440429 8.377391 -24.866678 33.885459 -0.372488 2.394761 0.038085 0.003464 -331016.000000 0 0 1
-21.927829 7.261591 -23.972578 33.290312 -0.319792 2.374752 0.040185 0.004926 -70138.100000 0 0 1
-22.260829 6.069491 -24.672678 33.780531 -0.266183 2.389677 0.039830 0.000544 211975.000000 0 0 1
-22.706129 5.159491 -23.659078 33.195491 -0.223435 2.364164 0.044631 0.010908 -426280.000000 0 0 1
33.850391 24.825249 -10.778078 43.339461 0.632780 1.822124 0.000328 0.010176 423517.000000 0 0 1
34.720758 24.129949 -9.860278 43.416708 0.607343 1.799903 0.010859 -0.003195 -523966.000000 0 0 1
-34.954594 23.421749 -10.498578 43.366140 -0.590350 1.815317 0.016928 -0.003127 -700237.000000 0 0 1
-33.921369 22.812349 -9.498178 41.967582 -0.592035 1.799096 0.014503 -0.006354 -168522.000000 0 0 1
-34.426249 21.896449 -8.566478 41.689395 -0.566498 1.777754 0.013909 -0.012776 -874726.000000 0 0 1
-33.422319 21.336749 -7.818778 40.415858 -0.568176 1.765482 0.009298 -0.009356 -1212440.000000 0 0 1
-33.872519 20.418449 -6.663978 40.108219 -0.542478 1.737720 0.001822 -0.000612 -478636.000000 0 0 1
-34.503477 19.262849 -6.997578 40.131202 -0.509183 1.746060 0.002913 -0.009028 171812.000000 0 0 1
-34.975965 18.512949 -5.859578 40.004775 -0.486816 1.717797 -0.002043 -0.018868 9206.760000 0 0 1
35.002101 17.166349 -6.237878 39.480903 0.455969 1.729459 0.010933 -0.012287 -324676.000000 0 0 1
33.796711 17.350549 -6.915878 38.614616 0.474294 1.750868 0.021788 -0.009488 -365372.000000 0 0 1
33.346701 16.243749 -7.690778 37.881524 0.453288 1.775239 0.030366 -0.000970 143924.000000 0 0 1
32.112391 16.686449 -8.501878 37.174254 0.479225 1.801542 0.036473 -0.004924 207532.000000 0 0 1
31.512161 15.616949 -9.281478 36.373771 0.460109 1.828819 0.040647 -0.010977 383423.000000 0 0 1
30.748071 16.180449 -10.356578 36.256165 0.484408 1.860481 0.029423 -0.001572 -190576.000000 0 0 1
30.108691 15.053049 -11.229178 35.485518 0.463613 1.892775 0.017821 0.002377 250498.000000 0 0 1
29.010581 14.254149 -10.785678 34.075290 0.456698 1.892860 0.007582 0.007566 579278.000000 0 0 1
29.082991 13.718449 -9.482178 33.525034 0.440752 1.857549 0.028603 0.002755 -333533.000000 0 0 1
28.022451 12.569549 -9.285278 32.085319 0.421650 1.864389 0.025408 0.007538 321620.000000 0 0 1
28.341571 11.398649 -9.977478 32.136022 0.382391 1.886491 0.022144 0.011346 633871.000000 0 0 1
27.248441 10.470149 -9.900978 30.824194 0.366853 1.897801 0.014916 0.013401 39718.500000 0 0 1
27.628201 9.075049 -10.324978 30.859021 0.317368 1.911962 0.018523 0.016604 -278405.000000 0 0 1
28.618371 8.625049 -9.424278 31.340383 0.292724 1.876230 0.038434 0.011899 322660.000000 0 0 1
28.797421 7.261549 -9.548278 31.196012 0.247010 1.881862 0.030508 0.006701 -55348.200000 0 0 1
29.968061 6.757249 -8.621878 31.907395 0.221773 1.844413 0.052707 0.002049 148318.000000 0 0 1
31.225031 7.036049 -9.178378 33.297915 0.221632 1.850056 0.057431 -0.002267 33894.200000 0 0 1
32.249861 6.719349 -8.231278 33.955222 0.205414 1.815651 0.058554 -0.004658 -289238.000000 0 0 1
33.670291 6.957149 -8.699578 35.465096 0.203758 1.818625 0.049532 -0.006066 -669517.000000 0 0 1
34.149771 6.102849 -9.682278 36.016637 0.176842 1.842972 0.047222 -0.004866 668917.000000 0 0 1
-35.103764 6.352649 -9.948478 37.035153 -0.179030 1.842759 0.037462 -0.002332 -37344.000000 0 0 1
-34.534177 5.619249 -11.190178 36.734254 -0.161302 1.880341 0.042375 -0.008359 785531.000000 0 0 1
-33.156309 5.898349 -11.492678 35.583887 -0.176053 1.899667 0.031042 -0.003582 1278710.000000 0 0 1
-32.722609 7.134249 -12.120478 35.617027 -0.214663 1.918032 0.014284 -0.005294 -149693.000000 0 0 1
-32.216739 8.233849 -11.104678 35.057502 -0.250220 1.893104 0.016959 -0.005032 -390765.000000 0 0 1
-33.251419 8.854449 -10.367178 35.937954 -0.260249 1.863429 0.022741 0.000664 166022.000000 0 0 1
-33.775339 9.965149 -11.035878 36.903500 -0.286902 1.874490 0.020233 0.000225 -198799.000000 0 0 1
-34.457329 10.966049 -10.142778 37.555795 -0.308115 1.844264 0.026683 0.000074 -90962.800000 0 0 1
-33.534489 11.639849 -9.318378 36.699867 -0.334090 1.827515 0.023048 -0.005511 157068.000000 0 0 1
-34.190892 12.376049 -8.305978 37.298431 -0.347298 1.795369 0.035720 -0.005458 -280607.000000 0 0 1
-33.240629 13.212549 -7.445678 36.536954 -0.378334 1.776019 0.035256 -0.002982 -280969.000000 0 0 1
-32.523999 14.134949 -8.203578 36.399258 -0.409974 1.798127 0.023071 -0.007621 -119829.000000 0 0 1
-31.835789 15.090449 -7.398978 35.999778 -0.442639 1.777800 0.017772 -0.010167 286654.000000 0 0 1
-30.931469 16.153049 -8.106778 35.824525 -0.481266 1.799065 0.003682 -0.008136 4180.150000 0 0 1
-31.584559 17.048249 -8.934478 36.987188 -0.494952 1.814765 0.013408 -0.008101 -252405.000000 0 0 1
-30.744079 18.148849 -9.158878 36.857349 -0.533272 1.821923 0.012013 -0.008785 -33138.600000 0 0 1
-31.389439 19.113749 -10.130478 38.121633 -0.546955 1.839769 0.000748 -0.013247 -37141.800000 0 0 1
-31.431339 18.715649 -11.506278 38.348390 -0.537064 1.875537 -0.006485 -0.013131 95307.400000 0 0 1
-32.491389 19.337049 -12.224878 39.737381 -0.536841 1.883510 -0.006962 -0.016634 45745.400000 0 0 1
-32.160949 19.526249 -13.718478 40.047443 -0.545654 1.920432 -0.011217 -0.003970 124516.000000 0 0 1
-31.154379 20.504849 -13.994478 39.835783 -0.582097 1.929760 -0.009619 -0.003603 382516.000000 0 0 1
-31.071869 20.800749 -15.384978 40.433028 -0.589920 1.961139 -0.017633 0.005101 -137600.000000 0 0 1
-30.245609 22.077249 -15.807078 40.645609 -0.630534 1.970234 -0.001111 -0.001331 690827.000000 0 0 1
-28.867509 21.940349 -15.431578 39.406162 -0.649893 1.973170 -0.009566 -0.001427 675389.000000 0 0 1
-28.128879 23.103949 -15.222178 39.455557 -0.687631 1.966877 0.004555 -0.000034 -75929.200000 0 0 1
-27.595379 23.834649 -16.498278 40.022351 -0.712405 1.995693 -0.002424 0.004292 -698927.000000 0 0 1
-28.624729 24.328649 -17.351678 41.380418 -0.704446 2.003494 0.004885 0.010437 253035.000000 0 0 1
-28.146659 24.981949 -18.553478 41.959072 -0.725901 2.028824 -0.010065 0.009755 -365647.000000 0 0 1
-27.468039 26.370449 -18.334578 42.261691 -0.765014 2.019541 -0.002763 0.008315 147674.000000 0 0 1
-28.268719 27.338449 -17.688278 43.120604 -0.768670 1.993475 -0.004227 0.010765 221125.000000 0 0 1
-27.654889 28.585249 -17.932278 43.628843 -0.801939 1.994368 0.005013 0.007380 -32669.900000 0 0 1
-28.328339 29.730049 -17.172778 44.511514 -0.809537 1.966877 0.005855 0.005142 -424134.000000 0 0 1
-28.191839 29.814649 -15.761078 43.955713 -0.813367 1.937529 0.010487 0.001004 -141130.000000 0 0 1
-26.884379 29.779749 -15.256478 42.922761 -0.836451 1.934181 0.015594 -0.003400 -398710.000000 0 0 1
-26.798179 30.465249 -13.870778 42.879742 -0.849349 1.900202 0.022664 -0.002911 -56948.200000 0 0 1
-26.722669 31.888849 -13.976078 43.889982 -0.873314 1.894874 0.038578 0.001452 -26883.400000 0 0 1
-27.412039 32.544549 -12.956278 44.479576 -0.870794 1.866367 0.031291 -0.009638 -40115.300000 0 0 1
-26.877329 33.986649 -12.775778 45.174148 -0.901678 1.857521 0.012423 -0.004512 36642.100000 0 0 1
-27.282119 -34.310194 -13.801978 45.956479 0.899013 1.875832 0.001102 -0.006335 74074.500000 0 0 1
-26.544819 -33.079494 -13.839478 44.614028 0.894560 1.886205 0.008374 -0.006166 66526.900000 0 0 1
-26.604319 -32.510094 -15.264378 44.695606 0.884972 1.919328 0.000733 -0.008577 -122028.000000 0 0 1
-25.910949 -33.197094 -16.259978 45.142122 0.908048 1.939274 -0.004786 -0.009384 -37172.300000 0 0 1
-26.206999 -32.603494 -17.539778 45.358995 0.893737 1.967834 -0.007681 0.002981 287806.000000 0 0 1
-25.468669 -33.319894 -18.743778 45.936887 0.918163 1.991095 -0.003930 0.002225 -420176.000000 0 0 1
-25.923699 34.545549 -19.082878 47.218528 -0.927026 1.986834 0.001432 0.006415 -224826.000000 0 0 1
-25.386109 33.475249 -18.344978 45.843048 -0.921970 1.982498 -0.008332 -0.015108 -604113.000000 0 0 1
-25.772069 32.167549 -19.101778 45.429381 -0.895335 2.004762 0.005797 -0.028328 1049260.000000 0 0 1
-27.173099 31.794549 -19.183078 46.013706 -0.863611 2.000828 0.005872 -0.016926 1322580.000000 0 0 1
-27.783309 32.502249 -20.292878 47.329793 -0.863515 2.013910 0.014010 -0.009152 561814.000000 0 0 1
-29.314019 32.228249 -20.546978 48.167936 -0.832716 2.011493 0.011557 -0.006767 1017960.000000 0 0 1
-29.604099 30.921549 -21.023478 47.692049 -0.807162 2.027305 -0.004581 -0.011863 176518.000000 0 0 1
-31.004639 30.731249 -21.021278 48.451950 -0.780970 2.019567 -0.003214 -0.006665 -131612.000000 0 0 1
-31.298429 29.341649 -21.608378 48.035883 -0.753141 2.037381 -0.011599 -0.001206 -1086760.000000 0 0 1
-32.657069 29.079349 -21.727578 48.828069 -0.727511 2.031950 -0.004582 0.003655 -491075.000000 0 0 1
-32.773309 27.799549 -22.362978 48.445923 -0.703470 2.050602 -0.006547 0.008608 -947726.000000 0 0 1
-34.129932 27.178249 -22.558478 49.116132 -0.672491 2.047990 -0.001953 0.012786 -429851.000000 0 0 1
-34.979558 27.785349 -23.545578 50.497419 -0.671275 2.055869 -0.005537 0.015358 -314040.000000 0 0 1
34.610426 26.974049 -23.944578 49.988236 0.662029 2.070316 0.002761 0.020710 -518605.000000 0 0 1
33.861271 27.592249 -25.102798 50.379245 0.683737 2.092406 0.009435 0.010147 -260069.000000 0 0 1
34.674040 27.738649 -26.249058 51.582310 0.674731 2.104676 0.018486 0.006670 -73393.300000 0 0 1
33.849451 28.164149 -27.322238 51.821900 0.693975 2.126138 0.028246 0.010289 308605.000000 0 0 1
34.556401 28.256549 -28.743148 53.091863 0.685437 2.142880 0.025686 0.011775 205431.000000 0 0 1
34.983956 26.997349 -29.180088 52.954807 0.657249 2.154403 0.016706 0.016298 -128284.000000 0 0 1
-35.131707 27.056749 -30.492138 53.815193 -0.656274 2.173180 0.003428 0.012526 -697738.000000 0 0 1
-34.683556 25.679749 -31.014158 53.143923 -0.637330 2.193937 -0.001752 0.013440 154412.000000 0 0 1
-33.627569 25.026049 -30.347838 51.750438 -0.639787 2.197437 0.020189 0.011714 -397748.000000 0 0 1
-32.362939 25.472449 -30.705958 51.371795 -0.666817 2.211451 0.015079 0.008677 -625841.000000 0 0 1
-31.116189 24.928149 -29.976648 49.882154 -0.675430 2.215485 0.017893 0.010479 -53839.300000 0 0 1
-30.969299 23.571449 -30.352798 49.355881 -0.650582 2.233155 0.028541 0.004924 -27222.300000 0 0 1
-31.327379 22.630749 -29.367518 48.538712 -0.625599 2.220604 0.033715 0.005787 -134695.000000 0 0 1
-30.801359 21.244949 -29.747608 47.801587 -0.603807 2.242492 0.045480 -0.005190 -61396.500000 0 0 1
-29.420149 21.070649 -29.518278 46.699531 -0.621515 2.255043 0.055681 -0.012403 -86424.200000 0 0 1
-29.111609 19.717549 -29.861248 46.129835 -0.595334 2.274873 0.049588 -0.014648 -1093230.000000 0 0 1
-27.654729 19.319649 -29.891658 45.072653 -0.609787 2.295867 0.069079 -0.018143 -997587.000000 0 0 1
-26.918579 19.854249 -30.971228 45.585283 -0.635496 2.317758 0.074605 -0.015943 208392.000000 0 0 1
-25.726919 19.166549 -31.310978 44.828655 -0.640293 2.344038 0.064770 -0.024483 5127.530000 0 0 1
-25.937759 17.866249 -32.116078 44.982359 -0.603178 2.365949 0.055607 -0.015204 -387465.000000 0 0 1
-26.401789 16.713449 -31.364578 44.273362 -0.564362 2.358068 0.034037 -0.014222 229875.000000 0 0 1
-26.400919 15.462749 -32.061708 44.317697 -0.529831 2.379585 0.017098 -0.002796 30962.300000 0 0 1
-26.957969 14.261849 -31.212988 43.639238 -0.486609 2.367779 0.010244 -0.001652 -379864.000000 0 0 1
-28.354189 14.319349 -31.047018 44.417577 -0.467653 2.344767 0.011006 -0.007407 73968.400000 0 0 1
-29.070349 13.102549 -30.937848 44.428734 -0.423451 2.341092 0.009381 -0.004455 188306.000000 0 0 1
-28.697649 12.290649 -29.677918 43.074284 -0.404646 2.330896 -0.008295 -0.007316 -715646.000000 0 0 1
-29.105929 12.964449 -28.539598 42.775468 -0.419041 2.301234 -0.014050 -0.004335 232601.000000 0 0 1
-29.244919 12.010849 -27.453148 41.871245 -0.389695 2.285848 -0.009175 0.001380 -58534.100000 0 0 1
-29.155889 12.599649 -26.027988 41.064257 -0.407909 2.257298 -0.018446 -0.000324 779960.000000 0 0 1
-27.855869 13.088949 -25.647678 40.063367 -0.439264 2.265526 -0.016024 -0.006524 689690.000000 0 0 1
-27.921199 13.819549 -24.447278 39.601044 -0.459598 2.236152 -0.014336 0.000401 -59125.200000 0 0 1
-26.516249 13.979049 -23.831378 38.294384 -0.485161 2.242500 -0.004177 0.003889 -781593.000000 0 0 1
-25.693929 14.757249 -24.651778 38.544319 -0.521344 2.264735 0.008109 -0.004419 -83226.800000 0 0 1
-24.359529 14.902549 -24.205978 37.435304 -0.549033 2.273926 0.011005 -0.006803 163539.000000 0 0 1
-24.101029 15.625449 -22.860978 36.710197 -0.575201 2.243039 0.014867 -0.004953 -1483500.000000 0 0 1
-24.129829 17.012849 -22.939178 37.388388 -0.614110 2.231329 0.027665 -0.012031 184146.000000 0 0 1
-24.351229 17.571749 -21.659878 37.025654 -0.625073 2.195672 0.025563 -0.002662 -357634.000000 0 0 1
-25.849129 17.706749 -21.343778 37.911255 -0.600590 2.168799 0.021118 -0.003968 -1082440.000000 0 0 1
-26.462789 16.543249 -21.046078 37.641675 -0.558708 2.164116 0.024441 -0.001822 -257030.000000 0 0 1
-27.733819 16.938049 -20.539478 38.443886 -0.548276 2.134442 0.013804 0.003776 -518490.000000 0 0 1
-28.796719 15.797049 -20.562978 38.750921 -0.501746 2.130158 -0.021452 0.001656 385985.000000 0 0 1
-29.486099 15.514949 -21.794978 39.814127 -0.484370 2.150072 -0.020137 0.004721 736097.000000 0 0 1
-30.328949 16.607049 -22.208078 41.095474 -0.500971 2.141711 -0.030249 0.000527 -447014.000000 0 0 1
-30.728379 16.472449 -23.697278 42.156089 -0.492083 2.167757 -0.015851 0.003135 -132781.000000 0 0 1
-31.656079 15.488049 -24.119178 42.705055 -0.455019 2.170969 -0.009348 0.002878 261665.000000 0 0 1
-31.835159 15.450449 -25.531498 43.635434 -0.451840 2.195811 0.010561 -0.006818 640764.000000 0 0 1
-33.258499 14.837049 -25.846868 44.657881 -0.419617 2.188022 -0.000051 -0.003980 884499.000000 0 0 1
-33.289829 13.396249 -25.873858 44.239448 -0.382585 2.195503 0.007100 -0.001936 251306.000000 0 0 1
-33.163089 12.631149 -24.617778 43.189946 -0.363916 2.177288 -0.005606 0.000442 -296916.000000 0 0 1
-33.073059 11.118449 -24.794478 42.804361 -0.324309 2.188606 0.006133 -0.002617 10487.400000 0 0 1
-34.274869 10.506249 -25.241838 43.844022 -0.297436 2.184280 0.018534 -0.005783 420742.000000 0 0 1
-33.987899 9.357449 -26.050468 43.833389 -0.268661 2.207199 0.010432 -0.004143 -60476.300000 0 0 1
-35.252044 8.887449 -26.814268 45.174089 -0.246965 2.206292 0.017424 -0.000119 184889.000000 0 0 1
34.459961 8.297849 -25.927508 43.915588 0.236298 2.202343 0.009522 0.006415 -193618.000000 0 0 1
33.390481 7.668149 -26.598468 43.372840 0.225737 2.230967 0.007489 0.005759 -134315.000000 0 0 1
32.438851 6.976849 -25.617748 41.919261 0.211850 2.228273 0.011520 0.006095 -527710.000000 0 0 1
32.977371 5.816049 -25.150218 41.879194 0.174570 2.214975 0.013384 -0.000517 -12917.100000 0 0 1
32.094691 5.040149 -24.359578 40.606173 0.155768 2.214170 0.014747 0.006517 690412.000000 0 0 1
32.932991 4.146949 -23.283278 40.544915 0.125262 2.182495 0.002554 0.010443 734062.000000 0 0 1
33.645011 3.069849 -23.871878 41.367587 0.090990 2.185929 -0.008426 0.004354 155535.000000 0 0 1
34.410731 2.399649 -22.878578 41.391860 0.069623 2.156435 -0.003367 0.007270 35777.900000 0 0 1
-35.160264 1.492249 -23.522478 42.329398 -0.042416 2.160002 0.011576 0.009777 205797.000000 0 0 1
34.912076 0.275549 -24.037478 42.387844 0.007892 2.173758 -0.001109 0.017532 664396.000000 0 0 1
-34.657663 -0.588451 -24.395978 42.387069 0.016977 2.184076 0.015193 0.004971 262397.000000 0 0 1
-22.119829 29.785949 28.138435 46.564591 -0.932031 0.921924 0.026355 -0.006845 -208906.000000 0 0 1
-23.466729 29.983749 27.691785 47.080224 -0.906726 0.941986 0.009849 -0.008924 869353.000000 0 0 1
-23.736029 29.786349 26.325345 46.299562 -0.897963 0.966009 0.004034 -0.010879 -338694.000000 0 0 1
-24.026429 28.339649 25.778865 45.221177 -0.867579 0.964215 0.004865 -0.005277 889924.000000 0 0 1
-25.256339 27.664049 26.175675 45.698449 -0.830864 0.960889 0.001926 0.001847 1057520.000000 0 0 1
-25.408979 27.334449 27.571045 46.399901 -0.821888 0.934520 0.008228 0.000080 -1429350.000000 0 0 1
-24.639729 26.167049 28.052425 45.593522 -0.815450 0.908065 0.010971 0.004307 -173427.000000 0 0 1
-23.309229 26.254949 28.514915 45.229889 -0.844761 0.888671 0.011822 0.006685 -16235.900000 0 0 1
-23.258629 26.863549 29.791545 46.369712 -0.857197 0.873068 0.014267 0.002869 124938.000000 0 0 1
-21.952329 26.543049 30.589715 46.067004 -0.879780 0.844605 0.030942 0.009420 422151.000000 0 0 1
-20.769729 27.079549 30.015105 45.448764 -0.916510 0.849423 0.031395 0.002551 1071080.000000 0 0 1
-19.574329 26.752649 30.786315 45.239980 -0.939125 0.822336 0.031216 0.012434 1287680.000000 0 0 1
-18.908629 25.375349 30.424865 43.898940 -0.930402 0.805063 0.024757 0.023335 -475502.000000 0 0 1
-18.279229 25.396849 29.158935 42.771177 -0.946942 0.820654 0.026718 0.014313 -209305.000000 0 0 1
-18.767829 24.570549 28.136925 41.804663 -0.918500 0.832462 0.029892 0.004995 -335625.000000 0 0 1
-18.518029 23.017549 28.238625 40.867406 -0.893307 0.807950 0.022163 0.012711 -669791.000000 0 0 1
-19.468529 22.356949 28.965225 41.446846 -0.854348 0.797005 0.025975 0.020479 -560940.000000 0 0 1
-19.331029 20.952149 28.945445 40.626592 -0.825620 0.777777 0.032841 0.018591 92893.000000 0 0 1
-20.039129 20.268549 30.098035 41.452050 -0.791090 0.758174 0.039681 0.011788 168489.000000 0 0 1
-19.217229 20.501749 31.237185 42.016488 -0.817727 0.732581 0.025445 0.010196 582417.000000 0 0 1
-19.790629 19.944349 32.430725 42.909183 -0.789267 0.713923 0.028028 0.007105 -81255.900000 0 0 1
-19.032029 20.279449 33.748028 43.731036 -0.817119 0.689258 0.015721 0.005612 -247789.000000 0 0 1
-18.922629 21.683149 34.151438 44.660335 -0.853277 0.700232 0.003965 0.009262 304678.000000 0 0 1
-18.100629 22.491549 33.311773 44.081478 -0.893151 0.714095 0.016726 0.017670 1252480.000000 0 0 1
-16.534029 22.507149 33.586792 43.680870 -0.937216 0.693657 -0.005219 0.023890 1235480.000000 0 0 1
-15.996729 21.237149 33.499297 42.768151 -0.925223 0.670877 -0.010734 0.009015 -904001.000000 0 0 1
-14.624529 21.284249 33.758932 42.503665 -0.968777 0.653009 -0.021527 0.007540 -1262440.000000 0 0 1
-14.010929 19.864649 33.658220 41.518504 -0.956509 0.625484 -0.027018 0.003643 367486.000000 0 0 1
-12.629629 19.719449 33.997958 41.282264 -1.001153 0.603157 -0.027813 -0.007104 547562.000000 0 0 1
-12.406729 19.957749 -33.669048 41.059024 -1.014610 2.532235 -0.023336 -0.003308 -1117040.000000 0 0 1
-10.959229 20.034349 -33.189408 40.286681 -1.070242 2.538933 -0.019822 -0.006516 -264151.000000 0 0 1
-10.393829 21.315349 -33.389498 40.954052 -1.117100 2.524029 -0.015193 -0.010681 544007.000000 0 0 1
-9.011329 21.298149 -33.004408 40.300200 -1.170533 2.530399 -0.013741 -0.009089 651572.000000 0 0 1
-8.184829 22.612549 -33.080038 40.897527 -1.223507 2.512993 -0.000861 -0.014211 92796.100000 0 0 1
-8.216129 23.543849 -31.953038 40.531645 -1.235038 2.478915 -0.000235 -0.009870 276179.000000 0 0 1
-7.547929 22.998749 -30.798828 39.172458 -1.253683 2.475491 -0.001155 -0.011685 -133386.000000 0 0 1
-7.119529 24.076149 -29.796838 38.964089 -1.283281 2.441412 -0.003226 -0.007033 -286801.000000 0 0 1
-6.179529 24.959749 -30.310958 39.748331 -1.328097 2.438076 -0.000543 -0.011165 -325921.000000 0 0 1
-5.785729 25.967949 -29.424098 39.668458 -1.351574 2.406473 0.008731 0.000838 146557.000000 0 0 1
-4.566929 26.814849 -29.940828 40.451776 -1.402102 2.404106 -0.006072 0.003615 -847724.000000 0 0 1
-3.428329 26.238349 -29.437088 39.582149 -1.440871 2.409379 0.007372 0.002814 -91127.400000 0 0 1
-2.184329 26.726649 -30.004178 40.240971 -1.489249 2.412250 0.013179 0.002462 1265110.000000 0 0 1
-1.651529 28.124849 -29.545568 40.824934 -1.512142 2.379965 0.012569 -0.008736 -539862.000000 0 0 1
-1.339029 28.233649 -28.202888 39.929122 -1.523405 2.355088 0.024689 -0.016646 162926.000000 0 0 1
-0.880029 29.488849 -27.796278 40.533933 -1.540962 2.326434 0.020032 -0.020709 -1095510.000000 0 0 1
-0.440429 29.430049 -26.291688 39.466120 -1.555832 2.299876 0.035799 -0.034212 -102934.000000 0 0 1
0.770671 28.825149 -25.935388 38.783083 1.544067 2.303295 0.071444 -0.042689 150073.000000 0 0 1
1.927071 29.401749 -26.532698 39.650479 1.505347 2.303880 0.081569 -0.043073 175021.000000 0 0 1
3.257471 29.322849 -25.707348 39.131935 1.460160 2.287550 0.081288 -0.047577 497609.000000 0 0 1
3.821671 28.051849 -25.445158 38.065305 1.435394 2.302933 0.089395 -0.039672 -239825.000000 0 0 1
4.989371 28.306949 -24.714778 37.907749 1.396329 2.280978 0.070048 -0.030983 -309424.000000 0 0 1
5.611471 26.972449 -24.262278 36.710485 1.365678 2.292825 0.068603 -0.035000 54114.900000 0 0 1
6.831971 27.073349 -23.552178 36.528717 1.323607 2.271503 0.053855 -0.027081 -293586.000000 0 0 1
7.316371 25.783249 -23.222078 35.462235 1.294300 2.284767 0.046481 -0.009517 -393654.000000 0 0 1
8.804471 25.943149 -22.940978 35.733096 1.243618 2.267912 0.032119 0.010367 -925822.000000 0 0 1
9.072171 26.588249 -21.677078 35.484292 1.241974 2.227983 0.031827 0.013353 35038.900000 0 0 1
10.445571 26.853249 -21.461878 35.927971 1.199820 2.211000 0.034152 0.014092 279473.000000 0 0 1
11.264571 25.688549 -20.835778 34.941691 1.157542 2.209682 0.018009 0.016948 -217402.000000 0 0 1
11.551071 24.679149 -21.784678 34.886385 1.133034 2.245219 0.017164 0.012454 -390939.000000 0 0 1
11.931171 23.530449 -21.179178 33.831826 1.101523 2.247227 0.010291 0.017153 -370236.000000 0 0 1
11.931971 22.406849 -22.244878 33.753124 1.081477 2.290347 0.011143 0.002857 -531876.000000 0 0 1
10.764171 22.302649 -22.985178 33.787482 1.121132 2.318950 0.014382 -0.003389 -497867.000000 0 0 1
10.967571 21.328249 -24.018078 33.941860 1.095832 2.356926 0.013435 0.000127 -132505.000000 0 0 1
9.899171 21.176749 -25.095588 34.296309 1.133522 2.391651 0.029573 0.001099 -22816.800000 0 0 1
8.583071 20.839249 -24.696878 33.434700 1.180099 2.401877 0.023920 0.000666 520501.000000 0 0 1
7.780171 20.525949 -25.890548 33.943572 1.208488 2.438355 0.029763 -0.001502 957728.000000 0 0 1
6.257971 20.290449 -25.590868 33.252925 1.271633 2.448983 0.024900 -0.008248 226055.000000 0 0 1
5.480071 21.396349 -25.287488 33.575169 1.320064 2.423650 0.049549 -0.007070 -227335.000000 0 0 1
5.847571 22.133949 -24.114578 33.250844 1.312507 2.382168 0.045180 -0.002310 -616362.000000 0 0 1
4.589171 22.745549 -23.440178 32.982760 1.371708 2.361260 0.058216 -0.005697 229903.000000 0 0 1
4.066171 23.850349 -24.082878 34.137339 1.401933 2.353883 0.062862 -0.015289 279003.000000 0 0 1
2.680471 23.995449 -23.768778 33.880987 1.459550 2.348349 0.069034 -0.007964 545591.000000 0 0 1
1.955071 24.954249 -24.737078 35.191759 1.492610 2.350294 0.060223 -0.006484 -781441.000000 0 0 1
0.573671 24.839149 -24.779378 35.090312 1.547705 2.354857 0.067370 -0.031555 -885524.000000 0 0 1
0.093871 25.626349 -25.830308 36.385758 1.567133 2.360155 0.049145 -0.020009 -11888.700000 0 0 1
-1.405029 25.481349 -26.150388 36.539240 -1.515713 2.368393 0.057019 -0.013322 -195465.000000 0 0 1
-1.630629 24.119549 -26.590548 35.937012 -1.503293 2.403749 0.074651 -0.022018 1019470.000000 0 0 1
-2.891429 24.087049 -27.330668 36.544654 -1.451327 2.415645 0.066084 -0.014975 1261060.000000 0 0 1
-3.433929 22.691449 -27.761878 36.019656 -1.420605 2.450802 0.049889 -0.012981 -598992.000000 0 0 1
-2.761329 22.094249 -28.850888 36.443854 -1.446461 2.484306 0.063834 -0.020027 -103795.000000 0 0 1
-3.150929 20.767049 -29.258878 36.017782 -1.420217 2.518959 0.040170 -0.018268 -269101.000000 0 0 1
-4.374329 20.677749 -30.223388 36.880310 -1.362322 2.531333 0.013537 -0.010873 -155498.000000 0 0 1
-4.346129 21.143449 -31.581908 38.253773 -1.368066 2.542042 0.014197 -0.014111 -131593.000000 0 0 1
-3.920829 22.447249 -31.823368 39.140499 -1.397872 2.520176 0.036060 -0.016724 -286306.000000 0 0 1
-3.606629 22.660649 -33.337088 40.470659 -1.412962 2.538763 0.025129 -0.015114 466743.000000 0 0 1
-2.423729 21.954949 -33.721778 40.311941 -1.460846 2.561699 0.014623 -0.008857 605954.000000 0 0 1
-1.978029 22.323249 34.013793 40.733011 -1.482419 0.582586 0.008264 0.000851 211565.000000 0 0 1
-0.808029 21.420749 33.574027 39.833612 -1.533092 0.568226 0.015246 0.011531 135979.000000 0 0 1
-1.260729 20.119449 33.260618 38.892806 -1.508216 0.544885 0.003480 0.014420 791307.000000 0 0 1
-0.168929 19.342349 32.756615 38.041435 -1.562063 0.533412 0.016001 0.014622 299420.000000 0 0 1
-0.730229 17.964649 32.325445 36.989136 -1.530171 0.507593 0.006101 0.021958 331324.000000 0 0 1
-1.485029 17.915049 31.111825 35.931879 -1.488093 0.523938 -0.000052 0.020055 159764.000000 0 0 1
-1.755129 16.567149 30.794875 35.012501 -1.465250 0.495903 -0.010441 0.020556 -992958.000000 0 0 1
-2.814929 16.407149 29.706435 34.052762 -1.400883 0.510777 -0.006341 0.022654 -492566.000000 0 0 1
-4.150529 16.604049 30.065265 34.595397 -1.325845 0.517510 -0.016707 0.013200 -367011.000000 0 0 1
-4.354229 18.012149 29.880465 35.160190 -1.333608 0.555119 -0.015767 0.014336 -476008.000000 0 0 1
-5.842729 18.432749 30.098635 35.774733 -1.263839 0.571043 -0.025907 0.006175 681360.000000 0 0 1
-6.620729 17.895549 29.046275 34.752997 -1.216447 0.581223 -0.034295 0.011616 -484328.000000 0 0 1
-8.000429 18.093649 29.193245 35.265174 -1.154475 0.595584 -0.033181 0.006899 120453.000000 0 0 1
-8.886529 17.191249 28.190165 34.193491 -1.093703 0.601601 -0.035760 0.009756 361750.000000 0 0 1
-8.921129 15.785849 28.414555 33.707069 -1.056408 0.567988 -0.038174 0.004919 -40269.400000 0 0 1
-9.816329 15.496549 29.471505 34.714160 -1.006142 0.556751 -0.041115 0.005948 -486814.000000 0 0 1
-10.041029 13.984949 29.705115 34.333583 -0.948099 0.525265 -0.045191 0.007989 -168342.000000 0 0 1
-9.012329 13.129749 30.170845 34.115865 -0.969253 0.485666 -0.028628 -0.004115 -196235.000000 0 0 1
-8.586029 13.378849 31.485055 35.270698 -1.000235 0.467564 -0.025145 0.002703 -286725.000000 0 0 1
-9.429629 12.888249 32.702865 36.393711 -0.939146 0.454261 0.005047 -0.007386 -337458.000000 0 0 1
-9.347729 11.531249 32.737065 35.945308 -0.889599 0.425708 -0.003897 -0.008644 459622.000000 0 0 1
-9.862029 11.033949 33.973962 37.057223 -0.841423 0.410811 0.000801 -0.007383 -112625.000000 0 0 1
-10.052429 9.460249 34.009215 36.703874 -0.755059 0.385571 -0.006881 0.001495 -677800.000000 0 0 1
-8.825829 8.786749 33.953891 36.165853 -0.783179 0.351555 0.001452 0.000092 -423917.000000 0 0 1
-8.640629 8.101749 -33.867648 35.879192 -0.753223 2.805152 0.018924 -0.010753 -11570.700000 0 0 1
-8.000229 8.903049 -32.671958 34.795471 -0.838758 2.790425 0.018713 -0.014162 -622812.000000 0 0 1
-8.763629 9.907049 -32.081848 34.701524 -0.846563 2.750540 0.011602 -0.013855 -122406.000000 0 0 1
-8.072229 10.717949 -31.107978 33.878335 -0.925282 2.734375 0.003924 -0.006150 315881.000000 0 0 1
-7.075829 11.775249 -31.712768 34.560433 -1.029710 2.732805 -0.015748 0.001200 130240.000000 0 0 1
-7.703829 12.997049 -31.918578 35.313848 -1.035735 2.699491 -0.012638 0.002284 -102163.000000 0 0 1
-6.791929 13.909549 -32.440288 35.944097 -1.116558 2.696383 -0.026140 0.003035 -405430.000000 0 0 1
-7.390129 15.292449 -32.658128 36.810682 -1.120635 2.662019 -0.029607 -0.000904 60465.300000 0 0 1
-8.348029 15.309349 -33.720198 37.962053 -1.071577 2.664341 -0.023035 -0.006094 350764.000000 0 0 1
-8.772029 16.660949 -33.957428 38.828374 -1.086172 2.635307 -0.014634 -0.010668 -726768.000000 0 0 1
-9.117829 17.005749 33.615999 38.760362 -1.078640 0.521089 -0.023451 -0.012301 576726.000000 0 0 1
-10.173929 16.280149 32.971665 38.153411 -1.012248 0.527265 -0.038818 -0.004452 964473.000000 0 0 1
-11.469529 16.633349 33.494679 39.116645 -0.967118 0.542778 -0.026827 -0.010139 -434224.000000 0 0 1
-12.532929 16.439949 32.410535 38.442021 -0.919440 0.567771 -0.016947 -0.008466 -572569.000000 0 0 1
-12.627829 15.031149 32.150335 37.670168 -0.872072 0.548190 -0.020492 -0.006997 62389.600000 0 0 1
-13.585729 14.307549 32.868105 38.335236 -0.811270 0.540627 -0.011246 -0.005948 -433900.000000 0 0 1
-13.323429 12.803549 32.735905 37.591011 -0.765503 0.513880 -0.016985 0.004940 -2462.020000 0 0 1
-13.549129 12.397649 31.411375 36.386193 -0.741049 0.529069 -0.031221 0.003262 286198.000000 0 0 1
-12.613529 11.384349 31.114645 35.451737 -0.734223 0.499834 -0.026762 -0.000527 -5794.440000 0 0 1
-12.671829 10.958049 29.672315 34.074922 -0.712999 0.513977 -0.021702 0.003609 24257.400000 0 0 1
-13.585229 9.884149 29.522275 33.967919 -0.628988 0.517371 -0.027390 0.001418 162394.000000 0 0 1
-13.590129 9.530249 28.183655 32.708342 -0.611573 0.532254 -0.036117 0.012328 -21378.000000 0 0 1
-14.487729 8.342949 27.893685 32.520097 -0.522483 0.539945 -0.023213 0.015797 -8445.080000 0 0 1
-13.917729 7.154749 28.441905 32.462833 -0.474844 0.503006 -0.043714 0.015660 138320.000000 0 0 1
-14.800129 6.043349 28.398555 32.589013 -0.387667 0.512717 -0.028944 0.018505 176136.000000 0 0 1
-14.030229 4.681749 28.459835 32.073794 -0.322072 0.479288 -0.021198 0.016032 494040.000000 0 0 1
-13.086829 4.496849 27.433925 30.726324 -0.330977 0.467167 -0.023170 0.011412 -90920.100000 0 0 1
-13.763529 4.145249 26.243905 29.922573 -0.292536 0.501088 -0.012019 0.010406 -226871.000000 0 0 1
-12.935629 4.108149 24.938635 28.392655 -0.307510 0.498401 -0.000670 0.013197 295342.000000 0 0 1
-11.948629 3.035349 24.943785 27.824009 -0.248771 0.459027 -0.009225 0.011172 760455.000000 0 0 1
-11.291529 2.846949 23.708245 26.413720 -0.246984 0.456563 -0.001872 0.002360 265656.000000 0 0 1
-10.265829 1.668549 23.662045 25.846927 -0.161125 0.414126 -0.001990 -0.007330 518418.000000 0 0 1
-8.992529 1.902849 24.242595 25.926623 -0.208527 0.362407 -0.010673 -0.005205 -192781.000000 0 0 1
-8.305629 0.743549 24.492275 25.872917 -0.089285 0.328158 -0.013858 -0.003607 1248610.000000 0 0 1
-6.737529 1.045649 24.490995 25.422362 -0.153969 0.271520 0.001107 -0.004988 1414760.000000 0 0 1
-6.146229 1.441949 23.233445 24.075886 -0.230440 0.265319 -0.001639 0.001498 169039.000000 0 1 0
-4.766829 1.699449 23.148645 23.695369 -0.342468 0.215232 -0.000217 0.004824 -41090.500000 0 1 0
-4.312229 3.080549 23.646145 24.232731 -0.620309 0.220475 0.009724 -0.000203 -615683.000000 0 1 0
-4.181729 2.910449 25.067005 25.579529 -0.608031 0.200518 0.010962 -0.000514 -60818.100000 0 0 1
-3.783629 4.045649 25.765455 26.354160 -0.818852 0.211764 0.016164 0.000953 88504.700000 0 0 1
3.743071 -23.379251 12.628022 26.834062 -1.412041 1.080829 0.034656 -0.011989 283440.000000 0 0 1
3.722471 -24.655651 13.257222 28.240252 -1.420950 1.082135 0.022281 -0.010634 -262254.000000 0 0 1
2.450171 -25.232501 13.077822 28.525635 -1.473996 1.094536 0.005994 -0.005128 48627.400000 0 0 1
2.314771 -26.579891 13.872922 30.071693 -1.483928 1.091305 -0.002632 -0.007278 -158798.000000 0 0 1
2.074871 -26.538321 15.281622 30.693901 -1.492771 1.049653 0.005293 -0.011308 130748.000000 0 0 1
2.336071 -27.775341 15.873222 32.076253 -1.486888 1.053124 -0.002441 -0.005416 -465480.000000 0 0 1
2.050471 -27.832851 17.355322 32.864559 -1.497258 1.014451 -0.004100 -0.002420 -231940.000000 0 0 1
2.923571 -27.100311 18.176422 32.762119 -1.463332 0.982674 0.010439 -0.003940 118579.000000 0 0 1
2.758671 -27.553721 19.528722 33.884935 -1.471009 0.956572 0.003170 -0.003720 392822.000000 0 0 1
3.547771 -26.628891 20.544722 33.819671 -1.438346 0.917914 0.008132 -0.005738 387866.000000 0 0 1
2.835471 -25.470621 20.892822 33.065124 -1.459930 0.886834 0.011765 0.000076 -290213.000000 0 0 1
3.712271 -24.683051 21.582122 32.997302 -1.421518 0.857861 0.023993 0.000563 -268239.000000 0 0 1
3.056071 -23.408851 22.206822 32.410752 -1.440979 0.815961 0.025435 -0.001927 -78094.600000 0 0 1
2.510471 -22.363551 21.412422 31.063205 -1.459007 0.810249 0.036151 -0.004991 -107075.000000 0 0 1
3.334071 -21.751451 20.482722 30.062993 -1.418700 0.821223 0.037998 0.000427 -203332.000000 0 0 1
2.527371 -20.585951 19.806922 28.678967 -1.448636 0.808419 0.018767 -0.004012 280480.000000 0 0 1
2.471771 -19.424251 20.638122 28.448959 -1.444225 0.759117 0.015111 -0.004381 136519.000000 0 0 1
1.380371 -18.553551 20.359422 27.579807 -1.496534 0.740398 0.007382 -0.008711 279500.000000 0 0 1
1.269471 -17.337851 21.295522 27.490215 -1.497707 0.684622 -0.000360 -0.002111 222268.000000 0 0 1
2.246071 -16.329451 21.087822 26.765501 -1.434107 0.663448 -0.006039 0.010892 51902.300000 0 0 1
1.718471 -15.086751 21.471122 26.297762 -1.457379 0.615540 -0.005189 0.009708 492083.000000 0 0 1
2.633571 -13.896051 21.022422 25.337288 -1.383498 0.592221 -0.011895 0.006150 -125205.000000 0 0 1
2.713271 -13.599251 19.599022 24.008814 -1.373866 0.615775 -0.007130 0.005485 67983.800000 0 1 0
1.503671 -13.153551 18.993322 23.152175 -1.456974 0.608741 -0.000347 0.020575 171199.000000 0 1 0
0.914271 -11.826951 19.493022 22.818645 -1.493646 0.546674 -0.019820 0.015692 -379850.000000 0 1 0
1.578071 -10.624251 19.072922 21.889298 -1.423340 0.512879 -0.015746 0.006245 -160957.000000 0 1 0
1.394171 -9.558251 20.024222 22.232259 -1.425957 0.449457 -0.014721 -0.006794 124824.000000 0 1 0
-0.028629 -8.955051 20.169722 22.068336 1.567599 0.417842 -0.007612 -0.007307 246914.000000 0 1 0
-0.246029 -8.226351 21.357022 22.887896 1.540898 0.367818 -0.013989 -0.007619 -1084320.000000 0 1 0
-1.459229 -7.584151 21.213422 22.575606 1.380714 0.349158 -0.008138 -0.010383 -850046.000000 0 1 0
-1.815129 -6.938651 22.578522 23.690277 1.314933 0.307573 -0.012871 -0.006794 -375262.000000 0 1 0
-2.064429 -7.778251 23.657222 24.988542 1.311367 0.327894 -0.012573 -0.000838 85660.900000 0 1 0
-2.027129 -7.120951 24.921622 25.998162 1.293461 0.288781 -0.015809 0.007541 -352087.000000 0 0 1
-2.119829 -8.121751 26.009022 27.329942 1.315486 0.312176 -0.006371 0.006007 257331.000000 0 0 1
-0.969629 -8.932351 26.273622 27.767432 1.462667 0.329504 -0.013116 0.002893 105742.000000 0 0 1
-1.124429 -9.833951 27.367922 29.102819 1.456949 0.347029 0.007061 -0.006866 -583532.000000 0 0 1
-0.049929 -10.867551 27.709922 29.764844 1.566202 0.373759 -0.000280 -0.010260 -206937.000000 0 0 1
1.030871 -10.327851 28.460922 30.294410 -1.471311 0.349694 -0.014699 -0.004916 368195.000000 0 0 1
1.989171 -11.401951 28.644522 30.894497 -1.398076 0.384003 -0.000262 -0.012112 386775.000000 0 0 1
3.164971 -11.040251 29.543322 31.697193 -1.291608 0.370770 0.001913 -0.008356 24595.400000 0 0 1
2.575271 -10.912251 30.808622 32.785369 -1.339039 0.349025 0.005961 -0.010815 277600.000000 0 0 1
3.491371 -10.342051 31.721722 33.547211 -1.245220 0.331410 0.002600 -0.000408 -245625.000000 0 0 1
2.941071 -10.210751 33.160722 34.821586 -1.290351 0.310098 0.002395 -0.000503 -247036.000000 0 0 1
2.759971 -11.476451 33.771422 35.774786 -1.334788 0.336244 0.013687 -0.005186 20077.300000 0 0 1
2.352171 -11.395851 -33.955300 35.893740 -1.367249 2.811447 0.014985 -0.010262 -458707.000000 0 0 1
3.229671 -10.687651 -32.873700 34.717961 -1.277334 2.814184 0.004939 0.004983 -156045.000000 0 0 1
3.280271 -9.271951 -33.001900 34.436241 -1.230754 2.851957 0.001883 0.001794 216873.000000 0 0 1
3.867471 -8.658151 -31.862300 33.243452 -1.150702 2.852326 0.006182 0.002652 -40104.300000 0 0 1
3.218971 -7.283751 -31.480500 32.472091 -1.154666 2.893829 0.004417 0.006294 85761.200000 0 0 1
3.437071 -6.309451 -32.475800 33.261092 -1.071993 2.923862 0.017415 0.000949 104202.000000 0 0 1
2.970671 -5.110751 -31.955900 32.498065 -1.044271 2.958674 0.022184 0.004395 88087.800000 0 0 1
3.277771 -3.979551 -32.950600 33.351502 -0.881798 2.986385 0.023173 0.007579 596365.000000 0 0 1
2.291471 -3.994351 -34.007300 34.317665 -1.049956 3.007000 0.017288 0.008026 534705.000000 0 0 1
2.495571 -2.968451 34.108422 34.328181 -0.871727 0.113213 0.021811 0.011361 -333715.000000 0 0 1
2.088071 -3.286951 32.701722 32.932760 -1.004853 0.118522 0.019420 0.009040 1233020.000000 0 0 1
0.677171 -3.006051 32.506822 32.652540 -1.349226 0.094509 0.023966 0.003822 762558.000000 0 0 1
0.279071 -3.266551 31.217122 31.388803 -1.485570 0.104637 0.004886 0.013212 1779240.000000 0 0 1
-1.313429 -3.453551 31.141022 31.359454 1.207376 0.118098 0.006249 0.005391 1899060.000000 0 0 1
-2.081629 -2.295951 30.962022 31.116738 0.834318 0.099762 0.013066 0.006553 300746.000000 0 0 1
-3.471429 -2.571651 31.140222 31.438474 0.637590 0.137854 -0.004030 0.007228 855784.000000 0 0 1
-4.444729 -1.629251 30.369222 30.735968 0.351349 0.154635 0.001934 0.003335 -147874.000000 0 0 1
-4.549929 -1.907651 28.977322 29.394322 0.397008 0.168642 -0.010192 0.000326 302787.000000 0 0 1
-5.589429 -1.259951 28.225522 28.801203 0.221711 0.200275 -0.015031 -0.007733 455865.000000 0 0 1
-5.703029 0.292249 28.170722 28.743687 -0.051200 0.200001 -0.001641 -0.005797 -205606.000000 0 0 1
-6.196029 0.751249 29.387122 30.042605 -0.120658 0.209276 0.003390 -0.000625 -394845.000000 0 0 1
-6.446329 2.155149 29.263322 30.042334 -0.322640 0.228225 0.005189 0.001872 -867730.000000 0 0 1
-7.858829 2.527149 29.698922 30.824887 -0.311125 0.271118 -0.005374 0.003316 -730274.000000 0 0 1
-8.765529 1.917349 28.825422 30.189662 -0.215346 0.301773 -0.020884 0.012838 -1082060.000000 0 0 1
-10.053729 2.409649 28.988322 30.776723 -0.235240 0.342580 -0.028485 0.021656 -1178640.000000 0 0 1
-11.073929 1.663449 28.182922 30.326161 -0.149098 0.378210 -0.025584 0.023315 -640172.000000 0 0 1
-11.271529 0.324249 28.741522 30.874384 -0.028759 0.373878 -0.021837 0.019617 94326.600000 0 0 1
-11.657129 -0.550951 27.687522 30.046482 0.047228 0.398898 -0.012772 0.018768 -763025.000000 0 0 1
-11.507829 -2.047951 28.022222 30.362298 0.176118 0.395178 -0.003732 0.012602 831113.000000 0 0 1
-10.180529 -2.538951 28.277822 30.161642 0.244407 0.355299 -0.004747 0.007527 1809070.000000 0 0 1
-9.112729 -2.383751 27.286122 28.866184 0.255852 0.332398 0.011074 -0.000619 406173.000000 0 0 1
-9.276929 -2.989551 25.828822 27.606646 0.311749 0.360837 -0.001421 0.001319 -115625.000000 0 0 1
-10.193229 -2.244951 24.980322 27.073201 0.216779 0.395782 -0.009995 -0.002072 624488.000000 0 0 1
-10.161529 -2.685951 23.615122 25.848501 0.258415 0.418751 -0.000676 -0.001638 27643.100000 0 0 1
-9.013129 -2.347951 22.588422 24.433301 0.254840 0.391092 -0.000278 -0.005753 1550620.000000 0 1 0
-7.697329 -2.695551 23.063422 24.462958 0.336847 0.339895 -0.007295 -0.004886 464185.000000 0 1 0
-6.676029 -2.474151 22.115922 23.233700 0.354909 0.311451 -0.008349 -0.003781 517787.000000 0 1 0
-5.279129 -2.590951 22.817822 23.563430 0.456254 0.252234 -0.006367 -0.003779 250714.000000 0 1 0
-4.739229 -3.901551 23.001322 23.806369 0.688755 0.260802 -0.001702 -0.001084 128502.000000 0 1 0
-5.479629 -4.679151 23.940422 25.001292 0.706764 0.292356 0.002156 0.001436 -46110.200000 0 0 1
-5.465229 -6.176151 23.540422 24.943236 0.846391 0.336973 0.010536 0.003792 22133.100000 0 1 0
-6.326929 -6.550351 22.460122 24.236217 0.802747 0.385216 0.018947 -0.005458 169139.000000 0 1 0
-5.821029 -6.149251 21.182722 22.812395 0.812811 0.380277 0.017429 -0.007102 220580.000000 0 1 0
-6.929329 -6.206451 20.087722 22.137123 0.730422 0.433687 0.013263 -0.009597 668660.000000 0 1 0
-7.946529 -5.229251 20.275322 22.396006 0.582017 0.438688 0.014018 -0.007848 401928.000000 0 1 0
-8.866129 -5.090251 19.189622 21.743056 0.521175 0.489510 0.014305 -0.005961 850831.000000 0 1 0
-9.639329 -3.746251 19.205622 21.813000 0.370677 0.493950 0.010944 -0.007735 72876.000000 0 1 0
-8.740729 -2.782351 18.803022 20.921173 0.308178 0.453873 0.009943 -0.011843 -321710.000000 0 1 0
-9.308229 -1.511551 18.922422 21.142043 0.160983 0.462334 0.002815 -0.011208 -9187.310000 0 1 0
-8.373529 -0.343851 18.568922 20.372508 0.041041 0.423954 0.007879 -0.002860 498687.000000 0 1 0
-7.309229 -0.024851 19.467322 20.794280 0.003400 0.359177 0.007650 0.010588 811798.000000 0 1 0
-7.756829 0.814349 20.545422 21.976031 -0.104602 0.362815 0.021636 0.009593 -42043.900000 0 1 0
-7.825429 2.330249 20.311022 21.890752 -0.289418 0.382228 0.024966 -0.001704 -569170.000000 0 1 0
-8.800729 2.765249 19.448822 21.525708 -0.304439 0.442892 0.015006 -0.006116 -483021.000000 0 1 0
-8.675629 4.122549 19.197622 21.466501 -0.443601 0.463918 0.017169 -0.008095 -121368.000000 0 1 0
-9.428129 4.638449 17.966222 20.813216 -0.457211 0.529198 0.010294 -0.010419 -460446.000000 0 1 0
-10.819129 4.464549 18.155322 21.600960 -0.391367 0.572615 0.012361 -0.008666 -22137.900000 0 1 0
-11.569429 5.000949 17.060222 21.211138 -0.408000 0.636292 0.010994 -0.002961 -26349.100000 0 1 0
-11.765329 6.527949 16.902822 21.604224 -0.506556 0.672310 0.019007 -0.003823 -888873.000000 0 1 0
-10.524629 7.192949 16.750222 21.049377 -0.599525 0.650537 0.016289 -0.005409 72773.600000 0 1 0
-10.622729 8.595749 16.633722 21.526959 -0.680316 0.687724 0.016874 -0.014241 438280.000000 0 1 0
-9.227429 9.292249 16.660122 21.190824 -0.788898 0.666169 0.007716 -0.010676 576554.000000 0 1 0
-8.557129 9.365149 17.952222 21.982101 -0.830452 0.615171 0.016463 -0.002029 -23673.600000 0 1 0
-7.445129 10.220049 18.012922 22.007833 -0.941209 0.612040 0.010356 -0.005339 -229412.000000 0 1 0
-7.576629 11.757449 17.829322 22.661148 -0.998360 0.665223 -0.007184 -0.002198 -600266.000000 0 1 0
-7.812329 12.203649 16.518522 21.973236 -1.001367 0.720075 -0.000787 -0.008370 -55971.500000 0 1 0
-8.597229 13.372749 16.517622 22.925414 -0.999434 0.766282 0.013629 -0.011547 -205374.000000 0 1 0
-8.650829 13.955949 15.140022 22.334404 -1.015897 0.825923 0.019851 -0.010631 1440030.000000 0 1 0
-7.392529 14.611349 14.814922 22.082186 -1.102405 0.835376 0.012698 -0.003315 1014640.000000 0 1 0
-7.547229 15.344249 13.615122 21.858138 -1.113682 0.898370 0.006607 -0.003511 -41230.300000 0 1 0
-6.490429 16.472449 13.440422 22.228634 -1.195458 0.921477 -0.017867 0.003260 990507.000000 0 1 0
-5.116329 16.076749 13.361122 21.521112 -1.262687 0.900985 -0.018781 -0.004948 347210.000000 0 1 0
-4.331029 17.263949 13.161722 22.136682 -1.324998 0.934070 -0.017461 -0.011026 -503084.000000 0 1 0
-2.817329 17.168149 13.177922 21.825222 -1.408144 0.922545 -0.014374 -0.012294 -147051.000000 0 1 0
-2.090129 16.784449 14.375322 22.197663 -1.446906 0.866359 -0.010657 -0.001402 227294.000000 0 1 0
-2.389829 15.429949 14.673822 21.426984 -1.417135 0.816427 -0.013232 0.005758 -513691.000000 0 1 0
-1.506729 14.897949 15.826422 21.787491 -1.470002 0.757728 -0.014138 0.008987 -89736.500000 0 1 0
-0.217429 14.556749 15.365622 21.167158 -1.555861 0.758428 -0.013532 0.001527 -340037.000000 0 1 0
0.656071 14.050449 16.353422 21.570349 1.524136 0.710335 -0.009473 0.014269 -59979.100000 0 1 0
1.615271 15.064049 16.923922 22.714617 1.463978 0.730160 -0.012638 0.007481 -713195.000000 0 1 0
0.988171 16.017649 17.787222 23.956770 1.509182 0.734044 -0.021614 0.012225 -122875.000000 0 1 0
1.825671 17.073849 18.287822 25.085730 1.464273 0.753917 -0.010364 0.009192 -400311.000000 0 0 1
1.068071 18.320849 18.815622 26.283491 1.512564 0.772924 0.000939 0.007671 20246.900000 0 0 1
0.388571 19.067649 17.879822 26.142193 1.550421 0.817640 -0.001923 0.008041 -515437.000000 0 0 1
-0.836529 18.553149 17.432322 25.471650 -1.525739 0.817041 -0.005526 0.014115 -1018020.000000 0 0 1
-1.578929 19.530749 16.505122 25.619567 -1.490129 0.870769 -0.004505 0.013311 -326512.000000 0 0 1
-2.168329 20.619049 17.222022 26.952641 -1.466020 0.877633 -0.011778 0.011130 -187478.000000 0 0 1
-2.597329 21.606949 16.316822 27.200093 -1.451162 0.927444 0.009818 -0.005685 -654080.000000 0 0 1
-3.359029 22.767549 17.007122 28.616194 -1.424317 0.934379 0.008241 -0.001923 729868.000000 0 0 1
-4.578329 22.387649 17.694722 28.901057 -1.369075 0.911891 0.017654 0.002202 867787.000000 0 0 1
-4.840729 23.281149 18.770622 30.294897 -1.365792 0.902567 0.016090 -0.003059 766217.000000 0 0 1
-6.041029 22.684149 19.609522 30.587547 -1.310526 0.874872 0.001740 -0.009004 224199.000000 0 0 1
-7.328029 23.075649 19.272022 30.945055 -1.263303 0.898503 -0.005032 -0.000302 119140.000000 0 0 1
-8.369929 22.394349 20.031022 31.189813 -1.213120 0.873393 -0.027429 -0.004003 854794.000000 0 0 1
-9.785329 22.811349 19.602522 31.628613 -1.165570 0.902344 -0.015982 -0.010517 -342324.000000 0 0 1
-10.102029 24.145849 20.027022 32.956860 -1.174550 0.917668 -0.001082 -0.002320 72495.900000 0 0 1
-11.235129 24.579349 19.288722 33.202821 -1.142057 0.950918 -0.013933 -0.003302 175727.000000 0 0 1
-11.651929 26.052849 19.691122 34.673602 -1.150238 0.966845 -0.007751 -0.002436 126452.000000 0 0 1
-12.291029 26.171549 20.949422 35.705709 -1.131736 0.943788 -0.007781 0.005361 -105663.000000 0 0 1
-12.828129 27.425249 21.182822 36.951551 -1.133281 0.960318 -0.000317 -0.007983 -752257.000000 0 0 1
-13.534029 27.259349 22.526522 37.864050 -1.109960 0.933616 0.018202 -0.009544 -822988.000000 0 0 1
-14.888529 26.936449 22.419922 38.077467 -1.065861 0.941226 0.011638 -0.013386 -481321.000000 0 0 1
-15.539829 26.876849 23.658622 39.033085 -1.046571 0.919627 0.006206 -0.004236 -250854.000000 0 0 1
-16.999729 26.443249 23.612822 39.316683 -0.999446 0.926570 0.023957 -0.009225 -368232.000000 0 0 1
-17.032429 25.120549 23.165222 38.180795 -0.974970 0.918863 0.033627 -0.004604 48441.400000 0 0 1
-18.341329 24.628049 22.944422 38.332645 -0.930674 0.929093 0.047438 0.009751 -35273.800000 0 0 1
26.461671 24.408549 23.799045 43.155438 0.745060 0.986668 0.038454 -0.009155 -72082.200000 0 0 1
26.397671 23.761849 25.049725 43.462066 0.732898 0.956531 0.041836 -0.017698 215005.000000 0 0 1
26.275171 22.396249 24.938705 42.590088 0.705870 0.945236 0.044530 -0.013392 -168654.000000 0 0 1
25.845071 21.792949 26.280675 42.820254 0.700542 0.910002 0.057201 -0.018727 514963.000000 0 0 1
24.536771 22.139549 26.758505 42.523291 0.734085 0.890187 0.069129 -0.013833 846471.000000 0 0 1
24.413171 21.719849 28.123615 43.112556 0.727083 0.860142 0.068002 -0.015677 1049820.000000 0 0 1
22.970371 22.156549 28.611335 42.862094 0.767366 0.839922 0.068317 -0.009262 924736.000000 0 0 1
22.796971 23.515249 28.935985 43.703089 0.800906 0.847174 0.071198 -0.025400 428335.000000 0 0 1
21.528171 23.719449 29.550755 43.581206 0.833789 0.825674 0.083800 -0.020308 112983.000000 0 0 1
21.189271 25.146949 29.945025 44.475372 0.870604 0.832141 0.082036 -0.014483 -467714.000000 0 0 1
20.472871 25.832949 28.961685 43.877772 0.900639 0.849906 0.071072 -0.030630 70847.200000 0 0 1
19.837671 27.034449 29.343485 44.558217 0.937749 0.851916 0.056569 -0.029330 227615.000000 0 0 1
18.628871 27.077349 30.331235 44.723612 0.968178 0.825496 0.063193 -0.031361 -21270.200000 0 0 1
17.348071 26.972249 29.731435 43.731179 0.999229 0.823214 0.076804 -0.027687 875711.000000 0 0 1
16.234871 27.038449 30.645545 43.974972 1.030056 0.799750 0.062902 -0.023290 697574.000000 0 0 1
15.835771 25.824649 31.495675 43.699676 1.020725 0.765941 0.017457 -0.014552 -146973.000000 0 0 1
16.664871 25.576149 32.627985 44.681570 0.993312 0.752132 0.032342 -0.016957 657174.000000 0 0 1
15.852171 24.800949 33.512759 44.603625 1.002068 0.720697 0.003336 -0.013576 445605.000000 0 0 1
16.486071 24.562249 -34.118311 45.156990 0.979665 2.427288 0.016707 -0.016290 74814.100000 0 0 1
16.732571 25.823949 -33.583458 45.548918 0.995865 2.399869 0.015973 -0.017928 9742.080000 0 0 1
16.562671 25.766649 -32.161308 44.413872 0.999503 2.380565 -0.007260 -0.000399 -433254.000000 0 0 1
16.995671 26.996749 -31.418008 44.774641 1.008935 2.348566 -0.004252 -0.002276 -138600.000000 0 0 1
16.146971 28.106349 -31.692528 45.333297 1.049341 2.344935 -0.002538 0.005538 560152.000000 0 0 1
16.624771 29.277849 -30.963108 45.741551 1.054369 2.314359 0.009310 -0.000260 12116.800000 0 0 1
16.055671 29.355049 -29.502718 44.608450 1.070300 2.293441 0.014550 -0.007885 -306484.000000 0 0 1
16.493971 28.340049 -28.665598 43.553713 1.043716 2.289177 -0.005872 0.001677 65800.200000 0 0 1
16.149271 28.728249 -27.355008 42.829986 1.058681 2.263589 -0.011191 0.004202 -146456.000000 0 0 1
16.696471 27.831749 -26.233478 41.732167 1.030445 2.250568 -0.009297 0.018054 1424280.000000 0 0 1
18.137271 27.930749 -26.065488 42.290625 0.994867 2.234885 0.002196 0.016077 987688.000000 0 0 1
18.719271 27.315649 -24.976578 41.477527 0.970008 2.217014 0.006277 0.015931 -134748.000000 0 0 1
20.249271 27.266949 -25.027978 42.189088 0.932028 2.205866 0.006876 0.013958 -240901.000000 0 0 1
20.873871 27.015649 -23.791778 41.612648 0.912951 2.179426 0.005427 0.014547 -1191060.000000 0 0 1
22.233571 26.865249 -23.989178 42.326752 0.879454 2.173366 0.003385 0.016174 -800739.000000 0 0 1
22.979071 26.877549 -22.657078 41.997423 0.863433 2.140624 0.008789 0.016099 137472.000000 0 0 1
22.393271 25.862449 -21.819578 40.576087 0.857166 2.138556 -0.008737 0.017223 278005.000000 0 0 1
23.002471 25.782249 -20.558378 40.205534 0.842317 2.107530 -0.005810 0.014744 -568296.000000 0 0 1
22.610371 24.502349 -19.841478 38.797915 0.825535 2.107616 -0.003337 0.009953 -1265410.000000 0 0 1
23.118871 23.247749 -20.245478 38.533354 0.788178 2.123983 -0.000065 0.012750 -48121.300000 0 0 1
22.736871 22.322449 -19.253378 37.228344 0.776201 2.114337 0.005640 0.004706 -897912.000000 0 0 1
23.104471 20.830249 -19.576878 36.755544 0.733681 2.132494 0.015137 0.009839 231411.000000 0 0 1
22.328171 20.203049 -20.601878 36.484898 0.735474 2.170828 0.000316 0.013563 820352.000000 0 0 1
20.932771 20.154849 -20.288278 35.440274 0.766467 2.180304 -0.005156 0.015918 192770.000000 0 0 1
19.977371 19.878849 -21.501178 35.448055 0.782926 2.222516 -0.001960 0.021588 145543.000000 0 0 1
19.971871 20.901449 -22.529678 36.651502 0.808137 2.232802 -0.006565 0.022107 31714.000000 0 0 1
19.817771 22.251949 -22.089078 37.092056 0.843194 2.208710 -0.008471 0.021391 -408677.000000 0 0 1
19.575571 23.158549 -23.270978 38.223812 0.869046 2.225354 -0.005056 0.023882 -663232.000000 0 0 1
18.217971 23.119149 -23.544278 37.692473 0.903413 2.245469 0.009265 0.016403 -1114520.000000 0 0 1
17.910771 23.615849 -24.799478 38.646062 0.921927 2.267519 0.003653 0.013895 -7406.520000 0 0 1
16.376371 23.656249 -24.962178 38.090865 0.965281 2.285419 0.006488 0.015097 -83936.500000 0 0 1
15.733771 24.675249 -24.247678 38.004859 1.003164 2.262714 0.008166 0.000608 -380282.000000 0 0 1
14.351071 24.650249 -24.514378 37.610407 1.043577 2.280749 0.006977 0.003723 -355881.000000 0 0 1
13.679171 25.830349 -23.853878 37.727101 1.083768 2.255282 0.006019 0.003787 -452176.000000 0 0 1
13.886071 27.001849 -24.531478 39.034808 1.095803 2.250357 -0.007206 0.011393 398711.000000 0 0 1
12.842971 27.927549 -24.212278 39.129583 1.139767 2.237974 0.008523 0.010672 247845.000000 0 0 1
12.999071 29.284349 -24.991078 40.633766 1.153034 2.233223 0.003473 0.004562 -392376.000000 0 0 1
12.951471 29.156649 -26.376598 41.395358 1.152774 2.261640 0.004141 -0.012398 -137245.000000 0 0 1
12.303171 30.146349 -27.125938 42.379085 1.183314 2.265397 0.028846 -0.020318 -545520.000000 0 0 1
12.736671 31.638049 -26.962178 43.475832 1.188073 2.239749 0.043160 -0.019355 -492154.000000 0 0 1
14.001171 31.746949 -27.543188 44.300437 1.155432 2.241754 0.020536 0.002635 -388331.000000 0 0 1
14.688071 32.972749 -27.229468 45.214882 1.151724 2.217080 0.018199 -0.014085 -342301.000000 0 0 1
16.113671 32.947249 -27.758438 45.996766 1.115927 2.218663 0.005955 0.003297 -48005.800000 0 0 1
17.028371 32.242949 -26.868048 45.293103 1.084901 2.205829 -0.020997 0.005134 1329360.000000 0 0 1
18.389271 32.332849 -27.375278 46.184242 1.053673 2.205254 0.002870 0.008153 1035390.000000 0 0 1
19.333271 31.629449 -26.350218 45.481110 1.022151 2.188747 -0.003719 0.011994 -803574.000000 0 0 1
19.840971 32.378949 -25.258498 45.607589 1.021037 2.157744 0.000565 0.014791 27271.900000 0 0 1
20.909171 33.254149 -25.450028 46.805296 1.009491 2.145686 0.007173 0.002296 -405906.000000 0 0 1
22.296971 32.685449 -25.784478 47.226399 0.972139 2.148350 0.005263 0.006328 -723812.000000 0 0 1
22.263771 32.122049 -27.078118 47.547092 0.964717 2.176695 -0.003146 0.009179 -366890.000000 0 0 1
23.422171 32.269749 -27.857438 48.641254 0.942948 2.180607 -0.009647 0.017230 -828583.000000 0 0 1
23.315471 31.546649 -29.237598 48.924834 0.934321 2.211304 -0.010953 0.010334 82582.300000 0 0 1
22.369371 32.101649 -30.155198 49.398791 0.962201 2.227417 0.007680 0.002888 185121.000000 0 0 1
21.133171 31.420049 -30.165538 48.412706 0.978696 2.243485 0.007710 -0.007156 -669367.000000 0 0 1
20.088471 32.135849 -30.993528 48.957719 1.012117 2.256305 -0.003835 -0.016166 -1021000.000000 0 0 1
19.644371 33.373049 -30.419768 49.244533 1.038779 2.236648 0.007653 -0.011709 94262.100000 0 0 1
18.799471 34.109449 -31.269248 49.946376 1.067070 2.247282 0.013323 -0.012906 1225790.000000 0 0 1
17.265771 33.696049 -31.412038 49.196003 1.097280 2.263354 0.011238 -0.019037 884748.000000 0 0 1
16.931371 32.419949 -31.913658 48.540766 1.089506 2.288240 0.009473 -0.021185 -24786.800000 0 0 1
17.153671 32.288349 -33.319228 49.466725 1.082451 2.309823 0.018147 -0.019043 -106501.000000 0 0 1
16.303471 33.119449 -34.372627 50.439851 1.113358 2.320549 0.019401 -0.020286 138417.000000 0 0 1
16.873471 34.417249 34.521733 51.584989 1.114969 0.837637 0.014216 -0.010283 148733.000000 0 0 1
16.742571 -34.126394 33.243955 50.498366 -1.114693 0.852215 0.018936 -0.003147 -236591.000000 0 0 1
15.353571 -33.746094 32.712955 49.443588 -1.143814 0.847817 0.025850 0.000005 -1098080.000000 0 0 1
14.432371 34.376449 32.525625 49.476760 1.173310 0.853444 0.030610 -0.001327 876167.000000 0 0 1
13.079671 -34.324394 32.194105 48.843650 -1.206723 0.851141 0.037180 0.002269 1180510.000000 0 0 1
12.937871 -33.583594 30.805695 47.373379 -1.203075 0.862851 0.020483 0.011332 -1033030.000000 0 0 1
13.343571 -32.209594 30.715545 46.464540 -1.178046 0.848574 0.019663 0.007807 300580.000000 0 0 1
12.910071 -31.541494 29.526635 45.092770 -1.182295 0.856882 0.012892 0.005054 -102830.000000 0 0 1
13.232671 -30.011794 29.420325 44.060944 -1.155523 0.839656 0.018281 -0.005234 -142714.000000 0 0 1
12.499671 -29.270694 30.347605 43.977180 -1.167202 0.809202 0.013243 0.009840 -54946.800000 0 0 1
12.821071 -27.916494 30.308515 43.154566 -1.140264 0.792138 0.021262 -0.005139 -370011.000000 0 0 1
12.225871 -27.140094 31.549775 43.375625 -1.147549 0.756327 -0.009333 -0.000731 287159.000000 0 0 1
10.834271 -27.048894 31.781535 43.117166 -1.189821 0.742032 -0.038259 0.005878 230951.000000 0 0 1
10.110971 -26.226594 30.852315 41.736450 -1.202832 0.738889 -0.051042 -0.001080 -267215.000000 0 0 1
10.463971 -24.647094 30.854295 40.852924 -1.169305 0.714756 -0.060872 0.003043 -56798.500000 0 0 1
9.853171 -24.051394 31.983985 41.213223 -1.181980 0.682400 -0.026099 -0.001332 273732.000000 0 0 1
10.701371 -23.030594 32.464445 41.217323 -1.135819 0.663826 -0.033421 0.001369 132135.000000 0 0 1
10.137871 -22.340094 33.744078 41.719528 -1.144789 0.628634 -0.038364 0.001595 -467555.000000 0 0 1
10.177071 -23.075694 -34.104504 42.416714 -1.155427 2.504846 -0.030667 0.002679 802102.000000 0 0 1
11.481671 -23.510294 -33.664588 42.636453 -1.116498 2.480909 -0.019182 0.000177 1407440.000000 0 0 1
12.360871 -22.358494 -32.972698 41.712015 -1.065768 2.482396 -0.010032 -0.010168 209408.000000 0 0 1
12.690471 -21.332094 -33.870968 41.992246 -1.034135 2.509175 -0.016757 -0.004649 -461695.000000 0 0 1
13.650671 -20.493294 -33.347088 41.452915 -0.983183 2.505557 -0.010866 -0.001748 -500917.000000 0 0 1
13.687871 -19.215294 -34.203026 41.550359 -0.951835 2.537769 -0.012023 0.003347 -626498.000000 0 0 1
14.158171 -19.375694 33.538776 41.239796 -0.939750 0.621059 0.002849 0.002329 200586.000000 0 0 1
13.929271 -18.312294 32.611935 39.911188 -0.920513 0.614412 -0.013110 0.006794 11927.000000 0 0 1
14.836371 -17.041194 32.721195 39.764265 -0.854454 0.604336 0.002255 0.006798 -326050.000000 0 0 1
14.620271 -16.366494 33.962089 40.435602 -0.841692 0.573687 -0.007038 0.007657 503028.000000 0 0 1
15.265471 -15.089394 34.156079 40.340576 -0.779598 0.561058 0.020211 0.005685 -326985.000000 0 0 1
16.774271 -14.985294 34.352318 41.061136 -0.729129 0.579724 0.036242 0.005148 -216568.000000 0 0 1
17.571871 -15.492094 33.269989 40.689897 -0.722579 0.613484 0.039266 -0.002727 597559.000000 0 0 1
18.942471 -15.101894 33.414742 41.272622 -0.673062 0.627308 0.050755 -0.003390 572375.000000 0 0 1
19.830871 -15.968194 32.505265 41.289694 -0.677915 0.664462 0.056044 -0.001868 -335834.000000 0 0 1
19.677171 -15.541694 31.179325 40.011068 -0.668511 0.677300 0.044110 0.004455 25218.500000 0 0 1
20.464171 -16.288794 30.318435 40.041411 -0.672277 0.711816 0.045938 0.001679 -453600.000000 0 0 1
20.736171 -15.600094 28.958545 38.883788 -0.644980 0.730642 0.049593 0.009387 438848.000000 0 0 1
21.703971 -14.550694 29.238395 39.213120 -0.590594 0.729320 0.030984 0.006473 829111.000000 0 0 1
21.778371 -13.720094 28.091075 38.100484 -0.562178 0.741747 0.030753 0.000583 -85631.200000 0 0 1
22.575571 -12.433994 28.208355 38.209578 -0.503436 0.740319 0.024770 0.003263 101073.000000 0 0 1
21.890571 -11.566694 29.105765 38.211661 -0.486098 0.704866 0.022755 0.002618 487976.000000 0 0 1
22.461871 -10.244994 29.008435 38.091795 -0.427920 0.705110 0.023476 -0.000669 18741.100000 0 0 1
21.401471 -9.141894 29.008375 37.189823 -0.403700 0.676117 0.025306 0.000675 -194799.000000 0 0 1
20.633171 -9.057594 30.176505 37.661508 -0.413654 0.641405 0.022789 -0.006619 -349231.000000 0 0 1
19.599171 -8.113994 29.927435 36.682635 -0.392514 0.616603 0.021779 -0.004681 -792767.000000 0 0 1
18.557271 -8.133694 31.002635 37.036369 -0.413084 0.578861 0.014650 0.002560 -1309490.000000 0 0 1
18.765871 -7.634494 32.311095 38.137255 -0.386379 0.560044 0.018377 0.002060 -199245.000000 0 0 1
19.296771 -8.550294 33.207887 39.347638 -0.417097 0.566170 0.025242 -0.000661 -768029.000000 0 0 1
19.439471 -7.927594 -34.420105 40.317284 -0.387220 2.593905 0.028616 -0.007824 -187572.000000 0 0 1
18.181771 -7.789894 -33.808588 39.169884 -0.404785 2.612226 0.013982 -0.011855 -1766.690000 0 0 1
18.220471 -6.787694 -32.887228 38.205080 -0.356604 2.607651 0.014041 -0.012443 269344.000000 0 0 1
16.960071 -6.786994 -31.974118 36.824605 -0.380657 2.622524 0.008822 -0.016730 261243.000000 0 0 1
17.051171 -5.890194 -30.865768 35.750978 -0.332609 2.612677 0.002600 -0.014968 -539494.000000 0 0 1
15.879871 -5.840194 -30.135358 34.560352 -0.352420 2.629995 -0.002779 -0.006378 -931326.000000 0 0 1
15.804271 -4.738394 -29.029608 33.390799 -0.291289 2.624762 -0.012995 -0.004904 -288639.000000 0 0 1
16.549771 -4.947094 -27.812038 32.739550 -0.290468 2.585821 -0.010032 -0.006101 48039.600000 0 0 1
16.148771 -5.864794 -26.871408 31.894375 -0.348361 2.572727 0.003617 -0.011770 125753.000000 0 0 1
14.756071 -5.632694 -26.199278 30.592009 -0.364649 2.599070 -0.007854 -0.008232 54094.800000 0 0 1
14.684971 -4.384994 -25.524648 29.772205 -0.290176 2.600859 -0.009895 -0.003667 -197577.000000 0 0 1
13.532171 -4.267894 -24.702178 28.487404 -0.305514 2.620200 -0.028102 0.003887 221621.000000 0 0 1
13.360771 -3.026894 -23.815478 27.474520 -0.222790 2.619586 -0.024786 0.006319 -62061.300000 0 0 1
13.490571 -1.756894 -24.472578 27.999808 -0.129502 2.634225 -0.031392 0.002724 143097.000000 0 0 1
13.257271 -0.667894 -23.637178 27.109362 -0.050337 2.629905 -0.025016 0.011824 -115034.000000 0 0 1
13.824571 0.601106 -24.284678 27.950415 0.043454 2.623668 -0.038402 0.005177 -734515.000000 0 0 1
13.039571 1.167106 -25.300408 28.486895 0.089267 2.664083 -0.022838 0.001151 -211894.000000 0 0 1
13.625571 2.278106 -25.923568 29.374774 0.165661 2.651972 -0.032029 0.016444 -438669.000000 0 0 1
12.891871 2.734106 -27.190488 30.215862 0.208983 2.690278 -0.022008 0.008649 -34216.300000 0 0 1
11.660271 3.368106 -26.898008 29.509471 0.281199 2.717723 -0.004991 -0.002976 113327.000000 0 0 1
11.054071 3.874106 -28.066288 30.412460 0.337092 2.746225 0.016402 -0.005803 -387247.000000 0 0 1
9.786771 4.682106 -27.805978 29.847536 0.446228 2.769588 0.038393 -0.008965 -307022.000000 0 0 1
9.972871 5.979106 -27.265618 29.641555 0.540079 2.738480 0.030346 -0.014534 -54813.300000 0 0 1
8.735871 6.652106 -27.213458 29.345157 0.650802 2.758085 0.043358 -0.022759 48026.400000 0 0 1
7.786271 5.133349 -31.846078 33.183580 0.582873 2.856707 0.032163 -0.023484 -116885.000000 0 0 1
8.013471 4.282349 -30.779298 32.092357 0.490783 2.854549 0.030499 -0.015028 192349.000000 0 0 1
7.934371 2.907949 -31.155808 32.281493 0.351298 2.876732 0.022858 -0.008473 -187332.000000 0 0 1
7.632171 1.877849 -30.071698 31.081882 0.241252 2.885943 0.027414 -0.007569 73217.100000 0 0 1
8.832171 1.563949 -29.360848 30.700368 0.175257 2.845103 0.033516 -0.011347 622698.000000 0 0 1
8.636471 0.607449 -28.322238 29.615989 0.070220 2.844924 0.028093 -0.014207 -531786.000000 0 0 1
9.912271 0.126549 -27.646788 29.370291 0.012766 2.797311 0.015379 -0.012023 -282378.000000 0 0 1
10.556671 -0.931751 -28.345538 30.261873 -0.088034 2.783808 -0.001596 -0.009045 -716529.000000 0 0 1
11.713371 -1.327851 -27.714708 30.117624 -0.112880 2.739427 -0.005747 -0.007873 -702515.000000 0 0 1
12.272471 -2.628051 -28.372098 31.024122 -0.210956 2.725110 -0.014158 -0.006116 57351.600000 0 0 1
11.390771 -3.692151 -28.119278 30.562648 -0.313450 2.739014 -0.002540 0.001090 176869.000000 0 0 1
12.066271 -4.902351 -28.347348 31.196155 -0.385913 2.710910 -0.004911 0.001751 -296089.000000 0 0 1
11.306471 -6.093651 -27.713528 30.545188 -0.494322 2.707605 -0.009427 0.000277 -29791.400000 0 0 1
11.288771 -6.056451 -26.292358 29.247308 -0.492421 2.688201 -0.005429 0.004664 -91129.600000 0 0 1
10.520371 -7.094651 -25.750098 28.706790 -0.593319 2.683740 -0.005850 -0.000613 -189829.000000 0 0 1
10.128571 -6.881151 -24.299578 27.210433 -0.596753 2.674818 0.009260 -0.002758 663626.000000 0 0 1
11.316671 -6.859451 -23.467478 26.941448 -0.544920 2.628142 0.006164 -0.000985 1029860.000000 0 0 1
10.876471 -6.873451 -22.135378 25.603064 -0.563586 2.615070 0.014733 -0.005852 124483.000000 0 0 1
12.027071 -6.701151 -21.131878 25.221263 -0.508333 2.564147 0.009391 -0.007501 235105.000000 0 0 1
12.739271 -5.483651 -21.098278 25.248699 -0.406480 2.560054 -0.002188 -0.007219 709592.000000 0 0 1
14.055671 -5.614551 -20.534878 25.510121 -0.380033 2.506421 -0.002854 -0.001960 828814.000000 0 0 1
14.629371 -4.332051 -19.936878 25.105064 -0.287893 2.488384 0.000376 -0.002636 -179483.000000 0 0 1
15.065271 -3.279751 -20.815178 25.903490 -0.214358 2.504060 -0.006695 -0.002581 186953.000000 0 0 1
15.618971 -2.224251 -20.106378 25.557112 -0.141456 2.476279 -0.008972 0.005226 -289507.000000 0 0 1
16.698971 -1.449151 -20.896378 26.788324 -0.086564 2.465551 0.003978 0.001698 552806.000000 0 0 1
17.895471 -2.225351 -21.081678 27.742336 -0.123718 2.433971 0.007462 -0.004230 1098920.000000 0 0 1
18.870471 -1.362151 -21.741278 28.820709 -0.072059 2.425480 0.015561 -0.000175 -276136.000000 0 0 1
20.183071 -2.033551 -22.059278 29.968374 -0.100416 2.398065 0.016288 -0.004562 -2058270.000000 0 0 1
20.975871 -2.125651 -20.907878 29.692506 -0.100993 2.352017 0.010444 -0.001838 187808.000000 0 0 1
22.210671 -2.773951 -21.166078 30.806031 -0.124249 2.328253 0.008454 -0.002738 693941.000000 0 0 1
23.293671 -2.080351 -22.069978 32.155977 -0.089073 2.327243 0.013832 -0.003341 -936361.000000 0 0 1
23.090671 -2.150651 -23.475478 32.998522 -0.092871 2.362299 0.023280 -0.004562 96276.200000 0 0 1
23.887471 -1.275051 -24.228278 34.047709 -0.053327 2.362566 0.021370 -0.004423 -337086.000000 0 0 1
25.247071 -1.722351 -24.751978 35.398326 -0.068114 2.345132 0.036235 -0.006178 -1054900.000000 0 0 1
26.238671 -1.934151 -23.747878 35.442496 -0.073581 2.305059 0.033360 0.001396 967136.000000 0 0 1
27.434671 -2.605751 -24.179878 36.662209 -0.094696 2.290991 0.035973 0.006795 704474.000000 0 0 1
28.324371 -1.844251 -25.192178 37.951510 -0.065020 2.296683 0.031428 0.003318 -1485600.000000 0 0 1
27.834871 -1.651051 -26.536308 38.492618 -0.059247 2.331439 0.051553 -0.005626 36719.200000 0 0 1
28.434371 -0.585651 -27.227698 39.372630 -0.020594 2.334413 0.038033 -0.007594 -157874.000000 0 0 1
27.697471 -0.206151 -28.590998 39.807506 -0.007443 2.372053 0.039467 -0.019769 706292.000000 0 0 1
26.367771 0.297149 -28.532458 38.851625 0.011269 2.395572 0.037385 -0.018004 418967.000000 0 0 1
26.179571 1.705549 -28.235628 38.542568 0.065056 2.392905 0.026223 -0.015163 320340.000000 0 0 1
24.647271 1.939649 -28.437748 37.682300 0.078534 2.425949 0.034149 -0.016966 393460.000000 0 0 1
23.814471 1.452349 -27.444788 36.365571 0.060911 2.425980 0.039835 -0.014311 129743.000000 0 0 1
22.438571 1.529349 -27.794638 35.754304 0.068052 2.461284 0.030945 -0.010907 -27197.700000 0 0 1
21.526371 1.186849 -26.637338 34.268660 0.055079 2.461173 0.025783 -0.009648 -457887.000000 0 0 1
21.287271 2.199649 -25.698098 33.442168 0.102966 2.447187 0.033246 -0.009800 473754.000000 0 0 1
20.442171 1.773149 -24.622978 32.051793 0.086523 2.446860 0.020285 -0.006419 -155443.000000 0 0 1
20.769171 2.334049 -23.206878 31.230841 0.111911 2.408451 0.013855 -0.000021 -340433.000000 0 0 1
20.582771 3.725249 -23.012978 31.098635 0.179050 2.403866 0.001427 -0.006646 669645.000000 0 0 1
21.290971 4.112549 -21.832578 30.771415 0.190809 2.359597 -0.007030 -0.001117 -239797.000000 0 0 1
20.752771 5.489149 -21.331378 30.262781 0.258580 2.353039 -0.006813 0.000756 -81613.600000 0 0 1
21.309171 6.665249 -21.945878 31.306994 0.303147 2.347581 -0.009565 -0.003362 536667.000000 0 0 1
20.937471 7.966849 -21.372578 30.961839 0.363590 2.332683 -0.009070 -0.007273 -339094.000000 0 0 1
21.307571 8.221549 -19.837478 30.251148 0.368250 2.285985 -0.006815 -0.002161 -642186.000000 0 0 1
22.688171 8.361049 -19.660478 31.163996 0.353078 2.253472 -0.015104 0.002293 -226133.000000 0 0 1
23.119471 8.468349 -18.350878 30.707940 0.351110 2.211293 -0.007806 0.001714 -148066.000000 0 0 1
23.115471 9.955049 -17.729378 30.785692 0.406660 2.184497 -0.001021 -0.003629 -560670.000000 0 0 1
21.832871 10.435549 -17.453178 29.836024 0.445872 2.195639 0.007915 -0.008310 -421664.000000 0 0 1
21.813471 11.875149 -17.355778 30.299665 0.498530 2.180719 0.020420 -0.004657 298200.000000 0 0 1
20.367171 12.438949 -17.063678 29.337999 0.548276 2.191520 0.018589 -0.010512 1001270.000000 0 0 1
19.403871 12.226449 -18.069078 29.197394 0.562261 2.238086 0.018476 -0.010223 311164.000000 0 0 1
18.849971 10.903649 -18.114778 28.325892 0.524419 2.264661 0.017492 -0.015152 -375408.000000 0 0 1
17.905971 10.654649 -19.321178 28.415722 0.536760 2.318486 0.024245 -0.013915 368759.000000 0 0 1
18.688771 10.661049 -20.527778 29.737481 0.518410 2.332700 0.023429 -0.006310 371056.000000 0 0 1
17.962971 10.371949 -21.694378 30.014858 0.523641 2.378624 0.019247 -0.012999 -889917.000000 0 0 1
18.741771 10.483149 -22.962578 31.439313 0.509991 2.389671 0.025189 -0.016703 -846008.000000 0 0 1
18.985971 11.828649 -23.353878 32.338640 0.557175 2.377725 0.022642 -0.014942 142614.000000 0 0 1
19.758071 11.959049 -24.503378 33.672181 0.544289 2.385765 0.018658 -0.016981 -291027.000000 0 0 1
19.853371 13.406149 -25.014978 34.635679 0.593927 2.377820 0.020885 -0.011747 -16252.600000 0 0 1
20.615571 13.609249 -26.201758 36.010353 0.583473 2.385639 0.018485 -0.015956 363141.000000 0 0 1
20.744071 14.987649 -26.530968 36.862425 0.625669 2.374209 0.015226 -0.014568 -92239.800000 0 0 1
19.559671 15.576149 -27.327788 37.040588 0.672505 2.400571 0.028960 -0.015549 1159730.000000 0 0 1
18.300771 15.592549 -26.599638 35.855077 0.705663 2.406644 0.026361 -0.008915 1073820.000000 0 0 1
17.226671 15.846949 -27.497508 36.110898 0.743706 2.436380 0.023735 -0.014894 484875.000000 0 0 1
15.818771 15.493149 -26.948688 34.878402 0.774999 2.453796 0.023424 -0.016193 176413.000000 0 0 1
15.638571 14.115149 -26.785028 34.076972 0.734242 2.475133 0.022081 -0.014440 1303380.000000 0 0 1
14.294771 13.808449 -26.322608 32.983229 0.768095 2.494866 0.025329 -0.013522 1007720.000000 0 0 1
14.140271 12.320149 -26.021878 32.076026 0.716720 2.517094 0.019554 -0.011794 743400.000000 0 0 1
12.775271 11.916649 -25.804018 31.161858 0.750639 2.546442 0.027421 -0.014183 803582.000000 0 0 1
12.689171 10.618249 -25.323998 30.250077 0.696778 2.562857 0.033681 -0.009654 -548198.000000 0 0 1
11.380071 9.838649 -25.455358 29.568231 0.712881 2.607837 0.035281 -0.021695 -129070.000000 0 0 1
10.557871 10.143549 -24.334578 28.399505 0.765387 2.599956 0.034447 -0.017045 -287594.000000 0 0 1
9.343371 9.446149 -24.264278 27.663758 0.790868 2.640617 0.045443 -0.023895 -168818.000000 0 0 1
8.496271 10.023249 -23.112278 26.586266 0.867664 2.624644 0.048482 -0.023239 -140887.000000 0 0 1
7.772971 11.207149 -23.417078 27.099424 0.964397 2.614190 0.041287 -0.022702 173990.000000 0 0 1
7.014571 11.777449 -22.360778 26.228170 1.033623 2.591638 0.032948 -0.008414 95161.800000 0 0 1
7.788971 12.658549 -21.393178 26.049472 1.019193 2.534398 0.031284 -0.012959 -238372.000000 0 0 1
8.804071 12.034449 -20.669778 25.486847 0.939194 2.516652 0.032019 -0.020986 -907901.000000 0 0 1
9.545271 12.865849 -19.883678 25.534348 0.932495 2.463392 0.026045 -0.014767 -533081.000000 0 0 1
10.711971 12.164949 -19.109478 25.058022 0.848826 2.438134 0.039678 -0.020227 400856.000000 0 0 1
11.803771 11.743949 -19.916578 25.959958 0.782858 2.445267 0.047776 -0.021702 406609.000000 0 0 1
11.455471 10.609349 -20.727678 25.950390 0.747070 2.495999 0.053205 -0.030253 -726271.000000 0 0 1
12.634271 10.143049 -21.615678 27.013770 0.676458 2.498379 0.049465 -0.027041 36582.000000 0 0 1
13.515971 9.272949 -20.949078 26.599491 0.601318 2.477659 0.053337 -0.029455 294051.000000 0 0 1
14.424771 8.743249 -21.931878 27.668135 0.544913 2.485983 0.052400 -0.027714 32919.800000 0 0 1
15.098871 7.453049 -21.494278 27.304355 0.458528 2.477069 0.052179 -0.020810 35688.100000 0 0 1
15.841971 7.430749 -20.292878 26.795241 0.438586 2.430013 0.027568 -0.022654 115539.000000 0 0 1
16.423971 6.213149 -19.987978 26.605813 0.361659 2.420771 0.011064 -0.009884 -76998.200000 0 0 1
17.109071 6.173949 -18.602378 26.017041 0.346315 2.367431 0.010406 -0.017583 53560.100000 0 0 1
18.257271 7.032149 -18.557778 26.966093 0.367657 2.329787 0.008707 -0.020221 607517.000000 0 0 1
18.743771 7.399649 -17.232178 26.514745 0.375998 2.278261 -0.002584 -0.008932 -9000.910000 0 0 1
19.521371 6.273849 -16.558578 26.355865 0.310958 2.250123 -0.011833 -0.000299 -258728.000000 0 0 1
20.807171 5.986849 -17.099078 27.589114 0.280162 2.239254 -0.022581 0.001419 712060.000000 0 0 1
21.367271 4.885149 -16.416578 27.384831 0.224765 2.213644 -0.014651 -0.003191 296185.000000 0 0 1
22.672371 4.297049 -17.048078 28.690382 0.187306 2.207078 -0.026561 0.027735 236708.000000 0 0 1
23.185571 3.193749 -16.309778 28.526822 0.136886 2.179415 -0.029751 0.019955 -95782.000000 0 0 1
24.285771 2.711949 -17.006278 29.771913 0.111208 2.178786 -0.015031 0.013554 -402502.000000 0 0 1
25.142971 1.637749 -16.297378 30.007595 0.065046 2.144931 0.001053 0.000763 -511818.000000 0 0 1
24.713571 0.314549 -16.514978 29.725478 0.012727 2.159861 0.001056 0.010943 234861.000000 0 0 1
25.775571 -0.586551 -16.178778 30.438084 -0.022752 2.131203 0.000964 0.011959 -30078.700000 0 0 1
25.603571 -2.125551 -16.390478 30.474720 -0.082828 2.138667 0.005341 0.004385 -563088.000000 0 0 1
24.764271 -2.607951 -15.373278 29.264453 -0.104924 2.123891 0.002704 0.003782 110681.000000 0 0 1
24.722871 -4.043251 -15.262078 29.334267 -0.162108 2.117977 -0.000389 0.001870 -1037160.000000 0 0 1
24.096471 -4.647851 -13.964578 28.235649 -0.190545 2.088139 -0.002799 -0.001831 528287.000000 0 0 1
22.709871 -4.510151 -13.683678 26.894660 -0.196048 2.104573 -0.006963 0.007313 498919.000000 0 0 1
21.840571 -5.099451 -14.594878 26.758651 -0.229376 2.147694 -0.001062 0.003149 -426362.000000 0 0 1
20.332971 -5.073151 -14.185678 25.306126 -0.244511 2.165862 0.004223 -0.001195 69632.400000 0 0 1
19.881771 -6.081451 -13.344378 24.705086 -0.296843 2.141408 -0.000160 0.005921 354716.000000 0 1 0
20.315571 -6.029751 -12.011378 24.358849 -0.288522 2.086447 0.005260 0.005036 -659083.000000 0 1 0
20.290371 -7.425551 -11.212978 24.342737 -0.350826 2.049500 0.012475 0.014394 -1008110.000000 0 1 0
19.013971 -7.954851 -11.092878 23.406467 -0.396241 2.064538 0.012071 0.015938 -129744.000000 0 1 0
18.771871 -8.939751 -12.003078 24.007835 -0.444452 2.094355 0.004307 0.009972 -1279760.000000 0 1 0
17.424871 -9.583451 -11.780078 23.113608 -0.502833 2.105586 0.024964 0.006709 -605361.000000 0 1 0
16.397671 -8.623151 -11.949678 22.046250 -0.484134 2.143644 0.017930 0.003029 -372849.000000 0 1 0
15.194071 -9.065351 -12.477578 21.650181 -0.537943 2.185023 0.026222 0.001395 -226021.000000 0 1 0
14.180571 -7.897551 -12.646378 20.576462 -0.508146 2.232680 0.024051 -0.003390 -111367.000000 0 1 0
14.420271 -6.951851 -13.685778 21.061172 -0.449216 2.278132 0.031787 -0.006502 486867.000000 0 1 0
15.346171 -5.893651 -13.431778 21.228583 -0.366679 2.255859 0.017999 -0.008055 163712.000000 0 1 0
15.181171 -4.797751 -14.510478 21.541595 -0.306100 2.309869 0.011019 -0.010510 3207.280000 0 1 0
13.964171 -4.081751 -14.368978 20.448137 -0.284379 2.349987 0.011779 -0.008635 297310.000000 0 1 0
13.668171 -3.219951 -15.445778 20.874842 -0.231362 2.403752 0.004234 -0.006505 -373921.000000 0 1 0
14.578971 -1.953551 -15.590478 21.434219 -0.133204 2.385269 0.001873 -0.009918 -168417.000000 0 1 0
15.752071 -2.395951 -16.254778 22.761505 -0.150947 2.366183 -0.003662 -0.006926 -382702.000000 0 1 0
16.809271 -1.485351 -16.253478 23.429328 -0.088136 2.337443 0.000093 0.001935 33881.900000 0 1 0
17.885071 -1.935151 -15.233878 23.573112 -0.107780 2.273443 -0.002879 0.004115 -461388.000000 0 1 0
17.387171 -1.798251 -13.937678 22.356348 -0.103058 2.243922 -0.007410 0.006114 323638.000000 0 1 0
18.367971 -2.371651 -13.083178 22.675463 -0.128408 2.185817 -0.008634 0.008879 -32965.400000 0 1 0
18.005171 -2.627151 -11.569278 21.562381 -0.144888 2.137139 -0.005920 0.006105 -596728.000000 0 1 0
17.976071 -1.446851 -10.807078 21.024401 -0.080314 2.110667 0.006307 0.002029 628113.000000 0 1 0
17.582671 -1.684651 -9.506778 20.059092 -0.095522 2.064555 0.015751 -0.002979 -1490290.000000 0 1 0
17.582871 -0.477251 -8.559478 19.561436 -0.027136 2.023690 0.018426 -0.003887 337640.000000 0 1 0
18.861971 0.009049 -8.111178 20.532054 0.000480 1.976918 0.012188 0.001438 1568400.000000 0 1 0
19.702971 0.690849 -9.090978 21.710141 0.035049 2.002857 -0.007571 0.012624 -105487.000000 0 1 0
19.201671 1.976749 -9.788078 21.642970 0.102585 2.040085 -0.018557 0.015980 -899501.000000 0 1 0
19.176571 3.159249 -8.937578 21.391634 0.163279 2.001827 -0.011833 0.020006 591091.000000 0 1 0
18.392771 4.164149 -9.531778 21.130285 0.222648 2.038789 -0.021845 0.009133 -958858.000000 0 1 0
18.708971 5.508249 -8.897378 21.436645 0.286327 1.998799 0.023096 0.010660 -116123.000000 0 1 0
17.994371 6.591249 -9.512978 21.394829 0.351117 2.031568 0.020070 0.004622 363321.000000 0 1 0
18.413171 7.856449 -9.111578 21.995215 0.403289 1.997918 0.037168 0.006234 -545040.000000 0 1 0
-24.922829 -29.249311 5.486322 38.817127 0.865094 1.428984 0.016733 -0.009324 -52509.600000 0 0 1
-25.538229 -28.257161 6.283022 38.602392 0.835897 1.407306 0.012152 -0.009573 -776497.000000 0 0 1
-24.616229 -27.308501 6.659822 37.363969 0.837201 1.391597 0.022366 -0.013968 -782356.000000 0 0 1
-25.136299 -26.227771 7.653822 37.125604 0.806645 1.363147 0.010271 -0.009185 450531.000000 0 0 1
-26.345259 -25.472661 7.390622 37.383826 0.768560 1.371790 -0.002081 -0.007235 1456850.000000 0 0 1
-27.572269 -26.220071 7.549122 38.790610 0.760266 1.374934 0.021106 -0.004754 673732.000000 0 0 1
-28.007029 -26.400591 9.072922 39.543682 0.755881 1.339294 0.003098 0.000172 -939716.000000 0 0 1
-27.093549 -27.137251 9.789722 39.576880 0.786204 1.320842 0.001355 -0.003682 -663051.000000 0 0 1
-27.316109 -27.093041 11.184022 40.066009 0.781298 1.287898 0.002734 -0.000847 -581461.000000 0 0 1
-26.331269 -27.903501 12.041422 40.211155 0.814379 1.266675 -0.003690 -0.000199 790267.000000 0 0 1
-25.096609 -27.215871 12.327822 39.019465 0.825888 1.249349 0.001084 0.003191 527186.000000 0 0 1
-25.180519 -26.405681 13.424722 38.878551 0.809143 1.218239 0.005873 0.006623 -290202.000000 0 0 1
-23.809429 -25.911571 13.955422 37.855676 0.827652 1.193242 0.025796 0.000736 -210084.000000 0 0 1
-23.023129 -26.883261 14.539522 38.264499 0.862592 1.181028 0.044944 -0.004909 -220682.000000 0 0 1
-22.018929 -26.314311 15.395222 37.607035 0.874035 1.149032 0.043865 -0.005769 313797.000000 0 0 1
-21.168429 -27.385021 16.043222 38.150056 0.912741 1.136768 0.028875 -0.010567 -238533.000000 0 0 1
-21.971729 -28.198991 16.910622 39.546291 0.908888 1.128943 0.037148 -0.005534 361585.000000 0 0 1
-21.272129 -29.317731 17.435022 40.199662 0.943113 1.122189 0.032359 -0.009232 -359313.000000 0 0 1
-22.039129 -30.111461 18.471722 41.636856 0.938968 1.111142 0.049375 -0.011974 -119826.000000 0 0 1
-23.088029 -30.902051 17.941222 42.542700 0.929131 1.135452 0.023668 -0.005947 52272.100000 0 0 1
-23.355729 -32.025751 18.768422 43.856499 0.940689 1.128572 0.019778 -0.004531 21299.300000 0 0 1
-24.464129 -32.912751 18.133722 44.839432 0.931595 1.154458 0.009097 -0.002239 189734.000000 0 0 1
-24.030529 -33.594091 17.008922 44.669147 0.949862 1.180161 0.015743 -0.006397 49916.000000 0 0 1
-25.052929 -34.488677 16.628722 45.756229 0.942564 1.198860 0.011528 -0.008255 -434181.000000 0 0 1
-24.717329 33.940211 15.254522 44.671968 -0.941354 1.222307 0.010242 -0.011641 -562515.000000 0 0 1
-23.548429 33.215601 15.213922 43.465712 -0.954084 1.213203 0.007930 -0.008637 -105967.000000 0 0 1
-22.343529 33.989636 15.061522 43.374856 -0.989262 1.216169 0.023092 -0.005837 767267.000000 0 0 1
-21.060529 33.073101 15.076822 42.008172 -1.003766 1.203705 0.045474 -0.006539 605956.000000 0 0 1
-20.963329 32.239701 13.935022 40.902865 -0.994257 1.223150 0.046830 -0.002321 554535.000000 0 0 1
-19.832629 31.352301 13.995822 39.650763 -1.006770 1.210045 0.039790 0.000965 573694.000000 0 0 1
-19.670229 30.520981 12.716422 38.472791 -0.998310 1.233931 0.035067 0.001608 -109145.000000 0 0 1
-19.020029 31.158941 11.675222 38.326909 -1.022751 1.261255 0.024734 0.001791 -226491.000000 0 0 1
-19.260729 30.468841 10.471522 37.536366 -1.007075 1.288075 0.025412 0.005238 248697.000000 0 0 1
-18.622129 31.091431 9.182022 37.386767 -1.031151 1.322662 0.007755 0.007123 898200.000000 0 0 1
-17.193829 31.184891 9.068922 36.747389 -1.066916 1.321429 0.011934 -0.002468 524735.000000 0 0 1
-16.777629 31.666101 7.756822 36.666048 -1.083571 1.357632 0.015658 -0.003496 44799.600000 0 0 1
-16.609929 30.650841 6.603522 35.481972 -1.074187 1.383596 0.007146 0.001796 -451962.000000 0 0 1
-17.684929 29.826331 6.202622 35.225549 -1.035592 1.393790 0.001287 0.003881 -290778.000000 0 0 1
-17.658829 28.537341 6.856222 34.252327 -1.016670 1.369267 -0.005507 0.009463 49906.700000 0 0 1
-18.809829 27.597141 6.444122 34.013800 -0.972536 1.380188 0.000195 0.010519 82158.900000 0 0 1
-18.476229 26.882421 5.246322 33.038758 -0.968646 1.411328 0.007869 0.000133 246382.000000 0 0 1
-19.510029 26.067861 4.744922 32.904239 -0.928299 1.426088 0.020302 -0.003701 -777245.000000 0 0 1
-19.016829 25.203211 3.597622 31.777107 -0.924396 1.457339 0.030797 -0.013735 -1308290.000000 0 0 1
-18.597729 25.871621 2.414122 31.953784 -0.947533 1.495174 0.035810 -0.020893 521017.000000 0 0 1
-17.379329 26.605311 2.377922 31.867510 -0.992155 1.496108 0.034256 -0.021306 585624.000000 0 0 1
-16.079829 25.759061 2.750422 30.490244 -1.012744 1.480467 0.027619 -0.021628 -131173.000000 0 0 1
-15.807929 24.662551 1.841322 29.351704 -1.000796 1.508022 0.037199 -0.022824 88920.600000 0 0 1
-15.329729 25.088471 0.581622 29.406977 -1.022308 1.551017 0.049035 -0.021527 -193448.000000 0 0 1
-15.042729 23.987091 -0.487678 28.317876 -1.010676 1.588019 0.046000 -0.016335 21314.200000 0 0 1
-16.226229 23.277191 -0.796178 28.385772 -0.962028 1.598848 0.049701 -0.023074 70441.900000 0 0 1
-16.081229 22.187491 -1.697578 27.454917 -0.943627 1.632667 0.047044 -0.018298 -40343.200000 0 0 1
-15.236229 20.912991 -1.452578 25.915360 -0.941163 1.626877 0.046908 -0.020908 465806.000000 0 0 1
-15.940529 20.062891 -0.521478 25.629905 -0.899401 1.591144 0.055662 -0.024632 661588.000000 0 0 1
-15.037729 19.101491 0.028322 24.310514 -0.903876 1.569631 0.075108 -0.018137 146593.000000 0 1 0
-15.640629 18.112591 1.041822 23.953719 -0.858504 1.527289 0.058781 -0.009423 68462.900000 0 1 0
-16.407229 17.141791 0.340722 23.730872 -0.807290 1.556438 0.046510 -0.004799 325699.000000 0 1 0
-17.319429 16.520591 1.228722 23.966692 -0.761796 1.519506 0.049125 -0.011308 196860.000000 0 1 0
-18.026029 15.251691 0.700222 23.622915 -0.702221 1.541150 0.081335 -0.010124 57786.400000 0 1 0
-18.931729 15.454291 -0.359478 24.441250 -0.684611 1.585505 0.063026 -0.014950 134375.000000 0 1 0
-19.654729 14.265891 -0.611378 24.293987 -0.627849 1.595965 0.051578 -0.006058 -1175820.000000 0 1 0
-20.555629 14.424291 -1.809178 25.176719 -0.611879 1.642717 0.047432 -0.001435 -1494690.000000 0 0 1
-21.395029 13.332491 -2.106578 25.297041 -0.557274 1.654167 0.033856 -0.002511 1089450.000000 0 0 1
-22.507729 13.115891 -1.211278 26.078567 -0.527623 1.617260 0.033427 0.007991 306344.000000 0 0 1
-23.550529 14.272191 -0.996278 27.555679 -0.544837 1.606959 0.011226 0.013041 -846071.000000 0 0 1
-23.055829 15.367491 -0.280778 27.709383 -0.587911 1.580929 0.003839 0.003899 699138.000000 0 0 1
-24.122929 16.291891 0.080622 29.109241 -0.594003 1.568027 -0.006003 0.006502 745056.000000 0 0 1
-23.694229 17.482191 1.031822 29.463675 -0.635663 1.535769 -0.005030 -0.006983 54432.300000 0 0 1
-23.268729 16.976591 2.279722 28.893521 -0.630309 1.491813 0.010663 -0.010210 181068.000000 0 0 1
-22.744129 17.978891 3.177222 29.165574 -0.668912 1.461642 0.008862 -0.019021 46272.200000 0 0 1
-23.730329 19.065991 3.712022 30.666263 -0.676837 1.449453 0.013911 -0.027951 -363616.000000 0 0 1
-24.656129 18.530791 4.683422 31.196945 -0.644505 1.420102 0.021066 -0.026434 -313340.000000 0 0 1
-25.907669 19.109991 4.664122 32.529266 -0.635530 1.426918 0.011795 -0.028268 -1090040.000000 0 0 1
-26.779459 18.535891 3.555122 32.762137 -0.605450 1.462069 0.012814 -0.018261 -1069820.000000 0 0 1
-27.987299 19.267991 3.369322 34.145230 -0.602935 1.471959 0.006337 -0.018640 221649.000000 0 0 1
-28.725899 18.836391 2.262422 34.425361 -0.580392 1.505029 0.015162 -0.008822 37951.200000 0 0 1
-30.005159 19.685991 2.006122 35.942626 -0.580642 1.514953 0.029948 -0.021011 478522.000000 0 0 1
-31.028409 19.467091 2.974522 36.750206 -0.560320 1.489769 0.042662 -0.017903 431639.000000 0 0 1
-32.211259 20.218491 2.737522 38.129341 -0.560527 1.498939 0.032229 -0.015388 267258.000000 0 0 1
-32.675979 20.866491 4.069822 38.983247 -0.568311 1.466206 0.025808 -0.015417 -344016.000000 0 0 1
-31.910619 22.003091 4.433222 39.013807 -0.603659 1.456918 0.033353 -0.021996 298809.000000 0 0 1
-32.021139 22.336791 5.788022 39.468808 -0.609089 1.423618 0.028701 -0.019135 268124.000000 0 0 1
-30.993499 23.498091 6.091322 39.368280 -0.648704 1.415446 0.033915 -0.028401 461875.000000 0 0 1
-31.277519 24.708021 5.382322 40.221125 -0.668590 1.436575 0.026336 -0.016860 430702.000000 0 0 1
-30.265659 25.628751 5.747222 40.073353 -0.702629 1.426883 0.012229 -0.014298 -256777.000000 0 0 1
-30.679099 27.104501 5.606022 41.319349 -0.723615 1.434701 0.003672 0.000017 -524918.000000 0 0 1
-31.715679 27.378231 6.533222 42.404420 -0.712130 1.416111 0.015649 0.000795 250568.000000 0 0 1
-32.213169 28.700801 6.337022 43.607134 -0.727801 1.424959 0.005564 0.006180 -163944.000000 0 0 1
-33.269219 28.981101 7.427322 44.742712 -0.716622 1.404024 0.008763 0.011665 -814727.000000 0 0 1
-32.777579 29.238201 8.715422 44.779467 -0.728388 1.374916 0.026584 -0.006562 159293.000000 0 0 1
-33.754169 29.728141 9.616722 45.995518 -0.722063 1.360163 0.028429 -0.006523 -23796.900000 0 0 1
-34.850416 28.796221 10.154822 46.334591 -0.690562 1.349840 0.020152 0.003246 12090.300000 0 0 1
-34.287356 27.607471 10.761622 45.316749 -0.677891 1.331030 0.037327 -0.011390 386713.000000 0 0 1
-35.235313 26.948281 11.585922 45.847255 -0.652912 1.315319 0.025555 -0.005440 -163427.000000 0 0 1
-34.700636 25.700611 12.164122 44.862250 -0.637482 1.296215 0.043752 -0.011793 453.406000 0 0 1
-33.582609 25.976201 13.006222 44.404014 -0.658373 1.273531 0.048053 -0.024527 199703.000000 0 0 1
-33.100089 24.781611 13.638222 43.540157 -0.642660 1.252201 0.046150 -0.023602 -117981.000000 0 0 1
-31.869999 25.176031 14.469922 43.115056 -0.668589 1.228542 0.056365 -0.030261 -283448.000000 0 0 1
-32.232049 26.225051 15.371422 44.305067 -0.682999 1.216485 0.049957 -0.023028 -106470.000000 0 0 1
-31.190529 26.784041 16.134322 44.165035 -0.709537 1.196821 0.067050 -0.021322 -329884.000000 0 0 1
-31.627769 28.039061 16.879722 45.512963 -0.725325 1.190843 0.058660 -0.011958 -279813.000000 0 0 1
-31.647209 29.286161 16.146622 46.042790 -0.746670 1.212491 0.068536 -0.011943 82738.400000 0 0 1
-32.041339 30.349701 16.956322 47.278628 -0.758291 1.203979 0.051863 -0.006085 -155500.000000 0 0 1
-31.611559 31.686511 16.303222 47.635289 -0.786582 1.221485 0.035307 -0.009657 419556.000000 0 0 1
-30.194909 31.728971 16.178622 46.692697 -0.810166 1.216968 0.031089 -0.011394 91585.200000 0 0 1
-29.854429 32.911651 15.581922 47.087791 -0.834068 1.233526 0.019885 -0.006565 -332446.000000 0 0 1
-28.380319 33.082771 15.147322 46.144920 -0.861758 1.236340 0.027280 -0.010507 -44172.300000 0 0 1
-27.945789 32.314081 14.000722 44.957616 -0.857762 1.254109 0.022718 -0.010815 50153.600000 0 0 1
-27.707989 30.909461 14.160022 43.859249 -0.839960 1.242056 0.028446 -0.008928 -438551.000000 0 0 1
-28.829679 29.861441 13.962622 43.792818 -0.802976 1.246298 0.046161 -0.014872 -156777.000000 0 0 1
-29.139579 29.627211 12.622722 43.430633 -0.793696 1.275900 0.048671 -0.019214 -94180.900000 0 0 1
-30.089739 28.581551 12.552522 43.357390 -0.759698 1.277078 0.056274 -0.019425 51530.300000 0 0 1
-30.334489 28.063561 11.131922 42.797949 -0.746531 1.307666 0.043909 -0.011629 -82763.700000 0 0 1
-29.210209 27.484491 10.515222 41.463279 -0.754969 1.314393 0.036005 -0.008517 -243204.000000 0 0 1
-29.099439 27.770981 9.135822 41.248855 -0.762043 1.347464 0.023432 -0.009604 29064.000000 0 0 1
-27.882109 27.087611 8.479022 39.787492 -0.770946 1.356042 0.024597 -0.005817 116538.000000 0 0 1
-27.683419 27.547301 7.153522 39.703884 -0.782934 1.389635 0.015705 -0.004636 -463347.000000 0 0 1
-26.720489 26.839591 6.425722 38.414035 -0.787622 1.402731 0.024609 -0.000809 -644001.000000 0 0 1
-26.544319 27.245401 4.937822 38.357462 -0.798431 1.441706 0.012684 -0.000386 -386592.000000 0 0 1
-25.900569 28.467991 4.636722 38.765516 -0.832586 1.450900 0.016585 0.003553 201252.000000 0 0 1
-25.579239 28.555171 3.262822 38.475204 -0.840316 1.485891 0.004627 0.004501 -253500.000000 0 0 1
-24.542629 29.666611 3.012022 38.620212 -0.879640 1.492726 0.002687 0.006602 616452.000000 0 0 1
-23.207529 29.327921 3.430422 37.556413 -0.901376 1.479328 0.011427 0.005553 1074350.000000 0 0 1
-22.262729 30.377831 3.139722 37.792851 -0.938355 1.487623 0.010087 0.000380 526988.000000 0 0 1
-20.796229 29.954051 3.291322 36.613674 -0.963926 1.480782 0.011157 -0.002961 -99974.900000 0 0 1
-19.860529 30.849841 2.744022 36.792431 -0.998806 1.496146 0.013081 0.000144 920184.000000 0 0 1
-18.511529 30.433391 3.138522 35.759172 -1.024323 1.482915 0.021086 -0.003984 1776440.000000 0 0 1
-17.397629 31.406151 2.654722 36.000992 -1.064921 1.496989 0.022444 -0.010066 142838.000000 0 0 1
-17.334229 32.636391 3.380322 37.108437 -1.082554 1.479577 0.015976 -0.008955 530121.000000 0 0 1
-16.153229 33.352689 2.981722 37.178211 -1.119775 1.490509 0.016922 -0.005959 577850.000000 0 0 1
-15.911229 -34.552036 3.865022 38.235439 1.139245 1.469539 0.011399 -0.012432 93830.000000 0 0 1
-16.724729 -33.388611 3.637122 37.519922 1.106420 1.473705 0.007661 -0.015240 124232.000000 0 0 1
-16.575329 -32.452761 4.667622 36.738399 1.098584 1.443402 0.004999 -0.019230 480997.000000 0 0 1
-17.764429 -31.437961 4.815922 36.429568 1.056462 1.438210 0.006792 -0.011878 424307.000000 0 0 1
-17.800729 -30.495621 3.752422 35.509570 1.042438 1.464925 0.010333 -0.011016 261320.000000 0 0 1
-18.967629 -29.689821 3.866222 35.442970 1.002293 1.461496 0.015965 -0.016596 -273034.000000 0 0 1
-19.179229 -28.664961 2.710222 34.595782 0.981123 1.492376 0.001796 -0.016698 -97123.500000 0 0 1
-18.494829 -27.456931 2.974922 33.238410 0.978013 1.481174 0.001896 -0.017644 -153589.000000 0 0 1
-18.851229 -26.443421 2.028522 32.538258 0.951472 1.508413 -0.004294 -0.013719 -262117.000000 0 0 1
-17.973929 -25.202251 2.089722 31.025514 0.951274 1.503390 0.000196 -0.009053 -271066.000000 0 0 1
-16.714129 -25.473281 1.541722 30.506181 0.990114 1.520237 -0.010455 -0.003641 -869598.000000 0 0 1
-15.865029 -24.352451 1.531322 29.104741 0.993384 1.518158 -0.001044 -0.009979 152425.000000 0 0 1
-14.572529 -24.574951 0.708522 28.579518 1.035552 1.546003 0.014615 -0.017132 -229659.000000 0 0 1
-14.660029 -24.655551 -0.697278 28.693185 1.034362 1.595100 0.005721 -0.005020 -36941.900000 0 0 1
-14.810029 -23.424751 -1.382278 27.748272 1.007009 1.620632 0.013772 -0.009065 -282614.000000 0 0 1
-14.908629 -23.506351 -2.920778 27.988332 1.005581 1.675344 0.002559 0.007861 -591014.000000 0 0 1
-13.765129 -24.026351 -3.501078 27.910605 1.050528 1.696567 0.005435 0.010091 -590640.000000 0 0 1
-13.938029 -23.932751 -4.894978 28.124830 1.043431 1.745732 0.011145 0.018027 614547.000000 0 0 1
-12.679929 -24.364851 -5.718678 28.055834 1.090947 1.776067 0.006774 0.008543 496071.000000 0 0 1
-12.447129 -25.768181 -5.581278 29.156146 1.120806 1.763412 -0.005234 0.016364 -794380.000000 0 0 1
-11.419629 -26.291921 -6.335678 29.356666 1.161041 1.788325 0.001953 0.015384 -608980.000000 0 0 1
22.461571 12.805549 28.331595 38.356010 0.518151 0.739734 0.006245 0.016177 -625575.000000 0 0 1
23.369471 11.881449 28.832655 38.969513 0.470359 0.737909 0.008335 0.011535 -74351.500000 0 0 1
22.806771 11.008149 29.816765 39.119913 0.449688 0.704109 0.010631 0.010480 -427109.000000 0 0 1
22.865671 11.528449 31.285585 40.429344 0.466987 0.685925 0.019105 0.006027 380106.000000 0 0 1
21.884671 12.491949 31.709785 40.503062 0.518678 0.671485 0.012141 0.010325 388760.000000 0 0 1
22.074571 12.811949 33.087082 41.787411 0.525879 0.657053 0.012060 0.011689 -801556.000000 0 0 1
21.101171 13.797549 33.692040 42.080700 0.579095 0.642412 -0.003740 0.015440 569273.000000 0 0 1
19.778271 13.268849 33.948965 41.470165 0.590914 0.611765 -0.007252 0.012946 1233870.000000 0 0 1
19.051671 14.151449 -34.225353 41.648583 0.638873 2.535298 -0.005085 0.013499 538200.000000 0 0 1
17.673171 13.644949 -33.743248 40.461493 0.657478 2.557041 -0.002309 0.014690 -318622.000000 0 0 1
16.636471 13.396449 34.443459 40.528864 0.677931 0.555096 -0.002613 0.017525 -669292.000000 0 0 1
15.712871 12.590049 -33.929858 39.454263 0.675507 2.606026 0.000314 0.012293 -300587.000000 0 0 1
14.445671 12.201949 34.353585 39.213948 0.701397 0.503177 0.001939 0.014277 -6751.720000 0 0 1
14.658271 11.260849 33.311048 38.095899 0.655063 0.506599 -0.008098 0.025167 252355.000000 0 0 1
13.403471 10.740549 32.877645 37.093826 0.675549 0.481422 -0.003420 0.020150 364491.000000 0 0 1
13.528071 9.660649 31.833945 35.912907 0.620139 0.481242 -0.008261 0.022413 -120413.000000 0 0 1
14.088371 8.464149 32.361175 36.295587 0.541000 0.469928 -0.023391 0.022593 163812.000000 0 0 1
14.742271 7.826249 31.245045 35.423686 0.488039 0.490626 -0.020288 0.009600 276389.000000 0 0 1
15.366971 6.452049 31.644375 35.765055 0.397513 0.484764 0.000857 -0.002211 514428.000000 0 0 1
14.285571 5.517049 31.912365 35.396531 0.368551 0.447417 -0.013460 0.003468 553080.000000 0 0 1
14.638071 4.328149 32.523615 35.927587 0.287487 0.438818 -0.000519 -0.007656 207746.000000 0 0 1
13.447371 3.346649 32.715455 35.529323 0.243915 0.400666 -0.004766 -0.009185 408778.000000 0 0 1
13.968771 2.102649 33.107077 35.994808 0.149403 0.403293 0.012014 -0.011576 -357814.000000 0 0 1
12.918671 1.294349 33.508497 35.935870 0.099859 0.369653 0.004390 -0.009760 -351488.000000 0 0 1
13.392871 -0.156851 33.766532 36.325917 -0.011711 0.377623 -0.005607 -0.016859 63856.700000 0 0 1
13.506271 -0.986851 32.650235 35.347292 -0.072937 0.393172 -0.012014 -0.009577 114168.000000 0 0 1
14.059471 -2.243451 33.092150 36.024882 -0.158235 0.406295 0.020399 -0.010537 -230170.000000 0 0 1
14.108171 -3.393151 32.019925 35.154367 -0.236027 0.425487 0.024696 -0.013363 -819324.000000 0 0 1
14.501871 -4.730251 32.525295 35.924564 -0.315301 0.438528 0.019804 -0.010811 717437.000000 0 0 1
15.816571 -4.854751 33.041328 36.952156 -0.297812 0.464233 0.008861 -0.008561 -369150.000000 0 0 1
17.078271 -4.553251 32.279815 36.801982 -0.260550 0.500961 0.015944 -0.010094 -1195080.000000 0 0 1
17.248771 -3.176051 32.235825 36.698171 -0.182092 0.498284 0.022587 -0.014430 -477339.000000 0 0 1
18.244471 -2.833851 31.344415 36.378067 -0.154095 0.532325 0.040140 -0.021870 -515662.000000 0 0 1
18.323571 -1.298451 31.305855 36.297324 -0.070744 0.530639 0.050593 -0.030134 -320664.000000 0 0 1
18.567471 -0.667651 32.570595 37.497205 -0.035943 0.518398 0.052433 -0.029306 142699.000000 0 0 1
18.504571 0.774449 32.586345 37.481846 0.041827 0.516830 0.050570 -0.029334 -177518.000000 0 0 1
19.792471 1.428849 32.060385 37.704798 0.072067 0.554242 0.059174 -0.033442 -467697.000000 0 0 1
19.960171 1.342649 30.647955 36.599293 0.067165 0.578302 0.066486 -0.034455 -420299.000000 0 0 1
20.802671 2.354749 30.185345 36.734874 0.112715 0.606395 0.061557 -0.033968 -369464.000000 0 0 1
20.124471 3.719949 29.945325 36.270578 0.182784 0.599515 0.047185 -0.023716 -323098.000000 0 0 1
19.776971 4.272649 31.209705 37.194486 0.212772 0.575179 0.051191 -0.025484 153320.000000 0 0 1
19.281071 5.556349 31.061485 36.979028 0.280574 0.573558 0.027805 -0.015594 -368246.000000 0 0 1
19.088171 6.175349 32.461995 38.161162 0.312890 0.553566 0.032823 -0.004287 -422597.000000 0 0 1
18.029171 5.565149 33.143003 38.137652 0.299396 0.517545 0.027263 -0.000507 -134013.000000 0 0 1
17.906571 6.145749 34.432433 39.293866 0.330615 0.502710 0.025927 0.005077 -29136.300000 0 0 1
16.847171 5.458049 -33.736018 38.101658 0.313304 2.658196 0.031027 0.000728 -125123.000000 0 0 1
17.102071 4.098849 -33.511198 37.845499 0.235233 2.658309 0.022459 -0.007743 679723.000000 0 0 1
15.967871 3.445849 -32.915888 36.746462 0.212540 2.680927 0.014650 -0.009251 547489.000000 0 0 1
15.974871 1.967849 -33.360478 37.040389 0.122567 2.692063 0.016004 -0.017416 281716.000000 0 0 1
17.143071 1.269849 -32.917948 37.136083 0.073939 2.660336 0.001649 -0.015139 653992.000000 0 0 1
17.202271 -0.093951 -33.248588 37.435218 -0.005461 2.664129 0.014811 -0.020101 22949.400000 0 0 1
18.188871 -0.837251 -32.302808 37.081092 -0.045998 2.628315 0.026445 -0.021349 -50174.500000 0 0 1
17.679671 -1.056951 -30.983688 35.688609 -0.059712 2.622294 0.007669 -0.017108 518131.000000 0 0 1
17.647271 0.075849 -30.155768 34.939981 0.004298 2.612120 0.003973 -0.012540 -266662.000000 0 0 1
17.229371 -0.228651 -28.730648 33.501547 -0.013270 2.601365 0.001188 -0.007022 561467.000000 0 0 1
15.931571 -0.806651 -28.513798 32.672654 -0.050589 2.631525 0.007749 -0.011744 895464.000000 0 0 1
15.460371 -0.949851 -27.171338 31.276299 -0.061361 2.623472 -0.003548 -0.003669 -497584.000000 0 0 1
16.223371 -1.917851 -26.271368 30.936397 -0.117669 2.585276 0.004649 -0.004097 -1404230.000000 0 0 1
17.476771 -1.412351 -25.894368 31.272201 -0.080638 2.546384 0.020971 -0.005796 -601881.000000 0 0 1
18.324871 -2.498951 -25.589598 31.573298 -0.135533 2.515771 0.021596 -0.008296 -86391.500000 0 0 1
19.181371 -3.005251 -26.776268 33.074538 -0.155412 2.514221 0.032786 -0.014116 -494349.000000 0 0 1
20.332471 -2.177351 -26.905658 33.794447 -0.106681 2.491712 0.053471 -0.013302 -377694.000000 0 0 1
20.807071 -2.412051 -28.177078 35.109826 -0.115409 2.502339 0.061854 -0.021040 49727.800000 0 0 1
22.246071 -1.941451 -28.515648 36.218767 -0.087051 2.477241 0.047921 -0.018600 -60440.000000 0 0 1
23.252071 -2.744751 -28.009908 36.506813 -0.117500 2.445341 0.050051 -0.018767 -857168.000000 0 0 1
24.486371 -2.454851 -28.610038 37.737818 -0.099920 2.431232 0.040581 -0.017823 299487.000000 0 0 1
25.581471 -3.526651 -28.210848 38.245272 -0.136996 2.400349 0.047065 -0.014705 315461.000000 0 0 1
25.502571 -4.753451 -28.983968 38.897902 -0.184276 2.411525 0.048150 -0.020516 262564.000000 0 0 1
26.640171 -5.568151 -28.781728 39.611752 -0.206047 2.384150 0.037833 -0.018019 2387.670000 0 0 1
26.513371 -6.599251 -27.669808 38.886080 -0.243946 2.362513 0.030429 -0.012833 -90447.500000 0 0 1
26.649371 -6.107251 -26.315868 37.947495 -0.225280 2.337106 0.023181 -0.004478 145832.000000 0 0 1
26.335571 -7.119451 -25.365228 37.251089 -0.264025 2.319822 0.007071 -0.000728 -109087.000000 0 0 1
26.513771 -6.674751 -23.861578 36.289217 -0.246622 2.288344 -0.000317 0.008020 402120.000000 0 0 1
27.876671 -6.537451 -23.473778 37.025198 -0.230351 2.257504 -0.010490 0.010190 554975.000000 0 0 1
27.906871 -5.852951 -22.232278 36.156945 -0.206735 2.233033 -0.006144 0.003775 -252084.000000 0 0 1
29.316471 -5.441551 -21.763478 36.914969 -0.183526 2.201307 -0.003816 0.011948 -165199.000000 0 0 1
29.826171 -4.337751 -22.570978 37.654556 -0.144422 2.213575 0.001815 0.010220 -94520.400000 0 0 1
30.992571 -3.837551 -21.987578 38.193191 -0.123195 2.184249 -0.012891 0.016488 -368738.000000 0 0 1
31.544171 -2.547151 -22.676178 38.932400 -0.080574 2.192536 -0.006969 0.009318 24547.100000 0 0 1
30.739571 -1.407551 -22.455478 38.093975 -0.045758 2.201206 -0.008694 0.010025 466306.000000 0 0 1
31.286571 -0.265451 -23.134678 38.911866 -0.008484 2.207490 0.000690 0.010175 192343.000000 0 0 1
30.326371 0.937049 -22.941578 38.037913 0.030889 2.218208 0.001503 0.013065 109697.000000 0 0 1
29.200971 0.807349 -23.791578 37.674762 0.027641 2.254281 0.003395 0.014827 233188.000000 0 0 1
28.204271 1.752049 -23.403878 36.691853 0.062040 2.262499 0.005094 0.013438 1075580.000000 0 0 1
26.881171 1.720549 -24.283978 36.266641 0.063919 2.304460 -0.000900 0.015552 337399.000000 0 0 1
25.940971 2.662549 -23.926678 35.390805 0.102281 2.313213 -0.001655 0.015955 -119382.000000 0 0 1
25.019971 2.891649 -24.992378 35.482102 0.115063 2.352326 0.008679 0.004004 -58399.400000 0 0 1
24.087071 4.054149 -24.634478 34.691218 0.166749 2.360447 0.004160 0.007178 -18806.400000 0 0 1
24.761271 5.300349 -24.584978 35.293560 0.210876 2.341424 -0.007435 0.016058 584518.000000 0 0 1
23.789171 6.189849 -24.047678 34.387929 0.254552 2.345222 -0.004475 0.005319 188717.000000 0 0 1
24.296771 7.539049 -23.463178 34.607673 0.300870 2.315802 0.005458 0.004998 -485366.000000 0 0 1
24.982071 8.393449 -24.279378 35.833532 0.324130 2.315237 0.001661 0.010339 -10017.600000 0 0 1
24.927571 9.683649 -23.706478 35.737291 0.370529 2.296088 0.002350 0.008198 -229353.000000 0 0 1
25.627371 10.768249 -24.561778 37.094451 0.397786 2.294469 0.017071 0.006715 -139664.000000 0 0 1
25.102071 11.044149 -25.838118 37.678847 0.414481 2.326424 0.017722 0.000304 336678.000000 0 0 1
23.853271 11.709849 -25.907438 37.111918 0.456351 2.343522 0.019186 -0.007322 163382.000000 0 0 1
23.554671 12.201449 -27.329918 38.087036 0.477948 2.371096 0.015433 -0.012499 -137526.000000 0 0 1
23.147271 11.223349 -28.304148 38.247673 0.451468 2.403900 0.016196 -0.010682 331662.000000 0 0 1
24.175971 10.339349 -28.734248 38.949155 0.404130 2.400509 0.013258 -0.008145 48605.400000 0 0 1
25.099271 10.838649 -29.854898 40.481658 0.407643 2.400145 0.009845 -0.007353 -832386.000000 0 0 1
26.108871 11.734249 -29.370158 41.011851 0.422384 2.369050 0.003471 -0.000234 1160460.000000 0 0 1
27.175371 12.030149 -30.277888 42.426121 0.416755 2.365508 0.010144 0.006068 882280.000000 0 0 1
28.080571 10.836949 -30.779558 43.050425 0.368313 2.367371 0.011809 0.002454 -911650.000000 0 0 1
27.469571 9.941949 -31.650048 43.071397 0.347259 2.396209 0.007305 -0.000558 308828.000000 0 0 1
28.303971 8.801349 -31.848318 43.507400 0.301480 2.392080 0.007120 0.001430 109154.000000 0 0 1
27.649171 7.809549 -32.854028 43.644620 0.275281 2.423045 0.008409 0.000728 601889.000000 0 0 1
26.458471 7.127349 -32.453808 42.474692 0.263133 2.440401 0.011682 0.002345 477589.000000 0 0 1
26.018071 6.181149 -33.389608 42.778646 0.233247 2.466294 0.027893 -0.002916 190435.000000 0 0 1
24.686171 5.477449 -33.015268 41.586265 0.218346 2.487990 0.033998 -0.008926 929678.000000 0 0 1
23.423771 6.156149 -33.103678 41.017371 0.257004 2.509960 0.038641 -0.005813 1036750.000000 0 0 1
23.079271 7.069149 -32.021148 40.099620 0.297225 2.495662 0.036525 0.000899 -467025.000000 0 0 1
21.575671 7.342649 -31.912878 39.215505 0.328026 2.521427 0.034652 0.001355 -121274.000000 0 0 1
21.190271 8.365449 -32.869228 39.992430 0.375996 2.535511 0.030163 0.009768 36104.500000 0 0 1
19.835371 8.725849 -32.708468 39.235523 0.414434 2.556470 0.014932 0.013691 35105.800000 0 0 1
19.265571 9.794149 -33.697848 40.032893 0.470326 2.571320 0.009284 0.015822 -75542.200000 0 0 1
18.847371 9.322449 34.105340 40.066265 0.459341 0.552484 0.017380 0.012649 -16908.200000 0 0 1
18.686771 10.333249 33.175748 39.453792 0.505122 0.571897 0.000995 0.016587 472222.000000 0 0 1
17.732371 9.952649 31.947225 37.869742 0.511455 0.566828 -0.003096 0.013944 398929.000000 0 0 1
18.253871 8.979249 31.041105 37.113082 0.457154 0.580128 -0.008194 0.004198 1119620.000000 0 0 1
19.409571 9.342649 30.229685 37.119407 0.448610 0.619119 0.006115 0.003484 447394.000000 0 0 1
19.111871 10.391449 29.054425 36.296080 0.498007 0.642694 0.015965 0.000969 -87507.200000 0 0 1
18.181771 9.901849 28.084475 34.890702 0.498690 0.635244 0.007147 0.001515 384836.000000 0 0 1
16.866671 10.313249 28.387095 34.592988 0.548801 0.608332 0.001085 -0.002988 -876604.000000 0 0 1
15.763871 9.612949 27.646725 33.245297 0.547601 0.588817 0.009897 -0.003952 -1003400.000000 0 0 1
15.797771 9.787449 26.221715 32.139416 0.554668 0.616557 0.009898 -0.003224 588245.000000 0 0 1
14.514171 9.543149 25.630635 30.962272 0.581633 0.595618 0.030803 -0.001627 627672.000000 0 0 1
14.343571 8.063249 25.099595 30.012392 0.512124 0.580283 0.024801 0.001791 -105789.000000 0 0 1
14.282671 7.073049 26.118195 30.597104 0.459815 0.547907 0.009028 0.002032 2107.940000 0 0 1
13.780071 5.845049 25.610465 29.663965 0.401165 0.528920 0.021349 -0.008045 70975.400000 0 0 1
13.610571 4.750749 26.733375 30.372530 0.335827 0.494549 0.031567 -0.009386 499242.000000 0 0 1
14.911171 4.318449 27.159575 31.283135 0.281899 0.519262 0.010260 -0.013970 732317.000000 0 0 1
15.031671 4.296649 28.568125 32.566088 0.278416 0.500724 -0.011226 -0.010287 364105.000000 0 0 1
16.265571 3.465949 29.022585 33.449843 0.209945 0.520351 0.019748 -0.027519 226236.000000 0 0 1
16.042571 2.038449 28.975815 33.183086 0.126388 0.509045 0.011635 -0.015348 374973.000000 0 0 1
15.092471 1.496449 29.905085 33.531122 0.098829 0.469354 0.003310 -0.011823 421121.000000 0 0 1
14.855971 -0.058651 29.782625 33.282248 -0.003948 0.462701 0.010172 -0.013374 -357651.000000 0 0 1
14.149471 -0.545551 28.642765 31.951731 -0.038537 0.459130 0.009190 -0.010297 334182.000000 0 0 1
14.891771 -0.534151 27.435305 31.220924 -0.035854 0.497565 0.019126 -0.003296 -443539.000000 0 0 1
16.097071 -1.516051 27.334365 31.758174 -0.093905 0.534147 0.031537 -0.013591 902223.000000 0 0 1
17.294271 -1.232051 28.071185 32.993956 -0.071120 0.553295 0.038484 -0.009497 291932.000000 0 0 1
18.053671 -0.134451 27.645755 33.018795 -0.007447 0.578519 0.046450 -0.010978 -299972.000000 0 0 1
19.526871 -0.372851 28.158255 34.268426 -0.019092 0.606414 0.060906 -0.019707 412311.000000 0 0 1
20.125471 -1.199851 27.213395 33.868024 -0.059548 0.637623 0.051623 -0.013039 -420312.000000 0 0 1
21.525271 -1.265251 27.385235 34.855261 -0.058712 0.666995 0.055385 -0.013323 163222.000000 0 0 1
22.287471 -1.928551 26.222275 34.468222 -0.086316 0.706303 0.042285 0.002338 -216228.000000 0 0 1
22.516771 -1.161051 25.074555 33.720710 -0.051518 0.732365 0.042087 0.009854 -41361.600000 0 0 1
21.823071 -1.604151 23.946845 32.438728 -0.073375 0.740372 0.032710 0.023635 -413210.000000 0 0 1
21.775671 -0.713251 22.699545 31.463596 -0.032743 0.764896 0.030984 0.009389 -482835.000000 0 0 1
20.947671 0.389249 22.858345 31.007424 0.018580 0.741895 0.020238 0.010761 -303926.000000 0 0 1
20.936771 0.980049 21.516045 30.037461 0.046776 0.772301 0.017765 0.006858 -159755.000000 0 0 1
-29.551959 -27.683594 -10.533678 41.840865 0.752766 1.825290 -0.000406 0.015580 -11189.000000 0 0 1
-29.587769 -26.473594 -9.765878 40.885934 0.729906 1.811985 0.005510 0.015535 -114436.000000 0 0 1
-30.153869 -26.786294 -8.482978 41.215558 0.726325 1.778098 0.019456 0.008671 -526709.000000 0 0 1
-30.373629 -25.599594 -7.622978 40.447575 0.700313 1.760396 0.028803 0.004591 -409265.000000 0 0 1
-29.298369 -24.840694 -7.150478 39.071522 0.703246 1.754844 0.015305 0.003385 -455014.000000 0 0 1
-28.507619 -25.502594 -6.134278 38.738818 0.729817 1.729815 0.017197 0.004861 780235.000000 0 0 1
-27.292199 -24.697094 -5.578878 37.228140 0.735523 1.721219 0.012343 0.006911 252946.000000 0 0 1
-27.666319 -23.666294 -4.653878 36.703913 0.707632 1.697934 0.017827 0.002825 46042.700000 0 0 1
-28.393399 -22.601094 -5.270778 36.671183 0.672296 1.715027 0.017303 -0.000517 280485.000000 0 0 1
-28.592239 -21.400894 -4.335478 35.976531 0.642532 1.691598 0.018701 -0.006383 -145192.000000 0 0 1
-27.415829 -20.615994 -4.374278 34.580069 0.644763 1.697633 0.020031 -0.006786 366943.000000 0 0 1
-27.443199 -19.677894 -3.378878 33.937671 0.622071 1.670523 0.017105 -0.005029 615899.000000 0 0 1
-26.209969 -18.691194 -3.479878 32.379511 0.619486 1.678476 0.014735 -0.004422 691393.000000 0 0 1
-26.188639 -17.797594 -4.553078 31.989524 0.596898 1.713612 0.021507 -0.010026 140088.000000 0 0 1
-25.153659 -16.843594 -4.393378 30.589459 0.590050 1.714919 0.025912 -0.009534 139897.000000 0 0 1
-25.264019 -15.802894 -5.455278 30.294590 0.558966 1.751858 0.019010 -0.020797 -287510.000000 0 0 1
-26.501209 -15.135594 -5.429578 30.998074 0.518920 1.746863 0.021463 -0.016501 -159807.000000 0 0 1
-26.622469 -14.097494 -6.341278 30.784850 0.486994 1.778269 0.031756 -0.032848 71047.500000 0 0 1
-27.961379 -13.300094 -6.201478 31.578308 0.443986 1.768465 0.033633 -0.023222 129087.000000 0 0 1
-28.901669 -13.987994 -6.999378 32.862771 0.450754 1.785429 0.038400 -0.020012 306119.000000 0 0 1
-30.197969 -13.402894 -6.800478 33.731312 0.417715 1.773795 0.035132 -0.015393 422898.000000 0 0 1
-31.303389 -14.196494 -7.529078 35.187066 0.425771 1.786437 0.028262 -0.016473 -258267.000000 0 0 1
-31.806839 -15.310394 -6.868878 35.961989 0.448621 1.762981 0.028797 -0.021093 193268.000000 0 0 1
-32.336609 -16.299894 -7.752378 37.032988 0.466898 1.781693 0.037933 -0.015238 113656.000000 0 0 1
-33.223839 -17.470694 -7.207178 38.222926 0.484112 1.760488 0.032535 -0.018270 -158429.000000 0 0 1
-34.480854 -17.216694 -6.665478 39.112305 0.463097 1.742051 0.040653 -0.013260 -491790.000000 0 0 1
-34.534504 -16.561794 -5.410878 38.680778 0.447172 1.711142 0.031580 -0.009682 598315.000000 0 0 1
34.573571 -16.358494 -5.095378 38.586202 -0.441938 1.703235 0.057596 -0.009247 531479.000000 0 0 1
33.964361 -15.536594 -6.062578 37.838055 -0.429022 1.731714 0.045635 -0.027402 601931.000000 0 0 1
32.535951 -15.574494 -6.100778 36.583773 -0.446451 1.738341 0.062057 -0.026208 1104910.000000 0 0 1
31.682281 -14.923194 -4.956178 35.369935 -0.440201 1.711383 0.070831 -0.019971 -349313.000000 0 0 1
31.586951 -15.665094 -3.757378 35.457700 -0.460391 1.676964 0.074643 -0.020777 568739.000000 0 0 1
30.838461 -15.063894 -2.705978 34.427516 -0.454387 1.649477 0.070691 -0.024846 -849658.000000 0 0 1
30.857731 -15.917794 -1.447478 34.751560 -0.476243 1.612461 0.076640 -0.023598 -721099.000000 0 0 1
32.007811 -16.010294 -0.636178 35.794332 -0.463807 1.588570 0.089108 -0.021034 -384178.000000 0 0 1
33.142991 -16.597194 -1.189578 37.085574 -0.464268 1.602878 0.070262 -0.029745 -1028990.000000 0 0 1
33.087171 -17.997694 -1.786978 37.707707 -0.498185 1.618204 0.069478 -0.026775 -1241680.000000 0 0 1
33.111151 -19.100594 -0.898478 38.235955 -0.523233 1.594297 0.068748 -0.028012 315617.000000 0 0 1
32.751731 -20.364694 -1.449078 38.593995 -0.556288 1.608352 0.057854 -0.026801 -182293.000000 0 0 1
33.776661 -20.905194 -2.451078 39.798212 -0.554218 1.632423 0.052477 -0.024625 -179753.000000 0 0 1
33.957791 -20.142894 -3.626978 39.648741 -0.535386 1.662402 0.029623 -0.028622 -130091.000000 0 0 1
34.484121 -20.936794 -4.673478 40.612132 -0.545655 1.686128 0.040522 -0.027134 -111243.000000 0 0 1
34.575496 -20.145394 -5.994378 40.462753 -0.527564 1.719489 0.048280 -0.028225 422182.000000 0 0 1
33.293191 -20.016494 -6.622078 39.407467 -0.541315 1.739639 0.047297 -0.033272 678226.000000 0 0 1
33.271191 -19.136294 -7.734078 39.153363 -0.521955 1.769637 0.047563 -0.032395 -708258.000000 0 0 1
32.136631 -19.375694 -8.680978 38.516748 -0.542561 1.798131 0.044861 -0.038365 -732359.000000 0 0 1
32.350881 -20.576794 -9.376378 39.470247 -0.566506 1.810645 0.048282 -0.043762 291867.000000 0 0 1
31.357091 -20.784694 -10.362478 39.021168 -0.585348 1.839581 0.047183 -0.045046 -231768.000000 0 0 1
31.375361 -22.155194 -10.954678 39.940842 -0.614831 1.848630 0.042594 -0.037111 -352016.000000 0 0 1
30.864911 -23.096194 -10.032078 39.833647 -0.642412 1.825387 0.039264 -0.034237 76845.300000 0 0 1
30.785821 -24.371894 -10.599378 40.670662 -0.669635 1.834455 0.022877 -0.025848 -591321.000000 0 0 1
30.160591 -25.439094 -9.647978 40.618865 -0.700682 1.810613 0.021039 -0.020977 842451.000000 0 0 1
28.780661 -25.061994 -9.466078 39.319672 -0.716442 1.813931 0.021464 -0.022650 656351.000000 0 0 1
27.981111 -26.122394 -8.997178 39.322655 -0.751057 1.801645 0.005650 -0.015019 176934.000000 0 0 1
26.540911 -25.699894 -8.605578 37.933632 -0.769301 1.799647 0.005375 -0.023021 238649.000000 0 0 1
25.885801 -25.219894 -9.770578 37.437707 -0.772369 1.834836 0.004720 -0.017108 -588175.000000 0 0 1
24.674231 -24.594694 -9.486478 36.106923 -0.783784 1.836650 0.014678 -0.021761 -380739.000000 0 0 1
23.911331 -24.268294 -10.835478 35.750656 -0.792807 1.878724 0.035210 -0.024701 -21331.700000 0 0 1
23.415731 -25.395594 -11.563278 36.427215 -0.825937 1.893820 0.036112 -0.020876 269887.000000 0 0 1
22.534231 -25.026194 -12.595478 35.954805 -0.837746 1.928703 0.047801 -0.006927 -97192.100000 0 0 1
21.953331 -26.293694 -13.268778 36.733738 -0.875118 1.940367 0.051107 -0.009129 170269.000000 0 0 1
22.926531 -27.126094 -13.876778 38.131558 -0.869105 1.943268 0.035091 -0.002439 188789.000000 0 0 1
22.324731 -28.355294 -14.098878 38.745253 -0.903834 1.943233 0.045989 0.001780 -22137.900000 0 0 1
23.209131 -29.446294 -14.785178 40.303219 -0.903301 1.946415 0.045452 -0.005521 -99576.700000 0 0 1
23.243531 -29.339894 -16.214478 40.792161 -0.900820 1.979576 0.053959 -0.003637 348157.000000 0 0 1
23.541431 -30.625794 -16.750778 42.103762 -0.915447 1.979963 0.051241 -0.006700 -238667.000000 0 0 1
23.382031 -30.635294 -18.263978 42.647549 -0.918876 2.013356 0.037801 -0.002167 -432719.000000 0 0 1
22.035731 -30.492594 -18.602578 41.969365 -0.945025 2.030008 0.040750 -0.005364 -398520.000000 0 0 1
21.829231 -30.697594 -20.014578 42.654905 -0.952656 2.059205 0.034436 -0.004339 -192644.000000 0 0 1
20.461431 -30.267494 -20.563278 41.924214 -0.976346 2.083445 0.029481 0.004315 -170273.000000 0 0 1
20.371731 -30.601894 -21.900978 42.791777 -0.983462 2.108079 0.004499 0.003887 -236245.000000 0 0 1
19.136631 -30.139094 -22.358878 42.124755 -1.005078 2.130314 0.001437 0.006593 -693071.000000 0 0 1
18.929531 -30.258594 -23.844478 42.923988 -1.011771 2.159766 0.003242 0.005588 -269375.000000 0 0 1
19.778731 -29.371294 -24.562578 43.095143 -0.978144 2.177255 0.007717 0.006348 291234.000000 0 0 1
19.779131 -29.740994 -25.912528 44.127087 -0.983917 2.198422 0.005157 0.000498 -555231.000000 0 0 1
20.202531 -28.518394 -26.732168 44.000566 -0.954453 2.223758 -0.001018 -0.004209 -234377.000000 0 0 1
19.248831 -27.500494 -26.876128 43.001406 -0.960107 2.245935 0.013627 -0.006335 -38339.100000 0 0 1
18.303831 -27.705094 -27.914718 43.380110 -0.986959 2.269847 0.017463 -0.007995 -212015.000000 0 0 1
17.463231 -26.498794 -28.272868 42.503006 -0.988106 2.298554 0.009701 -0.013472 -453713.000000 0 0 1
16.736231 -26.054594 -27.143938 41.179323 -0.999816 2.290503 0.008015 -0.006388 -81423.600000 0 0 1
16.041431 -24.865194 -27.476998 40.380574 -0.997848 2.319174 0.001274 0.015908 -401156.000000 0 0 1
15.018431 -24.397694 -26.453908 38.994999 -1.019009 2.316369 0.019665 0.011681 239356.000000 0 0 1
13.769431 -25.104794 -26.578458 39.067407 -1.069122 2.319000 0.045950 -0.005331 757320.000000 0 0 1
12.648331 -24.620194 -25.830448 37.859559 -1.096219 2.321660 0.028045 -0.006017 396655.000000 0 0 1
12.752031 -24.740294 -24.268078 36.927443 -1.094877 2.287871 0.031074 -0.009527 -160576.000000 0 0 1
13.595731 -23.808494 -23.557578 36.147583 -1.051939 2.280627 0.023799 -0.002728 107107.000000 0 0 1
13.761831 -24.111994 -22.211178 35.554362 -1.052165 2.245557 0.034811 -0.006189 150421.000000 0 0 1
14.997131 -23.404794 -21.602078 35.204376 -1.000936 2.231432 0.022204 -0.007657 211708.000000 0 0 1
14.790131 -22.060394 -21.416078 34.118284 -0.980187 2.249393 0.020042 -0.010462 -280294.000000 0 0 1
15.984131 -21.459994 -21.006178 34.018866 -0.930610 2.236339 0.019334 -0.003742 -749319.000000 0 0 1
15.819631 -20.158594 -20.216978 32.639789 -0.905418 2.238770 0.025400 0.002188 168407.000000 0 0 1
15.157231 -20.257594 -18.934278 31.600928 -0.928432 2.213258 0.027594 -0.006313 136459.000000 0 0 1
13.764031 -20.175494 -19.124578 31.020132 -0.972106 2.235113 0.015887 -0.005759 -1016920.000000 0 0 1
12.965931 -20.113394 -17.850178 29.854528 -0.998197 2.211682 0.018679 -0.006628 -446038.000000 0 0 1
13.159631 -18.953994 -17.125578 28.735260 -0.963911 2.209279 0.020204 -0.002446 -54935.000000 0 0 1
12.433131 -19.021394 -15.935578 27.754978 -0.991867 2.182364 0.018322 -0.003581 -97972.300000 0 0 1
12.582631 -17.792894 -15.046878 26.482413 -0.955273 2.175093 0.008556 -0.005406 -25839.000000 0 0 1
11.706631 -16.744894 -15.426778 25.601214 -0.960664 2.217526 -0.002580 -0.005830 203529.000000 0 0 1
12.247931 -15.532594 -14.947778 24.793332 -0.903088 2.217921 0.008813 -0.005961 160075.000000 0 1 0
11.133431 -14.620594 -14.391578 23.341648 -0.919982 2.235165 0.013185 -0.005141 246648.000000 0 1 0
10.320431 -13.946294 -15.339478 23.158367 -0.933718 2.294778 0.016360 0.000452 -947855.000000 0 1 0
9.161331 -13.395194 -14.877578 22.015983 -0.970939 2.312795 0.019577 -0.012151 -949632.000000 0 1 0
8.220231 -13.080994 -16.070778 22.292476 -1.009748 2.375905 0.026056 -0.004978 -125274.000000 0 1 0
8.555431 -11.882994 -16.827578 22.306239 -0.946791 2.425519 0.027323 -0.000783 -13411.800000 0 1 0
9.775231 -11.860194 -17.527278 23.311474 -0.881470 2.421695 0.033283 -0.004551 -46555.200000 0 1 0
9.680831 -10.773494 -18.651678 23.615074 -0.838767 2.481313 0.027165 -0.003462 -1557.290000 0 1 0
8.973831 -11.121194 -19.819078 24.433715 -0.891855 2.516889 0.030387 -0.000517 180035.000000 0 1 0
8.833131 -10.005294 -20.630578 24.571342 -0.847540 2.567379 0.016845 -0.002131 -157790.000000 0 1 0
8.611731 -10.308294 -22.146678 25.901702 -0.874829 2.596401 0.031187 0.004934 -42754.300000 0 0 1
9.790431 -10.706294 -22.811478 27.034067 -0.830052 2.575131 0.023766 -0.001698 -407747.000000 0 0 1
9.616531 -10.918094 -24.181378 28.220940 -0.848697 2.599943 0.016694 -0.000240 -299498.000000 0 0 1
10.799731 -11.698794 -24.723478 29.406569 -0.825338 2.569457 0.036281 -0.000431 -398502.000000 0 0 1
10.738731 -13.011594 -24.321578 29.600018 -0.880806 2.535139 0.033062 -0.005017 330051.000000 0 0 1
11.848231 -13.787494 -24.816578 30.762609 -0.860901 2.509364 0.017094 -0.012151 -69585.800000 0 0 1
11.586131 -15.283694 -24.598378 31.191504 -0.922150 2.479365 0.014729 -0.011611 -44220.800000 0 0 1
10.634131 -15.948594 -25.429938 31.845315 -0.982718 2.495672 0.018257 -0.014217 27970.400000 0 0 1
10.496031 -17.270294 -24.991878 32.140685 -1.024697 2.461600 0.017326 -0.015421 -202605.000000 0 0 1
9.382331 -18.127494 -25.576168 32.722691 -1.093188 2.468029 0.030573 -0.016340 -205941.000000 0 0 1
9.577731 -18.553694 -26.903178 34.055153 -1.094260 2.481587 0.029192 -0.027479 -452120.000000 0 0 1
8.416131 -19.124594 -27.410888 34.466478 -1.156232 2.490284 0.035827 -0.023673 -592702.000000 0 0 1
8.764131 -20.145294 -28.525398 36.004738 -1.160447 2.485313 0.020779 -0.017965 -396703.000000 0 0 1
9.638531 -21.177894 -28.146868 36.519182 -1.143691 2.450801 0.015222 -0.018612 -54815.200000 0 0 1
9.490631 -22.195194 -29.097098 37.806610 -1.166727 2.449058 0.015374 -0.020334 -162772.000000 0 0 1
10.420031 -23.427094 -28.954798 38.675394 -1.152287 2.416838 0.002059 -0.012367 -3992.650000 0 0 1
10.307031 -24.285994 -30.065728 39.999905 -1.169432 2.421349 0.005728 -0.014364 -35171.900000 0 0 1
10.764931 -25.637694 -29.907358 40.836566 -1.173265 2.392588 0.021810 -0.009876 -350479.000000 0 0 1
10.191131 -26.585994 -28.820308 40.512768 -1.204745 2.362268 0.022008 -0.011008 27417.200000 0 0 1
10.548531 -26.160594 -27.525028 39.411614 -1.187515 2.343954 0.029238 -0.017310 -477317.000000 0 0 1
9.850231 -26.879594 -26.512858 39.018857 -1.219536 2.317861 0.022138 -0.010389 425676.000000 0 0 1
8.823631 -26.027294 -25.694748 37.623085 -1.243941 2.322592 0.018839 -0.008115 371389.000000 0 0 1
9.425931 -24.912694 -25.030178 36.551338 -1.209084 2.325119 0.016374 -0.008065 22635.900000 0 0 1
8.492131 -23.846494 -24.939078 35.534900 -1.228683 2.348745 0.020221 -0.005480 87261.500000 0 0 1
9.231331 -22.457194 -24.884278 34.767374 -1.180789 2.368474 0.027968 -0.006131 288761.000000 0 0 1
9.902531 -22.273094 -23.674978 33.980221 -1.152445 2.341623 0.024973 -0.002716 -284251.000000 0 0 1
10.856431 -21.240494 -23.756878 33.666154 -1.098293 2.354151 0.024649 -0.004012 421069.000000 0 0 1
11.697231 -20.981794 -22.454278 32.882449 -1.062218 2.322474 0.018469 0.002584 371220.000000 0 0 1
10.903831 -20.462294 -21.374578 31.535243 -1.081196 2.315562 0.012644 -0.002498 15804.100000 0 0 1
10.725331 -19.056294 -21.407578 30.601625 -1.058161 2.345574 0.006424 -0.000970 -455525.000000 0 0 1
11.904431 -18.124594 -21.189078 30.318202 -0.989648 2.344640 0.013425 -0.001224 -864568.000000 0 0 1
12.941431 -18.147194 -22.093678 31.383624 -0.951308 2.351793 0.018599 -0.007235 -2511.580000 0 0 1
13.827131 -16.992094 -21.961978 31.020143 -0.887734 2.357446 0.022073 -0.006901 659450.000000 0 0 1
15.084431 -16.866894 -22.836978 32.149023 -0.841127 2.360788 0.004317 0.004211 -186774.000000 0 0 1
16.209531 -17.574194 -22.374378 32.744678 -0.825770 2.323067 0.010775 0.005533 1139870.000000 0 0 1
17.394831 -16.984094 -23.000478 33.467321 -0.773451 2.328495 0.007502 0.007475 954939.000000 0 0 1
18.745631 -17.377194 -22.376678 33.971771 -0.747533 2.289865 0.007235 0.002917 -169042.000000 0 0 1
19.025131 -18.717494 -22.456678 34.879830 -0.777247 2.270289 0.009827 0.005048 -13699.000000 0 0 1
20.273631 -19.036694 -21.879478 35.385412 -0.753943 2.237399 0.020023 -0.001333 45055.100000 0 0 1
20.437431 -20.575094 -21.726078 36.235970 -0.788755 2.213763 -0.001537 0.004788 -76412.100000 0 0 1
19.623231 -21.059394 -20.662778 35.433312 -0.820685 2.193392 0.007883 0.006797 403187.000000 0 0 1
19.691731 -22.478894 -20.630378 36.313598 -0.851395 2.175012 0.007000 0.008991 -38067.800000 0 0 1
-15.757929 13.132049 28.760985 35.326439 -0.694755 0.619534 -0.005877 0.002074 424029.000000 0 0 1
-17.090329 13.541049 28.464415 35.856133 -0.670042 0.653681 0.005045 -0.006928 411042.000000 0 0 1
-17.213629 13.604149 27.079705 34.852436 -0.668806 0.680939 0.005431 -0.004064 319449.000000 0 0 1
-18.406729 14.409649 26.485395 35.325936 -0.664194 0.723122 0.017378 -0.008871 225700.000000 0 0 1
-18.370629 15.805849 26.674985 36.039696 -0.710493 0.737495 0.019586 -0.008605 356821.000000 0 0 1
-19.434029 16.521649 26.007015 36.428165 -0.704575 0.775707 0.040690 -0.010124 294918.000000 0 0 1
-19.396629 18.041149 26.305855 37.332429 -0.749208 0.788883 0.052443 -0.011613 536100.000000 0 0 1
-18.220129 18.674549 25.806975 36.697572 -0.797714 0.790860 0.015713 -0.012178 233421.000000 0 0 1
-17.144129 18.742549 26.703745 36.855044 -0.829910 0.760398 0.016212 -0.005757 275268.000000 0 0 1
-15.897829 19.550749 26.219415 36.365237 -0.888084 0.765549 0.016458 -0.004635 388168.000000 0 0 1
-16.218229 20.917149 26.133085 37.195379 -0.911264 0.791766 0.027504 -0.001488 -301034.000000 0 0 1
-15.283429 21.690549 25.462465 36.774995 -0.956982 0.806007 0.034434 -0.005357 -452067.000000 0 0 1
-15.541929 23.196449 25.598055 37.879905 -0.980480 0.828789 0.038240 -0.004923 -40898.400000 0 0 1
-15.031829 23.797249 26.778555 38.850430 -1.007420 0.810311 0.031424 -0.000042 87683.500000 0 0 1
-15.329429 25.188649 26.844185 39.875678 -1.024088 0.832273 0.028981 -0.003835 -462491.000000 0 0 1
-14.690729 25.925449 28.008275 40.895108 -1.055258 0.816356 0.007934 0.002813 98999.400000 0 0 1
-13.274129 26.004849 27.977385 40.437467 -1.098825 0.806723 -0.001225 0.003187 -38755.800000 0 0 1
-12.930329 27.111349 28.804605 41.616390 -1.125771 0.806339 0.013911 0.014034 1044980.000000 0 0 1
-11.380929 27.346349 28.991825 41.447246 -1.176422 0.796116 0.026142 0.006916 1467290.000000 0 0 1
-10.659529 27.694449 27.768645 40.641182 -1.203377 0.818573 0.026911 0.004235 402802.000000 0 0 1
-9.271629 27.655849 28.065345 40.478052 -1.247322 0.804673 0.010926 0.008775 -319757.000000 0 0 1
-8.528929 28.228849 26.862415 39.889847 -1.277382 0.831978 0.017389 0.005885 735474.000000 0 0 1
-7.085929 28.266449 27.005955 39.730644 -1.325175 0.823407 -0.003910 0.002474 1489860.000000 0 0 1
-6.445029 28.701449 25.794545 39.123779 -1.349906 0.850901 0.018399 -0.002155 63452.100000 0 0 1
-4.926629 28.440849 25.811105 38.721657 -1.399275 0.841184 -0.004807 -0.008048 -649238.000000 0 0 1
-4.267529 29.339349 26.677555 39.883595 -1.426355 0.838088 0.007560 -0.004999 766985.000000 0 0 1
-2.845129 29.421649 26.485745 39.689077 -1.474394 0.840177 0.004334 -0.004306 854126.000000 0 0 1
-2.394829 30.279949 25.314475 39.540272 -1.491871 0.876012 -0.000811 0.000878 -780434.000000 0 0 1
-2.679229 29.717249 24.046215 38.321190 -1.480882 0.892469 0.001328 0.004191 43683.500000 0 0 1
-2.481129 30.753049 23.153745 38.574628 -1.490292 0.927005 -0.002929 0.005217 -241066.000000 0 0 1
-2.802029 30.315049 21.686745 37.378717 -1.478628 0.951835 0.001951 0.002986 263445.000000 0 0 1
-4.177929 30.171049 21.409145 37.230347 -1.433197 0.958137 -0.001533 0.006782 -247435.000000 0 0 1
-4.642029 28.856149 21.683945 36.392571 -1.411295 0.932492 0.010413 0.006440 311841.000000 0 0 1
-6.129029 28.725849 21.210045 36.229896 -1.360586 0.945387 0.014347 -0.003709 267222.000000 0 0 1
-6.370629 28.953849 19.785745 35.642474 -1.354220 0.982293 0.016566 -0.005793 562095.000000 0 0 1
-7.412629 28.073749 19.300845 34.865528 -1.312647 0.984140 0.008179 -0.007419 -478277.000000 0 0 1
-6.962029 26.587349 18.963245 33.391041 -1.314692 0.966827 0.003637 -0.007621 496363.000000 0 0 1
-5.862929 26.601949 18.044145 32.674589 -1.353870 0.985750 0.007467 -0.008626 610052.000000 0 0 1
-4.607529 26.806149 18.682445 32.997465 -1.400576 0.968934 0.015282 -0.006028 -715065.000000 0 0 1
-3.501129 27.259249 17.715345 32.697981 -1.443057 0.998234 0.015261 -0.009916 -224912.000000 0 0 1
-3.098129 26.223149 16.862845 31.330616 -1.453197 1.002470 0.018947 -0.011714 -85153.700000 0 0 1
-2.337629 26.803649 15.796445 31.199804 -1.483803 1.039908 0.017755 -0.014709 -93178.900000 0 0 1
-1.844929 25.780549 14.794945 29.781384 -1.499355 1.050906 0.021207 -0.015942 -741151.000000 0 0 1
-0.880229 25.052449 15.483145 29.464008 -1.535675 1.017501 0.019861 -0.019816 -450185.000000 0 0 1
-0.340029 23.935849 14.819845 28.154365 -1.556591 1.016461 0.020396 -0.024404 -190913.000000 0 0 1
0.935771 23.254149 15.361545 27.885626 1.530577 0.987382 0.015872 -0.026802 407901.000000 0 0 1
2.056271 24.131349 15.287945 28.640382 1.485790 1.007720 0.029882 -0.028578 -31396.400000 0 0 1
3.269471 23.484949 15.610045 28.388479 1.432470 0.988585 0.030771 -0.022110 -60587.300000 0 0 1
4.414171 24.531949 15.656245 29.435003 1.392766 1.009963 0.034027 -0.020387 544079.000000 0 0 1
5.675471 23.854849 15.781145 29.160064 1.337222 0.998944 0.028223 -0.015619 85061.800000 0 0 1
6.696071 24.800249 15.753545 30.134098 1.307084 1.020686 0.030607 -0.009052 -102068.000000 0 0 1
8.186071 24.381749 15.746545 30.156842 1.246876 1.021421 0.032254 -0.003383 392842.000000 0 0 1
8.540471 23.608049 14.602245 29.043160 1.223683 1.043988 0.029060 -0.003628 -445773.000000 0 0 1
9.656171 24.204349 14.017345 29.590169 1.191201 1.077291 0.026031 -0.005603 -472436.000000 0 0 1
10.154471 23.597049 12.673845 28.645424 1.164421 1.112480 0.025186 -0.000581 -148515.000000 0 0 1
10.990771 22.465649 12.783645 28.087791 1.115805 1.098276 0.014846 0.003461 -179247.000000 0 0 1
11.353971 21.925549 11.531445 27.250992 1.092977 1.133870 0.026787 0.001799 -284804.000000 0 0 1
12.637871 21.108149 11.575145 27.189220 1.031319 1.131033 0.006767 0.003352 -490112.000000 0 0 1
12.508971 19.953649 12.453545 26.640444 1.010831 1.084372 0.018952 0.007742 436150.000000 0 0 1
13.761571 19.318449 12.771845 26.938881 0.951827 1.076850 0.015910 0.005282 274305.000000 0 0 1
13.972271 18.948749 14.233945 27.511536 0.935426 1.027009 0.023113 0.004145 -258415.000000 0 0 1
15.056771 18.081349 14.454845 27.614925 0.876418 1.019909 0.015490 -0.002475 -97331.400000 0 0 1
15.424971 18.084449 15.834945 28.560856 0.864597 0.983121 0.015976 -0.010338 304404.000000 0 0 1
16.682871 17.184549 16.002645 28.804714 0.800210 0.981764 0.011286 -0.012468 165472.000000 0 0 1
17.236171 17.240949 17.295445 29.890940 0.785537 0.953763 0.013172 -0.022182 17398.100000 0 0 1
18.460971 16.533549 17.277545 30.210581 0.730376 0.961972 0.028948 -0.024639 -31902.800000 0 0 1
18.860471 16.066749 18.720845 31.053628 0.705581 0.923721 0.021407 -0.026764 -242269.000000 0 0 1
19.215371 17.005449 19.689845 32.343558 0.724461 0.916285 0.028360 -0.019671 1004960.000000 0 0 1
18.045971 17.661549 20.232545 32.356502 0.774633 0.895279 0.027216 -0.020804 416949.000000 0 0 1
18.401071 18.879049 21.092945 33.762853 0.798219 0.896000 0.033655 -0.021679 225400.000000 0 0 1
17.335971 19.661849 21.651445 33.998665 0.848181 0.880414 0.027704 -0.023151 141312.000000 0 0 1
17.842271 20.817949 22.237845 35.302342 0.862217 0.889339 0.038036 -0.013730 -754732.000000 0 0 1
16.806271 21.818849 22.620245 35.639702 0.914452 0.883186 0.043219 -0.019339 -705424.000000 0 0 1
16.103071 21.435749 23.778945 35.836273 0.926512 0.845250 0.047408 -0.023616 -329129.000000 0 0 1
15.263971 22.457449 24.231205 36.393366 0.973836 0.842212 0.050794 -0.026059 5221.500000 0 0 1
14.587671 22.034449 25.565995 36.768698 0.986004 0.801932 0.048048 -0.022033 222636.000000 0 0 1
13.650471 20.966549 25.495395 35.720396 0.993677 0.775960 0.039326 -0.024128 44035.800000 0 0 1
12.975271 20.623449 26.683475 36.134362 1.009217 0.740025 0.030428 -0.024472 -61115.900000 0 0 1
11.928571 19.512949 26.367665 34.904150 1.022098 0.714485 0.026732 -0.023228 -50427.400000 0 0 1
12.403671 18.146249 26.315805 34.287884 0.971204 0.695871 0.038607 -0.024619 429844.000000 0 0 1
13.157371 17.679049 25.159435 33.446410 0.930995 0.719354 0.045811 -0.025251 130274.000000 0 0 1
12.409871 17.638149 23.778845 32.102066 0.957671 0.736645 0.047948 -0.025375 -715813.000000 0 0 1
12.271271 18.873249 23.077745 32.239198 0.994285 0.772986 0.043793 -0.023778 198610.000000 0 0 1
13.435671 19.478649 22.497845 32.651003 0.966973 0.810633 0.047147 -0.022708 316407.000000 0 0 1
14.183071 18.675349 21.418145 31.759488 0.921272 0.830664 0.044451 -0.027058 -794764.000000 0 0 1
13.386971 18.334849 20.339045 30.480394 0.940129 0.840242 0.049387 -0.023675 -66165.600000 0 0 1
13.914171 17.185749 19.684145 29.604386 0.890208 0.843428 0.036945 -0.023816 456854.000000 0 0 1
12.788971 16.519249 18.824645 28.121355 0.911995 0.837385 0.039540 -0.017873 330015.000000 0 0 1
12.475971 17.181149 17.637245 27.602792 0.942739 0.877643 0.039040 -0.010023 477380.000000 0 0 1
11.291571 16.579649 17.094245 26.355218 0.972902 0.865040 0.042463 -0.014317 609637.000000 0 0 1
10.847971 16.955949 15.669645 25.509223 1.001644 0.909331 0.035423 -0.005923 183595.000000 0 0 1
10.250271 18.249749 15.586445 26.097100 1.059040 0.930731 0.036570 -0.008888 321746.000000 0 0 1
9.634971 18.508249 14.316945 25.305392 1.090823 0.969434 0.021639 -0.007376 -332503.000000 0 0 1
8.784171 19.750149 14.222845 25.875072 1.152305 0.988823 0.025160 -0.007435 -76230.000000 0 0 1
7.472071 19.531349 14.724845 25.575897 1.205407 0.957298 0.026046 -0.009137 -187387.000000 0 0 1
6.784171 20.785149 14.724945 26.360413 1.255303 0.978099 0.031902 -0.011345 763260.000000 0 0 1
5.426771 20.527549 15.485545 26.279882 1.312344 0.940660 0.030306 -0.008743 832096.000000 0 0 1
4.490271 19.629049 14.862745 25.027251 1.345909 0.934945 0.028595 -0.016172 -350249.000000 0 0 1
3.337571 19.629749 15.655745 25.329208 1.402381 0.904485 0.013448 -0.001303 68058.400000 0 0 1
2.088671 19.039849 14.948645 24.296921 1.461533 0.908095 -0.002931 -0.000567 242490.000000 0 1 0
1.523071 19.869949 13.916645 24.306534 1.494294 0.961187 0.001645 -0.016367 -357207.000000 0 1 0
0.385071 19.228649 13.419545 23.451512 1.550773 0.961580 -0.000507 -0.016132 -449352.000000 0 1 0
-0.504829 20.143749 12.573445 23.751147 -1.545740 1.012924 0.007630 -0.019952 -610355.000000 0 1 0
-1.503729 20.781249 13.278345 24.707002 -1.498562 1.003407 0.004451 -0.018715 -522724.000000 0 1 0
-2.526729 21.189449 12.368045 24.664664 -1.452112 1.045525 0.002940 -0.010519 479689.000000 0 1 0
-3.753929 21.807349 13.075845 25.702727 -1.400326 1.037083 0.004965 -0.011104 -193224.000000 0 0 1
-4.498929 20.918649 13.827945 25.476308 -1.358955 0.997057 0.001678 -0.016728 -567085.000000 0 0 1
-5.662629 21.560149 14.286545 26.476608 -1.313954 1.000845 0.008039 -0.010784 -618360.000000 0 0 1
-6.225029 20.808049 15.506045 26.686388 -1.280106 0.950782 -0.002721 -0.001179 -545675.000000 0 0 1
-7.066729 19.703149 15.179545 25.856746 -1.226428 0.943370 -0.003219 -0.002419 219588.000000 0 0 1
-7.707329 19.042549 16.257945 26.198136 -1.186208 0.901319 0.000629 0.010956 -191941.000000 0 0 1
-8.884229 19.700549 17.000945 27.496787 -1.147141 0.904233 -0.000960 0.012640 73872.100000 0 0 1
-9.991329 19.793849 16.104045 27.403711 -1.103340 0.942634 -0.002062 0.001595 -787654.000000 0 0 1
-11.207029 19.685249 16.745845 28.169662 -1.053248 0.934198 -0.001266 0.002159 -145140.000000 0 0 1
-12.415629 19.593249 15.738645 28.031200 -1.005988 0.974637 0.001584 -0.004353 247950.000000 0 0 1
-12.807529 20.862049 15.242445 28.837302 -1.020208 1.013885 -0.003103 0.008678 -42993.600000 0 0 1
-13.945829 20.653849 14.440845 28.802875 -0.976898 1.045617 0.002337 -0.003822 -189521.000000 0 0 1
-14.870929 21.893249 14.306045 30.085242 -0.974135 1.075245 0.000743 -0.001719 227029.000000 0 0 1
-15.795029 22.026349 15.392345 31.169974 -0.948688 1.054319 -0.007500 -0.008451 -18402.100000 0 0 1
-16.729629 23.035449 15.117145 32.234151 -0.942665 1.082662 0.002113 -0.006363 -253464.000000 0 0 1
-18.020529 22.868949 15.924645 33.186181 -0.903421 1.070304 0.043595 -0.016333 -681996.000000 0 0 1
-18.817729 21.755449 15.506445 32.678071 -0.857677 1.076376 0.037146 -0.018039 652623.000000 0 0 1
-20.029429 21.577249 16.252745 33.628967 -0.822582 1.066381 0.039292 -0.014890 1797320.000000 0 0 1
-21.194529 22.614549 15.872345 34.821792 -0.817801 1.097507 0.028122 -0.016242 -24734.300000 0 0 1
-21.897229 22.509249 14.682045 34.665795 -0.799180 1.133457 0.035852 -0.011415 -221920.000000 0 0 1
-22.801629 23.564749 14.528645 35.864930 -0.801855 1.153715 0.051374 -0.020204 -446259.000000 0 0 1
-22.272929 24.844749 13.843745 36.124703 -0.839927 1.177515 0.040107 -0.016321 -899344.000000 0 0 1
-21.290929 25.380549 14.650145 36.222958 -0.872801 1.154426 0.023256 -0.009182 -667259.000000 0 0 1
-20.903529 26.588149 14.048345 36.622987 -0.904529 1.177112 0.026374 -0.000626 -588643.000000 0 0 1
-19.431229 26.923649 14.255545 36.134140 -0.945644 1.165254 0.017954 0.003083 218957.000000 0 0 1
-18.456229 26.163349 13.498145 34.746987 -0.956440 1.171826 0.013804 0.008492 215333.000000 0 0 1
-17.156729 26.601449 13.796145 34.530046 -0.997976 1.159781 -0.004603 0.011343 -139237.000000 0 0 1
-16.127529 26.211449 12.710845 33.297189 -1.019213 1.179119 -0.006631 0.007299 -141617.000000 0 0 1
-14.805629 26.549449 13.026945 33.072363 -1.062089 1.165934 -0.008203 0.012591 -625074.000000 0 0 1
-13.886729 26.015149 12.141645 31.891202 -1.080480 1.180221 -0.007435 0.014515 -362689.000000 0 0 1
-12.456429 26.487049 12.477245 31.818360 -1.131203 1.167840 -0.007122 0.012886 -1294990.000000 0 0 1
-11.462129 25.785049 11.768345 30.573568 -1.152504 1.175676 -0.003734 0.014839 1553690.000000 0 0 1
-10.095829 26.230649 12.061045 30.584988 -1.203386 1.165441 0.006296 0.008642 1703160.000000 0 0 1
-9.825229 27.709849 11.685245 31.637253 -1.230051 1.192486 0.003060 0.005115 -1603670.000000 0 0 1
-8.491129 28.083749 11.869345 31.649290 -1.277185 1.186370 0.027838 -0.007058 -100649.000000 0 0 1
-8.141329 29.285549 11.177445 32.386106 -1.299645 1.218418 0.027054 -0.008367 -79334.500000 0 0 1
-6.861429 29.991649 11.709245 32.919366 -1.345889 1.207139 0.025282 -0.010565 -364186.000000 0 0 1
-5.739929 29.255449 11.324645 31.891624 -1.377057 1.207778 0.041615 -0.014824 -915977.000000 0 0 1
-4.628029 29.918849 11.866645 32.517279 -1.417327 1.197235 0.045277 -0.022239 130063.000000 0 0 1
-3.265329 29.556749 11.192445 31.773174 -1.460766 1.210811 0.045144 -0.020420 320154.000000 0 0 1
-3.121729 30.101749 9.918245 31.847010 -1.467460 1.254095 0.049461 -0.020851 -404893.000000 0 0 1
-1.860729 29.948649 9.344045 31.427616 -1.508745 1.268912 0.043888 -0.020213 -251768.000000 0 0 1
-1.651629 30.800349 8.034945 31.873966 -1.517224 1.315962 0.046726 -0.021855 15087.900000 0 0 1
-2.239129 30.185649 6.913045 31.047984 -1.496753 1.346257 0.052810 -0.017453 92469.400000 0 0 1
-2.324129 31.200349 5.930245 31.843856 -1.496443 1.383474 0.046584 -0.014035 132803.000000 0 0 1
10.761971 -34.474694 -26.769838 44.954963 -1.268212 2.208661 0.073704 -0.022684 -183702.000000 0 0 1
11.274471 -34.047294 -25.567248 44.045613 -1.251020 2.190105 0.059141 -0.020266 339950.000000 0 0 1
12.416371 -33.201994 -25.667478 43.764804 -1.212934 2.197511 0.054222 -0.013749 13338.600000 0 0 1
13.198971 -33.108894 -24.363978 43.174241 -1.191451 2.170403 0.040961 -0.006376 -784659.000000 0 0 1
12.635471 -32.239394 -23.388578 41.785873 -1.197269 2.164850 0.039858 -0.010711 294329.000000 0 0 1
13.101171 -32.369394 -22.029478 41.288209 -1.186211 2.133593 0.014478 -0.002324 -983489.000000 0 0 1
14.541771 -32.071894 -21.686178 41.356496 -1.145109 2.122773 -0.004437 0.008855 -676770.000000 0 0 1
15.431671 -32.984794 -22.299378 42.701233 -1.133204 2.120247 0.006424 0.005447 154597.000000 0 0 1
16.756071 -32.911394 -21.794278 42.882587 -1.099874 2.103926 0.001200 -0.000022 524366.000000 0 0 1
17.693271 -34.123094 -22.156078 44.365856 -1.092448 2.093696 -0.008369 0.013537 -49351.100000 0 0 1
18.989671 -33.928494 -21.652478 44.503709 -1.060539 2.078912 -0.001666 0.015222 -476995.000000 0 0 1
19.689871 34.033949 -21.834378 44.974890 1.046309 2.077708 -0.002178 0.014495 -525447.000000 0 0 1
21.201071 34.137549 -21.557378 45.602392 1.015044 2.063177 0.024008 0.011792 -227732.000000 0 0 1
21.943671 -34.344394 -22.551378 46.579252 -1.002242 2.076189 0.013646 0.010103 -1134700.000000 0 0 1
23.287471 -34.417094 -22.247778 47.136040 -0.975931 2.062344 0.013317 0.008477 -633252.000000 0 0 1
24.189071 -33.751494 -23.340178 47.634424 -0.948962 2.082869 0.012811 0.001962 157351.000000 0 0 1
24.149571 -32.328794 -23.408778 46.651083 -0.929219 2.096457 0.008849 0.004389 238057.000000 0 0 1
22.972771 -31.836594 -24.060078 46.045676 -0.945731 2.120608 0.004017 0.004000 467895.000000 0 0 1
22.733471 -30.325394 -23.966578 44.842358 -0.927518 2.134669 -0.006259 0.002240 -515536.000000 0 0 1
23.563471 -29.568394 -24.846978 45.242672 -0.897940 2.152195 -0.014679 -0.002750 133308.000000 0 0 1
23.390171 -28.190894 -24.587378 44.117635 -0.878202 2.161944 -0.009654 0.003930 131153.000000 0 0 1
24.029771 -27.301294 -25.662118 44.512187 -0.849046 2.185258 -0.022598 0.003616 207262.000000 0 0 1
23.266371 -27.300894 -26.867438 44.816537 -0.865015 2.213670 -0.022179 -0.002026 -131687.000000 0 0 1
23.931071 -26.628694 -27.935708 45.411312 -0.838703 2.233399 -0.030236 0.001181 -393132.000000 0 0 1
22.968971 -26.265294 -29.127538 45.451653 -0.852250 2.266397 -0.023938 -0.003915 498593.000000 0 0 1
22.220871 -25.066494 -29.057168 44.344280 -0.845503 2.285327 -0.013660 -0.004216 15946.400000 0 0 1
21.149171 -25.102094 -28.130878 43.229028 -0.870657 2.279356 -0.015179 -0.000692 -578798.000000 0 0 1
20.625471 -23.666594 -27.883908 41.988451 -0.853951 2.297066 -0.012744 0.005536 246196.000000 0 0 1
19.967271 -23.105594 -29.071738 42.163092 -0.858130 2.331604 -0.008166 0.007961 428370.000000 0 0 1
19.585371 -21.791594 -28.802168 41.085584 -0.838668 2.347635 -0.010713 0.024851 -353137.000000 0 0 1
18.498471 -21.325294 -29.806038 41.053154 -0.856263 2.383335 0.000177 0.016091 347510.000000 0 0 1
17.291971 -22.057394 -29.597408 40.762083 -0.905917 2.383431 0.006302 0.008620 205750.000000 0 0 1
16.213571 -21.517394 -30.319828 40.560696 -0.925053 2.415113 0.003943 0.003393 -356467.000000 0 0 1
14.963271 -22.387994 -30.220998 40.477530 -0.981621 2.413751 0.008073 0.000873 -489267.000000 0 0 1
15.076671 -23.517994 -31.048908 41.766454 -1.000725 2.408926 0.009951 0.002964 24617.000000 0 0 1
14.213771 -24.544194 -30.605708 41.727186 -1.045879 2.394212 0.016053 -0.004971 -345485.000000 0 0 1
14.422371 -25.947794 -31.254988 43.106462 -1.063494 2.381925 0.025658 -0.005319 -64176.500000 0 0 1
13.654171 -26.992194 -30.678298 43.083325 -1.102475 2.363237 0.033353 -0.007318 -34280.300000 0 0 1
14.042771 -28.314194 -31.059918 44.312656 -1.110384 2.347492 0.063329 -0.015509 55432.500000 0 0 1
13.332471 -29.343294 -30.197048 44.166111 -1.144321 2.323638 0.059592 -0.028326 -343261.000000 0 0 1
13.808971 -29.509794 -28.876398 43.535755 -1.133120 2.295990 0.069287 -0.034635 -247818.000000 0 0 1
13.478871 -28.460594 -27.993648 42.134661 -1.128493 2.297467 0.064027 -0.027177 -330087.000000 0 0 1
14.413271 -28.174494 -26.796668 41.468131 -1.097934 2.273390 0.046287 -0.017360 -337501.000000 0 0 1
14.560771 -29.330294 -25.949768 41.781247 -1.110000 2.240925 0.045546 -0.023049 -84489.700000 0 0 1
15.389371 -29.021994 -24.843778 41.186432 -1.083230 2.218307 0.054659 -0.018261 -799850.000000 0 0 1
14.794471 -28.115894 -23.684478 39.627444 -1.086412 2.211399 0.043582 -0.014602 88620.400000 0 0 1
13.712471 -28.589994 -22.948678 39.141556 -1.123581 2.197280 0.041792 -0.016229 -37717.000000 0 0 1
12.499071 -28.764194 -23.667978 39.290950 -1.160877 2.217272 0.044524 -0.016928 175925.000000 0 0 1
11.185571 -28.618994 -22.814078 38.270693 -1.198208 2.209461 0.023001 -0.005225 715420.000000 0 0 1
11.093071 -27.300294 -22.367278 36.995370 -1.184841 2.220056 0.015035 -0.010620 -202858.000000 0 0 1
9.826571 -27.061194 -21.813778 36.120778 -1.222478 2.219197 0.017430 -0.009498 -481124.000000 0 0 1
9.509871 -25.520394 -21.548778 34.728633 -1.214098 2.240164 0.016983 -0.005976 -112405.000000 0 0 1
10.052071 -24.875794 -20.387478 33.697158 -1.186769 2.220588 0.014047 -0.003183 69828.300000 0 0 1
9.937971 -23.460094 -20.408278 32.644097 -1.170102 2.246152 0.010895 -0.001766 -368233.000000 0 0 1
10.284171 -22.705194 -19.080478 31.390359 -1.145497 2.224140 0.001161 -0.005038 -114613.000000 0 0 1
9.425971 -22.918594 -17.974078 30.613369 -1.180603 2.198307 0.001663 -0.006827 11387.100000 0 0 1
9.880371 -22.281394 -16.818878 29.613458 -1.153414 2.174806 0.000583 -0.004718 72687.300000 0 0 1
9.021371 -22.550194 -15.527078 28.826837 -1.190241 2.139610 -0.002594 -0.000884 278247.000000 0 0 1
9.292971 -23.862094 -14.993478 29.674285 -1.199422 2.100489 -0.000675 0.002175 47668.700000 0 0 1
8.660171 -24.219794 -13.791478 29.185644 -1.227397 2.062971 0.002947 0.004820 -180988.000000 0 0 1
8.682671 -25.748894 -13.590078 30.382306 -1.245565 2.034543 0.012074 0.001342 330039.000000 0 0 1
9.944571 -26.194794 -13.108778 30.933829 -1.207965 2.008398 0.018286 0.000264 240676.000000 0 0 1
9.992071 -27.580694 -13.389978 32.246359 -1.223219 1.999003 0.016561 -0.008056 -76288.300000 0 0 1
11.265571 -28.321094 -12.884678 33.090971 -1.192205 1.970745 0.029909 -0.004405 525098.000000 0 0 1
12.488771 -28.015994 -13.534978 33.527018 -1.151463 1.986358 0.027338 -0.000573 175853.000000 0 0 1
12.703471 -28.445294 -14.879878 34.524247 -1.150779 2.016395 0.029938 -0.009569 -198229.000000 0 0 1
14.023371 -27.846194 -15.472478 34.806077 -1.104272 2.031450 0.013017 -0.002799 -283225.000000 0 0 1
15.151371 -28.486094 -14.993978 35.578658 -1.081966 2.005820 0.036591 -0.002191 -1618330.000000 0 0 1
16.236971 -28.026094 -15.716878 36.001686 -1.045698 2.022567 0.041503 0.000905 -761078.000000 0 0 1
17.502271 -28.797494 -15.332678 37.023184 -1.024683 1.997791 0.028227 -0.001316 -276158.000000 0 0 1
17.651071 -30.042594 -15.923378 38.310204 -1.039593 1.999446 0.016963 0.005230 1126340.000000 0 0 1
19.015171 -30.557394 -15.877878 39.337489 -1.014157 1.986280 0.026516 0.008096 1522480.000000 0 0 1
19.226371 -31.531094 -17.072878 40.685948 -1.023232 2.003829 0.027051 -0.000699 46789.900000 0 0 1
18.828171 -32.859594 -16.800578 41.430814 -1.050475 1.988332 0.008537 0.010803 -4787.550000 0 0 1
19.138871 -33.729094 -17.914978 42.718785 -1.054670 2.003548 0.013101 0.001960 19316.400000 0 0 1
19.101771 33.905349 -17.598278 42.710066 1.057735 1.995489 -0.000710 0.003914 -531163.000000 0 0 1
19.964671 33.461049 -16.578578 42.344765 1.032841 1.973073 0.024451 -0.005636 -223292.000000 0 0 1
19.816371 32.098849 -16.097878 41.014221 1.017714 1.974139 0.021438 -0.014006 69418.700000 0 0 1
20.947571 31.595449 -15.118178 40.812160 0.985341 1.950272 0.027352 -0.019850 13308.500000 0 0 1
22.258671 31.535949 -15.618078 41.639991 0.956176 1.955273 0.033279 -0.012980 351777.000000 0 0 1
23.322971 31.242949 -14.716578 41.673259 0.929537 1.931724 0.038513 -0.019771 456027.000000 0 0 1
23.202171 30.120749 -13.682078 40.407914 0.914426 1.916224 0.030223 -0.012442 -1582120.000000 0 0 1
23.201171 28.824149 -14.237278 39.646261 0.893062 1.938108 0.029471 -0.008187 19016.200000 0 0 1
22.759371 27.866249 -13.337778 38.372036 0.885933 1.925797 0.011454 0.000788 769528.000000 0 0 1
21.201271 27.833849 -13.169478 37.385187 0.919844 1.930786 0.015231 -0.009791 114770.000000 0 0 1
20.398671 27.260849 -14.227478 36.900959 0.928399 1.966609 0.019617 -0.011063 501561.000000 0 0 1
19.036771 27.035649 -13.931578 35.880549 0.957300 1.969557 0.026092 -0.012485 138663.000000 0 0 1
18.166271 28.343349 -13.990578 36.456757 1.000819 1.964659 0.033338 -0.015412 -567688.000000 0 0 1
18.278771 29.087849 -15.187178 37.561507 1.009757 1.987041 0.027283 -0.011588 -180686.000000 0 0 1
17.741371 28.528249 -16.315378 37.347139 1.014438 2.022899 0.008456 -0.003639 -809245.000000 0 0 1
17.910271 29.350649 -17.588378 38.621101 1.022898 2.043627 0.005795 -0.007027 447402.000000 0 0 1
16.938071 30.403149 -17.749178 39.067672 1.062506 2.042404 0.000576 -0.005488 439989.000000 0 0 1
17.248871 31.054449 -18.919778 40.247489 1.063786 2.060184 -0.009170 0.002579 -295526.000000 0 0 1
16.186571 32.097949 -19.279778 40.792073 1.103725 2.063075 -0.021879 0.010502 -62321.700000 0 0 1
16.127071 33.187849 -18.412478 41.237545 1.118466 2.033644 -0.013555 0.000002 -35905.600000 0 0 1
15.198771 34.177949 -18.860778 41.891094 1.152363 2.037823 -0.017286 0.008472 126426.000000 0 0 1
15.215971 -33.699794 -17.892778 41.077407 -1.146683 2.021486 -0.017470 0.009649 -505404.000000 0 0 1
14.400171 -32.674494 -18.358478 40.149983 -1.155690 2.045694 -0.025535 0.011523 -368890.000000 0 0 1
14.357271 -31.650594 -17.425578 38.878555 -1.144938 2.035553 -0.004862 0.002404 -19063.400000 0 0 1
13.166971 -30.714994 -17.727978 37.829369 -1.165811 2.058536 0.015651 -0.001863 285251.000000 0 0 1
11.921271 -31.404994 -17.725078 37.981163 -1.208001 2.056330 0.004708 -0.000768 -398028.000000 0 0 1
10.890171 -30.492894 -17.959578 37.026461 -1.227777 2.077213 -0.007985 0.007153 513203.000000 0 0 1
9.508171 -31.207694 -18.195478 37.355065 -1.275057 2.079557 0.020671 -0.006657 -513489.000000 0 0 1
8.895671 -31.832394 -17.059978 37.195122 -1.298295 2.047285 0.020749 -0.009099 1221540.000000 0 0 1
7.717471 -32.612994 -17.406878 37.764614 -1.338433 2.049840 0.047067 -0.001741 1479480.000000 0 0 1
6.476271 -31.926594 -18.063778 37.249826 -1.370663 2.077086 0.038297 0.008459 -827845.000000 0 0 1
6.699071 -31.351894 -19.346178 37.444537 -1.360288 2.113744 0.023951 0.012814 -172067.000000 0 0 1
6.404471 -32.144794 -20.500778 38.659887 -1.374133 2.129734 0.032201 0.004439 -950270.000000 0 0 1
6.576371 -31.378594 -21.812878 38.777138 -1.364205 2.168226 0.021560 0.011743 620272.000000 0 0 1
7.914371 -31.013694 -22.168478 38.934918 -1.320939 2.176539 0.027448 0.000499 869327.000000 0 0 1
8.923771 -31.976194 -22.429478 40.064849 -1.298645 2.164976 0.030614 -0.002208 -222750.000000 0 0 1
8.717471 -33.193194 -23.430278 41.554306 -1.313968 2.169833 0.036854 -0.001719 -509274.000000 0 0 1
7.779271 -34.208994 -23.153678 42.034094 -1.347195 2.154156 0.048747 -0.011266 -170318.000000 0 0 1
7.828571 33.907049 -24.163078 42.365420 1.343889 2.177727 0.060149 -0.020857 263935.000000 0 0 1
6.716171 32.811249 -23.891078 41.139623 1.368894 2.190423 0.064863 -0.027617 1991750.000000 0 0 1
5.319071 33.186949 -23.961778 41.277511 1.411872 2.190144 0.066572 -0.020808 1301010.000000 0 0 1
4.891871 33.886549 -22.804878 41.137465 1.427427 2.158388 0.050353 -0.020228 -1175370.000000 0 0 1
3.503771 34.508249 -22.854578 41.538264 1.469609 2.153407 0.030026 -0.005044 -1082740.000000 0 0 1
2.469771 33.611149 -22.747378 40.660205 1.497447 2.164519 0.031048 -0.015907 -827685.000000 0 0 1
1.251871 34.273049 -22.984578 41.285589 1.534286 2.161230 0.019261 -0.002394 -187118.000000 0 0 1
0.022271 33.451149 -22.555878 40.345353 1.570131 2.164060 0.009595 -0.013840 -155383.000000 0 0 1
-0.075929 33.406749 -21.103578 39.514271 -1.568523 2.134209 0.007893 -0.007538 470316.000000 0 0 1
-1.410329 33.082049 -20.709178 39.054847 -1.528191 2.129702 0.005895 -0.004650 605026.000000 0 0 1
-1.514829 33.388749 -19.190578 38.540648 -1.525458 2.092008 0.008441 -0.003821 88206.800000 0 0 1
-0.912329 32.424749 -18.320078 37.253482 -1.542667 2.084916 0.021910 -0.019503 83635.100000 0 0 1
-1.340129 32.771349 -17.054778 36.967860 -1.529926 2.050302 0.002972 -0.014863 8781.850000 0 0 1
-0.563229 31.953649 -15.986278 35.733933 -1.553172 2.034618 -0.003754 -0.021906 786097.000000 0 0 1
0.722371 32.479449 -15.652978 36.061782 1.548559 2.019791 0.006639 -0.020179 -136435.000000 0 0 1
1.357971 31.626049 -14.766178 34.929802 1.527884 2.007261 0.022349 -0.008743 -120798.000000 0 0 1
2.348571 32.313249 -13.797978 35.214287 1.498243 1.973415 0.019973 -0.018932 -259068.000000 0 0 1
3.357071 32.934849 -14.561578 36.166473 1.469216 1.985181 0.021899 -0.022856 -452898.000000 0 0 1
4.164671 33.674149 -13.681978 36.585370 1.447746 1.954087 0.017831 -0.025339 1165490.000000 0 0 1
5.580071 34.066649 -14.339178 37.380286 1.408439 1.964491 0.046669 -0.036227 1405480.000000 0 0 1
6.458971 32.987649 -14.416278 36.575024 1.377443 1.975946 0.035103 -0.021580 -83141.300000 0 0 1
7.585471 33.218849 -15.279778 37.343044 1.346297 1.992344 0.032106 -0.005520 758486.000000 0 0 1
8.344571 31.869649 -15.400978 36.366145 1.314711 2.008099 0.023173 -0.009434 -180588.000000 0 0 1
9.113571 31.535949 -14.285078 35.799954 1.289471 1.981250 0.018930 -0.010836 -60001.800000 0 0 1
9.915471 30.337349 -14.391178 35.011103 1.254901 1.994398 0.011764 -0.004752 522640.000000 0 0 1
9.197871 28.987349 -14.110078 33.525535 1.263539 2.005207 0.009547 0.000419 -250957.000000 0 0 1
8.549671 28.462049 -15.223178 33.390571 1.278983 2.044193 0.009314 -0.007749 -264231.000000 0 0 1
8.058171 27.184249 -14.883878 32.022607 1.282620 2.054197 0.007534 0.000129 -170176.000000 0 0 1
7.249771 26.553149 -16.067378 31.871453 1.304264 2.099171 0.003459 0.009373 244664.000000 0 0 1
8.021871 25.971549 -17.118778 32.123579 1.271221 2.132825 0.008805 0.014056 -228217.000000 0 0 1
7.282671 25.038349 -17.879878 31.617183 1.287745 2.171850 0.005070 0.018850 -160609.000000 0 0 1
8.128771 23.988449 -18.610178 31.430261 1.244078 2.204471 0.011319 0.022338 -104820.000000 0 0 1
7.390771 23.043349 -19.349678 30.984342 1.260428 2.245286 0.017438 0.016255 -250027.000000 0 0 1
8.287471 22.166949 -20.025378 31.001154 1.213020 2.273071 0.019398 0.016525 219929.000000 0 0 1
7.709171 21.359649 -21.250978 31.100964 1.224425 2.323055 0.019546 0.008230 98646.400000 0 0 1
6.785871 20.366649 -20.799278 29.890774 1.249179 2.340389 0.008063 0.018525 151940.000000 0 0 1
6.430171 19.436449 -21.799978 29.905880 1.251300 2.387587 0.006141 0.016320 54807.300000 0 0 1
24.359571 -12.783651 -9.433878 29.082787 -0.483282 1.901153 0.041636 -0.009016 -198763.000000 0 0 1
24.927871 -12.156851 -8.327078 28.957348 -0.453744 1.862478 0.056705 -0.014445 101180.000000 0 0 1
23.994671 -12.055051 -7.294978 27.825980 -0.465570 1.836061 0.044467 -0.008579 -450997.000000 0 0 1
24.729171 -11.649151 -5.963278 27.978479 -0.440236 1.785582 0.036768 -0.002154 105236.000000 0 0 1
24.969071 -10.245451 -5.780578 27.601428 -0.389376 1.781789 0.042691 -0.003034 870485.000000 0 0 1
25.948571 -9.637551 -6.630578 28.463578 -0.355619 1.805906 0.044532 -0.004671 -641485.000000 0 0 1
26.092971 -8.166651 -6.061478 28.004979 -0.303325 1.788966 0.048856 -0.000005 8352.140000 0 0 1
26.768971 -7.954051 -4.829678 28.340263 -0.288828 1.742050 0.050954 -0.011658 1554720.000000 0 0 1
28.149871 -8.383351 -4.748078 29.752984 -0.289448 1.731065 0.042119 -0.009135 948217.000000 0 0 1
28.760871 -8.284051 -3.312078 30.112839 -0.280441 1.681008 0.044069 -0.008244 12549.700000 0 0 1
28.682571 -6.949151 -2.897478 29.654274 -0.237698 1.668661 0.036472 -0.004579 172389.000000 0 0 1
29.293471 -6.862351 -1.664778 30.132554 -0.230113 1.626073 0.045324 -0.003073 -392083.000000 0 0 1
29.458071 -5.410151 -1.168678 29.973546 -0.181632 1.609797 0.050013 -0.014230 368065.000000 0 0 1
28.272271 -4.731651 -0.745678 28.675178 -0.165823 1.596804 0.029246 -0.008533 206909.000000 0 0 1
28.573671 -3.369851 -0.323978 28.773521 -0.117393 1.582056 0.037628 -0.013963 36248.300000 0 0 1
29.290971 -3.069651 1.018722 29.468993 -0.104417 1.536220 0.041398 -0.018372 -397864.000000 0 0 1
28.564271 -3.382751 2.171722 28.845744 -0.117877 1.495438 0.031598 -0.016689 370692.000000 0 0 1
29.402671 -3.122551 3.290822 29.750578 -0.105803 1.459956 0.039939 -0.015722 -51904.000000 0 0 1
29.005971 -3.966651 4.507822 29.620958 -0.135910 1.418019 0.045085 -0.021920 -423057.000000 0 0 1
29.215871 -5.341751 4.247822 30.002423 -0.180840 1.428736 0.044650 -0.026497 217478.000000 0 0 1
29.042571 -5.986951 5.478422 30.155060 -0.203296 1.388107 0.041999 -0.023166 -323087.000000 0 0 1
29.778871 -7.314951 5.630222 31.176739 -0.240873 1.389210 0.030765 -0.021147 1026120.000000 0 0 1
31.202371 -7.193151 5.845122 32.549882 -0.226574 1.390243 0.029572 -0.013562 786302.000000 0 0 1
31.877271 -8.395551 5.692422 33.452195 -0.257523 1.399798 0.027903 -0.012165 352499.000000 0 0 1
33.429271 -8.349551 5.655422 34.917259 -0.244760 1.408113 0.031786 -0.009921 638055.000000 0 0 1
33.985371 -7.746851 4.464822 35.141909 -0.224117 1.443401 0.037340 -0.007855 361305.000000 0 0 1
-35.239989 -7.641951 4.555222 36.345650 0.213548 1.445135 0.041477 -0.005529 584961.000000 0 0 1
-34.522689 -7.252751 3.221622 35.423118 0.207075 1.479724 0.042604 -0.005785 40467.400000 0 0 1
-34.549789 -8.379651 2.329622 35.627708 0.237944 1.505362 0.051352 -0.003985 743184.000000 0 0 1
-33.454089 -8.289251 1.405622 34.494398 0.242888 1.530036 0.070009 -0.011613 498294.000000 0 0 1
-33.307289 -9.576751 0.618022 34.662251 0.279975 1.552966 0.070104 -0.008121 13650.000000 0 0 1
-32.859489 -10.616751 1.475922 34.563561 0.312508 1.528082 0.062205 -0.006676 246738.000000 0 0 1
-32.739189 -11.885551 0.859622 34.840490 0.348242 1.546121 0.060058 -0.008513 -421798.000000 0 0 1
-32.470089 -13.027951 1.854222 35.035301 0.381566 1.517847 0.053263 -0.018786 967595.000000 0 0 1
-31.154789 -13.079351 2.419322 33.875410 0.397474 1.499317 0.046721 -0.016992 996342.000000 0 0 1
-30.182289 -13.812651 1.672022 33.234855 0.429190 1.520466 0.044434 -0.001994 213166.000000 0 0 1
-28.854989 -14.197051 2.361722 32.245068 0.457238 1.497488 0.033753 -0.004828 331291.000000 0 0 1
-28.096889 -12.981751 2.539722 31.054971 0.432817 1.488923 0.023892 -0.006867 1088160.000000 0 0 1
-26.731089 -13.324451 2.853122 30.003873 0.462417 1.475561 0.014892 -0.001031 807081.000000 0 0 1
-25.890889 -12.174351 3.454522 28.818166 0.439539 1.450634 0.004357 0.003033 372430.000000 0 0 1
-24.575389 -12.585951 3.817322 27.873426 0.473310 1.433413 -0.004008 0.009669 555016.000000 0 0 1
-23.956989 -11.609651 4.606222 27.017376 0.451255 1.399468 -0.003018 0.013305 212442.000000 0 0 1
-22.719489 -11.984651 5.475922 26.263906 0.485409 1.360759 -0.011678 0.022057 273442.000000 0 0 1
-22.979689 -12.818151 6.589022 27.125381 0.508815 1.325432 -0.006713 0.016608 -73996.800000 0 0 1
-21.812189 -13.400451 7.136922 26.575916 0.550909 1.298910 -0.007005 0.021022 76041.200000 0 0 1
-21.461589 -12.917851 8.604222 26.485908 0.541820 1.239932 0.001353 0.016540 -355159.000000 0 0 1
-21.038389 -11.587551 8.712522 25.549818 0.503443 1.222814 0.000129 0.010484 501208.000000 0 0 1
-22.041789 -10.603951 9.019222 26.069726 0.448401 1.217529 0.005981 0.008560 -239358.000000 0 0 1
-22.478889 -10.502851 10.523622 26.951010 0.437091 1.169652 0.006950 0.004318 -107776.000000 0 0 1
-23.267889 -11.570951 11.021422 28.226819 0.461479 1.169666 -0.003074 -0.004769 505154.000000 0 0 1
-24.669089 -11.464751 10.780022 29.261123 0.435045 1.193501 0.005003 -0.003086 100047.000000 0 0 1
-25.394689 -11.112851 12.085022 30.239601 0.412499 1.159670 0.004361 -0.011680 -1098230.000000 0 0 1
-25.347489 -12.133451 13.033322 30.977142 0.446450 1.136535 0.014402 -0.013738 285457.000000 0 0 1
-26.146089 -11.778851 14.163622 31.983863 0.423271 1.112037 0.004758 -0.015756 44568.700000 0 0 1
-26.162789 -12.783851 15.300222 32.893999 0.454508 1.087007 0.008710 -0.023654 -58905.100000 0 0 1
-26.727489 -14.078551 15.013222 33.733679 0.484813 1.109565 0.007429 -0.015341 288642.000000 0 0 1
-26.273389 -14.987351 15.999722 34.218457 0.518399 1.084250 0.009974 -0.009046 -195874.000000 0 0 1
-26.233789 -16.498051 15.566822 34.680302 0.561389 1.105300 0.012377 -0.008826 -1134750.000000 0 0 1
-27.372889 -17.236651 15.756222 35.981047 0.561970 1.117531 0.002511 0.000157 -1031160.000000 0 0 1
-27.118089 -18.611851 15.746022 36.465449 0.601490 1.124302 0.007791 0.009875 -493858.000000 0 0 1
-28.162889 -19.494751 16.406422 37.978472 0.605481 1.124095 -0.010624 0.016560 -410704.000000 0 0 1
-28.167289 -19.210351 17.798822 38.460783 0.598549 1.089669 0.000223 0.016309 -51496.100000 0 0 1
-28.624389 -20.224051 18.689922 39.720034 0.615097 1.080892 -0.000300 0.018721 -248755.000000 0 0 1
-27.733889 -21.477151 18.794222 39.795218 0.658936 1.078928 -0.000552 0.021975 -17803.000000 0 0 1
-26.496989 -21.186751 19.426522 39.094227 0.674491 1.050756 0.012998 0.025198 443247.000000 0 0 1
-25.730289 -22.367651 19.697122 39.374309 0.715599 1.046905 0.015168 0.025314 -20452.700000 0 0 1
-24.391389 -22.133551 20.393822 38.739410 0.736907 1.016393 0.032066 0.020342 -260471.000000 0 0 1
-23.405789 -21.532051 19.589622 37.352556 0.743726 1.018725 0.042767 0.017090 147056.000000 0 0 1
-22.146289 -21.599451 20.258722 36.978510 0.772898 0.991003 0.052155 0.016986 832941.000000 0 0 1
-20.898189 -21.549051 19.317622 35.696869 0.800730 0.998984 0.053355 0.011171 270953.000000 0 0 1
-20.669489 -22.752251 18.594922 35.925810 0.833327 1.026762 0.047409 0.014007 -125975.000000 0 0 1
-19.498789 -22.734051 17.830022 34.856126 0.861854 1.033830 0.039406 -0.003281 -336676.000000 0 0 1
-19.311489 -23.834651 16.716222 34.935029 0.889850 1.071857 0.027564 0.004449 -390970.000000 0 0 1
-19.033189 -25.185881 17.110522 35.907671 0.923652 1.074111 0.031624 -0.004637 600908.000000 0 0 1
-17.799089 -25.553261 17.753822 35.846547 0.962390 1.052647 0.032073 -0.001763 962279.000000 0 0 1
-16.493089 -25.547541 16.892322 34.785764 0.997532 1.063735 0.033550 0.001678 308943.000000 0 0 1
-16.044589 -24.235251 16.591222 33.467072 0.986007 1.052101 0.029374 -0.003985 -5537.600000 0 0 1
-14.902689 -24.299851 15.751022 32.567892 1.020667 1.065992 0.020746 -0.002164 12685.600000 0 0 1
-14.263589 -22.903451 15.364022 31.049496 1.013802 1.053165 0.019789 -0.001261 67686.200000 0 0 1
-15.042389 -21.899551 14.698622 30.363025 0.968929 1.065466 0.021373 0.000218 -403075.000000 0 0 1
-15.801189 -21.073851 15.555222 30.590026 0.927423 1.037347 0.024546 -0.001083 -343461.000000 0 0 1
-15.075789 -20.001151 16.353822 29.912756 0.924902 0.992358 0.028197 0.001342 -745253.000000 0 0 1
-14.731889 -18.829051 15.628922 28.562649 0.906878 0.991804 0.018629 0.002784 -10128.400000 0 0 1
-14.543489 -17.720751 16.513722 28.253161 0.883558 0.946544 0.005520 0.006390 -617964.000000 0 0 1
-14.001189 -16.411451 15.868722 26.780317 0.864485 0.936573 0.010250 0.001865 539817.000000 0 0 1
-14.878689 -15.815251 14.881022 26.323799 0.815902 0.969991 0.007084 -0.005445 500288.000000 0 0 1
-14.853889 -16.496051 13.568622 26.016634 0.837732 1.022146 0.008588 -0.005752 -332991.000000 0 0 1
-15.833189 -15.844651 12.604522 25.702467 0.785760 1.058246 0.011283 -0.004208 1122480.000000 0 0 1
-17.239789 -15.902251 12.983522 26.807905 0.745062 1.065214 0.011417 -0.009331 1237400.000000 0 0 1
-17.900189 -14.700751 12.563022 26.350681 0.687572 1.073828 0.016449 -0.005435 -255206.000000 0 0 1
-19.431089 -14.832951 12.718522 27.556205 0.651998 1.091057 0.012958 -0.011165 -114891.000000 0 0 1
-20.125289 -15.815851 12.014922 28.275904 0.666065 1.131926 0.013483 -0.007475 -219460.000000 0 0 1
-20.211789 -15.656051 10.597322 27.675469 0.659060 1.177848 0.005918 0.003537 -477247.000000 0 0 1
-21.036289 -16.771551 9.914422 28.672393 0.673073 1.217723 0.002436 0.007271 74405.600000 0 0 1
-20.473789 -18.055551 10.057922 29.091936 0.722717 1.217781 0.004540 0.009310 1808.080000 0 0 1
-21.263489 -19.032151 9.373422 30.036974 0.730080 1.253433 0.003605 0.006612 3661.950000 0 0 1
-20.716389 -20.492251 9.446822 30.632394 0.779959 1.257293 0.008916 0.009112 804403.000000 0 0 1
-19.520989 -20.787751 8.697422 29.813500 0.816814 1.274764 0.010468 0.007280 212557.000000 0 0 1
-19.201389 -22.133751 8.822222 30.601109 0.856221 1.278348 0.004730 -0.002431 -637610.000000 0 0 1
-18.002589 -22.507151 7.995622 29.909782 0.896140 1.300181 0.007500 -0.006709 -868207.000000 0 0 1
-16.809389 -21.993351 8.532022 28.966506 0.918210 1.271814 -0.005838 -0.008645 -577571.000000 0 0 1
-15.730989 -22.348651 7.687522 28.390566 0.957464 1.296596 -0.001557 -0.002683 -310251.000000 0 0 1
-14.401389 -21.831051 8.217322 27.413850 0.987650 1.266365 -0.020874 0.005100 -157897.000000 0 0 1
-13.249389 -22.277651 7.529622 26.991392 1.034254 1.288081 -0.003850 0.010451 -390553.000000 0 0 1
-12.050689 -21.972651 8.186222 26.363435 1.069151 1.255062 0.008015 0.005908 -447935.000000 0 0 1
-10.853689 -22.377651 7.348022 25.933670 1.119201 1.283522 0.020751 0.007067 -449710.000000 0 0 1
-10.613189 -23.721051 7.515222 27.051924 1.150093 1.289286 0.015684 0.007674 6813.790000 0 0 1
-9.311489 -24.051051 7.045222 26.735595 1.201412 1.304132 0.016494 0.003833 450842.000000 0 0 1
-9.006889 -25.572881 6.998122 28.001250 1.232159 1.318197 0.021613 -0.000450 -227634.000000 0 0 1
-9.890389 -26.223521 6.048322 28.671851 1.210136 1.358250 0.008474 -0.008353 293333.000000 0 0 1
-9.872689 -27.641251 6.231522 30.005676 1.227746 1.361596 0.015725 -0.007619 195731.000000 0 0 1
-8.782189 -28.510751 5.510822 30.337418 1.271988 1.388131 0.009167 -0.006149 810761.000000 0 0 1
-7.467589 -28.219411 6.030922 29.807249 1.312100 1.367059 0.009436 -0.005270 307979.000000 0 0 1
-6.468989 -29.113121 5.591022 30.342728 1.352147 1.385475 0.005454 0.002255 150786.000000 0 0 1
-6.409489 -30.585871 6.119822 31.843826 1.364228 1.377411 0.008515 -0.007565 -549780.000000 0 0 1
-6.248489 -30.586191 7.545522 32.116874 1.369278 1.333640 0.013778 -0.002471 8100.920000 0 0 1
-6.381089 -31.834351 8.128922 33.469741 1.372971 1.325469 0.036580 -0.007975 21836.000000 0 0 1
-6.795089 -31.845901 9.632722 33.957679 1.360575 1.283179 0.029393 -0.010473 -499456.000000 0 0 1
-5.817489 -31.278191 10.436622 33.482704 1.386906 1.253813 0.020035 -0.003992 -272292.000000 0 0 1
-6.072189 -31.597431 11.777822 34.263482 1.380937 1.219897 0.016269 0.000685 -254770.000000 0 0 1
-5.074789 -31.041191 12.813322 33.963072 1.408744 1.183947 0.009688 0.005924 -46695.300000 0 0 1
-5.151789 -29.648501 12.762022 32.687058 1.398752 1.169697 0.010143 0.005532 503750.000000 0 0 1
-4.405789 -29.004211 13.848122 32.441112 1.420047 1.129768 -0.012525 0.002726 109170.000000 0 0 1
-5.295789 -28.575681 15.068822 32.736590 1.387550 1.092457 0.009455 0.005197 382165.000000 0 0 1
-5.801589 -29.736921 15.747222 34.145540 1.378119 1.091472 0.021630 -0.007131 934366.000000 0 0 1
-4.847789 -30.292451 16.704222 34.930856 1.412109 1.072183 0.005523 -0.007124 757024.000000 0 0 1
-5.260789 -31.706971 17.153222 36.431318 1.406375 1.080557 0.013506 -0.002555 62701.800000 0 0 1
-5.400789 -32.602691 16.061022 36.743168 1.406632 1.118407 0.007225 0.002093 638432.000000 0 0 1
-6.372089 -33.610551 16.352822 37.916849 1.383434 1.124884 0.005308 -0.000595 284606.000000 0 0 1
-5.902289 34.160360 15.861822 38.123019 -1.399704 1.141678 0.006514 -0.006461 -182082.000000 0 0 1
-6.266089 33.965622 14.490522 37.455342 -1.388364 1.173556 -0.000857 -0.004103 263738.000000 0 0 1
-5.442789 33.025941 13.840922 36.220269 -1.407461 1.178694 0.011804 -0.016032 531703.000000 0 0 1
-4.184789 33.641341 13.135622 36.356525 -1.447038 1.201134 0.033211 -0.014816 606714.000000 0 0 1
-4.599789 34.150386 11.896622 36.454582 -1.436910 1.238366 0.026387 -0.011896 -70617.500000 0 0 1
-3.463789 34.478290 11.161622 36.405112 -1.470669 1.259183 0.035417 -0.017129 -1049590.000000 0 0 1
-3.678789 -34.300209 9.654222 35.822365 1.463952 1.297920 0.037416 -0.015930 -638552.000000 0 0 1
-3.907789 33.735602 8.753922 35.071254 -1.455475 1.318525 0.051664 -0.025062 653731.000000 0 0 1
-4.893789 32.694871 8.973022 34.255203 -1.422219 1.305758 0.059018 -0.025280 1178080.000000 0 0 1
-6.372489 33.156251 9.246522 35.006339 -1.380916 1.303486 0.043537 -0.016442 274631.000000 0 0 1
-7.164189 33.376311 8.100122 35.084409 -1.359356 1.337819 0.040929 -0.013864 -1235010.000000 0 0 1
-8.376989 33.870150 8.547322 35.922385 -1.328335 1.330553 0.026218 -0.011144 -517592.000000 0 0 1
-9.334189 34.150278 7.344622 36.156770 -1.303986 1.366240 0.034469 -0.014333 87479.600000 0 0 1
-9.046389 -33.763301 6.724222 35.595123 1.309010 1.380746 0.034883 -0.014177 -60921.100000 0 0 1
-9.933089 -33.625141 5.660022 35.515521 1.283559 1.410746 0.028674 -0.009396 -324267.000000 0 0 1
-9.845989 -32.219961 5.050122 34.067185 1.274222 1.422008 0.016392 -0.012398 -1973.010000 0 0 1
-10.606789 -31.306151 5.777622 33.555327 1.244126 1.397752 0.030402 -0.017342 672869.000000 0 0 1
-11.838189 -30.920751 5.090722 33.498523 1.205156 1.418237 0.030698 -0.016668 1066610.000000 0 0 1
-12.800989 -30.110771 5.987222 33.262151 1.168816 1.389809 0.030368 -0.021521 -235884.000000 0 0 1
-13.416989 -30.984551 6.879222 34.458405 1.162151 1.369807 0.033465 -0.014908 -180163.000000 0 0 1
-14.434489 -30.337831 7.622822 34.450630 1.126702 1.347682 0.029785 -0.018348 -27273.400000 0 0 1
32.761011 -12.807151 -12.998578 37.500266 -0.372660 1.924768 0.033832 -0.016142 -110499.000000 0 0 1
31.790521 -12.769551 -11.953478 36.284766 -0.381952 1.906502 0.047895 -0.021583 494749.000000 0 0 1
31.201681 -14.014251 -11.619478 36.124180 -0.422147 1.898272 0.055313 -0.026307 359117.000000 0 0 1
32.095041 -14.839051 -10.637478 36.924856 -0.433074 1.863022 0.048653 -0.021323 1286290.000000 0 0 1
33.394561 -15.247151 -11.096378 38.351035 -0.428309 1.864331 0.052528 -0.027461 421905.000000 0 0 1
34.304461 -15.576851 -10.087378 39.002430 -0.426239 1.832405 0.036996 -0.026270 478873.000000 0 0 1
-34.910131 -15.904351 -10.642678 39.811207 0.427484 1.841416 0.028812 -0.027930 428997.000000 0 0 1
-34.251973 -14.735151 -11.078678 38.898065 0.406266 1.859608 0.030490 -0.030130 -409809.000000 0 0 1
-32.859009 -14.916051 -11.099378 37.754460 0.426126 1.869193 0.036736 -0.024623 -66223.000000 0 0 1
-32.050439 -13.682651 -11.553478 36.714145 0.403487 1.890924 0.033400 -0.026648 -127456.000000 0 0 1
-31.959419 -12.753951 -10.452978 35.962932 0.379702 1.865713 0.043943 -0.022718 53788.100000 0 0 1
-31.506009 -11.539451 -10.920878 35.285310 0.351088 1.885466 0.041184 -0.016909 -378928.000000 0 0 1
-31.884859 -10.350151 -10.068478 35.002059 0.313879 1.862573 0.042484 -0.019226 -71043.300000 0 0 1
-31.264219 -10.420351 -8.755178 34.098215 0.321720 1.830468 0.051379 -0.016759 759883.000000 0 0 1
-32.031139 -9.739851 -7.734478 34.361035 0.295191 1.797836 0.053993 -0.016010 118717.000000 0 0 1
-31.349429 -9.700051 -6.356878 33.425852 0.300074 1.762140 0.040762 -0.006245 -15736.700000 0 0 1
-30.150279 -8.918751 -6.367378 32.080009 0.287608 1.770608 0.042739 -0.023865 845873.000000 0 0 1
-29.498899 -8.802451 -5.049578 31.195616 0.289988 1.733380 0.053711 -0.023877 -26781.000000 0 0 1
-28.676769 -10.015051 -4.515578 30.709099 0.335997 1.718375 0.057288 -0.014137 -323651.000000 0 0 1
-29.397659 -11.144451 -3.994378 31.691895 0.362354 1.697170 0.075223 -0.010705 613866.000000 0 0 1
-30.241249 -10.905451 -2.884078 32.276616 0.346100 1.660271 0.049664 -0.009900 -248709.000000 0 0 1
-30.875889 -12.196451 -2.300178 33.277091 0.376202 1.639973 0.051438 -0.004151 -611458.000000 0 0 1
-31.957249 -12.588051 -3.090178 34.485852 0.375239 1.660524 0.058706 -0.013981 -173471.000000 0 0 1
-32.495839 -13.790951 -2.628878 35.398883 0.401355 1.645129 0.062117 -0.017993 119354.000000 0 0 1
-34.044679 -13.874151 -2.551278 36.851611 0.386979 1.640083 0.037816 -0.014915 334835.000000 0 0 1
-34.654471 -13.141951 -1.488578 37.092575 0.362472 1.610939 0.053783 -0.013160 -569790.000000 0 0 1
34.613046 -13.345451 -1.464578 37.125584 -0.367998 1.610256 0.075560 -0.011933 -904515.000000 0 0 1
34.023051 -12.272751 -0.496878 36.172300 -0.346192 1.584533 0.068245 -0.018340 -314202.000000 0 0 1
34.260201 -12.484551 0.861222 36.474197 -0.349449 1.547182 0.071783 -0.009508 229263.000000 0 0 1
33.684451 -11.429551 1.625522 35.607853 -0.327122 1.525130 0.078365 -0.005941 97650.000000 0 0 1
34.236151 -11.415951 3.065422 36.219260 -0.321853 1.486060 0.056871 -0.011359 324379.000000 0 0 1
33.452411 -12.218151 3.957322 35.833049 -0.350186 1.460133 0.055343 -0.017624 270201.000000 0 0 1
34.143401 -12.442651 5.204222 36.710697 -0.349466 1.428554 0.048860 -0.016331 173956.000000 0 0 1
33.281821 -12.626451 6.515822 36.187882 -0.362605 1.389754 0.040758 -0.014038 343765.000000 0 0 1
32.637181 -11.428351 6.974722 35.276614 -0.336821 1.371770 0.044030 -0.019857 16207.800000 0 0 1
32.329361 -11.518851 8.367922 35.325538 -0.342273 1.331643 0.023005 -0.005909 -124418.000000 0 0 1
31.706201 -10.203851 8.916122 34.480414 -0.311358 1.309239 0.017143 -0.017217 327264.000000 0 0 1
30.355981 -10.038151 8.488722 33.080333 -0.319362 1.311284 0.012734 -0.013953 421875.000000 0 0 1
29.831881 -8.863951 9.123622 32.430714 -0.288822 1.285620 0.013243 -0.009535 -185597.000000 0 0 1
28.304091 -8.862151 9.348722 31.097554 -0.303436 1.265448 0.014183 -0.015303 1030370.000000 0 0 1
27.398081 -8.561351 8.223922 29.859411 -0.302867 1.291768 0.037022 -0.021048 882239.000000 0 0 1
27.087831 -9.662551 7.426522 29.703008 -0.342642 1.318089 0.034608 -0.030106 -1055480.000000 0 0 1
26.124641 -9.195551 6.388122 28.422933 -0.338444 1.344107 0.046991 -0.030477 -232119.000000 0 0 1
24.867431 -8.777151 6.931322 27.266659 -0.339307 1.313771 0.055634 -0.027724 450832.000000 0 0 1
23.934131 -8.151751 6.107922 26.011543 -0.328268 1.333767 0.054965 -0.026127 -263526.000000 0 0 1
24.177031 -6.687151 5.645622 25.712251 -0.269845 1.349423 0.047220 -0.021331 -733971.000000 0 0 1
25.079131 -6.726351 4.573422 26.365181 -0.262038 1.396450 0.039354 -0.024446 280119.000000 0 0 1
25.433131 -5.474951 4.007222 26.322558 -0.212033 1.417967 0.042387 -0.026134 -151810.000000 0 0 1
26.069941 -5.578651 2.596722 26.786305 -0.210809 1.473702 0.043820 -0.020248 221672.000000 0 0 1
25.151931 -5.947251 1.581822 25.893852 -0.232189 1.509670 0.031212 -0.012069 272025.000000 0 0 1
25.868771 -6.070851 0.360422 26.574018 -0.230508 1.557233 0.027908 -0.010868 -749420.000000 0 0 1
25.082731 -6.406951 -0.893478 25.903488 -0.250085 1.605296 0.034191 -0.013908 -613288.000000 0 0 1
24.127031 -5.463451 -1.280278 24.770992 -0.222690 1.622504 0.041238 -0.011717 -399239.000000 0 1 0
23.801831 -5.605551 -2.628178 24.593834 -0.231294 1.677864 0.048346 -0.009439 522778.000000 0 1 0
22.674831 -4.610551 -3.138778 23.350740 -0.200599 1.705623 0.026889 -0.006828 522558.000000 0 1 0
22.919131 -3.209351 -2.842278 23.316626 -0.139125 1.692999 0.003008 -0.005199 203458.000000 0 1 0
23.630031 -2.473751 -3.805378 24.061976 -0.104307 1.729612 0.006432 -0.004665 -113239.000000 0 1 0
22.706631 -1.794551 -4.876478 23.293594 -0.078868 1.781705 0.018559 0.003137 210374.000000 0 1 0
22.155631 -0.554951 -4.394378 22.594037 -0.025043 1.766537 0.003489 0.007418 569261.000000 0 1 0
21.458131 0.231649 -5.328678 22.111080 0.010795 1.814188 0.024440 0.011486 -215004.000000 0 1 0
21.078731 1.699749 -4.968378 21.722956 0.080464 1.801554 0.022399 0.017043 -380902.000000 0 1 0
22.150731 2.604349 -4.814778 22.817090 0.117037 1.783411 0.018840 0.014097 505976.000000 0 1 0
22.661031 2.733449 -3.475378 23.088359 0.120043 1.721896 0.019421 0.013988 -120453.000000 0 1 0
23.740631 3.794349 -3.237678 24.258961 0.158485 1.704659 -0.000555 0.007847 -215771.000000 0 1 0
23.286331 5.154949 -3.128378 24.054385 0.217859 1.701220 -0.004933 0.006447 931791.000000 0 1 0
24.415331 5.963449 -2.777478 25.286073 0.239560 1.680861 -0.001002 0.000861 430335.000000 0 0 1
23.986331 7.408149 -2.744178 25.253816 0.299555 1.679675 0.003201 -0.006850 -170374.000000 0 0 1
23.234931 7.760049 -1.612178 24.549531 0.322334 1.636514 0.024425 -0.006660 321316.000000 0 1 0
22.298831 8.750949 -1.961578 24.034657 0.373972 1.652502 0.018062 -0.008111 -254035.000000 0 1 0
21.322231 9.182149 -0.867078 23.231470 0.406636 1.608128 0.022112 0.000592 -208637.000000 0 1 0
22.012431 9.930249 0.099922 24.148850 0.423785 1.566659 0.019719 -0.001199 610273.000000 0 1 0
21.025131 10.357149 0.990322 23.458632 0.457717 1.528568 0.020940 -0.002297 -363979.000000 0 1 0
21.581931 10.664849 2.381922 24.190748 0.458962 1.472172 0.048358 -0.002215 -820066.000000 0 1 0
22.444531 11.765849 2.469822 25.461582 0.482835 1.473642 0.054807 -0.017926 -138148.000000 0 0 1
21.988931 13.029049 2.111922 25.646236 0.534907 1.488355 0.063356 -0.011980 -709308.000000 0 0 1
20.829831 13.628849 2.956822 25.067313 0.579388 1.452566 0.048819 -0.002918 -585267.000000 0 0 1
19.613231 12.989449 2.649322 23.673266 0.584959 1.458649 0.088427 -0.002356 647545.000000 0 1 0
18.415731 13.621349 3.151422 23.121673 0.636850 1.434073 0.059099 -0.005745 696316.000000 0 1 0
18.199831 13.546549 4.618922 23.153342 0.639858 1.369956 0.029991 -0.000760 -1050670.000000 0 1 0
18.006531 12.224349 5.109222 22.355626 0.596413 1.340216 0.028389 0.002152 286140.000000 0 1 0
18.057831 12.174549 6.513622 22.731744 0.593198 1.280180 0.015345 -0.006987 -231783.000000 0 1 0
18.154331 10.732749 7.160922 22.272190 0.533920 1.243464 -0.011174 -0.014667 -690407.000000 0 1 0
19.243031 9.963149 6.787022 22.707317 0.477749 1.267266 -0.017818 -0.013683 -386391.000000 0 1 0
19.425931 8.815749 7.543422 22.627139 0.426021 1.230911 -0.007036 -0.001304 -553620.000000 0 1 0
20.409631 7.942949 6.845922 22.945808 0.371141 1.267831 0.001669 -0.002993 -669998.000000 0 1 0
19.879531 7.634949 5.540522 22.004217 0.366691 1.316263 -0.007990 -0.010386 661022.000000 0 1 0
20.705631 6.785249 4.798022 22.311068 0.316673 1.354052 -0.007528 -0.019290 -427057.000000 0 1 0
20.427931 6.839549 3.295022 21.793048 0.323082 1.419018 -0.000774 -0.008392 -179170.000000 0 1 0
21.321831 5.976449 2.626722 22.298836 0.273284 1.452726 -0.006156 -0.011564 340389.000000 0 1 0
21.118031 5.773349 1.280022 21.930372 0.266864 1.512396 -0.001208 0.001477 -661438.000000 0 1 0
22.243131 4.963149 0.661522 22.799722 0.219536 1.541778 0.012161 0.001852 -214103.000000 0 1 0
22.151531 3.598249 0.862622 22.458447 0.161031 1.532377 0.011102 0.004765 1159700.000000 0 1 0
23.449231 3.083649 0.542022 23.657327 0.130753 1.547883 0.022125 0.003729 557802.000000 0 1 0
23.443231 1.543649 0.462022 23.498540 0.065751 1.551133 0.034317 -0.003382 -86539.300000 0 1 0
22.531131 0.974949 -0.472678 22.557167 0.043244 1.591753 0.037279 -0.002679 717775.000000 0 1 0
22.774131 -0.347351 -0.774878 22.789957 -0.015251 1.604804 0.035223 -0.005247 -785722.000000 0 1 0
22.356331 -1.427951 0.299222 22.403886 -0.063786 1.557440 0.040248 -0.007107 54822.600000 0 1 0
23.282631 -1.647251 1.332922 23.378858 -0.070633 1.513751 0.047412 -0.005149 1077540.000000 0 1 0
24.613631 -2.082051 1.009222 24.722142 -0.084388 1.529962 0.041534 -0.007205 656461.000000 0 1 0
25.625731 -1.860551 2.171322 25.784770 -0.072478 1.486487 0.047854 -0.012945 -200192.000000 0 0 1
25.770111 -0.454351 2.420322 25.887507 -0.017629 1.477166 0.047133 -0.019377 366752.000000 0 0 1
26.498321 -0.113251 3.574822 26.738608 -0.004274 1.436700 0.048106 -0.022902 24146.400000 0 0 1
26.047781 1.312249 3.991822 26.384532 0.050336 1.418919 0.052291 -0.017978 -144706.000000 0 0 1
26.140431 2.402949 3.100022 26.433055 0.091667 1.453248 0.052310 -0.019804 926722.000000 0 0 1
27.485781 2.758449 2.725922 27.758023 0.100024 1.472435 0.061076 -0.024011 790776.000000 0 0 1
27.627991 3.795849 1.564222 27.931365 0.136537 1.514765 0.064353 -0.025146 -388734.000000 0 0 1
26.948281 3.320249 0.444422 27.155688 0.122590 1.554430 0.046746 -0.010971 233602.000000 0 0 1
27.246401 4.023249 -0.761278 27.552358 0.146602 1.598430 0.047677 -0.011764 126324.000000 0 0 1
28.573291 3.621549 -1.486678 28.840228 0.126074 1.622368 0.050987 -0.012445 1011050.000000 0 0 1
29.750641 3.967649 -0.729578 30.022910 0.132581 1.595099 0.078627 -0.028969 -218891.000000 0 0 1
30.940691 3.709349 -1.380778 31.192822 0.119316 1.615077 0.064889 -0.024978 -374611.000000 0 0 1
32.149201 4.124549 -0.493278 32.416452 0.127597 1.586014 0.030606 -0.022257 -41914.900000 0 0 1
32.338891 3.373949 0.680222 32.521533 0.103955 1.549879 0.023043 -0.023166 244935.000000 0 0 1
31.678851 3.944849 1.800322 31.974249 0.123889 1.514461 0.034611 -0.008408 -22298.300000 0 0 1
31.712391 2.918749 3.003522 31.987747 0.091780 1.476762 0.027766 -0.005075 121714.000000 0 0 1
30.816931 1.801949 2.925322 31.007866 0.058406 1.476315 0.037154 -0.017919 343213.000000 0 0 1
31.003241 0.788549 3.938722 31.262378 0.025429 1.444471 0.028459 -0.016771 160750.000000 0 0 1
32.172681 -0.236451 3.759122 32.392411 -0.007349 1.454485 0.033209 -0.011841 585708.000000 0 0 1
33.426991 0.249949 4.231422 33.694675 0.007477 1.444883 0.022390 -0.007442 352933.000000 0 0 1
34.407001 -0.780851 4.094022 34.658512 -0.022691 1.452395 0.017193 -0.010199 292626.000000 0 0 1
-34.815096 -0.119951 4.328222 35.083312 0.003445 1.447111 0.021363 -0.016205 473695.000000 0 0 1
-34.376695 0.943649 3.560622 34.573482 -0.027443 1.467626 0.023901 -0.017231 104997.000000 0 0 1
-34.213013 0.673549 2.163922 34.287993 -0.019684 1.507644 0.015325 -0.018336 -809316.000000 0 0 1
-34.466290 1.941249 1.266522 34.544141 -0.056264 1.534124 0.005891 -0.020805 59522.100000 0 0 1
-33.527469 2.971049 1.420622 33.688818 -0.088384 1.528615 0.002707 -0.021371 -133431.000000 0 0 1
-32.269339 2.706649 0.839322 32.393528 -0.083681 1.544883 0.020282 -0.008891 81335.900000 0 0 1
-31.137999 3.679549 1.371822 31.384645 -0.117624 1.527072 0.013436 -0.006420 508616.000000 0 0 1
-30.651399 3.441349 2.688522 30.960932 -0.111806 1.483851 0.015903 -0.009751 256645.000000 0 0 1
-30.038009 4.601849 3.242322 30.560950 -0.152019 1.464503 0.027170 -0.011583 -190092.000000 0 0 1
-29.791829 4.427449 4.806222 30.500085 -0.147533 1.412556 0.030196 -0.010776 373635.000000 0 0 1
-30.954019 4.454849 5.620022 31.773914 -0.142937 1.392985 0.035751 -0.006413 743864.000000 0 0 1
-31.859769 3.325349 5.605422 32.519588 -0.103998 1.397561 0.031757 -0.006559 473261.000000 0 0 1
-32.077099 2.696649 6.978122 32.937917 -0.083871 1.357322 0.036714 -0.008304 -340134.000000 0 0 1
-32.559909 3.623149 8.001422 33.723844 -0.110820 1.331249 0.045169 -0.001317 522586.000000 0 0 1
-32.810699 2.923749 9.273022 34.221035 -0.088875 1.296391 0.047497 -0.001485 -401904.000000 0 0 1
-33.908809 1.859149 9.381422 35.231731 -0.054773 1.301267 0.041283 0.002995 -684180.000000 0 0 1
-33.669299 0.749949 8.603322 34.759190 -0.022270 1.320685 0.037246 -0.001188 59032.200000 0 0 1
-34.629582 -0.289151 8.705922 35.708327 0.008350 1.324507 0.043222 -0.001910 3258.300000 0 0 1
-34.472625 -1.200051 9.972922 35.906283 0.034798 1.289347 0.038084 0.002141 -330761.000000 0 0 1
-33.257799 -1.911851 9.962822 34.770594 0.057423 1.280193 0.039124 -0.004945 26615.300000 0 0 1
-33.056069 -2.801151 11.070022 34.972783 0.084537 1.248725 0.033718 0.003607 689350.000000 0 0 1
-31.572309 -3.309151 10.951922 33.581331 0.104431 1.238588 0.038868 0.002656 503405.000000 0 0 1
-31.438259 -4.188551 9.811422 33.198977 0.132451 1.270782 0.035971 -0.000043 354849.000000 0 0 1
-30.295069 -5.043051 9.928122 32.276790 0.164952 1.258134 0.023097 -0.009843 420261.000000 0 0 1
-30.109399 -6.127751 8.877922 31.983476 0.200774 1.289524 0.028577 -0.004947 514153.000000 0 0 1
-31.212689 -7.025351 8.993522 33.233582 0.221391 1.296764 0.036627 -0.008606 319590.000000 0 0 1
-31.172489 -8.010951 8.004522 33.165823 0.251545 1.327041 0.043015 -0.006866 255219.000000 0 0 1
-32.169249 -9.153151 8.320122 34.465420 0.277205 1.326983 0.044780 -0.008993 -97832.500000 0 0 1
-33.509029 -8.759651 8.388922 35.636506 0.255690 1.333164 0.053402 -0.007461 -703861.000000 0 0 1
-34.269092 -9.895451 8.688022 36.712019 0.281111 1.331876 0.055406 -0.013271 -159941.000000 0 0 1
7.167971 -23.929151 10.624522 27.145249 -1.279753 1.168649 0.066886 -0.016037 102441.000000 0 0 1
6.653271 -24.608751 9.502322 27.205712 -1.306747 1.213997 0.045468 -0.014939 -728787.000000 0 0 1
5.601271 -25.455861 9.884022 27.875957 -1.354209 1.208340 0.049143 -0.011705 112367.000000 0 0 1
5.296271 -26.497701 8.721622 28.394460 -1.373519 1.258590 0.029192 -0.001926 -157269.000000 0 0 1
4.618471 -25.926971 7.633422 27.419103 -1.394512 1.288671 0.033393 -0.000557 -352784.000000 0 0 1
4.412571 -26.862721 6.602522 28.011959 -1.407987 1.332854 0.030206 -0.001643 -414228.000000 0 0 1
3.827771 -26.205711 5.337222 27.016237 -1.425756 1.371932 0.023891 0.001210 832261.000000 0 0 1
2.411571 -26.044671 5.417922 26.711317 -1.478466 1.366547 0.018312 -0.004263 201954.000000 0 0 1
1.640971 -27.050801 4.814922 27.524936 -1.510208 1.394962 0.016802 -0.005675 -69648.800000 0 0 1
0.116971 -26.815621 4.852822 27.251442 -1.566434 1.391766 0.025706 -0.007360 52986.100000 0 0 1
-0.405429 -27.060591 6.160022 27.755825 1.555815 1.346997 0.026544 -0.006589 478333.000000 0 0 1
-1.841629 -27.008651 6.227122 27.778335 1.502715 1.344703 0.001313 -0.007093 1107540.000000 0 0 1
-2.404729 -28.460811 6.363422 29.262495 1.486504 1.351585 -0.003224 -0.001254 -220810.000000 0 0 1
-1.932029 -29.040331 7.574722 30.074075 1.504365 1.316185 0.004426 -0.004975 93906.700000 0 0 1
-2.641329 -30.206371 7.880922 31.329066 1.483575 1.316512 0.000941 -0.005914 -45695.500000 0 0 1
-2.368929 -30.739111 9.330522 32.211231 1.493883 1.276918 0.007648 -0.005162 -1421770.000000 0 0 1
-1.126929 -31.232211 9.492122 32.662231 1.534730 1.275927 0.013154 -0.005104 -1916680.000000 0 0 1
-0.847529 -31.480231 10.858722 33.311186 1.543880 1.238750 0.013353 0.001528 342457.000000 0 0 1
0.635571 -31.713291 11.245422 33.654068 -1.550758 1.230096 0.013578 0.002393 16111.300000 0 0 1
1.168971 -32.966281 10.813222 34.714089 -1.535352 1.254032 0.017441 -0.001473 508292.000000 0 0 1
2.587371 -33.036671 10.963122 34.904243 -1.492638 1.251297 0.017062 0.006283 612841.000000 0 0 1
3.092871 -33.562121 12.314622 35.883586 -1.478902 1.220493 0.013777 0.005359 -370074.000000 0 0 1
2.653471 -32.843421 13.460722 35.593851 -1.490180 1.182972 0.005247 0.006071 47927.500000 0 0 1
3.424171 -33.162251 14.587622 36.390364 -1.467906 1.158336 -0.003523 0.005891 -516028.000000 0 0 1
3.137671 -32.257871 15.779322 36.047222 -1.473833 1.117712 -0.003925 0.008529 -48138.300000 0 0 1
3.547671 -30.917651 15.593922 34.808871 -1.456550 1.106284 -0.003951 0.002330 399304.000000 0 0 1
4.933771 -30.727931 15.858722 34.929170 -1.411592 1.099519 0.000239 0.011073 264129.000000 0 0 1
5.580471 -29.510971 15.079422 33.606964 -1.383905 1.105487 0.011231 0.002216 -209666.000000 0 0 1
5.749571 -29.711171 13.677022 33.209519 -1.379644 1.146324 0.015611 0.003036 529714.000000 0 0 1
4.543571 -29.666661 12.884822 32.661498 -1.418823 1.165277 -0.003598 0.011574 551997.000000 0 0 1
4.868471 -29.854191 11.372722 32.315840 -1.409144 1.211170 0.004445 0.004164 299468.000000 0 0 1
5.258871 -31.105281 10.746122 33.326767 -1.403313 1.242483 0.008768 0.004179 802453.000000 0 0 1
6.563571 -31.597411 11.135922 34.139209 -1.365984 1.238524 0.015333 0.007094 733304.000000 0 0 1
6.876271 -32.963471 10.524922 35.279562 -1.365143 1.267855 0.002835 0.012360 -41312.600000 0 0 1
6.546571 -34.066723 11.383022 36.509895 -1.380942 1.253731 -0.011866 0.003749 97622.900000 0 0 1
6.731671 33.799698 10.784322 36.111447 1.374205 1.267529 -0.006965 0.005644 -2911.770000 0 0 1
6.498571 32.570021 11.714522 35.217435 1.373856 1.231701 -0.003580 0.003980 1309350.000000 0 0 1
5.137971 32.575121 12.234422 35.174115 1.414358 1.215547 0.002409 0.010809 1042700.000000 0 0 1
4.837771 31.325591 12.714022 34.151765 1.417572 1.189332 0.008597 0.014181 18365.500000 0 0 1
3.676771 31.422991 13.712222 34.481126 1.454317 1.161817 0.013416 0.004902 -244422.000000 0 0 1
4.076871 32.011181 14.907322 35.546658 1.444121 1.138041 0.013409 0.004093 -162822.000000 0 0 1
3.135471 31.964081 15.937322 35.854315 1.473016 1.110178 0.019998 0.001461 -483083.000000 0 0 1
3.825371 32.327991 17.239022 36.836346 1.453014 1.083782 0.012414 0.006101 -414647.000000 0 0 1
3.717971 33.693433 17.568322 38.180056 1.460894 1.092639 0.005314 0.009384 158624.000000 0 0 1
4.312371 33.789046 18.823522 38.918134 1.443856 1.065954 0.001704 0.008971 -213832.000000 0 0 1
4.570371 -33.881661 19.219722 39.220568 -1.436713 1.058658 -0.006525 0.001826 361209.000000 0 0 1
3.354771 -33.237151 19.601122 38.731985 -1.470203 1.040173 -0.016423 0.004285 327190.000000 0 0 1
3.549671 -32.135311 20.439122 38.249655 -1.460782 1.007045 -0.014655 0.003842 -895229.000000 0 0 1
2.291771 -31.698841 21.109022 38.153107 -1.498624 0.984510 -0.011959 0.002319 -965654.000000 0 0 1
1.779271 -32.460171 22.165122 39.346171 -1.516037 0.972378 -0.006396 0.003303 -17164.300000 0 0 1
0.860471 -31.681191 22.945922 39.127402 -1.543643 0.944138 -0.000822 0.002700 490860.000000 0 0 1
-0.396329 -32.484341 23.393222 40.032891 1.558596 0.946717 0.002141 0.006435 -299281.000000 0 0 1
-1.263329 -32.803001 22.342122 39.708983 1.532303 0.973213 0.004019 0.001522 -397262.000000 0 0 1
-1.957529 -33.997730 22.383022 40.751408 1.513282 0.989321 0.001324 0.004612 335673.000000 0 0 1
-3.226329 -34.061207 23.315222 41.402592 1.476357 0.972622 0.001740 0.005555 266375.000000 0 0 1
-4.224629 -33.245941 22.756222 40.509082 1.444402 0.974289 0.003780 0.000340 -150787.000000 0 0 1
-5.540629 -33.595461 23.186722 41.194389 1.407346 0.972953 0.009747 -0.011837 67689.300000 0 0 1
-6.633229 -33.078631 22.307822 40.445451 1.372892 0.986571 0.003927 -0.006549 -1043040.000000 0 0 1
-6.760329 -33.751561 21.092122 40.370132 1.373115 1.021053 -0.002956 -0.002271 551027.000000 0 0 1
-7.971329 -33.371791 20.428922 39.931934 1.336325 1.033758 0.012831 -0.003452 802959.000000 0 0 1
-9.224629 -34.218617 20.763422 41.074654 1.307477 1.040830 0.008445 -0.003234 -1578.900000 0 0 1
-9.758629 -34.150771 22.089122 41.826252 1.292462 1.014416 0.022346 -0.004709 -357375.000000 0 0 1
-11.104429 -34.526046 22.046022 42.442706 1.259620 1.024612 0.019731 -0.007342 -170045.000000 0 0 1
-11.691129 34.060133 23.383722 42.936856 -1.240148 0.994876 0.026070 -0.005679 -173616.000000 0 0 1
-11.912029 -34.168008 24.456222 43.674432 1.235342 0.976451 0.023315 0.001514 155278.000000 0 0 1
-10.834029 -33.318591 24.861722 42.960562 1.256415 0.953650 0.014460 0.007915 -148099.000000 0 0 1
-11.267329 -32.037471 25.579522 42.516634 1.232615 0.925249 0.006735 0.010540 -606958.000000 0 0 1
-11.798029 -32.264311 26.858222 43.606689 1.220232 0.907243 0.013090 0.012565 261551.000000 0 0 1
-12.690529 -31.209351 27.203722 43.302605 1.184591 0.891528 0.011987 0.013056 3809.940000 0 0 1
-13.195029 -31.169231 28.635722 44.335475 1.170337 0.868611 0.001161 0.011715 -459748.000000 0 0 1
-12.352429 -30.603911 29.617322 44.343744 1.187171 0.839409 -0.003393 0.017286 59334.700000 0 0 1
-13.101029 -30.300811 30.797522 45.147131 1.162704 0.820085 -0.002463 0.014879 -113821.000000 0 0 1
-12.402629 -29.613941 31.990722 45.323471 1.174180 0.787200 0.000036 0.008688 -791265.000000 0 0 1
-13.304929 -29.160881 32.957422 45.973577 1.142749 0.771483 0.014623 0.001315 77670.600000 0 0 1
-12.773729 -28.663421 34.204422 46.418772 1.151569 0.742373 0.002930 0.000476 -380796.000000 0 0 1
-12.208629 -29.708221 -33.797900 46.625391 1.180885 2.381659 0.002445 -0.000049 -520507.000000 0 0 1
-10.923729 -30.129871 -34.103300 46.799274 1.222981 2.387239 -0.008209 0.001863 -955851.000000 0 0 1
-10.641629 -31.314431 -33.456400 47.044326 1.243209 2.361954 -0.001329 0.005860 396029.000000 0 0 1
-9.240029 -31.824671 -33.915800 47.418028 1.288224 2.367780 -0.003971 0.003840 967802.000000 0 0 1
-8.171929 -31.049571 -33.356300 46.297938 1.313443 2.375277 0.000325 -0.003015 -33183.200000 0 0 1
-6.974729 -31.760551 -33.141600 46.430002 1.354624 2.365701 0.004358 -0.001292 207861.000000 0 0 1
-6.067429 -30.857181 -32.271400 45.060211 1.376644 2.369115 -0.002331 0.006561 10232.200000 0 0 1
-6.588729 -30.798491 -30.936100 44.147488 1.360043 2.347237 0.004164 -0.007804 238964.000000 0 0 1
-5.859529 -29.934681 -30.063000 42.827599 1.377497 2.348934 -0.001610 -0.006376 255668.000000 0 0 1
-6.413729 -29.941391 -28.594700 41.896058 1.359776 2.321995 -0.002446 -0.006659 78024.500000 0 0 1
-6.124929 -31.174351 -27.944800 42.311544 1.376794 2.292219 -0.005107 -0.004281 -334861.000000 0 0 1
-7.076429 -31.493021 -27.002000 42.083183 1.349769 2.267423 0.003789 -0.010413 -489172.000000 0 0 1
-6.591029 -32.774311 -26.265000 42.514084 1.372340 2.236732 0.009957 -0.009594 458499.000000 0 0 1
-5.509829 -32.477601 -25.398700 41.596235 1.402746 2.227616 0.005345 -0.008750 23624.300000 0 0 1
-5.124029 -33.641691 -24.696300 42.046716 1.419646 2.198582 0.005085 -0.017376 44038.800000 0 0 1
-4.195229 -33.545901 -23.415800 41.124532 1.446383 2.176557 0.010397 -0.017165 380113.000000 0 0 1
-4.755629 -33.011451 -22.190100 40.059611 1.427721 2.157870 0.011312 -0.011017 30010.500000 0 0 1
-5.127629 -31.667811 -22.265700 39.050022 1.410270 2.177526 -0.001186 0.000700 -405840.000000 0 0 1
-5.592129 -31.060921 -20.935100 37.872565 1.392667 2.156490 0.007165 -0.002324 -101005.000000 0 0 1
-6.967129 -31.316061 -20.643100 38.149366 1.351884 2.142556 0.016041 -0.007300 480897.000000 0 0 1
-7.651929 -30.103281 -20.289000 37.099907 1.321879 2.149423 0.020879 -0.009901 -174198.000000 0 0 1
-7.882529 -28.983981 -21.296100 36.820230 1.305257 2.187538 0.021697 -0.015380 -288209.000000 0 0 1
-6.709929 -28.373441 -21.851700 36.435863 1.338576 2.213961 0.022622 -0.004421 -15970.200000 0 0 1
-7.049529 -27.601801 -22.935100 36.572860 1.320741 2.248630 0.030926 -0.011951 -1309890.000000 0 0 1
-6.017829 -27.692591 -24.035600 37.159171 1.356815 2.274214 0.029591 -0.013786 621538.000000 0 0 1
-4.717229 -27.123121 -23.854900 36.427630 1.398600 2.284790 0.039566 -0.003007 626752.000000 0 0 1
-3.931329 -27.638671 -22.790300 36.038164 1.429504 2.255435 0.024567 0.006623 -1808960.000000 0 0 1
-2.451329 -27.281321 -22.931600 35.723071 1.481183 2.267805 0.027366 0.005437 -570463.000000 0 0 1
-2.136829 -25.987111 -23.248900 34.934329 1.488754 2.298964 0.034163 0.000635 -106186.000000 0 0 1
-2.592229 -25.020051 -22.298900 33.614931 1.467559 2.296100 0.047459 0.001400 -775232.000000 0 0 1
-2.323429 -23.561851 -22.749300 32.834278 1.472504 2.336233 0.047718 0.001983 -190819.000000 0 0 1
-3.078429 -23.054351 -23.831100 33.300168 1.438052 2.368344 0.034398 -0.001887 138720.000000 0 0 1
-4.422629 -22.787051 -23.427200 32.979434 1.379094 2.360803 0.037807 -0.003590 -374214.000000 0 0 1
-5.342429 -22.951651 -24.613800 34.075783 1.342100 2.377955 0.025198 -0.002218 -581263.000000 0 0 1
-5.296429 -21.817151 -25.414800 33.910947 1.332639 2.418038 0.030803 0.004422 126595.000000 0 0 1
-5.594629 -22.233151 -26.734700 35.218704 1.324280 2.432734 0.028428 0.002364 -4992.640000 0 0 1
-5.713029 -21.055251 -27.725000 35.279427 1.305841 2.474896 0.039929 0.012164 114322.000000 0 0 1
-5.894929 -21.490151 -29.045200 36.608748 1.303073 2.487163 0.033232 0.005555 1677220.000000 0 0 1
-4.605429 -21.934151 -29.648700 37.166684 1.363837 2.494305 0.027849 0.005468 1764900.000000 0 0 1
-4.622529 -22.505551 -31.108400 38.672990 1.368219 2.505454 0.030466 -0.012232 -127405.000000 0 0 1
-4.808929 -21.548151 -32.112600 38.970087 1.351223 2.539288 0.069783 -0.017755 -327605.000000 0 0 1
-6.005729 -21.794251 -32.813700 39.847172 1.301905 2.538330 0.048166 -0.019285 -90499.200000 0 0 1
-6.307129 -20.777051 -33.938700 40.290211 1.276075 2.572436 0.035211 -0.009210 414388.000000 0 0 1
-5.299729 -20.863651 34.110622 40.335017 1.322040 0.562953 0.038607 -0.009206 173622.000000 0 0 1
-5.615229 -20.099951 32.925122 38.982079 1.298376 0.564938 0.033934 -0.008830 280973.000000 0 0 1
-4.463429 -20.247351 31.922122 38.064410 1.353822 0.576025 0.029927 -0.003547 -874526.000000 0 0 1
-4.330329 -21.626451 31.518822 38.469355 1.373177 0.610567 0.026424 -0.003205 1085770.000000 0 0 1
-3.141429 -21.967351 30.750522 37.921336 1.428755 0.625103 0.016657 -0.002096 1262180.000000 0 0 1
-1.744729 -21.657851 31.344022 38.138620 1.490411 0.606155 0.018169 -0.008435 -567827.000000 0 0 1
-1.356229 -20.325151 30.990622 37.085978 1.504168 0.581495 0.020157 -0.015776 1129270.000000 0 0 1
-0.205829 -19.783951 31.738922 37.400618 1.560393 0.557425 0.019168 -0.009401 1226150.000000 0 0 1
-0.455429 -19.470651 33.269222 38.550678 1.547410 0.529619 0.015106 -0.010141 24038.200000 0 0 1
-1.550929 -18.588351 33.390422 38.247254 1.487554 0.509446 0.014797 -0.017078 -167351.000000 0 0 1
-1.863929 -18.508751 -34.306100 39.025077 1.470429 2.644722 0.023743 -0.017324 602911.000000 0 0 1
-2.998329 -17.463551 -33.976700 38.319470 1.400763 2.660888 0.027353 -0.020631 696891.000000 0 0 1
-2.625929 -16.136951 -34.277600 37.976974 1.409483 2.696542 0.029326 -0.022515 -494541.000000 0 0 1
-3.527229 -15.302051 -33.668400 37.150441 1.344247 2.705175 0.033551 -0.032895 -610773.000000 0 0 1
-3.268129 -13.793051 -33.931600 36.773393 1.338146 2.745878 0.032208 -0.038550 -694267.000000 0 0 1
-2.138429 -13.321451 -33.260400 35.892731 1.411629 2.756227 0.037692 -0.030757 -298929.000000 0 0 1
-1.896129 -11.926251 -33.407800 35.523399 1.413128 2.794733 0.033577 -0.028547 -199414.000000 0 0 1
-1.254329 -11.379051 34.398122 36.253096 1.461008 0.321278 0.030086 -0.024465 -782090.000000 0 0 1
-2.031829 -11.576551 33.255522 35.271442 1.397053 0.339727 0.023491 -0.019373 102781.000000 0 0 1
-1.403929 -11.011651 32.105722 33.970647 1.443986 0.332890 0.015644 -0.011239 128985.000000 0 0 1
-0.454329 -11.973851 31.359122 33.570434 1.532871 0.364985 0.010399 -0.017641 -70439.000000 0 0 1
-1.114829 -12.917551 30.537222 33.175713 1.484706 0.401517 0.023580 -0.024070 -392515.000000 0 0 1
-0.215529 -13.880451 30.137622 33.181164 1.555270 0.431654 0.030606 -0.028920 -685468.000000 0 0 1
-0.606929 -15.333151 30.491322 34.134947 1.531234 0.466255 0.037302 -0.020698 94592.700000 0 0 1
-1.685029 -15.789951 29.693922 33.673296 1.464483 0.491080 0.032844 -0.019096 197412.000000 0 0 1
-2.119629 -17.023551 30.220522 34.750167 1.446922 0.516301 0.027931 -0.013923 -342275.000000 0 0 1
-2.528529 -18.023151 29.148722 34.363868 1.431413 0.558148 0.018814 -0.003120 -368594.000000 0 0 1
-3.822829 -17.774451 28.640122 33.923469 1.358949 0.565619 0.010334 -0.001667 -291584.000000 0 0 1
-4.363329 -18.783151 27.893122 33.909758 1.342544 0.604882 0.009640 0.004718 81560.800000 0 0 1
-3.575129 -19.330851 26.621522 33.093334 1.387918 0.636068 0.012415 -0.003171 -362498.000000 0 0 1
-4.347429 -20.264151 25.877122 33.153603 1.359462 0.675296 0.007967 0.003296 -2670.280000 0 0 1
-4.449729 -21.545251 26.466022 34.415814 1.367130 0.693509 0.004792 -0.000174 -187205.000000 0 0 1
-28.147859 -34.314294 -0.671278 44.387198 0.883802 1.585920 0.004714 -0.004527 -238268.000000 0 0 1
-27.671859 -33.021094 -0.377878 43.084419 0.873307 1.579567 0.017241 -0.005095 18657.000000 0 0 1
-28.189849 -32.505494 0.848322 43.034804 0.856382 1.551083 -0.005136 0.001163 187789.000000 0 0 1
-27.365899 -31.255594 1.338722 41.564369 0.851654 1.538582 0.018074 -0.006787 128132.000000 0 0 1
-26.002699 -31.573294 1.475922 40.929104 0.881850 1.534728 0.024536 -0.009429 -833886.000000 0 0 1
-25.356269 -30.362294 1.827422 39.599858 0.875002 1.524633 0.033264 -0.005106 -358953.000000 0 0 1
-23.858529 -30.635094 1.970022 38.879549 0.909118 1.520105 0.024823 -0.000551 -607081.000000 0 0 1
-23.502529 -31.182794 3.224722 39.180790 0.924930 1.488399 0.020218 -0.003540 -888414.000000 0 0 1
-22.142729 -31.135094 3.487822 38.364820 0.952605 1.479759 0.014403 -0.001200 -1084620.000000 0 0 1
-21.809729 -31.739394 4.851522 38.814825 0.968747 1.445477 0.024219 -0.008590 -207010.000000 0 0 1
-22.262229 -30.963294 5.985422 38.602560 0.947440 1.415116 0.028401 -0.010743 40137.700000 0 0 1
-21.777929 -31.446394 7.259122 38.933902 0.965094 1.383252 0.029338 -0.009342 -102896.000000 0 0 1
-22.505229 -30.755194 8.405222 39.025825 0.939075 1.353720 0.028132 -0.004841 -36749.100000 0 0 1
-22.033429 -29.453194 8.597422 37.774042 0.928523 1.341183 0.039329 -0.015767 -151205.000000 0 0 1
-22.675829 -28.969694 9.732122 38.054574 0.906667 1.312182 0.030698 -0.006551 80038.200000 0 0 1
-21.904729 -27.822594 10.492622 36.932492 0.903847 1.282726 0.044420 -0.014251 989833.000000 0 0 1
-20.597529 -28.237394 10.921922 36.618260 0.940583 1.267923 0.028351 -0.020205 308010.000000 0 0 1
-20.107429 -27.214194 11.755022 35.820407 0.934464 1.236435 0.031068 -0.020641 873988.000000 0 0 1
-18.764929 -27.530794 12.523722 35.593690 0.972528 1.211247 0.022657 -0.019849 809566.000000 0 0 1
-18.923029 -28.468394 13.620822 36.797517 0.984154 1.191619 0.023873 -0.014898 -3695.340000 0 0 1
-17.715129 -28.637094 14.339822 36.599719 1.016807 1.168208 0.025425 -0.016307 -114706.000000 0 0 1
-17.890929 -29.831394 15.292522 37.998140 1.030572 1.156600 0.046167 -0.025371 114808.000000 0 0 1
-17.507129 -31.120694 14.759422 38.637258 1.058364 1.178837 0.053189 -0.019034 22491.300000 0 0 1
-17.529929 -32.132494 15.715922 39.834480 1.071375 1.165239 0.056157 -0.017057 152785.000000 0 0 1
-16.966929 -33.490794 15.219022 40.510845 1.101871 1.185668 0.055778 -0.011659 114511.000000 0 0 1
-17.067329 -34.497594 16.216322 41.765378 1.111366 1.172041 0.061324 -0.003782 9894.350000 0 0 1
-16.851229 33.400249 15.570822 40.521489 -1.103536 1.176389 0.041109 -0.001095 -53316.900000 0 0 1
-16.707029 32.270549 16.555622 39.932465 -1.093075 1.143304 0.056367 -0.002945 555677.000000 0 0 1
-17.910629 32.067549 17.306722 40.603460 -1.061429 1.130467 0.055149 -0.006300 806932.000000 0 0 1
-17.668329 30.957549 18.149022 39.999084 -1.052179 1.099843 0.034407 -0.001654 -89694.600000 0 0 1
-18.455829 31.070849 19.447922 41.039456 -1.034806 1.077101 0.037930 -0.005331 288409.000000 0 0 1
-17.848429 32.055649 20.358022 41.959267 -1.062751 1.064221 0.042763 -0.003880 486662.000000 0 0 1
-18.633029 32.146449 21.542622 42.949604 -1.045490 1.045373 0.033224 0.002426 101512.000000 0 0 1
-18.192929 33.203649 22.557322 44.071507 -1.069552 1.033477 0.023967 0.007166 -153489.000000 0 0 1
-16.994629 32.875649 23.221422 43.690504 -1.093691 1.010428 0.018916 0.004338 -301240.000000 0 0 1
-16.836729 33.508949 24.469422 44.778094 -1.105187 0.992665 0.016645 0.001553 -507544.000000 0 0 1
-17.641029 33.052049 25.716522 45.442088 -1.080526 0.969249 0.010029 0.005936 -1253420.000000 0 0 1
-18.944429 33.350149 25.400722 46.003484 -1.054204 0.985858 0.008107 -0.000297 -2049390.000000 0 0 1
-19.833829 32.573749 26.073622 46.198092 -1.023866 0.971105 0.016070 -0.001514 -1147910.000000 0 0 1
-21.288529 32.964349 25.844622 46.987171 -0.997376 0.988389 0.029502 -0.014449 -744883.000000 0 0 1
-21.720829 32.598649 24.577622 46.244198 -0.983040 1.010456 0.030259 -0.008295 355995.000000 0 0 1
-23.109929 32.863049 24.439522 47.024877 -0.957913 1.024279 0.017840 -0.013624 102205.000000 0 0 1
-23.663829 32.385949 23.108022 46.290465 -0.939774 1.048126 0.008819 -0.014611 -342678.000000 0 0 1
-23.409229 33.181249 21.994122 46.181476 -0.956391 1.074406 0.011691 -0.008743 -92683.300000 0 0 1
-23.202329 32.444849 20.820922 44.994745 -0.949987 1.089711 0.009617 0.000306 -112395.000000 0 0 1
-22.644929 33.232049 19.642122 44.754607 -0.972650 1.116439 0.015006 0.002199 -231272.000000 0 0 1
-21.387429 33.793149 19.873522 44.658212 -1.006542 1.109607 0.031695 -0.000577 -261776.000000 0 0 1
-20.728229 34.322749 18.727922 44.254329 -1.027499 1.133835 0.039954 -0.000367 -146222.000000 0 0 1
-19.440829 -34.065294 19.024622 43.592732 1.052205 1.119183 0.054494 -0.002409 -396879.000000 0 0 1
-19.607529 -32.754894 19.505522 42.869612 1.031397 1.098428 0.038462 -0.009910 239753.000000 0 0 1
-18.349129 -32.159594 19.777822 41.977282 1.052302 1.080196 0.048295 -0.010558 -36477.100000 0 0 1
-18.174429 -31.082694 20.828322 41.596427 1.041694 1.046362 0.041600 -0.004999 -162077.000000 0 0 1
-18.972229 -29.938094 20.608522 40.999343 1.005954 1.044129 0.053787 -0.005776 185297.000000 0 0 1
-19.370229 -29.333994 21.796022 41.361281 0.987191 1.015769 0.051082 -0.003661 21627.400000 0 0 1
-20.241329 -28.108694 21.484622 40.760263 0.946701 1.015615 0.042129 -0.012361 -468877.000000 0 0 1
-19.403229 -27.168694 20.853222 39.363436 0.950619 1.012477 0.038941 -0.006445 329745.000000 0 0 1
-19.981029 -25.945394 20.463822 38.615709 0.914543 1.012272 0.041393 0.003071 258098.000000 0 0 1
-21.275329 -25.817494 19.559022 38.752264 0.881552 1.041739 0.041606 0.002282 112653.000000 0 0 1
-22.471529 -26.055394 20.238522 39.918053 0.859117 1.039094 0.037806 0.004314 -705334.000000 0 0 1
-23.492929 -26.011594 19.281022 40.003481 0.836232 1.067879 0.028946 0.012674 -609121.000000 0 0 1
-24.911929 -26.256394 19.841322 41.275664 0.811667 1.069340 0.018727 0.004051 165721.000000 0 0 1
-25.504569 -27.573394 19.805622 42.462192 0.824356 1.085546 0.015285 0.004776 247300.000000 0 0 1
-25.567189 -28.192694 18.535422 42.332860 0.834197 1.117591 0.017028 -0.006543 -523766.000000 0 0 1
-26.255189 -29.608994 18.624722 43.736801 0.845361 1.130910 0.012415 -0.011523 1058120.000000 0 0 1
-27.637919 -29.480794 18.983822 44.647030 0.817651 1.131616 0.001789 -0.003475 543793.000000 0 0 1
-28.552939 -29.841794 17.968722 45.040848 0.807466 1.160433 -0.001893 0.003283 555709.000000 0 0 1
-30.023069 -29.402894 18.269922 45.822537 0.774962 1.160686 0.000137 0.003827 557219.000000 0 0 1
-30.337589 -28.101294 17.857022 45.043593 0.747150 1.163162 0.005874 0.008442 -292052.000000 0 0 1
-31.615459 -27.772194 18.340422 45.904282 0.720773 1.159785 0.001595 0.020546 -391294.000000 0 0 1
-32.137189 -26.515394 17.640422 45.244331 0.689841 1.170282 -0.006529 0.019230 -421050.000000 0 0 1
-32.544299 -26.602394 16.317622 45.089728 0.685274 1.200499 0.009121 0.006496 337993.000000 0 0 1
-33.039379 -25.397894 15.679022 44.525109 0.655372 1.210941 0.007509 0.009435 -2370.230000 0 0 1
-31.991879 -24.320394 15.308422 43.003601 0.650001 1.206834 -0.008910 0.007915 148595.000000 0 0 1
-31.358349 -23.657894 16.407722 42.570592 0.646335 1.175129 -0.018708 0.007693 70657.800000 0 0 1
-30.808719 -22.426694 16.148222 41.387182 0.629228 1.169975 -0.011547 0.013106 -143360.000000 0 0 1
-31.833579 -21.247894 16.248822 41.579730 0.588557 1.169310 -0.014137 0.004129 139938.000000 0 0 1
-32.207399 -21.031394 17.570022 42.288790 0.578480 1.142329 -0.010918 0.007574 201317.000000 0 0 1
-32.898179 -19.789994 17.682422 42.268216 0.541561 1.139181 -0.004278 0.002811 1849.250000 0 0 1
-33.361699 -19.488294 19.141422 43.118332 0.528685 1.110819 0.000542 0.002749 -505708.000000 0 0 1
-34.472476 -20.230694 19.551822 44.496138 0.530706 1.115860 0.007852 0.003043 -94239.800000 0 0 1
-34.614186 -19.842894 20.907922 45.044684 0.520525 1.088111 0.010222 0.006809 -912748.000000 0 0 1
34.725128 -20.225094 21.600722 45.623241 -0.527403 1.077583 0.003760 0.004323 -632241.000000 0 0 1
34.304721 -21.548894 21.784422 45.997062 -0.560869 1.077417 0.012168 -0.000651 379729.000000 0 0 1
35.052635 -22.240494 22.833322 47.378132 -0.565393 1.067931 0.019492 0.008705 108076.000000 0 0 1
34.387351 -23.558894 23.223222 47.716134 -0.600658 1.062493 0.019135 0.014317 983394.000000 0 0 1
33.252391 -23.300994 24.116522 47.225676 -0.611217 1.034838 0.024326 0.000359 1006570.000000 0 0 1
32.800251 -24.544094 24.681322 47.827154 -0.642406 1.028560 0.030192 -0.010965 -198344.000000 0 0 1
31.879811 -24.239894 25.866922 47.675910 -0.650094 0.997318 0.036057 -0.018188 -537909.000000 0 0 1
30.514271 -24.103294 25.627222 46.570849 -0.668553 0.988091 0.035822 -0.013329 -456934.000000 0 0 1
29.823341 -24.085494 26.894422 46.827904 -0.679361 0.959017 0.036520 -0.009684 748285.000000 0 0 1
28.420221 -24.766794 26.747022 46.222356 -0.716816 0.953712 0.026841 -0.006029 419467.000000 0 0 1
27.436801 -23.951794 26.164822 44.844892 -0.717685 0.947824 0.017864 0.001974 -1094880.000000 0 0 1
26.257181 -24.628094 25.916022 44.357894 -0.753394 0.946843 0.016582 0.010811 -927001.000000 0 0 1
25.212131 -23.647994 25.402522 42.897171 -0.753397 0.937044 0.003896 0.012480 -845225.000000 0 0 1
25.244031 -23.186894 24.072322 41.885198 -0.742948 0.958533 0.016489 -0.002312 -370819.000000 0 0 1
26.335241 -22.407594 23.660122 41.898049 -0.704993 0.970718 0.006240 0.004738 -190465.000000 0 0 1
26.164551 -21.818694 22.196422 40.661041 -0.695074 0.993346 0.005006 0.006362 215611.000000 0 0 1
25.285031 -20.707294 22.136922 39.473638 -0.686192 0.975441 -0.005318 0.007319 58289.900000 0 0 1
25.358831 -20.140994 20.843322 38.511998 -0.671219 0.998913 -0.009387 0.004567 -90813.600000 0 0 1
24.739731 -18.757594 20.594022 37.256078 -0.648727 0.985112 0.014028 0.003533 -52241.300000 0 0 1
25.223631 -17.592294 21.266622 37.389699 -0.609014 0.965771 0.009582 -0.007221 -18938.900000 0 0 1
25.013531 -17.698594 22.667922 38.114979 -0.615782 0.933873 0.008467 0.000670 -8542.430000 0 0 1
25.271931 -16.348594 23.445022 38.152537 -0.574198 0.909035 0.008007 0.005566 -103302.000000 0 0 1
24.271931 -15.369794 23.180522 36.914682 -0.564498 0.891882 0.015363 0.000396 215176.000000 0 0 1
24.366331 -14.229494 23.995022 37.039947 -0.528558 0.866084 0.018034 0.001869 678968.000000 0 0 1
22.993631 -13.485194 23.862822 35.776973 -0.530415 0.840637 0.023452 -0.004305 440221.000000 0 0 1
21.880531 -14.031394 24.490022 35.712726 -0.570216 0.815162 0.028531 -0.004256 -573355.000000 0 0 1
20.750231 -13.230494 24.245922 34.546820 -0.567614 0.792836 0.023961 -0.007863 -471647.000000 0 0 1
19.424431 -13.865594 24.628822 34.294928 -0.619943 0.769660 0.027448 -0.003948 -650917.000000 0 0 1
19.017431 -14.958094 23.885122 33.998622 -0.666484 0.791847 0.031713 -0.012029 -174509.000000 0 0 1
17.759731 -15.457694 24.270122 33.814008 -0.716207 0.770226 0.029970 -0.006524 157513.000000 0 0 1
17.180631 -16.565494 23.309322 33.360368 -0.767172 0.797199 0.026265 -0.012023 220651.000000 0 0 1
17.906531 -17.771894 23.430022 34.430364 -0.781625 0.822345 0.025699 -0.009690 170082.000000 0 0 1
17.397031 -18.713194 22.488822 34.038029 -0.821831 0.849049 0.026557 -0.006919 -135440.000000 0 0 1
17.736131 -20.146294 22.892422 35.277563 -0.848935 0.864628 0.018127 -0.004073 -173833.000000 0 0 1
16.965731 -20.676894 23.989522 35.928639 -0.883670 0.839683 0.020156 -0.004053 218199.000000 0 0 1
17.223631 -21.982194 24.522922 37.165091 -0.906181 0.850194 0.025699 -0.005411 -459871.000000 0 0 1
16.938731 -23.180494 23.544122 37.129255 -0.939741 0.883936 0.020256 -0.001846 -100146.000000 0 0 1
17.668631 -23.354494 22.351322 36.840121 -0.923122 0.918879 0.023027 -0.001692 236304.000000 0 0 1
18.919031 -24.045794 22.526522 37.994396 -0.904161 0.936153 0.014084 -0.004375 314732.000000 0 0 1
19.680331 -24.035994 21.199822 37.609532 -0.884705 0.971959 0.023126 -0.003137 -650061.000000 0 0 1
19.156131 -24.859794 20.221222 37.334495 -0.914262 0.998430 0.037851 -0.011059 54196.600000 0 0 1
20.175431 -25.322094 19.339322 37.712940 -0.898039 1.032349 0.026006 -0.011108 569931.000000 0 0 1
19.501431 -26.116094 18.162522 37.312643 -0.929397 1.062413 0.030575 -0.011953 199751.000000 0 0 1
19.059831 -27.351094 18.551322 38.151160 -0.962182 1.062994 0.038975 -0.018118 -153174.000000 0 0 1
18.212331 -27.856094 17.544622 37.622662 -0.991754 1.085657 0.036639 -0.017720 -354428.000000 0 0 1
17.511031 -29.179194 17.944322 38.471551 -1.030288 1.085545 0.041499 -0.016905 -63084.400000 0 0 1
16.509331 -28.943994 18.911722 38.314044 -1.052434 1.054575 0.048042 -0.017928 2700.870000 0 0 1
15.669031 -30.065294 19.096622 38.911713 -1.090359 1.057825 0.059119 -0.017043 -313743.000000 0 0 1
14.344931 -29.796094 19.805322 38.546530 -1.122109 1.031185 0.045625 -0.011325 -793491.000000 0 0 1
13.436331 -29.180494 18.953622 37.299812 -1.139281 1.037770 0.046487 -0.017701 -909392.000000 0 0 1
12.189031 -29.192094 19.598222 37.213453 -1.175257 1.016149 0.026028 -0.010972 -182857.000000 0 0 1
11.051531 -28.603294 18.726122 35.929826 -1.202093 1.022556 0.024651 -0.009791 -37249.700000 0 0 1
10.859031 -29.402994 17.587622 35.941328 -1.217017 1.059461 0.017666 -0.013888 -43796.500000 0 0 1
10.170231 -28.660694 16.623322 34.658387 -1.229808 1.070559 0.032604 -0.011900 -91255.700000 0 0 1
9.753031 -29.473594 15.366222 34.640079 -1.251231 1.111189 0.033983 -0.010433 136820.000000 0 0 1
8.824231 -30.530394 15.581522 35.394291 -1.289433 1.114945 0.016768 -0.006382 94388.400000 0 0 1
8.814431 -31.369694 14.441422 35.641360 -1.296874 1.153613 0.021496 -0.001502 -864312.000000 0 0 1
7.752331 -32.407894 14.296022 36.259432 -1.335997 1.165522 0.001779 0.000132 -1074120.000000 0 0 1
7.890031 -33.520294 15.152222 37.622500 -1.339624 1.156284 0.000022 -0.000642 188061.000000 0 0 1
7.015931 34.541549 14.774122 38.218014 1.370407 1.173882 -0.008081 0.003155 294748.000000 0 0 1
6.965731 33.460749 15.849522 37.674268 1.365552 1.136581 -0.004315 -0.000040 -407921.000000 0 0 1
8.159531 32.733949 15.847622 37.272463 1.326507 1.131632 -0.000760 -0.000701 -482229.000000 0 0 1
8.160431 31.830849 16.887122 36.945507 1.319833 1.096085 0.007914 -0.004354 -427074.000000 0 0 1
9.403631 30.971149 17.055022 36.585709 1.276017 1.085844 0.000262 -0.005926 -523142.000000 0 0 1
9.711331 30.158149 15.944522 35.469024 1.259268 1.104553 0.016191 -0.006634 545409.000000 0 0 1
10.827031 29.271849 16.220922 35.173627 1.216523 1.091486 0.003626 -0.001919 459088.000000 0 0 1
11.582331 28.575149 15.080922 34.323807 1.185705 1.115897 0.012999 -0.001246 668564.000000 0 0 1
10.781631 27.712049 14.213822 32.958064 1.199757 1.124896 0.018187 0.000675 1119010.000000 0 0 1
11.719831 27.212049 13.229622 32.448004 1.164120 1.150843 0.016359 0.000285 777401.000000 0 0 1
-8.779229 -9.385551 19.506345 23.359386 0.818765 0.582566 -0.002809 -0.000691 87875.800000 0 1 0
-9.427629 -9.351251 18.224645 22.549141 0.781331 0.629675 0.012176 -0.002535 8189.080000 0 1 0
-9.256429 -10.643251 17.627945 22.576641 0.854976 0.674844 0.012164 -0.008828 47353.800000 0 1 0
-9.655029 -10.784051 16.148745 21.686339 0.840580 0.730785 0.018533 -0.009796 -147947.000000 0 1 0
-11.052129 -10.739651 16.005345 22.218477 0.771060 0.766472 0.022053 -0.006469 -113107.000000 0 1 0
-11.611429 -11.169151 14.739645 21.836491 0.765986 0.829831 0.028456 -0.005378 305609.000000 0 1 0
-11.532929 -12.643851 14.342245 22.328802 0.831316 0.873274 0.020219 -0.009179 272683.000000 0 1 0
-10.215929 -13.066051 13.946145 21.669837 0.907210 0.871638 0.021064 -0.005081 662325.000000 0 1 0
-10.010129 -14.467751 13.935645 22.443723 0.965532 0.900887 0.014191 -0.000750 -262988.000000 0 1 0
-9.608729 -15.143051 15.252645 23.543212 1.005373 0.866028 0.014562 0.000929 1034280.000000 0 1 0
-10.662629 -15.206051 16.275245 24.694113 0.959259 0.851210 0.022004 0.010867 960985.000000 0 1 0
-10.003229 -15.477951 17.507145 25.419120 0.997034 0.811048 0.020186 0.008028 384543.000000 0 0 1
-10.884429 -15.164451 18.756345 26.461894 0.948250 0.782992 0.016042 0.001977 22116.500000 0 0 1
-11.360829 -13.836151 18.932745 26.056790 0.883323 0.757443 0.013933 0.000131 195388.000000 0 0 1
-12.513729 -13.487151 18.172945 25.860251 0.822819 0.791560 0.012594 0.000319 548161.000000 0 0 1
-13.849129 -13.700051 18.968745 27.190128 0.779987 0.798707 -0.000521 0.002516 214332.000000 0 0 1
-14.109229 -15.048851 19.155245 28.150696 0.817612 0.822415 0.005428 0.000965 -453760.000000 0 0 1
-15.123729 -15.243751 20.102945 29.414750 0.789350 0.818344 0.015184 -0.000029 -234906.000000 0 0 1
-15.456329 -16.660151 20.281645 30.459873 0.822864 0.842167 0.034772 -0.003492 -447628.000000 0 0 1
-16.372029 -17.121851 19.335845 30.579013 0.807781 0.886247 0.037826 0.002688 -75420.700000 0 0 1
-16.921129 -18.411851 19.653045 31.805079 0.827564 0.904700 0.030220 -0.001757 -235286.000000 0 0 1
-18.293029 -18.752451 19.080145 32.408969 0.797799 0.941309 0.039285 0.002143 -427265.000000 0 0 1
-18.202329 -19.057051 17.674845 31.731626 0.808334 0.980015 0.037235 0.001135 161615.000000 0 0 1
-18.324829 -17.857051 16.902245 30.665282 0.772470 0.987012 0.040557 -0.003930 -356955.000000 0 0 1
-18.138329 -17.913051 15.384245 29.775012 0.779149 1.027824 0.027176 -0.009004 -234368.000000 0 0 1
-19.214029 -18.618451 14.821945 30.586201 0.769657 1.064895 0.026612 -0.007182 29380.800000 0 0 1
-18.952429 -18.636051 13.397145 29.765424 0.776981 1.103929 0.019330 -0.006803 76811.400000 0 0 1
-19.028629 -20.098751 12.803345 30.495478 0.812741 1.137523 0.015112 -0.003998 19438.300000 0 0 1
-18.179629 -21.134151 13.311345 30.892445 0.860409 1.125314 0.013448 -0.002035 17693.800000 0 0 1
-18.062629 -22.192751 12.407845 31.188642 0.887638 1.161644 -0.001124 -0.001463 -396910.000000 0 0 1
-17.322129 -23.423651 12.999145 31.901432 0.934040 1.151105 0.003144 -0.006406 -189407.000000 0 0 1
-17.277129 -24.553051 12.156445 32.390286 0.957615 1.186064 0.006771 -0.020167 163392.000000 0 0 1
-16.279429 -24.558051 11.155945 31.505123 0.985409 1.208845 0.002431 -0.014920 -382452.000000 0 0 1
-16.548629 -25.649741 10.152345 32.168874 0.997819 1.249712 0.005129 -0.015542 213894.000000 0 0 1
-17.770429 -25.582621 9.402245 32.537069 0.963684 1.277645 0.007892 -0.015993 204123.000000 0 0 1
-17.885229 -26.633251 8.481045 33.183424 0.979429 1.312348 0.011733 -0.018565 -622829.000000 0 0 1
-19.141629 -26.585671 7.671145 33.645896 0.946775 1.340777 0.010053 -0.020765 -608235.000000 0 0 1
-19.004329 -25.474151 6.847445 32.511296 0.929845 1.358590 0.010009 -0.020938 -594443.000000 0 0 1
-20.042229 -25.358501 5.944745 32.864639 0.901964 1.388909 0.017071 -0.019215 -499069.000000 0 0 1
-20.065129 -23.952851 5.306345 31.693939 0.873491 1.402580 0.017802 -0.017649 4142.860000 0 0 1
-20.969729 -23.948051 4.222945 32.110309 0.851607 1.438901 0.010985 -0.014915 56059.800000 0 0 1
-20.892529 -22.674851 3.572545 31.038842 0.826285 1.455442 0.013336 -0.018148 267343.000000 0 0 1
-21.624729 -22.714551 2.194045 31.438727 0.809972 1.500952 -0.002276 -0.010248 334648.000000 0 0 1
-20.917329 -23.611851 1.358945 31.573737 0.845836 1.527743 -0.008915 -0.018179 227006.000000 0 0 1
-21.441129 -23.566151 0.027945 31.860419 0.832578 1.569919 0.001135 -0.002402 -41331.900000 0 0 1
-20.652829 -24.455451 -0.981755 32.024557 0.869499 1.601457 0.005770 -0.003993 -203604.000000 0 0 1
-19.422029 -23.893251 -1.394055 30.822817 0.888259 1.616040 -0.003258 -0.005616 123553.000000 0 0 1
-18.856329 -24.398551 -2.616855 30.946702 0.912833 1.655457 -0.003594 0.003052 386273.000000 0 0 1
-18.456329 -25.917971 -2.642555 31.927424 0.951992 1.653659 0.019874 0.004955 -531678.000000 0 0 1
-19.525029 -26.776341 -3.005955 33.275140 0.940747 1.661256 0.021406 0.002822 -168292.000000 0 0 1
-19.045029 -28.060341 -3.392555 34.082331 0.974498 1.670501 0.024642 0.009433 -527462.000000 0 0 1
-20.003529 -28.962201 -4.224155 35.451287 0.966355 1.690234 0.021269 0.012496 103854.000000 0 0 1
-20.430729 -28.295131 -5.408755 35.316905 0.945419 1.724551 0.014951 0.011371 -421347.000000 0 0 1
-21.388929 -29.003451 -6.101355 36.550144 0.935368 1.738513 0.013468 0.002176 -387944.000000 0 0 1
-21.986629 -28.363741 -7.390555 36.640606 0.911382 1.773894 0.014493 0.010621 98777.900000 0 0 1
-21.008129 -28.364981 -8.417555 36.287310 0.933315 1.804898 0.030764 0.011668 274907.000000 0 0 1
-21.549029 -28.317361 -9.737655 36.892486 0.920303 1.837908 0.029748 0.009629 -38117.700000 0 0 1
-22.277229 -27.045961 -10.206555 36.495653 0.881782 1.854241 0.016558 0.012477 -336460.000000 0 0 1
-21.507429 -25.902501 -10.433855 35.247332 0.877838 1.871318 0.013641 0.013721 -243495.000000 0 0 1
-21.336629 -25.073101 -9.317855 34.215999 0.865735 1.846604 0.007509 0.019137 100412.000000 0 0 1
-20.987829 -23.633851 -9.700355 33.062740 0.844628 1.868570 -0.005457 0.019385 -510832.000000 0 0 1
-22.068129 -23.012851 -10.275355 33.498904 0.806351 1.882559 -0.001840 0.017791 -654261.000000 0 0 1
-21.698329 -21.734351 -10.584855 32.484437 0.786228 1.902701 -0.006175 0.020549 -87911.000000 0 0 1
-22.879029 -20.843751 -10.948755 32.829669 0.738882 1.910812 -0.008589 0.023359 -151113.000000 0 0 1
-23.626929 -21.075651 -12.188855 33.926141 0.728388 1.938289 -0.014668 0.021044 1709920.000000 0 0 1
-24.878729 -20.346651 -12.266255 34.400558 0.685521 1.935392 -0.006847 0.015616 853611.000000 0 0 1
-24.797629 -18.768551 -12.170055 33.395975 0.647883 1.943803 -0.008187 0.009050 -1313950.000000 0 0 1
-24.267629 -18.190951 -13.366855 33.143647 0.643243 1.985917 -0.004674 0.014615 433425.000000 0 0 1
-24.032629 -16.834251 -13.321355 32.224490 0.611045 1.996973 -0.010203 0.005557 -38204.400000 0 0 1
-22.888029 -16.369951 -12.401355 30.751110 0.620867 1.985896 -0.032115 0.011327 -1197530.000000 0 0 1
-23.357429 -16.251751 -11.075155 30.534374 0.607892 1.941972 -0.007974 0.003231 -358445.000000 0 0 1
-22.467029 -16.309651 -10.046655 29.524691 0.627922 1.918011 -0.019134 0.010036 -1070610.000000 0 0 1
-23.220429 -16.838551 -8.818055 30.008053 0.627414 1.869055 -0.019094 0.006202 326671.000000 0 0 1
-23.701629 -18.178751 -8.936155 31.178343 0.654282 1.861487 -0.020647 0.011324 153344.000000 0 0 1
-24.666729 -18.399051 -7.924355 31.776847 0.640876 1.822831 -0.006613 -0.001398 -173242.000000 0 0 1
-24.703729 -19.871751 -7.388155 32.553733 0.677420 1.799744 0.008536 0.007512 -70388.000000 0 0 1
-25.064729 -20.715951 -8.443455 33.595881 0.690691 1.824844 -0.000519 -0.003695 74330.800000 0 0 1
-25.391169 -22.003451 -7.941155 34.524271 0.714041 1.802891 0.006977 0.004939 116337.000000 0 0 1
-25.376489 -23.147451 -8.975555 35.501145 0.739494 1.826395 -0.002537 0.014320 1228.070000 0 0 1
-25.752629 -24.298751 -8.391655 36.387458 0.756359 1.803511 0.002018 0.014952 -418720.000000 0 0 1
-25.541239 -25.421121 -9.200055 37.191791 0.783041 1.820759 0.001839 0.019379 -159718.000000 0 0 1
-26.187679 -26.671291 -8.643855 38.364939 0.794547 1.798054 0.007507 0.007854 -622445.000000 0 0 1
-25.457689 -27.153131 -7.593555 37.987479 0.817613 1.772048 0.020253 0.000345 -221548.000000 0 0 1
-25.885119 -28.454881 -7.168855 39.129428 0.832653 1.755046 0.025869 -0.001915 33946.700000 0 0 1
-25.351369 -28.913031 -5.759255 38.882185 0.850939 1.719464 0.044710 -0.011201 -40197.100000 0 0 1
-25.940429 -28.253411 -4.627755 38.633887 0.828052 1.690870 0.027838 -0.012581 97177.600000 0 0 1
-25.367199 -28.545141 -3.344455 38.334126 0.844276 1.658152 0.024719 -0.010371 -95552.400000 0 0 1
-25.730999 -29.834031 -2.577155 39.481584 0.859106 1.636118 0.028608 -0.005703 -308441.000000 0 0 1
-25.448449 -30.970731 -3.371155 40.226539 0.882967 1.654699 0.042939 -0.008598 -56559.000000 0 0 1
-25.503689 -32.213871 -2.665455 41.173733 0.901138 1.635578 0.042911 -0.012044 201972.000000 0 0 1
-24.478029 -32.450741 -1.483955 40.674644 0.924540 1.607288 0.042454 -0.009581 1347840.000000 0 0 1
-23.127729 -32.126131 -1.900855 39.630713 0.946837 1.618779 0.038218 -0.020941 1051930.000000 0 0 1
-22.204729 -32.360221 -0.817455 39.254326 0.969410 1.591622 0.022189 -0.006236 742528.000000 0 0 1
-21.095029 -31.272161 -0.679955 37.728115 0.977347 1.588820 0.020702 -0.005990 253021.000000 0 0 1
-21.506729 -30.006581 -0.152055 36.918253 0.948928 1.574915 0.024605 -0.006553 -298834.000000 0 0 1
-21.913129 -29.133691 -1.138455 36.472637 0.925916 1.602015 0.030474 -0.013764 -388176.000000 0 0 1
-22.569629 -27.837211 -0.672955 35.843428 0.889522 1.589572 0.014333 -0.007626 582690.000000 0 0 1
-23.916429 -28.091451 -0.236855 36.894191 0.865503 1.577216 0.021755 -0.011867 813699.000000 0 0 1
-24.776229 -27.029821 0.159045 36.667398 0.828871 1.566459 0.025983 -0.012297 545055.000000 0 0 1
-24.193529 -26.154131 1.307345 35.652133 0.824320 1.534119 0.028891 -0.013172 -523282.000000 0 0 1
-24.145229 -26.768401 2.613945 36.143770 0.836875 1.498412 0.028136 -0.014322 -364524.000000 0 0 1
-23.562429 -26.003241 3.617045 35.276616 0.834602 1.468082 0.030989 -0.017085 214860.000000 0 0 1
-24.457829 -24.816951 4.141845 35.088764 0.792686 1.452481 0.026556 -0.014950 417534.000000 0 0 1
-24.773229 -23.801151 3.145545 34.497857 0.765389 1.479489 0.023305 -0.015769 -232158.000000 0 0 1
-25.598179 -22.780551 3.635945 34.459257 0.727223 1.465085 0.011014 -0.007412 -215837.000000 0 0 1
-25.819589 -21.655251 2.596145 33.798536 0.697905 1.493908 0.004805 -0.004905 -357504.000000 0 0 1
-24.738629 -20.779651 2.536245 32.407194 0.698641 1.492454 -0.005049 0.001394 -401449.000000 0 0 1
-24.881929 -19.754751 1.620945 31.811760 0.671035 1.519820 -0.010796 -0.000717 42702.400000 0 0 1
-23.644329 -18.844451 1.740345 30.285251 0.672907 1.513300 -0.008737 0.002262 -526835.000000 0 0 1
-22.446029 -19.446451 1.400145 29.731281 0.713918 1.523686 -0.010170 0.003011 -656544.000000 0 0 1
-21.355229 -18.574651 1.701745 28.354178 0.715874 1.510743 -0.016949 0.001840 77093.100000 0 0 1
-20.024529 -19.342851 1.645845 27.889720 0.768084 1.511749 -0.016196 -0.006551 -513080.000000 0 0 1
-19.717729 -19.761551 0.327745 27.918008 0.786508 1.559057 -0.026333 -0.003036 132312.000000 0 0 1
-18.612029 -20.655551 0.270445 27.805261 0.837392 1.561070 -0.011659 -0.000091 164967.000000 0 0 1
-18.246329 -21.100251 -1.131955 27.918282 0.857804 1.611353 -0.000043 -0.002139 -291732.000000 0 0 1
-17.780729 -20.029151 -1.888155 26.849327 0.844795 1.641179 -0.003820 -0.001454 -233292.000000 0 0 1
-17.716529 -20.409451 -3.252055 27.221259 0.855913 1.690550 0.006185 0.004146 -274287.000000 0 0 1
-17.062529 -19.451451 -4.191055 26.211711 0.850730 1.731378 0.007242 0.006199 -765964.000000 0 0 1
-15.688829 -19.296751 -4.061855 25.199259 0.888161 1.732692 0.030825 -0.005955 -605049.000000 0 0 1
-15.126029 -18.795951 -5.257255 24.692575 0.893166 1.785347 0.045022 0.000366 535170.000000 0 1 0
-13.624429 -18.387951 -5.382955 23.509956 0.933117 1.801811 0.060054 -0.015260 1002990.000000 0 1 0
-12.695329 -19.484451 -5.339755 23.860599 0.993324 1.796497 0.044911 -0.017064 1338180.000000 0 1 0
-11.437829 -19.148751 -5.995755 23.096486 1.032354 1.833400 0.042390 -0.025039 1386420.000000 0 1 0
-10.456429 -20.356551 -6.059955 23.673807 1.096277 1.829655 0.030642 -0.022838 64038.100000 0 1 0
-10.724329 -21.285651 -7.084255 24.865173 1.104090 1.859705 0.025727 -0.014910 -314842.000000 0 1 0
-9.662729 -22.185951 -7.265255 25.265959 1.160037 1.862465 0.024116 -0.008786 -376455.000000 0 0 1
-10.017629 -23.194451 -8.323755 26.601135 1.163098 1.889051 0.027336 0.006046 -280715.000000 0 0 1
-9.998229 -22.780951 -9.645855 26.682932 1.157224 1.940672 0.031513 -0.000941 -278994.000000 0 0 1
-10.370929 -23.801551 -10.486955 28.000826 1.159877 1.954679 0.029551 0.006510 -203291.000000 0 0 1
-11.172529 -23.288151 -11.704355 28.357633 1.123478 1.996258 0.044898 0.002896 70718.900000 0 0 1
-10.472929 -22.375251 -12.536255 27.703642 1.133027 2.040378 0.034012 0.006391 -245761.000000 0 0 1
-11.313229 -22.025651 -13.593255 28.247036 1.096297 2.072851 0.034700 0.001030 -99510.100000 0 0 1
-10.682029 -20.876351 -14.398755 27.518211 1.097848 2.121450 0.029342 0.003595 -27605.500000 0 0 1
-10.559929 -19.799251 -13.561355 26.218940 1.080826 2.114413 0.037251 0.001995 -73866.000000 0 0 1
-10.459429 -18.603151 -14.293255 25.686067 1.058605 2.160915 0.038364 0.011388 -159895.000000 0 0 1
-10.113029 -17.399151 -13.387755 24.170970 1.044287 2.157810 0.043314 -0.008079 -624494.000000 0 1 0
-11.084529 -16.978751 -12.429555 23.783158 0.992422 2.120718 0.044767 -0.014698 159346.000000 0 1 0
-10.656529 -15.972251 -11.489455 22.375925 0.982431 2.110025 0.047921 -0.026157 20004.600000 0 1 0
-10.323529 -14.539951 -11.996655 21.491979 0.953383 2.163002 0.048529 -0.017219 296016.000000 0 1 0
-11.470829 -13.812251 -12.411355 21.826588 0.877743 2.175641 0.043266 -0.010311 388314.000000 0 1 0
-11.460629 -13.901551 -13.841055 22.719462 0.881345 2.225868 0.044732 -0.004846 -119868.000000 0 1 0
-12.734129 -13.303651 -14.472455 23.422151 0.807268 2.236860 0.041832 -0.002198 -4886.720000 0 1 0
-12.796029 -11.950251 -14.366755 22.648411 0.751233 2.257949 0.029709 0.010175 -409983.000000 0 1 0
-13.827929 -11.445151 -15.185455 23.511724 0.691395 2.272955 0.010805 0.014186 79079.900000 0 1 0
-14.145729 -10.009851 -14.689155 22.717175 0.615824 2.273928 0.015252 0.010766 274276.000000 0 1 0
-12.974029 -9.218151 -14.714155 21.675011 0.617744 2.316996 0.021716 0.010887 302804.000000 0 1 0
-13.123129 -8.191851 -15.712655 22.050181 0.558045 2.363974 0.028374 -0.002834 156276.000000 0 1 0
-11.919229 -7.230951 -15.776755 21.053757 0.545304 2.417885 0.012578 0.002022 784841.000000 0 1 0
-10.637129 -7.710151 -16.180455 20.842315 0.627199 2.459614 0.009093 0.009966 403963.000000 0 1 0
-9.622929 -6.783751 -15.936855 19.814222 0.614045 2.505316 0.007797 0.012433 -96203.800000 0 1 0
11.340171 21.893949 15.927245 29.353392 1.092885 0.997263 0.023289 0.006051 -407414.000000 0 0 1
12.223771 21.969749 16.999245 30.349049 1.063060 0.976260 0.029663 -0.003240 -338662.000000 0 0 1
12.467171 20.627749 17.422045 29.739906 1.027156 0.944913 0.028973 -0.007284 -218836.000000 0 0 1
13.668271 20.583949 18.383145 30.797087 0.984624 0.931150 0.030232 -0.013626 284731.000000 0 0 1
14.903971 20.919549 17.765645 31.230978 0.951769 0.965693 0.014827 -0.003297 -929096.000000 0 0 1
15.969471 20.619449 18.571345 32.016879 0.911808 0.952008 0.019900 -0.003120 640577.000000 0 0 1
17.338771 21.305749 18.109745 32.901835 0.887693 0.987932 0.014409 -0.006066 328844.000000 0 0 1
17.412071 22.701249 18.392045 34.011678 0.916498 0.999460 0.020271 -0.008005 -101295.000000 0 0 1
18.644571 23.285249 18.025245 34.853010 0.895627 1.027245 0.017450 -0.004962 466246.000000 0 0 1
19.850971 22.969849 18.969245 35.798146 0.858105 1.012320 0.020472 -0.011156 -252015.000000 0 0 1
20.268971 21.616849 18.721945 35.051827 0.817567 1.007328 0.023769 -0.005214 -221272.000000 0 0 1
21.543271 21.432349 19.308045 36.003593 0.782817 1.004772 0.032619 -0.018293 -153927.000000 0 0 1
21.912271 19.979749 19.041845 35.241025 0.739300 0.999965 0.020850 -0.012539 -129352.000000 0 0 1
21.993671 19.673649 17.666245 34.392880 0.729776 1.031351 0.010488 -0.012162 35616.000000 0 0 1
21.709971 18.315649 17.301545 33.258522 0.700797 1.023695 0.002892 -0.005467 48557.200000 0 0 1
22.634071 17.206349 17.921845 33.608810 0.649995 1.008360 -0.005795 0.000319 752251.000000 0 0 1
23.953471 17.060149 17.408845 34.174337 0.618881 1.036294 -0.003521 -0.003741 384020.000000 0 0 1
24.711671 16.059149 18.018945 34.543383 0.576277 1.022033 -0.005723 -0.008649 -464089.000000 0 0 1
26.057771 15.860949 17.350945 35.094621 0.546780 1.053647 0.021723 -0.013582 -804844.000000 0 0 1
27.009871 16.946449 17.348545 36.299962 0.560335 1.072509 0.015309 -0.016681 2869910.000000 0 0 1
28.447771 16.620849 17.364845 37.243337 0.528764 1.085745 0.019065 -0.020509 2413100.000000 0 0 1
28.943571 15.538349 16.321745 36.682011 0.492691 1.109675 0.003755 -0.018444 -935701.000000 0 0 1
28.884871 15.914549 14.970445 36.217715 0.503584 1.144671 0.023739 -0.024457 13966.100000 0 0 1
29.215371 14.826049 14.124445 35.677017 0.469609 1.163751 0.048603 -0.030880 -64512.100000 0 0 1
28.708871 15.041949 12.691045 34.806926 0.482622 1.197580 0.020917 -0.010932 -475632.000000 0 0 1
29.294171 16.164349 12.056845 35.564057 0.504220 1.224924 0.014591 -0.009933 145736.000000 0 0 1
28.605271 16.723649 10.909045 34.884799 0.529045 1.252745 -0.003370 -0.001343 1594280.000000 0 0 1
27.171871 17.378649 11.229645 34.153081 0.569017 1.235760 -0.004542 0.003179 1005150.000000 0 0 1
27.095071 18.683849 11.761245 34.950765 0.603689 1.227589 -0.013648 0.004535 -32054.500000 0 0 1
27.781371 19.012049 12.932445 36.062594 0.600142 1.204017 -0.005667 0.004849 -708399.000000 0 0 1
27.001371 18.773749 14.198145 35.820594 0.607557 1.163239 -0.011125 0.002299 -229344.000000 0 0 1
25.744771 19.440649 14.169845 35.235161 0.646776 1.156932 -0.010544 0.010483 609605.000000 0 0 1
25.031771 19.351549 15.427645 35.200628 0.658109 1.117115 -0.002174 0.003929 -50093.000000 0 0 1
25.600871 20.172949 16.602545 36.578641 0.667368 1.099674 0.007936 -0.013473 -309435.000000 0 0 1
25.433971 21.593849 16.449945 37.199219 0.703923 1.112733 0.003950 -0.014514 816188.000000 0 0 1
24.110771 22.116749 16.691345 36.729836 0.742290 1.099058 0.006619 -0.015080 457767.000000 0 0 1
23.973171 23.634349 16.576645 37.524399 0.778281 1.113241 0.010539 -0.011788 -194150.000000 0 0 1
24.036671 24.032949 15.195745 37.232443 0.785321 1.150390 0.017846 -0.018050 43234.100000 0 0 1
24.271671 25.427849 15.084045 38.252031 0.808657 1.165454 0.027766 -0.019165 -402127.000000 0 0 1
24.143471 25.943249 13.642745 37.974779 0.821316 1.203324 0.012589 -0.009223 -477053.000000 0 0 1
22.816971 25.951349 13.196445 36.989631 0.849581 1.205998 0.020152 -0.004702 -303859.000000 0 0 1
22.700471 26.111749 11.792845 36.554152 0.855170 1.242308 0.018809 -0.010847 -282981.000000 0 0 1
22.124571 24.868649 11.034045 35.067028 0.843725 1.250702 0.029200 -0.009286 525666.000000 0 0 1
20.694971 24.737349 11.211045 34.145362 0.874140 1.236258 0.024239 -0.007379 1028720.000000 0 0 1
20.185071 23.436049 10.948945 32.811048 0.859788 1.230574 0.028590 -0.000497 -6589.750000 0 0 1
20.196171 22.918349 9.532845 32.000174 0.848453 1.268305 0.034849 0.004067 -88342.900000 0 0 1
19.062471 23.292049 8.734745 31.339960 0.884930 1.288346 0.039131 -0.003699 444444.000000 0 0 1
19.369171 23.595049 7.375845 31.405321 0.883441 1.333722 0.042301 -0.014148 -94980.600000 0 0 1
18.174071 24.063749 6.507145 30.849697 0.923946 1.358269 0.026439 -0.008906 -323045.000000 0 0 1
17.278371 23.021849 6.161145 29.436497 0.926962 1.359934 0.045662 0.000748 4943.300000 0 0 1
16.688671 23.255149 4.914845 29.042544 0.948334 1.400749 0.059923 -0.014255 1388330.000000 0 0 1
15.280971 24.033549 4.842345 28.888888 1.004455 1.402382 0.037943 -0.010560 1056690.000000 0 0 1
15.414571 25.397049 5.161745 30.153983 1.025287 1.398770 0.058429 -0.023699 255918.000000 0 0 1
14.231371 26.033349 5.613645 30.195698 1.070522 1.383800 0.039301 -0.023666 -63465.700000 0 0 1
14.107171 27.495349 5.010245 31.306693 1.096744 1.410068 0.040632 -0.025772 -109523.000000 0 0 1
13.871471 27.517049 3.589745 31.024054 1.103870 1.454828 0.035096 -0.022894 299692.000000 0 0 1
13.538171 28.831449 3.217945 32.013898 1.131794 1.470109 0.021385 -0.018912 -156710.000000 0 0 1
13.021471 28.890949 1.715145 31.736215 1.147351 1.516726 0.038328 -0.015913 -286199.000000 0 0 1
13.976671 28.599449 0.735645 31.840493 1.116226 1.547690 0.058261 -0.017549 -232642.000000 0 0 1
14.086171 27.228749 0.395045 30.659110 1.093383 1.557911 0.048880 -0.015982 -183803.000000 0 0 1
15.134171 26.842549 -0.650955 30.821897 1.057410 1.591918 0.057042 -0.017704 -263703.000000 0 0 1
14.858671 27.282049 -1.983855 31.129182 1.072084 1.634569 0.052733 -0.010603 -747588.000000 0 0 1
15.831971 27.104649 -2.947255 31.527759 1.042146 1.664414 0.052405 -0.010427 -615220.000000 0 0 1
15.354871 27.546049 -4.342855 31.834215 1.062270 1.707644 0.053883 -0.006754 238512.000000 0 0 1
14.393971 26.692649 -4.991055 30.734257 1.076245 1.733913 0.063757 -0.013433 197024.000000 0 0 1
14.219871 27.179149 -6.320555 31.318689 1.088769 1.774006 0.056727 -0.001323 215113.000000 0 0 1
12.934371 26.603549 -6.955155 30.387842 1.118258 1.801723 0.047427 -0.009806 134156.000000 0 0 1
12.913471 25.195249 -7.279255 29.232616 1.097170 1.822456 0.053850 -0.019070 18868.700000 0 0 1
11.679871 24.892149 -7.920455 28.614194 1.132075 1.851260 0.041535 0.000875 310446.000000 0 0 1
11.582771 23.397949 -8.293755 27.393630 1.111130 1.878386 0.038870 -0.006952 1103.310000 0 0 1
12.290371 23.120149 -9.504355 27.855471 1.082200 1.918992 0.027891 -0.004280 -47311.900000 0 0 1
11.881171 21.980249 -10.142855 26.966110 1.075246 1.956416 0.027967 -0.001858 -185006.000000 0 0 1
12.054471 21.900949 -11.641955 27.577109 1.067639 2.006623 0.020220 0.007108 10464.500000 0 0 1
11.885371 20.539849 -12.070055 26.623930 1.046224 2.041321 0.030193 0.006028 -132984.000000 0 0 1
11.956171 20.351049 -13.479255 27.180978 1.039621 2.089676 0.023668 0.009626 -8431.940000 0 0 1
13.353271 19.989549 -14.052555 27.845399 0.981862 2.099788 0.010006 0.007451 -202020.000000 0 0 1
14.248771 21.019549 -13.784155 28.893803 0.975069 2.068106 0.009962 0.008321 -1592550.000000 0 0 1
15.518271 20.517749 -13.977155 29.277220 0.923254 2.068498 0.015274 0.015815 -529779.000000 0 0 1
16.702071 21.459949 -13.604255 30.406650 0.909434 2.034664 0.017882 0.020466 84968.500000 0 0 1
16.900371 22.660649 -14.337655 31.696938 0.929987 2.040179 0.015510 0.015276 -416167.000000 0 0 1
15.905771 23.631249 -14.248755 31.850534 0.978365 2.034611 0.013276 0.010201 -316725.000000 0 0 1
16.433071 24.911049 -14.916655 33.363345 0.987653 2.034314 0.006373 0.007153 -225779.000000 0 0 1
16.477871 24.955549 -16.364755 34.089659 0.987222 2.071509 0.007570 0.000768 463982.000000 0 0 1
15.201371 25.070649 -17.009855 33.896228 1.025727 2.096500 0.016621 0.005862 283598.000000 0 0 1
15.359771 25.068049 -18.562255 34.769052 1.021074 2.133971 0.007081 0.009672 360656.000000 0 0 1
15.846271 23.841749 -19.132355 34.432257 0.984195 2.159943 0.007326 0.013406 -41005.400000 0 0 1
15.702371 23.854649 -20.565855 35.193226 0.988642 2.194899 0.008867 0.018725 -205869.000000 0 0 1
16.072071 22.583549 -21.332155 34.976978 0.952280 2.226720 0.015164 0.022198 -63097.400000 0 0 1
15.172071 21.495849 -21.134955 33.748327 0.956179 2.247533 0.027161 0.016140 423167.000000 0 0 1
15.669771 20.379049 -21.911655 33.778218 0.915299 2.276661 0.017547 0.019935 132862.000000 0 0 1
14.671371 19.225749 -22.120255 32.774750 0.918957 2.311649 0.017690 0.017975 -484242.000000 0 0 1
14.329171 18.513749 -20.934155 31.405778 0.912127 2.300395 0.021231 0.012369 122830.000000 0 0 1
13.537971 17.339949 -21.047455 30.445786 0.907911 2.334096 0.023730 0.001760 -272993.000000 0 0 1
12.069071 17.486449 -21.470555 30.206342 0.966681 2.361426 0.029990 0.000274 -1058120.000000 0 0 1
11.225871 17.554949 -20.358255 29.131683 1.001859 2.344565 0.012972 0.004163 639678.000000 0 0 1
9.872971 17.599849 -20.874155 29.033784 1.059571 2.373102 0.018029 0.007696 1068370.000000 0 0 1
8.741171 17.410249 -19.833255 27.800771 1.105494 2.365144 0.013921 -0.003598 -88391.100000 0 0 1
8.590271 16.064649 -19.391055 26.605991 1.079751 2.387398 0.010661 -0.007921 315841.000000 0 0 1
7.219171 15.732649 -19.189055 25.842843 1.140594 2.407634 0.011805 0.000929 34015.100000 0 0 1
6.944671 15.805449 -17.643755 24.684869 1.156805 2.367077 0.007817 -0.003020 -183569.000000 0 1 0
6.788971 17.126349 -17.106455 25.140262 1.193393 2.319160 0.012894 -0.001125 -225226.000000 0 0 1
6.319771 17.067949 -15.770155 24.082196 1.216178 2.284777 0.003714 -0.008544 -206362.000000 0 1 0
6.024071 18.490049 -15.193655 24.678300 1.255840 2.234031 -0.001904 -0.004978 -508935.000000 0 1 0
7.092971 19.383149 -15.029655 25.532474 1.219997 2.200182 -0.001799 0.000224 -565871.000000 0 0 1
7.487571 20.027049 -16.214855 26.834082 1.213014 2.219637 0.003969 0.011113 -158323.000000 0 0 1
8.668971 20.997149 -15.939955 27.750919 1.179250 2.182660 0.007692 0.016868 -35525.500000 0 0 1
8.508671 22.209849 -15.173955 28.212121 1.204940 2.138684 0.003121 0.013773 -239989.000000 0 0 1
8.278971 22.006449 -13.773855 27.249665 1.210968 2.100722 -0.007497 0.003649 -141912.000000 0 0 1
8.179671 23.391549 -13.030355 27.997531 1.234402 2.054895 0.006913 -0.001075 51080.100000 0 0 1
7.079771 24.203949 -13.473755 28.591894 1.286230 2.061497 0.008628 0.001310 494606.000000 0 0 1
6.556971 25.146249 -12.565355 28.865479 1.315723 2.021176 -0.004285 0.000472 -57662.500000 0 0 1
5.938671 24.708649 -11.197555 27.769955 1.334922 1.985835 -0.018580 0.000722 -820252.000000 0 0 1
6.834171 24.435349 -10.176255 27.337673 1.298081 1.952221 -0.013583 -0.003692 -335507.000000 0 0 1
6.184671 23.709949 -9.130855 26.149271 1.315635 1.927494 -0.006371 -0.001686 710538.000000 0 0 1
7.111371 23.458449 -7.845455 25.737552 1.276454 1.880551 -0.006206 -0.000122 595561.000000 0 0 1
7.271871 24.632549 -7.058855 26.635878 1.283736 1.839014 -0.004592 -0.004608 -293955.000000 0 0 1
8.294171 24.547849 -6.125855 26.625481 1.244961 1.802951 0.012611 -0.005223 -474456.000000 0 0 1
8.626571 25.926649 -5.504555 27.873087 1.249589 1.769589 0.008416 -0.006133 168502.000000 0 0 1
9.142171 26.909949 -6.421355 29.136892 1.243298 1.793006 0.019825 -0.007097 137383.000000 0 0 1
9.342471 28.104449 -5.668055 30.154082 1.249868 1.759891 0.025525 -0.007643 100071.000000 0 0 1
9.549471 29.280649 -6.673655 31.513275 1.255537 1.784185 0.026048 0.003057 -478794.000000 0 0 1
10.710571 29.188949 -7.417855 31.964600 1.219111 1.804996 0.026199 0.000729 -839274.000000 0 0 1
10.766571 30.189649 -8.392755 33.132647 1.228226 1.826894 0.025702 0.000104 503447.000000 0 0 1
12.188871 30.232449 -9.040755 33.827575 1.187559 1.841345 0.035054 -0.003102 122051.000000 0 0 1
13.163971 30.551349 -8.120855 34.243588 1.163956 1.810227 0.039547 -0.001923 -650543.000000 0 0 1
14.379371 30.894149 -8.799755 35.194466 1.135177 1.823510 0.034225 -0.007246 803681.000000 0 0 1
15.513371 31.252649 -7.793955 35.751063 1.110044 1.790567 0.031931 -0.003943 -85269.100000 0 0 1
16.193471 30.168949 -7.263955 35.002272 1.078175 1.779844 0.041902 -0.004121 280017.000000 0 0 1
17.357871 30.615249 -6.527855 35.793883 1.055019 1.754196 0.032445 0.001841 496194.000000 0 0 1
18.437671 29.561249 -6.436655 35.429447 1.013125 1.753486 0.027716 0.001892 -637550.000000 0 0 1
18.278371 28.711049 -5.286455 34.443719 1.003876 1.724886 0.054174 -0.007863 176890.000000 0 0 1
19.381771 27.827049 -5.217855 34.310694 0.962418 1.723465 0.040364 -0.004603 -48448.100000 0 0 1
19.427371 26.605149 -6.210055 33.523447 0.940081 1.757118 0.038525 0.003486 -185481.000000 0 0 1
19.614771 27.056649 -7.525455 34.255422 0.943520 1.792289 0.027527 0.008648 245201.000000 0 0 1
19.491671 26.025149 -8.466555 33.599348 0.927964 1.825528 0.027849 0.000484 -1251790.000000 0 0 1
19.931071 26.428349 -9.863355 34.539702 0.924641 1.860393 0.026679 0.000429 1118320.000000 0 0 1
21.363671 26.557949 -10.008955 35.523376 0.893368 1.856421 0.018279 0.002114 1020140.000000 0 0 1
22.069471 25.348649 -9.967255 35.056550 0.854443 1.859093 0.019873 0.007280 -1152700.000000 0 0 1
23.574671 25.560349 -9.743355 36.111349 0.825789 1.843996 0.006967 0.008564 -190235.000000 0 0 1
24.304771 25.757349 -10.937255 37.064626 0.814406 1.870342 0.004499 0.006364 1348200.000000 0 0 1
25.714371 25.965249 -10.611455 38.052937 0.790253 1.853404 -0.003782 0.017091 1798580.000000 0 0 1
26.634171 26.200949 -11.855455 39.197202 0.777199 1.878065 -0.000680 0.006224 211444.000000 0 0 1
26.332771 27.344649 -12.600355 39.998920 0.804247 1.891271 0.000540 0.003220 76512.400000 0 0 1
27.108071 27.271749 -13.785255 40.848856 0.788408 1.915024 -0.004561 0.006289 221442.000000 0 0 1
26.749871 28.403849 -14.792655 41.727172 0.815378 1.933185 -0.001530 0.007354 -93764.700000 0 0 1
27.288671 29.656549 -14.464555 42.818288 0.826956 1.915388 -0.001362 0.006292 452.431000 0 0 1
27.194071 30.502749 -15.612055 43.745531 0.842681 1.935726 0.003877 0.006991 -277839.000000 0 0 1
27.602671 31.967549 -15.422255 44.963069 0.858540 1.920903 0.000466 0.002060 -356301.000000 0 0 1
28.901671 32.173649 -14.949255 45.759485 0.838920 1.903598 -0.002737 -0.002345 -290288.000000 0 0 1
29.196471 33.524649 -14.961855 46.906216 0.854296 1.895443 0.002191 -0.010960 -254920.000000 0 0 1
14.659771 -32.663294 -29.009718 46.079967 -1.148928 2.251772 0.046024 -0.027418 489826.000000 0 0 1
15.883971 -33.118094 -28.417148 46.439670 -1.123588 2.229276 0.033400 -0.020268 701582.000000 0 0 1
16.083571 -32.431994 -27.197598 45.279408 -1.110421 2.215125 0.037471 -0.024168 -382774.000000 0 0 1
17.321671 -33.038594 -26.483318 45.748826 -1.087909 2.188157 0.005211 -0.011164 1138480.000000 0 0 1
18.624871 -32.567594 -26.901258 46.165048 -1.051307 2.192867 0.002079 -0.014718 1047790.000000 0 0 1
19.097271 -33.302694 -27.976908 47.502448 -1.050131 2.200564 0.002902 -0.012386 -2190300.000000 0 0 1
20.579471 -33.246394 -28.130858 48.168272 -1.016524 2.194459 0.021097 -0.005519 -1390250.000000 0 0 1
20.985171 -32.044294 -28.813688 47.931647 -0.990998 2.215725 0.018433 -0.016557 -380828.000000 0 0 1
22.213571 -31.594094 -28.343488 47.905979 -0.957998 2.203898 -0.008179 -0.008879 -625365.000000 0 0 1
22.635571 -30.275794 -29.115458 47.714805 -0.928804 2.227106 -0.023871 -0.000485 3831.340000 0 0 1
22.975271 -30.550194 -30.497178 48.900463 -0.925985 2.244210 -0.017173 -0.008029 -6310.980000 0 0 1
23.403071 -29.372594 -31.141748 48.787923 -0.898031 2.263095 -0.014908 -0.017133 11009.200000 0 0 1
23.744971 -29.626994 -32.633538 50.065259 -0.895163 2.280778 -0.003846 -0.004552 160742.000000 0 0 1
24.915171 -30.398094 -32.767938 51.171746 -0.884200 2.265753 0.015248 -0.023180 -416009.000000 0 0 1
25.150771 -30.701094 -34.120475 52.338564 -0.884449 2.280908 0.015938 -0.023114 236841.000000 0 0 1
26.484171 -31.427794 -34.396685 53.593371 -0.870556 2.267651 0.015360 -0.027509 492040.000000 0 0 1
27.658371 -30.659794 -34.480155 53.794884 -0.836819 2.266539 0.030303 -0.034698 335960.000000 0 0 1
28.896871 -31.360994 -34.517933 54.863729 -0.826268 2.251265 0.017765 -0.022425 1302420.000000 0 0 1
30.130671 -30.406094 34.315526 54.862949 -0.789948 0.895053 0.022253 -0.025687 526501.000000 0 0 1
30.178071 -29.775094 33.071757 53.768143 -0.778677 0.908308 0.015334 -0.020019 -137969.000000 0 0 1
31.410571 -29.102094 32.978465 54.047525 -0.747268 0.914514 0.015583 -0.022707 -231443.000000 0 0 1
31.556171 -28.219094 31.744295 52.913225 -0.729629 0.927381 0.024534 -0.019779 -40045.100000 0 0 1
32.658671 -27.310994 31.799455 53.138352 -0.696460 0.929259 -0.007407 -0.016863 447843.000000 0 0 1
32.683471 -26.338394 30.758165 52.038303 -0.678306 0.938414 0.027861 -0.011044 -47483.900000 0 0 1
33.333071 -26.820194 29.376675 51.898029 -0.677547 0.969095 0.012935 -0.002604 -296250.000000 0 0 1
32.701171 -27.889694 28.714605 51.688781 -0.706155 0.981798 0.022108 -0.012486 158849.000000 0 0 1
31.507871 -27.454194 28.084065 50.350704 -0.716756 0.979101 0.028014 -0.010917 -349904.000000 0 0 1
30.858671 -28.575794 27.316945 50.150264 -0.747007 0.994763 0.016512 -0.006375 -210737.000000 0 0 1
29.729971 -28.059794 26.629545 48.788890 -0.756505 0.993439 0.017062 0.003878 116191.000000 0 0 1
29.073571 -29.062294 25.857305 48.564283 -0.785204 1.009322 0.011908 0.009787 72404.800000 0 0 1
27.811371 -28.492394 25.163785 47.101007 -0.797493 1.007174 0.015662 0.019104 136608.000000 0 0 1
26.747371 -28.326194 26.105385 46.896548 -0.814058 0.980438 0.017704 0.013809 152295.000000 0 0 1
25.524071 -28.176294 25.391485 45.717712 -0.834747 0.981956 0.017470 0.027207 445929.000000 0 0 1
24.317671 -28.074294 26.358395 45.544265 -0.856978 0.953611 0.015103 0.022581 -41760.300000 0 0 1
24.123971 -26.792494 26.959605 45.018040 -0.837760 0.928717 0.016040 0.019035 155630.000000 0 0 1
22.917371 -26.667394 27.696825 44.760137 -0.860883 0.903603 0.026410 0.010811 66841.800000 0 0 1
22.781271 -25.427294 28.645535 44.565684 -0.840230 0.872686 0.021762 0.023620 -398379.000000 0 0 1
21.604671 -25.525494 29.426065 44.544426 -0.868398 0.849178 0.031078 0.017931 123589.000000 0 0 1
21.372871 -24.485094 30.378805 44.488102 -0.853161 0.819136 0.033261 0.012377 -341873.000000 0 0 1
20.905971 -23.113094 29.862065 43.162688 -0.835496 0.806750 0.028425 0.007632 -394738.000000 0 0 1
21.869771 -22.524694 28.992385 42.734144 -0.800149 0.825165 0.032501 0.010590 366275.000000 0 0 1
21.752471 -21.129594 28.740235 41.780747 -0.770874 0.812229 0.040147 0.010208 -273578.000000 0 0 1
22.598871 -20.302294 29.707325 42.490201 -0.731917 0.796578 0.044731 0.007481 -694228.000000 0 0 1
22.034271 -20.097394 30.996665 43.014039 -0.739458 0.766104 0.046439 0.010953 -145759.000000 0 0 1
22.828771 -19.294394 31.794485 43.638465 -0.701688 0.754537 0.035564 0.005583 -399273.000000 0 0 1
22.224171 -19.036094 33.198760 44.254314 -0.708284 0.722460 0.048348 0.007183 -97461.700000 0 0 1
22.437271 -20.033494 34.153598 45.510880 -0.728860 0.722055 0.033807 0.006647 178344.000000 0 0 1
21.861871 -19.741794 -33.628458 44.705179 -0.734483 2.422232 0.027354 0.008261 -246455.000000 0 0 1
21.738371 -21.009494 -32.747918 44.568842 -0.768349 2.396126 0.011532 0.021264 -553567.000000 0 0 1
22.950271 -21.448494 -32.233458 45.008317 -0.751586 2.369091 0.001932 0.021357 -540251.000000 0 0 1
22.709771 -22.324294 -31.161718 44.555139 -0.776839 2.345349 -0.015283 0.016693 -385716.000000 0 0 1
23.977371 -22.672694 -30.391508 44.862112 -0.757438 2.315077 -0.021854 0.018908 -760016.000000 0 0 1
24.856571 -23.491194 -31.091638 46.220939 -0.757165 2.308613 -0.003815 0.015009 -989546.000000 0 0 1
25.653971 -24.080594 -30.086438 46.294654 -0.753773 2.278236 -0.010310 0.004979 -1057630.000000 0 0 1
26.694271 -24.988794 -30.696138 47.741772 -0.752411 2.269156 0.003809 -0.002707 -742741.000000 0 0 1
27.693171 -24.251694 -31.399928 48.384004 -0.719242 2.277031 0.017345 -0.002141 -286189.000000 0 0 1
27.459171 -24.131994 -32.772288 49.095642 -0.720996 2.301668 0.016564 -0.004392 -303918.000000 0 0 1
28.024771 -25.261494 -33.597038 50.520212 -0.733587 2.298319 0.024722 -0.011942 -1264.520000 0 0 1
27.271971 -26.444594 -33.311788 50.524768 -0.769997 2.290705 0.032760 -0.010790 121901.000000 0 0 1
27.513971 -27.518294 -34.215882 51.817002 -0.785477 2.292043 0.037177 -0.019178 48972.600000 0 0 1
26.949471 -27.363194 33.373615 50.880414 -0.793015 0.855392 0.041364 -0.017856 35368.400000 0 0 1
27.509171 -26.358994 32.533535 50.099720 -0.764050 0.864033 0.044763 -0.020798 -157446.000000 0 0 1
27.068371 -26.481494 31.188135 49.057782 -0.774439 0.881826 0.044194 -0.010945 -375818.000000 0 0 1
28.167071 -25.978394 30.221315 48.801523 -0.744998 0.902984 0.040918 -0.006065 180241.000000 0 0 1
28.496471 -24.590794 30.209045 48.263261 -0.711960 0.894483 0.021651 -0.010144 205371.000000 0 0 1
29.050771 -24.106194 31.438355 49.126632 -0.692647 0.876369 0.023423 -0.008643 -1329900.000000 0 0 1
29.508971 -22.610894 31.395085 48.658845 -0.653813 0.869501 0.012507 -0.001245 645890.000000 0 0 1
30.844971 -22.310394 31.026245 49.110017 -0.626198 0.886962 0.009310 -0.009663 -74309.900000 0 0 1
31.864571 -22.839194 31.828205 50.497666 -0.621885 0.888869 0.006363 -0.011578 -2846430.000000 0 0 1
33.149071 -22.453194 31.271185 50.802498 -0.595356 0.907720 0.011752 -0.018120 -2213810.000000 0 0 1
33.306471 -22.878394 29.957875 50.301254 -0.601883 0.932822 0.017194 -0.016564 712381.000000 0 0 1
34.431271 -22.180494 29.365905 50.396856 -0.572284 0.948758 0.010826 -0.016914 828213.000000 0 0 1
34.939471 -22.697194 27.989285 50.192921 -0.576104 0.979263 0.011460 -0.017685 -169060.000000 0 0 1
-35.062789 -23.943794 28.010855 50.865631 0.599146 0.987614 0.011437 -0.010951 149574.000000 0 0 1
-34.528089 -24.165594 26.710435 49.896013 0.610647 1.005907 0.010185 0.000187 -129078.000000 0 0 1
-34.277589 -25.674594 26.526875 50.376710 0.642873 1.016235 0.008485 -0.004111 270056.000000 0 0 1
35.140071 -26.427494 26.456595 51.314602 -0.644819 1.029116 0.012515 -0.005172 645315.000000 0 0 1
35.311671 -27.744694 25.962405 51.872233 -0.665966 1.046612 0.008198 -0.001331 143341.000000 0 0 1
-34.760389 -28.791394 26.990005 52.589822 0.691750 1.031867 0.007300 -0.010271 -494214.000000 0 0 1
-34.573489 -30.081194 26.343695 52.860142 0.716028 1.049083 0.010132 -0.005496 17729.500000 0 0 1
-33.516889 -30.861694 26.836805 52.877595 0.744178 1.038484 0.011320 -0.013560 -499182.000000 0 0 1
-32.096089 -30.369694 26.650675 51.601702 0.757768 1.028074 0.025739 -0.013870 -1247880.000000 0 0 1
-31.553089 -30.234894 25.338895 50.515402 0.764067 1.045341 0.020352 -0.011876 410984.000000 0 0 1
-30.264789 -29.639094 25.323785 49.353089 0.774954 1.031987 0.013083 -0.009026 241243.000000 0 0 1
-29.644189 -29.490594 23.925545 48.175769 0.782801 1.051084 0.010269 -0.007088 -237749.000000 0 0 1
-29.472789 -30.757894 23.319045 48.564093 0.806731 1.069947 0.015641 -0.013559 325583.000000 0 0 1
-28.910389 -30.630494 22.040145 47.537414 0.814280 1.088700 0.010883 -0.011585 -501614.000000 0 0 1
-29.034489 -31.968694 21.214045 48.114807 0.833460 1.114190 0.010674 -0.007834 241081.000000 0 0 1
-28.232189 -33.085694 21.626845 48.574067 0.864387 1.109360 0.009607 -0.020609 908239.000000 0 0 1
-26.842289 -32.900194 21.307945 47.507470 0.886453 1.105690 0.019558 -0.019154 369614.000000 0 0 1
-26.058589 -34.214594 21.307045 47.996652 0.919899 1.110819 0.016592 -0.009565 -618798.000000 0 0 1
-26.304089 33.992449 20.279545 47.525273 -0.912223 1.129944 0.004224 -0.008966 -269941.000000 0 0 1
-27.523889 33.292749 20.326145 47.740169 -0.879972 1.130988 0.007930 -0.008785 -90992.600000 0 0 1
-27.615289 32.114049 21.378045 47.444042 -0.860575 1.103365 0.010681 0.000409 -238322.000000 0 0 1
-26.701489 31.084449 21.133845 46.106961 -0.861101 1.094641 -0.000995 0.000204 -184361.000000 0 0 1
-26.629889 30.146649 22.177045 45.932480 -0.847260 1.066926 0.001245 -0.002120 -18172.700000 0 0 1
-25.751089 28.918549 21.807945 44.440832 -0.843272 1.057882 0.003822 -0.001167 25295.800000 0 0 1
-24.384589 29.244549 21.812345 43.882003 -0.875773 1.050580 0.015365 -0.001869 -536805.000000 0 0 1
-23.561289 28.224849 21.278545 42.480029 -0.875210 1.046150 0.012320 -0.002989 792414.000000 0 0 1
-22.073689 28.622249 21.606845 42.111003 -0.913860 1.032012 0.008304 0.003462 582730.000000 0 0 1
-21.730489 28.605149 23.047945 42.681102 -0.921135 1.000355 0.008862 -0.000609 -453227.000000 0 0 1
-20.439789 29.089249 23.190745 42.447379 -0.958289 0.992807 0.035487 -0.002070 -578851.000000 0 0 1
-19.984489 29.235849 24.698355 43.175495 -0.971189 0.961799 0.030712 -0.002503 -442905.000000 0 0 1
-19.749189 27.973149 25.278595 42.562130 -0.956051 0.934871 0.040058 -0.006045 269243.000000 0 0 1
-19.541889 28.076749 26.677645 43.380710 -0.962749 0.908454 0.037833 -0.007468 100902.000000 0 0 1
-18.040289 28.265149 27.063395 43.090579 -1.002724 0.891741 0.034441 -0.010163 -84387.100000 0 0 1
-17.526089 29.534149 26.605845 43.443074 -1.035231 0.911665 0.017981 -0.006338 832007.000000 0 0 1
-16.138589 29.812749 26.860925 43.252322 -1.074633 0.900742 0.012457 0.004324 811942.000000 0 0 1
-15.806789 30.136049 28.335725 44.282607 -1.087730 0.876449 0.006916 0.010978 -487857.000000 0 0 1
-15.988489 28.947449 29.117475 44.061479 -1.066167 0.848862 0.001333 0.014354 12700.700000 0 0 1
-16.125589 29.366249 30.468455 45.285074 -1.068629 0.832790 -0.001280 0.016564 -216868.000000 0 0 1
-16.064089 28.148149 31.463385 45.169877 -1.052201 0.800209 -0.009935 0.022583 -600085.000000 0 0 1
-14.777189 27.601649 31.474955 44.394697 -1.079252 0.782745 -0.001825 0.024646 -338852.000000 0 0 1
-14.645689 26.425149 32.259925 44.198274 -1.064709 0.752634 -0.001316 0.020096 -151296.000000 0 0 1
-15.047689 26.440449 33.842699 45.506687 -1.053395 0.732229 -0.001687 0.023662 -25224.600000 0 0 1
-16.436689 26.463049 34.066350 46.162473 -1.014993 0.740745 0.001418 0.020850 -305111.000000 0 0 1
-16.656889 27.100649 -33.725308 46.360474 -1.019688 2.385407 0.002796 0.016219 -224726.000000 0 0 1
-17.862789 26.588049 -32.955558 45.957289 -0.979224 2.370416 -0.011821 0.018326 -570370.000000 0 0 1
-19.095789 26.827649 -33.544298 47.006296 -0.952198 2.365438 -0.006693 0.021321 -980347.000000 0 0 1
-20.215989 26.303549 -32.892238 46.716830 -0.915519 2.351919 0.011856 0.014603 103817.000000 0 0 1
-21.415789 26.550749 -33.884198 48.080320 -0.892045 2.352855 0.038939 0.001811 -846078.000000 0 0 1
-21.485589 25.735249 34.046725 47.781932 -0.875152 0.777679 0.040535 0.000118 106354.000000 0 0 1
-21.705889 24.297549 34.247343 47.269408 -0.841675 0.760467 0.040030 0.001614 -262744.000000 0 0 1
-21.936889 23.515649 32.912255 46.015534 -0.820118 0.773826 0.035279 0.014925 601545.000000 0 0 1
-23.238289 23.435749 32.302315 46.181078 -0.789629 0.796140 0.044112 -0.001308 467219.000000 0 0 1
-23.292589 22.808749 31.024585 45.003429 -0.774903 0.810160 0.048702 0.009242 984518.000000 0 0 1
-24.782889 22.664749 30.507115 45.371428 -0.740786 0.833369 0.044944 0.006312 1059920.000000 0 0 1
-25.422189 21.640249 31.247365 45.727299 -0.705210 0.818467 0.056187 0.002425 -29173.000000 0 0 1
-26.522989 21.199449 30.456185 45.612112 -0.674305 0.839653 0.046041 0.006186 181146.000000 0 0 1
-27.099189 19.831049 30.950955 45.668349 -0.631748 0.826121 0.068727 -0.002565 -99190.200000 0 0 1
-27.901789 19.902949 32.116135 46.968961 -0.619611 0.817875 0.057966 0.001169 -13005.700000 0 0 1
-28.051489 18.705049 32.964035 47.152863 -0.588103 0.796674 0.058112 -0.001098 20466.500000 0 0 1
-28.753389 17.430749 32.351875 46.660821 -0.544977 0.804681 0.046402 -0.004855 500740.000000 0 0 1
-30.159689 17.590649 32.208675 47.501963 -0.528013 0.825691 0.045100 -0.007455 349767.000000 0 0 1
-30.768089 16.436149 31.624105 47.084034 -0.490628 0.834359 0.028319 -0.002080 90915.900000 0 0 1
-32.305089 16.424949 31.728405 48.167306 -0.470371 0.851690 0.019777 -0.008134 -304151.000000 0 0 1
-32.759289 16.276649 33.044299 49.295294 -0.461129 0.836138 0.026444 -0.008163 95347.000000 0 0 1
-34.116989 16.677949 33.040258 50.336682 -0.454685 0.854779 0.027194 -0.013849 -88609.500000 0 0 1
-34.636389 16.815049 34.504133 51.700682 -0.451959 0.840108 0.035369 -0.016978 114381.000000 0 0 1
34.677171 17.325949 -34.472728 51.875463 0.463356 2.297659 0.025846 -0.017781 200344.000000 0 0 1
34.402271 17.750749 -33.111228 50.940738 0.476347 2.278374 0.023971 -0.019580 1024390.000000 0 0 1
32.873671 17.973549 -32.795648 49.792381 0.500342 2.289817 0.017479 -0.017339 1008650.000000 0 0 1
32.064671 16.824549 -33.008128 48.997399 0.483217 2.309961 0.020338 -0.017691 -140387.000000 0 0 1
30.855871 17.042349 -32.315238 47.820508 0.504624 2.312793 0.010071 -0.018314 -138095.000000 0 0 1
29.832571 15.888449 -32.480358 46.876420 0.489376 2.336290 0.007563 -0.014931 -93825.300000 0 0 1
29.437171 15.762349 -33.825478 47.530639 0.491609 2.362649 0.020179 -0.016961 -414196.000000 0 0 1
28.721171 14.605149 -34.120149 46.929741 0.470436 2.384808 0.016474 -0.014022 -87788.300000 0 0 1
29.529971 13.242449 -34.290376 47.150944 0.421557 2.385099 0.017575 -0.007270 238304.000000 0 0 1
30.019171 12.774649 -33.077528 46.459285 0.402336 2.363093 0.024034 -0.005641 127796.000000 0 0 1
30.785071 11.583449 -33.298958 46.805101 0.359882 2.362340 0.037266 -0.010442 128272.000000 0 0 1
18.455971 -21.851251 9.046322 29.998933 -0.869435 1.264473 0.012772 -0.016398 -481350.000000 0 0 1
17.668771 -22.740351 9.771722 30.410452 -0.910251 1.243665 -0.007481 -0.019615 -147822.000000 0 0 1
18.353271 -23.522851 10.745622 31.711756 -0.908226 1.225099 0.000854 -0.016969 -47182.600000 0 0 1
17.468271 -24.590251 11.405922 32.247728 -0.953142 1.209276 0.001289 -0.015238 116792.000000 0 0 1
16.896771 -25.643651 10.595422 32.486315 -0.988185 1.238568 0.004153 -0.018479 -487351.000000 0 0 1
15.728871 -26.110461 11.190322 32.471170 -1.028616 1.218959 0.020469 -0.018271 -809902.000000 0 0 1
15.068371 -27.052681 10.256722 32.620602 -1.062594 1.250946 0.041457 -0.019356 -467048.000000 0 0 1
14.687471 -26.388651 9.080022 31.536162 -1.062913 1.278738 0.032801 -0.022064 118304.000000 0 0 1
13.767171 -27.142761 8.289622 31.543340 -1.101395 1.304872 0.037463 -0.010190 174276.000000 0 0 1
13.407971 -26.454201 6.936722 30.458440 -1.101694 1.341036 0.033159 -0.016345 27540.100000 0 0 1
12.594271 -25.294841 7.105922 29.136554 -1.108831 1.324428 0.047086 -0.027714 59386.500000 0 0 1
12.290571 -24.700451 5.845822 28.201845 -1.109083 1.361997 0.048095 -0.010425 -225427.000000 0 0 1
11.551871 -23.409351 6.038822 26.793858 -1.112384 1.343462 0.047780 -0.006865 -374822.000000 0 0 1
11.208071 -22.777951 4.831322 25.841780 -1.113523 1.382732 0.041804 -0.004326 -293726.000000 0 0 1
10.485271 -21.616951 5.153122 24.572101 -1.119181 1.359514 0.043516 -0.004190 -193841.000000 0 1 0
9.695671 -21.014551 4.018622 23.489715 -1.138520 1.398871 0.032465 -0.004679 154669.000000 0 1 0
10.554671 -20.442551 3.035522 23.205891 -1.094187 1.439612 0.022042 0.000780 139537.000000 0 1 0
9.752671 -19.786151 2.072922 22.156339 -1.112842 1.477100 0.015674 0.005827 18123.200000 0 1 0
10.470271 -19.308551 0.785922 21.978726 -1.073914 1.535030 0.017761 0.011150 -240594.000000 0 1 0
11.382171 -18.273451 1.054122 21.554211 -1.013723 1.521871 0.001012 0.014026 -292392.000000 0 1 0
12.072771 -18.023851 -0.156878 21.694138 -0.980612 1.578028 -0.004071 0.010235 623494.000000 0 1 0
13.408071 -17.199451 0.021922 21.808209 -0.908641 1.569791 0.001766 0.020237 342764.000000 0 1 0
14.365671 -17.899851 0.762822 22.964300 -0.894497 1.537572 0.001100 0.007644 330270.000000 0 1 0
15.600971 -17.132751 0.638322 23.180356 -0.832159 1.543256 0.004172 0.000537 561957.000000 0 1 0
16.802271 -17.850451 1.215522 24.544498 -0.815637 1.521253 -0.002132 0.008138 -547812.000000 0 1 0
17.294571 -18.984451 0.444322 25.684801 -0.831945 1.553496 -0.001732 -0.002455 536275.000000 0 0 1
18.536371 -19.443351 0.974722 26.881053 -0.809274 1.534528 -0.004244 0.005380 470757.000000 0 0 1
18.890071 -20.853651 0.513822 28.142025 -0.834764 1.552537 -0.018994 0.004731 91036.300000 0 0 1
17.927471 -21.838551 0.875322 28.268051 -0.883435 1.539826 -0.009065 0.000904 190436.000000 0 0 1
18.119871 -22.989451 0.114322 29.272131 -0.903303 1.566891 -0.004882 -0.001424 -202723.000000 0 0 1
16.889671 -23.922751 0.263222 29.285291 -0.956049 1.561808 0.001560 -0.000324 -246119.000000 0 0 1
16.856971 -24.535951 1.548622 29.808868 -0.968827 1.518821 -0.006721 -0.001798 -46502.000000 0 0 1
15.804371 -25.456881 1.785322 30.016967 -1.015202 1.511284 0.002671 -0.001152 -432882.000000 0 0 1
15.733871 -26.176701 3.142822 30.702633 -1.029595 1.468253 0.014440 -0.011059 532966.000000 0 0 1
16.775871 -27.134491 3.269222 32.068649 -1.017066 1.468674 0.004161 -0.006178 728067.000000 0 0 1
18.075071 -26.655651 3.634222 32.410484 -0.974923 1.458429 0.002659 -0.006880 427317.000000 0 0 1
19.084671 -27.844601 3.785522 33.968760 -0.969937 1.459123 0.010124 0.000929 -199300.000000 0 0 1
19.577471 -28.263451 2.547222 34.475910 -0.965001 1.496845 0.018668 0.006878 27660.300000 0 0 1
20.597271 -29.263911 2.583922 35.878973 -0.957494 1.498716 0.035000 0.007800 177176.000000 0 0 1
20.196871 -30.686101 2.811422 36.843649 -0.988695 1.494415 0.026696 0.011305 -314809.000000 0 0 1
19.880571 -30.896381 4.165122 36.975285 -0.999033 1.457911 0.037606 0.005630 -61858.000000 0 0 1
19.351771 -32.228311 4.330922 37.840612 -1.030040 1.456093 0.017236 -0.001885 -185918.000000 0 0 1
18.916171 -32.595611 5.753522 38.123463 -1.044967 1.419299 0.025231 -0.002797 875948.000000 0 0 1
20.056771 -33.122541 6.485022 39.261079 -1.026319 1.404859 0.024881 -0.012833 1240770.000000 0 0 1
19.557571 -33.839261 7.633822 39.822976 -1.046744 1.377909 0.021923 -0.005822 -122721.000000 0 0 1
20.595671 -34.503763 8.517522 41.076021 -1.032651 1.361921 0.013845 -0.008778 -626220.000000 0 0 1
21.470771 -33.664251 9.157522 40.965058 -1.003052 1.345347 0.026583 -0.007528 -118398.000000 0 0 1
22.653671 -34.340136 9.553822 42.233982 -0.987643 1.342609 0.030868 -0.014497 432415.000000 0 0 1
23.605471 -33.596621 10.544022 42.392542 -0.958318 1.319434 0.032766 -0.014989 111332.000000 0 0 1
24.359271 -32.620461 9.843222 41.885052 -0.929380 1.333572 0.039151 -0.013806 -525477.000000 0 0 1
25.225171 -31.933811 10.657222 42.067255 -0.902232 1.314667 0.038946 -0.009105 -247692.000000 0 0 1
25.985571 -30.849441 9.844222 41.519232 -0.870769 1.331416 0.038354 -0.012877 187393.000000 0 0 1
25.143771 -29.744831 9.508622 40.092120 -0.869028 1.331345 0.033519 -0.010972 327003.000000 0 0 1
25.666071 -29.068071 8.393822 39.675637 -0.847473 1.357624 0.044619 -0.015347 -94113.200000 0 0 1
25.288271 -27.566691 8.334422 38.325992 -0.828479 1.351584 0.046948 -0.009712 185305.000000 0 0 1
25.952771 -26.774061 9.346422 38.441543 -0.800973 1.325201 0.032430 -0.012105 76520.400000 0 0 1
25.466671 -25.483911 9.351122 37.221291 -0.785737 1.316845 0.032217 -0.015726 -243089.000000 0 0 1
26.318071 -24.658151 10.317622 37.511579 -0.752847 1.292153 0.035223 -0.022900 -469160.000000 0 0 1
27.589671 -24.419851 9.797322 38.124881 -0.724527 1.310901 0.044883 -0.019549 -1219840.000000 0 0 1
28.411471 -23.778851 10.722722 38.569706 -0.696866 1.289076 0.033085 -0.022048 -1415910.000000 0 0 1
29.744971 -23.503551 10.139022 39.242579 -0.668718 1.309464 0.052168 -0.020465 -1223220.000000 0 0 1
29.645071 -22.748251 8.988322 38.433099 -0.654515 1.334741 0.057144 -0.020435 -75730.400000 0 0 1
30.891571 -22.648551 8.305322 39.194698 -0.632638 1.357279 0.050349 -0.026084 -221731.000000 0 0 1
30.797571 -21.980051 6.921322 38.464499 -0.619858 1.389870 0.051600 -0.009634 -317133.000000 0 0 1
30.455471 -20.639351 7.169822 37.482327 -0.595595 1.378325 0.047109 -0.002375 -79017.900000 0 0 1
30.647271 -19.838551 6.049822 37.005725 -0.574488 1.406576 0.035613 -0.001147 -72265.300000 0 0 1
30.257371 -18.400751 6.297922 35.968875 -0.546384 1.394795 0.039541 -0.000913 -84121.600000 0 0 1
31.129771 -17.765051 7.201722 36.558508 -0.518580 1.372508 0.037046 -0.000774 95314.000000 0 0 1
30.821571 -16.385351 7.214022 35.643949 -0.488622 1.366997 0.036523 -0.000752 122048.000000 0 0 1
31.302071 -15.772751 8.577922 36.085732 -0.466754 1.330789 0.033761 -0.019470 394747.000000 0 0 1
32.706871 -15.671851 8.722722 37.301906 -0.446838 1.334770 0.038854 -0.010136 -123379.000000 0 0 1
33.006071 -14.833751 9.774522 37.483092 -0.422376 1.306975 0.043214 -0.015923 40414.300000 0 0 1
34.521771 -14.742051 10.063722 38.863340 -0.403594 1.308860 0.031800 -0.016903 81449.200000 0 0 1
35.139771 -14.054351 8.998122 38.901086 -0.380468 1.337375 0.037994 -0.009164 -1497380.000000 0 0 1
-34.188489 -14.412651 8.810722 38.134055 0.398957 1.337644 0.035311 -0.015172 -875585.000000 0 0 1
-33.375289 -13.187451 8.220322 36.815655 0.376298 1.345615 0.036425 -0.011077 -354581.000000 0 0 1
-33.788489 -12.702151 6.949722 36.760104 0.359587 1.380596 0.045200 -0.011793 -325769.000000 0 0 1
-32.770289 -12.469951 6.017122 35.575234 0.363607 1.400841 0.039514 -0.004743 -534935.000000 0 0 1
-31.967089 -13.658451 5.514022 35.197337 0.403788 1.413488 0.030442 -0.004797 -478798.000000 0 0 1
-31.141289 -14.282051 6.455622 34.863045 0.430000 1.384551 0.029020 -0.003312 -717705.000000 0 0 1
-30.434489 -15.282451 5.891522 34.561850 0.465360 1.399497 0.017358 0.003519 -70940.000000 0 0 1
-29.503689 -16.142351 6.819422 34.315415 0.500637 1.370737 0.007287 -0.003488 501487.000000 0 0 1
-30.229589 -16.857351 7.827822 35.486239 0.508693 1.348380 0.019402 -0.009023 79316.100000 0 0 1
-30.167789 -16.157651 9.064522 35.402412 0.491715 1.311870 -0.000330 -0.005842 173788.000000 0 0 1
-31.068589 -16.838751 10.109722 36.756050 0.496670 1.292155 -0.015358 0.003604 -402895.000000 0 0 1
-32.445889 -16.593951 10.038822 37.800435 0.472753 1.301997 0.011360 -0.003943 -318156.000000 0 0 1
-33.252489 -17.272051 11.003122 39.052791 0.479064 1.285179 0.025453 -0.001768 95477.900000 0 0 1
-33.807189 -18.621751 10.444122 39.984689 0.503474 1.306528 0.028410 -0.010598 -680665.000000 0 0 1
-32.886689 -19.674851 10.148722 39.643797 0.539140 1.311917 0.027805 -0.010454 -472237.000000 0 0 1
-32.145589 -20.298451 11.166922 39.624060 0.563227 1.285104 0.011577 -0.010436 -608553.000000 0 0 1
-32.848389 -20.996851 12.437322 40.921527 0.568749 1.261980 0.046890 -0.013264 293419.000000 0 0 1
-33.288089 -22.331751 12.218222 41.905715 0.590902 1.274934 0.011729 -0.010544 272972.000000 0 0 1
-34.527189 -22.419951 11.503922 42.744838 0.575912 1.298307 0.021921 -0.012499 114393.000000 0 0 1
-35.051189 -23.834851 11.304322 43.868823 0.597177 1.310171 0.013929 -0.002097 -305992.000000 0 0 1
35.163771 -24.398851 12.534422 44.597157 -0.606596 1.285899 0.042684 0.000764 35963.900000 0 0 1
34.671171 -25.709431 12.380922 44.903810 -0.638053 1.291457 0.018292 0.013909 -185949.000000 0 0 1
33.753771 -26.140611 13.556222 44.793077 -0.658966 1.263334 0.030337 -0.006338 -241212.000000 0 0 1
32.580671 -25.377941 13.532122 43.458697 -0.661758 1.254153 0.024792 -0.000936 -128375.000000 0 0 1
31.875371 -25.123921 14.770522 43.190497 -0.667500 1.221767 0.015784 0.011145 -326904.000000 0 0 1
31.652571 -23.620251 15.111322 42.286565 -0.641087 1.205362 0.017014 0.006012 74677.400000 0 0 1
32.790671 -23.040351 15.731722 43.053141 -0.612502 1.196731 0.026416 0.000428 373238.000000 0 0 1
33.737071 -22.531651 14.778222 43.177090 -0.588829 1.221465 0.025955 -0.002225 413384.000000 0 0 1
34.881671 -21.727551 15.457922 43.906318 -0.557083 1.211019 0.024470 -0.006976 259064.000000 0 0 1
34.432871 -20.482051 16.046222 43.158061 -0.536617 1.189848 0.022333 0.003862 113954.000000 0 0 1
33.526971 -20.583451 17.117922 42.904073 -0.550604 1.160391 0.023961 0.005366 -46774.200000 0 0 1
33.467271 -19.249851 17.905922 42.558630 -0.521973 1.136541 0.011959 0.011392 110016.000000 0 0 1
32.924271 -18.113151 17.100222 41.285729 -0.502955 1.143741 0.021924 0.006063 337214.000000 0 0 1
33.023871 -16.830651 17.720622 41.083662 -0.471339 1.124830 0.004059 0.009856 -219980.000000 0 0 1
34.362271 -16.205051 18.167122 42.111918 -0.440666 1.124751 0.002001 -0.001596 -160948.000000 0 0 1
34.778071 -16.643351 19.456922 43.186655 -0.446348 1.103436 -0.002497 0.011701 361928.000000 0 0 1
-34.812889 -15.805651 19.923522 43.112673 0.426190 1.090404 0.000203 0.001041 29860.200000 0 0 1
-34.516589 -15.910951 21.439722 43.637312 0.431935 1.057196 -0.001849 -0.000599 -362615.000000 0 0 1
-33.764689 -17.016951 21.861422 43.675538 0.466832 1.046572 0.004137 -0.001364 87456.600000 0 0 1
-33.542889 -16.789151 23.238922 44.125372 0.464070 1.016134 0.003975 0.002373 -239031.000000 0 0 1
-32.589589 -17.897051 23.695622 44.089321 0.502202 1.003391 0.004643 0.006209 -679131.000000 0 0 1
-33.106589 -19.150251 23.379522 44.826113 0.524417 1.022118 0.006676 0.002135 -149473.000000 0 0 1
-32.302889 -20.227551 23.728922 44.896461 0.559450 1.013934 0.005647 0.006430 -80701.700000 0 0 1
-31.080289 -20.582351 22.799222 43.696934 0.584926 1.021886 -0.000632 0.019639 754576.000000 0 0 1
-29.975389 -19.679151 22.956922 42.577144 0.580938 1.001328 0.003462 0.023969 -262224.000000 0 0 1
-28.856889 -20.327751 22.405122 41.808217 0.613695 1.005220 -0.002452 0.019487 -783303.000000 0 0 1
-27.686289 -19.368651 22.581822 40.640053 0.610441 0.981647 0.010060 0.028643 -560730.000000 0 0 1
-27.387189 -19.055351 23.949022 41.069699 0.607885 0.948219 0.010494 0.025993 45655.000000 0 0 1
-26.090589 -18.528951 24.067622 40.041120 0.617524 0.925954 0.034919 0.013269 -295315.000000 0 0 1
-25.892089 -17.860951 25.427122 40.446908 0.603863 0.890975 0.037088 -0.001430 -367720.000000 0 0 1
-24.584289 -17.280751 25.410622 39.353670 0.612682 0.868858 0.037439 -0.001462 487019.000000 0 0 1
-24.305589 -16.499551 26.591322 39.624427 0.596381 0.835126 0.031921 -0.005518 54751.700000 0 0 1
-23.475489 -17.409851 27.521422 40.145114 0.638115 0.815440 0.029803 -0.002665 -441206.000000 0 0 1
-24.160089 -18.547251 27.995922 41.370063 0.654722 0.827499 0.028011 -0.000253 70928.800000 0 0 1
-23.257689 -19.263451 28.850222 41.765248 0.691738 0.808242 0.029985 -0.004918 223321.000000 0 0 1
-23.755189 -20.591351 29.533022 43.133654 0.714175 0.816623 0.033897 0.007180 -14784.900000 0 0 1
-24.713989 -20.410751 30.583422 44.302660 0.690323 0.808852 0.018944 0.004555 452053.000000 0 0 1
-25.078489 -21.642451 31.204322 45.508637 0.711986 0.815260 0.011306 0.009735 -85274.300000 0 0 1
-26.270289 -21.422151 32.206222 46.757645 0.684092 0.810977 0.017227 0.001625 -677457.000000 0 0 1
-26.031989 -20.543451 33.270322 46.974591 0.668097 0.783763 0.021611 0.000804 1023880.000000 0 0 1
-27.245089 -20.476951 34.058622 48.182882 0.644514 0.785745 0.026931 -0.006512 964831.000000 0 0 1
-28.457289 -19.727851 33.482622 48.167327 0.606177 0.802194 0.030437 -0.008603 -569622.000000 0 0 1
-29.080589 -20.412651 32.400422 48.084762 0.612023 0.831431 0.027329 -0.007773 -455600.000000 0 0 1
-29.940189 -19.589151 31.673522 47.784535 0.579375 0.846190 0.015293 -0.017349 -119834.000000 0 0 1
-30.951689 -20.353051 30.730822 48.131457 0.581682 0.878279 0.015966 -0.001582 -122410.000000 0 0 1
-31.685089 -19.468851 29.976022 47.765499 0.550976 0.892373 0.015993 -0.013728 -400354.000000 0 0 1
-32.479689 -20.173351 29.080422 48.037124 0.555795 0.920561 0.011162 -0.005692 -378129.000000 0 0 1
-33.155289 -19.244551 28.064622 47.510514 0.525911 0.938866 0.008392 -0.007042 -935256.000000 0 0 1
-34.212389 -19.892351 27.468822 48.173949 0.526658 0.964046 0.011418 -0.005630 -463830.000000 0 0 1
-34.844089 -18.941251 26.603522 47.755931 0.497916 0.979940 0.010643 -0.008197 -626524.000000 0 0 1
34.636171 -19.506651 25.791522 47.385403 -0.512911 0.995251 0.009184 -0.005664 170830.000000 0 0 1
33.504771 -19.657251 26.657322 47.112525 -0.530583 0.969366 0.006814 -0.008718 999840.000000 0 0 1
32.287171 -20.066951 26.015622 46.064699 -0.556089 0.970651 0.014659 -0.004134 673149.000000 0 0 1
31.087971 -20.305351 26.940022 45.875200 -0.578592 0.943144 0.010825 -0.005695 -122371.000000 0 0 1
30.547871 -19.109151 27.466222 45.307013 -0.558993 0.919492 0.003449 -0.014966 -344248.000000 0 0 1
29.473871 -19.322951 28.310622 45.205938 -0.580299 0.894051 0.001393 -0.004175 -782870.000000 0 0 1
-29.202999 -5.706651 34.450657 45.521739 0.192981 0.712399 -0.004692 -0.006387 89540.700000 0 0 1
-30.025779 -5.597751 33.310547 45.193747 0.184316 0.742085 0.001107 -0.005775 192853.000000 0 0 1
-29.659829 -4.455851 32.569475 44.275622 0.149117 0.744233 0.008285 -0.007194 -346590.000000 0 0 1
-30.209349 -4.381651 31.164835 43.623968 0.144038 0.775034 0.013889 -0.011244 -69575.600000 0 0 1
-29.868939 -5.473651 30.324635 42.915007 0.181245 0.786085 0.007678 -0.011220 -539992.000000 0 0 1
-28.555639 -5.395251 29.849515 41.659654 0.186737 0.772012 0.012039 -0.012234 -427394.000000 0 0 1
-28.249709 -6.361851 28.702315 40.771829 0.221505 0.789819 0.008361 -0.014344 -353425.000000 0 0 1
-28.931139 -6.125851 27.529365 40.403005 0.208657 0.821165 0.011930 -0.010748 -455926.000000 0 0 1
-28.463589 -6.943551 26.455635 39.475175 0.239272 0.836340 0.030129 -0.013203 206553.000000 0 0 1
-29.152959 -6.697051 25.073435 39.031047 0.225804 0.873174 0.021075 -0.004681 12287.700000 0 0 1
-28.777429 -5.461551 24.522875 38.201313 0.187555 0.873773 0.029977 -0.007263 -170552.000000 0 0 1
-29.601219 -5.269751 23.415145 38.108679 0.176179 0.909132 0.036138 -0.004293 -267495.000000 0 0 1
-29.399159 -3.932151 22.686445 37.342297 0.132961 0.917853 0.038813 -0.002512 892617.000000 0 0 1
-28.162709 -3.998651 21.950445 35.929784 0.141041 0.913566 0.037308 -0.001086 756708.000000 0 0 1
-27.621299 -2.729151 21.524645 35.123991 0.098486 0.911173 0.041161 0.002771 901265.000000 0 0 1
-26.126949 -2.866751 21.075145 33.689723 0.109287 0.894940 0.037702 0.005284 645357.000000 0 0 1
-25.997639 -3.629351 19.938045 32.963238 0.138707 0.921210 0.042020 0.003898 -433017.000000 0 0 1
-24.839329 -3.241151 19.246145 31.589736 0.129752 0.915678 0.041584 -0.001574 -498539.000000 0 0 1
-24.654429 -4.008151 17.966145 30.768304 0.161163 0.947251 0.033483 -0.001699 90835.500000 0 0 1
-25.515299 -3.606551 16.884045 30.807607 0.140418 0.990768 0.030353 0.002654 338656.000000 0 0 1
-25.183759 -4.357651 15.761145 30.027063 0.171338 1.018201 0.025743 -0.001632 305256.000000 0 0 1
-26.359279 -4.518451 14.743045 30.538261 0.169768 1.066978 0.028415 -0.007282 389250.000000 0 0 1
-26.572329 -3.429451 13.902145 30.184755 0.128351 1.092161 0.031478 -0.007165 635632.000000 0 0 1
-27.844809 -3.466851 13.232245 31.023294 0.123869 1.130148 0.033729 -0.012730 537924.000000 0 0 1
-28.085279 -2.123751 12.490945 30.810987 0.075474 1.153374 0.035113 -0.001042 -384126.000000 0 0 1
-27.239519 -1.796151 11.414345 29.588931 0.065844 1.174761 0.031009 -0.000300 59144.900000 0 0 1
-27.673279 -0.670351 10.674345 29.668188 0.024219 1.202753 0.026933 0.005100 766960.000000 0 0 1
-29.042379 -0.780751 9.849545 30.677074 0.026877 1.243935 0.013217 0.005454 1208320.000000 0 0 1
-28.989809 -1.466951 8.634045 30.283786 0.050559 1.281681 0.010096 -0.002775 -150933.000000 0 0 1
-30.301859 -1.676151 8.167645 31.428054 0.055259 1.307894 0.025617 -0.005251 -45782.100000 0 0 1
-30.302679 -2.372851 6.773745 31.141073 0.078146 1.351525 0.015952 -0.007856 -402446.000000 0 0 1
-29.837469 -1.614451 5.623745 30.405715 0.054055 1.384768 0.023306 -0.008123 570269.000000 0 0 1
-30.735019 -0.607151 5.139145 31.167625 0.019752 1.405153 0.023262 -0.004268 -191088.000000 0 0 1
-30.278779 0.064649 3.865145 30.524547 -0.002135 1.443831 0.013460 -0.005839 -288750.000000 0 0 1
-30.338049 -0.888851 2.811545 30.481012 0.029290 1.478426 0.008468 -0.013674 390005.000000 0 0 1
-29.960349 -0.282451 1.595745 30.004145 0.009427 1.517587 -0.002789 -0.013021 -173241.000000 0 0 1
-30.559329 -1.061351 0.419145 30.580627 0.034717 1.557090 -0.002081 -0.015975 -576924.000000 0 0 1
-31.906399 -0.797651 0.162345 31.916781 0.024995 1.565710 0.010771 -0.018377 -356577.000000 0 0 1
-32.248519 -1.400251 -1.094055 32.297440 0.043393 1.604677 0.018325 -0.021904 -369956.000000 0 0 1
-33.700989 -1.076251 -1.463955 33.749936 0.031924 1.614186 0.038963 -0.021725 25305.300000 0 0 1
-34.622281 -1.810051 -0.622755 34.675156 0.052232 1.588757 0.036918 -0.019089 379288.000000 0 0 1
34.693208 -1.343951 -0.718255 34.726658 -0.038719 1.591481 0.059097 -0.025184 367591.000000 0 0 1
33.612291 -2.342751 -0.145455 33.694150 -0.069587 1.575113 0.052272 -0.022644 154926.000000 0 0 1
33.681941 -2.622451 1.223445 33.806023 -0.077703 1.534598 0.043522 -0.026542 -201345.000000 0 0 1
32.782901 -3.615651 1.556745 33.018403 -0.109847 1.523631 0.046222 -0.019197 -896744.000000 0 0 1
33.000781 -4.274551 2.906545 33.403163 -0.128812 1.483672 0.046018 -0.015898 -177581.000000 0 0 1
32.813121 -3.458351 4.049845 33.242478 -0.105008 1.448666 0.030809 -0.016536 167935.000000 0 0 1
32.799001 -4.199751 5.249445 33.480876 -0.127352 1.413357 0.031805 -0.015670 -274565.000000 0 0 1
32.472621 -3.249251 6.343945 33.245667 -0.099729 1.378799 0.022310 -0.007390 -592722.000000 0 0 1
31.143571 -2.827451 6.392845 31.918411 -0.090539 1.369145 0.034712 -0.012757 -638201.000000 0 0 1
30.877851 -1.739651 7.320745 31.781462 -0.056280 1.338363 0.019737 -0.007780 -459709.000000 0 0 1
29.423641 -1.639051 7.750245 30.471354 -0.055648 1.313626 0.034299 -0.010421 -844735.000000 0 0 1
28.471911 -1.111751 6.813645 29.296953 -0.039027 1.336075 0.040195 -0.013971 2093920.000000 0 0 1
27.162951 -0.906951 7.455545 28.182150 -0.033377 1.303061 0.035907 -0.005692 1512770.000000 0 0 1
26.224921 -2.118851 7.599445 27.385901 -0.080620 1.289611 0.064456 -0.018482 -961542.000000 0 0 1
26.781241 -3.214251 8.291445 28.219042 -0.119447 1.272571 0.042694 -0.021410 175319.000000 0 0 1
25.993371 -4.366551 8.169945 27.594747 -0.166433 1.270222 0.057119 -0.031970 -306858.000000 0 0 1
26.345631 -5.561151 9.146945 28.437392 -0.208031 1.243323 0.032544 -0.020025 -197152.000000 0 0 1
25.780571 -5.266451 10.415045 28.299231 -0.201507 1.193904 0.022543 -0.019083 628436.000000 0 0 1
26.182231 -6.167651 11.392245 29.211853 -0.231349 1.170179 0.011871 -0.015511 176650.000000 0 0 1
25.110631 -6.252251 12.545745 28.758131 -0.244026 1.119369 0.012127 -0.014833 726314.000000 0 0 1
23.958231 -6.996251 12.165945 27.766068 -0.284118 1.117247 0.029737 -0.024594 -270917.000000 0 0 1
22.967031 -6.857551 13.116245 27.323001 -0.290156 1.070091 0.045208 -0.026363 318314.000000 0 0 1
21.892431 -8.034251 13.092445 26.743968 -0.351728 1.059226 0.056192 -0.026045 701524.000000 0 0 1
22.338531 -9.186251 13.757045 27.796644 -0.390149 1.053056 0.041004 -0.027826 617023.000000 0 0 1
21.292131 -10.178351 13.828645 27.352972 -0.445920 1.040762 0.069128 -0.038195 479528.000000 0 0 1
21.678831 -11.357351 14.767745 28.584041 -0.482577 1.027871 0.047185 -0.036633 -235788.000000 0 0 1
21.458931 -11.078351 16.153845 29.054471 -0.476569 0.981249 0.035529 -0.030727 361983.000000 0 0 1
21.971331 -12.186251 16.902045 30.280740 -0.506401 0.978608 0.039481 -0.031845 -108114.000000 0 0 1
21.631031 -12.112851 18.426645 30.889543 -0.510470 0.931621 0.046697 -0.028712 125560.000000 0 0 1
20.245231 -12.307951 18.689245 30.176860 -0.546240 0.902915 0.034675 -0.019583 172987.000000 0 0 1
19.943631 -12.550651 20.077845 30.957828 -0.561690 0.865112 0.044935 -0.013322 247531.000000 0 0 1
20.157331 -11.474851 21.177445 31.408189 -0.517513 0.830827 0.021038 -0.009785 -305723.000000 0 0 1
19.223231 -10.436151 21.215745 30.472179 -0.497370 0.800660 0.018664 -0.013928 -524731.000000 0 0 1
19.484531 -9.396151 20.266545 29.642325 -0.449336 0.817971 0.025485 0.000138 -971621.000000 0 0 1
20.351531 -8.188551 20.778645 30.215712 -0.382535 0.812512 0.025719 0.016504 -159112.000000 0 0 1
21.696431 -8.404351 21.064945 31.386305 -0.369563 0.835036 0.033749 0.006614 -423098.000000 0 0 1
22.456931 -8.485651 19.859445 31.156340 -0.361279 0.879661 0.031828 0.000451 -1590040.000000 0 0 1
23.827131 -9.079551 20.089645 32.461735 -0.364072 0.903491 0.034461 -0.005141 -993474.000000 0 0 1
23.898731 -10.351351 20.664045 33.246091 -0.408740 0.900079 0.024666 -0.016070 -274451.000000 0 0 1
25.128131 -10.967751 20.374045 34.158692 -0.411548 0.931722 0.013473 -0.018434 -117687.000000 0 0 1
25.175731 -12.512751 20.626845 34.869085 -0.461258 0.937815 -0.004764 -0.019346 -144323.000000 0 0 1
24.227031 -13.195651 19.821045 33.969811 -0.498739 0.947777 0.016354 -0.021351 170946.000000 0 0 1
24.323231 -14.610151 19.955245 34.688440 -0.540909 0.957861 0.006368 -0.021371 -17187.100000 0 0 1
23.346931 -15.276551 18.937245 33.720490 -0.579412 0.974485 0.031078 -0.029571 -3873.190000 0 0 1
23.760231 -15.138451 17.594345 33.215692 -0.567277 1.012550 0.024196 -0.026931 178925.000000 0 0 1
22.869731 -15.741951 16.677945 32.388076 -0.602852 1.029858 0.004138 -0.023712 -304326.000000 0 0 1
22.578431 -17.261051 16.725945 32.977062 -0.652712 1.038864 0.015859 -0.030264 -182965.000000 0 0 1
23.712431 -18.003551 16.321745 33.953005 -0.649392 1.069326 0.016407 -0.025281 145731.000000 0 0 1
23.670031 -19.333851 16.785345 34.868552 -0.684906 1.068557 0.023228 -0.018330 453189.000000 0 0 1
25.033331 -19.993051 16.384145 35.983745 -0.673922 1.098064 0.022235 -0.010653 591734.000000 0 0 1
25.186731 -20.262651 15.008445 35.639863 -0.677477 1.136123 0.027211 -0.022678 -75733.400000 0 0 1
25.816911 -21.499351 14.774945 36.701961 -0.694401 1.156479 0.016589 -0.015372 -203547.000000 0 0 1
26.095611 -21.649551 13.336645 36.435560 -0.692545 1.196053 0.016646 -0.027848 -347678.000000 0 0 1
24.957731 -21.826251 12.533545 35.445215 -0.718563 1.209376 0.008595 -0.018818 -6593.250000 0 0 1
25.192231 -21.545051 11.159845 34.976847 -0.707520 1.246055 0.026206 -0.014924 -578187.000000 0 0 1
23.906931 -21.735251 10.387745 33.939177 -0.737853 1.259735 0.009335 -0.013596 -580076.000000 0 0 1
23.473731 -23.068551 10.086645 34.422587 -0.776693 1.273408 0.007463 -0.015404 -557739.000000 0 0 1
22.188531 -22.922151 9.565545 33.305488 -0.801659 1.279487 -0.010310 -0.009539 -511441.000000 0 0 1
21.823331 -23.930751 8.442145 33.469515 -0.831425 1.315808 -0.009481 -0.007181 -308323.000000 0 0 1
21.812631 -25.219191 8.958245 34.526057 -0.857703 1.308330 -0.007490 -0.002963 38536.300000 0 0 1
21.436831 -26.187081 8.002345 34.775544 -0.884814 1.338601 0.002414 0.001119 -494461.000000 0 0 1
19.948231 -26.504241 7.965245 34.115273 -0.925606 1.335141 -0.001279 0.012622 -810379.000000 0 0 1
19.128231 -25.554051 7.308645 32.746221 -0.928230 1.345710 -0.002348 0.006638 -839828.000000 0 0 1
17.829631 -26.067281 7.419045 32.441349 -0.970900 1.340063 0.002167 -0.007841 -871298.000000 0 0 1
16.790931 -24.964251 7.468445 30.998820 -0.978698 1.327476 0.005909 -0.015863 -1036960.000000 0 0 1
16.655931 -24.363751 6.210745 30.159339 -0.971138 1.363381 0.014039 -0.017400 -89333.000000 0 0 1
16.140631 -23.095951 6.417745 28.898622 -0.960842 1.346851 0.030642 -0.015195 -493092.000000 0 0 1
15.600031 -22.494351 5.135245 27.851885 -0.964440 1.385358 0.033578 -0.012342 -82705.600000 0 0 1
15.004431 -21.213651 5.341345 26.527003 -0.955187 1.368055 0.051228 -0.010276 47891.000000 0 0 1
14.905231 -20.610351 4.098245 25.763309 -0.944675 1.411045 0.038923 -0.009028 166810.000000 0 0 1
14.315131 -19.170351 4.163345 24.284949 -0.929389 1.398508 0.041987 0.004198 353495.000000 0 1 0
15.256831 -18.211951 4.625145 24.204091 -0.873465 1.378524 0.032657 0.003365 -92653.700000 0 1 0
14.761131 -16.921451 4.536245 22.908601 -0.853479 1.371464 0.034054 0.009376 -352800.000000 0 1 0
15.801931 -15.794351 4.538245 22.798206 -0.785158 1.370396 0.027834 0.008371 -759539.000000 0 1 0
16.381431 -15.687851 5.841945 23.421961 -0.763774 1.318713 0.041372 -0.001070 549774.000000 0 1 0
17.342931 -14.597151 5.884645 23.419716 -0.699642 1.316805 0.037040 -0.006064 1338670.000000 0 1 0
18.766031 -14.934351 5.319045 24.566054 -0.672186 1.352548 0.055496 -0.012547 326628.000000 0 1 0
19.702331 -13.845351 5.331245 24.663693 -0.612554 1.352919 0.055087 -0.016465 -757450.000000 0 1 0
20.959731 -14.322851 5.003745 25.874540 -0.599464 1.376185 0.048094 -0.016932 -1092470.000000 0 0 1
21.886931 -13.122051 5.259245 26.055433 -0.540080 1.367552 0.046227 -0.019323 -781173.000000 0 0 1
21.955031 -12.728951 6.620745 26.227540 -0.525414 1.315601 0.064800 -0.023242 136428.000000 0 0 1
22.935631 -11.723651 6.780345 26.635695 -0.472531 1.313405 0.064577 -0.021327 24467.000000 0 0 1
23.026531 -11.172951 8.218845 26.881320 -0.451754 1.260075 0.063268 -0.026425 -97372.600000 0 0 1
23.577031 -11.975051 9.239145 28.011427 -0.469957 1.234668 0.050053 -0.029377 193142.000000 0 0 1
23.465531 -11.315651 10.451945 28.069881 -0.449326 1.189252 0.052071 -0.032616 -87564.200000 0 0 1
23.748631 -12.114351 11.719945 29.122364 -0.471701 1.156618 0.031289 -0.022962 -362066.000000 0 0 1
22.823931 -13.161151 11.928245 28.921112 -0.523065 1.145665 0.038143 -0.024794 -148263.000000 0 0 1
23.149431 -14.071051 12.933445 30.019404 -0.546161 1.125377 0.035238 -0.027378 -722495.000000 0 0 1
22.204231 -15.258351 13.060045 29.940105 -0.602071 1.119419 0.030739 -0.024820 -1325940.000000 0 0 1
20.980531 -14.795951 13.454545 28.984955 -0.614223 1.088076 0.037265 -0.029077 -1455050.000000 0 0 1
20.021431 -15.791951 13.615945 28.907393 -0.667845 1.080350 0.020765 -0.027357 1103990.000000 0 0 1
18.597431 -15.390751 14.179645 27.996463 -0.691330 1.039699 0.032919 -0.029260 952117.000000 0 0 1
18.735531 -14.951251 15.543845 28.568709 -0.673530 0.995497 0.026432 -0.033065 192987.000000 0 0 1
18.553731 -13.557451 15.739445 27.852747 -0.631043 0.970248 0.031621 -0.033193 -291639.000000 0 0 1
17.117731 -13.000851 15.774545 26.662241 -0.649551 0.937700 0.044900 -0.032340 -134936.000000 0 0 1
16.508131 -12.963551 14.470745 25.494597 -0.665702 0.967208 0.048606 -0.040086 893750.000000 0 0 1
15.076631 -12.927451 14.592945 24.645036 -0.708803 0.937103 0.065866 -0.026528 904720.000000 0 1 0
14.370631 -11.578251 14.349745 23.377042 -0.678200 0.909882 0.047675 -0.021733 -321376.000000 0 1 0
14.672831 -10.598751 15.278245 23.686499 -0.625561 0.869748 0.035574 -0.016901 24142.100000 0 1 0
14.389131 -9.248351 14.818345 22.631006 -0.571249 0.856904 0.038891 -0.016229 -1204950.000000 0 1 0
14.892031 -8.063151 15.631445 23.046237 -0.496248 0.825398 0.043253 -0.013874 607643.000000 0 1 0
16.328031 -8.064951 15.649145 24.011325 -0.458782 0.860920 0.037058 -0.018024 1064350.000000 0 1 0
16.926231 -8.928251 16.643445 25.361688 -0.485389 0.854967 0.037227 -0.015849 -150743.000000 0 0 1
18.484231 -8.988151 16.554045 26.391098 -0.452596 0.892768 0.034813 -0.017149 603257.000000 0 0 1
19.057331 -7.738051 16.893745 26.616872 -0.385703 0.883175 0.027984 -0.010110 -648269.000000 0 0 1
20.388831 -7.662651 16.518345 27.336356 -0.359495 0.921956 0.031571 -0.009481 -914451.000000 0 0 1
21.110531 -6.332651 16.740945 27.676998 -0.291435 0.921196 0.036608 0.006544 -224980.000000 0 0 1
21.647831 -6.247351 18.065145 28.879187 -0.280956 0.894970 0.034205 0.006493 398923.000000 0 0 1
21.783431 -4.929951 18.631745 29.085463 -0.222567 0.875535 0.030895 0.005899 -80407.600000 0 0 1
-5.664329 -33.556694 -5.753878 34.514394 1.403574 1.738288 0.002331 -0.004906 -154525.000000 0 0 1
-6.366329 -32.350194 -5.975878 33.507854 1.376485 1.750098 0.004119 -0.005293 -128922.000000 0 0 1
-5.899729 -31.242794 -5.260278 32.227154 1.384159 1.734755 0.008168 -0.008083 -894652.000000 0 0 1
-6.456329 -29.842694 -5.748578 31.069546 1.357735 1.756892 0.012701 -0.008832 1332950.000000 0 0 1
-7.849429 -29.577094 -5.465378 31.085179 1.311387 1.747534 0.007455 -0.004031 995575.000000 0 0 1
-8.714329 -30.354994 -6.279178 32.199274 1.291234 1.767064 0.002434 -0.002929 -478869.000000 0 0 1
-10.217029 -30.150694 -5.923478 32.381161 1.244075 1.754762 -0.002506 0.009605 286216.000000 0 0 1
-11.096629 -30.883794 -6.741178 33.502050 1.225858 1.773396 -0.004813 0.004106 -850591.000000 0 0 1
-12.390229 -30.508794 -6.373778 33.539966 1.185025 1.761994 0.003845 0.010551 -244777.000000 0 0 1
-13.500129 -31.090094 -7.295678 34.670943 1.161137 1.782807 0.020220 0.003156 244493.000000 0 0 1
-13.359629 -30.577694 -8.616678 34.463345 1.158883 1.823502 0.030990 -0.002300 257368.000000 0 0 1
-14.416629 -30.991794 -9.481678 35.471576 1.135394 1.841390 0.032729 0.002208 262537.000000 0 0 1
-14.505329 -30.156394 -10.780778 35.157330 1.122461 1.882461 0.028806 0.006876 -304893.000000 0 0 1
-14.981829 -28.845794 -10.424378 34.135065 1.091768 1.881140 0.033834 0.001886 504261.000000 0 0 1
-13.920729 -27.927194 -10.126878 32.806531 1.108377 1.884606 0.028321 0.002371 -65260.100000 0 0 1
-14.419029 -26.637494 -9.519078 31.750233 1.074653 1.875291 0.017861 0.019619 46321.900000 0 0 1
-14.802829 -25.707594 -10.510478 31.471801 1.048349 1.911303 0.031631 0.008528 56765.600000 0 0 1
-15.029529 -24.417694 -9.958178 30.352526 1.019045 1.905071 0.040101 0.011968 -334693.000000 0 0 1
-15.432029 -23.379994 -10.924678 30.068592 0.987387 1.942631 0.038788 0.000526 261411.000000 0 0 1
-16.705629 -23.769794 -11.449778 31.227849 0.958187 1.946205 0.042466 0.005144 337920.000000 0 0 1
-17.020529 -23.076794 -12.635978 31.335359 0.935304 1.985862 0.053001 -0.001240 209815.000000 0 0 1
-18.493929 -23.315694 -13.121578 32.524188 0.900218 1.986070 0.029942 0.007527 742459.000000 0 0 1
-18.893429 -24.619194 -13.595678 33.880803 0.916235 1.983710 0.049754 0.003023 6710.290000 0 0 1
-19.002129 -25.541094 -12.517978 34.207136 0.931157 1.945446 0.057184 -0.003831 -1084310.000000 0 0 1
-19.057429 -27.003594 -13.038078 35.529863 0.956231 1.946536 0.049341 -0.008095 50545.100000 0 0 1
-18.078429 -27.550194 -13.889678 35.759837 0.990075 1.969708 0.053008 -0.008643 -399295.000000 0 0 1
-16.732729 -27.605394 -13.515478 34.995859 1.025874 1.967307 0.050496 -0.011719 -328993.000000 0 0 1
-16.112729 -28.961094 -13.940478 35.954164 1.063085 1.968963 0.043611 -0.013830 -257875.000000 0 0 1
-16.074529 -29.164194 -15.305378 36.649628 1.067053 2.001614 0.055872 -0.020059 -91716.400000 0 0 1
-15.390629 -30.327194 -15.743978 37.476432 1.101178 2.004356 0.059395 -0.019336 105424.000000 0 0 1
-16.116529 -31.693394 -15.485578 38.781656 1.100361 1.981551 0.060275 -0.023101 48016.100000 0 0 1
-16.204429 -32.147594 -14.114178 38.668609 1.103903 1.944433 0.060506 -0.016329 102912.000000 0 0 1
-16.722529 -33.473194 -14.059778 39.972178 1.107485 1.930225 0.034995 -0.010596 -685347.000000 0 0 1
-17.138229 -33.750794 -12.619078 39.900828 1.100938 1.892582 0.045779 -0.012242 1027310.000000 0 0 1
-18.504429 -33.461694 -12.230578 40.145808 1.065650 1.880371 0.047287 -0.003295 1237200.000000 0 0 1
-18.966129 -32.071294 -12.326578 39.245719 1.036744 1.890291 0.050056 -0.004733 -217177.000000 0 0 1
-18.392229 -30.976294 -11.343878 37.768882 1.034984 1.875856 0.057573 -0.001639 -159273.000000 0 0 1
-18.766029 -31.146994 -9.968278 37.704981 1.028541 1.838353 0.049600 0.001239 148644.000000 0 0 1
-18.153829 -30.207894 -9.115778 36.402964 1.029669 1.823903 0.042418 0.007336 -148419.000000 0 0 1
-18.368529 -30.435794 -7.611078 36.354764 1.027795 1.781712 0.040462 0.008763 -256494.000000 0 0 1
-17.564329 -31.481694 -7.132678 36.748847 1.061891 1.766129 0.037193 0.006449 -165684.000000 0 0 1
-17.917529 -31.968594 -5.867078 37.114033 1.059948 1.729545 0.037771 -0.002311 83286.200000 0 0 1
-16.867029 -32.970694 -5.282678 37.409491 1.097931 1.712482 0.035054 -0.002069 -106455.000000 0 0 1
-15.700529 -32.385894 -4.802278 36.309979 1.119386 1.703443 0.027363 0.002732 -338744.000000 0 0 1
-15.675929 -32.185294 -3.367678 35.957880 1.117560 1.664590 0.020663 0.001769 1143480.000000 0 0 1
-14.335829 -31.461494 -2.871278 34.692734 1.143243 1.653654 0.017432 0.010336 1561140.000000 0 0 1
-13.111229 -32.142494 -3.064178 34.848722 1.183490 1.658838 0.003040 0.008031 92896.700000 0 0 1
-12.049529 -31.325294 -2.569578 33.661074 1.203585 1.647207 0.001056 0.009815 678801.000000 0 0 1
-10.648129 -31.988094 -2.592678 33.813352 1.249456 1.647548 0.007575 0.003336 -98877.200000 0 0 1
-10.672729 -33.182294 -1.837278 34.904833 1.259607 1.623457 0.006982 0.002748 29760.100000 0 0 1
-9.473729 -33.945594 -1.749178 35.286180 1.298636 1.620388 0.001821 -0.000565 863808.000000 0 0 1
-8.331129 -33.374494 -0.814578 34.408256 1.326170 1.594472 -0.003538 -0.000344 292806.000000 0 0 1
-8.752529 -33.252694 0.536822 34.389483 1.313421 1.555186 0.006967 -0.002931 -506780.000000 0 0 1
-7.751429 -32.852694 1.406722 33.784064 1.339089 1.529146 0.005583 -0.008477 64332.800000 0 0 1
-6.811729 -33.935894 2.016622 34.671477 1.372705 1.512600 0.012478 -0.009896 314826.000000 0 0 1
-7.551529 34.443749 2.978522 35.387413 -1.354969 1.486528 0.024119 -0.014192 132298.000000 0 0 1
-6.829429 33.403649 3.593622 34.283509 -1.369124 1.465783 0.025230 -0.012424 -278495.000000 0 0 1
-6.050729 33.856049 4.824622 34.729243 -1.393944 1.431425 0.033041 -0.012317 -317885.000000 0 0 1
-5.040629 -34.357894 4.547922 35.022227 1.425126 1.440570 0.035470 -0.012567 -883841.000000 0 0 1
-4.394929 -33.989894 5.697522 34.743201 1.442209 1.406063 0.027448 -0.015723 95665.700000 0 0 1
-3.161129 -33.063494 5.474322 33.662376 1.475478 1.407446 0.036695 -0.013017 207210.000000 0 0 1
-3.467729 -31.854294 4.859022 32.408815 1.462361 1.420300 0.022748 -0.006899 -73042.200000 0 0 1
-3.545329 -31.876994 3.438922 32.257375 1.460032 1.463984 0.015997 -0.012391 -53590.600000 0 0 1
-4.076029 -30.572294 2.755822 30.965686 1.438254 1.481682 0.006401 -0.009139 -222280.000000 0 0 1
-3.207229 -29.527594 2.979122 29.850298 1.462602 1.470828 0.005966 -0.000134 -386083.000000 0 0 1
-3.590029 -28.404094 2.189122 28.713640 1.445072 1.494482 0.005052 -0.000761 126003.000000 0 0 1
-2.889329 -27.096394 2.538622 27.367999 1.464566 1.477904 0.010315 -0.005406 -292355.000000 0 0 1
-3.215929 -26.014994 1.681622 26.266898 1.447802 1.506732 0.017800 -0.007610 -347515.000000 0 0 1
-3.088929 -24.679694 2.152122 24.965183 1.446283 1.484484 0.019431 -0.010141 -102586.000000 0 1 0
-4.074429 -24.162394 3.220622 24.714260 1.403741 1.440110 0.006909 -0.008511 -103261.000000 0 1 0
-3.980629 -24.767594 4.572022 25.498676 1.411440 1.390517 0.004869 -0.006644 46993.800000 0 0 1
-5.053529 -24.309694 5.377622 25.405082 1.365834 1.357508 -0.002957 -0.000376 310534.000000 0 0 1
-5.695029 -25.426694 6.256122 26.797186 1.350455 1.335160 -0.003841 -0.001934 -602448.000000 0 0 1
-4.897529 -25.711594 7.386722 27.196241 1.382572 1.295733 -0.004143 -0.003935 255091.000000 0 0 1
-5.549629 -26.740794 8.157822 28.502956 1.366167 1.280528 -0.007298 0.001874 367171.000000 0 0 1
-4.648029 -27.333594 9.272822 29.235505 1.402359 1.248045 -0.010781 0.004367 -37987.900000 0 0 1
-4.172829 -26.525394 10.322222 28.767295 1.414761 1.203795 -0.017438 0.004135 -348272.000000 0 0 1
-5.095729 -26.045694 11.261222 28.829841 1.377591 1.169502 -0.005509 0.003117 -347977.000000 0 0 1
-4.440329 -25.144494 12.328222 28.353962 1.396006 1.120983 -0.029183 0.005082 42869.800000 0 0 1
-3.675629 -25.748994 13.363222 29.242035 1.429006 1.096192 -0.039728 0.009357 681.827000 0 0 1
-3.270229 -24.743094 14.268022 28.748766 1.439391 1.051464 -0.025546 0.006942 141918.000000 0 0 1
-2.159529 -25.279794 15.217822 29.585700 1.485578 1.030530 -0.005391 0.003897 575757.000000 0 0 1
-2.759229 -25.940994 16.314322 30.768581 1.464829 1.011928 -0.015868 0.006145 440006.000000 0 0 1
-1.675029 -26.436994 17.086822 31.522688 1.507522 0.997924 -0.014474 0.007580 277721.000000 0 0 1
-2.072329 -27.070694 18.429322 32.813974 1.494393 0.974441 -0.012497 0.000106 -406823.000000 0 0 1
-2.321429 -26.036094 19.326922 32.508416 1.481870 0.934127 -0.008305 0.001968 -236509.000000 0 0 1
-2.691729 -26.454394 20.618822 33.648420 1.469396 0.911232 0.019793 -0.004939 10460.000000 0 0 1
-2.938529 -25.260194 21.517922 33.312660 1.454986 0.868545 0.022000 -0.005769 371.964000 0 0 1
-3.142329 -25.594494 22.878622 34.472941 1.448634 0.845083 0.052179 -0.012545 -121473.000000 0 0 1
-3.273829 -24.526394 23.802222 34.333769 1.438099 0.804794 0.035604 -0.009695 -295835.000000 0 0 1
-2.245729 -23.377794 23.876422 33.491015 1.475028 0.777143 0.029504 -0.000691 -10193.600000 0 0 1
-2.401729 -22.490094 22.781622 32.102569 1.464409 0.781793 0.027902 0.000531 662455.000000 0 0 1
-1.260029 -21.604594 22.675822 31.345479 1.512540 0.762059 0.020190 -0.003976 439376.000000 0 0 1
-1.463229 -20.521394 21.554422 29.797009 1.499614 0.762118 0.020380 0.008092 109221.000000 0 0 1
-2.279829 -19.377894 21.844022 29.289276 1.453684 0.729057 0.025876 -0.004132 1278510.000000 0 0 1
-3.666529 -19.652294 22.162622 29.846908 1.386347 0.733937 0.015967 -0.006500 550841.000000 0 0 1
-4.680029 -19.563994 21.000022 29.080121 1.335992 0.763900 0.001421 -0.005510 -426223.000000 0 0 1
-4.640429 -20.460594 19.891122 28.910659 1.347771 0.812039 0.005635 -0.005613 -120356.000000 0 0 1
-4.882229 -21.826094 20.241222 30.164907 1.350731 0.835214 0.010309 0.000822 -174891.000000 0 0 1
-5.031929 -22.723094 18.974422 30.028120 1.352868 0.886809 -0.009188 0.011473 -70915.300000 0 0 1
-5.295029 -24.082394 19.150722 31.220973 1.354369 0.910447 0.004309 0.006824 -257409.000000 0 0 1
-5.263129 -24.771394 17.896022 31.009516 1.361442 0.955606 -0.006658 0.003300 -177991.000000 0 0 1
-6.023629 -26.113394 17.904222 32.229716 1.344090 0.981809 0.000633 -0.004096 77370.400000 0 0 1
-7.395129 -25.920694 18.196022 32.521770 1.292881 0.977011 0.030096 -0.003653 -436078.000000 0 0 1
-8.060229 -27.127994 17.792422 33.428515 1.281985 1.009537 0.036808 -0.011937 -335635.000000 0 0 1
-9.545429 -27.117894 18.142022 33.994534 1.232343 1.007856 0.040281 -0.008765 -476661.000000 0 0 1
-10.269729 -26.413994 17.128522 33.114237 1.199983 1.027155 0.049234 -0.006724 710145.000000 0 0 1
-11.692829 -26.328294 17.268622 33.587298 1.152846 1.030790 0.043223 -0.009640 1083440.000000 0 0 1
-12.268329 -25.316694 18.327522 33.575958 1.119549 0.993390 0.040879 -0.013770 -466753.000000 0 0 1
-12.196229 -23.987694 17.917922 32.329698 1.100422 0.983365 0.035554 -0.011744 -171275.000000 0 0 1
-12.232329 -23.081494 19.025522 32.316493 1.083467 0.941316 0.026845 -0.002088 423574.000000 0 0 1
-10.797529 -22.709994 19.503522 31.823228 1.126979 0.911108 0.025459 0.002455 157889.000000 0 0 1
-10.218629 -23.712094 20.260722 32.820430 1.163900 0.905464 0.034215 0.002882 -138849.000000 0 0 1
-8.821429 -23.455994 20.315422 32.260155 1.211075 0.889581 0.012045 -0.002256 492266.000000 0 0 1
-8.063829 -24.317794 21.374022 33.365090 1.250605 0.875503 0.002972 -0.000288 236365.000000 0 0 1
-8.117429 -23.791394 22.690022 33.863847 1.241990 0.836538 0.005170 -0.004100 80360.000000 0 0 1
-7.311829 -24.683994 23.415422 34.800063 1.282813 0.832734 -0.003647 0.001952 -30064.400000 0 0 1
-7.278729 -24.348094 24.898522 35.577324 1.280308 0.795619 -0.005060 0.003864 -460790.000000 0 0 1
-6.531229 -25.187994 25.694922 36.569400 1.317085 0.791703 0.001898 0.002537 -323198.000000 0 0 1
-6.509929 -24.591794 26.970422 37.074778 1.312013 0.756183 0.009150 -0.002101 -436757.000000 0 0 1
-5.311829 -25.013394 27.828922 37.793310 1.361545 0.743144 0.010607 -0.010034 139387.000000 0 0 1
-4.094429 -24.581494 27.231122 36.912710 1.405746 0.741114 0.014508 -0.011341 231825.000000 0 0 1
-2.963629 -24.769294 28.060822 37.546115 1.451713 0.726702 0.027277 -0.013142 909322.000000 0 0 1
-1.647729 -24.020994 27.632222 36.650550 1.502308 0.716761 0.026474 -0.012285 43349.300000 0 0 1
-1.713629 -22.622594 27.713322 35.815450 1.495192 0.686008 0.022729 -0.008189 209412.000000 0 0 1
-0.583629 -21.961394 27.138022 34.915837 1.544227 0.680527 0.025750 -0.005228 595105.000000 0 0 1
0.578471 -21.663194 28.133122 35.511986 -1.544100 0.656366 0.031497 -0.007485 146037.000000 0 0 1
1.116771 -22.889094 28.612022 36.657954 -1.522044 0.675310 0.034918 -0.008572 -21209.900000 0 0 1
1.975371 -22.775094 29.725322 37.499357 -1.484279 0.655589 0.030464 -0.005922 178704.000000 0 0 1
2.495771 -24.120394 30.298222 38.807274 -1.467692 0.674954 0.039409 -0.013393 -173049.000000 0 0 1
3.240571 -24.906994 29.310422 38.600006 -1.441416 0.708502 0.021735 -0.020901 394580.000000 0 0 1
3.976471 -25.946494 29.875222 39.768854 -1.418723 0.720885 -0.009960 -0.008094 -558218.000000 0 0 1
5.289271 -25.499894 30.616022 40.194051 -1.366273 0.704855 -0.020832 -0.012656 -354366.000000 0 0 1
6.298671 -25.025894 29.777722 39.404078 -1.324231 0.714072 -0.033723 -0.004633 -191329.000000 0 0 1
6.950171 -25.989094 28.978222 39.540804 -1.309485 0.748267 -0.036267 -0.002068 -1848900.000000 0 0 1
8.015571 -25.385894 28.110522 38.715558 -1.264954 0.758195 -0.036788 -0.002653 -1018450.000000 0 0 1
7.668371 -24.361994 27.194822 37.307760 -1.265847 0.754036 -0.029801 -0.000720 -178223.000000 0 0 1
8.806371 -23.974694 26.452322 36.770415 -1.218776 0.767871 -0.039680 0.003111 -280439.000000 0 0 1
8.660171 -22.773394 25.486522 35.258883 -1.207408 0.762893 -0.018469 0.006076 -230603.000000 0 0 1
7.793271 -23.009894 24.400722 34.432332 -1.244231 0.783203 -0.012574 0.004597 -49716.500000 0 0 1
7.638671 -21.814594 23.661522 33.077083 -1.233976 0.773679 -0.008088 0.016349 251455.000000 0 0 1
6.959071 -22.162894 22.279122 32.186671 -1.266549 0.806285 0.008257 0.013538 -106032.000000 0 0 1
7.775771 -22.847894 21.420722 32.269741 -1.242764 0.844905 0.009511 0.017585 -531350.000000 0 0 1
7.140271 -22.946094 20.184122 31.383203 -1.269118 0.872191 0.019673 0.009337 66328.600000 0 0 1
7.853571 -23.962594 19.240022 31.718495 -1.254086 0.919036 0.037020 -0.003781 726036.000000 0 0 1
9.187871 -23.519294 18.994122 31.596690 -1.198374 0.925866 0.035823 -0.004935 -126710.000000 0 0 1
9.929771 -24.433294 18.223622 32.057551 -1.184782 0.966156 0.048823 -0.008179 981371.000000 0 0 1
11.379471 -23.868694 17.971022 31.971308 -1.125919 0.973876 0.045016 -0.008319 1019120.000000 0 0 1
11.185071 -22.694194 17.206222 30.597162 -1.112877 0.973575 0.048022 -0.012462 -374246.000000 0 0 1
12.145971 -22.721494 16.217822 30.443532 -1.079886 1.008987 0.045979 -0.008608 -404279.000000 0 0 1
-12.070129 22.595149 11.759022 28.186936 -1.080171 1.140456 0.012638 0.007372 -266715.000000 0 0 1
-13.150929 21.884549 11.210222 27.884575 -1.029698 1.157072 0.000052 0.002911 -140900.000000 0 0 1
-12.707929 20.613249 10.850522 26.535473 -1.018338 1.149541 0.025006 -0.003369 -165562.000000 0 0 1
-13.719529 19.864649 9.979822 26.123296 -0.966373 1.178807 0.022204 -0.004164 -495893.000000 0 0 1
-13.804029 20.463949 8.703222 26.173851 -0.977353 1.231826 0.022380 -0.007981 463805.000000 0 0 1
-14.517529 19.733049 7.654522 25.666000 -0.936513 1.267952 0.028753 -0.010284 1042810.000000 0 0 1
-16.080829 19.740849 7.743822 26.613173 -0.887218 1.275548 0.016187 -0.010098 280514.000000 0 0 1
-16.501729 18.823049 8.748222 26.516893 -0.851017 1.234587 0.008788 -0.013764 -487900.000000 0 0 1
-17.880729 18.910149 8.960022 27.524466 -0.813371 1.239225 0.019799 -0.012215 -568179.000000 0 0 1
-18.336129 17.839149 9.973522 27.457604 -0.771661 1.199060 0.012135 -0.017892 -312802.000000 0 0 1
-18.308029 16.531249 9.447222 26.414317 -0.734443 1.205040 0.011629 -0.016282 78622.700000 0 0 1
-18.845429 15.564949 10.323422 26.532826 -0.690351 1.171162 0.022293 -0.023916 -223209.000000 0 0 1
-17.861029 15.111449 11.461722 26.052703 -0.702200 1.115260 0.024374 -0.012624 348017.000000 0 0 1
-16.821429 14.325649 10.888422 24.632142 -0.705440 1.112923 0.010997 0.005614 28001.600000 0 1 0
-16.181729 13.317149 11.627922 23.966714 -0.688594 1.064239 0.003701 -0.000779 114554.000000 0 1 0
-17.089729 12.169049 12.120622 24.229199 -0.618779 1.046911 0.022412 -0.010863 252966.000000 0 1 0
-17.848829 11.464749 11.107622 23.945781 -0.570961 1.088443 0.008245 -0.008366 441433.000000 0 1 0
-18.940029 10.794449 11.709522 24.745863 -0.518014 1.077887 0.026720 -0.011628 559787.000000 0 1 0
-19.974629 10.097749 10.757422 24.832891 -0.468061 1.122764 0.033170 -0.006888 110058.000000 0 1 0
-19.422229 8.928149 10.078622 23.632889 -0.430880 1.130214 0.022674 -0.006315 305901.000000 0 1 0
-18.810329 9.141749 8.851022 22.709924 -0.452382 1.170444 0.027456 -0.007945 -290244.000000 0 1 0
-19.733429 9.509649 7.616222 23.191561 -0.449068 1.236182 0.033395 -0.015932 86875.600000 0 1 0
-20.325029 8.391849 7.076522 23.099937 -0.391562 1.259447 0.024135 -0.017297 342795.000000 0 1 0
-21.231629 8.628149 6.002822 23.690946 -0.385996 1.314623 0.034894 -0.009917 242934.000000 0 1 0
-21.539729 7.289049 5.272722 23.342917 -0.326304 1.342949 0.047507 -0.002885 -84121.000000 0 1 0
-22.241729 6.344249 6.086622 23.916333 -0.277862 1.313469 0.031024 0.007395 509980.000000 0 1 0
-21.906129 5.043049 5.684822 23.186807 -0.226270 1.323096 0.028640 -0.000885 397924.000000 0 1 0
-23.067929 3.970249 5.859922 24.129462 -0.170441 1.325490 0.058878 0.002888 532042.000000 0 1 0
-24.154329 4.095149 4.969122 24.997881 -0.167944 1.370682 0.050508 0.004221 -3312.240000 0 1 0
-24.763829 2.867549 4.792622 25.385809 -0.115282 1.380865 0.038103 -0.001596 -529949.000000 0 0 1
-25.937569 2.899049 3.777922 26.371095 -0.111308 1.427042 0.043860 -0.007416 -10238.900000 0 0 1
-25.557569 2.975149 2.399322 25.841780 -0.115888 1.477816 0.043549 -0.003183 161649.000000 0 0 1
-26.683839 2.947849 1.580922 26.892683 -0.110027 1.511976 0.041595 -0.003706 -242338.000000 0 0 1
-26.235999 3.041849 0.094422 26.411918 -0.115426 1.567221 0.051018 -0.004935 48036.100000 0 0 1
-25.598369 4.271449 -0.273078 25.953735 -0.165341 1.581318 0.057230 -0.008692 547222.000000 0 0 1
-25.421779 4.523149 -1.672478 25.875141 -0.176082 1.635478 0.074768 -0.006118 410723.000000 0 0 1
-26.740869 5.062149 -2.359878 27.317915 -0.187090 1.657290 0.067479 -0.011173 470026.000000 0 0 1
-27.720299 4.095549 -2.296678 28.115178 -0.146684 1.652576 0.037518 -0.010344 -629976.000000 0 0 1
-29.047869 4.539649 -2.402978 29.498499 -0.155028 1.652348 0.019519 0.004387 -186460.000000 0 0 1
-30.097049 3.439049 -2.515578 30.397164 -0.113772 1.653648 0.005430 0.009956 -384006.000000 0 0 1
-29.993109 2.667849 -3.700478 30.338054 -0.088715 1.693076 0.006749 0.006904 -346852.000000 0 0 1
-30.936289 1.682549 -3.732378 31.206019 -0.054334 1.690688 0.016315 -0.001171 -729724.000000 0 0 1
-31.099369 1.089549 -5.139078 31.539943 -0.035020 1.734465 0.018882 -0.004368 -311302.000000 0 0 1
-29.941159 0.402749 -5.561378 30.455938 -0.013451 1.754431 0.027592 -0.002726 196286.000000 0 0 1
-30.030299 -0.429151 -6.728178 30.777775 0.014290 1.791181 0.041528 -0.001669 -271707.000000 0 0 1
-30.313319 0.299249 -8.106378 31.379934 -0.009872 1.832089 0.042536 -0.000470 63806.200000 0 0 1
-31.631599 0.811249 -8.249578 32.699721 -0.025641 1.825835 0.035774 -0.004501 555178.000000 0 0 1
-31.804839 1.559249 -9.422578 33.207891 -0.048986 1.858494 0.063629 -0.007062 -790992.000000 0 0 1
-33.247129 1.997149 -9.609878 34.665688 -0.059998 1.851691 0.086987 -0.010451 -619134.000000 0 0 1
-33.681479 2.988249 -8.711678 34.917975 -0.088489 1.822950 0.055483 -0.005427 734099.000000 0 0 1
-35.006804 2.710649 -8.234278 36.064211 -0.077278 1.801151 0.058249 -0.008719 624049.000000 0 0 1
35.176444 3.620849 -7.076478 36.063406 0.102573 1.768301 0.069793 -0.005358 341385.000000 0 0 1
33.880341 3.297649 -6.572778 34.669199 0.097027 1.761536 0.080769 -0.012353 607714.000000 0 0 1
33.420761 4.106949 -5.500578 34.118479 0.122273 1.732723 0.073637 -0.022496 -919063.000000 0 0 1
31.971671 3.837149 -5.185678 32.615988 0.119446 1.730466 0.061854 -0.025029 -892543.000000 0 0 1
31.797461 2.510649 -4.775678 32.251961 0.078794 1.719417 0.082339 -0.030017 -215059.000000 0 0 1
30.451491 2.112749 -4.754778 30.892797 0.069270 1.725323 0.075078 -0.033381 -391931.000000 0 0 1
30.322531 0.861049 -3.855378 30.578771 0.028389 1.697213 0.071353 -0.020056 105816.000000 0 0 1
31.142091 -0.160751 -4.444078 31.457996 -0.005162 1.712541 0.078857 -0.030436 527473.000000 0 0 1
31.071921 -1.356051 -3.740578 31.325629 -0.043615 1.690491 0.073048 -0.024109 173439.000000 0 0 1
32.216991 -2.368851 -4.047678 32.556561 -0.073396 1.695446 0.077108 -0.030501 168410.000000 0 0 1
32.192261 -3.550051 -3.290078 32.554095 -0.109833 1.672034 0.055434 -0.013732 -100811.000000 0 0 1
33.396371 -4.258851 -3.441178 33.842238 -0.126840 1.672655 0.062513 -0.018519 -21227.200000 0 0 1
33.306331 -5.671351 -2.963878 33.915490 -0.168661 1.658298 0.059940 -0.012941 -94435.200000 0 0 1
33.133251 -5.836751 -1.567978 33.679942 -0.174371 1.617368 0.058827 -0.013910 75645.700000 0 0 1
33.394101 -7.189651 -1.129278 34.177951 -0.212060 1.603843 0.069132 -0.011897 -68421.600000 0 0 1
32.998681 -7.412351 0.355022 33.822802 -0.220958 1.560300 0.055810 -0.008452 -718493.000000 0 0 1
31.620151 -7.474651 0.527822 32.495891 -0.232128 1.554553 0.044435 -0.013528 -785202.000000 0 0 1
31.264911 -7.557951 1.866422 32.219572 -0.237189 1.512836 0.028467 -0.010386 -573020.000000 0 0 1
31.089051 -9.025251 2.343522 32.457300 -0.282537 1.498530 0.038030 -0.011620 -296572.000000 0 0 1
29.988781 -9.772951 1.894322 31.597880 -0.315034 1.510809 0.039577 -0.024116 1144100.000000 0 0 1
28.664071 -9.362451 2.315322 30.243101 -0.315702 1.494164 0.039904 -0.028326 197508.000000 0 0 1
27.599311 -10.449151 2.178322 29.591414 -0.361925 1.497116 0.039930 -0.028223 404772.000000 0 0 1
26.308601 -10.262251 2.830622 28.380780 -0.371919 1.470893 0.047101 -0.032905 1951690.000000 0 0 1
25.413331 -9.337851 2.196422 27.163525 -0.352126 1.489849 0.047175 -0.026544 7491.950000 0 0 1
24.809431 -9.696451 0.783322 26.648501 -0.372583 1.541397 0.043660 -0.022627 -1059060.000000 0 0 1
25.794511 -9.690051 -0.208878 27.555353 -0.359352 1.578377 0.042860 -0.022424 51666.800000 0 0 1
25.416731 -10.075551 -1.567678 27.385846 -0.377411 1.628072 0.049857 -0.006293 -173647.000000 0 0 1
24.644331 -11.407651 -1.830578 27.218166 -0.433523 1.638103 0.048725 -0.000527 -19145.400000 0 0 1
23.332231 -11.531151 -1.339878 26.060616 -0.459009 1.622233 0.030975 0.000517 -55571.900000 0 0 1
22.801031 -12.811451 -1.574578 26.201137 -0.511919 1.630928 0.019708 0.000142 21685.400000 0 0 1
21.271031 -12.792951 -1.357678 24.858794 -0.541467 1.625439 0.010487 -0.000559 250324.000000 0 1 0
20.445431 -12.318351 -2.454178 23.995425 -0.542255 1.673252 0.006555 0.003473 905687.000000 0 1 0
19.080731 -12.384951 -2.045378 22.839546 -0.575729 1.660471 0.006093 0.004204 119738.000000 0 1 0
18.151531 -12.078751 -3.224178 22.040182 -0.587153 1.717610 -0.000409 0.016199 -378114.000000 0 1 0
18.225631 -12.937151 -4.357878 22.771355 -0.617295 1.763360 -0.004677 0.010070 205796.000000 0 1 0
17.509631 -12.353951 -5.416378 22.103041 -0.614442 1.818369 0.000841 0.010361 -422236.000000 0 1 0
17.522531 -13.115051 -6.748078 22.903716 -0.642520 1.869863 -0.008216 0.008637 -419803.000000 0 1 0
16.739831 -14.286351 -6.808978 23.036578 -0.706485 1.870851 -0.011127 0.005049 278239.000000 0 1 0
16.907531 -14.868851 -8.096578 23.927012 -0.721329 1.915998 -0.004148 -0.001154 -634794.000000 0 1 0
16.019631 -16.058351 -8.295878 24.152035 -0.786605 1.921422 0.001990 -0.008053 -468180.000000 0 1 0
14.632531 -15.765751 -8.289378 23.051760 -0.822660 1.938634 0.008212 -0.003993 502398.000000 0 1 0
13.800331 -16.668251 -9.003778 23.438168 -0.879249 1.965084 0.009915 -0.004942 -58668.800000 0 1 0
13.831231 -16.543251 -10.599678 24.027802 -0.874448 2.027667 0.008332 -0.006647 -438007.000000 0 1 0
13.227931 -15.382951 -11.257578 23.202293 -0.860578 2.077380 0.011662 -0.001138 463827.000000 0 1 0
13.717531 -14.146551 -10.790278 22.466100 -0.800794 2.071783 0.015235 0.002036 -151354.000000 0 1 0
13.538031 -13.041751 -11.790878 22.189870 -0.766729 2.131005 0.025055 0.010473 149260.000000 0 1 0
14.490831 -13.086751 -12.854178 23.376850 -0.734528 2.153002 0.025496 0.009069 554090.000000 0 1 0
14.021631 -12.360351 -13.990878 23.347999 -0.722511 2.213338 0.028950 0.000375 -487504.000000 0 1 0
15.207131 -11.976451 -14.904978 24.430525 -0.667106 2.226979 0.025944 -0.003905 96372.500000 0 1 0
15.875531 -13.150351 -15.331578 25.690883 -0.691785 2.210267 0.023561 -0.001855 430211.000000 0 0 1
16.963931 -12.803051 -16.206378 26.727135 -0.646516 2.222277 0.021367 -0.009166 -356297.000000 0 0 1
17.948431 -13.919751 -16.311378 27.963667 -0.659648 2.193589 0.017816 -0.011042 -539788.000000 0 0 1
18.867531 -13.880151 -15.201878 27.923814 -0.634262 2.146477 0.006362 -0.017572 30381.800000 0 0 1
19.843631 -14.884851 -15.344378 29.168106 -0.643570 2.124766 0.002613 -0.010606 -676041.000000 0 0 1
20.883931 -14.765751 -14.240278 29.273734 -0.615434 2.078821 -0.005719 -0.012359 -626323.000000 0 0 1
21.644131 -13.558651 -14.462678 29.350885 -0.559631 2.086045 -0.003726 -0.011070 -301322.000000 0 0 1
22.515731 -13.350351 -13.404378 29.408627 -0.535208 2.044064 -0.000922 -0.011932 -491773.000000 0 0 1
22.915631 -11.880851 -13.580478 29.166936 -0.478307 2.055122 0.008194 -0.013862 -237488.000000 0 0 1
21.998231 -10.858751 -13.149178 27.834071 -0.458530 2.062823 0.001093 -0.000678 560614.000000 0 0 1
22.589931 -9.552151 -13.109278 27.810101 -0.400048 2.061657 0.004341 0.000960 -284966.000000 0 0 1
23.602731 -9.267251 -11.982878 28.045681 -0.374141 2.012260 0.010316 -0.000022 -636685.000000 0 0 1
24.785031 -9.923551 -12.284578 29.388526 -0.380838 2.002045 0.017648 -0.008293 -1000840.000000 0 0 1
25.766101 -9.791851 -11.313378 29.795382 -0.363172 1.960271 0.033594 -0.008196 -139800.000000 0 0 1
27.057351 -10.607151 -11.590178 31.288083 -0.373612 1.950273 0.057218 -0.014729 621626.000000 0 0 1
27.884651 -10.102251 -12.653378 32.244646 -0.347579 1.974055 0.041670 -0.009997 598930.000000 0 0 1
29.162631 -10.717451 -12.705978 33.567315 -0.352185 1.958996 0.038770 -0.012420 405758.000000 0 0 1
29.958491 -10.332151 -14.011078 34.649312 -0.332108 1.987084 0.021575 -0.007683 -71020.400000 0 0 1
29.427091 -10.757351 -15.260378 34.850443 -0.350468 2.024038 0.016788 -0.001750 310096.000000 0 0 1
30.067631 -10.154151 -16.403678 35.724639 -0.325685 2.047857 0.009465 0.003786 -82128.200000 0 0 1
29.498081 -10.774851 -17.693978 36.045957 -0.350216 2.083888 -0.004588 0.012462 417876.000000 0 0 1
28.169011 -10.427451 -18.043578 35.039914 -0.354533 2.111738 -0.011341 0.006631 263877.000000 0 0 1
28.072281 -9.218251 -18.743978 34.990939 -0.317282 2.136110 -0.012992 0.013046 -461620.000000 0 0 1
26.754751 -8.973951 -19.487578 34.294521 -0.323623 2.175164 -0.019359 0.005702 -201365.000000 0 0 1
26.543641 -9.750651 -20.631278 35.004138 -0.352042 2.201107 -0.019569 0.012123 226861.000000 0 0 1
25.221231 -9.571051 -21.094878 34.244844 -0.362696 2.234453 -0.002856 0.012236 -65995.800000 0 0 1
24.928831 -10.018051 -22.527578 35.061371 -0.382114 2.268577 0.007396 0.003770 -98209.900000 0 0 1
24.763431 -11.402351 -22.633778 35.433445 -0.431511 2.263693 -0.004034 0.002490 173706.000000 0 0 1
23.875031 -11.685151 -23.720378 35.626060 -0.455156 2.299382 0.011501 -0.001267 -728918.000000 0 0 1
24.095931 -13.097251 -24.301178 36.642859 -0.497875 2.295869 0.006994 0.004173 449981.000000 0 0 1
25.329331 -13.248751 -25.005478 37.978656 -0.481925 2.289499 0.007054 0.008961 222830.000000 0 0 1
26.463811 -13.225851 -24.144878 38.186798 -0.463465 2.255293 -0.009611 0.013797 -1097140.000000 0 0 1
27.632161 -13.847151 -24.943978 39.717527 -0.464547 2.249821 -0.009459 0.024668 -308184.000000 0 0 1
28.133291 -13.006751 -25.964888 40.433068 -0.433057 2.268122 -0.001736 0.011269 -1071680.000000 0 0 1
29.416851 -13.430551 -26.203838 41.621772 -0.428296 2.251797 -0.011291 0.010017 -1291600.000000 0 0 1
30.143171 -12.945851 -27.430658 42.762680 -0.405658 2.267200 0.003119 0.000579 -164427.000000 0 0 1
29.839261 -13.625951 -28.642988 43.548465 -0.428366 2.288593 0.009461 0.002868 8347.470000 0 0 1
30.693831 -13.252851 -29.682338 44.707835 -0.407596 2.296842 0.005714 -0.005112 -101371.000000 0 0 1
30.518051 -14.213851 -30.877688 45.681688 -0.435876 2.313024 0.010066 -0.005168 -50305.800000 0 0 1
30.920081 -15.531151 -30.524928 46.141514 -0.465486 2.293680 0.021336 0.000524 -1619.950000 0 0 1
30.898741 -16.506751 -31.503608 47.113505 -0.490648 2.303221 0.021964 -0.002716 310314.000000 0 0 1
29.500461 -16.905551 -32.050708 46.726039 -0.520376 2.326675 0.019125 0.006257 129999.000000 0 0 1
28.843311 -15.996551 -32.899018 46.585101 -0.506369 2.354932 0.004034 -0.003301 -79431.100000 0 0 1
27.865171 -16.652651 -33.664888 46.766475 -0.538664 2.374384 0.003449 -0.005984 -187991.000000 0 0 1
27.186421 -15.783551 34.332575 46.550485 -0.526008 0.741385 0.013006 -0.007234 -401951.000000 0 0 1
26.606181 -14.599551 -34.248809 45.760427 -0.501866 2.416499 0.012856 -0.008851 238467.000000 0 0 1
27.554951 -13.504151 -34.176511 45.931158 -0.455681 2.409955 0.025040 -0.014736 14373.200000 0 0 1
26.980451 -12.079951 -33.772978 44.883003 -0.420964 2.422596 0.034717 -0.019340 -70612.700000 0 0 1
26.061121 -11.569451 34.372255 44.659670 -0.417799 0.692506 0.048870 -0.023648 -98089.700000 0 0 1
25.390231 -10.423551 -34.147971 43.810936 -0.389554 2.464567 0.038145 -0.020679 195253.000000 0 0 1
20.507071 -29.952694 9.167522 37.439915 -0.970448 1.323421 0.010922 -0.001827 75796.000000 0 0 1
20.796071 -29.693294 7.839622 37.089458 -0.959827 1.357819 0.013341 -0.000945 160320.000000 0 0 1
21.974171 -30.354994 7.409822 38.199415 -0.944205 1.375581 0.020644 -0.000288 77593.600000 0 0 1
22.517771 -29.771394 6.116322 37.825855 -0.923240 1.408386 0.021936 -0.003311 -113685.000000 0 0 1
22.947271 -28.426294 6.263122 37.065592 -0.891647 1.401008 0.033614 -0.001775 -52940.900000 0 0 1
23.356771 -28.041094 4.993622 36.834467 -0.876286 1.434808 0.025823 -0.001186 -143387.000000 0 0 1
23.301971 -26.529294 4.651022 35.614846 -0.850073 1.439830 0.038785 -0.007295 98988.600000 0 0 1
24.243271 -25.782494 5.392822 35.798822 -0.816157 1.419578 0.036740 -0.006515 76497.000000 0 0 1
24.012871 -24.384094 5.225722 34.619505 -0.793068 1.419270 0.036538 -0.007555 74150.700000 0 0 1
24.902571 -23.445794 6.065522 34.736635 -0.755276 1.395282 0.029286 -0.007815 406742.000000 0 0 1
26.277671 -23.420994 5.689322 35.657079 -0.727981 1.410555 0.032787 -0.005227 848233.000000 0 0 1
27.175471 -22.607294 6.480522 35.938741 -0.693892 1.389483 0.039746 -0.013793 431686.000000 0 0 1
26.896971 -21.062694 6.734922 34.820156 -0.664343 1.376149 0.037284 -0.005029 -363543.000000 0 0 1
26.728971 -20.395594 5.491522 34.067212 -0.651802 1.408893 0.042998 0.008414 99260.400000 0 0 1
26.573771 -18.987394 5.626522 33.141276 -0.620402 1.400196 0.035926 0.003139 -109343.000000 0 0 1
26.694371 -18.268994 4.250022 32.625270 -0.600163 1.440157 0.044329 0.012737 374957.000000 0 0 1
28.013971 -18.426694 3.734322 33.738268 -0.581817 1.459884 0.056778 0.001570 361661.000000 0 0 1
28.101571 -17.820794 2.490322 33.368858 -0.565157 1.496097 0.052454 0.001427 -250593.000000 0 0 1
29.195271 -16.765494 2.426722 33.754031 -0.521273 1.498840 0.061159 -0.010748 -58954.300000 0 0 1
28.843871 -15.547594 3.135022 32.916940 -0.494379 1.475411 0.059085 -0.016844 630655.000000 0 0 1
30.062171 -14.880994 3.471822 33.722865 -0.459645 1.467662 0.057542 -0.014739 600170.000000 0 0 1
29.848671 -13.644094 4.377022 33.109859 -0.428750 1.438211 0.048972 -0.019037 105197.000000 0 0 1
29.517071 -13.975994 5.686722 33.150033 -0.442214 1.398399 0.036836 -0.014943 -111214.000000 0 0 1
29.362771 -12.739794 6.443222 32.649499 -0.409364 1.372147 0.017039 -0.022205 -98541.900000 0 0 1
28.631271 -12.841194 7.798022 32.333498 -0.421608 1.327220 0.019497 -0.010869 -335220.000000 0 0 1
27.275271 -13.214394 7.810622 31.298026 -0.451157 1.318574 0.010649 -0.007064 -454289.000000 0 0 1
26.696371 -13.173994 9.079422 31.123725 -0.458414 1.274771 0.008135 -0.002253 -6998.110000 0 0 1
27.085871 -14.322594 10.063622 32.249924 -0.486409 1.253445 0.010622 -0.004275 122971.000000 0 0 1
28.339671 -14.131394 10.708822 33.429210 -0.462562 1.244705 0.009508 0.001639 184887.000000 0 0 1
28.585471 -15.311594 11.414322 34.378202 -0.491753 1.232350 0.005154 0.002782 194663.000000 0 0 1
29.387071 -15.160094 12.739622 35.436229 -0.476268 1.203055 0.003978 0.008617 -439277.000000 0 0 1
30.752771 -14.934794 12.634922 36.447527 -0.452094 1.216788 0.015989 0.007547 -738436.000000 0 0 1
31.291171 -14.898894 13.964922 37.364869 -0.444376 1.187753 0.029510 0.005297 161997.000000 0 0 1
32.826271 -14.752394 14.045522 38.632549 -0.422362 1.198702 0.027693 -0.000118 -45024.000000 0 0 1
33.285571 -13.437794 13.712922 38.425874 -0.383703 1.205885 0.029074 -0.005886 374537.000000 0 0 1
34.570771 -13.370094 14.321822 39.736786 -0.369028 1.202081 0.031395 -0.008823 10598.700000 0 0 1
-35.308789 -12.044794 14.166922 39.906006 0.328749 1.207874 0.040292 -0.013531 -166327.000000 0 0 1
-34.365489 -12.056494 13.101522 38.703950 0.337415 1.225468 0.049241 -0.018339 339335.000000 0 0 1
-33.651989 -10.813494 13.080622 37.689397 0.310912 1.216358 0.047785 -0.018311 -139873.000000 0 0 1
-32.503989 -10.723994 12.060822 36.290175 0.318683 1.232009 0.037220 -0.011793 272334.000000 0 0 1
-31.320189 -11.469394 12.280922 35.543245 0.351032 1.218003 0.022146 -0.013526 181616.000000 0 0 1
-31.442489 -12.856794 12.158322 36.079801 0.388154 1.227084 0.010055 -0.012421 -707376.000000 0 0 1
-30.292389 -13.620994 12.829422 35.605538 0.422563 1.202184 -0.000496 0.000779 35468.600000 0 0 1
-29.136589 -13.705094 12.033522 34.374061 0.439667 1.213144 0.008974 -0.002555 -388453.000000 0 0 1
-28.256689 -14.746394 12.410022 34.203878 0.480992 1.199499 0.006506 -0.005777 -525648.000000 0 0 1
-26.952089 -14.671094 11.634922 32.818097 0.498487 1.208387 0.010342 -0.003928 -571450.000000 0 0 1
-27.063889 -14.903494 10.216222 32.541349 0.503364 1.251450 -0.002171 0.012245 9499.530000 0 0 1
-25.772989 -14.798594 9.663422 31.251033 0.521225 1.256424 -0.008392 0.011113 45763.100000 0 0 1
-25.754289 -14.472694 8.118122 30.637333 0.511974 1.302619 0.005029 0.018471 -128685.000000 0 0 1
-25.726989 -15.583294 7.247722 30.939400 0.544613 1.334344 0.001451 0.016143 248574.000000 0 0 1
-25.543689 -15.222994 5.926822 30.320732 0.537443 1.374059 0.002497 0.016803 -472116.000000 0 0 1
-25.707489 -16.430294 4.947722 30.908081 0.568692 1.410026 0.006135 0.014036 -352556.000000 0 0 1
-27.066689 -16.824294 4.728522 32.218340 0.556141 1.423499 0.015333 0.013146 545289.000000 0 0 1
-27.229389 -17.768294 3.699522 32.723666 0.578159 1.457501 0.018763 0.004020 182295.000000 0 0 1
-28.658289 -18.355294 3.625122 34.225076 0.569659 1.464677 0.020271 0.001403 75409.400000 0 0 1
-29.732889 -17.458694 3.492922 34.656185 0.530943 1.469837 0.014468 -0.001695 -283882.000000 0 0 1
-30.937789 -18.139394 3.774222 36.061463 0.530299 1.465943 0.019314 -0.004838 -431918.000000 0 0 1
-32.134289 -17.320294 3.303222 36.654009 0.494357 1.480555 0.038651 -0.014357 -503386.000000 0 0 1
-32.353989 -17.528694 1.934522 36.848040 0.496509 1.518272 0.039733 -0.011890 -262197.000000 0 0 1
-33.319289 -16.630994 1.428322 37.266675 0.462959 1.532460 0.045546 -0.018481 -214650.000000 0 0 1
-33.827089 -17.060794 0.055322 37.885956 0.467124 1.569336 0.050269 -0.013919 268616.000000 0 0 1
-32.789189 -17.207194 -0.928278 37.041600 0.483277 1.595859 0.037721 -0.008040 716970.000000 0 0 1
-33.352989 -18.050894 -1.938578 37.973869 0.496068 1.621869 0.035452 -0.000914 -58542.400000 0 0 1
-32.339489 -18.615194 -2.919078 37.428452 0.522299 1.648866 0.031962 -0.006070 -603952.000000 0 0 1
-32.893389 -19.504294 -3.799978 38.429576 0.535223 1.669840 0.033941 -0.007569 -296165.000000 0 0 1
-31.869189 -19.959894 -4.632978 37.888086 0.559539 1.693384 0.027914 -0.005933 -440112.000000 0 0 1
-32.336689 -21.029694 -5.611978 38.979530 0.576611 1.715271 0.035942 -0.012482 -214605.000000 0 0 1
-32.679389 -22.276794 -4.949578 39.858454 0.598323 1.695297 0.043964 -0.020147 13715.700000 0 0 1
-33.231889 -23.154494 -5.863478 40.925168 0.608545 1.714564 0.052374 -0.011950 -117433.000000 0 0 1
-33.678989 -24.527194 -5.297878 41.999108 0.629444 1.697276 0.045230 -0.014066 57850.000000 0 0 1
-32.651889 -25.431494 -5.003578 41.688638 0.661722 1.691109 0.047165 -0.006353 -671348.000000 0 0 1
-33.169389 -26.684094 -5.121678 42.877509 0.677466 1.690531 0.045658 0.000297 203185.000000 0 0 1
-32.294289 -27.794194 -4.481478 42.842992 0.710647 1.675590 0.033792 -0.001345 634790.000000 0 0 1
-31.077989 -28.097594 -5.198378 42.217760 0.735075 1.694242 0.035450 0.001782 765558.000000 0 0 1
-30.333789 -29.173494 -4.680278 42.345442 0.765902 1.681549 0.028538 -0.000104 476490.000000 0 0 1
-29.369189 -28.905994 -3.472478 41.354127 0.777450 1.654865 0.024614 -0.005425 131204.000000 0 0 1
-30.061389 -28.691894 -2.220078 41.615389 0.762093 1.624169 0.019534 -0.003679 -451396.000000 0 0 1
-29.202089 -28.607294 -1.166378 40.896206 0.775110 1.599321 0.020049 -0.008993 -753588.000000 0 0 1
-29.902989 -28.396294 0.166722 41.237920 0.759560 1.566753 0.018440 -0.006978 208321.000000 0 0 1
-30.533689 -29.563794 0.729722 42.507135 0.769261 1.553628 0.010441 0.000122 -200020.000000 0 0 1
-31.285389 -29.354194 1.864322 42.940889 0.753562 1.527367 0.016454 0.001193 -483568.000000 0 0 1
-31.683489 -30.749694 2.444922 44.219507 0.770443 1.515478 0.009479 0.006167 -897552.000000 0 0 1
-32.519489 -30.610794 3.547422 44.800916 0.755173 1.491531 0.009410 0.008374 -85707.500000 0 0 1
-33.018489 -31.847094 4.055622 46.053296 0.767341 1.482618 0.007266 0.010618 -247402.000000 0 0 1
-34.037089 -32.619394 3.249722 47.255782 0.764133 1.501973 0.004379 0.014174 -942165.000000 0 0 1
-34.754489 -33.630194 3.916422 48.520128 0.768959 1.489991 0.006559 0.010010 -67479.200000 0 0 1
34.994171 -34.164894 2.932622 48.994206 -0.773408 1.510904 0.013888 0.014896 -1678500.000000 0 0 1
33.917471 34.138849 3.536722 48.253127 0.788651 1.497435 0.015159 0.008911 -931420.000000 0 0 1
33.094171 -34.306494 4.465922 47.875924 -0.803383 1.477379 0.011214 0.003755 701260.000000 0 0 1
32.405371 -33.059694 4.163122 46.479920 -0.795393 1.481108 0.015337 0.004839 531533.000000 0 0 1
31.309471 -32.936994 3.024922 45.544250 -0.810725 1.504330 0.025892 0.002052 400682.000000 0 0 1
31.910471 -33.226094 1.820522 46.103858 -0.805593 1.531299 0.028844 0.004070 146602.000000 0 0 1
30.981771 -32.966694 0.750522 45.246395 -0.816428 1.554208 0.023944 0.006039 -130598.000000 0 0 1
31.351271 -33.731794 -0.522378 46.054413 -0.821959 1.582139 0.034025 0.003513 213655.000000 0 0 1
32.371471 -33.303694 -1.389378 46.464809 -0.799592 1.600703 0.024289 0.007054 34309.600000 0 0 1
33.675471 -33.487494 -0.844478 47.499081 -0.782599 1.588576 0.016983 0.012767 759547.000000 0 0 1
34.920571 -33.390094 -1.811978 48.349022 -0.762997 1.608282 0.009195 0.012833 672903.000000 0 0 1
35.122971 34.535149 -2.486178 49.320185 0.776960 1.621227 0.006188 0.007036 -95916.300000 0 0 1
-34.731989 -34.329094 -3.599578 48.966873 0.779564 1.644373 0.004864 0.010962 -299842.000000 0 0 1
-34.061589 33.606249 -4.334178 48.045363 -0.778669 1.661129 -0.003892 0.008357 -454814.000000 0 0 1
-32.965589 33.103849 -3.657678 46.861215 -0.787491 1.648929 -0.010247 0.008525 -478158.000000 0 0 1
-32.267089 32.196649 -4.497978 45.804160 -0.784305 1.669155 -0.008752 -0.003157 -341137.000000 0 0 1
-30.932589 31.622049 -4.080778 44.423325 -0.796419 1.662787 0.000805 -0.007734 35593.000000 0 0 1
-29.742589 32.478749 -4.129378 44.232821 -0.829344 1.664288 0.000498 -0.007677 1059570.000000 0 0 1
-28.612089 31.840349 -3.567178 42.955608 -0.838749 1.653935 0.014645 -0.019330 173676.000000 0 0 1
-28.645989 31.687249 -2.056478 42.765682 -0.835763 1.618902 -0.005676 -0.014791 -813258.000000 0 0 1
-29.461689 30.683249 -1.514378 42.564612 -0.805706 1.606382 -0.021304 -0.008500 -298297.000000 0 0 1
-29.258689 30.601649 -0.115378 42.338459 -0.807829 1.573521 -0.018232 0.003602 -218642.000000 0 0 1
-30.368689 29.796949 0.573722 42.549320 -0.775896 1.557312 -0.017443 0.001723 -393931.000000 0 0 1
-30.661789 28.520149 0.050022 41.875371 -0.749227 1.569602 -0.010487 -0.000490 -236664.000000 0 0 1
-31.809289 28.532949 -0.765378 42.738108 -0.731155 1.588706 -0.001455 -0.002493 -234198.000000 0 0 1
-32.227189 27.124749 -1.279178 42.142378 -0.699640 1.601155 0.002627 -0.002870 -291204.000000 0 0 1
-32.688889 26.235049 -0.312878 41.915858 -0.676305 1.578261 0.008608 0.000274 -23032.100000 0 0 1
-32.983789 25.012349 -0.896578 41.404731 -0.648806 1.592452 0.018715 0.003274 -102329.000000 0 0 1
-33.273389 23.783849 -0.015078 40.899757 -0.620591 1.571165 0.019182 -0.004246 -112831.000000 0 0 1
-32.073189 23.377549 0.576422 39.692966 -0.629848 1.556274 0.029080 -0.010757 -154450.000000 0 0 1
-31.731589 24.002549 1.773522 39.826643 -0.647600 1.526251 0.024390 -0.014754 1019340.000000 0 0 1
-30.204289 23.780149 2.183122 38.504033 -0.666955 1.514067 0.033810 -0.023662 2392180.000000 0 0 1
-29.169689 24.522349 1.473722 38.136442 -0.699058 1.532143 0.037514 -0.015795 908388.000000 0 0 1
-28.920289 25.870149 1.888922 38.848626 -0.729786 1.522155 0.000038 -0.009847 -43967.800000 0 0 1
-28.246289 26.766149 0.852422 38.923081 -0.758499 1.548894 -0.007406 -0.002344 -454598.000000 0 0 1
-26.945089 26.500849 0.442222 37.795878 -0.777086 1.559096 0.002440 -0.008129 -741557.000000 0 0 1
-26.421489 27.400649 -0.520378 38.067853 -0.803589 1.584466 0.008617 -0.009656 243564.000000 0 0 1
-25.097389 26.900749 -1.136478 36.807891 -0.820066 1.601677 0.009655 -0.005009 -182804.000000 0 0 1
-25.278489 25.828649 -2.068478 36.199444 -0.796163 1.627969 0.031901 -0.014221 -880950.000000 0 0 1
-24.103989 25.234549 -2.486278 34.985230 -0.808308 1.641923 0.025058 -0.006264 -152219.000000 0 0 1
-23.305289 24.260549 -1.526578 33.675528 -0.805478 1.616144 0.017822 -0.013571 49351.100000 0 0 1
-23.950689 23.019649 -1.318278 33.245715 -0.765579 1.610459 0.015611 -0.014812 -677191.000000 0 0 1
-23.114289 22.121149 -0.712878 32.001934 -0.763447 1.593074 0.010495 -0.023574 -1034470.000000 0 0 1
-23.784489 20.773649 -0.358978 31.581249 -0.717930 1.582163 0.003338 -0.018450 -135429.000000 0 0 1
-24.690989 20.639549 0.734522 32.189679 -0.696259 1.547976 -0.009522 -0.016922 1202500.000000 0 0 1
-25.990189 21.255049 0.598122 33.580125 -0.685507 1.552984 -0.000874 -0.013030 941261.000000 0 0 1
-26.956389 20.778549 -0.510378 34.039029 -0.656694 1.585791 -0.003716 -0.020497 -684280.000000 0 0 1
-27.119689 19.404449 -0.361778 33.348779 -0.621061 1.581645 -0.012716 -0.011250 124840.000000 0 0 1
-27.997189 18.892649 -1.338378 33.801864 -0.593616 1.610401 0.002033 -0.010935 -120647.000000 0 0 1
-28.250489 17.350049 -1.381078 33.181647 -0.550759 1.612430 -0.031011 0.004072 -84686.800000 0 0 1
-29.053389 16.834449 -0.337778 33.579937 -0.525158 1.580855 -0.021536 -0.004396 381390.000000 0 0 1
-29.210289 15.419649 -0.400178 33.032812 -0.485705 1.582911 -0.018827 -0.005757 -577118.000000 0 0 1
-28.005889 14.672549 0.132122 31.616941 -0.482592 1.566617 -0.015144 0.002550 -649519.000000 0 0 1
-27.988389 14.648549 1.548322 31.627950 -0.482176 1.521823 -0.015054 0.003633 341577.000000 0 0 1
-26.766489 14.184249 2.118022 30.366493 -0.487301 1.500991 -0.004594 0.001759 288158.000000 0 0 1
-26.383789 12.694949 2.074422 29.352500 -0.448466 1.500065 0.005494 0.009088 -262008.000000 0 0 1
-26.107189 12.240949 0.765922 28.844632 -0.438437 1.544240 -0.001033 0.009215 296103.000000 0 0 1
-25.740289 10.887049 0.896222 27.962359 -0.400139 1.538740 0.023255 0.007694 -268879.000000 0 0 1
-25.636389 10.058349 -0.391378 27.541750 -0.373891 1.585007 0.021245 0.002054 258202.000000 0 0 1
-26.866289 9.637549 -0.992278 28.559840 -0.344424 1.605547 0.017850 -0.008797 510169.000000 0 0 1
-26.668089 8.995449 -2.257978 28.234793 -0.325326 1.650853 0.024397 -0.017920 -97751.100000 0 0 1
-28.020489 8.792049 -2.960878 29.516347 -0.304043 1.671278 0.025981 -0.020014 -181611.000000 0 0 1
-27.994789 8.090649 -4.210178 29.443037 -0.281340 1.714282 0.039638 -0.014721 1371470.000000 0 0 1
-29.334689 8.065149 -4.772278 30.795215 -0.268306 1.726392 0.034424 -0.015215 1049270.000000 0 0 1
-11.360629 18.374649 -19.864378 29.347660 -1.017046 2.314290 0.043579 -0.001302 252552.000000 0 0 1
-11.788329 17.425749 -20.803678 29.587404 -0.976024 2.350581 0.011315 -0.003120 159298.000000 0 0 1
-10.945829 17.506049 -21.956378 30.138936 -1.012010 2.386934 0.014357 -0.003964 163815.000000 0 0 1
-11.067729 16.169849 -22.831078 30.086820 -0.970571 2.432326 0.005068 -0.001033 6585.770000 0 0 1
-10.469329 15.013649 -22.266278 28.823665 -0.961871 2.453565 -0.001618 -0.002797 -5168.070000 0 0 1
-10.459029 13.998749 -23.188278 29.035366 -0.929128 2.495798 -0.014619 -0.001722 91638.000000 0 0 1
-9.683229 12.684949 -22.782278 27.815554 -0.918797 2.530546 -0.017579 -0.000051 197848.000000 0 0 1
-8.273229 12.753349 -22.793878 27.398086 -0.995328 2.553412 -0.004529 -0.006020 -101474.000000 0 0 1
-7.776529 11.522349 -22.291678 26.270855 -0.977110 2.584002 -0.011285 -0.002116 -549014.000000 0 0 1
-6.261729 11.419349 -22.278078 25.805494 -1.069226 2.612583 0.011130 0.000883 -469537.000000 0 0 1
-5.691729 11.132549 -23.556378 26.668940 -1.098174 2.653628 0.010174 -0.000917 111291.000000 0 0 1
-4.291129 11.368949 -23.510278 26.465071 -1.209886 2.664538 0.021365 -0.001583 855597.000000 0 0 1
-3.478429 11.116649 -24.851078 27.445499 -1.267545 2.703282 0.033016 -0.011364 258010.000000 0 0 1
-3.453729 9.741949 -25.169278 27.208939 -1.230099 2.751930 0.022787 -0.011093 176957.000000 0 0 1
-2.852329 9.417249 -26.435838 28.207692 -1.276696 2.785269 0.019023 -0.016908 -189511.000000 0 0 1
-2.522929 7.895649 -26.621348 27.881941 -1.261516 2.839743 0.030056 -0.010930 -121271.000000 0 0 1
-1.306429 7.474849 -26.034268 27.117582 -1.397767 2.857982 0.040725 -0.015659 35076.500000 0 0 1
-1.234529 6.075949 -25.709788 26.446822 -1.370342 2.904954 0.050009 -0.014122 730393.000000 0 0 1
0.206771 5.831349 -25.127688 25.796280 1.535353 2.913422 0.024689 -0.017582 729929.000000 0 0 1
0.316871 6.297449 -23.810378 24.631126 1.520521 2.882717 0.023413 -0.019650 -225737.000000 0 1 0
1.467971 5.811949 -23.178978 23.941569 1.323393 2.888521 0.036120 -0.008934 -239025.000000 0 1 0
1.735971 6.434349 -21.836778 22.831104 1.307273 2.845379 0.037749 -0.002964 19426.400000 0 1 0
2.219471 7.763349 -21.917378 23.357378 1.292333 2.788620 0.013011 -0.008306 27715.200000 0 1 0
2.275171 8.411349 -20.666078 22.427973 1.306629 2.742572 0.023604 -0.003423 -248421.000000 0 1 0
2.915771 9.777849 -20.680778 23.060846 1.280990 2.683261 0.016065 -0.003385 -441456.000000 0 1 0
2.655271 10.399849 -19.427478 22.195365 1.320819 2.636841 0.020377 -0.014655 -34236.500000 0 1 0
3.243971 11.644749 -19.446778 22.897613 1.299107 2.585441 0.023065 -0.010915 -114861.000000 0 1 0
4.530371 11.858049 -18.613078 22.529631 1.205859 2.543054 0.017502 -0.015276 -117733.000000 0 1 0
5.531571 11.010649 -19.107678 22.736227 1.105244 2.568830 0.026421 -0.013648 22317.800000 0 1 0
6.585571 10.766649 -18.150678 22.107410 1.021845 2.533996 0.022133 -0.014270 486677.000000 0 1 0
7.644671 9.693149 -18.468078 22.214140 0.903004 2.552357 0.033525 -0.020666 -299812.000000 0 1 0
7.203071 8.396549 -18.770678 21.788176 0.861756 2.609028 0.029743 -0.011554 -229949.000000 0 1 0
6.533871 8.268449 -20.023778 22.627647 0.902049 2.657130 0.026106 -0.008113 159558.000000 0 1 0
6.158471 6.823549 -20.458678 22.428667 0.836584 2.719336 0.034627 0.002118 383704.000000 0 1 0
7.363771 6.059149 -20.476778 22.588423 0.688509 2.705754 0.033282 0.003222 624030.000000 0 1 0
7.209071 4.731049 -20.954278 22.659111 0.580766 2.751205 0.034524 0.012719 -211310.000000 0 1 0
7.489771 4.521749 -22.434578 24.080141 0.543153 2.769760 0.044324 0.002589 -754860.000000 0 1 0
6.512471 5.059049 -23.256678 24.675480 0.660449 2.800834 0.054430 0.003306 -466520.000000 0 1 0
6.538071 4.594649 -24.595878 25.861446 0.612571 2.827456 0.055646 -0.003619 256626.000000 0 0 1
5.423871 5.268749 -25.494528 26.592274 0.770892 2.853260 0.048339 -0.018704 447813.000000 0 0 1
5.340571 6.660649 -25.774398 27.151529 0.894953 2.821734 0.052334 -0.025185 6273.590000 0 0 1
5.095171 7.424349 -24.613378 26.208779 0.969339 2.790877 0.050317 -0.019565 -797242.000000 0 0 1
4.758671 8.883249 -24.899278 26.861331 1.079006 2.757013 0.056632 -0.024756 -62235.500000 0 0 1
3.507971 9.073849 -25.509178 27.301259 1.201893 2.777252 0.061988 -0.018236 16891.400000 0 0 1
2.421371 9.216049 -24.605178 26.385856 1.313869 2.772109 0.034527 -0.014686 -333489.000000 0 0 1
1.108171 9.620749 -25.274578 27.066421 1.456116 2.775682 0.033225 -0.013786 -505966.000000 0 0 1
1.172071 10.949649 -25.754198 28.009771 1.464160 2.737532 0.048748 -0.021189 -161572.000000 0 0 1
0.070071 11.359749 -26.525408 28.855607 1.564628 2.736958 0.058873 -0.027589 -811975.000000 0 0 1
-0.109729 12.866049 -26.791818 29.721184 -1.562268 2.693877 0.056110 -0.026961 -398054.000000 0 0 1
-0.681529 13.543549 -25.704928 29.062614 -1.520517 2.656147 0.061028 -0.022562 134191.000000 0 0 1
-0.827329 14.876649 -26.108608 30.060914 -1.515241 2.623012 0.047913 -0.022731 -137858.000000 0 0 1
-1.213129 15.795649 -24.934878 29.541874 -1.494145 2.575591 0.060149 -0.017237 -422509.000000 0 0 1
-2.435629 15.388349 -24.404178 28.953367 -1.413821 2.573407 0.047629 -0.011565 -584497.000000 0 0 1
-2.550329 15.757849 -23.047078 28.035367 -1.410343 2.535836 0.050410 -0.022576 -1004290.000000 0 0 1
-3.736329 15.028849 -22.452978 27.275679 -1.327126 2.537797 0.044098 -0.016361 -307722.000000 0 0 1
-5.028229 15.508449 -22.743578 27.983306 -1.257265 2.519662 0.029847 -0.010577 -97883.400000 0 0 1
-5.516429 15.177349 -24.019678 28.943528 -1.222177 2.549690 0.027531 -0.013596 -955406.000000 0 0 1
-7.015929 15.366349 -24.287678 29.584443 -1.142486 2.533889 0.001725 -0.005422 -235922.000000 0 0 1
-7.408929 16.614049 -24.828778 30.779653 -1.151321 2.509279 -0.006887 -0.003520 -378805.000000 0 0 1
-8.610629 16.401949 -25.512438 31.528580 -1.087368 2.513559 -0.010299 -0.001179 -385971.000000 0 0 1
-9.222329 17.706449 -26.105808 32.864615 -1.090612 2.488723 -0.005464 -0.001009 93230.000000 0 0 1
-9.501029 18.675849 -25.137348 32.725268 -1.100186 2.446716 -0.001181 -0.000587 -526914.000000 0 0 1
-10.462929 19.508349 -25.669748 33.896674 -1.078508 2.429956 0.007795 0.002917 -482590.000000 0 0 1
-10.909129 20.614349 -24.691478 33.965123 -1.084062 2.384689 0.002795 0.003027 -260668.000000 0 0 1
-9.997529 21.639749 -24.392278 34.105902 -1.138009 2.367696 0.012698 0.007360 -146290.000000 0 0 1
-10.513029 22.924249 -24.672378 35.281315 -1.140815 2.345220 0.017966 -0.001102 -104031.000000 0 0 1
-10.304329 23.516349 -26.117848 36.624307 -1.157818 2.364748 0.007195 0.009062 -264621.000000 0 0 1
-10.947629 22.736049 -27.092258 37.023897 -1.122050 2.391683 -0.000872 0.007195 57520.900000 0 0 1
-10.872629 23.300549 -28.392798 38.305099 -1.134203 2.405694 0.013126 0.002326 -317386.000000 0 0 1
-11.490429 22.311849 -29.461778 38.702002 -1.095227 2.436030 0.003052 -0.004340 -226411.000000 0 0 1
-10.707929 21.296849 -30.006118 38.322091 -1.104916 2.470267 -0.004378 -0.007784 -286409.000000 0 0 1
-10.553729 20.163249 -29.157618 36.987897 -1.088593 2.478840 -0.009181 0.000250 -127052.000000 0 0 1
-9.633129 19.100149 -29.781958 36.668486 -1.103676 2.518701 -0.016097 -0.005084 -1315300.000000 0 0 1
-8.293029 19.466549 -29.719918 36.482796 -1.168067 2.522884 -0.018236 -0.008141 -219898.000000 0 0 1
-7.366129 18.584649 -30.382488 36.369556 -1.193436 2.559624 -0.021268 -0.005154 364577.000000 0 0 1
-7.075629 17.268549 -29.670618 35.051575 -1.181921 2.580144 -0.013188 -0.010211 -184483.000000 0 0 1
-8.194129 16.341749 -29.611988 34.800378 -1.106011 2.588511 -0.021277 -0.008131 1292740.000000 0 0 1
-7.748029 15.161649 -28.974578 33.607049 -1.098365 2.610310 -0.026642 -0.004771 248487.000000 0 0 1
-9.006129 14.258649 -28.880298 33.443849 -1.007447 2.613056 -0.019925 -0.000280 -22790.300000 0 0 1
-9.879429 14.640049 -27.860838 32.987277 -0.977169 2.576602 -0.010747 -0.004885 -479443.000000 0 0 1
-11.148429 14.050449 -28.031408 33.278558 -0.900058 2.572382 0.013098 -0.010158 236674.000000 0 0 1
-12.163429 14.574049 -26.984018 32.992259 -0.875314 2.528529 0.011856 -0.004938 44657.400000 0 0 1
-12.525329 15.918049 -27.130678 33.857670 -0.904117 2.500287 0.004036 -0.004374 -596235.000000 0 0 1
-13.658029 16.203449 -26.357138 33.819998 -0.870434 2.464402 -0.005728 -0.002029 -106124.000000 0 0 1
-14.454929 17.395149 -26.938238 35.173923 -0.877452 2.443171 -0.014924 -0.004216 301042.000000 0 0 1
-13.749129 18.632749 -26.748158 35.379116 -0.935083 2.428044 -0.012100 -0.004304 646413.000000 0 0 1
-14.648629 19.703549 -27.022278 36.510487 -0.931500 2.404051 -0.024765 0.001610 61552.900000 0 0 1
-14.001729 21.081349 -26.895838 36.930445 -0.984520 2.386610 -0.022173 0.003783 -342311.000000 0 0 1
-14.948529 22.095649 -27.097418 38.025600 -0.975991 2.364008 -0.031539 0.000043 -129938.000000 0 0 1
-14.424829 23.382149 -27.146848 38.623205 -1.018031 2.350212 -0.030997 0.003695 -233921.000000 0 0 1
-13.990829 24.179349 -25.885138 38.084440 -1.046240 2.318119 -0.034510 0.010162 -63925.900000 0 0 1
-13.577329 25.510649 -26.157698 38.978997 -1.081705 2.306450 -0.012236 0.002427 -17962.000000 0 0 1
-13.221129 26.234849 -25.011078 38.582633 -1.103991 2.276076 0.007172 -0.004793 -166391.000000 0 0 1
-13.165929 27.767849 -25.252338 39.775315 -1.128048 2.258643 0.017692 -0.007174 -43769.000000 0 0 1
-14.464029 28.263249 -25.483488 40.711516 -1.097784 2.247149 0.017391 -0.009445 -186472.000000 0 0 1
-14.874929 29.114749 -24.417678 40.806312 -1.098461 2.212274 0.015148 -0.012452 -367819.000000 0 0 1
-16.295829 29.627949 -24.690278 41.868595 -1.067941 2.201495 0.026491 -0.014309 -430271.000000 0 0 1
-17.183529 28.546849 -24.721178 41.488949 -1.028951 2.209120 0.017764 -0.013398 -1381380.000000 0 0 1
-18.341729 28.867449 -25.381858 42.590930 -1.004769 2.209238 0.024140 -0.006628 -1762020.000000 0 0 1
-19.485329 27.925349 -25.233218 42.381817 -0.961572 2.208533 0.022363 -0.006171 -1080310.000000 0 0 1
-19.949829 27.908449 -23.934478 41.829851 -0.950186 2.179966 0.039039 -0.012395 -430796.000000 0 0 1
-20.898829 26.894549 -23.733278 41.513206 -0.910197 2.179378 0.049032 -0.022234 -175072.000000 0 0 1
-21.573329 27.071849 -22.355278 41.207426 -0.897954 2.144214 0.040119 -0.014003 -33811.500000 0 0 1
-22.489529 28.140249 -22.300378 42.366961 -0.896547 2.125113 0.043980 -0.008591 -118494.000000 0 0 1
-23.126729 28.366949 -21.065878 42.229144 -0.886813 2.093064 0.032877 -0.007651 -407583.000000 0 0 1
-24.386629 29.238149 -21.212978 43.584028 -0.875624 2.079121 0.026894 -0.006275 12942.500000 0 0 1
-25.463839 28.357949 -21.517978 43.767611 -0.839119 2.084770 0.006886 -0.006901 -465567.000000 0 0 1
-26.683329 29.037349 -21.618178 44.972362 -0.827620 2.072248 0.007339 -0.008890 500942.000000 0 0 1
-27.916749 28.122049 -21.962378 45.304973 -0.789062 2.076894 -0.011813 -0.005641 223550.000000 0 0 1
-27.851039 27.792549 -23.327678 45.741521 -0.784347 2.105968 -0.015548 -0.000732 -226944.000000 0 0 1
-29.073219 27.685249 -23.987178 46.766546 -0.760949 2.109371 -0.022931 -0.002146 -228132.000000 0 0 1
-28.651589 27.118449 -25.347728 46.891696 -0.757915 2.141898 -0.011885 0.013536 235049.000000 0 0 1
-28.404149 25.700449 -25.410588 45.967453 -0.735468 2.156511 -0.005379 0.019367 -129619.000000 0 0 1
-28.335909 25.253349 -26.748468 46.434211 -0.727940 2.184686 0.032176 0.007846 -111359.000000 0 0 1
-28.581209 23.772249 -26.749258 45.798779 -0.693800 2.194518 0.030466 0.003771 -791907.000000 0 0 1
-27.504669 23.015949 -26.341698 44.498604 -0.696782 2.204293 0.026037 0.002984 -698048.000000 0 0 1
-27.614899 21.735149 -26.876158 44.241691 -0.666813 2.223687 0.048814 -0.017075 127593.000000 0 0 1
-26.453329 20.721749 -26.531578 42.814649 -0.664495 2.239137 0.047291 -0.024970 216813.000000 0 0 1
-26.436119 20.243149 -25.204158 41.760065 -0.653498 2.218738 0.042467 -0.013747 -1677.670000 0 0 1
-25.904409 18.905149 -25.082068 40.713059 -0.630450 2.234539 0.029977 -0.010419 -76933.700000 0 0 1
-26.943999 17.774649 -25.233368 40.971211 -0.583156 2.234299 0.026357 -0.013605 93934.100000 0 0 1
-27.588889 17.723749 -26.517628 42.171823 -0.571031 2.250805 0.027096 -0.011353 407022.000000 0 0 1
-28.283739 16.496149 -26.683798 42.238820 -0.528003 2.254587 0.010794 -0.012595 -139329.000000 0 0 1
-28.982839 16.180449 -28.024228 43.441561 -0.509176 2.271953 0.011266 -0.009925 131352.000000 0 0 1
-30.179279 16.923849 -28.140938 44.599528 -0.511080 2.253598 0.017141 -0.015009 144402.000000 0 0 1
-30.939729 16.599749 -29.298518 45.729877 -0.492434 2.266188 0.024410 -0.011254 315116.000000 0 0 1
-32.284839 17.330549 -29.500848 47.042096 -0.492654 2.248641 0.034453 -0.013064 -208304.000000 0 0 1
-33.326329 16.845049 -28.704798 47.099526 -0.468004 2.226163 0.023373 -0.013760 -520822.000000 0 0 1
-34.542037 17.194149 -29.307818 48.453475 -0.461866 2.220393 0.028508 -0.016809 526386.000000 0 0 1
34.777777 16.805749 -28.527768 48.018335 0.450144 2.206945 0.038995 -0.018035 626685.000000 0 0 1
34.516361 17.581349 -27.386338 47.439377 0.471110 2.186204 0.024112 -0.022971 184992.000000 0 0 1
33.425981 17.071349 -26.640228 46.026393 0.472188 2.188057 0.022014 -0.019378 -22928.700000 0 0 1
32.872151 18.151749 -25.711388 45.509776 0.504525 2.171186 0.014669 -0.017761 -102361.000000 0 0 1
32.447401 19.332749 -26.402258 46.083275 0.537339 2.180866 0.022406 -0.029541 263703.000000 0 0 1
31.920381 20.276749 -25.492328 45.606097 0.565921 2.163936 0.026379 -0.024381 -948365.000000 0 0 1
31.381301 21.558849 -26.121368 46.172458 0.601945 2.172120 0.026512 -0.026594 344090.000000 0 0 1
30.047441 21.431249 -26.608638 45.499085 0.619561 2.195451 0.016395 -0.028921 219226.000000 0 0 1
29.053961 21.653249 -25.617758 44.376405 0.640472 2.186194 0.016505 -0.021940 34805.600000 0 0 1
27.639011 21.594349 -26.275748 43.825173 0.663234 2.213745 0.001409 -0.021687 367578.000000 0 0 1
27.432611 20.310749 -26.805138 43.400346 0.637320 2.236516 -0.000736 -0.028430 -676653.000000 0 0 1
26.177351 20.234649 -27.395898 42.956140 0.658049 2.262389 -0.000886 -0.026899 -786835.000000 0 0 1
25.624751 18.789449 -27.286088 41.883193 0.632697 2.280331 0.006852 -0.024252 -381245.000000 0 0 1
26.340951 17.789649 -28.001018 42.360055 0.593998 2.292979 0.009128 -0.030613 160.227000 0 0 1
27.472991 17.371749 -27.273698 42.431091 0.563847 2.268913 0.008079 -0.024665 -513975.000000 0 0 1
28.326551 16.314849 -28.017308 43.052727 0.522552 2.279391 0.006404 -0.020793 -218192.000000 0 0 1
27.740921 15.064049 -28.478938 42.515105 0.497473 2.304809 0.008288 -0.023206 320575.000000 0 0 1
27.209291 14.171349 -27.427508 41.151438 0.480171 2.300303 0.012647 -0.018823 25169.900000 0 0 1
28.226851 13.456949 -26.507218 40.993624 0.444869 2.273939 0.006247 -0.008751 -197255.000000 0 0 1
28.717851 14.296749 -25.512978 40.988096 0.461914 2.242664 0.017371 -0.015514 -116649.000000 0 0 1
29.795091 13.706349 -24.821078 41.130249 0.431156 2.218648 0.017401 -0.004125 -530167.000000 0 0 1
-14.300229 -31.447994 -24.753678 42.499617 1.144019 2.192529 0.045535 -0.005238 427874.000000 0 0 1
-13.448029 -30.367294 -25.186978 41.682201 1.153908 2.219636 0.027570 -0.003501 459725.000000 0 0 1
-13.590029 -30.140994 -26.582808 42.424216 1.147209 2.247973 0.016675 -0.003535 97298.700000 0 0 1
-12.932029 -28.831194 -27.125708 41.644677 1.149155 2.280173 0.018631 -0.004306 -377975.000000 0 0 1
-13.505429 -27.621694 -26.681918 40.709696 1.116034 2.285534 0.037036 0.006536 -68537.700000 0 0 1
-12.821929 -26.438394 -27.044328 39.934774 1.119242 2.314764 0.024106 0.000401 -334918.000000 0 0 1
-13.409329 -25.068694 -26.561378 38.907021 1.079617 2.322232 0.020426 -0.002415 -161316.000000 0 0 1
-13.043829 -24.739894 -25.212328 37.654552 1.085596 2.304425 0.010146 -0.007317 33210.800000 0 0 1
-13.613229 -23.544594 -24.779778 36.792734 1.046569 2.309725 0.007813 -0.006964 -392975.000000 0 0 1
-13.191729 -23.071294 -23.398878 35.409233 1.051385 2.292698 0.005562 -0.005695 609911.000000 0 0 1
-11.851929 -22.550994 -23.349178 34.557194 1.086909 2.312666 0.000978 -0.010441 579786.000000 0 0 1
-11.615429 -21.974394 -22.051878 33.227661 1.084540 2.296498 -0.011561 -0.002359 478595.000000 0 0 1
-10.130229 -21.570794 -21.827578 32.316619 1.131741 2.312342 -0.000264 -0.001998 362227.000000 0 0 1
-9.808929 -20.468994 -22.628178 32.050417 1.123919 2.354656 0.011859 -0.008200 832558.000000 0 0 1
-8.365229 -20.332494 -22.644778 31.562213 1.180483 2.370952 0.023513 0.001449 1067700.000000 0 0 1
-7.919829 -19.298494 -23.620578 31.513287 1.181369 2.418168 0.039639 0.010591 -396721.000000 0 0 1
-7.994629 -17.985894 -23.065878 30.322289 1.152530 2.435173 0.033328 0.006090 -260252.000000 0 0 1
-8.144129 -16.907994 -24.036378 30.495156 1.121917 2.478680 0.028178 0.001112 195864.000000 0 0 1
-6.871929 -16.510394 -24.856178 30.621007 1.176387 2.517915 0.037911 -0.006379 395785.000000 0 0 1
-6.560829 -17.378494 -25.947898 31.911595 1.209813 2.520285 0.033453 -0.002197 -196460.000000 0 0 1
-5.640529 -16.667894 -26.730468 32.002377 1.244487 2.559411 0.023554 -0.005047 -297765.000000 0 0 1
-5.373929 -17.489894 -28.025898 33.469784 1.272693 2.563212 0.021241 0.003177 -401097.000000 0 0 1
-6.299729 -17.235694 -29.045078 34.356546 1.220376 2.578113 0.035390 -0.005039 -204564.000000 0 0 1
-6.109229 -18.019294 -30.233938 35.722663 1.243920 2.579894 0.030519 -0.010536 -522048.000000 0 0 1
-7.030829 -17.704394 -31.413498 36.738072 1.192772 2.596476 0.034193 -0.015564 -179083.000000 0 0 1
-6.915129 -16.522194 -32.210008 36.854939 1.174414 2.634103 0.031197 -0.020457 -160398.000000 0 0 1
-6.775329 -15.318194 -31.511978 35.686929 1.154359 2.653037 0.019151 -0.015214 -194291.000000 0 0 1
-7.182329 -14.104194 -32.398318 36.057803 1.099789 2.687161 0.017050 -0.018235 -292680.000000 0 0 1
-6.406029 -13.970394 -33.570548 36.921414 1.140861 2.712259 0.027314 -0.025452 51079.100000 0 0 1
-7.114729 -13.213294 34.450675 37.577380 1.076862 0.410822 0.029051 -0.023417 -22552.800000 0 0 1
-7.448629 -11.720094 -34.322366 37.025228 1.004651 2.757128 0.009903 -0.016883 -409988.000000 0 0 1
-6.371329 -10.845294 -34.251288 36.487874 1.039638 2.789646 0.003365 -0.017731 -679844.000000 0 0 1
-5.959329 -10.370694 33.528635 35.598233 1.049239 0.342666 0.005560 -0.019672 -337374.000000 0 0 1
-4.750029 -9.436994 33.617093 35.238169 1.104479 0.304501 0.022045 -0.012248 -255226.000000 0 0 1
-4.484429 -8.769194 32.388105 33.852595 1.098083 0.295216 0.024493 -0.010281 -58823.300000 0 0 1
-3.610929 -7.692294 32.626965 33.715412 1.131909 0.254789 0.015296 -0.016912 -1096140.000000 0 0 1
-3.522429 -6.684394 31.462705 32.357231 1.085812 0.235685 0.011596 -0.013404 -736045.000000 0 0 1
-4.481229 -5.768194 31.139315 31.984533 0.910309 0.230404 0.016267 -0.004614 -424580.000000 0 0 1
-5.757729 -6.325794 30.821845 31.986766 0.832375 0.270711 0.014201 -0.005857 -139399.000000 0 0 1
-6.851829 -5.269994 30.557035 31.756145 0.655637 0.275681 0.003571 -0.004492 36011.600000 0 0 1
-8.008729 -5.989294 30.172955 31.787082 0.642121 0.320047 0.013140 -0.006093 -655437.000000 0 0 1
-9.146829 -5.167094 30.121985 31.901368 0.514215 0.335571 0.003639 -0.003731 125953.000000 0 0 1
-10.296829 -5.805694 29.305135 31.599394 0.513402 0.383407 0.012905 -0.003837 -152742.000000 0 0 1
-9.904929 -5.977494 27.942655 30.242850 0.542979 0.392535 0.012233 -0.005687 516.745000 0 0 1
-10.846429 -6.603194 27.124345 29.949579 0.546857 0.437846 0.027477 -0.011797 -306064.000000 0 0 1
-10.609029 -6.255894 25.619195 28.425883 0.532794 0.448121 0.019506 -0.010095 447938.000000 0 0 1
-9.517129 -6.946994 24.990365 27.628876 0.630543 0.440587 0.010509 -0.004807 316349.000000 0 0 1
-9.201729 -6.528994 23.706045 26.254069 0.617100 0.444217 0.006507 -0.011239 -649056.000000 0 0 1
-10.266129 -6.544294 22.601045 25.671548 0.567512 0.494107 0.014859 -0.011516 78919.000000 0 0 1
-11.346329 -5.635694 22.738045 26.029193 0.461002 0.508328 0.010979 -0.007545 -18017.500000 0 0 1
-12.247529 -5.819694 21.671445 25.564082 0.443589 0.559105 0.012777 -0.003038 -357963.000000 0 0 1
-13.298729 -4.741594 21.478345 25.703272 0.342493 0.581523 0.011810 0.001411 64689.200000 0 0 1
-12.761929 -3.516894 20.972745 24.801036 0.268903 0.563034 0.002473 -0.000307 139532.000000 0 1 0
-13.830129 -2.584894 20.976245 25.257810 0.184771 0.590818 0.010917 0.000715 365462.000000 0 0 1
-13.568129 -1.233894 20.304945 24.452145 0.090691 0.590980 -0.000112 -0.007644 114418.000000 0 1 0
-12.499429 -0.498894 20.906645 24.363342 0.039892 0.539202 -0.002341 -0.004716 252424.000000 0 1 0
-12.578129 0.879106 20.623045 24.172135 -0.069778 0.548756 0.004231 -0.014741 -124881.000000 0 1 0
-12.096129 1.391106 19.193645 22.729881 -0.114501 0.565308 0.009864 -0.027300 369742.000000 0 1 0
-12.953629 1.008106 18.098145 22.279040 -0.077668 0.622644 0.014399 -0.019680 633145.000000 0 1 0
-14.208129 1.685106 18.045545 23.029377 -0.118050 0.670376 0.002405 -0.018533 -95685.400000 0 1 0
-15.323529 0.998106 17.288545 23.123593 -0.065044 0.726268 0.014481 -0.007493 -492751.000000 0 1 0
-15.734529 -0.184894 17.931645 23.856938 0.011750 0.720263 0.007047 -0.006572 -46626.800000 0 1 0
-16.648029 -0.940894 17.202845 23.957880 0.056457 0.769806 0.004518 0.003272 -178602.000000 0 1 0
-16.426029 -2.426894 17.457245 24.092730 0.146686 0.760363 0.000894 0.004110 -344078.000000 0 1 0
-17.041829 -2.807894 18.647545 25.417300 0.163298 0.747110 0.009565 0.008592 -228594.000000 0 0 1
-16.849329 -4.179094 18.913245 25.672466 0.243121 0.742600 0.010625 0.015583 -407903.000000 0 0 1
-17.607929 -4.767894 20.074545 27.124884 0.264440 0.737609 0.005330 0.019567 -479578.000000 0 0 1
-17.143029 -4.342794 21.358245 27.729369 0.248108 0.691580 0.010197 0.009566 204875.000000 0 0 1
-18.032129 -4.580594 22.441545 29.150685 0.248762 0.692196 0.016887 0.005543 -208444.000000 0 0 1
-18.004529 -6.051794 23.066045 29.880256 0.324262 0.688894 0.016878 0.003253 131940.000000 0 0 1
-16.853429 -6.286794 23.848545 29.871641 0.357040 0.646217 0.009260 -0.003861 -422354.000000 0 0 1
-15.810829 -6.893994 23.193845 28.904392 0.411176 0.639435 0.024389 -0.006500 -647901.000000 0 0 1
-14.698729 -7.323094 24.195735 29.242331 0.462217 0.596296 0.033550 -0.012928 263195.000000 0 0 1
-15.037429 -8.594394 24.690195 30.159469 0.519225 0.611732 0.016463 -0.008381 442483.000000 0 0 1
-14.133929 -8.884294 25.737155 30.677349 0.561169 0.575422 0.033891 -0.003853 365642.000000 0 0 1
-14.773629 -9.891994 26.755125 32.123953 0.590011 0.586521 0.016556 -0.007400 -239662.000000 0 0 1
-14.861629 -11.261994 26.346825 32.277789 0.648468 0.615902 0.017942 -0.008050 140309.000000 0 0 1
-13.938329 -12.001494 27.143315 32.788297 0.710870 0.595558 0.031150 -0.005914 9010.070000 0 0 1
-14.095629 -13.502494 26.926015 33.256794 0.763910 0.627259 0.011426 -0.005033 -19722.700000 0 0 1
-15.298329 -13.983494 27.488885 34.426962 0.740526 0.646047 0.004741 -0.002906 -319861.000000 0 0 1
-15.605729 -15.361594 27.329875 35.020557 0.777515 0.675499 0.022106 0.001341 -20529.700000 0 0 1
-14.784929 -16.500094 28.036935 35.733974 0.840167 0.668743 0.011435 0.001913 333504.000000 0 0 1
-13.451229 -16.539594 27.560515 34.843589 0.888013 0.658390 0.030155 -0.002978 29313.900000 0 0 1
-12.667029 -17.512294 28.182605 35.516099 0.944589 0.654231 0.039705 0.000457 708578.000000 0 0 1
-11.213829 -17.651394 27.584895 34.615720 1.004829 0.648668 0.035054 -0.006748 699993.000000 0 0 1
-10.397729 -18.463494 28.399565 35.433722 1.057913 0.641024 0.029844 -0.011157 44624.400000 0 0 1
-9.215529 -18.803694 27.695525 34.720987 1.115107 0.647392 0.023179 -0.008907 137160.000000 0 0 1
-8.127129 -19.552694 28.505775 35.509678 1.176870 0.638886 0.029170 -0.009602 78905.800000 0 0 1
-8.502329 -20.787094 29.074665 36.738658 1.182539 0.657714 0.029491 -0.005621 628665.000000 0 0 1
-7.360329 -21.349394 29.769985 37.366068 1.238801 0.648962 0.033766 -0.005414 921055.000000 0 0 1
-7.657929 -22.704994 30.508745 38.793609 1.245498 0.665777 0.032332 -0.010572 143118.000000 0 0 1
-7.835429 -23.853994 29.724315 38.909405 1.253425 0.701405 0.021473 -0.010216 -40034.600000 0 0 1
-8.135329 -24.978994 30.573695 40.309856 1.255943 0.709839 0.017007 -0.009748 -289546.000000 0 0 1
-8.324129 -26.328894 29.822745 40.643546 1.264581 0.746952 0.004961 -0.001911 -324515.000000 0 0 1
-9.476029 -26.431794 29.020935 40.381301 1.226562 0.768905 0.003212 0.003990 -24741.000000 0 0 1
-9.430729 -27.600094 28.225245 40.587784 1.241542 0.801803 -0.002597 0.005203 201326.000000 0 0 1
-10.705329 -27.817594 27.343705 40.448742 1.203427 0.828464 0.004315 0.010511 382742.000000 0 0 1
-10.936729 -27.130394 26.118095 39.215114 1.187606 0.841934 0.004890 0.009184 14749.700000 0 0 1
-11.006629 -25.689794 26.218415 38.321230 1.166012 0.817325 0.005742 0.010842 -297376.000000 0 0 1
-11.213929 -24.894894 24.884785 36.942664 1.147567 0.831720 0.011227 -0.000501 -494671.000000 0 0 1
-12.483629 -25.030394 24.327295 37.069919 1.108158 0.854953 0.014421 0.005042 -303949.000000 0 0 1
-12.510829 -24.393794 23.043045 35.812846 1.096906 0.871826 0.018434 0.003222 91487.900000 0 0 1
-13.851829 -24.519494 22.285545 35.912731 1.056562 0.901356 0.025566 0.000827 -97765.000000 0 0 1
-14.044229 -25.754494 21.657045 36.463158 1.071560 0.934845 0.027731 -0.002748 -367480.000000 0 0 1
-15.308429 -25.805994 21.071745 36.664911 1.035383 0.958545 0.034116 -0.009580 -555185.000000 0 0 1
-15.622529 -27.291794 20.625745 37.607536 1.050899 0.990290 0.034940 -0.010430 -117635.000000 0 0 1
-14.762729 -27.880094 19.677545 37.181226 1.083822 1.013100 0.037517 -0.010526 -227139.000000 0 0 1
-15.052629 -29.209594 19.302845 38.110127 1.094959 1.039674 0.040562 -0.008999 155645.000000 0 0 1
-14.299329 -29.703994 18.016245 37.568379 1.122144 1.070645 0.039952 -0.013856 410236.000000 0 0 1
-14.833629 -29.284494 16.772545 36.863754 1.101934 1.098438 0.030566 -0.018107 235265.000000 0 0 1
-13.868829 -29.616194 15.776145 36.309091 1.132841 1.121318 0.040639 -0.014659 376972.000000 0 0 1
-14.148529 -29.058094 14.403145 35.383672 1.117680 1.151567 0.017376 -0.018260 -509116.000000 0 0 1
-14.156829 -27.630994 14.466945 34.251717 1.097315 1.134736 0.028615 -0.018950 -65686.400000 0 0 1
-14.406929 -27.015094 13.199145 33.340550 1.080871 1.163761 0.027784 -0.014470 275492.000000 0 0 1
-13.392629 -27.307194 12.019345 32.703363 1.114823 1.194449 0.022238 -0.009971 385241.000000 0 0 1
-13.676329 -26.642694 10.799345 31.835530 1.096547 1.224706 0.013614 -0.011696 -621002.000000 0 0 1
-12.851029 -27.134394 9.801145 31.583013 1.128485 1.255257 0.016884 -0.016950 -223875.000000 0 0 1
-12.982729 -26.369894 8.487445 30.593451 1.113302 1.289682 0.007853 -0.004272 834325.000000 0 0 1
-14.230729 -26.645194 7.819845 31.203044 1.080256 1.317484 0.016522 -0.020103 572840.000000 0 0 1
-14.429929 -25.806394 6.720645 30.320948 1.060947 1.347290 0.014874 -0.019074 54471.400000 0 0 1
-15.322229 -26.391894 5.619445 31.030322 1.044789 1.388696 0.005732 -0.014704 -143828.000000 0 0 1
-14.727629 -27.469694 4.997145 31.566732 1.078656 1.411823 0.015799 -0.020625 -342588.000000 0 0 1
-15.430129 -27.784194 3.820345 32.010082 1.063850 1.451163 0.015086 -0.007968 -437741.000000 0 0 1
-14.954129 -29.009394 3.018545 32.776249 1.094832 1.478570 0.016675 -0.007303 -430644.000000 0 0 1
-13.684829 -28.901494 2.430045 32.069861 1.128573 1.494950 0.017533 -0.004855 -351012.000000 0 0 1
-13.349829 -30.059794 1.678145 32.933650 1.152852 1.519819 0.013318 -0.003651 -647254.000000 0 0 1
-11.994629 -29.843094 1.036845 32.180062 1.188633 1.538571 -0.003276 -0.000863 -694421.000000 0 0 1
-11.888929 -29.031194 -0.101555 31.371438 1.182108 1.574034 -0.002458 0.004347 -206189.000000 0 0 1
-11.997329 -27.586994 -0.022555 30.082863 1.160578 1.571546 -0.003887 0.000939 -287187.000000 0 0 1
-11.697029 -26.891894 -1.413255 29.359696 1.160516 1.618951 -0.002063 0.009201 122488.000000 0 0 1
-10.465829 -27.274794 -1.987655 29.281372 1.204404 1.638730 -0.002901 0.006748 -376391.000000 0 0 1
-10.114329 -26.242794 -2.872055 28.270702 1.202927 1.672563 0.008645 0.002605 689443.000000 0 0 1
-8.971329 -26.809094 -3.796855 28.524171 1.247872 1.704303 0.008126 0.001069 694658.000000 0 0 1
-8.303029 -25.780794 -4.520355 27.459483 1.259224 1.736168 0.012772 0.000465 -932597.000000 0 0 1
-7.246929 -26.190694 -5.280655 27.683131 1.300852 1.762726 0.020989 0.001343 -423376.000000 0 0 1
-6.528229 -25.106294 -6.111855 26.651426 1.316406 1.802181 0.014478 0.000169 -42498.900000 0 0 1
-6.998029 -24.973594 -7.425555 26.977614 1.297586 1.849645 0.018795 0.000286 -306959.000000 0 0 1
-6.359029 -23.939694 -8.106055 26.062508 1.311165 1.887066 0.016922 0.001860 -346512.000000 0 0 1
-6.577229 -23.798594 -9.626555 26.501011 1.301156 1.942553 0.023251 -0.001215 150370.000000 0 0 1
-5.817429 -24.842194 -10.293855 27.512552 1.340766 1.954278 0.009429 -0.001111 445678.000000 0 0 1
-6.090229 -24.965694 -11.701955 28.236723 1.331526 1.998105 0.004193 0.013829 521353.000000 0 0 1
-7.315729 -25.847194 -12.151655 29.483216 1.294973 1.995614 0.004077 0.007754 637459.000000 0 0 1
-7.692829 -25.604994 -13.483255 29.943171 1.278934 2.037892 0.005490 0.009550 581668.000000 0 0 1
-8.804529 -26.383594 -13.963455 31.122208 1.248705 2.036068 0.004252 0.003316 -208982.000000 0 0 1
-8.918629 -26.465694 -15.539855 31.960319 1.245760 2.078559 0.007091 0.000365 822665.000000 0 0 1
-7.842929 -27.193494 -16.203055 32.611909 1.290004 2.090756 -0.001093 0.000920 485139.000000 0 0 1
-6.623929 -26.513194 -16.180255 31.758881 1.325973 2.105367 0.009720 0.003933 -1037810.000000 0 0 1
-5.540229 -27.220894 -16.998755 32.567298 1.370010 2.119941 0.005750 0.004806 -734462.000000 0 0 1
-5.665229 -27.166894 -18.399655 33.296880 1.365208 2.156270 0.026574 0.002049 485798.000000 0 0 1
-4.544829 -27.694594 -19.125855 33.962396 1.408141 2.168987 0.022734 0.000779 -106367.000000 0 0 1
-24.552829 14.802049 -5.506178 29.193494 -0.542524 1.760543 -0.003095 -0.008957 -178825.000000 0 0 1
-24.669829 13.534849 -4.897178 28.561774 -0.501798 1.743107 -0.009012 -0.005088 711478.000000 0 0 1
-23.393329 12.899849 -4.900478 27.160056 -0.503943 1.752220 0.007604 -0.005643 118736.000000 0 0 1
-23.535729 11.456349 -4.380078 26.539849 -0.453003 1.736593 0.014252 -0.013449 -204486.000000 0 0 1
-23.906629 10.454049 -5.322878 26.629816 -0.412231 1.772036 0.013307 -0.013973 739280.000000 0 0 1
-25.331859 10.343849 -5.436878 27.897275 -0.387670 1.766941 0.016982 -0.017529 456493.000000 0 0 1
-25.784989 9.729949 -6.772978 28.379760 -0.360829 1.811777 0.033500 -0.016614 -240867.000000 0 0 1
-25.620479 10.692949 -7.826078 28.844334 -0.395381 1.845562 0.055022 -0.011653 -78333.400000 0 0 1
-26.027869 10.036849 -9.036878 29.323258 -0.368048 1.884077 0.064432 -0.013222 -202555.000000 0 0 1
-26.489289 10.969149 -10.158178 30.416989 -0.392600 1.911302 0.029426 -0.011698 581833.000000 0 0 1
-25.393509 11.745149 -10.686078 29.949476 -0.433221 1.935640 0.044829 -0.014312 762491.000000 0 0 1
-25.892759 12.599249 -11.681178 31.074523 -0.452865 1.956173 0.035050 -0.013516 471347.000000 0 0 1
-24.866629 13.657049 -12.265978 30.908226 -0.502238 1.978881 0.040404 -0.012586 292913.000000 0 0 1
-24.690629 14.828449 -11.486678 31.007319 -0.540838 1.950290 0.035508 -0.007676 -228939.000000 0 0 1
-23.652029 15.645449 -11.919878 30.761698 -0.584406 1.968705 0.030565 -0.008817 -325149.000000 0 0 1
-23.676329 17.060949 -11.403678 31.331907 -0.624412 1.943316 0.016279 0.004701 199275.000000 0 0 1
-22.701929 17.257749 -10.377378 30.346292 -0.649990 1.919804 0.011837 0.003746 286128.000000 0 0 1
-22.564629 18.620949 -9.973478 30.909100 -0.689935 1.899347 -0.011997 0.011009 46400.000000 0 0 1
-21.697129 18.832149 -8.708378 30.020844 -0.714826 1.865104 0.006683 0.010622 -447657.000000 0 0 1
-22.206129 18.200049 -7.553578 29.688558 -0.686576 1.828052 0.014462 0.002121 263341.000000 0 0 1
-23.106429 19.050649 -6.841178 30.718659 -0.689487 1.795384 0.003585 -0.001372 -145072.000000 0 0 1
-23.488329 18.553149 -5.475478 30.428635 -0.668545 1.751727 -0.009178 -0.000892 19229.900000 0 0 1
-22.450329 18.663349 -4.509878 29.541105 -0.693547 1.724060 0.005038 -0.011506 360823.000000 0 0 1
-22.819429 18.038349 -3.280278 29.272318 -0.668910 1.683093 -0.013272 -0.005431 -408726.000000 0 0 1
-21.609229 17.856949 -2.385778 28.133989 -0.690607 1.655699 -0.006048 -0.017947 -667799.000000 0 0 1
-21.152429 19.044349 -1.761678 28.516942 -0.733002 1.632612 0.011168 -0.025232 423074.000000 0 0 1
-19.919329 18.759549 -1.105578 27.384716 -0.755422 1.611179 0.027041 -0.024050 37889.600000 0 0 1
-19.233729 19.975749 -0.561378 27.735934 -0.804320 1.591038 0.039052 -0.036000 -700387.000000 0 0 1
-19.956229 20.532749 0.477722 28.636918 -0.799636 1.554114 0.028770 -0.029181 -39326.500000 0 0 1
-19.484829 21.815849 0.901122 29.264344 -0.841779 1.539999 0.035126 -0.038206 217832.000000 0 0 1
-20.495129 22.420749 1.910422 30.436656 -0.830238 1.507988 0.020055 -0.036044 137569.000000 0 0 1
-20.463029 21.731449 3.111822 30.011246 -0.815450 1.466921 0.030321 -0.026091 288977.000000 0 0 1
-21.481529 22.264749 3.937522 31.187806 -0.803300 1.444207 0.011782 -0.026107 24666.700000 0 0 1
-21.265129 21.879549 5.434622 30.991216 -0.799638 1.394525 0.020219 -0.018645 -247243.000000 0 0 1
-20.169529 22.562649 5.987922 30.850255 -0.841342 1.375460 0.021644 -0.012881 -18900.800000 0 0 1
-19.596829 22.043249 7.181422 30.356439 -0.844082 1.331962 0.006400 -0.005569 -134632.000000 0 0 1
-20.522529 21.970649 8.408522 31.218374 -0.819464 1.298083 0.013483 -0.021050 -296760.000000 0 0 1
-21.675829 21.154149 8.344222 31.416009 -0.773219 1.301966 0.017637 -0.020122 405579.000000 0 0 1
-22.118529 20.541049 9.518022 31.650541 -0.748437 1.265346 0.031937 -0.020355 272233.000000 0 0 1
-22.807329 21.511349 10.594522 33.093146 -0.756164 1.244916 0.032105 -0.021751 -60718.400000 0 0 1
-23.903129 22.291249 10.141722 34.221541 -0.750519 1.269922 0.040352 -0.024690 327511.000000 0 0 1
-24.540429 22.839449 11.287922 35.373582 -0.749513 1.246010 0.049198 -0.014344 -66134.700000 0 0 1
-25.797689 23.659049 10.938722 36.673246 -0.742182 1.267911 0.042571 -0.020261 -306304.000000 0 0 1
-26.464839 24.120449 12.079422 37.790160 -0.739086 1.245442 0.035550 -0.017032 -7303.590000 0 0 1
-26.479509 25.547149 12.194822 38.762545 -0.767479 1.250758 0.029288 -0.017847 129915.000000 0 0 1
-27.005889 26.151549 13.531222 39.953918 -0.769328 1.225293 0.037415 -0.020888 64196.400000 0 0 1
-26.084489 26.004749 14.583422 39.614691 -0.783867 1.193798 0.019982 -0.015396 -28242.800000 0 0 1
-26.391749 26.854049 15.643322 40.772269 -0.794080 1.177023 0.018181 -0.013893 41277.900000 0 0 1
-25.416679 26.778549 16.838622 40.578781 -0.811484 1.142896 0.011559 -0.013067 1309.180000 0 0 1
-25.205379 25.523849 17.431022 39.882559 -0.791676 1.118470 0.024543 -0.013253 -92950.700000 0 0 1
-24.163829 25.612649 18.366222 39.714186 -0.814496 1.090029 0.023246 -0.013058 -276046.000000 0 0 1
-23.755829 24.245749 18.920222 38.860913 -0.795604 1.062293 0.025081 -0.012788 -38885.800000 0 0 1
-22.577529 24.266049 19.716122 38.565677 -0.821428 1.034175 0.030080 -0.014507 491119.000000 0 0 1
-22.278329 22.970849 20.206922 37.845786 -0.800702 1.007557 0.031547 -0.017972 265623.000000 0 0 1
-20.806929 22.654949 20.626522 37.035502 -0.827893 0.980100 0.048626 -0.013311 171621.000000 0 0 1
-19.928029 22.611549 19.507022 35.901705 -0.848398 0.996380 0.044026 -0.016100 695981.000000 0 0 1
-18.562629 22.263549 19.765222 35.084196 -0.875802 0.972343 0.034904 -0.011650 849213.000000 0 0 1
-18.329229 20.744349 19.903522 34.094557 -0.847129 0.947427 0.047977 -0.021135 -645278.000000 0 0 1
-18.834629 20.268849 21.128122 34.813317 -0.822059 0.918645 0.060637 -0.026266 26337.400000 0 0 1
-18.030429 20.472849 22.265322 35.213328 -0.848747 0.886280 0.063990 -0.029056 -460255.000000 0 0 1
-18.928529 20.440949 23.478822 36.433181 -0.823795 0.870512 0.052331 -0.020438 -231809.000000 0 0 1
-19.839429 21.523549 23.512022 37.545723 -0.826091 0.894096 0.041542 -0.016469 -178281.000000 0 0 1
-20.416229 21.662949 24.762222 38.720452 -0.815017 0.876932 0.041381 -0.016616 -503013.000000 0 0 1
-21.487629 22.736949 24.657222 39.832972 -0.813640 0.903308 0.039663 -0.006064 -833951.000000 0 0 1
-20.944329 24.051649 24.811622 40.407466 -0.854346 0.909633 0.034911 -0.006085 -189952.000000 0 0 1
-21.834729 25.048849 25.177722 41.690741 -0.853846 0.922391 0.021682 0.001524 -219683.000000 0 0 1
-22.833729 25.499349 24.048422 41.832076 -0.840493 0.958339 0.009027 -0.009717 22559.200000 0 0 1
-23.907729 24.599449 23.935022 41.828192 -0.799657 0.961583 0.005961 -0.011511 -296572.000000 0 0 1
-24.652729 24.956249 22.783522 41.828941 -0.791516 0.994785 0.003473 -0.013646 -360586.000000 0 0 1
-25.543259 23.846149 22.273022 41.438924 -0.751050 1.003338 0.007211 -0.012113 -679509.000000 0 0 1
-26.765759 23.767449 22.961322 42.526695 -0.726134 1.000446 0.007710 -0.018019 -444215.000000 0 0 1
-27.492869 22.702049 22.362822 42.087251 -0.690242 1.010610 0.014720 -0.016715 -1112470.000000 0 0 1
-28.951199 22.878749 22.687922 43.316866 -0.668769 1.019530 0.019125 -0.011140 -1461320.000000 0 0 1
-29.528159 23.913849 21.920822 43.866921 -0.680728 1.047530 0.017737 -0.010671 -14574.300000 0 0 1
-30.910729 24.187749 21.991122 44.990330 -0.663981 1.060086 0.015809 -0.000815 145588.000000 0 0 1
-31.785729 23.273649 21.078222 44.679825 -0.632014 1.079509 0.019994 -0.009740 -893274.000000 0 0 1
-31.805339 21.916049 21.562122 44.235935 -0.603351 1.061647 0.016108 -0.011828 367577.000000 0 0 1
-32.350229 21.036849 20.552222 43.720478 -0.576575 1.081412 0.010792 -0.009425 939929.000000 0 0 1
-33.920939 21.050449 20.428022 44.844795 -0.555410 1.097832 0.007849 -0.010929 452837.000000 0 0 1
-34.274884 20.128649 19.445322 44.249867 -0.531007 1.115817 0.011784 -0.012189 465758.000000 0 0 1
34.939064 20.235849 19.302322 44.752736 0.524967 1.124852 0.019167 -0.007586 515963.000000 0 0 1
34.391641 19.513249 18.112722 43.492787 0.516091 1.141255 0.017077 0.002077 -578647.000000 0 0 1
34.503551 18.107749 18.285322 43.043450 0.483297 1.132043 0.025423 -0.011591 -6507.810000 0 0 1
33.767201 17.391049 17.358422 41.761073 0.475597 1.142128 0.028912 -0.016088 -390521.000000 0 0 1
34.174821 15.900049 17.290522 41.469170 0.435468 1.140710 0.031241 -0.017118 -372639.000000 0 0 1
33.315801 15.049349 16.584422 40.143101 0.424282 1.144905 0.035462 -0.025904 -52865.100000 0 0 1
33.804671 13.735449 16.609322 40.090995 0.385941 1.143633 0.037254 -0.024861 -157030.000000 0 0 1
32.865321 12.754649 15.868922 38.660485 0.370196 1.147828 0.031613 -0.024405 42561.000000 0 0 1
32.776441 13.088349 14.504522 38.157320 0.379922 1.180866 0.026605 -0.023293 692748.000000 0 0 1
31.899401 12.213949 13.742822 36.818711 0.365670 1.188280 0.027407 -0.015033 205193.000000 0 0 1
31.816681 12.505549 12.235622 36.309783 0.374501 1.227090 0.024974 -0.017863 -40790.100000 0 0 1
33.137091 12.413149 11.725422 37.277856 0.358420 1.250823 0.034169 -0.012800 667002.000000 0 0 1
33.098471 12.652649 10.309522 36.903720 0.365132 1.287666 0.030420 -0.001083 -5507.420000 0 0 1
34.484581 12.520749 9.617422 37.926907 0.348282 1.314419 0.014999 0.008534 177986.000000 0 0 1
34.948798 11.159349 9.679922 37.942726 0.309073 1.312825 0.015011 0.013088 -510193.000000 0 0 1
-34.443924 11.002849 9.086322 37.282809 -0.309197 1.324603 0.006871 0.027684 -534667.000000 0 0 1
-34.379873 10.707949 7.569322 36.795794 -0.301937 1.363606 -0.008509 0.024119 -83241.200000 0 0 1
-34.537063 11.861549 6.689822 37.124908 -0.330822 1.389609 -0.005600 0.015782 12355.800000 0 0 1
-33.952849 11.562849 5.438422 36.277705 -0.328237 1.420318 -0.000918 0.004635 -390.901000 0 0 1
-34.233305 12.620849 4.367922 36.746207 -0.353211 1.451647 0.018779 0.014094 1708390.000000 0 0 1
35.018278 12.522449 3.875622 37.391335 0.343427 1.466960 0.027548 0.009708 1863920.000000 0 0 1
34.149141 13.617049 4.043122 36.985601 0.379430 1.461261 0.020348 -0.002068 215638.000000 0 0 1
33.843451 14.142149 5.516122 37.091874 0.395816 1.421528 0.034380 -0.000493 -279381.000000 0 0 1
33.014281 15.323049 5.561322 36.819382 0.434545 1.419173 0.022191 0.002862 240722.000000 0 0 1
33.009281 15.949849 6.859722 37.296998 0.450112 1.385822 -0.000070 0.004713 240534.000000 0 0 1
31.701741 15.674749 7.707122 36.195274 0.459193 1.356222 0.010008 0.004963 619975.000000 0 0 1
31.559961 14.305449 7.858122 35.530650 0.425577 1.347788 0.036052 -0.000865 -297114.000000 0 0 1
30.249711 13.843949 8.018722 34.219875 0.429202 1.334268 0.033139 -0.005564 -421150.000000 0 0 1
30.111131 12.404049 7.408222 33.397940 0.390759 1.347119 0.049347 0.000962 -105916.000000 0 0 1
30.138241 12.487549 6.040922 33.177480 0.392809 1.387696 0.044629 0.001891 204077.000000 0 0 1
30.439461 11.197349 5.442422 32.887100 0.352493 1.404543 0.059067 0.000742 -26676.000000 0 0 1
30.342831 11.115049 3.937122 32.553535 0.351135 1.449557 0.045582 -0.005621 807241.000000 0 0 1
28.985531 11.275449 3.491222 31.296731 0.370990 1.459011 0.056948 -0.005814 898833.000000 0 0 1
28.895391 11.334949 2.098122 31.109915 0.373829 1.503303 0.059445 -0.012616 -1369430.000000 0 0 1
27.485561 11.275349 1.627322 29.752945 0.389292 1.516075 0.059680 -0.007460 -1182330.000000 0 0 1
26.922221 9.970449 1.672722 28.757848 0.354681 1.512598 0.053050 -0.008444 593219.000000 0 0 1
25.498831 9.915749 1.624722 27.407155 0.370876 1.511481 0.046110 -0.009169 537046.000000 0 0 1
24.930931 8.462149 1.590422 26.375912 0.327222 1.510461 0.041733 -0.011261 -48386.000000 0 0 1
25.187831 7.642349 2.750622 26.465038 0.294586 1.466674 0.046118 -0.008516 9267.000000 0 0 1
26.539271 7.278249 2.829822 27.664304 0.267664 1.468326 0.072992 -0.013820 -577854.000000 0 0 1
26.951111 6.663649 4.153422 28.071649 0.242388 1.422293 0.078790 -0.022767 914123.000000 0 0 1
28.326601 6.196749 4.209822 29.300488 0.215368 1.426620 0.088472 -0.023368 1455230.000000 0 0 1
28.613221 5.758949 5.514022 29.703305 0.198615 1.384077 0.069759 -0.010114 625751.000000 0 0 1
30.153761 5.698049 5.823422 31.235065 0.186764 1.383260 0.069378 -0.006786 811769.000000 0 0 1
30.668891 6.994849 6.085322 32.039662 0.224241 1.379705 0.069969 -0.009742 -561808.000000 0 0 1
31.932081 6.988249 6.671322 33.361654 0.215451 1.369469 0.034471 0.002667 -286601.000000 0 0 1
32.150061 8.248349 7.482722 34.024297 0.251141 1.349061 0.030610 -0.005229 561805.000000 0 0 1
31.363621 8.227749 8.691622 33.569582 0.256553 1.308899 0.049490 -0.006642 703403.000000 0 0 1
32.076331 9.032649 9.621622 34.685088 0.274490 1.289710 0.055421 0.002239 277724.000000 0 0 1
31.458621 8.832649 11.022622 34.484180 0.273723 1.245444 0.048220 -0.005216 136543.000000 0 0 1
30.142751 9.344949 11.171922 33.477236 0.300627 1.230552 0.039036 -0.011093 315533.000000 0 0 1
29.662091 9.309449 12.491422 33.504344 0.304114 1.188739 0.037431 -0.013008 -11545.000000 0 0 1
28.248481 9.958149 12.574322 32.484688 0.338918 1.173329 0.030206 -0.014817 45806.900000 0 0 1
28.084631 11.360049 12.449322 32.753363 0.384374 1.180900 0.023471 -0.017745 255612.000000 0 0 1
28.269831 11.854049 11.085122 32.597266 0.397048 1.223813 0.032703 -0.018619 -636263.000000 0 0 1
26.970691 12.080649 10.303822 31.297428 0.421121 1.235316 0.020876 -0.007983 -353886.000000 0 0 1
27.180491 12.666449 9.033622 31.318115 0.436090 1.278192 0.006941 0.005197 -106981.000000 0 0 1
25.967591 12.938749 8.373322 30.196681 0.462259 1.289821 0.016531 0.008096 -138117.000000 0 0 1
26.072181 14.107049 7.373922 30.547376 0.495966 1.326995 0.016244 0.005459 -48148.000000 0 0 1
25.997931 15.380649 7.971722 31.241081 0.534228 1.312775 0.015591 0.006751 287580.000000 0 0 1
26.069921 16.430349 7.075422 31.617380 0.562360 1.345102 0.010065 0.008411 -654382.000000 0 0 1
25.921671 17.868549 7.726122 32.417758 0.603528 1.330150 0.019258 0.004916 703778.000000 0 0 1
24.572731 18.279449 7.993222 31.651998 0.639580 1.315498 0.020808 0.007146 859091.000000 0 0 1
23.798531 17.574949 8.950622 30.908939 0.636093 1.277008 0.033399 0.004348 -438996.000000 0 0 1
22.475031 18.311949 9.229122 30.424187 0.683682 1.262592 0.040006 0.004873 -505185.000000 0 0 1
21.580731 18.305949 8.167822 29.454185 0.703480 1.289807 0.048490 -0.005699 -46126.500000 0 0 1
20.580231 19.300249 8.332522 29.418981 0.753314 1.283629 0.074987 -0.012042 -39617.500000 0 0 1
19.888031 19.700549 7.069822 28.872613 0.780662 1.323418 0.062665 -0.014182 132618.000000 0 0 1
20.682831 20.620649 6.335622 29.885293 0.783893 1.357177 0.043529 0.003359 419614.000000 0 0 1
19.995131 20.777449 5.127922 29.288278 0.804583 1.394805 0.046181 -0.005596 223278.000000 0 0 1
17.882171 17.641649 32.905375 41.397627 0.778628 0.652017 0.005627 0.001725 265734.000000 0 0 1
16.984871 18.382549 32.068955 40.679501 0.824896 0.662703 0.017225 -0.002159 371683.000000 0 0 1
16.272471 17.567449 31.185025 39.318117 0.823647 0.654838 0.032953 -0.006936 -323995.000000 0 0 1
15.793971 18.220149 29.850835 38.373111 0.856606 0.679463 0.031690 -0.010650 -419529.000000 0 0 1
16.697371 18.536749 28.862745 38.150639 0.837555 0.712780 0.028216 -0.009560 -446627.000000 0 0 1
16.007371 18.943649 27.688195 37.171681 0.869213 0.730451 0.044382 -0.028387 -485278.000000 0 0 1
16.993771 19.168849 26.580015 36.915176 0.845473 0.766952 0.043079 -0.020206 -340289.000000 0 0 1
17.883771 20.226149 26.948355 38.146300 0.846785 0.786330 0.043741 -0.014592 454836.000000 0 0 1
18.803571 20.519149 25.898565 38.017698 0.828999 0.821363 0.047622 -0.017737 113141.000000 0 0 1
19.710571 21.739449 26.125655 39.289440 0.834307 0.843365 0.058729 -0.011661 -344158.000000 0 0 1
19.043671 22.964449 25.983055 39.561932 0.878462 0.854270 0.052431 -0.023514 362371.000000 0 0 1
19.779371 24.119449 26.436205 40.888192 0.883943 0.867745 0.065431 -0.025640 -234655.000000 0 0 1
18.945071 25.370649 26.233035 41.118823 0.929390 0.878923 0.065216 -0.030710 -233356.000000 0 0 1
18.954171 25.921249 24.942925 40.661053 0.939422 0.910393 0.068588 -0.028514 1088050.000000 0 0 1
17.904671 26.929749 24.726435 40.708539 0.984041 0.918011 0.063040 -0.026593 783808.000000 0 0 1
18.027171 27.791349 23.450345 40.586409 0.995363 0.954780 0.054560 -0.024602 -391902.000000 0 0 1
19.021771 28.762849 23.578845 41.774288 0.986497 0.971048 0.068455 -0.019835 -379100.000000 0 0 1
19.036571 29.528049 22.373845 41.651958 0.998160 1.003728 0.054536 -0.014038 171833.000000 0 0 1
20.295171 30.405749 22.095145 42.715324 0.982232 1.027144 0.062529 -0.008290 173794.000000 0 0 1
21.344671 29.627749 21.560045 42.405589 0.946491 1.037442 0.063920 -0.005120 285652.000000 0 0 1
22.430371 30.329249 20.932645 43.141169 0.934009 1.064190 0.064275 -0.013498 602300.000000 0 0 1
22.307971 30.611049 19.393445 42.553350 0.941031 1.097588 0.054298 -0.012004 -197053.000000 0 0 1
21.482271 31.709349 19.043745 42.774233 0.975349 1.109382 0.040850 0.000610 358088.000000 0 0 1
21.474471 31.729349 17.645645 42.181433 0.975810 1.139193 0.031435 -0.007010 -151762.000000 0 0 1
20.847471 33.080749 17.167045 42.704337 1.008467 1.157099 0.039472 -0.000556 -596030.000000 0 0 1
21.579171 34.245749 17.624945 44.148280 1.008519 1.160129 0.036231 0.003702 763428.000000 0 0 1
22.229071 -34.117494 16.612945 43.978687 -0.993336 1.183431 0.027379 0.002463 276603.000000 0 0 1
23.374771 34.375549 15.793345 44.468956 0.973632 1.207717 0.027579 -0.002380 -711221.000000 0 0 1
22.875071 33.419149 14.847145 43.134048 0.970556 1.219400 0.037177 -0.012882 161483.000000 0 0 1
22.334671 33.988949 13.693145 42.913732 0.989435 1.246032 0.018972 -0.009975 -459581.000000 0 0 1
21.752471 32.979749 12.735745 41.509433 0.987723 1.258951 0.016964 -0.005521 -265501.000000 0 0 1
22.676171 32.273649 11.918945 41.205077 0.958313 1.277344 0.031843 -0.022831 -140681.000000 0 0 1
22.103071 31.105349 11.346645 39.809984 0.953000 1.281769 0.031829 -0.029528 -1495260.000000 0 0 1
23.113971 30.254349 10.531145 39.502991 0.918403 1.300942 0.030589 -0.023651 77728.700000 0 0 1
24.063071 29.523749 11.251245 39.714904 0.886951 1.283563 0.028882 -0.017529 240230.000000 0 0 1
24.915971 30.362449 12.068245 41.089250 0.883609 1.272693 0.028932 -0.019610 -1755090.000000 0 0 1
26.301871 29.768449 12.335045 41.594498 0.847145 1.269713 0.023574 -0.010722 -130032.000000 0 0 1
26.316871 28.648649 13.243345 41.093904 0.827795 1.242670 0.025779 -0.014000 -835142.000000 0 0 1
27.600171 28.482049 13.729345 41.970126 0.801122 1.237540 0.018663 -0.009394 -668945.000000 0 0 1
27.680771 27.175649 14.569045 41.436675 0.776190 1.211519 0.004481 -0.012986 -250820.000000 0 0 1
28.902671 27.256349 15.260745 42.557764 0.756091 1.204040 -0.006456 -0.013427 -113351.000000 0 0 1
29.076171 26.103949 15.973045 42.213481 0.731586 1.182743 0.006492 -0.017037 -127219.000000 0 0 1
30.309371 26.179049 16.891845 43.466481 0.712410 1.171665 0.014035 -0.011313 211778.000000 0 0 1
31.544271 26.159449 16.179945 44.058466 0.692349 1.194758 0.023555 -0.009034 135247.000000 0 0 1
32.601271 26.452949 17.079945 45.324672 0.681659 1.184419 0.014049 -0.010290 609489.000000 0 0 1
33.956071 26.802349 16.394345 46.261811 0.668197 1.208543 0.023128 -0.016222 378562.000000 0 0 1
33.922471 27.926549 15.571445 46.616478 0.688756 1.230217 0.031551 -0.006131 71402.100000 0 0 1
35.231171 28.416249 15.262145 47.766638 0.678732 1.245579 0.049680 -0.009725 606777.000000 0 0 1
-35.278689 29.666849 14.360945 48.279857 -0.699204 1.268773 0.036481 -0.013601 -22942.500000 0 0 1
34.857871 30.850449 14.942145 48.888537 0.724486 1.260189 0.048841 -0.015898 10692.800000 0 0 1
34.868771 31.923949 14.035745 49.315026 0.741338 1.282193 0.023151 -0.001432 212660.000000 0 0 1
34.166071 33.239549 14.494145 49.822367 0.771654 1.275612 0.018248 -0.004245 -879721.000000 0 0 1
34.204471 34.279449 13.529445 50.279940 0.786493 1.298356 0.000470 -0.010364 435705.000000 0 0 1
33.276071 -33.797194 13.828045 49.404069 -0.793167 1.287110 0.000699 -0.003725 -2148.690000 0 0 1
31.797871 -34.088794 13.570545 48.552138 -0.820155 1.287518 0.019769 -0.002959 -762859.000000 0 0 1
31.294971 33.969149 14.318545 48.355961 0.826350 1.270182 0.014345 -0.003784 146189.000000 0 0 1
30.236471 33.287449 13.587445 46.977836 0.833390 1.277373 0.014067 0.001447 477707.000000 0 0 1
29.730871 32.025549 14.284945 45.974124 0.822538 1.254849 0.019020 -0.005022 -274963.000000 0 0 1
28.715071 32.191249 15.242345 45.751075 0.842410 1.231145 0.022871 0.003397 85040.000000 0 0 1
28.739371 31.093449 16.152745 45.317383 0.824722 1.206346 0.020829 -0.010937 -394389.000000 0 0 1
27.634371 31.074949 17.200545 45.001885 0.843935 1.178601 0.020763 -0.009706 -407143.000000 0 0 1
27.664871 29.963149 18.118345 44.625215 0.825258 1.152711 0.023035 -0.010999 -119189.000000 0 0 1
28.363271 30.144049 19.313645 45.674453 0.815826 1.134203 0.020505 -0.001834 -255150.000000 0 0 1
28.278971 29.013149 20.383945 45.353811 0.798212 1.104655 0.016183 -0.002238 -57441.200000 0 0 1
27.016371 28.910449 21.019745 44.805446 0.819252 1.082487 0.027475 -0.002319 158720.000000 0 0 1
27.052771 28.020749 22.152645 44.807973 0.802972 1.053663 0.018377 -0.002155 -71871.300000 0 0 1
25.820271 28.118149 23.060745 44.599491 0.827974 1.027380 0.030031 -0.012557 -333498.000000 0 0 1
24.634271 27.574249 22.552645 43.310602 0.841651 1.023104 0.057690 -0.013385 117850.000000 0 0 1
23.470671 27.741949 23.350345 43.194059 0.868608 0.999656 0.073111 -0.022255 449627.000000 0 0 1
23.306371 26.568249 24.385435 42.938423 0.850707 0.966824 0.060666 -0.030267 -474549.000000 0 0 1
24.136171 26.764449 25.520835 44.161108 0.836988 0.954640 0.050689 -0.023557 282021.000000 0 0 1
23.894571 25.762549 26.439625 43.974006 0.822998 0.925725 0.069066 -0.023916 -95323.600000 0 0 1
24.989571 25.723249 27.543005 45.219258 0.799864 0.915872 0.064487 -0.015330 151077.000000 0 0 1
25.278171 26.917349 28.275945 46.508694 0.816792 0.917294 0.065096 -0.027179 361105.000000 0 0 1
26.242471 27.768349 27.684795 47.182585 0.813642 0.943746 0.048223 -0.007937 -471858.000000 0 0 1
26.735471 28.882049 28.602775 48.652614 0.823974 0.942338 0.017297 -0.005646 -372193.000000 0 0 1
27.448171 28.423349 29.715585 49.439911 0.802850 0.925989 0.012465 0.004930 -90695.800000 0 0 1
27.895471 29.543249 30.470825 50.788109 0.814078 0.927345 0.008439 0.003235 1202010.000000 0 0 1
29.452571 29.812249 30.507505 51.835624 0.791467 0.941541 -0.013045 0.002203 767866.000000 0 0 1
29.943271 30.052349 29.218225 51.511628 0.787216 0.967675 -0.017700 0.000310 1200240.000000 0 0 1
31.389071 30.250049 29.263965 52.504465 0.766921 0.979592 0.000958 -0.008904 1560050.000000 0 0 1
31.961971 30.764749 27.913125 52.413547 0.766314 1.009179 -0.003772 -0.000079 -382432.000000 0 0 1
31.636571 32.096549 27.608955 52.851825 0.792615 1.021152 -0.003957 -0.000858 142765.000000 0 0 1
31.976471 32.432649 26.298605 52.592661 0.792481 1.047148 -0.002152 -0.000566 -173514.000000 0 0 1
31.476971 33.860749 26.058975 53.069955 0.821866 1.057524 0.004856 -0.007118 -145675.000000 0 0 1
32.199771 -34.403894 26.938135 54.278138 -0.818479 1.051467 0.008980 -0.006337 449924.000000 0 0 1
31.854771 -33.042494 26.813785 53.155544 -0.803698 1.042063 0.012734 -0.006356 43745.800000 0 0 1
32.953371 -32.106394 27.467205 53.583509 -0.772380 1.032580 0.006594 -0.006442 510717.000000 0 0 1
33.065571 -32.131494 28.875925 54.402058 -0.771072 1.011267 0.009313 -0.013691 410013.000000 0 0 1
34.165171 -31.329894 29.272195 54.824105 -0.742135 1.007555 0.004652 -0.018512 -57277.900000 0 0 1
33.926771 -30.748294 30.680535 55.116046 -0.736292 0.980444 0.011891 -0.013336 -336942.000000 0 0 1
33.988071 -31.665794 31.768795 56.277595 -0.750041 0.970967 0.013004 -0.007534 -194173.000000 0 0 1
32.791671 -32.359994 31.982085 56.083122 -0.778773 0.963971 0.014757 -0.014862 -589162.000000 0 0 1
32.788071 -33.366994 33.146672 57.333373 -0.794149 0.954350 0.025927 -0.012793 -558092.000000 0 0 1
32.499871 -32.728994 34.390375 57.533699 -0.788911 0.930113 0.011204 -0.011872 88088.000000 0 0 1
32.584371 -33.573694 -33.514558 57.551366 -0.800351 2.192403 0.016985 -0.008298 116950.000000 0 0 1
31.612771 34.358349 -33.308678 57.352693 0.826992 2.190470 0.015230 -0.006567 159578.000000 0 0 1
31.912371 33.394949 -34.344025 57.559830 0.808096 2.210137 0.014693 -0.008024 133426.000000 0 0 1
31.011471 32.316849 -34.231736 56.372882 0.806008 2.223376 0.019309 -0.001193 -55458.000000 0 0 1
31.192971 31.239349 33.722358 55.552639 0.786141 0.918473 0.016061 0.000091 -780402.000000 0 0 1
32.422571 30.617949 33.701449 55.896955 0.756780 0.923639 0.010565 -0.003005 -906821.000000 0 0 1
32.624171 29.763549 32.608825 54.895727 0.739578 0.934757 -0.001747 -0.005509 -720922.000000 0 0 1
34.034271 29.255749 32.360485 55.330203 0.710039 0.946087 0.005564 -0.007561 -693339.000000 0 0 1
34.249571 28.147949 33.254882 55.418655 0.687922 0.927212 0.006521 -0.002594 1275320.000000 0 0 1
-35.093889 27.508249 33.084160 55.523386 -0.664814 0.932460 -0.002213 -0.004227 652753.000000 0 0 1
-34.957189 26.177949 33.885792 55.276912 -0.642769 0.910920 -0.001595 -0.002481 183468.000000 0 0 1
34.992371 25.061849 33.297455 54.417670 0.621522 0.912352 -0.004892 -0.001889 290504.000000 0 0 1
35.317871 23.916149 34.013794 54.555223 0.595238 0.897617 0.001583 -0.000241 210476.000000 0 0 1
34.733971 22.591449 33.392596 53.215484 0.576666 0.892461 0.001441 -0.011122 -419491.000000 0 0 1
-34.946489 21.968249 32.614255 52.607515 -0.561202 0.902112 0.006774 -0.000999 -125809.000000 0 0 1
35.258671 20.719349 32.160885 52.026799 0.531281 0.904397 0.003957 -0.001908 604047.000000 0 0 1
-34.203089 20.055549 31.356545 50.550067 -0.530335 0.901663 0.001331 -0.009260 699122.000000 0 0 1
-33.730689 20.752449 30.204045 49.806705 -0.551550 0.919239 -0.001700 -0.005171 739380.000000 0 0 1
-32.655689 20.081349 29.516895 48.382865 -0.551334 0.914648 0.014044 -0.003807 632134.000000 0 0 1
-33.202689 19.061349 28.481985 47.717680 -0.521151 0.931183 0.018359 -0.002758 44569.000000 0 0 1
-33.981089 17.945849 28.933125 48.102948 -0.485884 0.925440 0.010497 -0.004261 666167.000000 0 0 1
-34.599689 17.132449 27.923465 47.648496 -0.459770 0.944645 0.018005 -0.016437 69495.200000 0 0 1
-35.180089 15.858749 28.568735 48.013656 -0.423509 0.933515 0.021057 -0.029158 162089.000000 0 0 1
-34.167989 15.013149 29.130125 47.343535 -0.413998 0.908039 0.025481 -0.028325 609967.000000 0 0 1
-34.671089 13.694649 29.381655 47.464823 -0.376178 0.903303 0.031355 -0.035625 -53712.200000 0 0 1
-33.612489 12.692649 29.881335 46.731113 -0.361063 0.877038 0.031939 -0.026745 -438813.000000 0 0 1
-33.223789 13.075949 31.196685 47.413434 -0.374953 0.852675 0.027538 -0.019684 780784.000000 0 0 1
-32.149689 12.271049 31.706645 46.792013 -0.364618 0.826291 0.031423 -0.023435 181145.000000 0 0 1
-30.706689 12.662149 31.425085 45.724902 -0.391114 0.813080 0.039519 -0.017918 -1538130.000000 0 0 1
-30.210789 12.446049 30.145675 44.456244 -0.390786 0.825625 0.038572 -0.018167 464581.000000 0 0 1
-28.924489 13.020349 29.901155 43.591680 -0.422978 0.814905 0.040525 -0.008665 135458.000000 0 0 1
-27.722489 12.207649 30.318355 42.857505 -0.414802 0.784952 0.037896 -0.009301 -1049480.000000 0 0 1
-27.635989 11.046049 29.547175 41.938033 -0.380246 0.789016 0.031147 -0.007714 199448.000000 0 0 1
-26.548289 10.276549 30.070685 41.408516 -0.369327 0.758024 0.023330 0.002281 58434.300000 0 0 1
-26.176889 9.147549 29.172255 40.248324 -0.336186 0.760043 0.013250 0.008994 -43156.300000 0 0 1
-26.972889 7.967649 29.152905 40.508172 -0.287226 0.767456 0.015751 0.009707 -495828.000000 0 0 1
-28.189589 8.049549 28.480865 40.873070 -0.278148 0.799853 0.030247 0.005163 -707827.000000 0 0 1
-29.030689 6.781049 28.592305 41.307184 -0.229468 0.806281 0.030855 0.007126 -173443.000000 0 0 1
-29.509489 6.515149 29.897705 42.510350 -0.217296 0.790762 0.030692 0.005346 36542.900000 0 0 1
-30.214489 5.319449 30.038535 42.936295 -0.174270 0.795949 0.037071 0.011346 -312123.000000 0 0 1
-30.872089 5.105049 31.395245 44.326164 -0.163878 0.783740 0.015334 0.006560 458648.000000 0 0 1
-32.008789 5.927349 31.712125 45.446176 -0.183105 0.798481 0.018875 0.004603 262573.000000 0 0 1
-32.643489 5.372849 32.841205 46.615551 -0.163129 0.789061 0.025144 0.008011 142614.000000 0 0 1
-34.148689 5.731049 32.897435 47.762109 -0.166277 0.810996 0.024214 0.011214 132181.000000 0 0 1
-34.244789 7.138149 32.988885 48.082484 -0.205502 0.814696 0.027560 -0.003450 244209.000000 0 0 1
35.032071 7.547449 32.907825 48.653211 0.212200 0.827966 0.030469 -0.004754 400798.000000 0 0 1
34.868071 9.046349 33.400451 49.124423 0.253848 0.823149 0.034104 -0.000930 -207308.000000 0 0 1
34.921571 9.185049 -34.308066 49.808881 0.257194 2.330621 0.037186 -0.004699 201647.000000 0 0 1
34.873371 10.539049 -33.901698 49.764934 0.293482 2.320247 0.038444 -0.018523 -175856.000000 0 0 1
34.689471 10.612549 -32.382408 48.627214 0.296888 2.299538 0.036760 -0.022338 103826.000000 0 0 1
33.452771 10.109549 -31.882778 47.305416 0.293477 2.310376 0.037436 -0.014218 447162.000000 0 0 1
33.436171 10.210749 -30.508498 46.400489 0.296386 2.288297 0.020257 -0.006312 199750.000000 0 0 1
32.220371 9.445449 -29.934828 44.982916 0.285162 2.298921 0.021846 -0.002280 -30214.700000 0 0 1
32.302771 8.051749 -30.063418 44.856535 0.244281 2.305292 0.019496 0.003142 1364390.000000 0 0 1
31.151771 7.315449 -29.517868 43.534505 0.230653 2.315881 0.009279 0.008419 814525.000000 0 0 1
34.229171 6.569149 -19.927978 40.148651 0.189611 2.090191 0.013732 -0.001643 -495839.000000 0 0 1
33.590491 7.610649 -19.201178 39.432579 0.222810 2.079376 0.008493 0.004215 302198.000000 0 0 1
34.215441 8.873949 -19.268678 40.258233 0.253764 2.069887 -0.003093 -0.001356 1071590.000000 0 0 1
-34.926919 9.049949 -18.703378 40.639975 -0.253535 2.049041 0.006257 0.000477 2125990.000000 0 0 1
-33.886619 8.283849 -19.315878 39.875158 -0.239756 2.076484 0.010745 -0.008401 633275.000000 0 0 1
-33.351599 8.845749 -20.548378 40.159834 -0.259258 2.107918 0.000669 -0.006167 -285512.000000 0 0 1
-32.660679 7.695349 -21.340578 39.766300 -0.231395 2.137258 -0.002910 0.000010 -17375.800000 0 0 1
-33.521389 6.657049 -21.831578 40.553885 -0.196040 2.139257 -0.000872 0.005363 459125.000000 0 0 1
-34.284302 7.089449 -22.959378 41.866534 -0.203910 2.151239 0.008523 0.009023 51272.400000 0 0 1
-34.288237 6.105449 -24.158278 42.386107 -0.176216 2.177250 0.006844 0.004950 426383.000000 0 0 1
-32.969039 6.066449 -24.695678 41.636953 -0.181969 2.205724 0.003056 0.002606 440745.000000 0 0 1
-32.771339 4.812349 -25.403138 41.742530 -0.145804 2.225050 0.002668 0.013206 -456020.000000 0 0 1
-31.432859 4.615449 -26.111068 41.123167 -0.145793 2.258737 0.007598 0.011562 -828764.000000 0 0 1
-30.346709 4.628349 -25.239308 39.741251 -0.151349 2.258923 0.006685 0.007325 -549837.000000 0 0 1
-29.182009 4.299249 -25.955508 39.290732 -0.146273 2.292416 0.013071 0.007819 -793635.000000 0 0 1
-27.878379 4.640349 -25.281948 37.919833 -0.164938 2.300597 0.019780 -0.003351 -779491.000000 0 0 1
-27.531779 6.017049 -25.378208 37.924361 -0.215166 2.303901 0.011016 0.003233 295319.000000 0 0 1
-26.177609 6.201049 -24.998878 36.724163 -0.232596 2.319542 0.016918 0.008922 201560.000000 0 0 1
-25.832899 7.667249 -25.276918 36.946556 -0.288520 2.324231 0.012007 0.002269 -504308.000000 0 0 1
-26.525989 8.546849 -24.504378 37.109854 -0.311703 2.292041 0.017923 -0.005734 -426134.000000 0 0 1
-26.203139 9.911849 -24.809878 37.421642 -0.361634 2.295591 0.002077 -0.006657 -32188.400000 0 0 1
-24.918529 10.496749 -24.179178 36.273234 -0.398684 2.300414 0.028245 -0.007933 390.100000 0 0 1
-25.000829 10.971649 -22.897878 35.633290 -0.413544 2.268680 0.017086 -0.006493 666401.000000 0 0 1
-23.650829 11.161849 -22.473078 34.481703 -0.440951 2.280672 0.039274 -0.005447 342739.000000 0 0 1
-23.575329 11.388049 -20.911978 33.508128 -0.449995 2.244758 0.049984 -0.020162 -819148.000000 0 0 1
-23.965429 12.716649 -20.534578 34.025341 -0.487846 2.218690 0.040374 -0.022619 1104280.000000 0 0 1
-25.347609 13.088549 -20.531478 35.147589 -0.476652 2.194629 0.035837 -0.013456 849288.000000 0 0 1
-26.421479 12.227649 -19.775578 35.194935 -0.433441 2.167462 0.021452 -0.004934 -148496.000000 0 0 1
-26.261449 12.394449 -18.394678 34.375140 -0.440968 2.135441 0.028378 -0.011828 340897.000000 0 0 1
-27.332349 11.793949 -17.708378 34.637280 -0.407365 2.107437 0.011213 -0.010520 -621492.000000 0 0 1
-26.906499 11.549749 -16.230778 33.478270 -0.405469 2.076948 0.030150 -0.012060 688675.000000 0 0 1
-26.043169 10.432949 -15.940278 32.267407 -0.381025 2.087487 0.045982 -0.015473 1569940.000000 0 0 1
-24.646729 10.584949 -16.259278 31.366647 -0.405648 2.115731 0.049974 -0.017010 596280.000000 0 0 1
-23.797829 9.281049 -16.183078 30.238495 -0.371852 2.135519 0.056994 -0.019085 610481.000000 0 0 1
-22.413929 9.597949 -16.009978 29.168892 -0.404589 2.151810 0.060261 -0.019937 632157.000000 0 0 1
-21.671429 8.432849 -15.684878 28.049584 -0.371095 2.164197 0.053238 -0.017439 253330.000000 0 0 1
-20.143529 8.686549 -15.586178 26.909977 -0.407138 2.188540 0.066160 -0.018289 196759.000000 0 0 1
-19.461029 8.902149 -16.818578 27.218458 -0.429019 2.236879 0.067906 -0.027195 717280.000000 0 0 1
-18.063629 8.970949 -16.526778 26.075027 -0.460948 2.257274 0.065853 -0.024219 169011.000000 0 0 1
-17.185429 9.540649 -17.683178 26.439700 -0.506796 2.303405 0.049931 -0.020966 -202448.000000 0 0 1
-17.023129 8.744249 -18.841078 26.855819 -0.474523 2.348386 0.072122 -0.025549 199697.000000 0 0 1
-16.136729 7.658049 -18.714178 25.870064 -0.443100 2.379498 0.073816 -0.024087 -831561.000000 0 0 1
-15.898329 6.989649 -20.082778 26.550518 -0.414211 2.428586 0.053969 -0.019702 -177529.000000 0 0 1
-16.869329 6.135849 -20.611878 27.332626 -0.348852 2.425098 0.057347 -0.012293 -537900.000000 0 0 1
-17.981029 6.799649 -21.156578 28.585896 -0.361535 2.404024 0.059191 -0.021095 -477981.000000 0 0 1
-19.012829 5.779149 -21.688678 29.415727 -0.295086 2.399885 0.051975 -0.006978 -356685.000000 0 0 1
-19.663529 5.016549 -20.701878 28.989444 -0.249791 2.366159 0.059381 -0.010594 87510.900000 0 0 1
-20.404229 3.995649 -21.311978 29.774119 -0.193377 2.368549 0.037638 0.011382 -590382.000000 0 0 1
-21.197129 3.086649 -20.375878 29.563865 -0.144600 2.331202 0.055594 0.003642 -354343.000000 0 0 1
-21.785529 1.990749 -21.017378 30.336489 -0.091126 2.336173 0.051836 0.005434 179215.000000 0 0 1
-22.585929 1.264049 -20.124278 30.277196 -0.055908 2.297845 0.059386 -0.000947 -330025.000000 0 0 1
-23.171729 -0.033051 -20.674878 31.054480 0.001426 2.299310 0.048835 0.009206 212664.000000 0 0 1
-22.215729 -1.098351 -20.684378 30.374142 0.049400 2.319905 0.040152 -0.001467 542835.000000 0 0 1
-22.786129 -2.388151 -20.933878 31.034468 0.104426 2.311133 0.038783 -0.005108 -272201.000000 0 0 1
-23.319529 -2.730451 -22.386678 32.441010 0.116558 2.332387 0.056162 -0.010508 756994.000000 0 0 1
-22.319229 -2.628751 -23.433178 32.468017 0.117240 2.377096 0.038350 -0.007649 1128520.000000 0 0 1
-21.236829 -3.579451 -23.319178 31.742707 0.166980 2.395919 0.021699 -0.019199 29009.800000 0 0 1
-20.194929 -3.312151 -24.425278 31.865337 0.162562 2.444194 0.031956 -0.012201 41069.400000 0 0 1
-20.737929 -3.726951 -25.685238 33.221730 0.177818 2.454583 0.023908 -0.004096 285800.000000 0 0 1
-19.728729 -3.756751 -26.654638 33.373727 0.188168 2.495880 0.022856 -0.009897 -329894.000000 0 0 1
-20.226029 -3.740351 -28.115328 34.836104 0.182862 2.509977 0.009814 -0.010964 95179.700000 0 0 1
-20.875829 -4.980351 -28.418088 35.611682 0.234193 2.494764 0.007239 -0.011578 419780.000000 0 0 1
-21.716329 -5.040151 -29.545328 37.012545 0.228053 2.495183 0.001338 -0.007527 -121255.000000 0 0 1
-21.533729 -6.265051 -30.355298 37.741177 0.283125 2.505296 0.003328 -0.002900 -1175560.000000 0 0 1
-20.411229 -6.190951 -31.125488 37.732508 0.294492 2.540819 -0.006426 -0.000482 -1036730.000000 0 0 1
-20.107129 -7.444451 -31.709098 38.277714 0.354590 2.547034 -0.019674 -0.001461 -715313.000000 0 0 1
-18.632929 -7.477651 -32.106118 37.866926 0.381638 2.582746 -0.006127 -0.009071 -737313.000000 0 0 1
-18.484829 -6.808851 -33.332978 38.718688 0.352926 2.607835 -0.003775 -0.011333 371230.000000 0 0 1
-18.362129 -7.776951 -34.365088 39.731700 0.400627 2.615805 -0.006937 -0.011403 -578505.000000 0 0 1
-18.493329 -7.221851 33.242405 38.719708 0.372300 0.538382 -0.006624 -0.007981 717832.000000 0 0 1
-17.247229 -6.802951 32.638015 37.536476 0.375702 0.516605 0.007431 -0.010515 905185.000000 0 0 1
-16.758929 -5.552751 32.957675 37.388542 0.319947 0.491785 0.005640 -0.010755 -702230.000000 0 0 1
-15.515529 -5.210851 32.146255 36.073069 0.324012 0.470939 0.006417 -0.009306 -572990.000000 0 0 1
-15.729429 -5.238651 30.777545 34.958771 0.321494 0.494101 0.014844 -0.009083 746964.000000 0 0 1
-14.520129 -4.954751 30.058035 33.747135 0.328844 0.471949 0.015616 -0.003243 613214.000000 0 0 1
-14.767929 -5.078751 28.525095 32.520247 0.331234 0.500904 0.024225 -0.008767 1547.590000 0 0 1
-15.516329 -3.981851 28.054005 32.305399 0.251203 0.518830 0.010343 -0.011561 -54875.200000 0 0 1
-15.831329 -4.092351 26.686715 31.297908 0.252960 0.549726 0.015477 -0.011448 -285081.000000 0 0 1
-14.774929 -3.609451 25.695895 29.859767 0.239603 0.534443 0.031448 -0.007862 -78948.400000 0 0 1
-14.568729 -2.212851 25.696485 29.621848 0.150738 0.520674 0.024835 -0.002044 202866.000000 0 0 1
-13.553329 -1.980451 24.716125 28.257773 0.145096 0.506049 0.026428 0.004552 39034.000000 0 0 1
-13.469629 -0.482751 24.355255 27.835991 0.035825 0.505452 0.025658 0.000224 135304.000000 0 0 1
-14.690529 0.036949 23.846845 28.008660 -0.002515 0.552129 0.018236 -0.008691 243362.000000 0 0 1
-14.943029 1.273749 24.444025 28.677986 -0.085035 0.550311 0.002266 -0.001892 22675.000000 0 0 1
-15.900729 2.147149 23.585845 28.526049 -0.134223 0.597370 0.005066 -0.004217 78116.300000 0 0 1
-15.170529 2.702349 22.529845 27.295449 -0.176282 0.599874 -0.005503 -0.001903 64719.800000 0 0 1
-15.983929 3.600749 21.857945 27.317048 -0.221574 0.643238 -0.014191 0.003571 -719949.000000 0 0 1
-15.360429 4.352649 20.700445 26.141858 -0.276129 0.656963 -0.016126 0.000906 -282578.000000 0 0 1
-14.444029 5.359749 21.067745 26.099938 -0.355321 0.631411 0.002534 0.001696 48991.400000 0 0 1
-13.327029 5.293649 20.204545 24.776118 -0.378100 0.617230 0.009569 -0.005721 27358.900000 0 1 0
-12.238729 6.363949 20.451445 24.668764 -0.479507 0.593404 0.009633 -0.003528 257056.000000 0 1 0
-12.706829 7.693349 20.260145 25.122193 -0.544417 0.632649 0.009680 -0.003085 -39165.200000 0 0 1
-11.599029 8.545749 20.354045 24.937009 -0.634976 0.615961 0.023106 -0.008583 -55285.700000 0 1 0
-11.930429 10.063949 20.318545 25.621504 -0.700739 0.655034 0.018760 -0.005683 -132662.000000 0 0 1
-12.384529 10.659649 19.117345 25.149106 -0.710686 0.707237 0.015867 -0.004843 182186.000000 0 0 1
-12.658629 12.001049 19.423545 26.106324 -0.758738 0.731734 0.000401 0.002213 -494946.000000 0 0 1
-13.120429 12.919249 18.288145 25.952050 -0.777672 0.788810 0.008528 -0.004491 -44816.300000 0 0 1
-12.100729 13.462149 17.456745 25.147466 -0.838606 0.803523 0.013156 -0.010274 488325.000000 0 0 1
-11.479129 14.684749 17.889245 25.834808 -0.907311 0.805921 0.015963 -0.011087 -25191.200000 0 0 1
-12.336929 15.949249 17.469445 26.678828 -0.912417 0.856871 0.010349 -0.010787 351414.000000 0 0 1
-12.506829 16.281949 16.086345 26.082429 -0.915786 0.906189 0.017854 -0.023374 159276.000000 0 0 1
-13.296529 15.398449 15.288245 25.448779 -0.858518 0.926363 0.028326 -0.021731 -290262.000000 0 0 1
-13.858429 16.031449 13.970745 25.381984 -0.857971 0.987929 0.027142 -0.025196 631669.000000 0 0 1
-15.009529 16.846549 14.262345 26.692820 -0.843001 1.007100 0.028727 -0.022405 458967.000000 0 0 1
-15.581829 17.352149 13.039745 26.719383 -0.839100 1.060970 0.025973 -0.019241 472117.000000 0 0 1
-16.790329 18.309449 13.238045 28.149545 -0.828651 1.081193 0.021819 -0.021548 1343650.000000 0 0 1
-18.105329 17.770349 13.484345 28.730050 -0.776061 1.082246 0.028713 -0.018621 679978.000000 0 0 1
-19.078329 18.746749 13.629945 30.019970 -0.776632 1.099514 0.029573 -0.021516 352644.000000 0 0 1
-20.576429 18.324549 13.583345 30.719469 -0.727575 1.112775 0.046118 -0.017566 611552.000000 0 0 1
-20.868029 17.674449 12.380945 30.019137 -0.702728 1.145671 0.044361 -0.020139 49854.100000 0 0 1
-22.211229 17.210549 12.386245 30.707666 -0.659221 1.155610 0.048161 -0.016840 -104854.000000 0 0 1
-22.580129 16.508749 11.119345 30.100512 -0.631307 1.192425 0.053112 -0.018681 171775.000000 0 0 1
-21.993229 15.158249 11.021545 28.895486 -0.603457 1.179456 0.046747 -0.013751 417601.000000 0 0 1
-22.432329 14.544549 9.833345 28.485926 -0.575232 1.218344 0.046220 -0.012949 -269584.000000 0 0 1
-21.787229 13.148349 9.663045 27.220155 -0.542981 1.207887 0.052615 -0.010450 -522092.000000 0 0 1
-22.193529 12.066749 10.493045 27.354399 -0.497998 1.177109 0.063274 -0.009255 435879.000000 0 0 1
-23.551229 11.617549 10.552145 28.301512 -0.458264 1.188721 0.058275 -0.002322 682156.000000 0 0 1
-24.357529 11.144249 9.300645 28.354638 -0.429096 1.236599 0.064623 0.000292 -124788.000000 0 0 1
-24.597929 12.301249 8.518545 28.791395 -0.463722 1.270429 0.066094 0.002564 -352771.000000 0 0 1
-25.708789 12.140349 7.705045 29.456708 -0.441182 1.306146 0.055400 0.006545 -834111.000000 0 0 1
-26.055049 13.468349 6.924645 30.136568 -0.477091 1.338949 0.040776 0.013442 -721683.000000 0 0 1
-25.231629 13.725349 5.846245 29.312095 -0.498205 1.370002 0.031947 0.016636 1092060.000000 0 0 1
-23.900429 14.226749 6.138545 28.483550 -0.536920 1.353580 0.041420 0.012742 625436.000000 0 0 1
-23.716529 15.720749 6.558345 29.199787 -0.585363 1.344261 0.044665 -0.005372 -777281.000000 0 0 1
-22.361729 16.064749 6.708545 28.339507 -0.622971 1.331807 0.027681 -0.010455 92923.100000 0 0 1
-22.223929 17.397749 7.033745 29.087081 -0.664189 1.326559 0.033470 -0.021879 670346.000000 0 0 1
-20.750429 17.903649 6.840845 28.247444 -0.711883 1.326189 0.020053 -0.018428 476166.000000 0 0 1
-20.395929 18.197549 5.517645 27.885285 -0.728497 1.371612 0.015017 -0.020800 -1364230.000000 0 0 1
-19.138729 18.696849 5.546745 27.324522 -0.773720 1.366381 0.009092 -0.008278 -1702010.000000 0 0 1
-18.510029 19.049949 4.163245 26.885951 -0.799772 1.415322 0.014988 -0.018734 728785.000000 0 0 1
-17.122229 19.397149 4.318845 26.231137 -0.847611 1.405398 0.009177 -0.016852 840864.000000 0 0 1
-16.666629 20.508149 3.535645 26.661986 -0.888369 1.437795 0.019029 -0.009292 66085.700000 0 0 1
-17.025829 21.895749 4.054745 28.031119 -0.909873 1.425636 0.022433 -0.014651 -17071.200000 0 0 1
-16.237029 22.166249 5.201545 27.964974 -0.938582 1.383705 0.018943 -0.008138 229846.000000 0 0 1
-16.611529 23.456649 5.644345 29.291909 -0.954602 1.376891 0.014663 -0.003412 -571395.000000 0 0 1
-15.865429 24.001249 6.809145 29.565795 -0.986710 1.338405 0.003787 0.010192 -601496.000000 0 0 1
-16.329429 23.426149 8.014245 29.659110 -0.962046 1.297183 0.002812 0.009192 67240.300000 0 0 1
-15.472129 23.543049 9.125045 29.612976 -0.989387 1.257555 0.005640 0.007405 61461.500000 0 0 1
-16.066929 22.818149 10.411045 29.785970 -0.957304 1.213729 -0.001604 0.005208 606260.000000 0 0 1
-17.191729 23.533749 10.957445 31.136128 -0.939883 1.211174 -0.009607 0.009246 375654.000000 0 0 1
-18.143329 22.563949 11.402145 31.117858 -0.893570 1.195640 -0.010241 -0.003061 422193.000000 0 0 1
-19.462529 23.153649 11.979345 32.532848 -0.871796 1.193699 0.002985 -0.003481 512465.000000 0 0 1
-20.342529 23.848849 11.081745 33.247423 -0.864576 1.230983 0.015956 -0.002598 389804.000000 0 0 1
-19.848629 25.115149 10.626145 33.729123 -0.901995 1.250294 0.001254 0.004782 -342048.000000 0 0 1
-20.954029 26.006149 9.991045 34.859892 -0.892569 1.280114 0.013461 0.005003 -448475.000000 0 0 1
-21.726929 26.497049 11.000145 35.988279 -0.883993 1.260166 0.027301 -0.004780 -416499.000000 0 0 1
-22.465029 27.633549 10.508145 37.131007 -0.888201 1.283874 0.024585 -0.003031 342643.000000 0 0 1
-23.473729 28.275449 11.504545 38.508071 -0.877922 1.267407 0.022909 -0.005324 -70199.700000 0 0 1
-22.829229 28.965449 12.550645 38.957536 -0.903321 1.242784 0.030324 -0.005019 155541.000000 0 0 1
-23.727129 29.552249 13.455145 40.216327 -0.894297 1.229648 0.020161 -0.006023 -114201.000000 0 0 1
8.273171 -33.057194 27.954735 44.075964 -1.325565 0.883771 -0.002865 -0.002933 -372223.000000 0 0 1
9.660171 -33.140094 27.786715 44.313499 -1.287160 0.893038 0.000486 -0.004903 -131057.000000 0 0 1
10.009771 -32.593894 26.514145 43.192097 -1.272833 0.909848 0.002649 -0.005697 -799246.000000 0 0 1
11.480271 -32.656394 26.143505 43.378791 -1.232744 0.923942 -0.001657 0.003263 -851551.000000 0 0 1
11.848371 -33.996094 26.032955 44.427840 -1.235439 0.944732 0.011349 -0.001384 -921667.000000 0 0 1
13.190071 -34.024094 25.704555 44.635648 -1.200966 0.957122 0.029344 0.000695 -1015290.000000 0 0 1
13.874671 33.763249 25.810715 44.706336 1.180895 0.955330 0.044183 0.005220 -262552.000000 0 0 1
13.820471 32.974049 24.655645 43.430336 1.173907 0.967080 0.036072 0.003923 191002.000000 0 0 1
14.661871 31.828249 24.745465 42.899253 1.139116 0.955957 0.045449 -0.001156 -23762.200000 0 0 1
15.112571 31.289049 23.414045 41.900022 1.120842 0.977849 0.045615 -0.001516 -131624.000000 0 0 1
14.112771 30.490949 22.777545 40.591684 1.137307 0.975036 0.032713 -0.002473 7412.270000 0 0 1
14.315471 29.104849 22.595345 39.529414 1.113683 0.962332 0.037124 0.001214 -207559.000000 0 0 1
14.052871 28.210549 23.835345 39.515084 1.108636 0.923294 0.034152 -0.010382 -201411.000000 0 0 1
14.924271 28.599949 24.882075 40.740748 1.089839 0.913799 0.051084 -0.006274 83554.200000 0 0 1
14.581471 28.153649 26.178595 41.116494 1.092912 0.880594 0.033680 -0.012289 -477696.000000 0 0 1
15.561571 28.648849 27.234225 42.480843 1.073202 0.874873 0.047611 -0.014087 -206253.000000 0 0 1
15.524371 30.027249 27.450925 43.545322 1.093634 0.888729 0.046751 -0.002094 52632.600000 0 0 1
16.349171 30.367249 28.547275 44.770661 1.076917 0.879374 0.050824 -0.008191 -21980.800000 0 0 1
16.140471 31.764749 29.167265 46.046101 1.100670 0.884811 0.049144 -0.009058 89505.600000 0 0 1
16.736571 32.780249 28.358805 46.463742 1.098730 0.914303 0.053065 -0.005913 142404.000000 0 0 1
16.307871 34.036049 28.810845 47.481197 1.123979 0.918788 0.060891 0.006085 103899.000000 0 0 1
16.959371 -33.870494 28.077275 47.150439 -1.106579 0.932930 0.054300 0.004026 -211888.000000 0 0 1
16.618871 -33.728394 26.722935 46.129238 -1.112984 0.952920 0.058341 0.005179 -27190.800000 0 0 1
16.909971 -32.488694 26.000435 44.916422 -1.090893 0.953463 0.056834 0.002183 -691095.000000 0 0 1
18.285571 -31.844694 26.031285 45.011936 -1.049555 0.954129 0.052587 0.009981 -641869.000000 0 0 1
18.602071 -31.113394 27.176375 45.306022 -1.031937 0.927495 0.033484 0.010503 76439.600000 0 0 1
19.735271 -30.273394 27.020165 45.122595 -0.993086 0.928773 0.040389 0.011722 196579.000000 0 0 1
20.046871 -29.449194 28.346295 45.526305 -0.973122 0.898690 0.037959 0.016667 -316818.000000 0 0 1
18.994971 -28.569194 28.626055 44.681750 -0.984034 0.875432 0.038258 0.012631 -11685.000000 0 0 1
19.301171 -27.644194 29.665015 44.908237 -0.961280 0.849219 0.053374 0.012765 817979.000000 0 0 1
17.962271 -27.034894 30.262135 44.377082 -0.984357 0.820396 0.048119 0.005118 973348.000000 0 0 1
17.305571 -26.170594 29.371885 42.977789 -0.986546 0.818359 0.052021 0.000627 133654.000000 0 0 1
16.004071 -25.873194 29.837305 42.612406 -1.016843 0.795116 0.039199 -0.002998 30317.900000 0 0 1
15.100571 -25.113594 28.833515 41.110721 -1.029428 0.793489 0.030472 -0.001214 -505963.000000 0 0 1
14.806571 -25.871094 27.630485 40.644701 -1.050978 0.823299 0.028585 -0.004657 314356.000000 0 0 1
13.905871 -25.235094 26.762205 39.324277 -1.067145 0.822281 0.039832 -0.012328 31108.300000 0 0 1
12.397471 -25.111494 27.116435 38.981860 -1.112204 0.801518 -0.003373 -0.007396 -183670.000000 0 0 1
11.523871 -26.189194 27.098065 39.407849 -1.156269 0.812575 -0.016911 -0.000298 -48254.400000 0 0 1
11.301171 -26.754494 25.874185 38.897208 -1.171128 0.843043 -0.005449 -0.006790 -571038.000000 0 0 1
10.492471 -28.067994 26.010615 39.679419 -1.213058 0.855927 0.000814 -0.000211 627211.000000 0 0 1
9.198271 -27.985494 26.617875 39.702736 -1.253240 0.836009 -0.030336 -0.008458 24189.300000 0 0 1
8.601171 -29.261894 26.698365 40.534445 -1.284911 0.851762 -0.030734 -0.007678 540520.000000 0 0 1
7.096571 -29.016194 27.142105 40.360806 -1.330932 0.833233 -0.025715 -0.004438 932217.000000 0 0 1
6.190871 -28.611294 26.134225 39.241951 -1.357703 0.841994 -0.016180 -0.007994 -113556.000000 0 0 1
6.496171 -27.409794 25.410655 37.936768 -1.338088 0.836835 -0.012099 -0.014849 -1324530.000000 0 0 1
5.449471 -27.048294 24.330165 36.786734 -1.371986 0.848134 -0.009720 -0.009280 -1021320.000000 0 0 1
5.172071 -27.976594 23.343845 36.801837 -1.387989 0.883678 -0.008108 -0.008015 -104470.000000 0 0 1
4.363571 -29.073894 23.732245 37.782952 -1.421823 0.891661 -0.001313 -0.000612 -345240.000000 0 0 1
2.910471 -28.722394 24.139715 37.632068 -1.469810 0.874388 0.003880 -0.010772 -805674.000000 0 0 1
2.127871 -28.300294 22.976445 36.515085 -1.495749 0.890232 0.005295 -0.004234 469758.000000 0 0 1
0.872971 -27.731294 23.307045 36.235412 -1.539327 0.872111 0.015888 -0.011404 185015.000000 0 0 1
0.893471 -26.354894 24.096555 35.721459 -1.536908 0.830417 0.024693 -0.017439 -670604.000000 0 0 1
1.028271 -26.591094 25.485245 36.846184 -1.532146 0.807003 0.023818 -0.022779 39695.400000 0 0 1
1.306471 -25.395394 26.204595 36.514568 -1.519396 0.770378 0.026789 -0.014799 645422.000000 0 0 1
2.849871 -25.234694 26.478245 36.687995 -1.458338 0.764521 0.022521 -0.002714 583664.000000 0 0 1
3.601971 -24.814394 25.368935 35.669471 -1.426647 0.779560 0.020817 -0.004476 36969.600000 0 0 1
4.694071 -23.949894 25.668355 35.418867 -1.377254 0.760185 0.017703 -0.004939 159287.000000 0 0 1
4.312471 -22.483094 25.860985 34.538058 -1.381289 0.724595 0.025635 0.001120 -340395.000000 0 0 1
4.103971 -21.793894 24.643325 33.152825 -1.384668 0.732769 0.029908 -0.011633 2403.840000 0 0 1
3.651171 -20.530494 25.021025 32.571213 -1.394795 0.694780 0.028369 -0.007866 -74764.500000 0 0 1
3.628771 -19.438294 23.912545 31.029422 -1.386239 0.690950 0.027491 -0.003271 923697.000000 0 0 1
4.929771 -18.822294 23.804245 30.744486 -1.314639 0.685250 0.032302 0.001475 832356.000000 0 0 1
4.907171 -17.875594 22.752745 29.347991 -1.302878 0.683647 0.040894 -0.003568 83284.700000 0 0 1
6.310671 -17.351794 22.378545 29.012214 -1.221978 0.689838 0.027219 -0.005676 -571307.000000 0 0 1
7.052171 -18.288394 21.627445 29.188094 -1.202757 0.736286 0.008464 -0.006922 583552.000000 0 0 1
8.335471 -17.753294 21.212245 28.889770 -1.131831 0.746239 0.002876 -0.005570 1485200.000000 0 0 1
9.473671 -17.793994 22.290045 30.053664 -1.081559 0.735233 -0.004935 0.003981 -459193.000000 0 0 1
9.271471 -16.989894 23.443945 30.401237 -1.071257 0.690149 -0.019368 0.017749 -414656.000000 0 0 1
10.233471 -17.195994 24.438655 31.585977 -1.033982 0.686107 -0.016929 0.019582 -437940.000000 0 0 1
10.274571 -16.299094 25.698445 32.119111 -1.008340 0.643337 -0.008880 0.010898 -373959.000000 0 0 1
10.621071 -14.970994 25.415185 31.350748 -0.953761 0.625497 -0.004687 0.013260 166467.000000 0 0 1
10.326971 -14.158794 26.510055 31.778936 -0.940631 0.584112 -0.008712 0.014909 -199375.000000 0 0 1
10.735671 -12.685694 26.331235 31.137042 -0.868465 0.563003 0.001323 0.006172 -165251.000000 0 0 1
9.776171 -11.923094 25.641565 29.920286 -0.884017 0.541385 0.014280 -0.000307 -29410.700000 0 0 1
10.139771 -10.563294 25.599525 29.491249 -0.805852 0.519559 0.021686 0.001538 442661.000000 0 0 1
8.987571 -9.701094 24.963765 28.250260 -0.823559 0.487162 0.033895 -0.001039 153849.000000 0 0 1
7.764971 -9.877194 25.601875 28.518585 -0.904557 0.456216 0.002444 0.009047 -705564.000000 0 0 1
6.747071 -9.260294 24.812975 27.330564 -0.941131 0.432588 0.008561 0.006159 492344.000000 0 0 1
5.310871 -9.509194 25.336395 27.578307 -1.061452 0.406001 -0.004841 -0.000916 -1289220.000000 0 0 1
4.892071 -8.586594 26.282095 28.078647 -1.052929 0.359658 -0.011790 0.001848 1051170.000000 0 0 1
3.508071 -8.736394 26.710025 28.320603 -1.188957 0.338871 -0.018032 0.002922 1980500.000000 0 0 1
2.442571 -8.612594 25.562295 27.084568 -1.294448 0.336865 -0.008058 0.000523 -835140.000000 0 0 1
2.660271 -7.364394 24.943305 26.143446 -1.224149 0.304176 -0.017651 0.005198 86017.900000 0 0 1
1.638271 -7.202494 23.970745 25.082991 -1.347143 0.298912 -0.008545 -0.004754 135916.000000 0 0 1
1.722971 -5.831394 23.255645 24.037445 -1.283506 0.255743 -0.012371 -0.008298 -307984.000000 0 1 0
1.348471 -4.749994 24.056155 24.557675 -1.294185 0.202445 -0.018710 -0.002334 -162511.000000 0 1 0
1.947971 -3.534894 23.721645 24.062554 -1.067133 0.168530 -0.012628 -0.001797 -1206980.000000 0 1 0
1.211871 -2.789894 22.546945 22.751194 -1.161009 0.134097 -0.008822 -0.009271 495688.000000 0 1 0
0.127071 -1.978894 22.966545 23.051992 -1.506671 0.086128 -0.005343 -0.010542 801323.000000 0 1 0
-0.997329 -2.692894 23.537445 23.711972 1.216103 0.121403 0.000759 -0.011086 -320674.000000 0 1 0
-2.035029 -1.760894 24.192095 24.341313 0.713305 0.110784 0.001603 -0.019643 -323217.000000 0 1 0
-1.451529 -0.926894 25.141865 25.200782 0.568293 0.068394 0.001125 -0.015900 27066.600000 0 0 1
-2.325929 0.120106 25.494815 25.600975 -0.051592 0.091100 0.005662 -0.016141 -289918.000000 0 0 1
-1.913129 0.949106 26.730445 26.815621 -0.460524 0.079725 0.024709 -0.012418 -544255.000000 0 0 1
-2.014629 0.346106 28.027065 28.101510 -0.170136 0.072806 0.039375 -0.007404 -231521.000000 0 0 1
-1.045129 -0.560894 28.460895 28.485600 0.492555 0.041652 0.027931 -0.006627 -737671.000000 0 0 1
0.259671 0.077106 29.040185 29.041448 0.288646 0.009327 0.042663 -0.009460 284806.000000 0 0 1
1.155271 0.616106 28.050685 28.081224 0.489932 0.046642 0.027056 -0.002010 269946.000000 0 0 1
1.833771 -0.257894 27.203405 27.266361 -0.139719 0.067968 0.020875 0.001012 -789548.000000 0 0 1
2.927071 -1.163894 27.774795 27.952846 -0.378462 0.112929 0.010274 0.000634 -898947.000000 0 0 1
2.457271 -2.213894 28.569255 28.760073 -0.733343 0.115258 0.008158 0.000133 -589435.000000 0 0 1
3.436371 -2.937894 29.248965 29.596314 -0.707355 0.153358 0.006068 0.012762 -424705.000000 0 0 1
4.063771 -4.054894 28.399725 28.974139 -0.784305 0.199454 0.003672 0.001546 -480740.000000 0 0 1
4.873271 -3.640894 27.348795 28.017163 -0.641652 0.218866 0.001711 0.002489 -380699.000000 0 0 1
5.276271 -4.672894 26.464425 27.386872 -0.724826 0.260280 0.004490 -0.002515 -782144.000000 0 0 1
6.333271 -4.163794 25.429495 26.535009 -0.581593 0.289672 0.010229 0.000419 917515.000000 0 0 1
7.603171 -4.231994 26.134415 27.544974 -0.507903 0.321411 0.018231 -0.003836 520343.000000 0 0 1
8.332471 -5.416694 26.059105 27.889919 -0.576425 0.364350 0.033062 -0.001919 -206012.000000 0 0 1
9.287771 -5.548694 24.824945 27.080040 -0.538520 0.410992 0.034865 -0.003107 84155.700000 0 0 1
8.552271 -5.794394 23.636845 25.795673 -0.595484 0.412028 0.026076 -0.001270 179052.000000 0 0 1
9.363471 -5.639994 22.479845 24.996550 -0.542138 0.452589 0.040658 -0.000843 178791.000000 0 1 0
9.395071 -4.236694 21.817045 24.128828 -0.423642 0.441317 0.039467 0.001424 1350500.000000 0 1 0
8.084071 -3.880894 21.294945 23.106021 -0.447574 0.398565 0.024046 -0.007026 832387.000000 0 1 0
8.119771 -2.816894 20.357745 22.097587 -0.333926 0.399474 0.015930 -0.012838 237940.000000 0 1 0
6.726071 -2.192894 20.062845 21.273611 -0.315162 0.339005 0.005982 -0.011793 259511.000000 0 1 0
6.291071 -1.542894 21.242245 22.207905 -0.240504 0.295978 0.006831 -0.007688 1027710.000000 0 1 0
4.931871 -1.053894 21.097845 21.692236 -0.210524 0.234637 -0.011327 -0.004169 982950.000000 0 1 0
4.382171 -0.569894 22.432845 22.863961 -0.129322 0.194501 -0.006461 -0.008810 -209995.000000 0 1 0
3.121071 0.060106 22.445645 22.661678 0.019256 0.138190 -0.005983 -0.006964 -188073.000000 0 1 0
2.794571 0.483106 23.730345 23.899211 0.171181 0.118946 0.006471 -0.007870 -807208.000000 0 1 0
1.391471 1.017106 23.880045 23.942164 0.631202 0.072051 0.007418 -0.006541 -889065.000000 0 1 0
1.212271 2.289106 23.286945 23.430565 1.083764 0.110778 0.016860 -0.011239 -70656.600000 0 1 0
-0.177429 2.421106 23.115845 23.242967 -1.497643 0.104635 0.001835 -0.010045 -362138.000000 0 1 0
-0.712329 3.727106 22.639045 22.954849 -1.381952 0.166068 0.006174 -0.005497 -525637.000000 0 1 0
-0.694829 4.742106 23.595545 24.077377 -1.425308 0.200394 0.014485 -0.004103 -234385.000000 0 1 0
-1.480729 5.801106 23.176445 23.937272 -1.320883 0.252800 0.007532 -0.004903 -415942.000000 0 1 0
-1.325129 7.059106 24.043785 25.093635 -1.385237 0.290284 0.017254 0.003135 -222508.000000 0 0 1
-0.346429 7.964106 23.616745 24.925843 -1.527325 0.325533 0.011276 0.001586 -163833.000000 0 1 0
-0.310329 9.042106 24.469225 26.088291 -1.536489 0.354158 0.017872 0.009891 -690403.000000 0 0 1
0.193471 10.408106 23.944245 26.109250 1.552210 0.410105 0.014626 0.011893 2026040.000000 0 0 1
1.653671 10.517106 23.803045 26.075450 1.414837 0.420579 0.008938 0.015028 1797740.000000 0 0 1
2.351571 10.595106 25.082935 27.330199 1.352388 0.408359 0.018842 0.011015 -1048340.000000 0 0 1
3.574271 11.510106 24.936515 27.696349 1.269704 0.450214 0.005487 0.007500 479955.000000 0 0 1
4.777971 10.981106 24.351475 27.136839 1.160395 0.457049 0.008910 0.008520 577231.000000 0 0 1
4.620171 10.405106 23.095645 25.749194 1.152919 0.457983 0.002845 0.004592 -1733150.000000 0 0 1
5.899271 10.048106 22.354445 25.208868 1.039914 0.480489 0.007612 0.006829 -285436.000000 0 0 1
6.575371 11.189106 21.803445 25.373644 1.039501 0.536907 -0.000953 -0.001116 -451069.000000 0 0 1
7.736371 10.787106 21.166045 24.984286 0.948628 0.560152 0.003124 -0.000619 -589703.000000 0 1 0
8.619071 11.940106 20.683645 25.390307 0.945550 0.618710 0.003788 -0.018726 -474589.000000 0 0 1
8.179371 12.491106 19.423545 24.499060 0.991043 0.655361 0.005255 -0.019396 712302.000000 0 1 0
9.028271 13.574106 18.947845 24.995737 0.983872 0.710489 0.013326 -0.014235 429202.000000 0 1 0
10.488071 13.291106 18.525345 25.096644 0.902734 0.740457 0.021637 -0.016781 -260682.000000 0 0 1
11.327271 13.008106 19.627645 26.129721 0.854358 0.720976 0.017316 -0.018606 -1050770.000000 0 0 1
12.553771 12.688106 19.062145 26.114183 0.790720 0.752542 0.018606 -0.019683 -1071120.000000 0 0 1
13.719371 12.568106 20.026645 27.335781 0.741631 0.748638 0.037381 -0.018851 -356006.000000 0 0 1
14.159871 13.794106 20.540845 28.507992 0.772314 0.766231 0.035830 -0.025432 -120841.000000 0 0 1
15.414771 13.645106 21.170545 29.529579 0.724576 0.771412 0.040089 -0.017267 276789.000000 0 0 1
16.046071 14.914106 21.778145 30.890040 0.748852 0.788343 0.035572 -0.016506 -166865.000000 0 0 1
15.369771 15.400106 22.927845 31.608214 0.786384 0.759216 0.044006 -0.017860 274339.000000 0 0 1
16.149771 16.375106 23.593545 32.948665 0.792326 0.772641 0.043939 -0.020985 -219977.000000 0 0 1
-20.278929 12.909349 -25.072908 34.735241 -0.566890 2.377238 0.003503 -0.008451 -208129.000000 0 0 1
-20.239329 12.612949 -26.480688 35.636270 -0.557297 2.408461 0.010821 -0.024893 53878.300000 0 0 1
-21.094729 13.540949 -27.130638 36.938008 -0.570668 2.395713 0.010306 -0.021758 -19312.900000 0 0 1
-20.864629 13.687249 -28.659488 38.000523 -0.580583 2.425211 0.006147 -0.015258 172294.000000 0 0 1
-19.626529 14.301649 -28.981018 37.810544 -0.629722 2.444139 0.013512 -0.014320 7278.670000 0 0 1
-19.579129 14.610249 -30.332908 38.947233 -0.641075 2.463580 0.017612 -0.016819 364384.000000 0 0 1
-18.208429 15.192749 -30.784398 38.859306 -0.695356 2.485204 0.011703 -0.013164 854316.000000 0 0 1
-17.204329 14.215249 -31.111438 38.288168 -0.690549 2.519327 0.009417 -0.010907 69671.700000 0 0 1
-15.889929 14.702249 -31.057778 37.858045 -0.746595 2.532862 0.004048 -0.010516 487114.000000 0 0 1
-15.048929 14.000849 -29.901808 36.285151 -0.749335 2.539370 0.017616 -0.003338 213156.000000 0 0 1
-15.540129 14.394749 -28.613768 35.601294 -0.747154 2.504331 0.009394 -0.006505 163650.000000 0 0 1
-16.153229 13.353149 -27.881088 34.879628 -0.690784 2.497012 0.025945 -0.006129 759214.000000 0 0 1
-17.168029 13.762249 -26.710938 34.606573 -0.675728 2.452535 0.021362 -0.023123 451088.000000 0 0 1
-16.388529 14.402949 -25.692098 33.706271 -0.721003 2.437555 0.035916 -0.012250 180439.000000 0 0 1
-17.146129 14.997449 -24.712378 33.609743 -0.718651 2.396868 0.016638 -0.009490 -603374.000000 0 0 1
-16.317629 15.454249 -23.486178 32.506913 -0.758230 2.378205 0.014306 -0.005769 -222430.000000 0 0 1
-15.424629 16.486449 -23.673778 32.713452 -0.818660 2.379903 -0.004023 -0.009960 -380747.000000 0 0 1
-14.903929 16.985149 -22.440178 31.846255 -0.850570 2.352713 -0.004768 -0.005196 -349765.000000 0 0 1
-14.600829 18.548049 -22.554278 32.648274 -0.903916 2.333427 -0.002794 -0.006404 267694.000000 0 0 1
-15.752929 19.386649 -22.583678 33.675205 -0.888440 2.305857 -0.022646 -0.006097 595511.000000 0 0 1
-16.553329 19.253349 -23.755578 34.771132 -0.860661 2.322930 -0.026537 -0.001687 -389438.000000 0 0 1
-17.816529 20.101549 -23.800678 35.888344 -0.845587 2.295865 -0.027489 -0.003662 -592344.000000 0 0 1
-17.539129 21.452949 -24.087378 36.715826 -0.885438 2.286368 -0.023606 -0.001221 317845.000000 0 0 1
-18.721129 22.229249 -24.302578 37.884502 -0.870857 2.267237 0.003294 -0.013284 192185.000000 0 0 1
-18.439529 23.700949 -24.668978 38.862703 -0.909610 2.258510 0.000734 -0.013348 30699.300000 0 0 1
-17.943429 24.377649 -23.541978 38.346592 -0.936276 2.231821 -0.004016 -0.005393 -242882.000000 0 0 1
-17.104429 25.460449 -23.894878 38.881373 -0.979246 2.232623 -0.014069 -0.000737 -515189.000000 0 0 1
-16.150029 25.722849 -22.743578 37.944153 -1.010152 2.213543 -0.011921 -0.009989 -187726.000000 0 0 1
-15.099029 24.764149 -22.464878 36.686707 -1.023265 2.229818 -0.007352 -0.011031 554711.000000 0 0 1
-15.460029 23.424449 -22.030378 35.679894 -0.987427 2.236287 -0.019794 -0.001705 -653319.000000 0 0 1
-14.276129 22.452549 -21.784878 34.387581 -1.004443 2.256878 0.009442 -0.006589 211521.000000 0 0 1
-13.426629 22.953249 -20.758378 33.734793 -1.041512 2.233614 0.018593 -0.009989 -15303.100000 0 0 1
-12.419329 21.976649 -20.513778 32.527341 -1.056423 2.253203 0.021775 -0.007049 -124983.000000 0 0 1
-11.625729 22.373049 -19.244778 31.718644 -1.091568 2.222742 0.027754 -0.012177 -197727.000000 0 0 1
-12.341429 22.286649 -18.033478 31.212368 -1.065072 2.186787 0.032206 -0.008354 299922.000000 0 0 1
-13.316129 23.342849 -17.929478 32.305945 -1.052382 2.159147 0.023971 -0.011600 187179.000000 0 0 1
-14.151829 23.298849 -16.621778 31.927952 -1.024950 2.118353 0.024680 -0.012162 194145.000000 0 0 1
-13.452129 23.786449 -15.478978 31.406268 -1.056102 2.086173 0.049826 -0.032767 -76857.400000 0 0 1
-14.296529 23.867549 -14.371678 31.314466 -1.031117 2.047606 0.047512 -0.017483 -162742.000000 0 0 1
-13.545429 24.008149 -13.050978 30.499146 -1.057115 2.012979 0.037800 -0.008197 30600.400000 0 0 1
-12.865129 25.237249 -12.827878 31.096378 -1.099365 1.996015 0.037092 -0.014738 693891.000000 0 0 1
-11.859329 25.192949 -11.805378 30.243930 -1.130829 1.971796 0.022350 -0.016066 452585.000000 0 0 1
-11.120129 26.541649 -11.565078 31.013988 -1.174045 1.952928 0.025611 -0.013716 175785.000000 0 0 1
-10.474029 27.021849 -12.725278 31.651513 -1.201013 1.984544 0.027431 -0.024571 -45554.500000 0 0 1
-10.557129 28.442349 -12.714278 32.894879 -1.215382 1.967643 0.009373 -0.007340 -1078500.000000 0 0 1
-10.012229 29.164649 -13.973178 33.853673 -1.240103 1.996270 0.035871 -0.019811 1022360.000000 0 0 1
-8.589029 29.145549 -14.220678 33.547908 -1.284214 2.008534 0.028676 -0.014511 1262250.000000 0 0 1
-7.951629 27.842549 -14.291778 32.290724 -1.292609 2.029289 0.036189 -0.017561 -840783.000000 0 0 1
-6.620129 27.892049 -15.043678 32.374446 -1.337760 2.054067 0.035548 -0.018601 597528.000000 0 0 1
-5.612829 28.544649 -14.237678 32.388459 -1.376640 2.025940 0.025975 -0.018892 427271.000000 0 0 1
-4.338829 28.578649 -14.874978 32.508915 -1.420126 2.046052 0.034244 -0.020624 1045450.000000 0 0 1
-3.276529 29.609549 -14.341778 33.062783 -1.460587 2.019474 0.019205 -0.016835 203803.000000 0 0 1
-3.441229 31.022549 -14.621078 34.467616 -1.460321 2.008872 0.013144 -0.013374 -294777.000000 0 0 1
-4.457829 31.659049 -13.882478 34.855284 -1.430909 1.980447 -0.003755 -0.010165 -139438.000000 0 0 1
-4.412929 33.183249 -13.999378 36.284770 -1.438585 1.966892 -0.005059 -0.009901 622536.000000 0 0 1
-3.412829 33.779749 -13.135578 36.404152 -1.470106 1.939950 -0.013427 -0.018239 498590.000000 0 0 1
-3.301529 -33.999094 -13.474478 36.720567 1.473993 1.946521 -0.020498 -0.008611 -71854.900000 0 0 1
-2.507629 -33.142994 -12.497678 35.509691 1.495279 1.930451 -0.011748 -0.013823 -358816.000000 0 0 1
-3.053929 -32.989294 -11.173578 34.963822 1.478486 1.896078 -0.004961 -0.019070 501494.000000 0 0 1
-2.160029 -32.174794 -10.374178 33.874867 1.503763 1.882048 -0.008148 -0.012764 541336.000000 0 0 1
-2.576229 -32.157294 -8.865378 33.456291 1.490854 1.838984 -0.010285 -0.005712 -117397.000000 0 0 1
-1.592729 -31.497794 -8.117578 32.565977 1.520273 1.822718 -0.026206 -0.005026 -93485.400000 0 0 1
-1.966929 -31.499194 -6.759678 32.276326 1.508434 1.781790 -0.019533 -0.010020 339418.000000 0 0 1
-0.755429 -31.244694 -5.816478 31.790454 1.546623 1.754796 -0.015464 -0.006601 94337.900000 0 0 1
-1.076629 -31.044594 -4.482678 31.385033 1.536130 1.714115 -0.001416 -0.005856 -138854.000000 0 0 1
0.019571 -30.508794 -3.782578 30.742394 -1.570155 1.694150 -0.000449 0.000982 -134937.000000 0 0 1
-0.204029 -30.725294 -2.287778 30.811024 1.564156 1.645117 0.002771 0.004798 -315258.000000 0 0 1
-0.246129 -32.110394 -1.889778 32.166896 1.563131 1.629579 0.018672 0.001087 -393317.000000 0 0 1
0.775271 -32.972094 -2.282078 33.060065 -1.547288 1.639879 0.015786 -0.004877 58716.800000 0 0 1
2.208571 -32.748894 -1.706078 32.867591 -1.503459 1.622727 0.030068 0.001631 -358285.000000 0 0 1
2.383971 -32.871294 -0.345378 32.959438 -1.498399 1.581275 0.023206 -0.003947 -57003.100000 0 0 1
3.703471 -32.533094 0.041122 32.743237 -1.457447 1.569540 0.030609 -0.000987 287181.000000 0 0 1
4.043271 -31.018994 0.269522 31.282561 -1.441179 1.562180 0.017797 -0.000924 -224841.000000 0 0 1
4.006171 -30.313194 -0.929378 30.590895 -1.439398 1.601182 0.034118 -0.009437 141923.000000 0 0 1
3.931171 -28.907894 -0.610278 29.180350 -1.435636 1.591712 0.029978 -0.003018 -334351.000000 0 0 1
3.488771 -28.122694 -1.859578 28.399216 -1.447372 1.636323 0.037285 -0.001827 389527.000000 0 0 1
2.091871 -28.226494 -2.143278 28.384934 -1.496821 1.646376 0.019257 0.000327 668794.000000 0 0 1
1.528571 -27.239994 -3.025878 27.450131 -1.514740 1.681253 0.007114 0.011309 242217.000000 0 0 1
2.157171 -27.099794 -4.449278 27.547201 -1.491363 1.733022 -0.000616 0.003732 -132676.000000 0 0 1
1.740071 -28.218194 -5.192678 28.744707 -1.509209 1.752442 -0.005884 -0.000061 264710.000000 0 0 1
2.293871 -28.121094 -6.521778 28.958442 -1.489405 1.797957 -0.002526 0.002338 -154655.000000 0 0 1
1.775971 -29.203694 -7.507878 30.205596 -1.510058 1.821989 -0.022342 0.004663 53911.900000 0 0 1
0.476671 -28.980094 -8.022478 30.073796 -1.554350 1.840826 -0.014226 0.004714 13676.400000 0 0 1
0.420271 -29.109294 -9.378478 30.585674 -1.556360 1.882447 -0.020795 0.016081 -110716.000000 0 0 1
-0.804929 -28.344194 -9.923978 30.042080 1.542406 1.907456 -0.002696 0.004055 -465001.000000 0 0 1
-0.783929 -26.940594 -9.675878 28.636214 1.541706 1.915470 -0.013989 0.006194 749940.000000 0 0 1
-2.084629 -26.318594 -9.735178 28.138723 1.491754 1.924070 0.007460 -0.004254 1793240.000000 0 0 1
-3.213829 -26.740994 -8.735678 28.314687 1.451186 1.884434 0.010745 -0.008438 50238.700000 0 0 1
-2.882829 -26.321694 -7.402178 27.494263 1.461708 1.843386 0.014938 -0.010538 404891.000000 0 0 1
-2.181529 -27.432994 -6.706278 28.324943 1.491441 1.809828 0.009277 -0.001703 483121.000000 0 0 1
-1.846029 -27.099194 -5.244778 27.663727 1.502780 1.761541 0.016257 0.003108 492019.000000 0 0 1
-2.912729 -27.097594 -4.270178 27.586192 1.463717 1.726215 0.018744 -0.005516 572055.000000 0 0 1
-2.428329 -26.838194 -2.954578 27.109315 1.480562 1.680001 0.019372 0.000072 -313595.000000 0 0 1
-3.571129 -26.963594 -1.964278 27.269887 1.439120 1.642890 0.017111 0.000065 -212982.000000 0 0 1
-4.558429 -25.955394 -2.099578 26.436149 1.396944 1.650301 0.019985 -0.004136 -739864.000000 0 0 1
-5.478529 -26.172094 -1.090278 26.761567 1.364449 1.611548 0.030676 -0.000163 -439057.000000 0 0 1
-6.541129 -25.056094 -0.900378 25.911482 1.315436 1.605552 0.016176 -0.007565 -331913.000000 0 0 1
-6.052929 -23.775094 -0.672078 24.542712 1.321501 1.598184 0.016302 -0.002318 -1064050.000000 0 1 0
-6.942929 -22.819994 -0.231478 23.853930 1.275447 1.580500 0.019051 -0.017330 -880615.000000 0 1 0
-6.308829 -21.503194 0.205022 22.410504 1.285414 1.561648 0.014842 -0.019479 -176958.000000 0 1 0
-5.653829 -21.520394 1.455222 22.298224 1.313883 1.505488 0.021570 -0.019022 -55729.100000 0 1 0
-4.747229 -20.427394 1.451922 21.021957 1.342454 1.501674 0.012267 -0.011905 65624.600000 0 1 0
-3.672329 -20.375494 2.555522 20.860907 1.392478 1.447985 0.014363 -0.005175 -149507.000000 0 1 0
-4.279429 -20.198394 3.835422 20.999978 1.362014 1.387126 0.012629 -0.005450 -298972.000000 0 1 0
-3.374829 -19.889894 4.888222 20.757940 1.402721 1.333077 0.030836 -0.012121 -378748.000000 0 1 0
-2.428229 -20.985894 5.270922 21.773531 1.455601 1.326288 0.014805 -0.014787 -355833.000000 0 1 0
-1.378629 -21.320594 4.406622 21.814826 1.506224 1.367395 0.022126 -0.018994 -656418.000000 0 1 0
-0.691629 -22.453894 4.772622 22.965923 1.540004 1.361457 0.022731 -0.018820 -664199.000000 0 1 0
0.225071 -23.013294 3.681022 23.306914 -1.561017 1.412195 0.033029 -0.015095 928610.000000 0 1 0
1.541871 -22.445294 3.656722 22.793424 -1.502209 1.409671 0.014867 -0.015508 654094.000000 0 1 0
2.514471 -23.070594 4.464822 23.632805 -1.462235 1.380729 0.025108 -0.010593 -930827.000000 0 1 0
3.800071 -22.295594 4.615722 23.083304 -1.401978 1.369480 0.029496 -0.009068 -585738.000000 0 1 0
4.535871 -22.156794 3.429822 22.874906 -1.368869 1.420291 0.019373 0.000023 -944523.000000 0 1 0
5.536771 -21.215994 3.608122 22.221448 -1.315518 1.407703 0.029157 -0.004130 -94273.900000 0 1 0
6.137971 -20.801894 2.216722 21.801544 -1.283871 1.468943 0.027244 0.004729 -102020.000000 0 1 0
6.875171 -21.811794 1.613522 22.926530 -1.265450 1.500360 0.031671 0.008928 -492229.000000 0 1 0
6.747971 -21.697594 0.192622 22.723507 -1.269278 1.562319 0.031784 -0.002085 -21433.400000 0 1 0
7.750271 -22.583594 -0.598778 23.883968 -1.240209 1.595869 0.030739 0.004186 -462591.000000 0 1 0
8.923271 -21.883494 -0.811878 23.646801 -1.183616 1.605137 0.028527 0.005437 -959529.000000 0 1 0
9.894371 -22.684394 -1.499478 24.793723 -1.159498 1.631311 0.028123 0.003385 78637.300000 0 1 0
11.218771 -22.026294 -1.822078 24.785851 -1.099708 1.644376 0.020891 0.002524 -560787.000000 0 1 0
11.161171 -21.032894 -2.847578 23.980472 -1.082928 1.689823 0.023705 0.012100 899647.000000 0 1 0
12.446871 -20.837494 -3.493878 24.522090 -1.032342 1.713762 0.017420 0.009375 1002520.000000 0 1 0
12.381271 -19.696294 -4.503178 23.696381 -1.009606 1.761996 0.013774 -0.003192 -59439.900000 0 1 0
12.376571 -18.443894 -3.870378 22.546320 -0.979773 1.743314 0.022245 0.005051 176579.000000 0 1 0
12.524871 -17.477594 -4.836378 22.039265 -0.949000 1.792041 0.016327 -0.002751 -588179.000000 0 1 0
13.108471 -16.169694 -4.194578 21.234064 -0.889576 1.769644 0.037046 -0.001549 721142.000000 0 1 0
14.403971 -16.210694 -3.577678 21.978643 -0.844345 1.734304 0.021001 0.003441 652856.000000 0 1 0
15.413371 -16.021694 -4.553878 22.693710 -0.804747 1.772835 0.010856 0.001790 -833772.000000 0 1 0
16.814171 -15.844094 -3.989278 23.444956 -0.755703 1.741783 0.007924 0.002094 -521751.000000 0 1 0
17.404471 -16.946494 -3.328278 24.518905 -0.772067 1.706960 0.008326 0.000518 230082.000000 0 1 0
18.689771 -16.526494 -2.915778 25.118405 -0.724047 1.687140 -0.009376 0.007123 -322824.000000 0 0 1
19.548071 -17.614094 -2.318278 26.415105 -0.733404 1.658673 -0.004989 -0.003958 101908.000000 0 0 1
20.937371 -17.300194 -2.299578 27.257261 -0.690563 1.655262 -0.014362 0.000577 400935.000000 0 0 1
21.580971 -18.176294 -1.399878 28.250232 -0.699970 1.620369 -0.010623 0.000220 1028180.000000 0 0 1
23.155071 -17.987894 -1.378278 29.353386 -0.660462 1.617768 0.013433 -0.011011 934190.000000 0 0 1
23.621071 -16.716994 -0.959878 28.954002 -0.615885 1.603954 0.011642 -0.007525 -468610.000000 0 0 1
24.920871 -16.844794 -0.484478 30.083743 -0.594389 1.586901 0.035664 -0.009873 -574602.000000 0 0 1
25.603371 -15.510694 -0.040078 29.935194 -0.544678 1.572135 0.035492 -0.008139 -140450.000000 0 0 1
24.909171 -14.754094 0.924722 28.965586 -0.534750 1.538866 0.017051 -0.000799 155160.000000 0 0 1
25.697271 -13.762894 1.569822 29.193001 -0.491703 1.516996 0.018701 -0.003442 299758.000000 0 0 1
24.988071 -13.190194 2.847322 28.398805 -0.485686 1.470366 0.020718 -0.010409 68326.800000 0 0 1
24.650971 -13.972994 4.023022 28.619916 -0.515675 1.429762 0.022975 -0.006043 559233.000000 0 0 1
25.748571 -14.432794 4.828222 29.909968 -0.510890 1.408662 0.045687 -0.004964 552356.000000 0 0 1
25.160371 -15.058294 6.088122 29.947649 -0.539310 1.366077 0.032328 0.007964 141625.000000 0 0 1
24.267371 -16.103794 5.821122 29.700554 -0.585876 1.373526 0.028882 0.008311 139682.000000 0 0 1
23.508871 -16.446294 6.982722 29.528054 -0.610443 1.332057 0.016598 0.009571 314596.000000 0 0 1
22.682871 -17.782494 6.932922 29.644479 -0.664884 1.334741 0.013428 0.010240 90859.100000 0 0 1
23.446771 -18.960794 6.878722 30.928621 -0.680008 1.346514 0.033795 0.004588 74910.000000 0 0 1
22.629671 -20.165994 6.870322 31.080068 -0.727893 1.347903 0.012763 0.012258 659118.000000 0 0 1
1.736471 23.172949 -2.829178 23.409510 1.496001 1.691948 0.009707 -0.007129 -118403.000000 0 1 0
2.398371 24.326349 -2.396278 24.561465 1.472522 1.668514 0.019867 -0.009270 -433094.000000 0 1 0
2.959971 24.962649 -3.462178 25.374829 1.452771 1.707665 0.029226 -0.003827 -720915.000000 0 0 1
3.924371 26.017249 -2.982878 26.480096 1.421088 1.683682 0.020820 -0.004730 64740.500000 0 0 1
5.068871 25.521449 -2.271378 26.118901 1.374736 1.657869 0.017446 0.004259 610550.000000 0 0 1
5.941771 26.570649 -1.845278 27.289358 1.350794 1.638467 0.017986 -0.003292 1027550.000000 0 0 1
7.215171 26.045449 -1.073978 27.047690 1.300551 1.610514 0.009150 -0.020245 656660.000000 0 0 1
8.248071 25.458249 -1.844978 26.824561 1.257483 1.639630 0.010079 -0.020110 -163231.000000 0 0 1
9.018671 24.622649 -1.012478 26.241882 1.219696 1.609388 0.007771 -0.018256 -204059.000000 0 0 1
10.273271 24.127249 -1.754378 26.281972 1.168252 1.637598 0.022517 -0.021776 -351830.000000 0 0 1
11.311771 25.112049 -1.840978 27.603630 1.147567 1.637539 0.033851 -0.017403 1081280.000000 0 0 1
12.270871 25.008049 -2.926178 28.009629 1.114635 1.675458 0.049198 -0.019693 1354070.000000 0 0 1
13.242471 23.781849 -2.951478 27.379748 1.062724 1.678804 0.061106 -0.023350 68518.200000 0 0 1
12.459271 22.603749 -3.209178 26.008878 1.067029 1.694499 0.048732 -0.032726 214675.000000 0 0 1
12.331571 22.271849 -4.569978 25.864794 1.065129 1.748416 0.055239 -0.028985 77195.200000 0 0 1
11.293971 21.149649 -4.936078 24.479099 1.080318 1.773833 0.045043 -0.024579 150580.000000 0 1 0
9.993871 21.475949 -4.535578 24.117738 1.135249 1.759983 0.030619 -0.020659 -981544.000000 0 1 0
9.089771 20.459849 -4.751078 22.886723 1.152715 1.779908 0.002031 -0.007733 5741.650000 0 1 0
7.612671 20.944949 -4.716678 22.779172 1.222180 1.779366 0.000131 -0.003115 351197.000000 0 1 0
7.099171 21.236449 -3.419578 22.651236 1.248183 1.722342 -0.009220 -0.005066 -346562.000000 0 1 0
6.057871 22.159449 -3.481578 23.234895 1.303940 1.721205 -0.004448 0.023610 -221138.000000 0 1 0
5.655671 22.666949 -2.065778 23.453030 1.326277 1.658992 0.001008 0.011121 -35121.500000 0 1 0
5.109571 21.711949 -1.189478 22.336770 1.339667 1.624074 -0.008313 0.006896 -57624.700000 0 1 0
4.567871 22.351649 -0.033778 22.813654 1.369208 1.572277 0.002298 0.003086 234978.000000 0 1 0
4.243471 21.356349 1.078422 21.800543 1.374653 1.521308 0.005014 -0.004757 216803.000000 0 1 0
3.603971 21.957949 2.227922 22.363000 1.408116 1.471005 0.016676 -0.001973 254374.000000 0 1 0
3.354271 20.977449 3.181622 21.480857 1.412240 1.422135 0.015584 -0.004306 -380112.000000 0 1 0
2.281671 21.402049 4.185722 21.926559 1.464588 1.378720 0.018179 -0.009107 -362270.000000 0 1 0
1.006171 21.507049 3.596522 21.828892 1.524047 1.405282 0.012485 -0.005344 -811188.000000 0 1 0
0.104571 22.054749 4.477722 22.504952 1.566055 1.370494 0.007642 -0.009093 81310.800000 0 1 0
-1.328429 22.206149 3.859422 22.578151 -1.511045 1.399017 0.002385 -0.005865 520313.000000 0 1 0
-2.198929 22.654949 4.873222 23.277248 -1.474038 1.359880 0.010587 -0.005712 -654984.000000 0 1 0
-3.494729 22.799949 4.377822 23.477992 -1.418702 1.383234 0.006398 0.000502 -496070.000000 0 1 0
-4.662429 23.139249 5.295822 24.191090 -1.371964 1.350093 0.015580 -0.004843 -181638.000000 0 1 0
-4.716029 24.442349 5.826722 25.565994 -1.380194 1.340867 0.026143 -0.000170 -131286.000000 0 0 1
-5.809329 24.458849 6.715822 26.020874 -1.337603 1.309748 0.036612 -0.003473 233004.000000 0 0 1
-6.259629 25.928249 7.162922 27.618192 -1.333908 1.308442 0.044148 -0.001357 -49208.400000 0 0 1
-5.257929 26.633549 7.847422 28.259048 -1.375885 1.289401 0.038455 -0.010494 -96422.600000 0 0 1
-5.702129 27.862649 8.463822 29.672846 -1.368932 1.281542 0.060089 -0.012519 -41302.000000 0 0 1
-5.975929 29.107749 7.552522 30.659637 -1.368306 1.321900 0.057767 -0.014567 1101820.000000 0 0 1
-7.229129 29.130949 6.827122 30.781197 -1.327550 1.347141 0.044274 -0.016958 290450.000000 0 0 1
-7.376629 30.211849 5.904222 31.654862 -1.331318 1.383179 0.054007 -0.020203 -968326.000000 0 0 1
-8.806929 30.583949 5.480622 32.295157 -1.290422 1.400267 0.048048 -0.014637 367283.000000 0 0 1
-9.608429 31.109649 6.567522 33.215426 -1.271234 1.371760 0.040362 -0.005484 89309.200000 0 0 1
-10.112829 30.078649 7.418522 32.588785 -1.246456 1.341143 0.021292 0.000634 -862810.000000 0 0 1
-11.115729 30.566149 8.469822 33.609326 -1.222003 1.316042 0.001368 0.001288 -77592.600000 0 0 1
-10.476429 31.265149 9.552922 34.329629 -1.247472 1.288803 0.007472 -0.004729 367527.000000 0 0 1
-11.369529 31.558549 10.617522 35.184371 -1.225004 1.264250 0.009655 0.006375 202874.000000 0 0 1
-10.495429 32.032749 11.799522 35.713859 -1.254172 1.234079 0.006976 -0.002661 29465.300000 0 0 1
-10.108229 33.387549 11.717922 36.799652 -1.276814 1.246729 0.003833 -0.001374 27658.300000 0 0 1
-9.322629 33.683949 12.852622 37.238552 -1.300787 1.218405 0.003669 -0.007516 -36886.600000 0 0 1
-8.905229 -33.955394 12.861622 37.385735 1.314310 1.219596 0.002010 -0.009648 213897.000000 0 0 1
-9.941429 -33.096894 13.321422 37.036423 1.278997 1.202867 0.005579 -0.000767 341443.000000 0 0 1
-9.511629 -31.700694 13.295222 35.667464 1.279298 1.188820 0.014613 -0.000734 140100.000000 0 0 1
-10.470229 -30.714094 13.995222 35.339036 1.242257 1.163610 0.017433 0.007339 -41637.600000 0 0 1
-10.696829 -31.075894 15.396422 36.293018 1.239283 1.132690 0.018519 -0.002595 184742.000000 0 0 1
-9.635129 -30.719394 16.258722 36.067477 1.266864 1.103150 0.020190 0.000054 97235.400000 0 0 1
-9.800329 -31.283194 17.644622 37.229254 1.267203 1.077031 0.020717 -0.006784 -325971.000000 0 0 1
-10.554529 -30.441994 18.444322 37.125545 1.237056 1.050878 0.031104 -0.004111 -116994.000000 0 0 1
-11.040929 -31.180794 19.552322 38.424436 1.230479 1.036947 0.027128 -0.003432 -242972.000000 0 0 1
-11.141329 -30.483894 20.910822 38.609059 1.220396 0.998452 0.031643 -0.002164 -241691.000000 0 0 1
-9.955829 -30.324394 21.637322 38.559838 1.253573 0.975038 0.015571 -0.000125 -324119.000000 0 0 1
-10.186129 -29.466994 22.756822 38.599662 1.237976 0.940282 0.008794 -0.003509 665646.000000 0 0 1
-9.037529 -29.345094 23.843222 38.875580 1.272040 0.910537 0.007707 -0.003877 645879.000000 0 0 1
-8.826629 -30.612894 24.523622 40.205307 1.290080 0.914786 0.007444 0.006254 -708508.000000 0 0 1
-7.734929 -30.531394 25.373822 40.445345 1.322673 0.892637 0.006651 0.002159 -514283.000000 0 0 1
-7.727729 -31.691194 26.380422 41.952070 1.331619 0.890758 0.010480 0.000892 -459832.000000 0 0 1
-7.676529 -32.953094 25.718922 42.500570 1.341925 0.920851 0.019031 0.000211 78047.800000 0 0 1
-7.621029 -33.962994 26.717022 43.878973 1.350061 0.916149 0.024803 -0.000600 -343913.000000 0 0 1
-7.418329 33.732949 26.203422 43.353925 -1.354329 0.921775 0.019399 0.000202 408992.000000 0 0 1
-6.074929 33.475249 25.780022 42.686141 -1.391275 0.922357 0.013620 0.005853 699529.000000 0 0 1
-5.854529 32.230449 25.127122 41.284980 -1.391110 0.916468 0.011406 0.004227 -257027.000000 0 0 1
-6.523929 32.041649 23.727022 40.400501 -1.369934 0.943083 0.015301 0.003428 280361.000000 0 0 1
-7.848629 31.568349 23.908822 40.370700 -1.327114 0.936970 0.021076 -0.001549 657728.000000 0 0 1
-8.676329 31.636549 22.725222 39.907213 -1.303127 0.964958 0.021646 0.001104 1266170.000000 0 0 1
-9.740729 30.433949 22.597822 39.137816 -1.261038 0.955267 0.026791 -0.007467 1034850.000000 0 0 1
-9.147029 29.130949 22.364522 37.847750 -1.266548 0.938613 0.015315 -0.009572 111509.000000 0 0 1
-9.756529 28.050549 23.082222 37.613989 -1.236065 0.910108 0.005759 -0.007812 -445483.000000 0 0 1
-9.219929 26.646349 22.798522 36.260276 -1.237680 0.890856 -0.001673 -0.010941 -506820.000000 0 0 1
-7.955129 26.338249 23.302322 36.055314 -1.277472 0.868079 -0.009218 -0.013349 -327801.000000 0 0 1
-7.581329 25.016249 22.979822 34.804619 -1.276538 0.849642 -0.001958 -0.015441 79462.300000 0 0 1
-6.213729 24.640649 23.591522 34.674658 -1.323773 0.822532 0.002110 -0.011315 120136.000000 0 0 1
-5.132229 25.384049 23.061322 34.677288 -1.371302 0.843267 -0.001617 -0.010646 -67536.400000 0 0 1
-3.967329 25.172349 23.866022 34.913806 -1.414476 0.818154 0.019933 -0.006060 238122.000000 0 0 1
-2.799829 25.815549 23.087222 34.746243 -1.462763 0.844036 0.018190 0.000375 -424456.000000 0 0 1
-2.599329 25.224749 21.810422 33.447556 -1.468112 0.860474 0.019772 -0.001734 -679542.000000 0 0 1
-1.530729 25.788449 21.158822 33.392858 -1.511509 0.884556 0.022016 0.003482 -524865.000000 0 0 1
-1.044229 24.941549 19.923022 31.938974 -1.528954 0.897222 0.020377 -0.001598 -483936.000000 0 0 1
-0.169829 23.899149 20.183222 31.281954 -1.563690 0.869507 0.021745 -0.000433 -357279.000000 0 0 1
0.017871 23.129149 19.045922 29.961726 1.570024 0.881914 0.012286 0.000565 -339268.000000 0 0 1
1.141571 22.109749 19.271222 29.351732 1.519210 0.854545 0.011118 0.013461 -385173.000000 0 0 1
2.427271 22.639549 19.115922 29.729771 1.463991 0.872401 0.011001 -0.003960 -305953.000000 0 0 1
3.397071 21.594849 19.202722 29.096772 1.414766 0.850030 0.018389 0.009085 1261530.000000 0 0 1
4.895071 22.087249 19.079922 29.594792 1.352697 0.870158 0.014904 0.001396 1133520.000000 0 0 1
5.796971 21.006349 19.025322 28.928091 1.301535 0.853066 0.024375 -0.001919 -434356.000000 0 0 1
7.095571 21.380649 18.654522 29.248427 1.250364 0.879163 0.031548 -0.005252 -348398.000000 0 0 1
8.034471 20.164149 18.494622 28.516603 1.191624 0.865110 0.036473 -0.004555 -154827.000000 0 0 1
8.510071 19.682049 19.737422 29.143956 1.162694 0.826793 0.029450 -0.007135 1085000.000000 0 0 1
9.714171 18.874549 19.547422 28.856809 1.095481 0.826582 0.029908 -0.008933 1047980.000000 0 0 1
9.983271 17.929049 20.765922 29.194863 1.062731 0.779469 0.029910 -0.013151 -166259.000000 0 0 1
9.031571 16.906549 21.023422 28.449691 1.080160 0.739258 0.018915 -0.006314 -9701.310000 0 0 1
9.430371 16.195049 22.204222 29.055791 1.043493 0.701008 0.019081 -0.007826 -551243.000000 0 0 1
8.456571 15.205849 22.782222 28.666375 1.063252 0.652223 0.011125 -0.002597 -866454.000000 0 0 1
7.369771 15.800649 23.424922 29.201045 1.134370 0.639834 0.010081 0.009674 290256.000000 0 0 1
6.268171 14.971349 23.857822 28.855276 1.174293 0.597384 0.001342 0.009057 934123.000000 0 0 1
6.588471 13.839749 24.905622 29.244429 1.126488 0.551697 0.008671 0.006105 -513177.000000 0 0 1
6.813871 14.386849 26.168122 30.629738 1.128476 0.546522 0.018004 0.000613 -142406.000000 0 0 1
7.169271 13.290649 27.039722 30.970734 1.076111 0.509326 0.025320 -0.000180 -743782.000000 0 0 1
8.055871 13.812449 28.214622 32.430629 1.042797 0.515596 0.024377 -0.001829 -125217.000000 0 0 1
9.399871 14.013649 27.849722 32.562969 0.979962 0.544749 0.048494 -0.001889 -126045.000000 0 0 1
9.642771 15.184749 27.047722 32.482902 1.005017 0.586874 0.041117 -0.004586 -739755.000000 0 0 1
10.987871 15.089949 26.293422 32.245680 0.941421 0.617361 0.053431 -0.010601 -13462.900000 0 0 1
10.886971 14.049849 25.288022 30.909682 0.911560 0.612651 0.041293 -0.016196 -433150.000000 0 0 1
12.034071 13.876049 24.524322 30.639941 0.856370 0.642828 0.057413 -0.017413 -649750.000000 0 0 1
11.859571 12.641049 23.517422 29.214974 0.817284 0.635157 0.040020 -0.018854 153287.000000 0 0 1
11.692471 11.400849 24.172922 29.172305 0.772771 0.594148 0.031812 -0.006041 1053560.000000 0 0 1
10.387871 11.200349 24.772222 29.103585 0.823016 0.552578 0.028537 -0.001595 755782.000000 0 0 1
10.276371 9.756149 25.358422 29.048852 0.759435 0.509563 0.012199 0.013042 -89439.000000 0 0 1
10.073071 8.821649 24.261122 27.710833 0.719263 0.504305 0.021206 0.010378 206277.000000 0 0 1
10.193271 7.462149 24.686922 27.731400 0.631924 0.472978 0.022383 0.010837 -14923.300000 0 0 1
10.235271 6.442649 23.499522 26.429076 0.561797 0.475303 0.029096 -0.005750 -574702.000000 0 0 1
11.503071 6.344649 22.921622 26.419235 0.504041 0.520419 0.032381 -0.009944 -177996.000000 0 0 1
11.797171 5.258549 22.018522 25.527258 0.419311 0.530509 0.037436 -0.016780 -204260.000000 0 0 1
11.585771 3.814649 22.599322 25.680946 0.318074 0.494927 0.028120 -0.021366 -794034.000000 0 0 1
12.554671 3.338749 23.471722 26.827015 0.259921 0.505508 0.034288 -0.015938 -411714.000000 0 0 1
12.157571 2.192049 24.157922 27.133315 0.178387 0.472701 0.026601 -0.009317 129513.000000 0 0 1
13.307371 1.444149 24.927322 28.293870 0.108099 0.492793 0.020981 -0.001818 475796.000000 0 0 1
14.352071 0.873349 24.158122 28.113334 0.060777 0.536874 0.045910 -0.007294 -474498.000000 0 0 1
15.564571 1.443049 24.551722 29.105417 0.092449 0.566947 0.035675 -0.007474 -998403.000000 0 0 1
16.722971 0.734349 23.864622 29.149909 0.043884 0.611677 0.037523 -0.013158 -507223.000000 0 0 1
16.781871 -0.602451 24.278122 29.519847 -0.035884 0.605120 0.032982 -0.006589 -167506.000000 0 0 1
18.008871 -1.212951 23.974322 30.009312 -0.067251 0.645339 0.029652 0.007307 -355104.000000 0 0 1
18.128171 -2.774051 24.202322 30.365743 -0.151846 0.648440 0.021854 0.018360 71085.500000 0 0 1
17.187771 -3.624951 23.534522 29.367218 -0.207857 0.641185 0.013575 0.019192 391541.000000 0 0 1
17.214471 -4.928551 24.046722 29.981219 -0.278844 0.640061 0.019506 0.021435 920386.000000 0 0 1
16.198471 -5.872151 23.219322 28.913829 -0.347778 0.638396 0.012996 0.015669 785530.000000 0 0 1
16.628271 -6.087951 21.838722 28.115695 -0.350963 0.681315 0.008879 0.015246 400462.000000 0 0 1
15.834271 -7.060751 21.140922 27.340756 -0.419452 0.686864 0.020655 0.009566 -169839.000000 0 0 1
16.154371 -8.524551 21.209922 27.990935 -0.485556 0.710950 0.022178 -0.000778 -509863.000000 0 0 1
15.824171 -9.224151 22.407522 28.941085 -0.527762 0.685273 0.013783 0.006620 175853.000000 0 0 1
16.413171 -10.525951 22.366522 29.672363 -0.570243 0.716996 0.017607 -0.001563 -268659.000000 0 0 1
15.936871 -11.379351 23.543922 30.623353 -0.620078 0.693799 0.020634 -0.001007 -54475.800000 0 0 1
14.815371 -12.142151 23.166922 30.060494 -0.686557 0.690894 0.031892 -0.009616 -146663.000000 0 0 1
14.491471 -12.961551 24.305422 31.124879 -0.729727 0.674691 0.036928 -0.001367 -435309.000000 0 0 1
13.472671 -14.034051 24.039122 30.924858 -0.805804 0.680370 0.022427 -0.005245 -714562.000000 0 0 1
13.893271 -14.968751 23.064322 30.806646 -0.822644 0.724728 0.034468 -0.007220 133033.000000 0 0 1
12.835471 -15.721351 22.501122 30.301991 -0.886114 0.733908 0.022618 0.004945 -303617.000000 0 0 1
13.242871 -16.648151 21.326022 30.121982 -0.898832 0.784150 0.028066 -0.005652 148307.000000 0 0 1
14.254171 -17.631051 21.611322 31.322270 -0.890912 0.809353 0.026424 -0.007809 552150.000000 0 0 1
14.456371 -18.539551 20.568322 31.237117 -0.908520 0.852029 0.021539 -0.003668 -474949.000000 0 0 1
-22.820629 -32.595294 26.396615 47.749508 0.959990 0.985058 0.031369 -0.018147 -616610.000000 0 0 1
-23.318629 -33.619894 27.208215 49.135961 0.964381 0.983955 0.032831 -0.018356 344522.000000 0 0 1
-24.621429 -33.907694 26.706485 49.690872 0.942747 1.003383 0.032425 -0.026542 726014.000000 0 0 1
-25.577599 34.410249 27.661765 51.024034 -0.931588 0.997824 0.029615 -0.025986 163347.000000 0 0 1
-26.230679 -33.994694 28.722645 51.659249 0.913607 0.981228 0.043953 -0.026552 563819.000000 0 0 1
-25.401379 -33.666994 29.849785 51.669199 0.924428 0.954877 0.044768 -0.025277 -48670.500000 0 0 1
-26.216199 -33.001994 30.923135 52.274859 0.899490 0.937818 0.033300 -0.024351 -132758.000000 0 0 1
-26.677299 -31.684494 30.624885 51.511833 0.870984 0.934126 0.023908 -0.019380 253068.000000 0 0 1
-27.571169 -31.186994 31.598465 52.261467 0.846858 0.921504 0.010787 -0.000454 -52692.600000 0 0 1
-28.088979 -29.762594 31.363065 51.560106 0.814320 0.916903 0.016034 0.000531 133669.000000 0 0 1
-28.856779 -29.615594 30.169685 51.186003 0.798375 0.940465 0.015613 0.007048 589655.000000 0 0 1
-29.494679 -28.329594 30.072035 50.762479 0.765252 0.936753 0.009154 0.010296 169229.000000 0 0 1
-30.082939 -28.066694 28.668735 50.145975 0.750739 0.962213 0.012788 -0.008418 -246025.000000 0 0 1
-29.099739 -27.828194 27.704565 48.874800 0.763066 0.968122 0.018387 -0.007414 36398.400000 0 0 1
-28.493829 -26.530394 27.678385 47.768746 0.749730 0.952774 0.003631 0.007226 -284697.000000 0 0 1
-27.393409 -26.557294 26.625825 46.525512 0.769902 0.961508 0.009388 0.015725 -609137.000000 0 0 1
-27.892049 -26.676294 25.305885 46.151694 0.763122 0.990443 0.004197 0.005147 809938.000000 0 0 1
-26.839419 -26.484994 24.339185 44.879898 0.778752 0.997602 0.013327 0.025461 533137.000000 0 0 1
-27.301859 -26.803594 22.888145 44.583532 0.776189 1.031681 0.009831 0.023868 -316022.000000 0 0 1
-28.215429 -25.926594 22.325645 44.347865 0.743149 1.043243 0.001722 0.013121 -32689.700000 0 0 1
-28.549279 -26.198194 20.960345 44.053862 0.742480 1.074935 -0.000434 0.023357 10077.600000 0 0 1
-29.130929 -24.982194 20.156345 43.347425 0.708880 1.087167 -0.009905 0.017620 12357.300000 0 0 1
-30.398119 -24.554894 20.596245 44.172319 0.679465 1.085726 -0.007140 0.013619 -96617.100000 0 0 1
-30.829849 -23.478094 19.761645 43.499690 0.650844 1.099217 -0.010195 0.014156 -159732.000000 0 0 1
-32.314279 -23.170994 20.035845 44.525753 0.622078 1.104050 0.003907 0.011010 -134380.000000 0 0 1
-33.254869 -24.084394 19.524845 45.466074 0.626808 1.126926 -0.005566 0.012677 632009.000000 0 0 1
-34.541205 -23.461294 19.401945 46.043052 0.596647 1.135822 0.000112 0.008481 878602.000000 0 0 1
35.008057 -24.292994 18.668145 46.521105 -0.606638 1.157879 0.002407 0.009316 208262.000000 0 0 1
34.633593 -25.457894 19.394945 47.156696 -0.633873 1.146931 0.004158 0.007105 -83501.600000 0 0 1
34.152361 -26.431094 18.500345 46.981371 -0.658633 1.166056 0.003746 0.019568 45220.100000 0 0 1
33.726181 -27.785394 19.108745 47.693055 -0.689117 1.158558 0.005156 0.022451 512870.000000 0 0 1
32.613401 -27.996194 19.996445 47.405470 -0.709366 1.135348 0.001181 0.019190 360560.000000 0 0 1
32.731111 -27.392094 21.262745 47.683925 -0.696829 1.108606 0.005231 0.011120 558689.000000 0 0 1
31.322331 -27.440694 21.964945 47.080132 -0.719438 1.085417 0.004900 0.005007 1532610.000000 0 0 1
30.351211 -26.533294 21.396745 45.640249 -0.718382 1.082850 0.007202 0.006236 -166125.000000 0 0 1
29.259081 -26.273994 22.212045 45.164051 -0.731697 1.056631 0.016820 0.004063 -689572.000000 0 0 1
28.482941 -24.991294 21.928445 43.780125 -0.720195 1.046185 0.012744 0.011053 -138436.000000 0 0 1
29.221631 -23.834294 21.526445 43.420791 -0.684204 1.052083 0.010778 0.016701 636404.000000 0 0 1
30.262661 -23.293694 22.390045 44.268938 -0.656001 1.040518 0.020127 0.006627 669954.000000 0 0 1
30.938161 -22.056194 21.783745 43.796998 -0.619339 1.050220 0.009620 0.011375 909956.000000 0 0 1
29.997671 -20.918894 21.638645 42.493427 -0.608946 1.036514 0.004374 0.006813 722016.000000 0 0 1
30.654331 -19.788194 21.203345 42.200029 -0.573224 1.044368 0.001509 0.010726 22263.600000 0 0 1
29.693591 -18.531594 21.235345 40.939824 -0.557948 1.025471 -0.017491 0.019176 596120.000000 0 0 1
29.463291 -18.017494 22.581545 41.263080 -0.548850 0.991712 0.000522 0.002917 454757.000000 0 0 1
28.611841 -18.816094 23.428045 41.491639 -0.581722 0.970793 0.007940 0.006124 -96590.900000 0 0 1
28.649571 -18.298694 24.872505 42.122222 -0.568396 0.939138 0.007788 0.009144 -204953.000000 0 0 1
28.292261 -16.946594 25.028845 41.401475 -0.539672 0.921608 0.002704 0.000924 -128777.000000 0 0 1
28.899461 -16.354394 26.112175 42.243232 -0.514973 0.904424 0.001869 0.004126 -407587.000000 0 0 1
28.669551 -14.855394 26.312465 41.652991 -0.478069 0.887044 0.005853 -0.005814 240437.000000 0 0 1
27.294191 -14.543994 26.539085 40.753204 -0.489589 0.861612 0.007009 -0.002936 597435.000000 0 0 1
27.054121 -13.204494 26.951115 40.406023 -0.454064 0.840611 0.011372 -0.008888 -20310.900000 0 0 1
27.420401 -12.081394 25.907845 39.611297 -0.415008 0.857868 0.023119 -0.017850 -322735.000000 0 0 1
26.643711 -12.056194 24.727945 38.297655 -0.424928 0.868886 0.021031 -0.004765 89052.300000 0 0 1
27.140271 -11.134394 23.809645 37.781850 -0.389314 0.889002 0.023519 0.002564 395863.000000 0 0 1
28.339361 -11.498494 22.850345 38.176864 -0.385447 0.929120 0.025071 -0.013341 114212.000000 0 0 1
28.119131 -12.499794 21.913645 37.777482 -0.418296 0.951980 0.007880 -0.010636 -128386.000000 0 0 1
28.290211 -13.807094 22.493745 38.690314 -0.454044 0.950374 0.006402 -0.013199 -380239.000000 0 0 1
27.960731 -14.931694 21.476645 38.288434 -0.490495 0.975303 0.003574 -0.004116 -228896.000000 0 0 1
28.492701 -14.701394 20.157945 37.872255 -0.476342 1.009527 -0.003580 0.001003 -94846.300000 0 0 1
28.014941 -15.698094 19.288345 37.460743 -0.510753 1.029911 -0.008897 -0.002562 -50180.900000 0 0 1
28.574491 -15.547394 17.850145 37.105938 -0.498303 1.068934 -0.009694 0.002138 59630.400000 0 0 1
28.125871 -16.570394 16.959945 36.786985 -0.532404 1.091640 -0.008538 -0.000387 493912.000000 0 0 1
26.760971 -16.629794 16.549145 35.588956 -0.556021 1.087153 0.004999 -0.009241 140782.000000 0 0 1
26.280111 -15.568394 15.509545 34.257336 -0.534814 1.100964 0.003982 -0.011452 -584516.000000 0 0 1
26.366461 -15.914294 14.136945 33.886696 -0.543048 1.140453 0.008007 -0.012379 415164.000000 0 0 1
25.558531 -17.069594 13.800945 33.690883 -0.588830 1.148743 0.011311 -0.021557 -215716.000000 0 0 1
25.659941 -17.803294 12.472645 33.629699 -0.606564 1.190838 0.011309 -0.004378 -188602.000000 0 0 1
25.268631 -16.928094 11.415245 32.486487 -0.590255 1.211747 -0.000104 -0.009085 90670.100000 0 0 1
24.918431 -17.636894 10.205245 32.189054 -0.615932 1.248189 0.013950 -0.010368 513669.000000 0 0 1
26.214401 -17.975694 9.403445 33.147325 -0.601076 1.283160 0.022076 -0.006939 15439.600000 0 0 1
26.969211 -18.942394 9.993345 34.438634 -0.612316 1.276383 0.021293 0.000156 28796.400000 0 0 1
28.350761 -18.649294 9.663045 35.283654 -0.581843 1.293384 0.027629 0.006186 1161030.000000 0 0 1
29.348061 -19.347294 10.629245 36.723389 -0.582841 1.277154 0.041999 -0.005087 -43218.800000 0 0 1
29.274771 -18.834894 11.985345 36.815946 -0.571710 1.239205 0.038858 -0.020154 34911.400000 0 0 1
29.776041 -19.757594 12.978245 38.018547 -0.585835 1.222426 0.014622 -0.012095 18216.600000 0 0 1
29.607501 -19.341894 14.397745 38.183871 -0.578675 1.184173 0.019051 0.004986 136320.000000 0 0 1
29.733081 -20.369794 15.394145 39.191380 -0.600648 1.167128 0.023294 0.004000 -97051.500000 0 0 1
29.478051 -19.818994 16.708945 39.254768 -0.591913 1.131112 0.020895 -0.001716 117150.000000 0 0 1
29.206431 -20.939494 17.740945 40.077663 -0.622010 1.112229 0.012589 0.002678 568091.000000 0 0 1
27.990021 -21.626294 17.419145 39.427965 -0.657836 1.113196 0.000209 0.004355 364035.000000 0 0 1
27.849071 -22.689294 18.338445 40.332039 -0.683654 1.098776 0.007033 0.004325 -463996.000000 0 0 1
26.494241 -23.347594 18.185645 39.721186 -0.722349 1.095241 0.013499 0.007866 -344188.000000 0 0 1
25.386331 -22.627394 18.687845 38.803354 -0.728000 1.068312 0.017137 0.002365 -486855.000000 0 0 1
24.201131 -23.315994 18.490445 38.356575 -0.766773 1.067784 0.015303 -0.003363 69865.700000 0 0 1
22.907731 -22.743194 19.158545 37.537539 -0.781794 1.035166 0.024496 -0.011821 521644.000000 0 0 1
22.314531 -21.610394 18.451145 36.130211 -0.769369 1.034815 0.026909 -0.010134 475488.000000 0 0 1
21.027731 -21.179094 18.886145 35.318634 -0.788984 1.006601 0.028028 -0.009181 413790.000000 0 0 1
20.946331 -20.468794 20.263645 35.613699 -0.773868 0.965526 0.022955 -0.005446 -364350.000000 0 0 1
21.232831 -21.327594 21.339245 36.892583 -0.787625 0.954011 0.018143 -0.007424 -165149.000000 0 0 1
21.387231 -20.588694 22.544645 37.276922 -0.766377 0.921296 0.014069 0.005871 -228337.000000 0 0 1
21.940631 -21.439094 23.653245 38.736314 -0.773837 0.913951 0.010217 0.003648 -760287.000000 0 0 1
20.984031 -22.157894 24.290855 39.004454 -0.812601 0.898517 0.024068 0.007026 -819087.000000 0 0 1
21.573631 -23.061594 25.198685 40.400895 -0.818722 0.897309 0.027847 -0.005210 -222886.000000 0 0 1
20.551931 -23.715494 26.147405 40.847194 -0.856742 0.876132 0.022094 -0.000779 -3943.730000 0 0 1
19.798931 -24.796694 25.593925 40.766685 -0.897001 0.892054 0.036789 0.002180 624691.000000 0 0 1
18.842831 -25.216994 26.598865 41.212239 -0.929072 0.869234 0.055033 0.004127 393343.000000 0 0 1
17.915631 -26.311594 26.045875 41.129762 -0.973003 0.885037 0.050591 0.011283 -105293.000000 0 0 1
17.234631 -26.005394 24.843455 39.881201 -0.985522 0.898305 0.037582 -0.001296 283253.000000 0 0 1
16.763831 -27.178894 24.182175 40.056159 -1.018118 0.922654 0.048435 -0.011522 -207696.000000 0 0 1
15.887131 -26.864294 22.955245 38.743186 -1.036736 0.936641 0.037924 -0.012501 1052370.000000 0 0 1
14.478931 -26.703894 23.239245 38.246567 -1.073959 0.917740 0.025655 -0.010579 1092390.000000 0 0 1
13.764031 -26.437294 22.044645 37.072165 -1.090782 0.933977 0.015311 -0.010977 209959.000000 0 0 1
12.434531 -25.663494 22.247245 36.168665 -1.119608 0.908287 0.013967 -0.010999 225943.000000 0 0 1
11.314731 -26.491994 22.416645 36.501436 -1.167148 0.909513 0.010513 -0.014214 73369.400000 0 0 1
10.108331 -25.765294 22.189345 35.473874 -1.196925 0.895008 0.011075 -0.007422 376811.000000 0 0 1
8.800731 -26.555394 22.143245 35.678636 -1.250778 0.901250 0.010347 -0.011041 -140631.000000 0 0 1
8.644931 -27.330794 21.011145 35.541178 -1.264447 0.938278 0.020044 -0.008711 227336.000000 0 0 1
7.307031 -27.791694 20.929945 35.550436 -1.313694 0.941298 -0.001053 -0.000700 99763.200000 0 0 1
6.989331 -28.776894 19.765845 35.604058 -1.332530 0.982245 0.014804 -0.003861 24730.400000 0 0 1
7.554831 -30.093994 19.897745 36.859790 -1.324838 1.000570 0.020260 -0.006071 265447.000000 0 0 1
7.349531 -30.857694 18.730145 36.837904 -1.336978 1.037415 -0.010060 0.000358 -164636.000000 0 0 1
8.152631 -32.174594 18.641545 38.068058 -1.322632 1.059062 -0.006261 0.000727 -452266.000000 0 0 1
8.034131 -32.980694 19.780945 39.288156 -1.331849 1.043170 -0.004373 0.000290 402775.000000 0 0 1
8.717931 -34.222594 19.577545 40.379060 -1.321360 1.064612 -0.009009 0.002822 -421071.000000 0 0 1
8.347431 33.839549 20.611345 40.492249 1.328948 1.036751 -0.002836 0.001352 417377.000000 0 0 1
7.174631 33.073049 20.287545 39.457399 1.357173 1.030765 -0.001928 -0.000019 430273.000000 0 0 1
7.195031 31.890949 21.087245 38.903380 1.348898 0.997932 -0.000345 -0.006422 -241627.000000 0 0 1
6.328231 30.708749 20.586945 37.508613 1.367569 0.989798 0.008070 -0.011058 115458.000000 0 0 1
4.997131 30.856149 21.029245 37.673630 1.410241 0.978587 0.014548 -0.010798 -305828.000000 0 0 1
4.254031 29.667849 20.884345 36.529904 1.428379 0.962213 0.021967 -0.005221 392225.000000 0 0 1
2.776631 29.718949 21.341245 36.692974 1.477637 0.950082 0.014889 0.000777 219026.000000 0 0 1
2.637331 29.469849 22.765745 37.332381 1.481542 0.914973 0.011484 -0.011320 422465.000000 0 0 1
1.270531 29.229649 23.117745 37.288292 1.527356 0.902088 0.000264 -0.005950 551058.000000 0 0 1
1.212031 28.515149 24.518875 37.626559 1.528317 0.861055 0.008312 -0.003839 -157111.000000 0 0 1
1.255331 29.301849 25.679185 38.981980 1.527981 0.851647 0.001743 -0.004385 190722.000000 0 0 1
0.976631 28.524449 26.808965 39.157612 1.536571 0.816683 0.001058 -0.006726 -417855.000000 0 0 1
2.168731 27.986549 27.616655 39.378039 1.493459 0.793547 -0.002440 -0.008432 -254537.000000 0 0 1
2.798631 26.848149 27.051365 38.215596 1.466932 0.784330 0.007421 -0.011045 449142.000000 0 0 1
3.666231 26.183749 27.964405 38.484255 1.431681 0.757370 -0.003783 -0.005511 331297.000000 0 0 1
4.316331 24.922549 27.307085 37.221513 1.399308 0.747137 0.000362 0.004898 38751.100000 0 0 1
3.305031 23.946449 27.123475 36.332334 1.433645 0.727953 0.009380 0.007220 403459.000000 0 0 1
3.848631 22.691449 26.749065 35.287764 1.402788 0.710514 0.019168 0.017954 1110510.000000 0 0 1
2.638331 21.677849 26.456995 34.305429 1.449686 0.690043 0.007608 0.021470 929356.000000 0 0 1
2.855031 20.276349 26.502905 33.491573 1.430910 0.657814 0.011514 0.026156 -10758.400000 0 0 1
3.583331 19.753349 25.401555 32.377060 1.391344 0.668820 0.014417 0.023531 -343873.000000 0 0 1
3.958831 18.249949 25.693965 31.763388 1.357183 0.628488 0.008349 0.019817 -580211.000000 0 0 1
4.935931 18.070549 26.655255 32.579299 1.304153 0.612583 0.000936 0.013987 -90601.200000 0 0 1
6.219131 18.035249 26.039845 32.280355 1.238733 0.632287 0.003084 0.013287 -760107.000000 0 0 1
7.444031 18.070049 26.940725 33.282772 1.180027 0.627582 0.003116 -0.003187 -428055.000000 0 0 1
7.683831 19.250749 27.712405 34.606502 1.191028 0.642190 0.000278 -0.001864 310198.000000 0 0 1
8.197731 20.327249 26.861355 34.668894 1.187459 0.684402 -0.007374 -0.004761 -266626.000000 0 0 1
8.766731 21.532349 27.670815 36.140996 1.184148 0.698768 -0.013282 -0.000541 132785.000000 0 0 1
10.051431 21.286649 28.211635 36.743013 1.129640 0.695381 0.007339 -0.015638 -101967.000000 0 0 1
10.266331 22.044449 29.367475 38.128780 1.134955 0.691613 0.004921 -0.021314 520518.000000 0 0 1
11.571831 21.777149 30.190225 38.982062 1.082365 0.684928 0.014354 -0.023772 399197.000000 0 0 1
12.763931 22.195849 29.606675 39.142417 1.048917 0.713030 0.012717 -0.025770 13716.800000 0 0 1
13.921331 22.079449 30.450575 40.106645 1.008244 0.708652 0.001773 -0.016136 1270840.000000 0 0 1
15.283631 22.201749 29.700635 40.107789 0.967900 0.736952 0.011726 -0.018541 430916.000000 0 0 1
15.473031 23.458749 29.099855 40.454037 0.987713 0.767957 0.015481 -0.021531 437122.000000 0 0 1
16.791131 23.617049 28.573135 40.695591 0.952743 0.792428 0.044908 -0.021476 309315.000000 0 0 1
-8.676329 16.841449 4.358022 19.439790 -1.095081 1.344694 0.017274 -0.008601 -209969.000000 0 1 0
-8.371629 17.948449 5.140422 20.461059 -1.134367 1.316846 0.018207 -0.008369 64170.300000 0 1 0
-6.990029 18.239049 5.236022 20.222249 -1.204817 1.308888 0.008478 -0.003658 -142675.000000 0 1 0
-6.613229 19.645949 5.788322 21.522146 -1.246090 1.298496 0.006931 -0.002212 -410694.000000 0 1 0
-6.841429 20.829049 4.997722 22.486255 -1.253442 1.346668 0.007921 0.000052 460210.000000 0 1 0
-8.217329 21.084449 4.720222 23.116206 -1.199171 1.365155 0.008154 -0.006839 464855.000000 0 1 0
-8.475129 22.138249 3.629922 23.981372 -1.205181 1.418848 0.028381 -0.010451 146341.000000 0 1 0
-7.823229 21.981949 2.387822 23.454439 -1.228881 1.468813 0.007046 -0.009917 -2943.360000 0 1 0
-8.339929 20.885749 1.617522 22.547401 -1.190883 1.498996 0.020992 -0.004328 -602777.000000 0 1 0
-7.879929 20.976849 0.183922 22.408822 -1.211457 1.562589 0.015190 0.001741 17344.500000 0 1 0
-6.569329 20.585749 -0.137378 21.608980 -1.261892 1.577154 0.007682 0.004734 -4217.990000 0 1 0
-5.588929 21.601449 0.123822 22.313092 -1.317619 1.565247 0.008956 0.000827 584864.000000 0 1 0
-4.172929 21.267949 -0.451478 21.678165 -1.377050 1.591624 0.006501 0.003467 610418.000000 0 1 0
-4.052529 21.597049 -1.807478 22.048186 -1.385311 1.652867 0.004386 0.001004 302181.000000 0 1 0
-2.688229 21.660549 -2.202378 21.937557 -1.447321 1.671359 0.005825 0.011003 264706.000000 0 1 0
-2.573029 21.877449 -3.684378 22.334231 -1.453723 1.736519 0.011874 0.009423 717436.000000 0 1 0
-1.282629 22.352249 -4.111878 22.763473 -1.513477 1.752428 0.012437 0.017078 871338.000000 0 1 0
-1.384829 22.809149 -5.454178 23.493043 -1.510157 1.805096 0.018707 0.007854 -184275.000000 0 1 0
-0.024929 23.222849 -6.027078 23.992228 -1.569723 1.824726 0.022590 -0.002084 -477934.000000 0 1 0
0.886471 22.185749 -6.190478 23.050278 1.530861 1.842698 -0.001392 0.002594 -49987.300000 0 1 0
2.065671 22.666049 -6.848178 23.767926 1.479912 1.863066 -0.000776 -0.003460 228655.000000 0 1 0
3.167671 21.599649 -6.883678 22.890260 1.425181 1.876249 -0.003977 -0.000307 -313968.000000 0 1 0
2.954871 20.615649 -7.837478 22.252243 1.428434 1.930728 -0.005835 -0.004181 -407822.000000 0 1 0
3.826371 19.531349 -7.803778 21.377878 1.377337 1.944472 -0.006605 -0.006022 -29603.800000 0 1 0
3.529271 18.593749 -9.014578 20.962964 1.383218 2.015316 -0.007077 -0.002288 -266645.000000 0 1 0
4.103471 19.046649 -10.203478 21.993733 1.358597 2.053219 -0.009920 -0.005663 -241591.000000 0 1 0
3.230671 18.874249 -11.292978 22.230741 1.401271 2.103645 -0.003713 -0.002322 -125708.000000 0 1 0
3.714271 19.528749 -12.600478 23.535928 1.382846 2.135745 -0.008061 0.003037 -92188.500000 0 1 0
3.733171 20.940849 -12.659378 24.753092 1.394377 2.107640 0.010143 0.001122 -193701.000000 0 1 0
3.958971 21.232549 -13.989978 25.733520 1.386456 2.145574 0.010288 0.005703 -26443.000000 0 0 1
4.320071 22.693049 -14.422278 27.233060 1.382678 2.128910 0.008889 0.005105 186488.000000 0 0 1
3.222171 23.581749 -14.421678 27.829230 1.434999 2.115565 0.014372 0.001790 43929.000000 0 0 1
3.697471 24.823749 -14.875778 29.174965 1.422934 2.105843 0.009439 -0.002215 140202.000000 0 0 1
2.563371 25.852949 -15.101578 30.050017 1.471967 2.097340 0.028359 0.001616 60745.900000 0 0 1
1.969271 26.379049 -13.953678 29.907146 1.496282 2.056201 0.037860 -0.010119 181359.000000 0 0 1
1.259771 27.605049 -14.228578 31.081798 1.525192 2.046291 0.022692 -0.011510 -864169.000000 0 0 1
0.292771 28.068149 -13.134878 30.990833 1.560366 2.008467 0.027444 -0.013233 328475.000000 0 0 1
-1.089029 27.731849 -13.238978 30.749178 -1.531547 2.015895 0.028485 -0.022927 323414.000000 0 0 1
-1.356529 26.307949 -13.285478 29.503428 -1.519278 2.037901 0.028456 -0.018377 -960655.000000 0 0 1
-1.128129 25.417449 -12.042978 28.148760 -1.526441 2.012891 0.041044 -0.019298 -444001.000000 0 0 1
-1.889629 25.594649 -10.820578 27.852139 -1.497101 1.969800 0.032143 -0.011611 141378.000000 0 0 1
-2.155129 24.302549 -10.372778 26.511375 -1.482349 1.972794 0.046935 -0.008061 335490.000000 0 0 1
-3.160229 24.196149 -9.138378 26.056681 -1.440923 1.929127 0.035634 -0.009481 677962.000000 0 0 1
-2.691829 24.644149 -7.852778 26.004733 -1.462000 1.877560 0.027809 -0.008340 15836.700000 0 0 1
-2.566429 26.076749 -7.737878 27.321386 -1.472694 1.857943 0.034257 -0.010771 27115.300000 0 0 1
-2.394329 26.610849 -6.244978 27.438474 -1.481062 1.800408 0.025371 -0.005136 678131.000000 0 0 1
-1.179329 26.251849 -5.557278 26.859518 -1.525903 1.779203 0.035783 -0.006786 523260.000000 0 0 1
-1.038629 26.692849 -4.197878 27.040879 -1.531906 1.726669 0.041539 -0.012128 -577735.000000 0 0 1
-1.815829 25.975249 -3.088078 26.221118 -1.501004 1.688841 0.032866 -0.007275 918211.000000 0 0 1
-3.242229 26.045349 -3.261478 26.448242 -1.446949 1.694427 0.018389 -0.005050 616312.000000 0 0 1
-3.962329 25.138549 -2.502878 25.571685 -1.414463 1.668830 0.009377 -0.004969 -600170.000000 0 0 1
-5.260929 24.687449 -3.155978 25.438312 -1.360836 1.695181 0.002192 -0.001370 -288226.000000 0 0 1
-6.290729 25.684749 -3.169678 26.633183 -1.330604 1.690091 -0.012277 -0.001412 -79507.700000 0 0 1
-7.386629 25.034149 -3.781078 26.373613 -1.283876 1.714658 -0.007525 0.006925 -560820.000000 0 0 1
-8.676829 25.837149 -3.814178 27.520785 -1.246803 1.709837 -0.014941 0.009487 -732622.000000 0 0 1
-9.197929 26.057549 -2.547778 27.750476 -1.231465 1.662736 -0.012408 -0.003888 -1324560.000000 0 0 1
-10.400129 26.708949 -2.692078 28.788503 -1.199472 1.664445 -0.004440 0.001714 -651475.000000 0 0 1
-11.112829 26.960749 -1.266178 29.188699 -1.179830 1.614189 0.007483 0.000260 501481.000000 0 0 1
-11.650829 25.710549 -0.659478 28.234891 -1.145323 1.594155 0.020074 -0.005688 598671.000000 0 0 1
-10.651129 24.836149 -0.139378 27.024068 -1.165664 1.575954 0.016966 -0.006608 103273.000000 0 0 1
-11.126929 23.347649 -0.023678 25.863523 -1.126063 1.571712 0.022144 -0.004062 -260382.000000 0 0 1
-11.910829 23.212149 1.112422 26.113391 -1.096701 1.528184 0.032860 -0.006524 -273271.000000 0 0 1
-12.425529 21.894649 1.282722 25.207435 -1.054606 1.519888 0.042635 -0.011133 -211626.000000 0 0 1
-13.283429 21.772049 2.541822 25.630694 -1.022973 1.471462 0.044116 -0.012870 -239825.000000 0 0 1
-12.586829 21.872949 3.777322 25.517099 -1.048623 1.422219 0.053125 -0.015746 97400.800000 0 0 1
-12.576629 23.182149 4.286122 26.719927 -1.073719 1.409691 0.039303 -0.007703 4424.860000 0 0 1
-12.287129 23.124849 5.803822 26.821941 -1.082393 1.352688 0.036342 -0.005310 23924.700000 0 0 1
-10.971029 22.793049 6.202322 26.045256 -1.122194 1.330350 0.036426 -0.003039 200967.000000 0 0 1
-11.052329 22.404749 7.581122 26.107473 -1.112521 1.276171 0.030228 -0.001537 551598.000000 0 0 1
-9.669029 22.150449 8.250722 25.538342 -1.159212 1.241823 0.028213 -0.000855 640894.000000 0 0 1
-8.899029 23.267649 8.720222 26.393531 -1.205498 1.234077 0.027717 -0.002107 629824.000000 0 0 1
-7.821429 22.960149 9.607322 26.089152 -1.242473 1.193671 0.031142 -0.001804 202957.000000 0 0 1
-8.117629 22.568649 11.073722 26.417175 -1.225519 1.138247 0.029161 -0.004941 -75109.900000 0 0 1
-8.935129 21.407949 11.254722 25.783824 -1.175402 1.119088 0.033589 -0.005534 228212.000000 0 0 1
-8.778029 20.878149 12.573622 25.904572 -1.172794 1.063996 0.023786 -0.007155 -801205.000000 0 0 1
-9.676829 19.694949 12.848422 25.428606 -1.114104 1.041096 0.021958 -0.009639 -403736.000000 0 0 1
-9.418129 18.501149 12.094022 24.026216 -1.099930 1.043304 0.023890 -0.018032 -195990.000000 0 1 0
-10.226329 17.489149 12.607022 23.861793 -1.041685 1.014158 0.027729 -0.019084 -431765.000000 0 1 0
-10.424229 16.302449 11.705722 22.615444 -1.001890 1.026754 0.024646 -0.027664 -439848.000000 0 1 0
-10.948629 15.183749 12.323522 22.411781 -0.946065 0.988590 0.020197 -0.026371 -142183.000000 0 1 0
-11.260629 14.159649 11.386222 21.376236 -0.898951 1.009058 0.015870 -0.021195 113043.000000 0 1 0
-11.632429 12.859349 12.137922 21.166138 -0.835451 0.960074 0.010036 -0.022002 298097.000000 0 1 0
-12.766929 12.936349 12.983522 22.336415 -0.791989 0.950506 0.022859 -0.017079 48950.000000 0 1 0
-13.073429 11.694649 13.576922 22.181347 -0.729788 0.912099 0.013197 -0.004473 -132514.000000 0 1 0
-13.990129 11.787149 14.788722 23.523752 -0.700143 0.890952 0.015389 -0.012088 -185182.000000 0 1 0
-15.250129 12.334449 14.507622 24.396233 -0.680090 0.933946 0.029176 -0.023190 -593824.000000 0 1 0
-15.839429 12.871049 15.652522 25.720670 -0.682374 0.916554 0.029422 -0.010993 115046.000000 0 0 1
-16.828729 14.083749 15.485922 26.858367 -0.696832 0.956263 0.041331 -0.018837 424218.000000 0 0 1
-18.118729 13.652249 15.100522 27.252486 -0.645730 0.983518 0.041956 -0.013417 -23422.200000 0 0 1
-19.052329 14.737549 15.030322 28.391851 -0.658391 1.012917 0.051075 -0.022870 127189.000000 0 0 1
-20.225929 14.337549 14.131222 28.536730 -0.616654 1.052738 0.046208 -0.014244 -322686.000000 0 0 1
-21.001829 13.311049 14.727922 28.899352 -0.564905 1.036044 0.039312 -0.011180 -741052.000000 0 0 1
-22.118529 13.050749 13.967722 29.234374 -0.533062 1.072666 0.035893 -0.007695 -803735.000000 0 0 1
-23.117629 12.088549 14.613222 29.901573 -0.481811 1.060185 0.033901 -0.000987 158739.000000 0 0 1
-23.752229 12.669949 15.814522 31.221709 -0.490026 1.039649 0.029292 -0.001704 -23575.900000 0 0 1
-24.594729 11.740049 16.382922 31.798264 -0.445356 1.029539 0.026117 -0.001254 -619801.000000 0 0 1
-25.443729 12.357149 17.526922 33.275749 -0.452115 1.016062 0.032307 -0.007865 836827.000000 0 0 1
-26.460559 13.289749 16.990722 34.138882 -0.465444 1.049858 0.036589 -0.003440 1140370.000000 0 0 1
-27.050069 13.922349 18.122422 35.411301 -0.475329 1.033553 0.028800 0.003908 -4410.820000 0 0 1
-28.119189 15.004749 17.859822 36.534977 -0.490175 1.060035 0.019638 -0.001801 86382.700000 0 0 1
-27.616559 16.232949 17.513222 36.508847 -0.531399 1.070486 0.022374 0.001993 71200.900000 0 0 1
-28.759719 17.057849 17.325122 37.659680 -0.535342 1.092751 0.012407 0.004896 530423.000000 0 0 1
-28.411629 18.582349 17.396322 38.146512 -0.579210 1.097256 0.034159 -0.002529 6071.000000 0 0 1
-27.688189 18.901149 18.573022 38.325532 -0.598982 1.064876 0.023590 -0.004497 -79902.100000 0 0 1
-28.470089 18.993049 19.739922 39.508814 -0.588318 1.047621 0.012906 -0.005094 -1165820.000000 0 0 1
-27.652059 19.272249 20.983222 39.703294 -0.608680 1.013963 0.014772 -0.014507 336727.000000 0 0 1
-26.909129 18.213049 21.600622 39.017986 -0.595009 0.984107 0.020465 -0.012815 250019.000000 0 0 1
-25.999039 17.517549 20.753522 37.596851 -0.592909 0.986034 0.031471 -0.011864 -907462.000000 0 0 1
-25.674719 16.150549 21.272022 37.047677 -0.561503 0.959195 0.034369 -0.013371 -708162.000000 0 0 1
-26.720729 15.270449 21.508722 37.547425 -0.519187 0.960828 0.013332 -0.005966 -658475.000000 0 0 1
-26.345069 13.997149 21.964122 37.045992 -0.488373 0.936156 0.020530 -0.003575 -394476.000000 0 0 1
-27.550299 13.127149 22.353622 37.828897 -0.444655 0.938605 0.013537 -0.003710 -12381.300000 0 0 1
-28.350529 12.815249 21.218422 37.659057 -0.424540 0.972259 0.014638 -0.004706 -593000.000000 0 0 1
-29.446389 12.049349 21.579222 38.443978 -0.388409 0.974821 0.036835 -0.004723 -580247.000000 0 0 1
-30.253029 11.739949 20.271222 38.262183 -0.370170 1.012434 0.037372 -0.004258 -350780.000000 0 0 1
-29.577819 11.089349 19.216922 36.974466 -0.358702 1.024256 0.041007 -0.006621 -72891.200000 0 0 1
-29.210489 9.780549 19.448922 36.430377 -0.323097 1.007631 0.042379 -0.011390 -122212.000000 0 0 1
-28.386749 9.241649 18.235522 34.982136 -0.314740 1.022445 0.035216 -0.014025 192975.000000 0 0 1
-29.112819 8.887549 17.043222 34.885759 -0.296293 1.060376 0.025879 -0.007197 451443.000000 0 0 1
-29.726719 9.932749 16.276922 35.316788 -0.322472 1.091806 0.024117 -0.006162 190023.000000 0 0 1
-28.771129 11.076049 15.750022 34.619647 -0.367484 1.098486 0.029641 -0.010101 299416.000000 0 0 1
-28.169559 10.667949 14.525122 33.441118 -0.362015 1.121481 0.025451 0.000354 566903.000000 0 0 1
-27.245129 11.590349 13.954722 32.731751 -0.402218 1.130358 0.014638 0.009919 -9359.350000 0 0 1
-26.941949 11.381049 12.434422 31.780682 -0.399691 1.168799 0.030258 0.008721 -190776.000000 0 0 1
-26.189159 10.222949 12.092622 30.604121 -0.372160 1.164586 0.033406 0.011153 900733.000000 0 0 1
-27.032599 9.077349 11.824322 30.870281 -0.323962 1.177719 0.038401 0.018602 50936.700000 0 0 1
-26.377309 7.960349 10.963622 29.653509 -0.293096 1.192084 0.039176 0.013118 -557988.000000 0 0 1
-26.222199 8.344549 9.578222 29.137220 -0.308092 1.235840 0.046238 0.010930 209065.000000 0 0 1
-25.733949 7.288449 8.801822 28.157232 -0.275995 1.252872 0.044959 0.001813 -256217.000000 0 0 1
-25.151739 7.810549 7.440422 27.367399 -0.301096 1.295459 0.042415 0.010974 -349283.000000 0 0 1
-26.073959 8.269149 6.508422 28.117427 -0.307108 1.337205 0.035724 0.013729 -204786.000000 0 0 1
-25.420469 8.791549 5.383222 27.431199 -0.332969 1.373270 0.035537 0.012742 -701423.000000 0 0 1
-26.389079 9.091949 4.264122 28.235258 -0.331798 1.419195 0.019929 0.017424 -390571.000000 0 0 1
-27.093929 7.949449 3.711022 28.478877 -0.285394 1.440117 0.027157 0.007274 553976.000000 0 0 1
-26.405379 6.712649 3.346022 27.449947 -0.248942 1.448597 0.041549 0.000630 163870.000000 0 0 1
-25.422789 6.775849 2.114522 26.395104 -0.260472 1.490600 0.062190 0.001745 1001180.000000 0 0 1
-24.316929 7.665849 2.307622 25.600848 -0.305386 1.480535 0.058302 0.003177 719030.000000 0 0 1
-23.282229 7.634949 1.364322 24.540090 -0.316880 1.515172 0.059865 0.004192 -513619.000000 0 1 0
-22.151729 8.608749 1.644022 23.822520 -0.370663 1.501730 0.058461 0.007077 -287733.000000 0 1 0
-22.548329 10.009049 1.694322 24.728100 -0.417764 1.502225 0.047987 0.013725 409880.000000 0 1 0
-21.399529 10.720249 2.056022 24.022714 -0.464413 1.485105 0.049380 0.010494 -351115.000000 0 1 0
-21.714229 12.153749 2.590822 25.018667 -0.510270 1.467055 0.040162 0.012034 39293.000000 0 0 1
-20.561429 12.774249 3.115322 24.406127 -0.555914 1.442802 0.029934 0.006846 596241.000000 0 1 0
-20.965029 13.942349 3.798022 25.462649 -0.586868 1.421077 0.031954 -0.002672 86298.800000 0 0 1
-19.818929 14.618049 4.614122 25.055287 -0.635505 1.385582 0.008255 -0.000636 343842.000000 0 0 1
-19.281329 13.690949 5.546322 24.289369 -0.617447 1.340420 0.010322 -0.005130 38161.800000 0 1 0
-18.704329 14.221249 6.693822 24.431601 -0.650072 1.293265 0.024969 -0.015786 -363696.000000 0 1 0
-18.101829 13.222449 7.678522 23.695339 -0.630870 1.240787 0.010114 -0.018794 572325.000000 0 1 0
-16.924929 12.636549 7.072422 22.274531 -0.641337 1.247692 0.012616 -0.004580 951603.000000 0 1 0
-16.346329 11.688549 7.962922 21.615568 -0.620760 1.193522 0.001535 -0.011384 -311439.000000 0 1 0
10.404771 -32.964394 -14.220778 37.378350 -1.265056 1.961085 0.013242 0.001761 -146359.000000 0 0 1
11.790671 -33.069394 -14.010478 37.800770 -1.228304 1.950494 -0.010221 -0.005540 136349.000000 0 0 1
12.440871 -31.786494 -14.115478 36.937828 -1.197736 1.962909 -0.010703 -0.011879 62696.700000 0 0 1
13.819471 -31.666094 -13.441978 37.072982 -1.159299 1.941833 0.016410 -0.008777 -132792.000000 0 0 1
14.680771 -32.642094 -13.931578 38.407293 -1.148151 1.941995 0.000481 -0.003149 -674058.000000 0 0 1
16.051571 -32.354094 -13.797178 38.662675 -1.110256 1.935701 0.020813 -0.002281 380530.000000 0 0 1
16.909671 -33.619194 -14.187278 40.217732 -1.104770 1.931317 0.015395 -0.013004 252912.000000 0 0 1
16.982271 34.482049 -13.207878 40.643047 1.113170 1.901779 0.016142 -0.015537 -261775.000000 0 0 1
17.421971 33.289349 -13.891678 40.058514 1.088644 1.924937 0.012426 -0.008671 -151654.000000 0 0 1
17.375571 32.023949 -13.009478 38.687082 1.073667 1.913755 0.010305 -0.012626 105564.000000 0 0 1
18.197171 32.105349 -11.858278 38.762214 1.055150 1.881705 0.013131 -0.014531 -61602.100000 0 0 1
18.147271 30.898149 -11.185078 37.538314 1.039748 1.873356 0.010785 -0.013712 94659.400000 0 0 1
19.217271 30.760049 -10.069978 37.641580 1.012378 1.841617 0.013191 -0.006180 598879.000000 0 0 1
20.537971 30.499249 -10.566178 38.257765 0.978152 1.850618 0.016673 -0.010539 541948.000000 0 0 1
21.308371 30.321349 -9.380278 38.228530 0.958226 1.818702 0.015396 -0.007470 664604.000000 0 0 1
22.681471 29.566449 -9.586778 38.477660 0.916418 1.822601 0.004146 -0.002180 642570.000000 0 0 1
23.614171 30.309749 -10.312778 39.782701 0.908933 1.833019 0.003492 -0.011768 -835089.000000 0 0 1
24.845671 29.665049 -10.326578 40.049478 0.873580 1.831588 -0.004376 0.004686 -241406.000000 0 0 1
25.908771 30.347449 -11.235178 41.454328 0.864136 1.845255 0.006994 0.001185 43849.100000 0 0 1
26.445071 31.572249 -10.771978 42.569757 0.873542 1.826621 0.002151 -0.013332 201147.000000 0 0 1
27.370371 32.101749 -11.708678 43.780734 0.864787 1.841531 -0.000058 -0.000598 33970.500000 0 0 1
27.631671 33.575149 -11.457078 44.967371 0.882200 1.828423 0.005826 -0.009155 -821586.000000 0 0 1
26.661371 34.468549 -11.882478 45.167498 0.912425 1.837005 0.003675 -0.006886 -469734.000000 0 0 1
27.132271 -33.359894 -11.658278 44.552868 -0.887986 1.835551 0.011032 -0.008998 -486497.000000 0 0 1
26.083171 -32.294794 -11.838578 43.167551 -0.891403 1.848603 0.012771 -0.017323 -333603.000000 0 0 1
25.012471 -32.420494 -10.920978 42.379003 -0.913675 1.831435 0.008776 -0.007406 191503.000000 0 0 1
23.858771 -31.596394 -11.015278 41.096343 -0.924032 1.842150 0.019969 -0.003360 671137.000000 0 0 1
24.103971 -30.038894 -10.894378 40.025292 -0.894578 1.846462 0.025322 -0.020685 -849010.000000 0 0 1
24.953371 -29.549094 -11.910778 40.468337 -0.869521 1.869544 0.022030 -0.010097 -122191.000000 0 0 1
25.308571 -28.241394 -11.511278 39.630917 -0.840111 1.865506 0.009484 -0.001321 -433820.000000 0 0 1
26.230971 -27.591294 -12.542278 40.083064 -0.810667 1.889049 0.014598 -0.005787 -235106.000000 0 0 1
27.489071 -28.192094 -12.731478 41.382770 -0.798023 1.883520 -0.004771 0.001958 -116659.000000 0 0 1
27.505371 -29.155794 -13.766878 42.380805 -0.814518 1.901636 0.004628 -0.003019 -427452.000000 0 0 1
28.909571 -29.698294 -14.063378 43.766774 -0.798855 1.897925 0.006288 -0.001130 -115026.000000 0 0 1
29.481471 -30.584394 -13.125178 44.461585 -0.803758 1.870464 0.014092 -0.006640 97549.000000 0 0 1
30.290871 -31.557994 -13.750878 45.853358 -0.805883 1.875372 0.004209 -0.008593 -464103.000000 0 0 1
31.144171 -32.376294 -12.820478 46.717753 -0.804793 1.848787 0.009589 -0.006566 -355534.000000 0 0 1
31.769671 -33.487594 -13.406678 48.067348 -0.811717 1.853460 0.003973 -0.009663 367679.000000 0 0 1
32.518971 -34.358594 -12.537578 48.940651 -0.812899 1.829864 0.007099 -0.001908 86029.300000 0 0 1
31.684671 33.866949 -11.646978 47.817786 0.818677 1.816841 0.006336 -0.005351 -231876.000000 0 0 1
31.295171 34.207149 -10.372778 47.509065 0.829825 1.790902 0.001450 -0.010837 -260927.000000 0 0 1
30.690471 33.147149 -9.675478 46.197980 0.823862 1.781794 0.000527 -0.004378 -297880.000000 0 0 1
29.864271 33.635449 -8.449878 45.767003 0.844717 1.756490 -0.000609 -0.000390 132189.000000 0 0 1
28.868071 34.561149 -8.854178 45.893736 0.874913 1.764941 -0.007308 -0.007755 -439452.000000 0 0 1
27.897771 -34.538394 -7.808978 45.079556 -0.891358 1.744901 -0.015501 -0.002320 277305.000000 0 0 1
27.045471 -33.237394 -7.978578 43.587149 -0.887754 1.754883 -0.017712 -0.005555 381856.000000 0 0 1
27.803671 -32.027294 -7.718978 43.108865 -0.855874 1.750825 -0.017784 -0.013482 584202.000000 0 0 1
27.123371 -30.881994 -8.228978 41.917668 -0.850106 1.768393 -0.009681 -0.005278 430502.000000 0 0 1
25.960471 -30.309494 -7.382278 40.584597 -0.862533 1.753713 -0.003821 -0.001565 534828.000000 0 0 1
25.226371 -29.201594 -7.922978 39.393863 -0.858305 1.773300 0.005916 -0.006179 -80205.600000 0 0 1
24.224571 -28.770194 -7.053178 38.266189 -0.870964 1.756175 0.006378 -0.006290 -637197.000000 0 0 1
23.167971 -27.981394 -7.824578 37.160964 -0.879227 1.782943 0.036411 -0.016338 -1095060.000000 0 0 1
22.373671 -28.740994 -8.663278 37.438994 -0.909329 1.804310 0.047830 -0.017923 -281780.000000 0 0 1
21.588371 -28.002894 -9.560478 36.628166 -0.914032 1.834869 0.061511 -0.021877 -213804.000000 0 0 1
20.340971 -28.696594 -10.145578 36.608501 -0.954170 1.851610 0.049378 -0.014236 -200494.000000 0 0 1
20.604971 -29.668794 -11.193678 37.816670 -0.963771 1.871297 0.050537 -0.018668 -509344.000000 0 0 1
19.506871 -30.280794 -11.798278 37.903085 -0.998510 1.887331 0.049812 -0.013557 -177691.000000 0 0 1
19.041571 -31.664194 -11.185778 38.604717 -1.029378 1.864764 0.046101 -0.019011 668893.000000 0 0 1
20.065971 -32.678394 -11.236578 39.959746 -1.020114 1.855838 0.043036 -0.018126 422692.000000 0 0 1
19.588571 -33.937194 -10.829278 40.653640 -1.047310 1.840431 0.054332 -0.016234 -472314.000000 0 0 1
20.709171 34.196349 -10.836578 41.420906 1.026272 1.835498 0.022719 -0.010511 -677969.000000 0 0 1
21.676671 34.385449 -9.855878 41.825536 1.008322 1.808676 0.000400 -0.009948 -640723.000000 0 0 1
22.801871 33.620949 -10.212278 41.887756 0.974849 1.817080 0.005301 -0.011128 324244.000000 0 0 1
24.183471 33.872049 -9.538178 42.698159 0.950759 1.796083 -0.000802 -0.010341 334870.000000 0 0 1
24.374271 33.589749 -8.133278 42.290975 0.943065 1.764319 -0.012654 -0.007561 61502.300000 0 0 1
24.893471 32.317049 -7.833878 41.538490 0.914436 1.760526 -0.017631 -0.003780 -247286.000000 0 0 1
25.077271 31.970249 -6.395178 41.132282 0.905644 1.726908 -0.019565 -0.003606 11344.500000 0 0 1
26.149571 32.570849 -5.677378 42.153207 0.894319 1.705891 -0.023223 -0.007853 627560.000000 0 0 1
27.097171 31.680449 -5.000078 41.987001 0.863217 1.690166 -0.012099 0.004745 590648.000000 0 0 1
26.651171 30.587349 -3.942978 40.760494 0.854058 1.667683 -0.015256 0.015462 -556793.000000 0 0 1
26.171071 31.160949 -2.729178 40.784533 0.872214 1.637763 -0.014543 0.020487 34422.500000 0 0 1
26.186271 30.243149 -1.679378 40.039845 0.857168 1.612751 -0.007245 0.022117 -568280.000000 0 0 1
24.979971 29.325049 -1.509878 38.551747 0.865241 1.609971 -0.007996 0.030415 -752356.000000 0 0 1
23.849271 29.984549 -1.024178 38.326360 0.898876 1.597522 -0.010702 0.030049 -528303.000000 0 0 1
22.694471 29.208649 -1.247778 37.010014 0.910252 1.604517 0.000051 0.029830 -739520.000000 0 0 1
21.419671 29.813649 -0.742078 36.717934 0.947794 1.591008 0.017881 0.021037 -770827.000000 0 0 1
21.177171 29.557449 0.634822 36.366445 0.949099 1.553339 0.029063 0.006424 -36910.700000 0 0 1
19.981771 30.191449 1.033722 36.219654 0.986146 1.542252 0.037265 0.002200 -270300.000000 0 0 1
19.326071 29.325749 2.156522 35.187315 0.988111 1.509471 0.040930 -0.011819 -137492.000000 0 0 1
18.855471 28.040849 1.752522 33.836213 0.978815 1.518979 0.047049 -0.008831 240963.000000 0 0 1
18.350771 27.272249 2.825122 32.992540 0.978509 1.485062 0.063482 -0.017693 -160448.000000 0 0 1
17.966571 25.792849 2.452722 31.529107 0.962375 1.492925 0.056233 -0.012252 292611.000000 0 0 1
18.955871 24.909049 1.924222 31.360618 0.920290 1.509400 0.054798 -0.004565 -13970.100000 0 0 1
19.931471 24.395649 2.777722 31.624784 0.885770 1.482849 0.048954 0.002463 -410337.000000 0 0 1
21.019471 23.596349 2.052722 31.667326 0.843091 1.505929 0.043952 0.010367 14649.900000 0 0 1
20.514071 22.387749 1.489722 30.401607 0.829044 1.521775 0.047948 0.000410 -192810.000000 0 0 1
21.639971 21.685849 1.086222 30.655249 0.786457 1.535355 0.025536 -0.000998 -364484.000000 0 0 1
21.503271 20.826249 -0.197678 29.935971 0.769405 1.577400 0.049987 -0.009097 -395669.000000 0 0 1
21.477871 21.612549 -1.360478 30.500035 0.788524 1.615417 0.028341 -0.002283 329352.000000 0 0 1
21.444171 20.756849 -2.489178 29.948209 0.769113 1.654008 0.060968 -0.012004 -145978.000000 0 0 1
21.181871 21.494149 -3.786078 30.413886 0.792715 1.695605 0.041449 -0.011879 -525048.000000 0 0 1
22.193971 22.360949 -4.217178 31.786302 0.789146 1.703861 0.020520 0.007017 14050.500000 0 0 1
21.885071 23.028949 -5.405578 32.225907 0.810861 1.739333 0.032635 -0.002200 -242922.000000 0 0 1
22.862871 24.219849 -5.599978 33.773832 0.814211 1.737374 0.023241 0.011416 28601.700000 0 0 1
22.743271 25.286449 -4.694878 34.332241 0.838299 1.707975 -0.000715 0.016122 -107128.000000 0 0 1
23.232971 25.148449 -3.411078 34.407134 0.824969 1.670098 0.009891 0.016868 -299823.000000 0 0 1
22.169471 24.863649 -2.303678 33.391517 0.842618 1.639841 0.007945 0.012598 -958844.000000 0 0 1
21.292771 25.920849 -2.003878 33.604881 0.883110 1.630462 0.018547 0.015592 1126700.000000 0 0 1
20.205771 25.626249 -1.093678 32.652319 0.903120 1.604297 0.046493 0.006705 1042020.000000 0 0 1
19.216871 24.495249 -1.519378 31.170721 0.905570 1.619559 0.067403 -0.012822 -1076100.000000 0 0 1
18.581071 24.674949 -2.742878 31.010203 0.925356 1.659363 0.055480 -0.006928 -205002.000000 0 0 1
17.667471 23.673849 -3.062878 29.698011 0.929676 1.674114 0.063367 -0.016842 -136929.000000 0 0 1
17.025571 23.991949 -4.430878 29.750905 0.953632 1.720285 0.060965 -0.025903 -92277.000000 0 0 1
16.193871 23.046949 -5.059578 28.618222 0.958296 1.748526 0.060565 -0.027790 33748.800000 0 0 1
15.761671 23.528649 -6.297578 29.011844 0.980564 1.789607 0.055501 -0.023319 51242.000000 0 0 1
14.985371 22.432649 -7.105678 27.897594 0.981860 1.828340 0.053394 -0.016524 -78051.100000 0 0 1
15.761671 21.255549 -7.311078 27.453242 0.932737 1.840359 0.049182 -0.017536 274323.000000 0 0 1
15.000171 20.269049 -7.906978 26.426498 0.933692 1.874657 0.044068 -0.008328 -183899.000000 0 0 1
15.875771 19.025749 -8.214878 26.105621 0.875408 1.890914 0.031148 0.002240 960323.000000 0 0 1
16.893271 19.279249 -9.232878 27.245515 0.851264 1.916519 0.039419 -0.003602 927613.000000 0 0 1
17.406371 18.099949 -9.807778 26.958902 0.804930 1.943146 0.027734 0.003972 733490.000000 0 0 1
18.827571 18.212249 -10.475378 28.211646 0.768787 1.951220 0.027821 0.005090 713627.000000 0 0 1
18.712571 18.866849 -11.718878 29.042218 0.789504 1.986148 0.029498 0.001830 -295792.000000 0 0 1
19.997871 19.036849 -12.227978 30.196687 0.760783 1.987714 0.032801 0.008720 -432554.000000 0 0 1
20.105471 19.639249 -13.614178 31.229408 0.773668 2.021880 0.036397 0.003351 -176672.000000 0 0 1
20.228771 18.645349 -14.598378 31.144259 0.744689 2.058654 0.036674 0.010155 293108.000000 0 0 1
20.653271 19.242449 -15.838678 32.368089 0.750050 2.082118 0.029881 0.001801 158155.000000 0 0 1
20.471371 18.272349 -16.993178 32.275747 0.728701 2.125275 0.032739 0.005301 -87982.200000 0 0 1
21.366071 17.176949 -16.944178 32.228275 0.677136 2.124399 0.044320 0.000816 57991.100000 0 0 1
21.503071 16.428149 -18.099178 32.555282 0.652395 2.160304 0.043415 -0.004254 -103526.000000 0 0 1
22.497071 16.981049 -19.156778 34.080146 0.646573 2.167731 0.032801 -0.004359 -589682.000000 0 0 1
23.824271 17.114449 -18.705178 34.790572 0.622943 2.138445 0.040028 -0.009462 189488.000000 0 0 1
24.628971 17.218649 -19.886978 36.035538 0.610136 2.155403 0.050024 -0.007508 -731225.000000 0 0 1
26.114271 17.335049 -19.604878 36.970398 0.586026 2.129734 0.045126 -0.014795 -776570.000000 0 0 1
26.351671 18.626249 -19.001078 37.448480 0.615298 2.102952 0.042260 -0.013194 559474.000000 0 0 1
27.691371 18.862449 -18.550878 38.298030 0.597974 2.076453 0.049407 -0.022273 514033.000000 0 0 1
27.906671 20.100749 -17.578478 38.624154 0.624211 2.043299 0.047571 -0.015542 78833.700000 0 0 1
27.299071 20.039649 -16.293578 37.580680 0.633233 2.019239 0.029046 -0.010386 516718.000000 0 0 1
25.951371 20.510849 -16.270778 36.863353 0.668833 2.027933 0.022457 -0.011000 508958.000000 0 0 1
25.054671 19.944149 -15.139178 35.421749 0.672313 2.012409 0.027036 -0.007896 -6440.190000 0 0 1
25.543571 20.320249 -13.833678 35.450771 0.671999 1.971669 0.020793 -0.005854 263424.000000 0 0 1
24.771271 19.897349 -12.709978 34.220811 0.676715 1.951324 0.027423 -0.005707 -31465.300000 0 0 1
25.368571 20.404349 -11.319278 34.467781 0.677367 1.905407 0.019811 -0.001186 -474255.000000 0 0 1
25.022671 21.751049 -11.019278 34.938041 0.715566 1.891669 0.028109 -0.005842 55849.500000 0 0 1
25.309571 22.178849 -9.701578 35.022797 0.719567 1.851475 0.018348 0.000686 54555.400000 0 0 1
24.405871 21.557349 -8.587978 33.676686 0.723503 1.828657 0.018036 0.001998 -731493.000000 0 0 1
24.768471 20.287049 -8.087778 33.022018 0.686260 1.818234 0.028403 -0.000620 56491.500000 0 0 1
24.037771 19.926549 -6.953278 31.987964 0.692157 1.789917 0.033921 -0.001041 -5802.060000 0 0 1
22.518771 19.650449 -7.039678 30.704922 0.717483 1.802123 0.031903 0.002257 -5887.440000 0 0 1
21.690771 20.708949 -7.447678 30.900130 0.762246 1.814217 0.027604 -0.001860 84376.500000 0 0 1
20.345071 20.354349 -7.720478 29.796429 0.785626 1.832894 0.031299 -0.009790 539927.000000 0 0 1
19.422571 21.643949 -7.765078 30.099721 0.839438 1.831726 0.043461 -0.011069 -269283.000000 0 0 1
19.718771 22.618849 -8.718878 31.248377 0.853790 1.853568 0.038008 -0.004958 39415.600000 0 0 1
19.184971 22.275149 -9.983678 31.047048 0.859794 1.898179 0.034600 -0.000841 359030.000000 0 0 1
17.651671 22.487249 -10.150278 30.336216 0.905291 1.911969 0.037583 -0.002061 -5439.190000 0 0 1
17.275671 23.881049 -9.958178 31.111390 0.944534 1.896612 0.034956 -0.004483 495608.000000 0 0 1
15.983371 24.191049 -10.474878 30.828527 0.986926 1.917478 0.023592 0.003064 333235.000000 0 0 1
15.500271 25.536049 -9.991478 31.498854 1.025249 1.893573 0.043853 -0.004289 -47013.800000 0 0 1
16.252971 26.642749 -10.508278 32.930518 1.023032 1.895581 0.038047 0.001451 410376.000000 0 0 1
16.212171 27.760449 -9.674678 33.571959 1.042223 1.863119 0.051270 -0.013480 -184860.000000 0 0 1
19.158471 29.190949 -34.411035 49.023238 0.989994 2.348904 0.016310 -0.010922 128854.000000 0 0 1
17.922971 29.681649 34.167775 48.679256 1.027558 0.792740 0.025293 -0.013425 -427921.000000 0 0 1
16.983171 28.642249 34.231055 47.755331 1.035583 0.771593 0.022109 -0.012402 422939.000000 0 0 1
15.522971 29.191149 34.067691 47.473080 1.082057 0.770416 0.028633 -0.015454 617443.000000 0 0 1
15.074371 29.492449 32.750415 46.579296 1.098287 0.791033 0.034026 -0.014746 -225706.000000 0 0 1
13.749871 29.983749 32.768105 46.495514 1.140832 0.788714 0.021471 -0.008060 -109758.000000 0 0 1
13.132371 29.888449 31.307795 45.232251 1.156809 0.806324 0.027961 -0.006776 -8118.430000 0 0 1
12.727871 28.582449 31.040005 44.073087 1.151855 0.789381 0.016475 -0.014025 -284206.000000 0 0 1
11.379171 28.319149 31.336285 43.742685 1.188723 0.772200 0.017943 -0.011051 -460906.000000 0 0 1
11.089371 26.781249 31.230925 42.609624 1.178218 0.748141 0.002521 -0.007535 -61992.000000 0 0 1
11.255371 26.172049 29.970145 41.350563 1.164653 0.760078 0.002127 -0.008060 171730.000000 0 0 1
12.578471 25.833549 29.599825 41.252149 1.117680 0.770541 0.004560 -0.006590 -126340.000000 0 0 1
12.625071 25.006049 28.319575 39.833318 1.103252 0.779945 0.017810 -0.010557 -242704.000000 0 0 1
12.264971 25.761749 27.171175 39.400126 1.126457 0.809830 0.011324 -0.007769 89356.100000 0 0 1
12.414971 25.099849 25.900075 38.143778 1.111459 0.824381 0.011536 -0.007047 -77476.500000 0 0 1
11.421671 23.955649 25.525325 36.822138 1.125893 0.804869 0.009595 -0.008192 -648345.000000 0 0 1
11.478371 23.455749 24.165275 35.579287 1.115695 0.824131 0.018195 -0.015095 449588.000000 0 0 1
10.481371 22.456949 23.883645 34.418050 1.134116 0.803866 0.011614 -0.013396 316002.000000 0 0 1
10.543371 21.981749 22.441345 33.135689 1.123567 0.826770 0.022240 -0.013534 -194207.000000 0 0 1
10.204271 22.949749 21.494045 33.057708 1.152413 0.862952 0.019437 -0.014518 -24161.700000 0 0 1
10.356571 22.523349 20.095445 31.912172 1.139810 0.889615 0.023461 -0.010060 -868025.000000 0 0 1
10.225071 23.746849 19.109945 32.150504 1.164203 0.934289 0.021208 -0.007658 760691.000000 0 0 1
8.888471 24.219849 18.863945 31.960200 1.219066 0.939450 0.029146 -0.007899 892898.000000 0 0 1
8.323271 24.890149 20.069345 33.038991 1.248086 0.917957 0.021347 -0.008302 332215.000000 0 0 1
7.002071 25.632049 19.675445 33.062880 1.304126 0.933417 0.019692 -0.006774 503317.000000 0 0 1
7.217171 26.629349 18.693945 33.326766 1.306131 0.975289 0.019433 -0.013743 891112.000000 0 0 1
5.902371 27.126849 18.365645 33.286646 1.356552 0.986345 0.020217 -0.017825 917981.000000 0 0 1
5.836571 28.263349 17.352845 33.674971 1.367152 1.029434 0.020671 -0.013748 40390.800000 0 0 1
6.255771 27.838049 16.077645 32.750302 1.349748 1.057656 0.022478 -0.012344 -68378.000000 0 0 1
6.796171 28.897949 15.289345 33.392266 1.339815 1.095198 0.016129 -0.004863 4097.810000 0 0 1
7.462071 28.277649 14.008645 32.427613 1.312792 1.124090 0.020887 -0.009093 59885.800000 0 0 1
6.613471 27.856449 12.955145 31.425396 1.337699 1.145873 0.021579 -0.014750 19931.000000 0 0 1
7.256571 26.916049 12.126645 30.400444 1.307457 1.160483 0.027148 -0.021132 519920.000000 0 0 1
6.356771 26.945049 10.847745 29.734118 1.339116 1.197352 0.016781 -0.022278 437423.000000 0 0 1
6.834971 27.721049 9.726745 30.162608 1.329056 1.242451 0.007654 -0.014716 149964.000000 0 0 1
6.808471 29.097049 9.951645 31.496488 1.340940 1.249328 -0.000574 -0.007878 -310187.000000 0 0 1
7.040871 29.876849 8.661645 31.893950 1.339356 1.295766 -0.013107 0.002075 -788016.000000 0 0 1
6.082071 29.737849 7.657245 31.304387 1.369056 1.323683 -0.001704 -0.005971 -403383.000000 0 0 1
6.036871 28.538249 7.003345 29.998705 1.362333 1.335167 0.002590 0.001472 -818964.000000 0 0 1
4.591071 28.263849 6.650545 29.396477 1.409767 1.342584 0.009904 -0.001238 -562802.000000 0 0 1
3.990971 29.240749 5.785545 30.073606 1.435148 1.377210 0.001804 -0.001959 -1150130.000000 0 0 1
2.652071 28.966849 5.625845 29.627048 1.479495 1.379747 0.030235 -0.009722 -1083100.000000 0 0 1
1.868471 29.996949 4.807545 30.437158 1.508588 1.412182 0.035814 -0.010839 -680749.000000 0 0 1
2.164471 30.081949 3.457245 30.357225 1.498968 1.456663 0.020983 -0.013604 448584.000000 0 0 1
1.255871 31.018049 2.839145 31.173022 1.530330 1.479593 0.018002 -0.017991 952752.000000 0 0 1
-0.160329 30.454049 2.503845 30.557226 -1.565532 1.488765 0.032488 -0.014447 -234855.000000 0 0 1
-0.193429 29.569349 1.387645 29.602523 -1.564255 1.523903 0.031965 -0.011179 -27529.200000 0 0 1
-1.360629 28.775249 1.488745 28.845842 -1.523547 1.519163 0.034580 -0.005525 -66594.600000 0 0 1
-1.862429 28.278349 0.154845 28.340036 -1.505031 1.565332 0.039402 -0.014855 -352841.000000 0 0 1
-2.406929 29.248549 -0.665955 29.354973 -1.488689 1.593485 0.039962 -0.018107 83768.200000 0 0 1
-1.713529 29.374949 -1.916155 29.487208 -1.512529 1.635825 0.036632 -0.014246 -113979.000000 0 0 1
-2.378729 30.507549 -2.775455 30.725755 -1.492982 1.661250 0.026551 -0.016071 960900.000000 0 0 1
-3.706129 30.264849 -3.258055 30.664497 -1.448946 1.677246 0.010041 -0.011255 566970.000000 0 0 1
-3.859729 29.175449 -4.152855 29.721214 -1.439266 1.710982 -0.002566 -0.008892 -45872.700000 0 0 1
-5.340829 29.072949 -4.655755 29.923851 -1.389118 1.727018 -0.000351 0.000344 621450.000000 0 0 1
-5.787329 30.225649 -5.368255 31.239417 -1.381615 1.743496 -0.000498 0.002232 -54964.600000 0 0 1
-6.732529 29.922649 -6.367255 31.324652 -1.349484 1.775489 -0.003939 0.005599 -148537.000000 0 0 1
-7.233129 31.110449 -7.240655 32.750653 -1.342356 1.793722 -0.005035 -0.000330 -12639.900000 0 0 1
-8.058629 31.970149 -6.485155 33.601922 -1.323873 1.765015 -0.016295 0.014702 -52779.400000 0 0 1
-8.097829 33.235249 -7.066455 34.929807 -1.331801 1.774507 -0.005791 0.002190 -182576.000000 0 0 1
-9.204029 34.108349 -6.457255 35.913643 -1.307227 1.751579 -0.007407 0.003440 631836.000000 0 0 1
-10.555729 33.659649 -6.569155 35.882436 -1.266908 1.754909 -0.001068 0.008327 416534.000000 0 0 1
-11.454329 -34.501394 -6.054555 36.853839 1.250250 1.735830 0.008411 0.009225 -73608.000000 0 0 1
-12.921029 34.254049 -6.271255 37.143257 -1.210088 1.740449 0.024716 0.009240 -225987.000000 0 0 1
-13.216329 34.300849 -7.684755 37.553629 -1.203021 1.776886 0.028666 0.002527 -497597.000000 0 0 1
-14.555629 33.952749 -7.861155 37.768416 -1.165794 1.780470 0.038051 0.001488 -1283620.000000 0 0 1
-15.102629 34.353849 -9.236455 38.646972 -1.156608 1.812128 0.046310 -0.004253 622088.000000 0 0 1
-16.465829 34.025149 -9.549755 38.987589 -1.120086 1.818258 0.050766 -0.007544 1475680.000000 0 0 1
-17.417229 -34.265094 -8.818155 39.436232 1.100524 1.796308 0.052199 0.003066 560593.000000 0 0 1
-18.928429 34.503849 -9.074555 40.387480 -1.069037 1.797418 0.047590 -0.000873 955347.000000 0 0 1
-19.473229 33.388549 -8.359055 39.545868 -1.042798 1.783779 0.037138 -0.005750 190380.000000 0 0 1
-19.754929 33.749149 -7.020055 39.730888 -1.041222 1.748419 0.043769 -0.010382 -732085.000000 0 0 1
-19.818929 32.420749 -6.201255 38.501305 -1.022107 1.732567 0.031378 -0.013466 -478673.000000 0 0 1
-19.833329 32.388349 -4.810255 38.281910 -1.021338 1.696783 0.037431 -0.010425 59317.200000 0 0 1
-21.082129 32.620549 -4.172855 39.063655 -0.997038 1.677822 0.039403 -0.018397 223882.000000 0 0 1
-21.603529 34.094649 -3.978755 40.558452 -1.006012 1.669054 0.034102 -0.012966 -133696.000000 0 0 1
-22.242729 34.540749 -5.156455 41.405209 -0.998682 1.695657 0.046831 -0.021039 111881.000000 0 0 1
-22.709829 -33.271194 -5.036855 40.596534 0.971866 1.695188 0.045141 -0.019330 -234085.000000 0 0 1
-23.397429 -32.676494 -6.266755 40.675117 0.949391 1.725481 0.048055 0.000286 -153350.000000 0 0 1
-22.575129 -32.065494 -7.260555 39.881675 0.957370 1.753870 0.058264 0.005584 -50829.800000 0 0 1
-22.733629 -32.536994 -8.590555 40.611224 0.960943 1.783938 0.044056 0.010549 444756.000000 0 0 1
-24.025329 -31.992794 -9.298955 41.075855 0.926681 1.799161 0.025871 0.012253 -214158.000000 0 0 1
-25.215689 -32.651494 -8.883655 42.200360 0.913196 1.782894 0.022893 0.016707 566132.000000 0 0 1
-26.293369 -32.243194 -9.756455 42.733514 0.886693 1.801137 0.011934 0.014269 657986.000000 0 0 1
-26.908169 -30.816994 -9.593555 42.021101 0.853009 1.801131 0.005015 0.023087 -753836.000000 0 0 1
-26.155079 -29.764094 -10.188055 40.911929 0.849849 1.822469 0.004499 0.018024 98544.400000 0 0 1
-26.467559 -29.645494 -11.612855 41.403447 0.841972 1.855091 -0.004653 0.017473 -414121.000000 0 0 1
-25.502749 -28.704794 -12.313755 40.323491 0.844400 1.881128 0.019455 0.016072 -84520.800000 0 0 1
-24.208129 -29.235494 -12.519555 39.968574 0.879191 1.889394 0.011597 0.011136 -236043.000000 0 0 1
-23.422929 -28.483694 -13.405455 39.238510 0.882588 1.919458 0.007326 0.007209 233356.000000 0 0 1
-22.052429 -29.195794 -13.646255 39.050279 0.923893 1.927784 0.017742 0.004374 109667.000000 0 0 1
-21.997529 -30.422494 -14.402355 40.210039 0.944756 1.937112 0.018388 0.003667 -248160.000000 0 0 1
-22.660729 -31.515994 -13.826355 41.206002 0.947417 1.912977 0.008222 0.001567 -255624.000000 0 0 1
-22.503829 -32.836994 -14.651855 42.418950 0.969991 1.923470 -0.001419 0.006008 -7835.900000 0 0 1
-23.148429 -33.941794 -14.044055 43.418091 0.972251 1.900181 -0.000657 0.001610 -8622.930000 0 0 1
-23.009429 33.966749 -14.812255 43.618537 -0.975393 1.917273 0.013011 -0.002457 -548653.000000 0 0 1
-23.460729 32.630149 -14.188655 42.619835 -0.947439 1.910186 0.000525 0.004618 -476599.000000 0 0 1
-22.658829 32.113849 -13.174255 41.452175 -0.956336 1.894224 0.002915 -0.000138 -297260.000000 0 0 1
-22.592129 32.860749 -11.926655 41.623049 -0.968501 1.861409 0.027265 0.005542 -112556.000000 0 0 1
-21.863529 32.245349 -10.713955 40.405015 -0.974963 1.839170 0.025588 0.001806 284109.000000 0 0 1
-22.671629 31.382149 -9.927055 39.967343 -0.945170 1.821803 0.031024 -0.002867 520263.000000 0 0 1
-21.931229 31.057749 -8.745455 39.013402 -0.955959 1.796883 0.027869 -0.004425 136178.000000 0 0 1
-22.616729 29.987049 -7.852455 38.371872 -0.924602 1.776893 0.025857 -0.005299 -78816.800000 0 0 1
-22.935729 28.811049 -8.494155 37.792524 -0.898454 1.797491 0.034514 -0.007352 -25213.900000 0 0 1
-23.426429 27.736749 -7.710555 37.115731 -0.869446 1.780064 0.034619 -0.006572 165533.000000 0 0 1
-22.420329 27.079349 -6.706355 35.790187 -0.879244 1.759290 0.031583 -0.005776 -102105.000000 0 0 1
-22.369129 27.723149 -5.440055 36.035332 -0.891877 1.722340 0.035367 -0.004963 -275683.000000 0 0 1
-21.358529 27.243849 -4.601955 34.922658 -0.905903 1.702956 0.026454 -0.005422 151227.000000 0 0 1
-20.092429 28.163549 -4.701055 34.914053 -0.951121 1.705853 0.024654 -0.004697 358872.000000 0 0 1
-19.389229 28.075049 -5.949455 34.634471 -0.966393 1.743431 0.029639 -0.003365 644487.000000 0 0 1
-18.209129 28.901849 -5.934455 34.671415 -1.008586 1.742806 0.032150 0.001603 972190.000000 0 0 1
-17.218229 28.511649 -7.117155 34.059293 -1.027513 1.781311 0.031085 0.008586 51724.700000 0 0 1
-17.548629 28.808149 -8.435255 34.770927 -1.023672 1.815836 0.025415 -0.001523 -106694.000000 0 0 1
-17.427529 30.207149 -8.652955 35.931383 -1.047510 1.814006 0.024837 -0.001185 -237247.000000 0 0 1
-17.509829 30.666049 -10.164655 36.746713 -1.051985 1.851065 0.030439 0.002806 762395.000000 0 0 1
-16.238729 30.546349 -10.844255 36.254291 -1.082182 1.874563 0.021459 -0.001025 783209.000000 0 0 1
-16.183129 31.350749 -11.999755 37.266034 -1.094276 1.898640 0.036584 -0.011418 69132.000000 0 0 1
-14.783229 31.436149 -12.666855 36.976000 -1.131221 1.920447 0.039903 -0.007414 312594.000000 0 0 1
-14.735729 32.344049 -13.752755 38.110596 -1.143301 1.939991 0.043095 -0.015129 -169912.000000 0 0 1
-15.219529 31.780349 -14.944955 38.275009 -1.124173 1.971930 0.041428 -0.012089 -152464.000000 0 0 1
-14.700429 32.521049 -16.222155 39.203056 -1.146257 1.997419 0.066364 -0.023362 -350738.000000 0 0 1
-13.326529 32.337449 -16.338155 38.603657 -1.179896 2.007802 0.058087 -0.019381 -780328.000000 0 0 1
-12.811029 32.829249 -17.576455 39.380374 -1.198739 2.033451 0.046791 -0.027055 1079860.000000 0 0 1
-11.258629 32.664349 -17.799755 38.865765 -1.238872 2.046518 0.051235 -0.025668 730954.000000 0 0 1
-10.882129 31.309849 -17.897955 37.670468 -1.236295 2.065896 0.041828 -0.022769 -1057080.000000 0 0 1
-9.557029 31.124349 -18.233355 37.316446 -1.272876 2.081297 0.036153 -0.015419 -684995.000000 0 0 1
-9.155329 31.299949 -19.722655 38.111547 -1.286232 2.114721 0.036168 -0.023468 -256392.000000 0 0 1
-9.763029 30.218449 -20.467555 37.780845 -1.258300 2.143307 0.040281 -0.023744 161376.000000 0 0 1
-9.447529 30.248849 -21.804655 38.466761 -1.268069 2.173466 0.025247 -0.024348 -1135160.000000 0 0 1
-10.635629 30.022149 -22.723955 39.125748 -1.230332 2.190499 0.026809 -0.028185 643597.000000 0 0 1
-11.677029 31.031349 -22.809755 40.244038 -1.210888 2.173396 0.034756 -0.028577 957404.000000 0 0 1
-12.497629 31.246849 -21.674255 40.029110 -1.190321 2.142972 0.032312 -0.025605 -723969.000000 0 0 1
-13.342729 32.507349 -21.847655 41.377243 -1.181312 2.127054 0.048798 -0.031033 107209.000000 0 0 1
-14.113129 32.541549 -23.037655 42.294992 -1.161583 2.146816 0.039577 -0.027721 363225.000000 0 0 1
-14.871029 33.731649 -23.286255 43.602997 -1.155567 2.134182 0.048139 -0.030832 558424.000000 0 0 1
-15.344529 33.852349 -24.759055 44.659231 -1.145220 2.158438 0.037741 -0.020789 676781.000000 0 0 1
-14.208229 33.993249 -25.622555 44.876833 -1.174893 2.178462 0.039002 -0.020597 614693.000000 0 0 1
-14.567329 33.980249 -27.011555 45.787428 -1.165796 2.201773 0.038795 -0.009707 173991.000000 0 0 1
-15.031129 -33.761894 -27.623355 46.139463 1.151933 2.212664 0.034916 -0.004595 733748.000000 0 0 1
-16.321029 -33.302794 -27.202455 45.993756 1.115116 2.203637 0.042172 -0.004676 482077.000000 0 0 1
-16.817529 -32.390994 -28.165555 46.101022 1.091904 2.228060 0.036985 0.000807 -60434.100000 0 0 1
-18.291529 -32.007094 -27.886755 46.224509 1.051609 2.218416 0.052085 -0.016475 -65623.300000 0 0 1
-19.130829 -33.098394 -28.190755 47.499589 1.046711 2.206190 0.049784 -0.017927 156732.000000 0 0 1
-20.476829 -32.753394 -27.816255 47.600729 1.012066 2.194895 0.057104 -0.021954 871772.000000 0 0 1
-21.559429 -33.772494 -28.188955 48.989872 1.002639 2.183894 0.039342 -0.012637 -157559.000000 0 0 1
-21.569829 34.125549 -27.510855 48.853432 -1.007127 2.168965 0.054845 -0.016816 -380333.000000 0 0 1
-22.850729 33.578849 -27.299655 48.938391 -0.973271 2.162574 0.038370 -0.009308 -50658.900000 0 0 1
-22.814829 32.060049 -26.967855 47.703547 -0.952309 2.171620 0.050995 -0.010295 -37038.600000 0 0 1
-22.199629 31.741249 -25.741955 46.507835 -0.960477 2.157354 0.067170 -0.019683 -210361.000000 0 0 1
-22.279029 30.355349 -25.491255 45.470941 -0.937653 2.165913 0.052802 -0.020686 -19934.400000 0 0 1
29.916791 10.148049 -26.808748 41.433154 0.327029 2.274487 0.017167 0.003131 62503.800000 0 0 1
29.888751 8.752949 -26.689478 41.015604 0.284885 2.279322 -0.001653 0.004479 -145544.000000 0 0 1
28.550241 8.333649 -26.736488 39.992571 0.284004 2.303035 0.004175 -0.000878 -235545.000000 0 0 1
28.311251 6.895449 -26.279138 39.238594 0.238907 2.304637 -0.009189 -0.000705 -83980.100000 0 0 1
28.590731 6.722549 -24.888978 38.497841 0.230935 2.273788 -0.010060 0.015389 -33890.900000 0 0 1
28.042401 5.602349 -24.305678 37.530368 0.197185 2.275262 -0.006366 0.016456 -383691.000000 0 0 1
28.130081 5.503149 -22.790378 36.619495 0.193192 2.242546 -0.007916 0.019695 266134.000000 0 0 1
29.396671 5.046349 -22.304778 37.244235 0.170007 2.212897 -0.011458 0.017519 768239.000000 0 0 1
29.287571 4.854349 -20.897178 36.304525 0.164254 2.184144 0.000693 0.011992 -432312.000000 0 0 1
30.627861 4.620149 -20.193778 36.975672 0.149719 2.148542 0.000862 0.009421 -123380.000000 0 0 1
31.203651 3.313449 -20.374278 37.413339 0.105791 2.146676 0.003160 0.013754 586892.000000 0 0 1
32.149281 2.970049 -19.374978 37.653515 0.092122 2.111290 0.016596 0.004074 193984.000000 0 0 1
32.715621 1.501749 -19.343978 38.036253 0.045871 2.104316 0.014123 0.007107 387772.000000 0 0 1
31.735021 0.565049 -18.877278 36.929425 0.017803 2.107344 0.024039 0.004716 517688.000000 0 0 1
32.136761 -0.764851 -19.039378 37.361134 -0.023795 2.105521 0.024868 0.007056 -387314.000000 0 0 1
31.056451 -1.666451 -18.417078 36.145110 -0.053607 2.105437 0.011189 0.006398 137308.000000 0 0 1
30.961611 -1.597151 -17.020678 35.367721 -0.051539 2.072875 0.011613 -0.000252 -166925.000000 0 0 1
29.651261 -1.352251 -16.579578 33.998651 -0.045574 2.080197 0.010854 -0.000482 -376985.000000 0 0 1
29.336951 -1.748751 -15.100878 33.041660 -0.059539 2.045444 0.023404 0.002803 -217611.000000 0 0 1
29.410941 -3.163751 -14.792178 33.072969 -0.107158 2.034495 0.018699 0.003369 537672.000000 0 0 1
28.354931 -3.449051 -13.897278 31.765270 -0.121044 2.023612 0.022655 -0.004531 -208849.000000 0 0 1
28.249481 -4.969051 -13.522678 31.710999 -0.174118 2.011344 0.027402 -0.003512 -556961.000000 0 0 1
27.528851 -5.740051 -14.396978 31.592068 -0.205565 2.043972 0.015988 -0.001000 79786.600000 0 0 1
27.382951 -7.014051 -13.813478 31.461645 -0.250755 2.025346 0.018768 -0.000323 -349661.000000 0 0 1
26.834281 -7.916451 -14.909378 31.702340 -0.286875 2.060419 0.003191 0.004802 -590936.000000 0 0 1
25.508431 -7.573651 -15.200678 30.644752 -0.288617 2.089816 0.008593 -0.001616 -280381.000000 0 0 1
25.030831 -8.468251 -16.197078 30.993533 -0.326225 2.120689 0.001215 -0.004248 1182710.000000 0 0 1
23.554931 -8.123651 -16.679278 29.983775 -0.332107 2.160695 -0.013284 -0.006875 1053750.000000 0 0 1
23.487131 -6.951151 -17.468178 30.084897 -0.287742 2.190298 -0.016576 -0.008338 1065920.000000 0 0 1
22.187331 -6.860051 -18.118578 29.455404 -0.299864 2.233333 0.004092 -0.010697 1173080.000000 0 0 1
22.038931 -7.534051 -19.528478 30.394701 -0.329398 2.268548 0.002687 -0.007579 -200854.000000 0 0 1
22.482931 -6.573851 -20.475778 31.111978 -0.284463 2.289131 0.009210 -0.008974 379831.000000 0 0 1
22.437931 -7.086551 -21.799478 32.076427 -0.305915 2.318028 0.016119 -0.013368 -95514.400000 0 0 1
22.670631 -5.990951 -22.865178 32.751570 -0.258355 2.343592 0.028033 -0.015268 -219135.000000 0 0 1
22.691931 -6.354251 -24.199178 33.777218 -0.273030 2.369475 0.040947 -0.017256 138569.000000 0 0 1
22.885331 -5.239951 -25.075658 34.350896 -0.225086 2.389097 0.042874 -0.013965 -316304.000000 0 0 1
22.771431 -5.617851 -26.555838 35.430366 -0.241876 2.418136 0.052206 -0.015663 -22687.600000 0 0 1
21.492031 -6.063051 -26.970708 35.015526 -0.274961 2.450029 0.057504 -0.016543 -326392.000000 0 0 1
21.393131 -6.389951 -28.359558 36.093795 -0.290256 2.474653 0.058284 -0.017532 198723.000000 0 0 1
19.996031 -6.857651 -28.830658 35.750181 -0.330381 2.508916 0.038054 -0.023189 174228.000000 0 0 1
19.890531 -8.205651 -28.472588 35.688292 -0.391270 2.494456 0.034924 -0.016410 585383.000000 0 0 1
18.942531 -8.893251 -29.327348 36.027805 -0.438940 2.521836 0.024018 -0.013797 396441.000000 0 0 1
18.906831 -10.418751 -29.223108 36.331923 -0.503655 2.505355 0.039720 -0.008675 156787.000000 0 0 1
18.078131 -10.939751 -28.149388 35.197798 -0.544188 2.497673 0.041450 -0.004442 583158.000000 0 0 1
18.333831 -12.264851 -27.636448 35.359994 -0.589598 2.467981 0.039271 -0.005262 -377397.000000 0 0 1
18.166131 -13.434851 -28.593838 36.443259 -0.636783 2.472867 0.033437 -0.002081 -226363.000000 0 0 1
16.957531 -13.502251 -29.308678 36.453631 -0.672444 2.504786 0.033746 0.002999 201322.000000 0 0 1
17.070231 -14.568851 -30.286048 37.694680 -0.706502 2.503875 0.021245 0.000525 -652000.000000 0 0 1
15.801031 -14.663851 -31.103748 37.843682 -0.748088 2.535536 0.019154 0.001620 -458500.000000 0 0 1
14.753131 -15.431351 -30.539588 37.261883 -0.807864 2.531497 0.007373 0.002858 -486184.000000 0 0 1
13.826231 -15.752251 -31.477208 37.816831 -0.850422 2.554148 0.001584 0.000946 -1672240.000000 0 0 1
12.652431 -16.468851 -30.879268 37.213388 -0.915708 2.549526 0.006648 -0.004742 -837413.000000 0 0 1
12.958231 -17.798751 -30.636708 37.726902 -0.941497 2.518479 0.004466 -0.002115 411995.000000 0 0 1
11.991431 -18.359551 -29.747378 36.956380 -0.992214 2.506357 0.008962 0.001930 56424.300000 0 0 1
12.555031 -19.560051 -29.030698 37.188786 -1.000157 2.466470 0.004673 0.007775 -57705.100000 0 0 1
13.432131 -19.269951 -27.944568 36.505507 -0.962053 2.442597 0.009758 0.010428 106183.000000 0 0 1
13.654131 -20.435351 -27.103878 36.587690 -0.981759 2.405045 0.002010 0.011360 364602.000000 0 0 1
14.479931 -20.143251 -25.806258 35.796395 -0.947533 2.375922 0.003316 0.015439 997549.000000 0 0 1
15.901631 -20.135151 -25.960898 36.500060 -0.902340 2.362080 0.011044 0.007183 976599.000000 0 0 1
16.622331 -20.121451 -24.699478 35.933813 -0.880342 2.328645 0.017327 0.002543 305676.000000 0 0 1
18.131431 -20.412851 -24.909678 36.958427 -0.844519 2.310395 -0.000274 0.008404 144874.000000 0 0 1
18.610431 -21.693451 -25.334588 38.194179 -0.861744 2.296030 -0.003758 0.007477 310601.000000 0 0 1
18.225231 -22.695151 -24.460378 38.020245 -0.894201 2.269664 -0.001567 0.001948 -752345.000000 0 0 1
18.609731 -24.188051 -24.766078 39.303212 -0.915009 2.252515 0.003251 -0.000528 -1395460.000000 0 0 1
19.971831 -24.364751 -24.620078 39.983288 -0.884157 2.234145 -0.001764 -0.000790 -980603.000000 0 0 1
20.313831 -25.665911 -24.206978 40.710791 -0.901278 2.207575 0.002709 -0.007558 -145560.000000 0 0 1
20.320631 -25.918021 -22.654578 39.973763 -0.905866 2.173335 0.020705 -0.002685 -57504.500000 0 0 1
19.056031 -26.056421 -22.016978 39.074502 -0.939347 2.169366 0.022487 -0.003010 414166.000000 0 0 1
19.252031 -26.390241 -20.663478 38.653135 -0.940536 2.134816 0.025115 0.000566 -518607.000000 0 0 1
17.955931 -26.811721 -19.995478 37.961862 -0.980694 2.125540 0.026474 -0.002374 -725472.000000 0 0 1
17.643031 -28.157981 -20.368978 38.974911 -1.011067 2.120715 0.016512 0.002917 356973.000000 0 0 1
16.634531 -28.705361 -19.511078 38.488797 -1.045593 2.102414 0.006774 0.010137 101969.000000 0 0 1
15.176831 -28.535761 -19.940378 37.976895 -1.081992 2.123589 0.007589 0.003974 -597569.000000 0 0 1
14.506331 -27.586911 -19.161078 36.587132 -1.086690 2.121997 0.016911 0.002343 587356.000000 0 0 1
13.187231 -27.288871 -19.672178 36.132812 -1.120642 2.146519 0.012276 0.004451 1219470.000000 0 0 1
12.290531 -26.377511 -18.795478 34.642463 -1.134760 2.144273 0.015359 -0.004733 -183173.000000 0 0 1
11.722331 -26.951501 -17.633378 34.274370 -1.160535 2.111194 0.015735 -0.000243 -61075.600000 0 0 1
10.858231 -26.085221 -16.937778 32.942803 -1.176352 2.110821 0.019667 -0.008617 1139290.000000 0 0 1
9.325631 -26.056531 -17.352578 32.665305 -1.227101 2.130840 0.019241 -0.001066 852291.000000 0 0 1
8.701131 -27.308581 -16.957478 33.302017 -1.262343 2.105055 0.024600 0.005406 -107360.000000 0 0 1
7.306031 -27.103401 -17.033978 32.834872 -1.307493 2.116216 0.012298 0.017736 108714.000000 0 0 1
6.617931 -27.924991 -18.122278 33.941407 -1.338100 2.134036 0.013753 0.015807 -151452.000000 0 0 1
6.848431 -27.257111 -19.375478 34.135909 -1.324639 2.174382 0.015266 0.009705 -69841.600000 0 0 1
6.121031 -27.937461 -20.356578 35.104971 -1.355107 2.189374 0.022029 0.014199 -122179.000000 0 0 1
6.167031 -27.334411 -21.779278 35.489988 -1.348897 2.231502 0.015728 0.009375 -329812.000000 0 0 1
5.425531 -26.134211 -21.893878 34.522098 -1.366101 2.257768 0.026596 0.002937 203622.000000 0 0 1
5.672631 -25.517631 -23.138778 34.910332 -1.352051 2.295356 0.026444 -0.001541 -143610.000000 0 0 1
4.429631 -24.668851 -23.553378 34.393829 -1.393126 2.325145 0.019733 0.011971 866982.000000 0 0 1
3.363331 -25.616151 -23.730878 35.080675 -1.440246 2.313750 0.007029 0.020995 869191.000000 0 0 1
2.143331 -25.129061 -24.317678 35.034455 -1.485709 2.337976 0.016761 0.016536 1354340.000000 0 0 1
1.156931 -26.255641 -24.746578 36.098342 -1.526761 2.326131 0.005131 0.011961 519192.000000 0 0 1
1.709131 -26.958691 -25.854488 37.391800 -1.507483 2.334288 0.001095 0.013389 974921.000000 0 0 1
0.745231 -27.937331 -26.323068 38.392105 -1.544128 2.326275 0.002750 0.006235 537157.000000 0 0 1
1.310231 -28.804481 -27.444118 39.806965 -1.525341 2.331498 -0.006595 0.011123 -807108.000000 0 0 1
1.696731 -28.062371 -28.580888 40.090432 -1.510407 2.364436 -0.001053 0.010031 115380.000000 0 0 1
2.047731 -28.934011 -29.643938 41.474489 -1.500142 2.367065 0.005606 0.002720 443050.000000 0 0 1
3.508431 -29.498751 -29.661008 41.979290 -1.452418 2.355426 0.012537 0.011384 -57115.100000 0 0 1
3.837131 -30.341531 -28.588728 41.864632 -1.444999 2.322501 -0.004282 0.008221 -308897.000000 0 0 1
5.000531 -31.019981 -29.002128 42.759420 -1.410968 2.316192 0.015868 0.007027 -50455.400000 0 0 1
5.411831 -32.168191 -28.058588 43.027489 -1.404122 2.281159 0.037770 0.000931 -216813.000000 0 0 1
4.416631 -33.148751 -27.920498 43.564900 -1.438340 2.266459 0.011472 -0.001989 66469.000000 0 0 1
4.899031 -34.290506 -27.211608 44.048960 -1.428888 2.236685 0.041699 -0.014944 -102679.000000 0 0 1
3.760431 33.888432 -26.832958 43.388643 1.460283 2.237543 0.051634 -0.013160 -89787.300000 0 0 1
3.157831 33.245352 -27.953268 43.550092 1.476095 2.267724 0.025606 -0.010703 -473069.000000 0 0 1
1.860631 32.889441 -27.617138 42.987017 1.514284 2.268491 -0.011743 -0.008519 -674907.000000 0 0 1
0.839031 33.101361 -28.757998 43.856887 1.545454 2.285937 -0.027042 0.003956 -210056.000000 0 0 1
0.817031 32.090371 -29.726118 43.750446 1.545342 2.317805 -0.007573 0.001303 248296.000000 0 0 1
-0.179369 32.368041 -30.695198 44.608491 -1.565255 2.329667 -0.013499 0.006555 186910.000000 0 0 1
-0.232069 31.234121 -31.793448 44.569581 -1.563366 2.365055 -0.013561 0.006181 -578493.000000 0 0 1
0.952431 31.079871 -32.505368 44.982935 1.540161 2.378375 -0.008361 0.005028 -464949.000000 0 0 1
0.941431 29.988661 -33.398288 44.896010 1.539414 2.409689 -0.011766 0.009358 909016.000000 0 0 1
2.278531 29.748331 -34.235359 45.411614 1.494352 2.424759 -0.003206 0.008319 962193.000000 0 0 1
2.383531 30.745111 33.766814 45.728993 1.493426 0.740085 -0.007530 0.009877 5774.230000 0 0 1
3.140931 30.364331 32.624315 44.678899 1.467721 0.752189 -0.004892 0.008314 29346.300000 0 0 1
2.392631 29.419831 31.589215 43.233432 1.489648 0.751499 -0.010097 0.009219 83212.700000 0 0 1
2.249431 28.039061 31.917815 42.544045 1.490743 0.722387 -0.000112 0.002226 -32152.400000 0 0 1
3.491431 27.328591 31.886155 42.139872 1.443727 0.712585 -0.001455 0.001139 145948.000000 0 0 1
3.406931 25.781381 32.029055 41.257086 1.439411 0.681976 0.025647 -0.006553 -189118.000000 0 0 1
2.635731 25.150301 31.021775 40.022934 1.466378 0.683923 0.022887 0.001406 183886.000000 0 0 1
2.808331 23.744191 31.016605 39.162522 1.453069 0.656723 0.021577 0.001613 -626343.000000 0 0 1
1.874231 22.972691 30.064875 37.883426 1.489391 0.654068 0.012896 0.011804 108760.000000 0 0 1
0.594031 22.663291 30.587285 38.073083 1.544591 0.637841 0.006366 0.010064 -274870.000000 0 0 1
-0.160669 22.087791 29.572455 36.911061 -1.563522 0.641530 0.008265 0.014422 759091.000000 0 0 1
-1.615569 21.627691 29.943325 36.972555 -1.496236 0.626849 0.007778 0.012142 1117880.000000 0 0 1
-2.563769 22.635391 30.323955 37.927247 -1.458013 0.644285 0.021177 0.002352 1266780.000000 0 0 1
-3.874769 22.040991 30.429665 37.772790 -1.396776 0.634113 0.012493 -0.001114 780932.000000 0 0 1
-5.008269 22.986491 30.855705 38.801238 -1.356270 0.651418 -0.010014 -0.012052 -364383.000000 0 0 1
-4.930469 23.491491 32.213545 40.173028 -1.363916 0.640378 -0.006335 -0.013201 122353.000000 0 0 1
-4.690469 24.910921 32.178375 40.963426 -1.384686 0.667229 -0.005627 -0.016753 1262.050000 0 0 1
-4.670369 25.491591 33.589216 42.424863 -1.389594 0.657154 0.007413 -0.013348 -524844.000000 0 0 1
-5.933269 25.425161 34.180862 43.011322 -1.341537 0.652292 0.003441 -0.009727 -305743.000000 0 0 1
-5.897069 25.983481 -33.570938 42.859358 -1.347622 2.470723 0.015723 -0.011081 362894.000000 0 0 1
-7.343669 26.288561 -33.069158 42.878749 -1.298392 2.451559 0.012176 -0.002243 77766.900000 0 0 1
-7.780769 27.530931 -33.561998 44.101023 -1.295361 2.435689 0.019538 0.000821 -501953.000000 0 0 1
-9.022669 27.896101 -33.032498 44.167261 -1.257978 2.415682 0.022215 0.007261 -280072.000000 0 0 1
-9.143369 28.318161 -31.541518 43.363427 -1.258483 2.385287 0.027415 0.004499 -189483.000000 0 0 1
-8.450769 29.540751 -31.214698 43.799873 -1.292166 2.364088 0.033480 0.004532 443608.000000 0 0 1
-8.829369 29.945991 -29.891838 43.223167 -1.284077 2.334456 0.030203 0.002559 -132089.000000 0 0 1
-8.481569 31.368841 -29.519958 43.901813 -1.306729 2.308254 0.022452 -0.001000 -1608980.000000 0 0 1
-7.134569 31.564411 -29.469728 43.768471 -1.348500 2.309472 0.008687 -0.002593 -1672550.000000 0 0 1
-6.752269 32.840021 -29.070758 44.375321 -1.368011 2.285126 0.011829 -0.001551 -9885.370000 0 0 1
-5.226969 33.001991 -28.880318 44.164753 -1.413718 2.283554 -0.003868 -0.000164 -83483.200000 0 0 1
-4.703069 34.226125 -28.363488 44.699373 -1.434240 2.258208 -0.007476 -0.007558 -64813.800000 0 0 1
-4.549069 -33.842071 -29.322538 45.008788 1.437177 2.280336 -0.005039 -0.011655 1272660.000000 0 0 1
-3.246269 -33.916421 -30.283258 45.584401 1.475373 2.297398 -0.003118 -0.002797 1041180.000000 0 0 1
-3.290869 34.171392 -31.287388 46.447976 -1.474788 2.309866 -0.003725 -0.003434 114166.000000 0 0 1
-4.024569 34.506542 -32.471958 47.553409 -1.454689 2.322456 0.006499 -0.002071 63625.900000 0 0 1
-3.304069 -33.727061 -33.484248 47.640596 1.473143 2.350194 0.008293 0.003382 -234372.000000 0 0 1
-3.200669 -32.297431 -33.310528 46.507630 1.472019 2.369193 0.002742 0.000383 127470.000000 0 0 1
-2.380269 -31.747951 -34.329982 46.820356 1.495962 2.393853 0.001929 -0.002907 234368.000000 0 0 1
31.936281 19.723649 12.558745 39.581188 0.553256 1.247925 0.024895 -0.008727 241636.000000 0 0 1
32.570721 18.798649 13.414745 39.927389 0.523459 1.228152 0.027490 -0.014185 292487.000000 0 0 1
31.913241 17.625949 13.104345 38.740842 0.504614 1.225733 0.035761 -0.007749 349692.000000 0 0 1
32.747061 16.357449 13.621145 39.057287 0.463255 1.214562 0.045750 -0.016017 738711.000000 0 0 1
33.923541 16.109849 12.859645 39.695142 0.443356 1.240884 0.030210 -0.004211 133560.000000 0 0 1
34.767468 15.242649 13.556845 40.310088 0.413180 1.227796 0.020323 0.000567 -461633.000000 0 0 1
-34.848787 14.587749 12.599645 39.824508 -0.396438 1.248886 0.016171 -0.004104 -553339.000000 0 0 1
-33.886119 13.862649 13.262145 38.940038 -0.388322 1.223264 0.028926 0.001363 -715202.000000 0 0 1
-34.206994 12.513849 13.533445 38.857033 -0.350705 1.215052 0.027883 -0.000316 172537.000000 0 0 1
-33.390859 11.988149 14.782545 38.434214 -0.344692 1.176001 0.018491 -0.004127 588635.000000 0 0 1
-33.811069 12.585649 16.005445 39.468484 -0.356344 1.153244 0.029299 -0.007219 86179.000000 0 0 1
-33.032889 11.982049 17.000745 39.035453 -0.347971 1.120180 0.019957 -0.003357 -22286.300000 0 0 1
-33.103399 12.838449 18.309045 39.948491 -0.369970 1.094696 0.025039 -0.002775 495367.000000 0 0 1
-34.382639 12.857649 18.955645 41.313454 -0.357856 1.094124 0.024357 -0.005974 423897.000000 0 0 1
-34.321126 13.494449 20.207745 42.052263 -0.374615 1.069527 0.038052 -0.013531 -739805.000000 0 0 1
35.043322 13.603349 21.019345 43.068531 0.370281 1.060949 0.039342 -0.015938 -612153.000000 0 0 1
34.724349 12.345949 21.604745 42.719642 0.341603 1.040565 0.037079 -0.009876 -305882.000000 0 0 1
33.636561 12.474449 22.475645 42.334202 0.355136 1.011122 0.048785 -0.022085 49141.400000 0 0 1
33.272941 11.207549 23.332745 42.155838 0.324900 0.984250 0.051480 -0.021027 88822.300000 0 0 1
34.393281 10.966649 24.180065 43.449289 0.308669 0.980614 0.045585 -0.015494 178398.000000 0 0 1
34.209151 11.462649 25.514445 44.188745 0.323318 0.955260 0.041270 -0.014709 -1994060.000000 0 0 1
-35.211857 11.509149 26.402975 45.491235 -0.315908 0.951580 0.038228 -0.019483 -151243.000000 0 0 1
-34.272388 12.525249 26.021225 44.817213 -0.350382 0.951321 0.034813 -0.024448 319584.000000 0 0 1
-33.536429 12.331449 24.824995 43.509046 -0.352358 0.963596 0.030979 -0.021815 -563928.000000 0 0 1
-32.489799 13.475649 24.533705 42.884529 -0.393170 0.961748 0.028089 -0.019826 1346530.000000 0 0 1
-31.451749 13.741549 25.503495 42.760624 -0.411914 0.931757 0.032048 -0.023672 613737.000000 0 0 1
-31.965159 14.538849 26.554365 44.025945 -0.426867 0.923349 0.023237 -0.025910 -839125.000000 0 0 1
-30.987799 15.077049 27.591465 44.145781 -0.452828 0.895655 0.022569 -0.021174 -760304.000000 0 0 1
-30.368759 16.238249 27.142575 43.848165 -0.491023 0.903311 0.034402 -0.022009 -589820.000000 0 0 1
-29.776189 16.896349 28.238765 44.379453 -0.516138 0.881100 0.038004 -0.020159 -186579.000000 0 0 1
-29.093849 18.234849 27.866065 44.220802 -0.559864 0.889040 0.041636 -0.009528 -217925.000000 0 0 1
-29.945799 19.209849 27.328065 44.861925 -0.570368 0.915796 0.031157 -0.015354 -55016.400000 0 0 1
-29.276189 20.450249 27.240585 44.915002 -0.609738 0.919155 0.030817 -0.014127 11891.700000 0 0 1
-29.930799 21.270149 26.095015 45.046884 -0.617834 0.952944 0.032506 -0.004296 610842.000000 0 0 1
-31.350259 21.340649 26.297295 46.149862 -0.597667 0.964505 0.027636 -0.008751 1230160.000000 0 0 1
-32.036629 22.234749 25.381525 46.529039 -0.606716 0.993812 0.027014 -0.000203 234627.000000 0 0 1
-32.292899 23.666749 25.878355 47.672168 -0.632453 0.996981 0.025404 0.000501 -494650.000000 0 0 1
-33.133649 24.328149 24.984445 48.103222 -0.633340 1.024657 0.029987 -0.002368 26699.100000 0 0 1
-32.849869 25.711849 24.856045 48.559613 -0.664108 1.033440 0.028288 0.006112 -274434.000000 0 0 1
-33.902909 26.362649 23.993145 49.194182 -0.660928 1.061316 0.028794 0.010426 -378328.000000 0 0 1
-33.629539 26.169349 22.643545 48.254646 -0.661285 1.082354 0.032275 0.002381 -501088.000000 0 0 1
-34.616593 26.610749 21.790045 48.798018 -0.655380 1.107907 0.035174 0.003380 -544134.000000 0 0 1
-34.186523 26.508949 20.316945 47.793524 -0.659573 1.131726 0.045423 -0.014544 113901.000000 0 0 1
-34.251802 25.201649 19.811345 46.912668 -0.634335 1.134812 0.044791 -0.013398 306845.000000 0 0 1
-33.626349 25.178849 18.510045 45.905637 -0.642722 1.155764 0.058595 -0.018146 191756.000000 0 0 1
-34.065999 23.891549 17.743345 45.234110 -0.611619 1.167714 0.046653 -0.018912 -404671.000000 0 0 1
35.264233 23.890749 17.280945 45.966999 0.595450 1.185383 0.041362 -0.031464 -873353.000000 0 0 1
35.226529 23.206149 16.054145 45.135011 0.582515 1.207142 0.034270 -0.028246 709378.000000 0 0 1
33.754711 23.097849 15.517945 43.745831 0.600101 1.208171 0.042873 -0.022501 702701.000000 0 0 1
32.979821 22.189749 16.228945 42.935209 0.592256 1.183175 0.033472 -0.027645 123119.000000 0 0 1
31.737891 21.934249 15.577145 41.605918 0.604732 1.187050 0.041656 -0.024878 -416637.000000 0 0 1
30.706451 21.015849 16.271045 40.611561 0.600187 1.158570 0.014756 -0.023876 427960.000000 0 0 1
29.912851 21.535149 17.336145 40.731845 0.623977 1.131153 0.005769 -0.015691 -261430.000000 0 0 1
28.982711 22.445049 16.857645 40.347961 0.658953 1.139767 0.005912 -0.010037 -871332.000000 0 0 1
28.165741 23.186149 18.002845 40.681800 0.688730 1.112380 0.001447 -0.013673 740113.000000 0 0 1
29.054941 23.944049 18.798045 42.081748 0.689262 1.107719 -0.011365 -0.008792 292199.000000 0 0 1
28.303661 24.547049 19.816845 42.383513 0.714438 1.084268 -0.015190 -0.002414 -140900.000000 0 0 1
29.313181 24.999649 20.864245 43.812803 0.706144 1.074453 -0.013348 0.001417 393616.000000 0 0 1
30.013431 26.194549 20.549545 44.824594 0.717560 1.094553 -0.004276 0.004380 9023.790000 0 0 1
30.974101 26.629749 21.480645 46.151452 0.710123 1.086667 -0.003599 0.004059 248116.000000 0 0 1
31.952251 27.732149 20.847545 47.166074 0.714809 1.112966 0.010215 0.004650 -112465.000000 0 0 1
32.897051 28.254149 21.699045 48.490838 0.709619 1.106842 0.010261 0.010213 -239089.000000 0 0 1
32.367921 28.981849 22.828845 49.079385 0.730261 1.087002 -0.000871 0.016873 -1088820.000000 0 0 1
33.362711 29.162449 23.914345 50.352902 0.718322 1.075906 -0.011711 0.013086 -1127010.000000 0 0 1
34.279631 30.164949 23.737845 51.463604 0.721636 1.091387 0.021836 0.005616 -740638.000000 0 0 1
34.931398 30.386049 24.974625 52.604623 0.715922 1.076104 0.028692 0.009398 85250.600000 0 0 1
-34.387218 31.183049 24.959075 52.705016 -0.736571 1.077466 0.031278 0.003823 -46810.200000 0 0 1
-33.201809 30.572949 24.531305 51.369741 -0.744200 1.072939 0.027582 0.004682 -1003130.000000 0 0 1
-32.245439 31.545749 24.423375 51.297211 -0.774430 1.074565 0.030607 0.001444 -1324500.000000 0 0 1
-30.859259 31.046549 24.072435 49.956623 -0.788424 1.068012 0.035340 0.004871 -1108700.000000 0 0 1
-30.542329 30.625949 22.783645 48.886369 -0.786765 1.085972 0.022895 0.004890 97716.600000 0 0 1
-31.133609 29.428949 22.249545 48.274288 -0.757258 1.091789 0.032724 0.002800 -198755.000000 0 0 1
-30.553479 28.147349 22.866645 47.420162 -0.744431 1.067617 0.026476 0.006991 765720.000000 0 0 1
-29.141279 27.978849 22.586845 46.283860 -0.765050 1.060991 0.005229 0.003282 1201820.000000 0 0 1
-28.592129 26.850049 23.267645 45.605025 -0.753987 1.035380 0.009229 0.001864 8059.480000 0 0 1
-28.186259 26.997049 24.773105 46.227833 -0.763851 1.005233 0.014849 0.010167 516332.000000 0 0 1
-29.325959 27.214949 25.636905 47.517536 -0.748080 1.000923 0.017942 0.009430 741364.000000 0 0 1
-28.887179 27.750849 26.852155 48.224651 -0.765338 0.980251 0.032591 -0.003178 267752.000000 0 0 1
-30.075029 28.150349 27.815685 49.705752 -0.752355 0.976885 0.033287 -0.003290 777993.000000 0 0 1
-30.774049 26.968349 28.251195 49.723877 -0.719585 0.966526 0.018899 0.001875 -70397.500000 0 0 1
-31.762199 27.358549 29.168205 51.069674 -0.711050 0.962896 0.016819 0.006761 -41204.700000 0 0 1
-32.633959 26.224749 29.772395 51.372252 -0.676934 0.952629 0.008437 0.001230 657233.000000 0 0 1
-31.917389 25.439149 30.769405 51.113856 -0.672928 0.924821 0.012405 -0.000157 872046.000000 0 0 1
-32.583139 24.137449 30.875865 50.966621 -0.637584 0.920018 0.003710 -0.013302 487456.000000 0 0 1
-31.947979 23.293349 32.046245 50.894157 -0.629992 0.889675 0.026301 -0.019418 -216411.000000 0 0 1
-30.701159 22.714949 31.750095 49.664863 -0.636988 0.877226 0.026774 -0.011908 -243803.000000 0 0 1
-30.315549 21.770049 32.716465 49.631992 -0.622780 0.851067 0.040072 -0.013590 -121092.000000 0 0 1
-29.299049 22.236449 33.774631 49.936155 -0.649203 0.827992 0.032866 -0.018971 -455816.000000 0 0 1
-29.870159 23.062449 -34.302620 50.997771 -0.657489 2.308553 0.055657 -0.023190 70151.100000 0 0 1
-29.623199 22.653049 -32.977308 49.781496 -0.652847 2.294869 0.043583 -0.015482 -434623.000000 0 0 1
-28.407689 23.303849 -32.296008 48.919304 -0.687019 2.291867 0.064248 -0.016321 -401620.000000 0 0 1
-28.418449 24.693249 -32.050048 49.442597 -0.715374 2.276051 0.049832 -0.017991 -456624.000000 0 0 1
-27.369229 24.973049 -31.182748 48.426146 -0.739651 2.270412 0.069073 -0.008512 -637930.000000 0 0 1
-27.522879 26.295849 -30.369528 48.695880 -0.762603 2.244209 0.045003 -0.003643 -205067.000000 0 0 1
-27.445129 27.475149 -31.148648 49.783101 -0.785945 2.246808 0.052596 -0.008002 -301984.000000 0 0 1
-28.627579 27.805449 -31.819698 51.040910 -0.770831 2.243900 0.037118 -0.013702 -500102.000000 0 0 1
-28.512229 29.114249 -32.551908 52.155665 -0.795845 2.244814 0.050454 -0.009984 76208.400000 0 0 1
-28.671649 30.197349 -31.676068 52.319371 -0.811309 2.221111 0.033654 -0.022396 150577.000000 0 0 1
-27.915169 31.303949 -32.118168 52.827745 -0.842560 2.224309 0.042894 -0.038190 -542048.000000 0 0 1
-28.236969 32.599249 -31.383428 53.338138 -0.856981 2.199858 0.029443 -0.020807 -177464.000000 0 0 1
-27.853839 32.484849 -30.003208 52.261786 -0.861998 2.182294 0.035036 -0.019587 231986.000000 0 0 1
-28.242059 33.615549 -29.208678 52.732968 -0.872049 2.157835 0.021663 -0.015305 -683325.000000 0 0 1
-27.428309 33.740849 -27.907168 51.667853 -0.888232 2.141384 0.009531 -0.011112 -128528.000000 0 0 1
-26.071989 34.122549 -27.958128 51.242110 -0.918352 2.147911 0.023508 -0.008705 27507.100000 0 0 1
-25.849679 -33.654094 -28.336188 51.026890 0.915812 2.159543 0.024208 0.006737 -720108.000000 0 0 1
-26.055149 -32.583594 -27.226178 49.817930 0.896275 2.148992 0.024516 0.013628 772697.000000 0 0 1
-27.438569 -32.256794 -26.992528 50.219243 0.865937 2.138259 0.000928 0.008521 649240.000000 0 0 1
-27.604419 -31.416694 -25.893948 49.188506 0.849900 2.125184 -0.001171 0.014580 -1546360.000000 0 0 1
-29.035959 -31.111094 -25.657368 49.691927 0.819886 2.113355 -0.031842 0.018657 -1459440.000000 0 0 1
-29.555219 -30.214594 -26.610238 49.945344 0.796430 2.132687 -0.010880 0.016507 1031360.000000 0 0 1
-30.994949 -30.281294 -26.598628 50.844180 0.773752 2.121328 -0.009636 0.014525 1008360.000000 0 0 1
-31.735289 -29.315794 -27.569818 51.250748 0.745788 2.138788 0.006997 0.007651 -568557.000000 0 0 1
-33.123299 -29.280594 -27.433078 52.029606 0.723898 2.126168 0.013788 -0.000671 -744232.000000 0 0 1
-33.521969 -28.305494 -28.401388 52.264349 0.701226 2.145300 0.022934 -0.004031 -766241.000000 0 0 1
-35.018052 -28.393094 -28.606838 53.392723 0.681300 2.136229 0.014394 -0.013039 -838156.000000 0 0 1
34.817720 -27.876994 -27.571858 52.436702 -0.675140 2.124466 0.018922 -0.015184 -604543.000000 0 0 1
33.486331 -27.897894 -28.007168 51.807608 -0.694608 2.141946 0.020979 -0.016729 -514749.000000 0 0 1
32.525551 -27.279594 -26.995448 50.307473 -0.697905 2.137210 0.020053 -0.013066 -450473.000000 0 0 1
32.398381 -28.063494 -25.816388 50.036993 -0.713824 2.112908 0.003730 -0.004883 -516668.000000 0 0 1
31.271191 -27.624494 -25.152248 48.719971 -0.723559 2.113276 0.012331 0.001299 -517699.000000 0 0 1
31.104861 -28.200794 -23.735578 48.230434 -0.736469 2.085330 -0.004421 0.001878 -140652.000000 0 0 1
30.537231 -29.492994 -23.782678 48.661842 -0.768005 2.081434 0.009288 0.003753 -85271.600000 0 0 1
30.176101 -30.105094 -22.554778 48.224804 -0.784220 2.057484 0.007115 -0.004432 -44003.100000 0 0 1
31.296031 -30.261794 -21.458078 48.535212 -0.768599 2.028750 -0.005118 -0.002682 -962020.000000 0 0 1
32.219131 -31.200894 -21.931078 49.925348 -0.769344 2.025591 -0.008820 -0.002650 765474.000000 0 0 1
33.464551 -31.209794 -21.181078 50.423858 -0.750549 2.004308 -0.015598 -0.001744 1947890.000000 0 0 1
34.386511 -29.873394 -21.196778 50.240971 -0.715281 2.006339 -0.015106 0.004795 -718839.000000 0 0 1
33.877931 -28.719494 -20.564678 48.943125 -0.703177 2.004434 -0.017642 0.009511 -433452.000000 0 0 1
34.431331 -27.516894 -20.973578 48.811750 -0.674242 2.014938 -0.012833 0.009234 -108323.000000 0 0 1
33.467251 -26.329794 -20.657778 47.329258 -0.666599 2.022467 -0.015650 0.013598 608322.000000 0 0 1
32.317131 -26.307094 -21.513178 46.896449 -0.683237 2.047371 -0.006160 0.006910 625438.000000 0 0 1
31.318281 -25.564594 -20.785378 45.457839 -0.684591 2.045691 0.006194 0.009436 515064.000000 0 0 1
29.936271 -25.398994 -21.482078 44.752306 -0.703585 2.071476 0.012307 0.001865 463583.000000 0 0 1
29.247001 -26.652294 -21.555078 45.059441 -0.739014 2.069594 0.011700 0.001076 1131650.000000 0 0 1
27.948361 -26.482894 -22.188178 44.438382 -0.758481 2.093589 0.014123 -0.003161 739162.000000 0 0 1
27.364421 -27.767394 -22.782678 45.154070 -0.792707 2.099662 0.014621 -0.000366 -342144.000000 0 0 1
26.743941 -28.570794 -21.767878 44.781348 -0.818413 2.078409 0.024295 -0.007695 63789.000000 0 0 1
26.353831 -29.851394 -22.223678 45.601776 -0.847546 2.079840 0.024133 -0.009563 -71062.600000 0 0 1
25.769311 -30.741794 -21.050278 45.301539 -0.873163 2.054059 0.027255 -0.008054 -173392.000000 0 0 1
26.680401 -31.087494 -20.044878 45.607819 -0.861540 2.025844 0.035989 -0.010885 -177901.000000 0 0 1
27.554111 -32.168894 -20.353978 46.993097 -0.862515 2.018756 0.032019 -0.004627 292335.000000 0 0 1
28.546941 -32.430794 -19.191778 47.275877 -0.849005 1.988818 0.022222 -0.004471 -204431.000000 0 0 1
28.028701 -33.018194 -18.031478 46.914213 -0.866949 1.965300 0.025393 -0.009993 -207542.000000 0 0 1
27.513761 -32.042794 -17.121078 45.572787 -0.861298 1.955934 0.023196 -0.014260 -106723.000000 0 0 1
26.827301 -32.714194 -15.907478 45.199230 -0.883948 1.930441 0.031401 -0.008714 -381125.000000 0 0 1
25.576311 -33.244794 -16.267278 44.988758 -0.915037 1.940764 0.054029 -0.015141 -310891.000000 0 0 1
25.068131 -34.003694 -15.185578 44.891693 -0.935526 1.915876 0.052507 -0.012314 991891.000000 0 0 1
23.513931 -34.303194 -15.143378 44.259868 -0.969886 1.919997 0.045458 -0.011460 951780.000000 0 0 1
22.795131 -33.142694 -14.900378 42.896123 -0.968314 1.925550 0.047629 -0.007225 -482550.000000 0 0 1
21.469431 -33.451594 -14.554778 42.329507 -1.000203 1.921805 0.039389 -0.007094 -160641.000000 0 0 1
-0.695629 -7.118751 -28.679008 29.557503 1.473388 2.897175 0.049054 -0.010161 163509.000000 0 0 1
-0.460929 -8.496851 -28.748448 29.981364 1.516602 2.853816 0.051074 -0.018074 -147811.000000 0 0 1
-0.358929 -8.852751 -30.106238 31.382887 1.530274 2.855381 0.042395 -0.008480 -85690.100000 0 0 1
-0.160729 -10.382451 -30.168698 31.905665 1.555317 2.810105 0.047386 -0.012136 138139.000000 0 0 1
1.128971 -10.868751 -29.852188 31.789266 -1.467294 2.790696 0.024194 -0.014150 -34734.600000 0 0 1
1.284471 -12.251551 -30.037548 32.465438 -1.466336 2.752401 0.031467 -0.016029 502313.000000 0 0 1
2.571071 -12.780451 -29.309758 32.078221 -1.372274 2.723085 0.029556 -0.015304 335053.000000 0 0 1
3.782071 -12.346551 -29.968648 32.632212 -1.273546 2.734754 0.024548 -0.006211 1210300.000000 0 0 1
4.975971 -12.612751 -29.213528 32.206707 -1.195024 2.707052 0.021002 -0.015245 727400.000000 0 0 1
5.340971 -14.097251 -28.886988 32.583992 -1.208640 2.660607 0.022855 -0.023982 -1188110.000000 0 0 1
4.551271 -14.742551 -27.895418 31.878068 -1.271362 2.636369 0.035363 -0.015866 -78556.100000 0 0 1
5.323271 -15.711551 -27.267388 31.917088 -1.244123 2.595036 0.039716 -0.022783 -164580.000000 0 0 1
5.057471 -17.216151 -27.733068 33.031756 -1.285071 2.567321 0.036819 -0.026990 -227778.000000 0 0 1
5.557671 -17.465451 -29.035418 34.336354 -1.262718 2.578517 0.030521 -0.030326 161639.000000 0 0 1
5.304271 -18.841351 -29.240038 35.186810 -1.296376 2.551689 0.036470 -0.027485 -375818.000000 0 0 1
5.577471 -19.297051 -30.683518 36.673732 -1.289432 2.561957 0.030829 -0.023613 -1514890.000000 0 0 1
6.895071 -19.352651 -31.028348 37.213243 -1.228533 2.556749 0.015684 -0.020028 -1305920.000000 0 0 1
6.965471 -20.115351 -32.245958 38.638671 -1.237443 2.558114 0.014917 -0.022858 9407.900000 0 0 1
8.400071 -20.209651 -32.816618 39.445172 -1.176875 2.553419 -0.004877 -0.007252 89507.800000 0 0 1
8.750571 -18.918651 -33.251048 39.244363 -1.137566 2.581644 -0.011047 -0.008421 -873043.000000 0 0 1
9.978671 -18.899651 -33.875628 40.054074 -1.085015 2.578761 -0.026798 -0.007688 -1161220.000000 0 0 1
10.282771 -17.591951 34.468203 40.040843 -1.041840 0.533906 -0.026020 -0.000630 -701261.000000 0 0 1
9.470371 -17.230951 33.416116 38.771515 -1.068250 0.531845 -0.009426 -0.000807 -508610.000000 0 0 1
9.710971 -15.929051 33.065134 37.964993 -1.023319 0.513690 -0.022790 0.007175 -175816.000000 0 0 1
8.687571 -15.317251 32.112235 36.623595 -1.054862 0.501592 -0.009388 0.004231 -257845.000000 0 0 1
8.761471 -15.968651 30.874295 35.846663 -1.068977 0.532998 -0.018403 0.005916 -569879.000000 0 0 1
7.847771 -15.449851 29.980835 34.628541 -1.100808 0.524082 -0.020405 0.007986 -701967.000000 0 0 1
7.808871 -16.173851 28.641065 33.806545 -1.120996 0.560095 -0.018433 0.021387 -403348.000000 0 0 1
7.472071 -17.534051 28.668115 34.425798 -1.167955 0.586738 -0.009577 0.015015 188824.000000 0 0 1
7.338471 -18.109051 27.372635 33.631117 -1.185783 0.619949 -0.007954 0.014390 -170919.000000 0 0 1
6.811671 -19.552951 27.252665 34.226079 -1.235574 0.649718 -0.013192 0.011828 33143.400000 0 0 1
7.640771 -20.429351 27.962475 35.463217 -1.212894 0.662443 -0.015936 0.011634 145149.000000 0 0 1
6.805671 -21.456151 28.414055 36.249718 -1.263645 0.669967 -0.022299 0.006541 -330870.000000 0 0 1
7.071971 -22.029751 29.831615 37.752456 -1.260169 0.659677 -0.022273 0.004026 -176533.000000 0 0 1
6.708771 -21.278751 31.021475 38.211579 -1.265381 0.623509 -0.006556 0.004053 291718.000000 0 0 1
7.192671 -19.930351 31.055865 37.595480 -1.224453 0.598728 -0.003295 -0.004047 -322410.000000 0 0 1
6.945671 -19.209951 32.418045 38.317022 -1.223855 0.562268 0.003900 -0.007937 519943.000000 0 0 1
5.585971 -19.060251 32.839035 38.378359 -1.285710 0.543961 0.026722 -0.013726 236095.000000 0 0 1
5.316771 -18.082051 33.844825 38.738879 -1.284820 0.508110 0.042456 -0.009933 112347.000000 0 0 1
3.813771 -18.132851 34.200637 38.897669 -1.363494 0.496518 0.054528 -0.012005 153224.000000 0 0 1
3.362871 -19.209351 -34.073011 39.259115 -1.397488 2.621757 0.050854 -0.012422 -206285.000000 0 0 1
2.585171 -18.684751 -33.024138 38.031523 -1.433312 2.622634 0.044526 -0.024732 -498570.000000 0 0 1
2.011071 -19.786251 -32.145848 37.800736 -1.469504 2.587547 0.045314 -0.004378 -1425750.000000 0 0 1
0.887671 -20.393251 -32.722148 38.566976 -1.527296 2.583846 0.030857 0.004454 -327861.000000 0 0 1
0.135471 -21.123751 -31.781098 38.161098 -1.564383 2.554968 0.025902 0.000360 -13204.600000 0 0 1
-0.624229 -20.321551 -30.727968 36.845123 1.540088 2.557072 0.021792 -0.001835 -1171260.000000 0 0 1
-1.802129 -19.718451 -31.216838 36.966958 1.479656 2.576338 0.025371 0.000449 -217493.000000 0 0 1
-2.431729 -18.826851 -30.334498 35.784709 1.442345 2.582420 0.034450 0.003464 -289588.000000 0 0 1
-2.018329 -17.346951 -30.371128 35.034209 1.454966 2.619744 0.016784 -0.001310 -209704.000000 0 0 1
-2.976929 -16.448251 -29.835948 34.199282 1.391747 2.630917 0.032958 -0.003847 -209214.000000 0 0 1
-2.626429 -15.074351 -30.079328 33.747595 1.398296 2.671007 0.043191 -0.013922 5411.660000 0 0 1
-3.617629 -14.038651 -29.532258 32.898712 1.318593 2.685255 0.050163 -0.011035 48554.800000 0 0 1
-3.420529 -13.747251 -28.160558 31.523070 1.326933 2.675501 0.037395 -0.012936 -145961.000000 0 0 1
-4.481429 -12.945151 -27.739958 30.938090 1.237523 2.682891 0.046742 -0.014843 -289071.000000 0 0 1
-4.288929 -12.458851 -26.281028 29.399155 1.239255 2.676853 0.030059 -0.017494 -234261.000000 0 0 1
-4.764429 -13.443651 -25.413548 29.142408 1.230207 2.630166 0.027288 -0.010684 147147.000000 0 0 1
-4.619029 -13.204051 -24.053478 27.825388 1.234283 2.614839 0.022104 -0.012067 4201.420000 0 0 1
-5.681729 -12.297251 -23.353178 26.997692 1.137981 2.615960 0.035483 -0.019260 -12408.800000 0 0 1
-6.987829 -12.779051 -23.405378 27.567111 1.070399 2.584948 0.034849 -0.023465 -535181.000000 0 0 1
-7.992429 -11.888551 -22.969078 27.070189 0.978918 2.583942 0.031744 -0.021192 441624.000000 0 0 1
-9.397629 -12.386151 -23.406878 28.100073 0.921737 2.555273 0.038880 -0.021328 111446.000000 0 0 1
-9.956729 -13.389351 -22.579278 28.075523 0.931384 2.505181 0.032885 -0.019487 -1815.320000 0 0 1
-10.755529 -14.331851 -23.331478 29.418382 0.926999 2.486665 0.021212 -0.017989 189448.000000 0 0 1
-11.555729 -15.312751 -22.494078 29.563470 0.924327 2.435455 0.014663 -0.014734 -368767.000000 0 0 1
-10.761429 -16.375451 -22.008578 29.467631 0.989398 2.414143 0.022863 -0.008709 -518212.000000 0 0 1
-11.436729 -17.596351 -21.835678 30.285759 0.994457 2.376024 0.011004 -0.002311 6637.490000 0 0 1
-11.860129 -18.353151 -23.120078 31.812558 0.997085 2.384389 0.004293 -0.000140 111791.000000 0 0 1
-12.886029 -17.622851 -23.789578 32.288677 0.939429 2.399089 0.002253 0.000027 61130.400000 0 0 1
-13.480029 -18.453251 -24.834278 33.748704 0.939895 2.397730 -0.002749 -0.002999 209469.000000 0 0 1
-14.762529 -17.851451 -25.436558 34.403852 0.879828 2.402904 0.004385 -0.012910 86038.800000 0 0 1
-15.912129 -18.002151 -24.595978 34.383651 0.846947 2.367906 0.003016 -0.008004 338187.000000 0 0 1
-17.066029 -17.579151 -25.297608 35.217110 0.800208 2.372199 -0.002358 -0.007568 119740.000000 0 0 1
-17.846129 -16.315251 -24.956978 34.749424 0.740615 2.372006 0.004539 -0.000964 -317083.000000 0 0 1
-18.486829 -16.285351 -23.709978 34.192668 0.722171 2.337025 -0.000653 -0.003636 -73372.800000 0 0 1
-19.176729 -15.090651 -23.583678 33.936184 0.666717 2.339136 0.000401 -0.003338 -83449.800000 0 0 1
-19.862529 -14.901951 -22.180678 33.295205 0.643664 2.299874 -0.006844 -0.008834 244863.000000 0 0 1
-18.852329 -14.704251 -21.196378 31.951710 0.662408 2.296134 0.003476 -0.003789 270119.000000 0 0 1
-19.255929 -14.770551 -19.844478 31.349056 0.654334 2.256240 0.006414 -0.009320 -749579.000000 0 0 1
-19.901329 -13.520551 -19.274878 30.828382 0.596752 2.246225 0.010634 -0.011106 -721699.000000 0 0 1
-21.231229 -13.379651 -19.663378 31.881477 0.562321 2.235423 0.010833 -0.017719 -727956.000000 0 0 1
-21.677229 -12.214151 -19.094178 31.363600 0.513115 2.225344 0.022211 -0.015058 -234236.000000 0 0 1
-23.126629 -11.798651 -19.394378 32.406651 0.471755 2.212385 0.027438 -0.012525 -26295.700000 0 0 1
-23.311229 -11.108351 -20.604778 33.035825 0.444691 2.244277 0.029873 -0.024205 -253283.000000 0 0 1
-24.677229 -10.814451 -20.751678 34.008089 0.413028 2.227107 0.035146 -0.020279 -300417.000000 0 0 1
-25.133489 -9.912051 -21.913278 34.786963 0.375649 2.252257 0.043883 -0.010543 -179349.000000 0 0 1
-25.414859 -10.486651 -23.132978 35.930761 0.391337 2.270278 0.023347 -0.009217 116515.000000 0 0 1
-26.105269 -9.555851 -23.900878 36.661306 0.350902 2.280933 0.033755 -0.004719 -593681.000000 0 0 1
-26.115819 -9.833951 -25.406198 37.738806 0.360130 2.309340 0.009113 0.001855 395762.000000 0 0 1
-24.947729 -9.516751 -26.162368 37.382178 0.364429 2.346001 0.000374 -0.006558 738533.000000 0 0 1
-23.938029 -10.551451 -26.113598 36.963257 0.415162 2.355301 -0.007817 -0.000688 105431.000000 0 0 1
-22.888529 -10.448551 -27.184638 37.041349 0.428244 2.394842 -0.009098 0.005828 -313784.000000 0 0 1
-23.500829 -10.730651 -28.449708 38.429438 0.428335 2.404328 -0.004827 0.015589 522813.000000 0 0 1
-22.490029 -10.802651 -29.437008 38.588031 0.447789 2.438511 -0.012396 0.018570 253122.000000 0 0 1
-23.014229 -11.452251 -30.725618 40.060859 0.461739 2.444908 -0.013463 0.007456 -113495.000000 0 0 1
-23.848629 -10.584951 -31.403298 40.828488 0.417719 2.448309 -0.014451 0.004139 -244720.000000 0 0 1
-23.119029 -9.726751 -32.244988 40.851419 0.398244 2.480503 -0.009274 -0.002215 -823471.000000 0 0 1
-23.952629 -8.576851 -32.719438 41.446983 0.343851 2.480674 -0.010954 0.007213 -369889.000000 0 0 1
-24.836529 -8.739651 -33.867388 42.897956 0.338355 2.480769 0.011764 -0.004832 1443720.000000 0 0 1
-26.070369 -9.421151 -33.648738 43.596557 0.346771 2.452496 0.017079 -0.005424 681808.000000 0 0 1
-27.137509 -8.696351 -32.726428 43.394585 0.310116 2.425169 0.010170 0.007874 665034.000000 0 0 1
-28.512739 -9.056151 -32.951398 44.506008 0.307540 2.404433 0.004752 0.003961 1025880.000000 0 0 1
-29.379289 -8.438551 -31.988858 44.245212 0.279698 2.378917 0.006105 0.007581 279565.000000 0 0 1
-30.787799 -9.016151 -32.244898 45.485305 0.284883 2.358745 0.005413 0.004572 -215160.000000 0 0 1
-30.851789 -10.370551 -31.831948 45.526411 0.324275 2.345071 0.002329 -0.003035 366781.000000 0 0 1
-32.153389 -10.922151 -31.965828 46.636337 0.327460 2.325987 -0.012538 0.000066 130244.000000 0 0 1
-32.181979 -12.427251 -31.594538 46.779602 0.368515 2.312292 -0.004105 0.000763 83193.600000 0 0 1
-33.512679 -12.944751 -31.568308 47.824934 0.368609 2.291722 -0.001524 -0.003966 479552.000000 0 0 1
-33.462689 -14.361051 -31.615868 48.224003 0.405394 2.285779 0.007321 -0.000475 1026430.000000 0 0 1
-34.753665 -14.951951 -30.918758 48.860492 0.406289 2.255956 0.005938 -0.005475 894623.000000 0 0 1
-34.655422 -14.846351 -29.524388 47.886344 0.404746 2.235151 0.015657 -0.001449 230422.000000 0 0 1
35.205943 -15.869951 -28.885078 48.225113 -0.423498 2.213002 0.016706 0.001462 226238.000000 0 0 1
35.128903 -15.728851 -27.378158 47.233464 -0.420979 2.189077 0.026225 0.000878 -182331.000000 0 0 1
-34.321146 -16.215951 -26.816328 46.475946 0.441388 2.185839 0.015288 -0.001635 -44801.100000 0 0 1
-34.236450 -15.937851 -25.432048 45.529536 0.435688 2.163473 0.028382 0.000264 725005.000000 0 0 1
-32.778729 -15.624651 -24.949878 44.057590 0.444810 2.172808 0.031294 -0.000068 1426210.000000 0 0 1
-31.760529 -16.659251 -24.999678 43.717797 0.483076 2.179546 0.032831 0.005294 -608835.000000 0 0 1
-30.529339 -16.102551 -24.782578 42.491280 0.485362 2.193507 0.027617 0.008561 -1068860.000000 0 0 1
-29.394539 -17.092751 -25.118458 42.274555 0.526701 2.207035 0.028970 0.002315 -256712.000000 0 0 1
-29.261279 -18.270551 -24.349878 42.225017 0.558163 2.185442 0.039350 -0.012929 -274034.000000 0 0 1
-30.175499 -19.307751 -24.629678 43.473797 0.569206 2.173098 0.042209 -0.011628 -124135.000000 0 0 1
-29.897679 -20.562251 -23.731478 43.357357 0.602460 2.149986 0.041218 -0.012159 486708.000000 0 0 1
-28.736159 -21.224951 -24.252278 43.179143 0.636175 2.167195 0.039855 -0.007334 369211.000000 0 0 1
-28.544539 -22.422351 -23.500578 43.241528 0.665850 2.145365 0.041021 -0.009690 -780618.000000 0 0 1
-27.232079 -23.174451 -23.784678 42.945922 0.705073 2.157752 0.040063 -0.004925 751678.000000 0 0 1
-26.001969 -22.623451 -23.277078 41.590207 0.716029 2.164792 0.005869 -0.005745 605162.000000 0 0 1
-25.881539 -22.468151 -21.847378 40.644554 0.714917 2.138293 -0.001151 -0.012172 -681553.000000 0 0 1
-25.931529 -23.713751 -20.963478 40.917644 0.740755 2.108696 0.003472 -0.002052 -100413.000000 0 0 1
-25.882539 -23.344951 -19.598378 39.987360 0.733896 2.083017 0.000609 -0.004596 12530.500000 0 0 1
-26.063329 -24.484351 -18.814878 40.407675 0.754171 2.055139 -0.002346 0.012103 -127014.000000 0 0 1
-26.004359 -24.111151 -17.330578 39.470536 0.747639 2.025367 -0.008569 0.007113 83897.800000 0 0 1
-27.078299 -23.273251 -16.918278 39.510842 0.709972 2.013289 0.000156 0.002213 -83664.100000 0 0 1
-26.774509 -22.290751 -15.938178 38.311584 0.694268 1.999855 -0.005240 0.000765 -33986.500000 0 0 1
-28.024629 -21.664951 -15.264178 38.571299 0.658102 1.977669 0.001611 0.004947 510843.000000 0 0 1
-28.848299 -20.867351 -16.116878 39.082278 0.626224 1.995865 0.006519 0.007321 460282.000000 0 0 1
-30.048499 -20.478551 -15.444778 39.507272 0.598213 1.972444 0.021253 -0.002772 -10573.900000 0 0 1
-31.079329 -19.900751 -16.386778 40.379340 0.569541 1.988673 0.048308 -0.032481 -559710.000000 0 0 1
-31.835259 -20.859651 -17.103478 41.726942 0.580048 1.993130 0.042957 -0.024866 -198914.000000 0 0 1
-32.439339 -20.133751 -18.198478 42.294955 0.555471 2.015594 0.046732 -0.024916 -640657.000000 0 0 1
-33.342169 -21.032751 -19.054378 43.785228 0.562770 2.021033 0.042923 -0.020415 676450.000000 0 0 1
-34.603290 -21.455851 -18.528178 44.732925 0.555034 1.997855 0.034354 -0.015428 515911.000000 0 0 1
-34.497386 -22.315451 -17.422678 44.627331 0.574174 1.971866 0.035857 -0.017616 -797457.000000 0 0 1
-35.234462 -23.684851 -17.472178 45.909874 0.591828 1.961215 0.022434 0.006062 1285830.000000 0 0 1
33.971691 -23.466551 -17.491378 44.840864 -0.604503 1.971511 0.018203 -0.007579 1021750.000000 0 0 1
33.238261 -24.640351 -17.329578 44.858033 -0.637926 1.967435 0.013465 -0.001616 -84750.800000 0 0 1
31.810351 -24.541751 -16.761978 43.533434 -0.657121 1.966044 0.012963 -0.002935 256808.000000 0 0 1
30.834231 -24.128051 -17.721878 42.976477 -0.663984 1.995842 -0.002858 -0.003850 598454.000000 0 0 1
29.563271 -24.669651 -17.335578 42.226780 -0.695408 1.993837 -0.010274 0.000099 -137839.000000 0 0 1
28.404901 -24.095051 -18.089378 41.408157 -0.703489 2.022896 0.001406 0.002264 -768105.000000 0 0 1
28.195641 -22.711251 -17.877878 40.378380 -0.678078 2.029469 -0.002030 0.002917 730297.000000 0 0 1
26.876451 -22.501151 -18.411878 39.593467 -0.697020 2.054457 0.000922 0.000153 369610.000000 0 0 1
33.569271 29.672249 -18.326678 48.406667 0.723855 1.959078 -0.013971 0.008536 -928131.000000 0 0 1
32.929921 30.119549 -19.473778 48.690810 0.740854 1.982256 -0.013964 0.011038 -398056.000000 0 0 1
33.569101 29.780549 -20.668078 49.405820 0.725665 2.002405 -0.013068 0.019670 -794611.000000 0 0 1
32.848851 30.140749 -21.960178 49.696692 0.742432 2.028494 -0.005614 0.027191 48960.500000 0 0 1
31.577771 29.460449 -21.939978 48.440028 0.750724 2.040846 -0.003904 0.014990 594340.000000 0 0 1
30.842201 29.565449 -23.133778 48.585273 0.764266 2.067065 0.000409 0.026691 287204.000000 0 0 1
29.717381 30.633349 -23.189778 48.572529 0.800574 2.068519 0.003347 0.025187 -333146.000000 0 0 1
30.148861 31.950449 -23.010478 49.590998 0.814401 2.053308 -0.002303 0.018897 582533.000000 0 0 1
29.013071 32.842349 -23.076478 49.526781 0.847226 2.055492 0.007831 0.017392 611755.000000 0 0 1
29.428841 34.321949 -22.831378 50.649034 0.862002 2.038431 0.004348 0.020001 94996.000000 0 0 1
29.859601 -34.462594 -21.534978 50.428379 -0.856838 2.012014 0.003294 0.006436 1111710.000000 0 0 1
31.295751 34.527749 -21.398178 51.278372 0.834460 2.001262 -0.005720 0.010601 697908.000000 0 0 1
31.677181 34.166949 -19.992578 50.700368 0.823193 1.976133 -0.012164 -0.002350 -673276.000000 0 0 1
31.723221 -33.879794 -19.141778 50.205685 -0.818259 1.961963 0.003023 -0.001445 140402.000000 0 0 1
31.648921 -34.312494 -17.795078 49.956643 -0.825757 1.935005 -0.009271 -0.012076 -592406.000000 0 0 1
31.571101 -33.092594 -16.879078 48.751999 -0.808923 1.924339 -0.004507 -0.005944 197766.000000 0 0 1
32.656651 -32.153294 -16.914178 48.850594 -0.777632 1.924360 -0.004695 0.005085 -490906.000000 0 0 1
33.721411 -32.606194 -16.153378 49.610775 -0.768586 1.902445 0.000037 0.000333 -1367430.000000 0 0 1
34.915059 -31.680594 -16.363678 49.904822 -0.736868 1.904874 0.000903 0.004548 -758425.000000 0 0 1
-35.134652 -31.969294 -17.618378 50.664453 0.738262 1.925963 -0.003836 -0.000155 -598569.000000 0 0 1
-33.909139 -31.287694 -17.732378 49.428602 0.745212 1.937722 -0.007030 0.007516 596537.000000 0 0 1
-32.845199 -32.006594 -18.661778 49.512535 0.772468 1.957255 -0.004245 0.009130 -130123.000000 0 0 1
-32.265309 -33.130194 -18.000278 49.625295 0.798623 1.941985 0.002616 -0.004392 476573.000000 0 0 1
-31.324589 -33.877194 -18.774278 49.813328 0.824527 1.957236 0.012575 0.001695 1025200.000000 0 0 1
-29.962929 -33.247494 -19.239678 48.716919 0.837314 1.976786 0.000817 0.003423 -254050.000000 0 0 1
-30.188329 -32.343394 -20.270678 48.665498 0.819848 2.000422 -0.004438 0.014738 -831120.000000 0 0 1
-29.050529 -31.827694 -20.843678 47.868510 0.830985 2.021319 0.007713 0.008538 -967497.000000 0 0 1
-28.279239 -32.727494 -21.787478 48.430346 0.858184 2.037419 0.006277 0.015294 -317814.000000 0 0 1
-28.923909 -33.069994 -22.977278 49.579959 0.852178 2.052668 -0.000395 0.020318 42490.900000 0 0 1
-28.180059 -34.197794 -23.423678 50.122585 0.881573 2.057062 -0.006951 0.008592 210811.000000 0 0 1
-28.838639 34.222849 -24.629378 51.083038 -0.870572 2.073897 -0.010896 0.002271 -441356.000000 0 0 1
-30.035739 33.528449 -24.378278 51.191825 -0.840291 2.067141 -0.013664 -0.001808 -277308.000000 0 0 1
-30.489919 32.702249 -25.446148 51.444909 -0.820393 2.088204 -0.010627 -0.001748 176460.000000 0 0 1
-31.398379 33.493949 -26.421768 52.969922 -0.817680 2.093018 -0.001113 -0.010747 -254193.000000 0 0 1
-30.738909 34.459549 -27.203918 53.594722 -0.842403 2.103177 -0.003892 -0.014715 -177615.000000 0 0 1
-31.734629 -33.898594 -27.828088 54.135052 0.818357 2.110695 -0.002528 -0.012454 483825.000000 0 0 1
-31.193309 -33.199794 -29.107208 54.059952 0.816548 2.139363 0.000354 -0.010568 44544.700000 0 0 1
-30.913169 -33.906494 -30.299758 54.984995 0.831545 2.154424 0.008271 -0.007918 -139556.000000 0 0 1
-32.031019 -34.501494 -30.910658 56.318807 0.822513 2.151786 0.015885 -0.007665 -189082.000000 0 0 1
-31.696229 33.730249 -32.116188 56.336757 -0.816477 2.177394 0.028739 -0.010188 -290619.000000 0 0 1
-31.176199 34.422649 -33.238188 57.110868 -0.834847 2.191975 0.035668 -0.006363 4590.080000 0 0 1
-30.876369 33.493349 -34.259808 56.999027 -0.826031 2.215623 0.014233 -0.015847 -727389.000000 0 0 1
-30.152419 34.174549 33.652501 56.652970 -0.847843 0.934760 0.022768 -0.021267 1201600.000000 0 0 1
-28.731279 33.926049 33.532878 55.685879 -0.868117 0.924568 0.034147 -0.017372 1001630.000000 0 0 1
-28.336079 32.627649 33.111923 54.441678 -0.855678 0.916994 0.041352 -0.027400 1132680.000000 0 0 1
-26.779649 32.314649 33.274300 53.558988 -0.878790 0.900441 0.046465 -0.033682 996632.000000 0 0 1
-26.411909 32.002649 -34.455449 53.934557 -0.880816 2.263783 0.053382 -0.043121 720838.000000 0 0 1
-25.055829 31.559949 -34.242230 52.880575 -0.899778 2.275147 0.057272 -0.039598 601017.000000 0 0 1
-24.631629 30.139749 34.296493 51.878425 -0.885627 0.848521 0.066149 -0.033894 -408565.000000 0 0 1
-25.083279 29.175649 -33.884828 51.269591 -0.860679 2.292833 0.062604 -0.027771 -78499.100000 0 0 1
-24.648529 27.962449 -34.212631 50.595975 -0.848304 2.313379 0.052066 -0.018502 -628574.000000 0 0 1
-24.745929 27.007649 -32.984728 49.292661 -0.829072 2.303876 0.066485 -0.025184 -448410.000000 0 0 1
-23.850129 27.184949 -31.875028 48.206509 -0.850649 2.293238 0.053973 -0.018350 75868.400000 0 0 1
-23.884029 28.400249 -31.143518 48.445224 -0.871562 2.269023 0.044616 -0.016715 -173291.000000 0 0 1
-22.750829 28.513449 -30.102478 47.294568 -0.897338 2.260734 0.054534 -0.016707 380365.000000 0 0 1
-21.469329 28.639549 -30.748828 47.187353 -0.927526 2.280531 0.042379 -0.013393 462177.000000 0 0 1
-20.334029 28.532649 -29.931358 46.081135 -0.951625 2.277770 0.009613 -0.005879 162984.000000 0 0 1
-20.117529 29.651949 -28.859788 46.009134 -0.974677 2.248829 0.017513 -0.000564 -713943.000000 0 0 1
-19.544729 30.791549 -29.490898 46.902335 -1.005221 2.250770 0.016173 0.000169 196542.000000 0 0 1
-19.018329 31.714849 -28.576848 46.735048 -1.030622 2.228707 0.034033 -0.005240 -98134.200000 0 0 1
-18.715129 33.112149 -29.186598 47.942966 -1.056355 2.225315 0.028434 -0.000555 1026870.000000 0 0 1
-17.458329 33.055749 -29.917608 47.880466 -1.084885 2.245722 0.019628 0.000966 906012.000000 0 0 1
-17.329929 34.245149 -30.668598 49.128602 -1.102316 2.244969 0.017700 0.008513 340152.000000 0 0 1
-16.019429 34.296949 -31.518488 49.257668 -1.133830 2.265125 -0.003528 0.009299 509290.000000 0 0 1
-14.930829 -34.292394 -30.769238 48.431848 1.160152 2.259206 0.004177 0.000033 -210516.000000 0 0 1
-13.631729 -34.443094 -31.247208 48.461724 1.193937 2.271533 0.012572 0.009731 99414.400000 0 0 1
-13.062129 33.232449 -31.096928 47.350119 -1.196293 2.287290 0.016592 0.007160 -809888.000000 0 0 1
-12.900629 32.844549 -29.717568 46.133767 -1.196531 2.270722 0.022982 -0.004688 57146.700000 0 0 1
-12.637029 31.440349 -29.595238 44.989645 -1.188622 2.288721 0.021506 0.002654 -331651.000000 0 0 1
-12.368129 30.983049 -28.172348 43.664644 -1.190988 2.272079 0.023418 -0.010699 -30001.100000 0 0 1
-11.165829 31.495849 -27.637508 43.364687 -1.230103 2.261821 0.024112 -0.006855 -159437.000000 0 0 1
-11.027329 31.260449 -26.255188 42.286553 -1.231668 2.240671 0.016142 -0.010362 -394643.000000 0 0 1
-9.659829 31.682249 -25.713388 41.931558 -1.274853 2.230930 0.021207 -0.012023 201573.000000 0 0 1
-8.669229 30.770149 -26.239218 41.357637 -1.296173 2.258089 0.026014 -0.004648 868215.000000 0 0 1
-7.362729 31.116349 -25.731218 41.043057 -1.338450 2.248406 0.024095 -0.009131 800009.000000 0 0 1
-6.235729 30.273649 -26.358928 40.622300 -1.367659 2.276906 0.000318 -0.006104 -280514.000000 0 0 1
-6.054429 29.036049 -25.650388 39.213399 -1.365228 2.283819 0.002548 -0.014115 -88681.500000 0 0 1
-4.968329 28.318949 -26.185108 38.888392 -1.397122 2.309513 0.003150 -0.015470 2683.060000 0 0 1
-4.568429 27.152749 -25.266768 37.370468 -1.404108 2.313275 0.014454 -0.009186 -39423.900000 0 0 1
-5.474429 26.059749 -25.260478 36.703837 -1.363735 2.329835 0.016088 -0.001458 429430.000000 0 0 1
-4.960429 25.033549 -24.380278 35.294226 -1.375179 2.333353 0.021957 -0.008175 224013.000000 0 0 1
-5.797529 23.709749 -24.341178 34.471096 -1.330981 2.354818 0.029415 -0.002861 199799.000000 0 0 1
-5.863729 23.049249 -25.593658 34.938325 -1.321681 2.392840 0.022860 -0.001595 -557485.000000 0 0 1
-6.661829 21.961649 -25.480488 34.292117 -1.276279 2.408401 0.011220 -0.005524 -732427.000000 0 0 1
-6.707129 21.136349 -26.745368 34.742561 -1.263520 2.449349 0.004380 -0.000124 264266.000000 0 0 1
-5.528529 20.351949 -26.892118 34.175320 -1.305551 2.476545 0.016014 -0.009827 57070.500000 0 0 1
-5.469829 19.088249 -26.122328 32.812441 -1.291720 2.491637 0.021187 -0.010748 -465713.000000 0 0 1
-4.376429 18.142349 -26.587948 32.484103 -1.334091 2.529576 0.026843 -0.022206 -588071.000000 0 0 1
-4.490529 17.645349 -27.918598 33.331236 -1.321598 2.563691 0.013862 -0.023001 231539.000000 0 0 1
-3.586229 16.566549 -28.250378 32.945340 -1.357612 2.601172 0.020568 -0.019385 172318.000000 0 0 1
-3.125329 16.483749 -29.746378 34.151554 -1.383420 2.628053 0.016628 -0.017204 -208455.000000 0 0 1
-2.359829 17.609949 -30.064558 34.922153 -1.437584 2.607837 0.017691 -0.017727 61845.200000 0 0 1
-2.175829 17.740449 -31.517548 36.232770 -1.448758 2.625721 0.013506 -0.018737 -172047.000000 0 0 1
-1.368729 18.975649 -31.982528 37.213314 -1.498790 2.604965 0.024573 -0.010384 -16690.400000 0 0 1
-0.016529 18.915849 -31.543708 36.780635 -1.569923 2.601415 0.042919 -0.013735 458458.000000 0 0 1
0.718771 20.051349 -32.041468 37.805144 1.534965 2.582134 0.053575 0.003843 254352.000000 0 0 1
0.630471 21.366349 -31.242418 37.855079 1.541297 2.541559 0.050851 0.000070 -545852.000000 0 0 1
1.376771 21.382949 -30.075968 36.928172 1.506499 2.522569 0.065711 -0.028086 -300814.000000 0 0 1
0.934971 22.366449 -29.152388 36.755869 1.529018 2.486737 0.058165 -0.024178 146491.000000 0 0 1
1.909671 22.481849 -27.946138 35.917503 1.486057 2.462375 0.065400 -0.013414 1152210.000000 0 0 1
2.978371 23.386649 -28.327518 36.854502 1.444125 2.447495 0.063015 -0.015763 1142870.000000 0 0 1
4.161571 23.254649 -27.502648 36.255938 1.393714 2.431911 0.057117 -0.020778 1019430.000000 0 0 1
4.966671 24.569549 -27.396328 37.133399 1.371337 2.400574 0.073588 -0.021561 86596.500000 0 0 1
5.594671 25.096249 -28.551788 38.422996 1.351454 2.408474 0.059744 -0.024290 38095.900000 0 0 1
5.937671 26.442649 -28.359198 39.226442 1.349911 2.378875 0.057644 -0.029352 -223363.000000 0 0 1
6.736271 26.971149 -29.564758 40.581956 1.326045 2.386955 0.052729 -0.021885 -395965.000000 0 0 1
8.069571 26.530549 -29.548048 40.522526 1.275526 2.387913 0.040990 -0.019085 -803457.000000 0 0 1
8.768071 27.332349 -30.440598 41.839770 1.260373 2.385543 0.048333 -0.024282 -215405.000000 0 0 1
10.282671 27.346349 -30.132548 41.970544 1.211135 2.371642 0.038851 -0.024990 -29222.100000 0 0 1
10.953271 28.296249 -30.913268 43.316071 1.201466 2.365516 0.045298 -0.029489 -189894.000000 0 0 1
12.313571 28.402049 -30.526108 43.475783 1.161710 2.349196 0.028272 -0.037148 120738.000000 0 0 1
13.044171 29.472449 -31.344828 44.958580 1.154123 2.342271 0.040850 -0.032777 -913569.000000 0 0 1
12.722871 30.810549 -31.009728 45.527625 1.179186 2.320086 0.024069 -0.020921 -52171.200000 0 0 1
13.390871 31.693649 -31.830988 46.872322 1.171037 2.317332 0.059357 -0.028446 -309848.000000 0 0 1
12.979271 33.113249 -31.484758 47.499881 1.197235 2.295400 0.056621 -0.024545 1177830.000000 0 0 1
11.620271 33.344249 -31.935388 47.610279 1.235464 2.306038 0.053471 -0.016900 1091770.000000 0 0 1
11.248771 -34.457194 -31.853258 48.254151 -1.255248 2.291767 0.049556 -0.006421 -725942.000000 0 0 1
10.115371 -34.131694 -32.792378 48.400757 -1.282680 2.315179 0.022174 0.001432 -801137.000000 0 0 1
10.390771 -33.772994 -34.145144 49.137298 -1.272322 2.339067 0.008990 0.012686 -91678.300000 0 0 1
9.202671 -33.707894 34.146044 48.855537 -1.304279 0.796912 0.011719 0.009852 194878.000000 0 0 1
9.413671 -33.192294 32.695235 47.532346 -1.294443 0.812270 0.013267 0.015922 -74019.700000 0 0 1
9.245371 -31.783894 32.505465 46.392866 -1.287725 0.794479 -0.001785 -0.001529 88698.600000 0 0 1
9.435171 -31.409594 31.136705 45.222554 -1.278981 0.811348 0.000294 0.009659 -381858.000000 0 0 1
9.176471 -29.912594 30.877695 43.959105 -1.273135 0.792006 -0.010499 -0.014030 579608.000000 0 0 1
7.830671 -29.421594 30.963745 43.424683 -1.310673 0.776965 -0.016308 -0.002204 289721.000000 0 0 1
7.501571 -29.042494 32.255515 44.047227 -1.318025 0.749112 -0.009895 0.002580 293901.000000 0 0 1
5.950171 -28.836994 32.336085 43.733272 -1.367314 0.738628 -0.022683 -0.008659 1066340.000000 0 0 1
5.042171 -29.955494 32.312425 44.349159 -1.404037 0.754533 0.022048 -0.014901 420185.000000 0 0 1
5.062171 -30.934594 31.268725 44.275363 -1.408593 0.786633 0.002491 -0.012649 -775459.000000 0 0 1
4.752871 -30.341294 29.874445 42.844677 -1.415412 0.799210 0.002105 -0.017326 215089.000000 0 0 1
3.372171 -30.022994 29.718485 42.378532 -1.458946 0.793629 0.023079 -0.028064 576798.000000 0 0 1
3.197471 -29.173494 28.610785 40.986504 -1.461630 0.798120 0.029360 -0.034400 -635196.000000 0 0 1
1.710171 -28.923194 28.332945 40.524456 -1.511737 0.796579 0.030433 -0.044084 -182375.000000 0 0 1
1.126271 -29.912294 27.468825 40.626963 -1.533162 0.828308 0.021230 -0.039757 182299.000000 0 0 1
0.454771 -30.921794 28.163085 41.827305 -1.556090 0.832109 0.033050 -0.036872 -631046.000000 0 0 1
0.758471 -32.299194 27.491895 42.421898 -1.547318 0.865763 0.015121 -0.018807 504243.000000 0 0 1
2.132571 -32.691494 27.525695 42.789549 -1.505655 0.872021 0.012760 -0.017241 665117.000000 0 0 1
2.740371 -32.394094 26.266695 41.795050 -1.486402 0.891219 0.012756 -0.017207 -1174200.000000 0 0 1
4.208771 -32.699394 26.143665 42.076778 -1.442789 0.900354 0.006774 0.000427 -812413.000000 0 0 1
4.749671 -32.354894 24.851195 41.072867 -1.425038 0.920966 -0.001063 -0.007640 378762.000000 0 0 1
6.122371 -32.031694 25.019935 41.103649 -1.381939 0.916371 -0.003332 -0.008068 -61582.300000 0 0 1
6.921071 -32.000294 23.697045 40.416209 -1.357796 0.944281 -0.008242 -0.001588 -689029.000000 0 0 1
8.182471 -31.452794 23.848945 40.311329 -1.316287 0.937731 -0.007802 -0.002300 -601012.000000 0 0 1
8.819871 -31.223194 22.611345 39.546818 -1.295491 0.962145 -0.000409 -0.000715 1049340.000000 0 0 1
10.018671 -30.164494 22.659145 39.034693 -1.250125 0.951469 0.003088 0.002070 1087200.000000 0 0 1
11.082771 -30.553194 23.513345 40.114870 -1.222820 0.944497 0.013180 0.004014 514586.000000 0 0 1
12.255971 -29.759894 23.233545 39.694555 -1.180135 0.945536 0.019458 0.000969 1392390.000000 0 0 1
13.518671 -30.269594 24.044345 40.952818 -1.150766 0.943296 0.047654 0.001997 611363.000000 0 0 1
13.400571 -30.210394 25.443975 41.708980 -1.153298 0.914690 0.030115 0.003602 393944.000000 0 0 1
14.460171 -29.394594 25.950145 41.791730 -1.113623 0.900855 0.039642 -0.000156 258591.000000 0 0 1
-10.361929 -13.763651 25.565845 30.828884 0.925475 0.592974 0.033563 -0.009322 -785070.000000 0 0 1
-8.991129 -13.900551 25.424765 30.339485 0.996661 0.577172 0.025743 -0.017161 -1303340.000000 0 0 1
-8.461129 -14.525151 26.540835 31.416343 1.043332 0.564587 0.025397 -0.021159 -392162.000000 0 0 1
-6.922229 -14.498351 26.639515 31.109214 1.125351 0.542690 0.027095 -0.016289 350217.000000 0 0 1
-6.154529 -15.289651 25.700945 30.531790 1.188112 0.570231 0.024720 -0.019048 344511.000000 0 0 1
-6.281129 -14.915451 24.358725 29.245012 1.172220 0.586435 0.024158 -0.013260 -885021.000000 0 0 1
-5.730129 -15.994351 23.433545 28.944510 1.226782 0.627322 0.016064 -0.016655 130196.000000 0 0 1
-6.404229 -17.265451 23.361245 29.746558 1.215601 0.667547 0.014716 -0.010711 -153430.000000 0 0 1
-6.341329 -18.041751 24.521335 31.096834 1.232803 0.662353 0.008212 -0.005277 -41324.900000 0 0 1
-6.958329 -19.481751 24.267485 31.888364 1.227747 0.705922 0.009416 -0.003848 456783.000000 0 0 1
-8.379329 -19.438451 24.306795 32.231767 1.163796 0.716475 0.010520 -0.004053 103281.000000 0 0 1
-8.952329 -20.707351 23.998745 32.937491 1.162737 0.754499 0.002792 -0.000979 -37224.500000 0 0 1
-10.482829 -20.767651 24.130605 33.518221 1.103342 0.767102 0.021576 -0.008500 -272029.000000 0 0 1
-10.902729 -20.593351 25.452115 34.507474 1.083883 0.741313 0.024230 -0.010627 -766047.000000 0 0 1
-12.269029 -20.839151 25.497945 35.141777 1.038691 0.758929 0.037546 -0.013659 -539326.000000 0 0 1
-12.984529 -20.756051 26.908605 36.379729 1.011781 0.738232 0.039486 -0.010651 -372342.000000 0 0 1
-12.801029 -21.796751 27.864855 37.621999 1.039774 0.736754 0.033216 -0.007248 312925.000000 0 0 1
-11.507429 -21.860051 28.453685 37.681493 1.086242 0.714974 0.034590 -0.008805 82224.300000 0 0 1
-11.392729 -23.237451 29.098695 38.942360 1.114959 0.726920 0.016474 -0.006640 534666.000000 0 0 1
-12.363229 -23.547151 30.115425 40.177812 1.087317 0.723409 0.024383 -0.003135 664786.000000 0 0 1
-11.868429 -24.788351 30.679245 41.189052 1.124260 0.730502 0.011135 0.002564 734649.000000 0 0 1
-12.909429 -25.542151 31.609255 42.640354 1.102825 0.735793 0.019004 -0.008925 738699.000000 0 0 1
-13.045729 -24.929151 32.864935 43.263813 1.088673 0.708037 0.028281 -0.013203 -131077.000000 0 0 1
-14.177329 -25.421991 33.550191 44.417222 1.062076 0.714621 0.035883 -0.012751 -43416.900000 0 0 1
-14.208029 -24.873051 -34.081725 44.520790 1.051806 2.442651 0.038519 -0.018665 -33163.200000 0 0 1
-14.321129 -23.482051 -33.915938 43.666833 1.023147 2.460203 0.052170 -0.026126 -429786.000000 0 0 1
-15.491429 -22.845351 -34.342464 44.060178 0.974920 2.464575 0.036791 -0.022782 -802225.000000 0 0 1
-15.574629 -21.324651 -34.137850 43.159039 0.939985 2.483202 0.031020 -0.011627 -114431.000000 0 0 1
-15.928229 -20.965951 -32.796708 42.058336 0.921104 2.465128 0.034253 -0.012295 141798.000000 0 0 1
-15.975429 -19.588951 -32.531328 41.197435 0.886656 2.481026 0.021856 -0.014268 -373482.000000 0 0 1
-15.834129 -19.263951 -31.007578 39.790569 0.882810 2.464296 0.023486 -0.005530 922385.000000 0 0 1
-17.047329 -19.573551 -30.274058 39.877988 0.854272 2.432829 0.018535 -0.006010 812519.000000 0 0 1
-16.939929 -19.306651 -28.865278 38.638223 0.850601 2.414433 0.011135 -0.005713 77542.300000 0 0 1
-16.049029 -20.297551 -28.086068 38.188861 0.901759 2.397130 0.016601 -0.005161 -389751.000000 0 0 1
-14.683729 -20.182251 -28.347788 37.769462 0.941814 2.419687 0.013888 -0.002160 -871776.000000 0 0 1
-14.018729 -21.295751 -27.774878 37.702488 0.988617 2.398952 0.002408 -0.002171 -46947.300000 0 0 1
-12.493229 -21.204051 -27.974958 37.259775 1.038363 2.420082 0.029014 -0.009297 -413797.000000 0 0 1
-12.005329 -20.093551 -27.218178 35.898578 1.032238 2.431339 0.026209 -0.012448 833378.000000 0 0 1
-10.571529 -19.936051 -27.238668 35.371576 1.083225 2.449751 0.014050 -0.020374 1307660.000000 0 0 1
-9.846929 -20.866751 -26.197898 34.910073 1.129884 2.419523 0.015529 -0.007767 -488670.000000 0 0 1
-9.632129 -22.172451 -26.683978 36.005974 1.160975 2.405502 0.017157 -0.010707 33800.700000 0 0 1
-9.335929 -23.165451 -25.700878 35.837590 1.187697 2.370499 0.015384 -0.008459 50578.700000 0 0 1
-9.526129 -24.608051 -26.238828 37.212624 1.201447 2.353368 0.016538 -0.008621 -5806.470000 0 0 1
-8.591729 -24.979291 -27.237588 37.942970 1.239518 2.371514 0.010590 -0.005050 220112.000000 0 0 1
-8.930429 -26.248151 -27.794688 39.258918 1.242851 2.357436 0.013980 -0.014607 -231761.000000 0 0 1
-8.731529 -27.511631 -26.974958 39.506680 1.263476 2.322378 0.021664 -0.005221 101048.000000 0 0 1
-9.647729 -27.608921 -25.878518 39.051618 1.234618 2.295181 0.019868 -0.010414 129802.000000 0 0 1
-9.723129 -28.925471 -25.356158 39.675646 1.246518 2.264106 0.034648 -0.009169 -602435.000000 0 0 1
-10.669929 -29.091901 -24.173478 39.300676 1.219264 2.233297 0.038646 -0.013729 -422670.000000 0 0 1
-10.449129 -28.186011 -23.124478 37.925941 1.215783 2.226513 0.035712 -0.016042 96451.000000 0 0 1
-11.309329 -27.045061 -23.276778 37.431867 1.174728 2.241891 0.023165 -0.007136 81123.400000 0 0 1
-11.162829 -25.932431 -22.259178 35.952340 1.164312 2.238431 0.025544 -0.013992 -66732.800000 0 0 1
-11.774929 -26.344431 -21.048778 35.717350 1.150473 2.201007 0.023083 -0.014493 110700.000000 0 0 1
-11.852829 -25.259191 -20.116978 34.397806 1.132051 2.195471 0.015600 -0.007038 -339980.000000 0 0 1
-12.406029 -25.671661 -18.779478 34.141068 1.120632 2.153227 0.027981 -0.011551 -94327.700000 0 0 1
-13.781829 -25.984691 -18.697478 34.853101 1.083139 2.137039 0.042614 -0.016234 -50875.900000 0 0 1
-14.023029 -26.404111 -17.393778 34.588523 1.082585 2.097721 0.040810 -0.014036 104079.000000 0 0 1
-15.553429 -26.532581 -17.198478 35.237404 1.040585 2.080679 0.042876 -0.017371 -767679.000000 0 0 1
-16.274229 -25.291551 -17.294778 34.693262 0.999029 2.092670 0.038166 -0.012570 933685.000000 0 0 1
-17.687229 -25.400821 -17.052278 35.338647 0.962541 2.074348 0.046112 -0.006459 950003.000000 0 0 1
-18.477129 -26.131061 -18.173778 36.803843 0.955325 2.087252 0.036374 -0.002475 -1404740.000000 0 0 1
-18.312929 -27.548231 -18.349478 37.828187 0.984116 2.077244 0.030907 -0.005878 -50583.900000 0 0 1
-18.656829 -28.418561 -17.224078 38.109851 0.989864 2.039756 0.034985 -0.008138 -1103720.000000 0 0 1
-20.075229 -28.915531 -17.049478 39.112753 0.963925 2.021841 0.021083 0.002326 -760536.000000 0 0 1
-20.463029 -29.740941 -18.075678 40.373126 0.968141 2.035005 0.015891 0.000099 260834.000000 0 0 1
-21.729929 -30.327631 -17.755078 41.318250 0.949078 2.014974 0.010872 0.007695 312025.000000 0 0 1
-22.270229 -31.189271 -18.883978 42.723979 0.950713 2.028623 0.007777 -0.002610 -101715.000000 0 0 1
-21.582629 -32.405581 -19.171778 43.399178 0.983244 2.028350 0.014348 -0.008550 252473.000000 0 0 1
-22.301829 -33.111901 -20.181678 44.733318 0.978058 2.038856 0.018676 -0.005318 -358.427000 0 0 1
-21.755029 -34.556190 -20.398178 45.645342 1.008928 2.034076 0.013661 -0.008575 366623.000000 0 0 1
-22.325129 33.595875 -19.500878 44.803778 -0.984281 2.021113 0.020144 -0.014279 -308019.000000 0 0 1
-21.441429 32.539151 -19.383478 43.522988 -0.988160 2.032375 0.023806 -0.020620 -526326.000000 0 0 1
-22.029029 31.284531 -18.789578 42.626849 -0.957290 2.027277 0.031386 -0.021076 -32507.500000 0 0 1
-22.554429 31.360681 -17.443178 42.384656 -0.947304 1.994945 0.023495 -0.020470 -223465.000000 0 0 1
-23.205829 30.192441 -16.976678 41.692945 -0.915499 1.990165 0.024595 -0.016657 -437188.000000 0 0 1
-22.506329 28.860671 -16.688378 40.224062 -0.908478 1.998613 0.029921 -0.020295 -496370.000000 0 0 1
-21.838529 28.321641 -17.785278 39.941868 -0.913934 2.032282 0.027521 -0.019178 -237727.000000 0 0 1
-21.572029 26.940401 -17.563278 38.724752 -0.895609 2.041531 0.019652 -0.004962 -178303.000000 0 0 1
-20.881529 26.448031 -18.817378 38.595730 -0.902472 2.080079 0.032805 -0.004676 -807190.000000 0 0 1
-20.593929 25.021231 -18.804178 37.466906 -0.882153 2.096576 0.028387 -0.000185 505090.000000 0 0 1
-19.786829 24.492131 -19.879278 37.236659 -0.891266 2.133959 0.014676 0.001403 1248430.000000 0 0 1
-18.317829 25.066511 -19.997378 36.929229 -0.939717 2.143023 0.010280 -0.003755 -108708.000000 0 0 1
-17.522929 24.581341 -18.938778 35.636676 -0.951495 2.131097 0.008083 -0.000564 -136176.000000 0 0 1
-16.301529 25.288331 -18.844078 35.501251 -0.998208 2.130341 0.017665 -0.010335 -228183.000000 0 0 1
-16.302329 26.465641 -17.738978 35.789209 -1.018709 2.089381 0.017307 -0.019993 299783.000000 0 0 1
-17.244229 27.533081 -17.967878 37.125175 -1.011256 2.075995 0.023675 -0.023143 280237.000000 0 0 1
-16.767329 28.726881 -17.369878 37.524521 -1.042463 2.052054 0.024233 -0.027654 -596926.000000 0 0 1
-17.534829 29.991081 -17.643378 38.964394 -1.041727 2.040708 0.041513 -0.025405 -280693.000000 0 0 1
-17.543529 30.480911 -18.948578 39.948842 -1.048543 2.064989 0.014967 -0.027094 285886.000000 0 0 1
-18.279729 29.667111 -19.888278 40.122682 -1.018578 2.089422 0.033392 -0.026299 -78870.900000 0 0 1
-18.313329 30.170211 -21.330078 41.238234 -1.025245 2.114420 0.044096 -0.024340 104016.000000 0 0 1
-19.001929 31.410311 -21.574678 42.581072 -1.026739 2.102118 0.048949 -0.022843 228993.000000 0 0 1
-19.352229 31.447991 -22.916578 43.458653 -1.019150 2.126239 0.051215 -0.021470 -174684.000000 0 0 1
-20.158429 32.668421 -23.305878 44.908262 -1.017926 2.116438 0.050613 -0.022822 -200293.000000 0 0 1
-19.352729 33.831033 -23.382478 45.451152 -1.051189 2.111166 0.039609 -0.019438 112729.000000 0 0 1
-19.923329 -34.358233 -24.223178 46.520851 1.045309 2.118461 0.039238 -0.012713 -255924.000000 0 0 1
-18.975229 -33.155881 -24.328078 45.290475 1.050991 2.137859 0.046467 -0.012684 55061.300000 0 0 1
-18.736229 -32.259581 -23.255378 43.960658 1.044617 2.128223 0.038940 -0.015750 253821.000000 0 0 1
-18.129629 -32.835831 -22.093278 43.531462 1.066320 2.103106 0.036254 -0.019728 -192049.000000 0 0 1
-18.176829 -31.874431 -20.932578 42.243926 1.052529 2.089226 0.041994 -0.021355 51666.100000 0 0 1
-17.275829 -30.796191 -21.144278 41.157504 1.059568 2.110335 0.046607 -0.017476 208536.000000 0 0 1
-17.004329 -30.157541 -19.921778 39.943732 1.057382 2.092948 0.045786 -0.013059 1174750.000000 0 0 1
-15.741329 -29.152151 -19.907778 38.651740 1.075685 2.111868 0.049378 -0.015982 2106740.000000 0 0 1
-14.459129 -29.798521 -19.909478 38.644606 1.119035 2.112031 0.059657 -0.023801 511845.000000 0 0 1
-13.415129 -28.871511 -20.070878 37.634691 1.135827 2.133302 0.040702 -0.026347 -71403.300000 0 0 1
-12.005029 -29.420551 -20.467778 37.797083 1.183370 2.143037 0.046367 -0.023541 763913.000000 0 0 1
-11.267529 -30.124511 -19.481578 37.602862 1.212875 2.115410 0.049360 -0.016806 231121.000000 0 0 1
-10.726429 -29.257521 -18.489178 36.234080 1.219392 2.106295 0.035657 -0.018428 -753570.000000 0 0 1
-10.013929 -29.967631 -17.296178 36.020764 1.248304 2.071648 0.026558 -0.009243 313656.000000 0 0 1
-10.824929 -30.724071 -16.344778 36.445842 1.232050 2.035846 0.039344 -0.019970 306869.000000 0 0 1
-11.132629 -32.057991 -16.830078 37.880097 1.236560 2.031188 0.051976 -0.018213 77286.000000 0 0 1
-12.185429 -32.806181 -15.970678 38.468074 1.215153 1.998923 0.062854 -0.023607 -127400.000000 0 0 1
-11.784729 -33.231441 -14.678978 38.192681 1.230006 1.965289 0.054299 -0.019948 4785.830000 0 0 1
-12.838629 -33.795691 -13.888378 38.728106 1.207746 1.937577 0.055995 -0.011398 226448.000000 0 0 1
-12.330129 -34.285194 -12.516778 38.525009 1.225565 1.901702 0.041721 -0.010662 -283414.000000 0 0 1
-11.957229 -33.284531 -11.640378 37.233503 1.225911 1.888759 0.018825 -0.004431 1581.400000 0 0 1
-11.740429 -33.802971 -10.387978 37.261087 1.236512 1.853329 0.019563 0.000020 552995.000000 0 0 1
-10.611329 -33.027951 -9.524878 35.974563 1.259930 1.838759 0.013013 -0.005759 1818330.000000 0 0 1
-9.292429 -33.236731 -10.055878 35.946491 1.298174 1.854326 0.003954 -0.007208 173567.000000 0 0 1
-8.297729 -32.598741 -9.304678 34.901393 1.321548 1.840659 -0.000107 -0.009394 -634546.000000 0 0 1
-6.919529 -33.044041 -9.756978 35.142384 1.364376 1.852134 -0.001347 -0.007005 -742419.000000 0 0 1
-6.591529 -34.382303 -9.469578 36.266568 1.381382 1.834969 -0.010149 -0.003069 -823422.000000 0 0 1
-5.403729 34.504765 -10.141178 36.367879 -1.415450 1.853393 -0.003863 -0.004156 -907873.000000 0 0 1
-4.585629 33.363584 -9.555878 35.006736 -1.434208 1.847278 0.000055 -0.005216 -105428.000000 0 0 1
-4.023429 33.646428 -8.269278 34.880526 -1.451782 1.810150 0.013073 -0.005178 127059.000000 0 0 1
-3.302629 32.576841 -7.692478 33.635282 -1.469762 1.801541 0.006713 -0.005878 11383.900000 0 0 1
-2.988029 32.877291 -6.200978 33.590129 -1.480161 1.756468 0.011133 -0.005848 354125.000000 0 0 1
-1.999529 33.921925 -5.979678 34.502923 -1.511919 1.744985 0.004573 -0.005169 537945.000000 0 0 1
-1.697229 34.180107 -4.633178 34.534427 -1.521182 1.705363 0.004190 -0.006372 -171997.000000 0 0 1
-0.554429 33.325801 -4.082178 33.579467 -1.554161 1.692665 0.015149 -0.015656 -1395100.000000 0 0 1
0.686171 33.634947 -4.592978 33.954027 1.550399 1.706483 0.019876 -0.008539 -1098430.000000 0 0 1
1.649971 32.838201 -3.931578 33.113852 1.520593 1.689806 0.027235 -0.013491 367978.000000 0 0 1
3.121271 33.113301 -4.348078 33.543089 1.476814 1.700789 0.031392 -0.006177 337501.000000 0 0 1
3.523471 34.377009 -3.918878 34.778603 1.468658 1.683717 0.035077 -0.005192 1526780.000000 0 0 1
4.973971 -34.560043 -4.009678 35.145618 -1.427855 1.685133 0.040393 -0.004682 1787150.000000 0 0 1
5.486971 -33.186151 -3.700978 33.839691 -1.406940 1.680383 0.041738 -0.004355 -382537.000000 0 0 1
5.125071 -32.130951 -4.558778 32.854936 -1.412623 1.710000 0.031192 -0.007298 -185590.000000 0 0 1
5.557171 -30.868771 -4.109478 31.633068 -1.392679 1.701075 0.037073 -0.008771 244358.000000 0 0 1
5.151171 -29.709991 -5.071378 30.576740 -1.399121 1.737424 0.020283 -0.004438 -67371.500000 0 0 1
6.036171 -29.779481 -6.172778 31.005742 -1.370810 1.771220 0.025760 -0.002856 -83666.200000 0 0 1
5.978471 -28.655331 -7.069578 30.113934 -1.365113 1.807769 0.021279 0.003313 149617.000000 0 0 1
6.494871 -27.213241 -6.708478 28.770602 -1.336513 1.806134 0.033962 0.003435 358917.000000 0 0 1
5.755871 -26.745981 -5.583778 27.922323 -1.358824 1.772129 0.033826 0.005145 -316271.000000 0 0 1
6.411071 -25.726951 -4.898078 26.962363 -1.326574 1.753474 0.038166 -0.003926 215781.000000 0 0 1
5.565271 -25.164931 -3.700878 26.037329 -1.353148 1.713417 0.033012 -0.003425 486057.000000 0 0 1
4.415971 -24.448451 -4.114378 25.182448 -1.392099 1.734915 0.026129 -0.007416 -242620.000000 0 0 1
3.732871 -23.939051 -2.997878 24.413106 -1.416110 1.693905 0.028790 -0.006267 356183.000000 0 1 0
2.486971 -23.078951 -3.429278 23.464504 -1.463451 1.717469 0.026094 -0.008341 1567740.000000 0 1 0
1.476271 -23.959751 -4.009078 24.337661 -1.509260 1.736278 0.000362 0.000830 406368.000000 0 1 0
0.201171 -23.375651 -4.176978 23.746761 -1.562191 1.747613 -0.002429 0.002173 165474.000000 0 1 0
-15.010629 23.325349 18.428245 33.301518 -0.998981 0.984385 -0.004264 -0.001565 -72246.400000 0 0 1
-15.181229 22.675349 19.700545 33.656391 -0.980832 0.945493 0.005913 -0.007248 189982.000000 0 0 1
-14.634929 23.468149 20.715545 34.555303 -1.013199 0.927933 0.000131 -0.006648 -848980.000000 0 0 1
-14.435729 22.982749 22.129645 35.018826 -1.009963 0.886748 0.010653 -0.010803 -92437.300000 0 0 1
-13.329929 22.063549 22.284145 34.074482 -1.027323 0.857958 0.011358 -0.008522 1496610.000000 0 0 1
-12.028229 22.681649 22.341545 34.033514 -1.083198 0.854684 -0.009677 -0.011618 244623.000000 0 0 1
-11.777429 23.736649 23.491245 35.411508 -1.110217 0.845471 0.005396 -0.002970 -1100600.000000 0 0 1
-11.781729 23.183249 24.760735 35.907745 -1.100610 0.809908 -0.012600 0.006726 105044.000000 0 0 1
-11.751829 24.197749 25.769695 37.252029 -1.118688 0.806864 -0.001633 0.002516 -398991.000000 0 0 1
-11.294229 23.644049 27.103315 37.698678 -1.125166 0.768512 -0.009881 0.003209 868805.000000 0 0 1
-9.860029 23.515749 27.135675 37.236480 -1.173768 0.754318 -0.034788 0.004761 487489.000000 0 0 1
-9.492029 22.708549 28.244375 37.463602 -1.174875 0.716795 -0.037624 0.007441 -980946.000000 0 0 1
-8.009129 22.395949 28.316865 36.980664 -1.227354 0.698635 -0.026351 -0.000000 -3092.970000 0 0 1
-7.101029 23.512249 28.488925 37.614748 -1.277493 0.711494 -0.019130 -0.002865 387849.000000 0 0 1
-6.918829 24.436149 27.388665 37.351500 -1.294879 0.747680 -0.018031 0.003274 -190388.000000 0 0 1
-5.863229 25.531749 27.837125 38.225033 -1.345065 0.755041 -0.014252 -0.003697 548496.000000 0 0 1
-4.531829 25.073249 27.956515 37.825547 -1.391983 0.739077 -0.014160 -0.008745 -398081.000000 0 0 1
-3.715529 26.147449 28.418295 38.795537 -1.429642 0.748788 -0.003528 -0.003305 96106.400000 0 0 1
-2.269129 25.583849 28.410615 38.299416 -1.482334 0.735042 0.001972 -0.004809 -244022.000000 0 0 1
-1.809129 25.368749 27.085455 37.154653 -1.499604 0.753948 0.001870 -0.009834 -484424.000000 0 0 1
-0.492529 24.898849 27.136705 36.831997 -1.551018 0.742516 0.006772 -0.004580 -121370.000000 0 0 1
0.208771 24.748849 25.760445 35.723236 1.562361 0.765391 0.008254 -0.006002 -112333.000000 0 0 1
-0.173929 23.651949 25.016605 34.427830 -1.563443 0.757379 0.004343 0.002999 -9171.990000 0 0 1
0.395771 23.643649 23.706445 33.483941 1.554059 0.784142 0.014890 0.008681 70478.700000 0 0 1
-0.139229 22.448549 22.853245 32.034786 -1.564594 0.776475 0.002539 0.011868 44803.700000 0 0 1
0.464871 21.240249 23.146445 31.418501 1.548914 0.742599 0.014395 0.013983 50349.400000 0 0 1
-0.186329 20.208649 22.422745 30.186151 -1.561576 0.733530 0.009952 0.015690 330115.000000 0 0 1
0.596371 18.885549 22.558745 29.426460 1.539229 0.697245 0.008201 0.027629 1471740.000000 0 0 1
1.971171 18.797749 22.085145 29.068789 1.466316 0.707861 0.013174 0.019798 1145010.000000 0 0 1
2.596271 17.583349 22.421145 28.611580 1.424200 0.670294 -0.000809 0.016965 -208950.000000 0 0 1
4.013871 17.589449 21.808845 28.304162 1.346440 0.691144 0.001949 0.018975 233886.000000 0 0 1
4.838271 18.576849 22.493645 29.571477 1.316010 0.706477 -0.003477 0.018130 432745.000000 0 0 1
5.973471 19.003549 21.726445 29.476357 1.266241 0.742056 0.012468 0.002197 376540.000000 0 0 1
7.155471 19.502849 22.569345 30.674700 1.219151 0.744002 0.009234 -0.006240 -518980.000000 0 0 1
7.083471 20.704249 23.325345 31.983014 1.241153 0.753492 -0.006665 0.003427 -109170.000000 0 0 1
6.715671 21.893549 22.618445 32.187292 1.273166 0.791592 0.002833 -0.001398 39646.700000 0 0 1
5.675971 22.791649 23.344045 33.115258 1.326724 0.788467 -0.002436 0.003366 36535.700000 0 0 1
5.628671 24.069549 22.696745 33.558417 1.341074 0.828020 -0.001710 -0.003160 118691.000000 0 0 1
4.571571 24.826449 23.225945 34.303008 1.388695 0.827006 -0.017431 0.008975 -416955.000000 0 0 1
4.298071 26.205449 22.536545 34.829511 1.408229 0.867083 -0.003500 0.010456 28818.700000 0 0 1
4.042471 26.285749 21.152745 33.981183 1.418202 0.898884 0.004201 0.003816 -629255.000000 0 0 1
2.945271 25.570249 20.728845 33.048408 1.456118 0.892809 0.020492 -0.000556 -1077060.000000 0 0 1
2.474071 25.840649 19.278645 32.334599 1.475344 0.932008 0.021956 -0.005300 -691001.000000 0 0 1
1.712171 27.008749 19.217545 33.192139 1.507488 0.953321 0.017055 -0.009081 15533.600000 0 0 1
1.505571 27.434249 17.893345 32.788360 1.515972 0.993545 0.024873 -0.007498 433194.000000 0 0 1
0.478671 28.631849 17.830645 33.733422 1.554080 1.013875 0.015253 0.000285 283026.000000 0 0 1
0.984971 29.840149 18.250145 34.992463 1.537800 1.022136 0.010972 0.004616 543491.000000 0 0 1
-0.055529 30.826549 18.292145 35.845247 -1.568995 1.035253 0.011733 0.007317 311696.000000 0 0 1
0.504571 32.084149 18.879445 37.230104 1.555071 1.038978 0.005943 0.009304 -233317.000000 0 0 1
0.766171 32.069649 20.271245 37.946973 1.546910 1.007236 0.003946 0.006199 -28519.800000 0 0 1
1.126971 33.326449 20.778545 39.289568 1.536993 1.013544 -0.000889 0.010134 -75851.900000 0 0 1
1.687171 33.315949 22.186245 40.062806 1.520198 0.983891 0.003258 0.000317 26123.100000 0 0 1
0.637671 33.130149 23.103745 40.395500 1.551551 0.961929 -0.001219 0.000212 169068.000000 0 0 1
1.087371 33.452449 24.398635 41.419103 1.538303 0.940892 0.001586 -0.012038 -561155.000000 0 0 1
0.181271 33.049549 25.556815 41.778659 1.565312 0.912564 0.001382 0.005048 -1142700.000000 0 0 1
-0.987829 33.816549 25.488865 42.358199 -1.541593 0.925111 -0.001168 0.006813 344842.000000 0 0 1
-1.984329 33.548849 26.516715 42.808866 -1.511718 0.902791 0.001081 0.001698 602937.000000 0 0 1
-1.559229 33.845749 27.920795 43.903721 -1.524760 0.881551 0.005946 -0.010096 -657233.000000 0 0 1
-0.667229 32.868549 28.469315 43.488948 -1.550499 0.857099 0.003430 -0.011418 143202.000000 0 0 1
-0.223029 33.159849 29.752265 44.551348 -1.564071 0.839521 0.008132 -0.009404 -1273680.000000 0 0 1
0.798871 32.185149 30.211625 44.150473 1.545980 0.817170 0.002272 -0.011048 -224854.000000 0 0 1
2.088171 32.323549 29.591915 43.873154 1.506284 0.830525 -0.004920 -0.011030 695425.000000 0 0 1
2.204771 31.707449 28.317365 42.568726 1.501373 0.843014 -0.006944 -0.012732 140038.000000 0 0 1
3.728271 31.643749 27.904045 42.354015 1.453517 0.851535 -0.011486 -0.005176 1129020.000000 0 0 1
4.372671 30.579749 28.605885 42.101519 1.428767 0.823783 -0.012475 -0.007858 328545.000000 0 0 1
5.721571 30.361749 28.227465 41.849276 1.384534 0.830505 -0.003943 -0.006856 521268.000000 0 0 1
6.447371 29.332249 29.164765 41.863264 1.354432 0.800055 -0.005909 -0.012104 220241.000000 0 0 1
6.425371 29.679749 30.531395 43.062036 1.357596 0.782704 0.006693 -0.011260 160188.000000 0 0 1
7.116771 28.681049 31.232745 42.996922 1.327574 0.757735 0.001791 -0.008471 -261216.000000 0 0 1
7.100271 28.810149 32.763885 44.203062 1.329161 0.735921 0.026192 -0.005905 -616865.000000 0 0 1
5.880671 28.681849 33.449003 44.452970 1.368568 0.719010 0.021351 -0.007764 -413121.000000 0 0 1
5.971371 28.802149 -34.180164 45.094397 1.366369 2.430990 0.039247 -0.008854 -270842.000000 0 0 1
5.865371 27.303749 -33.695078 43.763633 1.359193 2.449533 0.034692 -0.007603 197583.000000 0 0 1
7.063271 26.612549 -34.020948 43.766911 1.311366 2.461193 0.020700 -0.010079 309257.000000 0 0 1
7.082671 25.279149 -33.578518 42.622957 1.297622 2.478031 0.024296 -0.007712 171651.000000 0 0 1
8.403571 24.529149 -33.903078 42.681587 1.240733 2.488693 0.021916 -0.011056 -186158.000000 0 0 1
8.588471 24.486249 33.739884 42.564280 1.233456 0.655603 0.009667 -0.006445 -40681.000000 0 0 1
9.777371 23.909449 33.257138 42.110520 1.182613 0.660381 0.009107 -0.016793 -270735.000000 0 0 1
10.031971 22.415149 33.535685 41.565869 1.149979 0.632067 0.022616 -0.019726 -501690.000000 0 0 1
9.349271 21.527949 32.633605 40.197184 1.161087 0.623503 0.025114 -0.016412 221929.000000 0 0 1
9.197871 20.144249 33.087613 39.814340 1.142467 0.589808 0.026657 -0.017714 496396.000000 0 0 1
8.009871 19.949049 34.095700 40.306815 1.188983 0.562538 0.049478 -0.018303 253817.000000 0 0 1
8.191571 20.611049 -33.757368 40.391547 1.192502 2.560300 0.044442 -0.012315 -463329.000000 0 0 1
6.991071 20.714449 -33.048588 39.625404 1.245303 2.557160 0.045548 -0.005892 -396262.000000 0 0 1
7.063671 21.300649 -31.673278 38.817646 1.250591 2.525168 0.049480 -0.016194 -316743.000000 0 0 1
7.291171 22.704849 -31.651198 39.629152 1.260070 2.495903 0.052258 -0.015453 100281.000000 0 0 1
7.403771 23.279649 -30.356388 38.964961 1.262876 2.463976 0.032472 -0.018298 -1217310.000000 0 0 1
8.787271 23.393649 -29.813158 38.901200 1.211477 2.443985 0.025963 -0.017422 -960832.000000 0 0 1
9.478371 22.203949 -29.484148 38.107346 1.167336 2.455477 0.026387 -0.015488 -386166.000000 0 0 1
10.876371 22.303849 -29.540628 38.579863 1.117081 2.442926 0.027801 -0.013102 -90345.100000 0 0 1
11.468871 20.893449 -29.389098 37.839005 1.068781 2.460187 0.034153 -0.019800 -267360.000000 0 0 1
11.613971 20.115649 -30.522348 38.355409 1.047190 2.491086 0.027138 -0.021320 -257725.000000 0 0 1
10.433171 19.536749 -31.025368 38.119668 1.080298 2.521619 0.046321 -0.022336 -481365.000000 0 0 1
10.565571 18.604549 -32.201408 38.661236 1.054312 2.555145 0.048854 -0.025148 -379373.000000 0 0 1
11.130271 17.354149 -31.845278 37.936409 1.000518 2.567045 0.043698 -0.018290 193954.000000 0 0 1
11.179571 16.378449 -32.847368 38.369076 0.971859 2.598452 0.033428 -0.011404 60607.900000 0 0 1
12.506071 16.337749 -33.651438 39.442910 0.917467 2.592825 0.019412 -0.005124 -49058.500000 0 0 1
12.732971 17.517949 -34.438895 40.682239 0.942275 2.580236 0.028470 -0.012473 72769.300000 0 0 1
13.234271 17.334049 33.273876 39.783991 0.918721 0.580181 0.035490 -0.012803 270248.000000 0 0 1
12.171671 17.209449 32.121765 38.420339 0.955210 0.580732 0.043238 -0.021190 -395147.000000 0 0 1
12.559671 17.869249 30.932195 37.866292 0.958150 0.614816 0.033818 -0.018644 20025.300000 0 0 1
11.742471 17.770349 29.766925 36.602469 0.986873 0.621082 0.039606 -0.018674 635683.000000 0 0 1
10.234971 18.195649 29.813065 36.395811 1.058410 0.610896 0.032213 -0.013270 407194.000000 0 0 1
9.487871 17.290249 30.562545 36.373638 1.068920 0.573073 0.043522 -0.012678 -1443760.000000 0 0 1
8.140471 17.591349 30.603115 36.225315 1.137387 0.564607 0.042231 -0.011926 -628252.000000 0 0 1
7.427371 16.596549 31.572005 36.433539 1.150003 0.522520 0.049994 -0.008886 -6426.170000 0 0 1
7.599971 16.933149 32.914945 37.787361 1.148922 0.513446 0.064244 -0.008597 -36386.300000 0 0 1
6.943471 16.027549 33.758707 38.009793 1.161983 0.477475 0.074230 -0.012132 -218432.000000 0 0 1
7.032171 16.237649 -33.759388 38.115731 1.162103 2.658812 0.077776 -0.016472 -378140.000000 0 0 1
6.217871 17.224449 -33.194028 37.910250 1.224364 2.637463 0.072710 -0.017032 15521.000000 0 0 1
6.118071 17.059649 -31.764128 36.570784 1.226456 2.623097 0.072532 -0.021254 -246938.000000 0 0 1
5.233271 18.072749 -31.036638 36.294411 1.288938 2.596608 0.066419 -0.024244 -896420.000000 0 0 1
5.121871 17.834749 -29.634638 34.964605 1.291138 2.582169 0.065191 -0.026047 107564.000000 0 0 1
4.503571 18.958749 -29.022418 34.957361 1.337573 2.550305 0.062110 -0.027658 -330333.000000 0 0 1
2.978471 18.913249 -29.120808 34.851165 1.414598 2.559977 0.073251 -0.023553 -1653320.000000 0 0 1
2.438871 17.932549 -28.196338 33.504595 1.435623 2.570973 0.075841 -0.023882 1089940.000000 0 0 1
1.066071 17.506349 -28.333858 33.322909 1.509975 2.587317 0.070961 -0.021639 1371590.000000 0 0 1
-0.013329 18.617249 -28.131748 33.734217 -1.570080 2.556975 0.062753 -0.021484 -616681.000000 0 0 1
-0.165729 18.879149 -26.760118 32.749865 -1.562018 2.527170 0.064900 -0.025141 291600.000000 0 0 1
-1.130729 19.930349 -26.639258 33.288848 -1.514123 2.498501 0.054474 -0.024047 -69734.000000 0 0 1
-1.445529 20.445649 -25.187988 32.473818 -1.500213 2.458525 0.060972 -0.029389 894165.000000 0 0 1
-2.515729 19.650249 -24.594778 31.581075 -1.443464 2.463518 0.053793 -0.016914 648239.000000 0 0 1
-2.588029 19.847849 -23.189278 30.632950 -1.441134 2.429513 0.057449 -0.017650 -206977.000000 0 0 1
-3.740529 19.099349 -22.520778 29.765116 -1.377398 2.428919 0.044370 -0.011064 509750.000000 0 0 1
-5.040329 19.674049 -22.754478 30.499826 -1.319999 2.412911 0.040613 -0.008066 1052900.000000 0 0 1
-6.028829 18.716349 -22.276678 29.713614 -1.259175 2.418424 0.032246 -0.008872 1669930.000000 0 0 1
-7.521029 19.252249 -22.285278 30.394878 -1.198370 2.393800 0.038464 -0.006232 1188410.000000 0 0 1
-7.942329 20.115549 -21.220378 30.298850 -1.194750 2.346711 0.031352 -0.010652 364695.000000 0 0 1
-7.352829 21.409249 -21.365778 31.127424 -1.239976 2.327320 0.029192 -0.011291 -207629.000000 0 0 1
-7.578929 22.364249 -20.174078 31.057901 -1.244057 2.277806 0.043809 -0.011608 -379702.000000 0 0 1
-6.839429 22.255749 -18.999978 30.051544 -1.272646 2.255245 0.059223 -0.017324 -176080.000000 0 0 1
-7.171829 23.329749 -18.156378 30.419835 -1.272554 2.210378 0.065025 -0.014565 -169727.000000 0 0 1
-6.123729 23.475649 -17.053478 29.655139 -1.315628 2.183474 0.077803 -0.020970 326904.000000 0 0 1
-4.837429 23.884249 -17.474578 29.986980 -1.370963 2.192891 0.066493 -0.019851 -166118.000000 0 0 1
-3.904429 23.903749 -16.404578 29.253102 -1.408887 2.166125 0.054795 -0.018668 733011.000000 0 0 1
-2.560129 24.575849 -16.828478 29.895222 -1.466998 2.168705 0.046005 -0.005115 401673.000000 0 0 1
-2.625629 25.984649 -16.759578 31.031909 -1.470093 2.141323 0.033899 -0.008923 -165147.000000 0 0 1
-1.525829 26.523249 -17.453278 31.787227 -1.513332 2.152042 0.029622 -0.008575 -13003.500000 0 0 1
-1.252329 28.056949 -17.241978 32.955220 -1.526191 2.121391 0.021573 -0.025366 372742.000000 0 0 1
-2.363229 28.879349 -17.612078 33.908508 -1.489147 2.116945 0.015375 -0.025361 311902.000000 0 0 1
-2.162629 29.335849 -18.957678 34.995179 -1.497210 2.143281 0.018050 -0.022200 38991.900000 0 0 1
-3.493529 29.419549 -19.806878 35.637438 -1.452601 2.160107 0.025361 -0.022562 868462.000000 0 0 1
-4.211229 30.635949 -19.649978 36.639015 -1.434192 2.136859 0.016597 -0.014067 139480.000000 0 0 1
-4.953229 30.655349 -18.428578 36.109519 -1.410603 2.106391 0.009769 -0.015223 -543497.000000 0 0 1
-4.941429 32.128049 -17.860978 37.089672 -1.418188 2.073232 0.017308 -0.008314 183246.000000 0 0 1
-5.962829 32.846149 -18.548178 38.189786 -1.391214 2.077942 0.032467 -0.007780 343463.000000 0 0 1
-6.049529 34.127249 -18.000578 39.054919 -1.395355 2.049810 0.024553 -0.020617 272206.000000 0 0 1
-6.977129 -33.993994 -18.746478 39.442393 1.368362 2.066087 0.023944 -0.013329 102872.000000 0 0 1
-8.341729 -34.345094 -18.726778 39.998276 1.332530 2.058037 0.040993 -0.016788 172801.000000 0 0 1
-9.120329 -33.457794 -19.551278 39.810260 1.304670 2.084162 0.059894 -0.027511 -197070.000000 0 0 1
27.522771 -20.529051 -26.638748 43.457655 -0.640868 2.230625 0.015880 0.009767 250264.000000 0 0 1
27.283371 -21.895451 -26.321208 43.778980 -0.676276 2.215835 0.014078 0.004913 -1114760.000000 0 0 1
25.982571 -22.254851 -26.018758 42.980788 -0.708273 2.221012 -0.016501 0.003433 -920996.000000 0 0 1
25.833371 -23.729051 -25.458788 43.342598 -0.742966 2.198620 -0.005772 0.011623 -17385.800000 0 0 1
26.174871 -24.787951 -26.309798 44.629271 -0.758191 2.201259 0.005442 0.021262 153273.000000 0 0 1
27.541171 -25.111921 -26.591358 45.784550 -0.739294 2.190499 0.002925 0.021893 576068.000000 0 0 1
27.797071 -26.482881 -27.310488 47.115633 -0.761192 2.189093 0.002251 0.007366 -231121.000000 0 0 1
27.626771 -27.650571 -26.494628 47.220312 -0.785829 2.166493 0.003524 -0.005619 -257359.000000 0 0 1
27.692371 -28.891351 -27.148118 48.359052 -0.806584 2.166857 -0.003126 0.005690 -423646.000000 0 0 1
26.497071 -29.316571 -27.977648 48.418022 -0.835872 2.186870 0.011454 -0.002814 -870447.000000 0 0 1
26.234571 -28.707301 -29.230798 48.649783 -0.830374 2.215349 -0.006687 0.000555 -229770.000000 0 0 1
27.234671 -28.804301 -30.211838 49.841451 -0.813400 2.222018 0.008426 -0.004646 -499422.000000 0 0 1
27.612271 -30.119461 -30.913968 51.237612 -0.828799 2.218486 0.020406 -0.001649 -711233.000000 0 0 1
28.262671 -31.153121 -30.191288 51.776533 -0.834008 2.193345 0.019510 -0.007912 -152389.000000 0 0 1
29.541371 -31.003261 -29.630378 52.075465 -0.809539 2.176073 0.010546 -0.007750 518683.000000 0 0 1
30.705871 -30.618871 -30.641058 53.096518 -0.783979 2.185948 0.002682 -0.011375 -128996.000000 0 0 1
30.648571 -29.301351 -31.122358 52.597578 -0.762930 2.203971 0.008840 -0.014699 120486.000000 0 0 1
31.923371 -28.830361 -31.550598 53.345399 -0.734531 2.203640 0.020201 -0.012222 209137.000000 0 0 1
31.862471 -27.431111 -32.173708 52.941764 -0.710801 2.223981 0.014212 -0.008281 -67253.200000 0 0 1
31.750371 -26.243241 -31.400458 51.795584 -0.690721 2.222118 0.007681 -0.001353 -717862.000000 0 0 1
30.555471 -26.088121 -30.703838 50.566318 -0.706693 2.223327 0.011899 -0.000145 -629268.000000 0 0 1
30.309171 -24.735051 -30.044488 49.326867 -0.684476 2.225709 0.017449 0.005652 -992939.000000 0 0 1
30.871971 -24.680251 -28.806958 48.908427 -0.674399 2.200615 0.015990 0.001413 -138574.000000 0 0 1
30.796371 -23.341451 -28.256788 47.871556 -0.648556 2.202180 0.011718 0.005632 -63855.800000 0 0 1
31.804371 -23.171851 -27.103948 47.781552 -0.629647 2.173956 0.015229 0.003295 -201721.000000 0 0 1
31.507471 -23.921851 -25.965998 47.320278 -0.649391 2.151639 0.025140 -0.003047 412866.000000 0 0 1
30.660271 -23.289351 -24.963578 45.887104 -0.649613 2.146019 0.009709 0.005045 396158.000000 0 0 1
31.294271 -22.153151 -24.111678 45.293118 -0.616007 2.132168 0.013907 0.005867 -270256.000000 0 0 1
31.559771 -20.905951 -24.829278 45.272188 -0.585060 2.151299 0.020432 0.006368 109691.000000 0 0 1
31.819271 -19.915351 -23.830578 44.463284 -0.559239 2.136442 0.015731 0.006259 46909.400000 0 0 1
32.083071 -18.525651 -24.499178 44.415458 -0.523657 2.155067 0.014959 0.002594 684357.000000 0 0 1
30.875471 -18.145251 -25.169708 43.772812 -0.531320 2.183410 0.027410 -0.001063 859155.000000 0 0 1
31.127371 -17.043951 -26.013258 44.001126 -0.500964 2.203336 0.022870 0.001164 404154.000000 0 0 1
30.151471 -17.096651 -27.241548 44.085242 -0.515821 2.236902 0.011093 0.020335 17966.600000 0 0 1
28.829371 -16.721751 -26.998308 42.891237 -0.525602 2.251654 0.006259 0.014109 -585504.000000 0 0 1
28.062471 -16.692951 -28.140508 43.105047 -0.536624 2.282118 0.000314 0.013296 1040550.000000 0 0 1
26.532571 -16.355951 -27.871418 41.812802 -0.552426 2.300403 -0.017918 0.016361 1206850.000000 0 0 1
25.761871 -17.250851 -27.107088 41.183250 -0.590049 2.289230 -0.015614 0.026472 178992.000000 0 0 1
25.564371 -16.903851 -25.741618 40.023845 -0.584227 2.269410 -0.012133 0.025548 -129444.000000 0 0 1
25.035271 -18.060851 -24.923478 39.675419 -0.624955 2.250014 -0.011519 0.015648 -294482.000000 0 0 1
24.753071 -17.601551 -23.620378 38.476634 -0.618127 2.231774 -0.017422 0.017534 -2346.660000 0 0 1
24.320971 -18.593451 -22.762378 38.149075 -0.652718 2.210140 -0.008643 0.011372 -240285.000000 0 0 1
24.291971 -18.099951 -21.294578 37.029274 -0.640358 2.183491 -0.017238 0.013346 93272.500000 0 0 1
23.415871 -17.003551 -20.978578 35.742475 -0.628065 2.198067 -0.018065 0.003465 55447.200000 0 0 1
23.672571 -15.689851 -21.486578 35.612288 -0.585311 2.218488 -0.012097 0.009522 626657.000000 0 0 1
25.052671 -15.055351 -21.048178 36.018408 -0.541116 2.194903 -0.008388 0.003122 765024.000000 0 0 1
25.096971 -14.756351 -19.623578 35.109723 -0.531529 2.163881 -0.007391 -0.003446 755310.000000 0 0 1
26.210171 -13.889251 -19.345078 35.413506 -0.487295 2.148692 -0.007825 0.003454 168860.000000 0 0 1
25.875371 -12.915251 -18.157278 34.147112 -0.462954 2.131446 -0.007303 -0.003161 -175380.000000 0 0 1
26.086371 -13.546951 -16.878878 33.895651 -0.478977 2.092048 -0.002112 0.000935 173521.000000 0 0 1
26.039171 -12.598351 -15.858278 32.988511 -0.450622 2.072273 -0.010717 0.000966 -205223.000000 0 0 1
26.718971 -12.981551 -14.578178 33.089989 -0.452268 2.027020 0.002539 -0.010010 -106909.000000 0 0 1
26.055671 -14.161451 -14.023078 32.803832 -0.497845 2.012503 0.023835 -0.021521 907382.000000 0 0 1
26.638571 -14.501751 -12.726378 32.891867 -0.498525 1.968081 0.040345 -0.026323 -195058.000000 0 0 1
25.994671 -15.716951 -12.107278 32.700637 -0.543811 1.950070 0.047545 -0.043482 -1228400.000000 0 0 1
24.673771 -15.421351 -11.828378 31.408973 -0.558606 1.956911 0.030641 -0.032582 -705845.000000 0 0 1
24.017671 -16.655051 -11.506378 31.410762 -0.606316 1.945847 0.009459 -0.034738 467297.000000 0 0 1
22.546171 -16.448251 -11.010478 30.001757 -0.630275 1.946572 0.012288 -0.036137 109310.000000 0 0 1
22.406071 -15.912751 -9.701878 29.144023 -0.617538 1.910168 0.006272 -0.026974 27439.600000 0 0 1
21.066071 -15.952651 -9.301378 28.013962 -0.648136 1.909247 -0.007220 -0.018467 -655054.000000 0 0 1
20.915371 -15.736951 -7.781978 27.306841 -0.645042 1.859785 -0.000229 -0.012885 -344886.000000 0 0 1
21.322771 -14.425551 -7.338278 26.769524 -0.594802 1.848479 0.006625 0.001863 450780.000000 0 0 1
21.110971 -14.001251 -6.002678 26.033445 -0.585614 1.803466 -0.004374 0.002575 -654533.000000 0 0 1
21.806771 -14.812551 -4.885078 26.810649 -0.596673 1.754027 0.001233 -0.001763 -1029680.000000 0 0 1
23.181271 -14.634651 -4.955478 27.858591 -0.563127 1.749628 0.032599 0.001005 -625544.000000 0 0 1
23.826471 -15.190951 -3.834078 28.516063 -0.567585 1.705658 0.020323 -0.007262 -814335.000000 0 0 1
25.341971 -15.142651 -3.983478 29.788982 -0.538603 1.704921 0.052551 -0.011808 -850730.000000 0 0 1
25.825771 -13.833251 -3.799378 29.542589 -0.491750 1.699760 0.045526 -0.005511 -168241.000000 0 0 1
27.209571 -13.787251 -4.027378 30.767984 -0.468998 1.702068 0.057608 -0.020450 -344338.000000 0 0 1
27.913871 -12.548351 -3.448678 30.798355 -0.422470 1.683008 0.068197 -0.017819 -1289630.000000 0 0 1
28.198171 -12.728651 -2.055978 31.006168 -0.424017 1.637154 0.068795 -0.019374 783944.000000 0 0 1
28.915071 -11.597951 -1.466478 31.188850 -0.381458 1.617833 0.054206 -0.020839 1604850.000000 0 0 1
30.428171 -11.408851 -1.929078 32.553906 -0.358721 1.630089 0.054104 -0.014193 662499.000000 0 0 1
30.466871 -11.063351 -3.276078 32.578530 -0.348321 1.671526 0.053521 -0.011588 -791117.000000 0 0 1
31.750871 -11.301551 -3.732178 33.908288 -0.341961 1.681087 0.073409 -0.010838 -855163.000000 0 0 1
31.867271 -10.954051 -5.231378 34.101048 -0.331087 1.724813 0.077037 -0.011960 -728994.000000 0 0 1
31.059371 -11.793551 -5.991978 33.759090 -0.362894 1.749234 0.052691 -0.018436 -115325.000000 0 0 1
31.037571 -11.495051 -7.344378 33.902904 -0.354696 1.789157 0.051865 -0.013932 -950943.000000 0 0 1
29.701071 -11.791951 -7.959778 32.932686 -0.377936 1.814912 0.079887 -0.019979 -844613.000000 0 0 1
29.500271 -13.203951 -8.052578 33.308472 -0.420846 1.814973 0.070840 -0.019332 487922.000000 0 0 1
28.177071 -13.493851 -8.499378 32.377010 -0.446621 1.836422 0.072904 -0.026133 490179.000000 0 0 1
27.950571 -15.069951 -8.442978 32.857597 -0.494486 1.830668 0.071914 -0.025836 92957.300000 0 0 1
28.476571 -15.767851 -9.566178 33.927157 -0.505690 1.856635 0.071958 -0.032018 207682.000000 0 0 1
28.597571 -17.210451 -9.383178 34.670805 -0.541753 1.844850 0.062609 -0.030843 -94917.300000 0 0 1
28.809671 -17.916551 -10.749778 35.588729 -0.556362 1.877645 0.052072 -0.036468 1528630.000000 0 0 1
30.161271 -17.651751 -11.280078 36.722292 -0.529500 1.883017 0.062199 -0.031385 1898610.000000 0 0 1
30.268271 -17.945051 -12.660178 37.396165 -0.535158 1.916163 0.048333 -0.025898 -371444.000000 0 0 1
29.470471 -17.164151 -13.682578 36.746832 -0.527392 1.952333 0.038058 -0.031982 -557655.000000 0 0 1
30.009471 -15.914251 -13.989178 36.735934 -0.487599 1.961462 0.043291 -0.027658 -204515.000000 0 0 1
29.477671 -15.348951 -15.156878 36.527446 -0.480068 1.998679 0.024253 -0.026216 -1309070.000000 0 0 1
30.378871 -14.240651 -15.819578 37.093544 -0.438352 2.011392 0.021978 -0.012776 1027160.000000 0 0 1
31.508971 -14.767751 -16.547378 38.532031 -0.438282 2.014674 0.005572 -0.017858 641023.000000 0 0 1
32.501271 -15.394151 -15.786478 39.274997 -0.442344 1.984439 0.026298 -0.016518 -1106680.000000 0 0 1
33.706571 -15.740351 -16.706978 40.780077 -0.436886 1.992905 0.033896 -0.015704 -254719.000000 0 0 1
34.950171 -16.006451 -16.126378 41.686700 -0.429470 1.968006 0.040966 -0.020241 18622.200000 0 0 1
-34.741389 -16.264351 -17.165778 42.025673 0.437849 1.991562 0.052071 -0.019006 632684.000000 0 0 1
-33.245589 -16.168951 -16.732978 40.579511 0.452667 1.995829 0.049459 -0.023552 393565.000000 0 0 1
-32.656389 -16.943051 -15.686778 39.994771 0.478596 1.973841 0.057264 -0.029536 186512.000000 0 0 1
-33.302389 -16.908351 -14.435278 40.041462 0.469806 1.939609 0.046571 -0.029667 -566412.000000 0 0 1
-32.516089 -17.759551 -13.399378 39.398490 0.499904 1.917818 0.054315 -0.032138 -91030.800000 0 0 1
-31.262089 -17.178951 -13.115678 38.005994 0.502470 1.923136 0.043392 -0.025779 -270706.000000 0 0 1
-30.585489 -18.131951 -12.286578 37.619141 0.535130 1.903505 0.036316 -0.016271 134141.000000 0 0 1
-29.064189 -17.882351 -12.165178 36.228402 0.551573 1.913241 0.056331 -0.022442 69139.900000 0 0 1
-28.800389 -16.614551 -11.632878 35.225411 0.523251 1.907355 0.056461 -0.027873 -660985.000000 0 0 1
-27.529989 -16.416751 -11.093278 33.918591 0.537711 1.903983 0.037141 -0.020966 -380499.000000 0 0 1
-27.475289 -16.304751 -9.535878 33.341706 0.535577 1.860851 0.047226 -0.017910 -35651.100000 0 0 1
-27.834689 -17.559451 -9.012378 34.122239 0.562793 1.838088 0.053671 -0.018055 -41666.200000 0 0 1
-28.173689 -17.489151 -7.629078 34.026901 0.555546 1.796926 0.047905 -0.012753 -496894.000000 0 0 1
-28.884389 -18.740751 -6.970578 35.129939 0.575545 1.770545 0.035812 -0.015916 285550.000000 0 0 1
-30.172089 -19.076351 -7.435978 36.463076 0.563797 1.776169 0.034309 -0.016453 -31489.700000 0 0 1
-30.166189 -19.561951 -8.790278 37.012672 0.575301 1.810581 0.033558 -0.018064 789999.000000 0 0 1
-31.519789 -20.322751 -9.189378 38.612899 0.572684 1.811089 0.030300 -0.018398 1377960.000000 0 0 1
-32.632789 -19.542051 -9.620978 39.234601 0.539571 1.818540 0.043983 -0.018540 617194.000000 0 0 1
-33.651989 -20.503551 -9.964878 40.646657 0.547217 1.818480 0.050246 -0.024922 -285914.000000 0 0 1
-34.939789 -19.876351 -10.451878 41.534322 0.517219 1.825175 0.050287 -0.035065 -746806.000000 0 0 1
-34.989589 -19.436751 -11.806978 41.730844 0.507057 1.857646 0.047318 -0.034560 326883.000000 0 0 1
34.319771 -19.132551 -12.212878 41.146756 -0.508567 1.872149 0.045839 -0.038332 241111.000000 0 0 1
34.169471 -18.841051 -13.725078 41.363217 -0.503918 1.909027 0.044541 -0.040512 -199843.000000 0 0 1
34.363371 -20.010551 -14.489678 42.322738 -0.527320 1.920226 0.042287 -0.038590 488992.000000 0 0 1
33.600471 -19.946251 -15.708678 42.114215 -0.535723 1.953039 0.033268 -0.032447 1148650.000000 0 0 1
32.267271 -20.783451 -15.710078 41.472101 -0.572219 1.959307 0.033766 -0.029706 1200680.000000 0 0 1
31.255071 -20.403051 -14.744078 40.131681 -0.578335 1.947000 0.036906 -0.029955 2194680.000000 0 0 1
29.996171 -21.162151 -14.691578 39.540478 -0.614404 1.951483 0.033845 -0.024457 1962290.000000 0 0 1
28.996871 -20.845751 -15.849778 39.071464 -0.623296 1.988498 0.020193 -0.018646 -462592.000000 0 0 1
28.423771 -19.546851 -15.787378 37.937204 -0.602419 1.999998 0.002542 -0.014713 382747.000000 0 0 1
27.715971 -19.227051 -16.979778 37.764631 -0.606497 2.037138 -0.003865 -0.010666 41761.600000 0 0 1
27.046671 -17.844951 -16.955478 36.571203 -0.583222 2.052883 -0.003546 -0.005542 368661.000000 0 0 1
26.007671 -17.671051 -15.977078 35.269420 -0.596804 2.040925 0.003230 -0.007856 684098.000000 0 0 1
25.423471 -16.398751 -16.089178 34.265632 -0.572869 2.059569 -0.000793 -0.010209 -27783.300000 0 0 1
23.955671 -16.180651 -15.522378 32.812069 -0.594053 2.063567 -0.004149 -0.016493 1177760.000000 0 0 1
22.926571 -16.781951 -16.311178 32.761503 -0.631873 2.091945 -0.004175 -0.009142 451249.000000 0 0 1
22.733471 -16.108251 -17.538078 32.922190 -0.616454 2.132599 0.000182 -0.005318 -1137550.000000 0 0 1
21.707971 -16.850651 -18.411578 33.078190 -0.660086 2.161093 0.003906 -0.003138 79113.300000 0 0 1
20.379671 -16.788951 -17.915478 31.908686 -0.689091 2.166946 0.010561 -0.005593 -27931.300000 0 0 1
19.542771 -17.346151 -18.904578 32.252006 -0.725922 2.197098 0.015181 -0.006962 794845.000000 0 0 1
18.032571 -17.579651 -18.571178 31.290676 -0.772681 2.206203 0.016577 -0.005864 880505.000000 0 0 1
17.183671 -16.456851 -18.358778 30.052474 -0.763796 2.227981 0.014614 -0.004091 100920.000000 0 0 1
15.896771 -16.956251 -18.105478 29.462351 -0.817636 2.232586 0.016620 0.000127 -865382.000000 0 0 1
14.784071 -15.990551 -17.846978 28.156369 -0.824582 2.257320 0.021012 0.004196 -780827.000000 0 0 1
14.351071 -15.374651 -19.037278 28.368135 -0.819819 2.306460 0.020408 0.002410 1474820.000000 0 0 1
13.070971 -14.719551 -18.735478 27.175975 -0.844650 2.331475 0.022752 0.001304 1366950.000000 0 0 1
12.427871 -14.036151 -19.952878 27.378511 -0.846096 2.387333 0.030534 -0.002026 122990.000000 0 0 1
13.017671 -12.762151 -20.151878 27.174077 -0.775487 2.406226 0.030546 -0.005168 317624.000000 0 0 1
12.227171 -12.082651 -21.103278 27.218422 -0.779453 2.458035 0.027642 -0.006737 -169423.000000 0 0 1
12.732471 -10.667651 -21.433178 27.116337 -0.697386 2.482284 0.022863 0.001423 -515616.000000 0 0 1
13.843771 -10.578051 -22.271978 28.276955 -0.652465 2.477761 0.017500 0.005478 -665337.000000 0 0 1
14.166771 -9.284051 -22.649978 28.282724 -0.580120 2.499495 0.016194 0.006687 138529.000000 0 0 1
15.450871 -9.208351 -23.507778 29.599641 -0.537456 2.488472 0.001919 0.004838 177133.000000 0 0 1
15.221271 -9.635351 -24.835278 30.680908 -0.564345 2.514045 0.008421 0.004971 87392.000000 0 0 1
16.360471 -9.376151 -25.629928 31.819340 -0.520404 2.507286 0.012861 0.001081 -222592.000000 0 0 1
22.104571 4.892849 -6.914878 23.672084 0.217838 1.867230 0.043705 0.024226 -63571.200000 0 1 0
22.286671 6.244549 -7.154078 24.225419 0.273187 1.870579 0.026255 0.019747 296696.000000 0 1 0
21.684471 6.925849 -6.097978 23.566268 0.309151 1.832533 0.021275 0.013933 -382109.000000 0 1 0
21.563271 8.452249 -6.155478 23.964663 0.373569 1.830564 0.030349 0.013674 -253067.000000 0 1 0
20.523371 8.839049 -7.047678 23.430905 0.406674 1.876313 0.043871 0.013042 580269.000000 0 1 0
20.401471 10.260249 -7.234378 23.954727 0.465979 1.877588 0.052882 0.015913 -355182.000000 0 1 0
19.723071 11.065549 -6.161478 23.439490 0.511284 1.836789 0.055278 0.009096 797200.000000 0 1 0
20.677271 11.214649 -5.038078 24.056187 0.496963 1.781788 0.055608 0.007244 1528930.000000 0 1 0
20.126571 12.187549 -4.131678 23.889034 0.544487 1.744623 0.072734 0.000499 143103.000000 0 1 0
20.975771 12.514849 -2.889878 24.595849 0.537941 1.688563 0.060385 -0.012121 150044.000000 0 1 0
22.291471 12.946649 -3.248978 25.982326 0.526174 1.696170 0.066182 -0.022055 902391.000000 0 0 1
23.045871 13.331749 -2.090978 26.706177 0.524451 1.649172 0.058322 -0.023972 286000.000000 0 0 1
24.003671 12.227149 -1.533678 26.982060 0.471129 1.627668 0.047307 -0.027247 -133066.000000 0 0 1
25.125271 11.989349 -2.376678 27.940514 0.445228 1.655961 0.024211 -0.012431 546204.000000 0 0 1
25.811371 10.782649 -2.023078 28.046127 0.395712 1.642993 0.038763 -0.018124 3727.650000 0 0 1
27.262171 10.676049 -2.540478 29.388059 0.373250 1.657350 0.029027 -0.017713 -312673.000000 0 0 1
28.060971 11.578649 -1.865678 30.413220 0.391342 1.632179 0.034279 -0.025171 -537242.000000 0 0 1
29.415571 11.500349 -2.194278 31.659891 0.372690 1.640160 0.042566 -0.018987 -20228.800000 0 0 1
30.255671 12.792449 -1.908278 32.904314 0.400016 1.628824 0.018985 -0.015171 -138206.000000 0 0 1
30.175471 13.128649 -0.581578 32.912896 0.410375 1.588467 0.037158 -0.011648 1077210.000000 0 0 1
31.088171 14.196549 -0.229978 34.177028 0.428374 1.577525 0.021148 -0.008258 584480.000000 0 0 1
32.570171 13.948349 0.169022 35.431639 0.404625 1.566026 0.012986 -0.012718 -58888.200000 0 0 1
33.441671 15.030749 0.169822 36.664664 0.422406 1.566165 0.007854 -0.006023 182133.000000 0 0 1
34.182271 15.177649 -1.094178 37.416385 0.417871 1.600044 0.013400 -0.015234 -152038.000000 0 0 1
33.620871 15.936449 -2.282678 37.276588 0.442636 1.632071 0.000517 -0.004516 -98830.300000 0 0 1
32.412971 15.417049 -2.811878 36.002677 0.443974 1.648978 0.007975 -0.003614 31503.400000 0 0 1
31.769771 16.330349 -3.686678 35.910865 0.474802 1.673639 0.009649 0.006830 730984.000000 0 0 1
30.331671 15.927049 -4.164278 34.511192 0.483523 1.691756 0.013236 0.004102 77001.500000 0 0 1
30.309271 14.800949 -5.038678 34.104373 0.454269 1.719082 0.015715 0.000236 8865.470000 0 0 1
29.121971 14.731149 -5.777278 33.143218 0.468311 1.746004 0.008834 -0.004164 -114997.000000 0 0 1
27.930071 14.044049 -5.060378 31.669095 0.465908 1.731273 0.012646 -0.011634 -62990.400000 0 0 1
26.836671 13.727049 -5.925778 30.720573 0.472808 1.764906 0.008138 -0.010301 -115920.000000 0 0 1
25.803371 13.195849 -5.173178 29.439873 0.472726 1.747434 0.015938 -0.006681 -677112.000000 0 0 1
24.544871 12.961149 -6.031678 28.404634 0.485842 1.784774 0.018698 0.000045 -294567.000000 0 0 1
24.745471 12.030649 -7.078978 28.411033 0.452527 1.822612 0.012855 0.006337 -158191.000000 0 0 1
23.640871 11.925049 -7.914078 27.635669 0.467181 1.861234 0.023402 0.010053 -713513.000000 0 0 1
23.696371 12.829649 -9.161478 28.461387 0.496231 1.898523 0.021843 0.012320 -72533.600000 0 0 1
23.204971 14.134649 -8.881578 28.585685 0.547100 1.886726 0.031382 -0.001406 162867.000000 0 0 1
23.039371 14.866049 -10.053078 29.204048 0.573026 1.922221 0.019959 0.005695 -602565.000000 0 0 1
22.164871 16.139949 -9.822878 29.125047 0.629387 1.914807 0.024081 -0.005484 132296.000000 0 0 1
20.852371 15.824749 -9.415878 27.819109 0.649169 1.916085 0.042340 0.002146 21317.900000 0 0 1
20.752371 15.767549 -8.017978 27.268379 0.649741 1.869247 0.052149 -0.006268 -1471440.000000 0 0 1
19.528471 15.010449 -7.615678 25.781259 0.655327 1.870666 0.075129 0.000904 -576085.000000 0 0 1
18.324271 15.749549 -7.781678 25.384675 0.709978 1.882363 0.064463 -0.007651 -26930.900000 0 0 1
17.158171 14.984249 -7.904978 24.112636 0.717867 1.904808 0.065791 -0.017711 -51027.800000 0 1 0
16.282071 15.385249 -6.668178 23.372555 0.757086 1.860115 0.066249 -0.001775 -128746.000000 0 1 0
16.780071 14.764549 -5.448778 23.005475 0.721591 1.809916 0.078309 -0.002111 335855.000000 0 1 0
16.056771 15.178249 -4.344878 22.518372 0.757279 1.764962 0.064005 0.003285 -306548.000000 0 1 0
15.547471 14.079849 -3.426078 21.253329 0.735903 1.732705 0.045541 0.016345 12698.000000 0 1 0
16.669971 13.387649 -2.839978 21.568091 0.676628 1.702855 0.040980 0.010193 926971.000000 0 1 0
16.347171 12.447449 -1.890578 20.633547 0.650785 1.662551 0.030028 0.000641 -170027.000000 0 1 0
16.305471 13.128549 -0.472678 20.939212 0.677881 1.593372 0.024471 -0.006655 -171700.000000 0 1 0
15.347671 14.156249 -0.320978 20.881892 0.745038 1.586168 0.036356 -0.010210 231971.000000 0 1 0
15.644871 14.952549 0.780022 21.655234 0.762775 1.534769 0.038749 -0.005670 -236275.000000 0 1 0
14.470171 15.901549 1.157422 21.531018 0.832492 1.517014 0.041596 0.000752 48647.200000 0 1 0
14.338471 17.052249 0.374822 22.282537 0.871635 1.553974 0.046015 -0.002702 365464.000000 0 1 0
13.500971 17.952749 1.087922 22.489130 0.925999 1.522402 0.037667 -0.013649 62704.300000 0 1 0
13.340571 19.310849 0.477422 23.475682 0.966249 1.550458 0.033202 -0.018785 -97883.500000 0 1 0
12.691271 19.240449 -0.745078 23.061188 0.987692 1.603111 0.035172 -0.024312 -323583.000000 0 1 0
12.015371 20.366549 -1.193978 23.676804 1.037795 1.621246 0.034441 -0.034686 507197.000000 0 1 0
10.483971 20.491549 -0.921078 23.036180 1.097893 1.610791 0.030192 -0.031608 409303.000000 0 1 0
10.081071 20.671449 0.390522 23.001941 1.117052 1.553818 0.018713 -0.032999 562590.000000 0 1 0
8.645671 20.681649 0.388322 22.419389 1.174839 1.553475 0.015686 -0.022401 902612.000000 0 1 0
8.096371 20.691149 1.832022 22.294196 1.197816 1.488529 0.012209 -0.025268 -124416.000000 0 1 0
8.162371 21.945649 2.511922 23.548791 1.214715 1.463924 0.014884 -0.015986 62689.800000 0 1 0
7.096171 22.153749 3.416122 23.512000 1.260808 1.424988 0.010653 -0.007378 21708.800000 0 1 0
6.979371 23.575449 3.977622 24.906523 1.282973 1.410408 0.015326 -0.010308 -102716.000000 0 1 0
7.714571 23.755449 5.140222 25.500154 1.256791 1.367830 0.012355 -0.021927 -168214.000000 0 0 1
7.422071 24.953549 5.760522 26.663652 1.281694 1.353035 0.002525 -0.014744 -198671.000000 0 0 1
8.070371 25.154349 7.125622 27.361408 1.260337 1.307333 -0.004605 -0.011171 -365478.000000 0 0 1
7.576671 24.199049 8.034622 26.599907 1.267367 1.263949 0.027302 -0.029139 302617.000000 0 0 1
8.338971 24.175649 9.221922 27.185369 1.238643 1.224705 0.023409 -0.035997 -44519.100000 0 0 1
7.668371 23.284449 10.269222 26.578683 1.252649 1.174103 0.028728 -0.027592 60261.100000 0 0 1
6.387671 23.563449 10.794822 26.693944 1.306075 1.154482 0.022915 -0.029158 262784.000000 0 0 1
5.632871 22.420749 11.159522 25.670102 1.324656 1.121060 0.024028 -0.024225 309073.000000 0 0 1
4.311671 22.811449 11.858222 26.068566 1.383987 1.098552 0.031064 -0.030563 199228.000000 0 0 1
3.286471 23.302949 11.033622 25.991713 1.430688 1.132381 0.027523 -0.024085 -81477.300000 0 0 1
2.055571 23.449449 11.720922 26.296046 1.483360 1.108807 0.026577 -0.023204 422190.000000 0 0 1
0.886371 23.817849 10.770922 26.155083 1.533599 1.146357 0.030642 -0.008689 -89955.800000 0 0 1
0.949771 25.052149 10.168322 27.053780 1.532903 1.185476 0.034439 -0.008501 -103933.000000 0 0 1
-0.140529 25.350449 9.332222 27.013985 -1.565253 1.218069 0.037557 -0.008044 -23839.000000 0 0 1
-1.300929 26.184549 9.899222 28.023519 -1.521154 1.209757 0.031076 -0.012071 47296.400000 0 0 1
-2.192729 25.417849 10.707622 27.668182 -1.484742 1.173419 0.023496 -0.006692 -489847.000000 0 0 1
-3.465629 25.983349 10.580222 28.268111 -1.438200 1.187175 0.032801 -0.011617 -1008680.000000 0 0 1
-4.527929 24.951449 11.017322 27.648840 -1.391280 1.160945 0.034163 -0.005559 -199052.000000 0 0 1
-4.886129 24.777449 12.400622 28.134883 -1.376094 1.114355 0.025641 -0.010963 313647.000000 0 0 1
-5.428929 25.971949 13.009822 29.551157 -1.364733 1.114922 0.033275 -0.010655 -286056.000000 0 0 1
-5.870729 25.676449 14.469122 30.051639 -1.346018 1.068459 0.014662 -0.020295 -751932.000000 0 0 1
-7.033429 24.935149 14.485022 29.682430 -1.295870 1.061000 0.016012 -0.009458 -653115.000000 0 0 1
-7.452129 24.664349 15.817722 30.233502 -1.277376 1.020212 0.008148 -0.002875 -143412.000000 0 0 1
-8.752829 23.851549 15.938122 29.992201 -1.219083 1.010533 0.000957 -0.004704 -482058.000000 0 0 1
-9.874029 24.679249 15.855222 30.950765 -1.190209 1.032968 -0.005631 0.000388 -570095.000000 0 0 1
-11.015629 23.850249 15.722822 30.616753 -1.138118 1.031495 -0.008593 0.000087 -86157.400000 0 0 1
-12.346729 24.542749 15.425122 31.507501 -1.104695 1.059200 -0.005828 0.003338 -290013.000000 0 0 1
-12.836129 25.298949 16.503222 32.820106 -1.101264 1.043916 -0.011197 -0.000657 -472392.000000 0 0 1
-13.636729 26.299449 15.980022 33.659805 -1.092445 1.076115 -0.008225 0.007980 -301340.000000 0 0 1
-14.327229 27.153849 17.105322 35.145313 -1.085289 1.062485 0.003250 0.003830 481130.000000 0 0 1
-15.371029 26.552849 17.871122 35.506328 -1.046048 1.043357 0.007669 -0.000422 338944.000000 0 0 1
-15.857129 27.413449 18.878822 36.869441 -1.046378 1.033232 0.023863 -0.000452 -156851.000000 0 0 1
-17.128229 26.951149 19.640322 37.489771 -1.004662 1.019391 0.023751 -0.010868 -116460.000000 0 0 1
-18.232029 27.055449 18.800622 37.654583 -0.977819 1.048015 0.026666 -0.001113 -990250.000000 0 0 1
-19.415429 26.571749 19.390422 38.196927 -0.939776 1.038349 0.023875 -0.007304 21739.900000 0 0 1
-20.574129 26.746249 18.364622 38.417652 -0.915099 1.072391 0.016030 -0.003732 -247277.000000 0 0 1
-21.052929 28.098649 18.387822 39.634226 -0.927775 1.088361 0.018909 -0.003822 326572.000000 0 0 1
-21.716729 28.443249 17.150622 39.683480 -0.918704 1.123881 0.017963 -0.006672 109528.000000 0 0 1
-22.594429 29.724949 17.276522 41.140722 -0.920852 1.137420 0.006958 -0.005542 993820.000000 0 0 1
-23.904229 29.437549 17.833422 41.904802 -0.888762 1.131205 0.002309 -0.002884 569183.000000 0 0 1
-24.733529 30.461549 17.421222 42.931951 -0.888806 1.152957 -0.002721 -0.004006 -891948.000000 0 0 1
-26.131409 30.503949 18.024922 44.025439 -0.862450 1.148977 0.002540 -0.005070 -486630.000000 0 0 1
-26.993469 29.560349 17.435922 43.663177 -0.830755 1.160013 0.009370 -0.005480 972967.000000 0 0 1
-28.345589 29.517349 17.959422 44.691019 -0.805646 1.157252 0.028341 -0.009972 1080160.000000 0 0 1
-28.621019 28.399649 19.034722 44.587256 -0.781516 1.129724 0.020679 -0.009117 -392135.000000 0 0 1
-28.619239 27.114949 18.528122 43.561136 -0.758414 1.131463 0.019543 -0.012784 151385.000000 0 0 1
-28.914899 26.223849 19.527022 43.647064 -0.736632 1.106958 0.021083 -0.009570 -80651.100000 0 0 1
-28.842209 24.772449 19.020622 42.512719 -0.709636 1.106929 0.022160 -0.014606 170109.000000 0 0 1
-29.947079 24.519249 18.152822 42.749808 -0.686071 1.132244 0.030323 -0.015796 388832.000000 0 0 1
-29.675219 23.495649 17.189322 41.570867 -0.669696 1.144508 0.030159 -0.013660 -412424.000000 0 0 1
-30.242089 22.110049 17.467422 41.334599 -0.631296 1.134500 0.025728 -0.006839 -668992.000000 0 0 1
-31.545819 21.823049 17.085622 41.991697 -0.605194 1.151759 0.031128 -0.007457 -648150.000000 0 0 1
-31.822269 20.406749 16.962822 41.434642 -0.570215 1.149014 0.022570 -0.006512 1161230.000000 0 0 1
-33.232379 20.051349 16.318022 42.103746 -0.542892 1.172806 0.019712 -0.014212 816831.000000 0 0 1
-33.295069 20.264349 14.906122 41.730060 -0.546740 1.205524 0.016736 -0.016216 -466125.000000 0 0 1
-34.526431 19.845549 14.407822 42.349800 -0.521679 1.223656 0.032623 -0.018541 -199400.000000 0 0 1
-34.710359 20.154449 12.914122 42.163792 -0.526067 1.259509 0.036164 -0.014153 -12389.600000 0 0 1
-34.606376 21.542849 12.586122 42.662701 -0.556807 1.271325 0.039983 -0.018199 35183.400000 0 0 1
-34.566630 22.006349 11.211622 42.483312 -0.566923 1.303726 0.028766 -0.014581 12464.600000 0 0 1
-33.374149 21.570249 10.312622 41.054350 -0.573781 1.316882 0.026248 -0.009748 -223115.000000 0 0 1
-33.580229 20.383249 9.518822 40.419260 -0.545552 1.333061 0.013073 -0.005113 140398.000000 0 0 1
-32.350299 19.966649 8.970422 39.059921 -0.552972 1.339070 0.026669 -0.001815 154897.000000 0 0 1
-31.545999 18.887349 9.767622 38.043245 -0.539481 1.311138 0.013155 -0.006273 47656.500000 0 0 1
-31.069539 19.458549 10.988722 38.271444 -0.559527 1.279571 0.021806 -0.005197 54545.300000 0 0 1
-30.668589 18.396949 11.800522 37.659825 -0.540319 1.252083 0.015901 0.000122 -58660.700000 0 0 1
-30.371409 18.881249 13.274722 38.146327 -0.556207 1.215365 0.005655 0.002131 -113653.000000 0 0 1
-29.246369 19.721949 13.301622 37.699317 -0.593295 1.210198 0.022087 0.000396 -421582.000000 0 0 1
-29.507609 21.124149 13.407822 38.687186 -0.621310 1.216884 0.021600 -0.001525 -535736.000000 0 0 1
-28.279349 22.009949 13.523822 38.302131 -0.661371 1.209932 0.024338 -0.009354 -513608.000000 0 0 1
-27.679329 21.823149 14.760522 38.213454 -0.667645 1.174217 0.024115 -0.000969 250654.000000 0 0 1
-26.628349 22.704249 15.178622 38.143708 -0.706022 1.161534 0.036076 -0.007694 277339.000000 0 0 1
-26.118909 22.412049 16.605022 38.212879 -0.709165 1.121269 0.029815 -0.010526 -252640.000000 0 0 1
-25.239679 21.308249 16.773522 37.046375 -0.701138 1.100926 0.044226 -0.010453 245225.000000 0 0 1
-25.113549 20.983649 18.178822 37.436258 -0.696046 1.063754 0.031895 -0.005668 -491160.000000 0 0 1
-24.026929 19.954249 18.403522 36.251276 -0.693061 1.038323 0.042088 -0.010291 -312959.000000 0 0 1
-23.482829 19.883749 19.720422 36.547254 -0.702596 1.000850 0.041216 -0.017628 193652.000000 0 0 1
-22.398829 18.961749 19.679622 35.334728 -0.702488 0.980089 0.041995 -0.019756 74257.200000 0 0 1
-21.874229 18.859049 21.109322 35.773581 -0.711510 0.939637 0.044095 -0.029796 -240963.000000 0 0 1
-22.743529 18.103349 21.927022 36.411450 -0.672284 0.924541 0.055142 -0.020707 80932.100000 0 0 1
-22.600129 18.469249 23.300922 37.347181 -0.685152 0.897073 0.059275 -0.027959 -94602.300000 0 0 1
-23.510829 17.692149 24.267222 38.140127 -0.645106 0.881149 0.038517 -0.017448 -266363.000000 0 0 1
-23.002729 16.461849 24.712522 37.560974 -0.621151 0.852729 0.053083 -0.030513 -673744.000000 0 0 1
-23.859429 15.777749 25.544522 38.350128 -0.584264 0.841846 0.046491 -0.026941 -497889.000000 0 0 1
20.700671 25.808849 33.773279 47.278418 0.894791 0.775103 0.043715 -0.005895 -29757.200000 0 0 1
20.578671 24.698249 32.909595 46.005724 0.876135 0.773690 0.047435 -0.014530 -56836.000000 0 0 1
20.338771 23.478149 33.554667 45.725318 0.856924 0.746852 0.042598 -0.014720 -182532.000000 0 0 1
19.428171 22.518849 32.766345 44.251392 0.858946 0.737043 0.042195 -0.014181 -191078.000000 0 0 1
19.995771 21.891049 31.641065 43.361340 0.830615 0.752903 0.037570 -0.006058 -445613.000000 0 0 1
19.042371 21.085549 31.053285 42.089414 0.836271 0.741001 0.031551 -0.003962 -750464.000000 0 0 1
19.451871 20.432649 29.761195 41.007281 0.809984 0.758667 0.039150 -0.000453 -111185.000000 0 0 1
20.550571 19.540949 29.849995 41.172768 0.760221 0.759771 0.032847 -0.002989 83644.800000 0 0 1
20.660871 18.790749 28.668185 40.022851 0.738031 0.772318 0.038624 -0.006255 224344.000000 0 0 1
21.905571 17.867649 28.736085 40.309670 0.684221 0.777195 0.028397 0.002088 365507.000000 0 0 1
23.176971 18.477249 28.633725 41.212509 0.673046 0.802679 0.038503 -0.003166 386819.000000 0 0 1
24.134171 17.797249 29.445545 42.026663 0.635407 0.794503 0.027374 0.002801 -222991.000000 0 0 1
25.533071 18.384649 29.566235 43.175169 0.624045 0.816471 0.028578 -0.002939 -511002.000000 0 0 1
26.418971 17.896849 28.601895 42.852393 0.595413 0.840015 0.028115 0.003189 366980.000000 0 0 1
27.736171 18.420149 28.814495 44.032626 0.586238 0.857421 0.036757 -0.000637 976365.000000 0 0 1
28.831471 18.039649 27.783495 43.915888 0.559097 0.885823 0.041834 0.012009 116948.000000 0 0 1
28.848671 18.898749 26.661125 43.591560 0.579952 0.912700 0.035280 0.008747 329417.000000 0 0 1
29.868271 18.508949 25.745885 43.560824 0.554769 0.938457 0.033926 0.012323 -122081.000000 0 0 1
30.211171 19.669849 24.786025 43.748884 0.577133 0.968481 0.026077 0.011949 -19123.300000 0 0 1
29.146971 20.098549 23.949945 42.744560 0.603684 0.976044 0.034503 0.004561 243667.000000 0 0 1
29.493871 21.181249 23.099545 43.036295 0.622809 1.004221 0.010786 0.000270 -32554.800000 0 0 1
30.144071 20.782449 21.718545 42.570769 0.603602 1.035408 0.017629 0.009478 -120883.000000 0 0 1
29.319871 19.994449 20.858845 41.164599 0.598503 1.039423 0.033487 0.001720 39654.800000 0 0 1
29.918071 19.612849 19.657245 40.818649 0.580268 1.068345 0.032184 0.001874 -449631.000000 0 0 1
30.978671 18.515949 19.744845 41.138514 0.538727 1.070187 0.024755 -0.007990 -412865.000000 0 0 1
30.502771 17.222149 20.038845 40.355628 0.513990 1.051169 0.031108 -0.010029 958251.000000 0 0 1
31.600871 16.306549 20.365745 40.979045 0.476378 1.050682 0.019770 -0.004256 110644.000000 0 0 1
31.154371 14.823549 20.422445 40.092501 0.444109 1.036329 0.021416 -0.009701 249102.000000 0 0 1
30.449071 14.534449 21.642945 40.085074 0.445353 1.000448 0.017001 -0.020194 789899.000000 0 0 1
29.118571 15.046849 21.690045 39.303395 0.476953 0.986201 0.017243 -0.012844 -281844.000000 0 0 1
28.384371 14.571149 23.004145 39.334229 0.474271 0.946116 0.010916 -0.021804 30942.200000 0 0 1
27.999371 13.250449 23.006845 38.585672 0.442012 0.931970 0.014760 -0.021516 -105592.000000 0 0 1
27.251671 12.906249 24.147135 38.630415 0.442301 0.895561 0.017986 -0.003242 -125132.000000 0 0 1
26.636171 11.529649 24.080165 37.713031 0.408507 0.878235 0.019841 -0.003479 -718652.000000 0 0 1
25.662471 11.332949 23.106845 36.344524 0.415860 0.881788 0.039797 -0.001274 -313319.000000 0 0 1
25.316271 9.967249 23.120645 35.704675 0.375072 0.866428 0.029639 0.003283 -266186.000000 0 0 1
24.198571 9.548849 22.160945 34.173949 0.375846 0.865217 0.023483 -0.006703 -1209590.000000 0 0 1
22.920771 9.792349 22.595545 33.642391 0.403755 0.834377 0.023306 -0.000903 -389618.000000 0 0 1
21.955771 9.202849 21.703145 32.214512 0.396909 0.831583 0.030735 0.010555 604282.000000 0 0 1
20.448771 9.403449 21.993445 31.468853 0.431018 0.796944 0.020146 0.004868 249044.000000 0 0 1
20.097271 8.903449 23.255945 32.000167 0.417032 0.757226 0.031134 0.001083 -421327.000000 0 0 1
18.717171 8.924849 23.449945 31.303120 0.444938 0.724056 0.041982 0.001771 -520983.000000 0 0 1
18.254771 8.371049 24.807775 31.917657 0.429956 0.680524 0.032318 0.003461 -403043.000000 0 0 1
18.348471 6.923649 24.917465 31.709357 0.360822 0.666795 0.030424 0.002294 142974.000000 0 0 1
17.871771 6.496049 26.132205 32.318585 0.348634 0.629059 0.015544 -0.006031 -314562.000000 0 0 1
18.095071 4.936949 26.184095 32.208879 0.266351 0.621602 0.026280 -0.015127 651918.000000 0 0 1
19.466371 4.517749 26.200865 32.952010 0.228043 0.651588 0.039965 -0.017670 602803.000000 0 0 1
19.594771 3.129849 26.377065 33.007583 0.158391 0.644964 0.035439 -0.009557 238677.000000 0 0 1
21.007971 2.581649 26.023505 33.544337 0.122276 0.682823 0.045956 -0.018294 671612.000000 0 0 1
22.034271 3.185049 26.826695 34.861514 0.143555 0.692704 0.050768 -0.026062 -137372.000000 0 0 1
23.284571 2.790049 26.341945 35.268310 0.119255 0.727407 0.054413 -0.025509 -244279.000000 0 0 1
24.463671 3.216349 27.241785 36.755012 0.130725 0.735982 0.048384 -0.029143 -654265.000000 0 0 1
24.629471 2.281049 28.289045 37.577707 0.092351 0.718469 0.055128 -0.032957 -67278.100000 0 0 1
25.403871 2.684749 29.376515 38.929990 0.105292 0.715754 0.048640 -0.023323 342134.000000 0 0 1
26.938971 2.852149 29.213515 39.840587 0.105482 0.747692 0.050486 -0.020800 -473874.000000 0 0 1
27.321971 4.013149 28.475725 39.666892 0.145841 0.770057 0.045208 -0.011080 602198.000000 0 0 1
28.686171 4.023649 28.040905 40.315983 0.139355 0.801641 0.042913 -0.004661 518778.000000 0 0 1
29.033271 3.011149 26.957875 39.733170 0.103344 0.825115 0.034039 0.000816 -547390.000000 0 0 1
28.379871 3.147649 25.720395 38.429981 0.110460 0.837558 0.026848 0.006966 -85325.800000 0 0 1
28.812471 2.108749 24.902115 38.140800 0.073058 0.859390 0.019182 0.012657 -128816.000000 0 0 1
28.463871 2.326049 23.444045 36.948960 0.081538 0.883437 0.020846 0.006481 39925.700000 0 0 1
29.046271 3.469249 22.794145 37.084964 0.118876 0.908859 0.014413 0.012852 570409.000000 0 0 1
30.422271 3.234749 22.433745 37.937462 0.105930 0.938083 0.003986 0.013314 766381.000000 0 0 1
31.154771 4.504849 22.015445 38.413451 0.143601 0.960490 0.012430 0.013483 -768490.000000 0 0 1
30.839971 4.922949 20.698345 37.466795 0.158293 0.985502 0.006808 0.010509 -1020.570000 0 0 1
31.494871 6.108849 20.304545 37.967347 0.191584 1.006538 0.018810 0.011156 -13405.700000 0 0 1
33.058171 6.072549 20.192145 39.210218 0.181668 1.029822 0.018068 0.007671 121993.000000 0 0 1
33.805571 6.177749 21.359245 40.462310 0.180749 1.014694 0.025457 0.000058 -41024.300000 0 0 1
33.608871 7.373849 21.993645 40.836874 0.215980 1.002054 0.027014 -0.002289 -768112.000000 0 0 1
34.266871 7.399549 23.455245 42.179619 0.212673 0.981134 0.038147 -0.002596 401460.000000 0 0 1
33.680371 6.501649 24.393605 42.091410 0.190694 0.952634 0.031902 0.007686 35480.000000 0 0 1
34.575271 6.180849 25.409215 43.350668 0.176896 0.944520 0.032390 0.006307 -239578.000000 0 0 1
33.994371 5.100249 26.323985 43.296443 0.148921 0.917265 0.023513 0.011834 -35284.300000 0 0 1
33.989371 3.773249 25.868725 42.880131 0.110560 0.923189 0.023108 0.008772 -317877.000000 0 0 1
33.252871 2.957349 26.696365 42.745704 0.088702 0.896255 0.018823 0.012299 -371654.000000 0 0 1
33.307371 1.451249 26.327665 42.480972 0.043544 0.902370 0.016528 0.014583 -104323.000000 0 0 1
32.346171 1.097349 25.350075 41.110889 0.033912 0.906346 0.017312 0.010719 26279.500000 0 0 1
32.554171 -0.255951 24.920555 40.998458 -0.007862 0.917457 0.023719 0.009875 14327.000000 0 0 1
31.558171 -0.802451 23.863445 39.573047 -0.025422 0.923512 0.016200 0.020750 573089.000000 0 0 1
30.269371 -1.114251 24.365365 38.873479 -0.036795 0.893374 0.021933 0.017767 307451.000000 0 0 1
29.405571 -1.876851 23.494745 37.685716 -0.063740 0.897663 0.023485 0.010855 274451.000000 0 0 1
27.959871 -1.872651 23.992745 36.890554 -0.066877 0.862717 0.028673 0.014090 -430669.000000 0 0 1
27.345371 -0.643051 23.709845 36.198613 -0.023512 0.856623 0.019350 0.013549 -284239.000000 0 0 1
25.955071 -0.836351 23.544745 35.053105 -0.032212 0.834312 0.026670 0.014543 34863.300000 0 0 1
25.107571 0.448649 23.543645 34.422298 0.017867 0.817612 0.029674 0.011334 -344352.000000 0 0 1
25.194971 1.218349 22.346045 33.698912 0.048319 0.845832 0.023147 0.005990 537061.000000 0 0 1
24.237471 2.272649 22.544245 33.179254 0.093493 0.823759 0.027912 0.001847 331787.000000 0 0 1
24.223471 3.321449 21.439445 32.518585 0.136267 0.850911 0.016199 0.002752 -296414.000000 0 0 1
23.768171 2.815749 20.224645 31.335134 0.117918 0.869210 0.015206 0.006097 237483.000000 0 0 1
23.526371 3.903149 19.361345 30.717851 0.164408 0.888862 0.025054 0.010339 -89364.000000 0 0 1
23.086971 3.501149 17.891745 29.417355 0.150504 0.917001 0.025364 0.004157 238939.000000 0 0 1
24.228471 3.123549 17.138145 29.841102 0.128213 0.959031 0.028683 -0.008332 431350.000000 0 0 1
24.069271 3.307249 15.726045 28.940908 0.136550 0.996333 0.022598 -0.002573 -363496.000000 0 0 1
23.429771 2.138449 14.957245 27.879137 0.091018 1.004508 0.028474 0.007909 -903082.000000 0 0 1
22.050371 2.155049 14.844445 26.668720 0.097424 0.980480 0.026884 0.009079 -583696.000000 0 0 1
21.711271 0.992449 14.152945 25.935884 0.045679 0.993584 0.023553 0.006913 -365103.000000 0 0 1
20.225671 0.563149 14.263245 24.755505 0.027836 0.956768 0.033038 -0.006178 -13646.800000 0 1 0
19.245171 1.135549 13.424245 23.492050 0.058936 0.962540 0.042242 -0.005787 611789.000000 0 1 0
19.390371 0.934149 12.045045 22.846055 0.048139 1.015463 0.052101 -0.007337 -1264050.000000 0 1 0
19.170871 -0.452251 11.437145 22.327900 -0.023586 1.033011 0.052313 -0.007221 194303.000000 0 1 0
20.317771 -1.279051 11.583545 23.422773 -0.062869 1.053489 0.067863 -0.022711 509458.000000 0 1 0
21.408971 -1.016251 10.724945 23.966669 -0.047433 1.106835 0.060866 -0.020477 -596077.000000 0 1 0
22.556671 -1.971351 11.109745 25.221341 -0.087174 1.114652 0.066365 -0.025414 -164389.000000 0 0 1
23.171271 -1.709251 12.368845 26.321429 -0.073633 1.081601 0.066006 -0.026022 674266.000000 0 0 1
24.070271 -2.737251 12.828845 27.412584 -0.113233 1.083780 0.033038 -0.018127 359934.000000 0 0 1
24.552471 -2.567151 14.267545 28.512750 -0.104179 1.046745 0.026237 -0.010812 -163770.000000 0 0 1
25.165071 -1.322551 14.451245 29.049413 -0.052507 1.050115 0.024743 -0.007273 -2367.440000 0 0 1
25.428171 -1.188951 15.819845 29.971202 -0.046723 1.014747 0.020670 -0.008418 -682699.000000 0 0 1
26.524471 -0.227951 16.210145 31.086465 -0.008594 1.022243 0.026102 -0.001515 169313.000000 0 0 1
27.826471 -0.789051 15.997745 32.107054 -0.028349 1.049203 0.024021 -0.002220 955919.000000 0 0 1
28.897171 0.118849 16.293645 33.174440 0.004113 1.057386 0.021008 0.000415 660383.000000 0 0 1
30.267771 -0.617551 16.308145 34.387133 -0.020400 1.076683 0.018821 -0.000760 154657.000000 0 0 1
30.674471 -1.020051 15.022345 34.170667 -0.033242 1.115613 0.025790 0.001444 -106091.000000 0 0 1
31.879371 -1.737951 15.128745 35.329785 -0.054463 1.128280 0.023154 -0.002376 -212702.000000 0 0 1
32.301171 -2.462651 13.814645 35.217534 -0.076093 1.167702 0.021811 0.000746 -354973.000000 0 0 1
32.645771 -1.471051 12.911045 35.136952 -0.045031 1.194531 0.024202 0.002000 91204.700000 0 0 1
32.939171 -1.936951 11.615545 34.980875 -0.058736 1.232316 0.024127 -0.003373 -471955.000000 0 0 1
32.148171 -1.155151 10.578945 33.863747 -0.035917 1.253081 0.021599 0.006356 -519453.000000 0 0 1
32.658271 0.145349 10.309145 34.247076 0.004451 1.265031 0.032174 0.005637 -117768.000000 0 0 1
31.678771 1.010149 9.842845 33.188048 0.031876 1.269689 0.022753 -0.001806 -777624.000000 0 0 1
32.107971 2.321449 9.171545 33.472797 0.072176 1.293247 0.019667 -0.002185 -266719.000000 0 0 1
32.789871 2.077049 7.960445 33.806189 0.063260 1.333091 0.028271 -0.002689 325710.000000 0 0 1
33.279471 3.295549 7.370745 34.244878 0.098705 1.353862 0.017677 -0.001515 470401.000000 0 0 1
34.105771 3.068149 6.021445 34.768879 0.089718 1.396734 0.007995 -0.002773 362082.000000 0 0 1
34.611971 4.236649 5.457945 35.294856 0.121798 1.415535 0.009537 0.004015 5845.670000 0 0 1
35.246671 4.137249 4.208745 35.737350 0.116845 1.452754 0.008602 -0.009490 -318423.000000 0 0 1
-34.836889 5.489849 3.740045 35.464563 -0.156302 1.465141 0.008572 -0.005420 -182789.000000 0 0 1
34.862371 6.546449 3.647545 35.658736 0.185618 1.468327 0.026565 -0.007389 97871.400000 0 0 1
-35.295689 7.651149 2.847445 36.227527 -0.213470 1.492116 0.015449 -0.002801 -805358.000000 0 0 1
34.347571 8.827549 2.803245 35.574421 0.251562 1.491915 0.055959 0.017400 924296.000000 0 0 1
33.183571 8.665049 1.969745 34.352763 0.255421 1.513426 0.069103 -0.006429 918958.000000 0 0 1
32.225371 7.693249 2.404945 33.218133 0.234346 1.498334 0.063100 -0.011604 -181229.000000 0 0 1
30.904471 7.797649 1.581345 31.912228 0.247156 1.521223 0.103050 -0.019071 312222.000000 0 0 1
31.103471 7.472649 0.194745 31.989128 0.235783 1.564708 0.101370 -0.025451 -572359.000000 0 0 1
29.909171 7.376249 -0.498255 30.809346 0.241797 1.586969 0.110284 -0.032271 -828541.000000 0 0 1
30.005371 7.494349 -2.008955 30.992313 0.244759 1.635663 0.077732 -0.021105 -774241.000000 0 0 1
28.919471 6.852449 -2.611355 29.834729 0.232658 1.658436 0.059997 -0.022007 285213.000000 0 0 1
29.155871 6.672449 -3.983555 30.173748 0.224980 1.703203 0.064763 -0.022260 2665.480000 0 0 1
28.065371 5.905649 -4.818355 29.081924 0.207399 1.737246 0.036372 -0.007544 -19659.000000 0 0 1
28.021871 4.520749 -4.621255 28.757928 0.159951 1.732191 0.042496 -0.013022 -19008.400000 0 0 1
26.998071 4.018149 -5.386655 27.821887 0.147746 1.765639 0.019983 -0.011806 -1035570.000000 0 0 1
26.785671 2.485449 -5.323455 27.422414 0.092525 1.766165 0.017224 -0.001160 -676060.000000 0 0 1
26.456471 2.134649 -3.967955 26.837404 0.080511 1.719192 0.005051 -0.008837 517191.000000 0 0 1
26.230071 0.741649 -3.954055 26.536790 0.028267 1.720356 -0.001244 -0.007441 -253286.000000 0 0 1
26.342971 0.184449 -2.558155 26.467533 0.007002 1.667600 -0.013130 -0.000909 -1034700.000000 0 0 1
27.574371 0.355049 -1.972255 27.647094 0.012875 1.642194 0.027908 -0.011086 -574093.000000 0 0 1
27.502571 0.144649 -0.612255 27.509765 0.005259 1.593054 0.028776 -0.004930 292443.000000 0 0 1
28.854971 0.599649 0.026245 28.861213 0.020778 1.569887 0.052393 -0.011429 731982.000000 0 0 1
29.936471 -0.254851 -0.338455 29.939469 -0.008513 1.582101 0.057284 -0.018623 911591.000000 0 0 1
31.192771 0.270749 0.120245 31.194178 0.008680 1.566942 0.043805 -0.026227 470644.000000 0 0 1
-2.882329 -21.629051 -8.758178 23.512323 1.438315 1.952490 -0.004015 0.022681 237338.000000 0 1 0
-3.365629 -22.161051 -7.562078 23.656387 1.420077 1.896170 -0.003105 0.016423 -352003.000000 0 1 0
-2.479429 -23.067351 -7.009378 24.235957 1.463721 1.864202 0.002718 0.009268 -304205.000000 0 1 0
-3.153429 -23.663951 -5.796478 24.566763 1.438318 1.808990 0.000852 0.008952 -397298.000000 0 1 0
-3.184729 -22.774851 -4.707778 23.473379 1.431862 1.772724 0.001134 0.006253 59687.700000 0 1 0
-3.782829 -23.368351 -3.561778 23.939004 1.410310 1.720136 0.006235 0.003071 -65164.500000 0 1 0
-3.320929 -22.553051 -2.276578 22.909637 1.424597 1.670333 0.008613 -0.007896 -10169.200000 0 1 0
-1.982829 -22.828851 -1.948178 22.997466 1.484157 1.655611 0.019723 -0.005377 -687935.000000 0 1 0
-1.774929 -22.436151 -0.593778 22.514080 1.491851 1.597173 0.026993 -0.013604 -141555.000000 0 1 0
-0.294729 -22.580851 -0.193178 22.583601 1.557745 1.579350 0.027899 -0.013188 -300441.000000 0 1 0
0.451271 -21.562751 -0.748978 21.580474 -1.549871 1.605510 0.019509 -0.010932 -661230.000000 0 1 0
1.738571 -21.555251 -0.159478 21.625839 -1.490314 1.578171 0.024503 -0.006987 853016.000000 0 1 0
2.624971 -20.239151 -0.495378 20.414679 -1.441819 1.595064 0.026697 -0.010135 794093.000000 0 1 0
3.317471 -20.414151 -1.687078 20.750648 -1.409696 1.652189 0.022754 -0.009488 -342747.000000 0 1 0
4.340871 -19.447051 -1.886478 20.014738 -1.351182 1.665191 0.024990 -0.014152 171719.000000 0 1 0
5.242771 -19.787151 -3.094578 20.702522 -1.311790 1.720837 0.026131 -0.010093 -735417.000000 0 1 0
6.004271 -20.939051 -2.744478 21.955120 -1.291539 1.696128 0.026985 -0.007611 -115050.000000 0 1 0
6.654471 -21.649251 -3.806478 22.966526 -1.272586 1.737305 0.026583 -0.004176 1194400.000000 0 1 0
7.902671 -20.936751 -4.517678 22.830006 -1.209876 1.769994 0.031049 0.000544 809009.000000 0 1 0
7.664371 -19.856551 -5.431878 21.966577 -1.202428 1.820668 0.020265 -0.001118 -157238.000000 0 1 0
8.889871 -19.620051 -6.075078 22.380411 -1.145366 1.845692 0.022564 0.009613 -314696.000000 0 1 0
8.740471 -18.446151 -7.046478 21.594193 -1.128297 1.903197 0.015553 0.009530 -904644.000000 0 1 0
9.827871 -18.077951 -7.803578 22.006708 -1.072850 1.933283 0.021365 0.009061 -439493.000000 0 1 0
9.586671 -16.820751 -8.395078 21.102589 -1.052780 1.979938 0.015796 0.005846 168498.000000 0 1 0
10.225871 -16.698851 -9.770178 21.883246 -1.021331 2.033611 0.008073 0.002041 -74787.100000 0 1 0
9.411171 -17.344551 -10.759478 22.475986 -1.073651 2.069981 0.005452 0.000127 403944.000000 0 1 0
9.223671 -16.529551 -11.925178 22.372126 -1.061823 2.132983 -0.000920 0.001700 -180600.000000 0 1 0
8.817071 -17.379151 -13.106578 23.485272 -1.101297 2.162862 -0.000153 0.006706 -458929.000000 0 1 0
7.509871 -17.844251 -12.967978 23.302015 -1.172440 2.160985 0.004931 0.009466 -439138.000000 0 1 0
7.110371 -18.375551 -14.218778 24.297981 -1.201593 2.195903 0.001148 0.013071 211644.000000 0 1 0
5.800971 -19.211751 -14.199578 24.583951 -1.277552 2.186576 -0.003573 0.019038 234923.000000 0 1 0
5.913871 -20.430251 -13.502578 25.193028 -1.289031 2.136447 0.004132 0.010560 -92075.900000 0 0 1
4.669471 -21.069351 -13.269578 25.333835 -1.352698 2.122089 0.015043 0.000828 -7890.690000 0 0 1
4.569571 -22.598151 -12.935078 26.436219 -1.371277 2.082076 -0.001574 0.003575 -170858.000000 0 0 1
5.018371 -23.342351 -14.033878 27.694749 -1.359030 2.102189 0.009051 0.003274 -41908.500000 0 0 1
4.764371 -24.761451 -13.888478 28.787471 -1.380709 2.074244 -0.005911 0.008894 -194922.000000 0 0 1
3.381671 -25.243661 -14.345978 29.231579 -1.437628 2.083769 -0.000829 0.003114 -80819.400000 0 0 1
2.323371 -24.890451 -13.465478 28.394572 -1.477722 2.064882 0.006198 0.005809 -95035.000000 0 0 1
1.032571 -25.139761 -13.960478 28.774446 -1.529746 2.077353 0.003563 0.000126 -371330.000000 0 0 1
0.342171 -26.418951 -13.550378 29.693279 -1.557845 2.044679 -0.005744 0.005461 -1199180.000000 0 0 1
0.899471 -27.617651 -14.056578 31.002114 -1.538239 2.041381 -0.007346 0.011281 56908.800000 0 0 1
0.460871 -28.796451 -13.372278 31.753202 -1.554793 2.005489 -0.011250 0.020814 1404920.000000 0 0 1
-1.030629 -29.324891 -13.552378 32.321485 1.535666 2.003470 -0.008836 0.009500 1514920.000000 0 0 1
-2.085429 -28.580051 -12.998378 31.466270 1.497957 1.996640 -0.004137 0.006295 -104410.000000 0 0 1
-3.349729 -29.150471 -13.263078 32.200619 1.456386 1.995322 0.003841 -0.000939 228823.000000 0 0 1
-4.553729 -28.346431 -12.710378 31.397616 1.411512 1.987578 0.000602 -0.001818 43432.400000 0 0 1
-4.803229 -28.331321 -11.299278 30.877313 1.402855 1.945440 0.006661 -0.012578 74667.900000 0 0 1
-5.177629 -29.520951 -10.649178 31.807222 1.397174 1.912193 -0.000484 -0.005872 -485684.000000 0 0 1
-5.726529 -29.453541 -9.201278 31.384196 1.378766 1.868350 0.010730 -0.007879 14330.500000 0 0 1
-7.096529 -29.122101 -9.124378 31.332280 1.331773 1.866291 0.010292 -0.009891 -201837.000000 0 0 1
-7.397729 -27.747621 -9.015378 30.098736 1.310249 1.874993 0.007733 -0.004228 -626165.000000 0 0 1
-8.912029 -27.522091 -8.844778 30.250948 1.257638 1.867511 0.013188 0.004504 423545.000000 0 0 1
-9.860529 -27.643291 -9.899378 30.973848 1.228160 1.896108 -0.002089 -0.000143 214128.000000 0 0 1
-9.926029 -28.967251 -10.371478 32.329479 1.240672 1.897376 0.012186 -0.012945 -1570180.000000 0 0 1
-10.989629 -29.326501 -11.361178 33.315041 1.212259 1.918801 0.009662 -0.011809 -1336170.000000 0 0 1
-10.984229 -28.625701 -12.580578 33.141439 1.204403 1.960163 0.014971 -0.007381 -117307.000000 0 0 1
-11.829829 -29.294021 -13.481678 34.348802 1.186992 1.974137 0.020419 -0.007177 -235292.000000 0 0 1
-12.121829 -28.413251 -14.676178 34.200026 1.167549 2.014323 0.018859 -0.009698 -132673.000000 0 0 1
-13.108229 -27.384521 -14.594378 33.685806 1.124355 2.018892 0.019321 -0.017452 264413.000000 0 0 1
-12.793429 -26.284191 -13.689778 32.279104 1.117817 2.008771 0.020866 -0.008606 79845.900000 0 0 1
-13.708229 -25.055651 -13.974578 31.796069 1.070174 2.025845 0.044238 -0.002936 86279.800000 0 0 1
-13.392629 -24.333751 -15.100378 31.615113 1.067667 2.068753 0.039850 -0.009048 98240.500000 0 0 1
-14.387329 -23.354551 -15.331978 31.424510 1.018666 2.080477 0.051511 -0.006964 -83880.600000 0 0 1
-14.044929 -22.560451 -16.616978 31.342590 1.013963 2.129600 0.040987 -0.006633 198101.000000 0 0 1
-13.200829 -21.450251 -16.332478 30.018744 1.019119 2.146084 0.035341 -0.002974 163299.000000 0 0 1
-12.706429 -20.814151 -17.497278 30.013946 1.022713 2.193178 0.012706 0.000876 -664739.000000 0 0 1
-13.068529 -19.329051 -17.632178 29.245382 0.976286 2.217933 0.012877 0.001490 -715996.000000 0 0 1
-12.009229 -18.454251 -17.474278 28.109275 0.993889 2.241650 0.024745 0.004765 -710463.000000 0 0 1
-12.362129 -17.104651 -17.526678 27.433114 0.944974 2.263848 0.027690 0.009032 175105.000000 0 0 1
-11.185829 -16.091651 -17.662078 26.382058 0.963345 2.304296 0.039356 0.000049 486110.000000 0 0 1
-10.406729 -15.862351 -16.514878 25.152642 0.990169 2.287080 0.039254 -0.002396 -572020.000000 0 0 1
-9.120229 -15.427151 -16.780978 24.551513 1.036887 2.323344 0.036409 -0.001334 -615301.000000 0 1 0
-8.326129 -14.812551 -15.581278 23.054551 1.058711 2.312905 0.031279 -0.002363 71066.500000 0 1 0
-7.991329 -15.704951 -14.506478 22.824214 1.100101 2.259548 0.033717 -0.001081 114341.000000 0 1 0
-6.836029 -16.487251 -14.822378 23.200509 1.177746 2.263840 0.034056 0.002082 -289883.000000 0 1 0
-6.343129 -17.245251 -13.607778 22.864942 1.218336 2.208233 0.024660 -0.000949 -857856.000000 0 1 0
-5.777529 -16.527151 -12.534078 21.532062 1.234497 2.192120 0.022247 -0.004862 236837.000000 0 1 0
-5.519929 -17.243551 -11.359778 21.374149 1.260989 2.131135 0.011976 -0.010757 162018.000000 0 1 0
-4.437429 -18.380351 -11.520378 22.141526 1.333907 2.118006 0.016942 -0.003769 130366.000000 0 1 0
-3.116129 -17.902951 -11.701678 21.613773 1.398466 2.142897 0.018108 0.000953 181141.000000 0 1 0
-2.203929 -19.009251 -11.739278 22.450380 1.455372 2.121045 0.011595 0.010848 423686.000000 0 1 0
-0.752329 -18.737451 -12.146778 22.342835 1.530667 2.145581 0.013677 0.019663 -619358.000000 0 1 0
-0.578529 -18.357351 -13.491678 22.789305 1.539292 2.204357 0.023817 0.010777 83885.900000 0 1 0
0.668971 -17.774551 -13.856378 22.547315 -1.533178 2.232608 0.025423 0.010527 500711.000000 0 1 0
1.835671 -18.748551 -14.116978 23.540750 -1.473197 2.213901 0.024234 0.005323 -468656.000000 0 1 0
1.656271 -19.662551 -15.161778 24.884506 -1.486760 2.225956 0.031540 0.006384 -114124.000000 0 1 0
1.108471 -20.881751 -14.737178 25.582428 -1.517763 2.184705 0.027483 0.002035 -712637.000000 0 0 1
0.968171 -21.890651 -15.914978 27.081811 -1.526598 2.198964 0.036064 0.000392 -59649.000000 0 0 1
2.160071 -22.428951 -16.426378 27.884577 -1.474785 2.200722 0.025044 0.003081 -179209.000000 0 0 1
3.025471 -21.516851 -17.145578 27.678497 -1.431103 2.238844 0.022981 0.008910 203475.000000 0 0 1
4.441471 -22.150951 -17.150778 28.364423 -1.372911 2.220133 0.015816 0.001224 -105787.000000 0 0 1
4.365771 -23.414751 -17.771278 29.717484 -1.386459 2.211809 0.020621 0.004055 -445983.000000 0 0 1
5.647471 -23.885251 -18.043178 30.462361 -1.338618 2.204720 0.015527 0.000860 -192495.000000 0 0 1
6.100071 -23.536351 -19.524378 31.182880 -1.317200 2.247370 0.020094 0.007135 -74030.300000 0 0 1
6.190471 -22.151651 -19.882178 30.402608 -1.298290 2.283607 0.026335 -0.013593 116186.000000 0 0 1
6.530771 -22.095351 -21.270278 31.357299 -1.283407 2.316270 0.040873 -0.008721 174976.000000 0 0 1
6.927971 -20.690051 -21.813578 30.852993 -1.247685 2.356067 0.033020 -0.012973 628890.000000 0 0 1
5.709171 -20.055651 -22.181478 30.444076 -1.293466 2.387068 0.043949 -0.020333 264221.000000 0 0 1
5.936971 -18.727351 -22.553178 29.909984 -1.263798 2.424980 0.048292 -0.023452 322549.000000 0 0 1
4.630171 -18.037851 -23.014378 29.605137 -1.319529 2.461283 0.046774 -0.023836 -1101340.000000 0 0 1
4.036471 -18.534651 -24.187178 30.738347 -1.356365 2.476522 0.045584 -0.022980 -402045.000000 0 0 1
3.067671 -17.668851 -24.679678 30.507137 -1.398890 2.513212 0.041570 -0.015101 781886.000000 0 0 1
1.693671 -17.542251 -23.905678 29.699841 -1.474547 2.506319 0.034492 -0.005522 175933.000000 0 0 1
1.925671 -16.895051 -22.691778 28.356088 -1.457308 2.498498 0.028567 -0.008136 701453.000000 0 0 1
0.724871 -16.155251 -22.273878 27.525319 -1.525957 2.513610 0.023866 -0.003375 1222770.000000 0 0 1
0.993471 -15.219451 -21.071378 26.011952 -1.505612 2.515060 0.012870 -0.002289 209469.000000 0 0 1
1.771071 -13.995951 -21.221778 25.483077 -1.444924 2.554906 0.010058 -0.001043 180825.000000 0 0 1
1.906071 -13.277851 -19.978278 24.063791 -1.428218 2.550301 0.009013 -0.004533 -1061100.000000 0 1 0
3.095871 -12.371051 -19.882578 23.620843 -1.325581 2.571292 0.007501 -0.006634 -427766.000000 0 1 0
4.304871 -13.124051 -19.573278 23.955914 -1.253841 2.527079 0.011599 -0.006968 772293.000000 0 1 0
5.461771 -12.304051 -19.499078 23.694612 -1.153027 2.537351 0.016824 -0.013789 301564.000000 0 1 0
5.502571 -11.283651 -18.277578 22.173609 -1.117070 2.539751 0.025968 -0.008862 -982645.000000 0 1 0
4.764171 -10.090451 -18.179578 21.331000 -1.129679 2.591089 0.007664 -0.002025 -193374.000000 0 1 0
5.094271 -9.073351 -19.093578 21.744931 -1.059202 2.642611 0.015511 -0.008290 -403423.000000 0 1 0
4.605171 -9.162151 -20.572978 22.986954 -1.105047 2.679194 0.017845 -0.012077 -711995.000000 0 1 0
3.224471 -9.115151 -20.726178 22.870453 -1.230786 2.705106 0.005293 -0.012598 -890916.000000 0 1 0
2.855571 -9.121251 -22.094078 24.072802 -1.267394 2.733306 0.015633 -0.015038 513543.000000 0 1 0
1.309971 -8.949951 -22.173378 23.947366 -1.425462 2.754264 0.017143 -0.021319 62250.200000 0 1 0
0.949971 -7.647451 -21.856678 23.175425 -1.447209 2.802621 0.015364 -0.018475 -772347.000000 0 1 0
-0.440229 -7.565851 -21.875578 23.151173 1.512676 2.808090 0.012150 -0.017508 -545547.000000 0 1 0
-0.980329 -6.571051 -22.940278 23.882967 1.422700 2.859693 0.031028 -0.016702 -68424.500000 0 1 0
-0.557729 -6.881551 -24.268978 25.231926 1.489926 2.864432 0.035650 -0.016854 182483.000000 0 0 1
-1.357829 -6.135951 -25.188558 25.960683 1.353015 2.897090 0.043994 -0.018887 603861.000000 0 0 1
-0.724329 -4.729251 -25.560798 26.004708 1.418818 2.956557 0.041077 -0.017770 233221.000000 0 0 1
-1.220229 -4.296751 -26.796338 27.166059 1.294093 2.976422 0.035640 -0.015977 -193652.000000 0 0 1
-0.758329 -3.042351 -27.274288 27.453920 1.326517 3.027136 0.029195 -0.011890 -551494.000000 0 0 1
-1.240829 -1.807751 -26.510638 26.601157 0.969261 3.059073 0.029870 -0.015073 241646.000000 0 0 1
-2.623129 -1.532951 -26.409478 26.583665 0.528868 3.027054 0.016673 -0.011900 157483.000000 0 0 1
-3.305829 -1.060051 -27.576368 27.794033 0.310303 3.016360 0.023692 -0.009007 449913.000000 0 0 1
-4.841429 -1.269751 -27.406748 27.860035 0.256491 2.960958 0.022156 -0.009611 526273.000000 0 0 1
-5.441529 -0.282251 -26.592468 27.144967 0.051823 2.939488 0.027680 -0.009530 242769.000000 0 0 1
-6.854929 -0.427051 -26.485918 27.361949 0.062218 2.887866 0.028731 -0.016518 62224.600000 0 0 1
-7.491029 0.778049 -25.732158 26.811655 -0.103493 2.856864 0.021441 -0.009118 -798840.000000 0 0 1
-7.637729 1.987049 -26.497528 27.647826 -0.254520 2.852120 0.025808 -0.011436 400501.000000 0 0 1
-8.585929 2.000449 -27.559658 28.935354 -0.228908 2.831995 0.025333 -0.009096 -121934.000000 0 0 1
-10.033429 1.555749 -27.318588 29.144387 -0.153832 2.785750 0.017726 -0.004368 -1151170.000000 0 0 1
-10.965829 2.223149 -28.143328 30.285949 -0.200023 2.763184 0.023801 -0.015084 174911.000000 0 0 1
-12.235329 1.703049 -27.755998 30.380900 -0.138303 2.722848 -0.003489 -0.004307 517273.000000 0 0 1
-13.433429 2.315449 -28.559478 31.645886 -0.170688 2.696267 -0.017422 0.004153 414275.000000 0 0 1
-14.698029 1.696249 -28.299498 31.933852 -0.114898 2.659855 -0.007951 0.008247 1761220.000000 0 0 1
-15.882129 2.341249 -28.845978 33.012330 -0.146360 2.633747 0.005061 0.008692 1013070.000000 0 0 1
-16.254829 3.737449 -28.214758 32.775914 -0.226001 2.607711 -0.006002 0.013778 -711790.000000 0 0 1
-15.393729 4.874749 -28.411088 32.679045 -0.306680 2.624778 0.001377 0.006333 177615.000000 0 0 1
-15.197429 5.401849 -29.745788 33.837165 -0.341517 2.644738 -0.011439 0.003242 582066.000000 0 0 1
-16.532729 5.847449 -30.475498 35.160770 -0.339958 2.619439 -0.019126 0.008403 510946.000000 0 0 1
-17.121029 6.904649 -29.803238 35.057621 -0.383335 2.587012 -0.017757 0.012743 -320374.000000 0 0 1
-18.006029 7.569049 -30.655698 36.349407 -0.397936 2.574305 -0.021856 0.009939 -529485.000000 0 0 1
-18.709729 8.728249 -29.914628 36.347232 -0.436497 2.537510 -0.005352 -0.002768 316142.000000 0 0 1
-17.747229 9.677749 -29.408218 35.685659 -0.499236 2.539391 -0.007094 -0.004661 658315.000000 0 0 1
-18.365329 10.878949 -29.343868 36.286353 -0.534785 2.512693 0.010534 -0.010894 -282880.000000 0 0 1
-8.648929 24.856149 31.331835 40.918406 -1.235941 0.698644 -0.010544 -0.000150 -374675.000000 0 0 1
-9.441329 26.011549 31.456075 41.895394 -1.222617 0.721487 -0.003256 0.000922 23258.300000 0 0 1
-8.967929 26.886649 32.433835 43.072837 -1.248855 0.718187 0.010210 -0.002973 234090.000000 0 0 1
-7.603229 27.605749 32.232665 43.114164 -1.302038 0.726337 0.007879 -0.006675 261123.000000 0 0 1
-7.717229 28.637249 31.191035 43.041007 -1.307567 0.760224 0.014596 0.012556 117277.000000 0 0 1
-6.383529 28.833249 30.810565 42.677823 -1.352916 0.764203 0.009072 0.014525 -166900.000000 0 0 1
-6.032429 29.937449 29.796825 42.667222 -1.371958 0.797701 0.019128 0.001333 -199557.000000 0 0 1
-6.488529 31.177049 30.190755 43.881557 -1.365607 0.812059 0.019456 0.004613 756359.000000 0 0 1
-5.768729 32.140449 29.370525 43.919408 -1.393202 0.838288 0.029532 0.011284 502403.000000 0 0 1
-5.970429 33.546049 30.036985 45.422504 -1.394663 0.848273 0.027360 0.006830 135893.000000 0 0 1
-5.230329 33.655949 31.267835 46.235881 -1.416624 0.828112 0.024250 0.000371 35891.600000 0 0 1
-5.686929 -34.468394 32.151785 47.477875 1.407280 0.826852 0.026769 0.004575 899461.000000 0 0 1
-6.937929 34.396449 33.101650 48.238675 -1.371762 0.814537 0.018738 0.004210 993759.000000 0 0 1
-6.741929 33.346949 34.068922 48.147316 -1.371310 0.784704 0.023474 0.005417 -103292.000000 0 0 1
-6.596929 32.005149 33.514820 46.809103 -1.367522 0.772756 0.021968 0.009308 -285697.000000 0 0 1
-6.481729 31.030549 -34.377431 46.762330 -1.364875 2.396688 0.028371 0.002334 -160226.000000 0 0 1
-5.272829 31.085449 -33.663158 46.122837 -1.402772 2.388912 0.017495 0.003728 -256309.000000 0 0 1
-5.436429 30.445849 -32.442048 44.821769 -1.394098 2.380092 0.020805 0.000190 -524135.000000 0 0 1
-4.067729 30.205549 -31.755508 44.015155 -1.436933 2.376716 0.001084 0.000188 294443.000000 0 0 1
-3.418529 29.050249 -32.253358 43.541732 -1.453659 2.404976 -0.000024 0.002381 -19192.300000 0 0 1
-2.955129 29.024149 -33.603878 44.501176 -1.469330 2.426639 0.003450 0.004332 -1021940.000000 0 0 1
-2.414529 27.645849 -33.929388 43.832936 -1.483680 2.456028 0.007704 -0.008551 -805664.000000 0 0 1
-1.228729 27.396249 -33.183278 43.048742 -1.525976 2.450940 0.015720 0.005699 473426.000000 0 0 1
-0.585429 26.133349 -33.380198 42.397314 -1.548398 2.477244 0.029754 0.002593 529563.000000 0 0 1
-0.041829 25.806349 34.243086 42.878413 -1.569175 0.645816 0.016409 0.004344 -220630.000000 0 0 1
-1.106729 25.468249 33.353342 41.979780 -1.527368 0.652597 0.021380 0.000806 402310.000000 0 0 1
-0.757929 25.338949 31.984755 40.812514 -1.540894 0.670196 0.026632 0.001492 -119353.000000 0 0 1
-0.370629 26.613249 31.194295 41.005931 -1.556871 0.706365 0.014273 0.002666 -171718.000000 0 0 1
-1.520929 27.423349 30.959215 41.386305 -1.515392 0.725671 0.005429 -0.002111 455549.000000 0 0 1
-1.228029 28.712149 30.439795 41.862592 -1.528052 0.756656 -0.000879 0.000188 -737409.000000 0 0 1
-2.311629 29.655049 30.844585 42.850367 -1.493003 0.767252 0.004266 -0.006093 -712889.000000 0 0 1
-2.132129 30.144249 32.188735 44.151289 -1.500183 0.753856 0.011681 0.004719 226045.000000 0 0 1
-2.941029 31.299149 32.427235 45.164277 -1.477106 0.769894 0.011376 0.008028 -17730.300000 0 0 1
-2.412029 32.136649 33.566744 46.532874 -1.495881 0.765039 0.023435 0.006833 1021550.000000 0 0 1
-1.224029 32.888549 33.213426 46.757743 -1.533596 0.780829 -0.017793 0.005342 787539.000000 0 0 1
-0.468229 33.398649 34.302043 47.878170 -1.556778 0.772104 -0.016037 0.010162 1095020.000000 0 0 1
0.885971 34.069449 33.830443 48.020945 1.544797 0.789087 -0.000365 0.003824 813046.000000 0 0 1
0.594571 -33.782094 33.273183 47.420334 -1.553198 0.793065 0.009064 -0.007934 448253.000000 0 0 1
1.725171 -33.176994 32.670205 46.594328 -1.518844 0.793769 0.017147 -0.012880 -19554.100000 0 0 1
1.498871 -31.680594 32.324955 45.285862 -1.523520 0.775890 0.019082 -0.005995 -169046.000000 0 0 1
1.392671 -30.876594 33.454406 45.546688 -1.525722 0.745855 0.007663 0.004361 96712.800000 0 0 1
1.480971 -29.532294 33.134409 44.409894 -1.520691 0.728605 0.025663 -0.011777 -108552.000000 0 0 1
1.164171 -28.555394 34.279863 44.630424 -1.530050 0.694955 0.024288 -0.014238 -1221930.000000 0 0 1
-0.173229 -28.647494 -34.513522 44.854120 1.564749 2.448794 0.020140 -0.004595 -1415180.000000 0 0 1
-0.550329 -27.812194 -33.421108 43.483232 1.551012 2.447442 0.019408 0.009946 895422.000000 0 0 1
-2.101629 -27.791094 -33.164388 43.320184 1.495318 2.442714 -0.008660 0.014758 838213.000000 0 0 1
-2.423929 -27.491894 -31.807188 42.111481 1.482855 2.426922 -0.009998 0.008520 -121130.000000 0 0 1
-3.605129 -26.739594 -31.694018 41.623474 1.436781 2.436337 0.010043 0.002163 -473536.000000 0 0 1
-3.751829 -26.138194 -30.311388 40.200269 1.428232 2.424941 0.005427 -0.002961 -486432.000000 0 0 1
-4.292829 -27.066594 -29.377288 40.175290 1.413504 2.390916 0.002841 -0.001312 53884.400000 0 0 1
-4.608629 -26.589094 -28.077878 38.943377 1.399174 2.376030 0.004633 -0.000616 188354.000000 0 0 1
-3.415929 -25.971194 -27.288328 37.826238 1.440019 2.376636 0.012914 0.000912 204502.000000 0 0 1
-3.003229 -24.740694 -27.878168 37.394031 1.449999 2.412118 0.017443 0.005695 -92803.500000 0 0 1
-1.923029 -24.307394 -27.084148 36.443086 1.491848 2.408622 0.028059 0.006532 -784997.000000 0 0 1
-0.989129 -23.288094 -27.692268 36.196345 1.528348 2.441926 0.034263 0.013731 130453.000000 0 0 1
-0.313829 -23.684694 -28.906178 37.371518 1.557547 2.455112 0.026327 0.006198 1003350.000000 0 0 1
0.831871 -24.543394 -28.772528 37.827616 -1.536915 2.435067 0.029525 0.010387 392766.000000 0 0 1
1.722871 -24.970294 -29.947288 39.029782 -1.501909 2.445406 0.009040 0.002756 877862.000000 0 0 1
2.907071 -24.153194 -30.087788 38.692413 -1.451013 2.461659 0.021443 -0.000556 883582.000000 0 0 1
3.631771 -24.489594 -31.252228 39.870186 -1.423571 2.471638 0.036484 -0.003604 159161.000000 0 0 1
4.675371 -23.378394 -31.709818 39.672672 -1.373413 2.496903 0.042696 -0.004045 571073.000000 0 0 1
5.855771 -23.278094 -30.895428 39.123997 -1.324353 2.481083 0.022373 -0.009429 1033600.000000 0 0 1
6.924971 -24.186594 -31.087198 39.992004 -1.291942 2.461215 0.014953 -0.006949 44619.500000 0 0 1
7.619871 -24.184594 -32.454588 41.185644 -1.265571 2.478362 -0.003440 -0.000291 -1213760.000000 0 0 1
6.927571 -25.007894 -33.338008 42.246997 -1.300557 2.480174 0.000390 -0.000924 -276021.000000 0 0 1
7.097071 -24.826594 34.274501 42.912347 -1.292357 0.645649 -0.003358 -0.000017 -268016.000000 0 0 1
6.515971 -23.569394 33.643327 41.591437 -1.301074 0.628517 -0.012092 0.008623 -231764.000000 0 0 1
5.143171 -23.415594 33.910757 41.529287 -1.354583 0.615386 0.002529 0.004229 -15452.900000 0 0 1
4.595671 -22.221194 33.345691 40.334064 -1.366857 0.597512 0.022856 0.001899 599407.000000 0 0 1
3.107671 -21.947094 33.745209 40.374146 -1.430133 0.581186 0.026443 -0.004528 892149.000000 0 0 1
2.157071 -22.831894 33.175105 40.330335 -1.476600 0.604855 0.042008 0.001002 69198.800000 0 0 1
1.583071 -23.755394 34.092738 41.582925 -1.504254 0.609606 0.041854 0.002098 177467.000000 0 0 1
0.233971 -24.357294 33.644454 41.536511 -1.561191 0.626649 0.043462 -0.008299 -145491.000000 0 0 1
0.355571 -25.397094 32.679735 41.389659 -1.556797 0.660700 0.053955 -0.009535 -59128.100000 0 0 1
-0.897629 -25.644194 32.078555 41.078754 1.535807 0.674685 0.048209 -0.024912 102213.000000 0 0 1
-0.735729 -26.733894 31.023675 40.959868 1.543283 0.711449 0.046752 -0.039113 570048.000000 0 0 1
-1.973529 -26.999594 30.360225 40.676973 1.497831 0.728200 0.039487 -0.041071 609003.000000 0 0 1
-1.861329 -28.211894 29.682925 40.993310 1.504915 0.761079 0.037877 -0.040246 164085.000000 0 0 1
-3.188529 -28.642794 28.991355 40.878784 1.459932 0.782429 0.030534 -0.020255 139380.000000 0 0 1
-4.221829 -28.896594 29.905925 41.799537 1.425721 0.773513 0.028716 -0.014292 -1205660.000000 0 0 1
-5.349929 -29.289294 29.254875 41.741252 1.390130 0.794191 0.023525 -0.003397 -1274480.000000 0 0 1
-6.510729 -29.586294 30.212175 42.784505 1.354190 0.786754 0.009427 0.003068 -369379.000000 0 0 1
-7.657029 -30.166794 29.625515 42.969020 1.322223 0.810050 0.009304 0.008378 -507127.000000 0 0 1
-8.772129 -30.237094 30.425625 43.782996 1.288436 0.802489 -0.001306 0.012254 -681861.000000 0 0 1
-8.771429 -31.467994 31.416745 45.323111 1.298955 0.804915 -0.004290 0.012275 -481929.000000 0 0 1
-8.765729 -32.754594 30.802095 45.809065 1.309306 0.833348 0.008704 0.012045 837641.000000 0 0 1
-10.027129 -33.111894 30.225245 45.940246 1.276749 0.852736 0.000029 0.012351 335348.000000 0 0 1
-9.917129 -34.520994 29.607255 46.547159 1.291051 0.881402 0.016023 0.014252 -214889.000000 0 0 1
-9.985929 33.623449 30.651815 46.580992 -1.282101 0.852593 0.016569 0.015244 343390.000000 0 0 1
-9.640029 32.325949 30.138965 45.235543 -1.280979 0.841604 0.018659 0.007592 -49754.700000 0 0 1
-10.211429 31.144049 31.040655 45.141415 -1.253964 0.812575 0.020705 0.020652 1296760.000000 0 0 1
-11.656329 31.096249 31.089035 45.490381 -1.212160 0.818359 0.010061 0.028108 741831.000000 0 0 1
-12.187629 29.823249 31.413425 44.997419 -1.182845 0.798033 0.011262 0.025759 -83748.600000 0 0 1
-12.267429 29.519949 32.949905 45.908751 -1.176945 0.770265 0.011990 0.012647 -391033.000000 0 0 1
-13.187829 30.349449 33.621388 47.174205 -1.160879 0.777447 0.007319 0.018341 233984.000000 0 0 1
-13.187429 29.986049 -34.074309 47.266584 -1.156469 2.375891 0.004570 0.017116 -115817.000000 0 0 1
-14.541429 30.403249 -33.480228 47.505119 -1.124671 2.352897 -0.003954 0.014637 -190979.000000 0 0 1
-14.630429 30.026849 -32.112298 46.334229 -1.117405 2.336518 -0.005625 0.016606 227894.000000 0 0 1
-15.917929 30.302049 -31.568238 46.563379 -1.087107 2.315784 0.000075 0.007658 431653.000000 0 0 1
-15.936429 29.993049 -30.080608 45.369546 -1.082394 2.295633 0.016506 0.001405 -299819.000000 0 0 1
-16.056229 28.614449 -29.828008 44.342973 -1.059453 2.308602 0.010408 0.000009 132902.000000 0 0 1
-16.065029 28.331849 -28.432488 43.234074 -1.054972 2.288479 0.009730 -0.004079 -246035.000000 0 0 1
-16.452129 26.900949 -28.098668 42.235870 -1.021904 2.298665 -0.002961 -0.005970 469281.000000 0 0 1
-17.858329 26.718849 -28.262838 42.797252 -0.981609 2.292133 -0.006457 -0.001999 323312.000000 0 0 1
-18.222829 25.380949 -28.162118 42.063868 -0.948110 2.304343 -0.007834 -0.001366 616814.000000 0 0 1
-19.754429 25.174049 -28.415108 42.794726 -0.905446 2.296934 -0.000646 0.000144 809936.000000 0 0 1
-20.632829 25.590449 -27.357748 42.767173 -0.892243 2.264892 0.007226 -0.003432 421898.000000 0 0 1
-21.917929 25.052149 -27.633558 43.262216 -0.852027 2.263663 0.024223 -0.012526 226259.000000 0 0 1
-22.960529 25.339249 -26.535588 43.282801 -0.834607 2.230743 0.049298 -0.023411 -303299.000000 0 0 1
-23.538629 26.687149 -26.592298 44.423207 -0.848004 2.212564 0.033962 -0.005917 2306160.000000 0 0 1
-24.833929 26.864149 -25.868158 44.805894 -0.824649 2.186261 0.023361 0.001118 2223870.000000 0 0 1
-24.816929 26.480249 -24.380478 43.720605 -0.817812 2.162340 0.035212 0.002676 -849992.000000 0 0 1
-24.514229 25.098549 -24.053678 42.537795 -0.797175 2.171795 0.022352 -0.004534 119434.000000 0 0 1
-25.616959 24.177149 -24.039778 42.645915 -0.756491 2.169663 0.017120 0.003378 210343.000000 0 0 1
-26.602969 24.274649 -22.852378 42.652171 -0.739667 2.136233 0.015297 -0.003280 -245544.000000 0 0 1
-26.103659 24.037749 -21.543278 41.512977 -0.744220 2.116422 0.009887 -0.008601 -344464.000000 0 0 1
-25.258099 25.033649 -21.061978 41.331127 -0.780935 2.105506 0.022008 -0.001344 -169368.000000 0 0 1
-24.236829 24.614349 -19.953978 39.892998 -0.793126 2.094612 0.024172 0.005785 59694.500000 0 0 1
-24.751929 24.412949 -18.666578 39.459995 -0.778504 2.063547 0.012887 0.010419 -570564.000000 0 0 1
-23.725129 24.052549 -17.806378 38.189972 -0.792251 2.055852 0.026807 0.009013 -567821.000000 0 0 1
-24.022529 24.057549 -16.276178 37.692991 -0.786127 2.017294 0.023609 0.008470 -279626.000000 0 0 1
-24.330829 25.382149 -15.815178 38.553373 -0.806543 1.993486 0.028972 -0.002320 -18591.700000 0 0 1
-24.514329 25.381349 -14.387078 38.107128 -0.802773 1.957938 -0.006164 0.004386 139078.000000 0 0 1
-24.464529 26.755649 -13.668578 38.745425 -0.830099 1.931336 0.003101 0.000372 401033.000000 0 0 1
-23.166029 27.301049 -13.527578 38.275417 -0.867151 1.932029 0.025026 -0.007766 -7128.950000 0 0 1
-23.222629 28.365249 -12.610078 38.767150 -0.884757 1.902101 0.018490 -0.005762 -1181450.000000 0 0 1
-21.912029 28.781149 -12.032778 38.121901 -0.920082 1.891927 0.021338 -0.010226 -1243050.000000 0 0 1
-21.307629 27.670649 -11.406878 36.739580 -0.914590 1.886494 0.021928 -0.005370 -732311.000000 0 0 1
-20.195629 28.079749 -10.702178 36.205971 -0.947285 1.870871 0.017931 -0.000954 -755067.000000 0 0 1
-19.337729 26.946049 -10.109678 34.673375 -0.948325 1.866663 0.021012 0.009734 195870.000000 0 0 1
-18.612929 26.152849 -11.081478 33.958972 -0.952262 1.903204 0.014363 0.006518 -98971.300000 0 0 1
-17.986729 25.101349 -10.489278 32.613266 -0.949040 1.898243 0.012632 0.018134 -821017.000000 0 0 1
-17.585329 24.008849 -11.487878 31.900470 -0.938621 1.939189 0.010865 0.010772 -200233.000000 0 0 1
-17.216329 22.805649 -10.889178 30.578977 -0.924157 1.934887 0.004540 0.019756 -8214.470000 0 0 1
-16.724629 21.882049 -11.803878 29.964459 -0.918201 1.975699 0.021710 0.019512 -59316.200000 0 0 1
-16.541129 20.486449 -11.173978 28.603519 -0.891549 1.972134 0.021578 0.017945 -291026.000000 0 0 1
-17.716829 19.805249 -10.812678 28.688812 -0.840999 1.957238 0.007836 0.019832 -285209.000000 0 0 1
-17.506129 18.521949 -10.218178 27.457937 -0.813586 1.952109 0.028333 0.010573 -1231520.000000 0 0 1
-18.747629 17.664449 -10.340578 27.756691 -0.755659 1.952545 0.030908 0.013387 -733665.000000 0 0 1
-19.062729 17.148249 -11.636878 28.157894 -0.732577 1.996841 0.009709 0.013191 75601.500000 0 0 1
-19.461729 18.105849 -12.582578 29.409215 -0.749322 2.012903 -0.000498 0.026370 -883808.000000 0 0 1
-20.269329 17.613149 -13.783378 30.183609 -0.715396 2.045024 0.004179 0.019305 -784624.000000 0 0 1
-19.583429 17.038349 -14.831278 29.896201 -0.716013 2.089889 0.004502 0.022788 -669122.000000 0 0 1
-20.350729 16.707149 -15.927978 30.773064 -0.687392 2.114834 0.009206 0.020438 -490200.000000 0 0 1
-19.466229 16.444549 -17.152478 30.717499 -0.701452 2.163245 0.012440 0.008129 -647500.000000 0 0 1
-18.874129 17.522549 -17.733478 31.268974 -0.748281 2.173810 -0.005896 0.011448 118543.000000 0 0 1
-18.042629 17.128349 -18.839478 31.206453 -0.759409 2.218936 -0.009446 0.011782 -205674.000000 0 0 1
-17.351929 18.379249 -19.387378 31.855245 -0.814142 2.225102 -0.018428 0.009250 -93010.400000 0 0 1
-16.356529 18.914549 -18.521578 31.118243 -0.857796 2.208311 -0.014324 0.011487 361817.000000 0 0 1
-15.629229 19.948149 -19.128678 31.750713 -0.906202 2.217382 -0.005279 0.005517 -47683.400000 0 0 1
31.986021 31.728449 1.690922 45.085022 0.781356 1.533282 0.043969 -0.004447 -720510.000000 0 0 1
33.342341 31.483349 1.536422 45.883260 0.756729 1.537305 0.043442 -0.003513 -626122.000000 0 0 1
33.754571 31.804449 0.219322 46.378251 0.755661 1.566067 0.035340 0.000226 -264923.000000 0 0 1
35.177437 31.475049 -0.235978 47.203670 0.729908 1.575795 0.010167 0.004802 -650213.000000 0 0 1
-34.485613 32.348449 0.244122 47.283605 -0.753432 1.565633 -0.009731 0.009081 -436157.000000 0 0 1
-33.396589 32.301049 -0.655078 46.466322 -0.768724 1.584895 0.005299 0.007578 -475830.000000 0 0 1
-32.383039 33.396849 -0.332178 46.520115 -0.800809 1.577937 -0.001023 0.010104 -711819.000000 0 0 1
-31.613519 33.119949 0.767122 45.792293 -0.808665 1.554043 0.005786 0.019459 -337026.000000 0 0 1
-31.383209 34.316149 1.487122 46.526502 -0.830010 1.538828 -0.011764 0.010341 -144258.000000 0 0 1
-30.691529 34.177749 2.838222 46.023298 -0.839089 1.509088 -0.002964 0.009659 -123977.000000 0 0 1
-30.329919 -33.763394 3.544722 45.524013 0.838917 1.492853 -0.004893 0.013798 118493.000000 0 0 1
-29.726799 -34.079994 4.776022 45.474597 0.853517 1.465576 0.000656 0.008700 -400070.000000 0 0 1
-29.450709 -32.858794 5.713822 44.493734 0.840040 1.442022 0.002127 0.008237 -646698.000000 0 0 1
-30.530229 -32.219994 6.325422 44.835631 0.812320 1.429244 0.001601 0.006975 -283871.000000 0 0 1
-31.006719 -32.894394 7.516022 45.825193 0.814930 1.406037 -0.004343 0.001728 -1216290.000000 0 0 1
-32.044329 -32.116394 8.322322 46.125511 0.786521 1.389375 -0.006748 -0.001242 -341311.000000 0 0 1
-33.347219 -31.955794 7.848522 46.848789 0.764094 1.402474 -0.001070 0.001423 -181214.000000 0 0 1
-34.073989 -33.146694 7.564622 48.134847 0.771604 1.412987 -0.000940 0.001387 -600065.000000 0 0 1
35.063705 -32.929494 7.184922 48.635769 -0.754020 1.422524 -0.003105 0.005669 198102.000000 0 0 1
34.354111 -32.819394 8.395422 48.247286 -0.762555 1.395898 -0.004616 0.002738 -260340.000000 0 0 1
32.974991 -32.710494 8.105722 47.149010 -0.781371 1.398021 0.010922 0.003866 -113686.000000 0 0 1
32.190951 -32.685494 9.459922 46.841103 -0.793021 1.367440 0.022358 -0.007930 339331.000000 0 0 1
30.774661 -32.794094 9.257722 45.915550 -0.817155 1.367780 0.019982 -0.008592 712315.000000 0 0 1
30.002431 -32.702694 10.431222 45.589718 -0.828434 1.339945 0.025959 -0.007503 43212.600000 0 0 1
29.978221 -31.393494 11.277222 44.848867 -0.808455 1.316619 0.024087 -0.003806 -608604.000000 0 0 1
29.243621 -30.270494 10.792822 43.450859 -0.802651 1.319777 0.035336 -0.008806 284012.000000 0 0 1
29.760531 -29.610794 9.618722 43.069805 -0.782876 1.345568 0.038335 -0.013602 84496.500000 0 0 1
29.173851 -28.178694 9.334822 41.620803 -0.768048 1.344590 0.039336 -0.012724 211561.000000 0 0 1
29.782831 -27.655294 8.144322 41.450721 -0.748375 1.373028 0.035265 -0.013005 240077.000000 0 0 1
29.261351 -26.354894 7.944622 40.173674 -0.733187 1.371727 0.037040 -0.010578 169280.000000 0 0 1
29.210671 -25.881494 6.460422 39.558211 -0.725042 1.406747 0.020565 0.001145 528486.000000 0 0 1
30.522961 -25.796194 5.926322 40.400693 -0.701666 1.423576 0.031092 -0.006642 -80559.600000 0 0 1
30.468381 -25.333994 4.562322 39.886692 -0.693646 1.456163 0.022121 -0.006812 -490093.000000 0 0 1
31.843611 -25.016694 4.023622 40.694472 -0.665905 1.471761 0.028451 -0.006568 -698056.000000 0 0 1
32.786891 -26.034494 3.948722 42.051961 -0.671104 1.476757 0.020048 -0.004223 -219690.000000 0 0 1
34.082311 -25.488594 3.727722 42.721988 -0.642126 1.483430 0.019547 -0.008908 455485.000000 0 0 1
35.145936 -26.618294 3.693322 44.242638 -0.648198 1.487220 0.021692 -0.008204 -266754.000000 0 0 1
35.201239 -27.316394 4.970922 44.833276 -0.659939 1.459692 0.014094 -0.002122 -283438.000000 0 0 1
-35.045409 -28.638094 4.809622 45.513224 0.685124 1.464923 0.012487 -0.005198 -1094020.000000 0 0 1
35.046388 -29.567694 5.890822 46.229856 -0.700809 1.443024 0.008997 -0.000610 165548.000000 0 0 1
33.701081 -29.956894 5.739822 45.454635 -0.726649 1.444182 0.008189 0.001962 -128047.000000 0 0 1
32.738141 -28.944494 5.997522 44.108274 -0.723973 1.434401 0.011013 0.003632 -568689.000000 0 0 1
31.289511 -29.480994 5.891022 43.392011 -0.755647 1.434613 0.020087 0.004193 -145817.000000 0 0 1
30.981971 -29.718594 4.502722 43.166559 -0.764588 1.466296 0.006991 -0.001619 475294.000000 0 0 1
29.814631 -29.015294 4.020722 41.796718 -0.771812 1.474450 0.009425 0.000513 446651.000000 0 0 1
28.540531 -29.843494 4.146722 41.501702 -0.807712 1.470712 0.015458 -0.004098 -588688.000000 0 0 1
28.507791 -31.066394 3.418922 42.302529 -0.828320 1.489887 0.016744 -0.003468 -275868.000000 0 0 1
27.311921 -31.812194 3.581422 42.080676 -0.861367 1.485585 0.023660 -0.000601 -228611.000000 0 0 1
27.312361 -33.260494 3.029722 43.144000 -0.883282 1.500515 0.023211 0.000977 -456673.000000 0 0 1
27.321701 -33.394094 1.636222 43.177749 -0.885080 1.532892 0.015381 0.002523 246517.000000 0 0 1
27.268921 34.380549 1.221122 43.898831 0.900246 1.542976 0.013050 0.010698 -144838.000000 0 0 1
26.993541 34.327749 -0.277878 43.670617 0.904436 1.577159 0.001198 0.001229 66761.700000 0 0 1
28.066391 -34.401194 -1.107478 44.411608 -0.886462 1.595736 -0.003975 0.006454 213039.000000 0 0 1
27.677431 34.519549 -2.437778 44.312326 0.894965 1.625838 -0.000461 0.009469 -149144.000000 0 0 1
28.665221 -34.011994 -3.468678 44.615494 -0.870499 1.648621 -0.002535 0.008740 192761.000000 0 0 1
28.565191 -32.591694 -3.558778 43.483945 -0.851142 1.652729 -0.012495 0.006363 239084.000000 0 0 1
29.508361 -32.177094 -4.560678 43.896566 -0.828635 1.674880 0.002030 -0.002204 152452.000000 0 0 1
29.823051 -30.689494 -4.578578 43.037457 -0.799716 1.677384 0.002350 0.004382 -818393.000000 0 0 1
28.725581 -29.853094 -4.707678 41.695664 -0.804644 1.683943 -0.007820 -0.014545 -724903.000000 0 0 1
29.033331 -28.486094 -4.821778 40.959021 -0.775884 1.688792 -0.000131 -0.013890 118298.000000 0 0 1
29.941231 -27.983994 -5.996778 41.419108 -0.751622 1.716090 0.030183 -0.015985 -221073.000000 0 0 1
31.303081 -28.124594 -5.664578 42.461313 -0.731964 1.704601 0.031006 -0.011256 -343309.000000 0 0 1
32.209261 -27.459194 -6.522478 42.825069 -0.705958 1.723697 0.036086 -0.012100 129512.000000 0 0 1
32.422621 -28.085094 -7.931878 43.622397 -0.713835 1.753644 0.041195 -0.000457 -894260.000000 0 0 1
31.264781 -28.037594 -8.738778 42.894748 -0.731033 1.775959 0.037786 -0.002033 -179912.000000 0 0 1
31.135111 -29.097194 -9.670778 43.698578 -0.751577 1.793950 0.025951 0.002647 126539.000000 0 0 1
30.979121 -30.590094 -9.115778 44.480975 -0.779080 1.777195 0.022815 0.004702 -410671.000000 0 0 1
32.192011 -31.088794 -8.637778 45.579051 -0.767966 1.761461 0.031049 0.006029 -695270.000000 0 0 1
32.102541 -32.454694 -8.206878 46.381387 -0.790853 1.748676 0.025644 0.007712 934219.000000 0 0 1
33.370441 -32.911194 -7.385078 47.447575 -0.778470 1.727079 0.019202 0.010697 800331.000000 0 0 1
33.314351 -34.269194 -6.839378 48.280438 -0.799526 1.712934 0.013379 0.008350 -261445.000000 0 0 1
32.525121 -34.316194 -5.681778 47.621080 -0.812188 1.690393 0.029592 0.010779 -166561.000000 0 0 1
32.384441 33.424949 -5.061478 46.814504 0.801208 1.679126 0.014245 0.008733 480023.000000 0 0 1
31.502331 32.569049 -5.833578 45.685560 0.802046 1.698836 0.020606 -0.002096 575900.000000 0 0 1
31.602791 31.255849 -5.284178 44.761446 0.779879 1.689124 0.021676 0.008409 1032080.000000 0 0 1
30.386001 30.358849 -5.794878 43.342235 0.784951 1.704898 0.020682 -0.002602 811192.000000 0 0 1
30.511281 30.017049 -7.119678 43.389530 0.777233 1.735629 0.007295 0.004462 513174.000000 0 0 1
29.261941 29.515349 -7.611978 42.253511 0.789709 1.751935 -0.001084 -0.001865 615899.000000 0 0 1
29.257131 29.156349 -9.134778 42.302678 0.783673 1.788449 -0.005989 0.004450 -536019.000000 0 0 1
30.034261 28.011249 -9.412278 42.134046 0.750560 1.796086 0.000675 0.006387 -88095.300000 0 0 1
30.428901 27.976449 -10.741778 42.708143 0.743433 1.825043 -0.001974 0.009115 -3080.570000 0 0 1
31.588691 28.863249 -11.225178 44.237282 0.740344 1.827351 0.011558 0.005340 -1832130.000000 0 0 1
32.815721 28.546849 -10.703278 44.792346 0.715942 1.812084 0.016923 -0.000272 -292080.000000 0 0 1
33.920971 29.272349 -11.256578 46.197546 0.711969 1.816936 0.017960 -0.000552 471627.000000 0 0 1
34.138381 30.668549 -10.598778 47.099077 0.731908 1.797772 0.010163 -0.005052 -742953.000000 0 0 1
34.653427 30.473749 -9.296778 47.073766 0.721309 1.769597 0.020867 0.001702 -57004.400000 0 0 1
34.439321 31.598749 -8.501278 47.505994 0.742411 1.750717 0.016349 0.000077 -1299610.000000 0 0 1
35.251165 31.549949 -7.199478 47.852653 0.730048 1.721821 0.009894 0.010540 -84846.000000 0 0 1
-34.011459 31.760749 -7.374678 47.115925 -0.751192 1.727965 0.005494 0.007555 -440327.000000 0 0 1
-33.329149 30.669449 -7.941378 45.983832 -0.743863 1.744366 0.009685 0.007693 -1692770.000000 0 0 1
-31.970879 31.019249 -8.571078 45.362918 -0.770292 1.760884 0.022425 0.001840 84664.500000 0 0 1
-30.995699 31.387849 -7.532178 44.751136 -0.791684 1.739914 0.014268 0.000181 405281.000000 0 0 1
-29.768629 31.867249 -8.000478 44.336221 -0.819434 1.752240 0.018677 -0.008736 -273352.000000 0 0 1
-29.815179 33.138049 -8.799478 45.436835 -0.838132 1.765692 0.017291 0.001234 -987382.000000 0 0 1
-30.051679 34.327949 -8.101478 46.337301 -0.851723 1.746537 0.006656 0.001517 25529.400000 0 0 1
-28.948959 -34.273794 -7.372578 45.465262 0.869423 1.733674 0.026884 -0.005095 182297.000000 0 0 1
-29.122469 -32.906194 -6.672878 44.446182 0.846322 1.721500 0.017088 -0.007635 -399673.000000 0 0 1
-30.044459 -32.927994 -5.633978 44.929545 0.831157 1.696523 0.012899 -0.008135 -509420.000000 0 0 1
-29.509349 -33.277394 -4.397878 44.693713 0.845340 1.669356 0.016094 -0.012215 40682.700000 0 0 1
-30.642349 -33.432894 -3.345778 45.474236 0.828922 1.644438 0.012352 -0.005736 105590.000000 0 0 1
-31.331909 -32.208994 -3.228378 45.050308 0.799201 1.642519 -0.005656 0.001243 -157236.000000 0 0 1
-31.878889 -32.111494 -1.937878 45.289811 0.789033 1.613598 0.009538 0.001777 -43139.900000 0 0 1
-32.675129 -30.850494 -1.603078 44.966508 0.756683 1.606454 0.023881 0.002633 152570.000000 0 0 1
-33.513719 -30.898194 -0.472778 45.586086 0.744814 1.581168 0.017089 0.005278 -350488.000000 0 0 1
-34.193324 -29.712694 -0.267678 45.300102 0.715400 1.576705 0.031725 -0.004236 -166923.000000 0 0 1
-35.307218 -29.664294 0.843722 46.122466 0.698763 1.552502 0.033112 0.003428 111470.000000 0 0 1
34.144071 -30.194494 0.261022 45.580622 -0.724088 1.565070 0.016190 0.003481 -365605.000000 0 0 1
33.005101 -30.113794 1.062522 44.691232 -0.739623 1.547019 0.019532 -0.003017 -449913.000000 0 0 1
32.320811 -28.735394 1.175822 43.263613 -0.726742 1.543615 -0.003436 0.006017 -631220.000000 0 0 1
31.291471 -28.695094 0.163322 42.456934 -0.742143 1.566950 -0.001887 0.007306 -110377.000000 0 0 1
30.729601 -27.410594 0.246122 41.178994 -0.728374 1.564819 0.001728 0.005569 -482278.000000 0 0 1
29.444891 -27.420594 -0.612078 40.240094 -0.749815 1.586008 -0.001465 0.000106 -134667.000000 0 0 1
28.298931 -28.104194 -0.143078 39.883526 -0.781946 1.574384 0.002698 0.008860 172094.000000 0 0 1
28.369591 -29.516594 0.043722 40.939771 -0.805210 1.569728 0.002722 0.008857 -1149470.000000 0 0 1
27.880711 -30.293294 -1.232678 41.189042 -0.826846 1.600728 -0.009799 0.007883 -111343.000000 0 0 1
26.496201 -30.234994 -1.478378 40.229207 -0.851207 1.607553 -0.002682 0.008003 -262561.000000 0 0 1
26.186791 -30.846394 -2.705678 40.553282 -0.866917 1.637565 -0.006524 0.005827 -885881.000000 0 0 1
24.680331 -30.932994 -2.826278 39.673123 -0.897359 1.642096 -0.013931 0.007430 -355983.000000 0 0 1
24.002431 -29.724894 -3.195878 38.339270 -0.891507 1.654251 0.002480 0.013574 -595226.000000 0 0 1
22.626331 -29.903394 -3.258078 37.640123 -0.923054 1.657463 0.003422 0.013859 -451010.000000 0 0 1
21.765431 -28.651194 -3.507378 36.151439 -0.921136 1.667968 0.009435 0.009273 71945.000000 0 0 1
21.734931 -28.139494 -4.838478 35.883829 -0.913113 1.706046 0.016584 0.005537 -28995.900000 0 0 1
21.078531 -26.879294 -4.799278 34.493970 -0.905769 1.710383 0.022108 -0.006771 -214660.000000 0 0 1
20.507831 -26.359094 -6.112178 33.951902 -0.909604 1.751808 0.024323 -0.019745 -33053.300000 0 0 1
19.177731 -26.764594 -6.399178 33.542187 -0.949060 1.762753 0.026596 -0.015378 -117272.000000 0 0 1
18.698331 -26.219194 -7.593078 33.086682 -0.951296 1.802350 0.041848 -0.013168 148821.000000 0 0 1
17.163131 -26.322994 -7.776978 32.372124 -0.993002 1.813406 0.039263 -0.006254 321160.000000 0 0 1
16.553331 -25.569594 -6.751178 31.199283 -0.996263 1.788911 0.023598 -0.008423 550376.000000 0 0 1
15.147631 -25.795894 -6.566378 30.626723 -1.039834 1.786874 0.024611 -0.007844 915840.000000 0 0 1
14.489831 -24.795594 -5.564478 29.253035 -1.041948 1.762181 0.011535 -0.000340 -173335.000000 0 0 1
14.709031 -25.169094 -4.209478 29.454347 -1.041920 1.714203 0.007436 0.000753 214837.000000 0 0 1
14.155231 -24.245794 -3.285078 28.266956 -1.042357 1.687276 0.003339 0.007108 -46349.000000 0 0 1
14.160031 -24.901594 -1.880078 28.707674 -1.053755 1.636334 0.012739 -0.001288 59267.600000 0 0 1
13.363031 -26.065994 -1.870678 29.351423 -1.097071 1.634573 0.016248 0.000532 691794.000000 0 0 1
14.255431 -27.154094 -1.665878 30.713796 -1.087363 1.625062 0.018289 -0.008950 299415.000000 0 0 1
13.513231 -28.469794 -2.009378 31.578064 -1.127632 1.634471 0.010324 -0.000771 355029.000000 0 0 1
12.478331 -28.820494 -1.110678 31.425518 -1.162197 1.606147 0.036476 -0.005871 -6068.500000 0 0 1
11.746631 -29.972794 -1.453278 32.225203 -1.197284 1.615909 0.041105 -0.006919 -313528.000000 0 0 1
12.424631 -31.299994 -1.050778 33.692212 -1.192919 1.601989 0.036030 -0.006946 -173041.000000 0 0 1
13.592031 -31.556194 -1.801378 34.406128 -1.164087 1.623177 0.031701 -0.004100 -296264.000000 0 0 1
14.144831 -32.855594 -1.685778 35.810726 -1.164264 1.617888 0.030342 0.002109 -49173.400000 0 0 1
15.576531 -32.845094 -2.251078 36.421090 -1.127966 1.632643 0.021254 0.007596 326292.000000 0 0 1
16.541831 -32.149594 -1.462178 36.185170 -1.095595 1.611216 0.021883 0.015446 312344.000000 0 0 1
17.721031 -31.791994 -2.161878 36.461480 -1.062285 1.630123 0.019346 0.020025 641758.000000 0 0 1
18.585931 -30.766294 -1.343778 35.969534 -1.027367 1.608164 0.020895 0.012047 93100.400000 0 0 1
17.959431 -29.525094 -1.362478 34.585093 -1.024313 1.610201 0.030986 0.003356 76990.500000 0 0 1
18.632231 -28.568094 -0.557478 34.111681 -0.992873 1.587140 0.018777 0.006397 -309638.000000 0 0 1
18.079431 -27.137794 -0.653278 32.615218 -0.983111 1.590828 0.013720 -0.003215 -450116.000000 0 0 1
18.468631 -26.323794 -1.766978 32.204885 -0.959001 1.625691 0.010921 -0.007777 442695.000000 0 0 1
17.766531 -26.595094 -3.014978 32.125359 -0.981845 1.664785 0.013092 -0.005287 -4318.560000 0 0 1
31.956501 -29.601094 13.948422 45.738399 -0.747153 1.260899 0.014101 -0.005188 47015.900000 0 0 1
32.476591 -30.513694 14.879922 46.981129 -0.754246 1.248526 0.017627 0.003369 -351269.000000 0 0 1
31.697121 -30.615294 16.019122 46.889401 -0.768039 1.222139 0.026405 0.001369 -131626.000000 0 0 1
32.465091 -31.193094 17.259222 48.216926 -0.765419 1.204725 0.012533 0.008965 -636688.000000 0 0 1
31.638781 -31.489094 18.329322 48.254943 -0.783027 1.181169 0.000776 0.011022 -201392.000000 0 0 1
32.256951 -31.667094 19.618822 49.276910 -0.776171 1.161314 0.001427 0.010020 162689.000000 0 0 1
33.116521 -32.983094 19.814422 50.766128 -0.783380 1.169830 0.001445 0.008076 652106.000000 0 0 1
34.182451 -33.052694 18.844622 51.147241 -0.768597 1.193467 0.005886 0.007897 323571.000000 0 0 1
34.777664 -34.333894 18.907422 52.400313 -0.778977 1.201642 0.011825 0.000585 -8565.910000 0 0 1
-34.665287 -34.489094 17.914622 52.077955 0.782850 1.219627 0.014891 -0.000689 -313776.000000 0 0 1
-33.602729 -33.688894 18.341722 50.995134 0.786679 1.202876 0.014303 0.000030 -868150.000000 0 0 1
-32.664259 -33.699794 17.302922 50.020206 0.801001 1.217579 0.025782 -0.001598 -821196.000000 0 0 1
-31.311059 -33.062294 17.813522 48.896004 0.812596 1.197900 0.009545 -0.002992 -69417.800000 0 0 1
-30.384859 -33.129294 16.792522 47.987275 0.828581 1.213292 0.012198 -0.008836 -755011.000000 0 0 1
-30.609959 -32.288194 15.669722 47.170300 0.812074 1.232167 0.015669 -0.004441 -1810690.000000 0 0 1
-29.413899 -32.176194 14.738722 46.018636 0.830218 1.244774 0.000206 -0.004835 -886404.000000 0 0 1
-28.277989 -31.797994 15.451522 45.271477 0.843924 1.222488 -0.008727 0.000938 -770621.000000 0 0 1
-27.230259 -31.646794 14.506822 44.197901 0.860271 1.236373 -0.009734 0.002723 -507335.000000 0 0 1
-26.051859 -30.876994 15.057322 43.113931 0.869953 1.214031 0.011214 -0.004445 -808415.000000 0 0 1
-25.166649 -30.557194 14.033322 42.000434 0.881835 1.230121 0.015429 0.001279 -376220.000000 0 0 1
-23.981429 -30.043494 14.658922 41.141274 0.897139 1.206484 0.011231 -0.006599 1155520.000000 0 0 1
-22.700329 -30.083494 13.735022 40.111998 0.924372 1.221308 0.030961 -0.006578 898510.000000 0 0 1
-22.076929 -31.343794 13.486022 40.641075 0.957158 1.232551 0.035573 0.001095 228873.000000 0 0 1
-20.984629 -31.228294 12.590422 39.674673 0.979128 1.247872 0.028641 -0.009521 21487.700000 0 0 1
-20.350529 -32.532494 12.231322 40.275457 1.011805 1.262231 0.034730 -0.011176 -808705.000000 0 0 1
-21.050329 -33.223194 11.322622 40.927970 1.006034 1.290493 0.033373 -0.005835 -328981.000000 0 0 1
-20.684129 34.557049 11.392122 41.854549 -1.031444 1.295135 0.034823 -0.005537 100983.000000 0 0 1
-21.606029 33.711849 10.490522 41.392757 -1.000843 1.314563 0.016363 0.006119 -218758.000000 0 0 1
-21.426429 33.911849 9.080522 41.128594 -1.007303 1.348178 0.011574 0.006376 57786.500000 0 0 1
-22.649229 33.716749 8.401522 41.477612 -0.979283 1.366829 0.009941 0.007411 -346429.000000 0 0 1
-22.545529 33.988649 6.885022 41.363422 -0.985111 1.403566 0.011770 0.006252 31807.200000 0 0 1
-21.769229 33.160749 5.988822 40.117335 -0.989882 1.420954 0.012278 -0.003760 403468.000000 0 0 1
-20.370929 33.048049 6.168622 39.309034 -1.018403 1.413219 0.008967 -0.001753 -336050.000000 0 0 1
-19.508329 34.199449 5.674522 39.779108 -1.052405 1.427657 0.009219 -0.004960 -713481.000000 0 0 1
-19.388029 -33.775194 6.456222 39.475843 1.049690 1.406510 0.017649 -0.006894 113139.000000 0 0 1
-18.737429 -33.978394 7.715022 39.561901 1.066840 1.374527 0.016471 -0.007597 -360462.000000 0 0 1
-18.697429 -32.707094 8.632722 38.650637 1.051474 1.345544 0.017738 -0.012081 -601970.000000 0 0 1
-18.076329 -31.580494 8.095622 37.277612 1.050926 1.351881 0.011265 -0.024186 -320047.000000 0 0 1
-18.161129 -30.384294 8.884522 36.496118 1.032059 1.324888 0.019532 -0.022472 -96282.800000 0 0 1
-17.565629 -30.443294 10.307922 36.627841 1.047464 1.285519 0.013033 -0.017417 -198186.000000 0 0 1
-16.176929 -30.623294 10.131522 36.084995 1.084801 1.286202 0.015928 -0.027299 -555121.000000 0 0 1
-15.574929 -30.696894 11.406722 36.262805 1.101264 1.250806 0.028079 -0.024209 825990.000000 0 0 1
-14.191329 -31.471494 11.393522 36.354657 1.147172 1.252026 0.028376 -0.021243 668118.000000 0 0 1
-13.193329 -30.705694 10.766522 35.111559 1.164976 1.259138 0.013970 -0.018518 -118704.000000 0 0 1
-12.193829 -31.622994 10.274022 35.415515 1.202765 1.276466 0.012921 -0.002952 -235628.000000 0 0 1
-11.082729 -30.878994 9.557522 34.171411 1.226207 1.287321 0.021802 0.000083 -532463.000000 0 0 1
-10.228429 -30.241294 10.478822 33.600034 1.244648 1.253636 0.022027 0.000001 -23062.600000 0 0 1
-9.376029 -29.270494 9.861922 32.278928 1.260800 1.260310 0.026065 -0.003179 452817.000000 0 0 1
-8.351629 -28.575594 10.761122 31.656216 1.286451 1.223946 0.020818 0.009031 403918.000000 0 0 1
-9.016829 -27.538594 11.529022 31.186467 1.254372 1.192131 0.035472 -0.003443 277967.000000 0 0 1
-8.393829 -27.272294 12.758822 31.257350 1.272219 1.150330 0.041326 0.004987 -9618.740000 0 0 1
-9.134729 -26.061294 13.393622 30.692400 1.233668 1.119222 0.037032 -0.002175 130136.000000 0 0 1
-8.850729 -24.759294 12.952122 29.310672 1.227481 1.113091 0.023599 0.004585 151850.000000 0 0 1
-9.613229 -24.412894 11.787622 28.763720 1.195666 1.148552 0.022104 0.001863 248263.000000 0 0 1
-9.143929 -23.060694 11.232222 27.231780 1.193297 1.145635 0.009478 0.005837 71570.000000 0 0 1
-7.929129 -23.171794 10.523422 26.656060 1.241097 1.164962 0.000313 0.007838 -278353.000000 0 0 1
-7.598229 -21.918494 10.025022 25.271615 1.237102 1.162887 -0.005728 0.010494 202541.000000 0 0 1
-6.402729 -21.961194 9.013222 24.587134 1.287112 1.195463 -0.009531 0.002684 503156.000000 0 1 0
-5.251729 -22.460494 9.652322 25.004435 1.341102 1.174478 -0.005835 0.006432 -1149720.000000 0 0 1
-4.217029 -22.677894 8.759422 24.673826 1.386943 1.207873 -0.005440 0.000328 26719.300000 0 1 0
-3.076329 -23.554194 9.374722 25.537213 1.440925 1.194906 -0.003785 0.002422 48425.100000 0 0 1
-2.318129 -22.845094 10.286922 25.161335 1.469671 1.149615 -0.001223 0.003443 -436139.000000 0 0 1
-1.382329 -23.691194 10.961522 26.140743 1.512515 1.138092 0.002714 -0.003324 199464.000000 0 0 1
-0.443929 -22.973794 11.919022 25.885427 1.551475 1.092291 -0.003281 -0.004441 -202148.000000 0 0 1
-1.192829 -22.435394 12.983722 25.948926 1.517679 1.046785 -0.011672 -0.005509 245495.000000 0 0 1
-0.386329 -22.270494 14.184322 26.406801 1.553451 1.003746 -0.003491 -0.004014 399615.000000 0 0 1
0.327371 -20.889594 14.119122 25.215707 -1.555126 0.976491 0.007967 -0.010829 -746012.000000 0 0 1
1.355171 -20.837594 13.213122 24.710896 -1.505853 1.006634 0.021176 -0.018647 -1200620.000000 0 1 0
1.781671 -19.520494 13.137122 23.596779 -1.479777 0.980348 0.021432 -0.017050 -6741.580000 0 1 0
3.299771 -19.375594 12.889622 23.504137 -1.402109 0.990349 0.023275 -0.014867 275937.000000 0 1 0
3.657371 -19.873994 11.585222 23.293118 -1.388805 1.050236 0.046626 -0.017823 -467332.000000 0 1 0
5.050171 -20.063494 11.438722 23.640904 -1.324209 1.065744 0.052317 -0.012166 217051.000000 0 1 0
5.305671 -20.928094 10.154422 23.858909 -1.322508 1.131168 0.047802 -0.016883 -294589.000000 0 1 0
5.417471 -20.237594 8.930022 22.773987 -1.309236 1.167867 0.046074 -0.018832 -421775.000000 0 1 0
5.528371 -21.072894 7.751322 23.123856 -1.314233 1.228969 0.036958 -0.020189 -198955.000000 0 1 0
6.948371 -21.630394 7.432222 23.903801 -1.259976 1.254633 0.035815 -0.011089 625801.000000 0 1 0
7.925971 -20.744594 6.883122 23.249442 -1.205838 1.270236 0.032367 -0.014131 45538.300000 0 1 0
8.496871 -19.760294 7.696022 22.845016 -1.164701 1.227195 0.044270 -0.013821 225030.000000 0 1 0
9.461371 -20.101794 8.882122 23.926800 -1.130884 1.190473 0.050782 -0.011712 669127.000000 0 1 0
8.714671 -20.429994 10.082822 24.392487 -1.167603 1.144658 0.058510 -0.013715 -215797.000000 0 1 0
9.420371 -20.159494 11.273822 24.944892 -1.133656 1.101847 0.058568 -0.008054 191630.000000 0 1 0
8.586371 -20.295294 12.587022 25.378294 -1.170560 1.051838 0.074092 -0.006383 39237.700000 0 0 1
8.747371 -21.564194 13.210222 26.758941 -1.185435 1.054486 0.077447 -0.013677 -168367.000000 0 0 1
7.844471 -21.767094 14.267522 27.182794 -1.224903 1.018230 0.085507 -0.006370 -3037.370000 0 0 1
8.004171 -23.125594 14.916722 28.659526 -1.237585 1.023383 0.067166 -0.010550 153597.000000 0 0 1
7.672071 -24.147394 14.012822 28.953695 -1.263164 1.065607 0.063779 -0.007590 -286351.000000 0 0 1
7.686171 -25.398094 14.646122 30.309227 -1.276930 1.066464 0.061684 -0.009310 270922.000000 0 0 1
7.450871 -26.532994 13.656422 30.757326 -1.297032 1.110732 0.053501 -0.013579 -260231.000000 0 0 1
8.606771 -26.893894 12.970622 31.074025 -1.261069 1.140203 0.056284 -0.009845 -552633.000000 0 0 1
8.407971 -28.003394 12.125722 31.653075 -1.279112 1.177666 0.044048 -0.008827 232132.000000 0 0 1
9.684371 -28.487894 11.353922 32.159892 -1.243105 1.209972 0.047196 -0.012756 20355.400000 0 0 1
10.662271 -28.929794 12.240222 33.172881 -1.217686 1.192882 0.045526 -0.013639 -678826.000000 0 0 1
11.779771 -29.320694 11.486122 33.621378 -1.188777 1.222144 0.042429 -0.016012 162845.000000 0 0 1
12.813671 -30.184194 12.316022 35.027990 -1.169336 1.211511 0.034693 -0.011344 28418.700000 0 0 1
13.557571 -29.457994 13.240322 35.026950 -1.139464 1.183157 0.040808 -0.007611 -238922.000000 0 0 1
14.188771 -30.223294 14.216822 36.288934 -1.131874 1.168245 0.045285 -0.006500 1877040.000000 0 0 1
15.767971 -30.382094 13.934222 36.957585 -1.092073 1.184206 0.030749 -0.001820 1779730.000000 0 0 1
16.497971 -29.167294 14.102922 36.356656 -1.056030 1.172439 0.023736 -0.011717 -238262.000000 0 0 1
17.765271 -29.344294 13.547422 36.881229 -1.026410 1.194664 0.012132 0.000171 -1784.360000 0 0 1
18.584271 -28.004594 13.245422 36.125802 -0.984909 1.195394 0.005869 -0.005086 786877.000000 0 0 1
19.894371 -28.143794 12.725622 36.739632 -0.955466 1.217094 -0.005224 -0.004779 514547.000000 0 0 1
20.630371 -26.963694 12.468522 36.167900 -0.917691 1.218835 -0.002532 -0.007468 390765.000000 0 0 1
22.044971 -27.204094 11.896822 36.980776 -0.889773 1.243269 0.003454 -0.004921 389246.000000 0 0 1
22.908971 -28.000394 12.702422 38.343116 -0.885076 1.233133 0.012830 -0.006339 303341.000000 0 0 1
24.225971 -28.002094 12.195622 38.983947 -0.857573 1.252618 0.014241 -0.010056 -980216.000000 0 0 1
25.202371 -28.843094 13.062722 40.468732 -0.852661 1.242125 0.023729 -0.008463 863754.000000 0 0 1
26.379271 -28.148094 13.551622 40.887988 -0.817826 1.232974 0.020829 -0.009292 1669440.000000 0 0 1
27.329771 -27.911694 12.447322 40.998961 -0.795932 1.262327 0.011301 -0.007303 243795.000000 0 0 1
28.660771 -27.257894 12.985722 41.630056 -0.760316 1.253571 0.027004 -0.010701 472387.000000 0 0 1
28.694571 -25.850294 13.259622 40.834222 -0.733300 1.240082 0.030226 -0.007759 -309347.000000 0 0 1
27.849671 -25.440894 14.293822 40.338029 -0.740228 1.208576 0.017503 -0.002933 -471281.000000 0 0 1
28.513671 -25.335994 15.680522 41.241008 -0.726456 1.180766 0.004382 0.009350 -804904.000000 0 0 1
28.652471 -26.575694 16.321222 42.351079 -0.747812 1.175178 0.010558 0.004642 109194.000000 0 0 1
29.359271 -26.400394 17.524422 43.197835 -0.732383 1.153076 0.019750 0.023583 -120352.000000 0 0 1
29.718971 -27.724994 18.248322 44.552146 -0.750700 1.148787 0.011374 0.037159 -764560.000000 0 0 1
28.678771 -28.354894 18.906722 44.541397 -0.779720 1.132414 0.004417 0.024009 -775363.000000 0 0 1
29.045871 -29.378994 19.794022 45.810383 -0.791100 1.123992 0.011785 0.020087 -188377.000000 0 0 1
27.866871 -30.131794 20.447122 45.853814 -0.824430 1.108595 0.014508 0.025699 -787104.000000 0 0 1
27.086471 -29.407894 21.386022 45.341626 -0.826466 1.079619 0.011463 0.021982 1760030.000000 0 0 1
25.896571 -30.109694 21.915022 45.359610 -0.860483 1.066559 0.007083 0.018315 2352800.000000 0 0 1
24.799371 -30.575094 20.869722 44.557720 -0.889325 1.083346 0.026144 0.008274 -457793.000000 0 0 1
25.111971 -31.802494 20.250722 45.300126 -0.902415 1.107349 0.021791 0.015830 143103.000000 0 0 1
24.390771 -32.119794 19.048222 44.602978 -0.921326 1.129556 0.031105 0.015350 -469167.000000 0 0 1
24.706271 -31.334394 17.742222 43.669560 -0.903125 1.152413 0.018195 0.018823 -687723.000000 0 0 1
26.029871 -31.555994 17.360322 44.437773 -0.881068 1.169441 0.018834 0.003574 -373647.000000 0 0 1
26.448471 -30.563194 16.398622 43.618175 -0.857447 1.185365 0.016279 -0.009679 -149245.000000 0 0 1
27.625671 -31.117494 15.581922 44.432785 -0.844770 1.212494 0.020139 -0.008297 -455767.000000 0 0 1
27.394371 -32.132494 14.619622 44.684248 -0.864827 1.237483 0.032226 -0.007873 148785.000000 0 0 1
27.191071 -33.513394 15.071422 45.712686 -0.889173 1.234812 -0.003142 -0.004655 -17227.600000 0 0 1
26.410971 -34.376894 14.034322 45.566132 -0.915700 1.257707 0.027391 -0.012415 -282391.000000 0 0 1
27.114871 -34.552794 12.817322 45.753639 -0.905431 1.286859 0.046018 -0.014646 255650.000000 0 0 1
26.575271 33.562849 11.976622 44.453901 0.901072 1.298009 0.048036 -0.011654 -344293.000000 0 0 1
27.247171 33.425849 10.601922 44.408293 0.886884 1.329731 0.045067 -0.010186 981952.000000 0 0 1
28.663171 33.154349 10.693322 45.112475 0.857923 1.331482 0.026671 -0.012784 1112250.000000 0 0 1
29.155771 32.441849 9.585122 44.658785 0.838695 1.354483 0.027872 -0.015799 -367076.000000 0 0 1
30.582571 31.944349 9.806822 45.298000 0.807174 1.352573 0.002772 -0.009738 -635439.000000 0 0 1
30.636771 30.945849 10.801222 44.865618 0.790417 1.327662 -0.013673 0.006407 -30341.800000 0 0 1
31.910271 30.469649 11.170422 45.513110 0.762308 1.322830 0.006280 -0.000788 -123585.000000 0 0 1
31.853871 29.378349 12.313422 45.048605 0.744992 1.293937 -0.002886 0.016085 -95158.100000 0 0 1
31.352771 28.101549 12.020122 43.785576 0.730768 1.292703 -0.002823 0.012645 263883.000000 0 0 1
31.630971 27.276849 13.119722 43.779812 0.711618 1.266444 0.007333 0.000920 -71744.500000 0 0 1
31.473171 25.765849 12.860522 42.659495 0.686016 1.264563 -0.000501 0.003536 51368.400000 0 0 1
32.583571 25.221749 12.165122 42.962960 0.658725 1.283716 -0.001020 0.010525 -121497.000000 0 0 1
32.600571 23.857449 11.870822 42.105718 0.631758 1.284992 0.008322 0.000307 -347957.000000 0 0 1
31.408071 23.282849 11.060422 40.631157 0.637911 1.295102 0.002174 0.007258 -89322.600000 0 0 1
30.338271 23.039049 11.914222 39.914373 0.649493 1.267681 0.008235 -0.007909 4072.420000 0 0 1
29.065471 22.863049 11.266622 38.658212 0.666520 1.275063 -0.000578 0.006615 630877.000000 0 0 1
27.994171 22.366149 12.247922 37.867266 0.674105 1.241430 -0.008517 0.010955 -152746.000000 0 0 1
27.672271 23.410649 13.173222 38.566136 0.702165 1.222204 -0.002736 0.002696 38753.000000 0 0 1
26.802671 22.947149 14.190122 38.030440 0.708055 1.188421 0.020384 -0.020235 -617390.000000 0 0 1
22.983371 9.385649 26.032215 35.972238 0.387698 0.761684 0.008802 -0.004397 -47393.000000 0 0 1
22.811871 8.388549 26.953895 36.294099 0.352379 0.733774 0.019603 -0.008285 934603.000000 0 0 1
21.431471 8.001949 27.075755 35.446236 0.357344 0.701532 0.025927 -0.013169 473063.000000 0 0 1
21.317771 6.583349 27.754405 35.610319 0.299529 0.677101 0.042541 -0.013544 -251712.000000 0 0 1
21.743171 6.473249 29.139235 36.929168 0.289358 0.661523 0.042286 -0.012948 -1341330.000000 0 0 1
23.080471 6.333949 29.319525 37.847874 0.267835 0.684607 0.039965 -0.014817 -1803000.000000 0 0 1
23.395071 6.298949 30.815155 39.199233 0.263006 0.666296 0.050149 -0.022439 -408526.000000 0 0 1
23.200271 7.586549 31.451355 39.812008 0.316042 0.659993 0.036676 -0.006114 351528.000000 0 0 1
23.120271 7.482549 32.854485 40.865054 0.312998 0.636846 0.042400 -0.003770 -284315.000000 0 0 1
22.776571 8.823249 33.573036 41.518317 0.369582 0.628973 0.031103 0.006786 416531.000000 0 0 1
23.868871 9.754649 33.663531 42.404121 0.387964 0.653643 0.030343 0.001944 437034.000000 0 0 1
24.102271 10.165649 -34.075178 42.957859 0.399133 2.486881 0.028974 0.008463 294359.000000 0 0 1
25.208071 11.254649 -33.972778 43.775148 0.419915 2.459214 0.010866 0.004576 122833.000000 0 0 1
24.781471 12.485549 34.523910 44.293460 0.466704 0.677032 0.007875 -0.002260 149766.000000 0 0 1
25.168571 13.564649 -33.760428 44.240515 0.494321 2.438910 0.008413 -0.001954 -697811.000000 0 0 1
24.564571 14.876749 -34.357854 44.779436 0.544540 2.445368 0.004925 -0.002887 -628784.000000 0 0 1
25.271971 15.454749 33.611493 44.802391 0.548860 0.722407 0.007943 -0.003746 246498.000000 0 0 1
25.197171 16.834149 33.403007 45.100408 0.588992 0.736779 -0.000170 -0.007181 -197225.000000 0 0 1
26.006571 17.731349 34.385214 46.616364 0.598408 0.741256 0.006421 -0.015526 -294861.000000 0 0 1
25.441871 17.754349 -33.395058 45.582185 0.609275 2.392980 0.007713 -0.025569 354678.000000 0 0 1
26.410171 17.510149 -32.373478 45.300602 0.585465 2.366901 0.001728 -0.022828 -235565.000000 0 0 1
25.739571 17.007249 -31.143888 43.837356 0.583891 2.360922 -0.008048 -0.027102 -321122.000000 0 0 1
25.323271 15.654449 -31.189198 43.117234 0.553683 2.379450 -0.000935 -0.019149 1892.850000 0 0 1
24.449471 15.536949 -30.080928 41.761653 0.566094 2.375031 0.002970 -0.019249 -341115.000000 0 0 1
23.594071 14.295149 -30.152128 40.867864 0.544731 2.400595 0.008224 -0.010660 -104158.000000 0 0 1
22.765371 14.260449 -31.346438 41.282220 0.559612 2.433065 0.006446 -0.010312 428131.000000 0 0 1
22.256271 12.992749 -31.827678 40.953073 0.528407 2.460959 0.016630 0.001591 186554.000000 0 0 1
21.363771 12.053049 -30.921388 39.469215 0.513666 2.470963 0.017959 -0.000822 902595.000000 0 0 1
20.105771 12.673849 -30.543878 38.701382 0.562444 2.480333 0.014278 -0.001282 820447.000000 0 0 1
19.456171 11.762849 -29.681858 37.388767 0.543782 2.487945 0.013404 0.003992 -1088010.000000 0 0 1
18.135371 12.316249 -29.235608 36.541790 0.596581 2.498191 0.018987 0.000635 -1156800.000000 0 0 1
17.225171 12.544549 -30.295348 37.038903 0.629447 2.528606 0.007895 0.007423 235870.000000 0 0 1
16.062271 13.084749 -29.678698 36.194369 0.683596 2.532174 0.007387 0.000966 128609.000000 0 0 1
14.954971 13.627749 -30.639278 36.716918 0.738997 2.557972 0.001535 -0.000651 285988.000000 0 0 1
14.166571 12.731149 -31.412608 36.735893 0.732083 2.596527 -0.002794 0.005294 -369211.000000 0 0 1
12.910371 12.611849 -30.781948 35.682835 0.773702 2.611290 0.006877 0.002544 16978.500000 0 0 1
11.840371 11.955049 -31.733948 35.918812 0.790217 2.654059 0.015791 0.000201 328573.000000 0 0 1
11.662671 12.732349 -32.889108 37.145983 0.829218 2.658153 0.023870 0.001945 208544.000000 0 0 1
10.497571 12.207649 -33.523108 37.189037 0.860573 2.693845 0.035879 0.005250 367128.000000 0 0 1
9.970871 13.077149 34.337714 38.072413 0.919365 0.446636 0.047924 0.001746 373858.000000 0 0 1
10.798371 12.889149 33.183621 37.200640 0.873435 0.469007 0.029945 0.007775 323510.000000 0 0 1
10.227671 13.504849 32.051955 36.253469 0.922618 0.486216 0.044669 -0.006392 -352305.000000 0 0 1
10.932471 13.259949 30.714745 35.195748 0.881310 0.510125 0.041357 -0.003272 -329888.000000 0 0 1
11.132171 11.924849 30.355465 34.461304 0.819764 0.493128 0.032768 0.002130 -58809.200000 0 0 1
11.477271 11.823449 29.016435 33.368775 0.800254 0.516469 0.033441 0.004328 49421.200000 0 0 1
12.280671 10.606649 28.477815 32.776543 0.712386 0.517927 0.020595 0.011143 93333.500000 0 0 1
11.553871 9.373949 28.701505 32.328613 0.681609 0.478243 0.018468 0.013885 442866.000000 0 0 1
12.335171 8.236049 28.459485 32.092541 0.588710 0.480434 -0.020594 0.004633 -731213.000000 0 0 1
11.604571 6.932549 28.730055 31.751257 0.538504 0.439774 -0.001116 0.006312 -298429.000000 0 0 1
10.735171 6.536449 27.678015 30.398052 0.546925 0.426258 0.019890 0.004761 -5172.780000 0 0 1
9.712671 5.729749 28.229525 30.398554 0.532979 0.380048 0.001149 0.002090 30474.400000 0 0 1
9.667071 4.286049 27.656935 29.609602 0.417323 0.365198 -0.004155 0.001212 -721930.000000 0 0 1
10.782471 3.579049 28.044875 30.258656 0.320489 0.384894 -0.015937 0.005356 -620497.000000 0 0 1
10.697671 2.229149 27.672905 29.752293 0.205437 0.376084 -0.008322 0.010485 -41271.400000 0 0 1
11.257971 1.235949 28.718585 30.871129 0.109346 0.375639 -0.029625 0.007723 -283241.000000 0 0 1
10.380271 1.218049 29.784265 31.564792 0.116809 0.337482 -0.023322 0.007822 -323492.000000 0 0 1
10.586371 0.018449 30.526655 32.310188 0.001743 0.333814 -0.018150 -0.000480 61344.400000 0 0 1
9.568471 -0.127151 31.659425 33.074023 -0.013288 0.293527 -0.000879 -0.004700 -153993.000000 0 0 1
9.684471 0.898049 32.597365 34.017402 0.092466 0.289959 -0.007857 -0.008245 -137275.000000 0 0 1
8.526871 1.083949 33.381673 34.470546 0.126443 0.252017 0.002467 -0.012084 -255093.000000 0 0 1
8.534371 2.359349 34.242605 35.368884 0.269716 0.253039 0.014139 -0.012617 -80624.100000 0 0 1
8.448071 3.655049 33.593353 34.831632 0.408331 0.267444 0.011802 -0.011274 -126015.000000 0 0 1
9.648371 3.945349 32.928555 34.539058 0.388167 0.306579 -0.010412 -0.000725 -483148.000000 0 0 1
9.757071 5.282949 32.121485 33.983816 0.496254 0.332591 -0.010005 0.004250 -95662.500000 0 0 1
9.714771 6.457949 32.907755 34.914212 0.586678 0.340668 -0.008569 0.006294 58077.300000 0 0 1
9.943871 7.627049 32.203595 34.556099 0.654299 0.371119 -0.005927 0.004294 -298994.000000 0 0 1
10.001171 8.927249 33.104016 35.715473 0.728723 0.384778 0.022564 -0.004378 253746.000000 0 0 1
8.791471 9.431949 33.679344 36.063136 0.820530 0.365628 0.029034 -0.007358 136154.000000 0 0 1
8.379271 8.646049 -34.290226 36.342619 0.801066 2.803915 0.028790 -0.006768 365871.000000 0 0 1
6.998071 9.152449 -33.749468 35.661841 0.918009 2.812620 0.033411 -0.011228 702603.000000 0 0 1
6.463071 8.502549 -32.590158 34.295525 0.920841 2.824912 0.044374 -0.018811 -124491.000000 0 0 1
5.131571 8.906149 -32.380728 33.972990 1.048074 2.834219 0.047169 -0.023338 -114214.000000 0 0 1
4.430371 8.237249 -31.212908 32.584138 1.077332 2.850453 0.046373 -0.024576 -381241.000000 0 0 1
5.066771 8.615749 -29.992938 31.614548 1.039186 2.819917 0.048739 -0.020892 207557.000000 0 0 1
4.667671 7.911749 -28.843098 30.270567 1.037787 2.833267 0.044804 -0.022997 -706964.000000 0 0 1
3.238771 8.081849 -28.360428 29.666813 1.189647 2.843726 0.042659 -0.024846 -105405.000000 0 0 1
2.250071 7.409249 -29.161938 30.172478 1.275963 2.882052 0.035503 -0.025683 467553.000000 0 0 1
0.915871 7.714349 -28.800028 29.829375 1.452626 2.878123 0.037115 -0.012049 448166.000000 0 0 1
-0.145629 7.011049 -29.701358 30.517973 -1.550028 2.909736 0.037450 -0.014027 60626.700000 0 0 1
-0.375829 7.692449 -30.903848 31.849063 -1.521978 2.897355 0.050927 -0.013995 256118.000000 0 0 1
-0.608629 6.778449 -32.004628 32.720239 -1.481248 2.932066 0.043481 -0.012583 -491941.000000 0 0 1
-0.393329 7.423449 -33.417038 34.233912 -1.517861 2.922700 0.047885 -0.019996 6457.060000 0 0 1
0.939771 7.644749 -33.831298 34.697004 1.448480 2.917740 0.041249 -0.019938 477875.000000 0 0 1
1.723371 6.491049 -34.213861 34.866775 1.311284 2.947764 0.049952 -0.018898 98446.100000 0 0 1
1.620771 6.213549 33.316025 33.929229 1.315637 0.190409 0.054688 -0.019065 -332561.000000 0 0 1
0.326171 5.781749 32.975185 33.479812 1.514442 0.173842 0.064573 -0.021295 -231766.000000 0 0 1
0.173571 5.746749 31.551825 32.071372 1.540602 0.180242 0.073502 -0.018460 43665.600000 0 0 1
0.829771 4.579949 30.808325 31.157941 1.391566 0.149946 0.070155 -0.015368 -65244.300000 0 0 1
0.508471 4.703749 29.448225 29.825857 1.463115 0.159299 0.063660 -0.017434 413773.000000 0 0 1
1.237271 3.715149 28.705155 28.971004 1.249315 0.135576 0.057245 -0.009209 276219.000000 0 0 1
1.177471 3.964249 27.156315 27.469385 1.282073 0.151121 0.050416 -0.004845 103066.000000 0 0 1
1.903971 5.118449 26.788925 27.339899 1.214674 0.201101 0.056910 -0.003340 125122.000000 0 0 1
2.007471 5.252449 25.365675 25.981447 1.205731 0.218150 0.042476 0.000423 -447113.000000 0 0 1
2.581071 6.572049 24.922295 25.903176 1.196569 0.276075 0.036450 0.014164 670516.000000 0 0 1
4.006271 6.742549 24.953085 26.156617 1.034669 0.304532 0.028193 0.023346 631004.000000 0 0 1
4.589571 6.503749 23.678145 24.980341 0.956268 0.324309 0.018775 0.003377 -332447.000000 0 1 0
6.134671 6.584449 23.732945 25.381919 0.820746 0.362443 0.020163 0.004421 595636.000000 0 0 1
6.912571 5.584649 24.467105 26.030965 0.679538 0.348391 0.023588 0.004691 328854.000000 0 0 1
6.720171 4.188849 24.201145 25.463750 0.557394 0.316227 0.032694 -0.001756 -816894.000000 0 0 1
6.940671 3.726749 22.699545 24.027711 0.492764 0.334046 0.029796 -0.008399 278437.000000 0 1 0
5.860071 4.032749 21.826745 22.956704 0.602745 0.315057 0.016575 -0.015928 657588.000000 0 1 0
4.674071 3.236249 22.024445 22.746349 0.605596 0.252612 0.009239 -0.016975 1152210.000000 0 1 0
3.419671 3.687949 21.185045 21.773866 0.823125 0.233089 -0.004207 -0.011054 556369.000000 0 1 0
3.093171 4.992149 21.510445 22.297724 1.016084 0.266523 -0.004758 -0.002659 223663.000000 0 1 0
1.900071 5.329249 20.797145 21.553013 1.228310 0.265621 -0.006517 -0.001229 126890.000000 0 1 0
1.483471 6.759049 20.995845 22.106807 1.354743 0.318374 -0.001025 0.006979 -183064.000000 0 1 0
2.308271 7.691049 20.306845 21.836856 1.279225 0.376562 -0.007667 0.006782 111152.000000 0 1 0
1.792171 8.996749 20.322245 22.296793 1.374168 0.424020 -0.003060 0.003626 615509.000000 0 1 0
2.966171 9.895849 19.820845 22.351552 1.279579 0.480471 0.006752 -0.003646 -131082.000000 0 1 0
3.001871 10.092349 18.418845 21.216045 1.281690 0.519321 -0.011999 -0.002680 -355422.000000 0 1 0
3.741571 11.209749 17.994345 21.527988 1.248645 0.581102 -0.006962 -0.003423 504870.000000 0 1 0
5.288171 10.999449 18.147145 21.869419 1.122653 0.592055 -0.000312 -0.001748 -243973.000000 0 1 0
5.782471 10.193949 17.088245 20.721044 1.054809 0.601159 0.004166 -0.003932 502580.000000 0 1 0
7.117571 9.757849 17.408345 21.187871 0.940597 0.606552 0.008070 0.002528 551499.000000 0 1 0
7.263471 8.374249 18.031945 21.166886 0.856311 0.551205 0.012518 0.001823 -377921.000000 0 1 0
6.691671 8.307949 19.326845 22.075493 0.892739 0.504350 0.008806 -0.000031 -106913.000000 0 1 0
6.509071 6.941249 19.760845 21.932622 0.817519 0.448774 0.003655 -0.009599 -37680.300000 0 1 0
7.751871 6.058849 19.971745 22.263686 0.663419 0.457737 0.022203 -0.011415 -62549.000000 0 1 0
8.617171 5.863049 18.875345 21.561763 0.597444 0.504517 0.022699 -0.019582 -639854.000000 0 1 0
9.768271 5.150849 19.193745 22.143852 0.485252 0.522097 0.022508 -0.014396 -611393.000000 0 1 0
9.731971 3.606149 19.128645 21.762826 0.354861 0.497120 0.016282 -0.017156 -674014.000000 0 1 0
9.200271 2.937549 20.204645 22.394237 0.309058 0.445895 0.037239 -0.018781 -9926.870000 0 1 0
9.603071 1.577649 20.191945 22.414785 0.162831 0.449115 0.041044 -0.030262 -177966.000000 0 1 0
8.864871 0.755349 21.250845 23.038118 0.085002 0.396493 0.041371 -0.018882 -236472.000000 0 1 0
9.068671 1.069649 22.585545 24.361686 0.117407 0.384215 0.037607 -0.013542 111023.000000 0 1 0
8.350471 0.172949 23.406845 24.852377 0.020708 0.342746 0.028231 -0.016287 -346857.000000 0 1 0
8.786171 0.360749 24.896805 26.404125 0.041036 0.339524 0.016022 -0.003520 155923.000000 0 0 1
10.019871 -0.179051 25.354545 27.263213 -0.017868 0.376408 0.020048 -0.001798 350183.000000 0 0 1
10.153171 -1.598951 25.219245 27.233322 -0.156200 0.387005 0.025503 -0.006707 -700139.000000 0 0 1
11.624271 -1.988051 25.335445 27.945675 -0.169387 0.435649 0.026782 -0.005398 -354302.000000 0 0 1
11.808771 -3.393851 25.286145 28.113242 -0.279858 0.452312 0.026199 -0.001313 1033400.000000 0 0 1
13.116771 -3.849551 25.730765 29.136592 -0.285467 0.488350 0.025080 -0.001250 1056050.000000 0 0 1
13.208671 -5.378551 25.777865 29.460076 -0.386697 0.505340 0.024110 0.000948 -245114.000000 0 0 1
13.124071 -6.010251 24.484705 28.422968 -0.429451 0.532696 0.034465 0.004787 262031.000000 0 0 1
12.912471 -7.424651 24.517485 28.687356 -0.521833 0.545931 0.042614 -0.001484 -124571.000000 0 0 1
12.617671 -7.978151 23.145045 27.541779 -0.563831 0.572847 0.047761 -0.002440 47613.600000 0 0 1
12.197371 -9.359651 23.221745 27.850105 -0.654513 0.584820 0.042947 -0.001303 -183041.000000 0 0 1
12.047571 -9.812451 21.900345 26.852435 -0.683505 0.617063 0.031957 -0.008940 146291.000000 0 0 1
11.563171 -11.306951 21.896345 27.221388 -0.774195 0.636165 0.040198 -0.010895 -330000.000000 0 0 1
10.222871 -11.469051 22.217245 27.012075 -0.842784 0.605016 0.030792 -0.009121 -1257610.000000 0 0 1
9.766771 -12.776951 22.280345 27.478247 -0.918139 0.625218 0.031314 -0.008307 -261177.000000 0 0 1
8.285971 -12.762351 22.670945 27.303968 -0.994948 0.591120 0.017795 -0.007162 19520.500000 0 0 1
7.459271 -12.166051 21.656545 25.935679 -1.020784 0.582646 0.019348 -0.013700 354182.000000 0 0 1
6.070471 -12.323151 21.961045 25.903632 -1.113081 0.558977 0.006112 -0.009286 749136.000000 0 0 1
5.284871 -11.185751 21.254445 24.592729 -1.129419 0.527124 -0.002115 -0.005253 4281.890000 0 1 0
5.349971 -10.018351 21.951245 24.715313 -1.080307 0.477463 0.001872 0.002817 -153833.000000 0 1 0
4.735171 -8.933651 21.257845 23.539922 -1.083408 0.443967 -0.003401 0.002624 50769.600000 0 1 0
5.075171 -7.614851 21.979645 23.808572 -0.982921 0.394518 -0.005246 -0.003447 98946.700000 0 1 0
4.638271 -6.467551 21.267245 22.707674 -0.948646 0.358094 -0.008469 -0.000260 28599.500000 0 1 0
5.197571 -5.289451 21.865645 23.088946 -0.794159 0.326976 0.005775 -0.003511 245351.000000 0 1 0
-8.166829 -14.951851 -20.636278 26.760249 1.070869 2.451448 0.033075 0.001032 10965.800000 0 0 1
-7.263629 -14.632851 -19.602578 25.517478 1.110039 2.446824 0.025527 -0.001410 -316935.000000 0 0 1
-6.633629 -13.422251 -19.823578 24.842224 1.111778 2.494731 0.029167 -0.013823 25704.200000 0 1 0
-5.881529 -12.927351 -18.544478 23.358220 1.143819 2.488020 0.024475 -0.012989 1180740.000000 0 1 0
-4.767629 -13.814951 -18.214378 23.352660 1.238488 2.465414 0.016418 -0.001088 557921.000000 0 1 0
-4.306529 -13.481451 -16.928578 22.065187 1.261600 2.445272 0.024275 -0.011547 221443.000000 0 1 0
-3.331129 -14.596751 -16.431178 22.229376 1.346428 2.402626 0.021220 0.004190 696777.000000 0 1 0
-2.121229 -14.627451 -17.189978 22.670626 1.426783 2.431419 0.010485 -0.000887 387484.000000 0 1 0
-1.164029 -15.468451 -16.555578 22.687334 1.495686 2.388720 0.019240 0.005989 -488766.000000 0 1 0
0.209571 -15.682651 -17.131878 23.226939 -1.557434 2.400286 0.016558 -0.000063 -537697.000000 0 1 0
0.250771 -16.570251 -18.236278 24.641387 -1.555664 2.403966 0.021140 0.002645 -133420.000000 0 1 0
0.100071 -18.003551 -18.014478 25.468790 -1.565238 2.356490 0.027239 0.007471 -164721.000000 0 0 1
-0.369229 -18.737651 -19.294078 26.897906 1.551094 2.370727 0.027058 0.008032 -893634.000000 0 0 1
-1.692729 -18.418451 -19.533978 26.901319 1.479150 2.383479 0.036465 0.003158 -1020460.000000 0 0 1
-2.017229 -18.506751 -20.924778 28.007417 1.462225 2.414508 0.039760 0.001615 371501.000000 0 0 1
-2.964529 -17.375851 -21.504178 27.805365 1.401811 2.454956 0.034684 0.004468 189377.000000 0 0 1
-2.466129 -16.078251 -21.543678 26.994852 1.418600 2.494875 0.033066 0.014387 -517828.000000 0 0 1
-3.060329 -15.188551 -20.653778 25.819300 1.371969 2.497984 0.028790 0.006221 256320.000000 0 0 1
-2.206029 -13.860851 -20.562578 24.895971 1.412965 2.542664 0.026293 -0.011132 105714.000000 0 1 0
-2.231529 -13.183951 -21.835778 25.604638 1.403124 2.592131 0.027793 -0.019285 -189299.000000 0 0 1
-1.488229 -12.015851 -21.711278 24.859105 1.447568 2.632882 0.003133 -0.005925 -131948.000000 0 1 0
-1.387729 -11.217151 -23.037578 25.660870 1.447707 2.685478 0.011087 0.001005 569884.000000 0 0 1
-2.637329 -10.554751 -23.323778 25.736295 1.325939 2.705148 0.016106 -0.002859 876745.000000 0 0 1
-2.634429 -9.602251 -24.388678 26.342951 1.303030 2.753980 0.023137 -0.014559 -515430.000000 0 0 1
-3.765729 -8.637651 -24.153078 25.926066 1.159673 2.769624 0.032164 -0.019213 427008.000000 0 0 1
-5.135829 -9.078651 -24.289678 26.434582 1.055976 2.735978 0.038978 -0.018884 2114260.000000 0 0 1
-6.055429 -7.959251 -24.078578 26.072894 0.920417 2.747929 0.043357 -0.026858 -210553.000000 0 0 1
-7.520729 -8.343751 -23.822278 26.337815 0.837230 2.700978 0.021804 -0.032026 320457.000000 0 0 1
-8.295929 -8.833551 -24.943578 27.731501 0.816774 2.689345 0.017877 -0.023880 450567.000000 0 0 1
-8.553629 -7.795351 -25.892628 28.361246 0.739051 2.721272 0.013044 -0.026761 -444840.000000 0 0 1
-9.381329 -8.362251 -27.094628 29.867297 0.728028 2.707298 0.007250 -0.022665 31144.900000 0 0 1
-10.056329 -7.333851 -27.744158 30.408114 0.630106 2.719890 0.007985 -0.022138 -436671.000000 0 0 1
-10.610929 -7.824351 -28.896528 31.761952 0.635379 2.713561 0.012148 -0.021390 -393138.000000 0 0 1
-11.356729 -6.752251 -29.731738 32.535280 0.536410 2.723416 0.017193 -0.021244 -24671.100000 0 0 1
-10.594629 -5.739751 -30.324338 32.630605 0.496495 2.763369 -0.014814 -0.009040 -330709.000000 0 0 1
-11.363329 -5.241951 -31.403148 33.804748 0.432215 2.762381 0.002228 -0.003865 -99156.700000 0 0 1
-10.765129 -4.054851 -32.169608 34.164506 0.360230 2.798174 -0.009423 -0.001446 -109063.000000 0 0 1
-9.572429 -4.322751 -32.873648 34.510785 0.424170 2.832341 -0.008527 0.000478 -30636.400000 0 0 1
-9.198829 -3.218451 -33.674598 35.056461 0.336564 2.859884 -0.005523 0.003188 -198731.000000 0 0 1
-8.012229 -3.615151 34.481202 35.583963 0.423855 0.249607 -0.007477 -0.003263 -164581.000000 0 0 1
-6.772929 -3.778851 -33.918478 34.793899 0.508915 2.916798 0.000033 -0.005446 -685183.000000 0 0 1
-5.868229 -4.236951 34.187447 34.945234 0.625349 0.208633 0.005819 -0.000956 -932160.000000 0 0 1
-4.474829 -3.876451 -34.363719 34.869989 0.713869 2.970982 0.024779 0.000979 -643986.000000 0 0 1
-4.102829 -2.517451 34.464623 34.799152 0.550352 0.138770 0.031848 -0.006662 -529901.000000 0 0 1
-2.806429 -2.141151 -34.271597 34.452909 0.651735 3.038955 0.033599 -0.006329 -483721.000000 0 0 1
-2.819529 -0.693051 -33.814018 33.938442 0.241025 3.055937 0.038416 -0.011711 -44632.300000 0 0 1
-3.232629 -0.514251 -32.476148 32.640688 0.157759 3.041142 0.040323 -0.012745 265828.000000 0 0 1
-3.683329 0.767149 -32.129278 32.348817 -0.205340 3.025023 0.047533 -0.019872 -814936.000000 0 0 1
-4.110229 0.810049 -30.654558 30.939491 -0.194587 3.005773 0.049980 -0.025221 204304.000000 0 0 1
-5.174329 -0.079451 -30.425578 30.862530 0.015354 2.973120 0.023111 -0.021150 510660.000000 0 0 1
-6.490829 0.426549 -30.676508 31.358586 -0.065621 2.932642 0.021616 -0.017252 600493.000000 0 0 1
-7.596029 -0.683251 -30.685108 31.618702 0.089707 2.897982 0.007592 -0.018629 325794.000000 0 0 1
-7.877529 -1.261951 -29.430488 30.492648 0.158847 2.876876 0.008437 -0.016268 -20320.200000 0 0 1
-8.932129 -2.194251 -29.526028 30.925459 0.240888 2.839609 -0.009341 -0.012119 -197948.000000 0 0 1
-9.133729 -2.877851 -28.201978 29.783529 0.305233 2.814245 -0.007148 -0.011149 -286989.000000 0 0 1
-9.764229 -2.048851 -27.237188 29.006937 0.206832 2.790475 -0.004484 -0.010382 63966.900000 0 0 1
-9.733029 -2.700251 -25.939668 27.836839 0.270626 2.770266 -0.012756 -0.010383 -238955.000000 0 0 1
-10.740529 -2.010651 -25.010678 27.293510 0.185060 2.729688 -0.006320 -0.004455 -25578.900000 0 0 1
-10.436729 -0.670351 -24.730478 26.850907 0.064142 2.741512 0.001863 -0.004185 -142501.000000 0 0 1
-11.375729 -0.122251 -23.845878 26.420599 0.010746 2.696449 0.011604 -0.009846 81321.200000 0 0 1
-10.887129 1.245649 -23.218778 25.674752 -0.113919 2.700634 0.020110 -0.010261 269987.000000 0 0 1
-10.765529 2.339949 -24.141078 26.536082 -0.214027 2.713467 0.001094 -0.007994 -19502.700000 0 0 1
-9.877729 3.320749 -23.659578 25.852902 -0.324315 2.726704 0.011122 -0.002969 -380998.000000 0 0 1
-9.709929 4.525649 -24.590478 26.822674 -0.436149 2.730737 0.018329 -0.004766 308466.000000 0 0 1
-10.868529 5.345449 -24.767778 27.570665 -0.457089 2.686768 0.019171 -0.001690 210263.000000 0 0 1
-11.593829 5.026349 -25.936788 28.851309 -0.409079 2.688234 0.007278 -0.001673 1112920.000000 0 0 1
-12.997629 5.743649 -26.120768 29.735877 -0.416097 2.643355 -0.002015 0.003698 1089920.000000 0 0 1
-12.865829 7.069749 -26.542088 30.331392 -0.502458 2.636377 0.000207 0.002410 592941.000000 0 0 1
-14.134929 7.620949 -26.923848 31.349141 -0.494481 2.603794 0.003612 -0.000099 538666.000000 0 0 1
-14.035329 9.189749 -27.144758 31.910497 -0.579713 2.588022 0.011384 0.005476 -92806.400000 0 0 1
-14.023029 9.823749 -25.898958 31.046858 -0.611091 2.557457 0.020206 -0.004290 94552.700000 0 0 1
-14.194129 11.211149 -25.950028 31.631742 -0.668518 2.532870 0.019557 -0.004868 -388231.000000 0 0 1
-13.775629 11.980949 -24.651678 30.675989 -0.715832 2.504141 0.012425 0.000527 -401433.000000 0 0 1
-14.504229 11.653549 -23.502478 29.975729 -0.676846 2.471961 0.021122 -0.002768 -130597.000000 0 0 1
-14.131429 12.379049 -22.316978 29.171658 -0.719393 2.441873 0.016373 -0.002803 -322706.000000 0 0 1
-15.018929 12.192849 -21.045978 28.586133 -0.681914 2.398279 0.024693 -0.008437 -314956.000000 0 0 1
-16.287129 12.781349 -21.226278 29.651110 -0.665374 2.368663 0.011765 -0.011786 -187276.000000 0 0 1
-16.756129 13.206349 -19.952678 29.211040 -0.667474 2.322730 0.011910 -0.007622 -312793.000000 0 0 1
-18.259829 13.508049 -19.908478 30.203249 -0.636921 2.290485 0.021673 -0.012073 -348437.000000 0 0 1
-18.640729 14.521949 -20.782478 31.468638 -0.661832 2.292173 0.016535 -0.008473 562559.000000 0 0 1
-20.055529 14.673649 -20.911178 32.477955 -0.631654 2.270326 0.009692 -0.007305 592404.000000 0 0 1
-20.405329 16.008249 -21.633778 33.773686 -0.665226 2.266012 0.004091 -0.011604 -159449.000000 0 0 1
-20.037729 16.160349 -23.006778 34.525053 -0.678689 2.300138 0.016284 -0.013562 242364.000000 0 0 1
-20.425229 17.435449 -23.457278 35.657100 -0.706594 2.288766 0.003235 -0.005703 -114086.000000 0 0 1
-20.523629 17.535449 -25.011378 36.800548 -0.707045 2.318077 -0.000877 -0.005348 -759032.000000 0 0 1
-19.295329 17.486549 -25.638478 36.543408 -0.736262 2.348422 0.003120 -0.012237 -633061.000000 0 0 1
-19.462029 17.101149 -27.000178 37.419640 -0.720918 2.376836 -0.000099 -0.016033 -176607.000000 0 0 1
-18.433329 17.667749 -28.000068 37.893809 -0.764195 2.402246 -0.023705 -0.003737 -173642.000000 0 0 1
-18.724829 18.998549 -28.417728 38.976036 -0.792654 2.387814 -0.026769 -0.014763 453716.000000 0 0 1
-18.257029 20.027549 -27.546358 38.642252 -0.831612 2.364358 -0.033222 -0.022299 -1278810.000000 0 0 1
-18.830729 21.471249 -27.866798 39.901996 -0.850823 2.343929 0.000789 -0.011002 694973.000000 0 0 1
-20.012729 21.819249 -27.144858 40.167552 -0.828556 2.312833 0.018617 -0.001784 839558.000000 0 0 1
-21.200329 21.094649 -27.504738 40.631869 -0.782900 2.314374 0.038448 -0.018743 -503282.000000 0 0 1
-22.223429 21.435549 -26.409448 40.630315 -0.767354 2.278372 0.036329 -0.007166 -433231.000000 0 0 1
-21.885329 20.892949 -25.125778 39.329222 -0.762204 2.263809 0.012803 -0.000500 102395.000000 0 0 1
-22.807129 21.291049 -24.142478 39.450388 -0.751032 2.229346 0.014072 -0.016776 -51290.800000 0 0 1
-22.298029 20.899249 -22.722978 38.082994 -0.753028 2.210141 0.000916 0.006538 577872.000000 0 0 1
-21.229929 21.722549 -22.250878 37.652099 -0.796867 2.203044 0.008466 0.004712 991186.000000 0 0 1
-20.182229 21.179249 -21.395978 36.244597 -0.809499 2.202254 -0.005948 0.011717 668480.000000 0 0 1
-20.547129 20.454649 -20.062878 35.257570 -0.783143 2.176131 -0.003278 0.008042 -766733.000000 0 0 1
-21.296329 19.251949 -20.273278 35.145085 -0.735022 2.185658 0.003608 0.004535 713765.000000 0 0 1
-21.982529 18.667949 -19.133378 34.609393 -0.704040 2.156562 0.004667 0.013067 1131080.000000 0 0 1
-23.184529 19.541749 -18.599978 35.571920 -0.700345 2.121027 0.008978 0.013858 286483.000000 0 0 1
-24.376129 19.739049 -19.336478 36.847322 -0.680670 2.123245 0.009559 0.005426 291644.000000 0 0 1
-25.226949 20.640049 -18.671178 37.563592 -0.685725 2.090998 0.016123 -0.005016 -126943.000000 0 0 1
-26.667869 20.766949 -19.301578 38.922902 -0.661633 2.089659 0.009885 0.001873 611339.000000 0 0 1
-27.455949 19.627249 -19.129478 38.794265 -0.620632 2.086447 0.005203 0.002936 -26744.400000 0 0 1
-28.058269 19.642349 -17.833378 38.614993 -0.610763 2.050848 -0.008063 0.022522 -742533.000000 0 0 1
-28.838799 18.336549 -17.474978 38.383333 -0.566349 2.043478 -0.017725 0.013678 121172.000000 0 0 1
-28.000859 17.275249 -17.131978 37.094299 -0.552793 2.050875 -0.003747 0.004103 -117187.000000 0 0 1
-28.845069 16.284849 -16.629278 37.064366 -0.513955 2.036061 -0.006288 -0.000772 200952.000000 0 0 1
-28.197949 15.092049 -15.843578 35.691921 -0.491423 2.030741 0.010728 0.000487 -122328.000000 0 0 1
-27.645589 15.345449 -14.576378 34.817125 -0.506733 2.002761 0.013161 0.000732 309608.000000 0 0 1
-28.619989 15.680049 -13.574178 35.344392 -0.501207 1.964980 -0.008126 0.002722 491546.000000 0 0 1
-28.033679 16.328849 -12.307478 34.698595 -0.527432 1.933386 -0.007858 0.001002 47600.200000 0 0 1
-27.534619 17.669549 -12.407478 34.990195 -0.570533 1.933281 -0.002405 0.006539 132461.000000 0 0 1
-28.474629 18.664149 -12.749878 36.355390 -0.580208 1.929116 -0.012748 0.004926 -182335.000000 0 0 1
-27.729809 19.988949 -12.940778 36.550843 -0.624581 1.932693 0.007373 0.002419 188755.000000 0 0 1
-26.989329 20.403649 -11.826278 35.841228 -0.647323 1.907061 -0.009885 -0.014384 45348.200000 0 0 1
-26.114429 21.478149 -12.120478 35.919080 -0.688289 1.914991 -0.007606 -0.007055 315841.000000 0 0 1
-25.629929 22.230349 -10.841478 35.617683 -0.714486 1.880089 -0.001655 -0.000709 493513.000000 0 0 1
-26.523979 23.243149 -10.467178 36.787597 -0.719570 1.859313 -0.013054 -0.013725 264771.000000 0 0 1
-25.680849 24.347649 -10.220278 36.834333 -0.758756 1.851952 0.014914 -0.009396 443482.000000 0 0 1
-26.278109 25.386949 -9.200178 37.678634 -0.768151 1.817465 0.030847 0.001481 -127220.000000 0 0 1
-26.098229 24.863049 -7.941578 36.910126 -0.761165 1.787652 0.026929 -0.002155 379421.000000 0 0 1
-26.827899 25.584149 -6.941978 37.715725 -0.761672 1.755912 0.030891 -0.007120 322415.000000 0 0 1
-26.702409 24.852049 -5.593178 36.904290 -0.749522 1.722942 0.024428 -0.004697 128802.000000 0 0 1
-26.991989 23.489349 -5.730678 36.237517 -0.716124 1.729605 0.029089 -0.009762 -131725.000000 0 0 1
-26.826899 22.730949 -4.577178 35.458837 -0.702936 1.700242 0.033168 -0.006109 -6885.630000 0 0 1
-26.855109 21.172749 -4.886678 34.545069 -0.667632 1.712730 0.018782 -0.009269 578334.000000 0 0 1
-25.812469 20.732349 -5.784978 33.609222 -0.676684 1.743783 0.013451 -0.014798 372928.000000 0 0 1
-26.052039 21.010849 -7.154078 34.224923 -0.678689 1.781381 0.001163 -0.006752 -583705.000000 0 0 1
-26.948099 20.090449 -7.988078 34.549031 -0.640630 1.804117 0.004998 -0.013531 -127072.000000 0 0 1
-26.437589 18.769849 -7.930978 33.378942 -0.617385 1.810695 -0.013521 -0.007663 374059.000000 0 0 1
-26.912059 18.014949 -9.062478 33.629241 -0.589893 1.843652 -0.022018 -0.001809 -753.272000 0 0 1
-26.442989 16.523449 -9.091278 32.479338 -0.558506 1.854496 -0.007175 -0.003370 -248333.000000 0 0 1
-27.113199 15.735349 -8.168578 32.395253 -0.525851 1.825701 -0.027711 0.002075 -125545.000000 0 0 1
-26.813939 14.367949 -8.387278 31.555851 -0.491906 1.839821 -0.015732 0.000631 -99952.500000 0 0 1
-27.557349 13.337149 -7.535678 31.528931 -0.450748 1.812141 -0.009842 -0.004156 -696994.000000 0 0 1
-28.863759 13.009449 -7.859078 32.620967 -0.423452 1.814111 -0.008982 -0.004536 -502558.000000 0 0 1
-29.492219 12.099049 -6.935178 32.623223 -0.389307 1.785015 -0.010823 -0.004086 409392.000000 0 0 1
-30.104029 10.788949 -7.561878 32.860858 -0.344129 1.802995 0.001258 -0.008498 54608.900000 0 0 1
-29.139419 9.821649 -7.871678 31.741674 -0.325098 1.821403 0.010155 0.001527 17606.900000 0 0 1
-29.811029 8.680449 -8.343378 32.150577 -0.283348 1.833311 0.001280 0.001340 -220401.000000 0 0 1
-28.883859 7.604049 -8.962578 31.183757 -0.257422 1.862320 0.028396 -0.002334 -257795.000000 0 0 1
-28.671449 7.801649 -10.330878 31.458620 -0.265673 1.905401 0.019355 -0.006323 340889.000000 0 0 1
-27.681439 6.956649 -10.884778 30.547265 -0.246212 1.935129 0.043760 -0.011930 -278239.000000 0 0 1
-27.217609 7.311749 -12.301478 30.750387 -0.262444 1.982360 0.047726 -0.013432 57300.500000 0 0 1
-26.346359 8.448849 -12.246278 30.256983 -0.310323 1.987493 0.051834 -0.021435 1433350.000000 0 0 1
-25.060729 8.210449 -12.858178 29.339127 -0.316602 2.024459 0.052780 -0.014365 672286.000000 0 0 1
-31.144279 25.979449 -34.282216 53.105256 -0.695229 2.272542 0.024305 -0.000269 -146823.000000 0 0 1
-31.690579 27.247349 34.512282 54.201554 -0.710152 0.880534 0.022035 -0.013395 262571.000000 0 0 1
-31.299119 27.731249 33.220285 53.406407 -0.725030 0.899466 0.013919 -0.019203 -237044.000000 0 0 1
-31.973479 29.078549 32.974835 54.361798 -0.738016 0.919043 0.019879 -0.028313 -304577.000000 0 0 1
-31.634499 29.629249 31.668045 53.679596 -0.752678 0.939805 0.032947 -0.020326 119343.000000 0 0 1
-32.030369 30.964349 31.581605 54.608911 -0.768477 0.954124 0.050022 -0.027365 -113591.000000 0 0 1
-31.621509 31.775649 30.318975 54.118868 -0.787829 0.976134 0.042111 -0.017085 177899.000000 0 0 1
-30.246719 31.914949 30.008745 53.234883 -0.812229 0.971932 0.038094 -0.014093 139151.000000 0 0 1
-30.113719 32.706349 28.860395 53.004375 -0.826645 0.995014 0.035144 -0.004268 -198749.000000 0 0 1
-28.744049 32.547349 28.179175 51.765009 -0.847371 0.995162 0.037441 -0.010478 -393123.000000 0 0 1
-28.567299 31.343949 27.443935 50.514387 -0.831711 0.996446 0.039574 -0.009380 -233929.000000 0 0 1
-27.410089 31.268949 26.670905 49.400378 -0.851066 1.000487 0.018919 -0.006110 -620972.000000 0 0 1
-27.549619 31.997449 25.280965 49.213265 -0.859954 1.031302 0.020933 -0.012992 -392573.000000 0 0 1
-27.260379 33.390549 25.325465 49.994362 -0.886129 1.039599 0.023895 -0.016731 587932.000000 0 0 1
-28.200359 34.164649 24.560965 50.652981 -0.880743 1.064563 0.030066 -0.010876 234575.000000 0 0 1
-28.327379 -33.548894 25.225835 50.639030 0.869585 1.049332 0.036305 -0.016448 -164442.000000 0 0 1
-29.126929 -33.654594 26.388785 51.743382 0.857391 1.035619 0.034579 -0.022415 332373.000000 0 0 1
-28.947799 -32.549494 27.240775 51.376107 0.843898 1.011933 0.039113 -0.024511 -261475.000000 0 0 1
-29.455479 -32.789994 28.677885 52.585454 0.838917 0.993980 0.037206 -0.028438 -575585.000000 0 0 1
-30.844349 -32.857694 28.791365 53.478450 0.816993 1.002291 0.030211 -0.025486 -635817.000000 0 0 1
-31.142919 -32.964794 30.136105 54.449461 0.813809 0.984272 0.019604 -0.018104 -282366.000000 0 0 1
-32.607569 -33.298494 30.425535 55.657492 0.795881 0.992430 0.029243 -0.019395 -213036.000000 0 0 1
-32.777689 -34.007694 31.628735 56.844322 0.803813 0.980738 0.027943 -0.016138 -204765.000000 0 0 1
-34.123934 -33.954694 32.045325 57.829637 0.782912 0.983475 0.019013 -0.017549 -81039.900000 0 0 1
-34.371896 -34.507294 33.499837 59.113616 0.787364 0.968298 0.015420 -0.008501 -98634.800000 0 0 1
-34.152037 33.219449 33.637910 58.321543 -0.771557 0.956031 0.012990 -0.005579 -449205.000000 0 0 1
-35.001484 32.694949 -34.465176 59.007727 -0.751340 2.194541 0.018896 -0.002751 -181924.000000 0 0 1
-34.572758 31.345849 -33.919778 57.692193 -0.736484 2.199311 0.009086 -0.001541 -45643.600000 0 0 1
-33.481859 31.371449 -33.039698 56.540466 -0.752868 2.194881 0.016160 -0.002415 -519157.000000 0 0 1
-33.049449 30.072049 -32.717688 55.380875 -0.738264 2.202817 0.012597 -0.009973 75193.900000 0 0 1
-32.621209 29.994149 -31.250248 54.225181 -0.743467 2.184997 0.014478 -0.010788 322127.000000 0 0 1
-33.655459 30.236649 -30.293638 54.448594 -0.731940 2.160809 0.004887 -0.007783 88037.100000 0 0 1
-33.748199 31.587649 -29.934988 55.071081 -0.752342 2.145481 0.004658 -0.000225 246766.000000 0 0 1
-34.706285 31.874549 -28.736318 55.193198 -0.742893 2.118408 -0.005757 0.011894 761164.000000 0 0 1
-34.076919 31.682849 -27.433318 54.015056 -0.749008 2.103522 -0.013928 0.003222 -74062.700000 0 0 1
-35.059217 31.433849 -26.500238 54.032381 -0.730930 2.083404 -0.011954 0.010308 -582882.000000 0 0 1
-34.517529 31.231349 -25.017278 52.846203 -0.735459 2.063941 -0.003943 0.006697 186360.000000 0 0 1
-34.021589 32.486849 -24.480978 53.030012 -0.762326 2.050644 -0.001937 -0.000272 40957.100000 0 0 1
-33.565189 32.335649 -23.168078 52.047824 -0.766743 2.032116 -0.010660 -0.004917 559969.000000 0 0 1
-34.712796 31.969549 -22.120478 52.118575 -0.744282 2.009124 -0.017272 0.002303 1021620.000000 0 0 1
34.859435 32.898149 -21.826978 52.667688 0.756461 1.998111 -0.016067 0.002336 691858.000000 0 0 1
35.260375 34.122949 -21.166278 53.438572 0.769006 1.978047 -0.007902 -0.005399 -334191.000000 0 0 1
-35.259160 33.963349 -19.588978 52.729930 -0.766681 1.951417 -0.005914 -0.007602 1125050.000000 0 0 1
-34.088749 33.197449 -19.125378 51.282487 -0.772153 1.952974 -0.006675 -0.010511 1190860.000000 0 0 1
-34.055999 32.899749 -17.788778 50.583052 -0.768131 1.930156 0.006152 -0.007738 -81269.300000 0 0 1
-32.886109 31.954949 -17.462878 49.066965 -0.771038 1.934672 0.001953 -0.003146 78130.200000 0 0 1
-32.756829 31.653249 -16.073278 48.304123 -0.768266 1.910016 0.009498 -0.001200 -112228.000000 0 0 1
-31.570999 30.908349 -15.864378 46.943929 -0.774793 1.915527 0.006805 0.003622 -223028.000000 0 0 1
-31.254469 30.655249 -14.361678 46.074330 -0.775720 1.887785 0.014037 0.001631 -90745.200000 0 0 1
-32.036509 29.663749 -13.779278 45.783670 -0.746961 1.876501 0.018233 0.008749 -39476.300000 0 0 1
-31.491169 29.439049 -12.501978 44.884861 -0.751731 1.853064 0.022464 0.005266 5450.320000 0 0 1
-32.332469 28.468249 -11.665978 44.630985 -0.721928 1.835256 0.015437 0.002009 -105298.000000 0 0 1
-31.707849 28.106349 -10.458578 43.643286 -0.725259 1.812789 0.028061 0.006849 48928.600000 0 0 1
-32.379589 26.963349 -9.959378 43.297219 -0.694380 1.802898 0.012917 0.006563 -322892.000000 0 0 1
-31.684669 26.113649 -8.844178 42.000719 -0.689308 1.782956 0.016690 0.002016 -159814.000000 0 0 1
-31.512659 26.740549 -7.611878 42.024342 -0.703661 1.752932 0.010927 -0.004261 546562.000000 0 0 1
-30.485879 27.741149 -7.584978 41.910524 -0.738295 1.752779 0.025451 -0.004765 -251193.000000 0 0 1
-30.150459 28.258149 -6.192278 41.784177 -0.753012 1.719541 0.025467 -0.008804 -219294.000000 0 0 1
-29.627629 27.255549 -5.295678 40.604255 -0.743721 1.701591 0.039046 -0.019163 334715.000000 0 0 1
-29.661139 27.755749 -3.945078 40.813336 -0.752225 1.667609 0.036273 -0.015426 19053.900000 0 0 1
-28.914629 26.788049 -3.006178 39.530905 -0.747239 1.646916 0.038948 -0.006674 -113796.000000 0 0 1
-29.660279 25.601849 -2.834878 39.283882 -0.712090 1.643023 0.035939 0.002120 368156.000000 0 0 1
-28.905709 24.664449 -2.047678 38.053489 -0.706391 1.624633 0.015517 0.001194 616313.000000 0 0 1
-29.702539 23.362449 -1.681378 37.826867 -0.666484 1.615260 0.026200 -0.006574 665.890000 0 0 1
-29.833669 22.465549 -2.766378 37.448652 -0.645435 1.644735 0.016131 -0.005104 -269782.000000 0 0 1
-30.743049 21.490949 -2.381278 37.585455 -0.610089 1.634195 0.016320 -0.001986 -356391.000000 0 0 1
-31.115569 20.521349 -3.495178 37.436889 -0.583039 1.664294 0.010942 0.000565 -52285.400000 0 0 1
-30.096899 19.593249 -3.802178 36.113367 -0.577082 1.676276 -0.002724 -0.006205 162029.000000 0 0 1
-30.396109 18.997849 -5.050978 36.198813 -0.558606 1.710787 0.001423 -0.003903 -289400.000000 0 0 1
-29.402959 17.929449 -5.480378 34.871675 -0.547582 1.728609 -0.002429 0.001341 -301204.000000 0 0 1
-29.404049 16.772949 -4.657678 34.170512 -0.518393 1.707529 -0.016015 -0.005572 -65898.600000 0 0 1
-28.451789 15.874549 -5.129678 32.982104 -0.508923 1.726959 -0.024041 -0.006533 -445216.000000 0 0 1
-28.075339 14.709549 -4.169178 31.968383 -0.482609 1.701585 -0.028835 -0.006460 220227.000000 0 0 1
-29.195479 13.861649 -3.903978 32.553991 -0.443275 1.691009 -0.008313 -0.006274 676479.000000 0 0 1
-28.802539 12.681549 -3.208678 31.633899 -0.414752 1.672403 -0.008121 -0.010589 -180139.000000 0 0 1
-29.942929 11.849949 -2.591478 32.306595 -0.376838 1.651098 -0.002099 -0.012909 -265258.000000 0 0 1
-30.785459 11.300149 -3.574878 32.988144 -0.351793 1.679378 -0.006942 -0.003480 -324505.000000 0 0 1
-31.895699 10.632549 -3.087678 33.762708 -0.321769 1.662377 0.001678 -0.002713 -701577.000000 0 0 1
-32.944309 10.330149 -4.166578 34.776427 -0.303854 1.690895 0.000105 0.001228 -418815.000000 0 0 1
-32.522939 9.489149 -5.232978 34.280746 -0.283887 1.724046 -0.002485 0.000669 972956.000000 0 0 1
-33.678069 8.801849 -5.750678 35.281088 -0.255635 1.734523 0.007390 0.013216 725367.000000 0 0 1
-33.271749 7.954849 -6.941578 34.906653 -0.234682 1.770992 0.006175 0.008415 -173585.000000 0 0 1
-32.574749 6.782949 -6.582478 33.918309 -0.205294 1.766104 -0.007222 0.013849 298087.000000 0 0 1
-32.171339 5.997549 -7.662678 33.610747 -0.184309 1.800802 0.003317 0.012325 -951536.000000 0 0 1
-31.277789 4.856549 -7.231778 32.468212 -0.154041 1.795414 0.010287 0.007521 -85330.200000 0 0 1
-30.014309 5.303849 -6.776678 31.223596 -0.174905 1.789574 0.017469 0.001212 969564.000000 0 0 1
-29.016609 4.289849 -6.527378 30.049510 -0.146778 1.789763 0.012468 -0.001593 1599380.000000 0 0 1
-27.538699 4.718949 -6.196578 28.618980 -0.169709 1.789045 0.042862 -0.006213 886623.000000 0 0 1
-26.908379 5.242649 -7.338578 28.379587 -0.192423 1.832355 0.052801 -0.011561 40756.800000 0 0 1
-25.522769 5.423749 -7.111078 27.044338 -0.209391 1.836866 0.070931 -0.016415 218645.000000 0 0 1
-24.791529 5.738949 -8.446778 26.812376 -0.227481 1.891288 0.074098 -0.021068 -24982.700000 0 0 1
-24.881529 4.747249 -9.447278 27.034754 -0.188528 1.927780 0.071584 -0.026390 261390.000000 0 0 1
-24.018229 5.073149 -10.509778 26.703326 -0.208161 1.975314 0.068722 -0.030983 -251222.000000 0 0 1
-24.293229 4.332449 -11.815578 27.359440 -0.176484 2.017356 0.066557 -0.037445 -46334.600000 0 0 1
-25.585819 4.593649 -12.317278 28.765450 -0.177646 2.013293 0.057899 -0.019619 171169.000000 0 0 1
-25.858899 3.850449 -13.435678 29.394320 -0.147816 2.045510 0.056992 -0.016724 355116.000000 0 0 1
-26.826189 4.592549 -14.422478 30.801685 -0.169553 2.058090 0.051456 -0.010385 -482473.000000 0 0 1
-26.108199 5.516149 -15.183978 30.702103 -0.208218 2.088123 0.041028 -0.009036 -56619.800000 0 0 1
-26.722839 6.504449 -16.032278 31.834760 -0.238761 2.098568 0.074420 -0.010864 -568320.000000 0 0 1
-27.450119 5.850449 -17.266078 32.952303 -0.209988 2.122304 0.017695 0.003499 832135.000000 0 0 1
-28.640419 5.159049 -16.820378 33.612713 -0.178221 2.094877 0.012631 -0.008574 662904.000000 0 0 1
-29.348379 4.621149 -17.954478 34.713767 -0.156176 2.114390 0.015850 0.002115 -232112.000000 0 0 1
-30.736129 4.110349 -17.569478 35.641144 -0.132941 2.086279 0.008428 -0.000017 -680288.000000 0 0 1
-30.896789 2.963249 -16.771478 35.279950 -0.095616 2.066195 0.011916 -0.010177 156748.000000 0 0 1
-30.449399 1.751249 -17.386878 35.107496 -0.057450 2.088915 0.035949 -0.014477 -390482.000000 0 0 1
-30.538869 0.512549 -16.477078 34.704169 -0.016782 2.065518 0.041507 -0.011638 -800783.000000 0 0 1
-29.922719 -0.608051 -16.940778 34.390824 0.020318 2.085866 0.044353 -0.003926 162853.000000 0 0 1
-30.094539 -1.652851 -15.975378 34.111961 0.054867 2.058187 0.055648 -0.016946 -102885.000000 0 0 1
-29.841509 -3.010851 -16.659978 34.309412 0.100554 2.077823 0.060949 -0.007800 154143.000000 0 0 1
-30.873789 -3.270651 -17.584178 35.680405 0.105543 2.086129 0.054707 -0.009960 462637.000000 0 0 1
-30.562489 -4.477551 -18.297478 35.901419 0.145470 2.105585 0.042509 -0.004915 288897.000000 0 0 1
-31.475999 -4.648751 -19.534978 37.335838 0.146632 2.121425 0.036619 0.007633 216191.000000 0 0 1
-31.315769 -5.899851 -20.131678 37.693104 0.186216 2.134233 0.036842 0.007396 678160.000000 0 0 1
-32.445219 -6.167751 -20.981978 39.127699 0.187856 2.136777 0.031734 0.011586 284001.000000 0 0 1
-32.383259 -7.536951 -21.739078 39.724912 0.228671 2.149860 0.035408 0.003181 -121847.000000 0 0 1
-31.353229 -7.510351 -22.702378 39.431311 0.235110 2.184311 0.028003 0.001409 -76323.800000 0 0 1
-31.515469 -8.380951 -23.802178 40.373368 0.259916 2.201300 0.021809 0.012457 -1017090.000000 0 0 1
-30.310579 -8.467651 -24.682278 39.995589 0.272418 2.235880 0.012448 0.012608 -978203.000000 0 0 1
-29.867639 -7.190951 -25.171078 39.716103 0.236264 2.257220 0.026439 0.012067 182086.000000 0 0 1
-29.501039 -7.093751 -26.545088 40.314691 0.235978 2.289550 0.032597 0.014674 475881.000000 0 0 1
-30.746569 -7.096051 -27.504088 41.859053 0.226820 2.287714 0.013893 0.014462 303285.000000 0 0 1
-31.532359 -8.229851 -27.351068 42.545282 0.255302 2.269035 0.011845 0.005295 -1046170.000000 0 0 1
-32.778459 -8.069251 -27.972178 43.840426 0.241376 2.262753 0.008982 0.010133 163280.000000 0 0 1
-33.685029 -9.258151 -27.540388 44.484464 0.268222 2.238394 0.017867 0.003310 -191321.000000 0 0 1
-33.210719 -10.434651 -28.209968 44.806652 0.304429 2.251826 0.010607 0.007124 176281.000000 0 0 1
-34.037749 -11.595851 -28.190238 45.691593 0.328345 2.235680 -0.001735 0.014368 628482.000000 0 0 1
-35.312386 -11.605651 -29.145808 47.234880 0.317536 2.235772 0.001616 0.005286 839596.000000 0 0 1
34.372541 -10.699751 -28.584168 45.967498 -0.301780 2.241879 -0.005077 0.009986 -3447.260000 0 0 1
33.431741 -10.347751 -29.608338 45.841149 -0.300167 2.272985 0.006597 -0.005639 -427511.000000 0 0 1
32.536581 -9.210251 -29.151828 44.646242 -0.275857 2.282271 0.004093 -0.002988 -376378.000000 0 0 1
31.550931 -9.728751 -28.272598 43.467800 -0.299100 2.278942 -0.006951 -0.002801 200027.000000 0 0 1
30.717141 -8.685151 -27.732868 42.285772 -0.275553 2.286096 -0.012382 0.002373 473833.000000 0 0 1
29.695331 -9.265351 -26.722518 41.009174 -0.302442 2.280518 -0.007381 0.004506 129649.000000 0 0 1
30.199321 -9.413251 -25.383948 40.558021 -0.302160 2.247040 -0.022135 0.017945 341537.000000 0 0 1
29.191301 -9.978051 -24.549278 39.425380 -0.329365 2.242956 -0.018740 0.019710 128235.000000 0 0 1
29.522971 -10.109851 -23.065278 38.804922 -0.329924 2.207304 -0.022323 0.020074 27154.300000 0 0 1
30.458821 -11.128751 -22.766578 39.622038 -0.350302 2.182904 -0.026962 0.024284 320134.000000 0 0 1
30.599761 -11.193251 -21.348378 38.953658 -0.350677 2.150822 -0.020672 0.024841 -63962.900000 0 0 1
31.426771 -12.372551 -20.789978 39.660372 -0.375059 2.122572 -0.005751 0.015601 1147750.000000 0 0 1
32.792421 -12.397051 -21.280778 41.010989 -0.361439 2.116365 0.003320 0.019210 1229330.000000 0 0 1
33.585711 -13.364551 -20.607378 41.608595 -0.378715 2.088939 0.021474 0.014440 -1549570.000000 0 0 1
34.913503 -13.490551 -21.266378 43.048885 -0.368727 2.087487 0.023336 0.007122 -1781920.000000 0 0 1
-34.930450 -12.365551 -20.901178 42.542948 0.340238 2.084373 0.021557 0.003652 64320.900000 0 0 1
-34.932449 -11.251051 -21.799978 42.686077 0.311589 2.106801 0.008597 0.018681 -872045.000000 0 0 1
-34.284004 -11.411251 -23.192478 42.936006 0.321311 2.141428 0.001742 0.018012 -194108.000000 0 0 1
-34.869934 -12.218351 -24.219978 44.179268 0.337029 2.151031 0.002219 0.020249 352527.000000 0 0 1
34.487191 -11.727751 -24.612078 43.962039 -0.327793 2.164999 -0.005303 0.022511 -96070.300000 0 0 1
33.783551 -12.578351 -25.684828 44.263457 -0.356421 2.189858 0.010745 0.007179 -105152.000000 0 0 1
33.453581 -13.904351 -25.290668 44.182473 -0.393908 2.180243 0.028531 0.007087 783414.000000 0 0 1
32.488281 -14.086551 -24.232178 42.908248 -0.409123 2.170919 0.010299 0.008660 -113744.000000 0 0 1
-29.048609 8.970649 -19.356278 36.041084 -0.299524 2.137746 -0.000898 0.012521 -288945.000000 0 0 1
-27.846259 8.306149 -19.541178 35.018051 -0.289884 2.162808 0.001035 0.015517 -537996.000000 0 0 1
-27.150399 8.622049 -20.708078 35.218012 -0.307494 2.199376 0.011983 -0.000975 84092.800000 0 0 1
-25.945879 7.696449 -21.011778 34.262498 -0.288367 2.230976 0.016210 -0.000437 -231005.000000 0 0 1
-24.880629 7.875249 -20.145178 32.968067 -0.306544 2.228184 0.029333 -0.005994 -1014000.000000 0 0 1
-23.801129 7.041349 -20.399978 32.128390 -0.287637 2.258742 0.044156 -0.009440 257860.000000 0 0 1
-22.523329 7.596349 -19.643178 30.836007 -0.325286 2.261424 0.048722 -0.018992 624682.000000 0 0 1
-21.813029 8.501649 -20.475978 31.102282 -0.371640 2.289412 0.055972 -0.017591 81697.800000 0 0 1
-20.745729 9.067549 -19.708978 30.017487 -0.412058 2.287076 0.045570 -0.009635 13132.400000 0 0 1
-19.986229 10.141949 -20.474078 30.356158 -0.469587 2.311032 0.039651 -0.005745 -587623.000000 0 0 1
-19.300329 9.686649 -21.581178 30.530003 -0.465159 2.355880 0.044335 -0.011654 -417227.000000 0 0 1
-18.684829 10.733249 -22.252178 30.975553 -0.521411 2.372265 0.036665 -0.006462 -351552.000000 0 0 1
-17.827529 10.299249 -23.455378 31.209775 -0.523873 2.421189 0.041307 -0.005108 69434.800000 0 0 1
-18.477629 9.399449 -24.366478 31.992150 -0.470578 2.436635 0.039169 -0.009909 16095.300000 0 0 1
-17.506529 8.848849 -25.234788 31.962090 -0.468006 2.480827 0.029452 -0.004199 -153023.000000 0 0 1
-17.988129 7.808749 -26.238908 32.757131 -0.409558 2.499783 0.015896 0.003388 -427401.000000 0 0 1
-18.414329 6.616349 -25.640558 32.253710 -0.344940 2.489746 0.031849 0.011233 321753.000000 0 0 1
-19.078629 5.708449 -26.540838 33.181268 -0.290729 2.497882 0.019812 0.008694 -96039.900000 0 0 1
-19.515429 4.435749 -25.769898 32.628446 -0.223497 2.481277 0.024899 0.024368 273722.000000 0 0 1
-18.451829 3.552749 -25.434258 31.622674 -0.190214 2.505300 0.024186 0.020257 428092.000000 0 0 1
-17.538829 3.870349 -24.404178 30.301057 -0.217192 2.507130 0.018438 0.010529 -133978.000000 0 0 1
-16.655329 2.648149 -24.036778 29.362891 -0.157677 2.529784 0.022513 0.008763 -248168.000000 0 0 1
-17.202229 1.720249 -23.118378 28.867548 -0.099670 2.499498 0.022731 0.006385 304560.000000 0 0 1
-18.444229 1.131749 -23.488678 29.886258 -0.061284 2.475004 0.024288 0.007643 6343.900000 0 0 1
-18.961129 0.104349 -22.464478 29.397076 -0.005503 2.440556 0.047404 -0.000554 -81773.600000 0 0 1
-18.184129 -1.042051 -22.180578 28.700635 0.057243 2.454078 0.046687 -0.004156 92017.000000 0 0 1
-18.741029 -1.683851 -21.049578 28.233779 0.089608 2.412150 0.043342 -0.006799 31664.300000 0 0 1
-18.248129 -3.141451 -20.769278 27.824914 0.170481 2.413474 0.023227 -0.026064 -106185.000000 0 0 1
-18.599429 -4.055851 -21.774778 28.922822 0.214702 2.423190 0.028290 -0.031350 71475.600000 0 0 1
-18.703629 -5.373151 -21.259178 28.820984 0.279745 2.400348 0.025126 -0.024314 -312147.000000 0 0 1
-18.763529 -6.467051 -22.300778 29.853266 0.331910 2.414354 0.004678 -0.021477 -635109.000000 0 0 1
-17.585729 -6.525651 -23.060178 29.725642 0.355326 2.458726 0.005410 -0.011980 -217430.000000 0 0 1
-17.627429 -7.534451 -24.021878 30.733448 0.403925 2.468055 0.013846 -0.024297 36519.900000 0 0 1
-16.401829 -7.522151 -24.958778 30.798431 0.429996 2.515616 0.028064 -0.029059 -376993.000000 0 0 1
-16.439029 -8.454151 -26.026768 31.923455 0.475001 2.524020 0.029596 -0.040743 1509060.000000 0 0 1
-15.094729 -8.690851 -26.551318 31.754594 0.522401 2.561006 0.038563 -0.042200 1354960.000000 0 0 1
-14.062729 -9.515251 -25.802288 30.887836 0.594868 2.559573 0.041746 -0.044347 -989607.000000 0 0 1
-13.355429 -8.803051 -24.855978 29.558093 0.582771 2.569777 0.040140 -0.036167 -167754.000000 0 0 1
-12.419029 -9.652551 -24.238378 28.894688 0.660707 2.565968 0.025809 -0.028420 -239603.000000 0 0 1
-11.729729 -9.084651 -22.990178 27.361756 0.658996 2.568504 0.048916 -0.028708 75144.600000 0 0 1
-12.514729 -8.761251 -21.842478 26.654677 0.610776 2.531267 0.044596 -0.019747 420923.000000 0 0 1
-11.624429 -8.306251 -20.842178 25.268905 0.620425 2.540672 0.040973 -0.018309 166344.000000 0 0 1
-12.355029 -7.781451 -19.532478 24.386788 0.562058 2.499668 0.026758 -0.005892 519575.000000 0 1 0
-13.206129 -6.635551 -19.593278 24.542390 0.465614 2.495337 0.016155 -0.001213 863842.000000 0 1 0
-14.592829 -6.988751 -19.606678 25.420762 0.446639 2.451655 0.017370 -0.018697 468340.000000 0 0 1
-15.478029 -5.731251 -19.376178 25.452955 0.354629 2.436042 0.017574 -0.014442 -399564.000000 0 0 1
-15.464829 -5.327951 -18.036078 24.348472 0.331785 2.404979 0.018505 -0.004158 243749.000000 0 1 0
-15.253829 -3.923651 -17.860278 23.813103 0.251766 2.418887 0.022719 -0.008724 -525562.000000 0 1 0
-14.939929 -3.518451 -16.368678 22.439131 0.231292 2.388343 0.034075 -0.012434 180983.000000 0 1 0
-16.024729 -3.506451 -15.443178 22.529511 0.215420 2.326038 0.039909 -0.014036 95549.100000 0 1 0
-16.748229 -2.285251 -15.557878 22.973313 0.135610 2.314768 0.016786 -0.006815 -32960.500000 0 1 0
-18.091329 -2.288851 -14.791478 23.480265 0.125848 2.252290 0.022349 -0.009193 -174037.000000 0 1 0
-17.918729 -2.520551 -13.379378 22.504261 0.139749 2.207473 0.037717 -0.024125 670955.000000 0 1 0
-18.756729 -1.703651 -12.568178 22.642359 0.090580 2.159248 0.025418 -0.024178 130226.000000 0 1 0
-17.949729 -0.526051 -11.936178 21.562510 0.029299 2.157431 0.011777 -0.018091 116262.000000 0 1 0
-17.713029 0.519249 -12.870178 21.901199 -0.029306 2.198944 0.033036 -0.019001 1162660.000000 0 1 0
-16.582229 1.355449 -12.512678 20.817653 -0.081560 2.215624 0.023047 -0.008989 10750.700000 0 1 0
-16.108929 2.263149 -13.642778 21.230752 -0.139577 2.268677 0.032677 -0.003504 -62107.100000 0 1 0
-15.514229 1.628649 -14.766478 21.480053 -0.104595 2.328769 0.045108 -0.010530 -197401.000000 0 1 0
-14.250529 1.096349 -14.532578 20.383213 -0.076783 2.364518 0.039703 -0.007378 -1050750.000000 0 1 0
-13.716929 0.237149 -15.696278 20.846667 -0.017287 2.423314 0.039077 0.000166 20612.100000 0 1 0
-13.362329 0.926449 -16.896278 21.561409 -0.069222 2.471292 0.037028 -0.004500 310732.000000 0 1 0
-12.738429 -0.050751 -17.727878 21.829975 0.003984 2.518519 0.019059 -0.003717 -18505.100000 0 1 0
-11.996829 0.553949 -18.943678 22.429750 -0.046142 2.576573 0.022331 -0.010692 -234748.000000 0 1 0
-10.759929 1.140449 -18.576878 21.498304 -0.105596 2.614174 -0.001804 -0.003759 -74927.100000 0 1 0
-10.367629 2.072749 -19.558778 22.233529 -0.197324 2.646022 -0.007081 -0.001646 170726.000000 0 1 0
-8.944929 2.648849 -19.344678 21.476609 -0.287901 2.692249 -0.012872 -0.001414 -672135.000000 0 1 0
-7.912829 1.776949 -19.751578 21.351704 -0.220901 2.751986 -0.014872 0.003567 -230842.000000 0 1 0
-6.614229 2.287349 -19.568678 20.782520 -0.332948 2.798127 0.000358 0.007131 27189.100000 0 1 0
-6.260929 3.438749 -20.503478 21.712136 -0.502259 2.806356 0.001178 0.014465 -1458990.000000 0 1 0
-6.117829 2.946049 -21.783878 22.817633 -0.448780 2.839429 -0.004812 0.012075 150285.000000 0 1 0
-5.864229 3.991949 -22.667078 23.751237 -0.597675 2.838284 -0.005391 0.007867 -194691.000000 0 1 0
-5.305629 3.448849 -24.010478 24.830371 -0.576400 2.883899 0.007672 -0.000393 -718015.000000 0 1 0
-4.079729 2.825849 -23.890178 24.400209 -0.605780 2.936771 0.030400 -0.011418 -944709.000000 0 1 0
-3.723329 2.193849 -25.117608 25.486671 -0.532453 2.971207 0.036845 -0.013857 -317099.000000 0 0 1
-2.300629 1.626949 -25.140838 25.298253 -0.615526 3.029979 0.040041 -0.019122 -1591740.000000 0 0 1
-1.324629 2.669849 -25.237828 25.413199 -1.110238 3.024045 0.039635 -0.017805 310819.000000 0 0 1
-0.010429 2.139449 -25.255238 25.345698 -1.565922 3.057080 0.040765 -0.015649 89333.100000 0 0 1
0.469271 1.358149 -24.003878 24.046849 1.238116 3.081801 0.038193 -0.010151 -2008470.000000 0 1 0
-0.023229 0.063849 -23.875178 23.875275 -1.221869 3.138747 0.026778 -0.015450 19609.000000 0 1 0
0.649671 -0.470551 -22.744378 22.758520 -0.626844 3.106338 0.028989 -0.017023 -645117.000000 0 1 0
0.435571 -2.017551 -22.648378 22.742235 -1.358169 3.050710 0.029970 -0.021949 311471.000000 0 1 0
-0.793629 -2.351451 -22.004278 22.143790 1.245295 3.029282 0.028695 -0.022917 357033.000000 0 1 0
-1.919029 -2.426651 -22.862878 23.071248 0.901682 3.007092 0.032350 -0.021824 -668211.000000 0 1 0
-2.809129 -1.246251 -22.771978 22.978410 0.417555 3.007449 0.031691 -0.022407 -2236050.000000 0 1 0
-3.466729 -1.130951 -21.540578 21.847054 0.315344 2.973895 0.027086 -0.022498 -286045.000000 0 1 0
-4.236529 0.032649 -21.432878 21.847597 -0.007706 2.946438 0.017960 -0.023786 -86117.300000 0 1 0
-5.651429 -0.167551 -22.004578 22.719335 0.029639 2.890091 0.016729 -0.019911 -777335.000000 0 1 0
-6.378129 -1.240351 -21.449478 22.412030 0.192072 2.847453 0.019301 -0.012572 2904870.000000 0 1 0
-7.833429 -1.123351 -21.829978 23.220088 0.142434 2.793818 0.000358 0.001452 3299850.000000 0 1 0
-8.668129 -2.393251 -21.453178 23.261620 0.269387 2.744674 0.012662 -0.008132 93188.600000 0 1 0
-8.657229 -3.426151 -22.376378 24.236097 0.376842 2.747295 0.037582 -0.014106 -399953.000000 0 1 0
-9.198029 -4.581751 -21.843978 24.140330 0.462145 2.701882 0.028893 -0.013249 -260107.000000 0 1 0
-9.986729 -5.338551 -22.989578 25.627243 0.490915 2.683903 0.021461 -0.018560 300113.000000 0 0 1
-11.305829 -4.839951 -23.019578 26.098810 0.404488 2.650921 0.015645 -0.017512 -598632.000000 0 0 1
-12.155529 -5.497451 -23.868178 27.343533 0.424731 2.631912 0.011917 -0.026404 -603458.000000 0 0 1
-13.653129 -5.265951 -23.660178 27.819817 0.368114 2.587692 0.010506 -0.025048 -521963.000000 0 0 1
-14.089829 -3.983551 -23.839878 27.977343 0.275534 2.590807 0.008222 -0.022018 -914464.000000 0 0 1
-15.452729 -3.972951 -24.097278 28.900692 0.251653 2.556744 0.021523 -0.019245 -584225.000000 0 0 1
-15.917329 -2.544751 -24.491578 29.320207 0.158531 2.559500 0.014183 -0.014398 -360279.000000 0 0 1
-15.344129 -2.112451 -25.698698 30.005463 0.136812 2.599183 0.011023 -0.011496 289735.000000 0 0 1
-15.888229 -0.895551 -26.268358 30.712611 0.056306 2.596917 0.005222 -0.001083 -469637.000000 0 0 1
-17.326729 -0.892451 -26.770758 31.901183 0.051462 2.566566 0.029544 0.003666 -807545.000000 0 0 1
-17.630729 -1.635451 -27.966198 33.100235 0.092497 2.577164 0.033942 -0.007048 -58393.600000 0 0 1
-17.074129 -1.158351 -29.170788 33.820150 0.067739 2.611039 0.016148 0.002892 -248250.000000 0 0 1
-17.224029 -2.139151 -30.342908 34.956190 0.123563 2.622011 0.002247 0.010914 281905.000000 0 0 1
-18.542229 -2.302051 -30.842228 36.060459 0.123520 2.596911 0.006443 0.006292 -98106.000000 0 0 1
-18.564529 -2.993751 -32.068918 37.175527 0.159885 2.611253 0.008684 0.002629 2393.900000 0 0 1
-20.055929 -3.270951 -32.400018 38.245269 0.161668 2.581421 -0.005154 0.007664 526716.000000 0 0 1
-20.999529 -2.231851 -32.604338 38.845904 0.105884 2.566837 -0.005480 -0.002082 535608.000000 0 0 1
-21.363729 -1.508651 -31.409978 38.016729 0.070500 2.543151 -0.005923 0.010074 -678037.000000 0 0 1
-22.509229 -0.489451 -31.635358 38.829123 0.021741 2.523064 -0.007834 0.012167 38952.300000 0 0 1
-22.154729 0.708549 -32.301818 39.175777 -0.031971 2.540177 -0.013554 0.009206 524941.000000 0 0 1
-23.277729 1.306849 -32.949528 40.363745 -0.056083 2.525798 -0.005560 0.008969 378412.000000 0 0 1
-22.890129 2.608049 -33.718888 40.837768 -0.113448 2.542201 -0.006007 0.007909 -667453.000000 0 0 1
-22.292529 3.628149 -32.940218 39.939683 -0.161337 2.540555 -0.009143 0.008373 140486.000000 0 0 1
-23.016629 4.311749 -31.929538 39.596108 -0.185186 2.508803 -0.004299 0.002996 -447206.000000 0 0 1
-24.262529 5.122749 -32.375818 40.781202 -0.208082 2.487977 0.001389 -0.002540 -210311.000000 0 0 1
-25.295269 4.358649 -32.935248 41.756185 -0.170635 2.479571 0.009516 -0.008935 -288085.000000 0 0 1
-26.055989 5.124949 -33.848788 43.022321 -0.194211 2.476359 0.012085 -0.010742 -26724.700000 0 0 1
-27.301779 4.346249 -34.341649 44.086573 -0.157868 2.463801 0.007647 -0.006263 -97850.800000 0 0 1
-26.945899 3.100849 34.176137 43.631469 -0.114573 0.670854 0.009675 -0.009183 410600.000000 0 0 1
-27.948119 2.602549 33.304824 43.555504 -0.092853 0.700294 0.004510 -0.005400 70455.600000 0 0 1
-27.901519 1.043949 33.114908 43.314913 -0.037398 0.700507 0.006784 0.006859 -449824.000000 0 0 1
-28.322919 0.350549 34.218676 44.421035 -0.012376 0.691444 -0.005113 0.013884 8460.310000 0 0 1
-28.482919 -0.980851 33.963273 44.336697 0.034423 0.698153 -0.008071 0.007528 -866920.000000 0 0 1
-28.372759 -1.903251 -33.802618 44.172987 0.066980 2.442199 -0.028840 0.015026 127436.000000 0 0 1
-27.075249 -1.995651 -33.233148 42.912631 0.073575 2.456622 -0.025778 0.010548 541731.000000 0 0 1
-26.619119 -0.786451 -32.643158 42.128040 0.029536 2.457283 -0.025741 0.019973 -509477.000000 0 0 1
-27.123709 -0.468451 -31.162748 41.316243 0.017269 2.425306 -0.001116 0.020558 -177374.000000 0 0 1
-26.189229 -0.954151 -30.218468 39.999274 0.036417 2.427176 0.001167 0.014185 485164.000000 0 0 1
-26.406019 -0.533251 -28.903808 39.153446 0.020192 2.401222 0.009961 0.015344 -495390.000000 0 0 1
-25.394959 -1.089151 -27.901948 37.743992 0.042862 2.402741 0.021604 0.013288 -339417.000000 0 0 1
-25.374379 -2.449051 -27.757638 37.687444 0.096219 2.398711 0.019195 0.015113 1913.660000 0 0 1
-24.509929 -2.704251 -26.688098 36.335990 0.109888 2.395698 0.041260 0.004775 -172272.000000 0 0 1
-24.447229 -4.104251 -26.129428 36.017480 0.166331 2.382506 0.034621 -0.002978 -96161.200000 0 0 1
-25.614479 -4.336051 -25.382038 36.320115 0.167692 2.344574 0.037633 -0.000526 -188891.000000 0 0 1
-25.516449 -5.350251 -24.411178 35.715822 0.206684 2.323321 0.038196 -0.005797 -50753.400000 0 0 1
-26.824079 -5.547351 -23.607578 36.161057 0.203930 2.282131 0.040077 -0.009653 167501.000000 0 0 1
-27.032179 -6.694051 -22.782478 35.980416 0.242749 2.256465 0.034826 -0.007352 -204581.000000 0 0 1
-28.151079 -6.509451 -21.946578 36.283722 0.227239 2.220387 0.037040 -0.004272 -92235.500000 0 0 1
-28.448109 -7.765351 -21.077778 36.247321 0.266474 2.191366 0.038827 -0.004635 -653665.000000 0 0 1
-27.494199 -8.021151 -20.104478 34.992283 0.283861 2.182839 0.030517 -0.007104 -173469.000000 0 0 1
-27.927069 -8.903851 -19.091078 34.980981 0.308637 2.148087 0.036496 -0.005549 188466.000000 0 0 1
-28.695649 -8.229751 -17.898178 34.806808 0.279298 2.110888 0.038910 -0.011687 -93138.800000 0 0 1
-27.854939 -7.566151 -17.009678 33.503334 0.265228 2.103311 0.039290 -0.016515 128542.000000 0 0 1
-28.530479 -6.986751 -15.922478 33.411499 0.240161 2.067530 0.043223 -0.016105 60104.800000 0 0 1
-27.449269 -6.436451 -14.956678 31.915396 0.230324 2.058542 0.041332 -0.016491 446958.000000 0 0 1
-26.883059 -5.228651 -15.499378 31.468530 0.192098 2.085797 0.044143 -0.008977 -313533.000000 0 0 1
-25.763459 -4.905151 -14.747178 30.088130 0.188140 2.083038 0.040843 -0.027371 -668808.000000 0 0 1
-13.889029 21.511749 -5.248378 26.138209 -0.997486 1.772964 0.029406 0.003922 112956.000000 0 0 1
-13.656829 20.763049 -6.419978 25.667670 -0.988994 1.823600 0.037781 0.005759 -34709.800000 0 0 1
-14.647329 19.775149 -6.607878 25.480675 -0.933278 1.833124 0.046494 -0.006065 -163541.000000 0 0 1
-14.751529 18.986649 -7.951878 25.324550 -0.910274 1.890198 0.051009 -0.014802 -1361750.000000 0 0 1
-13.602029 18.322449 -8.321078 24.289250 -0.932197 1.920461 0.054093 -0.014268 -914844.000000 0 1 0
-13.647929 17.168749 -9.161178 23.768868 -0.899155 1.966468 0.045545 -0.021838 -292696.000000 0 1 0
-14.264329 15.888249 -8.443178 22.960723 -0.839203 1.947355 0.047117 -0.034630 110868.000000 0 1 0
-15.655429 16.088849 -8.246578 23.915467 -0.799051 1.922845 0.049249 -0.017406 136682.000000 0 1 0
-16.101929 15.248749 -7.172578 23.307560 -0.758191 1.883609 0.059946 -0.008835 590371.000000 0 1 0
-17.589529 15.612249 -6.856478 24.497860 -0.725915 1.854466 0.068261 -0.007482 670129.000000 0 1 0
-18.557929 15.251849 -7.825078 25.263560 -0.687923 1.885714 0.061018 -0.010619 -670276.000000 0 0 1
-19.841729 15.541649 -7.373878 26.260448 -0.664463 1.855422 0.031301 -0.012426 -86506.900000 0 0 1
-20.919729 14.893049 -8.318378 26.993210 -0.618677 1.884060 0.034500 -0.005504 169288.000000 0 0 1
-21.228729 13.603849 -7.930578 26.431377 -0.569897 1.875535 0.047700 -0.009287 36989.000000 0 0 1
-22.220229 13.037549 -8.748178 27.207478 -0.530614 1.898147 0.058380 -0.011925 -71111.400000 0 0 1
-22.670929 11.609549 -8.430678 26.829629 -0.473273 1.890442 0.044686 -0.009654 -759950.000000 0 0 1
-21.746929 10.599349 -8.637578 25.688186 -0.453513 1.913725 0.059157 -0.009680 -598193.000000 0 0 1
-22.132829 9.479549 -7.899978 25.340356 -0.404665 1.887836 0.058704 -0.017880 -402331.000000 0 0 1
-21.100329 8.392549 -7.554678 23.931818 -0.378561 1.891964 0.059738 -0.003934 -380538.000000 0 1 0
-20.715029 7.409349 -8.486178 23.580206 -0.343500 1.938942 0.042638 -0.003237 366546.000000 0 1 0
-19.715129 6.623549 -7.877778 22.239989 -0.324115 1.932873 0.039535 -0.000674 -314197.000000 0 1 0
-19.434629 5.386449 -8.740278 21.979788 -0.270371 1.979751 0.024799 -0.005891 -90735.100000 0 1 0
-20.379929 4.296349 -8.649078 22.552310 -0.207770 1.964392 0.030695 -0.006867 742190.000000 0 1 0
-20.378129 3.464549 -9.765978 22.861443 -0.168403 2.012169 0.030631 -0.007891 -447909.000000 0 1 0
-21.182529 2.224249 -9.430278 23.293282 -0.104621 1.987611 0.026957 -0.014196 228226.000000 0 1 0
-20.438729 1.356749 -8.596378 22.214413 -0.066284 1.968143 0.006774 -0.014816 687010.000000 0 1 0
-21.324729 0.360849 -8.110978 22.818025 -0.016920 1.934206 0.015712 -0.015583 241031.000000 0 1 0
-21.251129 -0.945751 -9.007578 23.100680 0.044474 1.971349 -0.000826 -0.019464 50398.100000 0 1 0
-20.179429 -1.829251 -8.709978 22.054914 0.090402 1.976780 -0.005504 -0.013346 283226.000000 0 1 0
-20.291629 -3.128451 -9.342678 22.557106 0.152970 1.997837 -0.008808 -0.011926 -813300.000000 0 1 0
-21.302129 -4.034251 -8.685178 23.355689 0.187166 1.951814 -0.006552 -0.009428 -339251.000000 0 1 0
-20.949929 -4.336351 -7.333278 22.615933 0.204104 1.901018 -0.015205 -0.007409 711477.000000 0 1 0
-21.966429 -5.084651 -6.639078 23.504362 0.227468 1.857155 0.010675 -0.006842 69909.300000 0 1 0
-21.982029 -6.580851 -6.818278 23.937546 0.290883 1.859632 0.002496 -0.013323 48911.900000 0 1 0
-20.855029 -7.266651 -6.272678 22.958287 0.335281 1.847536 -0.017774 -0.010327 1089690.000000 0 1 0
-21.181329 -8.692051 -6.280278 23.741153 0.389409 1.838514 -0.008923 -0.006684 196320.000000 0 1 0
-20.084329 -9.560151 -5.564878 22.929122 0.444264 1.815944 -0.010627 -0.006744 672150.000000 0 1 0
-18.919529 -9.726051 -6.375478 22.207912 0.474844 1.861975 -0.014155 0.003745 224823.000000 0 1 0
-17.870729 -10.345751 -5.682978 21.417137 0.524776 1.839360 -0.011135 0.003434 -496011.000000 0 1 0
-17.495529 -11.694151 -6.292278 21.964505 0.589207 1.861342 -0.006517 0.008684 162120.000000 0 1 0
-16.484229 -11.688151 -7.332278 21.496627 0.616774 1.918872 -0.000136 0.008694 760902.000000 0 1 0
-16.820529 -11.017551 -8.480978 21.823007 0.579886 1.969936 0.005179 0.000440 -499330.000000 0 1 0
-15.981629 -11.306251 -9.750378 21.870383 0.615710 2.032893 0.029740 0.004238 88102.000000 0 1 0
-16.269829 -12.543751 -10.349878 23.003761 0.656795 2.037473 0.045460 0.004693 368811.000000 0 1 0
-15.125329 -13.100551 -10.990578 22.829648 0.713786 2.073067 0.030022 0.010508 264927.000000 0 1 0
-15.317029 -14.479451 -11.701178 24.107747 0.757296 2.077583 0.045909 0.005327 77889.500000 0 1 0
-16.104629 -14.385351 -12.868178 25.137371 0.729070 2.108208 0.027318 0.001391 110625.000000 0 0 1
-16.063229 -15.550751 -13.542878 26.139295 0.769189 2.115429 0.016004 0.004573 9065.480000 0 0 1
-16.321229 -15.526251 -15.051978 27.092601 0.760441 2.159851 0.025552 0.008156 -22603.900000 0 0 1
-16.602029 -16.750651 -15.600278 28.276852 0.789854 2.155195 0.027355 0.013044 170405.000000 0 0 1
-16.529129 -16.728651 -17.015678 29.027455 0.791397 2.197148 0.020423 0.009672 -304904.000000 0 0 1
-16.963029 -18.030051 -17.697178 30.430531 0.815881 2.191441 0.021908 0.005732 -392966.000000 0 0 1
-18.312029 -18.323851 -17.476878 31.249563 0.785721 2.164299 -0.004170 0.003877 -645608.000000 0 0 1
-19.120429 -18.372551 -18.635978 32.410509 0.765454 2.183398 0.003698 0.003753 -499168.000000 0 0 1
-20.556529 -17.989251 -18.320678 32.891204 0.718893 2.161576 -0.003317 -0.001810 -797322.000000 0 0 1
-20.775129 -16.660251 -17.890578 32.081813 0.675918 2.162354 -0.015614 0.003952 153292.000000 0 0 1
-20.632129 -16.574851 -16.480478 31.177181 0.676781 2.127755 -0.024104 0.002919 -394313.000000 0 0 1
-20.550829 -15.123251 -15.940578 30.085733 0.634413 2.129206 -0.015536 -0.000300 -229037.000000 0 0 1
-21.796329 -14.487951 -15.872678 30.609191 0.586638 2.115961 -0.011385 0.005112 -8353.410000 0 0 1
-21.629429 -13.223551 -15.321378 29.621599 0.548737 2.114415 -0.009391 -0.000621 114879.000000 0 0 1
-22.957229 -12.620451 -14.774078 30.076295 0.502642 2.084286 0.006850 -0.010871 -17139.900000 0 0 1
-23.507529 -13.301551 -13.684578 30.278753 0.514925 2.039750 0.010930 -0.008053 759557.000000 0 0 1
-24.596529 -12.508851 -13.168878 30.575807 0.470473 2.016060 0.035466 -0.018750 403156.000000 0 0 1
-25.405189 -13.196451 -12.041378 31.057443 0.479078 1.968946 0.029766 -0.018828 184670.000000 0 0 1
-26.440409 -12.391151 -11.490778 31.379513 0.438250 1.945705 0.035976 -0.029191 352947.000000 0 0 1
-26.834609 -12.688051 -10.126078 31.362722 0.441672 1.899557 0.026170 -0.023665 540760.000000 0 0 1
-27.818109 -11.632651 -9.521178 31.619908 0.396070 1.876656 0.033010 -0.020973 501348.000000 0 0 1
-27.099119 -10.427951 -9.196578 30.457864 0.367341 1.877528 0.039080 -0.022719 687742.000000 0 0 1
-27.891439 -9.506151 -8.429178 30.648823 0.328479 1.849412 0.055389 -0.021689 -263615.000000 0 0 1
-27.033429 -8.458351 -7.769278 29.371954 0.303235 1.838496 0.037551 -0.016508 -779190.000000 0 0 1
-26.212879 -8.848851 -6.736578 28.474527 0.325564 1.809643 0.011587 -0.015736 247930.000000 0 0 1
-25.393149 -7.809451 -6.121878 27.263106 0.298361 1.797276 0.015539 -0.017525 -42952.800000 0 0 1
-26.123719 -6.670551 -5.435678 27.504391 0.250003 1.769735 0.020836 -0.021106 -141369.000000 0 0 1
-27.035449 -7.077151 -4.381778 28.287834 0.256028 1.726322 0.022209 -0.020612 700045.000000 0 0 1
-26.481119 -7.215751 -3.098178 27.620924 0.266028 1.683201 0.028809 -0.008174 -548878.000000 0 0 1
-25.991039 -5.999651 -2.317678 26.775017 0.226862 1.657466 0.024131 -0.010500 -147436.000000 0 0 1
-26.940989 -5.092351 -1.790078 27.476414 0.186815 1.635992 0.021498 -0.008554 253846.000000 0 0 1
-26.312179 -4.081051 -0.965178 26.644274 0.153875 1.607029 0.005575 -0.006120 -78418.800000 0 0 1
-27.300529 -2.996451 -0.358078 27.466813 0.109320 1.583833 0.008679 -0.008946 -286538.000000 0 0 1
-28.221019 -3.395551 0.579822 28.430475 0.119744 1.550401 0.001353 -0.003529 -207248.000000 0 0 1
-27.664699 -3.742251 1.854622 27.978199 0.134456 1.504460 -0.003126 -0.000012 11706.900000 0 0 1
-28.800309 -3.959151 2.878622 29.213339 0.136613 1.472098 -0.015669 0.001127 30359.400000 0 0 1
-29.171229 -5.293251 3.078622 29.806996 0.179501 1.467327 0.001942 -0.000061 153067.000000 0 0 1
-30.077549 -5.440951 4.166622 30.848398 0.178962 1.435315 0.024559 -0.000750 -110645.000000 0 0 1
-30.802099 -6.778151 4.116022 31.806513 0.216603 1.441024 0.028857 -0.000400 -658716.000000 0 0 1
-30.005049 -7.861051 4.447522 31.334957 0.256232 1.428381 0.031151 0.004016 250480.000000 0 0 1
-30.734209 -9.103551 4.230522 32.332083 0.287969 1.439574 0.048306 0.006070 699333.000000 0 0 1
-29.911289 -10.433951 4.510622 31.998410 0.335632 1.429361 0.039574 -0.000626 217279.000000 0 0 1
-29.704409 -10.552551 5.919122 32.074043 0.341346 1.385187 0.023771 0.001423 297892.000000 0 0 1
-28.814839 -11.635551 6.181222 31.684200 0.383781 1.374449 0.015232 0.004658 50910.100000 0 0 1
-28.713529 -12.066751 7.643322 32.070136 0.397837 1.330149 0.013414 -0.009610 -57012.200000 0 0 1
-28.432149 -10.950351 8.489322 31.628561 0.367631 1.299058 0.017175 -0.010445 416133.000000 0 0 1
-28.504209 -11.246551 9.888822 32.198814 0.375806 1.258634 0.027830 -0.011487 -349068.000000 0 0 1
-28.631469 -10.042051 10.824622 32.214535 0.337329 1.228112 0.026974 -0.013067 35022.900000 0 0 1
-27.450259 -9.250051 10.975522 30.976479 0.325024 1.208612 0.012355 -0.006614 355905.000000 0 0 1
-27.606039 -8.269851 11.955622 31.199691 0.291059 1.177542 0.020993 -0.011519 270923.000000 0 0 1
-26.656109 -7.019551 11.668622 29.932908 0.257492 1.170354 0.016859 -0.005049 454201.000000 0 0 1
-26.935729 -6.267351 10.485922 29.576473 0.228610 1.208379 0.025078 -0.005027 -74536.600000 0 0 1
-26.130199 -5.159051 10.428622 28.603484 0.194929 1.197601 0.018885 -0.003082 -783052.000000 0 0 1
-26.556289 -4.268351 9.277722 28.452266 0.159365 1.238642 0.016077 -0.003060 -224014.000000 0 0 1
-26.393609 -4.953251 8.008622 28.023121 0.185511 1.280970 0.012787 0.004654 360261.000000 0 0 1
-26.793809 -4.072151 6.980422 27.986013 0.150827 1.318709 -0.002262 -0.001804 -428927.000000 0 0 1
-26.063989 -4.277351 5.668722 27.014101 0.162660 1.359382 -0.004784 0.008289 151465.000000 0 0 1
-24.661329 -4.039151 5.755722 25.644185 0.162343 1.344422 0.032035 -0.003598 583741.000000 0 0 1
-24.112229 -4.128151 4.476922 24.869340 0.169562 1.389792 0.055877 -0.003582 352706.000000 0 1 0
-22.582429 -3.795451 4.436322 23.324933 0.166515 1.379434 0.059464 -0.002361 677298.000000 0 1 0
-22.312129 -2.362851 4.530622 22.889751 0.105507 1.371548 0.038771 -0.005810 508602.000000 0 1 0
-20.928629 -2.070551 4.441522 21.494693 0.098613 1.362663 0.032224 -0.002211 -153485.000000 0 1 0
-20.576129 -0.660351 4.837422 21.147430 0.032082 1.340005 0.023767 -0.008530 -553100.000000 0 1 0
-20.640929 0.369949 3.898122 21.009050 -0.017921 1.384170 0.025473 -0.010437 859995.000000 0 1 0
-21.927229 0.742649 3.411022 22.203378 -0.033856 1.416559 0.016906 -0.009168 -139758.000000 0 1 0
-21.928529 1.917749 2.449322 22.148077 -0.087233 1.459981 0.035408 -0.004113 -374500.000000 0 1 0
-21.535529 3.155149 3.026522 21.974845 -0.145474 1.432630 0.024614 -0.001971 82399.200000 0 1 0
-21.640729 4.253849 2.132722 22.157728 -0.194092 1.474395 0.039825 -0.005462 348039.000000 0 1 0
-20.475629 4.601249 1.136522 21.017007 -0.221046 1.516694 0.033296 -0.005068 -20556.900000 0 1 0
-20.900629 5.260649 -0.054978 21.552581 -0.246576 1.573347 0.054517 0.003326 442980.000000 0 1 0
-21.666829 4.561149 -1.035078 22.165896 -0.207483 1.617510 0.058534 -0.004243 -22974.900000 0 1 0
-21.095229 3.246849 -1.675178 21.409272 -0.152716 1.649122 0.051250 -0.002051 -335031.000000 0 1 0
-20.982929 2.140049 -0.831378 21.108158 -0.101639 1.610193 0.029201 -0.005140 244886.000000 0 1 0
-20.369129 1.096749 -1.499878 20.453702 -0.053792 1.644193 0.013968 -0.001152 -60487.000000 0 1 0
-19.515329 0.138649 -0.583778 19.524551 -0.007104 1.600700 0.011418 -0.001886 -72048.200000 0 1 0
-20.361829 -0.612851 0.260022 20.372709 0.030089 1.558033 0.018410 -0.003192 766277.000000 0 1 0
-19.687329 -1.539251 1.092822 19.777626 0.078026 1.515513 0.017248 -0.002938 -423646.000000 0 1 0
-18.883629 -2.734751 0.457222 19.086104 0.143821 1.546838 0.003988 -0.003725 302137.000000 0 1 0
-18.055729 -3.308851 1.473922 18.415491 0.181247 1.490674 0.002335 -0.002885 763330.000000 0 1 0
-17.441829 -4.531851 1.022322 18.049937 0.254206 1.514127 0.002634 -0.000880 737080.000000 0 1 0
-18.528129 -5.671751 0.648922 19.387662 0.297058 1.537319 0.006298 0.000650 641114.000000 0 1 0
-19.134029 -6.005051 1.863522 20.140616 0.304106 1.478138 0.026144 -0.000085 16497.800000 0 1 0
-20.157929 -6.930851 1.601422 21.376233 0.331165 1.495810 0.005124 -0.002335 -341370.000000 0 1 0
-20.873029 -7.458151 2.886222 22.352576 0.343173 1.441312 0.012480 0.005821 148995.000000 0 1 0
-20.090529 -8.357051 3.733422 22.077321 0.394197 1.400873 0.011851 0.005363 634294.000000 0 1 0
-20.741329 -8.717251 4.914622 23.029258 0.397869 1.355735 0.008895 0.006241 -126265.000000 0 1 0
-19.776629 -9.477751 5.834122 22.693166 0.446902 1.310789 -0.001826 0.012083 -112904.000000 0 1 0
-19.589129 -10.835551 5.435022 23.036549 0.505252 1.332620 0.003168 0.011968 162184.000000 0 1 0
-18.620129 -11.457251 6.270122 22.744059 0.551605 1.291497 0.010299 0.012343 277970.000000 0 1 0
-17.937829 -12.635851 5.551022 22.632814 0.613689 1.323004 0.003085 0.007135 381250.000000 0 1 0
-18.857529 -13.712551 5.500922 23.956223 0.628726 1.339105 0.010361 0.011374 747105.000000 0 1 0
-18.182929 -14.717951 4.759222 23.872310 0.680469 1.370090 -0.000152 0.011661 272113.000000 0 1 0
-18.740529 -16.066251 5.246722 25.236084 0.708717 1.361363 0.000632 0.006243 -30330.200000 0 0 1
-18.224129 -17.205251 4.580922 25.477920 0.756648 1.390014 0.003817 -0.001584 -150083.000000 0 0 1
-18.813829 -18.315951 5.154622 26.758258 0.771990 1.376948 0.000740 -0.008082 -80382.700000 0 0 1
-18.001529 -19.658651 4.998422 27.120137 0.829372 1.385430 0.005372 -0.010863 -340826.000000 0 0 1
-17.828029 -20.191751 3.688422 27.187311 0.847489 1.434710 0.004051 -0.013298 -54465.900000 0 0 1
-17.150329 -21.432851 3.651122 27.691724 0.895940 1.438562 -0.004181 -0.010373 195825.000000 0 0 1
-15.608729 -21.293451 3.770822 26.669507 0.938245 1.428930 0.014436 -0.008835 182431.000000 0 0 1
-14.962829 -22.577151 3.957522 27.372906 0.985516 1.425710 0.008170 -0.010802 1323380.000000 0 0 1
-13.518129 -22.435851 4.058922 26.506265 1.028523 1.417061 -0.001043 -0.003856 1350080.000000 0 0 1
-12.766129 -23.774051 4.237322 27.315462 1.078006 1.415042 0.010575 -0.001153 -200507.000000 0 0 1
-12.629729 -24.695651 3.186222 27.920194 1.098058 1.456428 0.004983 -0.005436 -302637.000000 0 0 1
-12.092629 -25.881781 3.607122 28.794263 1.133710 1.445194 0.013891 -0.006510 -367032.000000 0 0 1
18.194871 19.891949 -24.952378 36.733692 0.829927 2.317574 0.019127 0.013893 -589224.000000 0 0 1
17.279571 20.105849 -25.969518 37.111246 0.860853 2.345879 0.007398 0.007378 -428103.000000 0 0 1
17.594471 19.558749 -27.212608 37.850180 0.838219 2.373095 0.018407 0.003459 381962.000000 0 0 1
16.497571 19.878549 -28.304828 38.320880 0.878077 2.401827 0.012930 0.002160 568505.000000 0 0 1
16.495571 21.223249 -28.707748 39.327661 0.910088 2.389065 0.010794 0.013862 570673.000000 0 0 1
15.464571 21.378949 -29.695168 39.724242 0.944567 2.415136 0.005197 0.013330 309530.000000 0 0 1
15.173771 22.850849 -30.134058 40.748817 0.984618 2.403135 0.005173 0.003919 -445776.000000 0 0 1
14.493871 23.487349 -29.061488 40.078647 1.017903 2.381993 0.002874 0.001180 359003.000000 0 0 1
14.505871 24.910149 -29.247528 41.065237 1.043472 2.363454 0.000380 0.004398 -21911.300000 0 0 1
13.716771 25.517549 -28.022068 40.305476 1.077568 2.339553 -0.001024 -0.000173 1169570.000000 0 0 1
12.321771 25.177649 -27.942858 39.579583 1.115670 2.354619 0.011123 -0.010328 625008.000000 0 0 1
11.691571 25.662149 -26.792178 38.898066 1.143299 2.330600 0.011425 -0.007144 -41660.900000 0 0 1
10.132171 25.658949 -26.904178 38.534106 1.194713 2.343664 0.027683 -0.007494 495371.000000 0 0 1
9.432571 26.509749 -26.088668 38.371328 1.228950 2.318423 0.031713 -0.008716 -273814.000000 0 0 1
9.507171 27.855149 -26.497858 39.603435 1.241886 2.303766 0.040281 -0.021434 -749395.000000 0 0 1
9.042171 28.887749 -25.484388 39.569141 1.267446 2.270573 0.059433 -0.015966 108916.000000 0 0 1
9.959071 29.203949 -24.402678 39.338841 1.242146 2.239947 0.040310 -0.014927 -371817.000000 0 0 1
9.429071 29.992149 -23.421078 39.204378 1.266195 2.211064 0.055204 -0.019488 -565822.000000 0 0 1
10.415071 30.380649 -22.291978 39.094626 1.240533 2.177553 0.025846 -0.012926 -189898.000000 0 0 1
11.424871 31.225249 -22.781278 40.305465 1.220040 2.171491 0.017088 -0.017992 -137848.000000 0 0 1
12.164471 31.799149 -21.702078 40.374997 1.205431 2.138281 -0.005276 -0.005892 64786.200000 0 0 1
13.411571 32.587049 -22.190578 41.643820 1.180363 2.132780 -0.017848 0.008721 -416328.000000 0 0 1
14.327571 31.669449 -22.672478 41.500296 1.145940 2.148762 -0.014567 0.003101 -1047460.000000 0 0 1
15.416271 32.336449 -23.248578 42.706015 1.125924 2.146454 -0.016273 0.008772 402924.000000 0 0 1
16.634271 31.389149 -23.573278 42.634224 1.083487 2.156660 -0.025828 0.012345 1012680.000000 0 0 1
17.442171 31.037749 -22.417778 42.072889 1.058812 2.132740 -0.003757 0.009470 473937.000000 0 0 1
18.636271 30.425549 -22.898578 42.395395 1.021221 2.141375 -0.004249 0.008297 179514.000000 0 0 1
19.546871 29.845549 -21.824778 41.822935 0.990960 2.119800 0.014805 0.011305 -368533.000000 0 0 1
20.171371 30.789649 -21.019278 42.387460 0.990820 2.089649 0.015329 0.012738 890251.000000 0 0 1
21.166871 30.122249 -20.150578 41.969419 0.958261 2.071594 0.021304 -0.002131 1020670.000000 0 0 1
21.732771 31.076749 -19.115178 42.467254 0.960523 2.037691 0.030084 -0.009173 -316604.000000 0 0 1
22.614971 32.071649 -19.548778 43.842699 0.956630 2.032958 0.025953 -0.005347 -67989.800000 0 0 1
23.237771 32.725549 -18.491178 44.191393 0.953337 2.002517 0.038757 -0.003908 323180.000000 0 0 1
24.600971 33.441849 -18.710878 45.537479 0.936553 1.994226 0.038894 -0.005530 854201.000000 0 0 1
25.657671 32.584449 -19.127778 45.672029 0.903773 2.002928 0.046641 -0.006863 -360948.000000 0 0 1
26.903571 33.193349 -18.963378 46.746232 0.889679 1.988504 0.044947 -0.008709 -61058.400000 0 0 1
28.090971 32.411049 -19.568978 47.143649 0.856681 1.998841 0.008194 0.002298 88529.900000 0 0 1
28.315471 31.261849 -18.798778 46.178600 0.834813 1.990061 0.026948 0.003395 81842.800000 0 0 1
29.490671 30.587249 -19.223178 46.634859 0.803649 1.995671 0.004634 0.011630 330114.000000 0 0 1
29.912571 29.407949 -18.315478 45.771673 0.776892 1.982475 -0.006056 0.010467 -346259.000000 0 0 1
30.196771 29.800949 -16.988478 45.700655 0.778801 1.951672 -0.007009 0.012057 160055.000000 0 0 1
30.558071 28.697949 -16.179478 44.934880 0.754017 1.939134 -0.004204 0.012333 -292051.000000 0 0 1
30.930671 29.029749 -14.720278 44.901217 0.753706 1.904809 -0.002211 0.009000 409800.000000 0 0 1
32.153971 29.759749 -14.523378 46.156787 0.746747 1.890888 -0.005656 0.009331 390107.000000 0 0 1
32.033071 31.147549 -14.688178 47.032223 0.771383 1.888410 -0.004916 0.004047 111680.000000 0 0 1
33.357871 31.926149 -15.007078 48.551405 0.763471 1.885039 0.003977 0.000702 592402.000000 0 0 1
34.237771 31.918649 -13.890078 48.825806 0.750357 1.859263 0.002349 -0.001915 -432357.000000 0 0 1
-35.231489 32.589949 -14.289578 50.075489 -0.746469 1.860179 0.013798 -0.016286 -399489.000000 0 0 1
-34.266289 32.804649 -13.115078 49.217160 -0.763609 1.840529 0.014693 -0.002245 -226480.000000 0 0 1
-34.870489 33.597449 -12.125178 49.917527 -0.766807 1.816155 0.024244 -0.009593 337882.000000 0 0 1
-33.923789 33.857249 -11.116378 49.200718 -0.784416 1.798704 0.028485 0.000129 69759.100000 0 0 1
-34.414189 -34.119994 -10.187178 49.520591 0.781106 1.777992 0.028899 0.004226 -248023.000000 0 0 1
-33.491389 -33.511694 -9.346578 48.291462 0.785701 1.765571 0.032558 0.002600 -522561.000000 0 0 1
-33.575189 -34.197594 -8.111378 48.606205 0.794582 1.738460 0.016209 0.000714 359077.000000 0 0 1
-32.984589 -33.292394 -7.008678 47.386582 0.790042 1.719245 0.026609 0.006161 573447.000000 0 0 1
-33.927689 -32.225794 -6.748978 47.277252 0.759677 1.714039 0.023879 0.006184 286593.000000 0 0 1
-33.543589 -31.390594 -5.703478 46.293319 0.752254 1.694313 0.033517 0.005725 -235409.000000 0 0 1
-34.712089 -30.482694 -5.317378 46.501594 0.720616 1.685395 0.023893 0.005127 277612.000000 0 0 1
34.897671 -31.264594 -4.661478 47.085578 -0.730542 1.669959 0.021597 0.004985 943334.000000 0 0 1
33.685671 -30.560094 -4.351178 45.690004 -0.736786 1.666173 0.021349 0.011927 688722.000000 0 0 1
33.753971 -29.809494 -3.043378 45.135337 -0.723422 1.638275 0.013128 0.006280 -338978.000000 0 0 1
34.419071 -28.577994 -3.203878 44.851299 -0.692943 1.642291 0.016634 -0.002904 36842.400000 0 0 1
33.971271 -27.662494 -2.243778 43.866791 -0.683394 1.621968 0.005594 -0.006833 -83621.600000 0 0 1
34.126671 -26.218894 -2.760378 43.124004 -0.655099 1.634850 0.021854 -0.013245 -16404.900000 0 0 1
33.479571 -25.918294 -3.994878 42.527622 -0.658780 1.664871 0.037324 -0.019104 223640.000000 0 0 1
33.173771 -24.523894 -4.079478 41.455549 -0.636589 1.669362 0.040401 -0.025967 -254657.000000 0 0 1
32.653071 -24.158394 -5.511078 40.990523 -0.636974 1.705652 0.046437 -0.033430 -934057.000000 0 0 1
33.622071 -24.202894 -6.484378 41.931741 -0.623925 1.726061 0.047674 -0.026625 -425225.000000 0 0 1
33.165171 -23.662994 -7.677878 41.458601 -0.619722 1.757065 0.031005 -0.029309 -694146.000000 0 0 1
34.280471 -23.388594 -8.654078 42.391863 -0.598728 1.776386 0.033999 -0.031758 -427133.000000 0 0 1
34.862471 -24.520994 -9.266678 43.618142 -0.612980 1.784878 0.039064 -0.009278 69035.400000 0 0 1
-34.544189 -24.149994 -9.860078 43.286768 0.610125 1.800599 0.043797 -0.007390 329557.000000 0 0 1
-33.759389 -25.282194 -10.565978 43.480174 0.642793 1.816261 0.052369 -0.013885 -65073.300000 0 0 1
-33.236489 -26.329394 -9.737778 43.505465 0.669956 1.796538 0.041808 -0.003230 150513.000000 0 0 1
-34.170189 -27.355494 -9.408078 44.770937 0.675086 1.782513 0.038709 0.000748 86692.200000 0 0 1
-33.483189 -28.602694 -8.872778 44.921757 0.706951 1.769620 0.028949 0.005286 100901.000000 0 0 1
-32.709189 -29.338494 -9.806478 45.020054 0.731127 1.790381 0.029614 0.002955 299263.000000 0 0 1
-32.002689 -30.436294 -9.240578 45.121263 0.760317 1.777050 0.026041 0.004095 17205.900000 0 0 1
-31.428489 -31.371794 -10.301178 45.585673 0.784495 1.798739 0.022861 0.003638 268353.000000 0 0 1
-30.103489 -31.016694 -10.731178 44.535531 0.800338 1.814149 -0.001215 0.018974 657340.000000 0 0 1
-29.745389 -31.951394 -11.733578 45.203502 0.821139 1.833376 -0.009087 0.016896 -239025.000000 0 0 1
-29.841089 -31.249194 -13.131478 45.160142 0.808444 1.865834 -0.015570 0.020764 -391566.000000 0 0 1
-28.972489 -30.166994 -13.364178 43.909610 0.805594 1.880059 -0.021147 0.017842 -131720.000000 0 0 1
-29.395889 -29.472394 -14.556078 44.097842 0.786698 1.907191 -0.020545 0.025116 -156662.000000 0 0 1
-28.359289 -28.466294 -15.009578 42.893666 0.787281 1.928288 -0.014628 0.007570 -886796.000000 0 0 1
-27.229289 -29.040694 -15.544478 42.736716 0.817578 1.943062 -0.009166 0.006895 -473784.000000 0 0 1
-26.340789 -28.084694 -16.151278 41.754652 0.817429 1.967970 0.000085 0.021584 690381.000000 0 0 1
-25.093189 -28.724094 -16.838178 41.692516 0.852763 1.986535 0.009577 0.018363 -104878.000000 0 0 1
-25.285389 -29.426894 -18.107978 42.815789 0.860950 2.007470 -0.001104 0.016712 -117965.000000 0 0 1
-25.466189 -28.609194 -19.276478 42.878845 0.843455 2.037065 0.004074 0.019039 449583.000000 0 0 1
-24.181189 -27.817594 -19.706378 41.795810 0.855217 2.061778 0.011081 0.015445 546203.000000 0 0 1
-23.837689 -26.884894 -18.739078 40.523894 0.845402 2.051519 0.011008 0.010860 631434.000000 0 0 1
-22.510289 -26.352894 -18.960378 39.505494 0.863877 2.071386 0.009180 0.002854 1033680.000000 0 0 1
-22.104889 -25.221194 -17.895178 38.012789 0.851151 2.060957 0.013413 -0.001825 -226117.000000 0 0 1
-22.042889 -25.538394 -16.560678 37.581306 0.858730 2.027133 0.020222 0.001004 257980.000000 0 0 1
-21.883389 -24.407894 -15.745378 36.366811 0.839879 2.018570 0.024502 -0.000232 -176727.000000 0 0 1
-22.260089 -24.505694 -14.259478 36.046821 0.833379 1.977498 0.019546 0.008851 -1062200.000000 0 0 1
-23.629389 -24.392694 -14.138778 36.786636 0.801292 1.965295 -0.004228 0.018000 -996122.000000 0 0 1
-24.046989 -24.539094 -12.805278 36.666060 0.795526 1.927557 -0.008301 0.019970 309323.000000 0 0 1
-25.591489 -24.383994 -12.690078 37.557177 0.761241 1.915467 -0.010661 0.022463 -347737.000000 0 0 1
-26.274889 -25.569894 -13.101478 38.933764 0.771801 1.914001 -0.006746 0.020306 21756.100000 0 0 1
-27.625289 -25.640494 -12.736478 39.784537 0.748153 1.896670 -0.003693 0.016159 -296678.000000 0 0 1
-28.659289 -24.647694 -13.312678 40.076066 0.710285 1.909416 -0.001687 0.013961 -1260620.000000 0 0 1
-28.719089 -23.287894 -12.859378 39.146847 0.681343 1.905502 0.000161 0.016787 66353.500000 0 0 1
-29.165989 -23.055294 -11.514378 38.920205 0.668912 1.871137 0.023074 0.007504 733136.000000 0 0 1
-30.666489 -23.429194 -11.146678 40.169753 0.652401 1.851976 0.017642 0.005401 1160780.000000 0 0 1
-31.738189 -22.607594 -11.601278 40.657171 0.618943 1.860162 0.044519 -0.010772 410930.000000 0 0 1
-32.005889 -22.726494 -12.986078 41.346205 0.617454 1.890285 0.046272 -0.004911 -1106600.000000 0 0 1
-33.412189 -22.290894 -13.378878 42.335005 0.588336 1.892332 0.034793 -0.017050 69890.500000 0 0 1
-34.416689 -23.286094 -13.156278 43.587134 0.594843 1.877417 0.037803 -0.011632 264553.000000 0 0 1
34.917471 -22.843594 -13.442578 43.837911 -0.579334 1.882460 0.041973 -0.024582 -277401.000000 0 0 1
33.839271 -23.904594 -13.251778 43.498683 -0.615019 1.880365 0.027134 -0.008648 -433316.000000 0 0 1
33.855071 -25.004094 -14.160278 44.405900 -0.636141 1.895347 0.015294 0.004086 -61566.000000 0 0 1
33.409871 -26.202394 -13.623378 44.591270 -0.665076 1.881277 0.019858 -0.005309 -14700.800000 0 0 1
33.517571 -27.351294 -14.614978 45.663097 -0.684438 1.896590 0.010937 -0.004969 60607.200000 0 0 1
32.523071 -27.356594 -15.602178 45.272081 -0.699330 1.922642 0.015072 -0.007825 -200402.000000 0 0 1
32.640771 -28.514794 -16.457578 46.361247 -0.718033 1.933695 0.008244 0.004516 -46303.500000 0 0 1
31.730671 -28.573894 -17.695578 46.221600 -0.733099 1.963667 0.002442 0.001614 635884.000000 0 0 1
30.334871 -28.714494 -17.412378 45.253922 -0.757964 1.965756 0.023925 -0.001973 745419.000000 0 0 1
29.571271 -28.218394 -18.517578 44.873583 -0.761992 1.996170 0.016259 -0.005676 1165660.000000 0 0 1
28.005671 -28.351694 -18.445378 43.913188 -0.791538 2.004288 0.023453 -0.010203 1293830.000000 0 0 1
27.465671 -27.476394 -17.411478 42.573170 -0.785593 1.992130 0.014152 -0.010728 -584509.000000 0 0 1
26.087571 -27.569394 -17.227278 41.682273 -0.813008 1.996871 0.030475 -0.006225 -435579.000000 0 0 1
25.523471 -26.645494 -16.141178 40.273658 -0.806902 1.983173 0.025133 -0.008890 -215191.000000 0 0 1
25.393371 -25.272394 -16.459978 39.426489 -0.783010 2.001472 0.022681 -0.010104 75630.300000 0 0 1
25.079971 -24.595294 -15.280578 38.307042 -0.775642 1.981110 0.012204 -0.001627 -247748.000000 0 0 1
25.003971 -23.054194 -15.430878 37.347107 -0.744849 1.996734 -0.000101 0.000646 -14551.000000 0 0 1
23.921971 -22.468894 -16.129478 36.568729 -0.754086 2.027590 0.009646 0.008744 -26571.700000 0 0 1
23.972271 -21.097394 -16.047278 35.739123 -0.721697 2.036455 0.003623 0.001234 173869.000000 0 0 1
22.622871 -20.321294 -16.067478 34.393504 -0.731855 2.056879 0.020109 0.005073 334311.000000 0 0 1
21.815771 -20.591694 -14.921878 33.505345 -0.756542 2.032371 0.027094 -0.003772 1205910.000000 0 0 1
20.474671 -20.057494 -15.031878 32.364681 -0.775106 2.053813 0.029004 -0.012377 1085520.000000 0 0 1
20.160771 -18.782594 -14.237278 31.015199 -0.750024 2.047713 0.009091 -0.005135 -192763.000000 0 0 1
20.027671 -19.039494 -12.813678 30.459814 -0.760109 2.004985 0.008021 -0.017963 33267.400000 0 0 1
19.556971 -17.922294 -12.144478 29.174853 -0.741810 2.000130 0.001672 -0.027928 -768126.000000 0 0 1
18.658871 -18.197994 -10.929478 28.262589 -0.772894 1.967860 -0.000926 -0.015153 -330089.000000 0 0 1
19.293771 -18.803594 -9.814878 28.673272 -0.772532 1.920161 0.003577 -0.030476 -336344.000000 0 0 1
18.369771 -19.012894 -8.809578 27.866598 -0.802600 1.892448 0.000102 -0.032441 -488395.000000 0 0 1
19.044171 -19.512594 -7.523278 28.284651 -0.797546 1.840021 0.000799 -0.030291 181044.000000 0 0 1
19.898571 -18.585194 -6.820278 28.069178 -0.751283 1.816234 -0.005830 -0.023561 274046.000000 0 0 1
20.587171 -19.366694 -5.873978 28.868738 -0.754860 1.775699 -0.002692 -0.016179 621038.000000 0 0 1
21.920271 -18.694594 -5.332078 29.298757 -0.706143 1.753806 -0.001407 -0.020972 1485900.000000 0 0 1
22.909571 -18.648794 -6.387978 30.223041 -0.683230 1.783764 -0.000401 -0.031116 773550.000000 0 0 1
23.855671 -17.607594 -6.388878 30.330482 -0.635834 1.783028 0.017034 -0.031493 415012.000000 0 0 1
24.867171 -17.585194 -7.615078 31.394341 -0.615519 1.815802 0.036488 -0.038526 769973.000000 0 0 1
25.791571 -18.671694 -7.592278 32.733468 -0.626617 1.804870 0.042152 -0.044350 369542.000000 0 0 1
25.402171 -19.749594 -8.428178 33.261854 -0.660855 1.826978 0.042186 -0.046582 -502302.000000 0 0 1
26.324671 -20.971394 -8.295378 34.664116 -0.672691 1.812449 0.042230 -0.050675 -889209.000000 0 0 1
27.610671 -20.728894 -8.723578 35.610911 -0.643985 1.818284 0.049701 -0.040796 -1280930.000000 0 0 1
28.398471 -21.809094 -8.344178 36.765949 -0.654901 1.799745 0.043561 -0.042713 -412874.000000 0 0 1
-29.105339 30.359549 4.103822 42.257122 -0.806487 1.473528 -0.009682 0.008473 -287389.000000 0 0 1
-28.491139 31.223149 3.269122 42.394778 -0.831118 1.493608 -0.021546 0.013708 -574516.000000 0 0 1
-27.341229 31.695549 3.952022 42.044846 -0.859021 1.476662 -0.015040 0.010342 -191244.000000 0 0 1
-26.765069 32.912649 3.243422 42.545636 -0.888049 1.494488 -0.010635 0.008170 -826470.000000 0 0 1
-25.998679 32.593249 2.124422 41.746429 -0.897477 1.519886 -0.011715 0.009372 -220278.000000 0 0 1
-25.412529 33.711649 1.498222 42.243539 -0.924855 1.535323 0.002343 -0.002298 22794.000000 0 0 1
-24.122429 34.283049 2.125022 41.973024 -0.957641 1.520146 0.014577 -0.009094 53627.800000 0 0 1
-22.923229 33.625749 1.718422 40.732277 -0.972447 1.528596 0.013860 -0.011084 731830.000000 0 0 1
-21.765229 34.132049 2.415622 40.553140 -1.003133 1.511194 0.008326 -0.005958 829434.000000 0 0 1
-20.417429 33.828849 1.749322 39.551518 -1.027770 1.526553 0.012936 -0.006307 -113437.000000 0 0 1
-20.247529 34.378549 0.476622 39.900805 -1.038535 1.558851 0.018931 -0.011135 467482.000000 0 0 1
-18.875929 34.068949 0.213022 38.949189 -1.064848 1.565327 0.022946 -0.014177 133851.000000 0 0 1
-18.209529 -34.248794 -0.871778 38.798541 1.082124 1.593268 0.026208 -0.012295 -174108.000000 0 0 1
-18.082529 -32.796894 -0.623578 37.456681 1.066918 1.587445 0.018994 -0.010974 164377.000000 0 0 1
-17.215129 -32.469194 0.445822 36.753339 1.083283 1.558666 0.020076 -0.006362 -286758.000000 0 0 1
-17.189029 -30.988394 0.666722 35.442739 1.064358 1.551984 0.014069 -0.001607 -198993.000000 0 0 1
-16.740429 -30.208594 -0.447578 34.539853 1.064764 1.583755 0.019417 -0.000144 180476.000000 0 0 1
-16.851329 -28.840594 -0.215578 33.403497 1.042007 1.577250 0.003318 0.002753 -101492.000000 0 0 1
-15.718729 -28.196194 -1.023478 32.297853 1.062231 1.602490 -0.005187 0.005421 89596.000000 0 0 1
-16.126829 -28.296394 -2.385978 32.656598 1.052784 1.643924 0.004207 0.010412 41325.400000 0 0 1
-15.202529 -27.599994 -3.210778 31.673106 1.067327 1.672343 0.001602 0.024963 -56533.900000 0 0 1
-15.598229 -27.575494 -4.718878 32.030929 1.056013 1.718657 0.017340 0.013007 -453861.000000 0 0 1
-16.613629 -26.703594 -5.073078 31.856408 1.014249 1.730725 0.031186 0.013530 -896724.000000 0 0 1
-17.028129 -26.888094 -6.398378 32.463302 1.006253 1.769191 0.037311 0.015050 431369.000000 0 0 1
-17.850829 -25.660494 -6.892278 32.009632 0.962993 1.787815 0.025311 0.016712 324155.000000 0 0 1
-16.992429 -24.560494 -7.033878 30.682828 0.965554 1.802098 0.016659 0.024269 -103986.000000 0 0 1
-17.685729 -23.390694 -7.320978 30.224266 0.923402 1.815452 -0.000906 0.026274 -243655.000000 0 0 1
-16.817729 -22.140994 -7.084778 28.692398 0.921196 1.820299 0.000991 0.020175 739872.000000 0 0 1
-15.661029 -22.181994 -7.936178 28.289425 0.956039 1.855148 0.023990 0.011573 350393.000000 0 0 1
-14.640529 -21.293594 -7.519978 26.913051 0.968471 1.853984 0.045716 -0.004516 159595.000000 0 0 1
-13.603629 -20.971394 -8.581378 26.429115 0.995353 1.901485 0.040370 -0.001909 -14942.100000 0 0 1
-14.125729 -20.107294 -9.575778 26.372998 0.958383 1.942379 0.061261 -0.005988 -333091.000000 0 0 1
-13.131829 -19.921494 -10.538178 26.083789 0.987995 1.986695 0.056625 -0.008703 26254.400000 0 0 1
-13.597329 -19.143194 -11.798378 26.278336 0.953194 2.036417 0.067166 -0.011642 -534256.000000 0 0 1
-14.620729 -19.804794 -12.436878 27.580274 0.934863 2.038608 0.047989 0.004875 -823447.000000 0 0 1
-14.857029 -19.221394 -13.744678 27.912532 0.912773 2.085664 0.046789 0.001605 161604.000000 0 0 1
-15.977629 -19.892194 -14.572878 29.382865 0.894101 2.089742 0.050143 0.001117 536982.000000 0 0 1
-17.253829 -19.745794 -13.954878 29.704033 0.852648 2.059858 0.042266 0.002836 -544151.000000 0 0 1
-18.257129 -20.254394 -14.727978 30.991556 0.837213 2.066017 0.020178 -0.000744 -634369.000000 0 0 1
-19.672829 -19.699294 -14.388078 31.338461 0.786070 2.047799 -0.001423 0.016350 -75673.600000 0 0 1
-20.529929 -20.250594 -15.346278 32.666080 0.778549 2.059852 0.003680 0.007390 124353.000000 0 0 1
-21.873929 -20.068494 -14.861778 33.197675 0.742379 2.034960 -0.015763 0.012169 996217.000000 0 0 1
-22.949229 -20.837294 -15.736378 34.763393 0.737203 2.040555 -0.011723 0.004498 247006.000000 0 0 1
-23.190329 -20.060594 -16.884278 35.004251 0.713162 2.074131 -0.009435 -0.010618 720263.000000 0 0 1
-24.022329 -20.812794 -17.815678 36.436836 0.713935 2.081678 -0.003275 -0.010180 335924.000000 0 0 1
-24.125329 -20.089094 -19.213878 36.807286 0.694363 2.120006 -0.006149 -0.007989 9697.040000 0 0 1
-22.939729 -20.132094 -19.977778 36.477993 0.720305 2.150369 -0.003331 -0.011495 256456.000000 0 0 1
-23.167529 -19.606694 -21.281078 37.068061 0.702342 2.182311 -0.006718 -0.016228 -490108.000000 0 0 1
-21.930629 -18.910294 -21.861978 36.283574 0.711579 2.217465 -0.014419 -0.006299 -407753.000000 0 0 1
-20.904729 -19.840494 -22.128978 36.336546 0.759285 2.225596 -0.013622 -0.007028 -853093.000000 0 0 1
-19.911529 -19.166394 -22.836378 35.851357 0.766333 2.261363 -0.015423 -0.009484 -193181.000000 0 0 1
-18.597729 -20.002294 -22.815378 35.588042 0.821770 2.266723 0.002573 -0.007808 -197273.000000 0 0 1
-18.568629 -21.013494 -23.832178 36.801272 0.847087 2.275215 -0.010092 -0.005542 726276.000000 0 0 1
-17.359629 -21.788494 -23.695978 36.573140 0.898050 2.275629 -0.006331 0.001009 720676.000000 0 0 1
-17.493029 -23.064494 -24.524778 37.939974 0.921916 2.273666 0.007628 0.000660 -211066.000000 0 0 1
-17.263829 -22.893894 -25.936898 38.663844 0.924689 2.306125 0.005951 -0.000654 134385.000000 0 0 1
-17.279429 -24.160894 -26.553398 39.842319 0.949954 2.300250 0.010260 -0.003910 -163877.000000 0 0 1
-17.201029 -23.996494 -28.123848 40.775703 0.948875 2.331900 0.026494 -0.000351 103694.000000 0 0 1
-15.868829 -23.748294 -28.558108 40.390181 0.981727 2.356122 0.009937 0.001437 277756.000000 0 0 1
-15.840429 -23.856794 -30.002278 41.475324 0.984656 2.379477 0.041912 -0.003573 342443.000000 0 0 1
-14.407229 -23.761994 -30.581108 41.320754 1.025747 2.404002 0.011746 -0.009855 639767.000000 0 0 1
-13.502929 -24.834594 -30.321748 41.454729 1.072792 2.391231 0.018587 -0.017199 389569.000000 0 0 1
-12.244829 -24.682794 -30.960288 41.445332 1.110283 2.414357 0.049823 -0.020741 356043.000000 0 0 1
-11.351429 -25.910994 -30.564818 41.646640 1.157888 2.394855 0.026455 -0.017304 -1433050.000000 0 0 1
-11.668829 -27.165594 -31.104048 42.913784 1.165083 2.381545 0.021252 -0.010144 -532888.000000 0 0 1
-10.871929 -28.200094 -30.721428 43.095826 1.202828 2.364369 0.001834 -0.007612 -403511.000000 0 0 1
-9.424729 -28.155494 -31.269078 43.119747 1.247782 2.382075 0.007262 -0.013733 -144297.000000 0 0 1
-8.608529 -27.090394 -30.744788 41.871687 1.263117 2.395375 0.006829 -0.023997 -13824.700000 0 0 1
-7.714029 -26.685294 -31.784478 42.212133 1.289393 2.423360 0.012224 -0.022498 -597500.000000 0 0 1
-6.977429 -25.427394 -31.348948 40.963318 1.302982 2.442293 0.018853 -0.016929 -1084680.000000 0 0 1
-7.579129 -24.100494 -31.359348 40.270159 1.266108 2.463426 0.029365 -0.016664 -237549.000000 0 0 1
-8.282929 -23.833694 -30.202098 39.355033 1.236323 2.445614 0.023238 -0.012318 -499995.000000 0 0 1
-8.718129 -22.336894 -30.064638 38.455494 1.198678 2.468349 0.034503 -0.019000 500679.000000 0 0 1
-9.695329 -21.992294 -31.093678 39.299837 1.155577 2.483550 0.030386 -0.023475 701136.000000 0 0 1
-9.903729 -20.554894 -31.154958 38.616304 1.121799 2.509482 0.050043 -0.024847 247647.000000 0 0 1
-10.858329 -20.116894 -32.306708 39.576712 1.075848 2.525783 0.037561 -0.019924 87674.400000 0 0 1
-11.431029 -18.869194 -32.059348 38.916792 1.026120 2.538865 0.044311 -0.017385 4856.810000 0 0 1
-12.168729 -18.481194 -33.192058 39.891668 0.988512 2.553598 0.042503 -0.011808 -569650.000000 0 0 1
-13.057429 -17.270494 -33.068018 39.525438 0.923432 2.561891 0.052398 -0.013449 -437783.000000 0 0 1
-12.439629 -16.007494 -33.271678 38.961375 0.910168 2.594356 0.052040 -0.013370 -79078.200000 0 0 1
-11.525629 -15.595194 -32.291028 37.666440 0.934340 2.600777 0.042607 -0.010398 145755.000000 0 0 1
-10.914529 -14.155794 -32.339348 36.950600 0.913972 2.636656 0.028563 -0.017246 -8049.420000 0 0 1
-10.123929 -13.839294 -33.481138 37.616573 0.939218 2.668281 0.023337 -0.021692 -339648.000000 0 0 1
-10.711029 -13.891094 34.285040 38.511720 0.913945 0.472904 0.026619 -0.018230 -448620.000000 0 0 1
-11.277229 -12.508994 33.760419 37.728195 0.837137 0.462740 0.027769 -0.018798 402019.000000 0 0 1
-12.544529 -12.166294 34.294452 38.490172 0.770093 0.471270 0.014449 -0.010129 -344383.000000 0 0 1
-13.179529 -11.248094 33.444052 37.665955 0.706495 0.478010 0.016583 -0.011940 332971.000000 0 0 1
-14.403629 -10.584194 34.087417 38.489501 0.633720 0.482950 0.033740 -0.014504 224514.000000 0 0 1
-13.918329 -9.749294 -33.899968 37.920660 0.611038 2.676926 0.026376 -0.014838 -82447.000000 0 0 1
-14.985429 -9.357594 -33.070038 37.493400 0.558201 2.650934 0.040421 -0.020199 -61099.700000 0 0 1
-14.591829 -8.522694 -31.827498 36.035363 0.528626 2.653501 0.036317 -0.027929 -232577.000000 0 0 1
-14.080129 -7.231794 -32.134338 35.821286 0.474482 2.683899 0.022686 -0.022912 281955.000000 0 0 1
-15.076529 -6.228594 -32.292668 36.178910 0.391775 2.673837 0.014757 -0.020427 -155376.000000 0 0 1
-15.315229 -5.419694 -31.018288 35.015190 0.340124 2.659124 0.016482 -0.024397 -150252.000000 0 0 1
-15.898029 -6.217294 -30.010248 34.525600 0.372787 2.624413 0.022863 -0.029391 31172.200000 0 0 1
-16.265329 -5.511494 -28.788958 33.522255 0.326707 2.603722 0.036358 -0.031567 562609.000000 0 0 1
-15.059729 -4.889694 -28.002208 32.168746 0.313948 2.626970 0.028317 -0.033798 485585.000000 0 0 1
-14.446629 -3.815894 -28.655218 32.316987 0.258239 2.660937 0.022772 -0.021445 -184585.000000 0 0 1
-13.222529 -3.453894 -28.051048 31.202980 0.255504 2.688246 0.005329 -0.013211 126091.000000 0 0 1
-12.744029 -2.126894 -28.704338 31.478135 0.165369 2.718642 -0.020171 0.013872 -340966.000000 0 0 1
-12.577029 -2.135894 -30.110168 32.701161 0.168220 2.740840 -0.011831 0.004126 206408.000000 0 0 1
-12.483529 -0.835894 -30.658978 33.113595 0.066860 2.754136 -0.018206 -0.000532 -86178.200000 0 0 1
-12.766529 -0.791894 -32.208828 34.655735 0.061950 2.763564 -0.015799 -0.001642 -258495.000000 0 0 1
-14.074729 -1.180894 -32.585418 35.514813 0.083706 2.732586 -0.009680 -0.005437 285639.000000 0 0 1
-14.151029 -1.197894 -34.015558 36.861155 0.084449 2.746088 -0.020046 0.004951 -566469.000000 0 0 1
-15.546529 -1.395894 34.474561 37.843605 0.089548 0.425156 -0.020477 -0.000475 -636668.000000 0 0 1
-15.496829 -1.639894 33.073614 36.560975 0.105429 0.440320 -0.009403 -0.001100 717657.000000 0 0 1
-16.793529 -1.542894 32.470825 36.589036 0.091617 0.479020 -0.002512 0.000923 569165.000000 0 0 1
-16.726129 -1.706894 30.941945 35.214781 0.101697 0.497741 0.005671 -0.003484 -24271.900000 0 0 1
-16.200929 -0.539894 30.367865 34.423376 0.033313 0.490309 0.004054 0.008169 -66359.000000 0 0 1
-16.095629 -0.615894 29.026565 33.196236 0.038246 0.506612 -0.001795 0.002473 -79308.100000 0 0 1
-15.461229 0.696106 28.398385 32.341961 -0.044992 0.498990 -0.002407 0.002760 1024900.000000 0 0 1
-16.311429 1.873106 28.608725 32.985305 -0.114333 0.521009 -0.006938 0.001599 911597.000000 0 0 1
-17.650529 1.857106 28.133515 33.263864 -0.104830 0.562793 -0.005080 0.001339 266442.000000 0 0 1
-17.863029 2.687106 26.850495 32.361357 -0.149309 0.592211 0.006960 -0.002174 -559473.000000 0 0 1
-17.663529 4.073106 26.985735 32.508773 -0.226633 0.591498 -0.005471 0.004939 136869.000000 0 0 1
-18.109729 4.783106 25.812535 31.892434 -0.258221 0.627731 -0.007977 0.006942 -769090.000000 0 0 1
-17.968929 6.300106 25.883245 32.132789 -0.337219 0.634263 -0.011925 0.009233 -12135.000000 0 0 1
-16.769229 6.973106 25.568765 31.362286 -0.394076 0.617599 -0.017551 0.012079 11910.200000 0 0 1
-16.175929 6.667106 24.308735 29.950385 -0.390947 0.623853 -0.014250 0.002141 40041.700000 0 0 1
-15.000229 7.553106 23.820145 29.145421 -0.466470 0.614111 -0.009649 0.006417 401097.000000 0 0 1
-13.775429 7.413106 24.507805 29.074887 -0.493692 0.568109 -0.013339 0.006993 -213917.000000 0 0 1
-12.732729 7.992106 23.778545 28.132105 -0.560526 0.563771 0.005520 -0.007421 514617.000000 0 0 1
-11.392829 8.125106 24.588785 28.291734 -0.619515 0.517385 0.010997 0.006374 191900.000000 0 0 1
-10.348429 8.730106 23.893345 27.462641 -0.700776 0.515531 0.010215 -0.002733 -456748.000000 0 0 1
-9.172229 8.887106 24.632465 27.746509 -0.769611 0.478323 0.003795 -0.004081 -403892.000000 0 0 1
-9.096929 10.264106 25.340755 28.814230 -0.845610 0.496085 -0.003958 -0.007813 -627007.000000 0 0 1
-10.015929 10.406106 26.428475 30.117605 -0.804502 0.500153 -0.014353 -0.009094 366584.000000 0 0 1
-10.106929 11.705106 26.994605 31.110580 -0.858538 0.520243 -0.011348 -0.009875 -537194.000000 0 0 1
-10.786729 12.853106 26.133945 31.057027 -0.872587 0.570775 -0.022166 -0.006091 -428053.000000 0 0 1
-12.165429 12.759106 25.966795 31.385775 -0.809213 0.596436 -0.019775 -0.002736 -567961.000000 0 0 1
-12.545429 11.704106 25.056465 30.367751 -0.750718 0.600415 -0.010921 -0.001587 -1466560.000000 0 0 1
-14.026929 11.724106 24.751065 30.770515 -0.696209 0.636172 -0.029416 0.004081 -666980.000000 0 0 1
-14.487729 12.941106 24.132275 30.979561 -0.729071 0.677768 -0.008405 -0.002240 225536.000000 0 0 1
-15.759429 12.979106 23.491845 31.123682 -0.688953 0.715462 -0.000677 -0.001727 483977.000000 0 0 1
-15.855929 12.310106 22.100945 29.856339 -0.660167 0.737365 0.006556 0.000667 -235276.000000 0 0 1
-15.781829 10.920106 22.091945 29.263781 -0.605297 0.715257 -0.002413 0.009771 31731.600000 0 0 1
-15.676629 10.494106 20.752245 28.045296 -0.589900 0.737794 -0.006647 0.009573 -435279.000000 0 0 1
-16.156929 9.029106 20.640445 27.723619 -0.509603 0.730999 -0.006526 0.003406 1285440.000000 0 0 1
-17.550729 8.735106 20.880245 28.641138 -0.461811 0.753893 -0.000873 0.015387 813133.000000 0 0 1
-17.873229 7.316106 21.072245 28.583513 -0.388526 0.741855 -0.010542 0.015791 625202.000000 0 0 1
-19.408429 7.120106 21.285745 29.672647 -0.351612 0.770802 -0.011679 0.017466 430146.000000 0 0 1
-19.783329 7.850106 22.403645 30.901902 -0.377748 0.759773 -0.010503 0.016118 128230.000000 0 0 1
-21.184729 8.091106 22.441645 31.904328 -0.364833 0.790621 -0.011320 0.017944 157478.000000 0 0 1
-21.637129 9.043106 23.589545 33.262738 -0.395879 0.782450 0.003566 0.007656 -656258.000000 0 0 1
-21.157929 10.406106 23.478345 33.274280 -0.457090 0.787526 0.004527 0.015663 578195.000000 0 0 1
-19.754029 10.643106 23.480245 32.477981 -0.494189 0.762721 0.004275 0.014487 545125.000000 0 0 1
-18.910729 10.090106 24.676085 32.685395 -0.490138 0.715207 -0.006341 0.007445 -711081.000000 0 0 1
-19.039229 10.819106 25.913535 33.927225 -0.516749 0.701620 0.004363 0.009658 325130.000000 0 0 1
-18.298229 10.151106 26.919335 34.095758 -0.506490 0.660767 -0.009844 0.016783 26523.500000 0 0 1
-29.687249 -13.821451 20.995045 38.899321 0.435725 1.000683 0.012540 -0.001733 -189490.000000 0 0 1
-29.392589 -15.169251 21.333145 39.359034 0.476437 0.997965 0.019732 -0.011144 -4617.960000 0 0 1
-30.463889 -16.065651 21.084645 40.382124 0.485301 1.021452 0.005971 -0.002755 15845.900000 0 0 1
-30.647549 -16.585651 19.606445 39.984606 0.496042 1.058305 0.002843 -0.006639 210867.000000 0 0 1
-31.007949 -15.674051 18.595845 39.407794 0.468026 1.079372 0.002649 -0.014552 -567234.000000 0 0 1
-29.943679 -15.609351 17.726045 38.137756 0.480534 1.087399 0.011688 -0.013344 -920860.000000 0 0 1
-30.037129 -14.371751 16.834245 37.311770 0.446273 1.102712 0.008781 -0.011290 1153990.000000 0 0 1
-31.118199 -14.316851 15.810745 37.726571 0.431205 1.138356 0.033563 -0.005980 1258770.000000 0 0 1
-32.471819 -14.328751 16.193045 39.012137 0.415568 1.142769 0.020871 -0.004021 -337715.000000 0 0 1
-32.963199 -13.027351 16.888845 39.262163 0.376369 1.126131 0.019589 -0.010325 -1396690.000000 0 0 1
-34.126983 -13.200851 17.618245 40.611772 0.369089 1.122067 0.015183 -0.008453 -499512.000000 0 0 1
-34.474528 -11.932351 18.176245 40.758434 0.333215 1.108560 0.018390 -0.007367 -745742.000000 0 0 1
35.003101 -12.032251 19.110345 41.655701 -0.331094 1.094187 0.004933 0.007170 -1096790.000000 0 0 1
-35.318074 -12.429251 20.377445 42.627373 0.338387 1.072378 -0.005947 0.004732 -72486.500000 0 0 1
34.466241 -11.918651 21.395545 42.281737 -0.332934 1.040228 -0.000014 0.001892 -1544520.000000 0 0 1
34.780409 -12.420151 22.785445 43.394855 -0.342988 1.017996 -0.001291 -0.003033 -371190.000000 0 0 1
-34.643117 -11.974251 23.309245 43.437877 0.332791 1.004381 -0.004028 -0.002562 -244618.000000 0 0 1
-33.482029 -12.554751 22.770845 42.393153 0.358744 1.003760 -0.001639 -0.009173 -967446.000000 0 0 1
-32.198139 -11.742351 23.007845 41.279097 0.349702 0.979578 0.010873 -0.007081 -178612.000000 0 0 1
-32.175439 -10.534251 22.279745 40.529204 0.316401 0.988766 0.018213 -0.006594 -128007.000000 0 0 1
-30.888479 -9.970951 22.340445 39.403217 0.312245 0.967973 0.023855 -0.013593 -563709.000000 0 0 1
-30.726029 -8.678251 21.549545 38.519914 0.275270 0.977087 0.023895 0.001261 15315.000000 0 0 1
-30.783039 -8.847951 20.159045 37.845328 0.279885 1.009045 0.023216 0.001414 468446.000000 0 0 1
-32.116649 -8.762251 19.667445 38.666065 0.266344 1.037182 0.023269 -0.006137 68654.700000 0 0 1
-32.239839 -8.745051 18.171645 38.027514 0.264876 1.072585 0.033989 -0.016392 -235977.000000 0 0 1
-33.607029 -8.767451 17.808245 39.031195 0.255194 1.097012 0.034531 -0.013631 315277.000000 0 0 1
-33.691709 -8.590951 16.428445 38.455552 0.249667 1.129396 0.055773 -0.017204 -726785.000000 0 0 1
-35.169309 -8.338151 16.219045 39.616442 0.232788 1.148998 0.034539 -0.014617 -770694.000000 0 0 1
34.725849 -9.554251 16.245245 39.510458 -0.268491 1.147067 0.023148 0.001451 502007.000000 0 0 1
33.343671 -9.184051 16.217945 38.199069 -0.268772 1.132316 0.016317 0.002351 524123.000000 0 0 1
32.332281 -10.335851 16.152645 37.591410 -0.309409 1.126647 0.009734 -0.000570 -430054.000000 0 0 1
32.363891 -11.079751 17.281245 38.325236 -0.329843 1.103011 0.011858 -0.001019 -322546.000000 0 0 1
31.225941 -11.876551 17.356445 37.647815 -0.363446 1.091651 0.008409 -0.003815 -494583.000000 0 0 1
30.948751 -12.277751 18.794445 38.233486 -0.377669 1.056904 0.008124 -0.006395 -22979.300000 0 0 1
31.709221 -13.353151 19.333045 39.465782 -0.398573 1.058857 0.007991 0.008146 -154236.000000 0 0 1
31.452441 -13.572851 20.667945 40.008027 -0.407393 1.027927 -0.006289 0.009592 -617882.000000 0 0 1
31.967961 -14.941851 21.145745 41.138205 -0.437230 1.030935 -0.017495 0.014062 24037.000000 0 0 1
32.117631 -14.999651 22.571845 42.024040 -0.436919 1.003780 -0.021231 0.006441 -237843.000000 0 0 1
32.469901 -16.267351 22.964245 42.968334 -0.464446 1.006944 -0.021714 0.021341 -64205.400000 0 0 1
32.861281 -16.325751 24.437285 44.085993 -0.461091 0.983263 -0.016278 0.007452 398254.000000 0 0 1
34.190841 -15.900551 24.697945 45.075820 -0.435301 0.990921 -0.002926 0.006528 315832.000000 0 0 1
34.387511 -15.705651 26.086705 45.931302 -0.428433 0.966783 -0.001315 0.002654 -734503.000000 0 0 1
-35.229445 -14.703551 26.535675 46.491400 0.395386 0.963359 0.005922 -0.006357 -1476050.000000 0 0 1
-33.937239 -14.989851 26.140545 45.384578 0.415925 0.956996 -0.001216 -0.005190 -538829.000000 0 0 1
-33.081429 -13.867951 26.403995 44.540677 0.396953 0.936257 -0.001667 -0.012660 47430.900000 0 0 1
-31.610149 -14.223851 26.167625 43.431141 0.422835 0.924156 0.015184 -0.014126 -721819.000000 0 0 1
-31.170699 -14.180251 24.811605 42.288388 0.426940 0.943789 0.009852 -0.007710 434937.000000 0 0 1
-29.801159 -14.544751 24.604515 41.292142 0.454050 0.932455 0.032153 -0.023761 664945.000000 0 0 1
-29.388069 -16.019751 24.784255 41.647933 0.499082 0.933419 0.029599 -0.020151 -639791.000000 0 0 1
-29.373389 -16.334951 26.143515 42.580629 0.507525 0.909707 0.032225 -0.021180 89759.800000 0 0 1
-29.293359 -17.681851 26.501635 43.279156 0.543072 0.911777 0.025509 -0.018209 -498792.000000 0 0 1
-29.077959 -17.877951 27.998335 44.148110 0.551251 0.883835 0.024183 -0.015900 -606276.000000 0 0 1
-27.895459 -17.368351 28.504235 43.500663 0.556888 0.856270 0.034075 -0.014901 -700101.000000 0 0 1
-27.558529 -17.852551 29.788525 44.334437 0.574831 0.834019 0.038083 -0.017786 417396.000000 0 0 1
-26.195709 -17.177951 30.182925 43.500645 0.580410 0.803975 0.031376 -0.015685 291986.000000 0 0 1
-26.285709 -15.962951 30.823655 43.541383 0.545760 0.784253 0.050128 -0.028123 -342546.000000 0 0 1
-25.244329 -15.116851 30.425145 42.325935 0.539553 0.768679 0.042607 -0.027087 -414751.000000 0 0 1
-25.030829 -13.765851 31.133865 42.253504 0.502809 0.742419 0.043037 -0.017415 -14389.100000 0 0 1
-24.487729 -13.909451 32.447905 42.964965 0.516571 0.714810 0.044409 -0.022242 255836.000000 0 0 1
-24.360029 -12.665851 33.166272 43.056200 0.479475 0.691482 0.038264 -0.011711 -147444.000000 0 0 1
-23.614229 -12.751651 -34.522675 43.727011 0.495132 2.480798 0.028216 -0.009242 818578.000000 0 0 1
-22.207029 -13.043351 -34.523947 43.071848 0.531068 2.500668 0.007828 0.000195 852285.000000 0 0 1
-21.941229 -14.422151 -34.444957 43.311327 0.581496 2.490278 0.007529 -0.006184 -280648.000000 0 0 1
-22.037829 -15.177951 -33.071018 42.540902 0.603117 2.461308 0.003220 -0.006202 -1112380.000000 0 0 1
-21.082629 -14.748651 -32.135048 41.166264 0.610433 2.466447 -0.012981 0.003000 -37133.000000 0 0 1
-21.017129 -15.620251 -31.091598 40.649716 0.639145 2.441630 -0.012313 -0.002136 -15058.000000 0 0 1
-19.822529 -15.393651 -30.137598 39.219535 0.660292 2.447186 -0.017490 0.006566 -36289.400000 0 0 1
-19.836629 -14.251051 -29.291098 38.138599 0.622982 2.446536 -0.001036 0.000765 557272.000000 0 0 1
-20.725529 -14.311051 -28.152598 37.774628 0.604324 2.411748 0.000863 0.007950 453411.000000 0 0 1
-20.383529 -13.100151 -27.255208 36.468460 0.571214 2.414882 -0.005859 0.003673 -342866.000000 0 0 1
-19.131729 -13.146051 -26.636978 35.332284 0.602038 2.424773 0.017717 -0.008843 -332541.000000 0 0 1
-18.718529 -11.943051 -25.992948 34.185569 0.567917 2.434646 0.003040 -0.014921 -689336.000000 0 0 1
-17.310429 -12.013351 -25.466628 33.053301 0.606684 2.450377 0.018741 -0.021722 -1472100.000000 0 0 1
-17.252429 -12.751551 -24.262778 32.387201 0.636499 2.417570 0.027431 -0.014182 495634.000000 0 0 1
-15.974229 -12.920351 -23.655378 31.331907 0.680099 2.426440 0.023155 -0.015887 192976.000000 0 0 1
-14.853529 -13.716051 -24.310078 31.618622 0.745605 2.447842 0.016455 -0.015473 -603945.000000 0 0 1
-14.327929 -12.987951 -25.382788 31.910223 0.736383 2.490536 0.034099 -0.025396 -159280.000000 0 0 1
-13.343829 -13.692351 -26.114328 32.365049 0.798288 2.509627 0.043840 -0.022357 -438035.000000 0 0 1
-12.309329 -12.814851 -26.785948 32.143849 0.805516 2.555874 0.051415 -0.013473 -472926.000000 0 0 1
-12.806329 -12.172751 -27.975808 33.088121 0.760039 2.578286 0.068921 -0.025961 742570.000000 0 0 1
-11.779629 -11.404551 -28.629358 32.991871 0.769221 2.621494 0.067822 -0.031056 257148.000000 0 0 1
-12.165129 -11.180151 -30.104628 34.340570 0.743231 2.639649 0.040516 -0.028979 49600.800000 0 0 1
-11.303329 -10.255751 -30.768128 34.345646 0.736845 2.681109 0.033720 -0.029383 161602.000000 0 0 1
-11.331329 -10.257451 -32.209538 35.652050 0.735697 2.698526 0.032906 -0.015517 -504394.000000 0 0 1
-10.663329 -8.993751 -32.756438 35.603067 0.700666 2.738993 0.020830 -0.012379 134614.000000 0 0 1
-9.257529 -8.980351 -32.641798 35.097514 0.770201 2.765295 -0.006234 -0.014031 -245255.000000 0 0 1
-8.735729 -7.673751 -32.890708 34.885500 0.720771 2.801785 -0.012493 -0.006597 -268413.000000 0 0 1
-7.262329 -7.468451 -32.521328 34.149026 0.799390 2.831599 0.004860 -0.001915 -513776.000000 0 0 1
-6.996329 -7.356251 -31.133028 32.746427 0.810470 2.826380 -0.002809 -0.005741 -87953.200000 0 0 1
-7.457829 -6.235751 -30.392838 31.909691 0.696389 2.832021 -0.012537 -0.002312 -575608.000000 0 0 1
-6.823629 -4.873051 -30.846708 31.966043 0.620155 2.876177 -0.010785 -0.004330 321286.000000 0 0 1
-5.427829 -4.817151 -30.593468 31.442432 0.725861 2.908685 0.008860 -0.006048 335659.000000 0 0 1
-4.909729 -3.512451 -30.840958 31.426222 0.620991 2.948297 0.023861 -0.009934 -395905.000000 0 0 1
-3.456529 -3.225551 -30.494228 30.858544 0.750845 2.987779 0.029966 -0.006289 -412648.000000 0 0 1
-2.491029 -3.972051 -31.272128 31.621645 1.010660 2.992774 0.023793 -0.008185 407514.000000 0 0 1
-1.145929 -3.817051 -30.905788 31.161687 1.279144 3.013349 0.029190 -0.004086 58461.800000 0 0 1
-0.484829 -2.497251 -31.333158 31.436255 1.379037 3.060582 0.023677 -0.002028 -1001020.000000 0 0 1
0.080371 -1.775451 -30.305278 30.357348 -1.525559 3.083014 0.026240 -0.011722 -86064.300000 0 0 1
0.608971 -0.590951 -30.819828 30.831508 -0.770382 3.114066 0.023358 -0.003184 75550.300000 0 0 1
0.950971 0.515249 -29.820488 29.840096 0.496536 3.105339 0.028746 -0.014338 314039.000000 0 0 1
-0.245629 1.123849 -29.369338 29.391859 -1.355619 3.102443 0.031920 -0.014968 58042.100000 0 0 1
0.000771 2.410249 -28.889668 28.990036 1.570476 3.058356 0.041048 -0.019737 44105.000000 0 0 1
-1.312129 3.129549 -28.490008 28.691398 -1.173788 3.023040 0.032673 -0.014069 -5370.200000 0 0 1
-2.001229 3.542649 -29.665958 29.943686 -1.056588 3.005289 0.021692 -0.016224 119720.000000 0 0 1
-3.075229 4.386349 -29.224788 29.711703 -0.959339 2.960303 0.045534 -0.017252 452142.000000 0 0 1
-4.252529 4.271349 -30.246348 30.841044 -0.787606 2.944895 0.045830 -0.021138 59520.700000 0 0 1
-3.927629 4.976649 -31.398538 32.032195 -0.902668 2.942357 0.045549 -0.019269 586247.000000 0 0 1
-5.127229 5.224949 -32.114428 32.938200 -0.794837 2.917474 0.048131 -0.020364 44228.300000 0 0 1
-4.781529 5.873349 -33.532278 34.376924 -0.887513 2.919460 0.047068 -0.018716 280619.000000 0 0 1
-4.267529 5.020849 34.464680 35.088956 -0.866325 0.188914 0.051915 -0.018976 1415070.000000 0 0 1
-3.003329 4.350649 -34.275742 34.681041 -0.966598 2.988561 0.047523 -0.016608 911159.000000 0 0 1
-2.425829 3.674349 33.477530 33.765818 -0.987279 0.130767 0.042498 -0.018662 402565.000000 0 0 1
-3.264029 2.582549 33.022107 33.283374 -0.669361 0.125380 0.041569 -0.014696 452765.000000 0 0 1
-2.883229 2.139149 31.739295 31.941694 -0.638315 0.112634 0.048341 -0.014702 -41091.100000 0 0 1
-2.716329 3.058049 30.501305 30.774335 -0.844508 0.133305 0.049548 -0.016965 248971.000000 0 0 1
-3.903029 3.829249 30.319305 30.808392 -0.775857 0.178423 0.024009 -0.013423 346495.000000 0 0 1
-3.754629 4.685049 29.208685 29.819359 -0.895198 0.202728 0.031177 -0.015211 -131283.000000 0 0 1
-5.016129 5.506149 28.952235 29.895001 -0.831934 0.251806 0.028007 -0.013464 -43344.000000 0 0 1
-4.806929 6.363149 27.881085 28.999157 -0.923828 0.278588 0.022833 -0.002703 852925.000000 0 0 1
-6.020229 7.148849 27.708885 29.242631 -0.870892 0.325312 0.015909 0.001899 638017.000000 0 0 1
-6.112029 7.805649 26.301495 28.107893 -0.906491 0.360464 0.019133 0.001261 -185345.000000 0 0 1
-5.382829 9.010449 26.338605 28.352868 -1.032292 0.379210 0.026283 -0.000594 93297.700000 0 0 1
-5.237129 9.598949 25.071815 27.352573 -1.071342 0.411264 0.018306 -0.003266 -35359.600000 0 0 1
-4.640229 11.035249 25.194195 27.893653 -1.172751 0.443575 0.020957 -0.004533 -468114.000000 0 0 1
-4.494029 11.617949 23.962545 27.006973 -1.201705 0.479399 0.020999 -0.001125 218009.000000 0 0 1
-4.015629 12.955949 24.097425 27.652627 -1.270241 0.512679 0.006616 0.009792 155337.000000 0 0 1
-2.471629 13.203549 24.228055 27.702731 -1.385744 0.506242 0.010396 0.014815 632205.000000 0 0 1
-1.703029 12.692449 25.355485 28.405971 -1.437416 0.467692 0.018150 0.014449 456098.000000 0 0 1
-2.181329 13.164149 26.605635 29.764287 -1.406586 0.464875 0.024004 0.006822 -880588.000000 0 0 1
-1.388329 12.608849 27.779205 30.538414 -1.461131 0.428361 0.023848 0.006825 352462.000000 0 0 1
-0.060329 13.116849 27.834165 30.770052 -1.566197 0.440388 0.018237 0.009609 175547.000000 0 0 1
0.694571 12.619549 28.937075 31.576728 1.515813 0.411792 0.021943 0.005431 117147.000000 0 0 1
2.212971 12.757349 28.757885 31.538280 1.399039 0.423051 0.019244 0.011554 -101761.000000 0 0 1
2.636871 14.082649 28.836675 32.199812 1.385697 0.461121 0.015621 0.007716 -150136.000000 0 0 1
4.021971 14.258349 28.638395 32.243362 1.295861 0.477395 0.017491 0.005119 -177732.000000 0 0 1
4.468171 15.758049 28.735675 33.075968 1.294500 0.518067 0.020517 0.004144 -292596.000000 0 0 1
4.261571 16.200449 30.101175 34.448458 1.313571 0.507827 0.027385 0.008169 -13596.400000 0 0 1
3.112671 16.983449 30.245885 34.827285 1.389531 0.518722 0.011179 0.010098 -374291.000000 0 0 1
3.125771 18.425949 29.636655 35.037371 1.402756 0.562624 0.017707 0.014069 -510393.000000 0 0 1
3.934771 19.249949 30.419955 36.213486 1.369170 0.573481 0.035693 0.012353 -15461.200000 0 0 1
4.569271 20.176649 29.554745 36.075730 1.348090 0.610709 0.024924 0.011319 499955.000000 0 0 1
5.782571 21.003349 30.117715 37.170627 1.302136 0.626208 0.030057 0.008163 512184.000000 0 0 1
5.357171 22.138649 30.856625 38.352970 1.333377 0.635890 0.016476 -0.004707 316882.000000 0 0 1
6.459171 22.883649 31.386075 39.375982 1.295692 0.648341 0.010626 -0.009512 144795.000000 0 0 1
6.828871 24.218549 30.683405 39.681770 1.295963 0.686867 0.003033 -0.007054 -8649.380000 0 0 1
7.463071 24.054949 29.415435 38.724744 1.269962 0.708094 -0.005919 -0.000663 209342.000000 0 0 1
7.871971 25.293949 28.888665 39.195749 1.269078 0.742123 -0.008958 0.005201 -21270.500000 0 0 1
8.379371 25.127049 27.420825 38.124586 1.248914 0.768085 -0.011927 -0.004206 -251475.000000 0 0 1
7.393571 24.739349 26.507455 37.004668 1.280387 0.772272 -0.014880 -0.003125 153478.000000 0 0 1
7.976271 24.864649 25.229205 36.309564 1.260379 0.802604 -0.007904 -0.002348 -416137.000000 0 0 1
29.272551 2.314649 6.776822 30.135778 0.078908 1.343980 0.022470 -0.005271 -132739.000000 0 0 1
28.944651 3.291949 7.730222 30.139444 0.113246 1.311416 0.030644 -0.010686 1355970.000000 0 0 1
27.646241 2.979749 8.320422 29.024523 0.107367 1.280049 0.027810 -0.006543 1192970.000000 0 0 1
27.364241 3.822249 9.651822 29.267199 0.138783 1.234723 0.022388 -0.005115 -202315.000000 0 0 1
27.303121 5.208549 9.487922 29.370224 0.188503 1.241850 0.029632 -0.009666 929936.000000 0 0 1
28.553871 5.917249 9.562122 30.688297 0.204339 1.253932 0.047735 -0.019668 636935.000000 0 0 1
28.295951 7.395049 9.309322 30.692199 0.255629 1.262630 0.060203 -0.018565 -260692.000000 0 0 1
27.665061 7.720349 8.121822 29.848339 0.272141 1.295219 0.047437 -0.015005 -158208.000000 0 0 1
27.736851 9.096349 7.836022 30.223827 0.316899 1.308534 0.059048 -0.017770 421557.000000 0 0 1
26.863061 9.443249 6.566022 29.221766 0.338040 1.344165 0.052144 -0.012787 1352670.000000 0 0 1
25.461031 9.692249 6.741022 28.065017 0.363732 1.328232 0.042288 -0.009604 613325.000000 0 0 1
24.726131 9.558749 5.576022 27.089541 0.368888 1.363478 0.058116 -0.012974 1563590.000000 0 0 1
23.174431 9.940849 5.607922 25.832606 0.405218 1.351967 0.015132 -0.017124 1470730.000000 0 0 1
23.088231 11.353749 5.894222 26.395376 0.457030 1.345592 0.014613 -0.000711 -343309.000000 0 0 1
21.803231 11.774849 6.240722 25.553367 0.495172 1.324078 0.009358 -0.010177 -721468.000000 0 0 1
21.827531 13.240449 6.743522 26.405031 0.545254 1.312548 0.012522 0.004839 -147001.000000 0 0 1
21.924231 14.273049 5.737922 26.782748 0.577090 1.354883 0.020772 0.006093 269506.000000 0 0 1
21.857931 15.475249 6.403522 27.536477 0.616070 1.336101 0.029102 0.002411 -146659.000000 0 0 1
21.726631 16.611949 5.373922 27.872610 0.652773 1.376778 0.040866 0.003855 521429.000000 0 0 1
20.421531 16.447149 4.793422 26.655666 0.678015 1.389985 0.057232 -0.005561 933030.000000 0 0 1
20.276231 17.356249 3.757022 26.953295 0.707961 1.430951 0.060841 -0.007020 44413.200000 0 0 1
18.805331 17.412849 3.250022 25.834288 0.746970 1.444659 0.062805 -0.010458 124189.000000 0 0 1
18.085431 18.144049 4.220422 25.963460 0.787016 1.407519 0.067696 -0.016186 534686.000000 0 0 1
16.676131 17.976949 4.009722 24.846366 0.822919 1.408707 0.055223 -0.025579 865129.000000 0 1 0
15.867531 19.316749 4.110922 25.334068 0.883119 1.407807 0.050553 -0.019760 334004.000000 0 0 1
14.450631 19.253049 4.064022 24.413457 0.926935 1.403551 0.047260 -0.020107 -19684.300000 0 1 0
13.932631 20.532649 4.206822 25.167543 0.974605 1.402855 0.037792 -0.021102 -236491.000000 0 0 1
12.409731 20.377249 4.019422 24.194823 1.023786 1.403895 0.028541 -0.019658 -237276.000000 0 1 0
11.750131 19.615549 5.003022 23.406528 1.031097 1.355390 0.021389 -0.018625 -499163.000000 0 1 0
10.472131 19.266749 4.511322 22.388059 1.072931 1.367901 0.024396 -0.018087 -90516.300000 0 1 0
9.661331 18.749849 5.714222 21.852928 1.095003 1.306235 0.024292 -0.018976 -364544.000000 0 1 0
9.230031 19.669149 6.697722 22.736059 1.132038 1.271774 0.024186 -0.020727 -72469.500000 0 1 0
8.762331 19.000649 7.902122 22.366194 1.138701 1.209693 0.032365 -0.016537 -209963.000000 0 1 0
7.825631 19.958849 8.681222 23.129197 1.197129 1.186037 0.021475 -0.018889 550196.000000 0 1 0
6.535931 20.135949 8.100122 22.666866 1.256935 1.205362 0.024284 -0.022780 349832.000000 0 1 0
6.437331 21.314849 7.346122 23.446269 1.277495 1.252112 0.026729 -0.019153 -988381.000000 0 1 0
5.126631 21.232649 6.522022 22.795712 1.333880 1.280634 0.016072 -0.018005 1365060.000000 0 1 0
3.874331 21.494649 7.223722 23.004620 1.392465 1.251381 0.012477 -0.013375 956030.000000 0 1 0
3.814031 22.744449 7.893122 24.375360 1.404652 1.241037 0.024476 -0.019333 -1056860.000000 0 1 0
3.696131 24.092349 7.100522 25.387400 1.418568 1.287328 0.024358 -0.017473 563560.000000 0 0 1
2.557931 24.120149 6.226722 25.041898 1.465142 1.319508 0.027078 -0.013373 515538.000000 0 0 1
2.696931 25.265149 5.385222 25.973098 1.464454 1.361943 0.031880 -0.005450 -674632.000000 0 0 1
1.490031 25.499749 4.508322 25.938048 1.512430 1.396098 0.035231 -0.004807 -514621.000000 0 0 1
0.422531 26.073349 5.256622 26.601318 1.554592 1.371880 0.047152 -0.010086 165839.000000 0 0 1
-0.746269 26.049549 4.436622 26.435195 -1.542156 1.402168 0.041600 -0.011239 -195145.000000 0 0 1
-1.825869 26.961049 4.979722 27.477802 -1.503177 1.388562 0.040744 -0.008047 -222769.000000 0 0 1
-2.831069 27.236049 4.010922 27.674985 -1.467223 1.425355 0.047704 -0.006703 -787326.000000 0 0 1
-3.930069 27.798349 4.590822 28.447659 -1.430349 1.408710 0.033467 -0.005798 -959510.000000 0 0 1
-4.971469 28.341949 3.605022 28.999617 -1.397153 1.446161 0.035610 -0.010988 -188607.000000 0 0 1
-4.520669 29.551849 3.028122 30.048590 -1.418999 1.469851 0.033178 -0.016465 174111.000000 0 0 1
-5.286669 29.963349 1.887222 30.484632 -1.396156 1.508849 0.029641 -0.021650 -518615.000000 0 0 1
-4.625969 30.827749 0.822922 31.183760 -1.421849 1.544404 0.029572 -0.017769 -589031.000000 0 0 1
-4.367069 32.206949 1.154222 32.522163 -1.436024 1.535299 0.026965 -0.010950 553311.000000 0 0 1
-3.105769 32.313149 1.821822 32.513142 -1.474976 1.514734 0.033095 -0.012293 -211437.000000 0 0 1
-2.509469 33.718249 1.886522 33.864092 -1.496509 1.515059 0.029314 -0.010581 -1316680.000000 0 0 1
-2.018769 34.146849 0.637922 34.212420 -1.511745 1.552149 0.018672 -0.007537 44084.300000 0 0 1
-1.173669 -33.870894 0.800522 33.900675 1.536159 1.547180 0.025350 -0.009571 10114.800000 0 0 1
0.206231 -34.076294 1.454522 34.107946 -1.564744 1.528139 0.033163 -0.005613 -1107440.000000 0 0 1
0.100531 -34.053194 2.887322 34.175528 -1.567844 1.486210 0.019126 -0.007092 -476601.000000 0 0 1
1.306631 -34.450194 3.445222 34.646683 -1.532886 1.471193 0.021170 -0.007018 -468786.000000 0 0 1
1.201231 -34.470694 4.952922 34.845417 -1.535963 1.428173 0.019701 -0.007508 -27639.500000 0 0 1
0.317631 33.729549 5.508422 34.177859 1.561380 1.408921 0.031822 -0.015870 -97628.500000 0 0 1
-0.003869 33.994549 6.886622 34.685082 -1.570683 1.370921 0.038647 -0.012294 -212061.000000 0 0 1
1.133431 33.756949 7.877922 34.682531 1.537233 1.341653 0.025169 -0.005659 -285526.000000 0 0 1
1.458231 32.396449 8.140722 33.435426 1.525815 1.324848 0.026291 -0.008186 239284.000000 0 0 1
2.584331 32.311849 9.006522 33.643005 1.490985 1.299782 0.018845 0.001843 131067.000000 0 0 1
3.115631 30.847849 9.163122 32.330477 1.470138 1.283437 0.016180 -0.005898 -223768.000000 0 0 1
2.301131 29.982449 9.911622 31.662007 1.494197 1.252399 0.035847 -0.009848 -76433.500000 0 0 1
2.718731 28.622549 9.864822 30.396653 1.476095 1.240275 0.029961 -0.010120 -283518.000000 0 0 1
2.352931 27.773149 11.043422 29.980681 1.486279 1.193561 0.032724 -0.020223 -385520.000000 0 0 1
2.915331 28.150449 12.299122 30.857987 1.467602 1.160837 0.023838 -0.011549 -115049.000000 0 0 1
2.721031 27.188149 13.295222 30.386878 1.471047 1.117944 0.026258 -0.006729 -489767.000000 0 0 1
1.301931 27.099449 13.878522 30.474391 1.522791 1.097957 0.026767 -0.013652 -440576.000000 0 0 1
0.767031 28.255849 14.524022 31.779373 1.543657 1.096147 0.026659 -0.014285 112271.000000 0 0 1
0.132131 29.161849 13.635522 32.192520 1.566265 1.133423 0.028511 -0.015307 -428619.000000 0 0 1
-0.476069 30.387849 14.315422 33.594335 -1.555131 1.130590 0.019271 -0.016024 -430318.000000 0 0 1
-1.581269 30.103549 15.099822 33.715407 -1.518317 1.106425 0.016717 -0.014356 -521729.000000 0 0 1
-2.281569 31.279049 15.496622 34.981849 -1.497983 1.111865 0.014219 -0.006707 -282472.000000 0 0 1
-3.549869 30.957949 16.313522 35.172819 -1.456628 1.088505 0.015634 0.002271 144879.000000 0 0 1
-4.537969 30.299449 15.525822 34.346775 -1.422131 1.101755 0.016106 -0.013207 454129.000000 0 0 1
-5.693169 29.914249 16.261522 34.521176 -1.382729 1.080305 0.007819 -0.009628 19842.400000 0 0 1
-6.843769 29.431449 15.337622 33.886428 -1.342324 1.101097 0.008804 -0.015986 -440400.000000 0 0 1
-7.988169 29.186149 16.085322 34.269224 -1.303642 1.082207 0.010444 -0.012496 -1080280.000000 0 0 1
-8.985469 28.586549 15.350622 33.668547 -1.266250 1.097375 0.006525 -0.008119 -594196.000000 0 0 1
-10.157569 28.084649 16.199722 33.975796 -1.223757 1.073784 0.005690 -0.005488 206237.000000 0 0 1
-11.013369 29.098649 16.768022 35.343914 -1.208975 1.076486 -0.002236 -0.007846 506538.000000 0 0 1
-10.826069 29.286249 18.123422 36.101892 -1.216712 1.044878 0.005273 -0.010794 -326831.000000 0 0 1
-11.755869 30.349049 18.762922 37.567439 -1.201238 1.047837 0.008922 -0.007829 -511917.000000 0 0 1
-13.129169 30.145949 18.536222 37.745793 -1.160049 1.057467 0.022474 -0.001948 -209604.000000 0 0 1
-13.797269 31.318449 18.895522 39.092846 -1.155831 1.066319 0.031403 -0.000927 63919.700000 0 0 1
-14.669969 31.218349 20.199922 39.972868 -1.131505 1.041019 0.033736 -0.006206 299238.000000 0 0 1
-13.849269 31.135149 21.395322 40.236297 -1.152266 1.010140 0.032806 -0.006245 549421.000000 0 0 1
-14.678269 30.734949 22.461422 40.799561 -1.125248 0.987796 0.029803 -0.004061 -103361.000000 0 0 1
-14.024869 30.793749 23.845022 41.394891 -1.143423 0.956923 0.019056 -0.000310 722365.000000 0 0 1
-12.925869 29.823149 24.027422 40.420481 -1.161818 0.934231 0.021154 -0.002160 1268950.000000 0 0 1
-12.588969 29.496549 25.360622 40.886302 -1.167407 0.901707 0.016735 0.002101 12724.400000 0 0 1
-11.999969 30.589749 26.303722 42.090590 -1.196956 0.895753 0.014744 0.003171 -578994.000000 0 0 1
-13.015869 31.425649 26.771922 43.286488 -1.178126 0.903987 0.010201 0.011639 70506.100000 0 0 1
-12.574069 32.703249 27.275122 44.402049 -1.203732 0.909328 0.008483 0.011779 -196901.000000 0 0 1
-13.793669 33.578349 27.631422 45.620898 -1.181022 0.920183 0.013974 0.012750 363381.000000 0 0 1
-14.504969 33.174149 28.818722 46.275664 -1.158607 0.898529 -0.006746 0.009042 721679.000000 0 0 1
-13.765069 33.423749 30.059022 47.012434 -1.180129 0.877099 0.001997 0.018003 149555.000000 0 0 1
-14.269169 32.632949 31.308722 47.421036 -1.158585 0.849673 -0.006549 0.017538 -1250510.000000 0 0 1
-15.522069 32.998649 31.742622 48.347074 -1.131120 0.854551 -0.008877 0.015455 -1107450.000000 0 0 1
-15.914969 32.370349 32.930022 48.841704 -1.113849 0.830889 -0.007530 0.015649 658902.000000 0 0 1
-17.369269 32.672849 33.414022 49.856829 -1.082180 0.836319 -0.009238 0.009809 408553.000000 0 0 1
-17.617369 34.062749 33.760022 51.091894 -1.093481 0.848951 0.000775 0.011535 -663352.000000 0 0 1
-19.001769 34.266949 33.730822 51.701638 -1.064488 0.860032 0.015308 0.003995 -315231.000000 0 0 1
-19.229569 -33.300794 33.858022 51.235582 1.047122 0.848872 0.021504 0.003091 -15307.800000 0 0 1
-19.015869 -32.793594 -33.875100 50.838425 1.045313 2.300071 0.039199 -0.006169 81221.500000 0 0 1
-20.211769 -32.797794 -33.124700 50.808037 1.018511 2.280960 0.036458 -0.008147 120805.000000 0 0 1
-19.985369 -32.063994 -31.839700 49.409323 1.013423 2.271044 0.049025 -0.014781 74683.800000 0 0 1
-19.855369 -30.667094 -32.020000 48.579695 0.996217 2.290448 0.066453 -0.018965 158467.000000 0 0 1
-19.516769 -29.986594 -30.809600 47.215798 0.993824 2.281711 0.057236 -0.014184 11089.600000 0 0 1
-19.740169 -28.453494 -31.020300 46.492307 0.964264 2.301258 0.062565 -0.019095 129313.000000 0 0 1
-21.111769 -28.139394 -30.928800 46.841466 0.927131 2.291997 0.061866 -0.013933 -38852.500000 0 0 1
-21.461369 -26.751994 -30.921000 46.177568 0.894694 2.304481 0.060059 -0.014710 294601.000000 0 0 1
-22.617469 -26.357094 -29.956000 45.865109 0.861609 2.282510 0.055920 -0.017159 100242.000000 0 0 1
-22.412869 -26.659794 -28.610000 45.073423 0.871727 2.258471 0.046366 -0.013870 116144.000000 0 0 1
-21.617069 -25.708594 -27.919800 43.677737 0.871638 2.264283 0.044171 -0.020586 -87526.600000 0 0 1
-21.366069 -25.970794 -26.406400 42.758496 0.882369 2.236447 0.034824 -0.013073 -661920.000000 0 0 1
-22.477469 -25.740594 -25.620900 42.711185 0.852969 2.214127 0.019627 -0.008029 -487994.000000 0 0 1
-22.378369 -26.423494 -24.348000 42.329866 0.868098 2.183641 0.019776 -0.000882 -391660.000000 0 0 1
-23.562169 -26.171494 -23.376200 42.267832 0.837816 2.156816 0.010750 0.005393 892664.000000 0 0 1
-24.857469 -26.742394 -23.579400 43.463059 0.821912 2.144225 0.015572 0.008168 567104.000000 0 0 1
-24.943169 -28.143494 -23.594200 44.394867 0.845610 2.131122 0.020193 0.011093 -1013480.000000 0 0 1
-26.412869 -28.564094 -23.523800 45.463351 0.824508 2.114633 0.008359 0.013717 -54981.100000 0 0 1
-27.006569 -28.405794 -22.249600 45.069819 0.810644 2.087101 0.016843 0.023551 -234398.000000 0 0 1
-28.206169 -27.671894 -22.350300 45.396670 0.775837 2.085565 0.021175 0.021028 46701.100000 0 0 1
-28.682569 -27.116994 -20.983700 44.702761 0.757348 2.059413 0.027092 0.022830 -39804.700000 0 0 1
-29.242069 -28.161894 -20.209400 45.349870 0.766583 2.032678 0.021773 0.024297 -5365.950000 0 0 1
-29.609769 -27.635394 -18.946000 44.714699 0.750922 2.008332 0.013796 0.021291 -757530.000000 0 0 1
-30.545969 -28.614694 -18.190200 45.637050 0.752765 1.980769 0.003546 0.016395 876521.000000 0 0 1
-31.874469 -28.868394 -18.730100 46.906104 0.735950 1.981561 0.002098 0.017799 1838750.000000 0 0 1
-32.801069 -27.754994 -18.794000 46.898446 0.702261 1.983119 0.001544 0.022617 75791.200000 0 0 1
-33.224169 -27.144794 -17.432900 46.309732 0.685033 1.956748 0.001009 0.018189 -971541.000000 0 0 1
-32.263569 -26.219194 -16.977200 44.906674 0.682411 1.958491 0.003136 0.019019 179724.000000 0 0 1
-32.473969 -25.640394 -15.676600 44.246404 0.668347 1.932964 0.006327 0.013740 -146326.000000 0 0 1
-32.255569 -26.591394 -14.472400 44.237703 0.689441 1.904083 -0.000471 0.009285 -677390.000000 0 0 1
-33.129069 -27.635194 -14.395000 45.480273 0.695230 1.892845 0.013197 0.018061 -195370.000000 0 0 1
-32.947169 -28.216194 -13.109200 45.315788 0.708202 1.864277 0.018966 0.014175 -484143.000000 0 0 1
-33.796069 -29.440894 -12.955000 46.655895 0.716636 1.852166 0.027972 0.004951 -392254.000000 0 0 1
-33.394169 -30.547594 -13.750000 47.301041 0.740909 1.865746 0.019217 0.004459 357568.000000 0 0 1
-33.905569 -31.752394 -13.183400 48.286687 0.752616 1.847331 0.016563 0.002486 -71683.800000 0 0 1
-33.499969 -32.999794 -14.087500 49.088614 0.777877 1.861870 0.013589 0.006635 -295142.000000 0 0 1
-32.124169 -33.294794 -14.013900 48.341441 0.803291 1.864913 0.010185 0.004518 -82393.700000 0 0 1
-31.719669 -34.212794 -14.979200 49.000297 0.823193 1.881466 0.023483 -0.011069 537084.000000 0 0 1
-30.191869 -34.361794 -15.283900 48.227372 0.849905 1.893270 0.014894 -0.005624 529107.000000 0 0 1
-29.964369 33.777049 -16.269700 47.994329 -0.845142 1.916642 0.018989 -0.007633 -2266430.000000 0 0 1
-28.678569 33.550149 -16.592700 47.152842 -0.863524 1.930388 0.014080 -0.004488 -1936260.000000 0 0 1
9.088471 20.146749 -8.660978 23.738246 1.147017 1.944272 -0.002422 -0.001230 -277030.000000 0 1 0
7.696671 20.463849 -8.706678 23.533255 1.211052 1.949777 0.004359 -0.000895 616238.000000 0 1 0
7.213471 20.458849 -10.063478 23.913851 1.231821 2.005148 0.007894 -0.005576 131741.000000 0 1 0
7.263871 19.154649 -10.909678 23.209599 1.208329 2.060144 -0.001215 -0.000177 -163981.000000 0 1 0
8.556071 18.727049 -11.355378 23.512833 1.142233 2.074810 0.006785 0.003953 252934.000000 0 1 0
8.424171 17.814149 -12.416678 23.291296 1.129069 2.133061 0.003727 0.004446 81263.000000 0 1 0
9.758971 17.361349 -13.042478 23.806726 1.058704 2.150587 0.009447 0.008731 212110.000000 0 1 0
9.524471 16.256749 -13.870578 23.396375 1.040825 2.205392 0.009932 -0.007103 -297893.000000 0 1 0
10.701171 15.958449 -14.551078 24.102303 0.980100 2.218957 0.019934 -0.007230 -750568.000000 0 1 0
10.534371 14.784049 -15.499578 23.870023 0.951697 2.277503 0.021579 -0.013493 -261633.000000 0 1 0
10.362671 13.513749 -14.827578 22.580156 0.916614 2.287183 0.023010 -0.015781 1666400.000000 0 1 0
11.614171 12.843749 -14.452178 22.554740 0.835629 2.266284 0.029289 -0.012872 1072820.000000 0 1 0
12.453171 12.064149 -15.502878 23.258641 0.769532 2.300358 0.033984 -0.012626 -233319.000000 0 1 0
13.041871 12.939749 -16.431278 24.647807 0.781468 2.300492 0.031573 -0.014927 -306941.000000 0 1 0
13.900271 12.210749 -17.235478 25.285997 0.720783 2.320773 0.035378 -0.019643 -651861.000000 0 0 1
14.615871 13.026449 -18.292478 26.794156 0.727962 2.322253 0.029608 -0.016451 -411760.000000 0 0 1
15.629371 13.839149 -17.808078 27.439514 0.724722 2.277058 0.012951 -0.005849 -200464.000000 0 0 1
16.447171 14.394749 -18.832478 28.851004 0.718950 2.282004 0.017838 -0.004718 126317.000000 0 0 1
17.562071 15.376149 -18.447378 29.751606 0.719131 2.239598 0.013228 -0.001834 -272298.000000 0 0 1
17.175671 16.680349 -17.939378 29.917537 0.770769 2.213832 0.010398 0.000304 126555.000000 0 0 1
16.562971 17.480749 -18.916878 30.622816 0.812350 2.236659 0.009950 0.009919 -476869.000000 0 0 1
16.429571 18.945049 -18.446878 31.130901 0.856388 2.205028 0.003428 0.015037 -816218.000000 0 0 1
17.574171 19.718349 -18.365678 32.170839 0.842831 2.178373 0.003785 0.019641 -652167.000000 0 0 1
17.291371 21.015449 -17.923878 32.586899 0.882311 2.153200 -0.010729 0.021185 29885.500000 0 0 1
18.419671 22.079749 -18.021578 33.934891 0.875527 2.130651 0.001831 0.014716 830625.000000 0 0 1
19.519371 22.021849 -17.090578 34.030215 0.845566 2.096958 0.004884 0.014361 268323.000000 0 0 1
19.442171 23.085949 -16.137778 34.225530 0.870869 2.061802 0.007263 0.008310 -933840.000000 0 0 1
20.648971 23.554849 -15.366878 34.890570 0.851042 2.026875 0.019856 0.007590 -878897.000000 0 0 1
21.010871 22.811449 -14.178778 34.100684 0.826463 1.999609 0.027542 0.008836 -406646.000000 0 0 1
21.985171 23.370649 -13.366878 34.759292 0.815936 1.965523 0.022541 0.006172 1332830.000000 0 0 1
23.516271 23.102349 -13.734178 35.712199 0.776519 1.965549 0.020066 0.005566 1278420.000000 0 0 1
23.805971 23.532049 -15.046478 36.699838 0.779612 1.993237 0.018667 0.007914 -1863620.000000 0 0 1
25.064871 23.999849 -15.124978 37.855059 0.763695 1.981822 0.018789 0.008631 -1925810.000000 0 0 1
25.369371 24.600149 -16.494578 38.997992 0.770006 2.007505 0.002865 0.007638 -271608.000000 0 0 1
25.582471 23.682549 -17.486978 39.001543 0.746852 2.035733 0.005113 0.001423 178277.000000 0 0 1
25.856471 24.385849 -18.659778 40.142422 0.756136 2.054250 0.001326 0.008725 -1063530.000000 0 0 1
26.185371 23.433449 -19.799078 40.333654 0.729994 2.083899 0.001176 0.001446 -897136.000000 0 0 1
27.526671 23.034849 -19.924378 41.052439 0.696792 2.077548 -0.008013 0.005475 -289493.000000 0 0 1
27.704971 22.137749 -21.032178 41.231030 0.674163 2.106104 0.002970 -0.004261 228948.000000 0 0 1
29.207971 22.066149 -21.389778 42.397442 0.647002 2.099606 0.028240 -0.008708 314110.000000 0 0 1
29.772971 23.326049 -21.758978 43.634705 0.664576 2.092851 0.016531 0.010383 444587.000000 0 0 1
31.198171 23.249349 -21.802078 44.600322 0.640432 2.081547 0.037249 -0.002366 631285.000000 0 0 1
31.857371 24.570249 -22.259178 45.978911 0.656968 2.076150 0.024097 0.003411 -139448.000000 0 0 1
32.006371 24.792749 -23.695078 46.909966 0.659072 2.100315 0.018940 0.006044 324200.000000 0 0 1
30.777871 24.971949 -24.381278 46.533024 0.681630 2.122286 0.016216 0.001424 -315815.000000 0 0 1
30.909371 25.174449 -25.890248 47.533641 0.683496 2.146794 0.013330 -0.000368 -167117.000000 0 0 1
31.100871 26.506449 -26.326508 48.610092 0.705812 2.143118 0.010013 0.009491 180406.000000 0 0 1
29.873471 27.204549 -26.551668 48.347728 0.738673 2.152181 0.008539 0.015671 527350.000000 0 0 1
29.267371 27.161249 -27.955268 48.742276 0.748092 2.181608 0.005312 0.010097 93149.000000 0 0 1
28.733571 25.848949 -28.302988 47.904544 0.732598 2.202872 0.006719 -0.004806 93292.800000 0 0 1
28.519271 25.805849 -29.684368 48.584487 0.735492 2.228100 0.000362 -0.009729 -365601.000000 0 0 1
27.820471 24.465049 -30.008928 47.676545 0.721311 2.251613 0.007703 -0.021387 246122.000000 0 0 1
26.454171 24.380149 -29.636258 46.610327 0.744621 2.259880 0.013051 -0.019150 250331.000000 0 0 1
25.786971 23.131449 -29.867738 45.739628 0.731167 2.282328 0.022774 -0.026655 383096.000000 0 0 1
24.296971 23.269649 -29.464048 44.720795 0.763804 2.290078 0.022747 -0.013529 171669.000000 0 0 1
24.263171 23.393549 -28.067838 43.860724 0.767153 2.265205 0.011144 -0.007063 -669856.000000 0 0 1
22.941071 23.456049 -27.677068 42.924341 0.796497 2.271541 0.012861 -0.005683 -1062180.000000 0 0 1
22.963971 23.787949 -26.121908 42.137448 0.803021 2.239439 0.008171 -0.002453 -65203.100000 0 0 1
23.315871 22.615649 -25.348018 41.202177 0.770154 2.233449 -0.004968 -0.005154 296597.000000 0 0 1
23.597371 22.926449 -24.009278 40.729638 0.770978 2.201210 -0.002029 0.008096 -15625.600000 0 0 1
24.059271 21.651249 -23.147478 39.792346 0.732767 2.191622 -0.003020 0.008591 115983.000000 0 0 1
25.307371 21.094649 -23.495278 40.465730 0.694859 2.190288 -0.001850 -0.000282 158273.000000 0 0 1
25.408771 19.823749 -22.877178 39.521538 0.662546 2.188118 0.020398 -0.000636 253470.000000 0 0 1
26.592471 18.928049 -23.383678 40.152546 0.618590 2.192439 0.029256 -0.010739 -161964.000000 0 0 1
27.873971 19.350049 -23.049278 41.020140 0.606821 2.167479 0.049199 -0.032608 -979872.000000 0 0 1
28.811971 18.488549 -23.604378 41.582722 0.570516 2.174443 0.041171 -0.027081 -133922.000000 0 0 1
30.016071 18.278049 -22.653878 41.812077 0.546969 2.143376 0.046706 -0.026523 86414.000000 0 0 1
30.884371 19.378449 -22.496278 42.842166 0.560360 2.123625 0.040122 -0.025348 -273552.000000 0 0 1
32.089171 18.997449 -21.898078 43.245159 0.534532 2.101767 0.048348 -0.020469 -10334.100000 0 0 1
32.735371 20.048849 -20.980978 43.746569 0.549525 2.070998 0.033734 -0.026543 -66762.900000 0 0 1
31.983171 20.178249 -19.799278 42.686021 0.562832 2.053116 0.043066 -0.022945 -67201.100000 0 0 1
32.642171 20.919149 -18.826778 43.099532 0.569925 2.022858 0.031562 -0.012128 -381865.000000 0 0 1
32.031371 20.936449 -17.401778 42.037668 0.578918 1.997593 0.030443 -0.017537 -286356.000000 0 0 1
32.151371 19.630349 -16.778478 41.238072 0.548148 1.989820 0.035658 -0.025852 443558.000000 0 0 1
31.825871 19.679049 -15.372578 40.453272 0.553792 1.960602 0.028690 -0.022253 -291005.000000 0 0 1
32.220971 18.405949 -14.594478 39.874412 0.519005 1.945515 0.022913 -0.013529 -2382410.000000 0 0 1
33.558271 18.202049 -14.498778 40.837320 0.496991 1.933750 0.032136 -0.013854 -1511100.000000 0 0 1
33.979771 17.143649 -13.674578 40.441607 0.467261 1.915727 0.030846 -0.008253 -79610.200000 0 0 1
33.994771 17.491749 -12.165278 40.119817 0.475214 1.878870 0.032534 -0.020619 -483789.000000 0 0 1
34.894971 18.527549 -11.850478 41.247580 0.488101 1.862204 0.027624 -0.024514 -18054.300000 0 0 1
34.909771 18.972549 -10.505378 41.097599 0.497819 1.829286 0.021584 -0.025668 -480507.000000 0 0 1
33.839771 20.027249 -10.198778 40.623095 0.534387 1.824570 0.028639 -0.023686 -295449.000000 0 0 1
32.552071 19.524049 -10.394278 39.355645 0.540257 1.838079 0.034668 -0.022536 -240326.000000 0 0 1
31.493071 20.465249 -10.224678 38.925364 0.576258 1.836589 0.012318 -0.010006 99399.300000 0 0 1
30.079871 19.945949 -10.438778 37.571367 0.585529 1.852340 -0.003367 -0.003951 -434695.000000 0 0 1
29.825371 19.722549 -11.789478 37.650013 0.584255 1.889287 0.005999 -0.013041 -283982.000000 0 0 1
28.534171 19.214049 -11.988578 36.429447 0.592629 1.906136 0.004058 -0.013149 -832151.000000 0 0 1
28.376971 18.695849 -13.433878 36.541159 0.582564 1.947263 0.046915 -0.017214 -463712.000000 0 0 1
29.224571 17.600749 -13.705878 36.765650 0.542079 1.952811 0.040675 -0.013620 222875.000000 0 0 1
28.754771 16.926749 -14.899678 36.542470 0.532039 1.990769 0.042657 -0.007444 -208764.000000 0 0 1
29.833771 16.197549 -15.718478 37.409692 0.497396 2.004430 0.039731 -0.017268 -434663.000000 0 0 1
30.429071 15.183149 -14.949278 37.147507 0.462822 1.984966 0.026468 -0.014504 377971.000000 0 0 1
31.711971 14.826249 -15.437178 38.259289 0.437335 1.986122 0.024941 -0.017103 54613.300000 0 0 1
32.463871 13.697349 -14.720278 38.186475 0.399264 1.966529 0.016872 -0.021871 -290771.000000 0 0 1
33.204671 14.232749 -13.612678 38.606040 0.404947 1.931150 0.017751 -0.008201 231280.000000 0 0 1
33.846271 13.274149 -12.799078 38.543345 0.373755 1.909293 0.024434 -0.004576 309549.000000 0 0 1
34.778771 13.898949 -11.713178 39.242098 0.380195 1.873901 0.037283 0.000101 -94135.900000 0 0 1
-34.643589 14.410449 -12.150078 39.439367 -0.394191 1.883960 0.015026 -0.006795 -854598.000000 0 0 1
-33.891289 14.920749 -11.089778 38.655289 -0.414719 1.861774 0.015613 -0.006705 -1282420.000000 0 0 1
-32.526889 15.373149 -11.647378 37.815257 -0.441512 1.883894 0.015142 -0.015385 21121.700000 0 0 1
-31.656789 14.359049 -12.147478 36.822490 -0.425831 1.906986 0.007698 -0.006428 350074.000000 0 0 1
-31.292589 13.353949 -11.202678 35.819744 -0.403348 1.888885 0.012996 -0.002018 -1750200.000000 0 0 1
-30.103889 12.524849 -11.626878 34.616474 -0.394269 1.913333 0.020656 -0.005394 -645340.000000 0 0 1
-30.297789 11.821149 -12.851078 34.969212 -0.372000 1.947113 0.008576 -0.000988 -57357.600000 0 0 1
-29.593089 10.628649 -12.725578 33.921371 -0.344812 1.955354 0.021969 -0.004092 -298855.000000 0 0 1
-29.523589 9.787749 -14.004278 34.111027 -0.320120 1.993853 0.021648 -0.009552 -579993.000000 0 0 1
-30.692989 9.111849 -14.353078 35.086981 -0.288583 1.992232 0.000206 -0.010579 -205419.000000 0 0 1
-30.468989 8.063149 -15.248378 35.012665 -0.258704 2.021401 0.008248 -0.013276 284789.000000 0 0 1
-31.767589 7.690749 -16.046778 36.411899 -0.237524 2.027176 0.006138 -0.014280 145177.000000 0 0 1
-32.664189 6.931249 -15.311978 36.734835 -0.209096 2.000745 0.016042 -0.018642 -1052920.000000 0 0 1
-33.502589 6.241049 -16.119478 37.698962 -0.184175 2.012615 0.005037 -0.019546 -962168.000000 0 0 1
-34.602289 5.622349 -15.230778 38.221798 -0.161077 1.980660 0.007744 -0.012038 -269158.000000 0 0 1
35.209071 4.631849 -15.810978 38.873123 0.130802 1.989671 0.017479 -0.012045 285261.000000 0 0 1
34.275871 4.181049 -14.805178 37.570065 0.121383 1.975850 0.022108 -0.011968 325866.000000 0 0 1
33.333571 3.162149 -15.440378 36.871824 0.094581 2.002874 0.025444 -0.012084 -541050.000000 0 0 1
34.035871 1.964349 -15.611678 37.496982 0.057650 2.000218 0.024437 -0.016875 140876.000000 0 0 1
33.217071 0.791849 -15.642978 36.724700 0.023834 2.010811 0.019077 -0.008665 47236.400000 0 0 1
32.545071 0.442749 -14.290478 35.547087 0.013603 1.984513 0.040125 -0.017464 248800.000000 0 0 1
33.494171 -0.016451 -13.310778 36.042150 -0.000491 1.949064 0.057860 -0.023674 242513.000000 0 0 1
32.978971 -0.033251 -11.998678 35.093901 -0.001008 1.919737 0.064027 -0.013917 -395160.000000 0 0 1
32.986471 1.321649 -11.256578 34.879286 0.040045 1.899408 0.067243 -0.024613 33001.800000 0 0 1
32.038471 2.277549 -11.711978 34.188028 0.070969 1.920453 0.064433 -0.019495 317680.000000 0 0 1
32.148271 3.557249 -11.065078 34.184811 0.110203 1.900417 0.063398 -0.014670 287519.000000 0 0 1
31.086571 4.617249 -11.524178 33.473879 0.147451 1.922261 0.052126 -0.008271 294863.000000 0 0 1
31.333071 5.026749 -12.846278 34.235309 0.159074 1.955446 0.055400 -0.006453 205915.000000 0 0 1
30.419471 5.996949 -13.243578 33.714981 0.194646 1.974481 0.057900 -0.005802 -409839.000000 0 0 1
30.636171 6.550149 -14.692778 34.602849 0.210633 2.009329 0.030011 0.000312 -325633.000000 0 0 1
30.559171 5.634949 -15.782978 34.852804 0.182346 2.040752 0.025434 0.005224 352048.000000 0 0 1
30.931571 6.180249 -17.039278 35.851005 0.197207 2.066079 0.022802 0.005580 -692996.000000 0 0 1
29.973571 7.344849 -17.558578 35.505850 0.240309 2.088086 0.024170 0.004001 943457.000000 0 0 1
28.714971 6.993549 -18.116578 34.665107 0.238900 2.120714 0.007746 0.014361 845817.000000 0 0 1
27.833871 6.210949 -17.276278 33.343216 0.219547 2.115465 -0.000220 0.014079 -817574.000000 0 0 1
26.440571 6.100349 -17.937178 32.527840 0.226751 2.154887 -0.011932 0.018111 -31889.900000 0 0 1
26.581771 5.419449 -19.214978 33.244193 0.201122 2.187066 -0.008290 0.017691 482093.000000 0 0 1
25.382371 5.653049 -19.935778 32.766705 0.219139 2.224859 -0.012060 0.014563 154450.000000 0 0 1
25.103971 4.429049 -20.841678 32.927213 0.174631 2.256170 -0.010129 0.028606 -355673.000000 0 0 1
24.722071 3.298949 -20.083178 32.021835 0.132658 2.248713 -0.008093 0.017072 295850.000000 0 0 1
24.372971 2.206849 -20.931578 32.203150 0.090299 2.278362 -0.008498 0.012174 -668425.000000 0 0 1
23.505671 1.216649 -20.182578 31.005375 0.051714 2.279616 -0.007707 0.007963 107210.000000 0 0 1
22.224671 1.770949 -19.873978 29.867160 0.079516 2.298842 0.001074 0.004274 795596.000000 0 0 1
21.380671 0.796149 -19.242178 28.775482 0.037220 2.303256 0.001944 0.003836 -45722.500000 0 0 1
20.029271 1.349649 -18.781378 27.490606 0.067282 2.322922 -0.005531 0.003530 -232347.000000 0 0 1
19.152871 1.679549 -19.909678 27.677583 0.087468 2.373652 -0.001204 -0.002978 723369.000000 0 0 1
18.322671 2.800749 -19.754178 27.088596 0.151683 2.388012 -0.015573 0.004469 -327040.000000 0 0 1
17.057871 2.634149 -18.917078 25.607919 0.153214 2.401965 0.014345 -0.005273 -1078870.000000 0 0 1
17.282871 2.407349 -17.554378 24.751750 0.138401 2.359184 0.013409 -0.004066 965375.000000 0 1 0
16.026171 2.173349 -16.903678 23.394357 0.134790 2.378285 -0.004240 0.001589 1221990.000000 0 1 0
14.978071 3.281049 -16.572878 22.578046 0.215651 2.395028 0.008718 -0.002732 261951.000000 0 1 0
14.543571 4.028449 -17.702378 23.261944 0.270217 2.435652 0.015332 0.005745 -127588.000000 0 1 0
13.447871 4.827549 -17.407178 22.520220 0.344654 2.454286 0.027483 -0.010636 -514769.000000 0 1 0
-19.191329 -22.111351 -18.182178 34.464628 0.855979 2.126523 0.019919 -0.004381 80283.900000 0 0 1
-19.085829 -22.601351 -19.487678 35.423997 0.869530 2.153312 0.018138 -0.009934 -156277.000000 0 0 1
-20.353529 -22.395351 -20.057678 36.306037 0.833125 2.156110 0.021354 -0.005217 -68786.200000 0 0 1
-20.515929 -23.118251 -21.381178 37.583396 0.844967 2.175964 0.016673 0.000968 -10769.500000 0 0 1
-20.627529 -24.536551 -21.171878 38.415956 0.871735 2.154505 -0.001415 -0.000971 -81208.900000 0 0 1
-19.738729 -25.169421 -22.035778 38.841894 0.905743 2.174044 0.005671 -0.001572 -325824.000000 0 0 1
-19.491029 -26.671901 -21.694478 39.521398 0.939716 2.151880 0.008122 0.010853 129635.000000 0 0 1
-20.644129 -27.484051 -21.820878 40.714909 0.926572 2.136421 0.009933 0.018578 188292.000000 0 0 1
-20.229929 -28.833071 -21.731178 41.386473 0.958982 2.123605 0.031550 -0.001302 475421.000000 0 0 1
-21.383929 -29.838611 -22.044578 42.820305 0.948981 2.111589 0.020944 0.002704 722447.000000 0 0 1
-22.124029 -29.730041 -23.273878 43.760957 0.931041 2.131570 0.009924 0.004914 359913.000000 0 0 1
-21.387929 -30.140131 -24.422078 44.297956 0.953646 2.154735 0.023425 -0.007170 -465692.000000 0 0 1
-21.944129 -29.571161 -25.741918 44.929330 0.932384 2.180888 0.022900 0.000985 202575.000000 0 0 1
-23.228029 -30.129231 -26.026938 46.094614 0.914024 2.170795 0.030014 0.001539 578087.000000 0 0 1
-23.960329 -29.345191 -26.955698 46.495669 0.886075 2.189214 0.024521 0.006640 -123800.000000 0 0 1
-23.624429 -29.522131 -28.486808 47.340977 0.895917 2.216470 0.042098 -0.011036 -516289.000000 0 0 1
-23.958329 -30.764331 -29.050978 48.625147 0.909135 2.211111 0.027183 -0.006735 128974.000000 0 0 1
-23.642329 -30.782951 -30.407038 49.306569 0.915853 2.235332 0.067416 -0.013478 105761.000000 0 0 1
-24.225429 -32.035941 -31.181238 50.847247 0.923342 2.230944 0.028161 -0.006440 -250114.000000 0 0 1
-23.644929 -33.243501 -30.841118 51.140860 0.952550 2.218131 0.041246 -0.015226 -124882.000000 0 0 1
-24.248629 -34.409358 -31.458828 52.551478 0.956916 2.212585 0.039944 -0.017724 -85586.000000 0 0 1
-23.498429 33.393313 -31.250118 51.418474 -0.957600 2.224034 0.056328 -0.024254 45793.100000 0 0 1
-22.302629 33.352760 -31.989138 51.313924 -0.981395 2.243881 0.053734 -0.027368 92956.700000 0 0 1
-21.471729 32.240701 -31.621668 50.004278 -0.983268 2.255417 0.050539 -0.024018 12950.200000 0 0 1
-20.249229 32.011131 -32.499688 49.909654 -1.006773 2.279922 0.049128 -0.018010 -272203.000000 0 0 1
-20.630529 31.656711 -33.823078 50.712589 -0.993230 2.300913 0.033636 -0.011625 264410.000000 0 0 1
-20.139629 30.386571 -34.173530 49.967775 -0.985489 2.323907 0.016033 0.002850 -77165.400000 0 0 1
-20.403529 29.995741 33.412735 49.319969 -0.973473 0.826481 0.011111 0.007788 190198.000000 0 0 1
-19.738129 30.971201 32.593475 49.103398 -1.003397 0.844945 0.006235 -0.001430 253803.000000 0 0 1
-19.821129 30.665531 31.200355 48.028264 -0.996981 0.863705 0.018167 -0.002404 -209087.000000 0 0 1
-19.302929 31.740181 30.233075 47.896566 -1.024403 0.887676 0.012795 -0.003775 -321310.000000 0 0 1
-20.156429 32.821051 30.015665 48.830761 -1.020051 0.908806 0.018967 -0.004106 -168688.000000 0 0 1
-19.453229 34.010916 29.676865 49.151672 -1.051242 0.922560 0.011302 -0.008754 -388043.000000 0 0 1
-20.342629 -33.918511 29.638645 49.424055 1.030561 0.927694 0.015604 -0.011131 -406461.000000 0 0 1
-20.724229 -33.559811 30.945525 50.133622 1.017586 0.905540 0.012869 -0.003751 -101024.000000 0 0 1
-21.604929 -32.438431 31.043275 49.826797 0.983235 0.898194 0.040096 -0.012640 -138138.000000 0 0 1
-21.120529 -31.034611 30.739435 48.519446 0.973245 0.884665 0.031267 0.000989 -437316.000000 0 0 1
-20.838229 -30.800521 29.400835 47.405833 0.975980 0.901806 0.042091 0.003104 -121351.000000 0 0 1
-20.978229 -29.430351 29.014785 46.347485 0.951525 0.894348 0.033590 0.001453 263474.000000 0 0 1
-22.289429 -29.046311 28.221805 46.227450 0.916267 0.914106 0.036992 0.000464 898266.000000 0 0 1
-23.420829 -28.870641 29.117695 47.221704 0.889243 0.906358 0.039145 -0.001379 852933.000000 0 0 1
-24.307329 -29.995581 29.069305 48.328104 0.889768 0.925420 0.027767 -0.010586 -271366.000000 0 0 1
-25.428249 -29.902351 28.043845 48.241099 0.866084 0.950438 0.017555 0.000979 -679397.000000 0 0 1
-24.991429 -30.263531 26.745155 47.494801 0.880524 0.972643 0.021531 -0.000760 616828.000000 0 0 1
-26.089169 -30.303841 25.821175 47.599376 0.859997 0.997423 0.029784 -0.001621 465841.000000 0 0 1
-25.558279 -30.441311 24.388785 46.633806 0.872376 1.020447 0.026390 -0.013928 -224054.000000 0 0 1
-24.897329 -29.341831 23.808445 45.251100 0.867158 1.016740 0.012255 -0.010823 416177.000000 0 0 1
-24.367729 -29.389181 22.460945 44.294517 0.878538 1.039001 0.021787 -0.010164 406046.000000 0 0 1
-23.154929 -30.319751 22.218245 44.148482 0.918590 1.043427 0.017448 -0.014368 -391463.000000 0 0 1
-23.534629 -31.682031 22.291245 45.326917 0.931894 1.056654 0.019549 -0.022333 869510.000000 0 0 1
-22.484529 -32.567591 21.851845 45.207357 0.966545 1.066297 0.020564 -0.007756 597124.000000 0 0 1
-21.418829 -33.099131 22.831045 45.558482 0.996454 1.045884 0.024734 -0.003700 10362.200000 0 0 1
-20.518429 -32.200651 23.410045 44.787476 1.003468 1.020791 0.034581 -0.006136 177500.000000 0 0 1
-19.766429 -32.867321 24.413105 45.463966 1.029348 1.003947 0.026719 -0.004082 -234016.000000 0 0 1
-19.285029 -31.981141 25.597215 45.276077 1.028165 0.969929 0.022034 0.000854 -972126.000000 0 0 1
-18.168529 -31.223561 25.222505 44.058835 1.043803 0.961277 0.023510 0.004137 -33819.300000 0 0 1
-17.625729 -30.401671 26.255715 43.866735 1.045391 0.929127 0.029140 0.006955 273527.000000 0 0 1
-16.771529 -31.184811 27.339975 44.735342 1.077360 0.913284 0.007816 0.007868 -459128.000000 0 0 1
-17.472329 -31.997301 28.264455 46.130131 1.070986 0.911310 0.005323 0.012734 353523.000000 0 0 1
-16.552729 -32.513441 29.239065 46.755102 1.099892 0.895195 0.011546 0.011258 82877.300000 0 0 1
-16.825629 -32.063661 30.687715 47.464892 1.087540 0.867763 0.025225 0.013261 -41780.400000 0 0 1
-16.463929 -30.693221 30.771395 46.475945 1.078452 0.847188 0.021123 0.010453 382912.000000 0 0 1
-17.008329 -30.078121 31.948075 47.060133 1.056152 0.824563 0.028344 0.008550 69132.900000 0 0 1
-16.612929 -28.584461 31.972745 45.992578 1.044324 0.802137 0.030115 0.002234 8879.700000 0 0 1
-17.375829 -27.627061 31.217435 45.163062 1.009367 0.807626 0.041484 0.002569 258472.000000 0 0 1
-17.335429 -27.729511 29.796355 44.240995 1.012081 0.831861 0.036657 0.006919 743818.000000 0 0 1
-15.992929 -27.301841 29.064505 42.964052 1.040897 0.827818 0.034804 0.004023 878890.000000 0 0 1
-15.849629 -25.867151 28.882635 41.887072 1.021068 0.809948 0.032022 0.004266 -293286.000000 0 0 1
-14.778929 -25.621111 28.020295 40.743036 1.047591 0.812436 0.022182 0.009184 -448714.000000 0 0 1
-14.913329 -24.303951 27.251755 39.442966 1.020424 0.808042 0.029708 0.005339 59719.900000 0 0 1
-16.003629 -24.147751 26.337145 39.151950 0.985519 0.832957 0.038350 0.003582 309778.000000 0 0 1
-15.853229 -22.965651 25.563485 37.844917 0.966609 0.829181 0.044710 -0.009090 -360664.000000 0 0 1
-16.320129 -21.688251 26.137505 37.681507 0.925705 0.804262 0.048513 -0.006679 -800410.000000 0 0 1
-16.018929 -20.654851 25.182155 36.295590 0.911141 0.804034 0.045942 -0.006850 320401.000000 0 0 1
-16.554929 -19.410651 25.584455 36.130366 0.864633 0.783971 0.047462 -0.001867 -60687.600000 0 0 1
-16.235929 -18.243851 24.614935 34.674753 0.843567 0.781468 0.037311 -0.009234 417313.000000 0 0 1
-14.848429 -17.932851 24.682795 33.930861 0.879213 0.756207 0.041899 -0.011215 132554.000000 0 0 1
-14.550829 -16.741451 23.985145 32.669404 0.855289 0.746342 0.038067 -0.003810 61558.500000 0 0 1
-13.095929 -16.256951 24.187505 31.950386 0.892675 0.712036 0.031030 -0.010879 86337.600000 0 0 1
-12.169629 -17.232551 23.708645 31.735792 0.955921 0.727163 0.015571 -0.006057 -49037.800000 0 0 1
-10.823829 -16.820751 23.740145 31.043315 0.999018 0.700155 0.012257 -0.007768 -5323.070000 0 0 1
-10.266129 -15.965851 22.544845 29.471543 0.999354 0.699802 0.013155 -0.004124 -123305.000000 0 0 1
-9.971229 -16.767551 21.361845 28.929303 1.034302 0.740079 0.017405 -0.001460 -1456030.000000 0 0 1
-8.771929 -17.399551 21.401445 28.943271 1.103837 0.738577 0.013276 -0.001909 -1825290.000000 0 0 1
-8.571229 -18.718151 20.661645 29.167425 1.141384 0.783595 0.011137 0.002846 -216722.000000 0 0 1
-8.402929 -18.401351 19.265145 27.935009 1.142428 0.809802 0.009756 0.008951 -123837.000000 0 0 1
-7.871629 -19.518851 18.612645 28.095883 1.187463 0.846687 0.010112 0.008576 -48994.200000 0 0 1
-7.585729 -19.279751 17.115045 26.873348 1.195944 0.880354 -0.001120 0.003923 283712.000000 0 0 1
-6.561929 -18.300951 16.885245 25.750635 1.226519 0.855659 -0.006585 0.007764 228562.000000 0 0 1
-6.515229 -17.889551 15.531245 24.570385 1.221535 0.886520 0.007558 0.002203 -309275.000000 0 1 0
-5.618829 -16.708651 15.341045 23.368738 1.246394 0.854657 -0.008009 0.007418 -371217.000000 0 1 0
-6.201129 -15.535551 15.821445 23.024453 1.191017 0.813226 0.001756 0.002971 -343657.000000 0 1 0
-5.303129 -14.463351 15.852445 22.104563 1.219358 0.771082 -0.004931 0.005616 -556952.000000 0 1 0
-5.438829 -13.442251 17.000545 22.344876 1.186325 0.706213 -0.018099 0.017744 -160759.000000 0 1 0
-4.951629 -13.845651 18.279645 23.459883 1.227340 0.677428 -0.016874 0.017067 96257.900000 0 1 0
-5.665829 -14.878251 19.014645 24.799611 1.206939 0.697062 0.002161 0.007133 -300418.000000 0 1 0
-6.916829 -14.407951 19.773045 25.424494 1.123219 0.679772 0.024721 -0.003374 -224792.000000 0 0 1
-6.820129 -13.452151 20.777345 25.674356 1.101571 0.627897 0.014395 -0.000886 558912.000000 0 0 1
-8.110529 -13.118151 21.333845 26.324884 1.017053 0.625951 0.021578 0.001508 1194350.000000 0 0 1
-7.879229 -12.074351 22.475345 26.702309 0.992624 0.570372 0.031106 0.006185 34299.000000 0 0 1
-7.145229 -10.974951 21.940045 25.551309 0.993684 0.538135 0.014472 0.007232 144048.000000 0 0 1
-6.849029 -9.956251 22.852745 25.851191 0.968229 0.486422 0.017255 -0.007802 839069.000000 0 0 1
-5.423329 -10.111251 23.519745 26.169224 1.078481 0.453873 0.025856 -0.002816 872751.000000 0 0 1
-5.294529 -11.157251 24.503725 27.439913 1.127726 0.466838 0.025462 0.002637 -915918.000000 0 0 1
-4.004229 -11.295351 24.977895 27.704043 1.230116 0.447348 0.019921 -0.004005 -868319.000000 0 0 1
-3.913829 -12.406751 26.078935 29.143719 1.265217 0.462726 0.016222 -0.001148 411157.000000 0 0 1
-2.531929 -12.774051 26.217925 29.273992 1.375124 0.461008 0.012463 -0.007971 862811.000000 0 0 1
-2.330329 -13.968651 27.032895 30.517717 1.405493 0.482560 0.017524 -0.007519 -24005.100000 0 0 1
-2.549029 -15.296451 26.347855 30.572674 1.405672 0.531968 0.020435 -0.020406 -590298.000000 0 0 1
-1.532029 -15.590551 25.449595 29.884683 1.472844 0.551779 0.028591 -0.015364 -456921.000000 0 0 1
-1.748129 -16.874451 24.819645 30.063563 1.467568 0.599581 0.031226 -0.010795 178550.000000 0 0 1
-0.526829 -17.898551 24.829145 30.612450 1.541371 0.624800 0.034179 -0.013512 775169.000000 0 0 1
0.020771 -18.258551 26.061235 31.820796 -1.569659 0.611130 0.029602 -0.016037 44199.700000 0 0 1
0.666271 -17.215851 26.788845 31.850771 -1.532115 0.571531 0.050858 -0.016725 -708372.000000 0 0 1
1.217771 -17.786751 28.139475 33.311882 -1.502438 0.564740 0.045233 -0.007366 1032490.000000 0 0 1
2.414771 -18.628951 28.015905 33.730696 -1.441890 0.590655 0.033116 -0.006420 1467170.000000 0 0 1
3.205271 -18.823051 29.159385 34.854709 -1.402130 0.579753 0.028996 -0.010450 932872.000000 0 0 1
4.180171 -17.683551 29.652995 34.777606 -1.338670 0.549767 0.027990 -0.004449 282930.000000 0 0 1
3.382371 -16.662351 30.194965 34.652709 -1.370523 0.512830 0.033838 -0.015047 115234.000000 0 0 1
4.212671 -15.656251 30.680885 34.701318 -1.307949 0.486142 0.027667 -0.021370 -117627.000000 0 0 1
3.445771 -14.561551 31.497695 34.871433 -1.338436 0.443508 0.041113 -0.023047 156305.000000 0 0 1
2.829171 -15.219651 32.580935 36.071586 -1.387005 0.443559 0.045827 -0.028456 -172359.000000 0 0 1
1.861771 -14.388951 33.186661 36.219643 -1.442122 0.412151 0.044369 -0.022933 -195447.000000 0 0 1
1.121771 -14.946351 34.374797 37.500379 -1.495884 0.411175 0.038175 -0.022952 375820.000000 0 0 1
1.984971 -15.292451 -33.605248 36.974476 -1.441717 2.711380 0.039704 -0.021037 172417.000000 0 0 1
1.158271 -15.710151 -32.538368 36.151014 -1.497202 2.690722 0.044392 -0.019517 285006.000000 0 0 1
1.897171 -15.702751 -31.190458 34.971707 -1.450561 2.672275 0.041007 -0.015133 -156820.000000 0 0 1
1.112271 -16.223851 -30.158068 34.263093 -1.502346 2.647061 0.055021 -0.020464 -428709.000000 0 0 1
1.567771 -16.046451 -28.841918 33.042438 -1.473403 2.631860 0.044553 -0.022615 -323204.000000 0 0 1
1.219871 -17.283151 -28.005288 32.931619 -1.500332 2.587555 0.050409 -0.018358 -115080.000000 0 0 1
1.938271 -18.456151 -28.285138 33.829505 -1.466160 2.560947 0.057521 -0.021323 134002.000000 0 0 1
1.438171 -19.490151 -27.439528 33.687713 -1.497140 2.522708 0.056106 -0.017760 -530408.000000 0 0 1
2.023771 -20.922251 -27.778568 34.835113 -1.474368 2.493821 0.057780 -0.017851 1094830.000000 0 0 1
3.393571 -21.165351 -27.387778 34.778999 -1.411813 2.477506 0.039674 -0.016385 944899.000000 0 0 1
3.606371 -21.108451 -26.010938 33.691861 -1.401581 2.452816 0.036787 -0.013198 453789.000000 0 0 1
5.159771 -21.140151 -25.617328 33.612151 -1.331402 2.437416 0.039311 -0.013655 1781060.000000 0 0 1
5.901371 -22.338451 -25.867138 34.683446 -1.312517 2.412541 0.034553 -0.003225 10373.100000 0 0 1
6.052271 -22.807951 -27.198128 36.007927 -1.311416 2.426965 0.026099 -0.003820 -753034.000000 0 0 1
5.181171 -24.056051 -27.533388 36.927301 -1.358658 2.412247 0.010024 -0.004941 129777.000000 0 0 1
5.606371 -25.257681 -26.880708 37.308904 -1.352371 2.375306 0.020137 0.004109 83823.100000 0 0 1
4.879071 -26.384651 -27.340128 38.307150 -1.387941 2.365574 0.023120 -0.001291 46305.400000 0 0 1
5.079571 -27.592011 -26.382438 38.511740 -1.388739 2.325468 0.023956 -0.005840 262216.000000 0 0 1
6.416671 -28.025991 -26.158158 38.870028 -1.345721 2.309006 0.027954 -0.007220 89227.100000 0 0 1
6.470971 -29.249331 -25.491248 39.334470 -1.353069 2.275836 0.029174 -0.006260 52731.200000 0 0 1
7.925471 -29.774911 -25.476098 39.979870 -1.310649 2.261686 0.022499 -0.016015 140523.000000 0 0 1
8.366271 -30.002391 -26.835778 41.113221 -1.298851 2.281977 0.027539 -0.015106 808614.000000 0 0 1
9.684771 -30.588511 -26.905578 41.873165 -1.264167 2.268617 0.063957 -0.016288 736014.000000 0 0 1
10.255771 -30.501701 -28.280218 42.840464 -1.246436 2.291786 0.058649 -0.031320 -366456.000000 0 0 1
9.766571 -31.419291 -29.227298 44.009007 -1.269419 2.297114 0.064503 -0.021116 -3642.350000 0 0 1
10.124071 -31.009261 -30.544668 44.688341 -1.255222 2.323349 0.055561 -0.001412 6386.300000 0 0 1
-33.767319 -5.110051 -5.977178 34.670897 0.150192 1.744059 0.088524 -0.027051 -244140.000000 0 0 1
-33.491419 -4.456751 -4.756978 34.119886 0.132294 1.710672 0.074184 -0.031153 382879.000000 0 0 1
-32.800469 -3.182351 -4.878778 33.313670 0.096719 1.717775 0.059455 -0.032510 -351946.000000 0 0 1
-33.524559 -1.904251 -5.354078 34.002770 0.056741 1.728914 0.080574 -0.023192 -370394.000000 0 0 1
-34.287432 -1.259651 -4.348678 34.585051 0.036721 1.696869 0.056608 -0.024575 224111.000000 0 0 1
-34.958635 -0.184951 -4.959478 35.309160 0.005291 1.711721 0.058552 -0.026406 50496.200000 0 0 1
34.940782 0.819049 -4.020378 35.180854 0.023437 1.685324 0.070356 -0.020611 -151731.000000 0 0 1
-34.828186 1.500849 -3.164478 35.003843 -0.043066 1.661324 0.045237 -0.008808 15278.300000 0 0 1
35.169972 2.414149 -2.304778 35.327992 0.068535 1.636082 0.053445 -0.017401 -478381.000000 0 0 1
-34.678814 3.676149 -2.147678 34.939186 -0.105611 1.632304 0.030443 -0.017196 -673435.000000 0 0 1
-34.749587 4.433649 -3.336278 35.189797 -0.126903 1.665747 0.039576 -0.022716 -194726.000000 0 0 1
-33.581339 4.969949 -3.878478 34.167958 -0.146931 1.684554 0.014803 0.002045 -612606.000000 0 0 1
-33.012619 6.216949 -3.207578 33.745697 -0.186140 1.665992 -0.010837 0.006684 -238469.000000 0 0 1
-32.550049 6.092149 -1.870878 33.168059 -0.185022 1.627232 -0.013128 0.001439 327579.000000 0 0 1
-32.385169 7.362649 -1.300578 33.237017 -0.223547 1.609937 -0.012957 -0.012772 -78846.000000 0 0 1
-31.687909 7.330649 0.094422 32.524928 -0.227340 1.567893 -0.012699 -0.011424 -454402.000000 0 0 1
-30.308159 7.074849 -0.030778 31.122965 -0.229324 1.571785 -0.007413 -0.004641 186656.000000 0 0 1
-29.533929 7.549349 1.068122 30.502238 -0.250257 1.535771 -0.004678 -0.011832 82789.400000 0 0 1
-29.201949 9.054749 1.137022 30.594691 -0.300673 1.533624 -0.006666 -0.008934 267699.000000 0 0 1
-30.378519 9.902149 1.315622 31.978709 -0.315099 1.529644 -0.007841 -0.013111 1378900.000000 0 0 1
-29.989419 11.241649 1.705222 32.072538 -0.358643 1.517604 -0.001886 -0.000784 177145.000000 0 0 1
-31.212479 12.189849 1.645622 33.548761 -0.372328 1.521725 -0.006502 -0.018512 -665087.000000 0 0 1
-31.450779 12.599449 0.301222 33.881977 -0.381031 1.561906 -0.009768 -0.027173 195832.000000 0 0 1
-32.639609 13.311949 0.110922 35.250027 -0.387252 1.567650 -0.001019 -0.021643 12711.900000 0 0 1
-34.023839 12.680049 0.379922 36.311838 -0.356736 1.560333 0.013156 -0.025330 -736139.000000 0 0 1
-34.485694 11.815349 -0.581778 36.458251 -0.330082 1.586754 0.012050 -0.024967 400427.000000 0 0 1
34.815760 11.425949 -0.254578 36.643611 0.317108 1.577744 0.030140 -0.033574 267771.000000 0 0 1
34.369841 10.044949 -0.720578 35.814888 0.284341 1.590917 0.029464 -0.023329 26581.800000 0 0 1
34.168171 9.889949 -2.128078 35.634305 0.281749 1.630552 0.035210 -0.013938 351996.000000 0 0 1
33.719551 8.549749 -2.453178 34.872975 0.248321 1.641201 0.028364 -0.020182 -59231.400000 0 0 1
33.280691 8.402249 -3.932378 34.549468 0.247298 1.684862 0.036662 -0.003377 -185645.000000 0 0 1
31.986921 8.934849 -4.088478 33.462072 0.272386 1.693285 0.051040 -0.019267 13347.300000 0 0 1
31.639801 9.070349 -5.460078 33.364063 0.279188 1.735187 0.043744 -0.012690 278477.000000 0 0 1
30.400301 10.005549 -5.613778 32.493135 0.317960 1.744436 0.043038 -0.011463 358776.000000 0 0 1
29.132001 9.440449 -5.345378 31.086470 0.313379 1.743607 0.034103 -0.015984 1047650.000000 0 0 1
28.113871 10.069349 -6.168178 30.493080 0.343928 1.774483 0.023229 -0.001398 551418.000000 0 0 1
26.785191 9.280949 -6.123278 29.001327 0.333549 1.783535 0.019711 0.004884 -219377.000000 0 0 1
26.681661 8.195049 -7.014078 28.779631 0.297996 1.816993 0.010485 0.003261 255705.000000 0 0 1
25.455831 7.500149 -6.945478 27.431573 0.286526 1.826776 0.013768 -0.004578 -312749.000000 0 0 1
25.369131 6.546249 -8.130378 27.432630 0.252531 1.871692 -0.000849 -0.005010 -538524.000000 0 0 1
26.203821 5.427949 -8.048578 27.944274 0.204255 1.862957 0.021804 -0.005137 279249.000000 0 0 1
25.954551 4.531649 -9.142078 27.888208 0.172857 1.904783 0.013664 -0.003150 8446.270000 0 0 1
26.904021 3.268849 -9.202478 28.621623 0.120908 1.898133 0.033170 0.001852 506262.000000 0 0 1
28.298401 3.509149 -9.488778 30.052463 0.123375 1.892033 0.079370 0.000489 1110090.000000 0 0 1
29.120561 3.154449 -8.398678 30.471222 0.107903 1.850038 0.054433 -0.014489 -43513.900000 0 0 1
29.560191 1.665249 -8.348478 30.761583 0.056275 1.845636 0.065996 -0.015911 -571112.000000 0 0 1
28.434911 0.955949 -7.867678 29.518780 0.033606 1.840589 0.058801 -0.014770 366179.000000 0 0 1
28.675701 -0.327851 -7.205778 29.569013 -0.011433 1.816969 0.050970 -0.004588 -269199.000000 0 0 1
28.653701 -1.588651 -8.095378 29.817671 -0.055386 1.845743 0.039916 -0.001956 -805627.000000 0 0 1
29.682621 -1.640651 -9.017278 31.065431 -0.055217 1.865302 0.054056 -0.009269 -381608.000000 0 0 1
29.749471 -2.927451 -9.577678 31.390013 -0.098088 1.880859 0.027934 -0.009799 -426408.000000 0 0 1
30.670841 -3.021551 -10.776178 32.648985 -0.098199 1.907165 0.036202 -0.009742 -1167580.000000 0 0 1
31.999891 -3.244751 -10.467778 33.824485 -0.101053 1.885436 0.055989 -0.020364 -102054.000000 0 0 1
32.775081 -3.647351 -11.655178 34.976453 -0.110828 1.910523 0.031369 -0.022442 141832.000000 0 0 1
34.164151 -4.133051 -11.234978 36.200774 -0.120391 1.886359 0.046172 -0.020414 -690034.000000 0 0 1
34.256131 -5.371251 -10.566578 36.248937 -0.155530 1.866591 0.036988 -0.016796 1042740.000000 0 0 1
-35.043456 -5.620951 -10.114078 36.904383 0.159045 1.848410 0.043448 -0.018844 635218.000000 0 0 1
-35.052962 -6.944951 -9.369578 36.942272 0.195594 1.827225 0.046166 -0.021263 -394845.000000 0 0 1
34.812450 -6.839851 -8.230278 36.420155 -0.194006 1.798747 0.041587 -0.016159 221271.000000 0 0 1
34.717378 -8.158251 -7.701378 36.485128 -0.230803 1.783479 0.042595 -0.011031 -269534.000000 0 0 1
34.187921 -8.212051 -6.292078 35.718930 -0.235737 1.747876 0.050617 -0.007402 -466106.000000 0 0 1
35.183721 -7.818551 -5.365878 36.439218 -0.218667 1.718589 0.059474 -0.012319 453502.000000 0 0 1
35.178338 -8.456251 -4.108278 36.412931 -0.235906 1.683862 0.062205 -0.005599 -287582.000000 0 0 1
-34.847148 -9.890751 -4.068778 36.451415 0.276559 1.682651 0.072052 -0.012215 -399855.000000 0 0 1
34.966866 -10.749951 -4.764978 36.891031 -0.298262 1.700322 0.059213 -0.005341 -39156.700000 0 0 1
-34.878320 -11.748551 -5.387778 37.196153 0.324907 1.716155 0.046444 -0.006569 -36284.800000 0 0 1
35.265811 -12.346751 -6.731478 37.966202 -0.336769 1.749041 0.050384 -0.005783 -130812.000000 0 0 1
-35.270044 -11.444851 -7.789078 37.889713 0.313772 1.777845 0.047577 -0.009945 357767.000000 0 0 1
34.912965 -12.081251 -8.996978 38.023905 -0.333142 1.809675 0.059482 -0.012913 104667.000000 0 0 1
35.129052 -11.221751 -10.276678 38.283000 -0.309198 1.842569 0.036900 -0.011722 -267466.000000 0 0 1
34.315631 -10.076151 -10.386678 37.242105 -0.285604 1.853441 0.027794 -0.006355 270489.000000 0 0 1
34.458341 -9.530151 -11.730178 37.627093 -0.269825 1.887829 0.024644 -0.011100 442227.000000 0 0 1
33.337821 -8.445451 -12.098778 36.457048 -0.248110 1.909075 0.023237 -0.004400 670514.000000 0 0 1
33.564011 -7.802251 -13.342578 36.951892 -0.228402 1.940222 0.026003 -0.003388 218003.000000 0 0 1
32.535251 -6.875051 -13.518478 35.896492 -0.208247 1.956915 0.024830 -0.011338 -294565.000000 0 0 1
32.624291 -6.021451 -14.801878 36.327645 -0.182516 1.990462 0.016056 -0.010958 -289750.000000 0 0 1
33.586771 -4.986551 -14.761578 37.024871 -0.147391 1.980888 0.013845 0.005213 84848.300000 0 0 1
33.269831 -3.777651 -15.405978 36.857787 -0.113062 2.002022 0.023699 -0.004939 -1266980.000000 0 0 1
34.375931 -2.803151 -15.495178 37.810882 -0.081364 1.993039 0.022814 -0.017825 -1152070.000000 0 0 1
35.100146 -2.948451 -16.704478 38.984012 -0.083804 2.013623 0.014108 -0.010010 1509220.000000 0 0 1
-34.189165 -2.381751 -16.761278 38.151175 0.069552 2.025658 0.026093 -0.009621 1551700.000000 0 0 1
-33.980849 -0.825151 -16.573178 37.815991 0.024278 2.024457 0.028180 -0.008950 -763432.000000 0 0 1
-34.361211 -0.017651 -17.662078 38.634727 0.000514 2.045591 0.015036 -0.005996 312196.000000 0 0 1
-34.068269 1.315949 -17.265378 38.216122 -0.038608 2.039559 0.024778 -0.012063 -809658.000000 0 0 1
-34.396122 2.436149 -18.274378 39.025388 -0.070708 2.058127 0.014606 -0.009848 -437443.000000 0 0 1
-33.564109 2.446549 -19.396178 38.842589 -0.072763 2.093649 0.007591 -0.003181 87706.300000 0 0 1
-33.687599 3.628349 -20.108278 39.400027 -0.107292 2.106402 0.005527 -0.000761 -603237.000000 0 0 1
-32.772609 3.819449 -21.314378 39.280209 -0.116021 2.144354 -0.000946 0.009721 -986179.000000 0 0 1
-31.444309 4.049449 -20.975478 38.014646 -0.128077 2.155286 0.007265 0.004384 -537019.000000 0 0 1
-30.703759 4.544849 -22.082578 38.092213 -0.146955 2.189174 0.005530 0.008339 -384850.000000 0 0 1
-29.295579 4.952849 -21.624178 36.747337 -0.167481 2.199944 0.021713 0.006378 -303153.000000 0 0 1
-28.517789 3.805749 -21.418778 35.867981 -0.132668 2.210747 0.023615 0.016073 -594751.000000 0 0 1
-27.139299 4.010849 -21.374478 34.777820 -0.146725 2.232676 0.018041 0.018691 -206948.000000 0 0 1
-26.449509 2.842049 -20.577378 33.631566 -0.107041 2.229190 0.031662 0.008694 13101.000000 0 0 1
-26.462729 3.080549 -19.194278 32.835745 -0.115889 2.195127 0.026158 0.010176 -274817.000000 0 0 1
-25.871709 2.063249 -18.503778 31.874631 -0.079581 2.190160 0.035870 0.011170 -668847.000000 0 0 1
-25.048129 2.627549 -17.366878 30.592830 -0.104518 2.174479 0.038740 0.001461 -87465.000000 0 0 1
-23.975529 3.485449 -17.757178 30.038171 -0.144364 2.203285 0.036282 -0.002157 44312.600000 0 0 1
-23.370729 3.835049 -16.557178 28.897037 -0.162647 2.180923 0.039907 -0.009834 170119.000000 0 0 1
-22.170329 4.835549 -16.604078 28.117636 -0.214746 2.202502 0.051609 -0.014639 356933.000000 0 0 1
-21.117429 4.425749 -17.416378 27.728384 -0.206588 2.249914 0.066173 -0.016811 68218.900000 0 0 1
-19.928129 5.202949 -17.329078 26.916500 -0.255385 2.270262 0.065419 -0.017714 523798.000000 0 0 1
-18.734129 4.495749 -18.023978 26.382629 -0.235523 2.322899 0.084188 -0.020500 -242175.000000 0 0 1
-18.471929 3.217949 -17.459878 25.620591 -0.172477 2.320577 0.108728 -0.024921 301469.000000 0 0 1
-17.423729 2.571949 -18.183078 25.314533 -0.146554 2.372132 0.072322 -0.020607 -303970.000000 0 0 1
-17.133729 1.124049 -17.720878 24.675042 -0.065511 2.371965 0.067639 -0.018927 362966.000000 0 1 0
-18.114529 0.104949 -17.961878 25.510316 -0.005794 2.351955 0.053109 -0.019820 716312.000000 0 0 1
-19.395629 0.308849 -17.390978 26.052484 -0.015922 2.301691 0.053623 -0.026537 -250553.000000 0 0 1
-20.509429 -0.681551 -17.708578 27.105256 0.033219 2.282766 0.042234 -0.025820 -277379.000000 0 0 1
-20.289329 -1.876751 -17.001378 26.537255 0.092237 2.266155 0.029999 -0.021291 238235.000000 0 0 1
-21.285229 -2.772451 -17.405178 27.634900 0.129523 2.252125 0.024737 -0.006942 -239534.000000 0 0 1
-21.381529 -4.085151 -16.601778 27.376583 0.188785 2.222350 0.030497 -0.006421 -127737.000000 0 0 1
-21.828929 -3.665051 -15.329278 26.924366 0.166347 2.176506 0.025748 -0.017385 348548.000000 0 0 1
-21.946029 -4.690051 -14.401778 26.665258 0.210541 2.141347 0.019769 -0.021641 -237349.000000 0 0 1
-22.145629 -4.126651 -12.965978 25.991820 0.184229 2.093066 0.022010 -0.024666 -390061.000000 0 0 1
-23.338929 -3.412851 -12.818378 26.845185 0.145201 2.068595 0.021465 -0.021911 66070.200000 0 0 1
-23.432429 -2.682951 -11.600978 26.284209 0.114001 2.027918 0.020113 -0.025157 -234373.000000 0 0 1
-24.585129 -1.643351 -11.525178 27.202186 0.066744 2.008307 0.052545 -0.021286 -88809.900000 0 0 1
-24.657429 -1.068251 -10.209378 26.708826 0.043297 1.963023 0.048997 -0.022017 971520.000000 0 0 1
-25.442509 0.162649 -10.233878 27.424077 -0.006393 1.953221 0.069773 -0.016964 -45779.600000 0 0 1
-25.927759 0.492349 -8.834578 27.396001 -0.018987 1.899141 0.079308 -0.015029 -19619.300000 0 0 1
-24.874929 0.782849 -7.890878 26.108254 -0.031461 1.877835 0.059486 -0.012778 796974.000000 0 0 1
-25.321259 1.293149 -6.662178 26.214939 -0.051025 1.827751 0.054322 -0.009389 47408.100000 0 0 1
-24.177429 1.681149 -5.675378 24.891449 -0.069422 1.800825 0.031752 -0.001927 58674.400000 0 1 0
-23.652529 2.939749 -5.841178 24.539837 -0.123655 1.811132 0.041714 -0.007130 110956.000000 0 1 0
-22.320229 2.969749 -5.360978 23.146320 -0.132275 1.804531 0.032957 -0.000220 -207746.000000 0 1 0
-21.794929 4.411049 -5.359478 22.873572 -0.199691 1.807304 0.040510 -0.012090 -560942.000000 0 1 0
-22.283929 5.287949 -4.358778 23.313834 -0.232989 1.758864 0.042060 -0.008529 458873.000000 0 1 0
-22.016229 6.659849 -4.609478 23.458798 -0.293746 1.768576 0.038888 -0.011121 -275872.000000 0 1 0
-22.840729 7.591149 -3.686978 24.349913 -0.320867 1.722797 0.056130 -0.008578 -203664.000000 0 1 0
-22.418429 7.660449 -2.315478 23.803989 -0.329264 1.668223 0.057971 -0.006753 1181170.000000 0 1 0
-21.078529 8.065249 -1.999778 22.657267 -0.365442 1.659173 0.063329 -0.006963 450089.000000 0 1 0
-20.565529 9.504849 -2.264778 22.768671 -0.432931 1.670430 0.048004 -0.002898 -267500.000000 0 1 0
-20.303629 9.774449 -3.630878 22.824559 -0.448668 1.730553 0.031246 -0.005177 286974.000000 0 1 0
-19.816429 11.090849 -3.784878 23.022230 -0.510244 1.735947 0.042379 0.002864 -322485.000000 0 1 0
-19.710229 11.603249 -5.232578 23.462915 -0.532063 1.795702 0.052156 -0.004944 -493643.000000 0 1 0
-18.535429 11.135949 -5.823678 22.393899 -0.541002 1.833877 0.034261 -0.003094 -101243.000000 0 1 0
-18.405729 11.756949 -7.109278 22.968207 -0.568437 1.885492 0.035198 0.000067 -55887.300000 0 1 0
-17.118229 11.379249 -7.860978 22.007182 -0.586671 1.936065 0.034459 -0.004350 -464447.000000 0 1 0
-16.950029 10.014849 -8.296978 21.364469 -0.533661 1.969641 0.028930 0.002356 483428.000000 0 1 0
-17.819129 9.453549 -9.296178 22.210580 -0.487771 2.002641 0.034442 -0.001677 -118831.000000 0 1 0
-17.930729 10.219049 -10.646578 23.222610 -0.518007 2.047055 0.038064 0.001758 -359096.000000 0 1 0
-16.932529 9.966949 -11.611978 22.822985 -0.532015 2.104568 0.038201 0.000363 -115219.000000 0 1 0
-17.050429 10.696149 -12.810878 23.858821 -0.560269 2.137608 0.032186 -0.002272 396131.000000 0 1 0
-15.851529 10.358949 -13.772978 23.415245 -0.578831 2.199635 0.019461 0.001581 268562.000000 0 1 0
-15.758629 9.067349 -14.411878 23.200290 -0.522127 2.241062 0.014527 -0.001775 -21555.500000 0 1 0
-15.709329 7.943149 -13.540478 22.208583 -0.468144 2.226473 0.017690 -0.005195 -402938.000000 0 1 0
-15.593229 6.574449 -14.296578 22.153201 -0.399006 2.272278 0.025379 -0.010284 361128.000000 0 1 0
-14.447129 6.298249 -15.128278 21.846104 -0.411110 2.335736 0.028113 -0.010205 1034330.000000 0 1 0
-14.695529 5.164049 -15.927578 22.278099 -0.337924 2.367339 0.039366 -0.013480 53613.900000 0 1 0
31.473951 -16.157051 28.901125 45.682982 -0.474268 0.885832 -0.000315 0.000901 -335961.000000 0 0 1
30.681431 -14.990551 28.949795 44.767817 -0.454476 0.867592 0.000921 0.003529 -452352.000000 0 0 1
29.671121 -15.019751 29.920415 44.734769 -0.468601 0.838149 0.016400 0.000626 -87156.500000 0 0 1
30.052771 -14.859351 31.404885 45.937306 -0.459191 0.818049 0.015007 -0.012033 -230266.000000 0 0 1
30.552841 -13.622251 31.802825 46.156922 -0.419405 0.810667 0.013605 -0.009884 -58404.800000 0 0 1
30.625921 -13.566651 33.184664 47.151065 -0.417000 0.790071 0.008482 -0.009402 -339643.000000 0 0 1
30.926121 -12.141551 33.628004 47.272453 -0.374110 0.779357 0.024309 -0.013386 -19765.700000 0 0 1
30.881461 -12.150251 -34.010668 47.518615 -0.374845 2.368470 0.009435 -0.020320 100234.000000 0 0 1
31.188751 -10.882051 -33.534508 47.071440 -0.335703 2.363733 0.027471 -0.015460 -639073.000000 0 0 1
30.730961 -10.637351 -32.095538 45.691014 -0.333236 2.349627 0.020711 -0.016494 -497834.000000 0 0 1
29.338261 -10.508051 -32.018198 44.680171 -0.343934 2.369724 0.049869 -0.025938 -159533.000000 0 0 1
28.884771 -10.186551 -30.684808 43.354968 -0.339044 2.357115 0.028206 -0.018304 -216231.000000 0 0 1
27.373681 -9.935651 -30.541488 42.199740 -0.348177 2.379998 0.021877 -0.000329 56810.600000 0 0 1
26.934411 -9.686251 -29.206018 40.893489 -0.345222 2.366273 0.023917 -0.008435 464027.000000 0 0 1
26.300081 -10.818151 -28.586588 40.322694 -0.390240 2.358798 0.043033 -0.008708 -1098880.000000 0 0 1
25.856191 -10.632851 -27.115828 38.946993 -0.390150 2.340920 0.040828 -0.002334 50656.700000 0 0 1
24.830031 -9.664251 -26.805808 37.795231 -0.371176 2.359213 0.029718 -0.006945 1180180.000000 0 0 1
23.634731 -9.651751 -27.583908 37.584954 -0.387702 2.394854 0.031410 -0.009516 -263880.000000 0 0 1
22.678631 -10.820451 -27.543638 37.283434 -0.445177 2.402030 0.032790 -0.002843 -939607.000000 0 0 1
23.209231 -11.837751 -28.355158 38.507346 -0.471651 2.398467 0.034553 -0.010493 -196674.000000 0 0 1
22.633631 -13.054551 -28.063508 38.344009 -0.523168 2.391884 0.035661 -0.011361 -144131.000000 0 0 1
23.442731 -14.234151 -28.648748 39.660099 -0.545688 2.378001 0.019680 0.001613 -17957.400000 0 0 1
23.546231 -14.060951 -30.018678 40.660255 -0.538331 2.401314 0.024410 -0.003118 -99762.700000 0 0 1
24.375031 -15.096851 -30.425608 41.806395 -0.554531 2.385867 0.015599 0.004207 -666140.000000 0 0 1
24.462531 -15.062451 -32.030618 43.026193 -0.551910 2.410499 0.033624 -0.006631 45471.500000 0 0 1
23.247631 -15.415051 -32.682188 42.967447 -0.585516 2.435074 0.034579 -0.002001 374546.000000 0 0 1
23.379731 -15.494851 -34.092374 44.147392 -0.585284 2.453155 0.035367 0.003282 -109748.000000 0 0 1
23.571331 -14.298251 34.073710 43.829960 -0.545255 0.680264 0.020843 -0.013168 -731385.000000 0 0 1
22.378031 -13.615551 33.909894 42.849042 -0.546598 0.657732 0.032667 -0.010894 -455347.000000 0 0 1
22.520431 -12.564851 32.967025 41.855346 -0.508912 0.663824 0.030344 -0.005995 -656440.000000 0 0 1
21.376231 -11.539851 33.145152 41.093947 -0.495013 0.632469 0.038718 -0.010916 56346.500000 0 0 1
20.074431 -11.962051 32.830965 40.298209 -0.537388 0.618584 0.035475 -0.007211 -58416.200000 0 0 1
19.891431 -12.111651 31.407285 39.099599 -0.546929 0.638042 0.021200 0.002985 -1151980.000000 0 0 1
18.428331 -12.366051 30.928805 38.067224 -0.591021 0.622405 0.027528 0.005416 485438.000000 0 0 1
17.549131 -11.283651 31.038795 37.399192 -0.571421 0.591810 0.024114 0.002582 -265163.000000 0 0 1
16.879431 -11.333051 32.288365 38.156149 -0.591281 0.561952 0.014169 0.009132 -1330860.000000 0 0 1
15.982231 -10.223051 32.625805 37.741033 -0.569066 0.526711 0.015773 0.008438 -1050620.000000 0 0 1
14.821931 -10.201751 31.789305 36.528417 -0.602822 0.515062 0.019309 0.010122 45100.600000 0 0 1
14.102131 -9.022551 31.953815 36.073852 -0.569172 0.482605 0.024160 0.008731 349695.000000 0 0 1
13.006831 -9.092751 33.091591 36.700261 -0.610105 0.447176 0.029564 0.006907 -218073.000000 0 0 1
11.919231 -9.959351 32.795965 36.288180 -0.696057 0.442312 0.024702 0.010126 246263.000000 0 0 1
10.760231 -9.793151 33.562456 36.580415 -0.738381 0.409053 0.018178 0.011919 -67937.100000 0 0 1
9.766231 -8.767351 32.987285 35.502206 -0.731555 0.378658 -0.001653 0.010840 -845615.000000 0 0 1
10.239231 -7.439151 33.178272 35.510288 -0.628313 0.364426 0.028364 0.001030 299024.000000 0 0 1
9.542931 -6.472751 32.420665 34.410224 -0.595998 0.341716 0.024805 0.001973 -84265.300000 0 0 1
10.120131 -5.074751 32.700915 34.605201 -0.464808 0.333290 0.035459 -0.004626 26999.400000 0 0 1
9.989431 -4.493051 33.977763 35.699644 -0.422671 0.311850 0.031667 -0.008077 272141.000000 0 0 1
10.337831 -3.100051 33.777248 35.459604 -0.291342 0.309271 0.019011 -0.008720 -212313.000000 0 0 1
10.232131 -2.115651 -34.103986 35.668674 -0.203892 2.844299 0.016115 -0.010574 2364.100000 0 0 1
8.889831 -1.728151 -33.875268 35.064931 -0.192002 2.880361 0.012507 -0.009477 77803.900000 0 0 1
8.634531 -1.254251 -32.548978 33.698134 -0.144251 2.879688 0.012310 -0.011280 -226866.000000 0 0 1
7.126131 -1.128751 -32.262798 33.059703 -0.157091 2.921581 0.015682 -0.008493 -297225.000000 0 0 1
6.548631 -0.084751 -32.962968 33.607276 -0.012941 2.945464 0.023602 -0.008480 -362787.000000 0 0 1
5.242531 0.151249 -32.492328 32.912891 0.028842 2.981559 0.024907 -0.006458 232715.000000 0 0 1
4.439631 1.166749 -33.416948 33.730758 0.256992 3.005080 0.033963 0.000202 -47192.000000 0 0 1
5.067131 2.421149 -33.464878 33.932813 0.445742 2.975329 0.025491 -0.004591 46557.500000 0 0 1
4.575231 3.260349 -34.522401 34.976546 0.619138 2.980270 0.034513 -0.000226 -91431.400000 0 0 1
5.450931 4.504249 34.382936 35.102524 0.690589 0.202830 0.032257 -0.005192 -286822.000000 0 0 1
5.027631 5.406949 33.376346 34.183221 0.821734 0.217706 0.054062 -0.015805 496971.000000 0 0 1
6.067231 6.328049 33.052278 34.195154 0.806437 0.259268 0.058187 -0.013504 312788.000000 0 0 1
5.459331 7.467949 32.204955 33.507218 0.939544 0.279713 0.065885 -0.014213 68090.700000 0 0 1
4.404031 8.184549 32.823555 34.114045 1.077142 0.275934 0.069385 -0.017174 252600.000000 0 0 1
3.967031 9.445349 32.256585 33.844338 1.173170 0.307522 0.060507 -0.018325 150922.000000 0 0 1
3.489331 9.504949 30.779625 32.402234 1.218964 0.317807 0.063056 -0.014161 308800.000000 0 0 1
2.290031 8.815249 30.417965 31.752251 1.316634 0.290928 0.064193 -0.012376 274895.000000 0 0 1
2.089331 8.740949 29.005425 30.365838 1.336171 0.300464 0.050840 0.002394 502155.000000 0 0 1
0.746931 8.073749 28.592335 29.719773 1.478545 0.276326 0.040144 0.001251 -23939.900000 0 0 1
-0.421069 8.699049 28.993215 30.273045 -1.522430 0.291813 0.043278 -0.002889 -606222.000000 0 0 1
-1.476069 8.447349 28.066385 29.347205 -1.397805 0.296530 0.042908 0.000743 1020800.000000 0 0 1
-2.910669 8.793049 28.575385 30.039013 -1.251130 0.313449 0.028280 -0.004629 223681.000000 0 0 1
-3.092369 10.161749 28.794535 30.691189 -1.275386 0.353398 0.029716 -0.003802 -511297.000000 0 0 1
-4.371269 10.383549 29.317145 31.407341 -1.172335 0.366886 0.019058 -0.007290 -693193.000000 0 0 1
-4.631769 11.696249 30.056885 32.583306 -1.193739 0.396385 0.003593 -0.003145 -130599.000000 0 0 1
-4.761269 12.859749 29.256955 32.311178 -1.216200 0.438299 0.005646 -0.002023 232881.000000 0 0 1
-5.905069 12.944049 28.418165 31.780660 -1.142799 0.464162 0.000199 -0.004869 -181437.000000 0 0 1
-6.166369 14.278249 27.688875 31.757933 -1.163120 0.511783 -0.004844 0.004917 -890810.000000 0 0 1
-5.213969 14.615349 26.758335 30.932222 -1.228124 0.525520 -0.001545 0.005540 -597137.000000 0 0 1
-5.387569 15.929049 26.349645 31.258027 -1.244652 0.568012 -0.017334 0.013160 -572944.000000 0 0 1
-4.151469 16.489049 25.689275 30.806854 -1.324151 0.584693 0.004167 0.008272 -645855.000000 0 0 1
-3.950069 16.096949 24.309795 29.422456 -1.330159 0.598409 0.001638 0.017169 496214.000000 0 0 1
-2.831869 16.813149 23.741045 29.229072 -1.403931 0.622813 0.005215 0.023168 584390.000000 0 0 1
-2.639169 16.651049 22.256045 27.920497 -1.413605 0.648282 0.006023 0.025492 -53152.600000 0 0 1
-2.338269 15.319449 21.852845 26.789920 -1.419331 0.616838 -0.006571 0.024696 18709.900000 0 0 1
-2.161669 15.327449 20.454745 25.651512 -1.430688 0.647807 -0.012213 0.026556 -448152.000000 0 0 1
-1.322669 14.194749 19.945445 24.516548 -1.477884 0.620565 -0.010575 0.019048 -457749.000000 0 1 0
-1.771469 12.877349 20.195545 24.017166 -1.434090 0.571890 -0.008495 0.019083 -489377.000000 0 1 0
-0.953369 11.968549 19.560745 22.951641 -1.491308 0.550508 0.000242 0.016381 -843255.000000 0 1 0
-1.698669 10.697949 19.101545 21.959066 -1.413326 0.515857 -0.010778 0.005132 -253102.000000 0 1 0
-1.871869 9.771149 20.233845 22.547455 -1.381519 0.456980 -0.003839 -0.002212 417300.000000 0 1 0
-2.673869 10.224049 21.341145 23.814391 -1.314998 0.459792 0.006157 0.005570 277838.000000 0 1 0
-4.226669 10.333549 21.284845 24.035215 -1.182535 0.483079 0.005201 0.007412 145519.000000 0 1 0
-4.826069 9.083949 21.278245 23.634144 -1.082443 0.450297 0.010301 0.005662 250571.000000 0 1 0
-6.246869 9.258649 21.373545 24.115853 -0.977248 0.481533 0.017449 0.011193 937205.000000 0 1 0
-6.980469 7.839149 21.371445 23.810037 -0.843276 0.456544 0.017325 -0.000659 -113942.000000 0 1 0
-6.868969 7.104649 22.561445 24.630825 -0.802263 0.412842 0.024820 -0.006177 183820.000000 0 1 0
-7.552269 5.849349 22.469045 24.415356 -0.659007 0.401992 0.019844 -0.005695 146453.000000 0 1 0
-7.650369 4.984849 23.769345 25.462887 -0.577487 0.366772 0.007953 -0.002809 170012.000000 0 0 1
-8.599869 5.471149 24.717635 26.736729 -0.566605 0.391121 -0.002961 -0.000332 310013.000000 0 0 1
-8.839869 4.602049 25.802785 27.660547 -0.479993 0.368588 -0.012727 0.006235 -78939.900000 0 0 1
-9.786569 5.253849 26.811715 29.021508 -0.492686 0.392759 -0.010056 0.007182 -19298.600000 0 0 1
-9.127869 6.188949 27.625185 29.745116 -0.595827 0.379823 -0.005795 0.003810 -205671.000000 0 0 1
-10.079769 7.013949 28.217795 30.774034 -0.607931 0.410465 -0.009589 0.006773 -177878.000000 0 0 1
-9.449669 8.194649 28.911065 31.500765 -0.714389 0.408320 -0.005264 -0.002446 394667.000000 0 0 1
-8.544569 7.836049 29.988545 32.151612 -0.742172 0.368905 -0.006158 -0.004882 408095.000000 0 0 1
-7.929769 8.981649 30.495205 32.764444 -0.847518 0.374363 -0.000209 -0.008178 -497273.000000 0 0 1
-7.019769 8.632649 31.656695 33.555120 -0.888079 0.337988 0.016355 -0.012986 239914.000000 0 0 1
-5.674669 8.294449 31.274975 32.850020 -0.970786 0.310917 0.019960 -0.017668 428845.000000 0 0 1
-5.038769 7.522949 32.313645 33.558242 -0.980637 0.273200 0.034755 -0.020940 -916225.000000 0 0 1
-3.544769 7.586949 32.220115 33.290584 -1.133715 0.254280 0.023888 -0.015205 -1200110.000000 0 0 1
-3.052569 8.869949 32.495625 33.822475 -1.239345 0.281030 0.011633 -0.013651 -375187.000000 0 0 1
-1.656969 8.867749 32.282875 33.519644 -1.386073 0.272492 0.028312 -0.013201 5507.420000 0 0 1
-0.963969 10.143049 31.830815 33.421721 -1.476043 0.309785 0.028415 -0.010334 -107904.000000 0 0 1
-0.989069 11.176049 32.786765 34.653344 -1.482527 0.329712 0.023772 -0.018689 -66669.300000 0 0 1
-1.338269 12.377049 32.171095 34.495820 -1.463090 0.369222 0.015982 -0.010262 -176662.000000 0 0 1
-1.762269 13.474049 33.124175 35.803164 -1.440745 0.389301 0.011561 -0.020094 -1057260.000000 0 0 1
-0.680369 14.089249 33.726478 36.557422 -1.522544 0.396129 0.037647 -0.015536 -630132.000000 0 0 1
-1.128169 14.920849 -34.343268 37.461508 -1.495330 2.730692 0.035963 -0.015654 -507589.000000 0 0 1
-0.013869 15.451349 -33.452538 36.848564 -1.569899 2.708896 0.019466 -0.012058 -765858.000000 0 0 1
0.800231 16.270549 -34.201427 37.882829 1.521653 2.697082 0.033372 -0.013207 104071.000000 0 0 1
1.964131 16.753849 -33.534528 37.538165 1.454094 2.675531 0.053021 -0.011031 604866.000000 0 0 1
2.925731 17.482249 34.527401 38.811471 1.404979 0.474287 0.069971 -0.001747 22589.400000 0 0 1
2.597131 18.841049 34.360142 39.272758 1.433815 0.505546 0.049914 0.005371 242791.000000 0 0 1
3.467931 19.572449 33.481845 38.937658 1.395432 0.535755 0.035381 0.014241 126105.000000 0 0 1
3.276531 21.084549 33.619247 39.818935 1.416630 0.565533 0.035156 0.006368 -52086.200000 0 0 1
3.657431 21.614049 -34.172537 40.599337 1.403169 2.571224 0.045284 -0.001016 216325.000000 0 0 1
3.251331 22.954449 -33.947688 41.108678 1.430090 2.542422 0.037171 0.000811 6308.390000 0 0 1
3.666531 23.433049 -32.543448 40.269433 1.415586 2.511788 0.044802 0.000065 -186483.000000 0 0 1
3.389731 24.774449 -32.287888 40.838356 1.434817 2.482628 0.052854 -0.009873 111375.000000 0 0 1
3.332431 25.037749 -30.897098 39.907701 1.438478 2.456268 0.060484 -0.009410 128758.000000 0 0 1
2.571731 26.360849 -30.517168 40.407990 1.473545 2.426795 0.048367 -0.013876 524545.000000 0 0 1
3.357231 27.505349 -30.835858 41.456789 1.449340 2.409545 0.039963 -0.012006 583611.000000 0 0 1
2.695931 28.660849 -30.275998 41.777367 1.477009 2.381393 0.031915 -0.014467 -708.722000 0 0 1
3.543131 29.936649 -30.126518 42.618820 1.452990 2.355878 0.035882 -0.016554 -375485.000000 0 0 1
4.616931 29.745549 -29.236138 41.962668 1.416811 2.341608 0.067285 -0.031252 -167275.000000 0 0 1
5.247331 31.010749 -29.092618 42.843686 1.403174 2.317252 0.083476 -0.030682 -1411350.000000 0 0 1
6.502231 30.899049 -28.285738 42.392372 1.363388 2.301289 0.088621 -0.042103 -1524820.000000 0 0 1
7.556931 30.268749 -28.934188 42.549872 1.326137 2.318568 0.081144 -0.040704 -909133.000000 0 0 1
8.684031 31.026749 -29.222478 43.497411 1.297891 2.307461 0.081658 -0.035727 -504399.000000 0 0 1
8.626031 32.334749 -30.080828 44.997784 1.310095 2.302981 0.088391 -0.028892 -932879.000000 0 0 1
7.909231 33.379649 -29.445568 45.208388 1.338139 2.280132 0.082399 -0.027359 141838.000000 0 0 1
7.466831 34.358549 -30.397808 46.478922 1.356803 2.283673 0.080268 -0.020321 217577.000000 0 0 1
6.117031 34.209849 -31.153328 46.671851 1.393857 2.301639 0.046194 -0.003718 -107714.000000 0 0 1
6.224731 33.402049 -32.332368 46.902304 1.386552 2.331396 0.044887 -0.003853 508952.000000 0 0 1
5.111231 33.417649 -33.233358 47.405907 1.419023 2.347649 0.051246 -0.004512 347518.000000 0 0 1
5.446431 32.650349 34.502892 47.813789 1.405507 0.764672 0.041830 0.005750 105905.000000 0 0 1
6.307131 33.297649 33.572925 47.703822 1.383597 0.790094 0.041269 -0.001536 269387.000000 0 0 1
6.263131 32.811949 32.255955 46.435949 1.382186 0.802886 0.031134 -0.003346 -759105.000000 0 0 1
5.048331 33.205949 31.430685 46.000094 1.419921 0.818559 0.020589 -0.010672 -412943.000000 0 0 1
5.044031 -34.546194 31.141585 46.783331 -1.425813 0.842424 0.015416 -0.009676 355893.000000 0 0 1
4.110331 -34.295594 30.089765 45.809131 -1.451515 0.854162 0.018933 -0.018685 136407.000000 0 0 1
16.875871 -21.649551 29.831595 40.539143 -0.908680 0.743844 0.049696 -0.000780 -195152.000000 0 0 1
15.778771 -20.717851 29.805805 39.580108 -0.919911 0.718111 0.050443 0.001081 679524.000000 0 0 1
14.518071 -21.348351 29.987535 39.569922 -0.973581 0.710805 0.068524 0.001494 -83029.800000 0 0 1
14.172571 -21.848051 31.413855 40.804771 -0.995344 0.692179 0.063719 0.000161 -1098570.000000 0 0 1
14.857371 -23.058351 31.722915 41.937720 -0.998412 0.712960 0.069110 -0.008244 248231.000000 0 0 1
14.832471 -23.321751 33.094185 43.117645 -1.004331 0.695814 0.024376 -0.004591 -680823.000000 0 0 1
15.857671 -24.265451 33.654733 44.417551 -0.991959 0.711030 0.021255 -0.003884 -745314.000000 0 0 1
15.620971 -25.601341 33.329734 44.836531 -1.022938 0.732715 0.032961 -0.006606 -812138.000000 0 0 1
16.502171 -26.399761 34.005001 46.104329 -1.012134 0.741337 0.028310 -0.007487 -793673.000000 0 0 1
16.232971 -27.911081 33.989108 46.880670 -1.044019 0.759743 0.020163 0.000226 -292632.000000 0 0 1
16.517271 -28.560841 32.796095 46.520164 -1.046471 0.788392 0.024968 0.001051 -22716.000000 0 0 1
15.882571 -29.791741 32.660535 46.973550 -1.081005 0.801964 0.020352 0.007184 -233572.000000 0 0 1
16.484971 -30.561351 31.486015 46.873442 -1.076123 0.834263 0.040087 0.002190 1456920.000000 0 0 1
17.836071 -31.063761 31.717005 47.844028 -1.049581 0.846077 0.039245 -0.006186 1304730.000000 0 0 1
18.456671 -31.565641 30.566685 47.658794 -1.041697 0.874520 0.031809 0.004110 488193.000000 0 0 1
19.731971 -32.449411 30.817475 48.908401 -1.024454 0.889107 0.017021 0.003787 1032850.000000 0 0 1
20.922171 -31.761071 31.197185 49.191129 -0.988304 0.883818 0.017635 0.003939 596436.000000 0 0 1
22.002971 -32.666011 31.363095 50.347221 -0.978027 0.898306 0.023752 -0.000813 944980.000000 0 0 1
23.317171 -31.894601 31.819385 50.728979 -0.939521 0.892788 0.032726 -0.013261 918559.000000 0 0 1
24.111171 -31.378061 30.756825 50.118994 -0.915617 0.910088 0.033770 -0.005058 -169202.000000 0 0 1
24.796871 -30.216681 31.118125 49.962689 -0.883599 0.898445 0.037230 0.001762 -188725.000000 0 0 1
25.928171 -29.830041 30.161805 49.717561 -0.855263 0.918940 0.034749 -0.000101 94510.900000 0 0 1
27.034671 -30.718861 30.230735 50.876509 -0.849103 0.934528 0.025549 0.004311 92267.400000 0 0 1
27.941871 -30.569831 29.141835 50.640984 -0.830281 0.957630 0.018364 -0.013414 147539.000000 0 0 1
29.199171 -31.414471 29.338355 51.963445 -0.821930 0.970853 0.012612 -0.006800 -194984.000000 0 0 1
28.773071 -32.771881 29.202265 52.484836 -0.850281 0.980756 0.005046 -0.007985 973108.000000 0 0 1
29.832071 -33.719071 29.507015 53.829287 -0.846485 0.990635 0.009495 -0.015088 76586.400000 0 0 1
29.234071 34.142106 30.174805 54.137170 0.862687 0.979573 0.000511 -0.007171 -277186.000000 0 0 1
28.600771 34.224647 31.476475 54.590283 0.874676 0.956242 -0.000762 -0.002756 -75730.700000 0 0 1
27.431271 -34.172818 31.536365 53.988873 -0.894398 0.946992 -0.004134 0.005105 133414.000000 0 0 1
26.148871 34.473196 30.740435 53.076728 0.921860 0.953086 0.003231 0.000331 300560.000000 0 0 1
25.648971 33.213834 31.143545 52.258481 0.913214 0.932346 -0.002502 -0.001640 141326.000000 0 0 1
24.281371 32.998671 30.842115 51.280926 0.936427 0.925501 0.006435 -0.001704 618538.000000 0 0 1
23.726971 31.539641 30.978535 50.173576 0.925831 0.905328 0.030509 -0.002840 113968.000000 0 0 1
23.958471 30.775651 29.806415 49.087385 0.909311 0.918250 0.023926 -0.003467 373291.000000 0 0 1
23.146871 29.611151 29.852235 47.997436 0.907317 0.899560 0.048713 -0.023131 35922.700000 0 0 1
22.536071 29.116111 28.521005 46.573277 0.912107 0.911716 0.048951 -0.017877 -355516.000000 0 0 1
21.510671 29.987781 28.088985 46.378519 0.948544 0.920218 0.065171 -0.024845 58468.700000 0 0 1
20.979171 29.540461 26.846405 45.094278 0.953268 0.933108 0.059410 -0.021445 6205.920000 0 0 1
19.689271 30.240571 26.381025 44.700313 0.993657 0.939520 0.072873 -0.020665 46299.700000 0 0 1
19.828071 31.570941 25.787735 45.330828 1.010008 0.965655 0.063826 -0.022870 -85969.900000 0 0 1
18.527771 31.947111 25.387535 44.815434 1.045249 0.968555 0.060152 -0.016526 -178825.000000 0 0 1
18.487471 33.358987 24.750465 45.466407 1.064736 0.995161 0.065425 -0.008184 -75341.100000 0 0 1
19.216971 33.562582 23.546945 45.279107 1.050789 1.023899 0.066052 -0.006316 697710.000000 0 0 1
20.512071 34.102602 23.867145 46.404451 1.029288 1.030572 0.068838 0.006146 320264.000000 0 0 1
21.211871 -34.527703 22.588045 46.393162 -1.019897 1.062279 0.077072 -0.007343 -440518.000000 0 0 1
20.681671 -33.390031 22.015245 45.025511 -1.016237 1.059910 0.073104 -0.007834 47241.400000 0 0 1
21.107371 -33.226251 20.689445 44.469742 -1.004852 1.086882 0.073599 -0.007352 -196538.000000 0 0 1
20.557671 -32.003881 19.934345 42.944666 -0.999818 1.088080 0.059204 -0.007714 -502457.000000 0 0 1
20.940571 -30.875841 20.654245 42.642970 -0.974839 1.065173 0.058177 0.003746 143593.000000 0 0 1
20.817171 -29.612001 19.973545 41.342081 -0.958061 1.066572 0.058348 -0.009648 -138781.000000 0 0 1
21.726171 -29.388541 18.731645 41.068082 -0.934196 1.097175 0.043642 -0.009084 -449974.000000 0 0 1
21.314371 -30.075281 17.578545 40.839076 -0.954255 1.125822 0.028120 -0.016248 201154.000000 0 0 1
21.793471 -29.344151 16.491345 40.099863 -0.931993 1.146964 0.024273 -0.009650 -339042.000000 0 0 1
21.448871 -29.874421 15.049645 39.736971 -0.948113 1.182371 0.008361 -0.005204 88745.500000 0 0 1
22.230371 -31.064261 14.807845 40.968890 -0.949660 1.200983 0.020816 0.001200 326822.000000 0 0 1
22.302971 -31.405691 13.424945 40.791777 -0.953286 1.235436 0.009646 0.001889 158338.000000 0 0 1
20.985071 -31.697961 12.637045 40.060315 -0.986009 1.249865 -0.003274 0.004021 269008.000000 0 0 1
20.226971 -32.790981 13.125645 40.702105 -1.018082 1.242447 -0.003178 0.004404 -973214.000000 0 0 1
19.121571 -33.046031 12.383345 40.137537 -1.046235 1.257157 0.005550 0.021894 -771537.000000 0 0 1
18.054471 -33.855401 13.206245 40.577789 -1.080879 1.239303 0.020595 0.010112 321412.000000 0 0 1
17.513971 -33.254451 14.373445 40.239205 -1.086045 1.205528 0.026298 0.005758 470519.000000 0 0 1
18.095171 -33.847091 15.552245 41.411751 -1.079842 1.185805 0.024104 -0.003416 -474009.000000 0 0 1
18.044171 -32.914261 16.829845 41.136168 -1.069323 1.149301 0.027684 -0.003827 318135.000000 0 0 1
16.805171 -32.393721 17.321745 40.395665 -1.092239 1.127630 0.036248 0.003761 784476.000000 0 0 1
15.794971 -33.336001 17.746845 40.935566 -1.128318 1.122389 0.040276 0.009296 137385.000000 0 0 1
16.055371 -34.256618 18.967545 42.320900 -1.132518 1.106064 0.037286 -0.007790 -633101.000000 0 0 1
16.749471 33.745813 18.550745 41.993509 1.110079 1.113245 0.035206 0.000797 -212722.000000 0 0 1
16.902271 32.951241 19.708745 41.951230 1.096844 1.081731 0.035701 -0.004499 -48895.300000 0 0 1
17.847271 31.747821 19.522745 41.322957 1.058667 1.078736 0.044127 -0.003467 -336425.000000 0 0 1
17.287971 30.544781 18.982445 39.902266 1.055761 1.075010 0.012948 -0.002226 -139245.000000 0 0 1
18.224171 29.518501 18.726945 39.422846 1.017694 1.075801 0.024143 -0.004278 -195306.000000 0 0 1
17.503771 28.200571 18.522945 38.009916 1.015303 1.061780 0.019552 -0.004325 -146945.000000 0 0 1
17.211371 27.599581 19.776845 38.066938 1.013197 1.024498 0.031476 -0.009970 48610.800000 0 0 1
16.701471 26.291771 19.578145 36.789946 1.004870 1.009646 0.022426 -0.015226 -495610.000000 0 0 1
16.525571 25.368771 20.806245 36.736479 0.993428 0.968708 0.034266 -0.014509 842071.000000 0 0 1
15.288171 25.493551 21.557145 36.720019 1.030606 0.943364 0.038331 -0.013113 1022650.000000 0 0 1
14.351971 24.498841 21.066245 35.354759 1.040867 0.932469 0.023173 -0.005672 274984.000000 0 0 1
12.995871 24.715441 21.794745 35.422544 1.086707 0.908057 0.019900 -0.015996 -183539.000000 0 0 1
12.343771 25.897721 21.366445 35.771296 1.126014 0.930657 0.023027 -0.008288 86825.900000 0 0 1
11.254371 26.276101 22.209445 36.198809 1.166124 0.910260 0.001047 -0.005754 308404.000000 0 0 1
10.503971 27.510251 21.561745 36.497345 1.206060 0.938776 -0.003805 -0.005767 2856.540000 0 0 1
11.233071 28.717441 21.468145 37.573322 1.197935 0.962626 -0.005130 -0.000311 -295181.000000 0 0 1
10.653871 29.541271 20.492345 37.498372 1.224671 0.992634 -0.011945 -0.000020 -258912.000000 0 0 1
11.004671 31.072131 20.568245 38.853994 1.230416 1.012935 -0.012699 0.002459 -432600.000000 0 0 1
10.414871 31.781041 21.597545 39.811532 1.254118 0.997392 -0.009216 0.008220 -484907.000000 0 0 1
11.093871 31.687041 22.837645 40.604194 1.234026 0.973456 0.001539 0.007159 36751.900000 0 0 1
10.452271 32.668041 23.887345 41.797801 1.261135 0.962467 0.002109 0.005399 115849.000000 0 0 1
9.135471 32.306981 24.208515 41.391425 1.295220 0.946079 -0.006343 0.006499 -227437.000000 0 0 1
8.623471 33.160848 25.284315 42.582892 1.316382 0.935064 0.004786 0.003311 291213.000000 0 0 1
7.256471 32.821101 25.956985 42.469355 1.353205 0.913229 0.024397 -0.008152 109924.000000 0 0 1
6.104071 33.538930 25.513215 42.579850 1.390767 0.928313 0.006948 -0.007424 650738.000000 0 0 1
5.512071 33.058251 24.314245 41.405476 1.405578 0.943173 0.006738 -0.012119 -161913.000000 0 0 1
4.716171 31.742761 24.449625 40.343888 1.423301 0.919736 0.000280 -0.016023 -348585.000000 0 0 1
5.621071 30.721081 24.831435 39.899642 1.389827 0.899058 0.004107 -0.009949 113596.000000 0 0 1
4.925971 29.472701 24.779785 38.819364 1.405190 0.878462 -0.005936 -0.009100 -613623.000000 0 0 1
5.875971 28.322891 25.153805 38.333107 1.366235 0.855038 -0.011036 -0.004260 1605900.000000 0 0 1
7.029471 28.123371 24.237345 37.786060 1.325864 0.874428 -0.011983 -0.003218 2260760.000000 0 0 1
8.109971 29.068031 24.375675 38.792984 1.298715 0.891363 -0.001229 -0.000414 502387.000000 0 0 1
9.336471 28.580381 25.228605 39.249081 1.255051 0.872672 -0.004581 -0.006207 213480.000000 0 0 1
9.142171 28.740511 26.618805 40.226323 1.262824 0.847678 -0.000048 -0.003152 534547.000000 0 0 1
10.354871 28.641881 27.367535 40.945851 1.223888 0.838763 0.011138 -0.002979 761035.000000 0 0 1
11.102971 30.025081 27.523785 42.217771 1.216601 0.860646 0.013207 -0.002728 463220.000000 0 0 1
10.347471 30.912721 28.352645 43.203460 1.247788 0.854947 0.019703 -0.001932 673764.000000 0 0 1
10.997571 32.219861 28.328185 44.289413 1.241867 0.876799 0.019395 0.011624 336561.000000 0 0 1
10.399671 33.254857 29.337085 45.548910 1.267705 0.870978 0.027954 0.012187 -191566.000000 0 0 1
10.597771 33.146991 30.746595 46.436934 1.261347 0.847159 0.035944 -0.007477 -23367.700000 0 0 1
9.852171 32.117791 31.351115 45.951172 1.273157 0.819933 0.041080 0.003768 -352783.000000 0 0 1
10.092871 32.022551 32.895115 47.004238 1.265472 0.795633 0.056354 -0.008979 -126509.000000 0 0 1
9.849871 30.762601 33.438319 46.491706 1.260921 0.768100 0.050258 -0.015537 10974.200000 0 0 1
10.114971 30.667601 -34.261320 47.081339 1.252206 2.385766 0.061715 -0.020440 -112897.000000 0 0 1
10.303871 29.183301 -33.928348 45.923498 1.231385 2.402087 0.052514 -0.016767 -345701.000000 0 0 1
11.492971 28.567721 -34.345618 46.128349 1.188303 2.410681 0.037759 -0.004538 -345227.000000 0 0 1
11.470071 27.228921 -33.981268 45.030026 1.172110 2.425895 0.025160 -0.014893 730460.000000 0 0 1
12.719471 26.399391 -34.505742 45.269847 1.121807 2.437538 0.020193 -0.013308 630310.000000 0 0 1
12.728571 25.018681 -34.225330 44.264254 1.100163 2.454676 0.010909 -0.013680 -100802.000000 0 0 1
12.731471 24.661461 -32.883038 43.029899 1.094234 2.440582 0.009085 -0.011656 -348925.000000 0 0 1
12.564371 23.127991 -32.763958 42.026710 1.073147 2.464821 0.004516 -0.023090 -449805.000000 0 0 1
13.664371 22.423991 -33.261148 42.377522 1.023520 2.473294 -0.001586 -0.011632 -229853.000000 0 0 1
13.459271 21.010891 -33.385288 41.679575 1.001068 2.499758 0.003320 -0.004604 -168226.000000 0 0 1
14.701671 20.358091 -34.013138 42.278654 0.945356 2.505628 0.014068 -0.005272 -223007.000000 0 0 1
15.860671 20.544591 -33.253388 42.183278 0.913356 2.478849 0.014224 -0.011109 -726647.000000 0 0 1
16.992171 20.147791 -33.997718 43.017580 0.870160 2.482130 0.007102 -0.011909 -566710.000000 0 0 1
18.214671 20.225091 -33.084388 42.841630 0.837651 2.453169 -0.000467 -0.009703 -686744.000000 0 0 1
18.580171 21.602291 -32.932388 43.547950 0.860467 2.428333 0.006404 -0.004088 433464.000000 0 0 1
19.684871 21.847491 -32.045788 43.494132 0.837422 2.399098 0.014595 -0.004364 532289.000000 0 0 1
19.334071 22.294291 -30.649738 42.547011 0.856389 2.375137 -0.001521 0.000573 -174179.000000 0 0 1
18.865371 23.595891 -30.583018 42.988246 0.896349 2.362324 0.002246 0.002985 9616.860000 0 0 1
18.432571 24.050191 -29.319128 42.163760 0.916868 2.339722 0.000119 0.011891 -384227.000000 0 0 1
19.560671 24.471081 -28.323988 42.233896 0.896459 2.305875 -0.005172 0.021514 -30310.500000 0 0 1
20.287171 25.641171 -28.715278 43.515585 0.901447 2.291462 0.004580 0.009658 -31239.200000 0 0 1
19.574371 26.851561 -28.729178 43.926393 0.940881 2.283696 -0.000032 0.012209 -853725.000000 0 0 1
20.424671 28.012601 -29.289048 45.384153 0.940790 2.272289 0.001522 0.003663 -432686.000000 0 0 1
20.619571 28.118591 -30.674968 46.441098 0.938064 2.292299 0.010642 -0.001217 18382.100000 0 0 1
21.186671 27.063921 -31.407098 46.558959 0.906608 2.311173 0.016242 0.001032 373402.000000 0 0 1
22.583671 26.469591 -30.995968 46.598407 0.864451 2.298521 0.030632 -0.011149 480974.000000 0 0 1
23.643571 27.336191 -31.360678 47.851624 0.857705 2.285473 0.031239 -0.009493 18619.100000 0 0 1
24.901571 26.955301 -30.835608 47.932361 0.824981 2.269617 0.031779 -0.020334 -794661.000000 0 0 1
25.989471 27.885411 -31.175208 49.243704 0.820575 2.256322 0.001407 -0.009995 -1204470.000000 0 0 1
25.753071 29.107861 -30.448258 49.371902 0.846473 2.235356 -0.005292 -0.000096 553938.000000 0 0 1
26.816371 30.031931 -30.707578 50.635857 0.841902 2.222371 -0.009220 0.005630 439157.000000 0 0 1
27.003871 31.180981 -29.734908 50.849065 0.857066 2.195390 -0.010261 0.009241 -330514.000000 0 0 1
27.494471 30.791071 -28.494958 50.159731 0.841897 2.174973 0.001922 0.009688 13466.600000 0 0 1
26.929471 31.599791 -27.496098 49.797376 0.865024 2.155749 -0.001456 0.016205 -467660.000000 0 0 1
27.610071 31.506641 -26.093898 49.354594 0.851216 2.127868 0.010081 0.013352 -355922.000000 0 0 1
27.579471 30.252051 -25.402738 48.177930 0.831579 2.126180 0.015809 0.015898 58308.200000 0 0 1
26.295371 29.673401 -25.212098 46.985180 0.845681 2.137195 0.020705 0.009829 -10707.700000 0 0 1
25.795371 29.677721 -23.753078 45.938840 0.855270 2.114207 0.025247 0.012394 -223659.000000 0 0 1
25.433571 30.920951 -23.301078 46.323989 0.882465 2.097865 0.026534 0.015361 86611.500000 0 0 1
25.018471 30.929311 -21.955878 45.437944 0.890657 2.075109 0.031077 0.009483 143295.000000 0 0 1
2.605971 -26.559251 -19.947978 33.318264 -1.472990 2.212686 0.022444 0.009503 -252586.000000 0 0 1
2.645971 -27.642971 -18.995978 33.644943 -1.475368 2.170746 0.022586 0.017045 271055.000000 0 0 1
2.846871 -27.076361 -17.705778 32.476585 -1.466039 2.147407 0.032194 0.013410 -215397.000000 0 0 1
2.708371 -28.129081 -16.596478 32.772299 -1.474809 2.101822 0.017793 0.011091 -166176.000000 0 0 1
3.797171 -29.012071 -16.515778 33.598954 -1.440654 2.084672 0.026866 0.004390 -166709.000000 0 0 1
3.636371 -29.927591 -15.426578 33.865369 -1.449883 2.043760 0.020744 -0.000884 232457.000000 0 0 1
5.009271 -30.461351 -14.952878 34.301243 -1.407808 2.021866 0.056812 -0.009185 -331849.000000 0 0 1
5.920871 -29.481991 -14.533878 33.398774 -1.372603 2.021015 0.027915 -0.000159 -216509.000000 0 0 1
7.196571 -30.027161 -14.228578 33.998139 -1.335565 2.002601 0.038448 0.002003 319865.000000 0 0 1
7.292471 -30.874191 -12.925978 34.256046 -1.338848 1.957712 0.030026 -0.001216 -971515.000000 0 0 1
7.643771 -30.097661 -11.779678 33.212306 -1.322089 1.933366 0.022048 -0.003591 -38244.400000 0 0 1
7.756071 -30.882921 -10.561878 33.547946 -1.324741 1.891073 0.023711 -0.004743 -75382.600000 0 0 1
8.927671 -31.857651 -10.381578 34.675501 -1.297568 1.874852 0.036555 -0.010843 -557661.000000 0 0 1
10.197171 -31.314491 -10.270778 34.497370 -1.255988 1.873106 0.035070 -0.009417 -589249.000000 0 0 1
11.217671 -32.283751 -10.160478 35.655463 -1.236376 1.859764 0.036102 -0.009566 -577314.000000 0 0 1
12.373571 -31.867551 -9.297678 35.427290 -1.200433 1.836350 0.030560 -0.002361 -774582.000000 0 0 1
13.228471 -30.913181 -9.928378 35.059805 -1.166452 1.857909 0.032567 -0.011642 -12954.300000 0 0 1
14.156571 -30.497801 -8.977878 34.801245 -1.136210 1.831723 0.022508 -0.007118 -299163.000000 0 0 1
15.398071 -29.717441 -9.477878 34.785874 -1.092735 1.846749 0.033246 -0.014548 132143.000000 0 0 1
15.258571 -28.315911 -9.744878 33.609187 -1.076539 1.864968 0.036019 -0.013453 132789.000000 0 0 1
14.619671 -28.046111 -10.997778 33.485374 -1.090276 1.905443 0.024172 -0.013338 -98969.400000 0 0 1
14.516671 -26.537891 -11.171278 32.245788 -1.070246 1.924571 0.030039 -0.009763 7709.050000 0 0 1
13.533471 -26.018911 -10.212878 31.055458 -1.091167 1.905892 0.021533 -0.008406 1038980.000000 0 0 1
13.083071 -24.675951 -10.386378 29.798425 -1.083285 1.926825 0.018833 -0.000266 57211.100000 0 0 1
12.498971 -24.277651 -11.765378 29.733024 -1.095352 1.977627 0.015415 0.001803 -439030.000000 0 0 1
13.400871 -24.069551 -12.838378 30.393265 -1.062781 2.006897 0.020217 -0.006279 -329746.000000 0 0 1
12.732071 -23.965751 -14.075878 30.571117 -1.082454 2.049277 0.015775 -0.003192 67229.800000 0 0 1
13.531871 -23.342651 -15.263878 30.999627 -1.045433 2.085629 0.025446 -0.004903 533192.000000 0 0 1
14.586271 -24.158051 -15.773878 32.329336 -1.027598 2.080493 0.029501 -0.009246 202570.000000 0 0 1
15.302071 -23.652451 -16.829178 32.814830 -0.996565 2.109301 0.042432 -0.009360 -439782.000000 0 0 1
16.241271 -24.703551 -17.548578 34.380182 -0.989204 2.106478 0.044886 -0.003997 1306780.000000 0 0 1
17.575171 -24.863051 -17.058978 34.900812 -0.955468 2.081492 0.049843 -0.004129 304711.000000 0 0 1
18.487671 -23.811551 -17.319078 34.766858 -0.910602 2.092259 0.049732 -0.002587 -68912.300000 0 0 1
19.910571 -24.263951 -16.876978 35.637095 -0.883631 2.064146 0.041229 0.001793 426884.000000 0 0 1
20.494571 -25.223131 -17.752078 37.032014 -0.888461 2.070734 0.049418 0.004715 47723.800000 0 0 1
21.685271 -25.807771 -17.233478 37.858748 -0.871983 2.043398 0.046755 0.006338 255672.000000 0 0 1
22.289771 -26.765541 -18.267178 39.330877 -0.876385 2.053808 0.043837 -0.000154 -382525.000000 0 0 1
22.821171 -26.024531 -19.358378 39.658906 -0.850886 2.080733 0.039397 0.005763 115993.000000 0 0 1
23.197871 -27.007421 -20.399978 41.032927 -0.861132 2.091120 0.034293 -0.000857 716272.000000 0 0 1
24.382571 -26.456891 -21.309078 41.815711 -0.826177 2.105510 0.009731 -0.007090 120316.000000 0 0 1
24.078471 -25.246841 -21.975178 41.232077 -0.809081 2.132895 0.001477 -0.003758 112684.000000 0 0 1
24.959171 -24.217551 -21.576978 40.926959 -0.770319 2.126107 0.005830 0.001572 -796926.000000 0 0 1
24.226171 -22.882451 -21.415978 39.612599 -0.756882 2.141989 -0.006487 0.010358 -70649.800000 0 0 1
23.873471 -22.202651 -22.625278 39.683794 -0.749152 2.177471 -0.004995 0.016100 288706.000000 0 0 1
22.867571 -22.881451 -23.357578 39.900665 -0.785702 2.196161 -0.020720 0.014055 -1240940.000000 0 0 1
22.237871 -21.991451 -24.467078 39.708749 -0.779827 2.234659 -0.019381 0.013913 -654254.000000 0 0 1
22.942871 -21.449351 -25.546428 40.485429 -0.751767 2.253642 -0.027352 0.016961 -454659.000000 0 0 1
22.155171 -20.476151 -26.233838 39.979227 -0.746034 2.286551 -0.025187 0.018684 178453.000000 0 0 1
22.821571 -20.041951 -27.548348 41.005065 -0.720641 2.307470 -0.024692 0.019818 131700.000000 0 0 1
22.046671 -19.117951 -28.324708 40.667442 -0.714371 2.341299 -0.022124 0.021023 371142.000000 0 0 1
22.688571 -18.699951 -29.534028 41.673951 -0.689325 2.358440 -0.012238 0.018453 174248.000000 0 0 1
21.875371 -17.530351 -30.130688 41.154628 -0.675578 2.392245 0.021640 0.013635 -113315.000000 0 0 1
20.675771 -17.900951 -30.773848 41.169907 -0.713592 2.415063 0.023913 0.012406 351176.000000 0 0 1
20.108371 -16.874151 -31.645908 41.116262 -0.698167 2.449119 0.041916 0.005294 731427.000000 0 0 1
18.800571 -17.381351 -32.338598 41.247518 -0.746194 2.471901 0.029259 0.007390 354514.000000 0 0 1
19.062171 -18.431551 -33.257818 42.534349 -0.768580 2.468512 0.031410 0.012158 436057.000000 0 0 1
17.878071 -18.766151 -33.980418 42.737134 -0.809629 2.489974 0.022244 0.003063 296742.000000 0 0 1
18.141571 -19.748251 33.916712 43.237176 -0.827777 0.669013 0.024260 0.009783 94259.700000 0 0 1
18.686171 -20.982451 34.400637 44.416664 -0.843220 0.684875 0.023215 0.007144 192608.000000 0 0 1
18.964171 -21.889351 33.345586 44.166860 -0.856878 0.715156 0.019556 0.001040 -192665.000000 0 0 1
19.821371 -23.050051 33.833723 45.485298 -0.860567 0.732001 0.017396 0.004903 -53406.500000 0 0 1
19.101071 -24.016251 -34.426859 46.117674 -0.898904 2.413583 0.017265 0.000940 269217.000000 0 0 1
18.987271 -23.679651 -33.047178 44.870461 -0.894935 2.398681 0.015437 0.006264 -46884.300000 0 0 1
18.031071 -24.676751 -32.337998 44.495030 -0.939768 2.384415 0.020999 0.002585 -36445.800000 0 0 1
18.460871 -26.047531 -32.393048 45.481724 -0.954230 2.363454 0.023375 -0.012039 283978.000000 0 0 1
19.529271 -26.449561 -31.535028 45.556884 -0.934787 2.335346 0.013772 -0.011161 152135.000000 0 0 1
19.723271 -27.982571 -31.597188 46.587702 -0.956829 2.316148 0.012818 -0.016780 -228307.000000 0 0 1
18.611571 -28.659541 -31.078518 46.191278 -0.994841 2.308813 0.012635 -0.018608 -134917.000000 0 0 1
18.866271 -30.032541 -31.022858 47.120138 -1.009903 2.289458 0.013324 -0.013625 -134839.000000 0 0 1
17.658571 -30.809281 -30.489008 46.804023 -1.050348 2.280249 0.034181 -0.020721 437507.000000 0 0 1
16.464471 -30.914711 -31.264388 46.949549 -1.081428 2.299515 0.031544 -0.023136 369469.000000 0 0 1
16.481571 -31.733631 -32.422008 48.268542 -1.091771 2.307298 0.033132 -0.017464 810702.000000 0 0 1
15.032771 -32.097921 -32.964038 48.403394 -1.132795 2.319961 0.040063 -0.017089 1316170.000000 0 0 1
14.297971 -31.106151 -33.622928 47.984642 -1.139946 2.347177 0.044403 -0.012545 -124258.000000 0 0 1
12.991071 -31.517561 -33.976118 48.130044 -1.179830 2.354522 0.021536 -0.001827 -64335.900000 0 0 1
12.136971 -30.438141 34.498145 47.580547 -1.191375 0.759693 0.022371 0.008367 -152314.000000 0 0 1
11.604671 -29.498851 -33.597768 46.191564 -1.195998 2.385259 0.022400 -0.003276 324932.000000 0 0 1
10.731171 -28.534241 -34.225874 45.834173 -1.211079 2.413932 -0.000774 0.004511 258185.000000 0 0 1
9.884571 -27.769991 -33.197358 44.395289 -1.228836 2.415490 0.005524 0.004976 -157133.000000 0 0 1
8.873871 -28.544071 -32.620528 44.244869 -1.269385 2.399821 0.018240 -0.002830 -557817.000000 0 0 1
7.969971 -27.716231 -31.942028 43.034905 -1.290795 2.407196 -0.003721 -0.004849 312612.000000 0 0 1
6.783171 -28.395491 -31.160278 42.699862 -1.336309 2.388754 0.009597 0.001295 960992.000000 0 0 1
5.811771 -29.102551 -31.975588 43.625375 -1.373690 2.393457 0.008367 0.008296 447755.000000 0 0 1
6.231871 -30.260521 -32.685528 44.976428 -1.367695 2.384340 0.015240 0.006025 177499.000000 0 0 1
5.005971 -31.089551 -33.217738 45.771586 -1.411149 2.382889 0.034890 0.002226 668263.000000 0 0 1
4.195971 -31.653541 -32.234488 45.371963 -1.439005 2.360933 0.026229 -0.004889 -294034.000000 0 0 1
3.037171 -32.206171 -32.782178 46.055760 -1.476770 2.362844 0.030829 -0.006122 -65677.900000 0 0 1
1.951771 -32.841351 -31.845118 45.787283 -1.511436 2.339914 0.006328 -0.004204 147539.000000 0 0 1
1.216371 -31.806381 -31.241258 44.599794 -1.532572 2.346866 -0.018150 -0.002680 -107007.000000 0 0 1
-0.151229 -32.173031 -31.319358 44.900211 1.566096 2.342744 -0.021200 0.016824 -264445.000000 0 0 1
-1.104829 -31.059681 -30.866618 43.802654 1.535240 2.352761 -0.025179 0.008690 -328085.000000 0 0 1
-1.218929 -31.017671 -29.451558 42.789905 1.531519 2.329916 -0.029177 0.005546 -6599.820000 0 0 1
-1.772129 -29.734241 -29.069238 41.620742 1.511268 2.344000 -0.011445 0.008992 192316.000000 0 0 1
-2.574129 -29.870361 -27.720898 40.832742 1.484832 2.317045 -0.004834 0.007834 570315.000000 0 0 1
-1.696429 -30.088831 -26.585338 40.187011 1.514475 2.293668 -0.008414 0.015569 106591.000000 0 0 1
-2.430429 -30.332491 -25.419318 39.649826 1.490841 2.266721 0.003399 0.010260 -74024.900000 0 0 1
-1.498729 -30.608121 -24.238178 39.071633 1.521870 2.239988 -0.003329 0.019534 159945.000000 0 0 1
-2.151929 -30.855451 -23.018478 38.555674 1.501167 2.210577 0.018324 0.003513 -280142.000000 0 0 1
-1.162329 -31.328151 -22.139578 38.379226 1.533712 2.185680 0.017983 0.004437 369034.000000 0 0 1
-1.651629 -31.241731 -20.640378 37.480646 1.517979 2.153992 -0.001452 0.017810 359354.000000 0 0 1
-1.958129 -29.903181 -20.255178 36.170523 1.505407 2.165172 0.000459 0.018224 1014480.000000 0 0 1
-0.733929 -29.248061 -19.825378 35.341666 1.545708 2.166345 0.021639 0.014481 980970.000000 0 0 1
-0.898229 -27.802331 -19.290478 33.851129 1.538500 2.177134 0.017118 0.010267 -318314.000000 0 0 1
-1.614129 -27.710621 -18.064678 33.118220 1.512613 2.147735 0.016745 0.008724 -169928.000000 0 0 1
-1.412629 -26.467691 -17.426178 31.720748 1.517475 2.152397 0.014930 0.009698 52294.900000 0 0 1
-2.178629 -26.336111 -16.071378 30.929377 1.488260 2.117197 0.010460 0.011167 -371694.000000 0 0 1
-2.230429 -25.015181 -15.488078 29.506180 1.481868 2.123405 0.009766 0.005642 102997.000000 0 0 1
-2.993629 -25.046141 -14.306578 28.999124 1.451836 2.086728 0.007302 0.010482 -355389.000000 0 0 1
-2.781929 -23.762551 -13.434578 27.438765 1.454255 2.082451 0.010571 0.007827 -1553980.000000 0 0 1
-1.552129 -23.778951 -12.872678 27.084192 1.505616 2.066083 0.003033 0.006346 -1772910.000000 0 0 1
-1.306829 -22.607151 -12.131878 25.689950 1.513055 2.062629 0.002450 0.007081 -466107.000000 0 0 1
0.061171 -22.641051 -11.476878 25.383846 -1.568095 2.039952 0.002230 0.013104 -472336.000000 0 0 1
0.246971 -21.387151 -10.801378 23.961239 -1.559249 2.038441 -0.000476 0.010406 34486.200000 0 1 0
1.475471 -21.398151 -10.088278 23.702979 -1.501952 2.010435 -0.003878 0.008008 124529.000000 0 1 0
1.902971 -20.006251 -9.654778 22.295428 -1.475963 2.018657 0.001218 0.008123 -1327940.000000 0 1 0
2.343271 -19.212151 -10.772978 22.150727 -1.449428 2.078702 0.003138 0.011840 290156.000000 0 1 0
3.162671 -18.082551 -10.517078 21.156325 -1.397646 2.091064 0.000701 0.007714 -315293.000000 0 1 0
4.466271 -18.288351 -9.744078 21.198076 -1.331271 2.048418 -0.002461 -0.006903 -846283.000000 0 1 0
4.280871 -18.704351 -8.412478 20.951095 -1.345801 1.983982 0.003736 -0.013741 -542529.000000 0 1 0
5.310371 -19.619251 -8.167478 21.904857 -1.306459 1.952887 0.014774 -0.008781 -486221.000000 0 1 0
4.883071 -20.823251 -7.304978 22.601214 -1.340457 1.899918 0.029352 -0.005731 -346335.000000 0 1 0
4.015971 -21.701851 -7.940278 23.455199 -1.387814 1.916150 0.007360 -0.004770 -311578.000000 0 1 0
3.773971 -22.833451 -7.101578 24.208299 -1.406995 1.868529 0.013029 0.000841 -113085.000000 0 1 0
2.843471 -23.844051 -7.751978 25.233257 -1.452104 1.883059 -0.003149 0.003661 126555.000000 0 0 1
3.437371 -24.293751 -8.954878 26.118800 -1.430237 1.920747 -0.003382 0.006380 130419.000000 0 0 1
2.478471 -25.075771 -9.615978 26.970431 -1.472277 1.935356 -0.016177 0.010902 108568.000000 0 0 1
3.056271 -26.156381 -10.576678 28.378921 -1.454478 1.952708 -0.021036 0.010653 -1863.880000 0 0 1
3.524471 -27.330261 -9.971678 29.305280 -1.442546 1.917999 -0.021022 0.010417 106990.000000 0 0 1
4.339471 -27.990581 -10.948378 30.367262 -1.416988 1.939635 -0.003825 0.011219 290703.000000 0 0 1
4.255171 -29.536071 -10.843478 31.750071 -1.427714 1.919336 0.002315 0.005384 451576.000000 0 0 1
2.993171 -30.104731 -11.227278 32.269268 -1.471697 1.926153 0.005286 0.008620 587914.000000 0 0 1
2.941171 -31.478331 -11.025078 33.482655 -1.477632 1.906334 0.007665 0.002479 -667494.000000 0 0 1
1.737871 -32.202581 -11.578278 34.264894 -1.516882 1.915486 -0.004695 -0.005656 -765421.000000 0 0 1
1.737971 -32.200721 -12.975378 34.760141 -1.516876 1.953342 0.011186 -0.008520 402452.000000 0 0 1
0.959471 -33.242991 -13.537278 35.906475 -1.541942 1.957368 0.016151 -0.011964 -484287.000000 0 0 1
0.563771 -33.102491 -15.011478 36.351578 -1.553767 1.996490 0.028199 -0.007946 426370.000000 0 0 1
-0.599029 -32.288231 -15.209778 35.696303 1.552246 2.010961 0.021168 0.000064 336922.000000 0 0 1
-1.006029 -32.226041 -16.566478 36.248835 1.539589 2.045439 0.000398 -0.000131 823160.000000 0 0 1
-2.360729 -31.429781 -16.693878 35.666367 1.495826 2.057887 0.002606 0.008182 495224.000000 0 0 1
-3.485029 -32.027371 -16.130378 36.028975 1.462409 2.034994 0.002938 0.006568 -1068880.000000 0 0 1
-4.619329 -31.509331 -16.738678 35.977208 1.425231 2.054722 0.007070 0.013851 -266856.000000 0 0 1
-5.919829 -31.509111 -15.909278 35.790691 1.385084 2.031422 0.005339 0.002460 -179436.000000 0 0 1
-6.078929 -30.479741 -14.916378 34.474140 1.373938 2.018263 -0.005957 0.000203 1232160.000000 0 0 1
-7.426629 -30.371481 -14.369878 34.410392 1.330976 2.001602 0.013485 0.001419 1558770.000000 0 0 1
-7.927529 -31.501931 -13.399678 35.139276 1.324263 1.962031 0.003519 -0.006406 48729.700000 0 0 1
-8.023229 -32.776541 -14.069778 36.559985 1.330731 1.965832 0.002595 -0.001869 -253171.000000 0 0 1
-8.689329 -33.700701 -13.239278 37.236006 1.318454 1.934299 0.005659 -0.008526 -134337.000000 0 0 1
-8.901629 34.179652 -14.009378 37.996714 -1.316019 1.948406 0.029439 -0.002151 -662453.000000 0 0 1
-7.729529 33.485560 -14.254178 37.204972 -1.343938 1.963974 0.013620 -0.001994 -514544.000000 0 0 1
-8.032629 32.283931 -14.929078 36.464404 -1.326936 1.992609 0.020210 -0.009652 -104107.000000 0 0 1
-8.187029 -22.511751 -3.784378 24.251348 1.221989 1.727485 0.041215 0.006993 152965.000000 0 1 0
-7.770829 -21.316351 -4.401278 23.111552 1.221221 1.762403 0.025827 0.000143 1097470.000000 0 1 0
-6.508329 -21.558151 -5.112378 23.092177 1.277601 1.794036 0.017898 0.008960 1370310.000000 0 1 0
-6.158429 -20.413651 -6.074778 22.170844 1.277797 1.848345 0.016399 0.002057 -137095.000000 0 1 0
-6.999529 -20.457551 -7.171878 22.780269 1.241133 1.891072 0.017728 -0.005371 -591098.000000 0 1 0
-6.844329 -19.323051 -7.983178 21.999006 1.230380 1.942162 0.007527 -0.007630 143499.000000 0 1 0
-7.754429 -19.361751 -9.244878 22.813951 1.189857 1.988026 0.005496 -0.017018 569174.000000 0 1 0
-7.110429 -20.188351 -10.214178 23.716179 1.232159 2.016047 0.007299 -0.004988 -331973.000000 0 1 0
-7.974229 -20.499451 -11.268178 24.714119 1.199811 2.044225 0.018468 0.002833 -273784.000000 0 1 0
-7.513829 -21.509751 -12.341878 25.912332 1.234726 2.067231 0.021800 0.006414 -287335.000000 0 0 1
-6.509929 -20.985251 -13.180978 25.622219 1.269995 2.111146 0.024031 0.008966 -340264.000000 0 0 1
-6.139829 -21.734951 -14.280778 26.721643 1.295483 2.134626 0.012368 0.014096 -44575.100000 0 0 1
-5.208529 -20.866251 -15.158978 26.312047 1.326180 2.184774 0.013907 0.013241 229292.000000 0 0 1
-3.976729 -20.547451 -14.514278 25.469126 1.379621 2.177153 0.014780 0.005349 -1662.820000 0 0 1
-3.120929 -19.782851 -15.336978 25.225469 1.414327 2.224330 0.020952 0.008474 -210016.000000 0 0 1
-3.403529 -18.267451 -15.613678 24.270779 1.386592 2.269612 0.028686 0.008979 -402316.000000 0 1 0
-4.523329 -17.896651 -16.410078 24.699014 1.323234 2.297490 0.035928 0.014606 120399.000000 0 1 0
-4.307629 -18.078251 -17.823478 25.749858 1.336881 2.335298 0.039690 0.013710 -469500.000000 0 0 1
-5.635929 -17.912151 -18.560178 26.402444 1.265961 2.350364 0.031110 0.019934 -346820.000000 0 0 1
-6.533429 -18.899551 -18.171878 27.020286 1.237964 2.308415 0.027778 0.023733 646528.000000 0 0 1
-7.851429 -18.702851 -18.767978 27.634735 1.173340 2.317393 0.024122 0.015728 1263820.000000 0 0 1
-8.834329 -19.754351 -18.230278 28.295279 1.150266 2.270887 0.025293 0.014431 -262110.000000 0 0 1
-8.424029 -21.085951 -18.459678 29.263310 1.190713 2.253397 0.020206 0.019140 -6650.410000 0 0 1
-9.415629 -21.958151 -17.999878 29.913376 1.165712 2.216466 0.019756 0.010623 -454389.000000 0 0 1
-9.043629 -23.448351 -18.207678 31.034367 1.202693 2.197767 0.014805 -0.002514 -539223.000000 0 0 1
-8.903829 -23.802551 -19.545878 32.060583 1.212841 2.226421 0.006952 -0.001729 1007960.000000 0 0 1
-7.970829 -24.875751 -19.945578 32.865836 1.260707 2.222924 0.010961 -0.009306 807750.000000 0 0 1
-6.471329 -24.526851 -19.858178 32.214775 1.312829 2.234998 0.025797 0.000398 -693119.000000 0 0 1
-6.059129 -23.441451 -20.651978 31.823244 1.317853 2.277012 0.027614 0.004807 82748.900000 0 0 1
-5.920229 -22.143551 -20.127278 30.503988 1.309550 2.291381 0.027626 0.005891 -676515.000000 0 0 1
-4.926129 -21.971351 -18.993078 29.457495 1.350237 2.271508 0.050177 0.012925 773566.000000 0 0 1
-3.578929 -22.316951 -19.402378 29.787704 1.411782 2.280166 0.042401 0.003883 1194590.000000 0 0 1
-2.641629 -22.322351 -18.315078 28.994959 1.453004 2.254494 0.019059 0.002758 1778740.000000 0 0 1
-1.200429 -22.850251 -18.731178 29.570797 1.518310 2.256781 0.028665 -0.001510 1615400.000000 0 0 1
-0.371429 -22.047451 -19.572878 29.484328 1.553951 2.296738 0.038232 -0.002341 474976.000000 0 0 1
0.860371 -22.685651 -19.897378 30.187492 -1.532889 2.290453 0.029380 -0.003810 996201.000000 0 0 1
1.808971 -22.090151 -20.998378 30.531607 -1.489088 2.329193 0.041635 -0.006808 549271.000000 0 0 1
1.357571 -22.251551 -22.311178 31.539867 -1.509862 2.356604 0.041937 -0.010388 -73941.000000 0 0 1
0.690071 -21.115051 -22.868378 31.133331 -1.538126 2.395771 0.046592 -0.006686 -87010.300000 0 0 1
0.100371 -21.418651 -24.255578 32.358952 -1.566110 2.418222 0.054246 -0.003190 -35552.900000 0 0 1
-0.380029 -20.255151 -24.940278 32.131496 1.552036 2.459403 0.052295 -0.004036 876094.000000 0 0 1
-1.792029 -20.028051 -24.719878 31.865445 1.481558 2.458712 0.042639 -0.001697 854612.000000 0 0 1
-2.223529 -18.717451 -25.437128 31.659667 1.452556 2.503873 0.022850 0.006865 -79447.200000 0 0 1
-1.613929 -17.526151 -24.984478 30.561330 1.478968 2.527887 0.039965 -0.002757 -112729.000000 0 0 1
-1.922629 -16.398551 -25.750368 30.589057 1.454085 2.571436 0.028426 -0.000525 -295285.000000 0 0 1
-1.145529 -15.125451 -25.390918 29.576853 1.495205 2.603080 0.026089 -0.004944 203290.000000 0 0 1
0.264571 -15.175051 -25.598628 29.759737 -1.553363 2.606412 0.023188 -0.017318 57720.100000 0 0 1
0.941771 -14.009351 -25.210798 28.857117 -1.503673 2.633435 0.025798 -0.021430 138182.000000 0 0 1
0.753371 -12.771851 -26.149368 29.111461 -1.511878 2.686567 0.017388 -0.016583 -231072.000000 0 0 1
1.258571 -11.550851 -25.623748 28.135078 -1.462265 2.715869 0.016068 -0.018514 97743.100000 0 0 1
0.845871 -10.527251 -26.517938 28.543643 -1.490618 2.762582 0.023560 -0.019218 -881452.000000 0 0 1
1.448971 -9.107551 -26.297128 27.867292 -1.413023 2.804305 0.035101 -0.017468 1747550.000000 0 0 1
2.872671 -8.941451 -26.602538 28.211643 -1.259937 2.802218 0.035956 -0.012784 1367850.000000 0 0 1
3.224571 -9.269851 -27.920218 29.595043 -1.236033 2.803559 0.032920 -0.002595 -501069.000000 0 0 1
4.695171 -8.917151 -28.297448 30.038405 -1.086149 2.799463 0.018000 0.005210 25886.800000 0 0 1
4.961971 -7.579351 -28.374628 29.785688 -0.991145 2.832553 0.018336 -0.002559 321285.000000 0 0 1
6.205671 -7.271251 -29.009968 30.544389 -0.864301 2.823278 0.027116 -0.002192 101429.000000 0 0 1
7.445671 -7.148051 -28.097738 29.933518 -0.765007 2.789553 0.027168 -0.004404 -220094.000000 0 0 1
7.954071 -8.350651 -27.543788 29.860691 -0.809716 2.745070 0.020714 -0.001399 444917.000000 0 0 1
8.623971 -9.264951 -28.438228 31.127881 -0.821214 2.722832 0.020237 -0.001996 -232723.000000 0 0 1
8.948971 -10.695851 -27.818888 31.118738 -0.874088 2.676900 0.011664 -0.008426 552036.000000 0 0 1
7.794171 -11.512851 -27.563318 30.871206 -0.975676 2.674428 0.012944 -0.009955 622218.000000 0 0 1
8.110671 -12.755751 -26.929208 30.881619 -1.004437 2.630098 0.013071 -0.005500 -145462.000000 0 0 1
9.080171 -13.784451 -27.583648 32.145268 -0.988312 2.602342 0.016465 -0.011931 -46650.800000 0 0 1
8.473771 -14.443551 -28.666068 33.198862 -1.040227 2.612896 0.025902 -0.021961 -336779.000000 0 0 1
9.244271 -15.496951 -29.118518 34.256388 -1.032938 2.586814 0.015960 -0.017898 -298209.000000 0 0 1
8.557771 -16.288251 -30.256498 35.411837 -1.087039 2.595225 0.012548 -0.011840 -70650.300000 0 0 1
8.318971 -15.445651 -31.376148 35.947685 -1.076750 2.631764 0.011917 -0.006211 -273051.000000 0 0 1
7.602971 -16.128951 -32.300518 36.895416 -1.130300 2.637186 0.012427 -0.008457 -549362.000000 0 0 1
6.494871 -15.306651 -33.025138 36.974811 -1.169504 2.675163 0.009779 -0.002076 -40665.100000 0 0 1
6.962171 -14.269451 -33.829478 37.370077 -1.116870 2.702778 0.008333 0.004971 -369077.000000 0 0 1
5.977671 -13.624851 34.465031 37.539412 -1.157351 0.407530 -0.001953 -0.003611 -289862.000000 0 0 1
6.431671 -12.303851 33.854358 36.590554 -1.089125 0.389178 0.012361 0.005284 -150936.000000 0 0 1
7.008771 -12.482451 32.583475 35.589567 -1.059174 0.413962 -0.010380 0.012906 15004.400000 0 0 1
7.103371 -11.216551 31.942825 34.592094 -1.006255 0.393914 0.000339 0.001886 -108333.000000 0 0 1
7.738671 -11.415551 30.495885 33.469401 -0.975053 0.424713 -0.007946 -0.003822 -186631.000000 0 0 1
6.951971 -12.129851 29.635475 32.767736 -1.050369 0.440801 -0.002657 0.000536 -295638.000000 0 0 1
7.351571 -11.840351 28.296175 31.542242 -1.015157 0.457661 -0.010873 -0.004569 222430.000000 0 0 1
6.455671 -12.469351 27.162315 30.576980 -1.093071 0.477110 -0.001968 -0.011507 167777.000000 0 0 1
6.514071 -13.883651 26.999205 31.050699 -1.132099 0.516567 0.003422 -0.007968 -5390.570000 0 0 1
6.538171 -14.350951 25.662075 30.120417 -1.143302 0.551036 0.003192 -0.008962 -542078.000000 0 0 1
5.174671 -14.909251 25.294965 29.814396 -1.236727 0.557814 -0.001615 -0.014633 -1034800.000000 0 0 1
4.157171 -13.998451 25.315995 29.225644 -1.282118 0.523199 -0.013676 -0.020599 -563284.000000 0 0 1
2.881271 -14.634051 25.194055 29.277936 -1.376395 0.534520 -0.007608 -0.017384 505986.000000 0 0 1
1.745271 -13.597651 25.144295 28.638744 -1.443143 0.499167 0.003455 -0.015634 -443281.000000 0 0 1
1.809071 -12.809951 24.010345 27.273874 -1.430500 0.494213 -0.001151 -0.006924 301956.000000 0 0 1
0.771871 -11.824551 23.855545 26.636494 -1.505612 0.461027 -0.003991 0.009406 209393.000000 0 0 1
-0.641629 -12.225351 23.483845 26.483237 1.518361 0.480544 -0.001276 0.013478 -961181.000000 0 0 1
-0.817129 -12.875651 22.245445 25.715946 1.507418 0.525557 0.004692 0.007711 -735437.000000 0 0 1
-2.152429 -13.107551 21.926145 25.635847 1.408036 0.544681 0.014742 0.001883 -323378.000000 0 0 1
-2.300429 -13.709851 20.497645 24.767023 1.404551 0.595945 0.015764 0.000748 157494.000000 0 1 0
-1.678529 -14.998351 20.377245 25.357446 1.459346 0.637477 0.011467 -0.002809 -41827.900000 0 0 1
-1.633929 -15.514051 19.087945 24.651676 1.465864 0.685178 0.012080 -0.005760 297590.000000 0 1 0
-2.606729 -16.714951 18.918545 25.379046 1.416091 0.729602 -0.008382 -0.006063 236784.000000 0 0 1
-2.203229 -17.565151 17.857645 25.145262 1.446016 0.781043 -0.021773 -0.001218 -557428.000000 0 0 1
-2.989429 -18.716751 17.905445 26.074094 1.412415 0.813837 -0.021061 0.011917 -139594.000000 0 0 1
-2.496129 -19.810551 16.980945 26.211468 1.445457 0.866045 -0.015205 0.006792 219607.000000 0 0 1
-1.305029 -20.519051 17.252045 26.839665 1.507281 0.872672 -0.013417 0.001013 -235748.000000 0 0 1
-1.551229 -21.685951 18.021245 28.239193 1.499386 0.878685 -0.006333 0.000884 -444776.000000 0 0 1
-0.293329 -22.483551 18.361845 29.030216 1.557751 0.886009 0.008709 -0.004660 -341034.000000 0 0 1
0.342071 -22.976351 17.237045 28.725345 -1.555909 0.927215 0.018320 -0.011771 -1106930.000000 0 0 1
1.371571 -23.848351 17.509445 29.617659 -1.513347 0.938272 0.022890 0.002487 -253203.000000 0 0 1
2.656271 -23.597451 16.667545 29.012110 -1.458702 0.958799 0.026590 -0.014031 90524.400000 0 0 1
3.298071 -22.429251 17.026045 28.351980 -1.424799 0.926640 0.033575 -0.006363 -601566.000000 0 0 1
4.320171 -22.047551 16.145745 27.666649 -1.377300 0.947664 0.036166 -0.018622 -63121.300000 0 0 1
4.931971 -20.711651 16.605545 27.000758 -1.337025 0.908407 0.050150 -0.015019 -764341.000000 0 0 1
5.589371 -20.828451 17.869445 28.006829 -1.308621 0.878848 0.045311 -0.013630 -126542.000000 0 0 1
5.976871 -19.561951 18.422145 27.527592 -1.274269 0.837631 0.052729 -0.007875 -250660.000000 0 0 1
7.136671 -18.911051 17.685545 26.857744 -1.209940 0.851986 0.055117 -0.010597 -1092270.000000 0 0 1
6.787171 -18.215451 16.511545 25.504891 -1.214127 0.866645 0.059253 -0.010769 -357542.000000 0 0 1
7.892771 -17.630651 15.876945 25.004261 -1.149879 0.882827 0.072039 -0.006617 -40908.300000 0 0 1
7.445871 -16.716851 14.699545 23.472765 -1.151765 0.894077 0.070046 -0.007161 208893.000000 0 1 0
6.811971 -17.474351 13.671945 23.209437 -1.199091 0.940891 0.062088 -0.010845 -118538.000000 0 1 0
6.254471 -16.520251 12.823345 21.828313 -1.208878 0.942875 0.054358 -0.012483 -43110.000000 0 1 0
6.734171 -16.687551 11.360645 21.281157 -1.187238 1.007666 0.064157 -0.010905 981277.000000 0 1 0
8.136271 -16.397751 11.233945 21.477585 -1.110208 1.020366 0.058813 -0.002130 412249.000000 0 1 0
8.530871 -16.382551 9.892545 20.952951 -1.090703 1.079089 0.049237 -0.012702 -253797.000000 0 1 0
10.038071 -16.342351 9.667145 21.477639 -1.019974 1.103916 0.047507 -0.004357 -159989.000000 0 1 0
10.443071 -16.501651 8.296145 21.217640 -1.006572 1.169076 0.043782 -0.014047 283047.000000 0 1 0
11.862271 -16.329851 8.227745 21.796176 -0.942560 1.183717 0.050137 -0.014172 888867.000000 0 1 0
12.744371 -17.497251 7.706145 22.977325 -0.941287 1.228787 0.055795 -0.007950 108747.000000 0 1 0
12.888771 -18.612451 8.520445 24.189703 -0.965134 1.210839 0.051473 -0.011865 165275.000000 0 1 0
13.662871 -19.567151 7.796845 25.106538 -0.961242 1.255024 0.047333 -0.013091 414729.000000 0 0 1
14.057171 -20.806251 8.642545 26.555559 -0.976619 1.239307 0.042848 -0.014866 -248227.000000 0 0 1
12.880871 -21.471651 8.926445 26.582514 -1.030449 1.228340 0.044128 -0.014154 -480594.000000 0 0 1
13.233171 -22.763451 9.373945 27.949282 -1.044215 1.228776 0.033925 -0.014051 344938.000000 0 0 1
12.033971 -23.581951 9.913345 28.270113 -1.098939 1.212515 0.047782 -0.020806 248937.000000 0 0 1
11.830671 -23.090351 11.235345 28.272992 -1.097306 1.162128 0.050543 -0.021246 189034.000000 0 0 1
11.029671 -23.938051 12.130445 29.014335 -1.139031 1.139461 0.066613 -0.007579 395204.000000 0 0 1
11.615571 -25.294851 12.482745 30.505244 -1.140312 1.149219 0.061838 -0.017251 -95210.300000 0 0 1
12.672771 -25.263171 13.417245 31.286569 -1.105845 1.127577 0.031696 -0.017958 -21162.400000 0 0 1
12.910971 -26.542791 13.939345 32.642277 -1.118071 1.129587 0.034335 -0.019593 -197051.000000 0 0 1
14.086571 -26.568291 14.932645 33.575131 -1.083280 1.109898 0.045909 -0.015223 -225408.000000 0 0 1
13.892471 -25.929341 16.177645 33.571530 -1.078935 1.067991 0.039364 -0.012075 251821.000000 0 0 1
14.790271 -26.472031 17.137045 34.831004 -1.061288 1.056404 0.043641 -0.010214 -311291.000000 0 0 1
14.478371 -26.150851 18.585045 35.197928 -1.065157 1.014535 0.039431 -0.010840 -147643.000000 0 0 1
14.820571 -24.772251 18.979445 34.547548 -1.031648 0.989184 0.005421 -0.003096 1261180.000000 0 0 1
16.172771 -24.474351 19.420045 35.180826 -0.986863 0.986028 0.008476 -0.010669 800711.000000 0 0 1
16.483571 -22.977151 19.448545 34.320598 -0.948495 0.968334 -0.005561 -0.009020 -122525.000000 0 0 1
16.285071 -22.306551 18.188345 33.069648 -0.940181 0.988431 -0.018516 -0.010456 122503.000000 0 0 1
15.192171 -21.421951 18.181945 31.941903 -0.953931 0.965240 -0.003442 -0.007709 -592047.000000 0 0 1
15.407471 -20.327251 17.054645 30.683028 -0.922213 0.981431 0.001793 -0.003913 512962.000000 0 0 1
16.442171 -19.377051 17.331745 30.760437 -0.867151 0.972249 -0.008637 -0.012889 651992.000000 0 0 1
17.771271 -19.805751 17.086545 31.623343 -0.839487 0.999986 0.001977 -0.016629 -308569.000000 0 0 1
18.799271 -18.690351 17.283645 31.645950 -0.782493 0.993027 0.018653 -0.022870 -412768.000000 0 0 1
18.988671 -18.259451 18.603945 32.250332 -0.765823 0.955916 0.008904 -0.022753 115010.000000 0 0 1
19.337671 -16.911451 18.604745 31.718752 -0.718566 0.943999 0.025343 -0.022904 -415249.000000 0 0 1
19.588671 -16.416151 20.057345 32.488507 -0.697511 0.905405 0.027434 -0.021070 2928.590000 0 0 1
20.871571 -16.836251 20.487545 33.746427 -0.678788 0.918387 0.028688 -0.019373 74406.400000 0 0 1
21.071471 -16.451651 21.811645 34.502341 -0.662895 0.886434 0.035514 -0.015075 117550.000000 0 0 1
32.546751 -0.682051 -8.154778 33.559746 -0.020953 1.816246 0.083655 -0.022364 -592578.000000 0 0 1
33.838301 -0.558351 -8.688778 34.940481 -0.016499 1.822107 0.065162 -0.020469 -6546.320000 0 0 1
34.605940 -1.730951 -8.502278 35.677107 -0.049977 1.811424 0.062435 -0.022042 485500.000000 0 0 1
-34.532221 -1.572051 -8.886978 35.692072 0.045493 1.822434 0.047619 -0.019003 523992.000000 0 0 1
-33.761709 -2.749551 -8.729478 34.980235 0.081261 1.823017 0.054052 -0.016868 -593196.000000 0 0 1
-32.453829 -2.598051 -9.158478 33.821275 0.079883 1.845010 0.095803 -0.022397 -670693.000000 0 0 1
-31.515469 -3.817051 -8.903878 32.970801 0.120530 1.844245 0.092192 -0.018780 -72556.700000 0 0 1
-31.165849 -3.862251 -7.550478 32.299177 0.123297 1.806746 0.073220 -0.020191 -40757.400000 0 0 1
-30.212269 -4.873451 -7.355178 31.474281 0.159929 1.806666 0.064771 -0.022109 -64746.300000 0 0 1
-29.581519 -4.866751 -5.917978 30.557716 0.163059 1.765693 0.045839 -0.028177 -312681.000000 0 0 1
-29.013099 -3.710951 -5.508878 29.763716 0.127215 1.756957 0.036297 -0.019621 81638.200000 0 0 1
-29.112569 -3.588151 -4.111278 29.619573 0.122632 1.710049 0.034201 -0.020969 -350948.000000 0 0 1
-28.948319 -2.165451 -3.502978 29.239788 0.074665 1.690887 0.030802 -0.019252 -1943020.000000 0 0 1
-27.727239 -1.609951 -3.561778 28.001393 0.057999 1.698342 0.037020 -0.010480 -1281740.000000 0 0 1
-27.761019 -0.278451 -3.043078 27.928696 0.010030 1.679972 0.047313 -0.017910 -715331.000000 0 0 1
-26.369849 0.271149 -2.730178 26.512192 -0.010282 1.673957 0.070191 -0.006057 -407363.000000 0 0 1
-25.871439 -0.352151 -1.564078 25.921067 0.013611 1.631173 0.042900 -0.010288 392295.000000 0 0 1
-24.476029 -0.196051 -1.400578 24.516853 0.008010 1.627955 0.048361 -0.011785 251790.000000 0 1 0
-23.886629 -0.968951 -0.137278 23.906668 0.040542 1.576539 0.029590 -0.007193 -49652.000000 0 1 0
-23.797129 -2.368851 -0.278278 23.916359 0.099217 1.582432 0.022374 -0.007737 204918.000000 0 1 0
-23.028129 -2.945551 0.733122 23.227322 0.127220 1.539228 0.012004 -0.005480 -613054.000000 0 1 0
-23.023229 -4.477951 0.540322 23.460884 0.192099 1.547764 0.005444 -0.000180 -27030.900000 0 1 0
-24.055829 -5.188051 1.256422 24.640970 0.212414 1.519785 -0.002979 0.004906 796270.000000 0 1 0
-24.017229 -6.613251 1.184322 24.939226 0.268696 1.523290 -0.017082 0.005453 -403137.000000 0 1 0
-25.283659 -7.247651 1.792022 26.362913 0.279168 1.502769 -0.009024 0.013997 -79813.200000 0 0 1
-25.175559 -7.386851 3.181822 26.429119 0.285403 1.450113 -0.013378 0.015533 -554054.000000 0 0 1
-26.346879 -7.831151 3.753022 27.741127 0.288916 1.435093 0.008605 0.014592 -715019.000000 0 0 1
-26.377999 -7.889351 5.269622 28.032296 0.290620 1.381687 -0.006080 0.007748 174011.000000 0 0 1
-25.511949 -8.911051 5.789422 27.636638 0.336042 1.359750 -0.002453 0.016789 286914.000000 0 0 1
-25.618289 -9.155551 7.179822 28.136643 0.343237 1.312766 0.000389 0.006080 102312.000000 0 0 1
-25.036829 -8.055551 8.157222 27.536793 0.311288 1.270053 -0.007912 0.006722 -26558.800000 0 0 1
-23.639329 -7.906351 8.078322 26.202816 0.322762 1.257391 -0.004252 0.006190 -209268.000000 0 0 1
-23.380429 -6.544651 8.322322 25.665891 0.272935 1.240571 -0.000917 0.005620 560952.000000 0 0 1
-21.945429 -6.088651 7.872522 24.096683 0.270638 1.237980 -0.008001 0.006771 1936190.000000 0 1 0
-20.855229 -6.790451 8.563622 23.545412 0.314774 1.198552 -0.001008 -0.002913 869235.000000 0 1 0
-19.584029 -6.315751 8.193422 22.148478 0.311965 1.191861 0.003690 -0.002859 -175526.000000 0 1 0
-18.501329 -6.756051 9.172322 21.727285 0.350121 1.134973 0.009680 -0.002913 -560010.000000 0 1 0
-18.537829 -5.929051 10.314722 22.027216 0.309553 1.083463 0.018230 0.005858 770863.000000 0 1 0
-17.418129 -6.019151 11.226622 21.579121 0.332721 1.023648 0.001447 0.005414 512366.000000 0 1 0
-17.236129 -4.783951 12.103722 21.597926 0.270739 0.975914 -0.003300 0.001551 48674.100000 0 1 0
-18.417729 -4.678951 12.875422 22.953906 0.248783 0.975294 0.013247 -0.001153 318575.000000 0 1 0
-18.483429 -3.350351 13.408022 23.078931 0.179315 0.950884 0.017635 0.002997 582377.000000 0 1 0
-19.751029 -3.112051 14.288922 24.575624 0.156279 0.950315 0.019129 -0.001545 178955.000000 0 1 0
-19.558429 -3.930951 15.395322 25.199216 0.198343 0.913543 0.022755 0.005754 126847.000000 0 0 1
-20.660329 -3.882751 16.278722 26.588000 0.185766 0.911883 0.022219 0.008486 -66513.500000 0 0 1
-20.507929 -4.816151 17.502122 27.387858 0.230664 0.877538 0.018981 0.015323 207758.000000 0 0 1
-21.491429 -4.614751 18.535922 28.753397 0.211513 0.870229 0.019699 0.007476 774939.000000 0 0 1
-21.280429 -5.496951 19.608422 29.454428 0.252785 0.842337 0.024847 0.010032 26217.600000 0 0 1
-22.133629 -5.122851 20.886722 30.860919 0.227446 0.827387 0.011268 0.011407 46887.500000 0 0 1
-21.808929 -3.810351 21.265522 30.698055 0.172969 0.805526 0.019441 0.013522 368109.000000 0 0 1
-22.336829 -3.574451 22.556422 31.945310 0.158680 0.786828 0.025183 0.009597 -65458.000000 0 0 1
-22.315729 -2.074551 22.831022 31.992985 0.092697 0.776136 0.024942 0.008727 -147044.000000 0 0 1
-23.276729 -1.289451 22.178822 32.177150 0.055340 0.810312 0.024350 0.004632 -141779.000000 0 0 1
-23.074629 0.083049 22.420422 32.173292 -0.003599 0.799780 0.019308 0.002072 532885.000000 0 0 1
-24.393429 0.868249 22.108922 32.933231 -0.035579 0.834800 0.021127 -0.000830 527225.000000 0 0 1
-25.441409 0.578449 22.973022 34.283519 -0.022733 0.836467 0.025742 0.002260 -24439.700000 0 0 1
-26.712359 1.134549 22.649622 35.040587 -0.042447 0.867963 0.038291 0.000839 676085.000000 0 0 1
-27.646329 1.154749 23.880922 36.550669 -0.041744 0.858776 0.031010 0.004182 -412526.000000 0 0 1
-27.199169 2.013649 24.944122 36.960233 -0.073899 0.829980 0.027994 0.008091 14317.000000 0 0 1
-28.070279 2.223749 26.042422 38.354835 -0.079056 0.824415 0.026339 0.007928 -306923.000000 0 0 1
-27.544349 3.197949 27.125422 38.790547 -0.115584 0.796408 0.028930 0.008392 -353960.000000 0 0 1
-26.458749 2.739249 27.868522 38.525620 -0.103162 0.762116 0.021934 0.005473 -118502.000000 0 0 1
-26.186849 3.571449 29.010522 39.244321 -0.135547 0.738872 0.009995 0.011313 -273107.000000 0 0 1
-24.992429 3.040549 29.806122 39.016296 -0.121064 0.701399 0.010615 0.009327 -305809.000000 0 0 1
-25.244559 1.934049 30.621822 39.733164 -0.076463 0.690878 0.017781 0.009911 -23175.800000 0 0 1
-24.090029 1.643949 31.359322 39.578266 -0.068136 0.656166 -0.001022 0.002197 -381327.000000 0 0 1
-24.307429 0.502149 32.393822 40.502629 -0.020655 0.643842 0.002250 -0.003683 -227916.000000 0 0 1
-24.448029 -0.694451 31.663522 40.009587 0.028398 0.657703 0.003819 -0.007783 104090.000000 0 0 1
-24.826129 -1.859351 32.437122 40.889617 0.074755 0.654611 0.005662 -0.006399 -214057.000000 0 0 1
-25.343349 -3.017351 31.518722 40.556375 0.118501 0.680659 -0.000661 -0.002036 425649.000000 0 0 1
-26.628529 -2.860951 30.920022 40.906129 0.107029 0.713803 0.003307 -0.003833 430500.000000 0 0 1
-26.722549 -2.005751 29.840422 40.106963 0.074918 0.731728 0.009569 -0.003948 -1128310.000000 0 0 1
-28.171909 -1.682451 29.469322 40.803530 0.059650 0.763783 0.024626 -0.009807 -136955.000000 0 0 1
-28.917229 -1.138851 30.549722 42.080740 0.039363 0.758340 0.023554 -0.001892 -490964.000000 0 0 1
-30.169539 -0.662451 30.095822 42.619226 0.021954 0.786742 0.012415 -0.005851 31446.200000 0 0 1
-30.999269 -0.199851 31.286222 44.043414 0.006447 0.780802 0.011741 -0.001549 -370582.000000 0 0 1
-31.296649 -1.270751 32.220922 44.936431 0.040581 0.771259 0.013339 0.003845 -151686.000000 0 0 1
-32.199629 -0.918551 33.236922 46.285558 0.028519 0.769751 0.014615 0.005219 -226171.000000 0 0 1
-32.462799 -2.111251 34.202722 47.202933 0.064945 0.760359 0.021668 0.004878 -37252.600000 0 0 1
-33.278249 -3.151651 33.686522 47.456891 0.094424 0.781534 0.037007 -0.009635 106327.000000 0 0 1
-33.048499 -4.383551 34.344522 47.864026 0.131870 0.770527 0.016014 -0.005120 -239895.000000 0 0 1
-34.163413 -5.404251 34.008322 48.506811 0.156888 0.793852 0.017282 -0.001482 990777.000000 0 0 1
35.235900 -4.985051 -34.437400 49.521247 -0.140544 2.339782 0.032430 -0.010289 232712.000000 0 0 1
34.128891 -5.514451 33.952022 48.455445 -0.160193 0.794439 0.032613 -0.014590 28031.300000 0 0 1
32.719201 -4.963751 34.365522 47.709266 -0.150560 0.766545 0.044895 -0.013787 458627.000000 0 0 1
32.302951 -5.458151 -33.396300 46.782314 -0.167387 2.365800 0.046581 -0.014923 232480.000000 0 0 1
31.812481 -6.798551 -33.380200 46.609999 -0.210540 2.369081 0.055073 -0.019495 -1010790.000000 0 0 1
30.375761 -7.078551 -33.798500 45.990557 -0.228947 2.396317 0.067855 -0.022750 -529607.000000 0 0 1
29.395021 -6.861551 -32.803700 44.578368 -0.229319 2.397741 0.060566 -0.023774 -39848.200000 0 0 1
28.133441 -7.172651 -33.352200 44.218850 -0.249633 2.425312 0.044924 -0.020269 -453755.000000 0 0 1
26.923851 -6.829951 -32.496200 42.749795 -0.248436 2.434338 0.057269 -0.020796 -940127.000000 0 0 1
25.713991 -7.266351 -32.993300 42.456649 -0.275403 2.460850 0.065271 -0.021427 -278600.000000 0 0 1
24.586731 -6.850751 -32.236200 41.117061 -0.271744 2.471897 0.068107 -0.021009 -88271.100000 0 0 1
23.218631 -7.280051 -32.787900 40.830753 -0.303835 2.503141 0.055076 -0.022131 -45521.200000 0 0 1
22.831931 -8.669751 -32.768600 40.868604 -0.362903 2.501104 0.055569 -0.023826 281403.000000 0 0 1
22.654331 -9.164051 -31.452600 39.830448 -0.384394 2.481055 0.059784 -0.022966 -420539.000000 0 0 1
22.503831 -10.695751 -31.306700 40.011636 -0.443681 2.469371 0.055056 -0.020206 723700.000000 0 0 1
21.272131 -11.157251 -31.896400 39.929540 -0.483056 2.496123 0.055645 -0.021336 715972.000000 0 0 1
21.121131 -12.544351 -31.607700 40.031358 -0.535940 2.480910 0.043531 -0.010650 572557.000000 0 0 1
19.960131 -13.068451 -32.561900 40.366677 -0.579692 2.509263 0.040457 -0.007352 1768890.000000 0 0 1
18.648831 -12.554551 -32.267700 39.326837 -0.592518 2.533083 0.032721 -0.005656 436052.000000 0 0 1
18.264931 -11.464951 -33.020200 39.438388 -0.560541 2.563050 0.030165 -0.013225 -44187.800000 0 0 1
16.879231 -10.947351 -32.561900 38.275714 -0.575369 2.588149 0.030621 -0.012222 1779660.000000 0 0 1
15.710531 -11.726451 -33.012300 38.394562 -0.641198 2.605708 0.020395 0.000511 1247540.000000 0 0 1
14.483131 -11.209651 -32.565400 37.362048 -0.658672 2.629288 0.011466 0.003727 724298.000000 0 0 1
13.191131 -11.745051 -33.274900 37.671888 -0.727472 2.653613 -0.000289 0.007461 11760.300000 0 0 1
12.999531 -13.151551 -33.148600 37.957619 -0.791211 2.632743 0.010871 0.010691 -96941.800000 0 0 1
11.779031 -13.554651 -33.701900 38.187593 -0.855373 2.652023 -0.006140 0.004645 323922.000000 0 0 1
10.487231 -13.381351 -32.841800 36.981433 -0.906061 2.663908 -0.015286 0.013193 -89054.100000 0 0 1
10.006231 -12.063451 -32.855200 36.402139 -0.878344 2.696480 0.007227 0.008515 -592727.000000 0 0 1
8.886831 -11.984951 -32.036800 35.340789 -0.932758 2.705741 0.002356 0.003494 -691851.000000 0 0 1
7.906831 -10.844251 -32.352700 35.025890 -0.940789 2.748371 0.005265 0.005489 -421961.000000 0 0 1
8.438231 -9.529551 -32.344300 34.758738 -0.846061 2.766674 0.011855 0.002185 -6277.860000 0 0 1
7.545131 -8.562951 -32.823700 34.751237 -0.848501 2.806967 0.016889 0.008240 16568.300000 0 0 1
8.289231 -7.177551 -32.974900 34.750146 -0.713646 2.820572 0.017550 0.016382 266841.000000 0 0 1
8.450731 -6.519051 -31.730500 33.477418 -0.657069 2.817117 0.025390 0.005267 221416.000000 0 0 1
9.023631 -5.254551 -31.975700 33.637503 -0.527311 2.825949 0.025801 -0.004896 -340759.000000 0 0 1
9.110431 -4.450351 -30.636700 32.270931 -0.454397 2.821986 0.023625 0.000421 295100.000000 0 0 1
7.819931 -4.000051 -30.246700 31.496263 -0.472821 2.858967 0.039384 -0.001486 297033.000000 0 0 1
7.955831 -3.200751 -29.095700 30.333147 -0.382501 2.854972 0.035536 -0.004044 372507.000000 0 0 1
6.587931 -2.659051 -28.630300 29.498568 -0.383627 2.898365 0.035249 -0.004742 -247284.000000 0 0 1
5.841331 -1.835951 -29.534800 30.162830 -0.304527 2.937172 0.032965 -0.001975 582768.000000 0 0 1
4.565331 -1.411151 -29.080700 29.470676 -0.299786 2.978731 0.043361 -0.005873 281628.000000 0 0 1
3.434731 -2.433851 -29.081700 29.384797 -0.616475 2.997839 0.040188 -0.006463 -963253.000000 0 0 1
3.581031 -3.379951 -28.022400 28.451762 -0.756520 2.967645 0.050429 -0.012712 -118217.000000 0 0 1
2.738231 -4.516451 -28.116700 28.608479 -1.025772 2.955908 0.053060 -0.009209 79870.100000 0 0 1
3.097431 -5.546451 -27.033100 27.769511 -1.061487 2.910782 0.042052 -0.014214 -10375.000000 0 0 1
2.613831 -5.185251 -25.744000 26.390765 -1.103882 2.919746 0.040304 -0.018875 -53265.100000 0 0 1
3.119831 -6.009151 -24.720800 25.631255 -1.091923 2.874259 0.036252 -0.022578 -7838.070000 0 0 1
2.881831 -5.449751 -23.312700 24.114036 -1.084375 2.883071 0.028691 -0.021367 -8133.540000 0 1 0
3.873531 -4.513251 -22.938000 23.696530 -0.861528 2.887890 0.029940 -0.017372 28858.600000 0 1 0
3.776131 -4.205151 -21.572000 22.300082 -0.839100 2.885356 0.032080 -0.020659 -352014.000000 0 1 0
4.570431 -2.919851 -21.314300 21.993494 -0.568502 2.892427 0.040695 -0.022998 -92203.100000 0 1 0
5.949031 -3.217451 -21.386100 22.430075 -0.495780 2.835295 0.031892 -0.006103 -553071.000000 0 1 0
6.682431 -2.202651 -20.763000 21.922790 -0.318403 2.814862 0.041505 -0.004575 -44731.400000 0 1 0
8.145531 -2.525051 -20.398700 22.109558 -0.300599 2.745613 0.028369 -0.004208 -1309750.000000 0 1 0
8.906431 -2.674151 -21.579300 23.497698 -0.291686 2.734708 0.034143 -0.006945 -141527.000000 0 1 0
10.254331 -3.006751 -21.332800 23.859594 -0.285223 2.677208 0.022449 -0.006010 386624.000000 0 1 0
11.143131 -1.942451 -20.604300 23.504886 -0.172584 2.639540 0.005548 -0.003199 -1223210.000000 0 1 0
10.938031 -1.715951 -19.217500 22.178758 -0.155611 2.618908 0.008559 -0.008932 794778.000000 0 1 0
12.168031 -1.487751 -18.504700 22.196809 -0.121663 2.556507 0.007223 -0.007109 699415.000000 0 1 0
12.714031 0.000849 -18.431000 22.390810 0.000067 2.537733 0.014762 -0.007373 46586.300000 0 1 0
13.134731 0.530849 -19.673000 23.660725 0.040394 2.552531 0.007761 -0.006070 184289.000000 0 1 0
12.840231 1.886049 -19.729900 23.615624 0.145843 2.559765 0.007737 -0.017379 -102138.000000 0 1 0
13.157731 2.529549 -21.102400 24.996716 0.189931 2.575880 -0.004247 -0.008669 -330225.000000 0 1 0
14.517931 2.606249 -21.436700 26.021049 0.177627 2.538916 -0.012537 -0.002096 -109588.000000 0 0 1
14.758831 3.540849 -22.446400 27.096154 0.235464 2.547038 -0.006296 -0.010658 231413.000000 0 0 1
16.246531 3.732849 -22.919300 28.340400 0.225843 2.512760 -0.009619 -0.011508 851769.000000 0 0 1
16.820531 2.791049 -23.796400 29.274372 0.164433 2.519867 -0.008879 -0.012279 257071.000000 0 0 1
17.133731 1.515649 -23.280800 28.945770 0.088230 2.505276 -0.016256 -0.004528 -1189910.000000 0 0 1
9.103171 26.869049 2.910122 28.518105 1.244136 1.468574 -0.008128 -0.006500 46699.800000 0 0 1
9.020971 27.389249 4.234922 29.145899 1.252624 1.424979 -0.008930 -0.004807 -701814.000000 0 0 1
10.120971 28.147449 4.553522 30.256363 1.225622 1.419724 -0.001655 -0.015208 -1066280.000000 0 0 1
10.103871 28.678749 5.945622 30.982403 1.232063 1.377695 -0.006200 -0.011032 -172136.000000 0 0 1
10.465671 27.845149 6.996222 30.558627 1.211278 1.339803 -0.009200 -0.007716 94981.500000 0 0 1
10.493871 28.495649 8.251622 31.467644 1.217946 1.305469 -0.001063 -0.004712 -454626.000000 0 0 1
10.507371 27.412549 9.383422 30.820469 1.204764 1.261431 0.008147 -0.009867 1009390.000000 0 0 1
11.817471 26.882149 9.680922 30.919618 1.156622 1.252341 -0.017980 -0.006188 842114.000000 0 0 1
12.373171 25.913049 8.823022 30.040426 1.125320 1.272696 -0.014016 -0.006587 -148706.000000 0 0 1
13.632571 25.283449 9.451022 30.239405 1.076291 1.252931 -0.006552 -0.005894 562406.000000 0 0 1
14.745471 26.186449 9.657322 31.566167 1.057955 1.259872 -0.006301 -0.005804 686761.000000 0 0 1
15.817571 25.355949 10.079522 31.539126 1.013045 1.245502 -0.014438 0.006820 -554072.000000 0 0 1
17.061371 26.039349 10.579722 32.879607 0.990764 1.243196 -0.000863 0.004649 -1046810.000000 0 0 1
17.693471 26.801549 9.543222 33.503060 0.987308 1.281950 0.003316 -0.001272 400610.000000 0 0 1
19.071671 27.057549 9.794122 34.521941 0.956819 1.283138 0.003735 -0.012578 286732.000000 0 0 1
19.595471 27.830249 11.025922 35.778152 0.957319 1.257523 0.003501 -0.006718 -934280.000000 0 0 1
19.392771 29.283849 11.045822 36.818929 0.985869 1.266100 0.007434 -0.012875 699807.000000 0 0 1
18.014171 29.683049 11.067322 36.442823 1.025330 1.262233 -0.003173 0.002488 543927.000000 0 0 1
17.902071 31.189049 11.197022 37.664495 1.049725 1.268950 -0.001549 0.017375 -288638.000000 0 0 1
18.445971 31.971649 10.071622 38.260655 1.047499 1.304420 0.015048 -0.003278 706048.000000 0 0 1
17.506971 32.147249 8.986122 37.692042 1.072119 1.330069 0.015663 -0.012748 171659.000000 0 0 1
16.294571 33.001249 9.324322 37.967597 1.112156 1.322672 0.022781 -0.006036 -531672.000000 0 0 1
16.630271 34.311149 9.571222 39.311947 1.119472 1.324856 0.022944 -0.000636 317836.000000 0 0 1
15.428471 -34.073694 9.713722 38.644672 -1.145619 1.316711 0.028662 0.004696 651570.000000 0 0 1
15.763671 -32.566994 9.947222 37.523987 -1.119999 1.302499 0.046852 0.012162 -81422.000000 0 0 1
16.438171 -31.995794 8.874922 37.050081 -1.096201 1.328906 0.029517 0.008204 -69797.800000 0 0 1
16.224571 -30.594994 8.863522 35.747061 -1.083202 1.320232 0.008659 -0.002612 23954.100000 0 0 1
16.749871 -29.932894 7.556722 35.123217 -1.060627 1.353952 0.019471 -0.006742 435182.000000 0 0 1
15.943971 -30.284694 6.408522 34.820138 -1.086198 1.385695 0.018991 0.005021 193039.000000 0 0 1
16.299971 -29.533494 5.300622 34.146931 -1.066484 1.414936 0.011436 0.000537 -244198.000000 0 0 1
15.899071 -30.075394 3.911522 34.243390 -1.084500 1.456319 0.010362 -0.009766 -228493.000000 0 0 1
16.603071 -31.171594 3.417022 35.482478 -1.081383 1.474345 0.012378 -0.007935 -537317.000000 0 0 1
16.234171 -31.507594 2.082022 35.505092 -1.095026 1.512123 0.013319 -0.001938 -83356.800000 0 0 1
16.414871 -33.018494 1.792622 36.917237 -1.109438 1.522219 0.019914 0.005093 280045.000000 0 0 1
17.787071 -33.390094 1.732422 37.871883 -1.081328 1.525036 0.018044 0.015323 576681.000000 0 0 1
17.814271 34.359249 1.490622 38.731488 1.092481 1.532301 0.039142 0.013478 -1097690.000000 0 0 1
19.172571 33.748249 1.732022 38.852692 1.054159 1.526202 0.042221 0.005022 -677230.000000 0 0 1
19.358971 33.508849 3.139022 38.826102 1.046915 1.489860 0.036558 -0.015735 -1494270.000000 0 0 1
20.680071 33.387149 3.423622 39.421926 1.016233 1.483841 0.033767 -0.006674 -1782970.000000 0 0 1
21.026771 33.369549 4.927622 39.748375 1.008525 1.446506 0.030624 0.004118 -403999.000000 0 0 1
20.679671 32.307049 5.788022 38.792981 1.001414 1.421034 0.033376 -0.005718 320922.000000 0 0 1
21.457671 31.071549 5.565122 38.168618 0.966414 1.424471 0.018852 -0.015319 400012.000000 0 0 1
20.988771 29.902049 6.419922 37.092808 0.958785 1.396843 0.034218 -0.022130 518403.000000 0 0 1
19.749371 29.358249 5.966522 35.882361 0.978627 1.403740 0.035748 -0.019797 132658.000000 0 0 1
18.823271 29.213649 7.028322 35.456313 0.998416 1.371250 0.031454 -0.027614 243999.000000 0 0 1
17.372071 29.060849 6.481722 34.472228 1.032009 1.381643 0.034445 -0.020044 23941.500000 0 0 1
16.748371 30.270049 6.025922 35.115460 1.065424 1.398340 0.026188 -0.028920 -115689.000000 0 0 1
17.260871 30.966049 4.898222 35.788635 1.062280 1.433500 0.046094 -0.026286 -653585.000000 0 0 1
17.116771 32.537849 5.058322 37.111751 1.086521 1.434071 0.039049 -0.017833 -359890.000000 0 0 1
15.818971 33.049249 5.158122 37.001337 1.124375 1.430937 0.026770 -0.012471 -580652.000000 0 0 1
15.945371 34.483749 5.110422 38.334061 1.137677 1.437085 0.026662 -0.016169 -38581.700000 0 0 1
14.690671 -33.786194 5.403222 37.235970 -1.160644 1.425175 0.022924 -0.013199 402371.000000 0 0 1
13.712271 -33.921994 4.382122 36.850116 -1.186649 1.451597 0.025216 -0.005411 247612.000000 0 0 1
12.684171 -32.937994 4.416022 35.571068 -1.203207 1.446329 0.021947 -0.000881 402396.000000 0 0 1
11.901871 -32.840894 3.078722 35.066470 -1.223109 1.482886 0.029610 -0.001210 368935.000000 0 0 1
10.937771 -31.781894 3.048322 33.749309 -1.239342 1.480351 0.035069 -0.006312 192953.000000 0 0 1
10.358571 -31.810794 1.740722 33.500100 -1.255994 1.518811 0.037450 -0.002550 379776.000000 0 0 1
9.378971 -30.530694 1.484122 31.973285 -1.272749 1.524362 0.048986 -0.004781 949551.000000 0 0 1
8.886771 -30.245194 0.185422 31.524289 -1.285015 1.564914 0.052414 -0.003048 -404711.000000 0 0 1
7.993271 -31.212694 -0.301178 32.221349 -1.320094 1.580144 0.043514 -0.003047 -585685.000000 0 0 1
8.405271 -31.932194 -1.598878 33.058584 -1.313412 1.619180 0.047652 -0.007028 -656860.000000 0 0 1
9.464771 -32.833094 -1.524878 34.204081 -1.290136 1.615393 0.045007 -0.004514 -526642.000000 0 0 1
9.510471 -33.849294 -2.510878 35.249514 -1.296893 1.642088 0.048323 -0.000581 -668434.000000 0 0 1
10.826671 34.553849 -2.319878 36.284530 1.267158 1.634776 0.037047 -0.003795 -552617.000000 0 0 1
10.902171 33.835849 -1.152978 35.567561 1.259092 1.603219 0.030401 0.002964 336030.000000 0 0 1
12.041471 32.987349 -1.268678 35.139319 1.220792 1.606908 0.035340 0.003491 -72920.900000 0 0 1
12.212971 32.010049 -0.108678 34.260936 1.206308 1.573968 0.027276 0.001952 -565597.000000 0 0 1
12.515871 32.649149 1.180222 34.985810 1.204730 1.537056 0.025051 0.003011 600440.000000 0 0 1
13.802071 33.265349 1.274722 36.037557 1.177504 1.535417 0.034533 0.003012 511709.000000 0 0 1
15.033071 32.308649 1.335722 35.659868 1.135296 1.533330 0.040138 -0.001238 -767000.000000 0 0 1
15.417771 31.838849 0.084922 35.375517 1.119833 1.568396 0.046736 -0.002143 -198646.000000 0 0 1
16.266071 30.717549 0.107322 34.758659 1.083799 1.567709 0.053211 -0.002957 -91798.700000 0 0 1
16.990971 30.416849 -1.258178 34.863459 1.061371 1.606893 0.054244 -0.001562 666316.000000 0 0 1
18.012971 31.352549 -1.639078 36.195801 1.049316 1.616095 0.051561 0.005430 780791.000000 0 0 1
17.480571 32.571449 -2.212378 37.031936 1.078234 1.630574 0.047338 0.005030 76594.200000 0 0 1
18.648771 33.353349 -2.844778 38.318603 1.060973 1.645105 0.033812 0.013784 -189346.000000 0 0 1
19.525071 33.835749 -1.858378 39.109332 1.047419 1.618332 0.023035 0.013068 -385897.000000 0 0 1
20.513071 34.549049 -2.575878 40.262365 1.034994 1.634817 0.011496 0.019679 -619936.000000 0 0 1
21.669171 -33.997294 -1.677178 40.350736 -1.003345 1.612373 0.007604 0.021035 219117.000000 0 0 1
22.620371 34.251249 -1.079578 41.060866 0.987128 1.597091 0.006381 0.014171 763517.000000 0 0 1
23.362171 33.407849 -1.974278 40.813885 0.960539 1.619188 0.008362 0.020396 -505415.000000 0 0 1
24.141371 33.990549 -3.145478 41.809774 0.953232 1.646101 -0.012222 0.021464 -1438210.000000 0 0 1
23.299871 -34.560894 -4.118578 41.884389 -0.977618 1.669288 -0.009449 0.009125 -267360.000000 0 0 1
24.040571 -33.957994 -5.140978 41.922834 -0.954755 1.693735 -0.010005 -0.000384 -54494.300000 0 0 1
23.164871 -33.319694 -6.242978 41.058349 -0.963278 1.723440 -0.006741 -0.009051 13410.400000 0 0 1
22.371671 -32.187194 -5.912978 39.641776 -0.963401 1.720515 0.002544 0.000560 154799.000000 0 0 1
21.642371 -31.745094 -7.036378 39.059618 -0.972421 1.751930 0.015770 -0.007777 411006.000000 0 0 1
20.535371 -30.710694 -6.670978 37.541312 -0.981407 1.749442 0.028543 -0.007665 635828.000000 0 0 1
19.318071 -31.028994 -6.018278 37.043299 -1.013938 1.733986 0.035211 -0.000429 285316.000000 0 0 1
18.529671 -29.834794 -5.925678 35.617092 -1.015024 1.737945 0.045046 -0.011839 589700.000000 0 0 1
17.132771 -29.971694 -5.285878 34.925274 -1.051497 1.722728 0.036500 -0.000921 -80183.800000 0 0 1
16.099471 -30.618994 -5.958078 35.102912 -1.086722 1.741354 0.032046 -0.000905 -269794.000000 0 0 1
14.949371 -30.455394 -5.122178 34.311097 -1.114486 1.720643 0.018644 -0.001980 1151980.000000 0 0 1
13.706371 -31.328594 -5.547778 34.642795 -1.158383 1.731631 0.022264 0.003542 711230.000000 0 0 1
14.100771 -32.718094 -5.496678 36.048840 -1.163873 1.723872 0.024090 0.010772 -427957.000000 0 0 1
13.015171 -33.593194 -5.601578 36.459224 -1.201169 1.725047 0.031840 0.006253 -553498.000000 0 0 1
13.256971 33.993449 -5.551578 36.906935 1.198952 1.721790 0.029300 0.005016 -233501.000000 0 0 1
13.569571 33.426449 -4.317678 36.333223 1.185169 1.689913 0.032171 -0.002097 -98394.800000 0 0 1
14.009371 32.052949 -4.349378 35.250122 1.158747 1.694498 0.036848 -0.001367 558390.000000 0 0 1
12.978171 30.948049 -4.853378 33.908258 1.173718 1.714422 0.034959 -0.000079 364808.000000 0 0 1
12.027371 30.470149 -3.933378 32.993319 1.194844 1.690298 0.034204 -0.003263 -294824.000000 0 0 1
12.439371 29.424149 -3.125978 32.098134 1.170824 1.668339 0.041336 -0.008689 -191941.000000 0 0 1
11.318271 28.595449 -2.387078 30.846411 1.193910 1.648260 0.037775 -0.009731 315911.000000 0 0 1
10.630071 29.401549 -1.466078 31.298544 1.223871 1.617655 0.024871 -0.006729 -669724.000000 0 0 1
9.803871 28.624449 -0.667878 30.264187 1.240819 1.592866 0.015733 -0.005035 122243.000000 0 0 1
8.651371 29.502749 -0.043278 30.745086 1.285553 1.572204 0.009149 0.005786 436829.000000 0 0 1
7.679871 28.780149 0.637022 29.794013 1.310026 1.549414 0.004116 -0.003558 -756177.000000 0 0 1
6.471271 29.472249 0.748822 30.183630 1.354655 1.545985 0.017524 0.005574 -324235.000000 0 0 1
5.439871 28.821849 1.679622 29.378773 1.384250 1.513594 0.022723 0.001120 -141980.000000 0 0 1
4.917471 27.690049 1.047622 28.142812 1.395039 1.533563 0.017401 -0.007506 737516.000000 0 0 1
3.744771 27.123749 1.682122 27.432656 1.433601 1.509440 0.018866 -0.013582 1092460.000000 0 0 1
3.036271 26.025949 0.863622 26.216689 1.454658 1.537849 0.022053 -0.016517 110822.000000 0 0 1
1.775671 25.606949 1.334222 25.703093 1.501564 1.518864 0.029134 -0.013654 253109.000000 0 0 1
1.110771 24.846649 0.305622 24.873343 1.526121 1.558509 0.017354 -0.007641 510016.000000 0 1 0
-0.242129 24.209949 0.731322 24.222202 -1.560795 1.540600 0.016773 -0.003763 868739.000000 0 1 0
-1.298629 25.160149 0.947222 25.211441 -1.519228 1.533216 0.025098 -0.010358 217514.000000 0 0 1
-2.537929 24.498849 1.025522 24.651296 -1.467571 1.529183 0.020046 -0.000778 -494863.000000 0 1 0
-3.736329 25.367549 1.411622 25.680058 -1.424560 1.515799 0.025399 -0.012022 -754392.000000 0 0 1
-4.744829 24.476249 1.863022 25.001420 -1.379317 1.496211 0.013477 -0.009509 40470.800000 0 0 1
-5.910829 25.036649 2.422722 25.838755 -1.338954 1.476895 0.007964 -0.007717 697471.000000 0 0 1
-6.985129 25.679149 1.454322 26.651938 -1.305207 1.516202 0.008932 -0.009898 -286313.000000 0 0 1
-6.579929 26.856249 0.871422 27.664290 -1.330524 1.539291 0.013531 -0.017678 -181665.000000 0 0 1
-7.163429 26.967449 -0.404578 27.905586 -1.311160 1.585295 -0.002639 -0.010272 -422454.000000 0 0 1
-6.864629 28.173949 -1.302878 29.027436 -1.331801 1.615696 -0.002623 -0.008123 -269846.000000 0 0 1
-7.500829 29.358249 -0.977478 30.317069 -1.320654 1.603044 0.005591 -0.017168 -306530.000000 0 0 1
-7.326229 30.274449 -1.996378 31.212200 -1.333367 1.634801 0.003572 -0.012206 -581367.000000 0 0 1
-7.570329 31.739349 -1.586278 32.668217 -1.336655 1.619373 -0.003543 -0.013788 -1083910.000000 0 0 1
-7.496029 32.697149 -2.673478 33.651768 -1.345434 1.650326 -0.005484 -0.002799 833173.000000 0 0 1
-6.209329 32.842749 -3.312278 33.588288 -1.383939 1.669571 -0.001124 0.000645 735130.000000 0 0 1
-5.059829 33.396549 -2.459478 33.867099 -1.420432 1.643482 0.003640 -0.006442 -774592.000000 0 0 1
-5.059929 -34.297194 -2.401978 34.751545 1.424321 1.639970 0.008282 0.001546 -32021.600000 0 0 1
-4.255129 -33.813894 -1.354478 34.107479 1.445615 1.610519 0.012910 0.004189 -177349.000000 0 0 1
-4.179929 -32.270594 -1.445678 32.572274 1.441986 1.615195 0.018455 0.003813 215663.000000 0 0 1
-5.370929 -31.634594 -1.021378 32.103545 1.402620 1.602617 0.011588 0.001641 -62699.500000 0 0 1
-5.595329 -30.383894 -1.682478 30.940579 1.388682 1.625201 0.015495 0.008433 1480420.000000 0 0 1
-7.009829 -29.749194 -1.259778 30.589856 1.339387 1.611991 0.036025 0.000799 1480080.000000 0 0 1
-7.148429 -29.388294 0.096622 30.245350 1.332189 1.567602 0.017418 0.001012 387148.000000 0 0 1
-8.294629 -28.536894 0.269722 29.719151 1.287927 1.561721 -0.002873 -0.001654 511288.000000 0 0 1
-8.337629 -28.019494 1.667722 29.281212 1.281575 1.513810 0.005990 -0.001338 523342.000000 0 0 1
-7.260629 -27.075294 1.687922 28.082688 1.308796 1.510655 0.014632 0.000483 200509.000000 0 0 1
-7.190829 -26.366194 2.898422 27.482450 1.304543 1.465135 0.015642 -0.000701 -91005.500000 0 0 1
-8.279229 -25.317794 3.233922 26.832714 1.254745 1.449981 0.006013 0.000583 -22504.400000 0 0 1
-8.280229 -24.138594 2.471522 25.638688 1.240346 1.474248 0.012195 -0.008436 -515121.000000 0 0 1
-9.183529 -23.133694 2.847622 25.052224 1.192899 1.456883 0.011814 -0.019225 -407999.000000 0 0 1
-8.399629 -21.896394 3.279922 23.680450 1.204500 1.431842 0.010831 0.001123 501200.000000 0 1 0
-7.774729 -22.030994 4.583922 23.808054 1.231541 1.377050 0.006800 0.001787 40435.900000 0 1 0
-6.953129 -20.920994 4.950722 22.595212 1.249929 1.349899 -0.000042 -0.000757 -561756.000000 0 1 0
-7.624729 -19.746994 5.612622 21.899356 1.202312 1.311613 0.003255 -0.008498 -190962.000000 0 1 0
-8.209829 -20.017894 6.876322 22.702448 1.181592 1.263074 0.002416 -0.005147 68667.600000 0 1 0
-8.725629 -18.797594 7.401122 22.005970 1.136206 1.227786 -0.009967 -0.013119 -433773.000000 0 1 0
-26.843119 29.860849 -6.028778 40.602580 -0.838567 1.719830 0.035604 0.000938 -169149.000000 0 0 1
-26.044859 30.378649 -4.996178 40.325659 -0.862056 1.695011 0.031525 -0.008251 294379.000000 0 0 1
-25.236869 29.364249 -4.316278 38.958811 -0.860846 1.681815 0.016750 -0.010968 659625.000000 0 0 1
-24.276729 29.913249 -3.243778 38.661145 -0.889040 1.654798 0.012324 -0.015239 -479244.000000 0 0 1
-24.935829 30.599149 -2.201178 39.534146 -0.887024 1.626503 0.011090 -0.017638 119857.000000 0 0 1
-24.264229 31.720849 -1.537878 39.966613 -0.917808 1.609285 0.013330 -0.016221 1149920.000000 0 0 1
-22.982729 31.386049 -0.666478 38.906736 -0.938746 1.587927 0.009553 -0.010355 813750.000000 0 0 1
-21.954229 30.696649 -1.315278 37.762447 -0.949942 1.605634 0.022682 -0.017114 -721797.000000 0 0 1
-20.743629 30.876349 -0.640778 37.202926 -0.979228 1.588021 0.025952 -0.014058 -700969.000000 0 0 1
-19.532429 30.341949 -1.392078 36.112152 -0.998832 1.609355 0.020680 -0.013056 -1052010.000000 0 0 1
-18.345829 30.546149 -0.699178 35.638820 -1.029940 1.590416 0.035377 -0.013472 -1102980.000000 0 0 1
-17.344829 29.801649 -1.320278 34.506876 -1.043711 1.609067 0.033145 -0.017476 -492047.000000 0 0 1
-15.949829 30.042749 -0.726478 34.021928 -1.082732 1.592151 0.030376 -0.015845 -239196.000000 0 0 1
-15.547929 29.332449 0.414922 33.200946 -1.083392 1.558299 0.033777 -0.023289 777362.000000 0 0 1
-14.311429 29.928749 0.894322 33.186546 -1.124754 1.543845 0.027495 -0.025378 1163610.000000 0 0 1
-13.731329 29.175549 2.109922 32.314298 -1.130907 1.505456 0.028573 -0.024606 575515.000000 0 0 1
-14.698229 29.220549 3.211622 32.866289 -1.104744 1.472922 0.014569 -0.015259 565952.000000 0 0 1
-14.232029 28.737249 4.429522 32.372840 -1.110959 1.433537 0.015127 -0.014345 -332557.000000 0 0 1
-13.053329 29.402349 5.137322 32.577287 -1.152981 1.412439 0.023572 -0.006965 -352726.000000 0 0 1
-13.243229 30.668849 5.786222 33.903418 -1.163169 1.399289 0.011756 -0.006922 -291630.000000 0 0 1
-13.095529 31.826249 4.977222 34.773204 -1.180442 1.427169 0.020300 -0.015876 -68738.100000 0 0 1
-12.801229 33.141749 5.815822 36.000983 -1.202193 1.408539 0.014649 -0.008957 -427327.000000 0 0 1
-13.849029 33.592349 6.623822 36.933948 -1.179760 1.390478 0.007396 -0.002033 -160724.000000 0 0 1
-13.482029 -34.388094 7.407022 37.671874 1.197158 1.372887 0.022185 -0.012676 516567.000000 0 0 1
-14.656929 -33.966794 8.351122 37.925056 1.163427 1.348776 0.013746 -0.009429 508078.000000 0 0 1
-14.787929 34.301549 9.511922 38.545503 -1.163757 1.321449 -0.000219 -0.008994 313649.000000 0 0 1
-15.954929 -34.469894 10.251522 39.342433 1.137295 1.307182 0.017087 -0.014349 -420771.000000 0 0 1
-16.075729 33.885949 11.588722 39.255383 -1.127832 1.271117 0.021115 -0.009433 -267181.000000 0 0 1
-15.339529 34.201449 12.707022 39.579144 -1.149186 1.243955 0.019923 -0.010036 328770.000000 0 0 1
-13.933929 33.918549 12.560722 38.760729 -1.181010 1.240781 0.015220 -0.001066 508964.000000 0 0 1
-13.159629 34.015649 13.899822 39.031337 -1.201660 1.206684 0.028692 -0.004427 -348759.000000 0 0 1
-13.446929 33.074649 14.916022 38.694186 -1.184645 1.175063 0.025772 0.001495 -76065.500000 0 0 1
-12.622929 31.942949 14.902422 37.440253 -1.194460 1.161426 -0.000008 0.006784 -628616.000000 0 0 1
-13.205729 30.595349 14.335722 36.276433 -1.163327 1.164532 -0.006993 0.001335 -97949.500000 0 0 1
-13.529529 30.627449 12.988922 35.913798 -1.154828 1.200738 -0.003758 0.007170 235117.000000 0 0 1
-14.824929 30.171149 12.660122 35.921518 -1.114084 1.210621 -0.007451 0.008161 -28006.700000 0 0 1
-15.058729 30.057549 11.139622 35.416278 -1.106352 1.250831 -0.007485 0.013460 -160861.000000 0 0 1
-14.281729 29.016649 10.584322 34.028834 -1.113416 1.254509 -0.009327 0.018002 149334.000000 0 0 1
-14.449929 28.900749 9.170822 33.588059 -1.107161 1.294247 -0.005113 0.013924 -321868.000000 0 0 1
-13.967729 27.583749 8.592522 32.090374 -1.102061 1.299729 -0.002941 0.014544 1255740.000000 0 0 1
-12.599729 27.600849 8.107122 31.405182 -1.142552 1.309694 0.013361 0.015000 1514640.000000 0 0 1
-11.961229 26.322749 7.903222 29.973639 -1.144284 1.303969 0.016895 0.011695 -314077.000000 0 0 1
-10.692929 26.477249 7.097222 29.423698 -1.186972 1.327186 0.030245 0.006948 -634337.000000 0 0 1
-10.921329 26.870049 5.746022 29.568425 -1.184742 1.375222 0.037049 -0.006597 19636.900000 0 0 1
-9.716629 26.750849 5.036822 28.903121 -1.222387 1.395636 0.045966 -0.002686 -177593.000000 0 0 1
-9.769129 27.116849 3.515922 29.036547 -1.225010 1.449412 0.029603 -0.010144 -162069.000000 0 0 1
-9.832129 28.577849 3.245322 30.395663 -1.239434 1.463823 0.034749 -0.010645 92918.300000 0 0 1
-9.778029 28.719749 1.836822 30.394206 -1.242642 1.510326 0.022864 -0.013518 -99292.700000 0 0 1
-9.495929 30.162749 1.510822 31.658280 -1.265796 1.523055 0.028561 -0.025368 850127.000000 0 0 1
-10.566629 31.109649 1.807522 32.904879 -1.243365 1.515837 0.029036 -0.024686 708011.000000 0 0 1
-10.096529 32.428549 1.620522 34.002600 -1.268962 1.523119 0.022161 -0.019676 -72120.100000 0 0 1
-10.775129 33.514549 2.472222 35.290796 -1.259728 1.500686 0.017264 -0.013115 -108011.000000 0 0 1
-12.049429 33.936749 2.052022 36.070798 -1.229625 1.513877 0.024989 -0.012141 -370916.000000 0 0 1
-12.077929 -34.194994 1.040622 36.280254 1.231267 1.542110 0.020334 -0.010549 -760583.000000 0 0 1
-13.508529 -33.848994 0.660222 36.450934 1.191081 1.552683 0.029208 -0.010684 -63329.700000 0 0 1
-14.254229 34.260449 -0.036678 37.107449 -1.176527 1.571785 0.028231 -0.010858 109593.000000 0 0 1
-14.281229 34.268849 -1.437978 37.153402 -1.175942 1.609510 0.029965 -0.006585 191626.000000 0 0 1
-12.993329 33.803149 -2.203478 36.281328 -1.203826 1.631567 0.028828 -0.007259 369747.000000 0 0 1
-12.673929 32.399549 -2.058778 34.851081 -1.197920 1.629904 0.024077 -0.008496 125304.000000 0 0 1
-11.301029 32.180049 -2.317578 34.185377 -1.233070 1.638643 0.005114 -0.002876 -73349.200000 0 0 1
-10.929929 30.680549 -2.243778 32.646500 -1.228565 1.639580 -0.005613 -0.004049 -630874.000000 0 0 1
-11.028929 29.799249 -3.406778 31.956825 -1.216322 1.677605 -0.012016 -0.000826 354911.000000 0 0 1
-10.087029 30.083549 -4.456278 32.041013 -1.247276 1.710329 -0.011984 0.011554 94324.300000 0 0 1
-10.617629 29.512849 -5.793078 31.895173 -1.225451 1.753439 -0.008212 0.015022 -77849.600000 0 0 1
-10.707629 28.085349 -5.727478 30.598107 -1.206555 1.759091 -0.011395 0.018954 140178.000000 0 0 1
-10.626529 27.448749 -7.030578 30.261956 -1.201424 1.805263 -0.016984 0.015989 -106621.000000 0 0 1
-11.170729 26.005449 -7.025178 29.161990 -1.165075 1.814091 -0.000789 0.015477 17792.800000 0 0 1
-10.300229 25.058249 -6.418178 27.842478 -1.180799 1.803406 -0.014108 0.018909 254785.000000 0 0 1
-10.867129 23.746849 -6.374778 26.882060 -1.141620 1.810216 0.014635 0.011592 162399.000000 0 0 1
-10.090429 22.728449 -5.436578 25.454971 -1.152980 1.786031 0.006846 0.007370 -192251.000000 0 0 1
-8.809329 22.321249 -5.868978 24.703994 -1.194901 1.810662 0.008685 0.003509 289673.000000 0 1 0
-8.205729 21.169949 -5.241478 23.301799 -1.201015 1.797677 0.011370 0.006095 -14865.000000 0 1 0
-8.192229 21.150549 -3.673878 22.977287 -1.201260 1.731377 0.007279 0.001792 -1062610.000000 0 1 0
-9.355629 20.918449 -2.960378 23.105695 -1.150238 1.699273 0.007627 0.000281 -613711.000000 0 1 0
-9.995629 19.637149 -3.016678 22.240292 -1.099962 1.706856 0.017261 -0.002867 878682.000000 0 1 0
-11.376929 19.614749 -2.249378 22.786676 -1.045198 1.669672 0.032262 -0.001450 763877.000000 0 1 0
-11.263829 19.520549 -0.850678 22.553255 -1.047442 1.608524 0.034252 -0.007380 109186.000000 0 1 0
-11.053829 18.179049 -0.371278 21.279164 -1.024476 1.588245 0.041511 -0.010395 -286860.000000 0 1 0
-10.909429 18.086249 1.164522 21.153821 -1.028035 1.515718 0.037230 -0.015192 359787.000000 0 1 0
-12.120729 18.154349 1.924522 21.913381 -0.982114 1.482859 0.052160 -0.015092 488419.000000 0 1 0
-11.887229 18.150349 3.321722 21.949379 -0.990962 1.418877 0.051653 -0.018641 -853888.000000 0 1 0
-13.155829 18.231049 4.139622 22.860084 -0.945709 1.388707 0.042090 -0.012734 -650165.000000 0 1 0
-13.657129 16.974949 4.461322 22.238918 -0.893290 1.368817 0.035440 -0.013015 -744349.000000 0 1 0
-14.921629 17.057949 5.010522 23.210643 -0.852102 1.353212 0.034204 -0.013866 -769672.000000 0 1 0
-15.317629 15.755449 5.703722 22.702343 -0.799487 1.316836 0.017987 -0.012484 55087.900000 0 1 0
-14.398329 15.468049 6.756422 22.186069 -0.821200 1.261347 0.017124 -0.008732 483339.000000 0 1 0
-14.902229 15.955949 7.986322 23.247582 -0.819532 1.220120 0.016949 -0.005988 606029.000000 0 1 0
-13.763829 15.829549 9.120222 22.873479 -0.855089 1.160670 0.009395 -0.004753 1843360.000000 0 1 0
-12.584029 16.603349 8.937622 22.669585 -0.922245 1.165538 0.016432 -0.010267 339999.000000 0 1 0
-11.686129 16.161449 7.916622 21.457655 -0.944743 1.192926 0.017308 -0.007819 -855481.000000 0 1 0
-10.623829 17.208349 7.660122 21.625690 -1.017706 1.208723 0.031490 -0.013322 -277814.000000 0 1 0
-9.571629 17.217949 8.604022 21.496582 -1.063427 1.159006 0.030377 -0.014592 -311868.000000 0 1 0
-8.882129 18.426549 8.542722 22.167725 -1.121629 1.175190 0.028147 -0.017755 -1095560.000000 0 1 0
-7.572429 18.468849 9.253822 22.001666 -1.181690 1.136694 0.018845 -0.014879 -2124390.000000 0 1 0
-6.547129 17.630949 8.814522 20.770437 -1.215236 1.132521 0.009734 -0.012830 -728724.000000 0 1 0
-5.410929 17.850949 9.603122 20.979859 -1.276482 1.095355 0.003662 -0.008703 -32841.400000 0 1 0
-4.502229 19.029749 9.135122 21.583602 -1.338479 1.133774 -0.002894 -0.004013 -1047140.000000 0 1 0
-4.817129 20.385549 9.544922 23.019142 -1.338752 1.143237 0.001497 -0.005594 -86921.300000 0 1 0
-4.324429 21.232149 8.534222 23.288147 -1.369871 1.195593 0.005996 -0.009049 472753.000000 0 1 0
-2.923529 21.916249 8.784022 23.791344 -1.438184 1.192637 0.005994 0.000122 761845.000000 0 1 0
-1.930829 20.907749 8.558722 22.674078 -1.478708 1.183737 -0.001353 0.009209 -919325.000000 0 1 0
-0.759129 21.564949 8.185322 23.078622 -1.535609 1.208234 0.000400 0.001277 -859277.000000 0 1 0
0.401771 20.586749 8.070922 22.115954 1.551283 1.197232 0.008766 0.000140 -235856.000000 0 1 0
0.832171 20.061849 9.321622 22.137365 1.529340 1.136160 0.011573 -0.002110 841817.000000 0 1 0
2.122271 19.395049 9.184422 21.564451 1.461807 1.130834 0.005898 -0.013202 1267400.000000 0 1 0
2.983571 19.397949 10.497622 22.257183 1.418184 1.079634 0.007644 -0.015823 -458082.000000 0 1 0
3.479171 18.128449 10.738922 21.355789 1.381184 1.043895 0.009329 -0.018376 111328.000000 0 1 0
4.375371 18.111149 11.843222 22.077579 1.333754 1.004587 0.008990 -0.015184 683550.000000 0 1 0
5.853771 18.566349 11.726122 22.726150 1.265372 1.028651 0.019504 -0.012733 362097.000000 0 1 0
6.778271 17.725049 11.036622 21.952889 1.205543 1.044029 0.020009 -0.011248 388460.000000 0 1 0
7.583371 16.975949 11.959022 22.106754 1.150680 0.999210 0.021125 -0.006596 -310392.000000 0 1 0
8.776571 16.318549 11.239022 21.671153 1.077346 1.025564 0.022596 -0.007553 -784234.000000 0 1 0
9.753671 17.215149 10.922722 22.600914 1.055317 1.066391 0.023981 -0.013861 -1364640.000000 0 1 0
10.865671 16.616149 10.369022 22.398121 0.991669 1.089485 0.023052 -0.013666 -481638.000000 0 1 0
11.910171 17.562649 9.756922 23.355863 0.974883 1.139828 0.030482 -0.007277 -171910.000000 0 1 0
12.835771 16.987249 8.886022 23.071303 0.923713 1.175421 0.024374 -0.003538 -417498.000000 0 1 0
13.759071 17.950749 8.455022 24.145990 0.916825 1.213052 0.031196 -0.001015 -150371.000000 0 1 0
14.741571 17.384649 7.410722 23.967869 0.867485 1.256451 0.031788 -0.007854 -442372.000000 0 1 0
15.745271 16.632949 7.998922 24.260076 0.812807 1.234794 0.041943 -0.013358 -982306.000000 0 1 0
16.882771 16.532949 7.208622 24.704870 0.774930 1.274699 0.064348 -0.002141 -1011990.000000 0 1 0
18.152671 16.450249 8.025522 25.778657 0.736239 1.254210 0.043195 0.000392 -852097.000000 0 0 1
18.314871 15.259649 8.756222 25.396118 0.694650 1.218786 0.040500 0.004812 599673.000000 0 0 1
19.455471 15.418649 9.610722 26.619843 0.670157 1.201418 0.039598 0.002314 369121.000000 0 0 1
19.692271 14.234649 10.599522 26.509633 0.625901 1.159458 0.027298 0.005309 -32352.600000 0 0 1
20.508271 13.211849 10.071022 26.392567 0.572302 1.179285 0.024963 0.008824 246317.000000 0 0 1
20.593571 12.053949 10.883022 26.226571 0.529560 1.142896 0.030997 0.003511 -604298.000000 0 0 1
21.470871 11.069149 10.172422 26.210733 0.476004 1.172226 0.025089 0.003023 469235.000000 0 0 1
22.889871 11.175649 10.481422 27.544537 0.454192 1.180431 0.012459 0.003547 1509670.000000 0 0 1
23.658071 10.249549 9.789022 27.578661 0.408827 1.207937 0.020949 -0.002033 -562872.000000 0 0 1
23.631371 8.730649 10.190322 27.175514 0.353898 1.186419 0.025467 -0.015415 -847053.000000 0 0 1
22.516471 7.958649 9.821722 25.822428 0.339753 1.180615 0.022714 -0.012387 253576.000000 0 0 1
22.461971 6.616549 10.338122 25.596789 0.286465 1.155038 0.029459 -0.015731 -262169.000000 0 0 1
23.503671 5.759749 9.604822 26.035550 0.240321 1.192958 0.038946 -0.022177 15018.900000 0 0 1
23.188371 5.652749 8.232222 25.247249 0.239111 1.238659 0.031283 -0.019555 -157809.000000 0 0 1
24.315771 5.479349 7.435422 26.010872 0.221639 1.280894 0.040804 -0.019881 -558514.000000 0 0 1
23.956171 5.166149 5.952522 25.219432 0.212397 1.332519 0.042129 -0.026473 -411785.000000 0 0 1
23.339771 3.922849 5.798022 24.367000 0.166519 1.330546 0.049844 -0.024554 311462.000000 0 1 0
23.166071 3.675549 4.424822 23.869553 0.157349 1.384343 0.048828 -0.020888 -404194.000000 0 1 0
22.282071 2.491649 4.051422 22.784052 0.111360 1.392027 0.060179 -0.012764 -484545.000000 0 1 0
22.817471 1.270049 4.481822 23.288124 0.055604 1.377137 0.061941 -0.012900 97843.900000 0 1 0
22.028671 0.162049 4.122322 22.411652 0.007356 1.385806 0.051977 -0.011138 -255704.000000 0 1 0
22.631371 -1.207251 4.532422 23.112318 -0.053294 1.373413 0.050964 -0.008391 -421343.000000 0 1 0
22.334271 -1.484151 5.868222 23.139974 -0.066354 1.314400 0.048469 -0.011290 626678.000000 0 1 0
22.568771 -2.874151 6.107522 23.556570 -0.126669 1.308530 0.044821 -0.010343 -418032.000000 0 1 0
22.179471 -3.297251 7.520822 23.650868 -0.147581 1.247184 0.053772 -0.015568 -219077.000000 0 1 0
22.245371 -4.705051 7.683922 24.000764 -0.208435 1.244905 0.049505 -0.018998 551624.000000 0 1 0
22.029771 -5.034651 9.049022 24.342213 -0.224680 1.189912 0.058770 -0.019299 -142290.000000 0 1 0
21.865571 -6.542051 9.250722 24.626763 -0.290717 1.185712 0.062761 -0.027061 -218296.000000 0 1 0
20.600771 -6.962551 8.816222 23.464753 -0.325922 1.185621 0.062092 -0.025015 -70482.100000 0 1 0
20.351071 -8.273651 9.328122 23.866991 -0.386137 1.169255 0.062068 -0.024166 -305469.000000 0 1 0
-25.579569 -33.148594 5.125022 42.183047 0.913574 1.449001 0.003857 -0.005066 -180486.000000 0 0 1
-26.138059 -34.253594 5.715022 43.464564 0.918980 1.438928 -0.001420 0.002154 -142219.000000 0 0 1
-26.361129 -34.097394 7.131522 43.685238 0.912666 1.406815 -0.001922 0.007837 -421593.000000 0 0 1
-27.096409 33.831449 7.742822 44.031053 -0.895492 1.394028 0.011211 0.005370 -979278.000000 0 0 1
-28.467389 33.841049 7.584122 44.867892 -0.871428 1.400949 0.004389 0.001575 -1089000.000000 0 0 1
-28.990119 32.590449 8.010322 44.347826 -0.843797 1.389175 0.008901 0.004580 -192926.000000 0 0 1
-30.530569 32.575249 8.014122 45.359549 -0.817788 1.393184 0.005860 0.000393 -199893.000000 0 0 1
-30.992329 32.739649 6.724322 45.580978 -0.812808 1.422731 -0.010376 0.008984 -756416.000000 0 0 1
-32.384689 32.752649 6.710122 46.545997 -0.791047 1.426131 -0.013903 0.009283 -691118.000000 0 0 1
-33.019379 32.755249 5.343922 46.816057 -0.781383 1.456400 -0.006639 0.011855 -333931.000000 0 0 1
-32.683999 31.667249 4.505922 45.731409 -0.769599 1.472106 -0.004990 0.009507 182083.000000 0 0 1
-33.542999 31.547449 3.392222 46.172302 -0.754750 1.497261 0.010533 0.007662 24271.300000 0 0 1
-33.223379 30.203849 2.672122 44.980058 -0.737828 1.511355 0.007170 0.004234 -96508.500000 0 0 1
-33.662939 29.042049 3.386622 44.588152 -0.711839 1.494770 0.011911 -0.001880 231032.000000 0 0 1
-33.163479 27.844949 2.889822 43.399408 -0.698441 1.504160 0.006741 -0.005735 -330595.000000 0 0 1
-33.713189 26.626349 3.687022 43.117696 -0.668484 1.485181 0.023236 -0.005053 -894161.000000 0 0 1
-35.043195 26.368949 3.377522 43.985846 -0.645080 1.493934 0.021285 -0.000039 -730239.000000 0 0 1
35.049535 25.433849 4.343222 43.522570 0.627737 1.470838 0.024613 -0.004090 269187.000000 0 0 1
33.591281 25.073849 3.966722 42.104714 0.641218 1.476446 0.028688 0.000540 -859599.000000 0 0 1
33.292831 24.279849 2.832722 41.303123 0.630109 1.502159 0.005326 -0.001679 -232789.000000 0 0 1
33.978511 23.032749 2.798722 41.144618 0.595713 1.502722 0.000716 0.001664 -571589.000000 0 0 1
33.341131 22.022249 1.777222 39.997112 0.583730 1.526348 -0.002072 -0.002722 1039040.000000 0 0 1
31.987441 21.647549 2.131922 38.682785 0.594952 1.515655 -0.006722 -0.001996 1268930.000000 0 0 1
31.675931 20.964749 3.362122 38.133832 0.584661 1.482515 -0.019293 0.005979 -547164.000000 0 0 1
31.998261 19.416849 3.288822 37.572850 0.545411 1.483152 -0.012798 -0.005614 -392711.000000 0 0 1
31.314591 18.747049 2.264622 36.567526 0.539440 1.508827 -0.017269 -0.009189 212704.000000 0 0 1
31.690281 17.387249 2.101122 36.207803 0.501815 1.512734 -0.013121 -0.016250 -367691.000000 0 0 1
31.330411 16.307949 3.140222 35.459905 0.479925 1.482123 -0.005212 -0.011247 -141370.000000 0 0 1
29.925341 16.237749 3.292822 34.205748 0.497151 1.474382 0.006130 -0.007625 241684.000000 0 0 1
29.510541 15.065049 4.054822 33.380673 0.472010 1.449023 0.033900 -0.007091 809297.000000 0 0 1
27.941481 15.013849 4.104022 31.984137 0.493065 1.442127 0.024642 -0.009286 698435.000000 0 0 1
27.348021 14.732349 2.858222 31.194964 0.494125 1.479043 0.030420 -0.018651 49072.200000 0 0 1
25.961491 15.000849 2.875122 30.121268 0.523945 1.475199 0.015834 -0.014762 -199067.000000 0 0 1
25.258931 14.592249 1.597822 29.214728 0.523866 1.516077 0.029426 -0.025453 -677838.000000 0 0 1
25.716891 15.109349 0.382522 29.829469 0.531197 1.557972 0.038569 -0.022544 219152.000000 0 0 1
26.778211 14.397749 -0.224578 30.404246 0.493325 1.578183 0.044452 -0.013934 -178925.000000 0 0 1
27.318681 15.064849 -1.575478 31.236871 0.503955 1.621254 0.053877 -0.011148 151645.000000 0 0 1
27.782021 16.413149 -1.628278 32.309185 0.533615 1.621214 0.035224 -0.012490 972946.000000 0 0 1
28.577741 16.944549 -0.547278 33.228068 0.535203 1.587267 0.015727 -0.015605 -158419.000000 0 0 1
29.190941 18.355649 -0.637278 34.488360 0.561337 1.589275 0.017847 -0.009593 77528.500000 0 0 1
30.241931 18.400849 -1.592778 35.435894 0.546613 1.615760 -0.005262 -0.000953 248389.000000 0 0 1
30.990261 19.588549 -1.658778 36.699578 0.563680 1.616011 -0.013624 0.006320 -159646.000000 0 0 1
30.232701 20.825749 -2.181178 36.776155 0.603202 1.630141 -0.011771 0.007958 -375449.000000 0 0 1
31.102931 21.897149 -2.506078 38.120308 0.613420 1.636585 -0.046895 0.014671 221345.000000 0 0 1
30.522001 22.818949 -3.387778 38.259300 0.641978 1.659460 -0.018765 0.008482 -275237.000000 0 0 1
31.409171 24.097749 -3.496078 39.742422 0.654431 1.658879 -0.028079 0.012261 -1950.590000 0 0 1
31.468541 24.988249 -2.403578 40.254923 0.671115 1.630541 -0.020747 0.010207 261266.000000 0 0 1
32.321011 24.491849 -1.391278 40.576275 0.648455 1.605091 -0.017043 0.020012 -531634.000000 0 0 1
32.222231 25.385349 -0.155978 41.020878 0.667270 1.574599 -0.019032 0.000184 -383358.000000 0 0 1
32.698421 26.708549 -0.243978 42.220763 0.684910 1.576575 -0.003074 0.007470 527042.000000 0 0 1
34.002711 26.802449 0.361022 43.297644 0.667532 1.562458 0.006368 0.003076 683441.000000 0 0 1
34.745271 28.080049 -0.038978 44.673533 0.679702 1.571669 0.005653 0.001511 -447019.000000 0 0 1
35.207529 28.156549 -1.377178 45.102749 0.674577 1.601335 0.004781 -0.002238 -180147.000000 0 0 1
34.282771 28.287449 -2.417378 44.512154 0.689872 1.625131 -0.004446 0.002595 -543121.000000 0 0 1
34.835119 27.597549 -3.687978 44.594970 0.669987 1.653590 -0.002496 0.006213 852588.000000 0 0 1
-34.665901 28.300049 -4.253278 44.952284 -0.684641 1.665556 -0.003926 0.010012 672996.000000 0 0 1
-34.169487 27.746349 -5.468578 44.354471 -0.682028 1.694403 -0.001234 0.005696 -521028.000000 0 0 1
-35.025390 27.820749 -6.718578 45.231751 -0.671257 1.719885 -0.001054 0.008791 -528882.000000 0 0 1
34.559841 26.892249 -6.618478 44.287469 0.661266 1.720802 -0.005622 0.012864 -284643.000000 0 0 1
33.575101 27.053149 -7.629278 43.787740 0.678237 1.745923 -0.006449 0.012474 -602107.000000 0 0 1
32.304731 26.360749 -7.234278 42.318075 0.684423 1.742590 -0.013459 0.012816 -1183000.000000 0 0 1
32.165341 24.973349 -7.569278 41.419455 0.660188 1.754576 -0.013033 0.013161 -229555.000000 0 0 1
33.141571 24.155149 -6.967578 41.597861 0.629825 1.739088 -0.010505 0.013151 -240076.000000 0 0 1
33.007451 22.667649 -7.283778 40.698495 0.601773 1.750735 -0.013665 0.016179 -86368.300000 0 0 1
31.928151 22.101849 -6.589678 39.386830 0.605497 1.738893 -0.029008 0.015631 9430.330000 0 0 1
32.137391 20.695749 -6.604778 38.791094 0.572130 1.741895 -0.000061 0.005811 -293077.000000 0 0 1
31.060021 19.799549 -5.983878 37.316937 0.567510 1.731844 -0.002683 0.004786 -829544.000000 0 0 1
30.034811 19.566549 -6.886378 36.501533 0.577403 1.760594 -0.008942 0.001893 -674612.000000 0 0 1
28.960531 18.934749 -6.204478 35.152989 0.579050 1.748225 0.018511 -0.005559 -280944.000000 0 0 1
27.806721 18.799149 -7.203478 34.329460 0.594481 1.782201 0.015024 -0.009994 -460306.000000 0 0 1
27.937621 17.673349 -8.108578 34.038316 0.564046 1.811328 0.012138 -0.007283 561457.000000 0 0 1
26.763471 17.692249 -8.928678 33.301957 0.584111 1.842230 0.021382 -0.001874 434067.000000 0 0 1
26.698101 16.441649 -9.818178 32.855943 0.551982 1.874258 0.016298 0.003475 -444614.000000 0 0 1
25.772891 16.642349 -10.853578 32.542431 0.573368 1.910832 0.028312 0.001781 -51732.900000 0 0 1
26.055551 15.872749 -11.999578 32.784535 0.547149 1.945518 0.030529 -0.003271 -341130.000000 0 0 1
25.173131 16.245949 -13.193478 32.736604 0.573113 1.985610 0.030971 0.008607 -415887.000000 0 0 1
23.801031 15.961249 -12.999578 31.468072 0.590729 1.996656 0.024826 0.008452 -7335.020000 0 0 1
23.083731 16.073649 -14.195878 31.507837 0.608251 2.038178 0.030843 0.007043 -303979.000000 0 0 1
23.037131 14.777149 -15.045078 31.231841 0.570341 2.073415 0.032288 -0.000311 -616838.000000 0 0 1
24.300731 14.296649 -15.437878 32.144171 0.531788 2.071759 0.032915 -0.002808 25023.200000 0 0 1
24.640831 14.670449 -16.758278 33.214944 0.537009 2.099646 0.038471 -0.003217 232006.000000 0 0 1
26.059391 14.127549 -17.139378 34.240879 0.496780 2.095034 0.043762 0.003829 508191.000000 0 0 1
26.218781 12.722549 -17.261978 33.871280 0.451775 2.105556 0.037923 -0.004567 750861.000000 0 0 1
27.573611 12.328049 -17.537578 34.926372 0.420436 2.096856 0.037691 -0.000046 817233.000000 0 0 1
27.562391 10.904949 -18.107978 34.734740 0.376747 2.119196 0.016307 0.008070 -271380.000000 0 0 1
26.874241 10.784549 -19.344378 34.824363 0.381624 2.159741 0.014812 -0.000547 -38238.700000 0 0 1
26.924011 9.498349 -19.977078 34.845439 0.339152 2.181331 0.002744 0.006011 206893.000000 0 0 1
28.248411 9.038349 -20.669578 36.151015 0.309666 2.179442 0.010113 0.006772 -167366.000000 0 0 1
28.605011 10.011749 -21.669878 37.256749 0.336675 2.191535 0.016899 -0.002289 177704.000000 0 0 1
29.007861 9.519649 -22.944178 38.190509 0.317101 2.215276 0.009366 0.007356 677303.000000 0 0 1
30.492691 8.978549 -22.895878 39.174478 0.286357 2.195010 0.004889 0.006343 644419.000000 0 0 1
31.426541 10.039349 -22.776078 40.089471 0.309208 2.175029 0.010127 0.007047 -166721.000000 0 0 1
32.759481 9.647949 -22.910278 41.123562 0.286411 2.161696 -0.004883 0.009956 -212125.000000 0 0 1
33.829991 10.727449 -22.717778 42.138389 0.307069 2.140192 0.010580 0.005377 -87494.300000 0 0 1
33.944871 11.194649 -21.369678 41.644178 0.318557 2.109646 0.008173 -0.002900 155389.000000 0 0 1
34.969076 12.147949 -21.186678 42.653068 0.334349 2.090613 -0.008057 0.001588 -68401.300000 0 0 1
34.834201 12.925049 -19.841578 42.120858 0.355299 2.061292 -0.011263 0.002579 -122755.000000 0 0 1
35.258558 12.178049 -18.683078 41.719638 0.332564 2.035127 -0.013080 0.000631 384239.000000 0 0 1
35.156260 12.949449 -17.460878 41.334406 0.352919 2.006921 -0.012567 -0.004138 -194295.000000 0 0 1
-35.057103 12.032349 -16.280978 40.482689 -0.330623 1.984684 -0.020089 -0.003513 -491263.000000 0 0 1
34.652088 11.003149 -15.922278 39.690747 0.307463 1.983577 -0.021566 -0.002118 181384.000000 0 0 1
35.149379 9.910749 -15.172878 39.546403 0.274826 1.964566 -0.017304 -0.002335 -142280.000000 0 0 1
34.149311 8.721249 -15.039078 38.319831 0.250041 1.974103 0.030489 0.001489 322300.000000 0 0 1
33.122241 8.886449 -14.060278 37.064042 0.262120 1.959891 0.043486 -0.004280 431950.000000 0 0 1
33.601821 8.645349 -12.756978 36.967079 0.251826 1.923131 0.041342 -0.004741 -296029.000000 0 0 1
32.720651 9.078649 -11.535578 35.862688 0.270651 1.898278 0.046907 0.000004 -135233.000000 0 0 1
32.461311 10.466549 -11.551578 36.010058 0.311907 1.897357 0.035847 -0.000860 137845.000000 0 0 1
31.455801 10.951649 -10.679178 34.977862 0.335035 1.881063 0.022503 0.007315 -432093.000000 0 0 1
31.419911 10.567349 -9.147678 34.388365 0.324442 1.840049 0.026013 0.003762 -718933.000000 0 0 1
32.479631 10.929249 -8.301978 35.260427 0.324594 1.808475 0.023589 0.007484 -121859.000000 0 0 1
32.586641 12.303049 -8.084078 35.757607 0.361003 1.798848 0.026890 0.001862 -306226.000000 0 0 1
32.742011 12.686249 -6.584778 35.725894 0.369650 1.756170 0.030351 -0.003776 -1089160.000000 0 0 1
33.991901 12.482649 -6.052578 36.713751 0.351936 1.736411 0.033280 -0.003187 -830913.000000 0 0 1
33.982181 12.787149 -4.677278 36.608424 0.359901 1.698912 0.033742 -0.005962 -1067470.000000 0 0 1
-35.298242 12.856349 -4.060478 37.785435 -0.349287 1.678466 0.023087 -0.006075 -1498410.000000 0 0 1
-34.625580 14.065949 -4.258578 37.615385 -0.385865 1.684253 0.024592 -0.007225 -89223.300000 0 0 1
-33.365349 13.948349 -3.613778 36.343670 -0.395968 1.670394 0.015735 -0.016481 551598.000000 0 0 1
-32.510549 15.262449 -3.555378 36.090426 -0.438920 1.669469 0.020208 -0.018582 320507.000000 0 0 1
-32.972249 16.051549 -2.526978 36.758768 -0.453048 1.639595 0.029376 -0.018714 226923.000000 0 0 1
-32.160899 17.190549 -2.408978 36.546430 -0.490878 1.636760 0.019155 -0.009514 -139967.000000 0 0 1
-32.728759 18.145749 -1.344578 37.446599 -0.506237 1.606711 0.015368 -0.007348 662598.000000 0 0 1
-33.897069 18.894649 -1.741378 38.846511 -0.508516 1.615638 0.001397 -0.003814 723087.000000 0 0 1
-34.520250 19.474849 -0.637078 39.639920 -0.513647 1.586869 -0.016261 0.008944 -286636.000000 0 0 1
34.730809 20.089949 -0.872378 40.132234 0.524421 1.592536 -0.021974 0.012716 -267272.000000 0 0 1
34.689629 21.328649 -1.651978 40.755498 0.551261 1.611341 0.004018 0.011156 -51655.000000 0 0 1
34.712003 21.122549 -3.068278 40.749227 0.546652 1.646164 -0.012333 0.017455 -104849.000000 0 0 1
34.949375 22.430949 -3.855978 41.707012 0.570598 1.663382 0.013610 -0.011104 222405.000000 0 0 1
-34.302533 22.726849 -3.873878 41.330139 -0.585141 1.664664 0.025048 -0.004524 220093.000000 0 0 1
-34.017339 23.922049 -4.614978 41.841867 -0.612891 1.681317 0.026995 -0.012333 -194277.000000 0 0 1
-32.517769 24.100949 -4.839378 40.763717 -0.637821 1.689795 0.020481 -0.018082 -70878.300000 0 0 1
-31.855289 23.148049 -5.644978 39.780113 -0.628397 1.713181 0.008712 -0.014241 201143.000000 0 0 1
-30.567659 23.534649 -6.108578 39.058625 -0.656128 1.727836 0.013793 -0.000671 289779.000000 0 0 1
-29.908469 22.524949 -7.031078 38.096272 -0.645501 1.756421 0.015030 -0.019798 -273856.000000 0 0 1
-30.569889 22.403049 -8.285278 38.795110 -0.632432 1.786019 0.020728 -0.033519 83047.100000 0 0 1
-29.725739 22.866649 -9.352878 38.652031 -0.655710 1.815199 0.010252 -0.035947 264455.000000 0 0 1
-30.289569 22.608449 -10.760078 39.298591 -0.641200 1.848141 0.003189 -0.013285 -185002.000000 0 0 1
-31.100119 23.656649 -11.214178 40.652334 -0.650289 1.850276 -0.001143 -0.009287 -92892.400000 0 0 1
-31.554709 23.293149 -12.541278 41.177107 -0.635895 1.880282 -0.023438 0.002709 41454.700000 0 0 1
-32.232369 24.518049 -13.277678 42.618741 -0.650292 1.887615 0.018882 0.005834 98941.700000 0 0 1
-31.449349 25.684649 -13.363678 42.747522 -0.684841 1.888745 0.017190 -0.000656 103642.000000 0 0 1
-30.675369 25.896249 -14.596478 42.715936 -0.701119 1.919533 0.005113 -0.000818 318922.000000 0 0 1
-29.424819 26.774149 -14.370278 42.298699 -0.738267 1.917430 -0.002185 0.006443 240034.000000 0 0 1
-28.331689 26.211749 -13.643078 40.937440 -0.746551 1.910562 0.015637 -0.001017 532725.000000 0 0 1
-28.543309 25.920249 -12.269778 40.461429 -0.737274 1.878894 0.023878 -0.002694 -767661.000000 0 0 1
-28.697949 27.051349 -11.224978 41.004242 -0.755871 1.848088 0.024181 0.006233 24584.500000 0 0 1
-27.461879 27.677149 -10.896978 40.483620 -0.789302 1.843327 0.018483 0.006696 330217.000000 0 0 1
-27.786119 28.734849 -10.064478 41.219579 -0.802182 1.817457 0.018033 0.003956 -344740.000000 0 0 1
-26.633679 29.682349 -9.817378 41.070374 -0.839480 1.812171 0.023706 -0.002319 -500285.000000 0 0 1
-26.951579 30.871849 -9.183678 41.997603 -0.853092 1.791249 0.023507 0.002589 242148.000000 0 0 1
-25.826949 31.764549 -9.054178 41.928463 -0.888134 1.788454 0.031944 0.002335 365229.000000 0 0 1
33.400281 -25.007321 34.350484 54.045357 -0.642679 0.882029 0.007430 -0.004190 -221240.000000 0 0 1
33.134091 -23.680151 -34.362800 53.286204 -0.620508 2.271653 0.007951 -0.011380 -378367.000000 0 0 1
32.195871 -23.641251 -33.343628 52.031532 -0.633374 2.266382 0.007635 -0.006747 -432627.000000 0 0 1
31.740431 -22.181551 -33.094468 50.938394 -0.609948 2.277981 0.003632 -0.000453 72003.300000 0 0 1
31.174571 -21.639751 -34.266982 51.130800 -0.606787 2.305251 0.000832 -0.003044 -70849.500000 0 0 1
30.910921 -20.246951 -34.087148 50.272833 -0.579889 2.315893 0.004596 -0.001879 231798.000000 0 0 1
30.630721 -19.431751 33.735104 49.536766 -0.565322 0.821653 0.003405 -0.001882 -84781.900000 0 0 1
31.779081 -19.407951 32.925205 49.705610 -0.548261 0.846773 0.001009 -0.004979 -53183.100000 0 0 1
31.573561 -18.890451 31.660305 48.539816 -0.539168 0.860242 -0.000466 -0.005630 -34103.600000 0 0 1
32.869941 -18.971351 30.808525 48.882618 -0.523459 0.888914 -0.000392 -0.003972 498221.000000 0 0 1
33.822001 -17.951051 31.138365 49.353477 -0.487944 0.888051 -0.007664 -0.010362 675973.000000 0 0 1
34.693046 -17.677751 30.022965 49.167964 -0.471256 0.913952 -0.003592 -0.009618 -24303.600000 0 0 1
-34.970889 -16.538751 30.428265 49.217605 0.441757 0.904296 -0.000372 -0.017868 -732108.000000 0 0 1
-33.984019 -16.347251 29.417845 47.828399 0.448355 0.908321 0.012057 -0.017254 55432.000000 0 0 1
-32.955809 -15.491551 29.759075 47.028460 0.439419 0.885647 0.008925 -0.017253 -499797.000000 0 0 1
-31.926399 -15.953851 30.786685 47.134279 0.463413 0.859033 0.022230 -0.024777 -998366.000000 0 0 1
-30.982229 -14.953651 31.132395 46.397588 0.449674 0.835251 0.018195 -0.022508 456139.000000 0 0 1
-29.844739 -15.511851 31.785835 46.278129 0.479324 0.813659 0.022107 -0.024061 245870.000000 0 0 1
-28.838619 -14.470951 32.275775 45.637704 0.465079 0.785242 0.032818 -0.024888 -140537.000000 0 0 1
-29.325469 -13.730751 33.399273 46.519115 0.437901 0.769917 0.020357 -0.018446 298795.000000 0 0 1
-28.331359 -12.871251 33.896037 46.013871 0.426433 0.742696 0.022806 -0.017393 -246356.000000 0 0 1
-28.677479 -12.427751 -33.693948 45.957904 0.408933 2.393736 0.019544 -0.010887 -151659.000000 0 0 1
-28.469029 -13.458151 -32.722198 45.413100 0.441594 2.375385 0.020093 -0.006587 230130.000000 0 0 1
-28.609189 -12.895851 -31.476298 44.447115 0.423485 2.357705 0.026398 0.005506 -569059.000000 0 0 1
-28.675289 -13.878251 -30.288318 43.957482 0.450749 2.330955 0.027581 0.005934 468088.000000 0 0 1
-29.897749 -14.638551 -30.285158 45.003926 0.455310 2.308979 0.018864 0.008669 645971.000000 0 0 1
-30.092139 -15.356851 -29.055618 44.560057 0.471876 2.281088 0.023157 0.009683 516936.000000 0 0 1
-31.326019 -16.299751 -29.049108 45.725835 0.479776 2.259179 0.018963 0.002515 270158.000000 0 0 1
-31.047099 -17.499051 -29.659428 46.366160 0.513247 2.264876 0.017341 -0.000132 46991.600000 0 0 1
-32.222739 -18.241951 -29.885588 47.583842 0.515135 2.249856 0.013297 -0.003748 -191185.000000 0 0 1
-32.040239 -19.537251 -30.660608 48.459818 0.547574 2.255833 0.006374 -0.004291 -125137.000000 0 0 1
-33.215929 -20.310351 -30.728318 49.598768 0.548806 2.238950 0.008394 -0.008375 -150067.000000 0 0 1
-32.887969 -21.640351 -31.212978 50.241151 0.581980 2.241150 0.004600 -0.005396 251096.000000 0 0 1
-34.128152 -22.566451 -31.415688 51.584115 0.584227 2.225619 0.004579 -0.008021 209370.000000 0 0 1
-34.869019 -22.756051 -30.197638 51.435238 0.578211 2.198268 0.008035 -0.009287 -192836.000000 0 0 1
34.624782 -23.539651 -30.396748 51.739279 -0.597074 2.198760 0.019656 -0.010314 -323374.000000 0 0 1
34.779672 -25.079551 -30.724688 52.750506 -0.624746 2.192539 0.009786 -0.003628 -418042.000000 0 0 1
-35.310825 -25.394361 -31.977738 53.984291 0.623474 2.204772 0.012046 0.000107 -373082.000000 0 0 1
-34.655816 -26.625911 -31.974408 54.150969 0.655108 2.202435 0.002621 0.009926 27660.600000 0 0 1
-34.628668 -27.345561 -33.352918 55.311314 0.668416 2.218057 0.000578 0.009448 419920.000000 0 0 1
34.727424 -27.893721 -33.641278 55.819255 -0.676701 2.217655 0.007949 0.002660 62922.700000 0 0 1
34.753688 -29.153901 -34.365147 56.909859 -0.697998 2.219122 0.006043 0.004691 -95043.500000 0 0 1
-35.273346 -30.332161 -33.537518 57.349926 0.710223 2.195414 -0.002097 0.000935 -16100.600000 0 0 1
34.721248 -30.749031 -32.350578 56.547572 -0.724800 2.179854 0.016762 -0.004470 -277656.000000 0 0 1
-35.093729 -31.635251 -31.638328 56.862490 0.733616 2.160844 0.004589 -0.005092 -226768.000000 0 0 1
34.944649 -32.180051 -30.354438 56.374427 -0.744235 2.139385 0.005774 -0.002555 -449840.000000 0 0 1
34.120271 -33.258581 -30.644158 56.651483 -0.772610 2.142332 0.017775 -0.001251 -32877.900000 0 0 1
33.434591 -33.620561 -29.443458 55.813360 -0.788172 2.126492 0.018933 -0.005660 613443.000000 0 0 1
32.303951 34.407381 -29.511898 55.662961 0.816918 2.129620 0.015771 -0.007813 283205.000000 0 0 1
31.109321 -34.270672 -30.064748 55.192009 -0.833714 2.146864 0.024970 -0.009354 -1221480.000000 0 0 1
30.029151 34.153001 -29.590148 54.256375 0.849562 2.147634 0.014850 -0.004314 -592833.000000 0 0 1
28.729361 34.536784 -30.309878 54.192752 0.876935 2.164335 -0.007763 0.002754 -391261.000000 0 0 1
28.803541 34.049012 -31.632268 54.677048 0.868662 2.187721 0.004046 0.001477 -52594.300000 0 0 1
27.626401 34.480917 -32.264598 54.709743 0.895319 2.201535 -0.003720 0.010412 -106212.000000 0 0 1
27.490841 33.893042 -33.727918 55.154847 0.889320 2.228768 -0.003712 0.000863 5217.450000 0 0 1
27.472251 32.473781 -33.812818 54.337627 0.868639 2.242439 -0.014587 0.006647 33191.600000 0 0 1
27.214911 31.999011 33.970060 54.023634 0.866017 0.890787 -0.009180 0.004241 -100708.000000 0 0 1
27.008731 30.423971 34.002372 53.021231 0.844793 0.874609 -0.002167 -0.002460 -105064.000000 0 0 1
28.193271 29.711921 34.363502 53.465026 0.811619 0.872742 -0.004472 0.001581 192721.000000 0 0 1
27.918091 28.330271 -34.400480 52.587233 0.792726 2.283868 -0.013541 0.000664 688170.000000 0 0 1
29.254881 27.522591 -34.207167 52.758614 0.754897 2.276239 -0.000966 -0.004735 565171.000000 0 0 1
29.934311 27.917821 -33.059268 52.615425 0.750556 2.250187 0.003487 0.003182 -552163.000000 0 0 1
31.053021 27.058111 -32.915878 52.724629 0.716760 2.245029 0.002140 0.001213 64497.000000 0 0 1
31.576341 27.303041 -31.445978 52.262519 0.712948 2.216415 0.013642 0.003773 -371071.000000 0 0 1
32.463591 28.371841 -31.230428 53.237071 0.718240 2.197687 0.001308 0.007093 -20831.200000 0 0 1
31.952871 29.691311 -31.477928 53.790518 0.748727 2.195917 0.016492 0.004790 456695.000000 0 0 1
31.020351 30.254921 -30.309398 52.879883 0.772907 2.181171 0.011952 0.012006 426359.000000 0 0 1
31.674451 30.368481 -29.056558 52.628880 0.764352 2.155681 0.001020 0.014426 -43086.300000 0 0 1
30.857581 30.794021 -27.970178 51.795684 0.784367 2.141245 0.006996 0.015020 -22861.100000 0 0 1
31.684061 31.180271 -26.683478 51.846861 0.777384 2.111407 0.009863 0.013739 -70240.300000 0 0 1
32.171201 32.467461 -26.830618 53.000040 0.789981 2.101613 0.005708 0.007684 -21252.400000 0 0 1
32.309581 33.096291 -25.595098 52.861920 0.797426 2.076231 -0.009829 0.012304 -102051.000000 0 0 1
32.515201 -34.490151 -25.734318 53.935739 -0.814864 2.068182 -0.009257 0.005371 -29889.400000 0 0 1
31.304391 -33.781771 -25.584778 52.685423 -0.823443 2.077862 0.001886 0.008458 53810.200000 0 0 1
31.463281 -32.418491 -25.180498 51.719958 -0.800350 2.079290 0.006531 -0.006806 -965405.000000 0 0 1
31.989971 -31.433241 -26.236558 51.959252 -0.776620 2.100114 0.011201 -0.012513 -78679.100000 0 0 1
33.298371 -31.678891 -26.699368 53.152515 -0.760480 2.097072 0.018723 -0.016263 186697.000000 0 0 1
34.283801 -31.062471 -25.863968 53.001896 -0.736142 2.080573 0.021638 -0.011940 -526579.000000 0 0 1
-34.886879 -31.337221 -26.246478 53.740054 0.731849 2.081048 0.010456 -0.007026 -338531.000000 0 0 1
-34.478370 -32.723011 -25.961888 54.162469 0.759283 2.070691 0.007469 -0.009416 101454.000000 0 0 1
-34.427046 -33.144071 -24.616878 53.756317 0.766413 2.046467 0.005346 -0.004649 -546119.000000 0 0 1
-33.361339 -32.491941 -23.738078 52.270465 0.772197 2.042202 -0.005145 0.001159 -122145.000000 0 0 1
-33.830149 -31.253801 -23.223778 51.581227 0.745834 2.037827 -0.054030 0.011593 76921.500000 0 0 1
-32.929629 -30.797991 -22.220978 50.265779 0.751961 2.028701 -0.009886 0.012133 -120993.000000 0 0 1
-32.214689 -29.503991 -22.585178 49.176844 0.741506 2.047963 0.006076 0.008083 331538.000000 0 0 1
-33.161329 -28.463461 -22.865278 49.322037 0.709312 2.052841 -0.005293 0.010819 273788.000000 0 0 1
-33.676059 -28.317441 -24.189078 50.210217 0.699174 2.073454 0.002126 0.011528 -47966.100000 0 0 1
-34.936037 -27.446591 -24.333678 50.655404 0.665913 2.071881 0.007029 0.006762 -220879.000000 0 0 1
-34.876740 -26.125101 -23.798278 49.651444 0.642905 2.070661 0.006813 0.002155 -166689.000000 0 0 1
34.694256 -25.248061 -24.186078 49.255683 -0.629095 2.084069 0.010913 -0.000206 222840.000000 0 0 1
34.901554 -24.602351 -25.563028 49.768087 -0.614012 2.110222 0.016423 0.004562 202471.000000 0 0 1
-34.693428 -23.621751 -25.613018 49.169582 0.597772 2.118715 0.013774 -0.000295 230914.000000 0 0 1
-34.466515 -23.148751 -26.934738 49.490256 0.591431 2.146283 0.024276 -0.007046 -42350.400000 0 0 1
-33.152289 -22.347251 -27.047788 48.270661 0.593116 2.165588 0.024651 -0.014028 -303424.000000 0 0 1
-33.025469 -21.120151 -26.317618 47.216093 0.568966 2.162031 0.032654 -0.008876 -143951.000000 0 0 1
-33.831089 -20.027751 -26.727638 47.539668 0.534511 2.167861 0.038629 -0.003585 -1013550.000000 0 0 1
-35.082418 -19.878351 -25.938278 47.944960 0.515513 2.142423 0.043037 -0.007234 -1157460.000000 0 0 1
-34.893764 -19.318451 -24.632378 46.877835 0.505631 2.124051 0.045207 -0.016675 -131371.000000 0 0 1
-34.184758 -19.967551 -23.566878 46.072752 0.528651 2.107743 0.031933 -0.015265 136265.000000 0 0 1
-34.749707 -21.329051 -22.954178 46.790649 0.550498 2.083542 0.036239 -0.013010 721934.000000 0 0 1
34.723394 -21.035451 -22.173878 46.258893 -0.544674 2.070702 0.036040 -0.008011 451681.000000 0 0 1
34.096401 -22.205351 -21.647778 46.089787 -0.577255 2.059733 0.023722 0.003530 -51582.900000 0 0 1
33.139751 -21.841551 -20.493378 44.668501 -0.582728 2.047427 0.021987 -0.002110 -637572.000000 0 0 1
31.912891 -21.402851 -20.972978 43.776483 -0.590765 2.070417 0.016046 0.001481 -681499.000000 0 0 1
30.912831 -21.578751 -19.981278 42.667283 -0.609417 2.058167 0.008872 0.007961 286153.000000 0 0 1
29.473891 -21.268551 -20.463278 41.710997 -0.625080 2.083571 0.003109 0.014455 -452038.000000 0 0 1
29.044831 -22.128051 -21.543478 42.395451 -0.651047 2.103838 0.000309 0.018593 293692.000000 0 0 1
27.850001 -21.681851 -22.157978 41.673747 -0.661507 2.131404 0.002483 0.018034 -109630.000000 0 0 1
28.009881 -20.401251 -23.030578 41.607355 -0.629506 2.157383 0.003967 0.017779 -494353.000000 0 0 1
28.144121 -19.251051 -22.207578 40.692395 -0.599918 2.148072 -0.000249 0.017934 -29607.800000 0 0 1
28.227841 -18.085051 -22.975678 40.641873 -0.569796 2.171618 0.004390 0.018635 -638970.000000 0 0 1
28.917721 -16.917451 -22.315078 40.254160 -0.529332 2.158384 0.009461 0.015484 -656223.000000 0 0 1
28.332931 -16.287551 -21.165878 38.936277 -0.521731 2.145520 -0.006497 0.008271 -598779.000000 0 0 1
29.137391 -15.628451 -20.260078 38.777658 -0.492319 2.120539 -0.010373 0.000416 -922808.000000 0 0 1
30.008741 -16.487951 -19.323178 39.316183 -0.502412 2.084586 0.009327 -0.007186 106543.000000 0 0 1
31.167421 -16.969751 -19.993278 40.732195 -0.498588 2.083858 0.017289 -0.004436 168345.000000 0 0 1
31.803151 -17.895151 -19.099478 41.188189 -0.512530 2.052977 0.025435 -0.008812 378527.000000 0 0 1
33.189031 -18.354751 -19.651878 42.715395 -0.505172 2.048865 0.039857 -0.012546 664899.000000 0 0 1
34.179141 -17.336451 -19.835378 43.153313 -0.469409 2.048396 0.038019 -0.019342 212846.000000 0 0 1
35.251036 -17.902351 -20.526778 44.547484 -0.469910 2.049675 0.035975 -0.021747 -928768.000000 0 0 1
-34.337989 -17.001751 -21.067778 43.726517 0.459744 2.073513 0.035799 -0.021062 -115862.000000 0 0 1
-33.370459 -16.392651 -20.186678 42.306129 0.456609 2.068213 0.040249 -0.027850 556836.000000 0 0 1
-32.641339 -15.396051 -20.902078 41.706022 0.440731 2.095754 0.035670 -0.015422 151147.000000 0 0 1
-31.236179 -15.024751 -20.316278 40.177023 0.448336 2.100954 0.034927 -0.014557 1196260.000000 0 0 1
-30.167879 -15.989251 -20.385578 39.765926 0.487366 2.109052 0.024930 -0.017717 840793.000000 0 0 1
-30.361939 -17.138051 -19.609278 40.001049 0.513876 2.083137 0.036495 -0.021838 -610608.000000 0 0 1
-29.277569 -18.181851 -19.919478 39.806298 0.555730 2.094869 0.020701 -0.027639 196639.000000 0 0 1
-29.701169 -19.463851 -19.487878 40.506522 0.580108 2.072711 0.019520 -0.028478 346272.000000 0 0 1
-28.635259 -20.378151 -19.705778 40.293483 0.618499 2.081804 0.010628 -0.027610 121070.000000 0 0 1
-28.984959 -21.821651 -19.401678 41.142890 0.645330 2.061865 0.010919 -0.008361 4079.470000 0 0 1
-30.044439 -22.285651 -20.238378 42.531289 0.638204 2.066723 0.026874 -0.011454 270680.000000 0 0 1
-30.355949 -23.587751 -19.822078 43.252519 0.660583 2.046864 0.024586 -0.003066 -358239.000000 0 0 1
-31.491909 -24.097651 -20.708878 44.735833 0.653159 2.052077 0.018335 -0.000530 -538438.000000 0 0 1
-31.194189 -24.062551 -22.084578 45.164282 0.657044 2.081720 0.020077 0.001333 145844.000000 0 0 1
-32.030319 -24.861251 -22.928878 46.580646 0.660046 2.085458 0.019705 0.002881 -133025.000000 0 0 1
-31.530709 -24.913351 -24.347478 46.985746 0.668693 2.115528 0.016125 0.010457 368176.000000 0 0 1
-30.304539 -25.634861 -24.469478 46.629031 0.702114 2.123240 0.030125 0.005881 70146.700000 0 0 1
-30.072969 -25.858961 -25.848888 47.341677 0.710199 2.148387 0.023498 0.013351 -822934.000000 0 0 1
-28.722409 -26.399901 -26.217558 47.003105 0.743289 2.162509 0.027418 0.002708 -563247.000000 0 0 1
-27.669369 -25.441211 -26.297318 45.873719 0.743470 2.181269 0.026318 -0.000487 681231.000000 0 0 1
-26.410009 -25.996811 -26.678998 45.662804 0.777514 2.194766 0.030865 -0.003252 368467.000000 0 0 1
-25.317179 -24.992401 -26.965088 44.639620 0.778943 2.219384 0.029092 -0.011710 -533014.000000 0 0 1
-25.452929 -24.422651 -28.247588 45.191191 0.764744 2.246016 0.035279 -0.017895 293520.000000 0 0 1
-24.679329 -23.196051 -28.263918 44.113208 0.754426 2.266223 0.039044 -0.011146 416244.000000 0 0 1
-24.846929 -22.472451 -29.611338 44.712552 0.735260 2.294627 0.027294 -0.015437 113208.000000 0 0 1
-24.005729 -23.133551 -30.553618 45.221232 0.766898 2.312639 0.032785 -0.008321 351700.000000 0 0 1
-24.084329 -22.546251 -31.826108 45.839824 0.752426 2.338229 0.029107 -0.007723 -254784.000000 0 0 1
-23.349829 -23.457951 -32.838498 46.624639 0.787708 2.352256 0.022950 -0.013746 201343.000000 0 0 1
-23.992929 -24.712251 -32.989208 47.693226 0.800166 2.334631 0.024950 -0.012159 491906.000000 0 0 1
-23.236829 -25.521011 -33.914578 48.388747 0.832211 2.347423 0.037657 -0.003238 465526.000000 0 0 1
-19.776929 -14.573951 -12.255078 27.453851 0.635075 2.033521 -0.036876 0.024186 -98068.400000 0 0 1
-20.038329 -14.151051 -10.891778 26.840598 0.614874 1.988645 -0.037795 0.025791 -22172.500000 0 0 1
-19.122329 -14.717951 -9.980078 26.112899 0.655974 1.962961 -0.042440 0.018438 -347346.000000 0 0 1
-19.186029 -14.174851 -8.548178 25.339721 0.636302 1.914889 -0.030255 0.007308 -113486.000000 0 0 1
-20.336929 -14.625451 -7.858878 26.253694 0.623468 1.874801 -0.018705 0.002001 348027.000000 0 0 1
-20.504429 -14.075951 -6.559978 25.721534 0.601597 1.828684 -0.016368 -0.005975 -138795.000000 0 0 1
-21.754029 -14.691451 -5.887378 26.902374 0.593986 1.791424 -0.002212 -0.009564 -403534.000000 0 0 1
-21.618229 -16.028051 -5.338278 27.436171 0.637983 1.766616 -0.012024 -0.007891 599272.000000 0 0 1
-21.029529 -16.079151 -4.016078 26.775158 0.652779 1.721357 -0.000320 -0.009325 -168152.000000 0 0 1
-20.738329 -17.414751 -3.337878 27.285404 0.698506 1.693436 -0.013612 0.005378 40650.700000 0 0 1
-21.891229 -18.179251 -3.030678 28.616361 0.693026 1.676902 0.002136 0.003563 194885.000000 0 0 1
-21.537329 -19.310351 -2.237378 29.012964 0.730933 1.647989 -0.012048 0.007472 -120497.000000 0 0 1
-22.688629 -20.207451 -1.712478 30.431029 0.727621 1.627100 0.003005 -0.000259 72128.100000 0 0 1
-23.170929 -21.092351 -2.702578 31.449692 0.738473 1.656836 -0.010349 0.004050 95657.400000 0 0 1
-24.121629 -22.054351 -2.304878 32.765223 0.740658 1.641200 0.002768 0.004372 9141.480000 0 0 1
-24.484329 -23.070151 -3.398178 33.812155 0.755669 1.671468 0.004870 -0.000414 152850.000000 0 0 1
-23.554729 -24.156551 -3.529678 33.923780 0.798011 1.675032 0.004248 0.003091 127114.000000 0 0 1
-23.583129 -24.658651 -4.802878 34.456940 0.807689 1.710640 0.003771 0.005364 1075910.000000 0 0 1
-22.155629 -24.723051 -5.529978 33.655339 0.840111 1.735857 0.006995 0.012019 1683070.000000 0 0 1
-21.737929 -23.496451 -6.187978 32.602329 0.824254 1.761757 -0.006476 0.017871 307431.000000 0 0 1
-21.301129 -22.452351 -5.296078 31.398959 0.811704 1.740277 -0.012916 0.015410 -478848.000000 0 0 1
-21.336929 -21.001151 -5.876378 30.509748 0.777467 1.764614 -0.003411 0.023979 -190838.000000 0 0 1
-20.301329 -20.792251 -6.808278 29.846513 0.797344 1.800932 -0.025195 0.026883 104912.000000 0 0 1
-20.225429 -19.429651 -7.207278 28.957282 0.765333 1.822334 -0.033566 0.029122 76201.600000 0 0 1
-18.940329 -19.216451 -8.037578 28.153343 0.792635 1.860317 -0.026817 0.020137 -62326.600000 0 0 1
-18.955829 -19.778151 -9.350178 28.946926 0.806625 1.899706 -0.039130 0.020638 -674.546000 0 0 1
-17.760129 -19.600651 -10.098478 28.312311 0.834622 1.935510 0.017724 0.014387 152329.000000 0 0 1
-17.451329 -18.182951 -10.703078 27.381097 0.805927 1.972398 0.013113 0.017426 -9040.290000 0 0 1
-16.988129 -17.178351 -9.821778 26.079870 0.790966 1.956924 0.003529 0.008195 -78184.400000 0 0 1
-15.633829 -17.266451 -9.447478 25.135668 0.834981 1.956120 0.033269 -0.000929 -554107.000000 0 0 1
-15.354529 -16.203151 -8.407278 23.853427 0.812283 1.930990 0.016414 -0.000301 -163918.000000 0 1 0
-15.870329 -16.391451 -7.119978 23.900651 0.801550 1.873287 -0.019220 0.002414 -32938.600000 0 1 0
-16.038329 -15.136251 -6.490978 22.988408 0.756470 1.857048 -0.012125 -0.001112 -9073.250000 0 1 0
-16.727129 -15.345651 -5.099078 23.265564 0.742352 1.791758 -0.013052 -0.000947 65006.800000 0 1 0
-17.034029 -14.163151 -4.450278 22.595530 0.693633 1.769046 -0.017919 -0.000895 -19845.200000 0 1 0
-17.403229 -14.527851 -3.123478 22.884208 0.695591 1.707714 -0.018537 -0.002682 -387435.000000 0 1 0
-18.187429 -13.464351 -2.377878 22.753585 0.637271 1.675493 -0.017925 0.002073 553009.000000 0 1 0
-19.523029 -13.289351 -2.899278 23.794145 0.597656 1.692948 -0.006577 -0.006389 1415090.000000 0 1 0
-20.216729 -12.189951 -2.267078 23.716043 0.542596 1.666535 -0.006275 -0.007680 188735.000000 0 1 0
-21.750529 -12.255251 -2.468078 25.087210 0.513108 1.669336 -0.002683 -0.009043 -37506.000000 0 0 1
-22.156729 -11.722451 -3.724278 25.341798 0.486632 1.718292 0.000599 -0.008991 -191758.000000 0 0 1
-23.510529 -12.006251 -3.921378 26.688429 0.472151 1.718262 -0.001358 -0.009197 -847116.000000 0 0 1
-24.057629 -11.344351 -5.160878 27.094252 0.440629 1.762446 0.004298 -0.014633 -456533.000000 0 0 1
-23.435129 -11.741551 -6.339378 26.967703 0.464466 1.808090 0.007005 -0.021096 88336.300000 0 0 1
-24.022829 -11.184251 -7.477078 27.533443 0.435724 1.845814 0.007805 -0.023635 -355774.000000 0 0 1
-23.212029 -11.620751 -8.702078 27.378209 0.464155 1.894254 0.010898 -0.020997 428173.000000 0 0 1
-22.028029 -10.818951 -8.801778 26.072113 0.456538 1.915156 0.004468 -0.018065 663430.000000 0 0 1
-21.318429 -11.186351 -10.003778 26.070778 0.483233 1.964613 -0.011437 -0.007587 201797.000000 0 0 1
-20.013529 -10.362751 -10.172678 24.726733 0.477776 1.994790 -0.011401 -0.004025 -183100.000000 0 1 0
-20.234429 -9.048751 -10.633978 24.584416 0.420519 2.018115 -0.003958 -0.010682 761339.000000 0 1 0
-19.092829 -8.251951 -10.330578 23.223946 0.407955 2.031775 -0.003711 -0.003458 255402.000000 0 1 0
-19.087729 -6.890151 -11.100178 23.130705 0.346417 2.071325 -0.007507 -0.008249 -83107.700000 0 1 0
-18.851529 -7.115051 -12.476778 23.699664 0.360896 2.125220 0.021405 -0.002352 218786.000000 0 1 0
-18.456129 -5.974851 -13.160978 23.442246 0.313085 2.166899 0.013006 -0.002311 -654953.000000 0 1 0
-17.797729 -6.201751 -14.470478 23.761642 0.335300 2.225576 0.024031 -0.002272 -934524.000000 0 1 0
-18.581229 -6.848251 -15.410178 25.092513 0.353111 2.232085 0.030039 -0.011628 -264493.000000 0 0 1
-18.166629 -6.708851 -16.707178 25.576647 0.353760 2.282626 0.048418 -0.017209 -265366.000000 0 0 1
-19.046529 -7.508451 -17.702178 27.065000 0.375510 2.283738 0.028689 -0.017228 -696461.000000 0 0 1
-20.285929 -7.040651 -18.106378 28.087909 0.334063 2.271339 0.029214 -0.027249 -254363.000000 0 0 1
-20.712729 -7.842251 -19.201078 29.312104 0.361940 2.285053 0.033984 -0.026403 365252.000000 0 0 1
-22.238629 -7.695551 -19.514078 30.570858 0.333146 2.263114 0.029937 -0.022968 137830.000000 0 0 1
-22.610529 -6.433051 -20.033878 30.886509 0.277191 2.276578 0.032263 -0.025156 1409910.000000 0 0 1
-24.021829 -6.299951 -20.355978 32.110800 0.256483 2.257420 0.042125 -0.026956 1245550.000000 0 0 1
-24.849629 -5.723951 -19.236878 31.942529 0.226395 2.217093 0.046038 -0.013180 -541854.000000 0 0 1
-24.704929 -4.315651 -19.077978 31.510754 0.172943 2.221119 0.047180 -0.013789 31433.200000 0 0 1
-25.638379 -3.847251 -18.148278 31.646292 0.148947 2.181535 0.065661 -0.005968 -524835.000000 0 0 1
-25.666099 -2.300951 -18.078578 31.478215 0.089410 2.182570 0.035486 -0.002171 74628.900000 0 0 1
-26.123699 -1.452951 -19.162978 32.431134 0.055561 2.202948 0.052492 -0.007589 -43733.400000 0 0 1
-27.344129 -1.817051 -19.743378 33.775791 0.066354 2.195112 0.051647 -0.002517 -566115.000000 0 0 1
-28.025079 -0.753351 -20.592278 34.785263 0.026875 2.204313 0.039908 0.001679 -112293.000000 0 0 1
-27.320769 -0.470451 -21.813178 34.963702 0.017218 2.244495 0.048936 0.004326 430627.000000 0 0 1
-27.561019 -1.518351 -22.739778 35.763287 0.055035 2.259894 0.049678 0.011020 31298.900000 0 0 1
-26.765789 -1.398851 -24.075778 36.027869 0.052215 2.302656 0.059208 0.012034 -308916.000000 0 0 1
-27.170709 -0.259051 -24.912378 36.863819 0.009534 2.312839 0.034540 0.017393 513890.000000 0 0 1
-26.632639 1.007549 -24.512678 36.210275 -0.037813 2.314412 0.045654 0.016672 727345.000000 0 0 1
-25.146549 1.223449 -24.041978 34.811815 -0.048614 2.333152 0.050032 0.009996 763942.000000 0 0 1
-24.207429 1.008549 -25.078548 34.870480 -0.041639 2.373434 0.049078 0.011693 -71508.400000 0 0 1
-22.874929 0.869249 -24.652778 33.641900 -0.037982 2.393224 0.047208 0.009013 -9569.490000 0 0 1
-21.879629 0.414949 -25.726968 33.775246 -0.018963 2.436746 0.034036 0.010623 -134389.000000 0 0 1
-21.563129 1.343649 -26.741648 34.378622 -0.062232 2.462045 0.016755 0.016256 388870.000000 0 0 1
-20.583829 0.807849 -27.629488 34.463535 -0.039227 2.500934 0.002541 0.017080 155214.000000 0 0 1
-20.591429 1.583049 -28.992928 35.596388 -0.076728 2.522647 0.002031 0.017544 -335724.000000 0 0 1
-19.776329 2.723049 -29.005878 35.211634 -0.136832 2.538805 0.006413 0.023602 127910.000000 0 0 1
-19.844329 3.474149 -30.217938 36.317914 -0.173314 2.553571 -0.010675 0.015555 -311442.000000 0 0 1
-19.365729 2.796249 -31.522608 37.101554 -0.143401 2.586080 -0.013297 0.015779 -1073130.000000 0 0 1
-17.985829 2.672149 -31.541468 36.407343 -0.147491 2.618642 -0.023650 0.018754 -837341.000000 0 0 1
-17.606029 2.039649 -32.763228 37.249987 -0.115335 2.645712 -0.027811 0.021806 -33029.800000 0 0 1
-16.094929 1.909649 -32.987978 36.754594 -0.118097 2.684909 -0.029979 0.008711 305334.000000 0 0 1
-15.318729 3.136249 -33.057518 36.569099 -0.201942 2.699771 -0.023496 0.010257 898498.000000 0 0 1
-13.919329 2.873749 -33.102278 36.024533 -0.203597 2.736032 -0.012436 0.008703 624002.000000 0 0 1
-13.018229 4.090449 -33.458288 36.133960 -0.304441 2.754343 -0.002517 0.006692 -213296.000000 0 0 1
-13.036729 5.111049 -32.552488 35.436473 -0.373634 2.735358 0.010499 -0.011291 215872.000000 0 0 1
-12.303329 6.206749 -33.055798 35.813146 -0.467223 2.746621 0.018803 -0.003690 -141842.000000 0 0 1
-12.098829 7.380449 -32.051128 35.044650 -0.547750 2.725264 0.024638 -0.004102 -128817.000000 0 0 1
-11.040829 7.185849 -31.106968 33.781353 -0.576968 2.741006 0.039363 -0.016911 355653.000000 0 0 1
-11.253329 6.192649 -30.132708 32.756166 -0.503070 2.738646 0.037317 -0.020467 -460077.000000 0 0 1
-10.036329 5.324449 -29.743628 31.839615 -0.487763 2.776724 0.043241 -0.020027 -33006.900000 0 0 1
-9.486129 4.484249 -30.769608 32.509443 -0.441583 2.812953 0.035020 -0.020434 163592.000000 0 0 1
-10.202629 3.326249 -30.939468 32.747645 -0.315153 2.807733 0.037902 -0.018143 -447686.000000 0 0 1
-9.773829 2.616949 -32.277168 33.825903 -0.261614 2.837819 0.027106 -0.015121 -116047.000000 0 0 1
-10.457129 1.424049 -32.469258 34.141356 -0.135347 2.827329 0.020916 -0.007021 102887.000000 0 0 1
-9.944429 0.858949 -33.638008 35.087676 -0.086161 2.853137 0.010740 -0.001499 -576854.000000 0 0 1
-10.403229 1.491649 34.077368 35.661172 -0.142413 0.299150 0.013833 -0.000432 -555996.000000 0 0 1
-11.748029 1.211849 33.818391 35.821339 -0.102790 0.335988 -0.008179 0.006871 -552109.000000 0 0 1
-11.940429 1.541449 32.418155 34.581594 -0.128385 0.355595 -0.015501 0.014200 -1664.510000 0 0 1
-13.398229 1.309849 31.979545 34.697543 -0.097453 0.398444 -0.008587 0.014117 131596.000000 0 0 1
-14.186429 2.492049 32.147755 35.227024 -0.173890 0.421227 -0.018861 0.018332 -183133.000000 0 0 1
-15.530129 2.141349 31.928905 35.570005 -0.137020 0.456421 -0.020018 0.020469 22021.600000 0 0 1
-16.500229 3.343049 31.702995 35.895869 -0.199900 0.488168 -0.018854 0.013751 -80454.200000 0 0 1
-16.902529 4.025449 32.862765 37.173391 -0.233801 0.486360 -0.021598 0.008962 326180.000000 0 0 1
-16.039929 5.070049 33.251071 37.264171 -0.306151 0.468367 -0.017912 0.008296 -290471.000000 0 0 1
-16.688929 5.729449 34.514213 38.763099 -0.330701 0.472599 -0.017673 0.010407 -648765.000000 0 0 1
-17.949829 6.224249 34.287392 39.199016 -0.333784 0.505979 -0.024038 0.014260 -794868.000000 0 0 1
-18.899729 5.609349 -33.883248 39.201263 -0.288514 2.614634 -0.030675 0.020052 606375.000000 0 0 1
-20.276729 6.332749 -33.878078 39.987168 -0.302717 2.581534 -0.026407 0.015983 121831.000000 0 0 1
-20.169629 7.596649 -33.302558 39.668418 -0.360206 2.567201 -0.021548 0.005649 223260.000000 0 0 1
-19.905229 8.563549 -34.314132 40.583398 -0.406280 2.578337 -0.021251 0.010801 -322109.000000 0 0 1
-20.029029 9.981149 -33.837298 40.567821 -0.462314 2.557281 -0.015559 0.011070 -570946.000000 0 0 1
-18.980429 10.381049 -32.985628 39.447110 -0.500487 2.561111 -0.012171 0.001759 64670.900000 0 0 1
-18.829529 11.799249 -32.874028 39.679657 -0.559774 2.547195 0.005255 -0.000000 44460.800000 0 0 1
-17.917729 12.421149 -33.967588 40.362445 -0.606169 2.570969 -0.007630 -0.003347 -440929.000000 0 0 1
-18.399329 12.223049 33.781997 40.362873 -0.586376 0.579097 0.000851 -0.001492 -232775.000000 0 0 1
-17.447729 12.393949 32.797465 39.162570 -0.617637 0.578160 0.005748 0.000797 -393584.000000 0 0 1
-17.993729 11.844749 31.436535 38.109422 -0.582168 0.600768 0.009532 0.004713 230664.000000 0 0 1
-18.187929 10.431649 31.426115 37.778575 -0.520742 0.588363 -0.000142 0.004952 1017600.000000 0 0 1
-17.023929 9.804849 30.829735 36.557103 -0.522544 0.567345 -0.007504 0.004403 901858.000000 0 0 1
-17.020329 8.245249 30.932145 36.255666 -0.451119 0.548769 -0.015449 0.011032 -404294.000000 0 0 1
-17.869429 7.724349 29.960705 35.729902 -0.408009 0.576211 -0.006701 0.016979 -226827.000000 0 0 1
-18.318529 6.504349 30.434115 36.112469 -0.341184 0.568408 -0.016096 0.010207 -163686.000000 0 0 1
-18.957229 5.590049 29.315875 35.355985 -0.286750 0.593188 -0.007781 0.009578 -925337.000000 0 0 1
-20.269929 5.896049 29.049145 35.909417 -0.283066 0.628422 0.008811 0.005009 -1296900.000000 0 0 1
-20.848329 5.029149 28.146255 35.385828 -0.236703 0.651112 0.004212 0.006578 -152622.000000 0 0 1
-22.358829 5.299749 27.934195 36.170759 -0.232736 0.688364 0.009694 0.012998 166928.000000 0 0 1
-22.675429 6.282549 26.934985 35.765051 -0.270284 0.718021 0.009348 0.014005 -102851.000000 0 0 1
-24.057829 6.444849 26.764735 36.560446 -0.261744 0.749444 0.005094 0.018785 -372999.000000 0 0 1
-24.427729 7.139949 25.399225 35.955715 -0.284367 0.786393 0.006380 0.010044 -182067.000000 0 0 1
-24.334129 6.376649 24.192635 34.901219 -0.256283 0.804912 0.003960 0.012237 418048.000000 0 0 1
-25.146349 5.211049 24.169565 35.265589 -0.204337 0.815701 0.004578 0.018440 -353769.000000 0 0 1
-25.434599 4.495249 22.817745 34.464120 -0.174931 0.847216 0.007404 0.017709 -138203.000000 0 0 1
-26.189019 5.237349 21.889845 34.532012 -0.197379 0.884211 0.011699 0.010202 -14671.400000 0 0 1
-26.415049 4.493149 20.752845 33.891352 -0.168485 0.911786 0.016891 -0.001620 -38144.000000 0 0 1
-27.220419 5.265449 19.638945 33.975937 -0.191078 0.954490 0.023043 -0.004760 183059.000000 0 0 1
-28.592849 5.243849 19.969645 35.268055 -0.181382 0.968878 0.030996 -0.004723 22964.400000 0 0 1
-29.445579 5.745549 18.944145 35.481461 -0.192703 1.007570 0.027902 -0.002280 12332.800000 0 0 1
-30.937379 5.726749 19.282045 36.901414 -0.183036 1.020982 0.027676 -0.001383 -306135.000000 0 0 1
-31.318999 6.713449 20.182445 37.858700 -0.211162 1.008537 0.038837 -0.009633 -1322030.000000 0 0 1
-32.614319 6.643549 20.614045 39.150599 -0.200951 1.016280 0.042117 -0.004829 -1085290.000000 0 0 1
-32.899219 7.892149 21.456145 40.062586 -0.235440 1.005619 0.050131 -0.007532 353917.000000 0 0 1
-32.094829 7.916949 22.652545 40.073606 -0.241846 0.970032 0.045372 -0.005670 458608.000000 0 0 1
-32.523569 8.943149 23.527545 41.125513 -0.268342 0.961743 0.056661 -0.006865 118725.000000 0 0 1
-0.213829 33.347949 11.981622 35.435726 -1.564384 1.225875 0.029574 -0.010924 -442315.000000 0 0 1
-0.422029 33.205149 13.333222 35.784561 -1.558087 1.188990 0.014164 -0.003607 82029.600000 0 0 1
-0.137629 34.391549 14.082122 37.163204 -1.566795 1.182160 0.007836 0.001169 -189317.000000 0 0 1
-0.273229 34.192849 15.601122 37.584845 -1.562806 1.142754 0.001448 0.009198 260985.000000 0 0 1
-1.603029 34.266749 16.079422 37.885718 -1.524050 1.132476 -0.003402 0.009072 53185.100000 0 0 1
-1.451929 -34.452194 17.388822 38.619074 1.528678 1.103734 -0.007248 0.000049 53022.000000 0 0 1
-2.750729 -34.311894 18.214422 38.944033 1.490799 1.084101 -0.002015 0.002422 -352867.000000 0 0 1
-3.320029 33.577549 18.573222 38.515438 -1.472240 1.067600 0.004160 -0.001000 -719257.000000 0 0 1
-4.248329 33.880749 19.552022 39.347618 -1.446057 1.050768 0.005430 -0.001717 -806332.000000 0 0 1
-5.275229 32.743249 19.619622 38.534114 -1.411060 1.036600 0.004424 -0.002389 -731406.000000 0 0 1
-6.223129 32.710049 18.612922 38.145976 -1.382792 1.061069 0.002883 -0.000668 -155751.000000 0 0 1
-7.317029 31.876249 19.014322 37.830921 -1.345160 1.044177 0.001868 -0.010342 -112951.000000 0 0 1
-8.351329 31.913349 17.893622 37.528499 -1.314848 1.073785 -0.009129 -0.020178 -776677.000000 0 0 1
-9.062029 33.145449 17.917622 38.752837 -1.303916 1.090145 0.002362 -0.014050 -168286.000000 0 0 1
-9.768329 33.351149 16.702222 38.557536 -1.285872 1.122782 0.001509 -0.010698 304694.000000 0 0 1
-10.704129 -34.510494 16.665522 39.790604 1.270035 1.138639 0.025552 -0.014773 483657.000000 0 0 1
-11.741529 34.524249 17.648022 40.512220 -1.242973 1.120067 0.022046 -0.009846 212877.000000 0 0 1
-12.767429 -33.698194 17.267122 39.959092 1.208632 1.123954 0.011912 -0.007729 745484.000000 0 0 1
-14.078429 -33.958194 18.107022 40.978352 1.177783 1.113116 0.036976 -0.006127 580740.000000 0 0 1
-13.934029 -33.644694 19.474022 41.296006 1.178149 1.079724 0.026125 -0.005240 485147.000000 0 0 1
-15.122129 -33.861394 20.249422 42.252951 1.150783 1.071005 0.033025 -0.006289 403966.000000 0 0 1
-14.944629 -33.393994 21.734322 42.554453 1.150003 1.034749 0.026075 -0.008149 -45731.400000 0 0 1
-14.819729 -32.014894 21.885122 41.515495 1.137266 1.015547 0.034581 0.001118 75994.300000 0 0 1
-14.706129 -31.576494 23.240922 41.874642 1.134938 0.982419 0.020052 0.007140 188516.000000 0 0 1
-14.476129 -30.059094 23.334422 40.713667 1.121986 0.960470 0.025662 0.004047 23625.600000 0 0 1
-14.300029 -29.559694 24.641822 41.054667 1.120219 0.927021 0.019684 0.006891 -113159.000000 0 0 1
-14.066029 -28.156894 24.758722 40.045701 1.107502 0.904267 0.022890 0.013329 586617.000000 0 0 1
-15.321729 -27.288194 24.392622 39.678721 1.059183 0.908723 0.035779 0.010751 120027.000000 0 0 1
-16.447229 -27.467894 25.178322 40.730141 1.031274 0.904379 0.042716 0.010722 63406.500000 0 0 1
-17.450029 -26.487094 24.835322 40.284772 0.988251 0.906514 0.045416 0.007065 98688.700000 0 0 1
-18.502029 -26.161694 25.946122 41.230578 0.955242 0.890153 0.042932 0.007032 431441.000000 0 0 1
-19.314929 -27.233194 26.414622 42.572827 0.953894 0.901471 0.055345 0.005530 677767.000000 0 0 1
-20.158929 -27.910994 25.473622 42.828862 0.945288 0.933808 0.047391 -0.001772 -214142.000000 0 0 1
-21.526729 -27.373994 24.985322 42.860260 0.904407 0.948444 0.033452 0.003456 118063.000000 0 0 1
-21.465629 -26.126094 24.336722 41.660797 0.883013 0.946947 0.043847 -0.000724 416864.000000 0 0 1
-22.725929 -26.017394 23.685422 41.885222 0.852822 0.969776 0.037647 -0.002169 182924.000000 0 0 1
-23.176529 -24.587194 23.456822 41.132762 0.814924 0.963961 0.038147 0.017753 -222067.000000 0 0 1
-23.601129 -23.975394 24.613122 41.684992 0.793265 0.939174 0.027580 0.019601 314859.000000 0 0 1
-24.284429 -22.718094 24.367522 41.226465 0.752086 0.938418 0.021574 0.023020 357703.000000 0 0 1
-24.764029 -21.922494 25.585222 41.814548 0.724609 0.912369 0.021925 0.025235 218394.000000 0 0 1
-26.013019 -22.340794 26.120022 43.105032 0.709599 0.919821 0.014724 0.025034 219712.000000 0 0 1
-26.282689 -21.744994 27.356222 43.726278 0.691197 0.894865 0.007240 0.021864 -256106.000000 0 0 1
-27.658659 -22.167794 27.975122 45.155509 0.675641 0.902654 0.008110 0.020905 994672.000000 0 0 1
-28.858009 -21.724794 27.341322 45.302309 0.645301 0.922875 0.008734 0.019172 634902.000000 0 0 1
-29.161559 -22.418894 26.170322 45.142985 0.655414 0.952410 -0.004375 0.023792 -1271220.000000 0 0 1
-30.678419 -22.578894 25.999622 46.118892 0.634472 0.971875 0.004693 0.018565 -67539.200000 0 0 1
-31.181539 -23.410194 24.904722 46.266302 0.643994 1.002389 0.001316 0.002662 328160.000000 0 0 1
-30.973579 -24.774494 25.117322 46.946970 0.674655 1.006271 -0.001834 0.006008 -593548.000000 0 0 1
-31.455869 -25.514294 23.830922 46.993231 0.681481 1.038963 -0.006528 0.008903 478926.000000 0 0 1
-32.864919 -25.404594 23.665522 47.807460 0.658060 1.052942 -0.002685 0.001518 146114.000000 0 0 1
-33.027429 -25.967394 22.343622 47.585229 0.666292 1.082016 -0.000864 0.007413 355563.000000 0 0 1
-34.324284 -26.788694 22.042222 48.802153 0.662712 1.102166 0.007430 0.005703 -28743.700000 0 0 1
-34.534695 -27.981294 22.810422 49.959116 0.680952 1.096647 0.012992 0.008114 332945.000000 0 0 1
-33.594779 -29.046594 22.672222 49.863247 0.712919 1.098774 0.003477 0.002639 78721.600000 0 0 1
-34.015669 -30.075294 21.515322 50.244384 0.723994 1.128281 0.016756 0.001675 60217.800000 0 0 1
-33.763279 -29.614594 20.218022 49.251920 0.720032 1.147792 0.003580 0.008340 244082.000000 0 0 1
-34.130318 -30.694894 19.359322 49.818054 0.732452 1.171684 0.004411 0.010052 -312264.000000 0 0 1
-34.528098 -30.258894 17.923622 49.285357 0.719597 1.198591 -0.000622 0.015588 -1034150.000000 0 0 1
-33.521139 -30.143394 16.978122 48.172062 0.732392 1.210611 0.010022 0.015842 -506697.000000 0 0 1
-33.904039 -29.821594 15.665922 47.793644 0.721423 1.236841 0.007507 0.022866 -139655.000000 0 0 1
-34.477353 -30.984394 14.818122 48.665155 0.732090 1.261392 0.000366 0.007912 484919.000000 0 0 1
-33.496439 -31.961794 14.393122 48.484324 0.761958 1.269392 0.001421 0.001680 170274.000000 0 0 1
-33.844069 -32.721994 13.281122 48.913578 0.768543 1.295822 0.014326 -0.002775 -215382.000000 0 0 1
-33.861579 -32.047694 11.879322 48.112155 0.757884 1.321307 0.002855 -0.000910 299645.000000 0 0 1
-34.890357 -31.074194 11.797322 48.188373 0.727611 1.323466 -0.001246 -0.000576 231633.000000 0 0 1
-34.903592 -30.379394 10.548822 47.459940 0.716207 1.346656 0.004459 0.005368 65574.800000 0 0 1
34.776449 -29.153994 10.557122 46.591947 -0.697677 1.342224 0.018351 0.008909 157937.000000 0 0 1
34.818130 -28.178794 9.533122 45.795491 -0.680394 1.361096 0.024838 -0.022006 371788.000000 0 0 1
33.572081 -27.496294 9.519322 44.426887 -0.686233 1.354853 0.040685 -0.018916 282297.000000 0 0 1
33.493951 -26.402694 8.378922 43.464391 -0.667555 1.376805 0.035070 -0.020649 -352075.000000 0 0 1
34.225301 -25.272294 8.549822 43.395386 -0.636042 1.372477 0.039926 -0.024690 -522186.000000 0 0 1
34.131991 -24.422694 7.413822 42.619544 -0.621077 1.395953 0.042877 -0.027825 -296293.000000 0 0 1
34.611124 -22.985394 7.615122 42.240363 -0.586227 1.389525 0.050873 -0.032825 -512966.000000 0 0 1
33.901321 -22.102594 8.447122 41.342207 -0.577758 1.365025 0.036885 -0.026382 -339087.000000 0 0 1
34.444701 -20.784794 8.194222 41.055941 -0.542934 1.369860 0.048228 -0.025205 323774.000000 0 0 1
33.595381 -19.721694 8.899122 39.959845 -0.530833 1.346212 0.053571 -0.015789 25077.100000 0 0 1
33.864441 -19.698994 10.300622 40.508684 -0.526856 1.313691 0.043432 -0.025340 -51251.800000 0 0 1
33.143771 -18.674094 11.001422 39.601295 -0.513093 1.289288 0.044343 -0.014057 -97827.200000 0 0 1
33.451081 -18.614494 12.536622 40.282019 -0.507796 1.254318 0.030891 -0.018694 304878.000000 0 0 1
34.640976 -17.880794 12.842022 41.044336 -0.476503 1.252571 0.004895 -0.006110 417369.000000 0 0 1
34.980361 -18.191294 14.177622 41.899329 -0.479553 1.225608 0.007291 0.004450 -64516.900000 0 0 1
-34.382204 -17.582994 14.805522 41.358205 0.472724 1.204690 0.002358 0.001817 658555.000000 0 0 1
-33.182229 -18.032494 14.161022 40.333184 0.497791 1.212050 -0.001254 0.001225 207168.000000 0 0 1
-32.045779 -17.548494 14.830822 39.431394 0.501004 1.185194 -0.008546 0.002189 357808.000000 0 0 1
-30.735639 -17.551994 13.982422 38.056013 0.518871 1.194566 0.022563 0.001172 346470.000000 0 0 1
-30.312319 -18.874994 13.631322 38.221918 0.556932 1.206131 0.009029 0.000698 436173.000000 0 0 1
-29.206359 -18.747694 12.723122 36.964378 0.570663 1.219410 -0.023441 0.013474 772391.000000 0 0 1
-28.346849 -20.042594 12.412622 36.868992 0.615441 1.227420 -0.030789 0.004194 744778.000000 0 0 1
-29.061549 -20.991894 11.637622 37.691743 0.625553 1.256910 -0.019564 0.006403 -78983.000000 0 0 1
-28.072699 -21.809094 11.046422 37.225481 0.660483 1.269516 -0.015537 0.007466 -63624.300000 0 0 1
-28.586009 -22.850894 9.996022 37.937366 0.674359 1.304161 -0.003465 0.004237 505751.000000 0 0 1
-29.328629 -23.907494 10.635422 39.304566 0.683916 1.296790 -0.005439 0.006985 1075600.000000 0 0 1
-30.752109 -23.715194 10.728122 40.288897 0.656915 1.301265 -0.005379 -0.001365 761826.000000 0 0 1
-31.650329 -24.976894 10.827122 41.747037 0.668091 1.308447 -0.002751 0.000197 -105358.000000 0 0 1
-31.850789 -25.578794 9.524422 41.945942 0.676617 1.341734 -0.002360 -0.000022 -229135.000000 0 0 1
-32.311549 -26.869794 9.708722 43.130978 0.693705 1.343752 -0.000524 0.003114 37090.100000 0 0 1
-32.548469 -27.652994 8.409222 43.529368 0.704258 1.376389 0.001122 -0.001006 83503.300000 0 0 1
-31.346989 -27.972294 7.747022 42.721181 0.728569 1.388448 -0.012084 -0.001955 -354840.000000 0 0 1
-31.501519 -28.729094 6.539722 43.133218 0.739400 1.418593 -0.004567 -0.002022 -500722.000000 0 0 1
-30.201659 -29.005794 5.803022 42.274713 0.765203 1.433092 0.012336 0.002416 -153704.000000 0 0 1
-29.652839 -27.887894 5.078922 41.022200 0.754735 1.446669 0.016144 0.000434 51145.900000 0 0 1
-28.505809 -28.312694 4.354522 40.412271 0.781999 1.462834 0.013634 -0.004884 712883.000000 0 0 1
-27.651629 -27.160994 3.655322 38.931909 0.776447 1.476768 0.019801 -0.005298 539772.000000 0 0 1
-28.284039 -26.578594 2.519722 38.894183 0.754322 1.505967 0.031745 -0.008019 -187521.000000 0 0 1
-27.682469 -25.382194 2.151022 37.619167 0.742077 1.513586 0.024402 -0.017910 -322277.000000 0 0 1
-28.270779 -24.854794 0.811122 37.651768 0.721186 1.549252 0.024103 -0.010202 28407.800000 0 0 1
-27.787389 -25.687294 -0.268878 37.842415 0.746146 1.577902 0.026579 -0.011771 7687.760000 0 0 1
-28.021569 -25.180694 -1.607478 37.707554 0.732051 1.613439 0.026590 -0.011757 -468693.000000 0 0 1
-29.427539 -25.045594 -2.189678 38.704735 0.705129 1.627400 0.035465 -0.012174 -433623.000000 0 0 1
-30.127509 -23.943194 -1.653678 38.518541 0.671518 1.613742 0.022807 -0.006827 -178535.000000 0 0 1
-31.445119 -23.971094 -2.182878 39.600174 0.651336 1.625947 0.035020 -0.009281 -107744.000000 0 0 1
-32.263989 -22.762294 -1.765378 39.524721 0.614409 1.615476 0.034035 -0.011642 -302105.000000 0 0 1
-32.544409 -22.624294 -0.355178 39.637399 0.607485 1.579757 0.038999 -0.021219 4291.840000 0 0 1
-33.177539 -21.387694 -0.138178 39.474063 0.572601 1.574297 0.031718 -0.010814 -327384.000000 0 0 1
-33.166389 -20.978194 1.343822 39.267032 0.563984 1.536567 0.030057 -0.013735 -859235.000000 0 0 1
-33.997169 -21.826394 2.060922 40.453014 0.570735 1.519828 0.040518 -0.019878 -137401.000000 0 0 1
-33.909439 -21.492594 3.409622 40.291527 0.564919 1.486071 0.041276 -0.023375 -984278.000000 0 0 1
-35.017746 -22.157694 4.272722 41.658877 0.564157 1.468051 0.055635 -0.014068 764066.000000 0 0 1
34.295521 -22.081394 3.759722 40.962253 -0.572044 1.478882 0.044823 -0.011845 356805.000000 0 0 1
33.722021 -20.754794 3.844922 39.783408 -0.551715 1.473999 0.050452 -0.021621 -679809.000000 0 0 1
32.591281 -20.525594 2.831422 38.620053 -0.562035 1.497416 0.041635 -0.012050 983987.000000 0 0 1
31.417441 -21.347994 3.073622 38.108261 -0.596831 1.490054 0.041865 -0.009610 550716.000000 0 0 1
30.303411 -20.852194 2.342422 36.859159 -0.602704 1.507203 0.040089 -0.013369 195783.000000 0 0 1
29.030931 -21.648294 2.666622 36.311905 -0.640742 1.497294 0.030422 0.002833 -257930.000000 0 0 1
29.060141 -22.894794 2.061522 37.052844 -0.667283 1.515130 0.026478 -0.008486 -148299.000000 0 0 1
27.974381 -23.698094 2.455722 36.745016 -0.702829 1.503915 0.019850 -0.001196 -152386.000000 0 0 1
27.790331 -24.917294 1.498322 37.355307 -0.730943 1.530676 0.017444 0.003347 5500.340000 0 0 1
27.174041 -24.447494 0.311922 36.554148 -0.732629 1.562263 0.015395 -0.007064 218908.000000 0 0 1
26.356351 -25.402294 -0.357878 36.606855 -0.766967 1.580573 0.010208 -0.007163 -72846.500000 0 0 1
25.552031 -24.648294 -1.464278 35.532925 -0.767397 1.612017 0.008409 -0.013658 363116.000000 0 0 1
26.355271 -24.359394 -2.636178 35.985133 -0.746063 1.644119 0.007626 -0.023778 665841.000000 0 0 1
26.610171 -25.357394 -3.580978 36.931315 -0.761296 1.667912 0.006582 -0.020208 -757799.000000 0 0 1
25.348731 -25.743094 -4.334278 36.387511 -0.793117 1.690194 0.000877 -0.020998 -303330.000000 0 0 1
24.964831 -24.803394 -5.363078 35.597945 -0.782154 1.722029 0.004383 -0.028217 212124.000000 0 0 1
23.746431 -24.172294 -5.040678 34.257863 -0.794285 1.718472 0.015030 -0.031053 -419723.000000 0 0 1
23.328431 -23.061594 -6.031578 33.353151 -0.779646 1.752637 0.016062 -0.036971 -132033.000000 0 0 1
22.708231 -23.678294 -7.167378 33.581195 -0.806308 1.785885 0.018765 -0.030728 797260.000000 0 0 1
21.622331 -22.953394 -7.787878 32.481295 -0.815250 1.812920 0.015942 -0.031919 496895.000000 0 0 1
21.924331 -21.594194 -8.383078 31.894537 -0.777812 1.836758 0.012752 -0.031524 -783282.000000 0 0 1
22.426231 -21.644894 -9.687178 32.638607 -0.767671 1.872137 0.018829 -0.029829 94296.200000 0 0 1
22.278031 -20.430294 -10.343278 31.948254 -0.742161 1.900488 0.012506 -0.026049 -75000.700000 0 0 1
23.071531 -20.423094 -11.710678 32.962680 -0.724582 1.934000 0.006449 -0.022376 1192460.000000 0 0 1
24.494831 -20.339094 -11.536978 33.864101 -0.692970 1.918441 0.009614 -0.027940 642601.000000 0 0 1
25.172931 -19.932194 -12.697278 34.528099 -0.669727 1.947371 0.004757 -0.034395 -9321.500000 0 0 1
26.677741 -20.249294 -12.770178 35.844291 -0.649257 1.935067 0.007688 -0.027195 -178284.000000 0 0 1
26.921151 -21.604094 -13.097778 36.919331 -0.676261 1.933462 -0.002329 -0.024842 322168.000000 0 0 1
27.410541 -22.390694 -12.009878 37.375367 -0.684940 1.897931 0.005445 -0.025983 -152255.000000 0 0 1
27.694681 -23.896494 -12.418678 38.629798 -0.711910 1.898088 -0.004328 -0.021955 838682.000000 0 0 1
28.886761 -24.084894 -13.251678 39.876484 -0.694995 1.909557 -0.004248 -0.023425 1385830.000000 0 0 1
29.231331 -25.422194 -13.480178 41.017969 -0.715815 1.905660 0.002050 -0.012963 -115544.000000 0 0 1
-4.439229 -8.716651 -27.799608 29.470408 1.099751 2.803249 0.049256 -0.011250 40726.800000 0 0 1
-3.940829 -7.493151 -27.364408 28.644166 1.086625 2.841544 0.029109 -0.009672 25957.600000 0 0 1
-4.697129 -6.428351 -27.899848 29.013587 0.939769 2.863618 0.019422 -0.011102 -132419.000000 0 0 1
-4.626129 -5.120851 -27.124728 27.988838 0.836111 2.892460 0.008687 -0.014846 -114740.000000 0 0 1
-5.210129 -5.197451 -25.855018 26.881981 0.784180 2.864290 0.006661 -0.013128 212061.000000 0 0 1
-5.167729 -3.938951 -25.221448 26.045003 0.651277 2.889448 0.013736 -0.020931 130209.000000 0 0 1
-5.633429 -4.035251 -23.725278 24.716545 0.621585 2.857422 0.014117 -0.019807 -32659.600000 0 1 0
-4.765729 -4.827051 -22.959078 23.940172 0.791791 2.854315 0.008633 -0.029462 394965.000000 0 1 0
-5.251229 -4.866151 -21.594878 22.750683 0.747355 2.821470 0.011125 -0.019717 187079.000000 0 1 0
-4.622629 -5.953551 -20.692178 22.022255 0.910582 2.792265 0.014453 -0.023901 -591313.000000 0 1 0
-5.186029 -7.206651 -21.049478 22.845377 0.947026 2.742436 0.014466 -0.018313 584063.000000 0 1 0
-4.377729 -8.227751 -20.505178 22.523826 1.081824 2.714991 0.017750 -0.020110 -652631.000000 0 1 0
-5.008029 -9.681251 -20.582778 23.290722 1.093411 2.654576 0.023164 -0.010915 390049.000000 0 1 0
-6.097829 -9.943851 -19.710078 22.903075 1.020708 2.607216 0.019562 -0.006056 626041.000000 0 1 0
-7.325429 -9.329951 -20.117278 23.354117 0.905175 2.608819 0.022699 -0.012163 -295630.000000 0 1 0
-8.389229 -9.410451 -19.004278 22.805665 0.842708 2.555872 0.018780 -0.004669 -280867.000000 0 1 0
-8.997929 -10.677251 -18.859978 23.466256 0.870544 2.504294 0.026648 -0.000658 197077.000000 0 1 0
-9.881029 -10.704651 -17.741478 22.956139 0.825386 2.454104 0.024115 0.003231 183429.000000 0 1 0
-10.709629 -12.025551 -17.776678 23.985836 0.843214 2.405552 0.030011 0.009311 421056.000000 0 1 0
-11.840629 -12.066651 -18.657478 25.177491 0.794852 2.405411 0.036368 0.004895 449413.000000 0 0 1
-11.564929 -12.252151 -20.045978 26.185951 0.814244 2.442652 0.038265 -0.004048 -934393.000000 0 0 1
-12.803329 -12.054151 -20.948978 27.351188 0.755268 2.443276 0.026227 -0.006955 545160.000000 0 0 1
-13.693429 -13.182251 -20.958978 28.294178 0.766380 2.404986 0.022635 0.005045 254645.000000 0 0 1
-14.534529 -13.373551 -19.821278 27.981913 0.743822 2.357969 0.014400 0.009490 -21936.800000 0 0 1
-15.651529 -14.444551 -20.067078 29.262656 0.745315 2.326440 0.001453 0.011062 205694.000000 0 0 1
-15.167229 -15.778951 -20.216978 29.795072 0.805163 2.316562 0.008964 0.012611 -323905.000000 0 0 1
-15.805129 -16.387251 -21.301978 31.178813 0.803479 2.322959 0.015932 0.004030 65132.200000 0 0 1
-15.461629 -17.864951 -21.570378 31.992181 0.857388 2.310730 -0.001864 -0.000728 51512.000000 0 0 1
-15.988629 -18.804951 -20.636178 32.173192 0.866166 2.267130 0.010182 -0.000786 50549.200000 0 0 1
-15.452129 -20.028451 -20.996778 32.875094 0.913671 2.263582 0.005205 -0.001741 -301795.000000 0 0 1
-16.046729 -21.198251 -20.209178 33.395722 0.922841 2.220741 0.008933 -0.004549 -111453.000000 0 0 1
-15.443229 -22.336351 -20.742778 34.171168 0.965869 2.223109 0.008392 -0.002564 174305.000000 0 0 1
-16.111529 -23.493051 -20.237678 34.943790 0.969664 2.188481 0.013383 -0.000249 173935.000000 0 0 1
-15.669729 -24.877951 -20.886378 36.065131 1.008707 2.188457 0.016057 0.000670 -102857.000000 0 0 1
-16.064429 -25.032971 -22.216578 37.125353 1.000256 2.212325 0.007497 0.000052 120924.000000 0 0 1
-15.472129 -26.216031 -22.684678 37.963952 1.037630 2.211216 0.012110 0.000479 -165533.000000 0 0 1
-15.867329 -26.638101 -24.117978 39.281515 1.033572 2.231887 0.023542 -0.006461 -245535.000000 0 0 1
-17.100929 -27.285551 -24.293078 40.337287 1.010947 2.217111 0.028518 -0.002511 -200560.000000 0 0 1
-16.990129 -28.692631 -24.222278 41.214686 1.036174 2.199022 0.039223 0.001006 -400229.000000 0 0 1
-17.899329 -29.501651 -25.134408 42.690419 1.025448 2.200320 0.047902 -0.003393 -667085.000000 0 0 1
-17.563429 -29.504351 -26.517638 43.383936 1.033853 2.228412 0.051970 -0.009364 293176.000000 0 0 1
-18.002029 -28.271401 -27.207108 43.169108 1.003787 2.252665 0.059393 -0.017957 10633.100000 0 0 1
-16.934729 -27.707901 -28.152758 42.977792 1.022191 2.285050 0.053531 -0.022988 18407.700000 0 0 1
-16.672329 -28.370081 -29.363948 44.102942 1.039490 2.299368 0.071625 -0.025173 516446.000000 0 0 1
-15.440729 -27.975261 -29.974838 43.812353 1.066463 2.324253 0.041591 -0.016511 450151.000000 0 0 1
-15.421629 -28.229641 -31.496128 45.019389 1.070804 2.345651 0.053667 -0.015389 -100570.000000 0 0 1
-15.131229 -29.593391 -31.880918 46.055573 1.098146 2.335367 0.032000 -0.007388 270886.000000 0 0 1
-16.151629 -30.281831 -32.594708 47.331590 1.080805 2.330416 0.031048 0.000145 -81986.700000 0 0 1
-15.732429 -31.691541 -32.982848 48.370770 1.110014 2.321120 0.020031 0.003945 -443112.000000 0 0 1
-14.808029 -31.775241 -34.007618 48.841189 1.134697 2.341012 0.008364 0.005946 -519672.000000 0 0 1
-15.071029 -32.809351 34.167435 49.709184 1.140193 0.812967 -0.003651 0.009012 -698718.000000 0 0 1
-13.819029 -33.326821 33.513450 49.242196 1.177723 0.822237 -0.010227 0.010139 -713377.000000 0 0 1
-13.052929 -34.211017 34.254733 50.141394 1.206303 0.818711 0.001620 0.016540 989004.000000 0 0 1
-11.839029 34.479673 33.556160 49.548222 -1.240047 0.826788 -0.002604 0.020044 1220510.000000 0 0 1
-10.929929 33.573523 34.389937 49.288057 -1.256065 0.798567 0.010793 0.013489 -166461.000000 0 0 1
-10.253529 34.304689 -33.679088 49.155138 -1.280353 2.325618 0.010346 0.014549 -135064.000000 0 0 1
-9.724729 33.461348 -32.652308 47.753591 -1.287962 2.323708 0.015499 0.002807 258244.000000 0 0 1
-8.835929 34.296438 -31.662538 47.506164 -1.318646 2.300291 0.012798 0.004106 414660.000000 0 0 1
-9.619529 -34.169904 -30.681678 46.919964 1.296378 2.283544 0.006673 -0.003353 58722.100000 0 0 1
-8.892229 -33.111321 -30.199178 45.688310 1.308431 2.292924 0.006436 -0.004069 -495330.000000 0 0 1
-9.825329 -32.179641 -29.405058 44.684716 1.274459 2.289031 0.001572 -0.004985 155785.000000 0 0 1
-9.979529 -32.365241 -28.016758 43.954961 1.271705 2.261912 0.014741 -0.003450 15872.000000 0 0 1
-10.638029 -33.598731 -27.676678 44.811169 1.264162 2.236521 0.021440 -0.005085 31958.900000 0 0 1
-10.976829 -33.871151 -26.143798 44.172886 1.257400 2.204151 0.032665 -0.007949 706996.000000 0 0 1
-9.752929 -34.041226 -25.421468 43.591005 1.291767 2.193436 0.017806 -0.015069 439131.000000 0 0 1
-10.032329 -34.232296 -24.045078 43.019339 1.285713 2.163899 0.026977 -0.020956 506336.000000 0 0 1
-8.723429 -34.336012 -23.211078 42.353442 1.322000 2.150807 0.021061 -0.022631 486664.000000 0 0 1
-8.021329 33.564964 -23.343978 41.664012 -1.336217 2.165534 0.022369 -0.022396 107416.000000 0 0 1
-7.055029 33.486735 -22.309978 40.851805 -1.363152 2.148522 0.022098 -0.019794 -320133.000000 0 0 1
-6.258829 32.207421 -22.106578 39.562504 -1.378860 2.163705 0.027147 -0.023629 -427575.000000 0 0 1
-5.263629 32.069871 -23.093778 39.868597 -1.408117 2.188601 0.013376 -0.027068 -380583.000000 0 0 1
-4.638129 30.812051 -22.938778 38.692148 -1.421388 2.205394 0.002018 -0.018592 1136670.000000 0 0 1
-3.085829 30.894211 -23.295378 38.815580 -1.471243 2.214492 0.000603 -0.023486 1211810.000000 0 0 1
-2.703929 31.045851 -24.703078 39.766798 -1.483921 2.241068 -0.001424 -0.023656 -88965.900000 0 0 1
-3.253029 32.174291 -25.380448 41.108811 -1.470032 2.236225 -0.000076 -0.019932 -445194.000000 0 0 1
-2.388529 32.711201 -26.571408 42.210988 -1.497907 2.251693 -0.015246 -0.005627 76697.100000 0 0 1
-1.387529 33.674161 -26.324538 42.765122 -1.529615 2.233894 -0.010908 -0.013031 409548.000000 0 0 1
-1.940029 -34.130008 -26.401918 43.193546 1.514015 2.228431 -0.010674 -0.010621 218533.000000 0 0 1
-0.795329 -33.204981 -26.865468 42.719512 1.546849 2.250909 -0.030981 0.003091 416105.000000 0 0 1
0.383471 -33.163801 -26.080578 42.192195 -1.559234 2.237167 -0.016839 0.010169 241098.000000 0 0 1
1.254471 -32.189911 -26.646998 41.807016 -1.531845 2.261891 -0.020332 0.019486 17221.000000 0 0 1
2.380771 -31.749311 -25.708168 40.921837 -1.495950 2.250068 -0.017551 0.027072 -208576.000000 0 0 1
1.864071 -31.027361 -24.591778 39.634927 -1.510790 2.240122 -0.008809 0.022167 984095.000000 0 0 1
2.975671 -30.409591 -23.919078 38.803610 -1.473254 2.234976 -0.009867 0.026383 440848.000000 0 0 1
2.739171 -30.058081 -22.442778 37.612093 -1.479918 2.210167 0.001504 0.021152 -261287.000000 0 0 1
2.710371 -31.126631 -21.477678 37.914429 -1.483940 2.173022 0.011057 0.020433 560578.000000 0 0 1
2.819571 -30.581761 -20.173378 36.744513 -1.478858 2.151985 0.022283 0.015436 -388442.000000 0 0 1
2.950071 -31.650471 -19.066978 37.067572 -1.477857 2.111086 0.023188 0.018393 -43083.700000 0 0 1
1.722471 -32.242221 -18.638778 37.281789 -1.517424 2.094330 0.026042 0.014929 512750.000000 0 0 1
1.493371 -33.628991 -18.983678 38.646076 -1.526418 2.084285 0.038656 0.023367 -425106.000000 0 0 1
2.367371 34.419447 -18.299678 39.053566 1.502124 2.058478 0.021180 -0.003205 1141310.000000 0 0 1
3.761271 34.466121 -18.685678 39.385470 1.462097 2.065114 0.023071 0.009571 1056510.000000 0 0 1
4.472671 33.377128 -18.085378 38.224578 1.437586 2.063642 0.031535 -0.019800 -267694.000000 0 0 1
5.521271 32.719351 -18.949278 38.211458 1.403625 2.089674 0.040606 -0.015333 701427.000000 0 0 1
6.602471 33.710567 -19.135378 39.321211 1.377387 2.079039 0.078054 -0.010973 722782.000000 0 0 1
7.568571 33.198045 -20.055478 39.517283 1.346645 2.103091 0.050571 -0.007954 248430.000000 0 0 1
8.841771 34.079843 -20.086178 40.534765 1.316950 2.089241 0.028727 -0.016429 24807.900000 0 0 1
9.549671 33.995153 -18.872878 40.038134 1.296941 2.061643 0.018869 -0.010700 1052040.000000 0 0 1
10.814071 -34.405166 -18.886178 40.710531 -1.266258 2.053204 0.017790 -0.002929 1634220.000000 0 0 1
11.571271 -34.472867 -17.481878 40.347106 -1.246950 2.018933 -0.005396 0.001932 -382843.000000 0 0 1
12.189871 33.454385 -17.263678 39.570487 1.221375 2.022253 -0.010462 -0.001149 -540393.000000 0 0 1
12.664971 33.515251 -15.942678 39.215336 1.209497 1.989462 -0.011909 -0.006881 -127110.000000 0 0 1
13.802171 32.505641 -15.645178 38.624969 1.169257 1.987834 -0.010319 -0.002262 340806.000000 0 0 1
13.372671 31.184441 -15.441178 37.279052 1.165690 1.997866 0.001243 -0.004014 -3479.220000 0 0 1
14.523671 30.373551 -15.600578 37.106168 1.124766 2.004716 0.003764 -0.006446 218126.000000 0 0 1
14.475371 29.000061 -14.848278 35.651245 1.107829 2.000374 0.019562 -0.004889 -839974.000000 0 0 1
14.804571 29.159131 -13.489578 35.375118 1.100995 1.962030 0.028223 -0.009985 -343910.000000 0 0 1
13.782371 28.967671 -12.552678 34.447779 1.126708 1.943782 0.023602 -0.010340 -6697.720000 0 0 1
13.155871 27.554771 -12.314578 32.924022 1.125355 1.954147 0.014458 -0.013363 -394582.000000 0 0 1
12.134271 27.175741 -13.214978 32.563739 1.150848 1.988671 0.010752 -0.006544 248880.000000 0 0 1
11.469071 25.941301 -12.936878 31.174565 1.154518 1.998719 0.023151 -0.005922 340236.000000 0 0 1
10.765671 25.793251 -11.549878 30.242208 1.175395 1.962661 0.028568 -0.002989 -600769.000000 0 0 1
9.537471 26.493571 -11.545478 30.433053 1.225248 1.959915 0.014782 -0.001987 89244.600000 0 0 1
9.148171 26.902031 -10.222378 30.197770 1.243009 1.916134 0.007658 0.009277 -282119.000000 0 0 1
7.934771 27.810771 -10.091278 30.630597 1.292868 1.906518 0.008835 0.004687 -473258.000000 0 0 1
8.201371 29.150091 -10.350778 32.002014 1.296536 1.900161 0.015749 -0.004051 -208569.000000 0 0 1
7.083171 30.003731 -10.512978 32.571735 1.338965 1.899444 0.018841 -0.011874 -217301.000000 0 0 1
7.449071 31.398981 -11.109978 34.129405 1.337863 1.902363 0.037425 -0.014930 -618790.000000 0 0 1
8.144371 32.230191 -10.213478 34.776877 1.323284 1.868877 0.044479 -0.003774 -455546.000000 0 0 1
8.667471 33.361763 -10.827778 36.129947 1.316613 1.875164 0.042063 -0.010622 225681.000000 0 0 1
9.854171 33.140721 -11.810578 36.536309 1.281779 1.899964 0.034542 -0.020503 126763.000000 0 0 1
11.147371 32.991211 -11.220278 36.586590 1.244951 1.882497 0.031765 -0.007639 240587.000000 0 0 1
12.184271 33.443356 -12.036078 37.573684 1.221417 1.896877 0.027667 -0.008270 139643.000000 0 0 1
13.627171 33.357701 -11.494878 37.822854 1.182970 1.879594 0.022124 -0.014211 303735.000000 0 0 1
14.020371 34.347806 -10.599178 38.583483 1.183251 1.849082 0.024341 -0.006175 93582.500000 0 0 1
15.419271 -34.554349 -10.675078 39.315572 -1.151080 1.845771 0.013031 -0.010863 282144.000000 0 0 1
15.945971 -33.708181 -9.503478 38.481574 -1.128933 1.820340 0.024389 -0.009073 -145428.000000 0 0 1
16.086071 -34.325188 -8.191078 38.782392 -1.132552 1.783605 0.030249 -0.010789 -137480.000000 0 0 1
16.698071 -33.429831 -7.335078 38.081262 -1.107552 1.764624 0.028089 -0.009985 -871056.000000 0 0 1
17.232071 -34.136665 -6.051378 38.715311 -1.103319 1.727744 0.025808 -0.000261 487317.000000 0 0 1
18.205571 33.995143 -6.214478 39.060624 1.079127 1.730574 0.027282 -0.011305 220045.000000 0 0 1
19.472371 34.369019 -6.741378 40.073045 1.055322 1.739827 0.030177 -0.011607 -54509.400000 0 0 1
20.332471 33.156111 -7.182978 39.551641 1.020702 1.753420 0.020481 -0.013384 154839.000000 0 0 1
20.474671 32.017901 -6.371778 38.535149 1.001855 1.736909 0.029137 -0.001804 97336.200000 0 0 1
21.269171 32.159931 -5.169678 38.901984 0.986479 1.704080 0.008968 0.008635 -56408.900000 0 0 1
21.744071 30.822991 -4.571778 37.996876 0.956422 1.691408 -0.000560 0.010758 -279499.000000 0 0 1
22.668271 30.229961 -5.419978 38.171681 0.927384 1.713267 -0.010933 0.008702 -361095.000000 0 0 1
23.056571 28.913211 -5.049178 37.323899 0.897618 1.706492 -0.010045 0.014193 -132481.000000 0 0 1
23.715171 28.103451 -6.172378 37.286882 0.869882 1.737099 -0.010733 0.017919 -75996.300000 0 0 1
24.955771 28.662381 -6.665878 38.584408 0.854418 1.744428 -0.008303 0.010527 1142420.000000 0 0 1
25.791871 27.656831 -7.275278 38.510396 0.820277 1.760856 -0.013720 0.014118 139530.000000 0 0 1
26.453471 26.754741 -6.265278 38.142575 0.791060 1.735804 -0.011260 0.018002 -1711900.000000 0 0 1
27.480771 27.381821 -5.540378 39.187405 0.783595 1.712653 -0.012391 0.012432 -234815.000000 0 0 1
28.084971 26.447801 -4.679478 38.860640 0.755385 1.691506 -0.008688 0.021474 -103558.000000 0 0 1
29.402271 27.043421 -4.134778 40.161382 0.743633 1.673933 -0.007328 0.017016 -150941.000000 0 0 1
29.229171 28.099961 -3.281978 40.678295 0.765704 1.651565 0.010664 0.000468 1604150.000000 0 0 1
30.479271 28.252661 -2.514178 41.635561 0.747505 1.631218 0.025087 -0.008743 1524200.000000 0 0 1
30.376271 29.419691 -1.513878 42.314630 0.769402 1.606581 0.034130 0.007001 113199.000000 0 0 1
30.323771 30.662531 -2.209478 43.181057 0.790953 1.621986 0.022216 0.008482 110337.000000 0 0 1
29.651771 31.650881 -1.466078 43.395336 0.817997 1.604587 0.031349 0.002648 -212622.000000 0 0 1
32.511251 22.980249 19.479745 44.323061 0.615302 1.115760 0.024916 -0.004222 150396.000000 0 0 1
32.603011 22.665449 20.865345 44.855785 0.607494 1.086975 0.016621 -0.006863 155528.000000 0 0 1
33.622011 23.478349 21.434345 46.272061 0.609586 1.089166 0.021571 0.004203 251717.000000 0 0 1
33.498371 23.546049 23.005045 46.965832 0.612671 1.058907 0.019611 0.007844 1325240.000000 0 0 1
32.325521 24.286949 23.492845 46.762260 0.644348 1.044437 0.001652 0.014261 1440450.000000 0 0 1
32.521871 24.671049 24.838825 47.783888 0.648982 1.024161 -0.004231 0.018424 -764446.000000 0 0 1
31.246551 25.213149 25.409975 47.515436 0.678940 1.006557 0.007676 0.008686 -805523.000000 0 0 1
31.026241 26.605349 25.146515 47.987701 0.708839 1.019232 -0.007756 0.015217 290494.000000 0 0 1
29.753881 27.023449 25.604545 47.656615 0.737345 1.003598 -0.011566 0.006690 107311.000000 0 0 1
29.599721 28.555949 25.795235 48.548736 0.767452 1.010631 -0.013491 0.012039 -220877.000000 0 0 1
29.567251 29.338749 24.613945 48.382133 0.781519 1.037075 -0.010451 0.003164 192810.000000 0 0 1
29.088991 30.635849 24.824595 48.999848 0.811292 1.039530 -0.004562 0.008398 -149634.000000 0 0 1
29.223081 31.494649 23.541445 48.990825 0.822793 1.069540 -0.005210 0.008892 -593155.000000 0 0 1
30.556671 31.790949 23.294945 49.870121 0.805192 1.084774 -0.018069 0.009546 -855506.000000 0 0 1
30.749011 32.687549 22.253645 50.091938 0.815947 1.110453 -0.018473 0.011896 334817.000000 0 0 1
32.268231 32.928049 22.035445 51.098493 0.795518 1.124935 -0.026920 -0.004018 212608.000000 0 0 1
32.721171 33.862949 22.980845 52.397457 0.802544 1.116771 -0.016712 0.008746 -1390540.000000 0 0 1
34.062631 34.042049 22.782745 53.274547 0.785096 1.128907 -0.010773 0.002557 -1366160.000000 0 0 1
34.657622 -33.896894 23.530245 53.887128 -0.774302 1.118916 0.001049 0.006200 -521858.000000 0 0 1
34.192581 -32.621894 23.087345 52.596064 -0.761894 1.116360 -0.003861 0.012283 195204.000000 0 0 1
34.401071 -31.607394 24.063525 52.550111 -0.743100 1.095147 -0.002744 0.009873 -473105.000000 0 0 1
33.402911 -30.411694 24.024455 51.164440 -0.738559 1.082011 -0.001971 0.006939 -108693.000000 0 0 1
32.061601 -30.715394 24.269035 50.600076 -0.763957 1.070570 -0.002395 0.012700 -355973.000000 0 0 1
31.252981 -30.827294 23.133045 49.620647 -0.778541 1.085808 0.001015 0.017971 -569977.000000 0 0 1
30.385311 -32.070994 23.154045 49.879109 -0.812381 1.088061 -0.002463 0.019238 -415839.000000 0 0 1
29.410351 -32.142794 24.156305 49.816212 -0.829761 1.064538 0.008794 0.009787 -131285.000000 0 0 1
28.999011 -33.437594 24.456465 50.568112 -0.856368 1.065994 0.003318 0.015936 -215499.000000 0 0 1
27.919851 -33.508194 25.568795 50.557693 -0.876122 1.040563 0.003864 0.016564 46848.300000 0 0 1
27.833751 34.257349 25.888485 51.171254 0.888486 1.040350 0.001500 0.013236 446361.000000 0 0 1
26.918001 34.072049 26.982585 51.122824 0.902163 1.014789 0.001906 0.008446 -201206.000000 0 0 1
26.606551 32.604449 27.313345 50.169487 0.886351 0.995097 -0.003525 0.009649 473114.000000 0 0 1
25.859331 31.915049 26.311795 48.780999 0.889833 1.001088 -0.001996 0.014183 -479876.000000 0 0 1
24.480131 32.118649 26.318105 48.202978 0.919547 0.993232 0.007191 0.011023 -840164.000000 0 0 1
23.843831 31.702449 24.942755 46.858452 0.925944 1.009481 0.032975 0.001140 24682.500000 0 0 1
24.049031 32.530549 23.825345 46.949329 0.934194 1.038551 0.046388 -0.000035 -505033.000000 0 0 1
25.303931 32.563549 23.219445 47.326697 0.910199 1.057995 0.018659 0.004389 -543769.000000 0 0 1
25.358331 33.444149 22.008845 47.391405 0.922049 1.087833 0.020950 0.011864 -216679.000000 0 0 1
26.646151 33.454649 21.454545 47.849016 0.898202 1.105844 0.023186 0.013459 -191595.000000 0 0 1
26.719791 34.252249 20.270945 47.938241 0.908315 1.134202 0.015664 0.008833 436730.000000 0 0 1
28.130681 -34.417694 19.765945 48.647769 -0.885576 1.152387 0.032901 0.001616 348751.000000 0 0 1
28.899081 33.705849 19.124045 48.342220 0.862027 1.164078 0.037002 -0.003551 -767935.000000 0 0 1
29.922011 34.477849 18.591345 49.291854 0.856023 1.184059 0.026010 -0.001054 -743561.000000 0 0 1
30.942501 33.563949 17.835045 49.010875 0.826014 1.198345 0.005813 0.008258 99411.500000 0 0 1
31.731811 32.783149 18.723445 49.317442 0.801693 1.181377 0.000755 0.004507 -52326.900000 0 0 1
32.459581 31.790049 18.019345 48.876665 0.774978 1.193219 0.021349 -0.003453 323623.000000 0 0 1
33.468731 30.928249 18.831845 49.308730 0.745968 1.178927 0.014299 -0.000315 722201.000000 0 0 1
34.580538 31.643849 19.367945 50.717492 0.741083 1.178968 0.014954 0.003284 319580.000000 0 0 1
35.305032 30.955549 20.364745 51.180212 0.719850 1.161567 0.016539 0.003672 -191729.000000 0 0 1
-34.196940 31.792449 20.939645 51.172837 -0.748977 1.149225 0.042671 0.002141 -385802.000000 0 0 1
-33.241989 32.119449 19.931145 50.338250 -0.768226 1.163700 0.040813 -0.000388 816999.000000 0 0 1
-32.055709 32.820949 20.368445 50.196182 -0.797193 1.152968 0.029297 0.003304 902044.000000 0 0 1
-32.237549 34.171149 21.087645 51.493842 -0.814507 1.148871 0.017604 0.001508 -645767.000000 0 0 1
-32.216809 34.095749 22.492745 52.022749 -0.813725 1.123684 0.034764 0.003266 229288.000000 0 0 1
-32.208739 -33.804094 23.155445 52.118080 0.809561 1.110417 0.023339 0.004543 -204886.000000 0 0 1
-32.247179 -33.996194 24.683945 52.961485 0.811795 1.085949 0.024382 -0.013491 -254324.000000 0 0 1
-33.501189 -34.163994 25.303295 54.127302 0.795193 1.084361 0.016887 -0.004543 -650048.000000 0 0 1
-33.392799 34.495349 26.618825 54.895992 -0.801637 1.064553 0.020319 -0.004002 -211901.000000 0 0 1
-34.712468 34.393049 27.371155 56.009083 -0.780776 1.060207 0.002945 -0.005169 -160594.000000 0 0 1
-34.602797 33.604349 28.564445 56.058303 -0.770761 1.036136 0.017405 -0.011328 -794252.000000 0 0 1
34.791966 33.451249 29.172285 56.395825 0.765755 1.027130 0.020587 -0.020658 -325201.000000 0 0 1
34.811666 32.332449 30.302435 56.351370 0.748491 1.003041 0.020585 -0.014295 -36183.000000 0 0 1
34.637410 30.938949 29.895155 55.233042 0.729059 0.998868 0.012623 -0.011999 322673.000000 0 0 1
-34.981296 30.443349 29.029125 54.709950 -0.716148 1.011488 0.010318 -0.008529 -66828.200000 0 0 1
-35.162773 28.905949 28.786815 53.857731 -0.688049 1.006883 0.014612 -0.003337 -175709.000000 0 0 1
34.481651 28.589149 27.800225 52.717892 0.692242 1.015330 0.004483 0.003419 485879.000000 0 0 1
34.338671 27.227749 27.527435 51.751853 0.670408 1.009939 0.014661 0.005500 164564.000000 0 0 1
33.666921 26.354549 28.630175 51.455910 0.664166 0.980747 0.014964 -0.002134 -327626.000000 0 0 1
34.602807 25.920049 29.603835 52.398380 0.642908 0.970392 0.008984 -0.005153 177323.000000 0 0 1
34.224341 24.642349 30.084375 51.803672 0.624039 0.951161 0.011265 0.001233 -79134.600000 0 0 1
34.813161 23.416949 29.304145 51.176582 0.592131 0.961112 0.005745 0.008342 -279703.000000 0 0 1
34.218351 23.298949 28.045585 50.002914 0.597785 0.975349 0.005582 0.002477 -133969.000000 0 0 1
34.758115 22.320849 27.163205 49.438715 0.570856 0.989112 0.004124 0.005489 -207960.000000 0 0 1
34.516431 20.817249 27.519225 48.806245 0.542704 0.971761 0.003287 -0.001307 -228164.000000 0 0 1
33.182101 20.417849 27.233565 47.535328 0.551613 0.960742 0.019794 0.003588 446927.000000 0 0 1
32.797601 19.120849 27.778645 47.041924 0.527822 0.939108 0.022161 0.000342 -345247.000000 0 0 1
32.635541 19.023049 29.333225 47.826697 0.527746 0.910535 0.016809 -0.010867 400447.000000 0 0 1
31.419761 19.612149 29.834955 47.560091 0.558022 0.892701 0.019498 -0.012998 785514.000000 0 0 1
31.352501 21.055249 29.764025 48.085340 0.591386 0.903349 0.013006 -0.006017 -863722.000000 0 0 1
30.148181 21.887949 30.286355 48.013106 0.627971 0.888221 0.012885 -0.013467 4095.360000 0 0 1
28.922491 21.678949 29.616625 46.729346 0.643215 0.884352 0.031646 -0.019216 175759.000000 0 0 1
28.830391 22.345749 28.370505 46.210491 0.659358 0.909753 0.032968 -0.005193 -632183.000000 0 0 1
28.753201 23.928549 28.314385 46.915098 0.694072 0.922883 0.042189 -0.006474 6665.500000 0 0 1
30.002441 24.536849 28.600965 48.168647 0.685518 0.935064 0.020361 -0.009053 114170.000000 0 0 1
29.903261 25.887449 28.998415 49.043583 0.713542 0.938153 -0.000279 -0.000349 -110044.000000 0 0 1
30.017351 26.105249 30.539755 50.151789 0.715804 0.916065 0.000731 -0.009854 -59355.000000 0 0 1
31.341231 25.794049 30.947785 51.042836 0.688613 0.919384 -0.000387 -0.007922 114475.000000 0 0 1
31.690601 25.875449 32.333485 52.146786 0.684723 0.901993 0.009310 -0.011441 -71264.700000 0 0 1
31.212411 24.587149 33.056605 51.686377 0.667218 0.876869 0.013467 -0.012500 -306444.000000 0 0 1
31.542981 24.383949 34.448575 52.690045 0.658084 0.858205 -0.001911 -0.005080 313492.000000 0 0 1
31.039391 23.203249 -33.997738 51.552699 0.641926 2.290917 -0.003219 -0.010416 29834.000000 0 0 1
31.706331 22.898149 -32.609308 50.921347 0.625467 2.265797 -0.005101 -0.008951 92551.600000 0 0 1
30.944831 23.609049 -31.652498 50.168221 0.651731 2.253544 -0.017327 -0.007521 678377.000000 0 0 1
31.325031 23.231349 -30.323478 49.401077 0.638118 2.231689 0.012476 -0.022354 105334.000000 0 0 1
32.614231 23.906149 -29.741138 50.196885 0.632530 2.204942 0.009952 0.007663 445105.000000 0 0 1
32.939121 23.565549 -28.381778 49.455496 0.621005 2.182039 0.013285 -0.004882 185104.000000 0 0 1
34.191511 24.155049 -28.023268 50.376873 0.615051 2.160690 0.016791 0.006675 349412.000000 0 0 1
34.666064 23.485349 -26.714288 49.668408 0.595447 2.138684 0.019610 -0.000521 -347522.000000 0 0 1
-35.097876 22.469549 -27.170448 49.749118 -0.569453 2.148557 0.028303 -0.009051 1794.910000 0 0 1
-35.252164 21.196049 -26.552648 48.959480 -0.541352 2.144015 0.023821 -0.007350 -1416680.000000 0 0 1
-34.107002 20.318349 -26.869258 47.938293 -0.537269 2.165782 0.030717 -0.006236 -24331.100000 0 0 1
-32.843329 20.665249 -26.257028 46.852623 -0.561619 2.165686 0.033419 -0.005144 1046470.000000 0 0 1
-31.918289 19.566149 -26.339088 45.775091 -0.549929 2.183892 0.023086 -0.010946 880068.000000 0 0 1
-30.531059 19.952249 -25.719238 44.628657 -0.578836 2.184983 0.019036 -0.005941 247428.000000 0 0 1
-30.539069 20.175049 -24.331878 43.951196 -0.583812 2.157491 0.011532 -0.004528 534151.000000 0 0 1
-29.226629 20.350949 -23.785778 42.826630 -0.608249 2.159637 0.001884 -0.006134 437457.000000 0 0 1
-29.346789 20.689549 -22.277678 42.256200 -0.614075 2.126104 -0.013215 -0.008758 270333.000000 0 0 1
-30.200789 19.754349 -21.636878 42.077030 -0.579252 2.110895 -0.019789 -0.003108 -71452.000000 0 0 1
-30.625479 20.326749 -20.462078 42.068912 -0.585960 2.078755 -0.014637 0.004845 -458656.000000 0 0 1
-31.608079 19.395249 -19.654278 41.970668 -0.550372 2.058146 -0.020987 0.005656 197007.000000 0 0 1
-32.016249 19.934749 -18.385278 41.957751 -0.556904 2.024375 -0.012940 0.002003 609871.000000 0 0 1
-33.082839 20.874249 -18.617678 43.322355 -0.562880 2.015010 -0.019276 -0.000086 -259837.000000 0 0 1
-34.333011 20.654049 -17.758878 43.826055 -0.541580 1.988008 0.003804 -0.004377 -386279.000000 0 0 1
-34.058189 20.949749 -16.410478 43.222170 -0.551460 1.960244 0.000280 -0.008387 800024.000000 0 0 1
-35.265502 20.878849 -15.612578 43.855838 -0.534551 1.934778 0.007850 -0.001876 141096.000000 0 0 1
-35.175343 21.576749 -14.233378 43.651459 -0.550218 1.902938 0.020127 -0.003641 -330514.000000 0 0 1
-35.225544 22.985849 -14.307278 44.428441 -0.578154 1.898669 0.019151 -0.004986 1085410.000000 0 0 1
34.123281 23.566349 -14.610378 43.968560 0.604405 1.909528 0.030512 -0.002044 649428.000000 0 0 1
34.186311 25.057549 -14.984178 44.956759 0.632513 1.910600 0.011224 0.001247 -164642.000000 0 0 1
34.210621 25.938649 -13.857178 45.113207 0.648731 1.883008 0.017748 0.004935 113300.000000 0 0 1
34.031701 27.269649 -14.201378 45.863597 0.675534 1.885615 0.004863 0.012953 -660580.000000 0 0 1
35.312472 27.949349 -14.695078 47.371744 0.669528 1.886208 0.010531 0.018212 -165762.000000 0 0 1
-35.105830 27.865349 -16.087378 47.620381 -0.670920 1.915402 0.005071 0.020957 -622436.000000 0 0 1
-33.864979 28.349949 -16.455278 47.131015 -0.696984 1.927449 0.013444 0.010476 -1414830.000000 0 0 1
-33.736039 28.329049 -18.026278 47.598341 -0.698499 1.959205 0.000332 0.013771 -328283.000000 0 0 1
-33.424889 27.066449 -18.557278 46.842165 -0.680670 1.978134 0.001139 0.005281 424908.000000 0 0 1
-32.071109 26.694449 -18.334878 45.577598 -0.694159 1.984800 -0.008466 0.010212 98892.200000 0 0 1
-31.715389 25.329649 -19.011478 44.820680 -0.673920 2.008839 -0.010991 0.009018 -351611.000000 0 0 1
-31.643389 25.367349 -20.403678 45.399521 -0.675754 2.036918 -0.013736 0.003749 70444.700000 0 0 1
-31.073709 24.246249 -20.977278 44.648653 -0.662601 2.059895 -0.012092 0.005443 -123313.000000 0 0 1
-30.767589 24.297749 -22.525778 45.215438 -0.668441 2.092304 -0.014207 0.008410 447568.000000 0 0 1
-31.985989 24.250949 -23.247578 46.386010 -0.648712 2.095754 0.006204 0.005389 458991.000000 0 0 1
-31.651939 24.073149 -24.591378 46.755723 -0.650224 2.124633 0.014942 0.007144 -3950.870000 0 0 1
-32.470769 24.846049 -25.617108 48.248453 -0.653147 2.130508 0.001906 0.012108 -140201.000000 0 0 1
-32.046309 26.154349 -25.611438 48.651430 -0.684507 2.125189 -0.010712 0.019686 149839.000000 0 0 1
-32.842179 26.889049 -26.562068 50.071680 -0.686061 2.129964 0.003798 0.012810 199485.000000 0 0 1
-32.395899 28.361149 -26.707418 50.666905 -0.719088 2.126001 -0.009751 0.010818 891917.000000 0 0 1
-31.157399 28.295849 -27.452538 50.250178 -0.737304 2.148757 -0.015482 0.004300 311459.000000 0 0 1
-30.725899 29.619049 -27.737488 50.899285 -0.767058 2.147124 -0.011915 0.001677 366130.000000 0 0 1
-29.403279 29.620349 -28.563638 50.574690 -0.789076 2.170965 0.009895 -0.003164 -52175.700000 0 0 1
-28.316079 29.311249 -27.735498 49.297135 -0.802666 2.168347 -0.003023 -0.002674 -518649.000000 0 0 1
-27.077869 29.407249 -28.410798 49.042540 -0.826614 2.188677 0.011600 -0.002933 104857.000000 0 0 1
-26.209029 30.592749 -28.033188 49.078398 -0.862421 2.178754 0.016599 -0.011350 -584297.000000 0 0 1
-25.743879 30.662949 -26.653548 48.097561 -0.872385 2.158145 0.018687 -0.010836 -94583.200000 0 0 1
-26.760549 30.965949 -25.755438 48.356588 -0.858120 2.132483 -0.008166 -0.004292 -455608.000000 0 0 1
-26.184219 31.350149 -24.390078 47.574374 -0.874947 2.109091 -0.013852 -0.007998 85833.600000 0 0 1
-25.986479 32.713449 -24.257178 48.310222 -0.899500 2.096836 0.018065 -0.005259 -100672.000000 0 0 1
-24.841429 32.984649 -23.472378 47.497749 -0.925301 2.087686 0.024530 -0.001349 -102735.000000 0 0 1
-24.269029 34.362249 -23.750778 48.309930 -0.955875 2.084761 0.021101 0.003158 -672562.000000 0 0 1
-24.937229 -33.725594 -23.160778 47.913492 0.934104 2.075316 -0.000277 -0.004157 -275580.000000 0 0 1
-24.428029 -32.438694 -23.446978 46.890918 0.925345 2.094433 0.011964 -0.001443 -116567.000000 0 0 1
16.544771 9.252049 -25.312868 31.623901 0.509889 2.498816 0.016243 -0.016815 -899707.000000 0 0 1
15.356771 8.535949 -25.391248 30.877311 0.507318 2.536285 0.020025 -0.018353 -489441.000000 0 0 1
15.458771 7.134849 -25.381058 30.562686 0.432409 2.550727 0.012178 -0.022180 898801.000000 0 0 1
14.018171 6.472749 -25.341908 29.675207 0.432574 2.594376 0.013729 -0.012732 927013.000000 0 0 1
13.369371 6.681249 -24.110678 28.367304 0.463442 2.586679 0.040417 -0.028324 399457.000000 0 0 1
12.232171 5.785549 -24.121178 27.657364 0.441797 2.630362 0.034794 -0.019322 353090.000000 0 0 1
11.350371 5.991549 -22.873378 26.228248 0.485696 2.630252 0.039076 -0.030594 -371420.000000 0 0 1
11.954571 5.525149 -21.684878 25.370711 0.432936 2.595809 0.047140 -0.022491 25050.800000 0 0 1
11.187471 5.591549 -20.496678 24.011221 0.463491 2.593710 0.053908 -0.017040 -100376.000000 0 1 0
11.032871 6.936249 -19.871078 23.763323 0.561248 2.561128 0.034475 -0.027091 91499.800000 0 1 0
11.000071 6.891749 -18.482778 22.585634 0.559691 2.529317 0.030222 -0.018334 -379953.000000 0 1 0
11.329671 8.095849 -17.810378 22.607826 0.620438 2.478020 0.029583 -0.023451 1648510.000000 0 1 0
12.864971 8.368749 -17.450678 23.239397 0.576731 2.420234 0.034370 -0.024112 1461490.000000 0 1 0
13.208971 7.732349 -16.225778 22.305650 0.529605 2.385364 0.035068 -0.027645 -245908.000000 0 1 0
14.565771 7.970449 -15.994078 23.054290 0.500694 2.337489 0.026834 -0.027093 -829408.000000 0 1 0
15.060771 7.521249 -14.565978 22.261260 0.463162 2.284079 0.021277 -0.018291 -274237.000000 0 1 0
16.472571 7.624149 -14.530278 23.250854 0.433479 2.245845 0.026205 -0.019806 465741.000000 0 1 0
16.947571 8.287649 -13.380678 23.128939 0.454823 2.187716 0.024538 -0.010889 -93578.300000 0 1 0
17.053471 9.825949 -13.627278 23.938940 0.522724 2.176392 0.017778 -0.005832 -230534.000000 0 1 0
15.852171 10.562549 -13.394178 23.286536 0.587760 2.183632 0.011698 -0.003438 643983.000000 0 1 0
16.060171 11.945349 -13.515478 24.151368 0.639513 2.164718 0.017223 0.002653 -274860.000000 0 1 0
14.882371 12.765249 -12.986978 23.518039 0.708972 2.155813 0.019294 -0.007160 -594355.000000 0 1 0
14.598571 12.750849 -11.610478 22.594371 0.717941 2.110482 0.037945 -0.004248 135310.000000 0 1 0
15.173271 13.789249 -10.816978 23.181427 0.737648 2.056265 0.043255 0.002174 -12625.900000 0 1 0
14.531271 15.219749 -11.057578 23.771172 0.808535 2.054620 0.020418 0.002853 80544.200000 0 1 0
13.280071 15.525949 -10.505078 22.973290 0.863206 2.045723 0.032341 0.002058 -29733.100000 0 1 0
12.970871 16.898049 -10.570178 23.780585 0.916129 2.031399 0.033231 -0.000140 83018.600000 0 1 0
11.957371 17.239649 -9.453278 23.011925 0.964381 1.994127 0.028464 -0.000536 -7102.960000 0 1 0
12.462671 17.186549 -8.126178 22.731705 0.943396 1.936367 0.038193 -0.002886 -506700.000000 0 1 0
11.477971 17.355249 -7.185878 22.013299 0.986480 1.903324 0.040642 -0.006791 -827588.000000 0 1 0
11.946371 17.028349 -5.727078 21.574982 0.959026 1.839467 0.042111 -0.014606 135053.000000 0 1 0
12.817271 18.044149 -5.293678 22.757345 0.953172 1.805561 0.050132 -0.016201 285554.000000 0 1 0
13.437871 17.782949 -4.028478 22.650348 0.923682 1.749603 0.055499 -0.016460 51773.600000 0 1 0
14.435271 18.824449 -3.494078 23.978021 0.916607 1.717037 0.057116 -0.022936 352996.000000 0 1 0
15.647671 18.933749 -4.251278 24.928093 0.880138 1.742176 0.060018 -0.028489 453510.000000 0 1 0
16.305271 20.158149 -4.004778 26.234540 0.890672 1.724048 0.051359 -0.029698 -56254.400000 0 0 1
17.700971 20.185249 -4.672378 27.250684 0.850877 1.743107 0.050034 -0.030099 -188713.000000 0 0 1
18.664471 19.311549 -4.172478 27.179183 0.802436 1.724923 0.046450 -0.040355 -197357.000000 0 0 1
18.798171 18.152549 -4.976278 26.601684 0.767927 1.758971 0.046841 -0.026269 -498380.000000 0 0 1
19.755571 17.063949 -4.474278 26.485470 0.712425 1.740544 0.062402 -0.028022 -1333050.000000 0 0 1
21.048071 17.442249 -4.699578 27.736968 0.691990 1.741051 0.046446 -0.031307 -800330.000000 0 0 1
21.986171 16.489249 -4.149278 27.793948 0.643490 1.720644 0.049318 -0.027016 449050.000000 0 0 1
23.485671 16.790049 -4.307078 29.189611 0.620660 1.718892 0.034068 -0.017848 -174136.000000 0 0 1
23.977571 17.967149 -3.731578 30.193824 0.643073 1.694701 0.040765 -0.018011 -371003.000000 0 0 1
25.345871 18.017849 -4.005278 31.354398 0.617990 1.698888 0.027183 -0.013120 -471735.000000 0 0 1
26.128571 19.178249 -3.353778 32.584586 0.633179 1.673904 0.029673 -0.007895 -112264.000000 0 0 1
25.996871 20.391549 -4.101578 33.293776 0.665147 1.694304 0.028908 -0.007211 211614.000000 0 0 1
26.221571 21.527049 -3.269078 34.083302 0.687396 1.666858 0.028071 0.012138 -229970.000000 0 0 1
26.042271 22.870349 -3.980178 34.886882 0.720640 1.685133 0.007710 0.014917 318134.000000 0 0 1
27.002771 23.323349 -4.978478 36.026566 0.712416 1.709429 0.002193 0.017369 756604.000000 0 0 1
27.247671 22.461449 -6.091878 35.833828 0.689409 1.741630 0.010919 0.008787 -90018.100000 0 0 1
28.232271 23.126449 -7.094078 37.178215 0.686309 1.762786 -0.002007 0.011460 -171672.000000 0 0 1
27.734771 24.190649 -7.880178 37.636448 0.717250 1.781733 -0.006222 0.007854 1037060.000000 0 0 1
28.858371 24.921749 -8.453478 39.055863 0.712330 1.788969 -0.010496 0.010765 1260400.000000 0 0 1
29.736471 24.173749 -9.522478 39.488042 0.682577 1.814345 -0.007447 0.005966 89654.800000 0 0 1
29.090771 23.985149 -10.773078 39.212492 0.689499 1.849111 -0.004988 0.002918 91819.700000 0 0 1
30.056571 23.545649 -11.710578 39.936608 0.664523 1.868399 -0.012479 -0.003749 103135.000000 0 0 1
29.581471 22.979949 -13.086178 39.678578 0.660456 1.906893 -0.010369 0.000671 -32420.100000 0 0 1
29.175471 23.867949 -14.130078 40.256008 0.685670 1.929441 -0.010977 0.004997 153354.000000 0 0 1
29.009271 23.063349 -15.242578 40.072335 0.671705 1.961000 -0.003465 0.005658 -122006.000000 0 0 1
29.092471 23.823949 -16.615278 41.109851 0.686162 1.986865 -0.000347 0.009549 -166701.000000 0 0 1
30.348371 24.429649 -16.826278 42.437660 0.677767 1.978491 -0.003321 0.015231 5238.510000 0 0 1
30.449871 25.006749 -18.156878 43.384379 0.687561 2.002603 -0.000534 0.013863 -226891.000000 0 0 1
31.801471 25.706349 -18.339678 44.816222 0.679805 1.992395 -0.000644 0.013886 -31409.800000 0 0 1
32.820471 24.760149 -18.617278 45.131489 0.646319 1.996006 0.012544 0.012794 213532.000000 0 0 1
34.076271 25.331249 -19.003678 46.518858 0.639244 1.991623 0.017383 0.004303 842211.000000 0 0 1
35.159571 24.172349 -18.866278 46.652270 0.602290 1.987121 0.020149 -0.005579 238662.000000 0 0 1
34.997271 23.155349 -19.834378 46.415318 0.584510 2.012327 0.016531 -0.001317 359068.000000 0 0 1
-34.892189 23.533949 -20.986978 47.029404 -0.593390 2.033369 0.009343 0.002285 -179049.000000 0 0 1
-35.055889 22.650049 -22.210578 47.278429 -0.573638 2.059841 0.017712 -0.001835 113553.000000 0 0 1
-34.476089 21.370849 -21.964978 46.127802 -0.554905 2.067098 0.010724 -0.009240 393446.000000 0 0 1
-34.004389 20.714349 -23.154478 46.059880 -0.547133 2.097520 0.010149 -0.011981 357530.000000 0 0 1
-33.616489 19.197849 -22.991478 45.024813 -0.518887 2.106726 -0.008147 -0.007565 798027.000000 0 0 1
-34.801589 18.483849 -22.592678 45.422818 -0.488233 2.091379 0.004351 -0.011020 837240.000000 0 0 1
-34.589889 17.075049 -22.652578 44.734293 -0.458549 2.101779 -0.010199 -0.005439 -853269.000000 0 0 1
34.863871 16.187849 -22.384078 44.481264 0.434695 2.098123 -0.002725 -0.010153 -952619.000000 0 0 1
33.787971 16.386149 -23.275778 44.180252 0.451551 2.125671 0.030667 -0.013213 43222.800000 0 0 1
32.809871 15.389049 -23.194478 43.026669 0.438572 2.140131 0.045389 -0.008659 -512779.000000 0 0 1
33.211771 14.014549 -23.897978 43.249771 0.399306 2.156226 0.023766 -0.010141 -824318.000000 0 0 1
33.038071 13.950649 -25.345898 43.915251 0.399547 2.186037 0.027199 -0.004571 365038.000000 0 0 1
33.605771 12.723249 -25.856648 44.269574 0.361926 2.194533 0.018709 0.001188 -174697.000000 0 0 1
33.420971 12.409949 -27.342628 44.928693 0.355542 2.225064 0.030686 -0.005703 -65202.300000 0 0 1
32.112571 12.319049 -27.871278 44.269451 0.366307 2.251812 0.030677 -0.010236 320067.000000 0 0 1
31.589471 13.512949 -28.512518 44.648159 0.404212 2.263480 0.029168 -0.011879 25415.200000 0 0 1
31.958571 13.706249 -30.009188 45.932155 0.405149 2.282781 0.029195 -0.019104 1021430.000000 0 0 1
33.346471 14.052949 -30.239498 47.158241 0.398836 2.266902 0.031821 -0.013781 1212940.000000 0 0 1
33.716871 13.851649 -31.618468 48.253736 0.389801 2.285316 0.031725 -0.021513 6747.070000 0 0 1
35.161871 14.362949 -31.971038 49.646739 0.387796 2.270473 0.050752 -0.024590 751137.000000 0 0 1
-34.421589 13.514649 -31.587038 48.633656 -0.374129 2.277709 0.044207 -0.017246 -77311.600000 0 0 1
-34.104489 13.592149 -30.233888 47.559969 -0.379251 2.259712 0.033441 -0.020144 -696714.000000 0 0 1
-32.953589 12.629749 -29.853838 46.224466 -0.365991 2.272926 0.022582 -0.011371 69968.700000 0 0 1
-33.387189 11.274849 -29.867738 46.194246 -0.325675 2.273874 0.024785 -0.017431 759481.000000 0 0 1
-32.324389 10.343049 -29.650078 45.066306 -0.309682 2.288851 0.028562 -0.015902 188285.000000 0 0 1
-32.773689 8.960649 -30.106518 45.396149 -0.266887 2.295876 0.029497 -0.010536 -487951.000000 0 0 1
-32.995889 9.041449 -31.515088 46.515344 -0.267453 2.315182 0.025718 -0.016914 82263.800000 0 0 1
-33.205689 7.835549 -32.217308 46.925138 -0.231731 2.327555 0.020317 -0.006558 -632887.000000 0 0 1
-34.506189 7.069349 -31.920138 47.534703 -0.202076 2.307044 0.013842 0.013802 -458300.000000 0 0 1
-34.493689 6.463249 -30.682938 46.615779 -0.185227 2.289234 0.014520 0.007803 670545.000000 0 0 1
34.902671 5.861949 -30.305108 46.593545 0.166398 2.278926 0.019790 0.012107 256559.000000 0 0 1
34.968971 5.010549 -29.008408 45.710199 0.142317 2.258307 0.018349 0.005499 -369790.000000 0 0 1
-34.809989 3.933649 -29.117678 45.552696 -0.112526 2.264265 0.015352 0.016029 155163.000000 0 0 1
-35.099689 3.118549 -27.982958 44.997327 -0.088616 2.241938 0.010511 0.021395 188652.000000 0 0 1
-34.244189 1.807949 -27.885528 44.198822 -0.052747 2.253523 0.012538 0.021034 1369960.000000 0 0 1
-32.879789 2.023049 -27.424988 42.863775 -0.061451 2.265057 0.009632 0.017156 1224730.000000 0 0 1
-32.243589 0.757249 -27.303358 42.257494 -0.023481 2.273284 0.016106 0.016858 45232.200000 0 0 1
-31.053989 0.745749 -26.339368 40.726756 -0.024010 2.274091 0.010800 0.011633 -193789.000000 0 0 1
-31.528489 0.713549 -24.992178 40.238834 -0.022628 2.240937 0.020387 0.014051 43516.000000 0 0 1
-30.558889 0.689749 -23.972078 38.845617 -0.022567 2.235863 0.041553 0.009961 -629982.000000 0 0 1
-31.128189 0.551949 -22.576178 38.457153 -0.017730 2.198203 0.041548 0.015372 -678554.000000 0 0 1
-31.424689 -0.786851 -22.284778 38.532344 0.025034 2.187488 0.048685 0.005676 293630.000000 0 0 1
-31.869889 -0.895751 -20.946678 38.147811 0.028099 2.152074 0.030119 0.007029 323003.000000 0 0 1
-33.404489 -0.752951 -20.694978 39.302785 0.022537 2.125337 0.022926 0.007830 326697.000000 0 0 1
-34.148489 -1.944851 -20.966978 40.118773 0.056891 2.120721 0.005016 0.011822 1066590.000000 0 0 1
35.162971 -1.895051 -20.414778 40.703672 -0.053841 2.096182 0.001812 0.013553 552376.000000 0 0 1
34.623571 -3.311451 -19.927478 40.085680 -0.095351 2.091075 -0.002872 0.015563 -285339.000000 0 0 1
34.186171 -4.234151 -20.918578 40.301479 -0.123228 2.116538 -0.006837 0.025181 -200138.000000 0 0 1
35.111271 -4.486451 -21.913878 41.631090 -0.127089 2.125137 -0.014506 0.018119 -938024.000000 0 0 1
34.621071 -5.370451 -23.117478 41.974731 -0.153894 2.154056 -0.018102 0.015110 -627205.000000 0 0 1
34.374471 -6.733451 -22.767878 41.777026 -0.193436 2.147168 -0.008599 0.019753 154263.000000 0 0 1
34.074171 -7.626151 -23.805178 42.259837 -0.220182 2.169177 -0.007571 0.017065 626293.000000 0 0 1
32.620571 -7.420151 -24.351778 41.378368 -0.223663 2.200017 -0.016662 0.022505 98285.800000 0 0 1
32.365971 -6.312151 -25.150178 41.472048 -0.192607 2.222368 -0.007581 0.014768 383738.000000 0 0 1
30.983771 -5.958151 -25.243728 40.407170 -0.189980 2.245587 0.003789 0.012374 598023.000000 0 0 1
30.684271 -4.715051 -26.092008 40.553040 -0.152471 2.269734 0.020760 -0.007743 -64650.600000 0 0 1
30.657071 -5.071851 -27.471048 41.475754 -0.163953 2.294734 0.021108 -0.011730 242204.000000 0 0 1
30.376671 -3.979651 -28.324528 41.723598 -0.130268 2.317007 0.036760 -0.016047 -79079.500000 0 0 1
30.315571 -4.374651 -29.826038 42.752356 -0.143314 2.342904 0.047238 -0.016289 -73815.900000 0 0 1
30.096571 -3.267051 -30.634768 43.069319 -0.108129 2.362128 0.039352 -0.019556 243576.000000 0 0 1
29.544171 -3.613151 -31.912948 43.638849 -0.121692 2.391018 0.046655 -0.023726 -490654.000000 0 0 1
29.279471 -2.397151 -32.789748 44.025008 -0.081689 2.411029 0.057064 -0.021074 -140396.000000 0 0 1
28.384071 -1.411951 -32.282158 43.009148 -0.049704 2.419748 0.061264 -0.020650 1244710.000000 0 0 1
27.004771 -1.781351 -32.094958 41.982344 -0.065869 2.441042 0.071239 -0.027917 913078.000000 0 0 1
26.036271 -2.050651 -33.283608 42.307105 -0.078599 2.476265 0.069031 -0.027142 -237439.000000 0 0 1
26.462771 -3.219851 -33.934708 43.153332 -0.121080 2.475715 0.077890 -0.027727 342025.000000 0 0 1
25.694271 -3.415151 33.937507 42.703784 -0.132140 0.652252 0.064438 -0.026756 -194020.000000 0 0 1
25.914871 -4.824951 33.371889 42.526975 -0.184077 0.668547 0.060125 -0.021545 796862.000000 0 0 1
27.214671 -5.088351 32.805935 42.927369 -0.184837 0.700966 0.064172 -0.018452 735663.000000 0 0 1
27.469071 -4.531651 31.507825 42.045555 -0.163500 0.723681 0.067108 -0.021656 -173138.000000 0 0 1
28.148471 -3.108151 31.445245 42.317850 -0.109974 0.733146 0.055944 -0.018498 -417519.000000 0 0 1
29.399271 -3.129951 32.092455 43.635299 -0.106064 0.744436 0.058252 -0.021049 -285804.000000 0 0 1
29.793971 -1.792851 32.307055 43.984552 -0.060102 0.745853 0.050697 -0.019958 -278029.000000 0 0 1
31.169471 -1.671051 32.973455 45.404593 -0.053561 0.757998 0.040722 -0.016766 -22146.800000 0 0 1
32.242271 -1.874751 32.074305 45.517466 -0.058080 0.788854 0.044521 -0.012768 -57958.200000 0 0 1
33.503071 -1.689151 32.667785 46.824066 -0.050375 0.798655 0.043685 -0.013067 1269010.000000 0 0 1
34.762871 -2.348051 31.928235 47.258679 -0.067442 0.829010 0.036654 -0.004879 1103320.000000 0 0 1
35.116971 -1.806351 30.623015 46.628678 -0.051393 0.854306 0.022351 0.003179 -545235.000000 0 0 1
-34.520589 -2.564651 30.046835 45.837329 0.074157 0.855938 0.024834 -0.004285 -341946.000000 0 0 1
-34.165689 -2.008651 28.672915 44.648236 0.058724 0.873437 0.025243 0.001118 -711354.000000 0 0 1
-35.252289 -1.921451 27.832005 44.955938 0.054452 0.903206 0.028331 -0.011016 -804244.000000 0 0 1
-34.906589 -1.269051 26.649405 43.934852 0.036340 0.919062 0.030239 -0.003070 -93388.500000 0 0 1
-25.993729 15.323549 12.892822 32.813259 -0.532670 1.166997 0.037502 -0.001051 32145.100000 0 0 1
-27.208539 14.633749 13.113922 33.562273 -0.493457 1.169367 0.010072 0.013189 81847.000000 0 0 1
-28.059419 15.433849 13.897922 34.909697 -0.502875 1.161340 0.018010 0.002349 147520.000000 0 0 1
-29.516329 14.904549 14.014222 35.913197 -0.467607 1.169921 0.025574 0.006948 499011.000000 0 0 1
-30.302559 15.741949 14.858522 37.240163 -0.479120 1.160379 0.015710 -0.005309 424648.000000 0 0 1
-31.606639 15.184649 15.120622 38.186207 -0.447866 1.163672 0.016362 0.002448 824666.000000 0 0 1
-32.494649 16.201849 15.897422 39.637484 -0.462527 1.158111 0.025178 0.000661 -327701.000000 0 0 1
-32.049309 16.600249 17.177722 39.972498 -0.477912 1.126593 0.030165 0.005368 -383594.000000 0 0 1
-32.981569 16.598049 18.249122 41.186279 -0.466246 1.111757 0.022906 -0.002253 -421022.000000 0 0 1
-32.373669 16.720049 19.659622 41.401875 -0.476737 1.076004 0.017828 0.000156 27807.800000 0 0 1
-31.756899 15.501849 20.105822 40.657743 -0.454116 1.053521 0.005941 -0.003412 -379681.000000 0 0 1
-30.629489 15.614949 20.917622 40.243498 -0.471458 1.024207 0.014488 0.003193 -170539.000000 0 0 1
-30.777219 16.206649 22.342522 41.341033 -0.484684 0.999831 0.019767 -0.014285 -379612.000000 0 0 1
-31.148159 17.638049 22.312422 42.180004 -0.515243 1.013397 0.020102 -0.011033 90510.300000 0 0 1
-31.214699 18.251749 23.576722 43.166487 -0.529106 0.992998 0.016019 -0.014532 -514547.000000 0 0 1
-32.139649 17.616349 24.653722 44.171244 -0.501398 0.978654 0.006381 -0.007963 783395.000000 0 0 1
-33.515269 17.324949 24.399322 44.930547 -0.477097 0.996737 0.018858 -0.002851 657340.000000 0 0 1
-34.412028 18.419249 24.227222 45.939250 -0.491453 1.015288 0.010043 -0.003519 -621180.000000 0 0 1
34.858128 17.796249 23.972122 45.896167 0.472039 1.021236 -0.013192 -0.007429 -434459.000000 0 0 1
34.332911 16.993649 25.064222 45.779341 0.459613 0.991422 -0.003246 -0.000709 -29354.400000 0 0 1
33.421731 16.057749 24.501522 44.443087 0.447892 0.986873 0.002339 -0.000492 234032.000000 0 0 1
32.781821 15.206949 25.626922 44.301673 0.434339 0.953952 0.009410 -0.014375 -481812.000000 0 0 1
31.959811 15.888049 26.501822 44.454541 0.461346 0.932092 0.010152 -0.017253 -338971.000000 0 0 1
31.673171 15.277549 27.755222 44.798946 0.449428 0.902626 0.016240 -0.017796 136453.000000 0 0 1
30.661251 14.111549 27.910422 43.797714 0.431337 0.879862 0.016058 -0.011989 -52773.600000 0 0 1
31.163441 12.923349 27.342122 43.425391 0.393111 0.889714 0.014016 -0.012180 309245.000000 0 0 1
30.311371 11.809549 27.609922 42.667932 0.371516 0.867037 0.018784 -0.010023 -233635.000000 0 0 1
31.029341 10.535149 27.182422 42.575737 0.327310 0.878315 0.031053 -0.014098 -279985.000000 0 0 1
32.200841 10.333049 27.942922 43.868815 0.310513 0.880241 0.033161 -0.008249 -371296.000000 0 0 1
32.761851 9.121849 27.595622 43.795723 0.271551 0.889116 0.033439 -0.006288 1016.140000 0 0 1
33.778401 8.592149 28.676722 45.134906 0.249086 0.882327 0.031809 -0.007187 503931.000000 0 0 1
35.053948 9.206249 28.646122 46.196694 0.256831 0.901939 0.033513 -0.010087 -204471.000000 0 0 1
-34.641599 8.314749 29.176222 46.048098 -0.235566 0.884595 0.034893 -0.004428 -967667.000000 0 0 1
-33.271799 8.904349 29.369322 45.264303 -0.261496 0.864736 0.036761 -0.009881 -738598.000000 0 0 1
-32.664299 9.277449 28.131322 44.095337 -0.276736 0.878942 0.040987 -0.013415 188518.000000 0 0 1
-31.491859 10.035749 28.376322 43.562244 -0.308503 0.861372 0.039293 -0.011769 2149.270000 0 0 1
-30.789689 10.641349 27.167022 42.418043 -0.332762 0.875700 0.039640 -0.006360 -14914.700000 0 0 1
-30.242209 9.646049 26.311322 41.230124 -0.308759 0.878693 0.031204 -0.000778 -91629.400000 0 0 1
-29.208919 10.145349 25.515122 40.088783 -0.334301 0.880889 0.032165 0.002674 -330218.000000 0 0 1
-28.636539 9.039849 24.613922 38.828023 -0.305775 0.884183 0.020592 0.004140 653245.000000 0 0 1
-27.671709 9.612749 23.676722 37.665841 -0.334344 0.891045 0.017261 0.000440 489436.000000 0 0 1
-27.041699 8.643449 22.909122 36.480002 -0.309371 0.891827 -0.006996 0.009876 -110342.000000 0 0 1
-26.208239 9.243449 21.763222 35.298031 -0.339071 0.906435 0.000884 0.010946 620841.000000 0 0 1
-24.889629 9.700949 22.142222 34.696975 -0.371647 0.878690 0.003444 0.005486 1176860.000000 0 0 1
-24.185529 10.499649 21.188522 33.825078 -0.409578 0.893851 0.005643 -0.001144 572553.000000 0 0 1
-23.538829 9.841549 19.898522 32.355583 -0.396011 0.908417 0.011428 -0.007848 117068.000000 0 0 1
-24.521829 9.445649 18.935922 32.389960 -0.367677 0.946381 0.006883 -0.003183 397673.000000 0 0 1
-24.195029 8.304449 18.196022 31.392014 -0.330631 0.952511 0.010519 -0.002164 -318004.000000 0 0 1
-24.093829 6.925049 18.996422 31.453664 -0.279876 0.922349 0.007335 -0.004082 -58413.700000 0 0 1
-22.744129 6.704549 19.431622 30.656717 -0.286662 0.884281 0.006140 0.002940 1020110.000000 0 0 1
-22.494629 5.460849 20.034322 30.613776 -0.238155 0.857379 0.003952 0.000981 -309304.000000 0 0 1
-22.542429 4.253849 19.083822 29.840386 -0.186511 0.876910 0.010903 -0.005026 1112730.000000 0 0 1
-23.910729 3.933949 18.643622 30.574230 -0.163066 0.915011 0.021018 -0.010372 1945270.000000 0 0 1
-23.925229 2.986949 17.609822 29.857064 -0.124203 0.939980 0.027605 -0.007555 -104254.000000 0 0 1
-23.822729 1.497649 18.043022 29.921832 -0.062784 0.923533 0.027974 -0.003699 45486.200000 0 0 1
-22.494429 1.090249 18.326822 29.035502 -0.048430 0.887714 0.014901 -0.002984 516676.000000 0 0 1
-22.507529 -0.274251 18.819322 29.339921 0.012184 0.874444 0.017724 -0.002167 -32232.700000 0 0 1
-21.099929 -0.909351 18.932222 28.363056 0.043071 0.839956 0.024480 0.006536 301789.000000 0 0 1
-20.243429 -0.364351 19.919322 28.402615 0.017997 0.793549 0.010611 0.000678 719763.000000 0 0 1
-19.132429 -1.229651 20.247022 27.883755 0.064182 0.758131 0.001176 0.004615 463474.000000 0 0 1
-18.309529 -0.756951 21.418222 28.187800 0.041318 0.707729 0.012820 0.002905 -23831.700000 0 0 1
-18.920429 -1.001251 22.686722 29.557952 0.052870 0.695812 0.012928 0.004542 -528137.000000 0 0 1
-18.035329 -0.728551 23.705722 29.795388 0.040374 0.650771 0.013419 0.000591 -1060710.000000 0 0 1
-18.570129 -0.824651 25.146922 31.271352 0.044378 0.636549 0.014469 0.005669 -247758.000000 0 0 1
-19.184929 0.331449 25.585722 31.981253 -0.017275 0.643464 0.009873 -0.002779 -410557.000000 0 0 1
-20.586029 0.285049 25.392122 32.689841 -0.013846 0.681293 0.010468 0.001645 -113291.000000 0 0 1
-21.364929 1.469349 26.070522 33.738573 -0.068666 0.687679 0.010010 -0.004187 -275671.000000 0 0 1
-20.940629 2.718649 25.600122 33.185347 -0.129104 0.689713 0.006486 -0.004376 159503.000000 0 0 1
-21.943629 3.337149 24.806422 33.286904 -0.150922 0.729916 -0.002896 -0.000397 -810573.000000 0 0 1
-21.502529 4.349549 23.756322 32.336360 -0.199588 0.745627 -0.006266 0.008302 -526078.000000 0 0 1
-21.126629 3.832249 22.500822 31.101569 -0.179443 0.761991 -0.002454 0.004796 153335.000000 0 0 1
-19.844929 3.260449 22.495122 30.174199 -0.162842 0.729499 -0.001781 0.004305 -879806.000000 0 0 1
-19.472929 2.440149 21.233622 28.913941 -0.124660 0.746054 0.002971 -0.002279 -351498.000000 0 0 1
-19.116429 3.323549 20.142422 27.967857 -0.172138 0.766707 -0.000928 0.006695 272844.000000 0 0 1
-18.793229 2.565349 19.021122 26.862047 -0.135665 0.783987 0.001729 -0.004255 -28258.500000 0 0 1
-18.361529 3.458249 17.816422 25.817245 -0.186161 0.809172 -0.006142 -0.002335 -1087750.000000 0 0 1
-17.114429 4.019649 17.906022 25.093563 -0.230688 0.776215 -0.007188 -0.007341 -1004550.000000 0 0 1
-16.808629 4.644349 16.696322 24.142642 -0.269581 0.807136 -0.004664 -0.000375 132927.000000 0 1 0
-15.363829 5.206749 16.584122 23.198935 -0.326749 0.774364 0.004098 -0.005627 29323.900000 0 1 0
-14.934729 6.270649 17.518222 23.859071 -0.397518 0.746254 0.001170 -0.009252 -61285.100000 0 1 0
-15.470129 7.539849 17.401322 24.474073 -0.453502 0.779862 -0.002374 -0.013561 -491380.000000 0 1 0
-14.911529 8.369049 16.170522 23.534665 -0.511437 0.813315 0.003393 -0.014522 -127156.000000 0 1 0
-15.266529 8.047349 14.853322 22.769451 -0.485110 0.860135 -0.014424 -0.003271 1748320.000000 0 1 0
-16.676129 8.347649 14.574722 23.668524 -0.464107 0.907414 0.001866 -0.003266 1725740.000000 0 1 0
-17.258929 7.706049 13.328722 23.128092 -0.419936 0.956602 0.004051 0.003029 -223262.000000 0 1 0
-17.007329 6.362249 13.410822 22.573826 -0.357971 0.934666 0.002790 -0.000587 255832.000000 0 1 0
-17.736129 5.650849 12.451322 22.395039 -0.308439 0.981248 0.016437 0.003030 -167375.000000 0 1 0
-17.514829 4.095949 12.421222 21.859387 -0.229728 0.966440 0.014889 -0.000139 -192800.000000 0 1 0
-18.080629 3.415049 13.540822 22.845690 -0.186680 0.936379 0.002116 0.003522 363556.000000 0 1 0
-17.733529 2.050449 13.670222 22.484603 -0.115114 0.917281 0.005320 -0.001511 -788917.000000 0 1 0
-18.549829 1.301349 14.666822 23.683440 -0.070039 0.902963 0.012703 0.000323 -960815.000000 0 1 0
-19.831829 0.968749 14.224322 24.424808 -0.048809 0.949153 0.022258 0.002356 -280679.000000 0 1 0
-20.630629 0.820249 15.397322 25.756032 -0.039738 0.930025 0.014505 0.003239 -488948.000000 0 0 1
-22.059529 0.401949 15.042422 26.703162 -0.018219 0.972398 0.018957 -0.003882 -642363.000000 0 0 1
-22.086729 -0.927751 14.495622 26.434965 0.041980 0.990406 0.022808 0.007943 695487.000000 0 0 1
-23.365829 -1.358051 14.021622 27.283918 0.058056 1.031054 0.035339 -0.003342 383762.000000 0 0 1
-23.256929 -2.378351 12.912222 26.707055 0.101910 1.066175 0.020622 -0.005258 -121280.000000 0 0 1
-22.793729 -3.662951 13.340422 26.663424 0.159338 1.046820 0.024701 -0.006347 130497.000000 0 0 1
-22.816229 -4.687151 12.309122 26.345098 0.202612 1.084645 0.022552 -0.003640 33284.800000 0 0 1
-22.517829 -6.165251 12.681422 26.568429 0.267245 1.073203 0.021523 -0.007031 -99753.800000 0 0 1
-23.594729 -6.599251 13.443422 27.946144 0.272723 1.068947 0.017698 -0.011019 123671.000000 0 0 1
-23.414529 -7.954751 13.651022 28.246569 0.327502 1.066398 0.018473 -0.012411 86488.300000 0 0 1
-24.293429 -8.429951 14.887822 29.713331 0.334005 1.045986 0.022794 -0.006439 139981.000000 0 0 1
-25.664069 -8.249251 14.680022 30.695238 0.311001 1.072134 0.020317 -0.011901 -708908.000000 0 0 1
-26.398719 -8.528551 15.794522 31.923275 0.312482 1.053232 0.026290 -0.010602 -262966.000000 0 0 1
-27.848149 -7.912751 15.852822 33.006712 0.276843 1.069810 0.026978 -0.015108 638997.000000 0 0 1
-28.789349 -8.362851 14.879022 33.468630 0.282704 1.110106 0.021699 -0.015634 583264.000000 0 0 1
-29.136059 -9.723251 14.755022 34.075831 0.322097 1.122972 0.026924 -0.022453 -1001640.000000 0 0 1
-29.607909 -10.396751 16.060122 35.251216 0.337697 1.097761 0.029908 -0.025356 -762113.000000 0 0 1
-28.560879 -10.681451 16.972022 34.897948 0.357884 1.062908 0.031611 -0.024635 334152.000000 0 0 1
-29.004719 -11.389351 18.140122 36.056277 0.374174 1.043608 0.035103 -0.017472 12745.800000 0 0 1
-27.881439 -11.510051 19.182722 35.746787 0.391510 1.004361 0.041274 -0.011895 174349.000000 0 0 1
-26.772419 -12.313051 18.833922 34.972708 0.431069 1.002102 0.039747 -0.014503 322986.000000 0 0 1
-25.635909 -12.041651 19.638422 34.465473 0.439130 0.964534 0.042544 -0.010481 882599.000000 0 0 1
-24.379629 -12.936351 19.272522 33.662228 0.487844 0.961212 0.050636 -0.006463 440716.000000 0 0 1
-23.783729 -12.513951 18.069222 32.384588 0.484353 0.978874 0.045915 -0.004084 -687061.000000 0 0 1
-22.790529 -13.336751 17.611122 31.740018 0.529457 0.982607 0.042079 -0.014160 -692972.000000 0 0 1
-22.628829 -13.358051 16.074622 30.804138 0.533265 1.021798 0.029062 -0.018193 -445709.000000 0 0 1
-21.966629 -12.192451 15.702322 29.626873 0.506708 1.012193 0.022435 -0.019426 -273502.000000 0 0 1
-21.714129 -12.209551 14.318922 28.733396 0.512227 1.049116 0.021332 -0.014512 -58237.300000 0 0 1
-20.528429 -11.264251 14.069322 27.317496 0.501856 1.029754 0.009300 -0.011838 -516772.000000 0 0 1
-20.845329 -9.899751 14.125022 27.056405 0.443379 1.021534 0.003135 -0.007462 113672.000000 0 0 1
-19.785429 -9.011551 13.789722 25.745440 0.427389 1.005557 0.000967 -0.005272 13859.300000 0 0 1
-19.328529 -9.009251 12.288522 24.612322 0.436171 1.048025 0.013717 0.003226 -204240.000000 0 1 0
-18.795529 -10.241951 11.840022 24.461308 0.498930 1.065541 0.014005 -0.008490 102601.000000 0 1 0
-18.505429 -10.307851 10.502722 23.643390 0.508215 1.110500 0.019717 0.001011 7728.830000 0 1 0
-17.763829 -11.651951 10.061322 23.506420 0.580537 1.128491 0.013666 0.001827 1691810.000000 0 1 0
-16.334729 -11.845351 10.100722 22.564581 0.627415 1.106676 0.013046 -0.003618 1223450.000000 0 1 0
-15.777429 -12.060751 11.403922 22.900621 0.652673 1.049535 0.022699 -0.003013 201698.000000 0 1 0
-14.268729 -12.422751 11.338722 22.056473 0.716348 1.030865 0.033861 0.002043 239478.000000 0 1 0
-14.025229 -13.782851 10.915022 22.490259 0.776682 1.064065 0.028254 -0.007603 49088.600000 0 1 0
-12.624829 -13.962751 10.846022 21.725122 0.835677 1.048076 0.038645 -0.006155 29616.900000 0 1 0
-12.155129 -15.387851 10.743322 22.359609 0.902234 1.069596 0.037168 -0.007544 -433933.000000 0 1 0
-12.384329 -16.045651 9.514622 22.391127 0.913477 1.131914 0.024640 -0.008194 -166321.000000 0 1 0
-12.205729 -17.505751 9.582522 23.393501 0.961924 1.148755 0.021690 -0.002111 -60808.800000 0 1 0
-12.726129 -18.207351 8.393722 23.746927 0.960772 1.209523 0.003651 0.003813 -282010.000000 0 1 0
-11.904429 -18.080851 7.258122 22.832279 0.988539 1.247295 0.011347 0.000227 -459428.000000 0 1 0
-12.433829 -18.653951 6.103322 23.234038 0.982873 1.304988 0.004812 -0.004086 -357982.000000 0 1 0
-11.552429 -18.502851 4.862822 22.348628 1.012658 1.351452 0.006056 -0.004215 -109618.000000 0 1 0
-12.175929 -18.879551 3.645722 22.759218 0.997996 1.409917 0.009765 -0.013823 629008.000000 0 1 0
-11.207629 -18.852151 2.565322 22.081563 1.034430 1.454359 0.008596 -0.022247 548537.000000 0 1 0
-11.412629 -19.785651 1.397422 22.883900 1.047600 1.509693 0.015498 -0.021286 -275626.000000 0 1 0
-11.344829 -21.218151 1.673722 24.118798 1.079795 1.501346 0.008162 -0.021416 -228197.000000 0 1 0
-11.715829 -22.178551 0.645322 25.091138 1.084805 1.545074 0.014777 -0.022785 -289303.000000 0 0 1
-10.876229 -22.192651 -0.684078 24.723958 1.115114 1.598468 0.027838 -0.017642 66962.200000 0 1 0
-10.883629 -21.099551 -1.589878 23.794372 1.094571 1.637664 0.030785 -0.034386 556574.000000 0 1 0
-12.103729 -21.022851 -2.365578 24.373274 1.048405 1.668006 0.048433 -0.024994 1097980.000000 0 1 0
-13.032229 -19.817451 -1.924678 23.796528 0.989087 1.651765 0.047241 -0.031075 106546.000000 0 1 0
-13.757929 -20.141851 -0.770078 24.404258 0.971536 1.602357 0.034223 -0.023974 -666715.000000 0 1 0
-14.823929 -19.261451 -0.647278 24.314015 0.914858 1.597421 0.039391 -0.016568 -403528.000000 0 1 0
25.594671 -20.526251 -4.191878 33.075459 -0.675943 1.697875 0.040925 -0.020398 -84400.100000 0 0 1
24.299571 -20.487151 -3.635378 31.990756 -0.700479 1.684681 0.022599 -0.022378 180724.000000 0 0 1
24.291771 -21.362251 -2.561678 32.449932 -0.721318 1.649821 0.013553 -0.029828 -824059.000000 0 0 1
22.871771 -21.596851 -2.073078 31.525221 -0.756736 1.636603 0.006701 -0.023670 -670863.000000 0 0 1
22.057971 -22.303951 -2.960378 31.508477 -0.790943 1.664890 0.017532 -0.021621 335305.000000 0 0 1
20.915571 -22.877451 -2.302178 31.082775 -0.830167 1.644930 0.005016 -0.019777 205701.000000 0 0 1
19.971671 -23.635951 -3.201978 31.109138 -0.869230 1.673906 0.008629 -0.017092 -495587.000000 0 0 1
19.388271 -22.850251 -4.192978 30.259215 -0.867178 1.709812 0.006801 -0.014828 -816429.000000 0 0 1
18.392871 -23.512051 -4.921878 30.254572 -0.906958 1.734205 0.017251 -0.015778 -236500.000000 0 0 1
17.438471 -22.431651 -5.517378 28.943405 -0.909986 1.762597 0.008630 -0.002806 -480921.000000 0 0 1
16.579971 -21.857451 -4.558578 27.810506 -0.921846 1.735455 0.011053 -0.000409 -127803.000000 0 0 1
17.125371 -21.062451 -3.513378 27.372413 -0.888133 1.699506 -0.000067 -0.009644 -144338.000000 0 0 1
16.090171 -20.535051 -2.412978 26.199320 -0.906169 1.663028 0.018419 0.003388 578533.000000 0 0 1
15.571271 -21.452551 -1.446278 26.547470 -0.942933 1.625302 0.011195 -0.001714 400263.000000 0 0 1
14.747571 -20.753451 -0.518078 25.464976 -0.952986 1.591142 0.020147 0.007125 -171549.000000 0 0 1
14.366571 -21.482651 0.728322 25.854073 -0.981351 1.542622 0.017737 0.003602 -76120.700000 0 0 1
13.412971 -22.513351 0.564622 26.212164 -1.033487 1.549254 0.021903 0.001300 -295211.000000 0 0 1
12.781071 -22.778751 1.786022 26.180473 -1.059474 1.502524 0.023975 -0.003886 -290675.000000 0 0 1
11.808171 -23.946951 1.584322 26.746952 -1.112686 1.511528 0.025601 -0.006580 -164479.000000 0 0 1
12.360071 -25.233101 1.437222 28.134433 -1.115313 1.519690 0.019729 -0.006313 -200136.000000 0 0 1
11.325271 -26.163071 1.287422 28.538141 -1.162277 1.525669 0.029087 -0.007576 45514.600000 0 0 1
11.690471 -27.520051 1.850522 29.957382 -1.169097 1.508985 0.025010 -0.004530 59408.800000 0 0 1
11.441671 -27.616951 3.268922 30.071476 -1.178024 1.461876 0.032473 -0.007223 256107.000000 0 0 1
12.100571 -28.763621 3.833622 31.439885 -1.172582 1.448557 0.033747 -0.010284 224424.000000 0 0 1
11.602171 -29.094661 5.249322 31.759488 -1.191348 1.404751 0.039627 -0.009209 -9616.440000 0 0 1
12.407171 -30.064001 5.857722 33.046860 -1.179397 1.392600 0.034595 -0.008941 -93918.100000 0 0 1
11.837871 -30.367141 7.134622 33.364671 -1.199092 1.355295 0.028013 -0.005345 79109.900000 0 0 1
12.683871 -31.360711 7.960922 34.752713 -1.186459 1.339671 0.035579 0.002593 -56126.900000 0 0 1
12.160971 -31.822211 9.198822 35.286834 -1.205769 1.307062 0.033493 -0.001359 -320197.000000 0 0 1
11.381671 -32.980181 9.205722 36.082961 -1.238488 1.312818 0.020882 -0.000408 -50563.400000 0 0 1
10.977571 -33.359491 10.644522 36.696983 -1.252889 1.276501 0.023066 -0.000305 -602105.000000 0 0 1
11.989271 -33.822721 11.489922 37.679403 -1.230141 1.260922 0.023769 0.002819 -409171.000000 0 0 1
11.658971 -34.078983 12.894222 38.256629 -1.241162 1.227019 0.021861 0.007088 -146502.000000 0 0 1
10.552371 34.006405 13.077422 37.931611 1.269912 1.218810 0.017614 0.002673 -165235.000000 0 0 1
10.950771 32.678521 12.730822 36.740699 1.247451 1.216954 0.012784 0.004221 694575.000000 0 0 1
9.972171 31.639111 13.061622 35.652259 1.265467 1.195700 0.011692 0.005185 577020.000000 0 0 1
9.914271 30.534191 11.984422 34.267419 1.256841 1.213511 0.024337 0.003441 -199234.000000 0 0 1
9.551971 30.914021 10.673722 34.071179 1.271117 1.252154 0.005297 -0.001372 149646.000000 0 0 1
10.493771 31.733411 9.974522 34.880076 1.251431 1.280782 0.002829 -0.004729 162890.000000 0 0 1
10.049671 32.101971 8.529822 34.702886 1.267406 1.322456 0.003558 -0.002082 -155791.000000 0 0 1
8.894671 32.906051 8.532722 35.138736 1.306800 1.325515 0.003836 0.001548 -353375.000000 0 0 1
8.423771 33.040531 7.205922 34.850566 1.321162 1.362528 -0.005517 0.003750 -265472.000000 0 0 1
9.026071 34.183427 6.386322 35.927173 1.312640 1.392089 0.010971 0.008323 -102565.000000 0 0 1
8.510671 -33.706271 6.825122 35.427765 -1.323471 1.376935 0.004665 0.010802 353081.000000 0 0 1
9.047771 -32.641641 5.995022 34.398825 -1.300400 1.395622 0.023705 0.003191 60029.700000 0 0 1
8.260771 -31.330271 6.161522 32.981670 -1.312996 1.382876 0.014459 0.003701 -120270.000000 0 0 1
8.202971 -30.946691 7.502522 32.882735 -1.311687 1.340609 0.028526 0.000743 178131.000000 0 0 1
7.436171 -29.755391 7.763122 31.637731 -1.325902 1.322889 0.025467 0.002734 191651.000000 0 0 1
8.109271 -28.413731 7.419822 30.465622 -1.292788 1.324775 0.036045 -0.002905 173092.000000 0 0 1
8.860371 -27.771961 8.481222 30.359827 -1.261964 1.287672 0.040606 -0.006620 466646.000000 0 0 1
9.578871 -26.597101 8.174722 29.427651 -1.225110 1.289303 0.043410 -0.014086 438.031000 0 0 1
8.727171 -25.464401 7.591722 27.968437 -1.240621 1.295909 0.028742 -0.011804 -521685.000000 0 0 1
8.716271 -25.694571 6.217722 27.836027 -1.243752 1.345526 0.027388 -0.009891 -95067.000000 0 0 1
7.853871 -24.752851 5.582622 26.562240 -1.263552 1.359046 0.036483 -0.004512 358535.000000 0 0 1
7.859171 -25.003371 4.052022 26.520822 -1.266250 1.417409 0.035090 -0.004816 195903.000000 0 0 1
7.182971 -26.103151 3.465022 27.294247 -1.302266 1.443502 0.021152 -0.001093 -392452.000000 0 0 1
7.776071 -27.393671 3.673422 28.711923 -1.294208 1.442504 0.029837 -0.003666 824240.000000 0 0 1
6.799571 -28.613681 3.308422 29.595989 -1.337490 1.458776 0.028454 -0.001542 267929.000000 0 0 1
5.755971 -28.805361 4.219822 29.676370 -1.373571 1.428118 0.028909 -0.002771 -501446.000000 0 0 1
4.802771 -29.695341 3.654222 30.302363 -1.410450 1.449910 0.019484 0.002228 233730.000000 0 0 1
5.011071 -31.181161 3.960522 31.828625 -1.411451 1.446040 0.019634 0.001431 -330127.000000 0 0 1
5.954371 -31.782531 3.117522 32.485424 -1.385596 1.474682 0.026664 -0.002340 -276359.000000 0 0 1
6.043671 -33.136251 3.413922 33.855457 -1.390391 1.469786 0.019627 0.002263 495359.000000 0 0 1
7.066171 -33.998516 2.552822 34.818770 -1.365876 1.497413 0.023901 0.007492 649979.000000 0 0 1
6.719771 -34.057534 1.176222 34.734053 -1.375992 1.536926 0.028723 0.002229 -176930.000000 0 0 1
7.503971 34.053267 0.586522 34.875186 1.353903 1.553978 0.016244 0.002417 -339647.000000 0 0 1
6.945571 33.437631 -0.756378 34.159746 1.365992 1.592941 0.041414 0.002443 203794.000000 0 0 1
5.908271 32.490891 -0.598978 33.029146 1.390918 1.588932 0.025987 0.003887 -875581.000000 0 0 1
4.648771 33.053081 -0.436878 33.381254 1.431067 1.583884 0.032009 0.000313 -1404980.000000 0 0 1
3.628471 32.011291 -0.060378 32.216335 1.457928 1.572670 0.039041 -0.000940 -536522.000000 0 0 1
3.517271 31.002641 -1.040178 31.218856 1.457829 1.604121 0.040053 -0.001861 -25257.000000 0 0 1
2.493571 30.075611 -0.733278 30.187713 1.488075 1.595089 0.035080 -0.010498 186547.000000 0 0 1
2.377571 29.065851 -1.905878 29.225142 1.489179 1.636056 0.037792 -0.003005 212076.000000 0 0 1
1.675071 29.654691 -2.996678 29.852750 1.514370 1.671348 0.038969 -0.010252 257781.000000 0 0 1
1.865571 28.831071 -4.112678 29.182617 1.506179 1.712196 0.046113 -0.020999 -273671.000000 0 0 1
1.632571 29.583041 -5.445178 30.124269 1.515666 1.752553 0.042801 -0.021664 523059.000000 0 0 1
0.297771 30.043841 -5.692178 30.579764 1.560885 1.758030 0.042585 -0.013486 570392.000000 0 0 1
0.177171 30.892671 -6.840078 31.641353 1.565061 1.788692 0.035090 -0.016006 -160367.000000 0 0 1
-0.005729 30.240791 -8.210678 31.335614 -1.570607 1.835915 0.030390 -0.018520 182484.000000 0 0 1
-1.346629 29.724811 -8.281178 30.886174 -1.525524 1.842237 0.029066 -0.018476 676276.000000 0 0 1
-1.657729 29.205621 -9.549278 30.771823 -1.514097 1.886332 0.028942 -0.020430 216929.000000 0 0 1
-1.964329 30.232691 -10.664278 32.118547 -1.505914 1.909250 0.027644 -0.022770 -540772.000000 0 0 1
-0.757729 30.874221 -11.010178 32.787432 -1.546259 1.913256 0.020239 -0.023486 -126200.000000 0 0 1
-0.829529 32.158011 -11.626678 34.205343 -1.545007 1.917616 0.012258 -0.026544 -256381.000000 0 0 1
-0.883129 33.292610 -10.572378 34.942138 -1.544276 1.878182 0.006063 -0.012879 5858.850000 0 0 1
0.290271 33.485748 -9.802578 34.892265 1.562128 1.855568 0.003600 -0.021185 -272699.000000 0 0 1
-0.023429 34.344457 -8.728678 35.436311 -1.570114 1.819678 -0.000010 -0.005050 297448.000000 0 0 1
1.103771 -34.437432 -7.678178 35.300276 -1.538756 1.790059 0.006166 -0.012437 588560.000000 0 0 1
2.109671 -33.554881 -8.105978 34.584500 -1.508007 1.807379 -0.005338 -0.004848 -475511.000000 0 0 1
3.020371 -33.162671 -7.129678 34.054628 -1.479969 1.781717 0.009445 -0.012033 -1234080.000000 0 0 1
4.230071 -32.396651 -7.697978 33.566283 -1.440960 1.802192 -0.004488 0.001085 296099.000000 0 0 1
5.187671 -33.176421 -8.406978 34.615952 -1.415686 1.816114 0.013163 -0.006226 339445.000000 0 0 1
5.876271 -34.147276 -7.648178 35.483259 -1.400379 1.788044 0.033385 -0.001236 -1428850.000000 0 0 1
6.017571 33.625631 -8.319078 35.158232 1.393713 1.809680 0.029089 -0.008130 395063.000000 0 0 1
4.816371 32.865481 -8.436778 34.271220 1.425284 1.819530 0.023956 -0.006556 274083.000000 0 0 1
3.936971 33.185047 -9.518378 34.746894 1.452711 1.848278 0.014584 -0.016789 501353.000000 0 0 1
3.012971 32.007231 -9.958878 33.655908 1.476939 1.871197 0.022649 -0.024001 7484.940000 0 0 1
3.743871 30.946761 -10.562878 32.913417 1.450404 1.897507 0.029845 -0.027906 93839.200000 0 0 1
3.056271 29.699561 -10.623878 31.690243 1.468251 1.912658 0.006351 -0.024536 -13119.200000 0 0 1
3.691771 28.760261 -11.683978 31.261752 1.443131 1.953842 0.004152 -0.022753 -71485.400000 0 0 1
3.678171 29.411371 -12.917078 32.332779 1.446383 1.981772 0.008492 -0.020438 -143220.000000 0 0 1
4.958771 29.271911 -13.461278 32.598163 1.402986 1.996483 0.012447 -0.016240 -301270.000000 0 0 1
4.897171 29.722391 -14.921978 33.616488 1.407500 2.030730 0.021818 -0.015866 -6441.760000 0 0 1
4.167371 28.832751 -15.749478 33.117074 1.427254 2.066408 0.027520 -0.011800 69827.800000 0 0 1
4.030071 29.273861 -17.090578 34.136319 1.433988 2.095154 0.046400 -0.007257 -105107.000000 0 0 1
3.003471 28.449741 -17.876578 33.733969 1.465615 2.129312 0.038392 -0.012313 -50821.300000 0 0 1
3.458371 27.205771 -18.312178 32.976510 1.444355 2.159532 0.043527 0.004875 165422.000000 0 0 1
2.489071 26.675801 -19.199078 32.960559 1.477758 2.192581 0.044105 -0.006698 398646.000000 0 0 1
3.085371 25.450751 -19.915478 32.463618 1.450156 2.231244 0.046219 -0.000624 330324.000000 0 0 1
2.976371 24.187991 -19.239378 31.049499 1.448360 2.239075 0.037802 0.000961 -8081.180000 0 0 1
4.118171 23.405691 -19.574078 30.788476 1.396632 2.259789 0.032746 0.001396 238648.000000 0 0 1
4.444371 22.201891 -18.631378 29.322426 1.373228 2.259319 0.021431 0.014821 -827532.000000 0 0 1
3.604971 21.119691 -18.669778 28.418265 1.401733 2.287581 0.037938 0.008660 -867703.000000 0 0 1
4.175671 19.951691 -18.072778 27.242091 1.364485 2.296168 0.021615 0.009491 -175187.000000 0 0 1
3.242171 18.755291 -17.872678 26.109486 1.399621 2.324753 0.023380 -0.005212 -267893.000000 0 0 1
2.292871 18.911591 -16.841778 25.427368 1.450144 2.294745 0.019766 -0.003735 330758.000000 0 0 1
1.460671 17.726991 -16.714878 24.408337 1.488584 2.325128 0.016139 -0.003456 543265.000000 0 1 0
2.176771 16.669691 -15.784778 23.060272 1.440948 2.324715 0.011703 -0.009353 1476850.000000 0 1 0
3.388071 16.025191 -16.291578 23.101976 1.362443 2.353505 0.007800 -0.007448 799864.000000 0 1 0
3.127971 14.954591 -17.153378 22.970903 1.364604 2.413949 0.013787 -0.010335 -38881.500000 0 1 0
2.883371 15.304091 -18.665178 24.308803 1.384574 2.446253 0.015819 -0.003930 231998.000000 0 1 0
4.129871 15.738991 -19.180778 25.153010 1.314184 2.438064 0.019940 -0.003460 -68225.300000 0 0 1
3.910071 16.227391 -20.525878 26.456163 1.334349 2.458849 0.028599 0.000531 -637191.000000 0 0 1
4.140271 15.201991 -21.667678 26.790496 1.304895 2.512875 0.030177 -0.012073 -604769.000000 0 0 1
3.280871 14.147491 -21.725478 26.132585 1.342920 2.552339 0.031413 -0.012695 -383960.000000 0 0 1
1.983471 14.514991 -22.181478 26.582647 1.434988 2.557902 0.041818 -0.017080 -279257.000000 0 0 1
1.187171 13.372391 -22.812878 26.469938 1.482251 2.609685 0.047786 -0.011332 -178491.000000 0 0 1
0.734071 12.511891 -21.777078 25.126230 1.512194 2.619359 0.037223 -0.007623 332120.000000 0 0 1
0.051671 11.373991 -22.325778 25.056151 1.566253 2.670405 0.042274 -0.001118 -206234.000000 0 0 1
-0.755329 10.498991 -21.362878 23.815371 -1.498977 2.683778 0.028976 -0.003485 -110982.000000 0 1 0
-1.892629 11.222191 -20.825678 23.732435 -1.403718 2.641461 0.030842 -0.000963 905737.000000 0 1 0
-2.588229 10.520091 -19.783678 22.555823 -1.329560 2.640584 0.024616 0.004621 398977.000000 0 1 0
-3.420529 9.246191 -20.135778 22.419671 -1.216470 2.686295 0.025268 -0.000616 -1040580.000000 0 1 0
-2.716729 8.162791 -20.689478 22.406836 -1.249509 2.747527 0.019961 -0.003989 -500616.000000 0 1 0
-3.532029 7.118291 -21.175678 22.617574 -1.110201 2.782593 0.007764 0.005973 -131220.000000 0 1 0
-2.696229 6.105791 -21.951078 22.943412 -1.154962 2.846409 0.005622 -0.006510 -44682.800000 0 1 0
-2.055229 5.183791 -21.105578 21.829821 -1.193335 2.883283 0.020515 -0.004788 -70163.700000 0 1 0
-1.980729 3.922691 -21.743678 22.183289 -1.103203 2.942178 0.029832 -0.014340 -216661.000000 0 1 0
-1.052629 2.928091 -20.994678 21.224002 -1.225689 2.994457 0.035058 -0.011633 -354178.000000 0 1 0
0.302071 3.141591 -21.258278 21.491283 1.474939 2.994206 0.022780 0.002304 -779691.000000 0 1 0
1.062471 2.359091 -20.391978 20.555460 1.147632 3.015388 0.018011 0.007905 358942.000000 0 1 0
2.612071 2.502691 -20.532978 20.849210 0.764016 2.967202 0.012134 0.006845 470092.000000 0 1 0
3.091771 1.839591 -21.657178 21.953963 0.536732 2.976977 0.033029 0.005448 514663.000000 0 1 0
4.522871 1.991491 -21.591078 22.149425 0.414771 2.916582 0.060959 0.007508 447836.000000 0 1 0
5.186071 1.162591 -22.716678 23.330118 0.220530 2.911767 0.056736 0.003742 90632.100000 0 1 0
6.586771 1.365691 -22.552578 23.534431 0.204442 2.851720 0.047107 0.001098 230023.000000 0 1 0
7.310871 0.650591 -23.530478 24.648641 0.088756 2.839231 0.041532 -0.004534 -234753.000000 0 1 0
8.824171 0.884491 -23.492878 25.111026 0.099901 2.780638 0.044217 -0.008307 -193102.000000 0 0 1
9.047171 2.231791 -23.892578 25.645418 0.241855 2.769727 0.036199 -0.010379 276030.000000 0 0 1
10.445271 2.480391 -23.923778 26.222189 0.233147 2.719781 0.010276 -0.007951 -136808.000000 0 0 1
13.776271 -21.386951 22.554945 33.998718 -0.998549 0.845435 0.018776 0.003121 -579961.000000 0 0 1
12.666571 -22.273051 22.649545 34.198431 -1.053713 0.846915 0.013445 0.011252 862398.000000 0 0 1
11.401671 -21.598351 22.466045 33.184485 -1.085082 0.827111 0.004289 0.000951 907953.000000 0 0 1
11.053571 -21.233651 21.013645 31.853142 -1.090830 0.850372 0.013111 -0.006632 -667677.000000 0 0 1
11.634371 -20.064051 20.437345 30.912939 -1.045316 0.848478 0.007844 -0.005767 59711.900000 0 0 1
11.158571 -20.002551 19.091945 29.818083 -1.061941 0.875933 0.040864 -0.012002 232444.000000 0 0 1
11.437871 -18.626651 18.372345 28.553810 -1.020103 0.871827 0.051871 -0.019234 111934.000000 0 0 1
10.723471 -17.568351 18.992545 28.006366 -1.022775 0.825553 0.059657 -0.023456 -168689.000000 0 0 1
10.906771 -16.342351 18.292945 26.845147 -0.982291 0.821089 0.065690 -0.020433 549228.000000 0 0 1
9.869471 -15.249151 18.760945 26.113523 -0.996382 0.769242 0.067035 -0.018854 840027.000000 0 0 1
8.518071 -15.609151 18.541345 25.690165 -1.071253 0.764499 0.058181 -0.013723 -472546.000000 0 0 1
7.669071 -14.581151 18.953445 25.112899 -1.086599 0.715555 0.038022 -0.008653 906397.000000 0 0 1
6.135871 -14.884451 18.728645 24.697326 -1.179788 0.710054 0.017503 0.003043 858246.000000 0 1 0
5.776671 -14.921351 17.358145 23.607665 -1.201424 0.744723 0.022672 0.002903 -1029330.000000 0 1 0
4.409871 -14.921951 17.136645 23.146839 -1.283446 0.737213 0.006693 0.007415 -751417.000000 0 1 0
3.762471 -16.292151 17.047745 23.879195 -1.343838 0.775721 -0.007225 0.006563 -946577.000000 0 1 0
2.433471 -16.276251 16.652645 23.412576 -1.422385 0.779494 -0.007579 0.012375 -1073350.000000 0 1 0
1.861171 -17.535951 16.529745 24.170354 -1.465058 0.817722 -0.003597 -0.000291 487023.000000 0 1 0
0.363471 -17.374551 16.152545 23.725763 -1.549880 0.821939 0.001621 0.002707 42946.700000 0 1 0
0.042471 -17.262251 14.759945 22.712179 -1.568336 0.863384 0.002727 -0.003161 -429881.000000 0 1 0
-1.355829 -17.195951 14.625545 22.615162 1.492113 0.867528 -0.007344 -0.001471 -282602.000000 0 1 0
-1.811329 -17.942551 13.392645 22.462836 1.470186 0.932020 -0.012972 -0.000335 -105309.000000 0 1 0
-3.163629 -18.364351 13.407345 22.956803 1.400201 0.947118 -0.027516 0.007012 -144345.000000 0 1 0
-3.467629 -19.289151 12.415145 23.199819 1.392925 1.006123 -0.010422 -0.011009 1381310.000000 0 1 0
-5.038329 -19.515351 12.288045 23.605714 1.318141 1.023297 -0.002285 -0.010904 1581640.000000 0 1 0
-5.758229 -20.127851 13.384445 24.848158 1.292156 1.001963 -0.008527 -0.003583 83548.800000 0 1 0
-5.470129 -21.521251 13.528245 26.001922 1.321894 1.023619 -0.035469 0.006366 -102049.000000 0 0 1
-6.187229 -22.331451 14.669345 27.425630 1.300513 1.006434 -0.026086 0.014721 -1712490.000000 0 0 1
-7.517629 -22.141051 14.637145 27.585991 1.243476 1.011487 0.000506 0.013651 -2174200.000000 0 0 1
-8.213829 -22.856651 15.614245 28.873831 1.225805 0.999438 0.010768 0.007549 -495543.000000 0 0 1
-9.661829 -22.396351 15.698245 29.006592 1.163516 0.998938 0.020797 0.007491 -529161.000000 0 0 1
-9.926629 -21.224951 16.419345 28.611735 1.133332 0.959576 0.005636 0.006450 111401.000000 0 0 1
-11.196529 -20.631151 16.130445 28.481536 1.073575 0.968729 0.018266 0.001899 499115.000000 0 0 1
-11.438329 -19.421251 17.087945 28.284593 1.038534 0.922106 0.014518 0.011698 -495742.000000 0 0 1
-11.937029 -19.882551 18.327445 29.558480 1.030100 0.902002 0.018036 0.009722 -35285.700000 0 0 1
-12.158329 -18.833851 19.206945 29.520258 0.997551 0.862375 0.014993 0.005368 -66294.800000 0 0 1
-12.440929 -19.272051 20.693245 30.893349 0.997561 0.836819 0.025887 -0.002524 -705468.000000 0 0 1
-13.722029 -19.809251 20.786645 31.824285 0.964981 0.859034 0.038459 -0.002230 -379649.000000 0 0 1
-13.890529 -20.557951 21.979545 33.146290 0.976582 0.845834 0.035878 0.008063 -161653.000000 0 0 1
-15.326829 -21.103951 21.950045 34.089484 0.942667 0.871218 0.045755 -0.007207 -746646.000000 0 0 1
-15.452429 -22.092451 20.989545 34.167454 0.960444 0.909280 0.043195 -0.007012 926349.000000 0 0 1
-16.798629 -22.270451 20.526045 34.633588 0.924548 0.936435 0.044031 -0.008033 1058930.000000 0 0 1
-17.844429 -22.998551 21.448645 36.158005 0.910928 0.935778 0.047444 -0.013763 -378427.000000 0 0 1
-18.353329 -22.037651 22.293745 36.325113 0.876363 0.910022 0.055291 -0.011960 -433276.000000 0 0 1
-19.032029 -22.596451 23.385145 37.678677 0.870814 0.901229 0.059044 -0.019869 -364894.000000 0 0 1
-19.771929 -21.491951 24.120035 37.876235 0.827058 0.880440 0.050699 -0.005063 -525794.000000 0 0 1
-20.879829 -20.903951 23.494145 37.748076 0.785975 0.899000 0.051278 0.004663 -145594.000000 0 0 1
-21.307629 -19.925551 24.384095 38.021398 0.751892 0.874572 0.045265 0.006022 3264.410000 0 0 1
-22.239829 -18.911851 23.658145 37.576268 0.704703 0.889754 0.053686 0.005371 68692.800000 0 0 1
-21.609729 -18.274351 22.558845 36.191626 0.701965 0.897819 0.056215 0.005825 -366759.000000 0 0 1
-22.506129 -17.479451 21.871045 35.922133 0.660342 0.916191 0.048651 0.000946 -336949.000000 0 0 1
-21.874729 -16.894551 20.589245 34.465151 0.657641 0.930550 0.059550 0.003440 410027.000000 0 0 1
-20.846329 -15.923851 20.803145 33.479983 0.652318 0.900318 0.049904 0.002878 98229.700000 0 0 1
-20.268029 -15.707651 19.533945 32.235048 0.659308 0.919793 0.047369 0.001621 -152485.000000 0 0 1
-19.528329 -14.388351 19.297645 30.996441 0.634995 0.898766 0.039088 -0.012536 -140451.000000 0 0 1
-19.104829 -14.526551 17.970745 29.982709 0.650099 0.928082 0.040352 -0.009840 11968.100000 0 0 1
-18.400529 -13.346051 17.568545 28.728911 0.627510 0.912805 0.032931 -0.015650 -123307.000000 0 0 1
-17.981229 -13.335951 16.081845 27.564432 0.638142 0.947854 0.014102 -0.018832 43852.700000 0 0 1
-17.590729 -12.052251 15.583045 26.410638 0.600688 0.939701 0.008261 -0.009366 703363.000000 0 0 1
-16.246629 -11.659351 15.900745 25.548524 0.622472 0.899024 0.000803 -0.014294 422847.000000 0 0 1
-15.806229 -10.332651 15.295445 24.301259 0.578977 0.890003 0.010764 -0.013521 -42273.400000 0 1 0
-16.317029 -9.216451 15.960845 24.615787 0.514162 0.865317 -0.003503 0.000453 -86047.100000 0 1 0
-16.055329 -8.107051 15.192645 23.543881 0.467595 0.869393 -0.009956 0.010270 -642944.000000 0 1 0
-16.338129 -6.728051 15.937945 23.795361 0.390638 0.836868 0.003405 0.016834 557596.000000 0 1 0
-15.509029 -6.385651 17.070845 23.931574 0.390584 0.776574 -0.001850 0.016764 720025.000000 0 1 0
-14.120329 -6.229351 16.766945 22.788570 0.415480 0.744006 -0.004942 0.006901 -351816.000000 0 1 0
-13.327329 -6.264551 18.050045 23.295201 0.439404 0.684335 0.001098 0.016224 -461507.000000 0 1 0
-13.420429 -7.471251 18.795345 24.273288 0.507978 0.685153 0.003797 0.001700 249482.000000 0 1 0
-12.779229 -8.603151 18.147345 23.804391 0.592521 0.703855 -0.004800 0.006103 -354459.000000 0 1 0
-12.917629 -9.903951 19.021845 25.035654 0.654104 0.707806 0.004603 0.004306 617460.000000 0 0 1
-14.223329 -10.446251 19.225445 26.096838 0.633471 0.742625 0.005933 0.004402 503984.000000 0 0 1
-14.998929 -9.739051 20.214145 26.989417 0.575895 0.724297 0.004184 0.005883 -342655.000000 0 0 1
-16.394329 -10.384651 20.477145 28.212204 0.564638 0.758562 0.004608 0.005849 648286.000000 0 0 1
-17.377629 -10.354051 19.454245 28.065210 0.537345 0.804904 0.013369 0.001241 259514.000000 0 0 1
-17.760229 -9.073851 18.955945 27.515238 0.472336 0.810791 0.007704 0.003789 -425155.000000 0 0 1
-18.961229 -9.261451 17.969745 27.716681 0.454358 0.865398 0.018503 0.008602 -520127.000000 0 0 1
-20.172729 -9.389351 18.615345 29.010859 0.435626 0.874125 0.025108 0.001299 -997009.000000 0 0 1
-21.176529 -9.479751 17.598945 29.121022 0.420901 0.921861 0.028535 -0.002446 -197829.000000 0 0 1
-22.537129 -9.811551 18.222945 30.598438 0.410605 0.932844 0.028601 -0.003147 -519824.000000 0 0 1
-23.075429 -8.680451 18.880145 31.052947 0.359802 0.917259 0.032300 0.001834 -607222.000000 0 0 1
-24.440629 -8.722351 19.063445 32.199979 0.342790 0.937217 0.031514 0.002203 -831414.000000 0 0 1
-25.113829 -7.560451 19.856145 32.895764 0.292417 0.922778 0.039543 0.000896 91376.800000 0 0 1
-24.777929 -7.565251 21.211945 33.483211 0.296332 0.884715 0.036890 0.000949 397539.000000 0 0 1
-25.556299 -6.567151 21.864045 34.267891 0.251526 0.878855 0.037394 -0.001441 -654779.000000 0 0 1
-25.592879 -6.629151 23.394745 35.302340 0.253453 0.846382 0.030534 0.001451 554293.000000 0 0 1
-24.390829 -6.333051 24.100275 34.868945 0.254039 0.807693 0.017239 0.000279 90274.500000 0 0 1
-23.247229 -7.081851 23.860245 34.057269 0.295701 0.794570 0.021423 0.002488 -1535660.000000 0 0 1
-22.119129 -6.862551 24.815745 33.943654 0.300837 0.750883 0.024004 0.000304 -695169.000000 0 0 1
-21.755629 -5.492951 24.873905 33.499120 0.247315 0.733965 0.017490 -0.000725 -236363.000000 0 0 1
-20.780029 -5.270751 25.844725 33.578866 0.248406 0.692469 0.013838 -0.004635 -263087.000000 0 0 1
-20.343129 -3.790751 25.907935 33.157711 0.184228 0.673963 0.013329 -0.006230 346533.000000 0 0 1
-19.326329 -3.488051 26.900125 33.306008 0.178560 0.630614 0.004733 -0.006001 182756.000000 0 0 1
-19.588329 -3.580251 28.244415 34.558180 0.180779 0.614086 0.001583 -0.012200 -175219.000000 0 0 1
-20.341729 -2.389451 28.915975 35.434856 0.116930 0.616284 0.003061 -0.011876 567958.000000 0 0 1
-21.593029 -2.159351 28.278705 35.645572 0.099671 0.654537 0.004812 -0.013273 -229853.000000 0 0 1
-22.319329 -1.206651 29.023335 36.632805 0.054010 0.656264 0.001788 -0.011281 425952.000000 0 0 1
-23.738029 -0.913551 28.463955 37.074591 0.038466 0.695477 0.005433 -0.007266 -315153.000000 0 0 1
-23.629029 -0.256351 27.157605 35.999059 0.010849 0.716060 0.005848 -0.007804 -29265.500000 0 0 1
-24.889729 -0.058351 26.550355 36.392628 0.002344 0.753128 0.013187 0.002843 -125873.000000 0 0 1
-25.472789 -1.306951 25.810195 36.286874 0.051263 0.779476 0.006334 -0.002422 188311.000000 0 0 1
-26.247879 -2.151551 26.722105 37.518678 0.081788 0.778120 0.008337 -0.006965 477418.000000 0 0 1
-26.545649 -3.506851 26.294895 37.528535 0.131346 0.794469 -0.002059 -0.000377 294876.000000 0 0 1
-25.429899 -4.560751 26.557525 37.051077 0.177459 0.771621 0.007046 -0.011520 170286.000000 0 0 1
-25.119279 -4.773751 27.925345 37.862802 0.187804 0.741376 0.004960 -0.008129 -40452.400000 0 0 1
-24.262729 -5.899351 28.004725 37.519954 0.238516 0.728167 0.014045 -0.015948 189715.000000 0 0 1
-23.955829 -6.181651 29.518785 38.515623 0.252535 0.697562 0.009555 -0.016854 115761.000000 0 0 1
-25.123859 -6.759151 30.053835 39.750816 0.262810 0.713531 0.014119 -0.013675 391960.000000 0 0 1
-24.886729 -7.052051 31.422005 40.699178 0.276127 0.688728 0.019740 -0.006375 528164.000000 0 0 1
-26.253429 -7.460951 32.058825 42.103166 0.276889 0.705272 0.008857 -0.013038 587237.000000 0 0 1
-26.880869 -8.578751 31.494795 42.285910 0.308922 0.730552 0.015717 -0.022293 -371758.000000 0 0 1
-28.141579 -8.924651 31.977245 43.521742 0.307101 0.745510 0.014778 -0.016923 -675134.000000 0 0 1
-28.995279 -9.629351 30.955785 43.493807 0.320641 0.778840 0.015323 -0.020835 -636427.000000 0 0 1
-28.617129 -10.970351 30.652855 43.346121 0.366070 0.785316 0.032883 -0.026580 119358.000000 0 0 1
-29.587409 -11.698451 29.892335 43.655701 0.376523 0.816564 0.016852 -0.021577 7293.600000 0 0 1
-29.152149 -12.955251 29.088835 43.172290 0.418188 0.831477 0.031356 -0.023718 -348089.000000 0 0 1
-28.058459 -12.602051 28.291325 41.791002 0.422135 0.827156 0.043262 -0.028768 -755085.000000 0 0 1
-27.269589 -13.697051 27.929965 41.368135 0.465472 0.829620 0.056242 -0.028320 -863180.000000 0 0 1
-26.048279 -13.127851 27.206245 39.887756 0.466828 0.820207 0.054142 -0.024009 -192313.000000 0 0 1
-25.024529 -12.526851 28.034095 39.611356 0.464114 0.784518 0.048592 -0.023668 580117.000000 0 0 1
-25.330999 -11.260451 28.689665 39.894287 0.418298 0.768229 0.050980 -0.028412 -746785.000000 0 0 1
-25.269839 -10.034051 27.704475 38.817327 0.377983 0.776010 0.050510 -0.027369 597991.000000 0 0 1
-23.943629 -9.675651 27.286245 37.569332 0.384037 0.757887 0.026528 -0.015200 516198.000000 0 0 1
-23.466529 -10.460751 26.180225 36.681187 0.419333 0.775996 0.022493 -0.015523 -379003.000000 0 0 1
-24.179029 -10.446951 24.820905 36.191733 0.407841 0.815071 0.034227 -0.006805 93740.600000 0 0 1
-25.534169 -10.880951 24.772535 37.203056 0.402830 0.842132 0.048393 -0.015974 -14477.200000 0 0 1
-26.062399 -10.571451 23.514745 36.659889 0.385342 0.874436 0.053200 -0.013128 211877.000000 0 0 1
-27.422919 -11.322951 23.287445 37.716452 0.391578 0.905319 0.068491 -0.018768 1081330.000000 0 0 1
-28.590769 -10.889351 24.002415 38.886064 0.363907 0.905554 0.056415 -0.021401 125105.000000 0 0 1
-28.587379 -11.048551 25.349935 39.773457 0.368800 0.879731 0.057399 -0.021384 312662.000000 0 0 1
-30.045709 -10.845551 25.941035 41.149822 0.346413 0.888722 0.019710 -0.017895 1016100.000000 0 0 1
-30.551319 -9.522851 25.880025 41.156330 0.302156 0.890758 0.025647 -0.018093 1378820.000000 0 0 1
-31.966299 -9.286651 26.161105 42.337803 0.282731 0.904710 0.020658 -0.005915 1499930.000000 0 0 1
-32.379159 -9.446451 27.658655 43.619337 0.283866 0.883963 0.007528 -0.002637 -700705.000000 0 0 1
-32.839509 -10.706251 27.973755 44.447588 0.315152 0.890061 0.005951 -0.014148 54268.200000 0 0 1
-33.372849 -10.691851 29.296465 45.676532 0.310044 0.874488 0.002158 -0.007980 -418938.000000 0 0 1
-33.928159 -12.045151 29.805685 46.739539 0.341139 0.879291 0.005109 -0.010330 247577.000000 0 0 1
-35.048622 -12.572351 29.102405 47.259072 0.344415 0.907388 -0.001603 -0.005975 694228.000000 0 0 1
34.361141 -12.222651 29.755635 47.068875 -0.341754 0.886443 -0.000975 0.002823 456449.000000 0 0 1
33.115461 -12.646251 28.944535 45.764041 -0.364792 0.886054 0.002872 -0.002535 24013.800000 0 0 1
33.080061 -12.047451 27.657715 44.770310 -0.349261 0.904894 0.000573 0.000976 -30063.900000 0 0 1
32.092241 -12.707151 26.875135 43.745359 -0.377016 0.909229 0.003122 0.010912 106627.000000 0 0 1
32.003561 -12.154451 25.416095 42.637266 -0.362959 0.932161 0.005039 0.003793 121751.000000 0 0 1
31.561311 -10.805351 25.302675 41.870005 -0.329853 0.921890 0.015655 -0.004354 118764.000000 0 0 1
31.645561 -10.433051 23.945945 41.032893 -0.318463 0.947667 0.013633 -0.005556 -389412.000000 0 0 1
31.297991 -8.963551 23.866545 40.367331 -0.278928 0.938208 0.025233 0.015940 490812.000000 0 0 1
29.925531 -8.665051 24.124645 39.403286 -0.281846 0.911894 0.036078 0.002866 210978.000000 0 0 1
29.572121 -7.447751 23.543445 38.526265 -0.246719 0.913345 0.037131 0.014840 320667.000000 0 0 1
28.043831 -7.190751 23.456045 37.260561 -0.251004 0.889869 0.036370 0.027464 271420.000000 0 0 1
27.403331 -7.931351 22.450745 36.302683 -0.281732 0.904050 0.027981 0.025077 -46193.900000 0 0 1
26.022271 -7.635551 22.440145 35.199720 -0.285413 0.879535 0.036070 -0.000650 -121629.000000 0 0 1
13.828371 -17.490051 25.964295 34.223827 -0.901788 0.709540 -0.005282 0.010764 -141881.000000 0 0 1
13.181571 -18.756351 26.012745 34.673007 -0.958208 0.722386 -0.027209 0.012947 260123.000000 0 0 1
14.120071 -19.773851 26.281815 35.792672 -0.950684 0.746192 0.010369 0.006168 -1113350.000000 0 0 1
13.614071 -21.192751 26.225875 36.363060 -0.999787 0.765230 -0.001339 -0.004139 456029.000000 0 0 1
12.708071 -21.679851 27.251555 37.069640 -1.040608 0.744916 -0.001725 -0.006469 848897.000000 0 0 1
11.468471 -21.000051 27.330765 36.324904 -1.070940 0.719102 -0.023365 0.009966 -695579.000000 0 0 1
10.776471 -21.172351 28.677455 37.239726 -1.099984 0.691835 -0.036106 0.008343 -321219.000000 0 0 1
11.553571 -20.634251 29.736835 37.993903 -1.060367 0.671846 -0.031413 0.000373 -473170.000000 0 0 1
10.915071 -19.685251 30.542455 37.940604 -1.064520 0.635109 -0.033853 0.010018 -283010.000000 0 0 1
10.734671 -18.241051 29.949785 36.673679 -1.038883 0.615203 -0.040996 0.017845 1041280.000000 0 0 1
11.924371 -17.450451 30.221325 36.878684 -0.971348 0.610294 -0.032364 0.023995 678038.000000 0 0 1
11.773271 -16.121751 29.665345 35.756866 -0.940041 0.592333 -0.027137 0.023205 104306.000000 0 0 1
12.843971 -15.099551 30.095635 36.037637 -0.865943 0.582451 -0.024231 0.020614 -3384.940000 0 0 1
12.417871 -13.878851 29.602355 34.973210 -0.840899 0.561552 -0.006183 0.020687 272131.000000 0 0 1
13.075171 -12.752951 30.216925 35.308078 -0.772923 0.543686 0.001933 0.018304 -67089.600000 0 0 1
12.487871 -11.409651 29.799525 34.265708 -0.740310 0.516283 0.001720 0.017278 -187826.000000 0 0 1
12.737771 -10.862451 28.520995 33.070996 -0.706103 0.530771 0.018846 0.012616 1951280.000000 0 0 1
14.149871 -10.648151 28.141245 33.249536 -0.645116 0.561673 0.025667 0.011419 1644490.000000 0 0 1
14.448071 -9.490951 27.097555 32.141910 -0.581211 0.567849 0.029333 0.004409 -22149.700000 0 0 1
14.563471 -8.152151 27.583045 32.239364 -0.510311 0.544145 0.034691 0.004017 -164872.000000 0 0 1
15.829271 -7.845451 28.096365 33.189194 -0.460145 0.561323 0.032749 0.005687 -693811.000000 0 0 1
16.112271 -6.325851 28.127585 33.026999 -0.374120 0.551663 0.026977 0.001140 -142899.000000 0 0 1
17.489671 -6.069451 28.268245 33.790834 -0.334027 0.579812 0.018673 0.000184 104.823000 0 0 1
17.991471 -4.761751 27.916885 33.551747 -0.258735 0.587995 0.019867 0.002389 486451.000000 0 0 1
19.537671 -4.783851 27.795575 34.310345 -0.240128 0.626436 0.023100 0.001962 -758912.000000 0 0 1
19.980771 -5.770351 26.840315 33.954832 -0.281146 0.659219 0.019538 0.011105 -643577.000000 0 0 1
21.264871 -5.809951 26.332895 34.341980 -0.266709 0.696980 0.026451 0.012215 -149416.000000 0 0 1
22.421871 -5.863051 27.405335 35.891058 -0.255761 0.701972 0.034217 0.008859 -613479.000000 0 0 1
22.695871 -4.575651 27.970405 36.309540 -0.198940 0.691434 0.041744 -0.006049 -64371.200000 0 0 1
23.454871 -4.722751 29.163985 37.722319 -0.198698 0.687046 0.049169 -0.014752 -64412.300000 0 0 1
23.966071 -3.326551 29.661775 38.278706 -0.137921 0.684256 0.054702 -0.018141 430886.000000 0 0 1
25.046171 -2.846651 28.842235 38.305203 -0.113171 0.718250 0.048643 -0.010349 715224.000000 0 0 1
25.512771 -1.571451 29.270965 38.860781 -0.061517 0.717843 0.039590 -0.021393 -158004.000000 0 0 1
26.516571 -0.854551 28.337895 38.818746 -0.032216 0.752466 0.040047 -0.016406 994516.000000 0 0 1
27.861071 -1.348351 28.523895 39.895738 -0.048358 0.774228 0.050390 -0.015166 779104.000000 0 0 1
28.694971 -0.778051 27.495545 39.749361 -0.027108 0.806924 0.038631 -0.000965 502257.000000 0 0 1
30.199171 -0.873751 27.853685 41.092349 -0.028925 0.825987 0.031959 -0.002917 48652.800000 0 0 1
30.553271 0.093749 28.851715 42.023001 0.003068 0.814036 0.027481 0.000360 273230.000000 0 0 1
31.940271 0.101249 29.156995 43.247214 0.003170 0.830924 0.033171 -0.004859 356355.000000 0 0 1
32.294871 1.249249 30.123835 44.181045 0.038663 0.820539 0.019849 0.001127 -152962.000000 0 0 1
32.051671 2.557849 29.676345 43.755430 0.079635 0.825442 0.012313 0.009337 66318.200000 0 0 1
32.247971 3.613449 30.646445 44.633992 0.111587 0.813971 0.027856 0.007278 68671.500000 0 0 1
32.080871 5.043749 29.963015 44.186015 0.155943 0.825607 0.018238 0.010340 -8132.330000 0 0 1
32.116471 6.217349 30.762305 44.904816 0.191222 0.816116 0.023025 0.010632 -238898.000000 0 0 1
30.878771 6.672249 31.226705 44.419866 0.212807 0.791204 0.032280 0.009387 -521598.000000 0 0 1
31.085471 7.620149 32.441845 45.572431 0.240395 0.778633 0.035417 0.005428 -151973.000000 0 0 1
31.525771 6.925649 33.541100 46.549374 0.216247 0.766203 0.029837 0.007850 61557.100000 0 0 1
31.546971 7.702649 -34.388368 47.298013 0.239479 2.384823 0.023473 0.002817 -262977.000000 0 0 1
31.622971 6.864349 -33.040888 46.247506 0.213752 2.366614 0.027490 0.004043 -257318.000000 0 0 1
30.500771 6.070149 -32.698248 45.125593 0.196449 2.381258 0.029388 0.009012 68337.200000 0 0 1
30.495171 4.688749 -33.009278 45.183540 0.152559 2.389938 0.031381 0.002794 -249032.000000 0 0 1
31.453071 3.809749 -32.154888 45.141408 0.120538 2.363587 0.027752 0.001576 -64475.700000 0 0 1
31.152471 2.426649 -32.189288 44.861067 0.077739 2.371050 0.032268 0.007269 63950.700000 0 0 1
31.892171 1.725849 -31.230048 44.669956 0.054062 2.344974 0.035161 0.005304 -181543.000000 0 0 1
32.279371 0.279049 -31.628038 45.192571 0.008645 2.345984 0.044182 -0.002376 -280586.000000 0 0 1
33.263971 0.181849 -32.677998 46.630209 0.005467 2.347301 0.050049 -0.004691 996529.000000 0 0 1
34.006871 -1.077051 -32.673688 47.171996 -0.031661 2.335953 0.048144 -0.004835 617716.000000 0 0 1
34.914571 -1.415051 -31.481068 47.032832 -0.040507 2.304120 0.047026 0.002682 -940200.000000 0 0 1
34.227071 -1.626351 -30.242558 45.702841 -0.047481 2.293909 0.039021 0.001743 20562.300000 0 0 1
35.038171 -1.622751 -29.071508 45.557209 -0.046281 2.262866 0.020972 0.007022 -122990.000000 0 0 1
34.200771 -1.376951 -27.800398 44.095928 -0.040239 2.252933 0.024975 0.006549 -30770.700000 0 0 1
33.694471 -0.047251 -27.755518 43.654191 -0.001402 2.259846 0.012513 0.014145 319657.000000 0 0 1
32.745271 0.010849 -26.702518 42.252542 0.000331 2.254894 0.024501 0.009924 -68985.300000 0 0 1
32.022871 1.357049 -26.616258 41.662105 0.042352 2.263812 0.023610 0.009544 -130587.000000 0 0 1
31.250771 1.730149 -27.728718 41.814900 0.055307 2.295789 0.029840 -0.001178 371775.000000 0 0 1
30.611471 2.982949 -27.528938 41.277143 0.097139 2.300876 0.010287 0.001352 95481.800000 0 0 1
29.802971 3.483249 -28.728788 41.541465 0.116348 2.334455 0.018679 0.000136 -317164.000000 0 0 1
28.995671 4.636249 -28.571978 40.970741 0.158552 2.342525 0.003432 0.002835 217977.000000 0 0 1
28.278271 4.810449 -29.765058 41.337147 0.168498 2.374679 0.010401 -0.000725 417035.000000 0 0 1
26.998871 5.718449 -29.607368 40.475127 0.208719 2.391309 0.015484 -0.003053 1227810.000000 0 0 1
25.897571 5.251449 -28.805198 39.089657 0.200065 2.399270 0.011059 -0.003092 1051880.000000 0 0 1
24.976571 6.309049 -28.528778 38.438579 0.247423 2.407130 0.012674 -0.002039 -267913.000000 0 0 1
23.653471 5.805549 -27.913148 37.045039 0.240684 2.424154 0.014076 -0.000421 -212308.000000 0 0 1
22.876471 5.423149 -29.054698 37.375379 0.232765 2.461279 0.033106 -0.005122 272605.000000 0 0 1
21.593671 4.943149 -28.696748 36.252237 0.225039 2.484196 0.028268 -0.002118 -132252.000000 0 0 1
20.784271 4.251749 -29.778028 36.562197 0.201782 2.522574 0.022568 -0.000997 -98956.700000 0 0 1
21.261771 2.952949 -30.295348 37.129381 0.138003 2.525150 0.028247 -0.014162 1040500.000000 0 0 1
20.358971 2.451349 -31.340118 37.452634 0.119829 2.562197 0.014582 -0.012801 439239.000000 0 0 1
20.360571 3.127149 -32.751308 38.690827 0.152398 2.580150 0.026870 -0.012845 -780466.000000 0 0 1
21.577071 3.027449 -33.398178 39.876982 0.139399 2.563544 0.040029 -0.017841 -720691.000000 0 0 1
21.556471 3.774149 34.455658 40.818108 0.173325 0.565862 0.046051 -0.023791 -164572.000000 0 0 1
22.888271 3.654949 33.700413 40.901704 0.158350 0.602473 0.059725 -0.027364 -178224.000000 0 0 1
23.124771 2.298949 33.300897 40.607757 0.099089 0.609276 0.062994 -0.026735 459587.000000 0 0 1
24.525871 2.034549 33.213296 41.337401 0.082766 0.637698 0.054999 -0.030377 394786.000000 0 0 1
24.855771 0.506449 33.147014 41.434169 0.020373 0.643514 0.050655 -0.026942 -686245.000000 0 0 1
24.452271 -0.250251 31.988155 40.264354 -0.010234 0.652689 0.063147 -0.031982 187356.000000 0 0 1
23.060671 -0.325851 31.739105 39.233550 -0.014129 0.628384 0.059997 -0.037325 52959.100000 0 0 1
22.273071 -1.215351 32.784495 39.653371 -0.054512 0.597443 0.053830 -0.035881 -614435.000000 0 0 1
22.309771 -2.600251 32.499565 39.505808 -0.116029 0.604735 0.066979 -0.040892 256220.000000 0 0 1
21.582671 -3.352851 33.471400 39.967335 -0.154117 0.578161 0.048023 -0.026351 132276.000000 0 0 1
21.292671 -4.795351 33.017126 39.579083 -0.221516 0.584104 0.045149 -0.020322 -301849.000000 0 0 1
22.481471 -5.490551 32.766225 40.114688 -0.239537 0.614930 0.064374 -0.017994 -171457.000000 0 0 1
22.217971 -6.808751 32.352195 39.832924 -0.297366 0.622887 0.044287 -0.014133 115599.000000 0 0 1
23.507871 -7.702551 32.203755 40.608264 -0.316634 0.655022 0.060117 -0.019152 802100.000000 0 0 1
24.194871 -7.435051 30.993375 40.015760 -0.298139 0.684826 0.055244 -0.018929 -127206.000000 0 0 1
25.489571 -8.009351 30.996235 40.922298 -0.304452 0.711411 0.049027 -0.014720 402948.000000 0 0 1
26.121971 -7.858951 29.571005 40.231391 -0.292242 0.745095 0.047824 -0.010128 497721.000000 0 0 1
25.349271 -8.587551 28.549275 39.133012 -0.326635 0.753141 0.040349 -0.002625 262317.000000 0 0 1
25.851271 -8.452451 27.261225 38.508525 -0.316008 0.784238 0.046413 0.002101 -193012.000000 0 0 1
25.021871 -9.218451 26.246575 37.415993 -0.352986 0.793324 0.027935 0.000253 -446575.000000 0 0 1
23.751271 -8.739951 25.905975 36.216421 -0.352600 0.773728 0.023821 -0.001206 -311597.000000 0 0 1
23.233471 -9.627251 24.918935 35.403834 -0.392833 0.789996 0.028451 -0.003811 -346757.000000 0 0 1
21.942871 -9.104751 24.302415 33.985194 -0.393310 0.774046 0.016212 0.010326 553366.000000 0 0 1
20.738271 -9.400551 25.044065 33.847473 -0.425591 0.737861 0.008857 0.007020 375433.000000 0 0 1
19.604871 -8.736851 24.554525 32.613007 -0.419228 0.718330 0.005140 0.015701 82057.700000 0 0 1
18.469071 -8.771151 25.602635 32.764837 -0.443375 0.673881 0.005159 0.013497 -71720.000000 0 0 1
17.854071 -10.003651 26.003995 33.091519 -0.510717 0.666775 0.012669 0.008681 228993.000000 0 0 1
18.663671 -10.878651 26.758365 34.390227 -0.527735 0.679192 0.008481 0.003990 -232520.000000 0 0 1
17.876971 -12.019851 27.465145 34.905545 -0.591937 0.665121 0.024531 0.001888 135103.000000 0 0 1
17.210671 -13.030551 26.702065 34.336609 -0.648043 0.679868 0.020942 0.006105 1106020.000000 0 0 1
16.250971 -13.796551 27.486725 34.784464 -0.703895 0.659659 0.018503 0.011762 689351.000000 0 0 1
16.912371 -14.832651 28.384445 36.217572 -0.719978 0.670163 0.024020 0.014622 17502.500000 0 0 1
15.886971 -15.671651 28.888845 36.504271 -0.778575 0.657729 0.015322 0.012880 517577.000000 0 0 1
16.429171 -16.789551 29.588105 37.779129 -0.796246 0.671022 0.026499 0.014998 152529.000000 0 0 1
17.051171 -17.972951 28.784795 37.978070 -0.811711 0.710659 0.024169 0.014299 -5337.030000 0 0 1
18.208371 -17.729351 28.041695 37.844568 -0.772070 0.736282 0.039276 0.010238 -120549.000000 0 0 1
18.411371 -18.792151 27.130295 37.791221 -0.795633 0.770016 0.035783 0.010565 -183610.000000 0 0 1
19.383971 -18.400251 25.993145 37.282048 -0.759369 0.799308 0.043078 0.004422 -971445.000000 0 0 1
20.670871 -18.466651 26.492345 38.342488 -0.729138 0.808008 0.049633 0.006347 -1200470.000000 0 0 1
21.578371 -17.852651 25.628395 37.962585 -0.691191 0.829701 0.034178 0.003976 -372745.000000 0 0 1
22.944871 -17.506251 26.222525 38.994316 -0.651750 0.833255 0.026225 0.004038 -182285.000000 0 0 1
23.609871 -18.696051 26.689065 40.240210 -0.669767 0.845652 0.012485 0.005439 -109338.000000 0 0 1
24.936171 -18.347451 27.002695 41.080252 -0.634336 0.853545 0.007169 0.000754 -241982.000000 0 0 1
25.836071 -19.561351 27.217775 42.319691 -0.648051 0.872196 0.010620 -0.000347 -402321.000000 0 0 1
25.530571 -20.148151 28.461975 43.218538 -0.668107 0.851894 0.013088 -0.000436 -66600.200000 0 0 1
26.287271 -21.304051 28.673315 44.351349 -0.681070 0.867804 0.024125 0.000994 -63899.400000 0 0 1
25.521071 -22.378451 29.514525 44.980299 -0.719883 0.855070 0.033035 0.009849 48364.000000 0 0 1
25.397971 -22.196451 30.910385 45.751407 -0.718233 0.828996 0.033960 0.004798 362599.000000 0 0 1
24.598471 -23.298251 31.430045 46.214078 -0.758259 0.822902 0.038273 0.012416 76753.700000 0 0 1
24.777871 -23.603651 32.925285 47.488415 -0.761133 0.804692 0.035148 0.005765 219788.000000 0 0 1
23.973571 -24.649451 33.473102 47.987249 -0.799298 0.798836 0.039425 -0.001473 159713.000000 0 0 1
23.687271 -24.472451 -34.202726 48.268148 -0.801700 2.358306 0.017443 0.003525 -127767.000000 0 0 1
23.080471 -25.686481 -33.478778 48.097110 -0.838785 2.340700 0.005739 0.001723 1363530.000000 0 0 1
21.746871 -26.170891 -33.759928 47.933023 -0.877462 2.352254 0.002380 -0.003253 683491.000000 0 0 1
21.548871 -26.661101 33.918898 48.225095 -0.891044 0.790704 0.022279 -0.005255 -709850.000000 0 0 1
20.339871 -27.550421 33.774791 48.098571 -0.934840 0.792314 0.039493 -0.004237 -471900.000000 0 0 1
20.578171 -28.870511 34.332394 49.352617 -0.951548 0.801465 0.036285 -0.010371 46376.200000 0 0 1
19.468971 -29.678521 34.080398 49.207001 -0.990218 0.805719 0.041463 -0.008319 -383783.000000 0 0 1
19.854871 -31.219911 34.293542 50.447455 -1.004349 0.823324 0.033018 -0.009550 65203.400000 0 0 1
20.447071 -31.454411 -33.510488 50.303235 -0.994383 2.299857 0.027975 -0.019201 84855.300000 0 0 1
21.077871 -32.688941 -33.494758 51.329741 -0.998084 2.281729 0.003064 -0.010232 -286307.000000 0 0 1
21.922471 -32.919671 -32.221198 51.014753 -0.983298 2.254419 -0.002007 -0.010117 -911192.000000 0 0 1
22.611071 -34.158063 -32.303778 52.168648 -0.986063 2.238543 -0.012110 -0.008447 456372.000000 0 0 1
23.158671 -34.471714 -30.984608 51.813792 -0.979237 2.211799 -0.018739 -0.001159 148718.000000 0 0 1
24.478071 -33.738521 -30.628588 51.725952 -0.943145 2.204498 -0.018486 0.001559 -475707.000000 0 0 1
25.082371 -34.129423 -29.366288 51.539516 -0.937017 2.177037 -0.016826 0.007903 -164894.000000 0 0 1
25.852671 -33.061781 -28.949768 50.985596 -0.907159 2.174631 -0.013239 0.005677 -830942.000000 0 0 1
26.169871 -33.023201 -27.435988 50.280487 -0.900664 2.147971 -0.012521 0.009431 -193564.000000 0 0 1
27.078571 -34.011657 -27.069388 51.213217 -0.898404 2.127703 -0.006868 0.016929 -818589.000000 0 0 1
28.202871 -33.456351 -26.471838 51.141838 -0.870395 2.114859 -0.004441 0.007210 -580871.000000 0 0 1
-26.345549 -30.695994 9.193522 41.483163 0.861519 1.347320 -0.001976 0.004028 -67155.800000 0 0 1
-26.398549 -31.933394 9.809722 42.577643 0.880000 1.338312 -0.004149 0.000105 205231.000000 0 0 1
-25.247709 -32.047994 10.634722 42.161808 0.903533 1.315806 0.001490 -0.000453 292434.000000 0 0 1
-25.252079 -33.354794 11.535022 43.396618 0.922783 1.301758 0.002208 -0.002235 69172.500000 0 0 1
-25.277129 -34.536694 10.752222 44.128525 0.938985 1.324662 0.005496 0.000136 111222.000000 0 0 1
-25.131209 33.497549 11.556622 43.442134 -0.927141 1.301531 0.003737 -0.002104 -91540.600000 0 0 1
-25.028129 32.152149 10.773122 42.145321 -0.909348 1.312309 0.004617 0.002164 -581656.000000 0 0 1
-26.295349 31.612649 10.542122 42.449279 -0.876965 1.319824 0.013123 -0.000702 -448242.000000 0 0 1
-26.404489 30.338549 9.856722 41.409897 -0.854619 1.330461 0.019824 -0.000488 -378417.000000 0 0 1
-25.783749 30.189849 8.462222 40.593570 -0.863954 1.360794 0.024509 0.002219 21793.500000 0 0 1
-24.367629 30.118949 8.504122 39.664247 -0.890564 1.354716 0.015964 0.005228 216995.000000 0 0 1
-23.878329 30.153949 7.134422 39.119499 -0.901026 1.387395 0.021312 0.010764 -334845.000000 0 0 1
-22.518829 29.524449 6.888522 37.765626 -0.919205 1.387368 0.012509 0.010239 -563397.000000 0 0 1
-22.442829 28.145849 7.055922 36.683176 -0.897657 1.377242 0.031154 0.008732 236347.000000 0 0 1
-22.966529 27.276949 6.008322 36.160660 -0.870979 1.403866 0.019552 0.007190 -427732.000000 0 0 1
-22.969529 25.767349 6.468522 35.119757 -0.842742 1.385554 0.026683 0.000619 -29267.600000 0 0 1
-23.969329 25.481249 7.459222 35.769579 -0.815963 1.360719 0.023217 -0.005162 573605.000000 0 0 1
-24.048729 24.116849 7.844222 34.949901 -0.786812 1.344426 0.032125 -0.020400 -129564.000000 0 0 1
-24.617029 23.071249 6.813722 34.419580 -0.752995 1.371519 0.020950 -0.026090 966939.000000 0 0 1
-25.985579 23.357249 6.401522 35.521696 -0.732182 1.389592 0.021846 -0.023492 1302950.000000 0 0 1
-26.298489 22.644149 5.213922 35.093489 -0.710871 1.421672 0.018240 -0.027341 -137797.000000 0 0 1
-26.046679 23.361449 3.892922 35.204284 -0.731104 1.459989 0.004398 -0.027282 816030.000000 0 0 1
-24.670129 23.730449 3.658022 34.425726 -0.765986 1.464337 0.007100 -0.027954 1091950.000000 0 0 1
-24.545629 24.556649 2.557122 34.814592 -0.785623 1.497280 0.002396 -0.014710 -272762.000000 0 0 1
-23.259029 25.385649 2.488522 34.519652 -0.829088 1.498644 0.020527 -0.012529 -149591.000000 0 0 1
-23.080829 26.070649 1.272922 34.842843 -0.846152 1.534255 0.013725 -0.012717 -290601.000000 0 0 1
-21.816229 26.686549 1.275722 34.492712 -0.885476 1.533803 0.022133 -0.014734 -209660.000000 0 0 1
-21.310329 27.286849 -0.113778 34.622467 -0.907765 1.574083 0.031767 -0.020853 253074.000000 0 0 1
-20.857629 26.447649 -1.182878 33.703383 -0.903022 1.605900 0.026074 -0.023705 250561.000000 0 0 1
-19.727629 25.648849 -0.851678 32.369247 -0.915156 1.597111 0.028616 -0.026235 54920.200000 0 0 1
-19.340729 24.581749 -1.911278 31.336547 -0.904161 1.631826 0.031353 -0.025119 253924.000000 0 0 1
-20.228329 23.475549 -1.912978 31.047483 -0.859562 1.632450 0.020560 -0.015728 -49732.300000 0 0 1
-19.783129 22.591449 -2.930778 30.171762 -0.851575 1.668086 0.025571 -0.011521 168906.000000 0 0 1
-20.940029 22.018249 -3.785278 30.620523 -0.810492 1.694732 0.020902 -0.001629 101541.000000 0 0 1
-21.468029 22.950149 -4.688578 31.773706 -0.818753 1.718899 0.020448 -0.001811 155014.000000 0 0 1
-22.682729 22.473149 -5.263078 32.361221 -0.780757 1.734157 0.023979 -0.003237 489083.000000 0 0 1
-23.031029 23.304249 -6.543478 33.411576 -0.791295 1.767915 0.015895 0.004453 183687.000000 0 0 1
-22.125129 23.080149 -7.617978 32.867130 -0.806521 1.804705 0.005313 0.008659 205854.000000 0 0 1
-22.225929 24.055449 -8.658278 33.876575 -0.824908 1.829247 0.012857 0.006162 -260172.000000 0 0 1
-21.353029 23.743849 -9.871478 33.424068 -0.838364 1.870608 0.004290 0.009119 -446097.000000 0 0 1
-21.840629 22.643949 -10.613978 33.202681 -0.803455 1.896180 -0.000685 0.016006 224009.000000 0 0 1
-21.044529 22.399649 -11.747278 32.903116 -0.816580 1.935879 -0.009643 0.024443 44476.500000 0 0 1
-21.921829 21.992049 -12.973878 33.653207 -0.786997 1.966564 -0.014151 0.026723 122707.000000 0 0 1
-22.368729 20.642249 -12.941378 33.074790 -0.745279 1.972814 -0.005591 0.020489 95204.600000 0 0 1
-23.007929 20.393449 -14.202178 33.866789 -0.725231 2.003530 0.001648 0.023091 -276333.000000 0 0 1
-23.937229 19.213749 -14.296378 33.860678 -0.676368 2.006680 0.000438 0.014047 -418050.000000 0 0 1
-23.858329 18.486849 -15.474078 33.917997 -0.659222 2.044539 0.005548 0.012317 -302924.000000 0 0 1
-24.724329 17.384349 -15.425978 33.933300 -0.612822 2.042716 0.031749 0.009848 -140778.000000 0 0 1
-24.596929 16.279249 -16.509978 33.802400 -0.584654 2.081082 0.038486 0.005759 -151189.000000 0 0 1
-23.556429 15.351449 -16.329878 32.515185 -0.577561 2.096964 0.045068 -0.001198 -148083.000000 0 0 1
-23.310629 14.578349 -17.507878 32.595084 -0.558883 2.137830 0.049575 -0.013992 279271.000000 0 0 1
-22.371329 13.354049 -17.231978 31.236966 -0.538157 2.155142 0.047409 -0.012542 -314615.000000 0 0 1
-21.050529 13.708349 -16.952578 30.305668 -0.577226 2.164442 0.035123 -0.019552 -792977.000000 0 0 1
-20.366029 12.505749 -16.743978 29.180982 -0.550686 2.181932 0.042486 -0.021672 -189460.000000 0 0 1
-19.229629 12.652649 -15.679978 27.851928 -0.581962 2.168779 0.034832 -0.018008 -19341.000000 0 0 1
-18.203429 13.428249 -16.244478 27.848981 -0.635568 2.193589 0.022522 -0.009123 132322.000000 0 0 1
-17.121329 13.787549 -15.385078 26.831643 -0.677955 2.181438 0.019347 -0.001051 243191.000000 0 0 1
-16.473629 15.060449 -15.962078 27.440581 -0.740614 2.191609 0.003478 0.010681 -562037.000000 0 0 1
-15.790229 14.773049 -17.161378 27.605927 -0.752129 2.241651 0.006679 0.003058 -348246.000000 0 0 1
-14.828129 15.753649 -17.347278 27.730469 -0.815653 2.246655 0.002970 0.011089 -782717.000000 0 0 1
-13.927829 15.638349 -18.559678 27.982209 -0.843188 2.295972 -0.003893 0.007836 -289727.000000 0 0 1
-13.073729 14.545549 -18.423178 26.868362 -0.838637 2.326338 -0.001943 0.005596 -425727.000000 0 0 1
-11.957329 14.632649 -19.290778 27.004189 -0.885675 2.366509 -0.002248 0.003654 151261.000000 0 0 1
-11.270229 13.254749 -19.276378 25.967002 -0.866141 2.407354 -0.002777 -0.006002 -35697.800000 0 0 1
-12.006229 12.211749 -19.928578 26.275931 -0.793884 2.431704 0.002716 -0.005110 -87055.400000 0 0 1
-11.382329 10.981949 -19.786678 25.331270 -0.767497 2.467249 -0.009166 0.007880 -507083.000000 0 0 1
-11.816329 9.958849 -20.814278 25.923705 -0.700302 2.502949 -0.003882 0.006988 -553054.000000 0 0 1
-11.212629 10.026549 -22.037478 26.681551 -0.729612 2.542672 -0.006054 0.005003 -469414.000000 0 0 1
-11.770329 9.159749 -22.968978 27.386413 -0.661310 2.565688 -0.003678 0.017910 -131457.000000 0 0 1
-11.240529 9.433249 -24.406678 28.478441 -0.698201 2.600260 -0.001297 0.004918 364259.000000 0 0 1
-9.855429 9.117349 -24.612778 28.036483 -0.746516 2.642222 -0.012590 0.011315 481120.000000 0 0 1
-9.655629 8.471649 -25.913068 28.922087 -0.720176 2.681387 -0.022572 0.002613 -287193.000000 0 0 1
-9.551129 9.374749 -27.163608 30.281539 -0.776079 2.683811 -0.001029 -0.000192 484592.000000 0 0 1
-8.361129 10.143549 -27.423358 30.411192 -0.881425 2.694602 -0.009394 -0.005880 581595.000000 0 0 1
-8.175929 11.274649 -26.600058 30.025433 -0.943383 2.659265 -0.015408 -0.000604 362166.000000 0 0 1
-6.727029 11.857949 -26.672818 29.955018 -1.054767 2.669083 -0.003801 0.001258 389989.000000 0 0 1
-6.380029 12.376349 -27.945948 31.222665 -1.094824 2.679347 -0.013432 -0.006736 888258.000000 0 0 1
-4.992029 12.764449 -27.949858 31.129505 -1.197996 2.685675 0.011208 -0.005899 692203.000000 0 0 1
-4.515029 12.922249 -29.430118 32.457693 -1.234656 2.706242 0.005465 -0.007445 652044.000000 0 0 1
-3.091129 13.143949 -29.428208 32.378047 -1.339818 2.711420 0.022086 -0.019547 1038170.000000 0 0 1
-2.511929 12.912249 -30.730648 33.427663 -1.378658 2.737140 0.018798 -0.020754 179910.000000 0 0 1
-0.988529 12.733849 -30.715518 33.265164 -1.493322 2.747522 0.035042 -0.031722 -118284.000000 0 0 1
-0.399029 11.623949 -29.976768 32.154036 -1.536482 2.771479 0.026404 -0.020038 897115.000000 0 0 1
1.028271 11.527749 -30.036278 32.188885 1.481832 2.773807 0.053009 -0.027036 706490.000000 0 0 1
1.628371 10.879949 -31.296268 33.173502 1.422232 2.803568 0.057097 -0.021756 -476017.000000 0 0 1
1.573671 11.713249 -32.455148 34.540024 1.437246 2.792370 0.055305 -0.028316 207758.000000 0 0 1
1.721971 10.884849 -33.609458 35.370055 1.413898 2.824749 0.051172 -0.026063 -65830.700000 0 0 1
1.863071 11.765649 34.181347 36.197596 1.413752 0.335339 0.051700 -0.023228 -671396.000000 0 0 1
3.049671 12.482949 34.070504 36.413236 1.331183 0.360664 0.053701 -0.023669 -552632.000000 0 0 1
2.944571 13.374749 32.973555 35.704477 1.354094 0.393655 0.052694 -0.017388 585170.000000 0 0 1
4.354671 13.664849 32.375675 35.410105 1.262294 0.417005 0.058703 -0.016544 563434.000000 0 0 1
4.998371 12.518749 31.797155 34.536384 1.190919 0.400963 0.051750 -0.013295 930742.000000 0 0 1
6.398371 12.777749 31.573355 34.656698 1.106554 0.425017 0.063592 -0.008483 982012.000000 0 0 1
7.171871 11.495249 31.197655 34.012794 1.012989 0.409719 0.034830 -0.000720 -148090.000000 0 0 1
6.800871 11.035449 29.905465 32.594015 1.018496 0.409013 0.026360 0.003455 186752.000000 0 0 1
7.627471 9.944349 29.449015 32.004888 0.916494 0.402356 0.025352 0.005973 301501.000000 0 0 1
7.083471 9.053649 28.310775 30.555590 0.906887 0.385705 0.016572 0.014917 475006.000000 0 0 1
6.146371 8.058849 28.777565 30.510181 0.919226 0.338626 0.027914 0.010350 405895.000000 0 0 1
5.942771 7.057449 27.875505 29.362695 0.870932 0.319632 0.042758 0.007924 65440.600000 0 0 1
5.245671 5.758549 28.364595 29.414761 0.831972 0.268017 0.059152 -0.008975 574930.000000 0 0 1
6.109871 4.822549 29.032775 30.058102 0.668185 0.261944 0.038280 -0.006243 551840.000000 0 0 1
5.355971 4.113049 30.002365 30.752975 0.654882 0.221394 0.041214 -0.008677 389175.000000 0 0 1
6.146371 2.904249 30.658075 31.402708 0.441418 0.218205 0.052423 -0.005551 321092.000000 0 0 1
6.052071 1.705749 29.902865 30.556807 0.274719 0.207257 0.045696 -0.001575 110352.000000 0 0 1
7.057371 1.536749 28.907425 29.796095 0.214404 0.244845 0.035945 0.002736 -65511.800000 0 0 1
7.058371 0.151649 28.284325 29.152129 0.021482 0.244610 0.028639 0.002866 -61377.300000 0 0 1
7.492471 -0.811751 29.190365 30.147528 -0.107921 0.252661 0.005639 -0.006786 -60983.300000 0 0 1
7.521571 -2.121651 28.737015 29.780723 -0.274932 0.265530 0.007400 -0.007392 -746253.000000 0 0 1
8.158071 -3.159251 29.653675 30.917235 -0.369471 0.286882 0.007351 -0.005760 -1148240.000000 0 0 1
9.506871 -2.941551 29.827175 31.443499 -0.300070 0.322027 0.011790 -0.010990 -1546360.000000 0 0 1
10.250771 -3.831751 29.096895 31.086812 -0.357719 0.359740 0.021240 -0.001955 -713580.000000 0 0 1
11.760171 -3.803551 29.445925 31.934794 -0.312808 0.397416 0.014701 -0.001288 722962.000000 0 0 1
12.672471 -4.835451 28.995095 32.010758 -0.364519 0.437551 0.025667 -0.000477 925807.000000 0 0 1
12.395271 -6.067051 29.687565 32.738408 -0.455184 0.435139 0.030099 0.001841 -717830.000000 0 0 1
11.581971 -7.201551 29.078345 32.117822 -0.556288 0.438558 0.030933 0.006213 -496429.000000 0 0 1
10.220771 -6.874351 28.980205 31.489254 -0.592090 0.401897 0.024776 0.004208 -781303.000000 0 0 1
9.534471 -8.038451 28.658195 31.254039 -0.700471 0.410444 0.019616 -0.004335 -684705.000000 0 0 1
8.024371 -7.857951 28.591865 30.718604 -0.774920 0.374291 0.014737 -0.004142 -472327.000000 0 0 1
7.431671 -7.454151 29.817465 31.620805 -0.786908 0.339354 0.012810 0.001722 1023560.000000 0 0 1
5.993971 -7.514951 29.660665 31.179436 -0.897517 0.313405 -0.000923 0.007319 1390160.000000 0 0 1
5.198671 -6.746651 30.777865 31.934627 -0.914269 0.269977 -0.004559 0.000388 241370.000000 0 0 1
5.132371 -7.468451 31.983245 33.242246 -0.968708 0.276098 -0.011530 -0.001700 -177664.000000 0 0 1
4.610771 -6.716451 33.057155 34.046224 -0.969196 0.241630 -0.002626 -0.000967 -194546.000000 0 0 1
5.556671 -5.757651 33.801275 34.735476 -0.803160 0.232449 0.015860 0.004174 -228934.000000 0 0 1
5.728471 -4.619851 32.961685 33.773230 -0.678675 0.219664 0.011249 0.003759 24968.900000 0 0 1
6.263071 -3.484451 33.667484 34.421896 -0.507704 0.209748 0.012537 -0.000624 -49395.400000 0 0 1
6.320471 -2.206451 32.835385 33.510883 -0.335869 0.201125 0.014732 -0.001505 241088.000000 0 0 1
4.994271 -1.765851 32.585685 33.013449 -0.339856 0.161154 0.017272 -0.002497 -38433.500000 0 0 1
4.985571 -0.415551 32.091825 32.479437 -0.083159 0.154647 0.020687 -0.002639 -438002.000000 0 0 1
3.571471 0.122749 31.928105 32.127470 0.034356 0.111462 0.026971 -0.008153 -497615.000000 0 0 1
2.799471 0.169649 33.079052 33.197733 0.060526 0.084583 0.029682 -0.006730 -806966.000000 0 0 1
1.615071 0.877349 32.890305 32.941620 0.497628 0.055824 0.043945 0.000942 -529618.000000 0 0 1
0.839471 1.085449 34.152464 34.180019 0.912495 0.040157 0.042116 -0.004672 -504347.000000 0 0 1
1.344671 2.191649 -34.269398 34.365726 1.020478 3.066702 0.037865 -0.005234 30250.500000 0 0 1
0.540071 2.546849 -33.157878 33.259931 1.361837 3.063236 0.028115 0.000532 -96772.100000 0 0 1
1.150871 3.594249 -32.248178 32.468263 1.260914 3.025093 0.027029 0.004667 45356.700000 0 0 1
2.163071 3.110749 -31.363248 31.591280 0.963195 3.021369 0.023760 0.008009 241501.000000 0 0 1
2.772971 4.232349 -30.696948 31.111168 0.990785 2.978229 0.025963 0.005172 -633696.000000 0 0 1
3.900671 3.760849 -29.822378 30.310616 0.767150 2.961864 0.031608 -0.003273 -798911.000000 0 0 1
3.482371 2.969549 -28.760438 29.122292 0.706081 2.983788 0.042497 -0.020888 23643.100000 0 0 1
4.584471 2.391149 -28.103518 28.575211 0.480759 2.959644 0.045566 -0.023824 -334432.000000 0 0 1
4.275871 1.762149 -26.782488 27.178850 0.390906 2.970601 0.049548 -0.021610 -127146.000000 0 0 1
3.525471 0.575849 -26.905848 27.141945 0.161910 3.009598 0.048823 -0.017162 16586.900000 0 0 1
3.177371 0.077249 -25.629998 25.826313 0.024307 3.018215 0.049765 -0.017870 -693653.000000 0 0 1
3.720471 -1.339851 -25.351508 25.658060 -0.345670 2.986858 0.056076 -0.019712 -72615.700000 0 0 1
5.120171 -1.451751 -25.329478 25.882546 -0.276284 2.934494 0.043956 -0.015076 -461360.000000 0 0 1
5.510371 -2.749051 -25.052278 25.798025 -0.462757 2.900564 0.039797 -0.015365 228726.000000 0 0 1
6.965071 -2.885051 -24.528678 25.661095 -0.392702 2.843404 0.033381 -0.014151 784234.000000 0 0 1
7.956671 -2.468551 -25.464738 26.792821 -0.300833 2.825417 0.016658 -0.006425 991328.000000 0 0 1
9.276971 -2.966051 -25.116158 26.938468 -0.309451 2.771663 0.003702 0.001091 1327280.000000 0 0 1
-28.708699 -4.935551 17.937845 34.209872 0.170254 1.018848 0.043675 0.002585 -291891.000000 0 0 1
-30.053669 -4.568251 18.063545 35.360763 0.150848 1.034640 0.032951 0.000641 -284484.000000 0 0 1
-30.708779 -5.475951 18.952845 36.499664 0.176464 1.024811 0.022404 -0.001730 1190180.000000 0 0 1
-32.182529 -5.055851 19.349645 37.890441 0.155826 1.034828 0.032116 0.000267 1191320.000000 0 0 1
-33.142579 -5.160651 18.330045 38.223728 0.154470 1.070659 0.031281 0.002138 -1376670.000000 0 0 1
-34.422516 -5.085651 18.793945 39.547261 0.146681 1.075574 0.017047 0.004040 -1425110.000000 0 0 1
35.258090 -4.941351 17.590845 39.711304 -0.139241 1.111890 0.015026 0.003581 -71623.300000 0 0 1
33.921511 -5.118651 18.010245 38.745818 -0.149767 1.087353 0.006680 0.009533 -84439.800000 0 0 1
32.996741 -4.989451 16.934945 37.422879 -0.150074 1.101197 0.011610 0.005441 1371910.000000 0 0 1
31.509571 -5.258451 17.418145 36.385383 -0.165360 1.071608 0.015895 0.008241 971904.000000 0 0 1
31.012951 -4.408651 18.446845 36.352791 -0.141209 1.038586 0.017208 0.006661 457643.000000 0 0 1
29.942861 -5.064951 19.125245 35.888767 -0.167568 1.008768 0.020336 0.003620 283623.000000 0 0 1
29.439721 -4.240751 20.367045 36.048545 -0.143065 0.970376 0.013554 0.009184 25566.300000 0 0 1
28.550721 -3.147451 20.187245 35.108047 -0.109797 0.958188 0.018669 0.010523 378226.000000 0 0 1
29.184681 -1.959951 19.730045 35.282597 -0.067056 0.977375 0.018015 0.009853 155525.000000 0 0 1
28.285181 -0.730651 20.108245 34.712056 -0.025826 0.952943 0.018071 0.011035 101175.000000 0 0 1
28.691421 0.538749 19.542645 34.718912 0.018775 0.972928 0.020944 0.005046 -123171.000000 0 0 1
27.720931 1.540049 19.676245 34.029052 0.055498 0.954252 0.022331 0.001270 -126705.000000 0 0 1
27.972381 2.819049 18.915645 33.885140 0.100441 0.978547 0.029628 0.008884 6068.300000 0 0 1
28.184031 2.793949 17.546745 33.317173 0.098810 1.016132 0.028817 0.005610 46575.900000 0 0 1
27.717471 3.930649 16.888645 32.694564 0.140872 1.027970 0.032774 0.006289 -100478.000000 0 0 1
27.885541 3.918949 15.356945 32.074870 0.139623 1.071527 0.034228 0.007028 -137125.000000 0 0 1
27.509781 5.185949 14.765145 31.649512 0.186326 1.085444 0.036677 -0.004340 220946.000000 0 0 1
27.059171 5.026649 13.437945 30.627508 0.183671 1.116585 0.036537 0.001193 271624.000000 0 0 1
26.167951 6.254449 13.004345 29.882984 0.234610 1.120563 0.033906 -0.002071 442783.000000 0 0 1
25.089431 6.555649 13.883245 29.414292 0.255577 1.079250 0.017089 -0.002022 33894.000000 0 0 1
24.555231 7.802049 13.510345 29.092280 0.307647 1.087844 0.022306 -0.009504 -641932.000000 0 0 1
23.402431 8.175749 14.470245 28.703739 0.336100 1.042429 0.024460 -0.006855 255017.000000 0 0 1
22.105531 7.645249 14.245745 27.386960 0.332975 1.023752 0.038756 -0.003836 692538.000000 0 0 1
22.031631 6.251049 14.500545 27.105980 0.276465 1.006339 0.042607 -0.003681 -20641.400000 0 0 1
20.588431 5.701749 14.159745 25.629900 0.270168 0.985472 0.048708 -0.006015 726651.000000 0 0 1
20.310231 5.642049 12.782445 24.652162 0.270961 1.025686 0.033960 -0.011424 696949.000000 0 1 0
19.230531 4.788349 12.398945 23.376814 0.244035 1.011730 0.029571 -0.009725 38944.500000 0 1 0
18.977231 4.512749 10.918045 22.354058 0.233462 1.060525 0.030927 -0.010079 -338909.000000 0 1 0
20.087131 3.880849 10.332845 22.919893 0.190849 1.103108 0.029039 -0.007269 395110.000000 0 1 0
19.942131 3.772849 8.912245 22.166440 0.186980 1.157030 0.041767 -0.011637 -175988.000000 0 1 0
21.140531 3.134149 8.176245 22.882218 0.147181 1.205401 0.057938 -0.015081 -1080690.000000 0 1 0
21.367031 1.734849 8.504945 23.062823 0.081015 1.193108 0.060205 -0.019868 35403.600000 0 1 0
22.240631 1.089049 7.669645 23.551117 0.048928 1.239087 0.054847 -0.014907 319119.000000 0 1 0
23.791931 1.429549 7.738045 25.059468 0.060013 1.256879 0.057145 -0.020712 994268.000000 0 0 1
24.513031 0.989349 8.903745 26.098739 0.040338 1.222650 0.053644 -0.010648 763779.000000 0 0 1
24.134931 1.753449 10.039745 26.198587 0.072524 1.177520 0.050954 -0.010705 -781303.000000 0 0 1
24.801531 1.251049 11.350845 27.304262 0.050400 1.142065 0.037051 -0.010044 -568398.000000 0 0 1
26.186631 1.138049 11.277245 28.534383 0.043432 1.164493 0.040178 -0.014633 -584478.000000 0 0 1
26.737481 0.573849 12.422845 29.488120 0.021459 1.135937 0.022902 -0.011920 -372069.000000 0 0 1
28.268311 0.493549 12.446245 30.890937 0.017458 1.156103 0.036472 -0.007956 -347089.000000 0 0 1
28.862861 1.672149 12.845245 31.636389 0.057870 1.152693 0.032059 -0.003237 -1727990.000000 0 0 1
30.215991 1.570049 12.840245 32.868572 0.051914 1.169454 0.023297 0.001151 -1643170.000000 0 0 1
30.965281 2.853449 13.234345 33.795542 0.091890 1.168426 0.025903 -0.001617 -452102.000000 0 0 1
30.874261 3.843949 12.222745 33.427405 0.123866 1.196465 0.030338 -0.009962 532069.000000 0 0 1
31.667641 5.024049 12.414045 34.382976 0.157338 1.201401 0.028977 -0.010100 823589.000000 0 0 1
33.186131 5.003449 12.046745 35.657788 0.149642 1.226172 0.031118 -0.007031 409953.000000 0 0 1
33.933241 4.124049 12.918245 36.542491 0.120941 1.209472 0.030124 -0.005083 11114.300000 0 0 1
35.278219 4.236749 12.515345 37.671430 0.119523 1.232136 0.032990 -0.003050 -71204.700000 0 0 1
-34.392115 3.285449 13.268345 37.008928 -0.095240 1.204117 0.039944 0.001938 -426937.000000 0 0 1
-34.358197 1.952749 12.837445 36.730082 -0.056774 1.213751 0.040291 -0.000949 9052.090000 0 0 1
35.128466 1.165549 13.060945 37.496078 0.033167 1.215009 0.037089 0.006564 54358.000000 0 0 1
34.786237 0.872349 14.518345 37.704451 0.025072 1.175527 0.037966 0.004041 -49631.000000 0 0 1
-34.860447 0.037449 15.067245 37.977283 -0.001074 1.162830 0.029553 0.005457 301612.000000 0 0 1
-35.247522 -0.151551 16.376745 38.866548 0.004300 1.135854 0.033864 -0.001379 126468.000000 0 0 1
-34.396306 -1.243051 17.092745 38.429324 0.036123 1.109863 0.027262 -0.003895 568105.000000 0 0 1
-33.078929 -0.821951 17.446545 37.406859 0.024843 1.085580 0.027294 0.002659 299527.000000 0 0 1
-32.321959 -1.584551 18.335345 37.194149 0.048985 1.055304 0.022258 0.005794 27184.600000 0 0 1
-32.549029 -1.264851 19.824245 38.131874 0.038840 1.024078 0.023116 0.004664 -275859.000000 0 0 1
-33.683019 -1.803651 20.454645 39.448592 0.053497 1.025684 0.021810 -0.000233 -204449.000000 0 0 1
-33.689449 -1.536651 21.844145 40.180927 0.045581 0.996023 0.024907 0.003736 162113.000000 0 0 1
-34.103760 -2.703651 22.741945 41.080071 0.079112 0.984115 0.017401 0.010631 -191672.000000 0 0 1
-33.164429 -3.728551 22.651245 40.334357 0.111956 0.974494 0.029756 0.002037 -69583.000000 0 0 1
-33.555469 -4.873951 23.434545 41.217748 0.144242 0.966048 0.030363 0.007138 -9531.810000 0 0 1
-33.278409 -4.808151 24.998905 41.898879 0.143490 0.931478 0.030453 0.004425 -832359.000000 0 0 1
-31.988849 -4.640651 25.451355 41.141142 0.144066 0.903792 0.036162 -0.006799 -1510810.000000 0 0 1
-31.831499 -4.511851 26.836655 41.878481 0.140804 0.875228 0.029504 -0.011394 436513.000000 0 0 1
-30.786589 -3.434051 27.316895 41.301568 0.111085 0.848111 0.025275 -0.012354 275433.000000 0 0 1
-31.150369 -2.075651 27.078055 41.326443 0.066535 0.856318 0.029306 -0.009946 -160929.000000 0 0 1
-30.869499 -1.601351 25.775795 40.247756 0.051828 0.875741 0.027880 -0.008633 -3529.810000 0 0 1
-30.988309 -0.067351 25.678165 40.244850 0.002173 0.878835 0.026145 0.000197 -321351.000000 0 0 1
-32.313519 0.377449 25.590525 41.221122 -0.011680 0.901020 0.024137 0.001111 -328008.000000 0 0 1
-32.336049 1.728749 25.141365 40.996303 -0.053411 0.910616 0.029320 0.002732 -130265.000000 0 0 1
-33.781669 2.194049 24.924515 42.038630 -0.064857 0.936147 0.018994 0.002315 -355349.000000 0 0 1
-34.424423 1.622149 23.819645 41.893290 -0.047087 0.966019 0.011216 0.004162 17109.700000 0 0 1
35.225020 2.504149 23.263745 42.287996 0.070971 0.988281 0.021341 0.007849 260940.000000 0 0 1
-34.877345 3.670749 22.439045 41.634293 -0.104861 1.001599 0.030155 0.006613 -446623.000000 0 0 1
-34.239911 3.270449 21.252945 40.432104 -0.095227 1.017323 0.026591 -0.007492 -194392.000000 0 0 1
-35.076950 2.935749 20.162745 40.565346 -0.083500 1.050608 0.024827 0.004228 -180019.000000 0 0 1
-34.295096 2.272249 18.983745 39.264479 -0.066159 1.066166 0.019076 0.003057 -215565.000000 0 0 1
-33.398499 3.130949 18.369645 38.245345 -0.093472 1.069788 0.026330 0.001867 -513178.000000 0 0 1
-32.768029 2.474449 17.292445 37.133479 -0.075371 1.086390 0.033574 0.000894 -242680.000000 0 0 1
-31.706989 3.327649 16.581945 35.935599 -0.104567 1.091184 0.027330 -0.002269 246058.000000 0 0 1
-32.360889 4.440749 15.983645 36.365152 -0.136374 1.115719 0.023169 -0.003506 81370.900000 0 0 1
-31.419289 5.210949 15.304745 35.334982 -0.164356 1.122831 0.032475 -0.001002 -127130.000000 0 0 1
-32.102439 6.445049 14.628045 35.862026 -0.198131 1.150646 0.032822 -0.003077 -150552.000000 0 0 1
-31.225459 7.066649 13.783645 34.856214 -0.222561 1.164246 0.043043 -0.001312 -451465.000000 0 0 1
-31.785929 8.272249 13.402545 35.473985 -0.254601 1.183363 0.035698 0.001890 30248.100000 0 0 1
-30.981559 8.999449 12.288945 34.523401 -0.282698 1.206855 0.044356 0.005307 -51320.700000 0 0 1
-31.499309 10.283649 11.939345 35.220844 -0.315563 1.224958 0.033057 0.020728 -93446.800000 0 0 1
-30.622589 11.075949 11.194645 34.434571 -0.347053 1.239680 0.026711 0.012796 -186819.000000 0 0 1
-31.230219 12.501649 11.035845 35.403498 -0.380770 1.253798 0.020218 0.018251 -38176.400000 0 0 1
-30.568839 13.243449 10.065145 34.801580 -0.408824 1.277389 0.027813 0.014912 -63543.400000 0 0 1
-30.777939 14.588549 10.332845 35.593187 -0.442627 1.276252 0.015609 0.012688 -46764.300000 0 0 1
-30.069359 15.584749 9.378245 35.142599 -0.478175 1.300660 0.024088 0.004132 185967.000000 0 0 1
-28.691129 15.804349 9.644645 34.146413 -0.503491 1.284449 0.022613 0.012419 389733.000000 0 0 1
-28.004579 16.588649 8.708645 33.693920 -0.534779 1.309365 0.022837 -0.010248 -608347.000000 0 0 1
-26.510449 16.722649 8.982245 32.605699 -0.562755 1.291706 0.036820 -0.012456 -586825.000000 0 0 1
-26.043249 17.342849 10.164945 32.899108 -0.587489 1.256683 0.025857 -0.011764 69916.600000 0 0 1
-26.449129 18.656349 10.464545 34.016503 -0.614319 1.258094 0.033890 -0.025460 -433520.000000 0 0 1
-26.157149 19.042549 11.938845 34.486970 -0.629275 1.217296 0.043540 -0.012922 713892.000000 0 0 1
-24.758029 19.011449 12.270145 33.540299 -0.654853 1.196269 0.038878 -0.006149 680112.000000 0 0 1
-24.577629 19.561649 13.555345 34.212064 -0.672244 1.163405 0.044965 -0.007133 -204952.000000 0 0 1
-25.061329 18.758149 14.763745 34.610786 -0.642534 1.130105 0.039742 -0.007944 -175528.000000 0 0 1
-24.262629 17.645049 15.100945 33.586626 -0.628783 1.104466 0.044629 -0.009074 120815.000000 0 0 1
-24.903229 16.873049 16.091045 34.114400 -0.595496 1.079602 0.047535 -0.002680 -239423.000000 0 0 1
-24.005129 15.777649 16.698545 33.226824 -0.581463 1.044236 0.049351 -0.012345 -778821.000000 0 0 1
-22.950029 16.268349 17.409945 33.082763 -0.616647 1.016607 0.040586 -0.019903 -736506.000000 0 0 1
-21.895929 15.369749 17.710745 32.083194 -0.612030 0.986005 0.020037 -0.019054 340291.000000 0 0 1
-22.153129 14.341349 18.911545 32.466628 -0.574527 0.949005 0.032547 -0.014693 -282627.000000 0 0 1
-22.198229 14.914449 20.204445 33.517484 -0.591600 0.923787 0.036485 -0.018027 64472.600000 0 0 1
-22.311029 13.927449 21.167645 33.761295 -0.558053 0.893126 0.027636 -0.009929 -452178.000000 0 0 1
-21.765229 14.394349 22.559345 34.494152 -0.584310 0.857930 0.033036 -0.006601 -255786.000000 0 0 1
-20.397529 14.615349 22.752145 33.872226 -0.621731 0.834288 0.044466 -0.016453 -566176.000000 0 0 1
-20.059029 15.875849 22.240645 33.897692 -0.669510 0.855143 0.034447 -0.007661 -541578.000000 0 0 1
-18.518529 16.013849 22.348945 33.148976 -0.712994 0.830919 0.049505 -0.020317 493370.000000 0 0 1
-17.772529 15.211849 21.429445 31.725136 -0.707920 0.829192 0.034951 -0.015650 -75337.300000 0 0 1
-17.288729 15.949049 20.382645 31.124340 -0.745114 0.856775 0.035607 -0.029026 -2571750.000000 0 0 1
-16.367229 15.114349 19.419245 29.553964 -0.745622 0.853861 0.032106 -0.016992 745519.000000 0 0 1
-15.125729 14.696549 19.969745 29.044224 -0.771008 0.812668 0.027011 -0.007073 311283.000000 0 0 1
-14.374529 15.810049 20.472945 29.592671 -0.832920 0.806783 0.013782 -0.018798 -2760290.000000 0 0 1
-13.381029 15.431049 21.572045 29.707277 -0.856430 0.758086 -0.017833 0.006564 -120771.000000 0 0 1
-12.294229 14.676049 21.019645 28.431671 -0.873482 0.738760 0.001408 -0.003374 167962.000000 0 0 1
-11.427029 14.338449 22.112145 28.724816 -0.897918 0.692281 0.012586 0.010129 523159.000000 0 0 1
-10.135129 13.607349 21.646845 27.503939 -0.930614 0.664792 0.009229 0.011430 -636593.000000 0 0 1
-9.632729 12.778049 22.634745 27.720023 -0.924836 0.615390 0.011165 0.007254 235866.000000 0 0 1
-8.496329 12.007549 22.241145 26.665284 -0.955000 0.584322 0.017616 0.011885 -229884.000000 0 0 1
-7.158629 12.698249 22.337945 26.673494 -1.057458 0.578180 0.009399 0.016652 -1585800.000000 0 0 1
-6.912929 13.579749 21.202745 26.110430 -1.099926 0.623155 0.003850 0.010477 -389174.000000 0 0 1
-6.037529 14.600349 21.597245 26.759352 -1.178690 0.631587 -0.011088 0.024338 -161463.000000 0 0 1
-6.696629 15.755249 22.445445 28.228898 -1.168891 0.651586 -0.011477 0.013183 71570.600000 0 0 1
-7.725229 16.432049 21.764145 28.343772 -1.131327 0.695297 -0.027444 0.012605 -369188.000000 0 0 1
-7.345129 17.707249 21.418945 28.744891 -1.177589 0.730053 -0.026525 0.033838 -893884.000000 0 0 1
-7.978229 18.328449 20.129245 28.368480 -1.160241 0.781917 -0.025991 0.042759 946275.000000 0 0 1
-9.312429 18.820049 20.181445 29.123981 -1.111306 0.805225 -0.013754 0.021470 454133.000000 0 0 1
-10.348529 17.941249 20.617445 29.224296 -1.047610 0.787682 -0.012224 0.010635 -1315710.000000 0 0 1
-11.622529 18.708549 20.815845 30.304989 -1.014904 0.813611 -0.010439 0.002148 -538572.000000 0 0 1
-12.508529 18.645649 19.681145 29.857511 -0.979900 0.851083 -0.002110 0.002588 553498.000000 0 0 1
-13.688429 19.396449 19.907145 30.982087 -0.956243 0.872991 -0.011436 -0.002515 113037.000000 0 0 1
-14.641029 19.707849 18.758845 30.897464 -0.931852 0.918350 0.011269 -0.005530 -305875.000000 0 0 1
-15.369829 18.583849 18.335745 30.295059 -0.879776 0.920731 0.034546 -0.012621 -234603.000000 0 0 1
-15.964829 18.830949 17.117245 30.041313 -0.867582 0.964546 0.049048 -0.019233 -1242800.000000 0 0 1
-16.799929 17.635049 16.668445 29.513889 -0.809645 0.970646 0.044644 -0.027880 187970.000000 0 0 1
-17.969829 17.287549 17.376545 30.392736 -0.766049 0.962179 0.046498 -0.032493 108123.000000 0 0 1
-19.059129 18.186449 17.302345 31.517748 -0.761972 0.989663 0.047660 -0.027071 -364449.000000 0 0 1
33.086351 -9.529951 12.354122 36.580745 -0.280442 1.226301 0.035796 -0.012374 608960.000000 0 0 1
31.734791 -9.825051 11.968722 35.311172 -0.300240 1.224996 0.007190 -0.001679 661485.000000 0 0 1
31.270501 -11.003451 12.586822 35.459107 -0.338348 1.207917 0.041539 -0.004220 67882.200000 0 0 1
29.897101 -11.449251 12.026422 34.198784 -0.365727 1.211450 0.004430 0.004465 227649.000000 0 0 1
28.877061 -10.457251 12.266422 33.071194 -0.347440 1.190808 0.004813 -0.003858 -17965.000000 0 0 1
27.575471 -10.815251 12.563722 32.174887 -0.373769 1.169641 -0.003402 0.001861 -429605.000000 0 0 1
27.353761 -11.676851 13.810722 32.791967 -0.403464 1.136071 -0.020348 0.005158 -1215990.000000 0 0 1
27.727861 -11.091751 15.033722 33.434623 -0.380525 1.104428 -0.015288 -0.001723 43485.600000 0 0 1
27.330101 -11.807551 16.202122 33.894858 -0.407814 1.072407 -0.007559 -0.006170 705764.000000 0 0 1
25.800361 -11.670251 16.564322 32.805947 -0.424789 1.041509 0.008709 -0.018084 829503.000000 0 0 1
25.283631 -10.374651 16.882322 32.123327 -0.389380 1.017438 0.014631 -0.014050 110903.000000 0 0 1
24.909931 -9.600251 15.730522 30.985784 -0.367856 1.038319 0.024503 -0.015168 -561531.000000 0 0 1
24.604131 -8.145051 16.214222 30.571328 -0.319689 1.011755 0.026760 -0.015362 959257.000000 0 0 1
25.783991 -7.289251 16.326922 31.376994 -0.275515 1.023539 0.019771 -0.013684 1148090.000000 0 0 1
25.485031 -5.943251 16.768122 31.080202 -0.229111 1.000940 0.009160 -0.001773 589441.000000 0 0 1
26.808741 -5.131351 16.595922 31.944702 -0.189119 1.024507 0.014573 -0.003062 555840.000000 0 0 1
27.056311 -4.786951 15.310522 31.454267 -0.175113 1.062425 0.020117 -0.007649 106637.000000 0 0 1
28.254861 -4.053851 15.202722 32.340279 -0.142502 1.081408 0.014434 -0.004422 -210345.000000 0 0 1
28.576831 -3.368751 13.831122 31.926222 -0.117342 1.122732 0.015079 -0.006448 -311093.000000 0 0 1
28.950241 -4.231451 12.765922 31.921629 -0.145135 1.159373 -0.002580 -0.003138 477251.000000 0 0 1
29.353821 -3.469351 11.606522 31.755229 -0.117645 1.196627 0.006010 -0.001745 -282290.000000 0 0 1
29.743831 -4.182551 10.299622 31.753290 -0.139703 1.240457 0.022128 -0.000464 -1169340.000000 0 0 1
31.005211 -4.712751 10.341122 33.022294 -0.150844 1.252282 0.019103 -0.001720 -1028280.000000 0 0 1
31.261381 -5.441751 9.147922 33.023795 -0.172346 1.290115 0.023309 -0.004668 444758.000000 0 0 1
32.653961 -6.149251 9.163322 34.468259 -0.186136 1.301713 0.026149 -0.003439 898204.000000 0 0 1
33.816861 -5.327051 9.116322 35.426895 -0.156243 1.310541 0.036021 -0.003746 -145352.000000 0 0 1
34.949247 -6.107151 8.903722 36.579002 -0.172997 1.324916 0.044943 -0.010145 249643.000000 0 0 1
-34.468790 -5.322451 8.301722 35.851702 0.153204 1.337118 0.041087 -0.008331 609792.000000 0 0 1
-34.700228 -4.852751 6.976822 35.725776 0.138947 1.374245 0.043058 -0.008174 -221455.000000 0 0 1
-33.661819 -3.997651 6.619822 34.538693 0.118206 1.377939 0.030626 0.004674 -500152.000000 0 0 1
-33.651079 -3.405951 5.191522 34.219111 0.100870 1.418494 0.040036 -0.006114 -306386.000000 0 0 1
-33.331969 -4.227851 4.041422 33.841217 0.126167 1.451088 0.036051 -0.013368 170470.000000 0 0 1
-33.496019 -3.431551 2.846322 33.791425 0.102090 1.486464 0.025054 -0.008931 39802.800000 0 0 1
-32.701169 -3.992051 1.624022 32.983941 0.121476 1.521540 0.044564 -0.015392 141711.000000 0 0 1
-33.203399 -5.151951 0.928622 33.613549 0.153936 1.543166 0.056214 -0.008268 -571131.000000 0 0 1
-34.296637 -4.913051 0.119022 34.646956 0.142284 1.567361 0.049853 -0.013790 -658000.000000 0 0 1
-33.903039 -4.938451 -1.418878 34.290196 0.144647 1.612187 0.066641 -0.013457 -671274.000000 0 0 1
-33.676179 -6.318151 -1.813378 34.311695 0.185459 1.623671 0.069606 -0.015212 423741.000000 0 0 1
-32.606419 -6.588551 -2.698578 33.374689 0.199378 1.651742 0.063417 -0.015472 480800.000000 0 0 1
-31.152649 -6.390051 -2.162678 31.874715 0.202314 1.638698 0.060330 -0.020479 33841.100000 0 0 1
-30.783299 -7.211251 -1.068978 31.634733 0.230109 1.604594 0.063516 -0.017425 68079.600000 0 0 1
-29.573029 -6.660451 -0.563578 30.319025 0.221524 1.589386 0.038957 -0.018511 45672.500000 0 0 1
-28.911239 -7.656251 0.424322 29.910834 0.258877 1.556610 0.023970 -0.011881 -362924.000000 0 0 1
-28.502379 -8.792851 -0.251478 29.828897 0.299232 1.579227 0.025639 -0.009268 296716.000000 0 0 1
-28.171519 -9.859151 0.650122 29.853978 0.336647 1.549018 0.039229 -0.004767 -55920.400000 0 0 1
-27.743199 -11.184751 -0.054378 29.912986 0.383221 1.572614 0.022549 -0.002308 80104.200000 0 0 1
-26.525529 -10.992151 -0.772478 28.723297 0.392857 1.597693 0.012784 -0.003235 613512.000000 0 0 1
-25.981169 -12.207851 -1.324278 28.736849 0.439257 1.616896 0.010008 0.000655 157919.000000 0 0 1
-26.886629 -13.101951 -2.292278 29.996775 0.453439 1.647288 0.008491 -0.001452 -227890.000000 0 0 1
-27.703019 -13.983251 -1.578578 31.072182 0.467445 1.621622 0.014219 -0.003202 -62535.500000 0 0 1
-28.324529 -14.933051 -2.402278 32.109904 0.485180 1.645681 0.020880 -0.009574 -471332.000000 0 0 1
-29.311989 -15.799851 -1.624578 33.338675 0.494377 1.619545 0.035094 -0.008172 -492205.000000 0 0 1
-28.675569 -16.646751 -0.721778 33.165095 0.525973 1.592561 0.012286 -0.000684 -8638.610000 0 0 1
-29.575199 -17.279951 0.165822 34.253709 0.528774 1.565955 0.019020 0.004395 -195813.000000 0 0 1
-29.869799 -18.776051 -0.130978 35.281187 0.561181 1.574509 0.016206 0.003227 -217923.000000 0 0 1
-28.745939 -19.624851 0.037622 34.806109 0.599021 1.569715 0.023894 -0.005848 215123.000000 0 0 1
-28.983719 -20.978951 -0.078078 35.779582 0.626533 1.572979 0.029451 -0.008452 -241125.000000 0 0 1
-29.772009 -21.647151 1.059822 36.825194 0.628682 1.542013 0.029520 -0.010066 -919330.000000 0 0 1
-29.109699 -21.703451 2.287622 36.381968 0.640663 1.507877 0.028492 -0.014989 102033.000000 0 0 1
-30.051289 -22.091251 3.263722 37.440022 0.633909 1.483514 0.023153 -0.005974 113750.000000 0 0 1
-29.329359 -22.383151 4.591522 37.179280 0.651874 1.446983 0.015866 -0.007517 361775.000000 0 0 1
-28.680429 -21.205051 5.129522 36.035166 0.636654 1.427963 0.005920 -0.003261 260638.000000 0 0 1
-27.940039 -21.424351 6.309322 35.769486 0.654165 1.393480 -0.002885 -0.000693 8598.410000 0 0 1
-27.376979 -20.163151 6.932522 34.700310 0.634805 1.369660 -0.001857 0.011436 425552.000000 0 0 1
-26.497049 -20.388751 8.052922 34.389596 0.655847 1.334434 0.004407 0.012352 160383.000000 0 0 1
-26.088239 -19.192351 8.673222 33.528605 0.634267 1.309140 0.003393 0.004427 565565.000000 0 0 1
-24.863129 -19.451751 9.604622 32.996887 0.663888 1.275444 0.012663 0.004543 156160.000000 0 0 1
-25.294529 -20.106251 10.804322 34.070631 0.671614 1.248110 0.007654 -0.000603 593321.000000 0 0 1
-24.277229 -20.132751 11.839922 33.688207 0.692345 1.211670 0.015149 0.003260 444929.000000 0 0 1
-24.209629 -18.849351 12.715322 33.212702 0.661548 1.177922 0.012844 0.002809 -486391.000000 0 0 1
-23.606629 -17.700751 12.216122 31.934670 0.643387 1.178258 0.005754 0.000757 -58336.700000 0 0 1
-23.129829 -16.685051 13.122022 31.393748 0.624921 1.139573 0.012617 0.001805 722650.000000 0 0 1
-22.322029 -17.128951 14.421822 31.617446 0.654517 1.097149 0.030693 -0.009101 -360423.000000 0 0 1
-23.157329 -17.634551 15.417622 32.938463 0.650827 1.083687 0.032620 -0.008723 -550971.000000 0 0 1
-22.517329 -18.098351 16.564922 33.301307 0.677025 1.050168 0.045688 -0.006197 60706.600000 0 0 1
-23.585729 -18.548951 17.584922 34.779012 0.666423 1.040697 0.052062 0.009986 390034.000000 0 0 1
-24.283129 -17.485751 18.220722 35.034505 0.624075 1.023852 0.052935 -0.003441 -422807.000000 0 0 1
-25.357629 -17.939451 18.974822 36.398862 0.615714 1.022420 0.039340 0.013317 -654569.000000 0 0 1
-26.074359 -16.753751 19.650222 36.697297 0.571111 1.005735 0.034221 0.006800 13096.000000 0 0 1
-25.345549 -16.116151 20.680522 36.466576 0.566369 0.967805 0.049275 -0.001806 177253.000000 0 0 1
-26.255529 -15.412851 21.483722 37.262033 0.530830 0.956287 0.053671 -0.010878 -114345.000000 0 0 1
-25.562489 -14.826651 22.758922 37.299316 0.525596 0.914521 0.056098 -0.011965 -78411.800000 0 0 1
-24.702429 -13.759051 22.464722 36.113505 0.508195 0.899427 0.054272 -0.011017 239718.000000 0 0 1
-23.477829 -13.889751 23.191022 35.804429 0.534229 0.866216 0.044202 -0.013310 -182661.000000 0 0 1
-22.326629 -13.284751 22.422222 34.317911 0.536748 0.858772 0.036172 -0.004181 -857200.000000 0 0 1
-22.224829 -11.854951 22.551922 33.809349 0.490017 0.840578 0.039691 -0.006233 540129.000000 0 0 1
-21.362429 -11.253351 21.560422 32.370405 0.484843 0.841891 0.028529 -0.001113 -162869.000000 0 0 1
-21.155329 -9.748551 21.903722 31.974290 0.431806 0.816135 0.026191 0.003132 -66028.800000 0 0 1
-20.640629 -9.602251 23.194222 32.499396 0.435431 0.776056 0.022794 0.002097 -1318620.000000 0 0 1
-19.278029 -9.645551 23.279022 31.726833 0.463919 0.746996 0.021487 0.005553 -1631710.000000 0 0 1
-18.848429 -9.617151 24.767222 32.575576 0.471803 0.707021 0.006190 0.000374 109077.000000 0 0 1
-18.877029 -10.904151 25.362822 33.444214 0.523817 0.710000 0.013704 0.007303 59641.900000 0 0 1
-18.164629 -10.811951 26.598922 33.975796 0.536897 0.671517 0.005688 -0.001110 -847614.000000 0 0 1
-18.149329 -12.202151 27.335222 35.007214 0.591906 0.674778 0.018872 -0.009986 -359023.000000 0 0 1
-19.277729 -12.612951 28.034122 36.285388 0.579375 0.687869 0.028700 -0.003384 -1303320.000000 0 0 1
-20.370129 -12.943451 27.252122 36.402654 0.566053 0.724803 0.013421 -0.000871 -731658.000000 0 0 1
-21.603129 -13.356351 28.092422 37.871777 0.553738 0.735080 0.014799 -0.002528 9823.580000 0 0 1
-21.680029 -14.498751 28.876422 38.911248 0.589451 0.734584 0.018636 -0.006138 -175872.000000 0 0 1
-20.941329 -14.396451 30.099222 39.392388 0.602264 0.701171 0.009834 0.000766 214117.000000 0 0 1
-21.301429 -15.477851 31.121522 40.765965 0.628363 0.702206 0.012666 -0.005767 -360815.000000 0 0 1
-20.965729 -16.856351 30.813722 40.904570 0.677172 0.717719 0.023416 -0.003213 -137550.000000 0 0 1
-21.305129 -17.806951 31.796422 42.213842 0.696196 0.717849 0.020360 -0.000974 -47217.200000 0 0 1
-22.740129 -18.137351 32.294722 43.462927 0.673271 0.733194 0.030374 -0.004544 356279.000000 0 0 1
-23.344029 -17.154751 33.120222 44.002026 0.633745 0.718646 0.038015 -0.013077 -78841.800000 0 0 1
-24.584829 -17.580651 33.660422 45.238447 0.620790 0.731660 0.038611 -0.016373 135493.000000 0 0 1
-25.401789 -16.495151 34.364822 45.807007 0.575932 0.722418 0.027158 -0.020906 -122347.000000 0 0 1
-24.899129 -16.107251 -33.422400 44.681842 0.574193 2.415853 0.026630 -0.014714 193614.000000 0 0 1
-25.773569 -15.138751 -32.782000 44.363478 0.531085 2.402294 0.025676 -0.010469 168331.000000 0 0 1
-25.166159 -14.717451 -31.405700 42.851569 0.529176 2.393364 0.012902 -0.000599 -242337.000000 0 0 1
-25.522599 -15.600951 -30.381200 42.635784 0.548658 2.363958 0.010314 0.004983 146271.000000 0 0 1
-25.046129 -15.113651 -29.117300 41.274062 0.542940 2.353872 0.009249 0.010252 -11214.400000 0 0 1
-25.543449 -16.014651 -27.914600 41.087246 0.560006 2.317738 0.000983 0.009138 926482.000000 0 0 1
-26.755019 -15.541551 -27.272800 41.245321 0.526245 2.293259 0.013544 0.003694 808865.000000 0 0 1
-26.754689 -14.339751 -26.468800 40.274548 0.492009 2.287906 0.019654 0.007139 -67999.100000 0 0 1
-25.716389 -14.448651 -25.301400 38.862026 0.511893 2.279773 0.008579 -0.003673 -468591.000000 0 0 1
-24.414329 -13.982751 -25.574900 38.021735 0.520125 2.308566 -0.008776 -0.001208 10570.300000 0 0 1
-23.497129 -14.339751 -24.590300 36.911061 0.547942 2.299904 -0.003642 -0.002574 -255522.000000 0 0 1
-23.014129 -15.796451 -24.619700 37.219721 0.601527 2.293572 -0.007155 0.002323 -1227080.000000 0 0 1
-22.279729 -16.170351 -25.744200 37.691251 0.627824 2.322697 -0.006865 0.009453 -5758.240000 0 0 1
-21.743329 -17.470951 -25.665800 37.904351 0.676877 2.314638 -0.006338 0.004330 38424.700000 0 0 1
-20.835729 -17.848751 -26.877600 38.407173 0.708337 2.345923 -0.005898 0.001194 52800.400000 0 0 1
-21.495129 -17.924451 -28.121500 39.675500 0.695063 2.358574 0.001653 0.000620 4934.110000 0 0 1
-22.453129 -18.954251 -28.237400 40.752392 0.701100 2.336302 0.008068 -0.003936 -502846.000000 0 0 1
-23.130629 -18.925051 -29.595300 42.060259 0.685729 2.351304 0.003917 -0.000998 -492767.000000 0 0 1
-22.349929 -19.314851 -30.697700 42.602014 0.712681 2.375419 0.017435 -0.011168 -6455.790000 0 0 1
-23.028729 -19.171451 -31.922400 43.782491 0.694247 2.387822 0.014088 -0.003943 -786153.000000 0 0 1
-22.146929 -19.444451 -33.118700 44.333074 0.720512 2.414399 0.020472 -0.015651 -1151640.000000 0 0 1
-21.164729 -18.400951 -33.298700 43.535551 0.715659 2.441624 0.012588 -0.001534 795098.000000 0 0 1
-19.817129 -18.789051 -33.050500 42.872866 0.758775 2.451042 0.011985 -0.006544 232521.000000 0 0 1
-19.287329 -19.865351 -33.983500 43.835049 0.800160 2.457921 0.017911 -0.004114 -1905360.000000 0 0 1
-19.235029 -19.357051 33.774422 43.421116 0.788560 0.679584 0.010482 -0.002494 -28101.000000 0 0 1
-18.717229 -20.338751 32.945822 43.004961 0.826892 0.698055 0.024717 -0.009065 -475897.000000 0 0 1
-19.780629 -21.087851 32.136222 43.228550 0.817373 0.732653 0.030818 -0.003778 133689.000000 0 0 1
-20.664229 -21.857851 32.958822 44.621295 0.813461 0.739754 0.029490 -0.004889 394536.000000 0 0 1
-21.810029 -22.377551 32.285022 44.930555 0.798241 0.769076 0.029309 0.002738 39005.300000 0 0 1
-21.586929 -23.701851 31.501322 44.945595 0.832063 0.794170 0.033310 0.003505 -514208.000000 0 0 1
-21.396529 -24.836651 32.282222 46.008831 0.859669 0.793082 0.029111 0.009560 -262041.000000 0 0 1
-21.547029 -25.999991 31.463922 46.154657 0.878780 0.820704 0.033818 0.016501 -165072.000000 0 0 1
-20.969629 -27.188771 32.232222 47.094275 0.913827 0.816990 0.045396 0.012745 -169883.000000 0 0 1
-21.772729 -27.669881 33.274522 48.444482 0.904110 0.813638 0.036447 0.005471 13418.600000 0 0 1
-21.144129 -28.791661 33.863422 49.221594 0.937365 0.812096 0.040074 -0.003816 -55996.300000 0 0 1
-22.185529 -29.643381 -34.421400 50.554530 0.928311 2.319755 0.045290 -0.007726 -441224.000000 0 0 1
-23.080929 -30.443191 33.917122 51.087066 0.922091 0.844763 0.040937 -0.004219 772566.000000 0 0 1
-24.280129 -29.779601 33.467222 50.954924 0.886779 0.854228 0.034218 0.000179 839381.000000 0 0 1
-25.360739 -29.357201 -34.517700 51.927680 0.858306 2.297924 0.015423 0.002650 -809085.000000 0 0 1
-26.357489 -28.576931 33.973422 51.628981 0.825778 0.852597 0.017061 0.009941 -417161.000000 0 0 1
-27.202189 -28.180061 -34.001200 51.866719 0.803053 2.285706 0.005016 0.017442 -424108.000000 0 0 1
-28.323899 -27.259761 -34.421700 52.251232 0.766256 2.289983 -0.001509 0.013076 -199247.000000 0 0 1
-29.383329 -27.935501 33.949222 52.880260 0.760144 0.873690 0.008441 0.011817 959593.000000 0 0 1
-30.549989 -27.075881 33.847422 53.028795 0.725184 0.878530 0.001680 0.008506 909244.000000 0 0 1
