# x y z rho theta phi s1 s2 stress_xx np intf bulk
-0.693722 -10.654823 -14.372929 17.904959 1.505779 2.502663 0.002593 0.003352 -1345960.000000 1 0 0
2.168478 -13.439523 -13.053429 18.860410 -1.410824 2.335201 0.000951 0.009098 428787.000000 1 0 0
2.173478 -11.081623 -14.639429 18.488895 -1.377121 2.484540 -0.003836 0.004751 -699076.000000 1 0 0
-5.631022 -6.222923 -16.360029 18.387053 0.835290 2.667611 0.019199 -0.010815 500272.000000 1 0 0
4.568778 -14.049223 -11.565229 18.761900 -1.256385 2.234986 0.001470 0.007024 1271760.000000 1 0 0
14.039678 -10.648923 -7.896029 19.309567 -0.648911 1.992064 0.032324 -0.012362 -1940820.000000 1 0 0
7.215378 10.841977 -10.939129 17.008077 0.983599 2.269431 0.019385 -0.004108 -493382.000000 1 0 0
5.783478 -4.148423 -12.641529 14.507456 -0.622235 2.628808 0.001275 0.003052 1913820.000000 1 0 0
13.755578 0.578377 -9.955229 16.989910 0.042022 2.196848 0.011799 0.000355 2028950.000000 1 0 0
14.198878 5.154077 -10.230429 18.243748 0.348202 2.166104 0.009154 -0.000767 -987872.000000 1 0 0
4.230778 4.357777 -13.464329 14.770845 0.800184 2.717829 0.008791 -0.000920 1609500.000000 1 0 0
10.405978 -4.929623 -13.625529 17.839299 -0.442412 2.439965 0.019709 -0.004207 839400.000000 1 0 0
2.657278 -7.498623 -12.021529 14.415534 -1.230235 2.556985 0.003388 0.001879 1707040.000000 1 0 0
-5.498322 -1.895423 -15.173129 16.249554 0.331970 2.775565 0.008156 -0.009233 -415957.000000 1 0 0
10.723578 0.115777 -9.599129 14.392769 0.010796 2.300892 0.007893 0.001781 2859090.000000 1 0 0
-1.534022 -9.416023 -16.898429 19.405453 1.409299 2.627640 0.018359 -0.005164 1138870.000000 1 0 0
8.693678 1.800377 -17.873529 19.957065 0.204204 2.680572 0.018800 -0.015519 1254630.000000 1 0 0
16.454278 -5.936223 -8.660829 19.519015 -0.346238 2.030533 0.052648 -0.013252 -2178630.000000 1 0 0
10.293078 7.580277 -9.976829 16.215584 0.634769 2.233514 0.015518 -0.000562 357425.000000 1 0 0
13.923578 -2.236423 -10.555029 17.614660 -0.159261 2.213321 0.030571 -0.003319 -2212660.000000 1 0 0
7.376478 -1.795123 -13.744729 15.701989 -0.238717 2.636955 0.006108 -0.001097 717155.000000 1 0 0
-2.715922 6.656477 -13.833129 15.589752 -1.183402 2.662301 0.005836 -0.006843 1327000.000000 1 0 0
11.379278 1.940377 -13.877229 18.050776 0.168894 2.447741 0.015140 -0.002780 -52430.900000 1 0 0
-2.218922 10.715777 -12.921529 16.932732 -1.366612 2.438907 0.009290 -0.006220 -1601700.000000 1 0 0
2.988378 -1.018123 -15.176129 15.501028 -0.328360 2.936490 0.011437 -0.008151 551534.000000 1 0 0
-9.006622 0.446677 -15.267729 17.731957 -0.049554 2.608086 0.009025 0.000868 -1225400.000000 1 0 0
2.500178 -1.799123 -17.995729 18.257436 -0.623758 2.972072 0.022070 -0.018533 227900.000000 1 0 0
1.094778 7.924477 -13.078129 15.330797 1.433514 2.592623 0.007527 -0.005530 -1214320.000000 1 0 0
9.563078 -9.115023 -9.912429 16.516426 -0.761414 2.214492 0.018019 -0.000886 -750201.000000 1 0 0
3.952678 7.305977 -13.498429 15.849560 1.074874 2.589940 0.008897 -0.002590 388464.000000 1 0 0
-2.598722 9.100677 -15.531729 18.188191 -1.292646 2.594318 0.004470 -0.008108 2499950.000000 1 0 0
5.589878 -7.587923 -15.235429 17.914843 -0.935874 2.587610 0.002891 -0.000777 -440598.000000 1 0 0
4.349878 7.143777 -16.383729 18.395150 1.023855 2.669580 0.019806 -0.005716 -1146070.000000 1 0 0
-0.182322 5.081477 -13.434529 14.364582 -1.534932 2.779771 0.005674 -0.007620 802204.000000 1 0 0
8.895578 4.311977 -16.611229 19.330219 0.451359 2.604774 0.026706 -0.008521 -1282310.000000 1 0 0
5.412478 0.410677 -14.432729 15.419703 0.075731 2.781865 0.005213 -0.001958 763600.000000 1 0 0
6.416478 8.006677 -11.663929 15.534649 0.895208 2.420119 0.013146 0.001122 268358.000000 1 0 0
2.835978 -8.328523 -15.030029 17.415764 -1.242597 2.612000 -0.000009 -0.000517 963351.000000 1 0 0
3.983178 11.686577 -13.764029 18.490275 1.242311 2.410421 0.022952 -0.005023 -1566870.000000 1 0 0
0.697378 -4.458223 -13.741729 14.463651 -1.415629 2.824311 0.012775 -0.002275 2522140.000000 1 0 0
8.576778 -0.018923 -11.665629 14.479239 -0.002206 2.507618 0.003527 0.001643 -515112.000000 1 0 0
-0.953322 -4.977123 -16.260229 17.031606 1.381548 2.839477 0.016429 -0.010983 1067760.000000 1 0 0
4.488278 0.875377 -11.705629 12.567127 0.192618 2.769169 0.005045 -0.001288 -1375420.000000 1 0 0
-2.909022 -7.097723 -15.518929 17.311188 1.181825 2.682530 0.017410 -0.006945 2095420.000000 1 0 0
11.444378 -3.676523 -11.245429 16.460567 -0.310838 2.322896 0.018117 -0.003856 1870650.000000 1 0 0
6.539578 -7.029623 -12.479029 15.745089 -0.821497 2.485803 0.004520 0.002580 -1810980.000000 1 0 0
3.542878 -3.878223 -14.657929 15.570725 -0.830555 2.797487 0.010820 -0.003118 1881290.000000 1 0 0
-0.436422 -1.522823 -18.289829 18.358303 1.291690 3.055196 0.030293 -0.018976 268880.000000 1 0 0
14.934178 2.985477 -8.367629 17.376995 0.197308 2.073201 0.009156 -0.000876 -544773.000000 1 0 0
7.050678 4.314777 -14.287229 16.506189 0.549172 2.617080 0.016201 -0.001766 1751990.000000 1 0 0
10.076778 -9.676223 -14.065229 19.824263 -0.765123 2.359579 0.038376 -0.010247 -520659.000000 1 0 0
9.122878 -3.194323 -15.553029 18.311944 -0.336803 2.585526 0.017481 -0.007531 -1230420.000000 1 0 0
-5.297722 -2.068423 -18.078729 18.952168 0.372235 2.836814 0.001805 -0.000060 -578005.000000 1 0 0
5.033578 -9.129523 -11.099229 15.227540 -1.066916 2.387498 -0.004655 0.005126 310103.000000 1 0 0
-2.353122 4.036977 -17.058629 17.687034 -1.043051 2.874229 0.007733 -0.003309 1600150.000000 1 0 0
9.571778 9.358077 -14.618929 19.821847 0.774110 2.400181 0.045431 -0.002871 -1158750.000000 1 0 0
9.984478 10.040177 -11.672229 18.350365 0.788180 2.260199 0.026392 -0.003237 -740778.000000 1 0 0
12.091578 -5.980923 -9.631729 16.575521 -0.459347 2.190853 0.024552 -0.004786 918236.000000 1 0 0
8.316578 6.930277 -13.682129 17.446916 0.694724 2.472226 0.025876 -0.000971 897611.000000 1 0 0
4.198478 -4.046323 -17.482429 18.429196 -0.766946 2.819663 0.022620 -0.018301 426109.000000 1 0 0
9.437178 -7.463623 -12.340429 17.235202 -0.669152 2.368854 0.022468 -0.004542 1207360.000000 1 0 0
12.094578 -8.618023 -8.730429 17.227000 -0.619101 2.102251 0.029115 -0.007985 1115940.000000 1 0 0
-2.874522 -2.420323 -13.880029 14.379709 0.699826 2.877199 0.012252 -0.008315 -2177930.000000 1 0 0
-0.335822 6.154477 -17.581029 18.630162 -1.516285 2.804397 0.012140 -0.005562 1856210.000000 1 0 0
1.160878 -8.382723 -17.466929 19.409051 -1.433187 2.690422 0.011525 -0.007997 -27290.200000 1 0 0
0.182678 8.508677 -15.980929 18.105829 1.549330 2.652246 0.008961 -0.002265 -548744.000000 1 0 0
1.878478 3.428777 -14.953229 15.455881 1.069600 2.885860 0.010311 -0.005906 3032370.000000 1 0 0
-1.775422 -0.416223 -15.797629 15.902529 0.230277 3.026669 0.017111 -0.012079 2325430.000000 1 0 0
14.162078 -4.239823 -8.384029 16.995073 -0.290887 2.086700 0.033230 -0.008841 -360049.000000 1 0 0
0.669178 0.691777 -14.466329 14.498311 0.802002 3.075159 0.009607 -0.007886 748123.000000 1 0 0
8.868378 2.843377 -12.540129 15.620107 0.310265 2.502806 0.008401 0.000685 1608900.000000 1 0 0
5.926578 1.196277 -17.202829 18.234383 0.199173 2.803618 0.015526 -0.005058 -1531010.000000 1 0 0
15.444978 1.609177 -12.240429 19.772832 0.103813 2.238332 0.031618 -0.008946 -66886.000000 1 0 0
8.822078 -11.194523 -11.956029 18.603575 -0.903372 2.268779 0.023387 -0.003796 1340020.000000 1 0 0
-4.506122 0.862177 -15.093629 15.775491 -0.189050 2.846507 0.012052 -0.008481 1673700.000000 1 0 0
2.405978 5.096477 -17.288229 18.183665 1.129728 2.826462 0.016586 -0.006474 2351130.000000 1 0 0
5.928778 -11.629523 -12.444229 18.034828 -1.099336 2.332300 0.001915 0.003100 1072850.000000 1 0 0
12.930178 7.295777 -8.646129 17.180612 0.513713 2.098151 0.014760 0.001258 -734823.000000 1 0 0
-4.952722 3.681677 -15.679829 16.850556 -0.639241 2.766634 0.010810 -0.006236 583253.000000 1 0 0
-0.636922 -4.334923 -19.058529 19.555683 1.424912 2.915624 0.026069 -0.016265 -1155520.000000 1 0 0
9.889078 4.476477 -10.220929 14.909732 0.425071 2.326115 0.004526 0.002423 -35309.600000 1 0 0
13.499478 3.748877 -12.768329 18.955743 0.270880 2.309847 0.011706 -0.005169 148691.000000 1 0 0
-6.134922 5.908777 -17.081229 19.087150 -0.766623 2.679020 0.001450 -0.001944 -1044620.000000 1 0 0
-9.946922 3.268077 -15.597729 18.785918 -0.317441 2.550421 0.007176 0.005387 -914650.000000 1 0 0
10.725978 13.555877 -8.429429 19.231840 0.901419 2.024509 0.023486 -0.009050 712121.000000 1 0 0
7.479978 13.481577 -12.317629 19.733904 1.064253 2.244886 0.032548 -0.009253 1264920.000000 1 0 0
5.410178 15.214477 -11.084929 19.586373 1.229147 2.172383 0.019003 -0.015190 143988.000000 1 0 0
14.319878 9.630477 -9.808729 19.849840 0.592047 2.087649 0.051264 -0.010159 -1045270.000000 1 0 0
8.485778 -17.206623 -2.000629 19.289344 -1.112628 1.674700 0.039462 -0.010364 664.732000 1 0 0
0.658778 -16.003823 0.007171 16.017377 -1.529656 1.570349 0.020055 -0.010769 2448540.000000 1 0 0
-9.138022 -11.717723 7.551571 16.668374 0.908466 1.100615 0.016036 -0.012123 -878596.000000 1 0 0
2.013178 -15.990723 -2.524229 16.313425 -1.445559 1.726154 0.023109 -0.010061 2925720.000000 1 0 0
-1.248022 -11.008723 -9.499529 14.594197 1.457912 2.279581 0.010651 0.000863 679254.000000 1 0 0
-4.815422 -12.610723 -13.014529 18.750908 1.206033 2.337930 0.027129 0.001300 1060870.000000 1 0 0
-8.438922 -17.727623 -1.832929 19.719118 1.126506 1.663883 0.010502 -0.010272 -163839.000000 1 0 0
-11.312522 -7.131023 -8.905229 16.066354 0.562448 2.158292 0.007650 -0.008355 2176950.000000 1 0 0
-13.463922 -11.563323 -4.730229 18.367435 0.709602 1.831265 -0.000170 -0.007819 -658356.000000 1 0 0
-5.763722 -13.439123 9.664671 17.528160 1.165647 0.986779 0.009880 -0.013983 270258.000000 1 0 0
0.142178 -14.021723 -3.664129 14.493266 -1.560657 1.826386 0.017097 -0.003507 410657.000000 1 0 0
-14.818322 -11.535823 1.891471 18.874203 0.661483 1.470413 0.013742 -0.006106 1670570.000000 1 0 0
-3.956122 -16.554723 -7.493129 18.597223 1.336223 1.985498 0.011978 -0.010000 -694922.000000 1 0 0
0.528678 -15.282523 -9.202429 17.847120 -1.536216 2.112534 0.011945 0.003356 1520500.000000 1 0 0
4.604978 -14.377823 -2.572429 15.314862 -1.260836 1.739566 0.016840 0.000055 578264.000000 1 0 0
-3.611122 -18.093923 -2.404029 18.606708 1.373808 1.700361 0.007460 -0.012463 1143970.000000 1 0 0
-0.950122 -13.498623 0.656271 13.547924 1.500526 1.522337 0.015442 -0.007491 1870460.000000 1 0 0
-8.488322 -11.316523 -10.574629 17.661768 0.927243 2.212711 0.003601 -0.006218 1829740.000000 1 0 0
-3.746622 -14.160423 -0.313229 14.651036 1.312139 1.592177 0.009368 -0.001994 5834210.000000 1 0 0
-1.608822 -14.976323 -7.240829 16.712515 1.463782 2.018901 0.005952 -0.003662 1174220.000000 1 0 0
-14.217622 -7.891423 -1.876929 16.368817 0.506708 1.685714 0.005584 -0.003037 1035300.000000 1 0 0
-10.643522 -7.257823 -11.718629 17.415131 0.598475 2.308917 0.012222 -0.007360 -2327270.000000 1 0 0
-9.615422 -14.766923 6.804071 18.889514 0.993616 1.202310 0.009382 -0.008962 926935.000000 1 0 0
-2.473222 -14.257723 -12.281629 18.979934 1.399040 2.274551 0.026070 0.004506 47462.000000 1 0 0
2.283378 -17.849623 -4.768529 18.616168 -1.443564 1.829833 0.029621 -0.016265 -244406.000000 1 0 0
-6.696122 -9.616523 -9.266529 14.939348 0.962548 2.239892 0.010212 -0.008746 655921.000000 1 0 0
-11.039522 -15.293023 0.650871 18.872499 0.945545 1.536302 0.008969 -0.001977 75154.500000 1 0 0
-12.717222 -10.975223 4.060271 17.282044 0.712005 1.333638 0.019309 -0.007836 2126300.000000 1 0 0
-17.078222 -8.878423 -1.735129 19.326219 0.479415 1.660698 0.015173 -0.006477 -193824.000000 1 0 0
-1.402822 -19.230023 -3.880329 19.667705 1.497976 1.769394 0.022365 -0.019593 44140.600000 1 0 0
3.321278 -14.327623 -8.826929 17.153027 -1.343010 2.111336 0.010761 0.006462 961875.000000 1 0 0
-4.306722 -8.012423 -13.001629 15.867864 1.077596 2.531105 0.015224 -0.002876 1186960.000000 1 0 0
5.581778 -16.595023 1.267171 17.554394 -1.246331 1.498548 0.029213 -0.009140 2980420.000000 1 0 0
-2.805122 -13.819623 -3.153029 14.449646 1.370536 1.790774 0.006532 -0.005008 -380906.000000 1 0 0
-0.457222 -13.931023 3.615071 14.399694 1.537988 1.317029 0.011153 -0.005990 -2964690.000000 1 0 0
1.136278 -16.183023 6.981571 17.661361 -1.500697 1.164400 0.014472 -0.013995 1755810.000000 1 0 0
-5.485922 -10.337323 -14.568529 18.686830 1.082899 2.464847 0.022913 -0.004473 -668604.000000 1 0 0
-0.386522 -17.343823 -5.864629 18.312604 1.548514 1.896791 0.023932 -0.010569 600467.000000 1 0 0
-6.548322 -13.382923 -1.263129 14.952546 1.115742 1.655373 0.001510 -0.003723 2271530.000000 1 0 0
-1.796522 -17.801623 -0.046229 17.892104 1.470218 1.573380 0.016033 -0.007074 2195190.000000 1 0 0
-9.490222 -9.818523 -4.874229 14.499166 0.802399 1.913647 0.008128 -0.009563 1724690.000000 1 0 0
-0.853722 -16.655023 4.817071 17.358652 1.519582 1.289603 0.024460 -0.014508 2147360.000000 1 0 0
-6.839722 -9.864523 -6.342429 13.576340 0.964537 2.056881 0.009543 -0.008752 1876730.000000 1 0 0
-5.943922 -14.444323 -8.540929 17.802138 1.180411 2.071189 0.012064 -0.013547 -919762.000000 1 0 0
-5.727922 -12.152223 -10.334629 16.949636 1.130332 2.226511 0.012881 -0.005646 396009.000000 1 0 0
-10.686622 -12.057423 -8.760529 18.339362 0.845596 2.068820 0.006910 -0.024028 -1186790.000000 1 0 0
3.944878 -17.016823 6.576371 18.665020 -1.342998 1.210730 0.022737 -0.012189 1359960.000000 1 0 0
-6.668322 -14.418523 -4.180329 16.426669 1.137610 1.828111 0.005346 -0.010362 -1030510.000000 1 0 0
-2.853822 -12.235623 -7.154129 14.458088 1.341654 2.088422 0.010495 -0.002629 2346300.000000 1 0 0
-7.155222 -12.852723 4.370771 15.345792 1.062817 1.281979 0.008496 -0.003730 1340370.000000 1 0 0
2.588478 -16.411523 2.344871 16.779056 -1.414362 1.430587 0.013847 -0.011703 3437720.000000 1 0 0
-6.294922 -12.017523 7.156671 15.338345 1.088281 1.085368 0.008676 -0.006061 863942.000000 1 0 0
-11.258922 -12.921823 -0.969529 17.166153 0.854060 1.627305 0.007977 -0.002509 -81329.800000 1 0 0
-14.399222 -8.718123 4.662171 17.466513 0.544423 1.300600 0.022591 -0.003663 -871297.000000 1 0 0
-8.046122 -15.659623 4.474271 18.165433 1.096159 1.321928 0.011365 0.003615 846969.000000 1 0 0
-16.509122 -9.128823 1.102671 18.897153 0.505110 1.512412 0.001366 -0.001920 -1706130.000000 1 0 0
-6.709722 -17.159123 2.362471 18.575175 1.198047 1.443267 0.006396 0.005148 2245590.000000 1 0 0
-11.499122 -14.994923 -4.791129 19.494420 0.916587 1.819110 0.016840 -0.011267 -1359020.000000 1 0 0
-10.142822 -9.932823 -12.626429 18.999066 0.774938 2.297730 0.000076 0.001868 361164.000000 1 0 0
-4.323922 -16.118223 -4.524529 17.290597 1.308704 1.835554 0.006129 -0.010849 -588852.000000 1 0 0
-11.876922 -8.322423 0.011771 14.502556 0.611210 1.569985 0.001439 -0.001595 2542540.000000 1 0 0
-9.676222 -11.233523 3.489271 15.231425 0.859738 1.339660 0.007536 -0.004762 2723720.000000 1 0 0
-14.106322 -12.880823 -0.661029 19.113892 0.740019 1.605387 0.011869 -0.004159 -306036.000000 1 0 0
5.657878 -15.020623 -7.219229 17.599658 -1.210559 1.993460 0.015797 0.003277 1376070.000000 1 0 0
-7.522522 -10.511523 -1.305429 12.991712 0.949647 1.671448 -0.000137 -0.001626 1281390.000000 1 0 0
-11.597522 -8.272323 -6.139529 15.512177 0.619586 1.977722 0.004487 -0.009696 -331796.000000 1 0 0
-14.298922 -6.666023 -9.342629 18.335205 0.436236 2.105453 0.033163 -0.016434 1158290.000000 1 0 0
-3.978622 -16.484623 1.499371 17.024110 1.333972 1.482609 0.011616 -0.004617 1161300.000000 1 0 0
-8.017622 -15.544123 0.207071 17.491280 1.094591 1.558958 0.009236 -0.000396 536276.000000 1 0 0
0.952378 -18.575423 3.614871 18.947840 -1.519570 1.378840 0.012582 -0.016476 -19473.200000 1 0 0
-14.083122 -8.786323 -4.622829 17.230912 0.557801 1.842411 0.008690 -0.012781 -424907.000000 1 0 0
-3.275522 -14.467023 11.046971 18.494847 1.348137 0.930666 0.011687 -0.016046 590845.000000 1 0 0
-10.744122 -12.279723 -3.802329 16.753670 0.851996 1.799746 0.007804 -0.009919 344924.000000 1 0 0
-10.011722 -10.691123 0.517471 14.656140 0.818203 1.535482 0.004915 -0.001419 1191810.000000 1 0 0
-0.076322 -13.160123 -11.236529 17.304746 1.564997 2.277502 0.009400 0.003059 1577260.000000 1 0 0
-5.860222 -12.601323 -6.301629 15.259294 1.135499 1.996509 0.005444 -0.010869 1711560.000000 1 0 0
1.654978 -15.835523 9.836471 18.715205 -1.466664 1.017391 0.022524 -0.016087 513339.000000 1 0 0
-8.920822 -15.764923 -5.558429 18.947559 1.055854 1.868534 0.012263 -0.013932 -672344.000000 1 0 0
-3.332722 -15.537123 5.804971 16.917651 1.359498 1.220548 0.011320 -0.007394 492549.000000 1 0 0
-17.344122 -5.503223 -6.565529 19.344513 0.307248 1.917075 0.027949 -0.014930 450531.000000 1 0 0
18.876078 5.788477 -2.841729 19.947136 0.297553 1.713746 0.029441 -0.003887 -848918.000000 1 0 0
12.872878 -12.515523 -5.857729 18.885505 -0.771324 1.886169 0.027845 -0.003234 527897.000000 1 0 0
11.009578 -13.493623 -1.623729 17.490716 -0.886429 1.663764 0.025238 -0.005767 1211690.000000 1 0 0
18.776478 -2.860523 4.640271 19.551748 -0.151184 1.331177 0.063660 -0.013332 -523590.000000 1 0 0
8.398878 -16.974123 5.126271 19.619904 -1.111313 1.306449 0.029399 -0.013428 -1016210.000000 1 0 0
18.157178 -0.914123 6.692171 19.372762 -0.050303 1.218086 0.077582 -0.019359 -387737.000000 1 0 0
17.899078 -4.308723 -5.041929 19.088298 -0.236229 1.838106 0.047462 -0.016359 23758.100000 1 0 0
5.749578 -11.649023 14.626971 19.562864 -1.112308 0.726219 0.020385 -0.004894 881533.000000 1 0 0
16.021278 -8.897923 -0.801729 18.343859 -0.506966 1.614516 0.031998 -0.001862 189425.000000 1 0 0
13.844678 -12.669423 -1.478829 18.824886 -0.741101 1.649434 0.024135 0.004156 975163.000000 1 0 0
11.206078 -2.063223 13.837271 17.924931 -0.182077 0.688883 0.027750 -0.006953 -1496120.000000 1 0 0
16.973378 -6.102923 -1.455629 18.095858 -0.345165 1.651323 0.037111 -0.003847 -589970.000000 1 0 0
17.796578 3.767477 -0.989129 18.217861 0.208617 1.625117 0.028810 -0.005421 1352350.000000 1 0 0
9.720378 -11.052923 9.522971 17.531110 -0.849457 0.996548 0.009944 0.001920 396660.000000 1 0 0
9.065978 -11.109923 4.249371 14.955918 -0.886360 1.282701 0.001390 -0.004232 -1844730.000000 1 0 0
14.010778 -10.089323 6.751871 18.538719 -0.624096 1.198019 0.045248 -0.008791 -1127970.000000 1 0 0
16.179578 -0.525523 -4.663229 16.846383 -0.032469 1.851268 0.021321 -0.008567 -227127.000000 1 0 0
15.903778 -0.470123 -1.635829 15.994596 -0.029552 1.673249 0.025768 -0.003094 -66263.000000 1 0 0
12.872578 -5.182423 -0.276229 13.879376 -0.382741 1.590700 0.011586 -0.005101 921005.000000 1 0 0
14.264378 -7.488123 0.988471 16.140680 -0.483410 1.509517 0.023557 -0.001027 2345560.000000 1 0 0
15.561078 2.460877 3.610371 16.162854 0.156844 1.345521 0.032497 -0.010248 1472660.000000 1 0 0
15.869678 -7.060623 5.000971 18.075088 -0.418615 1.290461 0.052685 -0.015109 -704300.000000 1 0 0
13.583078 -12.090523 3.282471 18.478511 -0.727328 1.392211 0.027646 0.000067 1339800.000000 1 0 0
13.946078 -0.961023 9.180471 16.724166 -0.068801 0.989707 0.046781 -0.019544 -122462.000000 1 0 0
14.213478 -2.771923 -1.516029 14.560387 -0.192603 1.675105 0.010623 -0.001706 -226283.000000 1 0 0
14.909978 1.812377 8.987871 17.503542 0.120961 1.031551 0.051480 -0.023692 -1847590.000000 1 0 0
14.426878 -10.216323 -2.977129 17.926833 -0.616172 1.737640 0.026751 -0.003552 946667.000000 1 0 0
7.290678 -12.580623 6.044371 15.746761 -1.045574 1.176836 -0.001829 -0.003562 -101959.000000 1 0 0
12.412878 -4.559123 6.972771 14.949404 -0.351994 1.085552 0.021459 -0.010468 2699020.000000 1 0 0
14.980978 -9.109423 -5.599829 18.405688 -0.546329 1.879942 0.040881 -0.009733 -835913.000000 1 0 0
14.287278 -4.490623 4.725671 15.704266 -0.304532 1.265143 0.032512 -0.012268 461297.000000 1 0 0
17.168578 -4.171423 0.922771 17.692155 -0.238350 1.518616 0.035984 -0.007077 158123.000000 1 0 0
10.247978 -14.488723 1.177971 17.785718 -0.955183 1.504517 0.030820 -0.007918 -101131.000000 1 0 0
16.396378 -2.402923 8.500971 18.624762 -0.145516 1.096813 0.075536 -0.022441 418071.000000 1 0 0
16.076778 -2.598623 3.296871 16.615806 -0.160252 1.371053 0.039613 -0.008795 544864.000000 1 0 0
7.845878 -15.268023 2.712071 17.378885 -1.096109 1.414100 0.014598 -0.005770 2313650.000000 1 0 0
16.695378 -6.991023 7.915571 19.755159 -0.396556 1.158533 0.076358 -0.013431 -1596720.000000 1 0 0
10.189078 -8.531323 5.133071 14.246024 -0.697075 1.202190 0.006745 -0.005275 1429580.000000 1 0 0
10.913678 -11.829723 2.153071 16.238424 -0.825654 1.437814 0.016664 -0.006111 -1734680.000000 1 0 0
12.275578 -7.242323 11.982071 18.620180 -0.533018 0.871735 0.034889 -0.011259 396811.000000 1 0 0
15.097478 -9.775823 4.191271 18.468008 -0.574625 1.341854 0.036841 -0.007659 256241.000000 1 0 0
7.330978 -10.274423 7.762971 14.817919 -0.951056 1.019384 -0.002882 -0.001438 822774.000000 1 0 0
15.191778 -3.341123 -4.266429 16.129341 -0.216483 1.838496 0.026175 -0.003706 -643643.000000 1 0 0
11.785478 -8.946923 9.728871 17.708638 -0.649330 0.989168 0.028546 -0.007497 -1021930.000000 1 0 0
16.967078 -6.591723 2.381271 18.357641 -0.370554 1.440714 0.049351 -0.008007 2218160.000000 1 0 0
17.552578 4.025777 1.989971 18.117943 0.225456 1.460740 0.032113 -0.009064 -339305.000000 1 0 0
14.779278 -4.801123 8.685771 17.802260 -0.314101 1.061111 0.065017 -0.019012 433055.000000 1 0 0
12.727378 -12.574823 6.134971 18.914285 -0.779369 1.240465 0.032821 0.000956 -205270.000000 1 0 0
18.389478 0.851277 -1.094929 18.441704 0.046259 1.630204 0.046657 -0.005207 768244.000000 1 0 0
11.698278 -2.114823 11.025871 16.213945 -0.178849 0.823001 0.025744 -0.008599 220275.000000 1 0 0
5.865278 -12.540423 10.502571 17.377218 -1.133313 0.921800 0.005373 -0.000855 -1347810.000000 1 0 0
10.645078 -4.979323 11.076671 16.149427 -0.437523 0.814975 0.022219 -0.005901 723643.000000 1 0 0
17.987678 1.404177 5.001271 18.722740 0.077905 1.300390 0.058548 -0.010952 -934621.000000 1 0 0
12.268978 -7.698923 7.134471 16.146266 -0.560403 1.113120 0.027711 -0.009953 -1014880.000000 1 0 0
10.589178 -7.846323 14.312471 19.456164 -0.637700 0.744205 0.027211 -0.006322 566795.000000 1 0 0
14.189078 -0.206323 3.689171 14.662281 -0.014540 1.316453 0.020014 -0.007429 2249300.000000 1 0 0
11.647578 -7.656423 2.576971 14.174896 -0.581518 1.387981 0.011744 -0.005436 1983860.000000 1 0 0
9.341978 6.064477 3.574371 11.697289 0.575787 1.260257 0.004117 -0.002151 2429660.000000 1 0 0
-3.818222 14.738777 -9.951429 18.189044 -1.317309 2.149705 0.005937 -0.003144 1508260.000000 1 0 0
8.701778 -6.451023 9.276671 14.261601 -0.637939 0.862600 0.005180 -0.000636 17440.800000 1 0 0
5.855378 -10.631723 -8.503629 14.819942 -1.067381 2.181930 -0.000140 0.001904 -148617.000000 1 0 0
5.409678 1.022877 0.569471 5.534907 0.186877 1.467727 0.003793 -0.002515 3520360.000000 1 0 0
-0.509422 9.839377 11.005571 14.771441 -1.519069 0.730175 -0.008984 0.005801 1770040.000000 1 0 0
-6.352222 -5.205823 1.129671 8.290203 0.686535 1.434105 0.010553 -0.003109 4840110.000000 1 0 0
-1.060822 3.917577 -10.852629 11.586730 -1.306353 2.783717 0.009981 -0.007180 1417870.000000 1 0 0
10.972478 5.754177 1.267871 12.454450 0.482992 1.468819 0.004400 -0.001258 633167.000000 1 0 0
-10.087022 -1.709523 -13.609529 17.026149 0.167882 2.496977 0.005419 -0.001877 631975.000000 1 0 0
7.583578 10.905377 -6.039829 14.591691 0.963166 1.997555 0.000095 0.000754 -121301.000000 1 0 0
-12.371122 -2.837223 -9.554829 15.886763 0.225444 2.216090 0.006066 -0.004581 482564.000000 1 0 0
-3.931722 -8.637223 2.451271 9.801468 1.143621 1.318021 0.010283 -0.002562 -1629210.000000 1 0 0
8.106478 -6.814323 -5.872129 12.109165 -0.699013 2.077082 0.002818 -0.001625 1206270.000000 1 0 0
14.343678 3.232177 -4.108229 15.266487 0.221636 1.843256 0.016059 -0.003815 1107810.000000 1 0 0
-2.532322 -4.969023 9.864271 11.331712 1.099481 0.514576 0.003638 -0.004394 2335600.000000 1 0 0
3.481978 -1.921023 -4.537429 6.033470 -0.504151 2.421953 0.001850 -0.000448 -3042850.000000 1 0 0
-3.940122 8.407377 -3.493029 9.920172 -1.132541 1.930625 0.003116 -0.002481 190274.000000 1 0 0
5.694278 0.110477 11.752471 13.059770 0.019399 0.451259 0.002409 -0.001521 2152840.000000 1 0 0
7.064478 4.731277 12.404771 15.038956 0.590119 0.600873 0.001984 0.000212 -275373.000000 1 0 0
1.106578 -14.494123 12.368271 19.086075 -1.494597 0.865807 0.016642 -0.011875 183320.000000 1 0 0
3.071078 8.755877 -9.128529 13.016411 1.233458 2.348029 0.007050 -0.001664 1529640.000000 1 0 0
-4.429222 -8.915123 -4.640229 10.983130 1.109695 2.006984 0.009643 -0.004291 1506770.000000 1 0 0
5.775378 -6.604323 -4.007729 9.645411 -0.852258 1.999296 0.002852 -0.003479 2641300.000000 1 0 0
-3.137822 3.407077 8.700171 9.856322 -0.826515 0.489220 -0.001401 -0.000836 1007030.000000 1 0 0
-3.751922 3.201677 -11.024329 12.077395 -0.706432 2.720901 0.006802 -0.008422 -97638.700000 1 0 0
3.025978 -6.183823 8.479271 10.922191 -1.115715 0.681967 -0.002357 0.001332 643893.000000 1 0 0
-5.197922 -8.699823 10.488871 14.584983 1.032236 0.768210 0.010585 -0.007790 2633650.000000 1 0 0
-13.334322 -2.408623 6.475571 15.017943 0.178706 1.124986 0.018880 -0.004194 -540407.000000 1 0 0
3.983778 -5.956323 -8.314729 10.976474 -0.981296 2.430278 0.003762 0.000450 3427410.000000 1 0 0
2.805478 -0.630923 12.340671 12.671264 -0.221209 0.228929 0.000801 -0.000221 71646.000000 1 0 0
1.452278 -1.477723 -7.457229 7.739705 -0.794082 2.870590 0.008653 -0.002812 -263768.000000 1 0 0
3.561478 -3.552723 3.402171 6.072951 -0.784167 0.976148 0.001979 -0.003199 2128240.000000 1 0 0
1.618578 0.371277 -11.707029 11.824219 0.225484 3.000685 0.008718 -0.007431 -323863.000000 1 0 0
4.065578 3.593977 -10.662929 11.964265 0.723906 2.670849 0.004795 -0.000877 2497120.000000 1 0 0
2.836478 3.215977 3.310471 5.417318 0.848018 0.913359 -0.004423 0.002026 498791.000000 1 0 0
-5.301622 0.835377 2.532571 5.934557 -0.156285 1.129900 0.007362 -0.004871 1656980.000000 1 0 0
-9.486822 -9.291623 5.657871 14.434180 0.775004 1.168016 0.013836 -0.007382 -2417450.000000 1 0 0
-3.057422 3.791977 -0.600129 4.907859 -0.892234 1.693382 0.002957 -0.004001 386785.000000 1 0 0
-16.054722 -6.456123 5.005071 18.013505 0.382343 1.289240 0.028408 -0.002483 1187170.000000 1 0 0
1.027678 6.760077 -8.006029 10.528593 1.419930 2.434738 0.008184 -0.004021 1375610.000000 1 0 0
-1.525222 6.508677 -9.497329 11.614148 -1.340613 2.528266 0.008098 -0.003012 679936.000000 1 0 0
2.050778 -0.395123 5.274771 5.673185 -0.190337 0.377002 0.000092 0.001563 2264570.000000 1 0 0
-3.443622 -0.589123 -6.399629 7.291148 0.169436 2.641891 0.009455 -0.005889 740634.000000 1 0 0
1.903478 -1.179623 -2.397229 3.280464 -0.554793 2.390230 0.006216 -0.001710 321317.000000 1 0 0
2.516878 -8.623823 -7.607229 11.771785 -1.286832 2.273424 0.003905 0.002133 2759070.000000 1 0 0
-2.519622 14.053377 -5.467329 15.288479 -1.393392 1.936505 0.007652 0.002030 2813250.000000 1 0 0
6.943678 -5.102723 -8.081229 11.813497 -0.633749 2.324121 0.002986 0.000596 3640190.000000 1 0 0
-14.173222 -4.985123 -2.175029 15.180989 0.338214 1.714564 0.000974 -0.002447 -593458.000000 1 0 0
-2.695822 6.901577 -6.877329 10.109247 -1.198411 2.318969 0.008282 -0.002632 -1613570.000000 1 0 0
-5.689522 -1.136823 -8.133729 9.991024 0.197213 2.521980 0.010137 -0.008397 57371.500000 1 0 0
-5.757822 -10.682723 3.384871 12.598826 1.076450 1.298789 0.006656 -0.003286 -2892220.000000 1 0 0
7.998378 -7.551423 6.635971 12.846562 -0.756663 1.027972 0.002323 -0.003654 318726.000000 1 0 0
8.731478 -5.998123 13.147471 16.884081 -0.601916 0.678221 0.019678 -0.001367 227743.000000 1 0 0
-4.718222 9.469177 -0.783029 10.608491 -1.108532 1.644675 0.000200 -0.000211 882358.000000 1 0 0
2.745878 6.508477 12.173971 14.075003 1.171561 0.525774 -0.005027 0.002286 1512140.000000 1 0 0
5.930078 -2.820723 10.988971 12.801554 -0.443990 0.538636 0.001744 -0.000199 655509.000000 1 0 0
-9.709222 -6.592423 -1.140729 11.791111 0.596483 1.667693 0.008873 -0.002469 -549143.000000 1 0 0
0.865178 -13.394423 6.256471 14.808866 -1.506294 1.134615 0.007641 -0.007968 1247810.000000 1 0 0
-0.622422 -3.179423 8.678971 9.263945 1.377476 0.357271 -0.001176 -0.000408 1314820.000000 1 0 0
4.148278 0.708777 3.386671 5.401863 0.169226 0.893171 -0.002238 0.001546 599714.000000 1 0 0
-10.244222 5.488077 8.302071 14.282418 -0.491817 0.950497 0.003529 -0.012470 583346.000000 1 0 0
9.405778 7.964777 0.056471 12.325158 0.702631 1.566215 0.000763 0.001451 171251.000000 1 0 0
4.240078 2.821577 8.243271 9.689741 0.587163 0.553440 -0.006946 0.001651 4208510.000000 1 0 0
1.417478 2.689977 -9.764029 10.226509 1.085823 2.839703 0.009955 -0.005980 761377.000000 1 0 0
-1.472522 -10.129223 3.016571 10.670950 1.426434 1.284199 0.011552 -0.004899 -2951350.000000 1 0 0
-9.861522 9.447177 8.967671 16.337622 -0.763943 0.989752 0.003750 -0.012045 1620010.000000 1 0 0
9.885378 -1.958123 -7.613929 12.630394 -0.195551 2.217835 0.009480 0.002043 1261900.000000 1 0 0
-5.252122 -1.814423 6.690271 8.696933 0.332629 0.693102 0.006563 -0.003510 847359.000000 1 0 0
3.167778 -7.778323 -4.914029 9.730611 -1.184049 2.100187 -0.000405 0.000450 1381090.000000 1 0 0
-4.983422 4.953677 -13.066129 14.835671 -0.782405 2.648185 0.006309 -0.011233 1975390.000000 1 0 0
-5.640222 9.577277 5.462371 12.384419 -1.038566 1.114008 0.001164 -0.001076 1808600.000000 1 0 0
-0.454322 -1.782623 -9.374729 9.553517 1.321247 2.947824 0.011813 -0.007208 -757336.000000 1 0 0
-16.877722 0.305577 6.302871 18.018797 -0.018103 1.213445 0.033425 -0.010397 -689286.000000 1 0 0
-5.925822 -2.858923 4.100071 7.752380 0.449511 1.013517 0.007375 -0.002642 3560530.000000 1 0 0
0.978978 -5.625823 -5.113829 7.665476 -1.398506 2.301139 0.006156 -0.002241 1575700.000000 1 0 0
-7.068822 1.456877 -8.426629 11.094990 -0.203253 2.433338 0.002610 -0.002269 -1016130.000000 1 0 0
8.013778 1.900677 4.696171 9.480888 0.232873 1.052581 -0.000143 -0.001531 -897756.000000 1 0 0
0.512378 -8.132723 -0.497629 8.164027 -1.507877 1.631788 0.005805 -0.002110 1390960.000000 1 0 0
5.482678 5.506177 -3.330029 8.453806 0.787537 1.975677 0.001441 -0.000457 -622785.000000 1 0 0
-0.750822 -0.394023 -1.198829 1.468393 0.483281 2.525984 0.004585 -0.002109 1282950.000000 1 0 0
9.073778 6.384377 -6.307129 12.762194 0.613143 2.087715 0.000690 0.001251 2111640.000000 1 0 0
-15.118022 -7.073423 2.521971 16.880410 0.437623 1.420833 0.005784 -0.000372 2384860.000000 1 0 0
-6.436722 6.749677 8.842971 12.852536 -0.809127 0.812021 0.001604 -0.001800 368654.000000 1 0 0
-9.353322 -3.146723 -9.674829 13.819870 0.324533 2.346287 0.002081 -0.005869 1597450.000000 1 0 0
14.889478 3.527077 -1.129129 15.343134 0.232596 1.644455 0.011468 -0.001510 1398140.000000 1 0 0
12.095078 1.697777 -5.736529 13.493744 0.139458 2.009896 0.008279 -0.002168 -793209.000000 1 0 0
1.719978 -9.516123 12.668971 15.937934 -1.391983 0.651963 0.004791 -0.006774 869596.000000 1 0 0
-3.591922 6.265777 7.822571 10.646807 -1.050270 0.745522 0.000163 0.001004 1597720.000000 1 0 0
-4.043022 13.093477 -12.394929 18.477539 -1.271303 2.306098 0.009002 -0.005119 1095780.000000 1 0 0
-10.348922 7.694577 6.466271 14.426343 -0.639338 1.106016 0.003119 -0.007328 926779.000000 1 0 0
8.143978 -9.341223 -7.282629 14.374265 -0.853763 2.102084 0.002871 -0.000247 -949874.000000 1 0 0
5.823278 -3.799423 -0.342629 6.961578 -0.578099 1.620033 0.005000 -0.005079 -1759160.000000 1 0 0
-1.598822 -4.487123 4.127571 6.302963 1.228508 0.856796 0.004116 -0.001462 141340.000000 1 0 0
9.883778 -2.031823 -2.504329 10.396588 -0.202747 1.814069 0.003275 -0.003642 -2461890.000000 1 0 0
13.570478 7.062377 1.566471 15.378195 0.479852 1.468756 0.006583 0.001933 30566.400000 1 0 0
5.486278 -3.710823 -3.289229 7.395166 -0.594699 2.031726 0.005917 -0.004531 -2023830.000000 1 0 0
-12.369722 -5.957923 1.903071 13.861044 0.448863 1.433065 0.007549 -0.001292 2174150.000000 1 0 0
3.738478 -5.771323 -0.292429 6.882579 -0.995992 1.613297 0.004225 -0.005107 -673496.000000 1 0 0
-5.265422 3.731377 -8.651029 10.792967 -0.616512 2.500668 0.006196 -0.005450 49070.500000 1 0 0
-1.743222 -9.293923 7.178271 11.871959 1.385385 0.921481 0.006471 -0.005005 2792610.000000 1 0 0
-7.439922 -7.474523 2.604071 10.862878 0.787718 1.328717 0.014758 -0.004309 -4242540.000000 1 0 0
-5.716222 13.140777 -8.464029 16.643167 -1.160487 2.104306 0.006903 -0.004851 2755780.000000 1 0 0
9.247778 -13.953823 -4.135229 17.243279 -0.985516 1.812974 0.020929 -0.002360 319651.000000 1 0 0
-6.472422 -5.167823 -6.791829 10.711096 0.673787 2.257631 0.009211 -0.005471 -95540.800000 1 0 0
3.436678 0.432477 -6.187829 7.091334 0.125184 2.631277 0.005624 -0.003956 1591520.000000 1 0 0
-3.633422 5.616177 4.946971 8.319599 -0.996564 0.934008 0.001247 -0.000498 1055380.000000 1 0 0
-2.656422 -10.805623 -2.916929 11.503327 1.329740 1.827168 0.012297 -0.001176 1562390.000000 1 0 0
-12.689822 -0.438323 1.732371 12.815023 0.034528 1.435198 0.010874 -0.003906 1438300.000000 1 0 0
8.440478 -12.006523 -6.027729 15.866057 -0.958066 1.960499 0.009095 -0.004282 1251550.000000 1 0 0
6.127878 3.925977 1.028071 7.349906 0.569792 1.430461 0.000684 -0.001282 43286.200000 1 0 0
3.509178 -4.791723 -10.925729 12.435694 -0.938693 2.643673 0.005559 0.001142 -1075520.000000 1 0 0
-7.677622 4.138877 8.609471 12.255578 -0.494423 0.791900 0.004395 -0.007039 2548660.000000 1 0 0
8.188578 8.722077 4.127071 12.655440 0.816936 1.238610 0.004231 0.000104 2863830.000000 1 0 0
0.297578 10.615177 -6.397129 12.397330 1.542770 2.112981 0.005849 -0.000749 1605210.000000 1 0 0
5.388678 8.043577 3.312571 10.232796 0.980534 1.241137 0.002717 0.000617 2504130.000000 1 0 0
8.061078 6.684577 -3.717929 11.112495 0.692318 1.911947 0.001163 0.000520 -137610.000000 1 0 0
10.539278 2.555877 -8.150529 13.566135 0.237917 2.215297 0.002269 0.000247 79849.800000 1 0 0
3.423478 -12.602423 -0.311129 13.062850 -1.305545 1.594616 0.006231 -0.004161 -1635640.000000 1 0 0
0.609578 2.050877 5.253371 5.672353 1.281885 0.386760 -0.000127 0.001100 908158.000000 1 0 0
-4.852222 13.288377 1.529371 14.228985 -1.220691 1.463105 -0.004165 0.002940 1771780.000000 1 0 0
8.233878 4.095277 -8.028029 12.207264 0.461541 2.288483 0.002058 0.001669 355962.000000 1 0 0
-13.899022 -0.538023 -3.584829 14.363957 0.038690 1.823034 0.006031 -0.001961 -225298.000000 1 0 0
-8.578422 -0.017023 -0.551329 8.596137 0.001984 1.634977 0.006741 -0.003869 306755.000000 1 0 0
1.829178 -3.854223 -1.159429 4.420995 -1.127682 1.836155 0.005452 -0.002410 -642603.000000 1 0 0
8.074878 -5.627223 -0.264129 9.845763 -0.608629 1.597626 0.003310 -0.006632 1711640.000000 1 0 0
-2.341522 -1.178523 7.412171 7.862056 0.466296 0.339931 0.001632 -0.000794 2085670.000000 1 0 0
-5.679422 8.833577 -11.653129 15.687043 -0.999403 2.408115 0.003911 -0.007019 -1635600.000000 1 0 0
-6.131322 9.151377 -8.813729 14.107538 -0.980497 2.245612 0.007252 -0.002651 1799550.000000 1 0 0
-1.498022 13.984077 -8.305229 16.333258 -1.464080 2.104222 0.020626 -0.003047 -364001.000000 1 0 0
-1.472322 7.103677 9.728371 12.135533 -1.366428 0.640757 -0.001433 -0.000378 573403.000000 1 0 0
10.072378 2.349577 -3.986629 11.084517 0.229171 1.938697 0.002204 -0.000220 -1444340.000000 1 0 0
-3.002322 -7.527623 -6.983329 10.697940 1.191290 2.282036 0.012062 -0.004705 3296760.000000 1 0 0
-5.533922 -5.037223 -1.595029 7.651276 0.738446 1.780802 0.011981 -0.004271 1192710.000000 1 0 0
5.737378 7.491377 -8.835629 12.926971 0.917219 2.323348 0.002727 0.001250 22665.000000 1 0 0
-9.562822 5.316977 -7.456429 13.240700 -0.507442 2.168983 0.002729 0.000699 1148870.000000 1 0 0
-0.473022 6.113877 -5.321229 8.119034 -1.493582 2.285511 0.006084 -0.002079 -1923480.000000 1 0 0
-8.211322 2.842277 -6.319729 10.744455 -0.333233 2.199609 0.004289 -0.001186 877346.000000 1 0 0
3.685478 1.403677 -2.039729 4.439995 0.363904 2.048115 0.001998 -0.002118 2818270.000000 1 0 0
-6.838122 12.469577 -3.395429 14.621190 -1.069194 1.805163 0.007867 0.005050 1093020.000000 1 0 0
-6.605822 3.123877 -2.332929 7.670596 -0.441732 1.879831 0.005407 -0.001698 -729943.000000 1 0 0
12.138478 4.096577 -0.774029 12.834474 0.325484 1.631142 0.004210 -0.002647 -1527800.000000 1 0 0
2.290578 12.383877 -5.463629 13.728015 1.387899 1.980122 0.010499 -0.005197 176600.000000 1 0 0
-9.204622 -1.467123 -4.303629 10.266388 0.158060 2.003356 0.003673 -0.000751 -1809000.000000 1 0 0
-1.137822 5.709677 3.409271 6.746717 -1.374094 1.041040 -0.000039 -0.000318 1329030.000000 1 0 0
11.484678 2.671177 11.999371 16.823137 0.228523 0.776649 0.030123 -0.009201 195060.000000 1 0 0
-7.108122 -2.419123 -5.837629 9.510807 0.328036 2.231647 0.007662 -0.003871 878536.000000 1 0 0
7.462478 -7.435623 10.911671 15.167123 -0.783596 0.767816 0.005126 0.001975 -979513.000000 1 0 0
-5.432122 -1.899723 -10.985129 12.401207 0.336426 2.659036 0.011274 -0.007893 -112202.000000 1 0 0
0.796478 -6.307923 4.416171 7.741242 -1.445195 0.963714 0.001279 -0.000956 1569780.000000 1 0 0
-4.827622 -9.443323 7.346871 12.901891 1.098213 0.964970 0.005187 -0.004460 896639.000000 1 0 0
-8.783722 9.307977 1.600271 12.897794 -0.814368 1.446403 0.002790 -0.001990 1795340.000000 1 0 0
-8.242822 7.292077 -9.154629 14.315227 -0.724274 2.264648 0.004688 -0.001466 82286.700000 1 0 0
-1.293622 -10.657823 -0.143629 10.737005 1.450009 1.584174 0.011049 -0.002191 -324403.000000 1 0 0
-3.915922 10.209377 7.783471 13.421932 -1.204541 0.952182 0.006617 0.000045 1446830.000000 1 0 0
-7.396722 11.981677 1.968971 14.217909 -1.017727 1.431865 0.000626 -0.004574 768890.000000 1 0 0
-8.181922 -8.177223 -2.879129 11.920579 0.785111 1.814734 0.008375 -0.004254 -532112.000000 1 0 0
5.393378 4.737277 -8.039429 10.777882 0.720725 2.412710 0.004607 0.001177 1765170.000000 1 0 0
-8.911622 -0.079623 -10.191229 13.538260 0.008934 2.423060 0.003004 -0.002626 -1557580.000000 1 0 0
-15.311022 -2.284723 -1.548329 15.557785 0.148128 1.670482 0.006803 -0.001184 237886.000000 1 0 0
-7.243322 -5.696223 8.684271 12.662118 0.666399 0.815030 0.010481 -0.005396 -1574040.000000 1 0 0
8.121678 3.491677 -0.986429 8.895308 0.406031 1.681918 0.000955 -0.001551 499014.000000 1 0 0
11.904378 7.357677 -5.778029 15.140517 0.553597 1.962352 0.001376 -0.000099 -666107.000000 1 0 0
3.900278 13.295377 -9.539029 16.821780 1.285446 2.173733 0.009516 -0.007389 62917.300000 1 0 0
-9.803622 5.415577 -0.517829 11.211941 -0.504688 1.616998 0.007508 -0.003878 2456740.000000 1 0 0
11.343378 -1.266123 -5.054929 12.483092 -0.111158 1.987712 0.010356 -0.002209 -1402490.000000 1 0 0
10.581078 1.765077 -1.220529 10.796500 0.165293 1.684087 0.004694 -0.002855 1699620.000000 1 0 0
14.721978 5.009077 4.985371 16.330383 0.327958 1.260562 0.028274 -0.008844 4270030.000000 1 0 0
0.721678 -0.804923 10.339971 10.396332 -0.839874 0.104174 0.000801 0.001227 693647.000000 1 0 0
-7.905222 1.369277 -12.592129 14.930812 -0.171510 2.574312 0.002779 -0.004396 -214646.000000 1 0 0
3.205478 -11.616023 -7.750529 14.327518 -1.301544 2.142367 0.003573 0.003685 1153830.000000 1 0 0
2.984178 5.092177 -6.644629 8.887445 1.040711 2.415301 0.004069 -0.000112 -1394800.000000 1 0 0
6.453478 7.988277 0.596071 10.286654 0.891276 1.512818 0.004314 -0.002029 1129610.000000 1 0 0
-9.150522 -5.369923 6.683671 12.539521 0.530689 1.008644 0.010315 -0.003143 -2097760.000000 1 0 0
-0.228622 -6.813823 -11.816529 13.642243 1.537256 2.618287 0.008345 0.001044 2236470.000000 1 0 0
6.495578 -13.593323 -4.723829 15.788778 -1.125025 1.874639 0.012414 -0.001995 2623370.000000 1 0 0
-3.219722 -0.390723 10.064971 10.574636 0.120762 0.311734 0.000369 -0.001174 -974032.000000 1 0 0
8.584678 8.439777 7.067371 13.959738 0.776887 1.039944 0.000809 -0.001634 -1774110.000000 1 0 0
-7.937422 5.721577 -2.721229 10.155993 -0.624573 1.842054 0.007703 -0.004424 487355.000000 1 0 0
-5.365022 5.818477 -6.462529 10.217750 -0.825923 2.255548 0.006742 -0.000717 -530181.000000 1 0 0
3.370278 -13.689523 2.497371 14.317775 -1.329403 1.395475 0.010383 -0.011035 -2295200.000000 1 0 0
-11.294822 -7.069623 6.387871 14.776923 0.559259 1.123769 0.017101 -0.004527 -993829.000000 1 0 0
-12.883922 -3.741323 -6.811129 15.046076 0.282614 2.040570 0.006993 -0.006828 -266616.000000 1 0 0
6.133178 0.400877 -7.238729 9.496092 0.065269 2.437632 0.000029 0.003680 1347440.000000 1 0 0
-1.432022 2.242177 -2.548829 3.684369 -1.002424 2.334769 0.005639 -0.004120 3168940.000000 1 0 0
7.625278 0.960877 -4.955129 9.144477 0.125351 2.143458 0.003291 0.001998 634001.000000 1 0 0
3.589478 -4.510523 10.847171 12.283741 -0.898621 0.488472 -0.003983 0.001731 838722.000000 1 0 0
5.996278 -2.604823 2.026271 6.844430 -0.409811 1.270245 0.004175 -0.005440 -694499.000000 1 0 0
-6.303022 7.678977 1.092771 9.994445 -0.883491 1.461239 0.000446 -0.003025 1821740.000000 1 0 0
6.033778 -3.471323 7.988771 10.596085 -0.522071 0.716763 0.004009 -0.002131 -143814.000000 1 0 0
6.855478 -2.250823 -7.802629 10.627549 -0.317236 2.395268 0.003290 0.000100 420893.000000 1 0 0
12.106578 -8.163923 -5.707229 15.677733 -0.593295 1.943392 0.020227 -0.008029 -973711.000000 1 0 0
5.570978 -9.720623 9.970171 14.997687 -1.050384 0.843596 -0.002841 0.002661 1133630.000000 1 0 0
-6.610322 7.571777 -4.451529 10.992919 -0.853088 1.987715 0.004365 -0.001581 2452550.000000 1 0 0
-1.355422 -7.583423 9.728171 12.408980 1.393929 0.669774 0.004717 -0.005648 -706221.000000 1 0 0
10.078978 -9.203023 0.774771 13.670468 -0.740001 1.514091 0.001743 -0.004713 609701.000000 1 0 0
10.971478 6.061477 9.804371 15.913533 0.504742 0.907011 0.015353 -0.006892 941150.000000 1 0 0
-15.243722 -4.202423 -4.980229 16.578121 0.269000 1.875919 0.009929 -0.007989 2462870.000000 1 0 0
-4.721722 -4.586123 7.848171 10.243094 0.770831 0.697903 0.007977 -0.003955 -466491.000000 1 0 0
3.043478 10.912477 -11.112429 15.869184 1.298809 2.346547 0.006086 -0.003262 -548474.000000 1 0 0
9.906978 -1.343623 1.570571 10.120288 -0.134801 1.414976 0.005108 -0.005611 -48973.800000 1 0 0
-1.636822 -2.666223 0.630171 3.191402 1.020211 1.372031 0.004030 -0.002750 -335957.000000 1 0 0
1.609278 3.019777 0.869971 3.530677 1.081166 1.321829 -0.001109 -0.000884 -263092.000000 1 0 0
-8.979722 -2.360423 4.267071 10.218361 0.257046 1.140006 0.010577 -0.005215 4865790.000000 1 0 0
9.952778 4.904377 -2.651729 11.407996 0.457843 1.805387 -0.000981 -0.000045 2022430.000000 1 0 0
2.556178 8.498977 2.513071 9.224001 1.278640 1.294859 0.000296 -0.000974 1000530.000000 1 0 0
-8.172022 -0.082223 2.412871 8.521188 0.010061 1.283708 0.006088 -0.005688 1081510.000000 1 0 0
6.811478 2.058777 13.768271 15.498390 0.293521 0.477018 0.006617 -0.005942 -1401010.000000 1 0 0
6.882178 4.329577 3.734871 8.947563 0.561542 1.140195 -0.002175 0.000127 -139573.000000 1 0 0
-0.403022 3.292877 7.768571 8.447258 -1.449010 0.403593 -0.002974 -0.000042 -826799.000000 1 0 0
2.693278 -10.264323 9.121871 13.993520 -1.314189 0.860757 0.000119 -0.005351 2228250.000000 1 0 0
1.325678 -4.600723 6.826771 8.338398 -1.290250 0.611627 -0.002983 0.000805 -99930.100000 1 0 0
-0.202222 10.756977 -2.007029 10.944479 -1.551999 1.755223 0.003627 -0.002226 2165250.000000 1 0 0
8.726478 5.437677 8.020871 13.040481 0.557249 0.908315 -0.001326 -0.001008 -756678.000000 1 0 0
2.648378 11.357977 -2.871329 12.010915 1.341716 1.812194 0.008886 -0.006992 2194910.000000 1 0 0
1.618278 2.547677 -6.724529 7.370805 1.004898 2.719709 0.007529 -0.003580 1575690.000000 1 0 0
-13.700422 -2.226023 3.595071 14.338106 0.161071 1.317356 0.009628 -0.002305 2414670.000000 1 0 0
-0.898722 -10.666223 -5.375429 11.977948 1.486736 2.036193 0.008926 -0.000667 692312.000000 1 0 0
-5.669822 2.780177 0.413271 6.328275 -0.455895 1.505444 0.006081 -0.004604 944476.000000 1 0 0
3.765378 7.303077 -4.984229 9.610179 1.094756 2.116056 0.001853 -0.001163 -1020260.000000 1 0 0
3.016878 9.815877 -6.493929 12.150066 1.272613 2.134685 0.006632 -0.002198 1911100.000000 1 0 0
-12.235822 1.650577 -2.558529 12.608958 -0.134088 1.775129 0.006664 -0.003489 1410680.000000 1 0 0
-2.398622 9.610877 -5.687829 11.422510 -1.326219 2.092029 0.003894 0.000253 602905.000000 1 0 0
-1.319522 3.348777 1.701371 3.981220 -1.195446 1.129238 -0.000922 -0.001439 -122890.000000 1 0 0
12.768578 3.765077 9.594071 16.409101 0.286744 0.946311 0.037171 -0.013021 80880.600000 1 0 0
-2.538022 -9.510723 11.657371 15.257448 1.310014 0.701237 0.007170 -0.010704 2310620.000000 1 0 0
-0.430622 -8.957623 -7.524429 11.706471 1.522760 2.268889 0.008526 -0.001591 1824130.000000 1 0 0
2.319578 7.661977 -0.459529 8.018573 1.276829 1.628136 0.000624 -0.001986 2509940.000000 1 0 0
-11.851922 -1.305423 -5.544729 13.149760 0.109702 2.006072 0.004192 0.002098 -251935.000000 1 0 0
-6.248722 -7.102323 -10.969629 14.485243 0.849246 2.429960 0.007075 -0.007125 796730.000000 1 0 0
-4.688222 -2.264723 -1.434929 5.400686 0.450009 1.839720 0.009271 -0.003060 -2095310.000000 1 0 0
-10.476922 3.648877 4.509671 11.975698 -0.335140 1.184707 0.007699 -0.009169 3557920.000000 1 0 0
6.851278 9.352077 -3.648829 12.153819 0.938528 1.875720 0.001329 0.002418 477344.000000 1 0 0
1.338478 -2.665523 -11.508529 11.888766 -1.105434 2.887999 0.009106 -0.002409 -240150.000000 1 0 0
1.241178 8.678777 7.570571 11.583404 1.428747 0.858504 -0.009842 0.006441 865524.000000 1 0 0
10.263578 0.395477 10.474971 14.670462 0.038513 0.775576 0.014327 -0.008394 1522530.000000 1 0 0
-5.296822 -0.907023 -3.962929 6.677111 0.169594 2.206209 0.007495 -0.004355 -669720.000000 1 0 0
11.774178 5.591977 5.468471 14.135263 0.443396 1.173564 0.009696 -0.004583 2351090.000000 1 0 0
9.961878 -3.468723 3.633771 11.156852 -0.335070 1.239046 0.012524 -0.008895 -2569010.000000 1 0 0
7.336878 -1.659023 -3.424629 8.265000 -0.222381 1.998028 0.004453 -0.001039 -4360030.000000 1 0 0
2.407578 9.158077 10.436671 14.092229 1.313722 0.736837 -0.008984 0.004432 1396100.000000 1 0 0
2.412378 -10.899923 6.312271 12.824689 -1.352987 1.056185 -0.002848 -0.003619 397234.000000 1 0 0
5.916778 -7.540723 -1.208429 9.660800 -0.905490 1.696211 -0.000243 -0.005046 1392220.000000 1 0 0
-0.261922 -5.620123 -2.307429 6.081004 1.524226 1.959997 0.007247 -0.001444 750501.000000 1 0 0
7.826378 -5.070323 2.611971 9.684150 -0.574863 1.297698 0.004320 -0.007286 1608890.000000 1 0 0
-2.759122 -12.505223 4.626671 13.616146 1.353638 1.224100 0.008290 -0.003434 -700539.000000 1 0 0
4.901578 -10.334323 -1.139429 11.494433 -1.127919 1.670088 0.004468 -0.005979 1419530.000000 1 0 0
1.021378 0.134277 1.127171 1.527010 0.130717 0.740464 -0.002465 0.000296 -1381570.000000 1 0 0
-1.712922 8.529977 2.434971 9.034584 -1.372620 1.297905 -0.002120 -0.000454 22000.400000 1 0 0
-7.570922 0.586877 -3.087329 8.197248 -0.077363 1.956952 0.005747 -0.000498 -565292.000000 1 0 0
4.314278 -6.356123 12.885371 15.001536 -0.974468 0.537607 0.004927 -0.003573 -1010400.000000 1 0 0
-5.032222 12.956577 8.399571 16.240350 -1.200337 1.027216 0.014190 -0.005387 2457920.000000 1 0 0
0.602278 6.036177 8.207771 10.206159 1.471347 0.636472 -0.004445 0.003675 569722.000000 1 0 0
7.955378 -0.586223 -0.699429 8.007553 -0.073556 1.658254 0.004922 -0.004102 2536270.000000 1 0 0
2.409978 -9.286523 -2.394229 9.888368 -1.316884 1.815353 0.004130 -0.001436 774887.000000 1 0 0
-7.105922 12.118277 4.883371 14.872595 -1.040451 1.236243 0.001020 -0.004719 -60900.700000 1 0 0
-15.086122 0.280677 0.099771 15.089063 -0.018603 1.564184 0.025345 -0.008073 96271.400000 1 0 0
6.817978 -0.598123 3.870771 7.862916 -0.087503 1.056087 0.000836 -0.000842 1117170.000000 1 0 0
-4.224622 -5.072223 5.102871 8.343511 0.876318 0.912718 0.008350 -0.003028 616614.000000 1 0 0
2.891078 5.087177 6.789771 8.963186 1.054007 0.711294 -0.008040 0.001542 -230289.000000 1 0 0
2.114678 -7.274423 1.756271 7.776476 -1.287893 1.342987 0.003865 -0.004705 2409420.000000 1 0 0
-2.523422 6.415577 -1.767529 7.116983 -1.196055 1.821777 0.005176 -0.001914 2056520.000000 1 0 0
2.655178 -3.837723 -6.558929 8.049698 -0.965552 2.523188 0.004775 -0.002235 -1874840.000000 1 0 0
-5.017622 1.000877 -12.229429 13.256591 -0.196888 2.745348 0.008657 -0.005857 653607.000000 1 0 0
-7.432122 6.459777 -11.945829 15.481214 -0.715518 2.452202 0.000730 -0.005625 2762970.000000 1 0 0
-0.977822 11.207777 -8.972129 14.389910 -1.483772 2.244010 0.007443 -0.000087 517080.000000 1 0 0
4.633478 5.874277 -0.591729 7.505091 0.902938 1.649722 0.001995 -0.001575 169991.000000 1 0 0
-2.596822 13.393977 3.556071 14.099211 -1.379292 1.315825 -0.005259 0.003489 1314810.000000 1 0 0
1.498578 -7.952423 10.200871 13.020927 -1.384538 0.670644 -0.002268 -0.002898 1122190.000000 1 0 0
13.101978 -0.123423 -1.086929 13.147565 -0.009420 1.653562 0.014454 -0.005466 1385880.000000 1 0 0
-0.966522 3.109677 -5.461229 6.358402 -1.269451 2.603913 0.007375 -0.004803 742787.000000 1 0 0
6.527778 1.140277 7.264971 9.833205 0.172936 0.739478 -0.000696 0.000018 671779.000000 1 0 0
5.427678 -6.101023 6.747371 10.592884 -0.843738 0.880232 -0.000820 -0.001281 666520.000000 1 0 0
12.269178 -4.877723 2.692971 13.475051 -0.378400 1.369593 0.012826 -0.006795 -1674480.000000 1 0 0
4.441678 -9.175523 13.804171 17.160241 -1.119966 0.636085 0.009855 -0.002525 461358.000000 1 0 0
-2.703922 -4.371823 -1.418529 5.332565 1.016893 1.840050 0.010375 -0.004201 2530900.000000 1 0 0
-9.286822 -5.199423 -7.637129 13.099801 0.510390 2.193207 0.003800 -0.004727 888742.000000 1 0 0
-10.776322 -3.101823 7.812171 13.666764 0.280261 0.962320 0.010664 -0.003857 289817.000000 1 0 0
12.074978 -0.585523 1.656571 12.202138 -0.048453 1.434615 0.014051 -0.006480 -13199.100000 1 0 0
-7.628222 4.683977 4.375571 9.963686 -0.550674 1.116142 0.005282 -0.007131 1930470.000000 1 0 0
-1.039622 10.500577 6.969971 12.646084 -1.472112 0.987047 -0.006288 0.005576 1242500.000000 1 0 0
7.419178 -9.971523 1.884271 12.570837 -0.931123 1.420337 -0.001976 -0.005752 2576160.000000 1 0 0
-4.321822 -1.766523 1.634471 4.946741 0.388022 1.234054 0.005678 -0.001023 1307550.000000 1 0 0
6.770178 -14.964423 -0.885629 16.448513 -1.145933 1.624665 0.025228 -0.007124 -1869900.000000 1 0 0
-10.492022 1.628477 2.335971 10.871579 -0.153982 1.354238 0.005000 -0.005759 382528.000000 1 0 0
-2.907422 8.296677 -11.412629 14.406112 -1.233737 2.485214 0.003680 -0.005517 -2542840.000000 1 0 0
-1.250722 -5.179823 -6.858729 8.685449 1.333871 2.481084 0.006876 -0.003908 -1643130.000000 1 0 0
12.836778 -0.447123 6.433971 14.365889 -0.034817 1.106421 0.024235 -0.013707 2658000.000000 1 0 0
5.944178 -13.259123 3.645571 14.980914 -1.149350 1.324980 0.002801 -0.007167 1850310.000000 1 0 0
-5.566522 3.461677 -4.911229 8.190821 -0.556349 2.213799 0.008656 -0.003538 549925.000000 1 0 0
-4.438122 7.937777 3.357671 9.694287 -1.060983 1.217113 0.000693 -0.001832 115416.000000 1 0 0
13.975778 6.219077 -3.888829 15.783608 0.418680 1.819744 0.016482 -0.002290 -1020960.000000 1 0 0
-6.738222 -8.527723 5.222071 12.058015 0.902087 1.122891 0.013804 -0.003037 -166707.000000 1 0 0
1.736678 11.408877 2.758871 11.865492 1.419734 1.336136 0.000492 -0.001750 1574820.000000 1 0 0
-7.424022 7.263377 5.942771 11.966172 -0.774461 1.051083 0.000606 -0.004356 469807.000000 1 0 0
-17.463222 -3.983723 5.208271 18.653693 0.224283 1.287827 0.016767 -0.002010 -1463160.000000 1 0 0
7.583478 -13.118123 -8.583929 17.414882 -1.046642 2.086225 0.008143 0.001919 -969682.000000 1 0 0
-2.349522 12.818577 -2.739529 13.316951 -1.389518 1.777993 -0.002132 0.001816 451966.000000 1 0 0
-5.564522 13.979077 -5.673429 16.079997 -1.191963 1.931385 0.011862 0.005854 2777540.000000 1 0 0
-5.655822 2.411577 7.370971 9.598711 -0.403046 0.695220 0.004763 -0.004862 1753200.000000 1 0 0
-7.469122 5.118277 1.444171 9.168979 -0.600764 1.412631 0.004921 -0.004905 2413800.000000 1 0 0
10.757778 -5.731223 -5.013429 13.179953 -0.489504 1.961007 0.007052 -0.003634 3122170.000000 1 0 0
-9.649722 -0.714223 6.805771 11.829868 0.073880 0.957820 0.008472 -0.004523 1682130.000000 1 0 0
-11.294022 -4.574723 -2.583129 12.456146 0.384858 1.779690 0.004108 -0.001929 562052.000000 1 0 0
6.449578 -4.376523 13.534171 15.618092 -0.596202 0.522508 0.008552 -0.007192 -1393810.000000 1 0 0
0.293278 10.315677 -11.670329 15.578696 1.542374 2.417530 0.007660 -0.001000 -1450330.000000 1 0 0
-11.891222 -3.201923 1.418871 12.396236 0.263029 1.456085 0.009821 -0.003443 3454740.000000 1 0 0
5.269278 5.918277 5.458971 9.622456 0.843344 0.967554 -0.004604 0.002359 -4952810.000000 1 0 0
-7.185422 -0.030323 8.044671 10.786470 0.004220 0.729044 0.006288 -0.003896 -248451.000000 1 0 0
1.652678 2.074877 9.647571 10.005603 0.898182 0.268323 -0.002317 0.000267 1721700.000000 1 0 0
10.458878 -4.925223 -2.050929 11.741050 -0.440109 1.746377 0.004347 -0.004197 1622480.000000 1 0 0
-9.709922 -2.359423 -1.635529 10.125434 0.238371 1.733034 0.006965 -0.001411 331889.000000 1 0 0
-1.955822 -5.215223 -9.913929 11.371445 1.212007 2.629716 0.014285 -0.007398 1021810.000000 1 0 0
7.614078 -1.579123 6.513471 10.143625 -0.204496 0.873530 0.005368 -0.003618 1968180.000000 1 0 0
1.585578 -11.928723 -2.576729 12.306422 -1.438650 1.781738 0.008484 0.000299 -2874110.000000 1 0 0
-0.783122 -1.515923 4.837371 5.129470 1.093959 0.339099 0.001775 -0.000859 2643180.000000 1 0 0
7.540478 1.530077 9.915771 12.550796 0.200197 0.659904 0.001021 -0.001469 -449333.000000 1 0 0
-3.773622 10.711677 -8.005229 13.894745 -1.232082 2.184787 0.004161 0.002621 2207150.000000 1 0 0
-9.552922 12.635977 6.389271 17.080662 -0.923460 1.187408 0.001390 -0.008026 2154670.000000 1 0 0
-2.523022 -2.363923 -11.064429 11.592038 0.752854 2.838725 0.015189 -0.009040 -1910670.000000 1 0 0
1.221678 -11.980023 11.001971 16.311248 -1.469171 0.830506 0.007231 -0.006146 2878150.000000 1 0 0
1.395278 3.500777 -2.002429 4.267548 1.191530 2.059206 0.002563 -0.001864 1494780.000000 1 0 0
-1.906122 -9.395323 -12.058229 15.404748 1.370633 2.469886 0.011879 0.000732 1262890.000000 1 0 0
1.283578 -2.719623 1.554171 3.385169 -1.129824 1.093801 0.005574 -0.003002 3435700.000000 1 0 0
-1.081522 -2.277923 -6.583329 7.049740 1.127524 2.775798 0.011662 -0.007301 -1010980.000000 1 0 0
1.811078 5.844477 4.039871 7.332017 1.270301 0.987246 -0.006052 0.002622 -143922.000000 1 0 0
-10.989422 8.591477 3.594071 14.404799 -0.663541 1.318627 -0.002575 -0.003557 1218190.000000 1 0 0
-16.471722 -1.417523 3.942671 16.996225 0.085846 1.336690 0.019584 -0.001506 44813.100000 1 0 0
-12.364422 0.371877 6.721871 14.078380 -0.030067 1.073034 0.008107 -0.003422 -363703.000000 1 0 0
-5.165222 2.969377 4.633771 7.547752 -0.521743 0.909770 0.002308 -0.003606 297199.000000 1 0 0
5.239478 -6.053623 3.814871 8.868581 -0.857366 1.126131 -0.002805 -0.004594 916433.000000 1 0 0
9.862978 3.389677 6.219171 12.142749 0.331031 1.033085 0.003663 -0.001372 82938.600000 1 0 0
-12.108522 5.791077 3.088071 13.772765 -0.446109 1.344658 0.008200 -0.006298 1690260.000000 1 0 0
-4.910822 12.266777 -1.243929 13.271675 -1.190001 1.664662 -0.006040 0.003417 940974.000000 1 0 0
-1.752022 -12.138823 10.359271 16.054130 1.427454 0.869418 0.011742 -0.009281 997984.000000 1 0 0
5.143978 6.356377 13.924971 16.148340 0.890433 0.530971 0.003626 0.001024 1074240.000000 1 0 0
12.928878 -3.693123 -5.856529 14.666082 -0.278239 1.981576 0.007119 -0.003441 1133380.000000 1 0 0
3.553078 -2.620123 6.369271 7.749647 -0.635403 0.606095 -0.001627 0.002189 -45180.700000 1 0 0
7.288678 -11.815923 -0.603829 13.896239 -1.018078 1.614263 0.008522 -0.001947 -1173320.000000 1 0 0
-6.030622 -6.619723 -4.167229 9.876990 0.831933 2.006350 0.013434 -0.004143 -290017.000000 1 0 0
0.274878 -8.962323 5.032771 10.282391 -1.540136 1.059331 0.005771 -0.003295 1705260.000000 1 0 0
-10.332122 2.515677 -0.380629 10.640783 -0.238834 1.606575 0.006953 -0.003105 -229043.000000 1 0 0
-1.839022 8.988377 -0.421629 9.184264 -1.368982 1.616720 0.002528 -0.002616 -819621.000000 1 0 0
-3.483322 2.254577 -6.660829 7.847502 -0.574439 2.584476 0.011249 -0.006352 1577550.000000 1 0 0
-12.783922 3.035277 6.313571 14.577474 -0.233113 1.122862 0.007828 -0.011949 -341185.000000 1 0 0
11.235678 1.614777 7.955271 13.861252 0.142741 0.959510 0.018756 -0.015125 -2308190.000000 1 0 0
6.031378 2.677177 -3.228029 7.346085 0.417749 2.025751 0.001448 -0.000507 1057670.000000 1 0 0
10.485578 -2.378123 6.349971 12.486991 -0.223026 1.037323 0.015266 -0.009258 3335590.000000 1 0 0
-0.964422 10.968277 4.087971 11.744987 -1.483094 1.215294 -0.001567 0.001783 2573490.000000 1 0 0
-1.577822 -12.248323 7.388871 14.391190 1.442682 1.031619 0.005594 -0.004537 -616309.000000 1 0 0
8.236578 8.700477 -7.870529 14.334739 0.812781 2.152027 0.005910 0.001364 2121010.000000 1 0 0
-4.711722 -6.078423 -8.756029 11.653994 0.911389 2.420876 0.011567 -0.006982 1027500.000000 1 0 0
-8.534322 -5.232023 -11.719029 15.412474 0.549965 2.434664 0.004359 -0.007557 1304030.000000 1 0 0
6.133178 -0.639323 -9.922229 11.682261 -0.103865 2.585533 0.002490 0.003875 239945.000000 1 0 0
-11.157622 -5.473923 -5.429729 13.562386 0.456099 1.982697 -0.002241 -0.006956 -1030270.000000 1 0 0
3.974778 8.914977 -2.715929 10.131730 1.151396 1.842177 0.006483 -0.003507 1615280.000000 1 0 0
11.700778 -10.473223 -4.017429 16.209144 -0.730094 1.821256 0.012824 -0.004467 356263.000000 1 0 0
3.928978 -11.313623 3.892671 12.593165 -1.236548 1.256539 -0.002245 -0.005157 -236146.000000 1 0 0
-1.002222 0.841977 3.165671 3.425617 -0.698725 0.392078 0.001343 -0.001375 -650809.000000 1 0 0
-10.625022 -5.080623 4.448671 12.589460 0.446036 1.209631 0.013551 -0.005166 3564980.000000 1 0 0
4.615778 -8.705023 2.755871 10.231210 -1.083248 1.298069 0.000530 -0.004923 3445210.000000 1 0 0
-3.707022 -5.759923 2.643271 7.342044 0.998941 1.202509 0.007462 -0.001769 2123850.000000 1 0 0
9.897278 5.137077 12.302871 16.604407 0.478763 0.736327 0.014436 -0.002340 84456.600000 1 0 0
1.693578 -12.391423 -5.290929 13.579745 -1.434964 1.971014 0.007191 0.001961 1804660.000000 1 0 0
9.869178 -10.698423 -1.668629 14.650640 -0.825694 1.684939 0.006433 -0.005107 314091.000000 1 0 0
9.744278 -4.488123 -9.109729 14.074138 -0.431626 2.274790 0.011299 -0.000969 343016.000000 1 0 0
-7.403822 -2.942123 -13.121129 15.350462 0.378245 2.595906 0.006155 -0.005346 1385900.000000 1 0 0
0.386278 6.231877 -2.524029 6.734703 1.508891 1.954955 0.002580 -0.002618 3083550.000000 1 0 0
-5.965122 -9.468323 0.902571 11.227041 1.008604 1.490317 0.010490 -0.001953 -800269.000000 1 0 0
-9.083222 -4.113223 0.549271 9.986251 0.425211 1.515766 0.008912 -0.002759 3580170.000000 1 0 0
1.820278 3.732877 12.134971 12.825963 1.117090 0.329743 -0.000291 -0.001969 719342.000000 1 0 0
6.606478 4.252477 9.660071 12.451751 0.571922 0.682814 -0.006164 0.003712 40488.700000 1 0 0
-8.319322 9.888277 -3.583229 13.410021 -0.871356 1.841288 0.005381 0.001967 2027650.000000 1 0 0
16.421578 2.150877 -5.904129 17.582754 0.130237 1.913241 0.027377 -0.009237 -2210900.000000 1 0 0
-10.911922 2.659677 -5.088029 12.330124 -0.239079 1.996158 0.002446 0.000627 2458170.000000 1 0 0
-13.796822 4.026477 1.392171 14.439631 -0.283955 1.474233 0.016875 -0.002688 -141869.000000 1 0 0
-17.382222 10.514977 3.355071 20.590359 -0.544035 1.407123 0.042928 -0.011000 -1097550.000000 1 0 0
-14.399422 2.879777 -1.244729 14.737226 -0.197388 1.655359 0.017384 -0.003644 518982.000000 1 0 0
-14.373022 5.194277 5.056871 16.097709 -0.346786 1.251250 0.014327 -0.009153 852090.000000 1 0 0
-17.570222 7.552877 3.096871 19.373933 -0.405987 1.410260 0.043722 -0.007583 -509761.000000 1 0 0
-14.815122 12.588977 -3.432329 19.742114 -0.704342 1.745543 0.038172 -0.005065 -501501.000000 1 0 0
-8.505922 12.622577 -9.505229 17.945181 -0.977826 2.129021 0.024099 -0.012396 458750.000000 1 0 0
-12.534722 8.849477 -9.893429 18.256846 -0.614740 2.143495 0.016775 -0.005749 -1050910.000000 1 0 0
-13.792222 -3.504523 -12.173029 18.726711 0.248828 2.278428 0.019586 -0.004055 -927880.000000 1 0 0
-14.746322 5.663977 -7.712329 17.578813 -0.366720 2.024980 0.021909 -0.000174 1396860.000000 1 0 0
-10.879122 13.598577 -8.372529 19.322935 -0.896044 2.018942 0.028995 -0.013301 678813.000000 1 0 0
-10.837222 13.598677 3.929371 17.827209 -0.897929 1.348557 0.009952 -0.008582 479001.000000 1 0 0
-15.227022 3.328677 2.953271 15.863924 -0.215218 1.383541 0.021587 -0.005682 731617.000000 1 0 0
-11.039622 9.587977 -12.418029 19.183587 -0.715140 2.274867 0.012569 -0.007443 -396231.000000 1 0 0
-13.068722 11.670577 -9.100929 19.743879 -0.728943 2.049861 0.029313 -0.015883 706983.000000 1 0 0
-8.824522 14.636777 -3.369729 17.420175 -1.028247 1.765462 0.009182 -0.001831 898197.000000 1 0 0
-16.748022 8.204277 -4.169629 19.110003 -0.455507 1.790757 0.035889 -0.003126 -949238.000000 1 0 0
-17.158422 6.774177 0.274471 18.449289 -0.376017 1.555919 0.047919 -0.000535 -87871.300000 1 0 0
-10.481222 2.800977 -12.664429 16.676008 -0.261135 2.433248 0.007498 -0.001330 2336370.000000 1 0 0
-16.986622 0.947777 2.251471 17.161373 -0.055738 1.439223 0.021234 -0.005421 -317426.000000 1 0 0
-12.637422 1.239277 -6.973429 14.486854 -0.097752 2.073005 0.004103 0.000561 1588720.000000 1 0 0
-12.276622 8.980377 -5.495929 16.173060 -0.631557 1.917522 0.019010 0.001941 -1639310.000000 1 0 0
-9.531822 13.930777 1.259271 16.926546 -0.970735 1.496331 0.017339 -0.006121 340525.000000 1 0 0
-12.188122 11.150277 2.805871 16.755653 -0.740958 1.402545 0.010936 -0.006725 789779.000000 1 0 0
-12.642622 6.881577 -3.702729 14.862779 -0.498469 1.822576 0.007736 0.002257 -310216.000000 1 0 0
-15.764322 3.594777 -9.477129 18.741724 -0.224199 2.100955 0.020564 -0.000211 -1189780.000000 1 0 0
-15.222922 5.811977 -4.786629 16.983175 -0.364711 1.856513 0.025267 0.000272 3115830.000000 1 0 0
-17.925022 5.378777 7.422471 20.132827 -0.291522 1.193213 0.029709 -0.015107 -1159350.000000 1 0 0
-15.893222 10.092777 -2.125229 18.946642 -0.565784 1.683202 0.044446 -0.002190 -341744.000000 1 0 0
-8.806822 9.981177 -8.413429 15.747057 -0.847823 2.134459 0.010696 -0.005189 156349.000000 1 0 0
-17.059722 4.268277 -1.290529 17.632860 -0.245163 1.644051 0.030980 -0.001997 -85081.700000 1 0 0
-10.219122 5.418177 -4.521529 12.418990 -0.487515 1.943443 0.004695 -0.001726 -518393.000000 1 0 0
-18.292822 2.881677 5.986771 19.462087 -0.156246 1.258114 0.041473 -0.014839 -449996.000000 1 0 0
-10.302022 10.075877 -5.736429 15.510048 -0.774301 1.949647 0.007116 -0.000891 1790500.000000 1 0 0
-15.339522 0.539177 -5.857129 16.428560 -0.035135 1.935338 0.014802 -0.000025 -155358.000000 1 0 0
-16.245622 -4.139923 -8.943129 19.001019 0.249522 2.060841 0.033646 -0.013922 -1331060.000000 1 0 0
-10.050622 9.610877 -1.104929 13.950084 -0.763036 1.650085 0.003708 0.001077 2277230.000000 1 0 0
-17.404922 -3.110123 -3.262629 17.979124 0.176826 1.753275 0.017080 -0.007056 -253541.000000 1 0 0
-11.922422 5.118377 -11.606829 17.408630 -0.405513 2.300607 0.009580 0.000408 721741.000000 1 0 0
-16.316822 7.110177 5.863671 18.739689 -0.410947 1.252550 0.029130 -0.010430 -1090590.000000 1 0 0
-12.133022 6.017977 -8.835329 16.170631 -0.460442 2.148834 0.010629 0.000310 1424560.000000 1 0 0
-14.689522 8.409477 -0.047729 16.926418 -0.519939 1.573616 0.030716 -0.001425 2034400.000000 1 0 0
-14.841422 11.963277 3.857671 19.449150 -0.678433 1.371126 0.021263 -0.011952 1524750.000000 1 0 0
-17.396922 4.010977 -4.098829 18.317784 -0.226597 1.796469 0.031774 -0.001751 1551340.000000 1 0 0
-13.828622 13.509577 -0.859029 19.351418 -0.773728 1.615202 0.036383 -0.001831 633306.000000 1 0 0
-10.038022 7.027977 -13.016329 17.876777 -0.610817 2.386363 0.000502 -0.008436 1316590.000000 1 0 0
-15.776922 -1.134523 -8.268829 17.848583 0.071787 2.052485 0.015625 -0.007733 -561440.000000 1 0 0
-11.428322 11.964177 0.000271 16.545334 -0.808301 1.570780 0.020428 -0.002862 233365.000000 1 0 0
-12.022522 7.401677 -0.934429 14.149170 -0.551848 1.636886 0.007233 0.002211 2097340.000000 1 0 0
-11.436522 0.185277 -11.719929 16.376358 -0.016199 2.368367 0.004021 0.000584 521820.000000 1 0 0
-19.176522 -1.344823 -4.850829 19.826197 0.070014 1.817973 0.028117 -0.004928 -169198.000000 1 0 0
-17.977322 1.352977 -5.133229 18.744724 -0.075119 1.848189 0.018108 -0.002547 300302.000000 1 0 0
-13.262622 -0.039523 -9.486929 16.306456 0.002980 2.191724 0.008580 -0.002519 -1119020.000000 1 0 0
-6.126922 11.166677 -13.220729 18.358146 -1.068968 2.374823 -0.000340 -0.010552 -1222680.000000 1 0 0
16.500278 5.893677 7.213571 18.948093 0.343063 1.180241 0.054829 -0.016841 1137500.000000 1 0 0
14.818578 10.150877 -5.467729 18.775692 0.600595 1.866291 0.037128 -0.009887 171971.000000 1 0 0
2.365178 16.902077 4.419071 17.629591 1.431765 1.317432 0.003953 -0.007722 2256650.000000 1 0 0
-3.860822 18.310277 -5.825729 19.598758 -1.362985 1.872607 0.005370 -0.002646 1090140.000000 1 0 0
5.443478 14.610577 5.805271 16.637356 1.214157 1.214367 0.005597 -0.010534 -896008.000000 1 0 0
9.829878 5.952877 15.074971 18.955686 0.544520 0.651336 0.021115 -0.006491 -940292.000000 1 0 0
4.662878 12.688977 -1.105129 13.563697 1.218639 1.652364 0.008414 -0.005718 1674310.000000 1 0 0
3.346978 13.751877 12.801471 19.083869 1.332055 0.835509 -0.003296 -0.006603 408297.000000 1 0 0
-0.681722 12.277477 9.201171 15.357824 -1.515327 0.928395 -0.006097 0.002352 593255.000000 1 0 0
-7.728422 13.810777 8.351071 17.894314 -1.060617 1.085253 0.016503 -0.014722 1833320.000000 1 0 0
11.463078 12.927577 -4.147529 17.768692 0.845370 1.806387 0.008496 -0.002597 405494.000000 1 0 0
-5.720922 16.012777 0.899471 17.027831 -1.227658 1.517948 -0.004742 0.000024 439940.000000 1 0 0
3.241378 10.515177 6.791471 12.930567 1.271782 1.017816 -0.009914 0.004820 1298790.000000 1 0 0
-1.143122 15.556777 2.456871 15.791019 -1.497448 1.414575 -0.000673 0.003398 -2778510.000000 1 0 0
9.785278 8.830877 9.598171 16.305243 0.734176 0.941402 0.022247 -0.005236 674371.000000 1 0 0
7.265278 12.262577 6.253971 15.564936 1.035928 1.157316 0.009767 -0.009593 -40884.000000 1 0 0
11.850678 14.023177 -1.481529 18.419636 0.869167 1.651315 0.007853 -0.000127 1092880.000000 1 0 0
9.692078 15.960277 -1.034129 18.701237 1.025054 1.626122 0.002755 -0.002564 916043.000000 1 0 0
10.163578 13.713377 3.024671 17.335042 0.932988 1.395416 0.015857 -0.006337 2798120.000000 1 0 0
-6.004322 14.488377 6.214771 16.869746 -1.177918 1.193512 0.003367 -0.008968 -113376.000000 1 0 0
-0.914722 18.228277 -6.162429 19.263498 -1.520657 1.896422 0.035427 -0.008120 1868080.000000 1 0 0
-3.592222 15.741277 5.370871 17.015820 -1.346434 1.249665 -0.002106 -0.002656 2371010.000000 1 0 0
7.126778 12.301677 10.672171 17.776880 1.045711 0.926870 0.003378 -0.003446 3293020.000000 1 0 0
1.470078 14.584877 6.269171 15.943095 1.470341 1.166663 -0.005018 -0.003014 1277320.000000 1 0 0
17.375578 7.795577 -1.351829 19.092124 0.421732 1.641661 0.028091 0.002414 1058870.000000 1 0 0
2.095878 16.232077 -3.338229 16.703796 1.442387 1.772000 0.010555 -0.005222 1360720.000000 1 0 0
6.655978 11.107477 0.589971 12.962491 1.030940 1.525267 0.008652 -0.003793 1519740.000000 1 0 0
12.640178 9.331177 3.368271 16.068299 0.635916 1.359608 0.009705 0.000366 -1229030.000000 1 0 0
6.014978 14.280277 -3.390329 15.861923 1.172141 1.786198 0.000318 -0.004112 2323010.000000 1 0 0
3.136678 16.430077 1.641071 16.807121 1.382156 1.472999 0.011902 -0.012014 -1633100.000000 1 0 0
2.809278 18.893877 -2.436329 19.256333 1.423191 1.697657 0.023178 -0.016195 343958.000000 1 0 0
3.984178 11.856177 10.725171 16.476405 1.246610 0.861973 -0.006128 -0.002077 2632850.000000 1 0 0
8.033278 11.572477 3.387571 14.489011 0.963993 1.334809 0.008458 -0.000737 1622930.000000 1 0 0
0.724678 12.496477 0.192671 12.518955 1.512871 1.555405 0.003431 -0.003367 -1258070.000000 1 0 0
11.984178 9.940877 -4.506729 16.209632 0.692472 1.852537 0.003483 0.000335 1125340.000000 1 0 0
-1.227722 16.441977 9.857871 19.209986 -1.496265 1.031929 -0.004160 -0.003919 -46293.300000 1 0 0
8.185878 14.787377 -7.901529 18.657687 1.065215 2.008102 0.004001 -0.003842 1447150.000000 1 0 0
14.414878 7.630077 -1.268329 16.358956 0.486827 1.648405 0.007762 0.005496 124528.000000 1 0 0
12.534978 8.244277 6.053771 16.178440 0.581770 1.187276 0.021789 -0.006738 -1842040.000000 1 0 0
-2.962222 14.170077 10.131771 17.669710 -1.364716 0.960149 0.007070 -0.007394 2546000.000000 1 0 0
-4.576122 17.201577 -3.168029 18.079590 -1.310789 1.746932 0.008159 0.003002 210875.000000 1 0 0
-7.018822 16.450377 -1.739629 17.969560 -1.167515 1.667758 -0.001991 0.002539 -418217.000000 1 0 0
8.418378 11.289877 -1.889829 14.209218 0.930080 1.704192 0.006838 0.000197 54699.800000 1 0 0
8.602378 12.978377 -4.143729 16.112408 0.985459 1.830895 0.006523 -0.001369 2116790.000000 1 0 0
2.701778 14.841377 -7.312629 16.764266 1.390725 2.022171 0.007690 -0.009199 -1251190.000000 1 0 0
11.334178 11.338477 9.767071 18.772862 0.785588 1.023622 0.034757 -0.014283 669502.000000 1 0 0
8.539878 15.725577 1.579871 17.964390 1.073300 1.482738 0.008161 -0.005540 1254070.000000 1 0 0
6.102878 9.937877 7.752671 14.003944 1.020072 0.984108 -0.002417 0.004895 3972560.000000 1 0 0
14.418778 11.449977 2.817771 18.626405 0.671134 1.418935 0.020879 -0.001483 1940690.000000 1 0 0
12.207878 12.602977 1.212171 17.587970 0.801321 1.501821 0.016497 -0.000151 2761600.000000 1 0 0
5.101778 15.873277 8.351171 18.647550 1.259818 1.106445 0.005356 -0.011434 -712016.000000 1 0 0
11.550478 14.955277 5.259571 19.614713 0.913154 1.299330 0.032037 -0.015369 525010.000000 1 0 0
5.936978 16.741077 1.853971 17.859132 1.229998 1.466798 0.006217 -0.013121 -1088980.000000 1 0 0
-0.659122 16.165277 -4.147129 16.701776 -1.530045 1.821726 0.012799 -0.002548 261235.000000 1 0 0
16.075978 6.462377 2.666171 17.530199 0.382220 1.418114 0.015940 -0.005446 629412.000000 1 0 0
7.605878 16.704277 -2.995229 18.597141 1.143523 1.732559 -0.005029 -0.006404 449392.000000 1 0 0
14.840978 8.128477 7.599671 18.549442 0.501079 1.148673 0.044500 -0.013453 791108.000000 1 0 0
2.138878 12.823177 8.608471 15.592128 1.405520 0.985911 -0.006543 -0.001128 1628480.000000 1 0 0
15.929478 7.497277 -5.835729 18.547592 0.439897 1.890869 0.023912 -0.000698 134768.000000 1 0 0
-2.930522 16.981077 0.699371 17.246277 -1.399904 1.530233 -0.003413 0.002440 1893250.000000 1 0 0
-2.967122 18.575577 4.635671 19.373831 -1.412402 1.329177 0.001551 0.001936 553755.000000 1 0 0
-0.950322 19.154977 0.861371 19.197870 -1.521225 1.525913 0.004247 0.001794 110436.000000 1 0 0
7.096678 16.793777 -5.925929 19.170562 1.170979 1.885060 -0.001177 -0.007599 1085890.000000 1 0 0
11.005178 10.059577 0.873371 14.935589 0.740538 1.512287 0.002013 0.002691 -2476670.000000 1 0 0
9.039178 8.706777 14.313771 19.036774 0.766669 0.719855 0.021282 -0.003495 -494736.000000 1 0 0
6.491278 12.338077 -8.358929 16.255354 1.086474 2.110901 0.010559 -0.006158 1889500.000000 1 0 0
6.279078 8.977077 13.362371 17.279112 0.960435 0.686727 0.005272 -0.003648 -203723.000000 1 0 0
16.643178 9.437277 3.110871 19.383888 0.515828 1.409612 0.020771 0.002548 -771840.000000 1 0 0
2.603778 14.686577 -0.784129 14.936200 1.395330 1.623319 0.008009 -0.007542 200979.000000 1 0 0
9.176478 12.870077 8.317271 17.861233 0.951393 1.086415 0.027733 -0.015241 1224060.000000 1 0 0
7.150978 9.363877 10.596971 15.846592 0.918599 0.838307 0.000688 -0.001571 24143.100000 1 0 0
4.400278 15.891277 -5.291729 17.317550 1.300666 1.881334 0.007554 -0.006911 1583390.000000 1 0 0
0.339878 16.300277 -8.035829 18.176609 1.549948 2.028732 0.021667 -0.011043 1549040.000000 1 0 0
-2.398722 15.693577 -1.926929 15.992351 -1.419123 1.691580 -0.001487 0.006332 181470.000000 1 0 0
13.252078 10.417977 7.759471 18.556972 0.666232 1.139396 0.038566 -0.015142 642228.000000 1 0 0
-1.048022 15.903677 6.990871 17.403953 -1.504993 1.157442 -0.000638 -0.003592 2829160.000000 1 0 0
13.280678 13.226477 6.791071 19.935766 0.783353 1.223191 0.039830 -0.016032 254083.000000 1 0 0
5.377478 17.420477 4.574371 18.796680 1.271389 1.324967 0.012397 -0.010618 1608000.000000 1 0 0
10.816878 9.536077 -1.780829 14.529727 0.722552 1.693670 -0.001200 0.006300 331674.000000 1 0 0
3.293678 12.712977 4.803071 13.983476 1.317290 1.220174 -0.003686 0.002637 2795830.000000 1 0 0
-0.225222 18.083677 3.567871 18.433660 -1.558343 1.376015 0.004186 -0.001569 3129380.000000 1 0 0
-7.716122 15.984677 -5.719629 18.648394 -1.121068 1.882530 0.022445 -0.007870 968236.000000 1 0 0
-12.459122 -9.122823 8.105271 17.439926 0.632025 1.087440 0.015952 -0.011430 613771.000000 1 0 0
-13.231722 -11.741223 6.804671 18.953583 0.725784 1.203581 0.020519 -0.009220 537792.000000 1 0 0
-6.493722 -12.223123 12.142071 18.412035 1.082450 0.850691 0.014629 -0.014857 -1832910.000000 1 0 0
-1.739922 -10.562523 14.339471 17.894542 1.407536 0.641278 0.008692 -0.016224 1475650.000000 1 0 0
-8.923522 2.714977 10.965771 14.396127 -0.295351 0.704838 0.012513 -0.006476 2092070.000000 1 0 0
0.525378 9.893277 15.152071 18.103542 1.517742 0.579079 0.002562 0.001689 -270214.000000 1 0 0
0.952578 -6.840223 16.563671 17.945787 -1.432425 0.395033 0.018191 -0.024104 1015740.000000 1 0 0
5.999478 2.083677 17.792571 18.892089 0.334276 0.342851 0.026706 -0.008392 1973960.000000 1 0 0
-5.233222 -3.133123 17.691071 18.713019 0.539462 0.332012 0.018074 -0.012476 2081320.000000 1 0 0
-4.313922 8.098977 13.010471 15.920921 -1.081371 0.614272 0.005661 0.001457 872722.000000 1 0 0
-0.004522 -4.976423 18.571571 19.226754 1.569888 0.261809 0.012827 -0.028078 -542991.000000 1 0 0
-11.790722 2.029977 11.091871 16.314764 -0.170496 0.823215 0.011940 -0.005565 900030.000000 1 0 0
-3.540222 -6.085123 14.287271 15.927586 1.043879 0.457829 0.015255 -0.017059 2211990.000000 1 0 0
-7.603322 -2.263923 14.579471 16.598097 0.289395 0.498330 0.013576 -0.005303 1797020.000000 1 0 0
-6.093822 -1.147723 10.520471 12.211972 0.186161 0.532603 0.011088 -0.005432 1545470.000000 1 0 0
-4.055322 2.348077 11.182171 12.124358 -0.524844 0.396833 -0.000488 0.001671 1160110.000000 1 0 0
-6.460422 6.177977 13.452671 16.151744 -0.763054 0.586482 -0.001734 -0.000859 -110749.000000 1 0 0
-9.038622 5.372177 12.433771 16.283600 -0.536261 0.701963 0.003245 -0.009687 -1620600.000000 1 0 0
-12.329922 -2.130923 15.810071 20.162494 0.171135 0.669499 0.014052 0.002859 1392210.000000 1 0 0
-3.701422 -7.616123 16.854871 18.862464 1.118413 0.465568 0.021819 -0.022195 -818443.000000 1 0 0
-0.584722 -5.445423 14.409271 15.414981 1.463828 0.363220 0.007089 -0.011938 1321360.000000 1 0 0
-14.430522 -2.331523 13.682971 20.022479 0.160185 0.818413 0.024666 0.005382 -350842.000000 1 0 0
-6.524322 1.343677 12.187271 13.888910 -0.203109 0.500209 0.011871 -0.002906 1122180.000000 1 0 0
2.119378 -2.366223 14.608971 14.950345 -0.840373 0.214109 0.004808 -0.002030 1179550.000000 1 0 0
-12.683922 4.046777 9.095471 16.124078 -0.308839 0.971463 0.008286 -0.010316 -239598.000000 1 0 0
-9.216822 -2.979423 12.492171 15.807628 0.312657 0.659560 0.004984 0.001001 318331.000000 1 0 0
-7.283122 -7.202123 15.142371 18.281298 0.779806 0.594732 0.021778 -0.015928 -1177770.000000 1 0 0
-3.467822 5.983377 19.429771 20.623836 -1.045530 0.341950 0.041823 -0.005664 -1003250.000000 1 0 0
0.595878 5.351577 16.199871 17.071329 1.459907 0.320900 0.012177 -0.000600 1409330.000000 1 0 0
3.368378 1.312677 16.816671 17.200858 0.371601 0.211750 0.012348 -0.006568 1276540.000000 1 0 0
-11.739922 11.436777 7.883471 18.187214 -0.772319 1.122465 0.009921 -0.013417 375543.000000 1 0 0
0.719778 -9.486323 15.385071 18.088914 -1.495066 0.553814 0.010605 -0.011840 -5005.270000 1 0 0
-2.510322 -3.626323 18.832071 19.341635 0.965291 0.230052 0.022156 -0.029825 1837970.000000 1 0 0
-13.021422 2.301377 13.649071 19.003971 -0.174931 0.769553 0.011269 -0.009321 1269550.000000 1 0 0
-5.489722 -0.779923 15.866771 16.807729 0.141125 0.336196 0.015251 -0.002903 1581460.000000 1 0 0
-4.593922 -5.998123 11.623171 13.862889 0.917201 0.576386 0.012491 -0.006746 1106240.000000 1 0 0
2.415378 1.728977 14.025071 14.336179 0.621265 0.208710 0.001991 -0.002366 -564248.000000 1 0 0
0.048878 3.234877 14.321171 14.682056 1.555688 0.222177 0.009254 -0.002980 1942250.000000 1 0 0
-13.049522 7.047977 12.125271 19.156884 -0.495207 0.885444 0.002058 -0.015876 248690.000000 1 0 0
0.753278 1.075077 18.223171 18.270391 0.959619 0.071911 0.013811 -0.006478 778221.000000 1 0 0
-2.040622 6.335577 12.452471 14.119763 -1.259199 0.490881 -0.001050 0.003115 -884536.000000 1 0 0
-13.689922 -2.684023 10.865671 17.682781 0.193603 0.909073 0.026104 -0.000108 159468.000000 1 0 0
-2.603922 3.603877 13.465871 14.180904 -0.945107 0.318910 -0.001212 0.001908 -247730.000000 1 0 0
3.495878 5.995077 16.395571 17.803844 1.042878 0.400412 0.013398 0.000891 456971.000000 1 0 0
-3.643222 12.367477 12.334871 17.843111 -1.284319 0.807515 0.007011 0.002264 896619.000000 1 0 0
3.657078 -1.702023 17.074271 17.544282 -0.435591 0.231993 0.016814 -0.008255 -1855080.000000 1 0 0
-16.015322 0.578477 9.039671 18.399479 -0.036105 1.057214 0.032062 -0.010751 -349730.000000 1 0 0
-4.807522 4.524377 15.162671 16.537499 -0.755066 0.410639 0.010265 -0.002945 1001020.000000 1 0 0
-8.072222 -8.120923 10.312071 15.409379 0.788406 0.837655 0.008927 -0.011400 3149510.000000 1 0 0
-2.733022 -0.585023 14.855971 15.116598 0.210875 0.185962 0.009919 -0.002920 2609470.000000 1 0 0
-1.998222 0.881577 17.261871 17.399491 -0.415496 0.125856 0.014464 -0.003663 1360330.000000 1 0 0
-0.730722 -2.575623 14.523171 14.767880 1.294354 0.182298 0.007720 -0.005905 -779782.000000 1 0 0
5.056778 -8.377523 16.572871 19.246141 -1.027725 0.533365 0.017874 -0.003206 124248.000000 1 0 0
-4.470522 9.967177 10.605871 15.225462 -1.149170 0.800166 0.008351 -0.001172 -461760.000000 1 0 0
-6.194422 1.962877 15.222771 16.551632 -0.306869 0.403444 0.012963 -0.000519 -240644.000000 1 0 0
-5.187822 6.770877 17.267071 19.259025 -0.917010 0.458832 0.025253 0.002918 -1957820.000000 1 0 0
-4.120722 9.059177 15.838671 18.705950 -1.143902 0.561010 0.015529 0.003363 -567102.000000 1 0 0
-4.688522 -9.911123 18.330371 21.359192 1.128935 0.539052 0.030503 -0.022724 -1147430.000000 1 0 0
-6.928622 -4.071923 11.100571 13.704344 0.531323 0.626638 0.010976 -0.002533 970966.000000 1 0 0
-2.492822 -0.808923 19.651671 19.825658 0.313780 0.132580 0.017130 -0.009439 49473.100000 1 0 0
-5.859922 -4.572823 15.228671 16.945850 0.662647 0.454076 0.018307 -0.011743 691824.000000 1 0 0
-13.175222 0.058877 9.656671 16.335276 -0.004469 0.938307 0.013763 -0.003321 1312100.000000 1 0 0
-14.358522 8.703077 10.211771 19.651742 -0.544912 1.024370 -0.003386 -0.020754 -460299.000000 1 0 0
-8.410622 10.370477 12.760371 18.469229 -0.889374 0.808065 0.012019 -0.019209 -1001270.000000 1 0 0
-10.442922 7.140577 10.746871 16.599328 -0.599751 0.866591 0.008759 -0.011355 -633772.000000 1 0 0
-10.012122 -6.511523 14.673771 18.919886 0.576631 0.683172 0.013695 -0.007242 1148580.000000 1 0 0
-0.794722 -13.372423 14.327471 19.614528 1.511436 0.751813 0.016964 -0.015692 2035960.000000 1 0 0
3.752478 -5.793423 17.090071 18.431369 -0.996030 0.383856 0.025844 -0.014005 2170070.000000 1 0 0
-7.248822 9.212177 10.331171 15.625067 -0.904111 0.848390 0.005586 -0.009596 752741.000000 1 0 0
-10.395722 -6.662923 11.697571 17.008784 0.569972 0.812429 0.011749 -0.008064 1992890.000000 1 0 0
-11.037022 -3.931723 10.637771 15.825185 0.342214 0.833613 0.014368 -0.000138 317074.000000 1 0 0
-10.123722 -10.179923 9.720771 17.338223 0.788166 0.975619 0.011743 -0.015912 1836940.000000 1 0 0
-10.006822 -3.624923 15.171071 18.532079 0.347542 0.611760 0.009947 -0.006210 731754.000000 1 0 0
5.627178 -3.537923 16.114571 17.431622 -0.561270 0.391219 0.019080 -0.010348 -37718.100000 1 0 0
-11.325822 0.643277 15.347471 19.084887 -0.056736 0.636521 0.010760 0.000884 305907.000000 1 0 0
-3.165622 3.116477 18.843071 19.359621 -0.777575 0.231522 0.019510 -0.000889 1345050.000000 1 0 0
0.437978 7.249777 13.975571 15.750165 1.510457 0.479277 0.001425 0.000591 1342290.000000 1 0 0
-13.184922 -7.309623 12.089871 19.324537 0.506209 0.894867 0.010462 -0.007924 -1089010.000000 1 0 0
-1.584722 -1.170923 12.248571 12.406043 0.636348 0.159500 0.003993 -0.003615 434515.000000 1 0 0
1.910278 -4.993223 13.130071 14.176749 -1.205402 0.386671 0.003756 -0.007876 -870458.000000 1 0 0
-14.729922 -4.042323 8.536871 17.498261 0.267836 1.061149 0.023145 -0.007351 -1116790.000000 1 0 0
7.997578 0.712877 16.057571 17.953135 0.088902 0.463673 0.021390 -0.013445 468602.000000 1 0 0
-1.225022 11.368977 13.388371 17.606897 -1.463459 0.706860 0.000381 0.009488 664512.000000 1 0 0
2.888278 -12.295123 -13.880729 18.766641 -1.340067 2.403345 -0.002436 0.011589 -127897.000000 1 0 0
0.812078 -10.608223 -13.950029 17.544149 -1.494394 2.490032 -0.000295 0.007221 -2255540.000000 1 0 0
3.346978 -14.329123 -12.503629 19.309758 -1.341332 2.275134 0.004886 0.009202 -1371530.000000 1 0 0
-5.089522 -10.162323 -16.139529 19.739818 1.106491 2.528049 0.022961 -0.006176 116017.000000 1 0 0
-0.885822 -12.088823 -15.160629 19.410538 1.497651 2.467144 0.008298 0.005028 -453807.000000 1 0 0
5.847078 -14.978223 -12.034529 20.083958 -1.198617 2.213312 0.001094 0.009500 1487300.000000 1 0 0
1.915578 -11.719023 -16.067229 19.979008 -1.408770 2.505134 -0.001409 -0.000810 -1029500.000000 1 0 0
1.263778 -14.339623 -14.055029 20.118791 -1.482892 2.344238 0.013121 0.013134 -137989.000000 1 0 0
-0.991222 -10.562923 -15.940129 19.147991 1.477231 2.554347 0.007590 -0.001976 -716454.000000 1 0 0
-6.054522 -5.590523 -14.935729 17.058346 0.745574 2.637405 0.015191 -0.009239 137114.000000 1 0 0
-6.439022 -7.597623 -16.518329 19.288340 0.867753 2.599032 0.017069 -0.004234 551286.000000 1 0 0
4.994478 -12.520523 -11.486029 17.709804 -1.191236 2.276499 -0.003702 0.006365 69498.600000 1 0 0
-1.974722 -15.493523 -13.156629 20.421696 1.444025 2.270835 0.022237 0.008538 -4215.830000 1 0 0
15.652878 -7.257523 -8.760029 19.349996 -0.434151 2.040604 0.029135 -0.008109 68782.100000 1 0 0
19.261578 -3.796623 -4.361229 20.110770 -0.194614 1.789393 0.054011 -0.022606 617889.000000 1 0 0
14.886878 -11.629623 -8.855329 20.863463 -0.663172 2.009142 0.036403 -0.014898 475689.000000 1 0 0
17.854078 -3.586523 -6.472729 19.326859 -0.198241 1.912304 0.054934 -0.014608 649169.000000 1 0 0
9.483278 -9.269923 -15.530029 20.421700 -0.774022 2.434828 0.042729 -0.014854 112111.000000 1 0 0
1.333078 1.935977 -15.198129 15.378824 0.967775 2.988148 0.009901 -0.010993 -157530.000000 1 0 0
4.930878 -4.332823 -14.003629 15.465721 -0.720929 2.703264 0.004347 0.000670 145588.000000 1 0 0
13.181578 -5.450123 -8.603129 16.657481 -0.392060 2.113523 0.026232 -0.006632 -1272200.000000 1 0 0
3.039478 0.728877 -12.173829 12.568683 0.235359 2.890270 0.004667 -0.002939 -5890030.000000 1 0 0
0.613078 6.385877 -12.848329 14.360879 1.475084 2.678501 0.007369 -0.007144 678625.000000 1 0 0
3.168478 -1.079223 -16.742929 17.074239 -0.328287 2.944275 0.019712 -0.011607 46450.500000 1 0 0
13.314778 4.497177 -11.381029 18.084129 0.325728 2.251497 0.000624 0.001605 678534.000000 1 0 0
-3.896622 9.422277 -16.497429 19.394023 -1.178660 2.588007 0.005298 -0.011690 1245010.000000 1 0 0
-0.365022 -5.148723 -17.759329 18.494225 1.500019 2.858741 0.020877 -0.009139 445578.000000 1 0 0
-0.403922 -8.458123 -17.518229 19.457423 1.523077 2.691338 0.017568 -0.006744 -2140790.000000 1 0 0
5.500478 -10.118523 -12.244129 16.809475 -1.072876 2.386789 -0.002551 0.002886 469356.000000 1 0 0
1.789778 -9.745223 -18.022329 20.566405 -1.389163 2.638923 0.004066 -0.005403 -329743.000000 1 0 0
11.087478 8.849777 -14.746429 20.462353 0.673629 2.375552 0.048490 -0.009805 -287593.000000 1 0 0
11.040978 -3.712323 -12.813429 17.316711 -0.324356 2.403786 0.018657 -0.006065 420113.000000 1 0 0
5.113978 7.392677 -12.396829 15.312930 0.965620 2.514209 0.008223 0.000917 171351.000000 1 0 0
9.726178 -5.905923 -12.547229 16.938459 -0.545711 2.404988 0.015138 -0.003713 -639972.000000 1 0 0
-3.189622 0.345877 -15.880129 16.200982 -0.108016 2.942242 0.014986 -0.008825 -243808.000000 1 0 0
-0.675222 10.926477 -12.813129 16.852896 -1.509078 2.434559 0.006398 0.000016 -1812020.000000 1 0 0
6.719478 -5.447323 -12.452029 15.161719 -0.681217 2.534449 0.004348 0.002693 590545.000000 1 0 0
17.846678 -6.165523 -7.935329 20.481383 -0.332635 1.968651 0.043723 -0.019669 -69061.300000 1 0 0
13.590778 4.837077 -13.955629 20.071526 0.341929 2.339626 0.031136 -0.005119 502200.000000 1 0 0
14.250778 0.923777 -11.426129 18.289190 0.064732 2.245605 0.013482 -0.000012 -58462.300000 1 0 0
15.251278 6.149377 -10.869429 19.711946 0.383265 2.154854 0.033845 -0.014077 55058.400000 1 0 0
8.290478 1.548677 -11.763529 14.474496 0.184674 2.519580 0.000960 0.005144 1007020.000000 1 0 0
9.908578 1.292177 -8.926729 13.399109 0.129678 2.299922 0.003022 0.002120 365578.000000 1 0 0
-0.053122 -5.695123 -12.983629 14.177865 1.561469 2.728211 0.010043 -0.002259 579649.000000 1 0 0
10.648578 -5.718123 -8.946229 15.037425 -0.492796 2.207976 0.015184 -0.002440 -1100870.000000 1 0 0
10.391578 8.551677 -11.238829 17.533606 0.688575 2.266581 0.025235 -0.007226 729910.000000 1 0 0
8.605678 8.112077 -14.753229 18.908232 0.755881 2.465869 0.041119 0.001375 460641.000000 1 0 0
8.775578 10.591177 -10.844529 17.515354 0.878873 2.238449 0.025881 -0.001088 -1981000.000000 1 0 0
7.075078 1.927477 -17.998429 19.434900 0.265977 2.754706 0.021855 -0.005631 -266139.000000 1 0 0
12.332378 2.736377 -12.909329 18.061730 0.218348 2.367040 0.012406 -0.002058 -1818670.000000 1 0 0
2.776578 -0.786523 -19.141529 19.357844 -0.276039 2.991957 0.028173 -0.023174 -596481.000000 1 0 0
10.351078 -2.178123 -15.623529 18.867530 -0.207399 2.546443 0.023913 -0.002669 -539239.000000 1 0 0
8.399878 -0.777423 -13.065429 15.552098 -0.092289 2.568277 0.006192 -0.000190 213050.000000 1 0 0
0.666678 4.484277 -14.656729 15.341868 1.423207 2.841611 0.007970 -0.006509 722848.000000 1 0 0
4.126878 -7.734823 -15.779929 18.051724 -1.080674 2.634481 0.002934 -0.003825 -1500040.000000 1 0 0
11.546478 -5.798523 -14.423029 19.364085 -0.465398 2.411082 0.041884 -0.008058 30817.300000 1 0 0
-5.884622 4.385677 -16.727729 18.266906 -0.640472 2.728141 0.013695 -0.007633 -151909.000000 1 0 0
11.553078 7.916777 -9.106929 16.705841 0.600760 2.147346 0.020942 -0.003575 -1991430.000000 1 0 0
9.734378 6.155977 -13.482829 17.732480 0.563900 2.434643 0.027099 0.001282 517196.000000 1 0 0
12.142878 0.728477 -10.094729 15.807711 0.059920 2.263468 0.008333 0.003753 621240.000000 1 0 0
5.579178 -7.360823 -13.671529 16.499080 -0.922223 2.547441 0.002924 0.002137 -1111640.000000 1 0 0
8.706978 -10.211623 -10.704229 17.165932 -0.864764 2.244102 0.015594 -0.001271 602746.000000 1 0 0
10.289978 4.585377 -15.891529 19.479477 0.419202 2.524923 0.038609 -0.006619 -560643.000000 1 0 0
9.964678 -0.277223 -11.000929 14.845609 -0.027813 2.405388 0.004493 0.003071 -1163880.000000 1 0 0
-1.614422 5.444977 -13.942429 15.054749 -1.282556 2.754777 0.004706 -0.007866 -716543.000000 1 0 0
1.468978 -0.617623 -14.891829 14.976846 -0.398005 3.034991 0.012088 -0.008746 -690807.000000 1 0 0
11.401378 -10.582723 -14.233129 21.084767 -0.748177 2.311820 0.059205 -0.016104 207612.000000 1 0 0
9.568878 -7.823823 -10.816229 16.424568 -0.685400 2.289673 0.018042 -0.001481 -213504.000000 1 0 0
14.110078 -0.928523 -9.691329 17.142879 -0.065711 2.171626 0.016937 0.000994 959953.000000 1 0 0
4.072778 11.168277 -12.267929 17.082740 1.221109 2.371933 0.016040 -0.006275 -901376.000000 1 0 0
-1.137322 3.038077 -16.735129 17.046640 -1.212591 2.950125 0.009570 -0.010098 -146482.000000 1 0 0
5.889278 -0.282323 -17.855729 18.803998 -0.047902 2.822661 0.002987 0.001025 215199.000000 1 0 0
6.394778 -6.360823 -15.930729 18.306867 -0.782736 2.626415 0.008365 -0.004649 230500.000000 1 0 0
-1.868222 -5.018523 -19.832229 20.542471 1.214425 2.877868 0.025011 -0.016563 -271819.000000 1 0 0
0.100478 -4.260623 -15.239529 15.824229 -1.547218 2.868904 0.013726 -0.008838 665252.000000 1 0 0
0.542478 0.664677 -12.896429 12.924935 0.886284 3.075164 0.008450 -0.009310 1354590.000000 1 0 0
15.779578 0.557077 -13.441129 20.735703 0.035289 2.276030 0.042104 -0.014685 620213.000000 1 0 0
0.005278 7.014977 -16.289229 17.735527 1.570044 2.734945 0.009254 -0.003203 -354338.000000 1 0 0
-4.819122 -0.560123 -18.381329 19.010811 0.115710 2.883538 0.004690 -0.003611 -117753.000000 1 0 0
10.421578 -8.369023 -13.200029 18.785382 -0.676596 2.349947 0.024479 -0.010645 404783.000000 1 0 0
4.265278 8.397777 -17.399429 19.785231 1.100844 2.645428 0.032060 -0.011374 -240049.000000 1 0 0
9.143478 0.751477 -16.744729 19.093293 0.082003 2.640369 0.008509 -0.010482 -323765.000000 1 0 0
3.253178 4.849577 -18.625529 19.519526 0.979926 2.837770 0.020953 -0.003203 -624623.000000 1 0 0
1.512078 -8.143623 -15.919629 17.945460 -1.387211 2.661846 0.003203 -0.004522 407661.000000 1 0 0
4.454978 7.788877 -14.930429 17.419275 1.051245 2.600451 0.014738 -0.001768 771332.000000 1 0 0
-5.564822 -0.299223 -15.161629 16.153382 0.053719 2.789358 0.007843 -0.008370 -914034.000000 1 0 0
3.038478 3.359877 -13.836529 14.559212 0.835588 2.825195 0.006814 -0.003266 182510.000000 1 0 0
-2.198922 -10.098823 -18.198329 20.928465 1.356402 2.625085 0.021967 0.000200 72480.800000 1 0 0
6.408378 -8.935823 -15.525329 19.025038 -0.948649 2.525335 0.011086 -0.003263 77755.400000 1 0 0
-1.772622 5.462277 -17.426429 18.348272 -1.256998 2.823260 0.006981 -0.003878 239649.000000 1 0 0
10.009078 -12.263523 -11.790229 19.737911 -0.886275 2.210976 0.036964 -0.005369 -295400.000000 1 0 0
10.942078 3.559477 -9.388829 14.850894 0.314505 2.255194 0.002135 0.001387 -487357.000000 1 0 0
4.952378 -0.459323 -11.009429 12.080751 -0.092483 2.717275 0.004663 -0.002478 459214.000000 1 0 0
6.387678 9.601277 -11.450829 16.251413 0.983744 2.352663 0.018998 -0.004561 -39472.500000 1 0 0
10.996678 -9.571823 -9.433829 17.365018 -0.716235 2.145119 0.028131 -0.006512 -1198140.000000 1 0 0
3.380478 -2.326023 -14.379829 14.953845 -0.602678 2.863621 0.010124 -0.006004 -170556.000000 1 0 0
9.251778 -4.468323 -14.654629 17.897470 -0.449930 2.530131 0.018548 -0.004950 552594.000000 1 0 0
-4.032722 -6.411423 -16.471929 18.129910 1.009333 2.710596 0.014088 -0.009984 520071.000000 1 0 0
5.875578 -7.753623 -11.190529 14.827981 -0.922331 2.425978 -0.000352 0.002658 546467.000000 1 0 0
5.596678 6.246677 -16.782829 18.761853 0.840226 2.678150 0.024705 -0.015384 -1283880.000000 1 0 0
9.171678 1.161877 -19.273829 21.376391 0.126010 2.694345 0.031201 -0.019945 452317.000000 1 0 0
13.168278 5.852577 -9.231529 17.113659 0.418225 2.140550 0.004762 -0.002188 497138.000000 1 0 0
-1.300422 -0.650523 -17.309629 17.370594 0.463839 3.057787 0.020010 -0.013136 165659.000000 1 0 0
-0.258122 -0.649523 -19.580029 19.592499 1.192531 3.105912 0.032351 -0.018968 -440479.000000 1 0 0
2.986578 6.371077 -16.516229 17.952607 1.132442 2.738853 0.015720 -0.002750 -1399810.000000 1 0 0
7.790578 3.796677 -15.613029 17.857058 0.453470 2.634858 0.018956 -0.004209 -582703.000000 1 0 0
3.116378 -9.863523 -14.786329 18.045398 -1.264772 2.531153 -0.001523 0.001467 -278943.000000 1 0 0
8.939178 -10.482423 -13.336529 19.174282 -0.864692 2.339971 0.028334 -0.010589 -543056.000000 1 0 0
3.868278 0.244977 -14.803129 15.302164 0.063245 2.885503 0.011067 -0.005497 -1916690.000000 1 0 0
-1.172322 -2.819323 -18.825729 19.071732 1.176730 2.980803 0.032851 -0.015634 387533.000000 1 0 0
9.443678 10.016777 -13.183029 19.060722 0.814839 2.334544 0.042349 -0.008575 371834.000000 1 0 0
4.593078 2.080777 -10.670729 11.802138 0.425366 2.700148 0.006727 0.001768 -10733.800000 1 0 0
-0.314122 7.129777 -18.871829 20.176182 -1.526767 2.780049 0.020667 -0.002758 -30706.300000 1 0 0
0.968378 -1.916423 -17.677529 17.807455 -1.102914 3.020720 0.031211 -0.016691 -2720170.000000 1 0 0
-4.390222 -2.178323 -14.110129 14.937030 0.460584 2.807295 0.011215 -0.009978 -4097760.000000 1 0 0
10.239378 6.024277 -10.440029 15.815530 0.531805 2.291765 0.010254 0.002392 77865.200000 1 0 0
8.571478 5.691577 -17.237629 20.074863 0.586164 2.603460 0.047550 -0.017657 -476443.000000 1 0 0
11.511278 0.396777 -13.487829 17.736642 0.034455 2.434802 0.011204 0.004044 452298.000000 1 0 0
6.889578 12.077077 -11.908529 18.306697 1.052375 2.279041 0.028283 -0.007427 -361371.000000 1 0 0
-0.806122 0.606777 -15.025329 15.059167 -0.645234 3.074542 0.012367 -0.010372 -694737.000000 1 0 0
-4.374922 -3.010423 -18.989729 19.718326 0.602701 2.868902 0.009846 -0.009568 52744.500000 1 0 0
5.784978 -11.998123 -13.996429 19.321515 -1.121525 2.380954 0.002866 0.000618 -141762.000000 1 0 0
2.292278 -4.610623 -14.028329 14.943440 -1.109413 2.789815 0.011207 -0.000603 61022.600000 1 0 0
11.915778 1.888377 -15.393829 19.558162 0.157170 2.476856 0.028451 -0.003361 408826.000000 1 0 0
9.847978 2.327877 -13.717929 17.046503 0.232121 2.506026 0.013445 -0.003395 -19930.600000 1 0 0
-2.243822 -4.048723 -16.428729 17.068392 1.064731 2.866955 0.013643 -0.012183 -1101260.000000 1 0 0
-2.760122 10.016977 -14.220929 17.612295 -1.301924 2.510602 0.004689 -0.013505 220000.000000 1 0 0
3.619378 5.802077 -13.657529 15.273902 1.013055 2.677380 0.007906 -0.001446 25055.300000 1 0 0
-5.100222 -2.537923 -16.551429 17.504374 0.461734 2.810106 0.007430 -0.005464 351654.000000 1 0 0
-4.224422 6.247277 -13.568029 15.523067 -0.976221 2.634285 0.003380 -0.008413 -756177.000000 1 0 0
6.050878 -1.011323 -14.144029 15.417180 -0.165606 2.732344 0.006452 0.003162 -1178560.000000 1 0 0
6.836478 -2.943423 -12.710929 14.729863 -0.406559 2.611848 0.002092 -0.000300 1383480.000000 1 0 0
3.155478 -3.216223 -18.306629 18.852952 -0.794931 2.900266 0.023310 -0.018279 -576593.000000 1 0 0
7.454578 -12.017023 -12.068029 18.590774 -1.015559 2.277251 0.014619 0.001799 -83791.700000 1 0 0
-6.169422 -5.418223 -17.602629 19.423476 0.720661 2.705136 0.031541 -0.010081 352186.000000 1 0 0
0.576778 8.788077 -11.855329 14.768608 1.505258 2.502669 0.007584 -0.004669 -367124.000000 1 0 0
0.551378 8.517777 -14.428229 16.763959 1.506154 2.607379 0.010719 -0.004436 362511.000000 1 0 0
7.842078 -2.397623 -15.122429 17.202751 -0.296713 2.644705 0.007598 -0.005217 -725175.000000 1 0 0
14.302778 1.573277 -8.811629 16.872743 0.109558 2.120272 0.005563 0.001160 537561.000000 1 0 0
2.920778 10.889677 -14.592629 18.440738 1.308749 2.483770 0.020355 -0.003832 -613918.000000 1 0 0
6.153478 1.151277 -15.626429 16.833776 0.184955 2.760552 0.008574 -0.004712 5889.500000 1 0 0
16.829578 -5.381423 -10.146429 20.375093 -0.309485 2.092066 0.079148 -0.024105 743264.000000 1 0 0
4.916578 -4.167323 -11.294729 13.004238 -0.703103 2.623049 0.004506 0.003049 -1371530.000000 1 0 0
8.866478 -3.655623 -17.066329 19.576455 -0.391062 2.629617 0.013519 -0.009187 291232.000000 1 0 0
13.451178 -9.489623 -8.762629 18.648614 -0.614399 2.059952 0.042812 -0.013665 -114958.000000 1 0 0
2.520478 -7.579723 -13.643929 15.810180 -1.249770 2.611942 0.001305 0.002687 227784.000000 1 0 0
-6.816722 -2.230923 -18.559529 19.897257 0.316286 2.772814 0.007195 -0.008390 -1090310.000000 1 0 0
-1.517622 -6.344023 -15.619029 16.926425 1.335988 2.745978 0.015065 -0.011469 -53103.300000 1 0 0
1.726678 -7.177623 -18.376229 19.803673 -1.334718 2.759591 0.017664 -0.015163 -95883.200000 1 0 0
5.417678 11.312877 -14.421429 19.113085 1.124175 2.425737 0.036170 -0.010157 113600.000000 1 0 0
5.622378 -3.297123 -17.266229 18.455482 -0.530381 2.780641 0.022864 -0.014676 564580.000000 1 0 0
3.770578 13.264677 -13.957229 19.620733 1.293844 2.362215 0.028123 -0.008729 30664.700000 1 0 0
9.176678 10.488377 -15.756529 21.035344 0.852002 2.417424 0.052512 -0.012191 504830.000000 1 0 0
2.609578 3.876677 -16.303229 16.959770 0.978320 2.862437 0.011723 -0.007050 264035.000000 1 0 0
16.708078 1.694477 -11.236729 20.206316 0.101071 2.160482 0.046156 -0.011378 213831.000000 1 0 0
10.036378 -3.660023 -10.457829 14.949610 -0.349689 2.345548 0.013810 -0.000237 617054.000000 1 0 0
14.834078 -2.137923 -11.825829 19.091119 -0.143137 2.238827 0.053527 -0.009172 -78131.400000 1 0 0
-2.622722 -8.555423 -16.073529 18.396528 1.273335 2.633607 0.020158 -0.000688 324592.000000 1 0 0
14.115278 8.287677 -8.969529 18.664917 0.530912 2.072084 0.038628 -0.001059 45363.200000 1 0 0
-8.239022 -0.337423 -16.421129 18.375223 0.040931 2.676224 0.005013 -0.006361 -696937.000000 1 0 0
-3.426522 4.100677 -15.859229 16.735344 -0.874722 2.816587 0.007099 -0.005941 -856280.000000 1 0 0
15.108578 4.055577 -9.499329 18.301751 0.262247 2.116523 0.016466 -0.003140 751629.000000 1 0 0
5.412278 1.154077 -13.004629 14.133118 0.210087 2.739267 0.007803 -0.001026 651504.000000 1 0 0
7.915978 -7.669823 -12.833029 16.916723 -0.769606 2.431958 0.014703 -0.001346 -2175120.000000 1 0 0
3.356378 -6.083423 -11.854729 13.740739 -1.066629 2.611466 0.004357 0.000384 -1200210.000000 1 0 0
-3.038922 3.415677 -18.365229 18.925737 -0.843702 2.897611 0.003399 -0.006890 -294368.000000 1 0 0
0.852178 5.087577 -17.782929 18.515999 1.404835 2.859262 0.016742 -0.011215 486187.000000 1 0 0
6.385778 7.183677 -10.262429 14.060613 0.844132 2.388929 0.006172 0.001043 486449.000000 1 0 0
9.798578 3.787277 -11.623329 15.667079 0.368826 2.406689 0.012218 0.002076 615107.000000 1 0 0
4.553778 1.879377 -17.545429 18.223913 0.391413 2.867864 0.020362 -0.006898 -1656250.000000 1 0 0
2.661778 8.014477 -13.051229 15.545143 1.250137 2.567287 0.010203 -0.005334 -3311720.000000 1 0 0
14.405678 -3.461823 -9.743529 17.732573 -0.235838 2.152527 0.035966 -0.007536 128617.000000 1 0 0
-1.184122 9.270177 -16.293629 18.783521 -1.443750 2.620836 0.009837 -0.004570 -368227.000000 1 0 0
-5.233822 2.103977 -15.809729 16.785921 -0.382226 2.798874 0.012915 -0.007539 967062.000000 1 0 0
4.647778 4.311777 -11.933129 13.512691 0.747914 2.653236 0.005902 -0.002057 466303.000000 1 0 0
9.299478 3.268477 -17.705929 20.264825 0.337983 2.633609 0.022373 -0.007772 912048.000000 1 0 0
-4.321422 14.299477 -13.386429 20.058570 -1.277315 2.301464 0.021641 -0.010614 -370413.000000 1 0 0
15.561378 -4.837723 -7.938529 18.126784 -0.301408 2.024108 0.042335 -0.011688 -492069.000000 1 0 0
1.369378 9.155077 -16.830729 19.208437 1.422321 2.638748 0.019459 -0.001691 -608978.000000 1 0 0
0.547078 -3.155523 -12.828129 13.221857 -1.399131 2.896940 0.011007 -0.004312 623954.000000 1 0 0
7.571178 3.620877 -12.972129 15.450230 0.446093 2.567357 0.010200 0.000654 -797966.000000 1 0 0
-2.756222 7.583477 -15.121529 17.139618 -1.222189 2.651429 0.001363 -0.006310 -47700.100000 1 0 0
12.234278 -5.061123 -10.954729 17.184255 -0.392247 2.262028 0.031134 -0.006000 -768807.000000 1 0 0
0.649678 -4.393823 -20.016829 20.503687 -1.423998 2.923237 0.034256 -0.019074 -377739.000000 1 0 0
3.527178 -4.485223 -16.114529 17.094919 -0.904403 2.801280 0.014032 -0.011347 493132.000000 1 0 0
-5.554122 4.136977 -14.283229 15.873672 -0.640196 2.690121 0.005328 -0.008038 758642.000000 1 0 0
12.368578 -7.507023 -9.829029 17.491338 -0.545509 2.167522 0.027026 -0.005264 -231982.000000 1 0 0
-1.928122 -1.790923 -15.013229 15.242116 0.748524 2.968073 0.019245 -0.008534 744866.000000 1 0 0
7.253578 5.892277 -14.258429 17.048053 0.682212 2.561418 0.023476 -0.001753 -95883.500000 1 0 0
4.556578 -5.366023 -18.287429 19.595577 -0.866794 2.774132 0.020566 -0.019539 236355.000000 1 0 0
7.753078 7.577077 -12.360829 16.441180 0.773918 2.421616 0.021150 -0.003229 -1352180.000000 1 0 0
12.388178 -2.400623 -10.878429 16.660437 -0.191411 2.282269 0.017407 -0.004062 -880317.000000 1 0 0
7.532378 -0.667023 -10.654529 13.065245 -0.088324 2.524365 0.003334 0.002865 -1290330.000000 1 0 0
5.492178 4.038577 -14.377129 15.911504 0.634048 2.698822 0.011516 -0.002545 -1231590.000000 1 0 0
14.957578 3.053577 -12.753829 19.892552 0.201382 2.266774 0.023431 -0.009848 974401.000000 1 0 0
-6.397122 6.771977 -15.764829 18.311545 -0.813855 2.607877 -0.001149 -0.000855 472324.000000 1 0 0
-10.989322 3.954577 -16.615229 20.309350 -0.345428 2.528908 0.019491 -0.011203 -64220.200000 1 0 0
-4.897022 6.483177 -17.917629 19.673684 -0.923885 2.715871 0.004798 0.003649 -420810.000000 1 0 0
-9.664122 1.738177 -15.948029 18.728484 -0.177956 2.589709 0.008641 0.000390 194038.000000 1 0 0
-7.423422 5.936977 -18.057929 20.406952 -0.674596 2.657056 0.000256 -0.001278 56699.600000 1 0 0
-8.550322 4.008577 -15.547429 18.190636 -0.438395 2.595758 0.000512 0.000522 -1545660.000000 1 0 0
9.109778 13.412377 -12.256729 20.325042 0.974162 2.218098 0.049701 -0.009285 566687.000000 1 0 0
14.198778 9.284277 -11.368829 20.421885 0.579097 2.161202 0.052955 -0.004231 214830.000000 1 0 0
8.436578 15.954177 -8.984729 20.160282 1.084375 2.032713 0.019191 -0.013342 -90495.100000 1 0 0
7.117678 13.810077 -13.821429 20.794506 1.094907 2.297845 0.043208 -0.006671 -140477.000000 1 0 0
4.908578 16.029777 -12.390129 20.846179 1.273646 2.207266 0.038155 -0.019627 116154.000000 1 0 0
11.221478 11.044577 -11.568529 19.538043 0.777453 2.204462 0.052146 -0.007510 -55473.200000 1 0 0
15.808378 10.072177 -9.348429 20.946281 0.567283 2.033428 0.056155 -0.003453 787391.000000 1 0 0
13.205478 10.659177 -9.346229 19.374073 0.679103 2.074199 0.060316 -0.011590 -284953.000000 1 0 0
10.445578 11.977077 -8.435529 17.992182 0.853594 2.058778 0.012439 0.000999 173709.000000 1 0 0
5.385278 16.182477 -9.796229 19.668246 1.249540 2.092172 0.018538 -0.021572 -330684.000000 1 0 0
6.881778 14.661577 -11.384029 19.796889 1.131947 2.183451 0.022249 -0.006780 -427828.000000 1 0 0
10.776178 14.118677 -9.908229 20.338045 0.918865 2.079651 0.038705 -0.002183 -216513.000000 1 0 0
8.361178 -18.564323 -1.203629 20.395884 -1.147618 1.629844 0.060195 -0.011555 161829.000000 1 0 0
7.524578 -17.307123 -3.263129 19.152122 -1.160682 1.742011 0.045073 -0.014177 -28825.300000 1 0 0
4.644878 -18.097423 5.578171 19.498913 -1.319560 1.280667 0.029781 -0.007547 -141629.000000 1 0 0
10.052378 -17.124323 -2.401529 20.001502 -1.039973 1.691154 0.046117 -0.007111 409606.000000 1 0 0
-9.690922 -12.181723 -10.027529 18.516470 0.898787 2.143072 0.005216 -0.011365 -182601.000000 1 0 0
-5.140522 -6.980023 -12.093129 14.879161 0.936016 2.519664 0.008194 -0.006336 -200735.000000 1 0 0
-10.782422 -9.535223 -5.788429 15.514090 0.724090 1.953153 0.002515 -0.011539 -775066.000000 1 0 0
-4.458722 -11.471123 -14.069729 18.692890 1.200077 2.422917 0.024847 -0.001716 794221.000000 1 0 0
-2.862822 -15.692923 7.328471 17.554773 1.390353 1.140145 0.006111 -0.001893 12564.300000 1 0 0
-4.842322 -11.919323 -11.583329 17.311610 1.184907 2.303804 0.019921 -0.001399 -179801.000000 1 0 0
-14.241922 -12.900823 -4.365629 19.705894 0.736029 1.794189 0.021558 -0.010309 -490529.000000 1 0 0
-3.245722 -12.267423 -3.215929 13.090705 1.312143 1.819002 0.008916 -0.003793 858939.000000 1 0 0
-2.481322 -17.452123 -1.469429 17.688775 1.429564 1.653963 0.005941 -0.007213 -219146.000000 1 0 0
-5.925722 -12.232423 3.586871 14.057453 1.119684 1.312785 0.003870 -0.003538 195506.000000 1 0 0
-8.828122 -10.641623 -12.016829 18.318953 0.878275 2.286274 0.002571 0.001409 875434.000000 1 0 0
-9.754222 -11.898123 -7.448629 17.093631 0.884091 2.021673 0.006760 -0.018155 117287.000000 1 0 0
-10.999622 -15.134223 6.025671 19.655663 0.942306 1.259218 0.024676 -0.012653 139299.000000 1 0 0
-9.490322 -15.645023 0.768571 18.314575 1.025536 1.528819 0.009427 0.004267 -1743530.000000 1 0 0
-14.818922 -7.554623 -8.127929 18.513130 0.471453 2.025322 0.026462 -0.018210 -289015.000000 1 0 0
-2.454322 -16.591123 4.935371 17.482761 1.423932 1.284606 0.015997 -0.008057 266643.000000 1 0 0
4.390278 -15.523023 6.106271 17.248922 -1.295171 1.208942 0.019019 -0.012109 -675135.000000 1 0 0
4.186278 -14.695823 -10.154729 18.346952 -1.293285 2.157337 0.005902 0.009133 374381.000000 1 0 0
-7.641522 -14.044823 -0.267729 15.991297 1.072509 1.587539 -0.000416 0.000301 1184600.000000 1 0 0
2.918178 -14.881023 9.470771 17.878929 -1.377153 1.012530 0.016745 -0.014026 261639.000000 1 0 0
2.283278 -17.184723 10.537271 20.286994 -1.438703 1.024636 0.043649 -0.017377 -48514.000000 1 0 0
-8.096222 -17.098123 -5.895429 19.815415 1.128560 1.872887 0.020174 -0.014932 -158434.000000 1 0 0
-6.512622 -9.149423 -7.738429 13.638528 0.952190 2.174135 0.010017 -0.009259 132333.000000 1 0 0
-6.059422 -13.096923 -4.816029 15.213156 1.137464 1.892908 0.004252 -0.011704 353760.000000 1 0 0
2.128978 -19.461723 -4.959629 20.196265 -1.461836 1.818906 0.028259 -0.016667 180382.000000 1 0 0
-5.494622 -12.931923 8.168971 16.252925 1.169020 1.044175 0.010280 -0.008945 1327620.000000 1 0 0
2.208078 -17.559223 3.429771 18.026792 -1.445703 1.379370 0.014082 -0.011627 1169380.000000 1 0 0
-17.507822 -10.156723 -2.625729 20.410225 0.525677 1.699802 0.019655 -0.012328 626673.000000 1 0 0
-3.697322 -15.430723 2.657671 16.088524 1.335622 1.404845 0.010584 -0.005667 -131895.000000 1 0 0
-10.258422 -10.231023 -14.233629 20.310225 0.784061 2.347330 0.018122 -0.001230 -225106.000000 1 0 0
6.274578 -14.782223 -5.752329 17.057952 -1.169377 1.914762 0.014861 -0.001974 558841.000000 1 0 0
-7.252022 -12.337523 -10.796329 17.926712 1.039394 2.217111 0.010503 -0.004414 -703927.000000 1 0 0
-7.396322 -14.288623 3.864871 16.547131 1.093139 1.335051 0.011909 -0.001498 1143610.000000 1 0 0
3.272178 -15.122923 -3.044629 15.769582 -1.357709 1.765086 0.018447 -0.007322 301788.000000 1 0 0
-7.606322 -11.377123 7.744471 15.724881 0.981482 1.055839 0.008837 -0.013393 -2693370.000000 1 0 0
-12.713122 -12.262023 -1.026529 17.692779 0.767338 1.628849 0.012644 -0.000595 -2365150.000000 1 0 0
-1.952422 -13.601823 3.887671 14.280599 1.428229 1.295082 0.007550 -0.003115 -3204640.000000 1 0 0
-3.142022 -14.001423 5.222671 15.270509 1.350046 1.221741 0.005723 -0.004036 -29464.000000 1 0 0
-14.372822 -10.314723 -4.389129 18.227341 0.622477 1.813985 0.006334 -0.008537 555359.000000 1 0 0
-6.367522 -8.598423 -10.423629 14.937545 0.933374 2.343137 0.010491 -0.007646 318638.000000 1 0 0
0.696778 -19.303323 2.212971 19.442248 -1.534716 1.456726 0.023650 -0.023903 -10644.300000 1 0 0
6.445478 -14.159623 -8.314129 17.639837 -1.143625 2.061591 0.007628 0.006398 -1743780.000000 1 0 0
-3.961722 -16.863223 -5.901129 18.299914 1.340048 1.899131 0.008452 -0.008611 -207834.000000 1 0 0
-3.707122 -13.764223 -13.119129 19.372871 1.307709 2.314734 0.032640 0.006953 -1013890.000000 1 0 0
-8.156922 -14.674823 -4.702029 17.435449 1.063477 1.843859 0.001169 -0.009136 -1171520.000000 1 0 0
-4.525022 -14.362323 10.048271 18.103035 1.265579 0.982361 0.013361 -0.012142 -407013.000000 1 0 0
-0.239122 -12.044123 -10.135629 15.743222 1.550945 2.270262 0.012082 0.002561 345772.000000 1 0 0
2.340078 -17.189723 6.671971 18.587031 -1.435496 1.203645 0.018029 -0.015867 121802.000000 1 0 0
-2.950722 -19.052223 -3.478529 19.590664 1.417142 1.749303 0.010036 -0.019215 115837.000000 1 0 0
0.618278 -15.425323 -3.084229 15.742786 -1.530736 1.767986 0.017877 -0.008430 331072.000000 1 0 0
5.894678 -17.984223 0.594871 18.934977 -1.254062 1.539375 0.033852 -0.012108 -199528.000000 1 0 0
-7.039822 -16.813223 3.884871 18.636946 1.174268 1.360806 0.013044 0.002447 742436.000000 1 0 0
-5.218922 -13.443723 -9.506629 17.272719 1.200499 2.153620 0.011253 -0.008871 -311063.000000 1 0 0
5.763978 -15.303123 -2.055029 16.481267 -1.210577 1.695810 0.022561 -0.002856 -1188760.000000 1 0 0
-8.872422 -10.214723 -0.486229 13.538717 0.855607 1.606718 0.000836 -0.000494 -380571.000000 1 0 0
-7.643122 -17.919523 -3.235429 19.748281 1.167635 1.735372 0.018850 -0.024247 682906.000000 1 0 0
7.998578 -15.953523 -1.099829 17.880206 -1.106055 1.632346 0.027059 -0.006982 -254559.000000 1 0 0
-8.184522 -10.146823 -9.530129 16.148305 0.892038 2.202057 0.004499 -0.009832 -680562.000000 1 0 0
-9.131622 -15.189123 -7.029629 19.065981 1.029499 1.948407 0.012664 -0.014691 -358739.000000 1 0 0
-11.489922 -10.418123 -11.890929 19.543535 0.736515 2.224881 0.021862 -0.001182 -177277.000000 1 0 0
6.606978 -16.299523 2.446471 17.757022 -1.185688 1.432582 0.027418 -0.007854 325345.000000 1 0 0
-2.174522 -11.189223 -6.150829 12.952218 1.378848 2.065631 0.012427 -0.002913 -595307.000000 1 0 0
-12.278922 -15.270523 -3.415029 19.890279 0.893565 1.743345 0.014687 -0.011028 -117938.000000 1 0 0
-0.434122 -19.543223 -2.610129 19.721531 1.548587 1.703535 0.034336 -0.028398 276167.000000 1 0 0
-5.808222 -15.619923 -4.727229 17.322359 1.214793 1.847200 0.006180 -0.011564 -2545480.000000 1 0 0
1.958378 -16.066423 -0.925529 16.211779 -1.449502 1.627917 0.024674 -0.011356 843490.000000 1 0 0
-13.214222 -11.970623 5.221071 18.578780 0.736059 1.285936 0.020439 -0.008879 436775.000000 1 0 0
2.062778 -15.271923 -8.757029 17.724904 -1.436539 2.087541 0.014364 0.007283 -1620210.000000 1 0 0
-11.908122 -16.600823 0.530871 20.437038 0.948540 1.544817 0.038046 -0.008264 211008.000000 1 0 0
-7.756422 -16.579023 -0.975129 18.329674 1.133202 1.624021 0.008081 -0.002005 587528.000000 1 0 0
-2.969222 -14.492523 -1.726129 14.893925 1.368713 1.686952 0.008960 -0.007423 860868.000000 1 0 0
-1.756422 -10.502023 -13.195329 16.955654 1.405084 2.462632 0.014659 -0.001504 -215242.000000 1 0 0
1.447878 -19.711923 4.655871 20.305994 -1.497476 1.339453 0.020437 -0.013536 110547.000000 1 0 0
-17.483322 -9.452323 2.326471 20.010633 0.495635 1.454271 0.020051 -0.007940 -301877.000000 1 0 0
-2.710022 -15.775723 -8.099629 17.939388 1.400672 2.039242 0.011633 -0.003543 -732449.000000 1 0 0
-10.494722 -12.213823 0.213771 16.104731 0.860957 1.557522 0.006081 0.000942 371271.000000 1 0 0
-6.874522 -11.413323 -6.522429 14.834590 1.028670 2.026035 0.006474 -0.011291 -128903.000000 1 0 0
-2.306322 -13.640123 -6.729929 15.383888 1.403297 2.023575 0.004530 -0.002776 627986.000000 1 0 0
-14.261722 -14.418623 -1.176929 20.314491 0.790869 1.628764 0.034492 -0.004129 -176582.000000 1 0 0
-9.598422 -11.342823 -4.380529 15.491235 0.868506 1.857482 0.006748 -0.011625 99516.100000 1 0 0
9.589178 -15.166623 -5.138829 18.665110 -1.006997 1.849716 0.020744 -0.003627 84191.000000 1 0 0
-5.622522 -10.819923 -9.439329 15.420260 1.091556 2.229558 0.011003 -0.006837 81793.200000 1 0 0
-10.371722 -16.041523 -4.991029 19.743693 0.996847 1.826360 0.013797 -0.013105 -2136130.000000 1 0 0
2.192178 -17.430923 -3.208029 17.858728 -1.445689 1.751410 0.030968 -0.015045 654995.000000 1 0 0
-0.375022 -14.516423 -8.150129 16.652080 1.544968 2.082239 0.007723 0.000509 -159472.000000 1 0 0
-0.697822 -18.371123 -7.086529 19.702893 1.532830 1.938710 0.022511 -0.006476 317469.000000 1 0 0
-1.797822 -9.998623 -10.604229 14.685172 1.392890 2.377636 0.012363 -0.000101 392734.000000 1 0 0
-5.129522 -17.441823 2.113471 18.302894 1.284767 1.455066 0.010117 -0.001559 616294.000000 1 0 0
0.273278 -12.812423 -2.655129 13.087496 -1.549470 1.775090 0.010959 -0.002073 -1444180.000000 1 0 0
2.618478 -14.971923 3.037871 15.499792 -1.397655 1.373525 0.013981 -0.009430 -505779.000000 1 0 0
-9.411222 -13.149023 6.825971 17.551689 0.949588 1.171352 0.010352 -0.011768 -485294.000000 1 0 0
-0.951222 -17.887223 -4.499029 18.468861 1.517668 1.816873 0.020014 -0.014969 -418784.000000 1 0 0
-9.995222 -17.360123 -2.108729 20.142618 1.048393 1.675678 0.029694 -0.019850 448350.000000 1 0 0
1.289178 -16.175923 1.455171 16.292329 -1.491267 1.481361 0.015480 -0.014143 51789.900000 1 0 0
-0.398722 -18.010623 4.148671 18.486562 1.548662 1.344453 0.018688 -0.016767 -994687.000000 1 0 0
-17.408922 -9.073023 -0.188429 19.632264 0.480440 1.580394 0.007581 -0.006783 626306.000000 1 0 0
-14.602122 -7.302823 -10.791329 19.570538 0.463744 2.154846 0.042253 -0.016772 417552.000000 1 0 0
2.998578 -12.714823 -8.877529 15.794578 -1.339195 2.167673 0.004356 0.005210 651207.000000 1 0 0
-11.483222 -14.534923 2.005571 18.631980 0.902156 1.462946 0.014782 0.000362 -320518.000000 1 0 0
-2.217822 -15.487723 10.432171 18.804746 1.428565 0.982719 0.013719 -0.013844 -609375.000000 1 0 0
-7.057822 -15.962723 1.384971 17.508270 1.154495 1.491610 0.006637 0.004039 -1767970.000000 1 0 0
-12.512122 -15.218723 -6.045729 20.608579 0.882693 1.868536 0.016227 -0.013566 176069.000000 1 0 0
0.905678 -13.764023 -5.072629 14.696943 -1.505091 1.923193 0.011332 -0.000617 811703.000000 1 0 0
6.055078 -16.532823 -7.634129 19.190574 -1.219723 1.979921 0.029014 -0.000364 543925.000000 1 0 0
-6.595422 -12.947623 5.842371 15.661220 1.099663 1.188505 0.011315 -0.005102 47996.200000 1 0 0
-2.567122 -13.589623 0.652671 13.845358 1.384093 1.523639 0.012904 -0.005638 1631100.000000 1 0 0
-4.364122 -15.559023 0.225071 16.161046 1.297335 1.556869 0.006024 -0.003853 331520.000000 1 0 0
-17.726722 -7.544223 -2.343129 19.407272 0.402366 1.691826 0.013053 -0.008846 459786.000000 1 0 0
1.296678 -12.724023 -11.951929 17.505163 -1.469239 2.322338 0.005587 0.008748 -31973.000000 1 0 0
1.204378 -17.105723 -5.675729 18.062950 -1.500504 1.890431 0.027616 -0.010847 -16560.500000 1 0 0
-12.738922 -6.391623 -9.119729 16.920473 0.465038 2.140017 0.016250 -0.010184 253103.000000 1 0 0
-11.559622 -13.364123 -8.633629 19.666321 0.857673 2.025288 0.017693 -0.024490 -364530.000000 1 0 0
-4.348822 -9.909723 3.381871 11.338073 1.157258 1.267911 0.009783 -0.001066 -4927890.000000 1 0 0
-7.123822 -14.285823 9.673871 18.665941 1.108218 1.025977 0.009582 -0.014655 -560440.000000 1 0 0
-5.257622 -15.793923 -8.038629 18.485403 1.249446 2.020683 0.016653 -0.018864 -551405.000000 1 0 0
-0.225322 -13.417123 2.114871 13.584647 1.554004 1.414480 0.014180 -0.007671 960298.000000 1 0 0
-10.926122 -13.536323 -4.748229 18.032134 0.891698 1.837259 0.013730 -0.014009 -997339.000000 1 0 0
-9.728322 -10.564823 6.627971 15.817260 0.826596 1.138415 0.017849 -0.008413 -1050240.000000 1 0 0
-15.499722 -8.200223 -4.968929 18.225676 0.486621 1.846925 0.022690 -0.010743 -1033720.000000 1 0 0
-14.748122 -7.319223 5.437571 17.339126 0.460669 1.251813 0.027537 -0.003025 73715.200000 1 0 0
-1.651922 -19.384323 0.216171 19.455784 1.485782 1.559685 0.022302 -0.010436 -237634.000000 1 0 0
-15.223922 -11.976923 -1.451829 19.424785 0.666589 1.645607 0.016656 -0.006931 879935.000000 1 0 0
-4.413422 -12.067723 -6.807629 14.541390 1.220185 2.057998 0.005958 -0.006919 148515.000000 1 0 0
-7.612522 -18.388923 1.852071 19.988325 1.178302 1.478006 0.018462 0.001294 139627.000000 1 0 0
-2.397722 -11.818523 -8.664729 14.849379 1.370635 2.193838 0.008329 -0.000959 996482.000000 1 0 0
-1.154522 -20.407023 -4.977229 21.036927 1.514282 1.809656 0.030384 -0.015925 18645.900000 1 0 0
-5.298322 -8.905323 -13.888529 17.328249 1.034090 2.500590 0.015276 -0.001948 439516.000000 1 0 0
-8.352922 -19.108523 -1.068629 20.881784 1.158696 1.621994 0.007894 0.003107 148860.000000 1 0 0
-17.308222 -7.193623 5.806171 19.622293 0.393898 1.270402 0.038617 -0.004514 1194140.000000 1 0 0
-3.587722 -14.748123 -4.222429 15.754611 1.332165 1.842126 0.006300 -0.007329 -2197110.000000 1 0 0
-2.998822 -14.818823 -10.832829 18.599479 1.371127 2.192507 0.020315 -0.002938 59109.500000 1 0 0
-0.189422 -16.642923 6.256171 17.780957 1.559415 1.211253 0.024645 -0.018682 -1293240.000000 1 0 0
-11.236222 -11.546923 3.753271 16.543009 0.799035 1.341924 0.014060 -0.006369 363182.000000 1 0 0
-0.216622 -14.666623 -0.110329 14.668637 1.556028 1.578318 0.010377 -0.005403 688224.000000 1 0 0
-7.365822 -9.434623 -2.493529 12.226411 0.907921 1.776183 0.005849 -0.003285 -701390.000000 1 0 0
-11.268722 -14.460423 -0.713729 18.346589 0.908818 1.609709 0.015087 -0.005779 -134130.000000 1 0 0
0.264378 -14.634223 -10.641729 18.096319 -1.552733 2.199455 0.008609 0.005456 53322.800000 1 0 0
-1.410022 -13.979123 -3.872329 14.573914 1.470270 1.839729 0.009247 -0.003933 -3049170.000000 1 0 0
-11.324822 -8.104723 -7.665429 15.896443 0.621159 2.073972 0.003247 -0.009173 621182.000000 1 0 0
-0.282122 -17.294223 -0.084229 17.296729 1.554485 1.575666 0.017058 -0.016109 -56690.500000 1 0 0
-12.978022 -9.448523 4.563071 16.689076 0.629298 1.293853 0.016867 -0.005906 -459300.000000 1 0 0
3.993078 -16.657223 1.534071 17.197707 -1.335516 1.481476 0.023695 -0.017970 1740910.000000 1 0 0
-3.972422 -18.007523 -8.173429 20.170670 1.353676 1.988009 0.019653 -0.013610 285974.000000 1 0 0
-13.442422 -11.183823 2.660571 17.687714 0.693939 1.419804 0.012509 -0.004219 344813.000000 1 0 0
-8.664422 -12.296723 4.198071 15.617471 0.956982 1.298643 0.012405 -0.004927 1106070.000000 1 0 0
-8.267022 -9.420423 -5.833029 13.824335 0.850516 2.006379 0.008773 -0.009802 -1241740.000000 1 0 0
3.746478 -17.456623 -5.335329 18.634256 -1.359387 1.861178 0.017591 -0.004652 269119.000000 1 0 0
-2.690922 -12.997823 11.305271 17.435413 1.366652 0.865304 0.015124 -0.012506 98434.800000 1 0 0
0.227078 -16.870123 -9.331429 19.280253 -1.557337 2.076004 0.025686 0.002272 -224641.000000 1 0 0
-7.054122 -10.574623 -14.538529 19.311968 0.982507 2.423140 0.020837 0.002492 -1124500.000000 1 0 0
-4.699622 -18.878523 -1.554829 19.516725 1.326815 1.650547 0.016609 -0.013459 -452211.000000 1 0 0
-2.591122 -17.242723 1.222571 17.479133 1.421639 1.500795 0.019861 -0.012358 200037.000000 1 0 0
4.105178 -14.659323 -7.457229 16.951651 -1.297752 2.026297 0.014075 0.002856 123515.000000 1 0 0
-1.064922 -15.926223 -6.096729 17.086507 1.504030 1.935653 0.010121 -0.006542 -387343.000000 1 0 0
-9.660622 -15.386423 8.310571 19.978369 1.010138 1.141778 0.012822 -0.008956 -279828.000000 1 0 0
-7.187722 -12.005723 -1.789929 14.106898 1.031340 1.698022 0.002883 -0.004015 1039690.000000 1 0 0
-7.212622 -15.056723 -9.333629 19.127034 1.124065 2.080571 0.013459 -0.012528 -280367.000000 1 0 0
-5.078222 -13.209123 -0.597029 14.164240 1.203768 1.612959 0.005782 -0.003169 2925940.000000 1 0 0
-6.470622 -13.627323 -7.297429 16.757844 1.127489 2.021349 0.007832 -0.014033 478901.000000 1 0 0
5.841478 -15.348223 0.310071 16.425192 -1.207128 1.551917 0.021131 -0.005243 -291034.000000 1 0 0
-14.392122 -12.761523 0.914871 19.256859 0.725419 1.523270 0.006846 -0.006246 1100420.000000 1 0 0
0.740978 -15.156423 10.947671 18.711432 -1.521946 0.945819 0.025648 -0.022005 -192934.000000 1 0 0
-9.390822 -10.821523 1.979271 14.464107 0.856064 1.433525 0.006307 -0.002147 287574.000000 1 0 0
-9.432222 -8.860623 -3.591429 13.430406 0.754161 1.841501 0.006496 -0.006558 -726957.000000 1 0 0
-12.087122 -7.117923 -12.329929 18.675933 0.532206 2.291887 0.027016 -0.007400 -1810150.000000 1 0 0
-13.327422 -8.478323 -0.679129 15.810229 0.566582 1.613765 0.008025 -0.002227 261439.000000 1 0 0
-11.294022 -9.742223 0.529271 14.924676 0.711764 1.535326 -0.000117 -0.001532 440668.000000 1 0 0
-15.905222 -12.114223 2.947971 20.209429 0.650916 1.424403 0.031912 -0.006708 291882.000000 1 0 0
-10.497622 -12.731023 -2.316629 16.662706 0.881252 1.710279 0.014554 -0.007923 117984.000000 1 0 0
-3.401622 -8.860323 -11.996329 15.296674 1.204232 2.472273 0.014092 -0.001570 -664036.000000 1 0 0
-0.348922 -15.526723 3.780971 15.984261 1.548328 1.331990 0.018663 -0.011099 -572499.000000 1 0 0
-15.756822 -7.714923 1.215671 17.586225 0.455313 1.501615 -0.001025 -0.000737 291371.000000 1 0 0
-6.221522 -13.311823 -13.378329 19.871880 1.133593 2.309364 0.031800 0.000721 -94246.700000 1 0 0
-15.437522 -10.305623 1.020771 18.589376 0.588628 1.515857 0.011827 -0.003291 153588.000000 1 0 0
-9.877422 -8.345223 -12.518429 17.997702 0.701513 2.339991 -0.002519 -0.005007 60240.900000 1 0 0
-13.118922 -11.593123 -6.308329 18.609181 0.723733 1.916640 0.010559 -0.013106 -260504.000000 1 0 0
-12.116422 -11.487423 -3.909029 17.147859 0.758756 1.800778 0.001530 -0.007415 -2099020.000000 1 0 0
-11.583022 -10.797723 -8.942829 18.186022 0.750324 2.084885 0.010505 -0.024242 -574919.000000 1 0 0
-13.141122 -8.503023 -5.908329 16.730177 0.574302 1.931737 0.005922 -0.012396 -1261770.000000 1 0 0
-13.501922 -8.162323 -3.270129 16.112701 0.543744 1.775170 0.006524 -0.007074 200952.000000 1 0 0
-4.390022 -16.922423 -3.173229 17.768232 1.316971 1.750350 0.008568 -0.015525 609526.000000 1 0 0
-15.495522 -8.815523 -1.880929 17.926587 0.517244 1.675914 0.012829 -0.004269 -2440840.000000 1 0 0
-9.421822 -15.825623 3.701571 18.786237 1.033801 1.372462 0.007772 0.004482 -1848090.000000 1 0 0
4.531878 -17.220523 8.033271 19.535039 -1.313464 1.147000 0.029541 -0.021653 180702.000000 1 0 0
-8.428022 -15.572323 6.045671 18.710396 1.074720 1.241774 0.013685 0.001219 331727.000000 1 0 0
0.810478 -16.155823 8.525471 18.285271 -1.520672 1.085752 0.015079 -0.012507 351008.000000 1 0 0
-10.887222 -7.841023 -10.233729 16.874313 0.624158 2.222407 0.010304 -0.007610 803959.000000 1 0 0
-4.891122 -16.004423 5.735671 17.690747 1.274200 1.240611 0.011092 -0.008869 221963.000000 1 0 0
-1.263722 -13.217923 -12.289629 18.092690 1.475479 2.317549 0.012626 0.007791 -512757.000000 1 0 0
-6.513222 -14.354223 -2.584729 15.973309 1.144829 1.733326 0.006795 -0.009002 715421.000000 1 0 0
-17.539222 -6.900623 -7.302629 20.213146 0.374838 1.940438 0.040252 -0.021374 197170.000000 1 0 0
-17.165722 -3.927823 -10.236329 20.368412 0.224945 2.097352 0.052368 -0.017152 569080.000000 1 0 0
-15.168822 -5.322323 -9.185429 18.514653 0.337452 2.089917 0.027876 -0.016428 602381.000000 1 0 0
-16.018822 -5.418223 -5.672229 17.836310 0.326161 1.894432 0.022770 -0.012995 235712.000000 1 0 0
-15.086622 -4.462523 -12.227329 19.925557 0.287593 2.231472 0.038594 -0.012886 -168510.000000 1 0 0
-18.682222 -5.268723 -5.652429 20.217191 0.274879 1.854158 0.041988 -0.014786 1031360.000000 1 0 0
-17.306222 -4.428823 -7.754929 19.474566 0.250533 1.980359 0.035892 -0.013943 1352980.000000 1 0 0
12.196278 -7.798423 8.717371 16.898437 -0.568895 1.028775 0.037102 -0.010918 465176.000000 1 0 0
16.099878 -3.249323 1.818771 16.524893 -0.199148 1.460510 0.033675 -0.008151 1394230.000000 1 0 0
12.063578 -2.186623 12.567471 17.557123 -0.179311 0.773021 0.037860 -0.007473 -259300.000000 1 0 0
9.609878 -10.001423 5.190071 14.809289 -0.805361 1.212734 0.002136 -0.003654 -229590.000000 1 0 0
16.896078 -1.780723 7.115571 18.419549 -0.105005 1.174174 0.066255 -0.022688 248792.000000 1 0 0
5.079778 -12.851923 9.100671 16.546851 -1.194388 0.988439 0.005485 -0.002195 236875.000000 1 0 0
15.132178 -9.116823 -2.109429 17.791823 -0.542240 1.689638 0.021942 -0.003590 364416.000000 1 0 0
11.153978 -8.549723 6.382371 15.435143 -0.653989 1.144506 0.018624 -0.006756 -1615030.000000 1 0 0
19.940678 -3.077823 3.561271 20.488687 -0.153140 1.396093 0.068092 -0.013708 220.099000 1 0 0
13.589078 -8.492223 6.808671 17.410884 -0.558549 1.169015 0.042732 -0.012164 -1964870.000000 1 0 0
8.313978 -11.084723 8.753471 16.389526 -0.927270 1.007366 0.001300 0.000252 -555509.000000 1 0 0
16.971778 0.173177 -0.656729 16.985362 0.010203 1.609470 0.030786 -0.002293 385836.000000 1 0 0
12.375078 -12.344723 2.306971 17.631133 -0.784170 1.439574 0.018376 -0.005480 -3160170.000000 1 0 0
10.317878 -11.700623 3.535371 15.995688 -0.848115 1.347936 0.012372 -0.004013 -1530150.000000 1 0 0
16.305578 3.069977 2.315471 16.752852 0.186099 1.432139 0.027912 -0.009555 -160083.000000 1 0 0
18.395878 -3.217423 0.447971 18.680493 -0.173148 1.546813 0.046891 -0.006093 803140.000000 1 0 0
13.419978 -11.680423 -0.282629 17.793481 -0.716205 1.586681 0.024207 0.001288 -395991.000000 1 0 0
16.952478 -7.582923 -0.832229 18.589778 -0.420610 1.615579 0.037164 -0.003133 196288.000000 1 0 0
10.024978 -5.687423 9.796571 15.126790 -0.516047 0.866326 0.019778 -0.007557 453473.000000 1 0 0
11.177878 -13.041823 6.112871 18.231876 -0.862207 1.228889 0.029484 -0.005366 -176170.000000 1 0 0
13.004378 -1.871923 10.116271 16.581824 -0.142964 0.914632 0.042530 -0.016899 637587.000000 1 0 0
15.598278 -2.038323 -1.302329 15.784711 -0.129940 1.653396 0.019827 -0.005570 -881604.000000 1 0 0
10.470678 -12.381223 9.153871 18.620503 -0.868810 1.056868 0.027262 -0.007381 -408604.000000 1 0 0
14.526378 1.267377 3.159971 14.920031 0.087026 1.357386 0.023542 -0.006780 1499490.000000 1 0 0
14.882978 -5.838123 5.336171 16.854122 -0.373824 1.248644 0.049255 -0.014909 -296641.000000 1 0 0
14.308078 -3.457723 -2.931229 15.008966 -0.237116 1.767358 0.009433 -0.004304 1148570.000000 1 0 0
13.981078 0.616877 9.486771 16.907097 0.044094 0.975068 0.045921 -0.019453 142230.000000 1 0 0
15.467878 -3.497123 4.474771 16.477521 -0.222351 1.295774 0.040384 -0.010619 -1231850.000000 1 0 0
18.533078 4.989277 -4.182129 19.643270 0.262975 1.785342 0.023043 -0.009199 590620.000000 1 0 0
18.083278 -5.886923 -5.138529 19.699373 -0.314725 1.834696 0.052756 -0.014186 627938.000000 1 0 0
17.475778 0.141977 5.745471 18.396560 0.008124 1.253170 0.068459 -0.014988 797218.000000 1 0 0
16.982778 -6.574723 3.960671 18.636755 -0.369372 1.356644 0.054423 -0.016396 415765.000000 1 0 0
9.581278 -6.648123 14.307971 18.458507 -0.606597 0.683856 0.020779 -0.000766 -991795.000000 1 0 0
8.578178 -12.310323 5.164771 15.868335 -0.962202 1.239281 0.005350 -0.005366 -2126530.000000 1 0 0
16.852478 -10.242923 -0.500929 19.727504 -0.546134 1.596191 0.036527 0.001438 -74911.700000 1 0 0
14.978778 -8.735323 0.385971 17.344124 -0.527960 1.548541 0.033597 -0.005542 -6257.960000 1 0 0
10.017478 -12.927723 1.484871 16.421959 -0.911559 1.480253 0.017339 -0.007924 -4161.040000 1 0 0
16.789178 -8.139323 9.021071 20.724498 -0.451410 1.120441 0.073413 -0.011662 557351.000000 1 0 0
19.159678 -0.058923 -2.168229 19.282063 -0.003075 1.683483 0.053273 -0.004448 -359341.000000 1 0 0
13.471578 -1.192523 7.679671 15.552584 -0.088291 1.054356 0.033117 -0.016607 -334892.000000 1 0 0
12.841778 -9.889323 -3.056829 16.494065 -0.656235 1.757203 0.015311 -0.002874 -122972.000000 1 0 0
8.918978 -15.321223 1.553271 17.796086 -1.043618 1.483404 0.026299 -0.002657 -469593.000000 1 0 0
11.398578 -8.331423 11.148771 17.989866 -0.631176 0.902404 0.030755 -0.008700 719816.000000 1 0 0
13.933478 -3.995023 -0.467829 14.502444 -0.279230 1.603061 0.016008 -0.005401 -466036.000000 1 0 0
7.222778 -13.379923 10.549371 18.506218 -1.075801 0.964236 0.015359 0.000792 -311323.000000 1 0 0
15.438578 -6.728823 1.787571 16.935825 -0.411020 1.465050 0.024642 -0.004966 1441500.000000 1 0 0
15.855678 -6.234523 -2.650729 17.242336 -0.374634 1.725142 0.035760 -0.006693 714147.000000 1 0 0
11.095778 -8.506123 3.790671 14.485841 -0.654046 1.306033 0.013687 -0.007760 819281.000000 1 0 0
10.679778 -14.497423 -0.394829 18.010797 -0.935883 1.592720 0.040885 -0.008714 866369.000000 1 0 0
13.367578 -12.747123 4.713271 19.062954 -0.761644 1.320958 0.030415 -0.000745 -102584.000000 1 0 0
12.789078 -11.034823 6.529871 18.109861 -0.711897 1.201917 0.029927 -0.003657 -816576.000000 1 0 0
10.884778 -10.475523 1.368171 15.168614 -0.766241 1.480476 0.008332 -0.006495 600785.000000 1 0 0
13.870478 -7.510623 11.889971 19.752747 -0.496280 0.924868 0.054842 -0.014844 547910.000000 1 0 0
15.249678 -1.806223 -4.855729 16.105689 -0.117894 1.877053 0.021450 -0.006957 -626197.000000 1 0 0
12.995978 -11.434523 -7.070029 18.698371 -0.721571 1.958550 0.036429 -0.006028 -893954.000000 1 0 0
17.699678 -5.274423 1.915171 18.567876 -0.289617 1.467468 0.062577 -0.006087 450141.000000 1 0 0
10.569678 -9.774923 9.110771 17.037411 -0.746353 1.006583 0.015330 -0.002850 -849344.000000 1 0 0
16.300878 1.847077 9.801571 19.110236 0.112830 1.032241 0.068523 -0.022351 368927.000000 1 0 0
18.108378 3.703077 0.528171 18.490676 0.201714 1.542228 0.022490 -0.006790 375625.000000 1 0 0
13.224478 -3.879023 5.755271 14.935086 -0.285318 1.175207 0.027832 -0.015051 -1508170.000000 1 0 0
12.059478 -6.161023 6.599971 15.064821 -0.472319 1.117307 0.022734 -0.013206 118724.000000 1 0 0
16.468978 -10.145623 3.449671 19.648438 -0.552133 1.394312 0.029605 -0.007131 -147594.000000 1 0 0
16.215878 -8.118523 -5.601329 18.979989 -0.464170 1.870375 0.043555 -0.009323 -215460.000000 1 0 0
14.015878 -0.275223 5.291271 14.983929 -0.019634 1.209882 0.026690 -0.011844 1533360.000000 1 0 0
18.415078 -4.266723 5.369471 19.650731 -0.227680 1.294031 0.079244 -0.011732 442819.000000 1 0 0
13.451078 -13.442523 7.266571 20.357701 -0.785080 1.205801 0.043456 -0.000404 -181305.000000 1 0 0
14.959278 -13.675323 -0.908929 20.288435 -0.740589 1.615612 0.027512 0.004517 494967.000000 1 0 0
17.933678 -6.043423 8.024571 20.555620 -0.325036 1.169748 0.088987 -0.013601 -1052140.000000 1 0 0
14.225278 3.237577 9.226971 17.262023 0.223781 1.006852 0.043110 -0.019243 -203551.000000 1 0 0
18.779378 3.944177 2.989071 19.420508 0.207018 1.416269 0.046342 -0.013619 -642117.000000 1 0 0
14.861678 -10.482423 8.016371 19.874931 -0.614296 1.155631 0.055095 -0.012795 -415468.000000 1 0 0
14.925378 -4.715823 10.270271 18.721228 -0.306034 0.990120 0.071302 -0.024647 464150.000000 1 0 0
17.854578 -7.829023 1.919771 19.589923 -0.413240 1.472641 0.071086 -0.007307 7360.150000 1 0 0
18.462178 -5.906523 -2.023029 19.489271 -0.309635 1.674786 0.047198 -0.007090 -194326.000000 1 0 0
14.380378 -13.107523 -5.568229 20.238765 -0.739125 1.849518 0.043661 -0.005012 1253770.000000 1 0 0
15.403178 -1.516923 9.351471 18.083389 -0.098165 1.027301 0.080643 -0.023925 -1571800.000000 1 0 0
12.997178 -9.979423 10.010071 19.202006 -0.654805 1.022419 0.036561 -0.017156 -964090.000000 1 0 0
16.617678 2.142577 4.733071 17.410911 0.128226 1.295486 0.044692 -0.013405 -1452640.000000 1 0 0
15.009478 2.443377 0.017571 15.207065 0.161373 1.569641 0.013792 -0.003652 -1133800.000000 1 0 0
15.067378 -9.945023 -6.949329 19.344832 -0.583399 1.938244 0.041144 -0.010395 334790.000000 1 0 0
16.279878 -0.154423 -3.127229 16.578234 -0.009485 1.760568 0.026242 -0.004022 -290445.000000 1 0 0
12.049078 2.562077 13.481871 18.262130 0.209516 0.740336 0.040172 -0.014168 -211765.000000 1 0 0
17.681178 -2.866223 9.376371 20.217706 -0.160708 1.088550 0.074934 -0.025717 811851.000000 1 0 0
7.511578 -18.201423 4.613271 20.223696 -1.179397 1.340658 0.041270 -0.014782 -765988.000000 1 0 0
6.791978 -11.163523 6.563371 14.623031 -1.024217 1.105332 -0.001219 -0.003870 -147022.000000 1 0 0
18.034178 2.327077 -1.692529 18.262298 0.128328 1.663608 0.031679 -0.004520 689955.000000 1 0 0
17.543278 -2.340623 3.771871 18.096191 -0.132637 1.360822 0.042260 -0.012116 -2368890.000000 1 0 0
12.569678 -13.552823 -1.996129 18.591943 -0.823016 1.678369 0.023788 0.002157 546475.000000 1 0 0
14.927578 -8.180223 4.411871 17.584460 -0.501302 1.317191 0.035917 -0.008949 -331437.000000 1 0 0
11.822078 -3.090023 14.898671 19.268632 -0.255658 0.686911 0.037835 -0.010671 265162.000000 1 0 0
12.010778 -13.701923 -6.439429 19.325313 -0.851074 1.910505 0.013459 -0.008566 -607521.000000 1 0 0
10.596278 -12.043923 -1.191029 16.085886 -0.849253 1.644906 0.017901 -0.006482 -842068.000000 1 0 0
13.167878 -7.991523 2.079771 15.542937 -0.545474 1.436586 0.022943 -0.004469 1333700.000000 1 0 0
8.694778 -7.900523 10.025671 15.444465 -0.737574 0.864339 0.006651 -0.001922 -1839800.000000 1 0 0
15.638578 -3.656323 7.960171 17.924791 -0.229676 1.110641 0.073720 -0.022558 -158462.000000 1 0 0
9.871778 -17.485423 5.487071 20.815858 -1.056834 1.304043 0.041634 -0.007189 -320023.000000 1 0 0
15.345078 -6.183423 8.189671 18.460142 -0.383054 1.111139 0.070212 -0.016377 78062.700000 1 0 0
16.618578 -4.922823 -0.437129 17.337889 -0.287989 1.596011 0.031257 -0.004585 -470414.000000 1 0 0
13.870678 -10.506223 3.398571 17.729261 -0.648246 1.377910 0.028712 -0.004401 875972.000000 1 0 0
15.145778 -10.082723 -4.379429 18.714574 -0.587341 1.806998 0.041239 -0.009643 903153.000000 1 0 0
13.554078 -6.556623 -0.116529 15.057088 -0.450554 1.578536 0.014859 -0.004345 -98887.400000 1 0 0
17.701078 -0.957123 -5.049329 18.432037 -0.054019 1.848287 0.031088 -0.010745 726000.000000 1 0 0
14.565078 0.308377 -1.525229 14.647966 0.021169 1.675111 0.015143 -0.003301 -2526770.000000 1 0 0
4.887278 -12.930123 11.674871 18.093540 -1.209419 0.869445 0.007268 -0.002443 -366215.000000 1 0 0
11.920178 -7.471123 13.494171 19.493614 -0.559866 0.806214 0.028054 -0.007649 601090.000000 1 0 0
11.998478 -5.785923 11.465771 17.575673 -0.449324 0.860094 0.034971 -0.011893 930560.000000 1 0 0
13.261778 -4.531623 8.334571 16.305687 -0.329266 1.034280 0.041510 -0.017608 -1128360.000000 1 0 0
15.390078 -1.165723 3.223471 15.767187 -0.075601 1.364903 0.034421 -0.006217 384855.000000 1 0 0
15.150078 -10.323423 5.672371 19.190459 -0.598141 1.270731 0.047391 -0.009319 402263.000000 1 0 0
13.658978 -8.207323 -5.560929 16.877552 -0.541062 1.906556 0.030051 -0.008713 -2536510.000000 1 0 0
9.639978 -2.276723 13.608771 16.831854 -0.231925 0.629176 0.020244 -0.004278 -580403.000000 1 0 0
9.812178 -9.192423 13.746971 19.229111 -0.752799 0.774309 0.030074 0.002226 405645.000000 1 0 0
20.373878 6.368977 -2.862029 21.537177 0.302981 1.704078 0.058271 -0.015164 -155354.000000 1 0 0
10.979878 -3.473023 10.621071 15.666102 -0.306350 0.825805 0.021003 -0.009464 1065180.000000 1 0 0
10.215878 -14.093423 -2.860029 17.639969 -0.943574 1.733649 0.021106 -0.002374 314284.000000 1 0 0
14.871378 -12.743123 2.476671 19.740288 -0.708480 1.445002 0.030593 0.006381 1396610.000000 1 0 0
11.342978 -0.524923 14.327971 18.281944 -0.046244 0.670160 0.035731 -0.011957 435409.000000 1 0 0
19.119478 -1.804923 5.789471 20.058170 -0.094123 1.277996 0.077535 -0.016520 323998.000000 1 0 0
18.921478 -0.196023 7.937471 20.519849 -0.010359 1.173617 0.072016 -0.018761 457095.000000 1 0 0
19.297878 0.873077 0.197471 19.318627 0.045211 1.560574 0.060174 -0.010262 -263983.000000 1 0 0
18.757278 1.002577 3.657371 19.136797 0.053399 1.378496 0.056243 -0.012658 218965.000000 1 0 0
16.660178 -3.870623 -4.118129 17.592676 -0.228278 1.807071 0.034213 -0.009091 -1057390.000000 1 0 0
11.083378 -8.201023 15.814271 20.980687 -0.637031 0.717041 0.050633 -0.009310 569307.000000 1 0 0
16.553078 -7.501823 6.406271 19.269718 -0.425510 1.231893 0.060284 -0.012014 825230.000000 1 0 0
18.871778 2.381677 5.885571 19.911212 0.125539 1.270722 0.061061 -0.015234 6356.930000 1 0 0
15.312078 1.578377 7.475571 17.112428 0.102718 1.118702 0.050500 -0.022203 22767.600000 1 0 0
8.607778 -15.854023 4.027471 18.484166 -1.073390 1.351147 0.021501 -0.008125 1037430.000000 1 0 0
11.426278 -15.120123 2.061171 19.063745 -0.923657 1.462465 0.038145 -0.002555 -45653.500000 1 0 0
7.694178 -16.149123 6.260871 18.952389 -1.126169 1.234125 0.023233 -0.007918 -331172.000000 1 0 0
14.556278 -11.738023 -2.541929 18.871349 -0.678625 1.705905 0.026012 -0.000653 603975.000000 1 0 0
13.715078 -4.849523 3.269171 14.910021 -0.339870 1.349740 0.024046 -0.007263 -2488510.000000 1 0 0
-1.013322 10.305777 -5.576329 11.761433 -1.472786 2.064760 0.002003 -0.000524 -2718510.000000 1 0 0
8.348078 -1.713923 -7.915729 11.631281 -0.202494 2.319316 0.001840 0.002027 -2792460.000000 1 0 0
2.963678 -10.109323 7.540771 12.955502 -1.285624 0.949547 -0.001396 -0.003405 705058.000000 1 0 0
-6.275422 1.239677 8.250671 10.439890 -0.195034 0.659494 0.003661 -0.003253 -341521.000000 1 0 0
7.280878 -6.309723 -7.099929 11.967990 -0.714062 2.205878 0.002151 0.000354 250525.000000 1 0 0
-11.403022 -4.519623 -4.159329 12.952062 0.377359 1.897721 0.003234 -0.002368 91944.000000 1 0 0
2.040978 -3.298123 2.903871 4.845170 -1.016646 0.928128 0.003180 -0.001114 1485630.000000 1 0 0
-3.669922 -4.271123 8.966171 10.587872 0.860962 0.560792 0.005686 -0.003737 -1988180.000000 1 0 0
-4.822622 -1.073123 -2.432229 5.506815 0.218951 2.028262 0.007632 -0.001449 -260740.000000 1 0 0
5.086478 -5.197523 -3.637229 8.131170 -0.796196 2.034562 0.006020 -0.004973 350383.000000 1 0 0
2.891678 14.298477 -8.810329 17.042011 1.371251 2.114112 0.011150 -0.008879 -136632.000000 1 0 0
5.351478 -5.531023 13.690771 15.705660 -0.801895 0.512116 0.008325 -0.004914 -1205900.000000 1 0 0
-4.700122 -0.858523 9.768571 10.874428 0.180668 0.454896 0.007709 -0.003400 -2365940.000000 1 0 0
-1.037522 11.978877 -2.614629 12.304724 -1.484399 1.784919 -0.004225 -0.001454 -933248.000000 1 0 0
3.150378 9.429977 -10.594729 14.529199 1.248373 2.387952 0.009765 -0.002582 -584798.000000 1 0 0
-10.770322 2.682877 1.148671 11.158723 -0.244131 1.467674 0.006602 -0.004738 -34809.900000 1 0 0
5.676678 -9.019223 -0.678029 10.678519 -1.009041 1.634334 0.000362 -0.004195 593851.000000 1 0 0
-6.918822 5.347877 9.371971 12.818102 -0.658026 0.750788 0.004211 -0.004808 541405.000000 1 0 0
-5.347222 -1.840623 5.134371 7.638222 0.331517 0.833627 0.009468 -0.005302 731568.000000 1 0 0
6.780478 -3.765523 -7.232129 10.604609 -0.506940 2.321262 0.002275 -0.000713 679123.000000 1 0 0
6.145778 4.704777 11.117271 13.546189 0.653366 0.608172 -0.002637 0.002217 86641.400000 1 0 0
3.718878 -9.882623 3.314571 11.067189 -1.210882 1.266633 -0.001490 -0.004593 1281260.000000 1 0 0
-6.557522 6.677277 -5.812729 11.017030 -0.794446 2.126585 0.005277 -0.002339 -70285.700000 1 0 0
-11.107622 8.347677 5.179971 14.828860 -0.644478 1.213954 -0.000096 -0.006378 132114.000000 1 0 0
-9.202622 -5.501823 5.106971 11.876003 0.538840 1.126277 0.011204 -0.003801 -1066640.000000 1 0 0
3.326178 9.806677 -8.039929 13.110104 1.243798 2.230980 0.006784 -0.003036 591518.000000 1 0 0
-8.116722 -8.588123 5.938171 13.224935 0.813610 1.105136 0.009835 -0.002774 -3291270.000000 1 0 0
-7.786222 -5.750123 -7.527129 12.261600 0.636100 2.231760 0.003138 -0.006227 -261741.000000 1 0 0
9.201078 -1.504723 6.853571 11.571321 -0.162103 0.936899 0.007128 -0.006629 2285710.000000 1 0 0
-4.174422 -0.489023 -4.978529 6.515419 0.116616 2.440464 0.011167 -0.006154 -931714.000000 1 0 0
9.106978 1.161377 -4.428629 10.193066 0.126841 2.020251 -0.000515 0.001235 -2310120.000000 1 0 0
-1.935622 -10.604623 10.682071 15.176011 1.390258 0.789953 0.004861 -0.009037 353861.000000 1 0 0
-12.877122 0.240577 -2.674029 13.154033 -0.018680 1.775509 0.006144 -0.003347 -1187490.000000 1 0 0
-9.805322 -5.212623 -6.168229 12.702866 0.488616 2.077820 0.000402 -0.004123 -1605750.000000 1 0 0
-5.414722 8.209977 -0.129429 9.835634 -0.987751 1.583956 0.001041 -0.002121 40687.700000 1 0 0
6.298978 9.534877 0.393471 11.434414 0.986988 1.536378 0.008534 -0.003183 450765.000000 1 0 0
-0.648622 -12.124823 -0.088029 12.142478 1.517352 1.578046 0.014549 -0.003691 -186718.000000 1 0 0
6.131978 4.670177 2.425871 8.080629 0.650890 1.265885 0.000926 -0.000835 99253.500000 1 0 0
3.609578 -7.562523 -8.169329 11.702937 -1.125475 2.343478 0.005092 0.000012 812272.000000 1 0 0
-6.576422 -9.894123 4.460671 12.690176 0.984171 1.211617 0.008784 -0.001824 -2350530.000000 1 0 0
0.003478 6.442677 -9.161129 11.199749 1.570256 2.528680 0.007777 -0.002707 -2354950.000000 1 0 0
-17.336622 -2.722423 4.273671 18.061958 0.155761 1.331919 0.020158 -0.001657 226353.000000 1 0 0
-8.325622 0.965177 -9.212129 12.454351 -0.115413 2.403378 0.000372 -0.001308 -749433.000000 1 0 0
-10.014322 -5.784323 -11.927829 16.613793 0.523790 2.371645 0.005073 -0.005887 -775931.000000 1 0 0
2.286878 9.277877 6.439871 11.523054 1.329127 0.977776 -0.008197 0.004385 1059060.000000 1 0 0
-11.450522 1.716577 -1.166529 11.637091 -0.148804 1.671207 0.006404 -0.004936 -2018460.000000 1 0 0
-6.018222 -5.384823 -3.096729 8.648991 0.729909 1.936970 0.014894 -0.004224 776150.000000 1 0 0
-6.927922 -8.319023 1.351271 10.910003 0.876384 1.446621 0.011101 -0.001701 -723848.000000 1 0 0
0.146478 10.966977 -7.898329 13.515903 1.557441 2.194903 0.006397 -0.000287 143341.000000 1 0 0
-2.801422 9.209277 -4.210929 10.506697 -1.275495 1.983170 0.003578 -0.002356 -736657.000000 1 0 0
3.321478 -4.825023 9.315271 11.003969 -0.967908 0.561350 -0.001309 0.001614 -681808.000000 1 0 0
-9.010922 1.556877 -0.435929 9.154814 -0.171088 1.618432 0.004972 -0.003379 -220401.000000 1 0 0
2.437478 3.603677 -10.576729 11.436563 0.976095 2.751351 0.008282 -0.002432 472382.000000 1 0 0
-13.816322 0.487677 1.056271 13.865219 -0.035283 1.494541 0.013345 -0.005784 145781.000000 1 0 0
9.506378 -12.619923 -4.995629 16.570757 -0.925197 1.877033 0.018415 -0.003012 -1687820.000000 1 0 0
-4.636922 9.383077 -8.311529 13.365055 -1.111816 2.241944 0.003200 -0.000336 -281349.000000 1 0 0
-2.344822 7.105677 8.383771 11.237280 -1.252055 0.728660 0.000579 0.001655 -1097150.000000 1 0 0
-10.725822 -1.233023 -4.433029 11.671133 0.114456 1.960407 0.002440 -0.001799 -3681610.000000 1 0 0
2.785678 -7.234723 9.626571 12.360101 -1.203250 0.677978 -0.002218 0.000438 -929290.000000 1 0 0
-16.312522 -6.531123 3.439371 17.904838 0.380829 1.377503 0.019123 0.001657 -132634.000000 1 0 0
-10.910922 0.072277 6.183971 12.541728 -0.006624 1.055179 0.008086 -0.006809 -1027070.000000 1 0 0
-8.331522 9.757777 9.294171 15.843298 -0.864081 0.943904 0.004203 -0.010761 -638891.000000 1 0 0
0.273078 -6.100123 -3.742429 7.161832 -1.526060 2.120638 0.004821 -0.001850 562504.000000 1 0 0
4.954478 1.496477 -2.989029 5.976671 0.293332 2.094529 0.001554 -0.000721 112164.000000 1 0 0
0.313378 5.309677 3.868071 6.576690 1.511845 0.942029 -0.001797 0.001482 -1728940.000000 1 0 0
6.104078 -11.299223 -1.541729 12.934803 -1.075492 1.690273 0.002214 -0.004377 -1747100.000000 1 0 0
6.254578 -13.460923 5.176471 15.719798 -1.135829 1.235238 0.003390 -0.007033 -133461.000000 1 0 0
8.243478 -8.392823 -5.960329 13.187870 -0.794375 2.039752 0.002699 -0.001594 765617.000000 1 0 0
-13.198522 -1.353623 -4.744829 14.090659 0.102201 1.914244 0.005461 -0.000099 -3007090.000000 1 0 0
-6.815722 -1.711523 -7.180629 10.047129 0.246027 2.366984 0.006521 -0.002136 -405958.000000 1 0 0
-5.761422 12.936277 -4.490429 14.856150 -1.151800 1.877860 0.005422 0.003486 376285.000000 1 0 0
-4.264022 6.928377 -6.723729 10.554280 -1.019099 2.261477 0.007055 -0.001740 -2343480.000000 1 0 0
-9.307922 -3.759823 -8.197029 12.960129 0.383897 2.255548 0.002571 -0.002161 627440.000000 1 0 0
-2.229122 -6.397623 9.223971 11.444658 1.235521 0.633496 0.003842 -0.004916 -572159.000000 1 0 0
7.331478 -6.091023 10.045471 13.847838 -0.693244 0.759155 0.005864 0.002160 308470.000000 1 0 0
9.582678 -4.991123 12.211671 16.305335 -0.480187 0.724340 0.018049 -0.001811 -884615.000000 1 0 0
-6.500022 2.795677 -9.089429 11.518846 -0.406185 2.480126 0.003791 -0.004835 -181632.000000 1 0 0
7.365778 5.392777 8.893971 12.745174 0.631972 0.798432 -0.006482 0.001845 76790.200000 1 0 0
12.605578 3.344877 11.138071 17.150669 0.259372 0.863968 0.035699 -0.012821 -604547.000000 1 0 0
-7.445622 -7.300023 -3.980229 11.161086 0.775524 1.935440 0.011087 -0.006542 -1166100.000000 1 0 0
2.421378 1.585677 -5.725229 6.415270 0.579788 2.673516 0.002571 -0.002028 363997.000000 1 0 0
12.789878 7.079177 -7.049329 16.229257 0.505525 2.020123 0.006858 0.002516 -573143.000000 1 0 0
0.758178 -7.792023 1.058771 7.900092 -1.473800 1.436372 0.006209 -0.003689 1228800.000000 1 0 0
-10.224322 -6.032423 -8.635329 14.679775 0.533039 2.199685 0.000954 -0.005537 -586024.000000 1 0 0
-6.718522 0.198277 3.004371 7.362343 -0.029503 1.150454 0.009336 -0.006640 52916.000000 1 0 0
10.725178 -7.847523 1.320871 13.355065 -0.631680 1.471730 0.003276 -0.007523 -257206.000000 1 0 0
6.173878 1.028777 10.506771 12.229775 0.165117 0.537260 0.002619 0.000090 -945993.000000 1 0 0
-12.799522 5.222677 1.754471 13.934931 -0.387415 1.444557 0.012128 -0.003175 -131549.000000 1 0 0
2.063278 7.383277 3.555371 8.450477 1.298295 1.136546 -0.004769 0.001354 -110814.000000 1 0 0
10.214378 -9.349523 -0.810329 13.870967 -0.741220 1.629249 0.000497 -0.006531 878678.000000 1 0 0
6.834078 -11.771423 -9.067929 16.355377 -1.044790 2.158475 -0.000865 0.002208 265300.000000 1 0 0
10.149578 3.570077 11.954971 16.083555 0.338230 0.732800 0.014461 -0.006436 -368812.000000 1 0 0
-11.107922 -3.126823 -1.938629 11.701334 0.274394 1.737240 0.007113 0.000140 467080.000000 1 0 0
12.274178 0.975377 6.889071 14.109079 0.079299 1.060688 0.020914 -0.013581 -3785.190000 1 0 0
-9.534122 9.057777 3.042571 13.498150 -0.759783 1.343436 0.001712 -0.004103 1076120.000000 1 0 0
-6.711922 7.687877 -8.870229 13.521624 -0.853070 2.286307 0.005073 -0.003519 -494944.000000 1 0 0
8.383478 5.522777 12.042071 15.677859 0.582515 0.694937 0.005358 -0.002198 -2489190.000000 1 0 0
1.289878 4.952277 -2.720429 5.795651 1.315996 2.059398 0.001839 -0.002547 131863.000000 1 0 0
1.281278 0.472177 9.522871 9.620276 0.353078 0.142422 0.000385 0.001561 764638.000000 1 0 0
2.537778 12.538977 -3.926929 13.382341 1.371103 1.868621 0.008424 -0.006829 536481.000000 1 0 0
2.070478 0.521077 13.011771 13.185772 0.246550 0.162636 0.001642 -0.003282 -468536.000000 1 0 0
-12.319622 -1.759323 0.843371 12.473154 0.141847 1.503130 0.005479 -0.002642 291076.000000 1 0 0
3.323278 8.713477 -1.219629 9.405124 1.206431 1.700840 0.006281 -0.002344 740318.000000 1 0 0
3.641878 -2.902923 -5.814829 7.449998 -0.672967 2.466284 0.002720 -0.000760 -1476200.000000 1 0 0
-7.774922 -7.132423 9.119571 13.945876 0.742325 0.858034 0.006369 -0.006794 -192846.000000 1 0 0
-7.106722 10.918077 -3.460729 13.479115 -0.993779 1.830452 0.007252 0.003965 188578.000000 1 0 0
0.429778 0.484877 2.534571 2.616079 0.845566 0.250278 -0.002100 0.000047 -1570670.000000 1 0 0
-7.219522 4.536077 -1.896529 8.734662 -0.560974 1.789666 0.007775 -0.003320 -1223050.000000 1 0 0
-6.867322 -3.963823 -5.922029 9.896586 0.523487 2.212288 0.006720 -0.002965 116211.000000 1 0 0
2.854178 -6.189323 13.493071 15.116779 -1.138713 0.467741 0.007260 -0.007575 -1492260.000000 1 0 0
-5.302622 -0.529823 -11.866829 13.008464 0.099587 2.719513 0.008947 -0.007433 -478872.000000 1 0 0
11.838178 2.525577 -0.597529 12.119325 0.210191 1.620120 0.005841 -0.003875 -736337.000000 1 0 0
6.092678 -10.983423 10.807871 16.570045 -1.064340 0.860243 0.002497 0.001270 337071.000000 1 0 0
-8.166222 6.356577 -10.481629 14.729487 -0.661430 2.362581 0.004848 -0.004192 713073.000000 1 0 0
2.909478 7.793477 11.128871 13.894428 1.213497 0.641901 -0.006971 0.003803 996930.000000 1 0 0
-6.238422 -10.005023 -0.522929 11.802196 1.013255 1.615119 0.011802 -0.000491 134541.000000 1 0 0
11.216978 4.230477 6.058071 13.431968 0.360654 1.102890 0.007737 -0.005927 209069.000000 1 0 0
-7.844622 10.593877 1.381271 13.254291 -0.933412 1.466394 0.000430 -0.001432 835513.000000 1 0 0
4.405778 -2.593423 -3.492329 6.191372 -0.532026 2.170095 0.005536 -0.002513 -4843690.000000 1 0 0
6.365378 6.470277 6.324971 11.062902 0.793570 0.962186 -0.002756 0.001425 -5665930.000000 1 0 0
-0.298722 10.451877 -10.206329 14.611643 -1.542223 2.344105 0.003604 0.000343 -206145.000000 1 0 0
13.832878 6.599377 -2.353629 15.506124 0.445143 1.723172 0.001940 0.003995 613697.000000 1 0 0
1.449978 9.549177 -6.145529 11.448002 1.420104 2.137461 0.006865 -0.002321 -16469.300000 1 0 0
0.533278 7.294877 7.227571 10.282870 1.497823 0.791365 -0.006209 0.004558 -9355.340000 1 0 0
12.233278 6.326577 1.999871 13.916830 0.477282 1.426595 0.004569 -0.002421 -1918440.000000 1 0 0
-6.792422 6.676777 -3.152529 10.032686 -0.776813 1.890437 0.002610 -0.003467 -548496.000000 1 0 0
1.124078 9.735177 11.158471 14.850883 1.455840 0.720664 -0.010091 0.005492 719558.000000 1 0 0
-3.593922 13.497777 -10.902429 17.719177 -1.310573 2.233550 0.007471 -0.004773 -311389.000000 1 0 0
-10.099322 -5.570223 -2.276329 11.756077 0.504028 1.765657 0.005452 -0.002142 -456357.000000 1 0 0
-3.876422 4.035277 -12.399029 13.603162 -0.805474 2.717667 0.008693 -0.010173 -860376.000000 1 0 0
-3.272822 8.358577 2.361971 9.282030 -1.197593 1.313500 0.001202 -0.000535 -3068530.000000 1 0 0
7.050378 8.806477 7.142971 13.352300 0.895696 1.006334 0.000867 0.001298 -1729470.000000 1 0 0
-1.345322 -2.309823 -8.148829 8.576047 1.043392 2.824624 0.010241 -0.007836 -1311240.000000 1 0 0
0.819978 -1.335523 4.897471 5.142102 -1.020164 0.309697 0.001319 0.000192 -396673.000000 1 0 0
2.789978 -8.800223 -6.049829 11.037587 -1.263785 2.150901 0.003926 0.000918 646261.000000 1 0 0
5.280178 3.912877 8.857471 11.029310 0.637749 0.638342 -0.005153 0.001458 58936.600000 1 0 0
6.216678 -7.531823 -2.751129 10.146140 -0.880765 1.845384 0.000561 -0.003934 1078530.000000 1 0 0
1.948578 2.449277 -8.298429 8.869038 0.898761 2.780929 0.007286 -0.005244 -63779.300000 1 0 0
-5.359522 10.866477 -0.658529 12.134186 -1.112591 1.625094 -0.002735 0.001005 -6845.150000 1 0 0
-5.455222 3.365677 -3.356729 7.235666 -0.552800 2.053205 0.006448 -0.002580 -358498.000000 1 0 0
2.135778 13.744977 -6.301929 15.270896 1.416643 1.996186 0.003158 -0.005319 648563.000000 1 0 0
-5.285422 -2.642723 2.624771 6.465995 0.463649 1.152795 0.005153 -0.002930 571213.000000 1 0 0
10.417378 -3.349423 -1.784529 11.087152 -0.311084 1.732454 0.002533 -0.002919 377898.000000 1 0 0
2.360178 -3.390823 6.990571 8.120111 -0.962727 0.533768 -0.002679 0.001323 -1953740.000000 1 0 0
-2.804422 9.852977 -11.682729 15.538085 -1.293502 2.421701 0.003943 -0.004002 -2869310.000000 1 0 0
0.339378 -2.005423 9.249471 9.470460 -1.403154 0.216453 -0.000627 -0.000707 338886.000000 1 0 0
9.408078 2.562477 4.923871 10.923495 0.265919 1.103180 0.002292 -0.003834 -1687820.000000 1 0 0
13.413778 2.175477 -4.947629 14.461714 0.160782 1.919967 0.012101 -0.004964 -1147880.000000 1 0 0
-6.572722 3.681077 7.540071 10.658503 -0.510529 0.784951 0.003813 -0.004996 45021.900000 1 0 0
10.612878 0.072077 1.854371 10.773907 0.006791 1.397818 0.008044 -0.004392 1451090.000000 1 0 0
15.278678 6.913877 -4.461429 17.353503 0.424946 1.830807 0.015453 -0.001757 -94359.500000 1 0 0
8.258078 -5.054623 -9.026029 13.236852 -0.549256 2.321135 0.008508 0.003584 388644.000000 1 0 0
4.471678 5.632677 -2.105329 7.493689 0.899797 1.855577 0.002765 -0.002094 338856.000000 1 0 0
-1.653322 -10.487123 1.424171 10.711745 1.414431 1.437447 0.012075 -0.003383 -729609.000000 1 0 0
-2.954222 12.115077 -13.010329 18.021409 -1.331617 2.377394 0.008760 -0.006295 -791233.000000 1 0 0
8.445878 4.352577 -9.582729 13.494683 0.475852 2.360453 0.007264 0.000224 -1319670.000000 1 0 0
4.201778 7.672377 -9.010329 12.558118 1.069759 2.370989 0.007252 -0.001852 -2839900.000000 1 0 0
-1.753822 -5.082523 -2.468129 5.916045 1.238521 2.001150 0.009502 -0.004099 -579407.000000 1 0 0
-3.336122 -9.182323 6.973971 12.003376 1.222305 0.950839 0.007356 -0.003720 -1704740.000000 1 0 0
1.036578 7.293477 -1.407329 7.499992 1.429618 1.759559 0.002393 -0.002941 1240350.000000 1 0 0
0.369178 -0.934223 -2.184029 2.403965 -1.194459 2.710504 0.006001 -0.000451 -1911030.000000 1 0 0
4.106278 -6.673123 7.403971 10.780115 -1.019169 0.813695 0.000156 -0.000606 -1288320.000000 1 0 0
-13.964922 3.971577 5.928071 15.682299 -0.277081 1.183150 0.005187 -0.011378 -1138510.000000 1 0 0
4.246778 6.177277 12.631671 14.688533 0.968520 0.535589 -0.000792 0.002937 -1372770.000000 1 0 0
8.460178 10.139077 -7.152929 15.017986 0.875421 2.067228 0.013583 -0.001448 -191028.000000 1 0 0
12.322378 5.291777 9.352771 16.349870 0.405629 0.961806 0.031336 -0.008689 315138.000000 1 0 0
7.591478 4.045977 0.397171 8.611517 0.489669 1.524659 0.002802 -0.000916 -374197.000000 1 0 0
-10.925622 -7.629323 -1.072729 13.368864 0.609582 1.651124 0.007084 -0.004181 -820591.000000 1 0 0
10.454278 6.826677 0.229071 12.487911 0.578484 1.552452 0.002890 0.000374 -1039350.000000 1 0 0
14.724878 3.543077 4.313571 15.747455 0.236130 1.293328 0.025478 -0.009153 -86170.500000 1 0 0
2.141578 5.578177 8.143171 10.100181 1.204228 0.633028 -0.008171 0.003765 245923.000000 1 0 0
4.097278 -0.002423 11.671371 12.369665 -0.000591 0.337613 -0.000849 -0.000152 -918775.000000 1 0 0
-1.593722 -1.578323 -0.508329 2.299880 0.780544 1.793661 0.008538 -0.003613 -939417.000000 1 0 0
3.205878 -5.301923 -9.479329 11.324562 -1.026955 2.562682 0.004281 0.000115 -165088.000000 1 0 0
-3.968622 -5.405423 -1.280829 6.827084 0.937489 1.759525 0.009268 -0.005159 1777900.000000 1 0 0
-1.225122 -8.654823 8.548171 12.226124 1.430177 0.796557 0.004392 -0.002880 74591.500000 1 0 0
3.931078 8.595477 -5.926829 11.156294 1.141853 2.130877 0.005978 -0.000881 341288.000000 1 0 0
-14.344022 -1.723623 -2.672429 14.692301 0.119590 1.753708 0.004956 -0.002284 -530402.000000 1 0 0
8.910478 -10.672723 -6.762229 15.460639 -0.875144 2.023483 -0.002596 -0.001445 533470.000000 1 0 0
14.806078 6.093177 1.753171 16.106532 0.390408 1.461732 0.009273 -0.001695 -1011190.000000 1 0 0
-5.887022 0.409677 -8.448129 10.305132 -0.069478 2.531855 0.009661 -0.006410 -713570.000000 1 0 0
-8.031022 -4.446223 -13.037929 15.945338 0.505627 2.528138 0.005698 -0.006589 728559.000000 1 0 0
0.983178 -10.718023 11.964971 16.093576 -1.479321 0.732563 0.008445 -0.007797 -621167.000000 1 0 0
0.254178 11.698077 3.318971 12.162450 1.549072 1.294404 -0.001456 0.001776 164084.000000 1 0 0
5.179678 -13.518023 -3.801829 14.967294 -1.204884 1.827619 0.009951 -0.002266 763378.000000 1 0 0
-7.498222 1.590377 -6.904229 10.316056 -0.209003 2.304022 0.003060 -0.001554 466602.000000 1 0 0
1.482278 2.700777 4.063571 5.099408 1.068849 0.648698 -0.000602 0.000890 -294112.000000 1 0 0
17.277278 5.598777 2.081271 18.280655 0.313376 1.456698 0.026136 -0.010223 -61141.300000 1 0 0
2.468478 -8.295123 -3.600129 9.373546 -1.281559 1.965000 0.001728 -0.000747 715596.000000 1 0 0
-0.321122 -9.519023 -0.690229 9.549415 1.537074 1.643139 0.012472 -0.001779 -911002.000000 1 0 0
0.771978 11.962377 -5.671429 13.261204 1.506352 2.012711 0.006384 -0.001851 -576508.000000 1 0 0
5.996978 -5.038223 7.812671 11.062787 -0.698734 0.786663 0.000935 -0.000556 -769360.000000 1 0 0
-6.013322 -1.755023 -9.538729 11.411726 0.283968 2.560514 0.010863 -0.008896 -1163450.000000 1 0 0
1.846978 -1.372223 11.294171 11.526171 -0.638977 0.200978 0.002955 0.000082 -915835.000000 1 0 0
17.959778 2.152177 -5.610529 18.938414 0.119264 1.871562 0.028608 -0.009847 -1795290.000000 1 0 0
-8.954122 4.693477 7.798671 12.768097 -0.482796 0.913734 0.007110 -0.010076 -473139.000000 1 0 0
11.571578 -7.065623 -4.684629 14.344692 -0.548178 1.903475 0.008506 -0.006945 368261.000000 1 0 0
10.681578 0.530277 8.986571 13.969101 0.049603 0.871972 0.014738 -0.010334 133791.000000 1 0 0
-8.425422 -7.376123 -1.536729 11.302940 0.719091 1.707177 0.010274 -0.003855 -1742540.000000 1 0 0
10.311978 -10.546623 -3.205429 15.094466 -0.796647 1.784784 0.009108 -0.004760 783696.000000 1 0 0
7.715278 -13.997523 -3.736229 16.413883 -1.067041 1.800435 0.019524 -0.006131 -1642410.000000 1 0 0
1.868878 -1.174323 -11.499529 11.709436 -0.561010 2.951960 0.006663 -0.004429 41567.200000 1 0 0
-11.809722 -2.617923 -6.403829 13.686931 0.218148 2.057686 0.004811 -0.003804 326375.000000 1 0 0
2.829178 -12.271823 -6.364929 14.110783 -1.344213 2.038758 0.006521 0.003675 178171.000000 1 0 0
-5.582422 1.363177 1.050471 5.841676 -0.239504 1.389989 0.006255 -0.004775 433068.000000 1 0 0
0.007078 6.902777 -3.943229 7.949682 1.569771 2.089809 0.006793 -0.003397 1125240.000000 1 0 0
5.418478 -11.766023 3.597571 13.444021 -1.139229 1.299899 -0.006096 -0.007005 -2797040.000000 1 0 0
-4.408822 -9.199523 1.071271 10.257512 1.123890 1.466168 0.013071 -0.002745 -883187.000000 1 0 0
7.238078 -6.339823 -4.594529 10.662684 -0.719339 2.016284 0.006198 -0.002556 753523.000000 1 0 0
-6.994422 -6.057223 2.259371 9.524528 0.713714 1.331297 0.011757 -0.003401 202399.000000 1 0 0
-6.391922 -0.801023 6.977071 9.496201 0.124668 0.745539 0.006725 -0.004562 -2411900.000000 1 0 0
4.249878 -4.999923 3.123071 7.267342 -0.866309 1.126591 -0.001470 -0.004295 -494876.000000 1 0 0
-2.409722 10.593377 -8.761029 13.956433 -1.347128 2.249444 0.003135 0.000094 -2082250.000000 1 0 0
-2.320422 -4.896723 2.761871 6.081956 1.128268 1.099424 0.005745 -0.001490 784344.000000 1 0 0
15.299978 5.069177 6.502971 17.380291 0.319937 1.187308 0.045487 -0.016153 868572.000000 1 0 0
6.849078 0.343577 0.125371 6.858836 0.050122 1.552517 0.006019 -0.003862 3564440.000000 1 0 0
-9.790722 9.126177 0.413371 13.390901 -0.750283 1.539922 0.001409 -0.003218 -2041760.000000 1 0 0
7.287178 10.454177 -2.596529 13.005182 0.962047 1.771801 0.001213 0.000995 -307465.000000 1 0 0
1.587378 -4.196923 -5.425929 7.040925 -1.209202 2.450621 0.005176 -0.001775 -887360.000000 1 0 0
0.960978 -8.183723 -7.885229 11.404983 -1.453906 2.334200 0.005693 0.000097 2631110.000000 1 0 0
-10.406122 0.292377 -10.515029 14.796577 -0.028089 2.361203 0.004489 -0.000565 -3825320.000000 1 0 0
5.750078 -2.438623 0.440271 6.261319 -0.401110 1.500422 0.002819 -0.003348 -53369.400000 1 0 0
-3.439022 5.300077 -1.073129 6.408533 -0.995221 1.739042 0.003570 -0.003934 1058330.000000 1 0 0
-0.307222 4.566777 -5.174429 6.908296 -1.503624 2.417373 0.005929 -0.002974 -1022220.000000 1 0 0
3.988078 -9.784023 9.949271 14.512748 -1.183746 0.815432 -0.002468 -0.001131 -1904450.000000 1 0 0
7.385078 -13.421523 -0.854729 15.342986 -1.067768 1.626533 0.014714 -0.004998 904626.000000 1 0 0
13.002778 0.007377 0.522871 13.013289 0.000567 1.530606 0.008490 -0.007845 391617.000000 1 0 0
9.257878 2.475277 -0.664529 9.606087 0.261259 1.640029 0.004620 -0.002612 -619552.000000 1 0 0
-0.744822 -5.795623 4.370171 7.296739 1.442982 0.928643 0.002000 -0.000581 211813.000000 1 0 0
11.481578 -3.705523 3.399171 12.534429 -0.312183 1.296171 0.014695 -0.008876 -2740450.000000 1 0 0
1.689678 -8.272723 11.726971 14.450426 -1.369321 0.624028 0.003574 -0.004801 179248.000000 1 0 0
9.494678 -6.058223 -5.964229 12.744528 -0.567939 2.057804 0.001639 -0.002484 -754717.000000 1 0 0
3.174178 6.333577 -0.228429 7.088144 1.106216 1.603029 -0.000633 -0.001066 -1105870.000000 1 0 0
6.300678 -1.376523 11.595971 13.268757 -0.215093 0.507565 0.001697 0.002125 689002.000000 1 0 0
-4.859922 -7.638523 -3.836329 9.832766 1.004156 1.971599 0.013440 -0.005382 2485.480000 1 0 0
-3.406622 -8.610723 -5.850029 10.953194 1.194067 2.134231 0.011596 -0.005137 -22128.300000 1 0 0
9.819178 5.368677 2.254871 11.415928 0.500348 1.371969 0.002539 -0.003274 -536992.000000 1 0 0
8.753478 -1.471423 0.406071 8.885570 -0.166539 1.525080 0.003244 -0.003155 1220250.000000 1 0 0
-3.789822 9.606677 9.204571 13.833840 -1.195041 0.842812 0.003216 0.001184 143330.000000 1 0 0
-14.312522 -3.562323 -6.111829 15.965365 0.243939 1.963641 0.013503 -0.004176 -675957.000000 1 0 0
10.655578 6.443377 -5.952829 13.801979 0.543865 2.016732 0.000996 0.000489 -810322.000000 1 0 0
-1.845822 4.502977 2.597171 5.516263 -1.181775 1.080575 0.001854 -0.000745 398171.000000 1 0 0
6.996678 -3.721523 2.554871 8.326500 -0.488840 1.258929 0.002919 -0.007318 -1123570.000000 1 0 0
8.333378 -10.940423 -1.453229 13.829313 -0.919846 1.676074 0.009671 -0.007253 -2491830.000000 1 0 0
4.518078 0.450877 1.803571 4.885610 0.099465 1.192691 0.002248 -0.000881 442478.000000 1 0 0
-10.838522 2.246877 3.764471 11.691589 -0.204409 1.242975 0.006265 -0.007618 271223.000000 1 0 0
-0.887522 -3.091023 4.480771 5.515381 1.291189 0.622516 0.003360 -0.000476 334835.000000 1 0 0
8.730478 -8.764523 -8.599629 15.066244 -0.787344 2.178261 0.005403 -0.000175 -545506.000000 1 0 0
12.057378 -4.847123 1.094071 13.041164 -0.382233 1.486804 0.009213 -0.007458 624953.000000 1 0 0
2.896078 4.853477 3.416071 6.604018 1.032806 1.027136 -0.004102 0.000195 -226920.000000 1 0 0
6.036278 7.408777 2.034471 9.770656 0.887128 1.361039 0.002436 -0.001123 -325928.000000 1 0 0
-1.615722 -1.286023 -10.292229 10.497351 0.672262 2.943581 0.013041 -0.007981 405741.000000 1 0 0
-0.965922 -8.561223 5.971071 10.482425 1.458446 0.964744 0.002325 -0.001954 38671.700000 1 0 0
-4.261522 -0.326123 2.326971 4.866387 0.076378 1.072224 0.005020 -0.003082 3716.970000 1 0 0
-8.549522 6.405977 -7.898529 13.285994 -0.643040 2.207441 0.003644 -0.001854 -1128590.000000 1 0 0
6.666978 11.144977 -9.449829 16.061083 1.031698 2.199835 0.014107 -0.005523 347050.000000 1 0 0
-11.217722 -5.732023 3.062271 12.964215 0.472392 1.332333 0.010849 -0.003407 1407200.000000 1 0 0
1.656978 -6.414223 3.037471 7.287939 -1.317994 1.140896 -0.000562 -0.002677 998539.000000 1 0 0
9.986078 2.193277 7.252771 12.535347 0.216201 0.953803 0.010479 -0.005643 -2087560.000000 1 0 0
-3.999422 -2.472523 -10.586629 11.583844 0.553709 2.723619 0.012507 -0.009601 -2648250.000000 1 0 0
-8.322722 11.733377 5.867171 15.535879 -0.953843 1.183536 0.002449 -0.004996 674690.000000 1 0 0
6.895978 6.022177 -2.898729 9.603320 0.717860 1.877425 0.002042 -0.000413 -3939150.000000 1 0 0
3.897578 -9.869523 -2.301729 10.858018 -1.194685 1.784401 0.001721 -0.002978 -1048320.000000 1 0 0
8.513878 -12.972723 -7.289829 17.144073 -0.990011 2.009990 0.008191 -0.001102 841159.000000 1 0 0
-1.270522 9.446177 3.656671 10.208611 -1.437098 1.204463 -0.004751 0.001190 93940.000000 1 0 0
0.517878 -13.192023 4.691571 14.011014 -1.531560 1.229352 0.011381 -0.007717 -426119.000000 1 0 0
-11.158622 -7.063323 -5.165929 14.180698 0.564326 1.943670 0.002005 -0.007872 201462.000000 1 0 0
3.625878 10.284777 -3.426729 11.430928 1.231853 1.875255 0.008586 -0.005415 -738599.000000 1 0 0
11.686078 -8.125323 -7.245829 15.971453 -0.607564 2.041680 0.025542 -0.006490 253981.000000 1 0 0
11.759678 -4.815023 -5.832229 13.981751 -0.388628 2.001083 0.009237 -0.005057 342071.000000 1 0 0
1.330278 -10.393423 -2.727129 10.827285 -1.443496 1.825414 0.004380 0.000479 -956573.000000 1 0 0
2.454078 -12.104523 -3.907029 12.954028 -1.370767 1.877174 0.007032 0.001850 -1094860.000000 1 0 0
-7.714022 -5.630223 7.164271 11.938690 0.630492 0.927185 0.009896 -0.002327 -2775590.000000 1 0 0
-7.243722 -0.811623 9.473471 11.953112 0.111580 0.655813 0.008377 -0.004562 7431.700000 1 0 0
16.230278 2.718777 -7.435029 18.058054 0.165972 1.995147 0.024857 -0.002679 410555.000000 1 0 0
-2.007922 6.294977 -5.581029 8.649068 -1.262026 2.272180 0.006021 -0.002573 -1756220.000000 1 0 0
7.585878 1.220777 8.407371 11.389457 0.159560 0.740441 0.001850 -0.002429 -746496.000000 1 0 0
7.937178 8.241077 -3.732829 12.035288 0.804180 1.886154 0.002317 0.002198 -787685.000000 1 0 0
8.016878 0.473777 3.932071 8.941811 0.059029 1.115487 0.001832 -0.003129 688854.000000 1 0 0
-7.035422 5.822177 5.344771 10.581186 -0.691317 1.041275 0.002949 -0.007230 -88511.000000 1 0 0
-6.153222 -2.067123 -4.575129 7.941469 0.324096 2.184753 0.006412 -0.003974 -1172650.000000 1 0 0
-15.252522 -2.109223 3.146371 15.715849 0.137415 1.369230 0.012798 -0.001913 98534.700000 1 0 0
1.245978 1.261877 -10.430629 10.580303 0.791738 2.973188 0.009024 -0.006924 443403.000000 1 0 0
1.461178 -9.276223 9.377771 13.271245 -1.414561 0.786082 0.000551 -0.005334 -457147.000000 1 0 0
-0.214222 -6.844323 -1.196429 6.951409 1.539507 1.743771 0.006423 -0.002306 818180.000000 1 0 0
-0.326522 -10.259423 -8.445729 13.292581 1.538981 2.259286 0.007423 0.001001 -126075.000000 1 0 0
-4.459422 6.433577 3.850871 8.723908 -0.964684 1.113620 0.001215 -0.001300 -230659.000000 1 0 0
10.905978 -1.105423 -8.545129 13.898976 -0.101014 2.232932 0.008185 0.001152 956455.000000 1 0 0
3.093178 -1.104423 6.218271 7.032382 -0.342943 0.485945 -0.002589 0.002263 232271.000000 1 0 0
1.894478 -12.307723 6.816671 14.196341 -1.418069 1.069947 0.002352 -0.005428 58987.900000 1 0 0
2.902578 -4.985623 -1.394529 5.935158 -1.043576 1.807974 0.008017 -0.003956 -1479960.000000 1 0 0
-0.989922 9.462177 -1.727929 9.669461 -1.466557 1.750461 0.003537 -0.004822 -665125.000000 1 0 0
4.513078 -2.618723 2.583871 5.822540 -0.525772 1.110995 0.002735 -0.002561 -952268.000000 1 0 0
17.839678 6.946277 -2.623929 19.323299 0.371311 1.707008 0.030712 0.004132 -151009.000000 1 0 0
-7.048122 3.497777 -5.425529 9.557554 -0.460660 2.174468 0.007725 -0.002446 -1787640.000000 1 0 0
-13.889922 -5.981823 2.448071 15.320091 0.406654 1.410314 -0.001006 -0.001558 1795030.000000 1 0 0
6.701178 -6.091323 3.129071 9.581288 -0.737761 1.238112 0.000205 -0.007843 935383.000000 1 0 0
-4.640922 1.988477 3.502671 6.144990 -0.404803 0.964285 0.004901 -0.004858 912050.000000 1 0 0
6.910578 -12.195423 -5.432429 15.033153 -1.055257 1.940526 0.009726 -0.000999 1541210.000000 1 0 0
2.892278 -12.350123 3.243371 13.092374 -1.340752 1.320460 0.003399 -0.007877 -243738.000000 1 0 0
3.361178 11.351477 -6.071629 13.304820 1.282921 2.044683 0.006589 -0.001583 -318604.000000 1 0 0
-5.593722 -8.399823 6.362671 11.930228 0.983302 1.008272 0.011077 -0.001776 315366.000000 1 0 0
-3.948322 6.461977 6.297871 9.849344 -1.022322 0.877052 0.003348 -0.000655 475187.000000 1 0 0
4.407378 4.459677 -6.828929 9.270813 0.791296 2.398833 0.003655 0.000977 -2106940.000000 1 0 0
-0.340622 -2.710623 1.582071 3.156968 1.445790 1.045885 0.004850 -0.002107 179626.000000 1 0 0
-13.347722 -0.811523 6.428671 14.837387 0.060724 1.122673 0.011237 -0.005751 -472000.000000 1 0 0
-0.464922 -9.257123 -5.940929 11.009319 1.520615 2.140791 0.007728 0.000516 394254.000000 1 0 0
2.063478 -1.658223 -3.911429 4.723020 -0.676936 2.546618 0.005034 -0.000834 -1287540.000000 1 0 0
11.360278 -1.921223 1.145971 11.578440 -0.167532 1.471659 0.010164 -0.007966 1211340.000000 1 0 0
0.483478 -4.262323 -1.964829 4.718230 -1.457848 2.000315 0.006438 -0.001821 -575935.000000 1 0 0
1.234378 -7.264523 -11.265829 13.461645 -1.402485 2.562361 0.004836 0.001382 1129840.000000 1 0 0
-4.501422 4.151077 -9.940929 11.675457 -0.744930 2.589518 0.007264 -0.007068 215446.000000 1 0 0
-1.094322 5.753477 -2.047529 6.204226 -1.382840 1.907123 0.004103 -0.002851 -175919.000000 1 0 0
-11.340422 1.723277 -3.878729 12.108649 -0.150805 1.896871 0.004602 -0.001255 -175040.000000 1 0 0
-1.877822 -11.281423 4.092171 12.146711 1.405856 1.227179 0.012260 -0.004717 -363156.000000 1 0 0
-3.481722 -5.554023 -9.679929 11.690619 1.010844 2.546342 0.009385 -0.004843 -547210.000000 1 0 0
-12.798322 -3.728923 -8.365329 15.737872 0.283512 2.131215 0.012804 -0.004920 -162677.000000 1 0 0
11.437378 4.461377 0.567471 12.289814 0.371917 1.524606 0.007495 -0.000713 -126960.000000 1 0 0
-8.947022 -2.365123 -3.023129 9.735621 0.258436 1.886539 0.006352 -0.002175 -123759.000000 1 0 0
-2.466622 -6.088523 -6.408729 9.177480 1.185878 2.343831 0.008545 -0.005190 6138.050000 1 0 0
-0.049522 2.827777 -1.970429 3.446936 -1.553285 2.179307 0.002652 -0.003098 -625423.000000 1 0 0
8.047478 6.047577 -5.159829 11.311893 0.644452 2.044451 -0.000028 0.001671 -567123.000000 1 0 0
-9.867222 -0.862723 -1.000429 9.955261 0.087211 1.671459 0.005686 -0.001268 88216.200000 1 0 0
6.162378 0.544677 -8.832929 10.783886 0.088158 2.530612 0.002741 0.002846 576816.000000 1 0 0
-4.149122 2.513777 7.896171 9.267352 -0.544715 0.550923 -0.001908 -0.000774 -876955.000000 1 0 0
-10.251522 -3.355323 1.396571 10.876686 0.316311 1.442040 0.009174 -0.004273 2211880.000000 1 0 0
-1.754022 -8.178423 -7.846229 11.468500 1.359527 2.324240 0.009092 -0.004075 397511.000000 1 0 0
-9.425722 -9.831423 4.179471 14.246722 0.806463 1.273053 0.011486 -0.005672 -448950.000000 1 0 0
-1.190222 -10.755823 7.276871 13.040598 1.460586 0.978802 0.007882 -0.005690 -263783.000000 1 0 0
9.469278 3.829977 -3.738829 10.877260 0.384348 1.921681 -0.001527 -0.000042 -560223.000000 1 0 0
12.828078 -0.782823 3.040171 13.206629 -0.060949 1.338513 0.013685 -0.006643 99.115200 1 0 0
6.633678 11.881177 -6.809929 15.216543 1.061576 2.034803 0.002701 -0.000864 -309799.000000 1 0 0
-11.774922 -0.047323 -6.498729 13.449331 0.004019 2.075103 0.004107 0.001125 1017650.000000 1 0 0
-7.617122 -6.533523 -11.569529 15.315399 0.708971 2.427088 0.005334 -0.005361 -1704480.000000 1 0 0
4.070078 6.041677 6.460371 9.736724 0.977963 0.845302 -0.007383 0.002880 -3295610.000000 1 0 0
-4.248422 -1.439923 -7.491129 8.731522 0.326780 2.602044 0.009059 -0.008503 -358008.000000 1 0 0
9.676478 9.235777 0.944571 13.409923 0.762100 1.500300 0.004463 0.001580 -2186430.000000 1 0 0
-8.913322 3.836577 4.838371 10.843268 -0.406462 1.108271 0.005127 -0.010284 238424.000000 1 0 0
-6.848622 7.923177 -12.146429 16.037958 -0.858014 2.430049 -0.000880 -0.007983 -1045780.000000 1 0 0
11.106578 -3.599523 7.164071 13.698049 -0.313408 1.020430 0.018292 -0.008756 802465.000000 1 0 0
11.847878 6.881977 6.477171 15.155447 0.526228 1.129201 0.019291 -0.006536 -1592.940000 1 0 0
-10.147922 -0.504823 -14.704729 17.873562 0.049705 2.536955 0.013274 -0.000650 -277322.000000 1 0 0
1.795578 -13.108923 11.978971 17.848353 -1.434670 0.835034 0.013085 -0.008720 291828.000000 1 0 0
2.910278 2.973677 13.093071 13.738304 0.796173 0.307696 -0.001896 -0.001017 27781.700000 1 0 0
-2.560822 -1.461023 11.017571 11.405230 0.518468 0.261472 0.004284 -0.003265 -720433.000000 1 0 0
2.593078 -10.142923 -8.151829 13.268581 -1.320503 2.232385 0.000218 0.004455 -870119.000000 1 0 0
13.899178 3.649877 -7.350729 16.141313 0.256799 2.043616 0.008914 -0.005194 -2565980.000000 1 0 0
7.255978 -1.616923 4.971471 8.943108 -0.219258 0.981351 -0.000675 -0.002369 419018.000000 1 0 0
-1.189522 8.607777 10.201471 13.400702 -1.433475 0.705536 -0.001355 0.001612 204434.000000 1 0 0
-12.459122 -4.667623 0.912971 13.336039 0.358451 1.502284 0.010191 -0.002208 605684.000000 1 0 0
-4.888522 4.866677 -5.306929 8.703200 -0.783159 2.226564 0.009311 -0.004008 283806.000000 1 0 0
-11.288322 0.287977 1.960671 11.460950 -0.025506 1.398877 0.004933 -0.003550 -1276880.000000 1 0 0
-1.332522 2.224077 -4.140729 4.885465 -1.031013 2.582168 0.007176 -0.005059 817908.000000 1 0 0
3.217778 -9.991123 13.119271 16.801545 -1.259222 0.674792 0.009507 -0.003095 345130.000000 1 0 0
8.952478 4.733877 -1.482629 10.234972 0.486404 1.716167 0.000782 -0.003413 -1498220.000000 1 0 0
4.098278 2.311477 3.713171 5.993868 0.513537 0.902697 -0.004797 0.001961 118186.000000 1 0 0
-5.463022 -3.197423 7.455271 9.780040 0.529529 0.703945 0.007791 -0.004113 152624.000000 1 0 0
1.679578 -5.903723 7.684771 9.835173 -1.293625 0.673961 -0.003834 0.000018 -490513.000000 1 0 0
-5.914222 -6.251423 -9.718929 12.981367 0.813109 2.416870 0.006432 -0.007838 -1035530.000000 1 0 0
-11.744422 -5.842723 5.400071 14.185543 0.461637 1.180271 0.013825 -0.004352 -914044.000000 1 0 0
10.618978 6.182077 4.539471 13.099144 0.527208 1.216909 0.005333 -0.002595 -49677.500000 1 0 0
1.456278 -3.725523 0.355371 4.015788 -1.198166 1.482187 0.009553 -0.003413 -539927.000000 1 0 0
8.714978 4.299577 6.884671 11.909488 0.458317 0.954419 0.000798 0.000711 105666.000000 1 0 0
-7.791422 12.015377 3.499871 14.741935 -0.995509 1.331098 0.003506 -0.004549 -133589.000000 1 0 0
-6.153922 13.359377 -6.991629 16.285779 -1.139126 2.014524 0.014193 -0.000473 34748.200000 1 0 0
4.452678 -6.970923 -0.921429 8.322808 -1.002370 1.681735 0.003566 -0.004394 -774205.000000 1 0 0
-1.954522 -8.160123 11.093371 13.909373 1.335704 0.647579 0.005147 -0.008421 -221164.000000 1 0 0
11.530078 8.939777 -5.668829 15.652410 0.659525 1.941391 0.002647 0.000243 597234.000000 1 0 0
-3.365522 -2.988223 -1.966129 4.911402 0.726086 1.982661 0.010956 -0.004083 -2069540.000000 1 0 0
-2.070922 5.921577 4.673571 7.822791 -1.234367 0.930504 0.000086 -0.000048 37452.400000 1 0 0
0.441978 -11.478923 -5.697229 12.822614 -1.532312 2.031201 0.004900 -0.000141 741252.000000 1 0 0
-8.883122 6.219077 -1.540529 10.952626 -0.610793 1.711918 0.006384 -0.002706 -643696.000000 1 0 0
2.837578 -0.053123 3.887371 4.813141 -0.018719 0.630627 -0.000427 0.001170 -569565.000000 1 0 0
-10.165922 3.977977 -1.056429 10.967512 -0.372988 1.667269 0.010400 -0.005299 -145680.000000 1 0 0
6.458078 5.507177 13.618571 16.046846 0.706093 0.557320 0.010551 -0.000862 -818263.000000 1 0 0
-8.887122 -1.546923 5.661271 10.650066 0.172337 1.010342 0.009046 -0.006666 132823.000000 1 0 0
12.999378 -1.703623 -1.496929 13.195717 -0.130312 1.684482 0.011005 -0.003903 -806337.000000 1 0 0
5.416378 -5.502023 5.275471 9.350936 -0.793242 0.971375 -0.002353 -0.004689 65670.100000 1 0 0
-9.036522 -1.233923 3.141771 9.646347 0.135709 1.239049 0.006090 -0.004645 448484.000000 1 0 0
1.972878 5.493277 5.553271 8.056498 1.225999 0.810286 -0.003104 0.000670 -1247760.000000 1 0 0
9.289478 3.120777 -7.359529 12.255461 0.324101 2.214935 0.002862 -0.000507 -1179760.000000 1 0 0
2.344778 -2.413323 -1.575529 3.715427 -0.799803 2.008709 0.004923 -0.001334 -196064.000000 1 0 0
-6.240022 0.342277 -3.899929 7.366442 -0.054797 2.128711 0.005808 -0.001332 -1959720.000000 1 0 0
-4.060822 4.068077 5.007171 7.623076 -0.786291 0.854171 0.002752 -0.002912 163723.000000 1 0 0
-6.395522 1.800577 -12.476729 14.135542 -0.274434 2.652266 0.004840 -0.005129 -1519610.000000 1 0 0
-0.219222 3.061677 6.186271 6.905931 -1.499316 0.460588 -0.000490 0.000258 1540690.000000 1 0 0
-8.857722 9.377477 -2.175529 13.081638 -0.813893 1.737877 0.005024 0.001152 569949.000000 1 0 0
-1.404622 -3.773823 -6.176129 7.372874 1.214482 2.563823 0.010500 -0.003862 530925.000000 1 0 0
-3.344222 7.025877 -3.021629 8.347276 -1.126544 1.941198 0.006371 -0.001854 756353.000000 1 0 0
7.020578 -0.377223 -4.297829 8.240276 -0.053679 2.119479 0.003880 0.001013 -158117.000000 1 0 0
-5.177822 -10.899823 6.861271 13.881391 1.127318 1.053792 0.007496 -0.005239 868562.000000 1 0 0
9.741178 8.426477 -1.397229 12.955629 0.713159 1.678854 0.001552 0.004798 -214214.000000 1 0 0
13.713578 4.666377 -4.138329 15.065293 0.327984 1.849067 0.006860 -0.003548 297065.000000 1 0 0
4.779178 1.118977 -6.708129 8.312138 0.229993 2.509898 0.001889 0.001657 112533.000000 1 0 0
9.028578 -4.737723 3.562071 10.800444 -0.483249 1.234696 0.004666 -0.007219 -977512.000000 1 0 0
-8.769022 -3.303423 -0.789629 9.403822 0.360273 1.654864 0.006752 -0.001467 457954.000000 1 0 0
-8.436322 -4.243223 -10.470229 14.099722 0.466021 2.407717 0.002710 -0.009118 377201.000000 1 0 0
10.487378 -1.169123 10.758071 15.069441 -0.111021 0.775745 0.017847 -0.007963 115132.000000 1 0 0
2.196178 -11.644123 9.732571 15.334006 -1.384378 0.883170 0.002706 -0.008036 715387.000000 1 0 0
-6.397022 -10.563123 1.950471 12.502231 1.026270 1.414147 0.010641 -0.002459 -555958.000000 1 0 0
-3.824022 -1.109123 6.803271 7.882753 0.282295 0.529504 0.007142 0.000033 -253098.000000 1 0 0
4.827478 -7.570923 3.887171 9.784351 -1.003163 1.162240 -0.002233 -0.003153 222460.000000 1 0 0
11.470178 -9.570723 -5.285829 15.846252 -0.695368 1.910884 0.013890 -0.005277 700543.000000 1 0 0
11.252678 1.160577 11.463871 16.105591 0.102774 0.778747 0.020352 -0.009020 116973.000000 1 0 0
-10.290722 -3.445623 4.321171 11.680916 0.323095 1.191858 0.012695 -0.004479 2083530.000000 1 0 0
2.063478 8.650277 8.950471 12.617297 1.336628 0.782177 -0.012479 0.005484 -224429.000000 1 0 0
6.545478 8.807077 4.136071 11.726678 0.931657 1.210335 0.001341 0.000535 1469570.000000 1 0 0
-4.220122 3.381177 0.463071 5.427359 -0.675474 1.485371 0.004823 -0.002781 -1478330.000000 1 0 0
4.888278 6.908977 4.298971 9.492649 0.955037 1.100810 -0.001027 0.000731 -847509.000000 1 0 0
-8.201722 13.091377 1.120371 15.488952 -1.011121 1.498400 0.002997 -0.002885 -292938.000000 1 0 0
8.982278 8.118377 -9.201429 15.207092 0.734922 2.220656 0.004312 -0.000144 -398921.000000 1 0 0
7.063078 1.946577 6.009271 9.475631 0.268923 0.883847 -0.002324 0.000910 -572841.000000 1 0 0
11.614778 -6.193923 3.210871 13.549075 -0.489915 1.331539 0.011501 -0.006920 -111660.000000 1 0 0
11.479578 4.758577 -2.079029 12.599489 0.392965 1.736563 0.001111 0.000495 906309.000000 1 0 0
-4.018222 14.452777 -5.862629 16.105878 -1.299621 1.943361 0.001258 0.006681 186375.000000 1 0 0
7.151278 -3.035423 6.973771 10.439734 -0.401412 0.839275 0.005119 -0.003620 -692473.000000 1 0 0
-7.980522 -0.485523 0.870771 8.042556 0.060764 1.462313 0.008869 -0.003959 488259.000000 1 0 0
-3.236922 1.025977 10.804471 11.325497 -0.306944 0.304506 0.000738 -0.000144 -55882.700000 1 0 0
7.106478 -1.232923 -1.888329 7.455730 -0.171783 1.826858 0.007453 -0.003479 -2285990.000000 1 0 0
-7.763522 5.382877 2.990971 9.909266 -0.606252 1.264179 0.006471 -0.006059 652737.000000 1 0 0
9.488278 -2.087523 2.952571 10.153957 -0.216561 1.275754 0.005827 -0.007333 -1667810.000000 1 0 0
0.253678 3.437277 1.616871 3.807033 1.497128 1.132159 0.000337 -0.000796 -3123680.000000 1 0 0
-7.552922 -3.054423 4.010871 9.080926 0.384296 1.113325 0.008293 -0.004306 1743880.000000 1 0 0
-2.143322 8.393177 -6.762329 10.989465 -1.320775 2.233622 0.005741 -0.001747 -716384.000000 1 0 0
4.488978 9.793477 7.471871 13.110758 1.141009 0.964408 -0.008422 0.005134 1381370.000000 1 0 0
-11.951722 -3.058823 6.767971 14.071442 0.250553 1.069033 0.020569 -0.006390 -2871250.000000 1 0 0
-4.659722 2.305577 -5.578029 7.625162 -0.459470 2.391358 0.011291 -0.005028 488139.000000 1 0 0
-2.771822 2.883077 -1.879029 4.418810 -0.805070 2.010017 0.005363 -0.002477 1340330.000000 1 0 0
2.395478 5.086377 11.527371 12.825359 1.130650 0.453783 -0.002537 -0.001853 378057.000000 1 0 0
-0.687422 1.563477 4.532971 4.844052 -1.156562 0.360329 0.000466 -0.001269 -443822.000000 1 0 0
5.010278 1.557977 7.544071 9.189298 0.301478 0.607701 -0.005174 0.001819 616742.000000 1 0 0
3.422978 -8.238123 1.830471 9.106814 -1.176996 1.368417 0.002681 -0.005332 1739690.000000 1 0 0
5.098478 6.492277 -4.563229 9.432243 0.905074 2.075777 0.005303 -0.001155 -2070280.000000 1 0 0
-4.128022 2.898677 -7.943529 9.409705 -0.612198 2.575839 0.010203 -0.008336 -361100.000000 1 0 0
-8.671122 -2.007723 -12.963829 15.725144 0.227532 2.539940 0.006035 -0.003759 -1369200.000000 1 0 0
-7.820122 8.137277 1.157371 11.345003 -0.805271 1.468603 0.003226 -0.003349 -1213980.000000 1 0 0
7.491078 0.941577 -6.564729 10.004923 0.125037 2.286502 0.000399 0.002890 556194.000000 1 0 0
8.884578 8.846277 5.579071 13.722915 0.783238 1.152120 0.006164 -0.000757 434733.000000 1 0 0
9.426078 -0.963123 -1.335929 9.568869 -0.101823 1.710866 0.004404 -0.003979 473091.000000 1 0 0
5.362178 0.065877 4.184571 6.802053 0.012285 0.908166 -0.003364 0.001436 -41839.800000 1 0 0
-4.318622 -7.375223 -7.897429 11.636743 1.041064 2.316737 0.008027 -0.006873 -43164.400000 1 0 0
-2.199022 7.466777 -0.647829 7.810771 -1.284386 1.653832 0.002695 -0.002563 -181229.000000 1 0 0
13.411878 -3.269123 -7.342329 15.635710 -0.239086 2.059619 0.017731 -0.008233 1178180.000000 1 0 0
-4.771822 -5.078123 1.600271 7.149719 0.816485 1.345061 0.011270 -0.003089 2700590.000000 1 0 0
-8.941922 1.335977 2.457071 9.369098 -0.148309 1.305440 0.005182 -0.005876 -1205140.000000 1 0 0
-0.968722 11.106077 10.207371 15.115350 -1.483792 0.829427 -0.005500 0.002849 209815.000000 1 0 0
-8.589122 0.325177 7.426971 11.359518 -0.037841 0.858187 0.007071 -0.005804 -746562.000000 1 0 0
-6.244522 12.809877 -1.945529 14.383049 -1.117217 1.706478 0.003459 0.004663 620840.000000 1 0 0
-13.124422 -0.760523 3.250371 13.542295 0.057882 1.328414 0.009971 -0.005695 622857.000000 1 0 0
-6.605522 12.634377 8.576071 16.637590 -1.089059 1.029248 0.015823 -0.008918 1148350.000000 1 0 0
-8.028022 0.792677 -14.077529 16.225113 -0.098420 2.621229 0.003496 -0.002094 -604913.000000 1 0 0
7.300978 2.777477 3.646471 8.620639 0.363519 1.134050 0.000959 -0.001703 -779615.000000 1 0 0
-1.587222 0.666377 -2.103029 2.717731 -0.397491 2.455643 0.005447 -0.003061 898820.000000 1 0 0
-6.127022 9.613677 -10.330429 15.384438 -1.003384 2.307008 0.005027 -0.005724 171390.000000 1 0 0
-10.103722 13.715777 5.346271 17.854701 -0.935894 1.266699 0.000003 -0.007877 532114.000000 1 0 0
-5.705622 8.154877 2.452571 10.250427 -0.960300 1.329187 -0.000020 -0.002518 -1656650.000000 1 0 0
-2.474622 -10.720123 -1.281029 11.076363 1.343931 1.686710 0.012072 -0.001100 577052.000000 1 0 0
-2.235822 -12.367823 8.848671 15.370781 1.391951 0.957359 0.006481 -0.006422 472902.000000 1 0 0
-14.694822 -6.370223 -1.611029 16.096985 0.409049 1.671047 0.006187 -0.003341 600400.000000 1 0 0
-2.763222 -9.269123 3.319071 10.225862 1.281074 1.240233 0.009088 -0.002330 -683873.000000 1 0 0
4.695178 -2.786523 7.443371 9.231099 -0.535616 0.632865 -0.000846 0.003030 -1874880.000000 1 0 0
-15.148622 -1.239623 -0.365629 15.203654 0.081649 1.594847 0.010930 -0.003955 290145.000000 1 0 0
5.565178 8.808477 -2.850329 10.802076 1.007324 1.837827 0.003815 -0.000752 -968489.000000 1 0 0
-5.704722 -5.655123 8.496871 11.692779 0.781032 0.757324 0.009569 -0.003443 -3613470.000000 1 0 0
3.427478 3.594177 7.020971 8.599986 0.809134 0.615658 -0.006206 0.002052 724296.000000 1 0 0
3.198078 2.368377 9.406671 10.213833 0.637434 0.400224 -0.002587 -0.000146 -33662.200000 1 0 0
9.880278 -3.173823 5.146971 11.583797 -0.310817 1.110376 0.013847 -0.008687 -358620.000000 1 0 0
6.641178 9.973277 -5.105329 13.024434 0.983327 1.973580 0.005022 -0.000582 601979.000000 1 0 0
-4.464522 12.099877 -8.423129 15.404158 -1.217320 2.149344 0.004811 -0.001309 441108.000000 1 0 0
-3.398122 -7.210423 2.023271 8.223810 1.130388 1.322218 0.008703 -0.001402 938340.000000 1 0 0
-7.544022 -4.075123 1.095871 8.644063 0.495272 1.443677 0.007706 -0.002641 3547380.000000 1 0 0
-2.027422 -3.907323 -10.873429 11.730689 1.092161 2.756921 0.014499 -0.005862 -515702.000000 1 0 0
-5.157022 8.305977 -4.495629 10.760800 -1.015165 2.001795 0.005720 -0.002038 51671.000000 1 0 0
-10.890822 -3.145223 -10.111429 15.190241 0.281146 2.299165 0.006695 -0.003812 -151485.000000 1 0 0
4.795178 -11.386123 -7.648129 14.530361 -1.172198 2.125104 0.003174 -0.000089 -1108650.000000 1 0 0
-9.521322 -3.953123 7.277071 12.618974 0.393529 0.956141 0.010372 -0.005032 -36825.600000 1 0 0
-5.774522 -9.650423 -5.138229 12.364350 1.031576 1.999364 0.009545 -0.007626 458049.000000 1 0 0
4.769078 4.424377 -9.490829 11.506305 0.747922 2.540711 0.004836 0.003925 510857.000000 1 0 0
-3.353922 -7.179823 -13.967129 16.058622 1.133787 2.625510 0.012606 -0.003218 -57279.600000 1 0 0
0.620378 -0.856823 -8.696129 8.760232 -0.944114 3.020543 0.010978 -0.007235 -219898.000000 1 0 0
-7.769322 2.161177 -2.931429 8.580578 -0.271309 1.919453 0.006755 -0.002211 297307.000000 1 0 0
-2.253022 7.547977 -12.593029 14.853701 -1.280722 2.582627 0.006639 -0.008515 -528515.000000 1 0 0
-9.967022 8.822777 7.524571 15.290589 -0.724576 1.056290 0.002559 -0.009240 -399279.000000 1 0 0
-10.591122 -3.042723 -14.420129 18.148557 0.279756 2.489080 0.011740 0.005250 -164393.000000 1 0 0
-3.278022 4.733277 7.893971 9.770574 -0.965089 0.630160 0.000659 -0.002168 -666162.000000 1 0 0
8.744578 -2.241923 -3.533729 9.694385 -0.250973 1.943906 0.003532 -0.000611 -6253680.000000 1 0 0
1.940178 -8.442923 -1.161729 8.740529 -1.344919 1.704104 0.005843 -0.002008 -552845.000000 1 0 0
-13.672122 -2.891823 5.020071 14.848928 0.208440 1.225924 0.020215 -0.004134 495370.000000 1 0 0
6.989078 2.815177 -1.908029 7.772581 0.382915 1.818813 0.002700 -0.002971 746354.000000 1 0 0
-11.175022 4.357177 8.860371 14.912152 -0.371772 0.934561 0.003445 -0.009568 -3138410.000000 1 0 0
-1.952822 -2.589123 8.015571 8.646760 0.924587 0.384455 0.000297 -0.001676 -930263.000000 1 0 0
3.201078 11.981477 -9.950429 15.900117 1.309725 2.246964 0.006197 -0.005103 22616.800000 1 0 0
3.614378 -5.021623 -7.056229 9.384604 -0.946929 2.421727 0.001798 -0.001408 393743.000000 1 0 0
8.465978 -13.733123 -9.717329 18.833426 -1.018359 2.112926 0.009540 0.003772 -319477.000000 1 0 0
-6.362122 -5.714123 -0.405729 8.561099 0.731791 1.618206 0.011570 -0.004014 -173843.000000 1 0 0
-1.204122 -4.078223 9.897371 10.772176 1.283697 0.405791 0.000415 -0.001692 836748.000000 1 0 0
2.842878 3.329177 1.751271 4.715117 0.864026 1.190262 -0.003602 0.001556 -1463390.000000 1 0 0
-9.122022 13.301677 7.784471 17.909324 -0.969678 1.121135 0.005551 -0.017185 -482539.000000 1 0 0
4.113078 -11.174623 0.008671 11.907547 -1.218112 1.570068 0.003066 -0.005908 65505.600000 1 0 0
-12.422022 -1.323723 -9.068129 15.436639 0.106162 2.198691 0.007063 -0.002084 26307.200000 1 0 0
-4.114022 1.063977 -13.512829 14.165231 -0.253077 2.836914 0.011584 -0.007791 152002.000000 1 0 0
3.933778 -3.132323 4.920171 7.035207 -0.672458 0.796289 -0.000659 0.000964 18160.600000 1 0 0
1.732978 -1.278923 1.062171 2.401471 -0.635771 1.112635 0.002973 -0.001794 90718.100000 1 0 0
8.076678 -9.016323 7.272271 14.121357 -0.840315 1.029807 0.004947 -0.003022 -1768080.000000 1 0 0
0.049878 2.337477 -6.428129 6.840112 1.549461 2.792752 0.007451 -0.005772 70791.700000 1 0 0
-3.824622 -9.822223 -3.442829 11.088591 1.199475 1.886498 0.012434 -0.002793 802811.000000 1 0 0
-9.352522 2.342077 -5.365729 11.033859 -0.245376 2.078643 0.001821 0.000565 -511751.000000 1 0 0
8.913378 -7.511323 5.277171 12.795187 -0.700242 1.145672 0.004204 -0.006370 2260630.000000 1 0 0
-5.533522 -4.254423 4.711071 8.421055 0.655453 0.977087 0.007358 -0.002406 -239695.000000 1 0 0
-0.198422 -12.475623 10.393871 16.239245 1.554893 0.876238 0.012392 -0.006844 -634819.000000 1 0 0
-14.379822 -8.364023 3.122271 16.925860 0.526818 1.385266 0.012355 -0.003104 -876080.000000 1 0 0
10.925378 -1.278623 -3.481629 11.537786 -0.116502 1.877333 0.007992 -0.000376 -365625.000000 1 0 0
-13.697522 2.959677 2.605871 14.253854 -0.212802 1.386944 0.011529 -0.006498 -741456.000000 1 0 0
-6.328922 6.119277 0.925171 8.851935 -0.768558 1.466089 0.003673 -0.004041 1012440.000000 1 0 0
7.067978 -6.856123 -0.328029 9.852428 -0.770184 1.604097 -0.000532 -0.004464 -98772.000000 1 0 0
-6.840822 7.715277 10.018771 14.377000 -0.845401 0.799785 0.006369 -0.005778 299325.000000 1 0 0
-12.627422 -5.140723 -1.925629 13.769054 0.386619 1.711108 -0.000174 -0.003102 -2704880.000000 1 0 0
-9.582222 -5.633323 0.175871 11.116844 0.531470 1.554975 0.011768 -0.001909 -457980.000000 1 0 0
-1.764322 1.827877 2.155971 3.331993 -0.803089 0.867085 0.002409 -0.001697 5552.950000 1 0 0
-7.178122 7.300577 7.510371 12.697620 -0.793856 0.937905 0.003026 -0.006375 82648.800000 1 0 0
5.592478 7.153277 -0.432429 9.090225 0.907248 1.618385 0.005416 -0.002829 -1489900.000000 1 0 0
-0.000422 -4.009923 7.451971 8.462349 1.570691 0.493663 -0.000585 -0.000199 -961465.000000 1 0 0
6.232078 0.752277 13.096971 14.523614 0.120129 0.446947 0.003307 -0.002895 236026.000000 1 0 0
5.820278 6.223477 -7.919729 11.633117 0.818864 2.319639 0.001504 0.001677 -174549.000000 1 0 0
9.834578 5.263177 9.095371 14.392559 0.491387 0.886730 0.003197 -0.004511 -3499970.000000 1 0 0
-1.198922 -5.074823 -8.454629 9.933377 1.338801 2.588937 0.013608 -0.005598 1295170.000000 1 0 0
10.078378 -3.526823 -7.885729 13.273918 -0.336621 2.206914 0.010605 -0.003199 447979.000000 1 0 0
8.565678 -5.425923 1.239471 10.215075 -0.564652 1.449159 0.004569 -0.006930 1545800.000000 1 0 0
15.758178 3.190677 -4.868429 16.798875 0.199777 1.864821 0.021065 -0.005732 26238.900000 1 0 0
-6.833322 3.706477 1.111471 7.852874 -0.496999 1.428783 0.007508 -0.005552 1408960.000000 1 0 0
-1.745922 3.799077 0.260871 4.189187 -1.140017 1.508483 0.003196 -0.003752 -1511850.000000 1 0 0
-2.536022 9.950077 7.032171 12.445356 -1.321235 0.970310 0.001779 0.003399 -437639.000000 1 0 0
5.557578 -5.639923 -8.688929 11.755547 -0.792752 2.402581 0.003025 -0.001062 1302780.000000 1 0 0
-1.244922 -1.006623 6.282271 6.483059 0.679953 0.249529 0.001205 -0.000352 -74687.400000 1 0 0
-5.696022 5.029177 -7.821329 10.904608 -0.723303 2.370644 0.006837 -0.002565 59432.300000 1 0 0
6.785378 -1.333423 2.538271 7.366288 -0.194042 1.219006 -0.000321 -0.001962 -1118970.000000 1 0 0
8.691078 7.452777 3.308471 11.917412 0.708844 1.289484 0.002178 -0.001385 -251493.000000 1 0 0
-5.298522 -4.972923 -7.798729 10.659478 0.753709 2.391497 0.009937 -0.009053 -52173.300000 1 0 0
-2.103022 7.915477 -10.075529 12.984366 -1.311111 2.459054 0.005387 -0.003736 536484.000000 1 0 0
-2.861722 -2.418823 1.630471 4.086391 0.701720 1.160370 0.003267 0.001877 -471735.000000 1 0 0
6.086378 -2.076223 -9.214429 11.236565 -0.328748 2.532277 0.000948 0.002880 1386190.000000 1 0 0
1.181778 -7.695523 5.110871 9.313360 -1.418420 0.989907 0.000346 -0.001467 296826.000000 1 0 0
1.777978 11.822177 1.203971 12.015600 1.421522 1.470427 0.002955 -0.001947 807729.000000 1 0 0
-1.054722 7.068777 2.614871 7.610362 -1.422681 1.220056 -0.000577 -0.001255 590996.000000 1 0 0
8.688478 7.807577 -6.679229 13.455854 0.732048 2.090221 0.004784 0.001319 -16776.100000 1 0 0
3.673278 -11.232623 5.429971 13.005744 -1.254740 1.140098 -0.000435 -0.004396 -30212.500000 1 0 0
7.906178 -7.172523 12.402071 16.363499 -0.736781 0.710692 0.010948 0.001400 255555.000000 1 0 0
-8.718222 -0.015323 -3.993529 9.589364 0.001758 2.000338 0.006328 -0.001322 -1094830.000000 1 0 0
-3.351222 -5.076823 11.223071 12.765663 0.987352 0.496698 0.007866 -0.008659 546859.000000 1 0 0
-8.141822 0.221477 -11.530229 14.116816 -0.027196 2.526591 0.001332 -0.002722 -1239120.000000 1 0 0
1.364678 -5.135623 5.320271 7.519458 -1.311071 0.784794 -0.001584 0.001619 -548375.000000 1 0 0
6.711378 3.853977 -7.743529 10.947967 0.521267 2.356472 0.001198 0.001905 -801797.000000 1 0 0
16.292178 4.338477 -1.178029 16.901042 0.260253 1.640554 0.020364 -0.002115 876900.000000 1 0 0
7.924578 7.453677 0.270071 10.882517 0.754787 1.545977 0.002555 -0.002015 -1420560.000000 1 0 0
5.624178 -10.219323 13.832971 18.094669 -1.067686 0.700566 0.012634 -0.003847 -372665.000000 1 0 0
-5.092622 -9.342123 8.965771 13.913846 1.071704 0.870587 0.005841 -0.006570 675544.000000 1 0 0
-12.623022 -3.166323 2.843171 13.321032 0.245766 1.355707 0.010400 -0.002479 210201.000000 1 0 0
-2.199322 -1.462523 -5.901129 6.465238 0.586840 2.720755 0.009385 -0.006722 -1183720.000000 1 0 0
-2.567622 12.995677 -4.289829 13.924186 -1.375734 1.883975 0.004251 0.003106 415425.000000 1 0 0
3.928278 -0.466823 -4.977429 6.357994 -0.118282 2.470048 0.003616 0.000523 32902.500000 1 0 0
-8.817322 3.866977 -7.372129 12.126292 -0.413305 2.224267 0.003192 -0.001528 269143.000000 1 0 0
-4.402522 7.944377 -11.274329 14.477770 -1.064759 2.463441 0.006611 -0.005969 -3274040.000000 1 0 0
-10.167422 -6.425623 7.315271 14.077581 0.563604 1.024367 0.010650 -0.004346 -1271840.000000 1 0 0
8.092478 5.264277 4.138671 10.503781 0.576737 1.165798 0.000119 -0.000896 -1529110.000000 1 0 0
-6.700622 -7.551523 3.997471 10.858343 0.845031 1.193781 0.015108 -0.003470 -766386.000000 1 0 0
-4.051722 11.739977 8.022071 14.785031 -1.238474 0.997290 0.006940 -0.002792 121783.000000 1 0 0
-7.254822 9.974177 -8.028729 14.716560 -0.941943 2.147850 0.009522 -0.002666 -721508.000000 1 0 0
13.164678 5.458177 4.733171 15.016769 0.393035 1.250137 0.012106 -0.005295 732128.000000 1 0 0
5.413478 3.990877 -3.780429 7.715212 0.635266 2.082882 0.002805 0.000120 222481.000000 1 0 0
-2.867522 -4.239423 5.046471 7.187646 0.976089 0.792449 0.005366 -0.001581 -1145340.000000 1 0 0
12.403478 -2.409923 -5.092029 13.622876 -0.191903 1.953883 0.008198 -0.003265 -2627970.000000 1 0 0
-5.191222 9.653977 6.995971 13.003526 -1.077423 1.002727 0.000422 0.000225 -119348.000000 1 0 0
1.695278 3.851177 -0.471629 4.234143 1.156124 1.682415 0.002555 -0.001905 596948.000000 1 0 0
-0.004922 9.595577 7.697571 12.301534 -1.570283 0.894715 -0.007327 0.003446 -1999450.000000 1 0 0
-5.650022 2.076877 5.820571 8.373483 -0.352256 0.802210 0.005974 -0.005068 561400.000000 1 0 0
8.730678 0.854077 10.698871 13.835463 0.097515 0.686777 0.008906 -0.003392 -520942.000000 1 0 0
0.467978 -2.857523 -10.157629 10.562285 -1.408467 2.863893 0.009691 -0.004256 -1263090.000000 1 0 0
1.207478 10.587277 -2.744529 11.003676 1.457237 1.822877 0.006414 -0.003500 976483.000000 1 0 0
2.187478 -4.403723 11.658071 12.652607 -1.109765 0.399137 -0.000590 -0.002028 333934.000000 1 0 0
6.495878 -2.984523 9.465471 11.861659 -0.430684 0.646846 0.005564 -0.002168 709102.000000 1 0 0
-10.656822 -8.249423 5.566671 14.581106 0.658746 1.179083 0.011951 -0.003703 -1785330.000000 1 0 0
-2.994022 0.805477 -7.006529 7.661880 -0.262806 2.724983 0.011177 -0.005434 577967.000000 1 0 0
11.119978 2.705477 -5.063729 12.514586 0.238662 1.987366 0.002485 0.000066 -2827800.000000 1 0 0
-1.890622 -4.104823 -0.058029 4.519667 1.139174 1.583636 0.006277 -0.002170 893731.000000 1 0 0
-1.165222 -6.399223 -10.649929 12.479133 1.390682 2.593306 0.010744 -0.001883 398140.000000 1 0 0
0.337578 6.886577 -6.523429 9.491787 1.521816 2.328522 0.007777 -0.002800 -2608300.000000 1 0 0
2.141778 3.887277 -6.116029 7.556715 1.067208 2.513841 0.004331 -0.001408 -1709940.000000 1 0 0
1.627978 -14.781723 6.390171 16.185918 -1.461104 1.164948 0.007681 -0.010989 -393789.000000 1 0 0
-1.628622 5.407077 -10.600929 12.011186 -1.278237 2.652135 0.008161 -0.006520 -480224.000000 1 0 0
13.661378 4.386677 -0.700129 14.365458 0.310701 1.619553 0.009896 -0.001579 -3140900.000000 1 0 0
-2.274822 3.298277 -6.299529 7.465756 -0.967017 2.575102 0.010512 -0.005994 -417079.000000 1 0 0
5.559578 7.839577 14.210671 17.155497 0.953944 0.594649 0.007128 0.000939 565165.000000 1 0 0
15.821078 0.679977 -5.658829 16.816397 0.042953 1.914001 0.012275 -0.007993 311155.000000 1 0 0
6.178178 -8.388023 10.611671 14.870655 -0.935960 0.776175 -0.001161 0.001758 969478.000000 1 0 0
0.062278 -5.915623 -6.405729 8.719623 -1.560269 2.395923 0.007819 -0.002909 -1157470.000000 1 0 0
8.714578 5.501177 -7.518929 12.757003 0.563089 2.201108 0.001032 0.002716 -129504.000000 1 0 0
-16.042822 -0.630323 5.265671 16.896649 0.039270 1.253878 0.023749 -0.010067 263289.000000 1 0 0
-0.379222 3.909477 -12.344429 12.954256 -1.474098 2.833536 0.007092 -0.006146 1033430.000000 1 0 0
-11.399222 3.664177 5.848671 13.325742 -0.311010 1.116422 0.007774 -0.010307 -369916.000000 1 0 0
5.095778 -9.803323 -9.671929 14.683947 -1.091434 2.289851 -0.006499 0.005099 191407.000000 1 0 0
1.577178 11.186177 -11.668729 16.241222 1.430726 2.372387 0.006389 -0.001772 -3062560.000000 1 0 0
5.837178 2.385977 1.237671 6.426303 0.388031 1.376991 0.001510 -0.001221 -221244.000000 1 0 0
5.783878 4.513177 4.905271 8.825174 0.662615 0.981439 -0.005258 0.001418 380120.000000 1 0 0
0.348378 -1.617423 -6.275629 6.490065 -1.358647 2.883817 0.008980 -0.004928 -61561.300000 1 0 0
12.686078 6.848177 -4.472929 15.094410 0.494993 1.871644 0.004804 -0.003041 -1156000.000000 1 0 0
7.356478 3.230177 12.810671 15.121677 0.413747 0.560155 0.003047 -0.000247 -543313.000000 1 0 0
-2.423722 -0.252923 8.665171 9.001311 0.103977 0.274146 -0.001586 -0.001080 695021.000000 1 0 0
2.261878 -15.367223 13.093071 20.314924 -1.424657 0.870421 0.023602 -0.011663 829763.000000 1 0 0
18.891478 4.742177 -1.623029 19.545087 0.245940 1.653932 0.026250 -0.009603 731313.000000 1 0 0
-0.376922 -13.259023 7.260771 15.121592 1.542376 1.069960 0.004910 -0.007581 -1668250.000000 1 0 0
4.361078 1.523277 -0.593929 4.657481 0.336041 1.698666 0.002872 -0.001455 1247160.000000 1 0 0
2.689678 -0.469223 -7.261729 7.758044 -0.172715 2.781959 0.007117 -0.001539 580919.000000 1 0 0
7.222378 -11.265023 0.902871 13.411885 -1.000680 1.503427 -0.002240 -0.003296 402041.000000 1 0 0
-11.956922 -7.412923 1.296671 14.128013 0.554973 1.478887 0.008428 -0.000313 614335.000000 1 0 0
0.134278 -7.095023 9.965971 12.234294 -1.551873 0.618769 0.001015 -0.004112 -317147.000000 1 0 0
-4.780622 -7.187323 10.560571 13.639561 0.983847 0.685251 0.011658 -0.004887 -848716.000000 1 0 0
11.933978 0.896777 -1.656629 12.081741 0.075004 1.708348 0.008125 -0.005399 2698240.000000 1 0 0
6.639278 -9.623823 -7.607629 13.948978 -0.966895 2.147650 -0.002417 0.001815 -1943090.000000 1 0 0
-10.921522 4.860677 3.573271 12.476942 -0.418734 1.280339 0.003367 -0.006539 -142627.000000 1 0 0
6.000378 -9.174723 2.031671 11.149339 -0.991606 1.387549 -0.001799 -0.006100 2372280.000000 1 0 0
11.682078 -1.410323 5.864671 13.147408 -0.120144 1.108426 0.017383 -0.012563 86026.700000 1 0 0
-6.493122 3.591077 4.108471 8.481510 -0.505188 1.065115 0.004006 -0.006094 -1698430.000000 1 0 0
9.504978 6.326077 -3.142329 11.842217 0.587232 1.839363 0.002576 0.001097 11826.400000 1 0 0
-2.298122 6.463077 10.924871 12.899827 -1.229162 0.560667 -0.001172 0.000412 116185.000000 1 0 0
1.901178 9.869577 3.012771 10.492846 1.380497 1.279571 -0.002833 -0.000677 -7407.260000 1 0 0
2.807878 6.178077 -5.521929 8.748972 1.144214 2.253833 0.002984 -0.001146 -2179100.000000 1 0 0
11.997078 0.156277 -5.544129 13.217098 0.013026 2.003654 0.009198 -0.002771 411786.000000 1 0 0
-2.629822 -12.551023 6.202271 14.244729 1.364254 1.120305 0.007407 -0.002916 217977.000000 1 0 0
10.928178 1.933077 -2.749329 11.433314 0.175078 1.813643 0.004897 -0.002555 395430.000000 1 0 0
-8.950722 5.276177 0.848771 10.424677 -0.532640 1.489287 0.006256 -0.005498 466451.000000 1 0 0
1.172778 -10.190023 5.596771 11.684854 -1.456210 1.071308 0.003131 -0.004997 236768.000000 1 0 0
9.357378 -5.736823 -1.218229 11.043357 -0.549982 1.681335 0.005892 -0.006573 560426.000000 1 0 0
-7.776722 8.660577 -4.486829 12.474560 -0.839118 1.938719 0.005601 -0.000457 -343819.000000 1 0 0
-7.445922 -0.123423 -1.638829 7.625139 0.016574 1.787411 0.007380 -0.001177 -1707880.000000 1 0 0
4.113178 8.836377 2.754771 10.128601 1.135142 1.295347 0.003573 -0.002316 -192338.000000 1 0 0
-1.323622 -10.578923 -3.802429 11.319189 1.446324 1.913386 0.011072 -0.000243 -9816.160000 1 0 0
3.206878 7.876877 -3.626929 9.245749 1.184162 1.973906 0.006336 -0.004152 -268808.000000 1 0 0
-4.343422 1.721177 -11.026629 11.975571 -0.377289 2.740821 0.007797 -0.007630 -567977.000000 1 0 0
1.193978 2.714877 11.051871 11.442902 1.156465 0.262178 -0.000724 0.000006 704629.000000 1 0 0
2.198578 5.640077 -7.973629 10.011142 1.199102 2.492240 0.004858 -0.001426 674549.000000 1 0 0
15.674078 6.038477 4.147171 17.301415 0.367729 1.328738 0.030850 -0.010963 821011.000000 1 0 0
-4.451122 8.966877 4.590471 11.013165 -1.110036 1.140856 0.000365 0.000727 -95416.600000 1 0 0
-0.952622 -8.102323 -12.365829 14.814481 1.453760 2.558406 0.009598 0.000071 438395.000000 1 0 0
14.253278 -4.238623 -5.166529 15.742137 -0.289050 1.905191 0.019512 -0.005748 187952.000000 1 0 0
-5.986522 -6.205123 -5.698029 10.334869 0.803327 2.154766 0.009809 -0.006022 475200.000000 1 0 0
-8.895422 2.601877 -12.379229 15.464268 -0.284558 2.498934 0.004094 -0.002193 581113.000000 1 0 0
10.515978 5.466577 13.738971 18.144658 0.479390 0.711794 0.022494 -0.002670 992958.000000 1 0 0
-0.387422 10.794277 5.534271 12.136502 -1.534920 1.097298 -0.005029 0.006324 866161.000000 1 0 0
0.428178 11.161577 -0.636829 11.187926 1.532453 1.627748 0.002734 -0.002241 -274529.000000 1 0 0
-1.541922 -0.557123 3.702871 4.049588 0.346721 0.416817 0.002297 -0.000351 783720.000000 1 0 0
-4.852422 6.627177 8.741571 11.995022 -0.938785 0.754277 0.002906 -0.000383 -915446.000000 1 0 0
3.526378 -8.781523 -11.463529 14.864823 -1.188939 2.451497 -0.004179 0.004624 -190043.000000 1 0 0
6.640778 -3.804123 12.029871 14.257948 -0.520212 0.566600 0.009724 -0.000154 -57284.400000 1 0 0
-2.473622 -1.795623 -12.512729 12.880662 0.627903 2.902002 0.013758 -0.009763 627267.000000 1 0 0
-16.162622 -4.929823 5.420071 17.745723 0.296050 1.260407 0.014799 -0.002506 573500.000000 1 0 0
-9.005622 7.223477 5.763771 12.903523 -0.676025 1.107743 -0.004213 -0.005199 -2521030.000000 1 0 0
-13.002722 1.518777 5.913371 14.364728 -0.116278 1.146522 0.009090 -0.009617 89943.600000 1 0 0
-3.632622 3.540177 10.176771 11.370817 -0.772511 0.462387 0.000727 0.000775 569126.000000 1 0 0
2.059478 -12.309023 -1.053529 12.524512 -1.405017 1.655013 0.012059 -0.002532 -1986240.000000 1 0 0
10.140578 -5.123323 -3.619229 11.923866 -0.467823 1.879190 0.009539 -0.002807 1029480.000000 1 0 0
3.138978 -13.574823 0.925771 13.963740 -1.343555 1.504449 0.009876 -0.004657 562168.000000 1 0 0
10.136478 -1.519323 -6.063329 11.908841 -0.148779 2.104988 0.008300 -0.000710 -167247.000000 1 0 0
11.912178 -5.387623 -1.565129 13.167236 -0.424747 1.689943 0.009645 -0.004418 -76137.600000 1 0 0
1.433478 0.891277 5.977571 6.211328 0.556265 0.275218 -0.000962 0.000359 410789.000000 1 0 0
-10.864022 11.750077 6.585871 17.305057 -0.824560 1.180378 0.001795 -0.008223 107149.000000 1 0 0
4.779178 -14.118723 3.055371 15.215590 -1.244404 1.368616 0.006269 -0.009077 -3986590.000000 1 0 0
5.272278 -3.468023 -1.758829 6.551151 -0.581828 1.842607 0.005834 -0.004137 -1097120.000000 1 0 0
2.054978 -2.904723 -7.713629 8.494729 -0.955080 2.709398 0.006457 -0.001871 -374107.000000 1 0 0
-2.677622 14.900277 -8.859329 17.540685 -1.392991 2.100263 0.015782 -0.001168 -1705960.000000 1 0 0
-2.326422 6.042377 -8.168829 10.423643 -1.203272 2.471369 0.010336 -0.004641 -82544.000000 1 0 0
2.648778 -3.517523 -11.234329 12.066447 -0.925363 2.768045 0.005408 0.001620 -1387850.000000 1 0 0
14.670978 2.874577 -2.579129 15.170784 0.193485 1.741632 0.015052 -0.002670 658013.000000 1 0 0
-3.418522 13.120477 2.229171 13.740539 -1.315914 1.407843 -0.005134 0.002542 -375582.000000 1 0 0
7.773378 -5.053323 13.968571 16.765514 -0.576432 0.585976 0.015596 -0.006172 -2407580.000000 1 0 0
-11.338222 7.219777 2.816171 13.733582 -0.567014 1.364274 0.003974 -0.002353 1325300.000000 1 0 0
-2.277422 11.931977 4.105971 12.822548 -1.382198 1.244840 -0.005565 0.002354 858727.000000 1 0 0
1.819178 1.421777 0.685871 2.408585 0.663389 1.282039 -0.003603 0.000092 -1350200.000000 1 0 0
-6.872922 8.569977 5.321971 12.206758 -0.894851 1.119663 -0.002891 -0.002041 -1146670.000000 1 0 0
-1.203922 9.072977 1.016171 9.208743 -1.438874 1.460223 -0.000552 -0.000745 -141518.000000 1 0 0
4.969578 12.819477 -8.490129 16.159146 1.200974 2.123990 0.008107 -0.014696 -1538240.000000 1 0 0
8.925478 6.847377 7.225171 13.369885 0.654401 0.999876 -0.003814 -0.001755 -1342610.000000 1 0 0
7.315478 -13.777323 2.885371 15.863676 -1.082673 1.387893 0.010356 -0.007126 1401760.000000 1 0 0
4.250778 -13.386523 -1.409929 14.115807 -1.263325 1.670846 0.008357 0.000967 -2642280.000000 1 0 0
12.177478 -11.907423 -4.538829 17.626079 -0.774186 1.831237 0.017360 -0.002716 -844195.000000 1 0 0
2.970278 -0.045723 -1.988129 3.574535 -0.015392 2.160593 0.003712 -0.001372 1361580.000000 1 0 0
-13.467322 -3.094223 -10.685429 17.467723 0.225838 2.229035 0.014727 -0.005277 -35006.100000 1 0 0
-6.625022 13.650677 4.998471 15.975501 -1.118957 1.252569 0.007067 -0.006991 129077.000000 1 0 0
7.286678 -4.334623 -0.616429 8.500860 -0.536639 1.643374 0.001563 -0.004125 -1506930.000000 1 0 0
11.757178 2.064677 -7.260929 13.971944 0.173837 2.117272 0.012323 -0.002765 -1465430.000000 1 0 0
-7.530522 -4.477023 9.664271 13.044180 0.536378 0.736405 0.012140 -0.004388 240579.000000 1 0 0
0.919878 2.834477 8.463871 8.973158 1.256988 0.338532 -0.000745 0.000588 -1982230.000000 1 0 0
1.643578 8.117277 -8.706629 12.016527 1.371018 2.381184 0.007757 -0.002863 695443.000000 1 0 0
-8.671622 -2.140423 -5.644229 10.565782 0.241994 2.134356 0.004445 -0.002693 -430776.000000 1 0 0
6.605878 -0.464423 7.107871 9.714687 -0.070189 0.750039 0.001627 0.000054 776476.000000 1 0 0
-10.898422 6.416877 7.189971 14.548113 -0.532136 1.053859 0.004011 -0.010808 -181553.000000 1 0 0
-5.980022 11.026077 4.905471 13.468433 -1.073843 1.198001 -0.000341 -0.001191 -843831.000000 1 0 0
6.081478 -1.176323 -6.920229 9.287501 -0.191068 2.411499 0.001107 0.002432 -211167.000000 1 0 0
4.382478 -5.795723 11.397871 13.516952 -0.923366 0.567536 0.001389 -0.001769 -1384220.000000 1 0 0
-9.003022 -7.388223 2.777871 11.973170 0.687199 1.336655 0.013639 -0.004433 -2287310.000000 1 0 0
-1.174722 12.770277 -9.259929 15.817909 -1.479066 2.196179 0.016339 -0.001421 489268.000000 1 0 0
-4.645922 9.224077 -2.319029 10.585182 -1.104214 1.791670 0.000879 -0.001961 652778.000000 1 0 0
-3.209722 9.700177 -0.261229 10.220763 -1.251244 1.596358 0.001353 -0.002745 -2222010.000000 1 0 0
-3.371122 10.686377 -6.430929 12.919751 -1.265217 2.091810 0.002828 0.003218 753568.000000 1 0 0
4.845278 -4.829223 0.322871 6.848530 -0.783739 1.523634 0.002116 -0.006119 -1480620.000000 1 0 0
-2.239222 2.889177 -10.757429 11.361502 -0.911463 2.814037 0.011235 -0.006852 -2575110.000000 1 0 0
-3.639122 12.091877 -2.172729 12.813175 -1.278463 1.741190 -0.003503 0.002501 -1000620.000000 1 0 0
-0.149522 0.331377 0.057971 0.368142 -1.146934 1.412668 -0.002024 0.000189 -1150130.000000 1 0 0
-4.738722 -1.720423 0.102971 5.042414 0.348259 1.550374 0.008348 -0.000990 -303327.000000 1 0 0
2.544978 2.505577 -2.442929 4.326977 0.777597 2.170722 -0.001776 -0.001122 1183670.000000 1 0 0
6.036378 -9.662823 8.465371 14.194031 -1.012412 0.931783 -0.005003 -0.000126 -263554.000000 1 0 0
-4.205122 -5.469923 6.630271 9.568887 0.915389 0.805295 0.009243 -0.002797 242270.000000 1 0 0
-6.261922 5.339077 -12.177529 14.697266 -0.706017 2.547323 0.002479 -0.006433 1436180.000000 1 0 0
-13.094522 3.175877 7.874071 15.606207 -0.237940 1.041939 0.007475 -0.009863 713604.000000 1 0 0
4.727478 -7.449223 -4.881029 10.082877 -1.005304 2.076120 0.001382 -0.001323 194687.000000 1 0 0
-5.919422 2.438377 -1.089129 6.493954 -0.390747 1.739307 0.006401 -0.003354 -666612.000000 1 0 0
-6.791822 -2.598923 -14.577129 16.290363 0.365465 2.678850 0.006442 -0.006454 -273774.000000 1 0 0
2.699778 -6.166123 0.844871 6.784075 -1.158100 1.445935 0.004082 -0.004324 -20197.900000 1 0 0
4.786778 -7.902323 12.946871 15.905390 -1.026165 0.619803 0.005514 -0.001584 29472.800000 1 0 0
-10.165622 -1.632923 8.004471 13.041390 0.159271 0.909964 0.014852 -0.004777 154357.000000 1 0 0
-4.469522 13.137477 -0.005929 13.876958 -1.242868 1.571224 -0.006073 0.003288 509964.000000 1 0 0
6.843878 2.260877 -4.484929 8.489100 0.319063 2.127412 0.001379 0.002272 -1546260.000000 1 0 0
5.027878 4.543477 0.085371 6.777170 0.734832 1.558199 -0.001051 -0.001286 -916461.000000 1 0 0
-5.825022 12.099777 1.934671 13.567551 -1.122126 1.427713 -0.003281 -0.001314 -1682680.000000 1 0 0
6.458778 -7.289123 6.602071 11.765818 -0.845723 0.975054 -0.002089 -0.002056 -2153020.000000 1 0 0
-0.386222 4.893277 7.671071 9.107067 -1.492031 0.569222 -0.005229 0.000633 -684688.000000 1 0 0
-5.776322 -3.436923 -1.526829 6.892716 0.536736 1.794162 0.010397 -0.003893 -449877.000000 1 0 0
2.310078 -6.502123 -5.202329 8.641660 -1.229425 2.216807 0.003277 0.000232 -442117.000000 1 0 0
-14.400022 -4.861423 -3.749029 15.654050 0.325584 1.812640 0.005138 -0.009491 -71448.600000 1 0 0
-12.404022 -5.191123 -6.356429 14.873187 0.396355 2.012384 0.006507 -0.012778 -1072320.000000 1 0 0
-14.809822 -3.823023 -1.273629 15.348239 0.252626 1.653874 -0.001400 -0.000750 497375.000000 1 0 0
11.766478 2.898477 8.769471 14.958436 0.241525 0.944367 0.017799 -0.013028 -1533180.000000 1 0 0
8.667078 -6.550923 7.677471 13.303248 -0.647228 0.955608 0.007930 -0.005158 131436.000000 1 0 0
-8.745722 -1.620523 -9.760929 13.205661 0.183215 2.402600 -0.000769 -0.004090 -644280.000000 1 0 0
-8.802122 5.192377 -3.918429 10.944963 -0.532960 1.936934 0.006613 -0.002258 -2419010.000000 1 0 0
-4.141422 -6.228323 4.125171 8.541687 0.983994 1.066781 0.008320 -0.002499 -1068830.000000 1 0 0
-0.181122 -9.320723 3.539871 9.971929 1.551367 1.207900 0.005442 -0.004972 520937.000000 1 0 0
7.966578 -10.432723 3.334171 13.543440 -0.918639 1.322056 -0.003008 -0.004001 -649978.000000 1 0 0
-0.008122 6.429577 9.614171 11.565977 -1.569533 0.589451 -0.004516 0.000229 288610.000000 1 0 0
0.033978 3.455077 -9.756529 10.350293 1.560962 2.801228 0.009988 -0.005649 -600476.000000 1 0 0
4.357178 -3.143423 11.020471 12.260379 -0.624968 0.453615 -0.000204 0.000421 -1187810.000000 1 0 0
8.529078 -9.097123 1.116071 12.519921 -0.817614 1.481534 -0.001037 -0.005813 -547456.000000 1 0 0
-0.400522 -0.435623 11.441971 11.457264 0.827353 0.051673 0.003391 -0.001430 -1994700.000000 1 0 0
10.834678 5.959477 11.383971 16.807749 0.502872 0.826703 0.028417 -0.007757 -344204.000000 1 0 0
-6.338822 -2.817623 -11.932329 13.802178 0.418273 2.615001 0.006174 -0.006373 -67604.400000 1 0 0
-1.713822 2.766877 8.446471 9.051833 -1.016229 0.367794 0.000024 -0.001041 -1795260.000000 1 0 0
-1.764322 13.515377 -6.777529 15.222127 -1.440989 2.032241 0.012351 -0.000824 430175.000000 1 0 0
7.615078 3.104677 9.831671 12.817574 0.387128 0.696572 0.000039 0.000074 -542840.000000 1 0 0
6.638978 8.592177 -8.053929 13.519146 0.912939 2.208986 0.006800 -0.000789 461110.000000 1 0 0
6.732178 -3.020523 -3.941429 8.365443 -0.421747 2.061397 0.004694 -0.001313 -2034350.000000 1 0 0
1.976578 8.303677 1.033271 8.597998 1.337109 1.450329 0.000776 0.001408 788070.000000 1 0 0
-17.703122 6.485577 6.319371 19.884609 -0.351168 1.247386 0.040187 -0.012610 121996.000000 1 0 0
-14.511622 3.039777 -10.338729 18.075307 -0.206486 2.179715 0.018617 0.000196 -276642.000000 1 0 0
-18.428822 0.013477 -4.397129 18.946145 -0.000731 1.805018 0.031685 -0.004098 822095.000000 1 0 0
-13.184222 7.866177 0.096771 15.352844 -0.537942 1.564493 0.012729 0.001520 384820.000000 1 0 0
-12.574122 -4.294823 -12.815229 18.460339 0.329137 2.338109 0.023071 0.000170 -1117160.000000 1 0 0
-17.250722 -0.640223 -8.669229 19.317164 0.037096 2.036200 0.026663 -0.010227 -282388.000000 1 0 0
-16.817322 -2.284423 -2.058129 17.096105 0.135011 1.691475 0.016049 -0.004868 -292093.000000 1 0 0
-15.384522 4.188477 1.581471 16.022731 -0.265810 1.471934 0.027278 -0.004884 -738206.000000 1 0 0
-13.164622 5.923577 4.292171 15.060504 -0.422822 1.281795 0.008062 -0.007110 -130253.000000 1 0 0
-9.945422 14.209477 2.760971 17.562563 -0.960128 1.412934 0.017718 -0.007613 -271122.000000 1 0 0
-11.819722 2.512877 -6.416929 13.682008 -0.209481 2.058960 0.003025 0.001597 666446.000000 1 0 0
-15.874222 10.736777 3.754271 19.528540 -0.594687 1.377347 0.023914 -0.008307 -793207.000000 1 0 0
-12.770422 1.162277 -8.547729 15.410978 -0.090763 2.158741 0.007123 0.000549 572774.000000 1 0 0
-12.202922 14.508277 3.943371 19.363667 -0.871492 1.365714 0.026410 -0.014571 884887.000000 1 0 0
-10.474922 11.117477 -0.946229 15.304171 -0.815148 1.632664 0.008611 0.001144 -57855.700000 1 0 0
-17.050722 5.662577 8.733371 19.976578 -0.320642 1.118335 0.020419 -0.019118 -73149.900000 1 0 0
-11.694722 12.494577 -9.130629 19.397148 -0.818453 2.060903 0.019416 -0.017279 -1206940.000000 1 0 0
-17.276122 -0.416723 2.988171 17.537594 0.024117 1.399574 0.020534 -0.004331 747786.000000 1 0 0
-13.127122 14.953777 -0.807829 19.914552 -0.850356 1.611372 0.039006 -0.005353 100794.000000 1 0 0
-16.543422 4.666477 -10.457129 20.119949 -0.274931 2.117342 0.049770 -0.006022 842521.000000 1 0 0
-11.959522 7.610577 -8.987529 16.784717 -0.566728 2.135848 0.012316 -0.001791 102546.000000 1 0 0
-14.887322 13.392777 -2.033329 20.127923 -0.732599 1.671989 0.052274 -0.012489 242869.000000 1 0 0
-11.873522 10.527277 -5.501529 16.794967 -0.725372 1.904527 0.020947 -0.000142 2458910.000000 1 0 0
-17.784922 2.955477 -0.871229 18.049857 -0.164674 1.619083 0.036651 -0.003521 -295194.000000 1 0 0
-9.284822 15.375777 0.663671 17.973951 -1.027543 1.533864 0.013131 -0.008701 -103538.000000 1 0 0
-8.226122 13.179277 -3.582829 15.943622 -1.012793 1.797451 0.008441 0.004397 -1389540.000000 1 0 0
-17.852122 11.585277 2.217671 21.397079 -0.575642 1.466966 0.076762 0.001876 -102445.000000 1 0 0
-8.205722 15.753077 -7.310529 19.207737 -1.090572 1.961245 0.040255 -0.018516 149026.000000 1 0 0
-6.291022 15.299377 -5.325629 17.378441 -1.180677 1.882258 0.003634 0.001422 -391364.000000 1 0 0
-17.608322 5.308877 -0.178829 18.392095 -0.292831 1.580520 0.052468 -0.001876 934828.000000 1 0 0
-5.405822 12.253477 -12.304029 18.186801 -1.155313 2.313845 0.000215 -0.009119 -311575.000000 1 0 0
-11.142522 3.728677 -11.549429 16.475683 -0.322922 2.347593 0.010274 -0.000599 228116.000000 1 0 0
-11.786122 11.086577 1.253471 16.229481 -0.754823 1.493485 0.013022 -0.004389 140113.000000 1 0 0
-12.906522 0.195577 -11.036929 16.983237 -0.015152 2.278212 0.008779 0.000190 943019.000000 1 0 0
-14.079322 -2.183623 -13.120529 19.368629 0.153868 2.315034 0.030057 0.001254 237365.000000 1 0 0
-18.768022 -2.426223 -3.737529 19.289747 0.128561 1.765787 0.019077 -0.004474 853223.000000 1 0 0
-18.484222 4.639077 -5.119029 19.733017 -0.245896 1.833212 0.056914 -0.006082 651148.000000 1 0 0
-8.160422 15.501677 -2.212229 17.657532 -1.086235 1.696412 0.011037 0.000098 -997941.000000 1 0 0
-16.241722 9.059577 -5.429229 19.373848 -0.508809 1.854835 0.037704 0.000090 -116799.000000 1 0 0
-18.363822 1.682277 1.969871 18.545630 -0.091353 1.464378 0.043306 -0.009193 -829393.000000 1 0 0
-15.569822 -2.734423 -8.631729 18.011195 0.173850 2.070588 0.017161 -0.009873 -813776.000000 1 0 0
-9.652522 10.465477 -7.139129 15.926850 -0.825786 2.035597 0.014512 -0.007679 175392.000000 1 0 0
-13.904822 12.048577 -7.733329 19.957872 -0.713998 1.968696 0.031847 -0.014695 357465.000000 1 0 0
-11.121422 6.518077 -3.822529 13.445560 -0.530124 1.859069 0.005079 -0.000213 -1670520.000000 1 0 0
-13.090422 5.175077 -12.703229 18.960817 -0.376477 2.304968 0.026963 -0.005613 283345.000000 1 0 0
-17.605622 9.095277 2.680071 19.996619 -0.476849 1.436366 0.042741 -0.007427 776701.000000 1 0 0
-13.389822 8.597477 -6.615229 17.232678 -0.570795 1.964788 0.011582 -0.004074 390634.000000 1 0 0
-15.934022 6.901177 -3.841129 17.784082 -0.408719 1.788499 0.028562 0.002060 -1030870.000000 1 0 0
-14.788222 -0.334023 -9.226229 17.433484 0.022583 2.128483 0.017397 -0.008039 -1591930.000000 1 0 0
-10.102422 5.824177 -6.068729 13.145700 -0.522971 2.050652 0.004812 -0.000295 150890.000000 1 0 0
-12.726822 12.298977 -0.835229 17.718195 -0.768304 1.617953 0.028773 -0.004062 -26734.700000 1 0 0
-10.569722 3.403277 -14.140729 17.979475 -0.311501 2.475906 0.007257 0.002486 365297.000000 1 0 0
-10.863522 6.326777 -11.834329 17.265444 -0.527368 2.325996 0.002702 -0.006504 -353069.000000 1 0 0
-5.867722 11.450477 -14.763229 19.583067 -1.097244 2.424740 0.004496 -0.022339 -374371.000000 1 0 0
-15.593822 13.311277 3.348871 20.774319 -0.706595 1.408887 0.030734 -0.012661 272843.000000 1 0 0
-15.176222 11.047877 -3.186429 19.040132 -0.629254 1.738941 0.043892 -0.000186 526309.000000 1 0 0
-18.213022 7.699377 -4.595929 20.300668 -0.399955 1.799169 0.038270 -0.004851 -269774.000000 1 0 0
-3.993422 16.092977 -10.811729 19.794565 -1.327563 2.148614 0.023281 -0.005493 -244145.000000 1 0 0
-15.844722 4.377477 -4.491529 17.040873 -0.269550 1.837522 0.024522 0.000012 1594020.000000 1 0 0
-18.672622 -1.974023 -6.241329 19.786808 0.105326 1.891705 0.033369 -0.006906 433154.000000 1 0 0
-10.785022 8.566777 -5.815529 14.950811 -0.671269 1.970318 0.006987 0.001263 -630683.000000 1 0 0
-11.317922 13.796477 -6.851529 19.114957 -0.883770 1.937391 0.026017 -0.001678 245205.000000 1 0 0
-9.506722 10.529977 -4.427029 14.861251 -0.836423 1.873279 -0.000044 0.004718 -835279.000000 1 0 0
-11.131622 6.321977 -0.241129 12.803849 -0.516504 1.589630 0.006648 -0.000432 -551771.000000 1 0 0
-14.777022 9.230777 -1.416129 17.480648 -0.558363 1.651896 0.035278 -0.001913 -152927.000000 1 0 0
-18.655522 3.618877 4.570971 19.545295 -0.191605 1.334745 0.036684 -0.011804 441928.000000 1 0 0
-14.596322 13.461277 0.575171 19.864275 -0.744966 1.541837 0.024423 0.005414 -29969.000000 1 0 0
-16.815922 2.498677 -9.082529 19.274619 -0.147511 2.061466 0.033461 -0.004989 -548884.000000 1 0 0
-9.225822 8.574477 -9.058829 15.514504 -0.748823 2.194314 0.011699 -0.000582 -1049180.000000 1 0 0
-17.682122 4.692777 -2.680529 18.489587 -0.259416 1.716284 0.033867 0.000386 707383.000000 1 0 0
-13.622122 5.889677 -4.470829 15.499639 -0.408089 1.863401 0.010414 0.001918 905372.000000 1 0 0
-12.126322 9.635877 3.258871 15.827762 -0.671455 1.363417 0.005814 -0.002381 130546.000000 1 0 0
-17.495722 2.424277 -4.052929 18.121910 -0.137687 1.796352 0.027448 -0.001048 967122.000000 1 0 0
-11.336222 1.446977 -12.688529 17.076371 -0.126955 2.408407 0.013190 0.005048 156156.000000 1 0 0
-11.137622 12.060977 3.575871 16.801805 -0.825179 1.356329 0.009666 -0.009093 -187784.000000 1 0 0
-15.799222 13.136477 -4.596329 21.054897 -0.693634 1.790871 0.023823 -0.002271 31984.700000 1 0 0
-11.029822 4.079977 -4.463229 12.578696 -0.354296 1.933523 0.003338 -0.002282 -4559.080000 1 0 0
-11.215422 15.014177 -9.130829 20.846660 -0.929225 2.024169 0.042662 -0.022610 420796.000000 1 0 0
-15.679522 7.164377 -0.167429 17.239598 -0.428598 1.580508 0.038179 0.002188 -650417.000000 1 0 0
-12.822022 8.404877 -4.133829 15.878751 -0.580234 1.834168 0.011180 0.003411 917490.000000 1 0 0
-19.257522 1.852277 -6.009429 20.258241 -0.095890 1.871970 0.052670 -0.010609 1162790.000000 1 0 0
-12.734422 10.121177 -8.978629 18.580084 -0.671555 2.075147 0.022885 -0.009235 820586.000000 1 0 0
-16.769222 10.861277 -0.977629 20.003247 -0.574750 1.619689 0.046673 -0.005392 788153.000000 1 0 0
-10.714022 6.664877 -14.408429 19.152380 -0.556490 2.422350 0.013910 -0.014502 -298399.000000 1 0 0
-13.364122 12.720477 -4.089729 18.898047 -0.760728 1.788932 0.022826 -0.011322 -412659.000000 1 0 0
-18.211422 7.845977 -0.283529 19.831683 -0.406796 1.585094 0.074293 -0.002971 119346.000000 1 0 0
-12.838322 6.630677 -2.112629 14.603136 -0.476741 1.715975 0.006314 0.001331 1134340.000000 1 0 0
-13.849222 8.422177 -10.670629 19.406090 -0.546379 2.152993 0.021999 -0.007304 -989216.000000 1 0 0
-15.029122 1.407577 -1.040729 15.130727 -0.093384 1.639633 0.023942 -0.005038 -833909.000000 1 0 0
-13.419322 2.779977 -2.479329 13.926721 -0.204273 1.749777 0.009397 -0.001480 448624.000000 1 0 0
-11.394622 9.380377 -10.889629 18.341562 -0.688745 2.206462 0.018017 -0.008938 -212127.000000 1 0 0
-15.283922 4.203277 -8.076829 17.790474 -0.268378 2.042043 0.015793 0.000702 752680.000000 1 0 0
-18.306222 10.562877 4.657771 21.642250 -0.523344 1.353883 0.057618 -0.017264 150660.000000 1 0 0
-15.418722 6.129377 -6.324129 17.756713 -0.378374 1.934945 0.024874 0.001165 857838.000000 1 0 0
-7.707522 11.166077 -13.011729 18.798730 -0.966636 2.335274 0.004576 -0.014965 -1366580.000000 1 0 0
-16.931322 9.164477 -2.901429 19.469864 -0.496119 1.720375 0.040267 -0.001610 666091.000000 1 0 0
-20.791022 -1.250423 -4.830129 21.381307 0.060070 1.798668 0.052773 -0.009933 1039580.000000 1 0 0
-15.413322 4.439877 4.112971 16.558971 -0.280462 1.319785 0.024809 -0.005687 -168888.000000 1 0 0
-6.923522 12.652477 -9.385129 17.207585 -1.070100 2.147670 0.012869 -0.007723 -900359.000000 1 0 0
-17.263222 1.674077 5.658971 18.244049 -0.096671 1.255412 0.032292 -0.013453 802381.000000 1 0 0
-10.385822 14.405377 -3.059929 18.020637 -0.946136 1.741424 0.029369 -0.008616 80711.600000 1 0 0
-9.884422 8.600677 -12.821929 18.332357 -0.716062 2.345375 -0.001551 -0.012291 -396667.000000 1 0 0
-13.662522 11.791877 2.835871 18.268964 -0.712040 1.414937 0.022679 -0.008151 -850663.000000 1 0 0
-17.088322 6.619377 1.884871 18.422259 -0.369565 1.468302 0.042244 -0.000067 948996.000000 1 0 0
-9.308222 13.276177 -8.336929 18.231957 -0.959318 2.045719 0.032175 -0.015970 -697298.000000 1 0 0
-5.475522 9.759277 -12.964829 17.126343 -1.059503 2.429523 -0.003096 -0.007930 -699754.000000 1 0 0
-16.088722 1.958777 3.142071 16.509282 -0.121152 1.379307 0.025768 -0.006880 146584.000000 1 0 0
-18.714422 -4.825923 4.752371 19.902365 0.252374 1.329683 0.030327 0.001300 -1051900.000000 1 0 0
-5.178522 14.544677 -9.091529 17.917048 -1.228749 2.102988 0.003163 -0.002135 614482.000000 1 0 0
-15.401322 -0.816823 -6.726129 16.825835 0.052986 1.982040 0.016907 -0.004361 676132.000000 1 0 0
-8.949422 11.071577 -9.564729 17.150977 -0.891000 2.162383 0.015766 -0.011042 587903.000000 1 0 0
-16.695322 1.283777 -6.049729 17.803962 -0.076743 1.917497 0.018350 -0.003929 -1694950.000000 1 0 0
-11.367522 8.758877 -1.449229 14.423548 -0.656504 1.671443 0.003557 0.000982 -477605.000000 1 0 0
-10.659022 11.127277 -12.673429 19.951111 -0.806888 2.259095 0.008302 -0.005122 -295705.000000 1 0 0
-13.954122 11.894677 -10.446429 21.102814 -0.705893 2.088660 0.033622 -0.014747 281036.000000 1 0 0
-13.124622 5.726277 -7.605629 16.213930 -0.411403 2.059045 0.009423 0.001815 772142.000000 1 0 0
-8.831022 15.497977 -4.702629 18.446923 -1.052865 1.828569 0.020659 -0.007287 48095.800000 1 0 0
-8.568522 6.361977 -13.025729 16.839357 -0.638673 2.455187 -0.001734 -0.004535 -346635.000000 1 0 0
-16.498922 7.396077 4.276971 18.579797 -0.421420 1.338519 0.035694 -0.005532 284754.000000 1 0 0
-12.634922 5.324277 -10.199629 17.088640 -0.398812 2.210386 0.014265 -0.001472 153200.000000 1 0 0
-12.347422 9.313077 -13.316329 20.408744 -0.646217 2.281651 0.018918 -0.009298 -643532.000000 1 0 0
-10.731522 5.264377 -8.586429 14.717540 -0.456061 2.193723 0.001415 0.002641 -194073.000000 1 0 0
-17.787322 -4.606323 -2.815429 18.588536 0.253400 1.722842 0.014678 -0.006126 509886.000000 1 0 0
-8.918922 13.234177 -10.933129 19.344868 -0.977781 2.171435 0.038320 -0.019216 116707.000000 1 0 0
-15.069322 6.223677 6.095171 17.406026 -0.391665 1.213037 0.020294 -0.012810 -1503830.000000 1 0 0
-16.364422 -3.129023 -4.486029 17.254261 0.188928 1.833814 0.012539 -0.005540 275123.000000 1 0 0
-11.110422 -1.206423 -12.471829 16.746446 0.108161 2.410949 0.003624 0.001057 243165.000000 1 0 0
-15.308422 6.776277 -8.758929 18.894035 -0.416725 2.052830 0.016873 -0.000574 -183119.000000 1 0 0
-14.964022 9.277577 1.271671 17.652551 -0.554990 1.498695 0.030582 -0.005143 -165535.000000 1 0 0
-19.447522 5.350777 7.887471 21.657542 -0.268496 1.198033 0.057307 -0.027486 -791407.000000 1 0 0
-16.417822 0.648177 0.804271 16.450285 -0.039460 1.521886 0.022145 -0.005506 -1503840.000000 1 0 0
-17.482522 3.943477 6.909771 19.207668 -0.221854 1.202807 0.026785 -0.015051 1085520.000000 1 0 0
-15.486722 4.042077 -1.433229 16.069570 -0.255307 1.660104 0.027447 -0.002329 -1026640.000000 1 0 0
-10.766222 13.324377 0.458171 17.136525 -0.891191 1.544057 0.018043 -0.007769 -908842.000000 1 0 0
-13.512722 3.325277 0.002771 13.915859 -0.241291 1.570597 0.016266 -0.003695 -815305.000000 1 0 0
-15.040522 0.267777 -4.315329 15.649635 -0.017802 1.850162 0.011300 -0.001020 -710814.000000 1 0 0
-19.054422 7.049277 3.547271 20.623929 -0.354340 1.397939 0.057994 -0.008086 1076250.000000 1 0 0
-14.096022 1.418877 -6.361829 15.530097 -0.100320 1.992861 0.010472 0.001970 -372505.000000 1 0 0
-14.235822 12.113677 5.331071 19.437596 -0.705033 1.292970 0.020495 -0.015363 7403.850000 1 0 0
17.903378 5.568577 6.445571 19.826381 0.301550 1.239678 0.058420 -0.018448 943443.000000 1 0 0
18.383878 7.611177 -0.112829 19.897480 0.392528 1.576467 0.030688 -0.000865 299224.000000 1 0 0
16.692578 5.279777 8.721571 19.559755 0.306338 1.108624 0.062090 -0.011578 516435.000000 1 0 0
11.531978 12.294777 11.015971 20.137023 0.817402 0.991959 0.041294 -0.014135 463372.000000 1 0 0
-2.236522 16.261577 -0.524029 16.423018 -1.434120 1.602710 -0.001951 0.003705 -140376.000000 1 0 0
15.079178 12.769177 3.435371 20.055804 0.702638 1.398657 0.032029 -0.004143 -144302.000000 1 0 0
13.464778 11.649377 6.774171 19.049872 0.713238 1.207238 0.037697 -0.011796 733584.000000 1 0 0
-0.571522 15.835177 8.544771 18.002572 -1.534720 1.076239 -0.006582 -0.003026 50388.200000 1 0 0
0.790978 12.810077 9.454271 15.940733 1.509128 0.935906 -0.008932 0.000376 -1268050.000000 1 0 0
0.789778 15.556277 -4.003529 16.082592 1.520071 1.822377 0.010827 -0.001705 -449472.000000 1 0 0
5.410378 10.267077 13.615771 17.890620 1.085811 0.705856 0.004819 -0.005255 -85271.200000 1 0 0
-1.273122 16.421277 -2.762329 16.700588 -1.493422 1.736963 0.002126 0.000631 -1027990.000000 1 0 0
8.570578 10.062277 3.429971 13.655363 0.865285 1.316896 0.005911 -0.002418 545697.000000 1 0 0
12.669878 13.620277 -4.926529 19.243400 0.821533 1.829690 0.030279 -0.013478 -258341.000000 1 0 0
2.343978 11.496177 7.730271 14.050389 1.369661 0.988214 -0.007734 0.002619 227934.000000 1 0 0
-0.246922 14.898677 -8.512129 17.160650 -1.554224 2.089812 0.019549 -0.006955 -1851040.000000 1 0 0
2.448078 15.829577 0.325771 16.021072 1.417360 1.550461 0.012381 -0.009007 -592222.000000 1 0 0
1.881578 13.378777 5.259171 14.497962 1.431074 1.199576 -0.002958 0.002215 1119910.000000 1 0 0
17.363378 9.368677 -1.707929 19.803435 0.494797 1.657148 0.014617 0.002036 334935.000000 1 0 0
-7.164522 14.824577 7.253171 17.991858 -1.120608 1.155855 0.013061 -0.015743 -1065020.000000 1 0 0
8.527578 15.969277 0.049471 18.103587 1.080321 1.568064 0.007271 -0.007743 -310219.000000 1 0 0
15.597678 10.405677 2.374571 18.899849 0.588323 1.444824 0.017243 0.002884 88312.900000 1 0 0
14.058778 7.418977 8.813271 18.175924 0.485570 1.064562 0.044209 -0.013900 -930976.000000 1 0 0
4.289178 18.357477 -2.062329 18.964367 1.341266 1.679759 0.022192 -0.017365 -568562.000000 1 0 0
-0.427222 17.619177 -4.791729 18.264134 -1.546554 1.836261 0.019610 -0.003978 396443.000000 1 0 0
1.361078 13.659277 -0.674729 13.743495 1.471479 1.619910 0.003462 -0.005647 35848.200000 1 0 0
10.305178 14.649577 4.295171 18.418885 0.957762 1.335435 0.020189 -0.015507 456016.000000 1 0 0
-1.685622 15.338477 -5.039029 16.232745 -1.461341 1.886435 0.011880 -0.001429 -255403.000000 1 0 0
15.055278 8.793677 -6.233629 18.516163 0.528641 1.914163 0.031264 -0.007361 301570.000000 1 0 0
-2.378022 18.466577 0.945971 18.643077 -1.442727 1.520033 0.000808 0.002491 -812474.000000 1 0 0
-3.910422 19.447777 3.624571 20.165440 -1.372369 1.390072 0.013156 0.001916 395786.000000 1 0 0
1.798978 17.641977 -2.629329 17.927327 1.469176 1.717993 0.013425 -0.008512 178907.000000 1 0 0
2.944378 12.204877 3.360671 12.997019 1.334074 1.309252 0.000559 0.000944 -65215.000000 1 0 0
-2.480822 16.148777 1.929071 16.451711 -1.418365 1.453269 -0.002146 0.000711 -2382420.000000 1 0 0
11.884978 12.863677 -2.615029 17.707774 0.824923 1.719015 0.004109 0.004713 330891.000000 1 0 0
7.191878 11.784077 4.735371 14.594908 1.022834 1.240362 0.006224 -0.002056 44433.500000 1 0 0
6.999978 15.617877 2.028371 17.234619 1.149438 1.452831 0.005213 -0.009158 -1099660.000000 1 0 0
5.516578 12.276977 10.439971 17.033784 1.148489 0.911073 -0.005257 0.006710 864400.000000 1 0 0
-1.243022 14.133477 3.179371 14.539900 -1.483073 1.350350 -0.007005 0.002110 -681966.000000 1 0 0
4.615678 15.918277 1.669471 16.657826 1.288575 1.470406 0.005637 -0.012474 -3449840.000000 1 0 0
7.409678 13.259377 11.937671 19.318965 1.061203 0.904696 0.015598 -0.005535 163223.000000 1 0 0
0.900578 17.109577 -9.315129 19.501803 1.518209 2.068780 0.028580 -0.013684 474945.000000 1 0 0
9.810978 9.610677 15.366671 20.609585 0.775085 0.729350 0.039977 -0.008894 -231727.000000 1 0 0
13.549678 7.607477 0.071971 15.539391 0.511592 1.566165 0.003034 0.004929 -39084.300000 1 0 0
12.424278 13.545377 -0.044829 18.380477 0.828541 1.573235 0.014255 -0.001204 578625.000000 1 0 0
9.439578 12.329177 3.429271 15.902017 0.917367 1.353439 0.011688 -0.001294 600643.000000 1 0 0
-0.702622 12.932577 0.699571 12.970529 -1.516520 1.516835 -0.000874 -0.002874 -1134130.000000 1 0 0
15.921178 7.332877 -0.853329 17.549449 0.431612 1.619440 0.018638 0.002785 -1040070.000000 1 0 0
-4.145922 18.503877 -2.324829 19.104632 -1.350380 1.692788 0.003446 0.001893 16566.700000 1 0 0
11.585478 9.235277 -3.143029 15.145702 0.672996 1.779835 0.000836 0.001445 -211486.000000 1 0 0
14.684178 9.707377 7.944971 19.312712 0.584123 1.146823 0.041265 -0.012643 234178.000000 1 0 0
4.466678 13.818977 4.830671 15.305252 1.258168 1.249684 0.001762 -0.001098 -226239.000000 1 0 0
2.202478 15.889277 5.689171 17.020186 1.433060 1.229976 -0.003350 -0.002470 137993.000000 1 0 0
5.972078 18.604477 5.459671 20.287935 1.260185 1.298328 0.018313 -0.019808 -422893.000000 1 0 0
10.700678 17.215977 -0.816329 20.286961 1.014678 1.611046 0.009479 -0.011089 -657732.000000 1 0 0
10.044978 13.664277 -4.342729 17.506380 0.936882 1.821479 0.008861 -0.003083 575257.000000 1 0 0
16.523178 8.004477 2.450071 18.522687 0.451122 1.438133 0.013579 -0.000569 -72271.700000 1 0 0
3.984578 13.974077 -0.520829 14.540391 1.293027 1.606623 0.006458 -0.006890 -639720.000000 1 0 0
5.594078 13.053777 -2.372229 14.398690 1.165930 1.736304 0.007002 -0.006374 -365665.000000 1 0 0
-6.104122 16.869277 -2.967929 18.183548 -1.223605 1.734750 0.004234 0.000856 -1960880.000000 1 0 0
18.119478 9.967677 2.724271 20.858853 0.502926 1.439817 0.034720 -0.000747 324517.000000 1 0 0
7.994078 12.877377 9.425771 17.848734 1.015234 1.014444 0.024514 -0.009017 1024000.000000 1 0 0
-2.603022 15.668777 6.649371 17.219188 -1.406172 1.174331 0.000577 -0.005758 337350.000000 1 0 0
11.137378 15.953477 6.407271 20.484330 0.961336 1.252668 0.032541 -0.017471 4292.860000 1 0 0
13.620578 11.867977 1.512071 18.128855 0.716746 1.487292 0.022453 -0.001164 227444.000000 1 0 0
17.495478 7.877777 -5.775729 20.037719 0.423083 1.863188 0.033251 0.009469 353299.000000 1 0 0
9.359878 9.279077 8.160871 15.501884 0.781063 1.016384 0.017992 -0.004236 -831449.000000 1 0 0
-2.133422 14.122177 -1.870729 14.404409 -1.420861 1.701036 -0.002680 0.004137 413205.000000 1 0 0
10.979478 11.603577 0.924271 16.001444 0.813027 1.513002 0.007587 0.003947 377314.000000 1 0 0
11.731478 9.782277 -0.475429 15.282230 0.695042 1.601911 -0.001240 0.009253 -2290340.000000 1 0 0
-0.160822 16.261977 11.065871 19.670569 -1.560907 0.973318 -0.001404 -0.004280 -107868.000000 1 0 0
2.265278 19.802277 -1.251629 19.970685 1.456897 1.633511 0.030496 -0.025240 -948578.000000 1 0 0
9.306378 14.352977 1.860971 17.206971 0.995551 1.462432 0.011943 -0.004844 -124529.000000 1 0 0
8.524878 11.757477 -5.144429 15.407043 0.943449 1.911236 0.008276 0.001672 -1682400.000000 1 0 0
10.529178 10.026877 10.266771 17.799114 0.760967 0.955974 0.025775 -0.008964 22493.700000 1 0 0
-5.155122 15.777677 5.773571 17.573973 -1.254996 1.236050 -0.000166 -0.005851 559218.000000 1 0 0
14.283578 9.106977 -1.876529 17.043445 0.567597 1.681123 0.015670 0.006832 -738988.000000 1 0 0
12.183978 9.471377 7.055571 16.968718 0.660785 1.141975 0.026398 -0.010816 -1518650.000000 1 0 0
3.379578 12.865777 9.618371 16.415323 1.313920 0.944759 -0.003062 -0.003293 -132737.000000 1 0 0
8.495378 12.657577 -2.628529 15.469159 0.979683 1.741545 0.006065 -0.001593 -1034760.000000 1 0 0
9.307878 16.932477 2.245071 19.452139 1.068179 1.455123 0.007835 -0.010689 -587941.000000 1 0 0
9.657478 14.296077 -7.463629 18.797619 0.976680 1.979099 0.017390 -0.014810 542094.000000 1 0 0
6.407478 11.437177 7.344871 15.027040 1.060131 1.060109 0.003000 -0.000515 -682273.000000 1 0 0
5.542078 16.977577 -5.522429 18.693581 1.255267 1.870690 0.004204 -0.007344 -580935.000000 1 0 0
-3.983622 17.244077 -4.648229 18.298456 -1.343765 1.827634 0.004793 0.001534 -228329.000000 1 0 0
-0.222022 18.754777 -0.538029 18.763807 -1.558959 1.599474 0.001578 0.004440 -762852.000000 1 0 0
6.494978 15.597177 -2.667129 17.104685 1.176215 1.727365 0.000020 -0.005023 343227.000000 1 0 0
-1.210222 20.745877 0.877171 20.799651 -1.512527 1.528611 0.003024 0.004971 113842.000000 1 0 0
-1.448622 18.861777 4.278571 19.395137 -1.494145 1.348367 0.008718 -0.002074 -982406.000000 1 0 0
7.278978 13.864677 -4.314529 16.242782 1.087348 1.839651 0.003435 0.001313 458182.000000 1 0 0
-0.914722 11.901177 7.671071 14.188731 -1.494087 0.999592 -0.004573 0.002460 409256.000000 1 0 0
7.616278 10.847977 11.038771 17.249370 0.958668 0.876360 0.009015 -0.003031 212897.000000 1 0 0
1.651578 16.012977 -7.151029 17.614777 1.468020 1.988834 0.017182 -0.011298 -204823.000000 1 0 0
8.844378 7.153977 14.795771 18.663260 0.680128 0.655447 0.018937 -0.004692 -69345.900000 1 0 0
11.303678 11.430977 -4.665029 16.739262 0.790997 1.853224 0.008188 -0.002281 -654391.000000 1 0 0
-3.338422 16.991777 4.426771 17.873496 -1.376795 1.320519 -0.003900 -0.000840 -900565.000000 1 0 0
4.041878 15.443977 -6.763529 17.337778 1.314825 1.971540 0.014273 -0.010486 -1171500.000000 1 0 0
-4.388722 14.045977 9.427471 17.476486 -1.267953 1.001027 0.017973 -0.008445 -186524.000000 1 0 0
6.171678 17.673977 0.590271 18.729856 1.234838 1.539276 0.005676 -0.017996 -730302.000000 1 0 0
9.926278 10.795277 -2.060129 14.809225 0.827311 1.710360 -0.002010 0.003106 -1041960.000000 1 0 0
7.228278 18.074477 -2.297629 19.601373 1.190362 1.688284 0.003283 -0.007422 -254340.000000 1 0 0
3.576378 10.259377 10.446071 15.072017 1.235373 0.805047 -0.009179 0.002977 415387.000000 1 0 0
-0.050922 18.707777 2.095271 18.824816 -1.568074 1.459262 0.008329 -0.000235 76239.600000 1 0 0
-0.828422 17.121877 -7.299429 18.631335 -1.522450 1.973364 0.032710 -0.009374 412074.000000 1 0 0
9.852278 8.789777 12.937171 18.485074 0.728465 0.795579 0.027722 -0.007254 -40909.000000 1 0 0
3.718878 11.327377 5.540771 13.146851 1.253575 1.135750 -0.005231 0.002354 403859.000000 1 0 0
13.159978 13.839977 8.284071 20.817200 0.810578 1.161522 0.044677 -0.023451 -48320.100000 1 0 0
-0.493422 17.363377 6.655271 18.601693 -1.542387 1.204909 0.001529 -0.007142 -737226.000000 1 0 0
11.977778 13.571177 5.920671 19.044642 0.847684 1.254674 0.028388 -0.012426 213497.000000 1 0 0
4.799778 14.559677 -4.462729 15.966779 1.252353 1.854071 0.001767 -0.006619 380776.000000 1 0 0
3.761378 17.624577 4.671171 18.617023 1.360534 1.317178 0.006865 -0.008772 285125.000000 1 0 0
7.048378 11.602477 2.066971 13.732061 1.024888 1.419700 0.010432 -0.003091 1153600.000000 1 0 0
6.312078 8.698677 11.778571 15.945032 0.943071 0.739659 -0.001933 -0.000840 319995.000000 1 0 0
-5.400122 14.762677 1.771071 15.818807 -1.220120 1.458601 -0.003723 0.002165 -334291.000000 1 0 0
6.765978 13.770877 6.080571 16.504208 1.114113 1.193481 0.009623 -0.009668 -256535.000000 1 0 0
5.868778 16.016577 5.150371 17.818519 1.219570 1.277566 0.006397 -0.009060 642771.000000 1 0 0
1.167878 18.008377 4.405971 18.576280 1.506035 1.331332 0.006439 -0.004331 1084780.000000 1 0 0
7.664178 18.022177 -6.764229 20.719394 1.168702 1.903361 0.007065 -0.011376 428940.000000 1 0 0
-2.370922 18.844877 -5.960429 19.906717 -1.445641 1.874879 0.024962 0.000328 -1682030.000000 1 0 0
13.568478 10.112877 -4.515329 17.514625 0.640500 1.831544 0.016496 -0.003141 -1792440.000000 1 0 0
-1.549322 18.012477 9.735471 20.533610 -1.484994 1.076828 0.010797 -0.008046 -209365.000000 1 0 0
3.417378 11.758777 -1.515329 12.338701 1.287964 1.693918 0.009119 -0.006559 58129.500000 1 0 0
4.470978 13.949277 -10.864029 18.237300 1.260625 2.208938 0.013609 -0.017864 -676242.000000 1 0 0
11.655078 13.402477 2.486971 17.934667 0.855021 1.431680 0.022158 -0.004835 580192.000000 1 0 0
15.762178 6.420377 -6.984429 18.397004 0.386808 1.960215 0.008416 0.001117 -226041.000000 1 0 0
2.373978 16.122677 3.026971 16.575254 1.424602 1.387146 0.003137 -0.004387 -143176.000000 1 0 0
13.414478 10.685977 3.768871 17.559690 0.672665 1.354481 0.017632 0.002346 -502124.000000 1 0 0
-4.908522 19.505077 -5.649529 20.891597 -1.324262 1.844627 0.003847 -0.009219 -182277.000000 1 0 0
5.377778 11.966077 0.150871 13.119843 1.148426 1.559297 0.008981 -0.003508 53683.600000 1 0 0
4.374278 15.439477 9.695571 18.748757 1.294714 1.027300 -0.003256 -0.003348 -483356.000000 1 0 0
7.657578 9.367077 14.023571 18.521371 0.885476 0.711848 0.006973 -0.004576 -3046580.000000 1 0 0
-4.953822 13.557777 6.921371 16.008094 -1.220481 1.123680 0.002280 -0.002258 -1554560.000000 1 0 0
-4.533422 17.018277 0.603971 17.622101 -1.310456 1.536516 -0.001070 -0.000207 -1159350.000000 1 0 0
-0.695822 16.548877 3.564571 16.942718 -1.528775 1.358823 0.002790 -0.001773 -1885950.000000 1 0 0
7.918678 16.847477 -4.564229 19.167033 1.131418 1.811235 -0.003857 -0.008617 731621.000000 1 0 0
3.115078 16.489977 -4.569629 17.392659 1.384089 1.836650 0.014544 -0.008136 -62266.700000 1 0 0
9.507878 14.423677 8.140771 19.097497 0.987991 1.130426 0.030630 -0.018312 -58841.600000 1 0 0
12.768778 10.871077 9.217571 19.135978 0.705294 1.068216 0.041203 -0.017180 271844.000000 1 0 0
3.407778 12.313277 12.158571 17.636910 1.300798 0.810161 -0.004398 -0.002010 782642.000000 1 0 0
-3.149122 18.944977 6.164171 20.169932 -1.406078 1.260215 0.009108 -0.004016 -358967.000000 1 0 0
-2.613922 15.710777 10.081671 18.849435 -1.405929 1.006463 0.007297 -0.012178 -480385.000000 1 0 0
2.032078 14.186177 7.749271 16.291967 1.428521 1.075094 -0.004136 -0.003703 -153055.000000 1 0 0
4.545478 17.323277 8.010671 19.619586 1.314190 1.150206 0.014822 -0.014914 -85756.600000 1 0 0
-1.752022 13.444077 9.339971 16.463531 -1.441207 0.967557 -0.001276 -0.002387 93553.100000 1 0 0
5.943678 17.750077 3.116271 18.976399 1.247678 1.405831 0.009142 -0.013542 530806.000000 1 0 0
7.370078 15.375977 -6.648129 18.301266 1.123826 1.942561 0.000800 -0.006385 -152667.000000 1 0 0
10.828378 7.571477 9.457871 16.249073 0.610206 0.949541 0.023328 -0.008311 674483.000000 1 0 0
9.036278 16.232577 -2.421829 18.735425 1.062842 1.700424 0.006185 -0.009887 114280.000000 1 0 0
14.750078 11.342677 -6.600829 19.743153 0.655545 1.911696 0.062331 -0.011428 499144.000000 1 0 0
11.063778 6.391177 16.030171 20.499286 0.523836 0.672949 0.038560 -0.018779 405866.000000 1 0 0
8.435078 8.475177 10.322471 15.796601 0.787769 0.858648 0.003321 -0.000540 -1676590.000000 1 0 0
16.463378 9.391777 4.683071 19.523818 0.518419 1.328570 0.034709 -0.004562 -84532.300000 1 0 0
-3.406622 14.374777 4.520071 15.448959 -1.338103 1.273872 -0.004491 0.001859 -1272430.000000 1 0 0
4.781178 14.513277 12.846171 19.962941 1.252559 0.871733 0.004979 -0.001592 -654800.000000 1 0 0
16.106578 10.544877 -4.566629 19.785611 0.579668 1.803702 0.045001 -0.012642 573055.000000 1 0 0
14.645178 13.838577 6.178471 21.075127 0.757088 1.273262 0.042542 -0.015221 -288529.000000 1 0 0
6.207778 9.615377 9.308171 14.752425 0.997514 0.888008 -0.001980 0.002005 407177.000000 1 0 0
10.551578 12.161877 8.664571 18.284470 0.856176 1.077109 0.036424 -0.015914 -723333.000000 1 0 0
7.895778 11.435477 -0.373029 13.901532 0.966500 1.597633 0.003846 -0.002505 385816.000000 1 0 0
7.459978 13.577977 -8.663229 17.750050 1.068400 2.080671 0.010119 -0.002821 -780049.000000 1 0 0
2.769478 15.301877 -2.258529 15.713638 1.391745 1.715026 0.008297 -0.005797 423902.000000 1 0 0
12.225578 13.676677 -7.819829 19.941564 0.841362 1.973750 0.037857 -0.019733 800950.000000 1 0 0
-7.949222 14.620577 9.787971 19.306885 -1.072802 1.039133 0.026198 -0.019160 296493.000000 1 0 0
11.537178 9.633677 2.309971 15.206912 0.695728 1.418303 0.010122 0.003917 -2193430.000000 1 0 0
11.997978 8.669977 4.615071 15.505446 0.625746 1.268575 0.013304 -0.003092 148990.000000 1 0 0
14.061578 7.928677 6.210071 17.296152 0.513417 1.203553 0.027006 -0.009104 -2907440.000000 1 0 0
16.298078 7.456477 7.374271 19.380565 0.429079 1.180461 0.053928 -0.014660 744507.000000 1 0 0
13.601278 8.309077 2.596071 16.148533 0.548399 1.409334 0.006892 0.001714 -2202620.000000 1 0 0
-4.118422 17.589777 -7.238929 19.461854 -1.340802 1.951910 0.008798 -0.006902 -263269.000000 1 0 0
2.774478 19.747877 -3.809629 20.302455 1.431215 1.759559 0.015089 -0.011544 351551.000000 1 0 0
-0.126222 14.811877 6.258171 16.080185 -1.562275 1.171049 -0.005978 -0.000311 456876.000000 1 0 0
6.694778 16.042977 8.532371 19.364879 1.175463 1.114518 0.024063 -0.019135 -219800.000000 1 0 0
12.737478 15.271277 -2.017729 19.988159 0.875617 1.671915 0.025860 -0.009421 -329028.000000 1 0 0
12.773878 15.588977 4.395671 20.627896 0.884327 1.356056 0.036999 -0.015919 194367.000000 1 0 0
3.038978 17.994077 1.373671 18.300524 1.403487 1.495664 0.016964 -0.012260 -707347.000000 1 0 0
10.334678 14.522577 -1.226829 17.866615 0.952309 1.639516 0.003155 0.003483 -408657.000000 1 0 0
-6.249922 15.651577 -0.614629 16.864494 -1.190880 1.607250 -0.005195 0.001424 -336622.000000 1 0 0
-3.857322 15.940177 -2.522029 16.593035 -1.333373 1.723381 0.003065 0.003256 -1155610.000000 1 0 0
-6.834622 16.848377 1.662071 18.257666 -1.185425 1.479636 -0.000640 -0.003667 -594727.000000 1 0 0
0.217078 19.349577 -6.461029 20.400935 1.559578 1.893047 0.038333 -0.016402 605864.000000 1 0 0
4.770178 14.806277 7.209671 17.145256 1.259124 1.136794 0.004931 -0.009213 -732563.000000 1 0 0
8.698378 12.284777 6.899571 16.558431 0.954680 1.141006 0.023669 -0.011418 -1343200.000000 1 0 0
-7.636622 17.594177 -5.542229 19.964703 -1.161292 1.852093 0.021981 -0.011999 263570.000000 1 0 0
-7.701622 17.827877 -1.225429 19.458928 -1.163013 1.633813 0.016952 -0.003533 499111.000000 1 0 0
-13.771322 -9.170823 9.068971 18.867950 0.587497 1.069395 0.020385 -0.013246 515134.000000 1 0 0
-12.663722 -12.998923 7.640571 19.690611 0.798459 1.172302 0.022522 -0.010928 158311.000000 1 0 0
-3.840122 -15.092723 12.428771 19.925139 1.321648 0.897235 0.014599 -0.013076 248301.000000 1 0 0
-2.218622 -13.988623 14.861371 20.529593 1.413505 0.761358 0.028143 -0.012726 717823.000000 1 0 0
-6.932122 -13.690623 12.616971 19.866440 1.102089 0.882672 0.011589 -0.017058 131526.000000 1 0 0
-9.960722 -11.557023 8.896771 17.661633 0.859448 1.042880 0.013858 -0.013007 477489.000000 1 0 0
-10.700922 -10.369123 11.207071 18.644755 0.769652 0.925939 0.017474 -0.021229 351731.000000 1 0 0
-5.884122 -12.194223 10.703471 17.259382 1.121219 0.901858 0.014530 -0.012427 463174.000000 1 0 0
-12.356622 -10.459523 7.218271 17.725438 0.702442 1.151381 0.005633 -0.008975 -1198410.000000 1 0 0
-7.835122 -11.384423 12.215071 18.444570 0.968012 0.846967 0.015949 -0.014092 -665189.000000 1 0 0
-14.824322 -11.542723 7.139271 20.098860 0.661577 1.207660 0.027780 -0.007353 1444950.000000 1 0 0
-11.138522 -9.148323 9.018871 17.002897 0.687608 1.011687 0.013647 -0.014603 68098.700000 1 0 0
-5.459322 -11.637723 13.191571 18.418967 1.132168 0.772461 0.022621 -0.022215 -574598.000000 1 0 0
4.295378 -12.409423 14.753271 19.751027 -1.237566 0.727315 0.019707 -0.005202 1311750.000000 1 0 0
6.792178 -12.606923 13.884371 19.946026 -1.076619 0.800849 0.032245 -0.008033 -181429.000000 1 0 0
6.616778 -8.402323 16.170171 19.386986 -0.903728 0.584345 0.017070 -0.004490 8485.260000 1 0 0
0.623978 -1.783623 14.559171 14.681285 -1.234266 0.129067 0.004459 -0.003857 -2283560.000000 1 0 0
-0.143722 -6.473923 15.491271 16.790230 1.548600 0.395936 0.013795 -0.019239 -379577.000000 1 0 0
-1.518122 -4.689923 18.217971 18.873117 1.257742 0.264257 0.017459 -0.035151 -2266600.000000 1 0 0
-5.124822 12.758077 12.856271 18.823285 -1.188832 0.818937 0.020802 -0.001158 526258.000000 1 0 0
-3.998622 8.908877 11.681071 15.225127 -1.148911 0.696296 0.005312 0.005653 9549.560000 1 0 0
-0.665822 -4.030523 15.067971 15.611925 1.407080 0.264750 0.009568 -0.011600 -504045.000000 1 0 0
-4.524522 9.062577 14.282371 17.509647 -1.107746 0.616883 0.012564 -0.001389 613343.000000 1 0 0
-13.501222 -2.324423 16.884071 21.742994 0.170492 0.681658 0.018281 0.003580 -357245.000000 1 0 0
-0.431922 0.552577 17.350771 17.364941 -0.907345 0.040400 0.013983 -0.000714 -1350530.000000 1 0 0
-3.685522 -7.311323 15.316571 17.367667 1.103887 0.490916 0.012862 -0.020234 214318.000000 1 0 0
-7.500722 5.534477 12.480771 15.577578 -0.635686 0.641497 0.005643 -0.001613 -3303630.000000 1 0 0
-9.853422 9.897477 13.243271 19.246668 -0.787629 0.811955 0.014307 -0.021971 -335670.000000 1 0 0
-5.640622 2.122477 11.149071 12.673725 -0.359896 0.495566 0.004840 -0.000537 -1410720.000000 1 0 0
-7.284322 -7.230223 16.739471 19.635360 0.781671 0.550015 0.013186 -0.018736 -238039.000000 1 0 0
-4.763222 2.720477 18.700671 19.488571 -0.518930 0.285322 0.017214 0.000943 1488980.000000 1 0 0
1.012478 -8.434823 16.532271 18.587290 -1.451332 0.474679 0.019526 -0.015694 761409.000000 1 0 0
-15.081422 -3.765623 13.961371 20.893757 0.244683 0.838999 0.028588 0.006448 16755.200000 1 0 0
-14.464722 2.120477 12.905171 19.500463 -0.145560 0.847595 0.017308 -0.009707 166176.000000 1 0 0
-5.556422 0.799777 16.140371 17.088741 -0.142956 0.334717 0.014825 -0.003324 431845.000000 1 0 0
4.408578 5.641277 15.157271 16.763128 0.907447 0.441286 0.007899 0.002158 150158.000000 1 0 0
-0.995922 -11.875723 13.806071 18.238209 1.487130 0.712108 0.009114 -0.018732 -64815.200000 1 0 0
-5.974022 -4.224723 16.765471 18.292574 0.615530 0.411510 0.015527 -0.012217 229122.000000 1 0 0
-13.198922 -1.534223 9.816771 16.520726 0.115719 0.934514 0.020122 -0.000698 -500344.000000 1 0 0
-14.566722 10.296477 10.096871 20.497650 -0.615308 1.055737 0.008508 -0.014874 320070.000000 1 0 0
-3.623322 -3.340923 17.720171 18.392789 0.744870 0.271274 0.015975 -0.021850 -120773.000000 1 0 0
-7.858222 9.249177 11.796671 16.925141 -0.866527 0.799604 0.003924 -0.010467 -163321.000000 1 0 0
-4.122022 10.601177 16.312071 19.886168 -1.199959 0.608910 0.009765 -0.002470 281818.000000 1 0 0
-12.535922 12.723177 8.523371 19.790817 -0.792811 1.125558 0.018556 -0.013719 448657.000000 1 0 0
-12.693322 3.178077 10.402571 16.716282 -0.245331 0.899117 0.009535 -0.007813 589850.000000 1 0 0
-10.230522 -3.452723 13.612771 17.375051 0.325489 0.670572 0.007571 -0.001298 -1767460.000000 1 0 0
-4.373522 -6.486523 17.746771 19.394601 0.977564 0.415198 0.025974 -0.017967 -669363.000000 1 0 0
0.880578 -3.781923 17.934671 18.350226 -1.342033 0.213222 0.011095 -0.020102 -888722.000000 1 0 0
-5.939622 1.566477 13.702071 15.015982 -0.257862 0.421444 0.011126 0.001485 -485381.000000 1 0 0
-10.491622 8.626377 10.198671 16.985329 -0.688141 0.926745 0.007948 -0.016706 -134589.000000 1 0 0
4.432478 2.317277 17.448871 18.151577 0.481717 0.279162 0.016862 -0.006218 516197.000000 1 0 0
0.427678 -5.453823 13.195271 14.284337 -1.492538 0.393016 0.004771 -0.007268 -2325380.000000 1 0 0
-4.356322 5.680077 20.712371 21.914451 -0.916537 0.332753 0.051126 -0.010135 -387692.000000 1 0 0
-10.725722 10.806577 8.990271 17.681861 -0.789153 1.037417 0.006904 -0.014431 1034610.000000 1 0 0
0.652878 4.106977 13.122171 13.765351 1.413147 0.306897 0.006402 -0.000977 -2815930.000000 1 0 0
-3.128622 7.021777 13.344571 15.400364 -1.151641 0.522629 0.004146 0.003333 -438379.000000 1 0 0
0.717878 8.775877 14.111871 16.633589 1.489177 0.557848 0.001720 0.005076 336316.000000 1 0 0
-4.257322 -6.670023 12.987971 15.208596 1.002706 0.547192 0.017531 -0.010674 70324.500000 1 0 0
-5.250622 8.224277 16.607271 19.261600 -1.002598 0.531208 0.025466 0.005315 238216.000000 1 0 0
1.574378 -10.792523 15.753871 19.160941 -1.425941 0.605554 0.013977 -0.008658 -357025.000000 1 0 0
-15.302222 -1.162923 14.358371 21.016023 0.075851 0.818646 0.026703 0.003877 176748.000000 1 0 0
-13.586322 -5.179623 8.252871 16.719047 0.364228 1.054548 0.021024 -0.007356 -300967.000000 1 0 0
-14.410822 -2.027123 12.121371 18.939605 0.139750 0.876296 0.028354 0.002750 331527.000000 1 0 0
9.371078 1.071877 16.849071 19.309511 0.113886 0.510339 0.028354 -0.013105 190763.000000 1 0 0
4.763078 -6.984223 17.232771 19.194653 -0.972269 0.456070 0.022321 0.000632 -216138.000000 1 0 0
-6.101322 -2.684723 11.079071 12.929798 0.414526 0.541642 0.010583 -0.004567 571272.000000 1 0 0
0.414778 -6.376623 17.966471 19.069018 -1.505841 0.341715 0.021360 -0.029762 -69501.400000 1 0 0
-8.540922 11.813977 12.075571 18.929787 -0.944833 0.879010 0.018045 -0.016473 128480.000000 1 0 0
-6.794422 -5.745623 14.659771 17.148914 0.701956 0.545532 0.019217 -0.014336 -810034.000000 1 0 0
-4.571522 -8.950123 17.081071 19.818338 1.098564 0.531827 0.030761 -0.022678 596291.000000 1 0 0
2.425778 -6.291723 16.271471 17.613374 -1.202808 0.392872 0.014739 -0.015896 108221.000000 1 0 0
2.183178 5.136177 16.141771 17.079326 1.168876 0.332878 0.014105 -0.000487 -1228270.000000 1 0 0
0.993478 -8.922923 13.922371 16.566169 -1.459913 0.572757 0.008504 -0.013124 -1129720.000000 1 0 0
-10.014722 -2.766923 11.132771 15.227906 0.269561 0.750897 0.005332 -0.001488 31579.800000 1 0 0
-1.134122 10.123377 12.389771 16.039808 -1.459232 0.688124 -0.006553 0.005251 -615925.000000 1 0 0
-12.444922 -3.605723 11.318071 17.203955 0.282012 0.852801 0.018083 0.001262 -726801.000000 1 0 0
-2.160122 6.704677 19.939371 21.147041 -1.259116 0.339589 0.037403 -0.006192 -892851.000000 1 0 0
0.266078 -13.445923 15.552771 20.560942 -1.551010 0.712969 0.019282 -0.016722 -150618.000000 1 0 0
4.111978 -8.721223 15.312371 18.095215 -1.130215 0.561962 0.020633 -0.007960 -21714.600000 1 0 0
4.486878 -4.659223 16.228271 17.469895 -0.804239 0.379290 0.018079 -0.009114 -110907.000000 1 0 0
7.931878 1.661777 14.796171 16.870177 0.206519 0.501087 0.007845 -0.004209 -261989.000000 1 0 0
-6.375422 -0.185223 11.742571 13.362945 0.029044 0.497578 0.010513 -0.001293 408016.000000 1 0 0
-3.317922 -10.736423 18.347771 21.515578 1.271072 0.549536 0.032534 -0.027661 -236184.000000 1 0 0
3.102878 -1.558423 13.575171 14.012202 -0.465447 0.250411 0.003685 -0.002881 1007660.000000 1 0 0
-2.672122 8.458377 16.116771 18.396595 -1.264804 0.503138 0.015153 0.004117 -1261240.000000 1 0 0
-3.307322 4.153477 14.774271 15.699326 -0.898329 0.344996 0.007840 -0.001135 -481853.000000 1 0 0
-4.803422 -9.044223 19.672671 22.178477 1.082576 0.479954 0.043407 -0.026106 -408523.000000 1 0 0
-5.823322 -3.153723 19.162071 20.274171 0.496346 0.332752 0.018293 -0.016692 -820350.000000 1 0 0
-6.725422 -8.635723 11.007171 15.523042 0.909122 0.782595 0.012109 -0.012272 -511300.000000 1 0 0
-11.792022 2.435877 12.644271 17.460323 -0.203705 0.760964 0.009839 -0.009659 -315064.000000 1 0 0
-11.751822 -7.461023 11.460171 18.030743 0.565674 0.882023 0.016273 -0.009417 -1685930.000000 1 0 0
-11.235022 -7.306523 15.471871 20.469240 0.576610 0.713830 0.026596 -0.015703 1089500.000000 1 0 0
0.053778 5.504777 17.679071 18.516345 1.561027 0.301871 0.017826 -0.001693 -152395.000000 1 0 0
-2.299622 -0.276923 13.366971 13.566166 0.119844 0.171577 0.005150 -0.003989 -167637.000000 1 0 0
-5.988122 -10.808623 18.191271 21.991050 1.064877 0.596668 0.022224 -0.009483 -657559.000000 1 0 0
0.226878 2.285177 19.165671 19.302758 1.471838 0.119251 0.030678 -0.011751 -1207760.000000 1 0 0
-0.682922 10.847977 14.807871 18.368943 -1.507925 0.633203 0.009443 0.005255 -364844.000000 1 0 0
-12.981222 -2.216923 14.344371 19.472746 0.169147 0.742710 0.022079 0.002546 -570703.000000 1 0 0
-13.730722 8.368477 11.626671 19.842974 -0.547354 0.944764 0.003220 -0.021070 -149758.000000 1 0 0
-18.224722 -0.372023 6.838671 19.469112 0.020410 1.211882 0.047967 -0.016658 -488176.000000 1 0 0
-2.225522 -7.776723 17.479571 19.260472 1.292069 0.433417 0.017915 -0.031030 -1229840.000000 1 0 0
5.668278 2.759177 14.600871 15.903706 0.453012 0.407588 0.010203 -0.004766 -2105130.000000 1 0 0
-14.268922 -6.887523 10.966771 19.269410 0.449707 0.965351 0.029519 -0.005471 886582.000000 1 0 0
3.194278 7.594077 16.408871 18.360950 1.172635 0.465309 0.012514 0.000400 -231324.000000 1 0 0
0.975578 1.922377 14.599871 14.758168 1.101178 0.146597 0.007076 -0.004538 -1719610.000000 1 0 0
-14.593122 0.779077 9.689771 17.534476 -0.053336 0.985301 0.022364 -0.006287 -2071640.000000 1 0 0
-9.603722 -5.147623 15.416571 18.878564 0.492033 0.615270 0.005884 -0.003256 -575741.000000 1 0 0
-2.819222 -0.119923 18.221371 18.438567 0.042512 0.153640 0.016781 -0.008180 424859.000000 1 0 0
6.776078 3.413277 17.573971 19.141843 0.466623 0.407557 0.033645 -0.006738 -683605.000000 1 0 0
-4.266922 -1.088123 14.866371 15.504826 0.249692 0.287971 0.014218 -0.004831 176905.000000 1 0 0
4.735978 -9.438523 17.739471 20.644710 -1.105733 0.536947 0.027385 -0.002828 -90756.800000 1 0 0
1.836278 6.759777 13.447571 15.162575 1.305549 0.480222 0.002560 0.001193 -1675490.000000 1 0 0
-3.917822 -0.842923 20.399171 20.789085 0.211920 0.193982 0.024156 -0.012167 -397541.000000 1 0 0
-10.738022 1.721377 16.378171 19.659928 -0.158954 0.586155 0.013084 -0.001384 90336.000000 1 0 0
-4.254422 7.003977 18.533471 20.264387 -1.024932 0.416320 0.040940 0.000937 -605437.000000 1 0 0
-12.712722 1.111177 14.656371 19.433405 -0.087185 0.716385 0.015508 -0.004052 725426.000000 1 0 0
-16.097922 -4.814123 8.443271 18.804459 0.290587 1.105146 0.027562 -0.005810 -1562090.000000 1 0 0
-2.540322 0.707877 15.766871 15.985886 -0.271763 0.165722 0.011354 -0.001298 -189176.000000 1 0 0
-13.597622 -8.768223 12.595371 20.504156 0.572736 0.909318 0.009791 -0.010127 375960.000000 1 0 0
6.067578 -3.282423 14.626571 16.171778 -0.495890 0.440707 0.013353 -0.008157 770396.000000 1 0 0
-15.878922 0.594577 7.472771 17.559499 -0.037427 1.131206 0.029450 -0.012242 187380.000000 1 0 0
-14.152122 5.898377 12.330471 19.675211 -0.394891 0.893484 0.014844 -0.017488 -95811.700000 1 0 0
0.431178 9.328977 16.626471 19.069748 1.524610 0.511775 0.008956 -0.002880 -278646.000000 1 0 0
-10.499922 -5.442223 10.699871 15.948461 0.478189 0.835370 0.012549 -0.005799 279892.000000 1 0 0
-3.156422 -10.921923 15.062071 18.871073 1.289463 0.646567 0.022033 -0.016403 157283.000000 1 0 0
-3.649822 2.773377 12.625771 13.432160 -0.649786 0.348266 0.002653 0.000619 -1488460.000000 1 0 0
-12.480622 -7.761823 7.226571 16.377886 0.556374 1.113817 0.019901 -0.008339 150921.000000 1 0 0
-8.359922 -1.857723 13.201571 15.735975 0.218665 0.575460 0.010408 -0.001847 -183948.000000 1 0 0
-9.782622 6.362777 9.531771 15.067823 -0.576668 0.885902 0.003349 -0.010628 -621752.000000 1 0 0
-17.932522 -3.498823 6.692671 19.457876 0.192690 1.219669 0.025020 -0.006137 580748.000000 1 0 0
-1.487522 0.052677 20.595571 20.649287 -0.035398 0.072145 0.018632 -0.005801 -451337.000000 1 0 0
-2.619922 2.786377 20.325671 20.682379 -0.816178 0.185993 0.024511 -0.000214 -865388.000000 1 0 0
-3.853522 11.278077 11.175471 16.338171 -1.241550 0.817551 0.006747 -0.001291 -229289.000000 1 0 0
-4.344622 -4.831823 14.845371 16.205163 0.838441 0.412581 0.014223 -0.015625 -633916.000000 1 0 0
-0.235822 -14.273323 13.178371 19.428145 1.554276 0.825332 0.021200 -0.018051 -683058.000000 1 0 0
-12.329722 0.437177 8.343371 14.893791 -0.035442 0.976180 0.010793 -0.003956 -265575.000000 1 0 0
-7.771622 2.142277 15.478071 17.451595 -0.268974 0.480174 0.007732 0.005225 -486109.000000 1 0 0
3.575078 -2.342723 18.527671 19.014314 -0.580087 0.226731 0.022577 -0.010580 -262763.000000 1 0 0
-2.082922 4.777477 12.570971 13.608533 -1.159656 0.393020 -0.002178 0.003989 -611160.000000 1 0 0
-10.390622 -6.199223 13.181571 17.892714 0.537928 0.742618 0.000945 -0.006443 -797147.000000 1 0 0
2.210578 -3.908323 14.273371 14.962980 -1.056049 0.304782 0.003523 -0.005648 -925737.000000 1 0 0
6.793578 0.877277 17.054771 18.378997 0.128423 0.381925 0.021697 -0.006739 -757454.000000 1 0 0
-2.004322 -5.845923 13.857971 15.173513 1.240498 0.419482 0.006015 -0.010919 -908893.000000 1 0 0
-13.134622 3.627777 14.554271 19.937549 -0.269481 0.752485 0.009906 -0.004803 22384.800000 1 0 0
-13.322622 -6.230023 13.260371 19.802598 0.437416 0.837089 0.011049 -0.010883 -594524.000000 1 0 0
-9.514322 6.818677 11.988071 16.755015 -0.621830 0.773469 0.002905 -0.008557 -612141.000000 1 0 0
-1.123822 -2.524023 12.951571 13.242993 1.151899 0.210176 0.006306 -0.005769 197175.000000 1 0 0
0.069178 6.549477 15.347471 16.686681 1.560234 0.403369 0.008077 0.000240 245036.000000 1 0 0
-16.696722 -0.804623 9.528771 19.241243 0.048153 1.052701 0.038738 -0.009120 248093.000000 1 0 0
-1.375322 2.697977 13.824471 14.152265 -1.099371 0.215647 0.004479 -0.000051 -1348510.000000 1 0 0
-11.313422 -3.354823 16.034071 19.908285 0.288275 0.634451 0.014705 -0.004889 -409624.000000 1 0 0
-5.383622 -1.618323 17.200271 18.095626 0.292008 0.315888 0.028436 -0.007368 390565.000000 1 0 0
-11.903422 6.634077 11.099871 17.575824 -0.508450 0.887256 0.004398 -0.011906 -2025850.000000 1 0 0
-2.990722 4.683377 18.630571 19.441621 -1.002490 0.289864 0.032202 -0.004365 259414.000000 1 0 0
5.033878 -2.150223 16.502371 17.386536 -0.403691 0.320282 0.019495 -0.008593 -1599000.000000 1 0 0
-8.142722 -4.087123 12.154571 15.190197 0.465195 0.643236 0.012374 -0.003166 -1427960.000000 1 0 0
-11.590122 -0.744723 16.121271 19.869095 0.064167 0.624297 0.015834 -0.001809 473270.000000 1 0 0
1.946278 1.741577 17.363071 17.558398 0.729948 0.149299 0.012435 -0.006932 -919521.000000 1 0 0
-9.027622 -7.462223 11.415971 16.355645 0.690751 0.798219 0.011141 -0.011461 498445.000000 1 0 0
-7.198822 6.796777 14.722871 17.742101 -0.756680 0.591999 -0.002200 -0.004455 -949819.000000 1 0 0
-5.561722 3.273577 15.781671 17.050226 -0.531988 0.388181 0.008408 0.000602 -337343.000000 1 0 0
-9.431222 4.136177 11.507371 15.442652 -0.413302 0.730009 0.005596 -0.009083 -61934.100000 1 0 0
-10.239822 0.326977 14.235271 17.538638 -0.031921 0.623822 0.010418 -0.000014 -508500.000000 1 0 0
7.997378 -0.830023 15.592371 17.543347 -0.103417 0.476096 0.018240 -0.012178 128608.000000 1 0 0
-8.770022 -7.486623 14.687571 18.673177 0.706615 0.665578 0.016434 -0.008640 -2341230.000000 1 0 0
-0.108422 4.057977 15.653771 16.171564 -1.544084 0.253736 0.011311 -0.004172 20779.000000 1 0 0
-8.152622 2.997777 9.641071 12.976986 -0.352362 0.733350 0.007484 -0.005099 -533153.000000 1 0 0
-2.059922 -9.559723 13.118271 16.362170 1.358562 0.640589 0.007655 -0.011066 250673.000000 1 0 0
-6.028422 10.220977 10.363071 15.754475 -1.037904 0.852921 0.018888 -0.007532 -1747490.000000 1 0 0
-8.779622 -2.720823 15.638871 18.139982 0.300516 0.531354 0.015921 -0.007947 899748.000000 1 0 0
4.250078 5.609977 17.773271 19.116071 0.922454 0.377048 0.022347 -0.001502 184308.000000 1 0 0
-6.891822 -1.000823 15.136071 16.661318 0.144211 0.431222 0.014309 -0.002741 -382919.000000 1 0 0
-0.837222 -9.850223 15.469671 18.358610 1.486005 0.568632 0.007639 -0.014191 -507405.000000 1 0 0
-4.563822 5.725777 16.228471 17.803828 -0.897847 0.423841 0.016357 0.001095 -78339.000000 1 0 0
3.716378 -0.165523 17.368571 17.762492 -0.044509 0.210996 0.019167 -0.009093 -260123.000000 1 0 0
1.223778 -0.171523 19.140171 19.180021 -0.139251 0.064473 0.011311 -0.008447 -251516.000000 1 0 0
-6.636022 6.409177 17.725271 19.982482 -0.768011 0.479901 0.023814 -0.004810 -2149000.000000 1 0 0
-12.401022 0.601277 10.908371 16.526931 -0.048448 0.849929 0.019197 -0.003092 -770824.000000 1 0 0
-5.523922 4.998977 13.853071 15.729306 -0.735554 0.493422 0.003878 0.001028 -1751730.000000 1 0 0
-8.674222 -9.487923 9.784371 16.155393 0.830170 0.920225 0.014658 -0.012259 -148649.000000 1 0 0
6.898378 -3.840023 17.054671 18.793488 -0.507939 0.433556 0.029646 -0.009181 -73715.000000 1 0 0
-16.961922 1.785877 9.428271 19.488162 -0.104901 1.065811 0.039681 -0.016185 -69851.800000 1 0 0
-4.174422 -9.443223 11.521471 15.470764 1.154569 0.730673 0.010082 -0.012851 2251370.000000 1 0 0
-11.295322 -3.787423 9.079971 14.979144 0.323528 0.919555 0.016424 -0.002582 -1042300.000000 1 0 0
3.461978 -5.285023 18.553071 19.599317 -0.990876 0.328218 0.020727 -0.019666 -569374.000000 1 0 0
2.475978 -2.089323 16.105371 16.427986 -0.700905 0.198508 0.009248 -0.008375 -852575.000000 1 0 0
-3.089922 -4.414823 20.130271 20.839052 0.960139 0.261560 0.023365 -0.027331 -876785.000000 1 0 0
-6.466622 -3.363923 14.341271 16.087425 0.479675 0.470242 0.017320 -0.007096 182238.000000 1 0 0
-9.641922 5.086477 13.876471 17.646398 -0.485434 0.665897 0.005637 -0.009042 18185.200000 1 0 0
-5.991022 -5.178123 11.737571 14.158950 0.712745 0.593504 0.012422 -0.005216 433878.000000 1 0 0
5.967978 1.797877 19.350271 20.329342 0.292607 0.311615 0.035854 -0.014929 439692.000000 1 0 0
-2.717222 11.837277 13.516671 18.171539 -1.345157 0.732003 0.011097 -0.002793 -1678110.000000 1 0 0
3.394178 1.253077 15.200271 15.624945 0.353662 0.233680 0.006412 -0.003415 -380218.000000 1 0 0
-5.685322 7.370777 12.811071 15.835870 -0.913781 0.628363 -0.000199 -0.003337 -1701780.000000 1 0 0
-1.801622 -1.793023 15.400271 15.608624 0.783006 0.163575 0.011127 -0.004268 78874.300000 1 0 0
-7.435922 10.401877 14.063871 19.007484 -0.950164 0.737856 0.034036 -0.018354 538741.000000 1 0 0
-10.293222 1.982177 10.548571 14.871173 -0.190242 0.782249 0.010327 -0.005720 -314172.000000 1 0 0
-13.728422 5.302277 9.095171 17.300458 -0.368576 1.017237 0.015685 -0.016065 539636.000000 1 0 0
0.253778 -5.177923 20.149571 20.805781 -1.521824 0.251821 0.016080 -0.028166 -144480.000000 1 0 0
-14.534622 -2.851723 7.469371 16.588522 0.193741 1.103725 0.021525 -0.006258 938216.000000 1 0 0
-2.313222 2.376577 17.740971 18.048301 -0.798907 0.184807 0.013064 -0.000449 -598105.000000 1 0 0
-6.403222 -8.353223 14.460371 17.885187 0.916783 0.629179 0.019420 -0.014830 -474516.000000 1 0 0
-8.006522 1.912577 12.016771 14.565890 -0.234483 0.600605 0.008716 -0.001263 -14180.900000 1 0 0
-14.702722 -3.568723 10.093971 18.187745 0.238120 0.982448 0.025691 -0.001741 -337265.000000 1 0 0
-0.653822 6.934977 12.817071 14.587622 -1.476795 0.497818 0.001443 0.002016 -1598980.000000 1 0 0
-1.903322 -2.224123 19.342771 19.563030 0.862966 0.150201 0.017441 -0.017848 -207619.000000 1 0 0
-12.794722 10.363077 7.449271 18.071799 -0.680778 1.145924 0.006194 -0.014682 -996250.000000 1 0 0
-19.618422 2.397977 6.715471 20.874155 -0.121628 1.243259 0.054733 -0.019303 -4451.570000 1 0 0
-16.079722 8.507877 6.626371 19.361049 -0.486660 1.221483 0.022942 -0.009925 414163.000000 1 0 0
-12.502322 7.460477 13.543871 19.884749 -0.538010 0.821507 0.014502 -0.013901 -296453.000000 1 0 0
-15.868022 8.106577 10.130471 20.497248 -0.472310 1.053841 0.014849 -0.027375 297900.000000 1 0 0
1.901378 10.722177 15.033271 18.562855 1.395289 0.626887 0.001423 -0.001304 -12939.500000 1 0 0
2.243578 14.637577 12.024171 19.075456 1.418705 0.888795 -0.005473 -0.007850 -516606.000000 1 0 0
-3.004922 13.628177 11.670371 18.192151 -1.353776 0.874337 -0.009813 -0.004609 -194490.000000 1 0 0
9.044578 4.690977 15.745271 18.754286 0.478457 0.574331 0.022767 -0.002287 508642.000000 1 0 0
-0.211622 12.570677 12.898871 18.012429 -1.553963 0.772584 -0.002993 0.005311 469556.000000 1 0 0
2.905578 13.739177 14.349271 20.077574 1.362386 0.774613 -0.011645 -0.001094 70474.600000 1 0 0
-2.861222 -4.033823 -13.680529 14.546999 0.953851 2.794708 0.011952 -0.009651 114730.000000 1 0 0
6.331678 -11.397123 16.076171 20.698498 -1.063702 0.681414 0.032928 -0.013522 100686.000000 1 0 0
7.745978 -13.503423 7.331271 17.207270 -1.049992 1.130667 -0.002645 -0.004150 104215.000000 1 0 0
-0.040422 15.615477 1.347671 15.673576 -1.568208 1.484706 -0.000309 0.000734 -3478840.000000 1 0 0
-13.477522 8.124377 9.019171 18.138207 -0.542483 1.050373 -0.006661 -0.011094 -22122.400000 1 0 0
-15.575322 -9.724723 5.010271 19.033226 0.558144 1.304419 0.028327 -0.004230 -924883.000000 1 0 0
9.339978 -11.046023 11.104171 18.236020 -0.868891 0.916105 0.009860 -0.000825 326130.000000 1 0 0
-5.772122 -10.215823 -16.798029 20.490344 1.056496 2.531862 0.037131 0.001134 -64644.000000 1 0 0
-1.745022 -12.467223 -15.015529 19.594459 1.431731 2.443882 0.024227 0.005759 89376.000000 1 0 0
5.506478 -15.577323 -12.688329 20.831898 -1.231013 2.225699 0.014930 0.007258 349076.000000 1 0 0
2.684878 -11.805523 -16.617729 20.560346 -1.347174 2.511956 0.006832 -0.001293 151345.000000 1 0 0
0.481078 -13.994223 -14.468029 20.134387 -1.536433 2.372545 0.018104 0.013947 296528.000000 1 0 0
-6.574122 -6.224423 -14.455329 17.056349 0.758082 2.582062 0.014323 -0.006767 -84722.300000 1 0 0
-6.164122 -8.095723 -17.279129 20.052566 0.920036 2.609390 0.016532 -0.005851 -56528.200000 1 0 0
-2.568222 -16.226723 -13.269329 21.118176 1.413827 2.250210 0.031235 0.002677 235971.000000 1 0 0
16.306078 -7.943523 -8.833429 20.174667 -0.453316 2.023999 0.047908 -0.017621 61392.300000 1 0 0
19.197178 -3.366923 -3.516429 19.804875 -0.173620 1.749296 0.058062 -0.022929 168702.000000 1 0 0
15.777478 -11.870523 -8.629129 21.547621 -0.645017 1.982824 0.044841 -0.007170 44897.200000 1 0 0
18.332078 -2.769923 -6.388329 19.609903 -0.149963 1.902623 0.131820 -0.013264 -280076.000000 1 0 0
8.712578 -9.736823 -15.830929 20.526398 -0.840858 2.451595 0.037113 -0.004412 47466.700000 1 0 0
-4.639922 9.756177 -16.009029 19.313230 -1.126868 2.547962 0.005108 -0.015001 458971.000000 1 0 0
2.596978 -9.642023 -18.512329 21.033764 -1.307700 2.646921 0.006996 0.003771 164263.000000 1 0 0
11.196478 7.915577 -14.879729 20.234224 0.615389 2.397015 0.046878 -0.033172 386958.000000 1 0 0
18.566578 -6.214223 -8.553229 21.365676 -0.322980 1.982669 0.051716 -0.014175 45238.000000 1 0 0
13.191478 5.687877 -13.817129 19.931886 0.407092 2.336740 0.039708 -0.001939 -9442.150000 1 0 0
15.754678 6.567177 -10.180629 19.874177 0.394939 2.108604 0.009163 -0.019224 43840.700000 1 0 0
3.717878 -0.676923 -19.208329 19.576535 -0.180099 2.947336 0.031877 -0.014887 135267.000000 1 0 0
10.712778 -1.926123 -14.782029 18.357068 -0.177896 2.506893 0.025445 -0.000659 181024.000000 1 0 0
12.324278 -5.967623 -13.904329 19.514884 -0.450942 2.363849 0.042266 -0.008157 307898.000000 1 0 0
10.402478 6.461377 -12.880429 17.772630 0.555818 2.381445 0.031083 -0.003650 499936.000000 1 0 0
10.988078 4.976877 -16.403229 20.361068 0.425291 2.507513 0.054238 -0.013894 358190.000000 1 0 0
11.933678 -10.392023 -14.996529 21.801438 -0.716455 2.329345 0.071951 -0.019270 388774.000000 1 0 0
-1.262422 2.266177 -17.274629 17.468316 -1.062540 2.992539 0.009251 -0.012046 305592.000000 1 0 0
6.504178 -0.916123 -17.505629 18.697343 -0.139931 2.782633 0.014421 0.010675 -41238.900000 1 0 0
7.197978 -6.191923 -15.452429 18.136382 -0.710404 2.590614 0.009593 -0.007272 189530.000000 1 0 0
-2.231922 -4.460023 -20.509129 21.106815 1.106806 2.903048 0.029587 -0.020706 364933.000000 1 0 0
15.859178 -0.307823 -13.056229 20.544425 -0.019407 2.259468 0.034462 -0.011675 -31869.700000 1 0 0
-3.878722 -0.426723 -18.398829 18.808069 0.109576 2.932604 0.007123 -0.013260 175625.000000 1 0 0
3.449978 8.503577 -17.875629 20.093563 1.185378 2.667308 0.028774 -0.015761 -151952.000000 1 0 0
9.542178 -0.051223 -17.059429 19.546864 -0.005368 2.631594 0.021660 -0.015384 -64177.900000 1 0 0
4.031578 4.384577 -18.342129 19.285016 0.827317 2.827599 0.022719 -0.008808 299032.000000 1 0 0
-2.040922 -11.030523 -18.295529 21.460759 1.387840 2.591566 0.033135 0.000052 144744.000000 1 0 0
6.176878 -9.288523 -16.376429 19.814588 -0.983948 2.543629 0.012997 0.001250 202731.000000 1 0 0
10.289878 -12.524023 -10.920929 19.544805 -0.883016 2.163691 0.020972 0.006163 244558.000000 1 0 0
6.380678 6.775977 -16.871029 19.268070 0.815435 2.637463 0.039750 -0.019912 396379.000000 1 0 0
8.920578 1.640777 -20.054829 22.010566 0.181899 2.716852 0.045656 -0.018700 139849.000000 1 0 0
-0.981922 -0.712123 -20.192129 20.228528 0.627461 3.081593 0.032462 -0.019635 221358.000000 1 0 0
-1.127722 7.033177 -19.352629 20.621871 -1.411806 2.788916 0.011204 -0.006519 -58360.500000 1 0 0
9.100678 5.918777 -17.993229 21.014532 0.576633 2.598719 0.057855 -0.025080 -59178.800000 1 0 0
11.996878 0.237077 -12.687029 17.462588 0.019759 2.384049 -0.002534 -0.003821 -96439.200000 1 0 0
-4.503722 -2.655323 -19.861429 20.538028 0.532726 2.884197 0.012146 -0.013767 439400.000000 1 0 0
5.422278 -11.316823 -14.550329 19.214152 -1.123980 2.429921 -0.004888 -0.002593 -19334.300000 1 0 0
11.608178 2.681477 -15.816729 19.801743 0.227017 2.496018 0.033842 -0.002468 -132285.000000 1 0 0
-2.848822 -4.316223 -17.110529 17.875004 0.987405 2.848075 0.012405 -0.012859 146629.000000 1 0 0
-6.908522 -4.875323 -17.354529 19.304821 0.614539 2.688217 0.022327 -0.015859 35017.900000 1 0 0
3.378578 10.226177 -15.095429 18.543502 1.251701 2.521896 0.020017 -0.020825 91170.600000 1 0 0
17.215778 -6.034923 -10.717829 21.158335 -0.337161 2.101979 0.078069 -0.024249 -110849.000000 1 0 0
9.481778 -3.241123 -17.659729 20.304556 -0.329375 2.625476 0.003160 -0.007500 -74242.000000 1 0 0
-7.057522 -1.471123 -19.076429 20.393208 0.205505 2.780271 -0.002094 -0.000180 471778.000000 1 0 0
1.999978 -7.534823 -19.213029 20.734366 -1.311348 2.756137 0.017412 -0.015676 159604.000000 1 0 0
5.665778 10.395877 -14.411129 18.650896 1.071798 2.453845 0.031257 -0.007080 372240.000000 1 0 0
6.418478 -3.700023 -17.592329 19.088663 -0.522934 2.743008 0.029478 -0.023139 411776.000000 1 0 0
4.432178 13.588277 -14.557429 20.401084 1.255501 2.365365 0.032997 -0.010763 182623.000000 1 0 0
9.222778 11.325577 -15.309929 21.159448 0.887377 2.379728 0.063824 -0.021817 149338.000000 1 0 0
16.961378 0.824277 -10.952129 20.206853 0.048559 2.143612 0.053146 -0.013933 -44641.300000 1 0 0
15.226578 -2.930923 -12.171829 19.712747 -0.190161 2.236306 0.061434 -0.009089 181448.000000 1 0 0
-8.616322 -0.186523 -17.279729 19.309708 0.021644 2.678942 0.012288 -0.010169 389118.000000 1 0 0
-3.157322 3.987077 -19.114829 19.779842 -0.901021 2.881551 0.012174 -0.005461 163784.000000 1 0 0
3.827478 1.292377 -17.371329 17.834878 0.325637 2.913099 0.014568 0.003302 462947.000000 1 0 0
-5.199222 14.428977 -13.725929 20.582235 -1.224947 2.300813 0.024160 -0.016358 227070.000000 1 0 0
1.154978 9.510477 -17.685229 20.113440 1.449945 2.645133 0.022489 -0.003780 308577.000000 1 0 0
1.132778 -5.191323 -19.834829 20.534202 -1.355958 2.879852 0.026615 -0.007305 388249.000000 1 0 0
3.858478 -6.004823 -18.371429 19.709265 -0.999667 2.771024 0.014811 -0.007493 -32670.300000 1 0 0
-6.693122 7.648877 -15.978929 18.937512 -0.851940 2.575068 -0.004522 -0.001944 -11641.200000 1 0 0
-11.638022 3.271977 -16.740429 20.649246 -0.274071 2.516150 0.032681 -0.018896 242203.000000 1 0 0
-4.204222 6.862077 -17.389529 19.161401 -1.021109 2.708159 0.004062 0.006551 391633.000000 1 0 0
-8.031222 5.258477 -17.788329 20.213281 -0.579710 2.646725 0.007909 -0.008600 259252.000000 1 0 0
-8.495322 4.794177 -15.016029 17.906305 -0.513780 2.565484 -0.004263 -0.015873 457047.000000 1 0 0
9.476878 13.687177 -13.088629 21.176927 0.965195 2.237070 0.049087 -0.018130 229602.000000 1 0 0
14.606878 9.863477 -12.001629 21.323418 0.593930 2.168612 0.086032 -0.012333 -107670.000000 1 0 0
8.635878 15.558977 -9.825329 20.327254 1.064091 2.075282 0.015010 -0.017533 -100811.000000 1 0 0
7.289378 13.103177 -14.432429 20.811614 1.063124 2.337104 0.062375 -0.027824 140724.000000 1 0 0
4.043178 15.856577 -12.741629 20.739514 1.321132 2.232377 0.038505 -0.018997 177301.000000 1 0 0
11.022378 11.850777 -11.107229 19.629169 0.821599 2.172264 0.052500 -0.018711 231738.000000 1 0 0
15.897678 10.232577 -8.416329 20.694840 0.571900 1.989621 0.054648 -0.052187 299440.000000 1 0 0
13.427578 11.520677 -9.679329 20.167183 0.709112 2.071399 0.073944 -0.013590 166976.000000 1 0 0
11.184978 11.400877 -8.281129 17.990576 0.794957 2.049134 0.023209 -0.005443 -108491.000000 1 0 0
6.097678 16.808477 -9.739529 20.360870 1.222787 2.069566 0.051030 -0.021040 125759.000000 1 0 0
11.637078 14.137077 -10.309329 21.013348 0.882092 2.083584 0.059179 -0.021458 38280.900000 1 0 0
8.487978 -19.370423 -1.690129 21.215928 -1.157805 1.650544 0.056310 -0.017044 175998.000000 1 0 0
7.933878 -16.967423 -4.050329 19.163638 -1.133407 1.783757 0.047205 -0.014394 251496.000000 1 0 0
4.039178 -18.775023 5.301671 19.922955 -1.358890 1.301442 0.034521 -0.016766 305617.000000 1 0 0
10.559878 -17.911023 -2.562529 20.949518 -1.038078 1.693423 0.048542 -0.008280 683451.000000 1 0 0
-3.014022 -14.909923 7.844571 17.115123 1.371336 1.094668 0.021842 -0.031149 95996.600000 1 0 0
-15.114422 -12.734323 -4.028829 20.170280 0.700140 1.771890 0.019787 -0.015685 306399.000000 1 0 0
-9.105922 -12.575423 -7.295329 17.154617 0.944075 2.010056 0.003802 -0.013364 267398.000000 1 0 0
-11.599822 -15.622323 6.577071 20.539491 0.932102 1.244839 0.023809 -0.007917 294391.000000 1 0 0
-14.809622 -7.038523 -7.330429 17.961094 0.443666 1.991199 0.049813 -0.035114 -139347.000000 1 0 0
5.224678 -15.242723 6.463771 17.361400 -1.240581 1.189303 0.029343 -0.016181 160969.000000 1 0 0
2.666978 -14.024023 9.146771 16.954333 -1.382868 1.000960 0.009057 -0.010469 350010.000000 1 0 0
3.132978 -17.369523 10.154771 20.362594 -1.392343 1.048701 0.031119 -0.016072 219729.000000 1 0 0
-7.405322 -16.916223 -6.521629 19.583897 1.158164 1.910290 -0.024091 -0.008152 -8739.150000 1 0 0
1.918578 -19.883223 -4.134629 20.398986 -1.474602 1.774898 0.044607 -0.019460 21581.400000 1 0 0
-16.754222 -10.671423 -2.889929 20.073238 0.567139 1.715268 -0.087178 -0.015813 -206759.000000 1 0 0
-4.492222 -14.969423 2.898071 15.895361 1.279254 1.387449 0.010492 -0.000675 133376.000000 1 0 0
-11.129322 -10.006723 -14.539829 20.866311 0.732335 2.341735 0.033709 -0.001773 -99163.900000 1 0 0
0.350478 -20.180923 2.324971 20.317430 -1.553431 1.456113 0.024711 -0.021895 224673.000000 1 0 0
5.949178 -18.019023 -0.352929 18.979000 -1.251904 1.589393 0.035714 -0.021031 100195.000000 1 0 0
-8.013422 -18.630123 -3.745729 20.623455 1.164586 1.753435 0.027792 -0.028265 75154.400000 1 0 0
-9.799622 -15.602423 -7.563729 19.916781 1.009983 1.960340 0.023426 -0.019076 130393.000000 1 0 0
-11.814922 -11.277223 -12.133529 20.346760 0.762117 2.209727 0.016713 0.002020 348826.000000 1 0 0
-13.212922 -15.116723 -3.495829 20.379338 0.852499 1.743187 0.022836 -0.008113 177799.000000 1 0 0
0.001578 -20.374423 -2.757929 20.560235 -1.570719 1.705341 0.043128 -0.023818 244860.000000 1 0 0
-11.941122 -16.981923 -0.338629 20.762725 0.957948 1.587107 0.027728 0.001572 91956.200000 1 0 0
0.763478 -19.928023 5.278271 20.629327 -1.532503 1.312057 0.030877 -0.025754 70749.100000 1 0 0
-18.382322 -9.154623 2.250771 20.658723 0.462056 1.461629 0.040334 0.001382 -181730.000000 1 0 0
-14.533122 -14.979123 -0.459529 20.875749 0.800509 1.592811 0.029485 -0.005055 16960.300000 1 0 0
10.527278 -15.314623 -5.161729 19.287423 -0.968577 1.841720 0.027309 -0.006851 -90903.900000 1 0 0
-0.177322 -19.159023 -6.982529 20.392530 1.561541 1.920273 0.031092 -0.011683 131467.000000 1 0 0
-9.978722 -16.531023 -2.572229 19.479886 1.027708 1.703228 0.016244 -0.014115 589183.000000 1 0 0
-14.397422 -6.584123 -11.377929 19.495992 0.428918 2.193956 0.035730 -0.018798 -82336.200000 1 0 0
-12.415722 -14.360623 2.056371 19.094667 0.857906 1.462894 0.030980 -0.021018 124434.000000 1 0 0
-2.535722 -16.066923 9.749671 18.963965 1.414265 1.030820 0.016482 -0.027052 316542.000000 1 0 0
-13.366622 -14.831623 -5.895529 20.818282 0.837305 1.857915 0.049579 -0.018382 28683.600000 1 0 0
5.538678 -17.135123 -7.111529 19.361385 -1.258161 1.946906 0.031930 -0.003225 -43988.700000 1 0 0
-17.517222 -7.421223 -3.261529 19.301947 0.400729 1.740585 0.000862 -0.011129 -56296.600000 1 0 0
-12.444722 -13.165523 -8.915929 20.191480 0.813536 2.028143 0.045066 -0.039130 -232367.000000 1 0 0
-7.943722 -13.813723 9.588471 18.597323 1.048917 1.029108 0.026476 -0.019407 476976.000000 1 0 0
-15.884622 -8.629223 -5.724129 18.961813 0.497641 1.877457 0.039299 -0.003195 312693.000000 1 0 0
-0.780622 -19.684423 -0.014629 19.699900 1.531160 1.571539 0.026958 -0.015010 177604.000000 1 0 0
-14.840622 -11.114323 -1.558929 18.606517 0.642805 1.654679 0.005089 -0.012258 133261.000000 1 0 0
-7.248122 -18.972023 1.196471 20.344642 1.205866 1.511952 0.018054 -0.007441 224012.000000 1 0 0
-1.995422 -20.789323 -5.198929 21.522233 1.475106 1.814770 0.025384 -0.016999 -107647.000000 1 0 0
-9.022822 -19.729223 -1.330329 21.735301 1.141861 1.632041 0.014554 0.004336 202906.000000 1 0 0
-17.912122 -7.675223 5.253171 20.182888 0.404826 1.307486 0.037242 -0.001346 -73990.600000 1 0 0
-2.812722 -15.749823 -10.801529 19.303920 1.394072 2.164640 0.022549 0.000480 86026.000000 1 0 0
-3.523822 -18.708723 -7.715729 20.541813 1.384626 1.955852 0.022026 0.000711 78549.900000 1 0 0
3.933078 -18.069723 -6.036529 19.453114 -1.356478 1.886317 0.020159 0.024539 313359.000000 1 0 0
0.889578 -17.460423 -8.992029 19.659967 -1.519892 2.045840 0.027676 0.003334 -49662.500000 1 0 0
-7.580822 -9.888223 -14.930729 19.446657 0.916723 2.446163 0.018859 0.001909 642344.000000 1 0 0
-5.594622 -18.835523 -1.870629 19.737679 1.282071 1.665713 0.021230 -0.027936 128087.000000 1 0 0
-10.505422 -15.126623 8.658971 20.350833 0.963772 1.131299 0.017665 -0.034985 125661.000000 1 0 0
-8.024822 -14.572323 -9.243329 19.031276 1.067424 2.077950 0.064856 -0.023676 347853.000000 1 0 0
-12.536922 -7.931823 -12.524029 19.414930 0.564101 2.271914 0.031541 -0.009578 355756.000000 1 0 0
-15.893722 -13.052023 3.099271 20.798345 0.687538 1.421224 0.038576 -0.006260 -13498.500000 1 0 0
-6.187622 -14.209823 -13.070129 20.273973 1.160111 2.271395 0.016766 0.005950 469735.000000 1 0 0
-13.568822 -10.967023 -6.863229 18.748131 0.679752 1.945584 0.011894 -0.030769 195093.000000 1 0 0
-11.138122 -9.974023 -9.104429 17.505128 0.730315 2.117765 -0.008305 -0.015570 5532.520000 1 0 0
-9.810022 -15.011523 3.403171 18.252778 0.991965 1.383252 0.002615 0.003089 -74032.500000 1 0 0
4.747678 -18.133423 8.183371 20.453093 -1.314725 1.159166 0.034172 -0.022057 166252.000000 1 0 0
-4.960422 -16.927723 5.522771 18.483901 1.285741 1.267374 0.011426 0.011091 533720.000000 1 0 0
-17.739922 -7.670823 -6.784029 20.483393 0.408126 1.908368 0.028216 -0.021770 72585.000000 1 0 0
-17.224522 -4.709723 -10.772629 20.854620 0.266907 2.113623 0.068762 -0.004324 -84552.900000 1 0 0
-15.625122 -4.281223 -12.988729 20.764883 0.267433 2.246587 0.045199 -0.010427 270893.000000 1 0 0
-19.486022 -5.500823 -6.102429 21.147192 0.275136 1.863528 0.068384 -0.011851 302917.000000 1 0 0
5.401878 -13.666523 8.732971 17.094412 -1.194380 1.034603 0.016362 -0.004960 315492.000000 1 0 0
19.725778 -2.813823 2.674371 20.104133 -0.141691 1.437375 0.048184 -0.010614 -124876.000000 1 0 0
18.019378 -2.410223 0.117571 18.180236 -0.132968 1.564329 0.040037 -0.012797 308372.000000 1 0 0
14.204078 -11.368823 0.153771 18.194219 -0.674980 1.562345 0.027359 0.002565 149918.000000 1 0 0
11.033978 -13.717823 5.461071 18.432326 -0.893406 1.270004 0.025493 0.002450 457766.000000 1 0 0
9.929778 -13.047123 8.745671 18.582644 -0.920248 1.080784 0.024634 -0.009221 163117.000000 1 0 0
18.600478 4.044277 -4.111629 19.474071 0.214096 1.783531 0.057330 -0.009221 -42314.300000 1 0 0
18.936878 -6.115423 -5.487429 20.642568 -0.312365 1.839862 0.060283 -0.009832 -67527.600000 1 0 0
17.620778 -9.966723 -0.015229 20.244199 -0.514759 1.571549 0.045076 0.002142 56490.100000 1 0 0
17.647878 -8.471023 9.255571 21.653439 -0.447522 1.129136 0.108025 -0.011143 -14619.200000 1 0 0
20.085578 0.153577 -2.173529 20.203422 0.007646 1.678587 0.078252 -0.011396 16205.500000 1 0 0
7.437778 -13.759023 11.393471 19.350515 -1.075218 0.941230 0.016783 0.006580 273172.000000 1 0 0
16.238978 -6.483223 -3.483629 17.828972 -0.379850 1.767453 0.042761 -0.006760 298065.000000 1 0 0
14.199978 -6.775023 11.387171 19.421843 -0.445173 0.944303 0.060632 -0.039281 100213.000000 1 0 0
16.762778 1.017077 9.822371 19.455183 0.060600 1.041563 0.100715 -0.040030 406140.000000 1 0 0
16.499678 -9.793023 2.568071 19.358142 -0.535647 1.437743 0.019857 -0.011043 291432.000000 1 0 0
16.063278 -7.216123 -5.856229 18.557929 -0.422214 1.891848 0.042575 -0.008859 126719.000000 1 0 0
18.850378 -4.398423 6.203571 20.326514 -0.229232 1.260652 0.169614 -0.018006 -46932.600000 1 0 0
13.711278 -12.941923 8.030871 20.493594 -0.756541 1.168131 0.059783 -0.020136 266328.000000 1 0 0
15.494278 -14.114023 -1.560029 21.016945 -0.738815 1.645092 0.040848 -0.001443 211258.000000 1 0 0
18.792378 -6.407123 7.843571 21.347747 -0.328583 1.194564 0.098865 -0.021570 461678.000000 1 0 0
19.529578 3.649977 2.485871 20.022645 0.184763 1.446322 0.044475 -0.015333 192835.000000 1 0 0
15.795678 -10.311723 7.985671 20.484287 -0.578355 1.170334 0.077183 -0.029941 366294.000000 1 0 0
14.465178 -3.938523 10.564671 18.340273 -0.265832 0.956924 0.069135 -0.022236 -98663.200000 1 0 0
18.787878 -7.667023 1.992071 20.389604 -0.387455 1.472940 0.076489 -0.009245 208402.000000 1 0 0
19.063978 -6.005623 -1.294729 20.029455 -0.305183 1.635483 0.055605 -0.011252 1875.490000 1 0 0
14.622178 -13.631823 -6.322629 20.966886 -0.750361 1.877117 0.047581 -0.009568 469039.000000 1 0 0
13.811878 -9.502723 10.117571 19.581495 -0.602634 1.027815 0.042984 -0.016927 410070.000000 1 0 0
14.214778 2.249777 0.500771 14.400423 0.156968 1.536015 0.006803 -0.006593 -153965.000000 1 0 0
12.996378 2.536877 13.548271 18.944584 0.192775 0.773954 0.043600 -0.019031 -47985.800000 1 0 0
18.160278 -3.597923 9.005371 20.587313 -0.195588 1.118065 0.071850 -0.022771 128050.000000 1 0 0
6.614578 -18.012023 4.364371 19.678245 -1.218854 1.347150 0.025288 -0.028394 -50812.500000 1 0 0
12.468478 -2.648823 15.437271 20.019704 -0.209329 0.690223 0.042523 0.007815 154600.000000 1 0 0
11.247478 -13.474023 -6.957029 18.880024 -0.875221 1.948176 0.012859 -0.011087 186610.000000 1 0 0
10.355378 -17.805623 4.734671 21.135070 -1.044032 1.344859 0.029588 -0.004424 563994.000000 1 0 0
18.381878 -0.324123 -4.853529 19.014606 -0.017631 1.828905 0.057005 -0.020124 272351.000000 1 0 0
4.395278 -13.737023 11.578971 18.495860 -1.261131 0.894344 0.013804 -0.007794 233596.000000 1 0 0
9.206978 -2.803823 14.269971 17.212262 -0.295610 0.593375 0.024123 -0.005234 456232.000000 1 0 0
9.081778 -9.485423 14.279171 19.399656 -0.807134 0.743576 0.025452 0.007039 388792.000000 1 0 0
21.049678 5.835677 -2.460329 21.981749 0.270442 1.682957 0.063375 -0.015059 582845.000000 1 0 0
14.581578 -13.224523 1.710671 19.759474 -0.736633 1.484113 0.025074 -0.004923 176584.000000 1 0 0
10.813978 0.083777 13.825871 17.552888 0.007747 0.663779 0.020889 -0.035809 119986.000000 1 0 0
19.672178 0.361077 7.768171 21.153474 0.018353 1.194768 0.101130 -0.023700 141440.000000 1 0 0
20.017278 1.493177 0.217771 20.074073 0.074457 1.559948 0.064946 -0.007827 397149.000000 1 0 0
18.415978 0.302877 3.112971 18.679684 0.016445 1.403365 0.053610 -0.009338 35376.800000 1 0 0
10.371378 -8.383523 16.416171 21.150405 -0.679801 0.682238 0.046392 -0.000172 156387.000000 1 0 0
18.893578 3.244777 5.489271 19.940611 0.170081 1.291914 0.043986 -0.007752 277.554000 1 0 0
15.284478 2.278477 6.834071 16.897078 0.147982 1.154416 0.049139 -0.021853 10006.600000 1 0 0
11.744778 -15.959723 1.751171 19.892691 -0.936380 1.482651 0.035618 -0.002107 311825.000000 1 0 0
7.888178 -16.514923 7.115871 19.636742 -1.125197 1.199981 0.017179 0.005441 398456.000000 1 0 0
6.094278 6.725377 7.198971 11.584305 0.834587 0.900215 -0.002636 0.001478 -911672.000000 1 0 0
18.445278 1.771577 -6.332929 19.582460 0.095751 1.900115 0.037624 -0.008934 209798.000000 1 0 0
14.214678 4.446777 -6.941029 16.431944 0.303185 2.006900 0.015692 -0.007950 292746.000000 1 0 0
-10.574022 -3.672623 -13.709229 17.698617 0.334290 2.456868 0.011346 -0.007053 -573185.000000 1 0 0
8.015078 -14.113923 -10.461829 19.310467 -1.054326 2.143338 0.005463 0.006661 58909.000000 1 0 0
1.838878 -16.024023 13.633571 21.119305 -1.456539 0.869053 0.017019 -0.013897 494233.000000 1 0 0
-9.520622 -7.851123 2.129671 12.522694 0.689588 1.399901 0.011686 -0.002006 426181.000000 1 0 0
-13.730222 3.007677 -9.799329 17.134525 -0.215649 2.179623 0.016130 -0.000172 271838.000000 1 0 0
-12.783322 -4.660123 -13.666929 19.285098 0.349575 2.358419 0.028313 -0.000390 250375.000000 1 0 0
-17.867422 -1.350023 -8.533529 19.846623 0.075414 2.015260 0.055727 -0.026014 414854.000000 1 0 0
-12.010122 15.435477 3.868371 19.936431 -0.909561 1.375522 0.025627 -0.017683 444370.000000 1 0 0
-17.335122 6.388077 9.276771 20.672989 -0.353064 1.105443 0.019470 -0.023667 110151.000000 1 0 0
-13.503722 15.491177 -0.120929 20.550954 -0.853836 1.576681 0.046241 -0.016617 184110.000000 1 0 0
-16.020222 5.428777 -10.675429 20.002098 -0.326726 2.133784 0.038338 -0.008478 46754.600000 1 0 0
-18.213922 3.082377 -0.033129 18.472929 -0.167644 1.572590 0.051943 -0.004635 -17091.500000 1 0 0
-10.050222 15.631277 0.162271 18.584136 -0.999389 1.562065 0.022022 -0.009142 202845.000000 1 0 0
-18.778722 11.789277 2.267371 22.288303 -0.560610 1.468891 0.104907 -0.020310 -175748.000000 1 0 0
-8.744522 16.502777 -7.534329 20.138879 -1.083530 1.954242 0.054152 -0.025574 74510.500000 1 0 0
-14.872922 -1.695723 -12.934529 19.783359 0.113524 2.283403 0.031069 -0.014714 161726.000000 1 0 0
-18.938422 5.409477 -4.798729 20.272002 -0.278226 1.809782 0.060593 -0.004864 36441.000000 1 0 0
-16.723622 8.996877 -6.245529 19.990747 -0.493564 1.888537 0.037000 0.001388 -113093.000000 1 0 0
-19.065822 1.185977 2.374071 19.249632 -0.062124 1.447151 0.043316 -0.014371 246614.000000 1 0 0
-14.563222 11.432377 -7.434529 19.951413 -0.665538 1.952640 0.044366 -0.012682 182186.000000 1 0 0
-12.746622 5.595877 -13.482529 19.379597 -0.413676 2.340201 0.028906 -0.014270 -162879.000000 1 0 0
-14.098222 9.216577 -6.746929 18.144592 -0.579000 1.951789 0.022149 -0.008157 282582.000000 1 0 0
-6.579722 11.916677 -15.185329 20.393483 -1.066309 2.410757 0.003630 -0.020471 -377545.000000 1 0 0
-14.969422 13.917477 2.967871 20.654008 -0.748998 1.426602 0.032459 -0.021728 140705.000000 1 0 0
-18.730022 8.334677 -5.077129 21.120081 -0.418680 1.813567 0.058229 -0.008296 253695.000000 1 0 0
-3.660922 16.884477 -10.404929 20.168056 -1.357280 2.112867 0.017745 -0.002197 197406.000000 1 0 0
-19.098722 -2.792823 -6.466029 20.356094 0.145202 1.894042 0.025538 -0.010314 -76177.900000 1 0 0
-10.583622 13.798577 -6.248829 18.478681 -0.916499 1.915762 0.026125 -0.014788 98928.000000 1 0 0
-19.421522 3.229377 4.165871 20.124087 -0.164771 1.362279 0.054133 -0.011896 153321.000000 1 0 0
-15.370422 12.911177 0.548671 20.081071 -0.698661 1.543470 0.038210 0.003432 92008.500000 1 0 0
-17.456322 2.838477 -8.468529 19.608572 -0.161194 2.017371 0.027401 -0.009240 141537.000000 1 0 0
-16.399022 12.476177 -4.922929 21.185329 -0.650370 1.805315 0.024287 -0.005266 263865.000000 1 0 0
-10.709322 15.763377 -8.839229 21.007275 -0.974044 2.005090 0.044288 -0.018839 173415.000000 1 0 0
-19.242722 1.595377 -6.923929 20.512639 -0.082719 1.915103 0.059640 -0.018415 217265.000000 1 0 0
-17.153122 10.242777 -0.367229 19.981965 -0.538312 1.589175 0.046562 -0.006348 -55563.400000 1 0 0
-11.493222 7.159277 -14.634129 19.937581 -0.557097 2.394985 0.019753 -0.012445 326994.000000 1 0 0
-13.442922 12.562877 -5.023229 19.072778 -0.751571 1.837312 0.038203 -0.008754 331243.000000 1 0 0
-19.127522 7.619977 -0.173229 20.590196 -0.379107 1.579210 0.078675 -0.004384 96267.500000 1 0 0
-14.641922 8.945877 -10.665429 20.203118 -0.548452 2.126934 0.029946 -0.000188 675907.000000 1 0 0
-18.870822 11.325977 4.695871 22.504153 -0.540555 1.360585 0.073176 -0.019365 257327.000000 1 0 0
-8.067822 11.741877 -13.675929 19.748227 -0.968782 2.335765 -0.003137 -0.020609 205559.000000 1 0 0
-21.274222 -2.052923 -4.988629 21.947515 0.096200 1.800099 0.058935 -0.020818 347810.000000 1 0 0
-10.584222 13.525177 -2.762629 17.395065 -0.906782 1.730288 0.022542 0.000855 462250.000000 1 0 0
-18.854222 -4.892523 3.815071 19.848759 0.253892 1.377386 0.029259 0.000663 -96041.900000 1 0 0
-11.183522 11.767177 -12.206529 20.311006 -0.810824 2.215524 0.014584 -0.014186 185108.000000 1 0 0
-14.851922 11.588777 -10.392429 21.514691 -0.662605 2.074918 0.039109 -0.007796 309547.000000 1 0 0
-12.593222 9.968177 -13.958929 21.279227 -0.669568 2.286288 0.033183 -0.012361 273726.000000 1 0 0
-18.487822 -4.902623 -3.384829 19.424014 0.259215 1.745951 0.019908 -0.012549 -503107.000000 1 0 0
-8.796122 12.710477 -11.716229 19.395825 -0.965435 2.219381 0.018275 -0.012419 -130523.000000 1 0 0
-15.397722 7.649577 -8.395829 19.133630 -0.461084 2.025059 0.010939 -0.001098 52016.300000 1 0 0
-14.475422 8.993877 2.035371 17.163053 -0.555949 1.451926 0.026900 -0.003252 -24268.200000 1 0 0
-20.047622 6.024277 7.589471 22.266547 -0.291914 1.222979 0.071085 -0.031191 410327.000000 1 0 0
-19.162322 6.107677 3.612571 20.434015 -0.308554 1.393070 0.057690 -0.009007 263122.000000 1 0 0
-14.424922 12.926277 5.785271 20.214757 -0.730660 1.280548 0.023495 -0.016347 151575.000000 1 0 0
18.167578 6.174077 5.762871 20.034740 0.327595 1.279030 0.045241 -0.017574 152846.000000 1 0 0
18.313678 8.284677 0.553571 20.108036 0.424828 1.543263 0.040277 0.005198 9900.490000 1 0 0
16.899478 4.353777 8.675271 19.488665 0.252145 1.109461 0.062511 -0.016823 42584.900000 1 0 0
11.825978 13.148677 10.721171 20.680546 0.838310 1.025796 0.044115 -0.019670 94155.000000 1 0 0
15.490478 12.684677 4.287571 20.475332 0.686141 1.359833 0.037967 -0.003047 153754.000000 1 0 0
5.252878 10.409077 14.541771 18.638796 1.103440 0.675830 0.009914 0.003152 210259.000000 1 0 0
12.720778 14.564777 -4.837929 19.933803 0.852877 1.815944 0.023141 0.030818 380518.000000 1 0 0
17.375378 9.585277 -2.632929 20.017833 0.504116 1.702708 0.004740 -0.003858 -100507.000000 1 0 0
14.221178 7.686277 9.710371 18.857680 0.495506 1.029871 0.042898 -0.010861 109923.000000 1 0 0
4.845478 18.997377 -1.633929 19.673554 1.321061 1.653944 0.016595 -0.014760 642804.000000 1 0 0
-3.476322 19.909477 2.916771 20.420080 -1.397933 1.427468 -0.031161 0.027837 219558.000000 1 0 0
6.744178 13.420277 12.596271 19.602394 1.105122 0.872925 0.011453 0.012475 -796035.000000 1 0 0
0.496578 16.888677 -10.146129 19.708322 1.541402 2.111588 0.022847 -0.008167 118321.000000 1 0 0
10.646378 9.266577 15.660171 21.082120 0.716217 0.733527 0.041480 -0.008466 143435.000000 1 0 0
-1.280422 12.234777 0.985271 12.340989 -1.466522 1.490874 -0.004364 0.000631 611272.000000 1 0 0
-4.841522 19.150477 -2.347029 19.891950 -1.323170 1.689061 0.008642 0.010151 256141.000000 1 0 0
5.889178 18.449477 6.393271 20.394596 1.261814 1.251942 0.022726 -0.022674 98188.800000 1 0 0
11.062878 17.497277 -1.648429 20.766784 1.006991 1.650258 0.009201 -0.006815 351931.000000 1 0 0
18.597078 10.464777 3.377871 21.604928 0.512550 1.413805 0.044333 0.002699 377749.000000 1 0 0
11.503578 16.805077 6.199571 21.287969 0.970529 1.275290 0.040126 -0.009794 -97793.500000 1 0 0
18.166978 7.216677 -5.896329 20.417792 0.378126 1.863753 0.037247 0.007307 600944.000000 1 0 0
0.707378 16.072977 10.729871 19.338333 1.526814 0.982614 -0.009492 0.004870 323802.000000 1 0 0
1.590078 20.401977 -1.546429 20.522195 1.493016 1.646222 0.022559 -0.003059 224352.000000 1 0 0
14.165978 9.745677 -1.183229 17.235231 0.602602 1.639502 0.015467 0.002306 -93645.900000 1 0 0
10.252778 16.837077 2.223271 19.838084 1.023829 1.458490 0.030274 -0.024939 264671.000000 1 0 0
-0.160822 17.815977 -0.669929 17.829294 -1.561770 1.608380 0.000460 0.001887 34114.800000 1 0 0
-0.463022 21.229377 1.209471 21.268843 -1.548989 1.513900 0.018616 0.009756 310994.000000 1 0 0
6.047778 17.199977 -0.223629 18.233619 1.232683 1.583061 0.005780 -0.026954 -36089.200000 1 0 0
7.584978 18.830177 -2.749529 20.485785 1.187870 1.705419 0.004543 -0.014721 102998.000000 1 0 0
10.170578 9.665277 12.751071 18.959116 0.759930 0.833139 0.040338 -0.008603 94970.000000 1 0 0
13.761878 14.558177 8.439971 21.738513 0.813509 1.172065 0.060069 -0.024505 136154.000000 1 0 0
0.198878 17.742277 7.184271 19.142667 1.559588 1.186074 0.002324 0.001202 291183.000000 1 0 0
7.455078 18.029377 -7.690929 20.971100 1.178710 1.946298 0.011068 -0.013798 88753.700000 1 0 0
-0.907722 18.399877 9.151571 20.570141 -1.521503 1.109738 0.021272 -0.017165 200024.000000 1 0 0
16.226478 6.786777 -7.727829 19.211410 0.396142 1.984772 0.048774 0.004114 23699.600000 1 0 0
-5.155222 19.955277 -6.448829 21.595759 -1.317985 1.874038 0.005912 -0.009741 392148.000000 1 0 0
3.436778 15.592677 9.681671 18.672916 1.353855 1.025715 -0.000829 -0.007180 195520.000000 1 0 0
8.941178 14.851177 7.509271 18.891567 1.028870 1.162013 0.025292 -0.016846 65933.300000 1 0 0
-2.377322 19.268077 6.614171 20.509942 -1.448035 1.242442 0.009967 -0.002892 92532.400000 1 0 0
4.851478 17.997377 8.606171 20.530675 1.307489 1.138248 0.013684 -0.017032 -115480.000000 1 0 0
14.322678 12.138777 -6.307429 19.805875 0.703053 1.894903 0.006272 -0.007888 -77020.800000 1 0 0
11.865878 6.372877 15.521371 20.550562 0.492867 0.714719 0.049033 -0.026883 31110.300000 1 0 0
17.165578 9.141277 5.271871 20.149756 0.489336 1.306081 0.037165 -0.011999 3443.350000 1 0 0
4.979978 15.018777 12.066771 19.899016 1.250621 0.919270 -0.004248 -0.010345 577770.000000 1 0 0
16.249878 11.465177 -4.379429 20.363895 0.614444 1.787548 0.061423 0.016050 214676.000000 1 0 0
15.392878 13.726477 6.753571 21.701788 0.728234 1.254342 0.050930 -0.002998 381487.000000 1 0 0
12.405678 14.348877 -7.173229 20.279210 0.857901 1.932345 0.053574 -0.020108 376744.000000 1 0 0
-8.484822 15.395477 9.664271 20.060186 -1.067090 1.068130 0.040527 -0.015325 221080.000000 1 0 0
-3.670622 16.759077 -7.347529 18.663502 -1.355178 1.975433 -0.006209 0.000537 169681.000000 1 0 0
3.149878 19.285277 -4.549629 20.063469 1.408895 1.799548 0.035748 -0.031212 141775.000000 1 0 0
6.745878 16.136477 9.476371 19.892068 1.174826 1.074253 0.016910 -0.027210 511687.000000 1 0 0
13.500978 15.449977 -1.481429 20.571165 0.852617 1.642874 0.048336 -0.014303 143437.000000 1 0 0
13.501078 15.932577 4.901171 21.451052 0.867821 1.340279 0.054185 -0.029046 374813.000000 1 0 0
2.326978 18.268877 0.807971 18.434194 1.444105 1.526952 0.010361 -0.014816 5665.040000 1 0 0
-6.723622 17.782177 1.796671 19.095574 -1.209302 1.476569 -0.026065 0.018918 262262.000000 1 0 0
0.382378 20.018577 -5.807129 20.847359 1.551697 1.853085 0.035120 -0.002615 336071.000000 1 0 0
-7.736022 18.021977 -6.384629 20.625256 -1.165327 1.885520 0.040169 -0.019389 62419.500000 1 0 0
-7.175222 18.612477 -1.324429 19.991554 -1.202847 1.637094 0.012349 0.000258 1365.350000 1 0 0
-14.583322 -9.306123 8.594671 19.316976 0.567989 1.109702 0.029243 -0.007906 367491.000000 1 0 0
-13.283022 -13.657923 7.931671 20.637077 0.799313 1.176303 0.023218 -0.007364 -342840.000000 1 0 0
-4.002022 -16.028223 12.462171 20.693618 1.326113 0.924514 0.041666 -0.010820 127342.000000 1 0 0
-2.129022 -14.525923 15.639771 21.450818 1.425265 0.753792 0.029219 -0.008916 532131.000000 1 0 0
-7.362422 -13.730423 13.462971 20.590808 1.078600 0.858156 -0.006294 -0.008723 58959.400000 1 0 0
-10.607322 -11.284523 11.443471 19.256395 0.816322 0.934440 0.042589 -0.006903 172994.000000 1 0 0
-7.666322 -10.561523 12.658771 18.181385 0.942916 0.800638 0.015690 -0.014752 545021.000000 1 0 0
-15.319022 -12.275823 7.486171 21.009784 0.675561 1.206472 0.031424 -0.002275 339691.000000 1 0 0
-4.639822 -12.118023 13.200371 18.510111 1.205130 0.776824 0.019737 -0.025114 272662.000000 1 0 0
3.871878 -12.756223 13.976771 19.314833 -1.276105 0.761751 0.017118 0.002155 456708.000000 1 0 0
6.958078 -13.370723 14.424471 20.862801 -1.090965 0.807376 0.041636 -0.009617 228137.000000 1 0 0
7.187278 -8.957123 16.688871 20.258466 -0.894588 0.602719 0.026852 -0.003389 620843.000000 1 0 0
-5.300222 13.681977 12.991071 19.597367 -1.201210 0.846112 0.018979 -0.004383 377706.000000 1 0 0
-13.684922 -1.545223 17.395471 22.187096 0.112438 0.669656 0.030271 -0.013683 354082.000000 1 0 0
-9.900122 8.987777 13.512971 19.010338 -0.737133 0.780130 -0.000912 -0.019228 377705.000000 1 0 0
-7.389722 -8.111223 17.079071 20.300113 0.831910 0.571059 0.011481 -0.011392 245159.000000 1 0 0
-4.952322 1.822677 18.454271 19.193952 -0.352659 0.278522 0.014531 -0.001390 572977.000000 1 0 0
-15.418522 -3.898723 14.839571 21.751867 0.247668 0.820001 0.032188 0.004923 149992.000000 1 0 0
-14.784122 2.828477 12.358271 19.475559 -0.189034 0.883367 0.024376 -0.008467 257392.000000 1 0 0
-13.753022 10.747577 9.904671 20.068845 -0.663340 1.054647 -0.044381 0.010155 -191966.000000 1 0 0
-4.279322 11.210777 15.600671 19.681846 -1.206152 0.655665 0.014420 -0.002606 150180.000000 1 0 0
-13.462422 12.707277 8.313671 20.293566 -0.756550 1.148704 0.023695 -0.030038 189954.000000 1 0 0
-3.973222 -6.368323 18.600071 20.057534 1.012986 0.383566 0.025590 -0.021625 203022.000000 1 0 0
0.521778 -2.988623 17.554471 17.814701 -1.397950 0.171133 0.009489 -0.027904 -79583.200000 1 0 0
-4.917622 6.407277 20.954371 22.457112 -0.916185 0.367902 0.050874 -0.012339 194302.000000 1 0 0
2.202078 -10.601823 16.441071 19.686458 -1.366001 0.582398 0.020805 -0.015559 322073.000000 1 0 0
-14.913522 -0.306623 14.223671 20.611161 0.020557 0.809175 0.003449 0.007170 -18893.900000 1 0 0
-13.794722 -5.724523 7.503071 16.714084 0.393352 1.105254 0.017145 -0.005287 30702.700000 1 0 0
10.103578 0.576577 16.501771 19.357768 0.057005 0.550119 0.029209 0.000164 509298.000000 1 0 0
-7.759222 12.351977 12.030871 18.908166 -1.009916 0.881131 0.028413 -0.009264 159543.000000 1 0 0
-2.433122 7.519277 20.344771 21.825887 -1.257845 0.370519 0.053537 -0.008815 621682.000000 1 0 0
1.169578 -13.322923 15.286271 20.311038 -1.483234 0.718781 0.016658 -0.022863 578012.000000 1 0 0
-3.156622 -11.278723 17.584671 21.128050 1.297904 0.587570 0.023160 -0.030372 583916.000000 1 0 0
-2.315122 8.670177 16.971271 19.197808 -1.309863 0.486400 0.017455 0.000844 606946.000000 1 0 0
-5.739322 -8.971323 19.818071 22.498453 1.001667 0.493113 0.089059 -0.049937 187536.000000 1 0 0
-6.762122 -3.088823 19.292071 20.674891 0.428480 0.367813 0.019910 -0.012787 413698.000000 1 0 0
-10.942022 -8.080723 15.937871 20.953321 0.636103 0.706503 0.040724 -0.014891 259095.000000 1 0 0
-0.745522 6.016577 17.720871 18.729236 -1.447513 0.329634 0.025108 -0.010447 124489.000000 1 0 0
-6.085022 -11.630723 18.657471 22.812331 1.088773 0.613101 0.031763 -0.016871 403886.000000 1 0 0
0.108778 3.076277 18.653071 18.905353 1.535451 0.163550 0.026067 -0.010792 26822.400000 1 0 0
-18.830822 0.130277 7.370471 20.222282 -0.006918 1.197730 0.054179 -0.018306 361496.000000 1 0 0
-1.951522 -8.665223 17.284771 19.433421 1.349279 0.474688 0.014705 -0.029219 258329.000000 1 0 0
5.968778 3.582677 14.966871 16.506639 0.540593 0.435360 0.010757 -0.003580 422107.000000 1 0 0
-13.962722 -7.042423 10.080971 18.605894 0.467140 0.998200 0.024797 -0.004225 196410.000000 1 0 0
3.657378 8.130977 17.041271 19.232632 1.148102 0.482020 0.019225 0.005770 146049.000000 1 0 0
6.192878 4.088277 17.247171 18.775800 0.583483 0.406311 0.035091 -0.030188 219989.000000 1 0 0
3.941478 -9.392223 18.258271 20.907261 -1.173463 0.508865 -0.003672 0.004082 244495.000000 1 0 0
-4.722522 -0.722323 19.908871 20.474060 0.151776 0.235512 0.020975 -0.010280 910799.000000 1 0 0
-11.335722 1.868577 17.101771 20.602445 -0.163371 0.591537 0.032655 -0.004548 217417.000000 1 0 0
-16.904022 -4.367023 8.673071 19.494589 0.252815 1.109738 0.031395 -0.010794 419763.000000 1 0 0
-13.277222 -9.398223 11.960571 20.190752 0.615972 0.936788 0.024750 -0.019922 167948.000000 1 0 0
-14.892822 6.289877 12.778471 20.606990 -0.399618 0.901921 0.019615 -0.021188 224624.000000 1 0 0
1.235078 8.918177 16.922071 19.168093 1.433182 0.488953 0.015267 -0.012549 77472.700000 1 0 0
-3.902722 -10.401623 14.788671 18.496751 1.211848 0.644287 0.024168 -0.020370 700259.000000 1 0 0
-18.391022 -2.669723 6.622371 19.728480 0.144157 1.228474 0.073589 -0.012546 -236710.000000 1 0 0
-1.016122 -0.513923 21.194971 21.225537 0.468252 0.053673 0.019221 -0.009347 379100.000000 1 0 0
-1.686622 2.608977 20.320271 20.556383 -0.996908 0.151711 0.026425 -0.010089 -441300.000000 1 0 0
-7.983622 1.860177 16.360071 18.298918 -0.228915 0.464500 0.002279 0.008777 609380.000000 1 0 0
2.710578 -2.407823 18.915971 19.260291 -0.726317 0.189371 0.018408 -0.006080 -40951.400000 1 0 0
-12.857422 4.419477 14.108371 19.593142 -0.331078 0.766898 0.016384 -0.012497 216722.000000 1 0 0
-13.409522 -5.366223 12.874571 19.348545 0.380662 0.842763 0.014456 -0.008383 -1351.580000 1 0 0
-17.606222 -0.704623 9.784371 20.154639 0.040000 1.063901 0.047634 -0.016459 258671.000000 1 0 0
-7.652122 7.609777 14.533071 18.101764 -0.782624 0.638729 0.007566 -0.011499 96766.500000 1 0 0
-9.412322 0.777777 14.114871 16.983119 -0.082447 0.589692 0.010248 -0.001340 313570.000000 1 0 0
7.182778 -0.981923 15.127971 16.775339 -0.135863 0.446884 0.014679 -0.008310 153640.000000 1 0 0
4.359478 6.289677 18.427971 19.953827 0.964705 0.393610 0.034788 0.004253 2376.610000 1 0 0
1.433578 -0.040023 20.057371 20.108578 -0.027911 0.071380 0.014615 -0.001867 200780.000000 1 0 0
-7.252822 6.973777 17.274371 19.991021 -0.765786 0.527424 0.019408 -0.013080 499599.000000 1 0 0
7.683778 -3.385923 16.772871 18.757242 -0.415058 0.464138 0.027444 -0.002769 388640.000000 1 0 0
-16.720022 2.655677 9.132371 19.235695 -0.157516 1.076103 0.037884 -0.015038 200863.000000 1 0 0
3.363178 -5.964623 19.209471 20.393418 -1.057379 0.342421 0.021025 -0.022788 49304.600000 1 0 0
-3.883322 -4.023423 20.476471 21.226257 0.803115 0.266584 0.022079 -0.027175 355241.000000 1 0 0
-10.130722 5.825377 14.219671 18.405586 -0.521850 0.687912 0.014324 -0.010521 107755.000000 1 0 0
6.567678 2.428377 19.731371 20.937011 0.354157 0.341014 0.046935 -0.020108 116878.000000 1 0 0
-7.423122 11.225277 14.537571 19.810365 -0.986528 0.746844 0.034860 -0.019820 311502.000000 1 0 0
-14.615922 5.079477 8.839571 17.820333 -0.334473 1.051766 0.016463 -0.022516 218236.000000 1 0 0
0.054378 -6.075823 20.387571 21.273731 -1.561847 0.289647 0.006346 -0.026539 40874.800000 1 0 0
-6.392922 -8.053523 13.558871 17.016805 0.899845 0.648827 0.021936 -0.013971 325706.000000 1 0 0
-13.109722 10.463877 6.558671 18.010378 -0.673628 1.198065 0.003822 -0.012994 215867.000000 1 0 0
-19.486322 2.397377 7.656271 21.073269 -0.122414 1.198971 0.033192 -0.021748 78653.100000 1 0 0
-15.833622 9.310177 6.181171 19.380141 -0.531550 1.246182 0.016896 -0.010625 93865.800000 1 0 0
-12.395522 8.403777 13.579171 20.215497 -0.595786 0.834267 -0.015579 -0.017296 87889.300000 1 0 0
-16.507322 8.742977 10.428671 21.393656 -0.487079 1.061612 0.021413 -0.034013 375158.000000 1 0 0
2.444378 10.502377 14.285371 17.898233 1.342122 0.646588 0.000907 -0.039008 373619.000000 1 0 0
1.358778 14.323877 12.169671 18.844645 1.476218 0.868740 -0.002835 -0.037764 383992.000000 1 0 0
8.750078 4.948677 16.610971 19.415912 0.514709 0.544215 0.020938 -0.005306 114556.000000 1 0 0
0.241978 12.964477 13.634771 18.816036 1.552134 0.760291 -0.001649 0.013709 310323.000000 1 0 0
3.486578 13.228177 14.900371 20.227752 1.313085 0.742722 -0.000946 0.010910 190470.000000 1 0 0
-3.715022 -4.437923 -13.579629 14.761533 0.873834 2.738707 0.010344 -0.011229 142859.000000 1 0 0
6.349778 -12.170123 16.628171 21.562181 -1.089899 0.690115 0.014674 0.003410 201133.000000 1 0 0
8.486878 -14.069323 7.148971 17.918726 -1.028014 1.160407 0.008741 0.001876 204061.000000 1 0 0
-0.332122 15.284577 0.506271 15.296566 -1.549071 1.537693 -0.002093 0.001160 -260030.000000 1 0 0
-13.974722 7.547377 8.451371 17.991149 -0.495190 1.081787 0.000413 -0.012557 190942.000000 1 0 0
-16.250422 -9.875123 4.359071 19.508864 0.546050 1.345453 0.037941 -0.004237 197407.000000 1 0 0
9.240178 -10.195123 11.514771 17.941889 -0.834493 0.873977 0.018933 0.006581 96929.400000 1 0 0
-26.121242 5.740977 31.115034 41.029544 -0.216342 0.710008 0.071561 -0.029863 823275.000000 0 0 1
-24.815022 5.247677 30.769884 39.876173 -0.208401 0.689387 0.060906 -0.030258 1159200.000000 0 0 1
-23.940022 5.051877 31.909464 40.210198 -0.207971 0.654148 0.061154 -0.022066 705689.000000 0 0 1
-22.577122 4.528577 31.365854 38.910811 -0.197956 0.633271 0.051297 -0.024162 -11363.900000 0 0 1
-22.569422 3.146477 31.150204 38.595522 -0.138520 0.631583 0.050656 -0.032057 118280.000000 0 0 1
-21.253922 2.733077 30.830804 37.546470 -0.127890 0.607396 0.038622 -0.024881 393961.000000 0 0 1
-20.666322 1.642677 31.779474 37.943777 -0.079319 0.578029 0.035871 -0.021806 68803.900000 0 0 1
-21.313722 0.404877 31.528104 38.058639 -0.018994 0.594536 0.042475 -0.015209 256693.000000 0 0 1
-21.342722 -0.395923 32.670934 39.026382 0.018549 0.578745 0.037993 -0.015949 -44632.500000 0 0 1
-22.090622 -1.734823 32.367715 39.225937 0.078371 0.600309 0.041886 -0.028656 -170221.000000 0 0 1
-21.340322 -2.696723 31.607854 38.232684 0.125701 0.597538 0.069733 -0.038532 192160.000000 0 0 1
-21.563122 -4.071223 31.875654 38.698842 0.186608 0.602917 0.074458 -0.040180 -259667.000000 0 0 1
-22.938222 -4.731623 31.617074 39.347041 0.203424 0.637571 0.057426 -0.029457 648736.000000 0 0 1
-24.043022 -4.422423 32.489747 40.659665 0.181905 0.645057 0.046242 -0.015237 710895.000000 0 0 1
-24.095322 -5.021423 33.799380 41.811450 0.205458 0.629408 0.031352 -0.011342 186591.000000 0 0 1
-25.134892 -4.421423 -33.425319 42.054295 0.174126 2.489496 0.036264 0.003912 611704.000000 0 0 1
-25.151802 -5.062623 -32.185019 41.159673 0.198629 2.468593 0.038660 -0.003681 -208424.000000 0 0 1
-26.279252 -4.618223 -31.497569 41.279824 0.173960 2.438778 0.039357 -0.000699 -580676.000000 0 0 1
-26.396812 -5.124523 -30.046749 40.321948 0.191749 2.411588 0.032350 0.000157 -609922.000000 0 0 1
-26.698562 -6.481323 -29.954689 40.646084 0.238152 2.399364 0.028060 0.010893 464270.000000 0 0 1
-26.297472 -7.022223 -28.700909 39.555161 0.260942 2.382691 0.018782 0.003906 -47465.000000 0 0 1
-26.549022 -8.563823 -28.562639 39.925104 0.312029 2.368001 0.021123 0.007380 69627.100000 0 0 1
-27.891472 -8.945623 -28.340579 40.757168 0.310365 2.339706 0.045261 -0.001359 -139067.000000 0 0 1
-28.017942 -10.338023 -28.378429 41.197269 0.353481 2.330687 0.044791 0.010376 1228340.000000 0 0 1
-29.480572 -10.831623 -28.020859 42.090340 0.352105 2.299270 0.075169 0.002312 1257570.000000 0 0 1
-29.681402 -11.234523 -26.707939 41.479080 0.361839 2.270367 0.085906 -0.001521 -37992.600000 0 0 1
-31.033942 -11.619723 -26.534719 42.452500 0.358262 2.245985 0.089743 -0.003635 205246.000000 0 0 1
-31.384132 -12.189723 -25.162179 42.031991 0.370470 2.212603 0.102534 -0.004234 -101321.000000 0 0 1
-30.962992 -11.340423 -24.140829 40.866755 0.351084 2.202748 0.108956 -0.003322 139459.000000 0 0 1
-31.134292 -11.944123 -22.922729 40.465512 0.366317 2.173019 0.119868 -0.009236 -466701.000000 0 0 1
-30.488712 -11.233123 -21.738429 39.093527 0.353003 2.160437 0.127440 -0.018019 -59687.900000 0 0 1
-30.586432 -11.947723 -20.539229 38.731612 0.372396 2.129746 0.122230 -0.023896 708373.000000 0 0 1
-29.354252 -12.661323 -20.424829 37.936194 0.407219 2.139333 0.108734 -0.036286 156236.000000 0 0 1
-29.134892 -12.961723 -18.974429 37.106295 0.418593 2.107555 0.131227 -0.046296 132513.000000 0 0 1
-28.322732 -12.061323 -18.228029 35.775881 0.402593 2.105407 0.134627 -0.040543 292239.000000 0 0 1
-28.204102 -12.469023 -16.910129 35.169594 0.416265 2.072382 0.109429 -0.040257 42382.400000 0 0 1
-27.656812 -11.240523 -16.122229 33.928968 0.386036 2.065960 0.116344 -0.036505 1226320.000000 0 0 1
-26.283422 -10.800323 -16.300829 32.759460 0.389883 2.091616 0.117128 -0.034789 1489250.000000 0 0 1
-25.998752 -9.436223 -15.892129 31.898858 0.348164 2.092322 0.101083 -0.030593 -1770310.000000 0 0 1
-24.589922 -9.030323 -16.021929 30.706891 0.351947 2.119721 0.096408 -0.033226 -1795450.000000 0 0 1
-23.709822 -9.457423 -15.041529 29.628467 0.379542 2.103276 0.083880 -0.037666 917162.000000 0 0 1
-22.420422 -8.780323 -15.139029 28.442215 0.373263 2.132080 0.122999 -0.055632 879937.000000 0 0 1
-21.464622 -9.226123 -14.064629 27.270224 0.405954 2.112680 0.122516 -0.030122 -790295.000000 0 0 1
-20.752422 -10.386723 -14.287029 27.251903 0.464053 2.122640 0.106937 -0.027316 465172.000000 0 0 1
-19.763222 -10.637623 -13.285529 26.081588 0.493780 2.105264 0.104720 -0.027784 753293.000000 0 0 1
-18.593622 -11.622023 -13.635729 25.821063 0.558638 2.127141 0.082828 -0.017848 822495.000000 0 0 1
-17.662622 -11.272023 -14.658629 25.571510 0.568025 2.181252 0.078115 -0.015518 521529.000000 0 0 1
-18.170522 -11.399623 -15.966029 26.740107 0.560301 2.210655 0.067597 -0.027810 208712.000000 0 0 1
-17.265322 -10.712223 -17.060929 26.531459 0.555319 2.269264 0.059753 -0.029850 753393.000000 0 0 1
-17.948022 -10.859123 -18.309929 27.844309 0.544111 2.288402 0.041837 -0.017009 666322.000000 0 0 1
-17.334522 -10.039223 -19.233229 27.770285 0.524945 2.335860 0.035882 -0.029381 -236013.000000 0 0 1
-17.788222 -10.643723 -20.577329 29.208494 0.539211 2.352512 0.024271 -0.026559 -793347.000000 0 0 1
-19.110222 -10.328423 -20.827229 30.094025 0.495494 2.335152 0.037963 -0.038149 -735990.000000 0 0 1
-19.558522 -10.994623 -21.993929 31.418950 0.512116 2.346223 0.028556 -0.023866 655832.000000 0 0 1
-21.018122 -10.603223 -22.421429 32.510156 0.467225 2.331836 0.045556 -0.021988 799064.000000 0 0 1
-21.015522 -9.396423 -23.100429 32.612493 0.420455 2.357927 0.036923 -0.022432 353946.000000 0 0 1
-22.202122 -9.273423 -23.859229 33.885002 0.395656 2.351984 0.039511 -0.029438 10745.600000 0 0 1
-21.945822 -8.206423 -24.942329 34.221108 0.357841 2.387449 0.028110 -0.032222 294238.000000 0 0 1
-21.018922 -8.686523 -25.921599 34.484490 0.391895 2.421415 0.040081 -0.024299 371994.000000 0 0 1
-20.766022 -7.700523 -26.941229 34.876289 0.355104 2.453533 0.028018 -0.028426 -540316.000000 0 0 1
-19.617222 -8.171623 -27.811809 35.001536 0.394695 2.489125 0.057526 -0.033923 -586844.000000 0 0 1
-19.820122 -9.318823 -28.598979 36.021928 0.439500 2.488046 0.055183 -0.031296 141086.000000 0 0 1
-18.618122 -9.745423 -29.207599 35.981822 0.482221 2.517908 0.026755 -0.024995 -81454.400000 0 0 1
-18.769522 -10.860423 -30.252909 37.222066 0.524551 2.519684 0.032071 -0.019595 -411588.000000 0 0 1
-19.388622 -10.436423 -31.414599 38.362932 0.493797 2.530251 0.040323 -0.019151 212120.000000 0 0 1
-19.399422 -11.641323 -32.221949 39.371461 0.540483 2.529433 0.016749 -0.005794 118168.000000 0 0 1
-19.949022 -11.498823 -33.642969 40.768073 0.522894 2.541403 0.012171 -0.009880 433404.000000 0 0 1
-18.966722 -10.908423 33.746275 40.218669 0.521936 0.575225 0.025579 -0.018974 393238.000000 0 0 1
-19.334222 -10.845823 32.401696 39.259571 0.511223 0.600028 0.037941 -0.024750 -210171.000000 0 0 1
-18.935922 -12.109923 31.553774 38.740935 0.568973 0.618961 0.043355 -0.022138 -96492.900000 0 0 1
-17.533222 -12.112823 31.374704 37.927647 0.604558 0.596645 0.045357 -0.023173 357268.000000 0 0 1
-17.073122 -12.909423 30.227584 37.038514 0.647410 0.616145 0.050490 -0.024800 39354.200000 0 0 1
-17.279622 -14.462423 30.309094 37.767555 0.696877 0.639295 0.045322 -0.018033 -453045.000000 0 0 1
-18.571822 -15.054223 30.364774 38.646626 0.681168 0.666964 0.036028 -0.016120 85905.100000 0 0 1
-18.527122 -16.367123 30.890854 39.564906 0.723576 0.674909 0.042428 -0.017696 -212331.000000 0 0 1
-18.935122 -16.470123 32.417128 40.996024 0.715888 0.658782 0.016892 -0.019125 -86531.200000 0 0 1
-17.983422 -15.877723 33.285132 41.029325 0.723292 0.624506 0.031685 -0.017149 244797.000000 0 0 1
-18.553822 -15.565423 -33.704849 41.503536 0.698034 2.518531 0.013442 -0.008064 611281.000000 0 0 1
-17.432922 -15.114123 -32.705319 40.024759 0.714274 2.527206 0.026448 -0.013027 603925.000000 0 0 1
-16.777822 -13.895323 -33.077489 39.606761 0.691699 2.559197 0.026763 -0.014292 -258841.000000 0 0 1
-15.549822 -13.622723 -32.461009 38.484966 0.719435 2.574511 0.034312 -0.018260 17316.200000 0 0 1
-15.673122 -13.086423 -31.041189 37.154496 0.695697 2.559770 0.029491 -0.014822 -361510.000000 0 0 1
-16.079422 -14.105023 -30.196379 37.004334 0.720080 2.525293 0.021164 -0.018388 -411602.000000 0 0 1
-16.168422 -13.744623 -28.844999 35.810145 0.704547 2.507312 0.018783 -0.015637 -109548.000000 0 0 1
-16.310322 -14.999223 -27.984269 35.694854 0.743547 2.471857 0.018985 -0.004993 44385.800000 0 0 1
-15.102722 -15.690723 -27.775249 35.295261 0.804491 2.476630 0.034774 -0.020536 -225198.000000 0 0 1
-14.606222 -16.498323 -28.808569 36.269409 0.846154 2.488641 0.038595 -0.023916 -159763.000000 0 0 1
-13.292522 -17.254623 -28.440629 35.822933 0.914383 2.488030 0.050964 -0.015444 -72227.000000 0 0 1
-12.259322 -16.321023 -28.416499 34.988057 0.926568 2.518670 0.042139 -0.021433 -588937.000000 0 0 1
-11.283022 -16.568723 -27.425609 33.970475 0.972948 2.510421 0.060398 -0.028401 26736.700000 0 0 1
-9.891722 -15.952923 -27.604609 33.381976 1.015759 2.544425 0.052682 -0.030225 -31215.600000 0 0 1
-9.755122 -14.600223 -27.428449 32.567602 0.981768 2.572148 0.058425 -0.028820 -474748.000000 0 0 1
-8.432622 -14.225323 -27.136479 31.778253 1.035696 2.594292 0.076659 -0.031459 -257323.000000 0 0 1
-8.121122 -12.721423 -27.337359 31.226886 1.002632 2.637148 0.071697 -0.035118 -284822.000000 0 0 1
-7.731822 -12.432823 -28.692329 32.211890 1.014438 2.669761 0.079158 -0.031423 216517.000000 0 0 1
-7.650722 -11.054323 -29.003109 31.967357 0.965391 2.707549 0.067118 -0.031808 -209634.000000 0 0 1
-6.750622 -10.774023 -30.242449 32.806343 1.011073 2.743617 0.063504 -0.020059 207757.000000 0 0 1
-5.391122 -10.911823 -29.806179 32.195347 1.111910 2.753920 0.071962 -0.019827 1046330.000000 0 0 1
-4.385222 -10.569023 -30.794659 32.851871 1.177501 2.785824 0.071564 -0.018535 573830.000000 0 0 1
-4.343922 -9.071723 -31.271789 32.849514 1.124218 2.830407 0.050461 -0.020215 -1742180.000000 0 0 1
-3.319222 -8.691423 -32.083859 33.405569 1.205993 2.859354 0.052404 -0.023085 -974628.000000 0 0 1
-3.351022 -7.332323 -32.541219 33.524964 1.142119 2.898742 0.046065 -0.022553 827877.000000 0 0 1
-1.962722 -6.689723 -32.956629 33.685962 1.285411 2.933124 0.065698 -0.032826 663703.000000 0 0 1
-1.312022 -7.267323 -34.027359 34.819485 1.392183 2.927881 0.074589 -0.034987 -477206.000000 0 0 1
-0.256322 -6.419723 33.839010 34.443536 1.530890 0.187631 0.074977 -0.023930 137986.000000 0 0 1
0.639078 -6.989923 32.719440 33.463849 -1.479621 0.211320 0.058315 -0.017189 40650.500000 0 0 1
-0.000922 -6.858323 31.471174 32.209803 1.570662 0.214569 0.043282 -0.010927 442850.000000 0 0 1
0.761378 -7.466123 30.432744 31.344451 -1.469170 0.241780 0.034311 -0.015016 123787.000000 0 0 1
0.217178 -7.044523 29.038174 29.881232 -1.539977 0.238106 0.036297 -0.011341 192183.000000 0 0 1
0.860778 -5.884423 28.493004 29.107021 -1.425546 0.205766 0.043243 -0.013546 184539.000000 0 0 1
0.631778 -5.690223 27.133844 27.731269 -1.460220 0.207948 0.037118 -0.012284 -698598.000000 0 0 1
-0.566122 -4.824623 26.723174 27.161103 1.453990 0.179816 0.043176 -0.010589 -329240.000000 0 0 1
-1.804222 -5.438723 26.895444 27.499088 1.250484 0.209915 0.033478 -0.010755 -932038.000000 0 0 1
-2.817722 -4.484423 27.018794 27.532977 1.009802 0.193564 0.031570 -0.008391 583694.000000 0 0 1
-4.273222 -4.944723 27.362924 28.132549 0.858117 0.234447 0.034379 -0.004010 491087.000000 0 0 1
-4.777122 -5.758723 26.352574 27.394195 0.878298 0.276647 0.025313 -0.002846 227038.000000 0 0 1
-6.086522 -6.207423 26.740844 28.118510 0.795232 0.314326 0.024220 -0.005183 981454.000000 0 0 1
-6.267022 -7.745923 26.576784 28.383099 0.890547 0.358684 0.030277 -0.011822 222677.000000 0 0 1
-5.737222 -8.351323 27.739514 29.532033 0.968860 0.350204 0.040543 -0.013295 -94230.200000 0 0 1
-5.679622 -9.751323 27.567624 29.787922 1.043384 0.388540 0.038975 -0.021601 172390.000000 0 0 1
-5.177722 -10.534823 28.825144 31.123628 1.113983 0.386723 0.045491 -0.022081 195951.000000 0 0 1
-4.769122 -11.899023 28.605454 31.346503 1.189601 0.421304 0.061626 -0.027860 197929.000000 0 0 1
-4.587422 -12.491223 29.859064 32.690041 1.218836 0.419238 0.069284 -0.028259 -42422.200000 0 0 1
-4.783322 -13.983523 29.744944 33.214165 1.241205 0.461131 0.076716 -0.039588 -425129.000000 0 0 1
-6.116322 -14.348123 29.547744 33.411782 1.167842 0.485694 0.096293 -0.040452 -603370.000000 0 0 1
-6.299422 -15.750423 29.385564 33.930368 1.190331 0.523540 0.091447 -0.036119 105495.000000 0 0 1
-6.347422 -16.532123 30.757034 35.490787 1.204207 0.522408 0.109678 -0.037606 -259194.000000 0 0 1
-7.554422 -16.454723 31.471234 36.307930 1.140398 0.522074 0.110147 -0.045322 -485125.000000 0 0 1
-7.374922 -16.776823 32.844424 37.611268 1.156633 0.508943 0.107487 -0.037987 -1014730.000000 0 0 1
-8.667122 -16.893123 33.646897 38.634315 1.096758 0.513751 0.105118 -0.038806 169639.000000 0 0 1
-9.594422 -17.915323 33.290919 39.003807 1.079120 0.548073 0.101701 -0.032143 587107.000000 0 0 1
-10.300022 -17.695123 32.054524 38.035514 1.043656 0.568420 0.097622 -0.036646 -693527.000000 0 0 1
-10.919422 -18.998823 31.499024 38.371572 1.049156 0.607820 0.090649 -0.031461 179687.000000 0 0 1
-12.162422 -19.410823 32.048154 39.392750 1.011062 0.620557 0.088971 -0.032092 303531.000000 0 0 1
-12.489622 -20.743423 31.780994 39.953871 1.028834 0.651059 0.073648 -0.024947 -226930.000000 0 0 1
-11.908422 -21.678823 32.825561 41.101087 1.068482 0.645741 0.059093 -0.020019 -440138.000000 0 0 1
-10.505522 -21.752723 32.830531 40.760161 1.120880 0.634351 0.049785 -0.024333 -166578.000000 0 0 1
-9.910922 -22.496023 33.905417 41.879287 1.155818 0.627328 0.036129 -0.027859 -186703.000000 0 0 1
-10.276222 -23.988623 -34.120289 42.956360 1.166067 2.488653 0.041301 -0.012111 -370100.000000 0 0 1
-9.748022 -24.809523 33.165229 42.549603 1.196413 0.677011 0.051374 -0.014683 -172707.000000 0 0 1
-10.007522 -26.124963 33.532005 43.669893 1.204975 0.695315 0.062500 -0.018357 -918573.000000 0 0 1
-9.600822 -27.234123 32.533145 43.500330 1.231870 0.725930 0.050957 -0.010926 776652.000000 0 0 1
-8.203922 -27.370033 32.228139 43.070593 1.279577 0.725356 0.057590 -0.012529 668828.000000 0 0 1
-7.455622 -27.874703 33.300236 44.062354 1.309445 0.713994 0.055288 -0.016050 -698512.000000 0 0 1
-5.973022 -27.481003 33.416165 43.675194 1.356774 0.699590 0.055083 -0.023893 51640.400000 0 0 1
-5.852022 -26.354863 -34.005169 43.418619 1.352294 2.470581 0.064083 -0.015892 4142.240000 0 0 1
-5.295122 -25.309063 33.454023 42.281895 1.364553 0.658005 0.098506 -0.022425 130184.000000 0 0 1
-4.852822 -24.045523 -33.996989 41.922933 1.371653 2.516553 0.104660 -0.023268 308086.000000 0 0 1
-3.599922 -24.225523 -33.358949 41.384234 1.423275 2.508292 0.106538 -0.031739 233559.000000 0 0 1
-3.034322 -22.995823 -32.892889 40.248691 1.439603 2.527404 0.094403 -0.034458 145156.000000 0 0 1
34.861656 -15.409623 2.458371 38.194700 -0.416200 1.506388 0.100071 -0.038308 -103201.000000 0 0 1
35.435796 -15.936023 3.649971 39.025309 -0.422617 1.477131 0.092136 -0.040872 588529.000000 0 0 1
34.456516 -16.448223 4.544571 38.450600 -0.445374 1.452327 0.088657 -0.042207 63976.200000 0 0 1
35.053276 -16.884223 5.897071 39.352059 -0.448879 1.420376 0.081411 -0.028947 75497.000000 0 0 1
36.081966 -17.858723 5.767771 40.670744 -0.459598 1.428500 0.095365 -0.033247 -7475.580000 0 0 1
-35.959667 -17.687823 6.773571 40.642810 0.457130 1.403354 0.083301 -0.024883 -584173.000000 0 0 1
-34.711403 -18.534623 6.495171 39.882339 0.490448 1.407209 0.079518 -0.026623 -493815.000000 0 0 1
-34.740683 -19.951323 6.594671 40.601232 0.521303 1.407648 0.078425 -0.032392 -239574.000000 0 0 1
-33.556882 -20.488423 7.125171 39.957576 0.548147 1.391519 0.057487 -0.020328 -108933.000000 0 0 1
-33.650612 -22.019223 7.216271 40.856877 0.579426 1.393242 0.070583 -0.022785 101047.000000 0 0 1
-33.128562 -22.683123 6.057671 40.604446 0.600383 1.421050 0.091106 -0.020700 271084.000000 0 0 1
-33.644952 -23.987523 6.060771 41.762627 0.619371 1.425158 0.094635 -0.028609 230691.000000 0 0 1
-33.072652 -24.861823 4.905871 41.665070 0.644610 1.452777 0.084277 -0.023178 289689.000000 0 0 1
-33.622632 -24.483923 3.646871 41.752168 0.629401 1.483339 0.086205 -0.026251 393008.000000 0 0 1
-32.925642 -25.217563 2.632071 41.556602 0.653596 1.507417 0.075528 -0.017768 307176.000000 0 0 1
-33.606702 -25.027223 1.258771 41.920840 0.640106 1.540764 0.077292 -0.021111 -435037.000000 0 0 1
-34.815157 -25.725583 1.112171 43.302860 0.636371 1.545110 0.078676 -0.019897 -326903.000000 0 0 1
-35.633542 -25.282293 0.087671 43.691547 0.617079 1.568790 0.068813 -0.021886 -56011.000000 0 0 1
-36.441782 -23.953123 0.254471 43.609865 0.581489 1.564961 0.083565 -0.023483 731321.000000 0 0 1
35.207796 -24.172723 0.744871 42.713748 -0.601658 1.553357 0.056597 -0.013024 1131890.000000 0 0 1
34.454026 -22.962023 0.706371 41.410546 -0.587855 1.553738 0.068485 -0.020684 19850.300000 0 0 1
32.939696 -23.071423 0.521371 40.219223 -0.611004 1.557833 0.038938 -0.012811 -245224.000000 0 0 1
32.551016 -23.405123 -0.770929 40.099411 -0.623383 1.590023 0.038872 -0.014768 -593862.000000 0 0 1
31.157916 -23.391623 -0.875729 38.971151 -0.643977 1.593269 0.036338 -0.007071 -409258.000000 0 0 1
30.784566 -23.467623 -2.355629 38.781024 -0.651338 1.631576 0.029993 -0.003707 -188950.000000 0 0 1
30.919706 -22.190923 -3.024229 38.178675 -0.622503 1.650092 0.051184 -0.010129 245616.000000 0 0 1
30.520846 -22.222323 -4.384829 38.007636 -0.629339 1.686421 0.058084 -0.031422 -67040.300000 0 0 1
30.827386 -20.875223 -4.939929 37.556698 -0.595235 1.702711 0.059478 -0.036033 281962.000000 0 0 1
30.056236 -19.875023 -4.247529 36.282714 -0.584251 1.688133 0.073085 -0.023865 434978.000000 0 0 1
30.388616 -18.523423 -4.547029 35.878414 -0.547413 1.697872 0.081525 -0.032005 170177.000000 0 0 1
29.583226 -17.584423 -3.564729 34.598937 -0.536296 1.674009 0.090516 -0.025616 126482.000000 0 0 1
30.012526 -17.398823 -2.215129 34.761725 -0.525373 1.634563 0.087464 -0.025023 -122513.000000 0 0 1
30.327096 -18.479223 -1.380829 35.540415 -0.547252 1.609658 0.056585 -0.011075 -710837.000000 0 0 1
29.296256 -19.574823 -1.047729 35.249710 -0.589041 1.600524 0.050273 -0.004485 -335290.000000 0 0 1
28.283406 -19.145123 -0.156929 34.154229 -0.595056 1.575391 0.051546 0.005569 -204874.000000 0 0 1
27.524716 -20.257423 0.157071 34.175983 -0.634463 1.566200 0.049000 0.001590 -711864.000000 0 0 1
26.608516 -20.014623 1.357871 33.323296 -0.644900 1.530037 0.048364 0.002220 -1007570.000000 0 0 1
25.900716 -21.191023 1.768071 33.511678 -0.685719 1.518012 0.041710 0.004171 26216.600000 0 0 1
24.965616 -20.936523 2.768871 32.699948 -0.697847 1.486020 0.048038 0.001664 819615.000000 0 0 1
23.586816 -20.325823 2.253471 31.217865 -0.711273 1.498548 0.039738 -0.001090 224338.000000 0 0 1
23.580716 -18.980623 1.927271 30.331973 -0.677735 1.507214 0.061729 -0.011175 203044.000000 0 0 1
23.627316 -18.088523 3.006071 29.907878 -0.653396 1.470115 0.075085 -0.010290 -398584.000000 0 0 1
23.349016 -16.591623 2.591871 28.760672 -0.617799 1.480555 0.083953 -0.002681 235111.000000 0 0 1
21.970816 -16.409923 2.315071 27.520208 -0.641512 1.486574 0.076233 0.000750 121013.000000 0 0 1
21.747216 -15.149823 1.574871 26.550682 -0.608462 1.511446 0.087445 -0.014264 395323.000000 0 0 1
20.320616 -14.998123 0.967771 25.274645 -0.635825 1.532497 0.065523 -0.001694 221391.000000 0 0 1
19.287116 -14.971523 1.955171 24.494122 -0.660087 1.490889 0.056595 -0.000759 236227.000000 0 1 0
18.295216 -14.028823 1.594271 23.109835 -0.654168 1.501755 0.060225 -0.003073 -391262.000000 0 1 0
18.469416 -12.589623 2.023771 22.443564 -0.598302 1.480502 0.065730 -0.004581 -916539.000000 0 1 0
19.415416 -11.977523 1.223371 22.845482 -0.552759 1.517221 0.068981 -0.009989 -64168.000000 0 1 0
19.780016 -10.721823 1.710071 22.563928 -0.496722 1.494936 0.076469 -0.010053 -86547.600000 0 1 0
20.807616 -9.933523 0.861371 23.073225 -0.445403 1.533456 0.086801 -0.014759 -225744.000000 0 1 0
20.240816 -9.538123 -0.353029 22.378361 -0.440370 1.586572 0.097242 -0.010193 442299.000000 0 1 0
21.105616 -8.811623 -1.185029 22.901878 -0.395502 1.622563 0.097583 -0.010075 -261657.000000 0 1 0
20.413616 -8.449323 -2.559029 22.240850 -0.392437 1.686112 0.088762 -0.010010 226307.000000 0 1 0
21.289616 -7.840023 -3.516529 22.958216 -0.352845 1.724572 0.104819 -0.018128 1147950.000000 0 1 0
22.420316 -8.596023 -3.993229 24.341488 -0.366117 1.735592 0.103283 -0.020609 72362.100000 0 1 0
22.075316 -9.820623 -4.908629 24.654793 -0.418579 1.771230 0.092628 -0.020128 -177175.000000 0 1 0
21.535416 -9.439123 -6.174629 24.310434 -0.413088 1.827601 0.085265 -0.024660 980706.000000 0 1 0
20.119216 -9.215323 -6.133729 22.963616 -0.429516 1.841185 0.075479 -0.015720 158717.000000 0 1 0
19.481016 -9.191523 -7.525329 22.817200 -0.440850 1.906898 0.069612 -0.012357 -395984.000000 0 1 0
19.499416 -10.374923 -8.212429 23.565021 -0.488968 1.926767 0.070281 -0.010717 453534.000000 0 1 0
20.695316 -10.734323 -8.879329 24.947229 -0.478483 1.934699 0.070182 -0.009653 -267429.000000 0 1 0
20.632116 -12.150723 -9.630629 25.808395 -0.532235 1.953208 0.062217 -0.016047 83613.800000 0 0 1
19.572816 -12.303223 -10.576629 25.423011 -0.561175 1.999867 0.078792 -0.016772 512037.000000 0 0 1
19.369316 -13.583423 -11.093429 26.129369 -0.611588 2.009270 0.075864 -0.017073 -357365.000000 0 0 1
18.173016 -13.745623 -12.043429 25.772947 -0.647569 2.057019 0.084933 -0.023440 -185100.000000 0 0 1
17.917816 -15.102723 -12.264929 26.449363 -0.700351 2.052978 0.079387 -0.027046 245825.000000 0 0 1
16.925716 -15.243623 -13.258229 26.355806 -0.733157 2.097918 0.091684 -0.030837 -277575.000000 0 0 1
16.696716 -16.717923 -13.669329 27.296883 -0.786033 2.095279 0.078027 -0.025496 -301285.000000 0 0 1
16.105216 -17.542223 -12.678529 26.978744 -0.828080 2.060025 0.070491 -0.026152 434013.000000 0 0 1
16.099116 -18.906823 -13.073329 28.063524 -0.865433 2.055389 0.064020 -0.024955 -735901.000000 0 0 1
15.202516 -19.608923 -12.092929 27.601907 -0.911308 2.024302 0.053058 -0.023141 -961661.000000 0 0 1
13.852616 -19.355323 -12.311629 26.797382 -0.949611 2.048154 0.041823 -0.013050 -881039.000000 0 0 1
13.053816 -20.063223 -11.401329 26.512739 -0.993976 2.015325 0.019561 0.001018 75158.500000 0 0 1
11.546616 -19.922423 -11.715429 25.835606 -1.045528 2.041441 0.006292 -0.002941 224528.000000 0 0 1
10.711016 -20.830223 -11.026929 25.888553 -1.095849 2.010795 0.009997 -0.000154 -596496.000000 0 0 1
9.404116 -20.846123 -11.506829 25.600885 -1.147011 2.036968 0.004451 0.005595 -625452.000000 0 0 1
8.485716 -21.593823 -10.540129 25.483227 -1.196365 1.997212 0.006406 0.013477 -436611.000000 0 0 1
8.794616 -22.982723 -10.370129 26.703752 -1.205325 1.969626 0.026640 0.001712 52703.700000 0 0 1
7.800716 -23.672423 -9.653329 26.728665 -1.252475 1.940308 0.031294 -0.011225 49422.200000 0 0 1
7.962816 -25.172283 -9.732529 28.138450 -1.264424 1.923973 0.045029 -0.007436 57862.700000 0 0 1
9.217016 -25.515653 -9.192829 28.644546 -1.224152 1.897505 0.018503 -0.003174 -290430.000000 0 0 1
9.549216 -26.803363 -9.646129 30.044227 -1.228547 1.897649 0.034479 -0.005020 -72830.700000 0 0 1
10.965916 -27.212883 -9.221929 30.754451 -1.187734 1.875339 0.028305 0.004470 -89260.600000 0 0 1
11.082016 -27.502133 -7.811029 30.662527 -1.187748 1.828377 0.031959 -0.008009 -132797.000000 0 0 1
12.447516 -27.608743 -7.491129 31.197762 -1.147232 1.813283 0.036111 -0.005575 -629078.000000 0 0 1
12.548316 -27.716643 -5.919729 30.995414 -1.145670 1.762964 0.043964 -0.011681 14651.800000 0 0 1
12.048716 -28.822693 -5.155929 31.662324 -1.174845 1.734366 0.049470 -0.007730 -620259.000000 0 0 1
10.682116 -29.008083 -5.312329 31.365543 -1.217960 1.740985 0.048593 -0.015064 -1091420.000000 0 0 1
10.111116 -30.140033 -4.460329 32.102192 -1.247123 1.710189 0.061140 -0.026385 27827.100000 0 0 1
10.545316 -31.406983 -4.873429 33.486603 -1.246860 1.716849 0.078704 -0.021810 141998.000000 0 0 1
9.663516 -31.881963 -5.884829 33.830080 -1.276495 1.745638 0.085407 -0.021549 395598.000000 0 0 1
9.938816 -33.372813 -6.223129 35.373041 -1.281348 1.747645 0.090095 -0.025139 -161760.000000 0 0 1
9.469416 33.936828 -5.282929 35.627060 1.298687 1.719629 0.082824 -0.020536 -99596.600000 0 0 1
9.693316 32.563072 -5.508129 34.418795 1.281471 1.731520 0.089039 -0.017194 -118645.000000 0 0 1
9.401616 31.639629 -4.312329 33.287425 1.281959 1.700710 0.086993 -0.017813 459115.000000 0 0 1
7.999316 31.482059 -4.146229 32.745996 1.321971 1.697755 0.084136 -0.017541 1128.300000 0 0 1
7.643916 30.370339 -3.331029 31.494169 1.324228 1.676761 0.063188 -0.010366 212927.000000 0 0 1
6.131416 30.035489 -3.436729 30.846976 1.369424 1.682440 0.057170 -0.014711 292082.000000 0 0 1
5.893316 29.255409 -4.578529 30.192268 1.372013 1.723029 0.063001 -0.019392 184830.000000 0 0 1
5.501916 30.116019 -5.675429 31.136091 1.390098 1.754099 0.053016 -0.024091 -405587.000000 0 0 1
5.711716 29.463619 -7.123429 30.845936 1.379315 1.803836 0.066763 -0.028198 -2423.090000 0 0 1
4.874016 28.348319 -7.404729 29.702074 1.400528 1.822754 0.060701 -0.032342 24981.200000 0 0 1
5.217616 27.076309 -6.879329 28.419626 1.380429 1.815287 0.052188 -0.028387 -675120.000000 0 0 1
4.399916 25.900929 -7.403429 27.295203 1.402528 1.845473 0.044428 -0.029748 207467.000000 0 0 1
3.009716 25.877269 -7.057029 26.990611 1.455009 1.835333 0.035161 -0.026043 372976.000000 0 0 1
2.136316 26.444079 -8.024629 27.717283 1.490185 1.864519 0.048271 -0.026036 468810.000000 0 0 1
1.677416 25.406929 -9.141729 27.053594 1.504870 1.915494 0.063070 -0.038448 762842.000000 0 0 1
2.816416 25.104659 -9.986629 27.164477 1.459076 1.947262 0.049771 -0.038769 860334.000000 0 0 1
2.428016 24.354289 -11.110129 26.878646 1.471429 1.996920 0.075005 -0.037187 -634881.000000 0 0 1
2.150116 22.828819 -10.957129 25.413316 1.476889 2.016571 0.082843 -0.035964 1081520.000000 0 0 1
0.964516 22.458619 -10.183529 24.678413 1.527876 1.996157 0.095508 -0.038622 944214.000000 0 1 0
0.599816 21.119919 -10.533129 23.608421 1.542403 2.033266 0.058144 -0.036878 -492788.000000 0 1 0
-0.485384 20.515219 -9.609329 22.659413 -1.547141 2.008738 0.061668 -0.022557 847380.000000 0 1 0
-1.789884 21.062019 -9.821429 23.308213 -1.486018 2.005754 0.087161 -0.024154 1042060.000000 0 1 0
-2.852784 20.166319 -9.351429 22.411336 -1.430266 2.001228 0.067813 -0.020592 262176.000000 0 1 0
-4.225784 20.832219 -9.455929 23.264848 -1.370663 1.989358 0.083017 -0.020065 271442.000000 0 1 0
-5.292184 19.999219 -8.972029 22.549351 -1.312106 1.980006 0.052494 -0.027314 526103.000000 0 1 0
-5.804984 19.160819 -10.026229 22.391071 -1.276625 2.035075 0.039501 -0.029937 -2015250.000000 0 1 0
-6.530884 17.964819 -9.426729 21.313150 -1.222113 2.028954 0.028798 -0.032415 138426.000000 0 1 0
-7.757484 18.286619 -8.773429 21.715249 -1.169590 1.986705 0.048564 -0.031245 -857739.000000 0 1 0
-8.785584 18.641419 -9.580029 22.725887 -1.130376 2.005947 0.056196 -0.035779 -2381140.000000 0 1 0
-9.924784 19.123819 -8.688129 23.231559 -1.092084 1.954093 0.067194 -0.040349 -552188.000000 0 1 0
-10.458784 18.061619 -7.922929 22.324449 -1.045915 1.933603 0.070464 -0.029091 -402552.000000 0 1 0
-11.285084 18.457219 -6.849329 22.692187 -1.022023 1.877415 0.073974 -0.019070 -153175.000000 0 1 0
-11.838084 17.187319 -6.099629 21.742806 -0.967648 1.855148 0.058176 -0.019466 -248428.000000 0 1 0
-12.622384 17.556319 -4.992829 22.191828 -0.947455 1.797724 0.064780 -0.013492 -84251.800000 0 1 0
-13.050184 16.398419 -4.282229 21.390487 -0.898610 1.772351 0.053699 -0.010445 8476.550000 0 1 0
-14.192384 16.702419 -3.276329 22.161428 -0.866465 1.719179 0.042042 -0.014271 -263781.000000 0 1 0
-15.418184 16.826419 -3.948629 23.161184 -0.829044 1.742118 0.079328 -0.026234 -612333.000000 0 1 0
-16.419484 17.062219 -2.976129 23.865794 -0.804592 1.695825 0.073966 -0.022495 -310006.000000 0 1 0
-17.759084 17.304419 -3.684129 25.067923 -0.772432 1.718296 0.075986 -0.036133 -372026.000000 0 0 1
-17.846684 18.612419 -4.230429 26.130878 -0.806398 1.733406 0.076601 -0.033869 -771198.000000 0 0 1
-19.140384 18.865519 -4.651529 27.274509 -0.778166 1.742179 0.065540 -0.039112 -688270.000000 0 0 1
-19.240384 19.633619 -5.961529 28.128476 -0.795513 1.784355 0.057152 -0.023391 -53737.100000 0 0 1
-18.900784 20.983219 -5.834629 28.837094 -0.837563 1.774534 0.055386 -0.037063 -121902.000000 0 0 1
-18.995284 21.616319 -7.106529 29.640999 -0.849848 1.812908 0.046310 -0.016363 86879.700000 0 0 1
-18.816184 23.184069 -7.023029 30.673649 -0.889022 1.801805 0.059091 -0.022480 1202270.000000 0 0 1
-17.457184 23.595889 -6.732329 30.113842 -0.933829 1.796264 0.068050 -0.026242 955776.000000 0 0 1
-17.223284 23.990219 -5.401829 30.022522 -0.948138 1.751707 0.079226 -0.029482 543571.000000 0 0 1
-15.730284 24.348069 -5.092929 29.431415 -0.997197 1.744716 0.066824 -0.029282 211338.000000 0 0 1
-15.484484 25.065009 -3.911329 29.720740 -1.017411 1.702782 0.065432 -0.032447 115384.000000 0 0 1
-14.274884 25.810629 -3.776729 29.735913 -1.065605 1.698149 0.069327 -0.029267 188356.000000 0 0 1
-14.053184 26.978809 -4.729529 30.785005 -1.090571 1.725038 0.069480 -0.020758 -622190.000000 0 0 1
-14.954684 28.032439 -4.593929 32.102404 -1.080727 1.714392 0.074055 -0.016340 -410289.000000 0 0 1
-14.519784 29.210789 -5.205429 33.033177 -1.109496 1.729038 0.052171 -0.015861 -398871.000000 0 0 1
-15.069984 30.532769 -4.656929 34.366282 -1.112308 1.706723 0.039761 -0.008221 -1078230.000000 0 0 1
-16.437984 30.549359 -4.786929 35.019785 -1.077151 1.707918 0.066737 -0.010649 -1130700.000000 0 0 1
-17.040684 31.746439 -4.313129 36.288075 -1.078164 1.689936 0.055914 -0.003466 -9123.250000 0 0 1
12.726978 -8.874823 18.545164 24.179776 -0.608927 0.696690 0.077514 -0.008078 -232119.000000 0 1 0
13.342578 -9.922323 19.250564 25.437396 -0.639430 0.712420 0.070069 -0.008364 -10126.600000 0 0 1
13.658478 -10.990023 18.333564 25.366399 -0.677558 0.763023 0.072535 -0.008099 -35308.300000 0 0 1
14.194278 -12.212723 19.107764 26.753220 -0.710500 0.775283 0.092728 -0.030229 -362885.000000 0 0 1
15.508278 -12.108223 19.624664 27.789264 -0.662898 0.786686 0.079727 -0.032884 485676.000000 0 0 1
15.892378 -13.299023 20.317564 29.021287 -0.696791 0.795270 0.066161 -0.029561 -131201.000000 0 0 1
16.272178 -14.529523 19.437064 29.217979 -0.728882 0.842977 0.052295 -0.026421 -1125220.000000 0 0 1
15.214178 -15.269923 18.930064 28.687786 -0.787227 0.850157 0.063757 -0.027957 -262464.000000 0 0 1
15.662278 -16.350723 18.121064 29.000449 -0.806900 0.895851 0.065653 -0.032596 -285831.000000 0 0 1
15.108178 -16.254023 16.652664 27.744576 -0.821918 0.927029 0.054905 -0.029202 -288180.000000 0 0 1
13.707878 -16.356023 16.583864 27.026838 -0.873255 0.910175 0.078828 -0.025847 -278894.000000 0 0 1
13.240978 -15.999823 15.291164 25.790260 -0.879469 0.936135 0.097319 -0.028110 50188.900000 0 0 1
12.679678 -17.250823 14.528664 25.873678 -0.936952 0.974571 0.069928 -0.017813 -180339.000000 0 0 1
13.683378 -18.172123 14.167864 26.799053 -0.925386 1.013763 0.066289 -0.016552 26992.900000 0 0 1
13.158078 -19.283823 13.484664 26.959915 -0.972023 1.046996 0.063285 -0.018874 -312308.000000 0 0 1
14.187378 -20.288423 12.910564 27.921040 -0.960551 1.090101 0.061907 -0.023457 -139476.000000 0 0 1
14.806978 -21.047623 13.958864 29.276252 -0.957726 1.073788 0.040602 -0.017967 -223205.000000 0 0 1
15.283178 -22.214623 13.441464 30.128690 -0.968184 1.108354 0.028483 -0.024834 -167157.000000 0 0 1
16.239078 -22.943923 14.464664 31.612620 -0.954873 1.095547 0.033401 -0.024151 154432.000000 0 0 1
17.530178 -22.426723 14.637364 32.008084 -0.907336 1.095837 0.010096 -0.020821 -192748.000000 0 0 1
18.204778 -22.967223 15.754664 33.273363 -0.900558 1.077545 0.019795 -0.016062 699132.000000 0 0 1
19.709178 -22.568123 15.844664 33.894325 -0.852919 1.084367 0.006307 -0.014155 856739.000000 0 0 1
20.701678 -23.348923 15.200764 34.710155 -0.845422 1.117497 0.004410 -0.017225 -1035030.000000 0 0 1
21.926278 -22.741923 15.288864 35.095670 -0.803656 1.120054 0.001407 -0.007388 -1434610.000000 0 0 1
23.079978 -23.606323 14.836864 36.194977 -0.796672 1.148435 -0.002539 -0.012689 -543831.000000 0 0 1
23.472678 -24.624123 15.781264 37.501498 -0.809334 1.136451 0.000364 -0.008048 -43935.700000 0 0 1
24.593578 -25.318093 15.313964 38.475543 -0.799913 1.161441 0.003992 -0.010445 -341021.000000 0 0 1
25.006678 -26.449383 16.267364 39.868922 -0.813428 1.150511 0.015627 -0.004581 -148407.000000 0 0 1
25.443478 -26.004453 17.526264 40.382819 -0.796301 1.121865 0.011609 0.011166 115943.000000 0 0 1
25.954978 -27.082523 18.300364 41.737600 -0.806654 1.116909 0.028685 0.004993 88674.800000 0 0 1
26.256378 -26.631953 19.752664 42.294515 -0.792499 1.084871 0.023826 -0.003940 -505844.000000 0 0 1
25.107978 -26.174343 20.376164 41.601621 -0.806189 1.058945 0.025338 0.000703 -347601.000000 0 0 1
25.435678 -25.494703 21.528064 41.957254 -0.786557 1.032009 0.025356 0.004625 -322776.000000 0 0 1
24.182778 -25.429663 22.407164 41.635988 -0.810525 1.002534 0.024093 0.008026 -178140.000000 0 0 1
23.837078 -26.783953 22.632264 42.400540 -0.843547 1.007740 0.031414 -0.002317 -269186.000000 0 0 1
22.647178 -26.875033 23.375294 42.208606 -0.870565 0.983870 0.046874 -0.004417 -281947.000000 0 0 1
22.081478 -28.278323 23.273934 42.766005 -0.907834 0.995342 0.085075 -0.013174 -160323.000000 0 0 1
22.944478 -29.202623 23.924684 44.177288 -0.904836 0.998504 0.087242 -0.016888 279271.000000 0 0 1
22.846878 -30.494833 23.407304 44.719308 -0.927804 1.019928 0.101238 -0.023673 -162507.000000 0 0 1
23.891678 -31.513503 23.912064 46.213634 -0.922105 1.026958 0.080651 -0.017925 -147537.000000 0 0 1
23.836878 -31.592773 25.340894 46.994265 -0.924419 1.001269 0.080346 -0.021101 1439200.000000 0 0 1
25.037778 -32.183903 25.953484 48.335052 -0.909640 1.003979 0.088524 -0.022944 699794.000000 0 0 1
24.791878 -32.645873 27.446194 49.332381 -0.921295 0.980807 0.079539 -0.034579 231819.000000 0 0 1
24.106578 -33.889553 27.644644 49.938515 -0.952508 0.984147 0.077229 -0.027934 114104.000000 0 0 1
22.777178 -33.921913 27.170274 49.068521 -0.979483 0.983970 0.078082 -0.024602 -603516.000000 0 0 1
22.059978 32.997026 27.604704 48.347348 0.981495 0.963114 0.111627 -0.035696 -234507.000000 0 0 1
21.671178 33.129419 28.921264 49.026910 0.991518 0.939854 0.086061 -0.019584 -230700.000000 0 0 1
21.109178 31.968989 29.445124 48.317998 0.987213 0.915489 0.092305 -0.027860 -200444.000000 0 0 1
20.827778 32.070239 30.951794 49.196647 0.994813 0.890344 0.073676 -0.036459 86044.400000 0 0 1
21.973878 32.289071 31.746964 50.331949 0.973253 0.888275 0.067653 -0.028395 82718.600000 0 0 1
21.598978 32.517261 33.101528 51.182021 0.984482 0.867492 0.042047 -0.023145 72183.700000 0 0 1
22.802378 32.472169 34.067120 52.296834 0.958587 0.861344 0.015607 -0.012110 169740.000000 0 0 1
23.348878 31.116779 34.086085 51.723159 0.927063 0.851294 0.007496 -0.009128 630394.000000 0 0 1
24.500178 31.012309 -33.326109 51.697694 0.902174 2.271341 -0.001981 0.005355 272471.000000 0 0 1
24.717378 29.466299 -33.024639 50.693572 0.872820 2.280298 0.010375 0.007080 -148216.000000 0 0 1
24.893078 28.800479 33.996845 51.038401 0.858042 0.841824 0.017302 -0.002597 243690.000000 0 0 1
24.521878 27.446389 34.091288 50.168144 0.841614 0.823660 0.036719 -0.016650 -202943.000000 0 0 1
24.905278 26.610819 32.860071 49.073341 0.818493 0.837111 0.070777 -0.024047 -1045800.000000 0 0 1
26.227978 26.251449 32.771444 49.507706 0.785845 0.847384 0.068006 -0.027403 -873511.000000 0 0 1
26.551978 25.781439 31.493254 48.595423 0.770676 0.865748 0.109690 -0.042501 -123129.000000 0 0 1
27.831878 24.927269 31.558644 48.907363 0.730400 0.869415 0.101354 -0.038694 -218515.000000 0 0 1
27.634578 23.843669 32.379867 48.791866 0.711890 0.845132 0.121589 -0.047587 -301473.000000 0 0 1
28.671578 23.730229 33.282990 49.929356 0.691379 0.841156 0.122361 -0.049398 -1101270.000000 0 0 1
28.323478 22.760519 -33.769429 49.604787 0.676927 2.319609 0.101911 -0.048606 -497074.000000 0 0 1
27.613278 23.280959 -32.681659 48.709208 0.700479 2.306292 0.107262 -0.043637 1890380.000000 0 0 1
26.200478 23.609469 -32.887719 48.223170 0.733427 2.321276 0.104807 -0.040791 1319380.000000 0 0 1
25.169978 22.484719 -33.053469 47.240048 0.729109 2.345762 0.103418 -0.041611 -726554.000000 0 0 1
25.020178 21.783519 -31.871099 46.003238 0.716354 2.336163 0.094914 -0.051242 163568.000000 0 0 1
24.685378 20.425819 -32.151599 45.390608 0.691254 2.357928 0.093014 -0.031945 -164648.000000 0 0 1
24.642178 19.629819 -30.858289 44.099895 0.672661 2.345824 0.083285 -0.037904 -1220450.000000 0 0 1
23.441278 19.644019 -30.212289 42.990271 0.697492 2.350081 0.068505 -0.031230 -1038290.000000 0 0 1
23.604978 18.919919 -28.996479 41.904106 0.675669 2.335014 0.079048 -0.026382 -158226.000000 0 0 1
22.336078 18.891719 -28.134569 40.587577 0.702047 2.336691 0.086134 -0.029374 -253682.000000 0 0 1
22.404078 18.143819 -26.926969 39.448733 0.680715 2.322085 0.084819 -0.017138 56581.800000 0 0 1
23.189278 18.743819 -25.897799 39.493915 0.679780 2.285961 0.067859 -0.005841 -144477.000000 0 0 1
23.378278 17.796219 -24.675529 38.368359 0.650649 2.269364 0.070896 0.005630 -212463.000000 0 0 1
24.199478 16.703719 -24.936729 38.554758 0.604153 2.274161 0.057664 -0.009042 -71230.600000 0 0 1
24.154078 15.833319 -23.803229 37.426023 0.580241 2.260110 0.055379 -0.004852 404463.000000 0 0 1
25.229178 14.679619 -23.854229 37.696510 0.526968 2.255956 0.078881 -0.012481 -456592.000000 0 0 1
26.496378 15.020719 -23.431429 38.428009 0.515723 2.226540 0.113483 -0.027344 -251437.000000 0 0 1
27.373278 13.902119 -23.117329 38.431447 0.469925 2.216200 0.116192 -0.041883 438923.000000 0 0 1
27.121478 13.131819 -21.792129 37.187580 0.450916 2.196917 0.117387 -0.020786 -217846.000000 0 0 1
25.916278 12.388819 -21.869629 36.102866 0.445920 2.221516 0.099366 -0.012667 112645.000000 0 0 1
25.481278 11.800619 -20.670129 34.868386 0.433702 2.205333 0.083754 -0.025586 -513504.000000 0 0 1
24.022478 11.312319 -20.680629 33.656150 0.440102 2.232508 0.079718 -0.020878 231886.000000 0 0 1
23.128778 12.402419 -20.428029 33.257551 0.492212 2.232215 0.093092 -0.015590 715854.000000 0 0 1
21.807678 12.166219 -20.947329 32.594206 0.508878 2.268775 0.073832 -0.018470 442149.000000 0 0 1
20.940178 13.393219 -20.958229 32.513331 0.569025 2.271302 0.059917 -0.011781 -954011.000000 0 0 1
21.346578 14.445519 -21.843629 33.785996 0.594926 2.273822 0.053460 0.001112 80970.900000 0 0 1
20.609578 15.645219 -21.769829 33.814982 0.649315 2.270240 0.046894 0.000345 8351.860000 0 0 1
19.272478 15.710919 -22.554229 33.570145 0.683941 2.307505 0.046653 0.009220 600808.000000 0 0 1
18.214678 14.943019 -21.975129 32.217613 0.687047 2.321405 0.036155 -0.001282 533375.000000 0 0 1
17.222778 14.579619 -22.907629 32.155074 0.702477 2.363724 0.049398 -0.011305 185102.000000 0 0 1
16.104578 13.653619 -22.345029 30.742138 0.703221 2.384526 0.029323 -0.007632 970623.000000 0 0 1
14.870078 13.854819 -23.035929 30.720176 0.750069 2.418652 0.030564 -0.008830 -79580.200000 0 0 1
13.732778 13.264619 -22.481229 29.494829 0.768059 2.437515 0.043854 -0.014806 -144842.000000 0 0 1
12.489278 13.663919 -23.306329 29.763563 0.830282 2.470349 0.029223 -0.011056 -385814.000000 0 0 1
12.111178 14.993319 -23.215729 30.173669 0.891334 2.448703 0.047362 -0.007408 147556.000000 0 0 1
11.268178 15.415919 -24.289229 30.896424 0.939603 2.475351 0.039458 -0.003154 -574626.000000 0 0 1
11.121178 16.956719 -24.373929 31.706455 0.990315 2.447661 0.038058 -0.003308 550310.000000 0 0 1
12.349678 17.697619 -24.292529 32.493802 0.961538 2.415245 0.033099 -0.006227 872527.000000 0 0 1
13.459378 17.434219 -25.141469 33.424546 0.913357 2.422169 0.030845 -0.005362 93412.800000 0 0 1
13.167378 17.704119 -26.678799 34.620427 0.931309 2.450592 0.028331 -0.013582 -742621.000000 0 0 1
14.279678 17.443019 -27.452099 35.521625 0.884788 2.454081 0.017984 -0.019011 -460289.000000 0 0 1
13.790078 17.180119 -28.734649 36.207772 0.894425 2.487507 0.025296 -0.026324 -530032.000000 0 0 1
14.651978 17.645519 -29.870569 37.660266 0.877821 2.486775 0.035474 -0.030598 -1319510.000000 0 0 1
15.886178 17.019519 -29.945869 37.931382 0.819827 2.480749 0.011936 -0.029125 -655104.000000 0 0 1
16.154978 16.713519 -31.274169 38.966635 0.802390 2.502418 0.025214 -0.033464 199744.000000 0 0 1
17.459878 15.838919 -31.272909 39.162654 0.736757 2.495661 0.018178 -0.027705 453668.000000 0 0 1
18.635678 16.588019 -30.987499 39.782860 0.727331 2.463731 0.033915 -0.033127 361779.000000 0 0 1
19.724978 15.665619 -30.856329 39.832140 0.671196 2.456972 0.050016 -0.030676 471413.000000 0 0 1
21.046478 16.311119 -31.358029 41.137973 0.659313 2.437601 0.055782 -0.027831 -145183.000000 0 0 1
21.058378 16.710019 -32.746929 42.367928 0.670771 2.454223 0.056230 -0.032868 -397716.000000 0 0 1
22.238078 17.320419 -33.183629 43.539433 0.661719 2.437426 0.069861 -0.033611 -410385.000000 0 0 1
22.183478 17.971619 33.690743 44.160525 0.680891 0.702986 0.057341 -0.015305 -390254.000000 0 0 1
23.154278 18.962519 33.491463 44.915207 0.686198 0.729272 0.082279 -0.017863 -34145.800000 0 0 1
23.196578 19.167819 32.117144 44.011333 0.690586 0.752844 0.095474 -0.025352 -507362.000000 0 0 1
24.138578 20.293919 31.632334 44.666751 0.699085 0.783872 0.099075 -0.026152 842217.000000 0 0 1
25.527278 19.911919 31.605094 45.243877 0.662442 0.797428 0.088676 -0.028239 918243.000000 0 0 1
26.361578 21.068419 31.479394 46.149359 0.674259 0.820139 0.095191 -0.042443 584274.000000 0 0 1
27.856278 20.718919 31.253814 46.712383 0.639508 0.837841 0.076596 -0.037968 533643.000000 0 0 1
28.583678 20.041419 32.285990 47.550713 0.611497 0.824424 0.080672 -0.042778 -368062.000000 0 0 1
29.940678 19.920919 32.002314 48.139748 0.587088 0.843598 0.050957 -0.029723 -375700.000000 0 0 1
30.758178 19.178219 33.107233 49.091328 0.557532 0.830643 0.055811 -0.033687 230213.000000 0 0 1
31.049478 19.915819 -33.968199 50.145273 0.570321 2.315013 0.061514 -0.032848 646575.000000 0 0 1
30.031278 19.600219 -32.995759 48.731574 0.578243 2.314600 0.080771 -0.042326 262735.000000 0 0 1
30.232478 20.042619 -31.549839 48.073918 0.585425 2.286671 0.079649 -0.035539 -652946.000000 0 0 1
31.261678 19.220219 -31.125349 48.119608 0.551243 2.274221 0.079311 -0.037422 -489449.000000 0 0 1
31.753978 19.663419 -29.848399 47.811004 0.554449 2.245031 0.071167 -0.037027 997548.000000 0 0 1
33.223478 19.125319 -29.589469 48.426377 0.522328 2.228144 0.069711 -0.016519 864207.000000 0 0 1
34.177778 19.733519 -30.431659 49.835912 0.523620 2.227661 0.044648 -0.017782 -290196.000000 0 0 1
35.357878 19.823919 -29.648479 50.221505 0.510994 2.202294 0.031410 0.002631 771862.000000 0 0 1
-36.480460 20.703719 -30.308479 51.750090 -0.516201 2.196503 0.005823 0.004830 756891.000000 0 0 1
-35.774060 19.959219 -31.254089 51.526418 -0.508907 2.222528 -0.012343 -0.001417 -642785.000000 0 0 1
-34.860060 20.708919 -31.963109 51.630644 -0.536039 2.238357 -0.007047 0.001080 -365927.000000 0 0 1
-34.093560 19.938419 -33.065099 51.509340 -0.529179 2.267802 -0.008612 -0.005124 -330641.000000 0 0 1
-33.088160 19.087819 -32.599129 50.218267 -0.523244 2.277261 0.016213 -0.008331 -204553.000000 0 0 1
-32.387660 18.501719 -33.654709 50.238566 -0.519018 2.304868 0.041674 -0.012888 -189611.000000 0 0 1
-31.513360 17.313919 -33.191729 48.934185 -0.502394 2.316234 0.036935 -0.006964 -183589.000000 0 0 1
-32.242360 16.166019 -32.967139 48.864528 -0.464760 2.311306 0.035013 -0.006478 -16180.400000 0 0 1
-31.465160 15.024419 -33.258959 48.186593 -0.445481 2.332578 0.044390 -0.003284 567127.000000 0 0 1
-32.379460 13.766619 -32.964559 48.214223 -0.402011 2.323631 0.040277 -0.010668 573481.000000 0 0 1
-31.888160 12.546219 -33.468329 47.899805 -0.374842 2.344397 0.039002 -0.012832 5705.000000 0 0 1
-32.727960 11.496719 -32.995589 47.874865 -0.337816 2.331187 0.044951 -0.014605 87128.200000 0 0 1
-32.455360 10.135719 -33.541299 47.760882 -0.302700 2.349385 0.047528 -0.005246 -233900.000000 0 0 1
-32.988860 9.936619 33.445791 48.016895 -0.292568 0.800229 0.059701 -0.010468 -131256.000000 0 0 1
-33.060460 8.627619 32.941589 47.461332 -0.255272 0.803666 0.055981 -0.022140 -29767.500000 0 0 1
-31.844360 8.153319 32.081964 45.932475 -0.250652 0.797554 0.073850 -0.014983 -292434.000000 0 0 1
-30.677860 8.047519 32.792514 45.620638 -0.256543 0.768709 0.056855 -0.017860 -1591400.000000 0 0 1
-29.715160 7.321119 32.112974 44.360259 -0.241565 0.761339 0.057464 -0.015210 -265110.000000 0 0 1
20.685378 -4.249123 -31.018959 37.524868 -0.202598 2.543878 0.051105 -0.024380 178045.000000 0 0 1
21.748478 -4.489723 -31.978129 38.932694 -0.203579 2.534604 0.052561 -0.026352 1072590.000000 0 0 1
22.914778 -3.704123 -31.704789 39.293781 -0.160261 2.509623 0.049089 -0.023752 267061.000000 0 0 1
22.739078 -2.179823 -31.989299 39.308174 -0.095570 2.521471 0.044136 -0.021819 -1023310.000000 0 0 1
23.806278 -1.302723 -31.727439 39.687105 -0.054667 2.497158 0.048335 -0.017153 -22810.600000 0 0 1
23.573778 -0.026323 -32.184189 39.894181 -0.001117 2.509409 0.030650 -0.017078 133776.000000 0 0 1
24.709378 0.898277 -31.665569 40.175471 0.036338 2.478645 0.041104 -0.015746 56397.900000 0 0 1
26.018578 0.573377 -32.024079 41.265443 0.022034 2.459176 0.058666 -0.023423 -291477.000000 0 0 1
26.932478 1.570577 -31.560209 41.519536 0.058249 2.434308 0.063626 -0.013422 396274.000000 0 0 1
28.406378 1.300777 -31.956319 42.776403 0.045760 2.414417 0.062358 -0.022317 150659.000000 0 0 1
28.747178 1.873477 -33.218039 43.969856 0.065079 2.427172 0.055604 -0.021993 39664.900000 0 0 1
28.966278 0.809077 -34.117117 44.762457 0.027924 2.437473 0.048541 -0.022624 -240154.000000 0 0 1
29.626378 1.270477 32.791354 44.210964 0.042857 0.735192 0.044875 -0.033820 -67503.900000 0 0 1
28.906278 2.259177 32.083774 43.244021 0.077997 0.734861 0.038250 -0.016722 33414.500000 0 0 1
28.964278 3.567477 32.574372 43.734952 0.122551 0.730541 0.035111 -0.010210 220544.000000 0 0 1
28.078778 4.610877 31.786554 42.662196 0.162760 0.730148 0.028901 -0.002364 241582.000000 0 0 1
28.328978 6.045777 32.149714 43.274548 0.210259 0.733368 0.051261 -0.006056 124922.000000 0 0 1
27.668578 6.970277 31.283414 42.341315 0.246785 0.739450 0.038684 -0.002155 -357830.000000 0 0 1
28.054478 8.427877 31.595084 43.085174 0.291834 0.747609 0.041976 0.002588 -844135.000000 0 0 1
29.302678 8.871077 31.235564 43.737895 0.293968 0.775382 0.044855 0.002855 -1157360.000000 0 0 1
29.450378 10.267977 31.202804 44.117696 0.335475 0.785178 0.048091 0.000493 -276383.000000 0 0 1
30.725878 10.751477 30.484324 44.597846 0.336600 0.818197 0.040260 0.009023 -486430.000000 0 0 1
31.820978 10.421777 31.325194 45.852545 0.316503 0.818698 0.052968 -0.003186 67765.500000 0 0 1
33.092278 10.720177 30.769834 46.441401 0.313280 0.846576 0.054500 -0.008840 334495.000000 0 0 1
33.518778 12.208077 30.836434 47.153275 0.349283 0.857987 0.068498 -0.011078 -615289.000000 0 0 1
33.941578 12.605377 32.169974 48.433805 0.355597 0.844367 0.069137 -0.003988 85023.600000 0 0 1
34.404978 13.941877 32.293313 49.203013 0.385006 0.854855 0.071881 -0.000421 607560.000000 0 0 1
33.377678 15.138477 32.069114 48.699805 0.425803 0.851964 0.066734 -0.012392 -145993.000000 0 0 1
32.897178 15.294777 30.797854 47.588469 0.435197 0.866929 0.051587 -0.013920 775201.000000 0 0 1
31.780878 16.207377 30.629824 47.020096 0.471594 0.861342 0.036218 -0.012310 920012.000000 0 0 1
30.380578 15.659077 30.962934 46.118212 0.475916 0.834724 0.046510 -0.004636 -423162.000000 0 0 1
29.917278 14.721777 30.016344 44.863740 0.457294 0.837859 0.049838 -0.004745 -32261.400000 0 0 1
28.558478 14.391277 30.230534 44.006599 0.466781 0.813506 0.041059 -0.005286 83980.000000 0 0 1
27.973078 13.756777 28.978564 42.561711 0.457055 0.821860 0.033018 0.005873 -165621.000000 0 0 1
28.339978 12.441977 28.695054 42.206200 0.413690 0.823200 0.032253 0.002829 -359715.000000 0 0 1
27.345978 11.929377 27.871474 40.828074 0.411351 0.819407 0.031047 -0.006593 -139478.000000 0 0 1
27.232178 10.394177 27.931524 40.370788 0.364621 0.806714 0.024771 0.008824 -57324.800000 0 0 1
28.127178 9.675377 27.111034 40.246233 0.331308 0.831688 0.036550 0.007791 -18328.900000 0 0 1
27.787478 8.280877 27.075154 39.670907 0.289628 0.819627 0.046175 0.003745 101926.000000 0 0 1
28.956278 7.413977 26.568504 39.991481 0.250656 0.844167 0.049588 -0.002108 -46242.400000 0 0 1
29.412178 7.764777 25.305074 39.569114 0.258110 0.876928 0.060262 -0.002961 273388.000000 0 0 1
30.246478 6.815677 24.625274 39.594280 0.221636 0.899578 0.065062 0.003334 359282.000000 0 0 1
30.713078 7.287277 23.204464 39.177095 0.232962 0.936890 0.084046 0.004192 -144737.000000 0 0 1
31.564578 8.397877 23.106664 40.009560 0.260030 0.955098 0.096215 -0.009663 -128242.000000 0 0 1
30.944178 9.646477 23.079264 39.790063 0.302191 0.952036 0.091212 -0.015095 -43596.600000 0 0 1
30.257878 10.043177 21.691964 38.560938 0.320477 0.973345 0.094100 0.003070 292274.000000 0 0 1
31.176378 10.431577 20.681264 38.839401 0.322889 1.009267 0.110768 -0.013060 171643.000000 0 0 1
30.643678 10.308977 19.381864 37.695712 0.324521 1.030761 0.108997 -0.015729 -646268.000000 0 0 1
31.538678 10.892977 18.260764 38.036833 0.332557 1.070049 0.124625 -0.040798 1865320.000000 0 0 1
32.826278 10.301877 17.874164 38.770852 0.304096 1.091651 0.121311 -0.029893 1721690.000000 0 0 1
33.876478 10.375677 18.814864 40.115702 0.297208 1.082621 0.119030 -0.016760 656899.000000 0 0 1
35.254978 9.867277 18.216064 40.891339 0.272900 1.109092 0.142666 -0.027659 786120.000000 0 0 1
35.261978 8.446677 18.058364 40.507505 0.235111 1.108725 0.134575 -0.013781 560039.000000 0 0 1
36.431178 8.035377 17.360664 41.148398 0.217087 1.135252 0.145279 -0.011670 45127.800000 0 0 1
36.386278 6.561077 16.990264 40.690024 0.178400 1.140045 0.144666 -0.016401 95527.800000 0 0 1
35.323278 6.122677 16.145064 39.317735 0.171627 1.147651 0.108756 -0.015197 650828.000000 0 0 1
35.687478 4.881777 15.545164 39.231110 0.135949 1.163372 0.113782 -0.017295 523796.000000 0 0 1
34.474978 3.898577 15.622464 38.049762 0.112606 1.147706 0.089729 -0.017647 326832.000000 0 0 1
34.397778 3.229777 16.874964 38.450007 0.093620 1.116444 0.096828 -0.010351 295786.000000 0 0 1
33.192278 2.485077 16.967964 37.360604 0.074730 1.099359 0.052461 -0.002847 258333.000000 0 0 1
33.115078 1.658677 18.274664 37.859252 0.050046 1.067061 0.037410 -0.010538 75001.400000 0 0 1
33.712378 0.383577 18.169364 38.298791 0.011377 1.076502 0.047401 -0.013594 -92991.100000 0 0 1
33.467878 -0.333223 19.364564 38.667768 -0.009956 1.046281 0.035513 -0.016610 362669.000000 0 0 1
34.017678 -1.774223 19.383864 39.192914 -0.052109 1.053450 0.046025 -0.013865 186873.000000 0 0 1
33.594078 -2.389423 20.575064 39.466501 -0.071007 1.022388 0.041271 -0.006579 -8918.740000 0 0 1
34.020878 -3.718223 20.590264 39.940009 -0.108860 1.029171 0.039804 -0.003940 -518870.000000 0 0 1
33.578278 -4.505523 21.820364 40.298000 -0.133383 0.998606 0.027271 0.006211 -167498.000000 0 0 1
34.244478 -4.147223 23.014364 41.467393 -0.120519 0.982434 0.030934 -0.006075 348123.000000 0 0 1
33.674978 -4.877123 24.116874 41.706284 -0.143829 0.954208 0.031875 -0.006593 328614.000000 0 0 1
34.290678 -4.486323 25.508974 42.973078 -0.130093 0.935267 0.016301 -0.001335 -20360.400000 0 0 1
33.575678 -4.966423 26.616734 43.132842 -0.146852 0.905760 0.026892 -0.003085 -130624.000000 0 0 1
33.960778 -4.298023 27.780024 44.085567 -0.125889 0.889064 0.024350 -0.003321 -211592.000000 0 0 1
32.977278 -4.514123 28.958834 44.119069 -0.136040 0.854787 0.048484 -0.015137 -6993.570000 0 0 1
33.054278 -5.805923 29.607084 44.753474 -0.173874 0.847900 0.060406 -0.014052 16113.300000 0 0 1
32.039178 -5.979223 30.576534 44.689870 -0.184500 0.817299 0.073793 -0.024201 -198377.000000 0 0 1
31.948978 -7.425323 30.986294 45.122312 -0.228358 0.813832 0.076134 -0.019594 92124.400000 0 0 1
32.910878 -7.886123 31.926074 46.525166 -0.235186 0.814529 0.079577 -0.028098 -72263.200000 0 0 1
33.357778 -9.158023 31.574014 46.835127 -0.267938 0.830980 0.068364 -0.021677 -45698.500000 0 0 1
34.822378 -9.495123 31.912734 48.178605 -0.266202 0.846800 0.068902 -0.022004 14886.300000 0 0 1
35.006678 -9.779523 33.309591 49.301475 -0.272417 0.828976 0.068021 -0.028548 -387452.000000 0 0 1
36.314578 -9.889723 33.768870 50.565718 -0.265887 0.839518 0.041341 -0.024365 -534968.000000 0 0 1
36.219978 -10.326723 -33.004639 50.078281 -0.277742 2.290366 0.060360 -0.029365 55862.400000 0 0 1
35.691678 -9.377123 -32.111239 48.917870 -0.256920 2.286875 0.048261 -0.026213 1116430.000000 0 0 1
-36.352160 -8.311023 -31.836439 49.031739 0.224762 2.277463 0.054633 -0.015364 823221.000000 0 0 1
35.934478 -7.043923 -31.270539 48.153402 -0.193567 2.277584 0.050351 -0.022258 33633.200000 0 0 1
35.914578 -7.022623 -29.860609 47.231664 -0.193100 2.255206 0.045705 -0.012507 217990.000000 0 0 1
35.286078 -5.841623 -29.427309 46.316286 -0.164062 2.259265 0.049774 -0.012789 -225267.000000 0 0 1
35.579778 -5.607323 -27.896679 45.558615 -0.156313 2.229794 0.053266 -0.010430 385664.000000 0 0 1
-36.047160 -5.250623 -27.778529 45.810625 0.144643 2.222293 0.049359 -0.009467 179769.000000 0 0 1
-35.714160 -5.017623 -26.423399 44.708766 0.139580 2.203109 0.052622 -0.009779 489268.000000 0 0 1
-34.199560 -4.761223 -26.191739 43.339200 0.138330 2.219737 0.075208 -0.005698 -407289.000000 0 0 1
-34.017060 -4.238523 -24.917029 42.379048 0.123961 2.199326 0.086345 -0.010280 586717.000000 0 0 1
-32.700560 -4.365823 -24.362629 41.011275 0.132724 2.206877 0.105820 -0.010812 1479480.000000 0 0 1
-31.579360 -3.436923 -25.013629 40.432042 0.108408 2.237830 0.102822 -0.006866 273267.000000 0 0 1
-31.206260 -3.734623 -26.367799 41.024856 0.119109 2.268849 0.095529 -0.003790 -579214.000000 0 0 1
-30.085060 -3.036523 -26.770329 40.385415 0.100591 2.295443 0.095692 -0.006502 -727815.000000 0 0 1
-29.602960 -3.514123 -28.155889 41.005345 0.118156 2.327653 0.083239 -0.002099 468707.000000 0 0 1
-30.532660 -3.469223 -29.293269 42.454380 0.113138 2.332277 0.080065 0.000829 614171.000000 0 0 1
-30.016860 -4.207323 -30.371009 42.908176 0.139258 2.357195 0.066747 0.005488 -21456.500000 0 0 1
-31.121460 -4.745523 -31.378689 44.448705 0.151318 2.354564 0.040884 0.002450 539110.000000 0 0 1
-32.106860 -5.665523 -30.889869 44.912499 0.174660 2.329221 0.039952 -0.001583 883159.000000 0 0 1
-33.178160 -5.161523 -30.088319 45.085901 0.154333 2.301448 0.054619 -0.009420 1038450.000000 0 0 1
-34.261460 -4.246523 -30.869899 46.312322 0.123316 2.300380 0.079596 -0.017329 202806.000000 0 0 1
-33.839660 -2.944723 -31.397949 46.256082 0.086801 2.316904 0.084306 -0.009361 -4731.710000 0 0 1
-33.514560 -1.961423 -30.393079 45.285893 0.058458 2.306539 0.076669 -0.005529 -373867.000000 0 0 1
-33.319960 -0.556823 -30.983649 45.502926 0.016710 2.319808 0.072226 -0.001979 -291255.000000 0 0 1
-34.467860 0.078777 -31.479579 46.679797 -0.002286 2.310911 0.092203 -0.003385 -296310.000000 0 0 1
-34.176060 1.364277 -32.003649 46.841198 -0.039898 2.322983 0.097069 0.003664 -671301.000000 0 0 1
-35.439860 2.120277 -32.316249 48.008532 -0.059756 2.309237 0.070912 0.001124 -641502.000000 0 0 1
-35.895460 1.799177 -33.601779 49.201632 -0.050081 2.322577 0.071210 -0.004759 1104610.000000 0 0 1
35.665778 1.946477 -33.684259 49.096495 0.054521 2.326887 0.051881 -0.003232 973916.000000 0 0 1
35.008078 1.247177 33.356636 48.371336 0.035610 0.809867 0.044799 -0.011746 -138102.000000 0 0 1
35.229878 1.753577 32.041064 47.653427 0.049734 0.833381 0.044292 -0.008423 353739.000000 0 0 1
36.448078 1.287877 31.476954 48.175924 0.035320 0.858762 0.042483 -0.009827 -135782.000000 0 0 1
-36.395460 1.506277 29.905384 47.129930 -0.041363 0.883395 0.047381 -0.014419 -417354.000000 0 0 1
-36.014660 2.836077 29.620234 46.716778 -0.078586 0.884032 0.051369 -0.015255 153854.000000 0 0 1
-35.382460 2.904977 28.345884 45.429577 -0.081918 0.897006 0.059011 -0.017948 173689.000000 0 0 1
-34.872460 4.296977 27.873984 44.849877 -0.122602 0.900146 0.071300 -0.012081 293361.000000 0 0 1
-34.160960 4.162777 26.634754 43.516778 -0.121260 0.912137 0.080351 -0.008774 444893.000000 0 0 1
-33.483260 5.392777 26.358674 42.953352 -0.159688 0.910111 0.093602 -0.006301 112856.000000 0 0 1
-32.727860 5.420677 25.017284 41.549501 -0.164139 0.924658 0.092406 -0.003619 -48526.800000 0 0 1
-31.481060 4.753677 24.969084 40.461213 -0.149869 0.905730 0.079162 -0.002431 358487.000000 0 0 1
-30.721960 4.957277 23.772774 39.160671 -0.159980 0.918444 0.077617 0.004006 465884.000000 0 0 1
-31.402560 4.513777 22.430364 38.853779 -0.142761 0.955376 0.097170 -0.007385 -90520.600000 0 0 1
-31.360260 3.101877 22.332364 38.624112 -0.098590 0.954279 0.095147 -0.006897 -191232.000000 0 0 1
-32.170460 2.599777 21.298164 38.669227 -0.080637 0.987500 0.114034 -0.009683 -636885.000000 0 0 1
-31.877260 1.180577 20.839864 38.103194 -0.037018 0.992101 0.117223 -0.018949 -41867.400000 0 0 1
-30.607060 0.835077 20.304664 36.739200 -0.027277 0.985231 0.118552 -0.016471 220661.000000 0 0 1
-30.201460 1.609177 19.190664 35.818978 -0.053231 1.005379 0.124603 -0.021380 -819904.000000 0 0 1
-28.852260 1.169077 18.633064 34.365836 -0.040497 0.997746 0.128319 -0.022063 -473643.000000 0 0 1
-28.963860 -0.084523 18.008764 34.106127 0.002918 1.014527 0.132585 -0.024070 634743.000000 0 0 1
-27.752860 -0.534923 17.381664 32.751024 0.019272 1.011345 0.123756 -0.024223 440489.000000 0 0 1
-27.677060 -0.169423 15.897264 31.918198 0.006121 1.049433 0.132107 -0.023645 -211745.000000 0 0 1
-27.315560 1.147777 15.616564 31.485461 -0.041994 1.051818 0.124324 -0.020102 145862.000000 0 0 1
-27.632760 1.428777 14.278664 31.136651 -0.051660 1.094399 0.118257 -0.015430 -189683.000000 0 0 1
-27.133060 2.770077 13.762264 30.549569 -0.101740 1.103483 0.118985 -0.016002 517699.000000 0 0 1
-25.701860 2.732877 13.671064 29.239566 -0.105932 1.084275 0.103019 -0.030032 570221.000000 0 0 1
-25.210660 3.826077 12.986564 28.615853 -0.150615 1.099744 0.103760 -0.032394 235609.000000 0 0 1
-23.665560 3.948677 12.879764 27.231215 -0.165330 1.078129 0.089800 -0.035622 287323.000000 0 0 1
-23.011060 4.417577 14.050964 27.321300 -0.189669 1.030621 0.057149 -0.027645 -634939.000000 0 0 1
-21.646260 4.429177 13.788264 26.044086 -0.201830 1.012879 0.063574 -0.025724 -675200.000000 0 0 1
-20.847860 5.053777 14.967664 26.157310 -0.237825 0.961589 0.035977 -0.019143 -197348.000000 0 0 1
-21.084760 6.411877 15.163064 26.750659 -0.295214 0.968144 0.036698 -0.021322 352227.000000 0 0 1
-20.466260 6.862777 16.348364 27.078303 -0.323539 0.922607 0.030604 -0.013602 -152195.000000 0 0 1
-20.837960 8.306577 16.669664 27.948121 -0.379322 0.931725 0.035298 -0.012569 -357780.000000 0 0 1
-20.154760 9.173877 15.763464 27.182001 -0.427146 0.952162 0.038168 -0.026174 604899.000000 0 0 1
-20.272060 10.552977 15.965964 27.878912 -0.479966 0.961013 0.034310 -0.021417 -165263.000000 0 0 1
-19.752660 11.167277 17.319964 28.545697 -0.514556 0.918837 0.038165 -0.015625 -428508.000000 0 0 1
-20.605360 10.891877 18.398464 29.693725 -0.486261 0.902553 0.052877 -0.017352 467997.000000 0 0 1
-19.975760 11.094277 19.670864 30.150570 -0.506970 0.860022 0.050004 -0.011747 -144449.000000 0 0 1
-12.261622 -33.285264 -20.244729 40.842444 1.217842 2.089412 0.107085 -0.042597 -280285.000000 0 0 1
-13.343822 -33.859464 -19.596929 41.334737 1.195391 2.064741 0.143484 -0.038777 -934127.000000 0 0 1
-14.504422 -33.098364 -19.663429 41.140374 1.157780 2.069126 0.129620 -0.056329 1026920.000000 0 0 1
-15.791922 -33.676564 -18.902129 41.722730 1.132313 2.040970 0.119043 -0.045165 782293.000000 0 0 1
-16.410522 33.460077 -19.534929 42.077256 -1.114817 2.053599 0.126092 -0.052938 243141.000000 0 0 1
-17.205122 32.596377 -18.694829 41.328400 -1.085139 2.040193 0.123496 -0.046516 738361.000000 0 0 1
-18.649122 33.005977 -18.304029 42.097764 -1.056493 2.020610 0.113468 -0.042429 -257178.000000 0 0 1
-18.655322 -34.107364 -17.492829 42.630181 1.070291 1.993622 0.113882 -0.040815 384451.000000 0 0 1
-19.927522 -33.861564 -16.892129 42.767460 1.038876 1.976838 0.084521 -0.035757 429825.000000 0 0 1
-20.180722 33.702977 -15.508729 42.233552 -1.031273 1.946808 0.087390 -0.034897 -322586.000000 0 0 1
-20.267822 32.324977 -15.464529 41.168440 -1.010759 1.955884 0.096152 -0.038493 20454.800000 0 0 1
-20.595722 31.956177 -14.155629 40.568003 -0.998298 1.927232 0.083770 -0.030671 -64658.800000 0 0 1
-20.588522 30.430377 -13.941429 39.297055 -0.975963 1.933465 0.078739 -0.030144 -898416.000000 0 0 1
-19.343522 29.868677 -13.859129 38.188810 -0.996097 1.942186 0.086272 -0.043977 -1104350.000000 0 0 1
-19.505122 28.475277 -13.764129 37.158343 -0.970219 1.950256 0.084040 -0.042321 1198950.000000 0 0 1
-18.239422 27.588877 -13.304929 35.648896 -0.986647 1.953275 0.081692 -0.039651 517532.000000 0 0 1
-17.161122 27.652777 -14.156129 35.490508 -1.015372 1.981081 0.107555 -0.047285 -400500.000000 0 0 1
-16.147922 26.670177 -13.806629 34.098046 -1.026366 1.987676 0.115788 -0.054094 333286.000000 0 0 1
-14.786822 27.156177 -14.289229 34.063032 -1.072178 2.003684 0.102955 -0.051296 -651899.000000 0 0 1
-14.758622 27.221177 -15.684129 34.710248 -1.073981 2.039644 0.096118 -0.048834 583158.000000 0 0 1
-13.503522 27.774377 -16.158229 34.854691 -1.118261 2.052837 0.122682 -0.050534 795665.000000 0 0 1
-13.399122 27.904777 -17.650029 35.633363 -1.123136 2.089003 0.138720 -0.058702 -78933.400000 0 0 1
-13.309722 26.621977 -18.213329 34.894179 -1.107187 2.119942 0.095793 -0.046271 100749.000000 0 0 1
-13.798622 26.681977 -19.498229 35.812160 -1.093522 2.146540 0.087161 -0.048777 161234.000000 0 0 1
-12.941622 25.680677 -20.375329 35.243961 -1.103999 2.187222 0.060618 -0.031482 190564.000000 0 0 1
-11.612622 26.093377 -20.560029 35.191364 -1.152074 2.194734 0.037926 -0.022693 -709042.000000 0 0 1
-10.860522 25.119677 -21.173429 34.601491 -1.162716 2.229285 0.038696 -0.026184 140196.000000 0 0 1
-9.613722 25.635177 -21.938429 35.083908 -1.212008 2.246329 0.046197 -0.023184 41008.300000 0 0 1
-9.945222 26.282677 -23.166529 36.419426 -1.209053 2.260234 0.040055 -0.017277 -221743.000000 0 0 1
-8.862622 26.630877 -23.997129 36.927116 -1.249530 2.278185 0.027412 -0.021031 -315146.000000 0 0 1
-9.222722 27.114677 -25.409829 38.287383 -1.242934 2.296498 0.019104 -0.018828 83119.700000 0 0 1
-9.863822 26.132977 -26.255579 38.335139 -1.209882 2.325257 0.020790 -0.015045 25437.400000 0 0 1
-10.157222 26.679877 -27.559209 39.679907 -1.207031 2.338574 0.021652 -0.010626 1007430.000000 0 0 1
-11.567722 26.221977 -28.117469 40.149674 -1.155330 2.346637 0.023000 -0.008593 996108.000000 0 0 1
-11.941822 26.626477 -29.409469 41.430584 -1.149195 2.360080 0.024443 -0.003021 -421153.000000 0 0 1
-13.137922 26.052577 -29.871729 41.757178 -1.103727 2.367946 0.025100 -0.002369 -117616.000000 0 0 1
-13.616122 26.551377 -31.267219 43.220520 -1.096944 2.379561 0.020678 -0.000539 433269.000000 0 0 1
-12.732622 26.258277 -32.385509 43.594013 -1.119302 2.408172 0.027812 0.000387 425886.000000 0 0 1
-12.444022 24.894677 -32.635759 42.891624 -1.107255 2.435478 0.038095 -0.005044 -10737.400000 0 0 1
-11.743222 24.570277 -33.960409 43.530577 -1.124949 2.465703 0.036425 -0.013253 380474.000000 0 0 1
-12.646622 24.463977 33.177684 43.118232 -1.093682 0.692804 0.041825 -0.011591 444879.000000 0 0 1
-12.056422 23.671777 32.150354 41.705583 -1.099723 0.690561 0.041607 -0.017561 -599734.000000 0 0 1
-12.781022 23.689177 30.814544 40.915373 -1.076027 0.717991 0.054049 -0.008893 183210.000000 0 0 1
-14.112622 23.187977 30.932224 41.153990 -1.024064 0.720279 0.059921 -0.012801 27104.800000 0 0 1
-14.679322 23.247577 29.665954 40.447511 -1.007583 0.747423 0.079483 -0.012894 586710.000000 0 0 1
-15.873522 22.248477 29.446074 40.175051 -0.951090 0.748156 0.062288 -0.006792 1005090.000000 0 0 1
-15.342422 20.953977 29.690564 39.446022 -0.938787 0.718660 0.063463 -0.010587 732097.000000 0 0 1
-16.435822 20.045777 29.730754 39.444736 -0.884030 0.717074 0.045644 -0.006422 467644.000000 0 0 1
-15.913122 18.634177 29.920554 38.674275 -0.863999 0.686206 0.036640 -0.017712 -127309.000000 0 0 1
-15.510122 18.020577 28.757464 37.313494 -0.860129 0.690859 0.059900 -0.018922 38527.400000 0 0 1
-15.108122 16.667177 29.030014 36.725902 -0.834424 0.659252 0.051486 -0.025132 215972.000000 0 0 1
-14.475522 15.931077 27.797424 35.157314 -0.833231 0.658913 0.062137 -0.019232 -439714.000000 0 0 1
-13.290922 16.453877 27.313704 34.545870 -0.891336 0.658926 0.052613 -0.014938 -742006.000000 0 0 1
-12.918722 15.870077 26.094544 33.161393 -0.887559 0.665035 0.038939 -0.008567 -177734.000000 0 0 1
-11.898822 16.715577 25.341554 32.606546 -0.952168 0.680605 0.042953 -0.006805 102552.000000 0 0 1
-12.439622 17.722177 24.397664 32.620021 -0.958780 0.725850 0.036815 -0.007453 34546.800000 0 0 1
-12.835022 18.994477 24.900694 33.846307 -0.976550 0.744098 0.034090 -0.011136 -340507.000000 0 0 1
-11.773222 19.885377 25.542804 34.445200 -1.036240 0.735420 0.019025 -0.010857 -197215.000000 0 0 1
-11.346322 19.469677 26.837904 35.043979 -1.043143 0.698458 0.037618 -0.015259 -48331.900000 0 0 1
-12.241822 19.879177 27.859414 36.348189 -1.018832 0.697486 0.075886 -0.021439 -20976.700000 0 0 1
-11.779622 19.608277 29.313804 37.182565 -1.029827 0.662633 0.075783 -0.026076 -226977.000000 0 0 1
-10.647622 20.286377 29.796824 37.586696 -1.087455 0.655490 0.055989 -0.035340 -171659.000000 0 0 1
-10.603122 20.174977 31.175914 38.618565 -1.086912 0.631271 0.058350 -0.032515 693232.000000 0 0 1
-9.382922 20.918577 31.837884 39.233620 -1.149153 0.624090 0.034739 -0.033214 284038.000000 0 0 1
-8.105422 20.379977 31.735414 38.576908 -1.192261 0.604734 0.038524 -0.034886 -804337.000000 0 0 1
-7.159422 21.210277 32.322647 39.317766 -1.245260 0.605728 0.032609 -0.039648 -198848.000000 0 0 1
-5.950322 20.372677 32.819912 39.084510 -1.286627 0.574035 0.048108 -0.034229 -383335.000000 0 0 1
-6.241622 19.691277 34.017152 39.797875 -1.263841 0.545731 0.043612 -0.030866 -316068.000000 0 0 1
-5.120722 19.330577 -33.499149 39.013920 -1.311842 2.603419 0.033815 -0.022788 -520863.000000 0 0 1
-4.276822 18.168377 -34.051911 38.831865 -1.339606 2.640184 0.021869 -0.018004 -225633.000000 0 0 1
-4.937522 16.904377 -34.099565 38.378606 -1.286616 2.664872 0.026814 -0.020125 -17337.600000 0 0 1
-4.373222 16.194777 33.091965 37.100863 -1.307048 0.469165 0.012421 -0.009795 -486885.000000 0 0 1
-5.191122 15.000477 32.683742 36.334406 -1.237632 0.452113 0.031779 -0.003907 -582811.000000 0 0 1
-4.814522 13.834477 33.317300 36.395259 -1.235896 0.414222 0.033898 -0.005677 66016.800000 0 0 1
-5.708322 12.738177 33.120723 35.942014 -1.149501 0.398860 0.051953 -0.012335 -92029.300000 0 0 1
-5.131222 11.417577 33.567206 35.825240 -1.148430 0.356939 0.079537 -0.008605 -87969.300000 0 0 1
-4.832422 11.269177 -33.274429 35.461730 -1.165697 2.788534 0.068406 -0.011015 -288870.000000 0 0 1
-4.046022 10.118377 -33.221849 34.963454 -1.190403 2.824634 0.084327 -0.012706 -56992.400000 0 0 1
-3.887422 9.571777 -31.789819 33.426390 -1.185013 2.827378 0.070672 -0.008805 810253.000000 0 0 1
-5.105422 8.985577 -31.287929 32.950575 -1.054103 2.822566 0.079253 -0.011072 615933.000000 0 0 1
-4.911522 8.525477 -29.981859 31.555010 -1.048136 2.824499 0.086496 0.001675 536512.000000 0 0 1
-6.176822 7.870377 -29.341519 31.000334 -0.905381 2.812978 0.071219 -0.005940 457876.000000 0 0 1
-5.789922 6.810677 -28.450299 29.821603 -0.866230 2.837157 0.059851 0.004427 593716.000000 0 0 1
-6.941822 6.071877 -28.028949 29.507263 -0.718649 2.823712 0.073198 -0.016226 5826.600000 0 0 1
-6.625922 5.220777 -26.736879 28.036049 -0.667339 2.835973 0.060341 -0.017253 -168012.000000 0 0 1
-6.742722 5.837977 -25.524789 27.038142 -0.713606 2.805435 0.039157 -0.011990 89598.100000 0 0 1
-5.826422 6.866977 -25.204299 26.764888 -0.867191 2.798422 0.030056 -0.001741 -181157.000000 0 0 1
-6.428722 7.721177 -24.107229 26.117112 -0.876486 2.746714 0.005709 0.000474 82131.500000 0 0 1
-6.525622 7.158677 -22.834329 24.803971 -0.831627 2.740389 0.004262 -0.001907 543388.000000 0 1 0
-7.663922 7.759177 -22.180529 24.716723 -0.791574 2.684614 0.008777 -0.001470 603844.000000 0 1 0
-7.578622 7.954577 -20.649329 23.390288 -0.809597 2.652621 0.003433 -0.005318 -139632.000000 0 1 0
-6.708622 9.000777 -20.268929 23.170004 -0.930286 2.635802 -0.014151 -0.004469 -127507.000000 0 1 0
-6.672522 9.255777 -18.870729 22.052128 -0.946179 2.597762 -0.005350 -0.008032 -903596.000000 0 1 0
-7.972722 9.587377 -18.137929 22.010601 -0.877091 2.539327 -0.012323 -0.000821 -814296.000000 0 1 0
-7.845622 9.518077 -16.730729 20.786170 -0.881421 2.506298 -0.013052 -0.008863 -64959.400000 0 1 0
-8.995222 9.784477 -15.951229 20.762748 -0.827401 2.446918 -0.006091 -0.013492 174587.000000 0 1 0
-9.644022 11.225677 -16.046029 21.828835 -0.861041 2.396587 -0.000317 -0.016767 -509761.000000 0 1 0
-8.672422 12.196677 -15.761429 21.734592 -0.952694 2.382088 -0.010678 -0.016202 -257690.000000 0 1 0
-9.125522 13.543677 -15.934829 22.817211 -0.977882 2.343912 0.007277 -0.023174 -301854.000000 0 1 0
-7.975822 14.494677 -15.648529 22.772480 -1.067755 2.328381 0.021717 -0.022317 -393657.000000 0 1 0
-7.513722 14.496777 -14.326329 21.722253 -1.092614 2.290981 0.021335 -0.025446 371145.000000 0 1 0
-8.360122 15.321877 -13.502929 22.067638 -1.071312 2.229242 0.020406 -0.029818 -161200.000000 0 1 0
-7.578922 16.123677 -12.388129 21.699741 -1.131395 2.178384 0.022631 -0.028790 350432.000000 0 1 0
-7.176122 17.434077 -12.691629 22.727103 -1.180318 2.163295 0.031800 -0.025431 -753040.000000 0 1 0
-6.162822 17.531277 -13.624229 23.042258 -1.232756 2.203431 0.046137 -0.017909 -851696.000000 0 1 0
-5.984622 18.980977 -14.030629 24.350600 -1.265366 2.184859 0.071782 -0.013276 62539.500000 0 1 0
-5.392922 19.823677 -13.081029 24.355186 -1.305180 2.137785 0.073970 -0.024541 -215811.000000 0 1 0
-5.799622 21.140177 -13.342329 25.662433 -1.303043 2.117550 0.089018 -0.020925 -311423.000000 0 0 1
-5.160622 22.316877 -12.552029 26.119503 -1.343548 2.072091 0.098362 -0.018390 -501976.000000 0 0 1
-5.377322 23.652977 -13.028529 27.534006 -1.347254 2.063693 0.094348 -0.028223 86486.700000 0 0 1
-6.688822 24.179577 -12.900029 28.209981 -1.300914 2.045737 0.079595 -0.024380 458749.000000 0 0 1
-7.426122 24.332677 -11.512329 27.924186 -1.274584 1.995742 0.035238 -0.023867 -104296.000000 0 0 1
-7.782822 23.067977 -11.098729 26.756040 -1.245402 1.998533 0.044540 -0.025630 -307830.000000 0 0 1
-8.285422 22.925877 -9.744229 26.252506 -1.224002 1.951069 0.055916 -0.031887 426820.000000 0 0 1
-7.341722 23.224377 -8.507629 25.800239 -1.264616 1.906835 0.053477 -0.035262 98642.200000 0 0 1
-7.220822 24.624977 -8.354329 26.987489 -1.285561 1.885530 0.052740 -0.032902 -407772.000000 0 0 1
-6.596522 25.045777 -7.164529 26.872580 -1.313266 1.840671 0.042912 -0.028171 130587.000000 0 0 1
-6.561922 26.610677 -7.083629 28.308387 -1.329030 1.823715 0.032372 -0.029912 430780.000000 0 0 1
-5.855222 27.347077 -8.115129 29.120467 -1.359873 1.853210 0.037848 -0.027543 -133166.000000 0 0 1
-6.435422 27.282077 -9.381529 29.559085 -1.339146 1.893764 0.045935 -0.029199 69220.400000 0 0 1
-6.030622 28.417077 -10.409329 30.858594 -1.361681 1.914869 0.045145 -0.018624 483024.000000 0 0 1
-6.695022 29.635277 -10.047329 32.000341 -1.348612 1.890174 0.048073 -0.024926 206102.000000 0 0 1
-7.355722 30.247177 -11.161929 33.069428 -1.332240 1.915088 0.058529 -0.030846 -411120.000000 0 0 1
-8.517222 31.155377 -10.820929 34.063075 -1.303938 1.894071 0.060808 -0.031534 -865393.000000 0 0 1
-9.468822 30.472277 -10.051829 33.455307 -1.269520 1.875966 0.063603 -0.026165 -313322.000000 0 0 1
-10.570722 31.344577 -9.867829 34.519512 -1.245532 1.860703 0.054296 -0.027580 332542.000000 0 0 1
-11.753422 30.740977 -9.079129 34.140609 -1.205609 1.839968 0.058595 -0.023818 427579.000000 0 0 1
-12.591822 29.734777 -9.647829 33.701507 -1.170221 1.861131 0.073684 -0.032872 -358714.000000 0 0 1
-13.672422 29.529677 -8.789829 33.707537 -1.137179 1.834613 0.073599 -0.024193 -226735.000000 0 0 1
-14.596322 28.411877 -9.320229 33.273924 -1.096217 1.854701 0.080276 -0.027901 -127592.000000 0 0 1
-14.174622 27.054977 -9.090929 31.867486 -1.088197 1.860087 0.079907 -0.028084 71421.600000 0 0 1
-15.226822 26.249377 -9.565829 31.818092 -1.045150 1.876161 0.100065 -0.031358 18326.700000 0 0 1
-15.241822 24.829877 -8.931429 30.473043 -1.020255 1.868256 0.096100 -0.035517 21967.900000 0 0 1
-14.175822 23.987377 -9.321229 29.380836 -1.037043 1.893630 0.087028 -0.037320 -26410.200000 0 0 1
-14.366522 22.670877 -8.795929 28.244185 -1.005966 1.887488 0.083525 -0.037716 131323.000000 0 0 1
-13.190922 21.710477 -9.118029 26.990437 -1.024820 1.915401 0.078536 -0.040023 -77.512600 0 0 1
-13.122522 21.378977 -10.496429 27.192577 -1.020288 1.967092 0.076485 -0.034344 94087.200000 0 0 1
-12.825022 20.044077 -10.715729 26.097377 -1.001596 1.993914 0.073761 -0.037570 -324290.000000 0 0 1
-13.099522 19.563577 -12.172929 26.504928 -0.980775 2.047970 0.071780 -0.031911 -293504.000000 0 0 1
-14.435322 19.441377 -12.568429 27.282065 -0.932109 2.049563 0.087519 -0.023528 -569560.000000 0 0 1
-14.594622 18.686177 -13.764829 27.416176 -0.907725 2.096787 0.083639 -0.028429 353867.000000 0 0 1
-16.084422 18.482877 -14.144429 28.291169 -0.854672 2.094348 0.081085 -0.013248 393166.000000 0 0 1
-16.653822 19.629777 -14.733529 29.660661 -0.867234 2.090631 0.059182 -0.014290 -218493.000000 0 0 1
-18.054622 19.454077 -14.849829 30.412956 -0.822691 2.080906 0.042460 -0.007513 19693.100000 0 0 1
-18.648922 20.657777 -15.602429 31.905514 -0.836461 2.081762 0.044248 -0.010727 -115593.000000 0 0 1
-19.035722 21.785177 -14.830429 32.509910 -0.852651 2.044496 0.051865 -0.023808 -84525.300000 0 0 1
-19.586722 22.706877 -15.643729 33.822599 -0.859038 2.051635 0.050409 -0.024516 -388451.000000 0 0 1
-20.227822 23.892877 -14.920929 34.679511 -0.868277 2.015568 0.039834 -0.012988 -500683.000000 0 0 1
-21.424822 23.610577 -14.282329 34.935187 -0.833894 1.991961 0.041853 -0.013013 -585640.000000 0 0 1
-21.976322 24.621177 -13.497129 35.655765 -0.842097 1.959015 0.043362 -0.018798 -232867.000000 0 0 1
-25.653772 -1.163723 3.887471 25.972730 0.045332 1.420557 0.114870 -0.043144 -193660.000000 0 0 1
-26.421022 -0.555023 4.894671 26.876314 0.021004 1.387656 0.142671 -0.041204 653518.000000 0 0 1
-27.821872 -0.575223 4.574071 28.201233 0.020672 1.407883 0.141850 -0.046022 658805.000000 0 0 1
-28.534882 0.020377 5.821071 29.122582 -0.000714 1.369559 0.144189 -0.037537 -1026780.000000 0 0 1
-28.818022 1.398077 5.646871 29.399322 -0.048476 1.377520 0.163197 -0.045006 83961.600000 0 0 1
-29.275062 1.996277 6.830871 30.127648 -0.068085 1.342076 0.168535 -0.024259 -530085.000000 0 0 1
-28.134522 2.635677 7.601471 29.262271 -0.093409 1.308012 0.177059 -0.029294 -553788.000000 0 0 1
-27.333592 1.723977 8.314971 28.622301 -0.062988 1.276040 0.155767 -0.043720 512822.000000 0 0 1
-26.453552 2.506477 9.171171 28.110198 -0.094468 1.238454 0.147122 -0.054085 553559.000000 0 0 1
-25.441132 1.622977 10.004871 27.385812 -0.063707 1.196809 0.125251 -0.039536 -288393.000000 0 0 1
-24.553722 0.889777 9.208771 26.238873 -0.036222 1.212201 0.128105 -0.044263 -178254.000000 0 0 1
-24.989522 -0.396623 8.850371 26.513442 0.015870 1.230457 0.110690 -0.037087 -323137.000000 0 0 1
-23.946622 -1.253623 8.071171 25.301306 0.052303 1.246120 0.107185 -0.040358 -167116.000000 0 0 1
-22.969322 -1.822523 8.884371 24.695007 0.079180 1.202782 0.094357 -0.045015 54417.500000 0 1 0
-21.810622 -2.194723 8.141071 23.383693 0.100289 1.215198 0.103544 -0.034682 1027940.000000 0 1 0
-20.506022 -2.181223 9.028571 22.511547 0.105971 1.158118 0.076147 -0.022499 480751.000000 0 1 0
-20.041422 -0.874623 9.412071 22.158760 0.043613 1.132104 0.068904 -0.029220 702587.000000 0 1 0
-20.778822 -0.190423 10.447571 23.258277 0.009164 1.104929 0.086575 -0.032102 -321910.000000 0 1 0
-20.236322 1.258877 10.672671 22.912866 -0.062129 1.086265 0.059973 -0.023735 -53480.700000 0 1 0
-20.581822 2.213677 9.705871 22.862977 -0.107143 1.132361 0.068220 -0.023736 740242.000000 0 1 0
-21.956222 2.500977 9.465671 24.040164 -0.113419 1.166095 0.101108 -0.037846 -416038.000000 0 1 0
-22.207222 4.008377 9.134771 24.344852 -0.178576 1.186158 0.088776 -0.037993 -406874.000000 0 1 0
-22.090822 4.945077 10.219771 24.837510 -0.220222 1.146735 0.075112 -0.033819 459956.000000 0 1 0
-22.327922 6.265977 9.794171 25.173882 -0.273597 1.171184 0.059927 -0.028121 -182011.000000 0 0 1
-22.513522 7.329577 10.870071 26.052636 -0.314741 1.140396 0.065651 -0.034780 -36666.200000 0 0 1
-23.559722 7.037977 11.764571 27.258004 -0.290291 1.124530 0.081171 -0.036108 66391.700000 0 0 1
-23.499522 7.997577 12.825071 27.940494 -0.328034 1.093912 0.077822 -0.035282 -7501.140000 0 0 1
-24.321322 7.551377 14.046271 29.083462 -0.301047 1.066760 0.090337 -0.032698 132689.000000 0 0 1
-25.710192 7.557177 13.780671 30.133566 -0.285885 1.095817 0.102243 -0.038247 -163943.000000 0 0 1
-26.437812 6.832177 14.755871 31.038239 -0.252892 1.075367 0.097332 -0.034597 558643.000000 0 0 1
-27.933202 6.738477 14.317971 32.104130 -0.236713 1.108521 0.118460 -0.029918 334816.000000 0 0 1
-28.205332 5.656377 13.479471 31.768404 -0.197917 1.132603 0.130969 -0.025559 650645.000000 0 0 1
-29.517952 5.717377 12.890671 32.713412 -0.191322 1.165764 0.148729 -0.027294 466149.000000 0 0 1
-29.921452 4.538177 12.022671 32.564290 -0.150522 1.192650 0.162821 -0.023335 20025.700000 0 0 1
-30.611272 3.457077 12.676471 33.312074 -0.112458 1.180420 0.156560 -0.028881 570.107000 0 0 1
-31.476192 2.774077 11.867971 33.753443 -0.087905 1.211508 0.149626 -0.015524 -801757.000000 0 0 1
-32.506162 1.965677 12.641571 34.933133 -0.060397 1.200513 0.123325 -0.003525 -573054.000000 0 0 1
-32.027872 0.750277 13.171471 34.638637 -0.023421 1.180726 0.129827 -0.012100 436034.000000 0 0 1
-33.005162 0.043977 13.999671 35.851547 -0.001332 1.169633 0.112553 -0.009248 464164.000000 0 0 1
-32.591552 -1.284323 14.700371 35.776524 0.039386 1.147361 0.114220 -0.019233 -519525.000000 0 0 1
-32.725202 -2.512023 13.993471 35.680055 0.076611 1.167782 0.117822 -0.021714 116406.000000 0 0 1
-32.906582 -3.532423 14.963471 36.321159 0.106937 1.146174 0.133443 -0.024279 -166934.000000 0 0 1
-32.897902 -4.938723 14.380871 36.241860 0.149010 1.162765 0.133231 -0.023129 600254.000000 0 0 1
-34.003842 -5.242123 13.501971 36.960037 0.152958 1.196828 0.089618 -0.027429 624649.000000 0 0 1
-33.927932 -6.521123 12.893971 36.876606 0.189889 1.213597 0.103418 -0.028124 -731038.000000 0 0 1
-35.041767 -6.721623 11.842271 37.594482 0.189515 1.250339 0.108029 -0.013751 1103200.000000 0 0 1
-36.400852 -6.872223 12.287271 39.028534 0.186597 1.250521 0.080984 -0.011834 923770.000000 0 0 1
36.005886 -5.738423 12.879171 38.668157 -0.158045 1.231240 0.081070 -0.019404 -1139270.000000 0 0 1
34.482656 -5.706123 12.694871 37.185658 -0.163992 1.222399 0.070802 -0.015785 -214376.000000 0 0 1
33.781646 -6.671823 13.436771 36.962949 -0.194989 1.198753 0.064691 -0.013395 -739459.000000 0 0 1
32.431856 -6.599023 13.075771 35.585786 -0.200733 1.194537 0.066881 -0.004296 -257141.000000 0 0 1
31.582686 -7.768623 13.645571 35.270656 -0.241189 1.173549 0.047057 -0.016687 -176486.000000 0 0 1
31.141686 -7.638523 14.989771 35.395549 -0.240534 1.133498 0.054859 -0.005557 361848.000000 0 0 1
30.147376 -8.626623 15.240371 34.864765 -0.278701 1.118393 0.047269 -0.001546 -7989.110000 0 0 1
29.468146 -8.547523 16.600671 34.885728 -0.282313 1.074856 0.028788 -0.007950 -387443.000000 0 0 1
30.352096 -8.898823 17.605571 36.199377 -0.285194 1.062889 0.023982 -0.006541 -500941.000000 0 0 1
29.782036 -8.879323 18.884171 36.365148 -0.289753 1.024773 0.011890 -0.010083 -160694.000000 0 0 1
30.773086 -9.329523 20.012471 37.875082 -0.294364 1.014104 0.012465 -0.009219 995517.000000 0 0 1
31.927656 -8.533923 20.264171 38.766476 -0.261184 1.020753 0.021804 -0.010777 646936.000000 0 0 1
33.068846 -8.714423 19.414771 39.324586 -0.257666 1.054450 0.024289 0.001818 201265.000000 0 0 1
34.302386 -8.076123 20.090971 40.565066 -0.231228 1.052642 0.019220 -0.008334 -16741.400000 0 0 1
34.583086 -8.762623 21.323171 41.562616 -0.248156 1.032077 0.033935 -0.011230 613421.000000 0 0 1
35.740446 -8.228223 22.011771 42.773838 -0.226279 1.030246 0.025720 -0.006743 907965.000000 0 0 1
36.112106 -8.840323 23.382671 43.920210 -0.240081 1.009375 0.034999 -0.007410 107380.000000 0 0 1
35.369176 -8.302823 24.468671 43.802184 -0.230573 0.978078 0.039193 -0.006890 100770.000000 0 0 1
35.595976 -9.079023 25.620171 44.787223 -0.249733 0.961803 0.043916 -0.008778 -38223.100000 0 0 1
35.274166 -8.354523 26.940771 45.164920 -0.232560 0.931666 0.051956 -0.007234 -754737.000000 0 0 1
36.263726 -7.665323 27.582971 46.202113 -0.208311 0.931032 0.044905 -0.022553 -1252520.000000 0 0 1
35.827606 -7.094023 28.761571 46.488391 -0.195476 0.903731 0.038206 -0.022980 327535.000000 0 0 1
-36.047402 -6.552023 29.749771 47.195265 0.179798 0.888786 0.041209 -0.016697 1589150.000000 0 0 1
-35.275689 -7.556023 30.508271 47.246400 0.211011 0.868821 0.035669 -0.011539 363382.000000 0 0 1
-33.964312 -7.107723 30.758571 46.370076 0.206293 0.845539 0.037034 -0.023185 3345.000000 0 0 1
-33.343332 -7.776623 31.978571 46.849575 0.229133 0.819509 0.025926 -0.014896 -283297.000000 0 0 1
-33.036762 -9.156923 31.847471 46.792503 0.270386 0.822201 0.032866 -0.012517 297923.000000 0 0 1
-32.782752 -9.755523 33.121371 47.612018 0.289236 0.801470 0.024652 -0.010110 -176486.000000 0 0 1
-32.737272 -11.302023 33.073871 47.888889 0.332423 0.808426 0.031109 -0.015559 -334820.000000 0 0 1
-34.042209 -11.823523 33.082371 48.919433 0.334285 0.828119 0.032587 -0.019788 -124386.000000 0 0 1
-34.159507 -13.269223 33.143271 49.410734 0.370509 0.835549 0.033002 -0.022668 -590275.000000 0 0 1
-35.616862 -13.669023 33.024271 50.457958 0.366445 0.857287 0.025829 -0.023135 -569294.000000 0 0 1
-36.017239 -15.005923 33.330471 51.316075 0.394761 0.863852 0.026955 -0.027771 1557590.000000 0 0 1
35.539956 -14.987323 33.583171 51.142328 -0.399075 0.854413 0.015600 -0.021747 1268720.000000 0 0 1
35.079866 -16.370223 33.870871 51.437507 -0.436618 0.851991 0.011976 -0.013789 -533797.000000 0 0 1
35.350986 -16.833523 -33.127921 51.288584 -0.444413 2.273014 0.020505 -0.032924 49446.200000 0 0 1
35.259996 -18.239923 -33.044121 51.651486 -0.477390 2.264971 0.010285 -0.033776 -136766.000000 0 0 1
35.844766 -18.941723 -31.783221 51.515136 -0.486138 2.235681 0.021739 -0.031446 -80295.400000 0 0 1
35.006326 -18.829723 -30.677821 50.210856 -0.493502 2.228094 0.026951 -0.029162 -165534.000000 0 0 1
35.533816 -19.567723 -29.604621 50.219333 -0.503364 2.201244 0.025335 -0.023319 -569249.000000 0 0 1
34.558976 -19.651823 -28.413521 48.865582 -0.517046 2.191322 0.042008 -0.018894 1015330.000000 0 0 1
33.337416 -20.394123 -28.560121 48.404381 -0.549014 2.201894 0.036461 -0.018111 1584180.000000 0 0 1
32.281586 -19.752923 -29.319421 47.873868 -0.549120 2.229928 0.028088 -0.018081 486773.000000 0 0 1
31.000516 -20.602723 -29.555021 47.528975 -0.586566 2.241876 0.027865 -0.012192 238561.000000 0 0 1
29.989326 -19.908223 -30.236721 47.010172 -0.586046 2.269460 0.030267 -0.010601 321609.000000 0 0 1
28.793496 -20.683723 -30.317521 46.647978 -0.622934 2.278277 0.028779 -0.009795 474707.000000 0 0 1
27.694616 -20.054123 -31.212521 46.296664 -0.626729 2.310657 0.033222 -0.006810 11585.200000 0 0 1
28.008496 -19.917423 -32.571021 47.350301 -0.618151 2.329352 0.024455 -0.007646 289488.000000 0 0 1
26.856616 -19.707923 -33.387421 47.163545 -0.633065 2.357327 0.050161 -0.003494 512984.000000 0 0 1
27.269316 -19.873723 33.370171 47.456810 -0.629791 0.790951 0.046780 -0.006749 -12304.400000 0 0 1
28.237126 -18.971423 32.912471 47.333719 -0.591590 0.801920 0.026292 -0.006915 -74485.700000 0 0 1
28.350346 -18.918723 31.491671 46.404585 -0.588454 0.824897 0.019907 -0.007030 143265.000000 0 0 1
27.052716 -18.454123 30.748071 44.920463 -0.598648 0.816878 0.020230 -0.005584 -701.207000 0 0 1
26.722216 -17.131623 31.106871 44.443298 -0.570093 0.795507 0.030337 -0.007504 391820.000000 0 0 1
25.977816 -16.554823 30.026471 43.017416 -0.567372 0.798185 0.031798 -0.009398 71926.400000 0 0 1
25.709816 -15.051723 30.344471 42.524533 -0.529650 0.776207 0.043800 -0.010493 -419106.000000 0 0 1
26.832416 -14.242023 30.150471 42.800288 -0.487965 0.789155 0.056056 -0.009664 -342250.000000 0 0 1
26.778816 -13.006823 30.798471 42.834895 -0.452153 0.768428 0.083195 -0.012090 -621405.000000 0 0 1
28.115546 -12.304523 30.993071 43.617149 -0.412529 0.780487 0.084988 -0.009002 -601148.000000 0 0 1
28.624056 -11.841423 29.791071 42.977480 -0.392250 0.804906 0.078325 -0.011208 -403025.000000 0 0 1
29.960446 -11.449423 29.945271 43.879800 -0.365025 0.819703 0.083792 -0.011556 -158380.000000 0 0 1
30.637496 -10.895123 28.650171 43.338114 -0.341667 0.848533 0.083595 -0.008721 -45151.300000 0 0 1
30.242596 -9.620723 28.268771 42.500545 -0.307995 0.843116 0.066334 -0.011361 83663.900000 0 0 1
31.005036 -9.257123 27.142271 42.233985 -0.290143 0.872826 0.058718 -0.007617 51860.100000 0 0 1
31.026996 -7.762523 27.022771 41.870770 -0.245154 0.869269 0.051714 -0.000069 172655.000000 0 0 1
29.838376 -7.162223 26.542571 40.572579 -0.235577 0.857672 0.068110 -0.009423 -143085.000000 0 0 1
29.860476 -5.749423 26.596571 40.399028 -0.190215 0.852176 0.063262 -0.010243 989486.000000 0 0 1
28.412506 -5.120023 26.594971 39.252740 -0.178290 0.826395 0.076550 -0.009141 1193420.000000 0 0 1
27.745516 -5.182923 25.327371 37.922976 -0.184674 0.839462 0.065264 -0.007340 38995.200000 0 0 1
26.409116 -4.742423 25.423771 36.963497 -0.177681 0.812332 0.086214 -0.010423 -156815.000000 0 0 1
25.594216 -5.097123 24.167271 35.568266 -0.196579 0.823768 0.069313 -0.005399 -343501.000000 0 0 1
25.986916 -4.362523 23.021271 34.990432 -0.166323 0.852729 0.074493 -0.001503 196326.000000 0 0 1
25.277416 -4.796923 21.873871 33.770171 -0.187541 0.866198 0.073289 -0.005262 146491.000000 0 0 1
25.611116 -3.979623 20.560471 33.083223 -0.154154 0.900169 0.078874 -0.005587 172081.000000 0 0 1
24.935116 -2.738723 20.582771 32.448591 -0.109395 0.883668 0.087486 -0.006582 205351.000000 0 0 1
25.358216 -1.826023 19.541771 32.066404 -0.071885 0.915473 0.086406 -0.003570 250064.000000 0 0 1
24.164016 -0.918823 19.055371 30.787190 -0.038006 0.903406 0.070423 -0.006078 893676.000000 0 0 1
23.104316 -1.661823 18.456671 29.617896 -0.071803 0.898020 0.082485 -0.006079 -437907.000000 0 0 1
22.082616 -0.823323 18.049371 28.532430 -0.037266 0.885902 0.083555 -0.006522 -636166.000000 0 0 1
21.097416 -1.522923 17.119471 27.212066 -0.072060 0.890384 0.091192 -0.006661 -280967.000000 0 0 1
21.572516 -2.044623 15.890871 26.871429 -0.094497 0.938044 0.087395 -0.009485 309878.000000 0 0 1
20.499716 -2.705723 15.210971 25.669689 -0.131230 0.936556 0.105824 -0.017764 369061.000000 0 0 1
20.947216 -3.377923 13.908271 25.369987 -0.159882 0.990565 0.102729 -0.025528 -252771.000000 0 0 1
19.933716 -4.183823 13.359671 24.358535 -0.206884 0.990275 0.119551 -0.030296 470178.000000 0 1 0
20.131716 -4.414823 11.976271 23.837108 -0.215880 1.044399 0.111077 -0.035179 -324376.000000 0 1 0
19.077316 -5.385523 11.448871 22.891581 -0.275140 1.047042 0.119804 -0.042580 -311312.000000 0 1 0
19.173216 -6.626723 12.063571 23.602021 -0.332771 1.034304 0.117315 -0.042614 489257.000000 0 1 0
17.929816 -7.256223 12.292471 22.918026 -0.384553 1.004670 0.112339 -0.021840 -179336.000000 0 1 0
18.012816 -8.766423 12.583371 23.656985 -0.452932 1.009943 0.116409 -0.031022 -360645.000000 0 1 0
18.481816 -9.453723 11.465771 23.715276 -0.472817 1.066175 0.090664 -0.040187 371754.000000 0 1 0
18.302716 -10.834323 11.556071 24.205676 -0.534481 1.073090 0.109026 -0.040369 -201715.000000 0 1 0
19.041116 -11.456123 10.380171 24.526614 -0.541633 1.133799 0.115250 -0.043851 -93809.400000 0 1 0
18.475716 -11.024323 9.160971 23.383994 -0.537984 1.168250 0.110283 -0.034527 281986.000000 0 1 0
18.977916 -11.723223 8.059471 23.718143 -0.553354 1.224090 0.103288 -0.040535 -65896.700000 0 1 0
18.807116 -11.053123 6.708871 22.822973 -0.531333 1.272437 0.103758 -0.028287 -54664.700000 0 1 0
19.233116 -9.717023 6.691171 22.563356 -0.467818 1.269718 0.103564 -0.020178 453220.000000 0 1 0
19.552116 -9.377323 5.340471 22.332489 -0.447200 1.329322 0.076934 -0.022311 112920.000000 0 1 0
20.132216 -7.905623 5.198771 22.244824 -0.374185 1.334908 0.104791 -0.019875 -103274.000000 0 1 0
20.844116 -7.710523 4.022371 22.585588 -0.354304 1.391747 0.106708 -0.015672 398827.000000 0 1 0
21.330616 -6.413823 3.945371 22.620748 -0.292086 1.395486 0.124259 -0.014895 -264162.000000 0 1 0
21.920416 -5.986423 2.562971 22.867241 -0.266597 1.458480 0.121847 -0.018241 -128569.000000 0 1 0
20.947116 -6.036223 1.548771 21.854435 -0.280564 1.499869 0.092799 -0.024481 576147.000000 0 1 0
21.307716 -5.271223 0.419871 21.954062 -0.242517 1.551670 0.090407 -0.017884 -93850.200000 0 1 0
-26.053132 -15.398823 0.349671 30.265685 0.533816 1.559243 0.067209 -0.016636 -631312.000000 0 0 1
-25.096432 -14.853323 -0.521329 29.167171 0.534405 1.588671 0.063470 -0.014562 818591.000000 0 0 1
-23.748222 -15.322223 -0.302629 28.263760 0.572990 1.581504 0.072347 -0.011880 1221510.000000 0 0 1
-22.949622 -14.711723 0.864571 27.273933 0.570054 1.539091 0.089299 -0.031683 -585234.000000 0 0 1
-23.556522 -15.026623 2.141571 28.023123 0.567819 1.494300 0.070749 -0.012144 338011.000000 0 0 1
-22.617822 -14.823323 3.188271 27.229797 0.580150 1.453440 0.074815 -0.007990 -23226.500000 0 0 1
-23.018222 -15.327423 4.565971 28.028851 0.587459 1.407165 0.076083 0.002671 -475392.000000 0 0 1
-22.896422 -16.718623 4.662171 28.731417 0.630698 1.407808 0.101346 -0.008577 192168.000000 0 0 1
-23.483922 -17.251523 5.818871 29.714792 0.633578 1.373699 0.107523 -0.013450 -290181.000000 0 0 1
-23.644122 -18.735523 5.627871 30.687738 0.670088 1.386361 0.085294 -0.005150 -88793.300000 0 0 1
-24.076722 -19.461723 6.737671 31.683488 0.679794 1.356504 0.079331 -0.012894 -60916.900000 0 0 1
-24.249022 -20.822823 6.361371 32.589447 0.709528 1.374338 0.081441 -0.014938 -413000.000000 0 0 1
-24.956322 -21.651623 7.378571 33.853420 0.714612 1.351076 0.068666 -0.012202 -548401.000000 0 0 1
-24.212622 -22.083523 8.511971 33.858333 0.739442 1.316670 0.071724 -0.010023 -13558.900000 0 0 1
-24.915622 -22.932723 9.409471 35.145926 0.743981 1.299764 0.072403 -0.017980 129427.000000 0 0 1
-23.947422 -23.357923 10.523471 35.068718 0.772937 1.266018 0.057389 -0.025311 217723.000000 0 0 1
-23.697222 -22.264823 11.395271 34.454794 0.754243 1.233718 0.066965 -0.024943 -12779.500000 0 0 1
-22.687922 -22.542123 12.326871 34.275951 0.782175 1.202918 0.075912 -0.026642 -402725.000000 0 0 1
-22.894422 -21.711423 13.535971 34.333117 0.758883 1.165540 0.048456 -0.019939 -403477.000000 0 0 1
-24.106122 -21.992023 14.177371 35.577409 0.739569 1.160922 0.040774 -0.020114 -324230.000000 0 0 1
-24.362922 -21.281223 15.396171 35.825752 0.717985 1.126579 0.034528 -0.008893 -922219.000000 0 0 1
-25.747332 -21.645623 15.922471 37.215362 0.699066 1.128687 0.024642 -0.008402 -1108640.000000 0 0 1
-26.798602 -21.256923 15.073671 37.379639 0.670587 1.155721 0.019352 -0.003688 -72714.900000 0 0 1
-27.250502 -22.286423 14.229271 37.970339 0.685522 1.186672 0.011337 -0.010163 -1246700.000000 0 0 1
-28.398692 -23.080523 14.777071 39.465910 0.682456 1.187018 0.016178 -0.016519 -1347970.000000 0 0 1
-28.028932 -23.772523 15.940071 40.060451 0.703415 1.161569 0.008205 -0.011145 362447.000000 0 0 1
-28.882162 -24.877523 16.376071 41.487903 0.711044 1.165034 0.016625 -0.007227 263121.000000 0 0 1
-28.734472 -26.199203 15.569371 41.886435 0.739279 1.189952 0.023843 -0.006955 -195919.000000 0 0 1
-29.306232 -26.306623 14.283271 41.891592 0.731513 1.222861 0.020856 -0.022619 -49745.200000 0 0 1
-30.561962 -26.950593 14.385771 43.212479 0.722688 1.231411 0.042873 -0.024867 -359861.000000 0 0 1
-31.257182 -27.364503 13.088671 43.556179 0.719092 1.265579 0.066831 -0.035085 87464.800000 0 0 1
-30.620402 -28.434263 12.364071 43.577363 0.748396 1.283118 0.050274 -0.040161 377195.000000 0 0 1
-31.312592 -28.615853 11.141271 43.857421 0.740429 1.313948 0.063706 -0.025851 66041.400000 0 0 1
-30.829592 -29.845643 10.399971 44.151846 0.769183 1.333012 0.041915 -0.029375 81439.800000 0 0 1
-31.213882 -31.070533 10.997771 45.394222 0.783097 1.326089 0.036715 -0.020146 -20133.900000 0 0 1
-30.488842 -32.074143 10.335671 45.443880 0.810732 1.341350 0.050841 -0.026330 -70186.400000 0 0 1
-30.582092 -33.443303 10.955571 46.623421 0.830057 1.333598 0.051089 -0.019542 615173.000000 0 0 1
-31.911972 -33.975543 11.084971 47.912295 0.816708 1.337321 0.022990 -0.008170 478359.000000 0 0 1
-31.895432 32.918913 11.600671 47.281592 -0.801188 1.322913 0.048062 -0.015565 359455.000000 0 0 1
-33.220602 32.365275 12.260971 47.973438 -0.772358 1.312350 0.042410 -0.006079 1303670.000000 0 0 1
-34.329149 31.975999 11.452071 48.291872 -0.749923 1.331373 0.020246 -0.002082 367624.000000 0 0 1
-35.088597 33.090390 11.023171 49.474173 -0.756098 1.346104 0.043644 -0.000934 -244574.000000 0 0 1
-36.468092 32.676408 10.447571 50.068164 -0.730616 1.360585 0.022497 0.008565 298163.000000 0 0 1
-36.340982 32.107469 9.157871 49.350006 -0.723627 1.384145 -0.002836 0.013974 517834.000000 0 0 1
35.336746 31.955289 8.653471 48.422192 0.735190 1.391122 -0.009869 0.019249 425346.000000 0 0 1
35.213846 31.361109 7.244471 47.707614 0.727592 1.418355 -0.010592 0.015376 -38680.700000 0 0 1
35.386146 29.995429 7.220371 46.947192 0.703134 1.416386 0.005013 0.005467 55798.300000 0 0 1
35.155846 29.562269 5.891671 46.309535 0.699183 1.443227 0.023817 -0.001494 -14010.600000 0 0 1
35.597736 28.097819 5.649871 45.701283 0.668192 1.446853 0.023023 -0.004323 -10460.100000 0 0 1
34.814396 27.091509 6.330171 44.565267 0.661287 1.428272 0.033980 -0.005228 222011.000000 0 0 1
35.243626 26.716179 7.648871 44.881762 0.648629 1.399538 0.011596 0.002597 -373558.000000 0 0 1
34.379016 25.573359 8.241271 43.632923 0.639563 1.380778 0.022307 -0.002489 -52418.300000 0 0 1
34.302876 24.402599 7.472271 42.755221 0.618327 1.395126 0.026092 -0.007057 -293586.000000 0 0 1
33.054046 23.789489 7.615171 41.430672 0.623835 1.385940 0.028007 -0.005851 -678434.000000 0 0 1
33.081456 22.423119 6.761371 40.532642 0.595681 1.403200 0.042330 -0.007237 382701.000000 0 0 1
33.971906 21.344119 7.119071 40.747306 0.560960 1.395182 0.060983 -0.009967 1168090.000000 0 0 1
35.369636 21.687019 7.040271 42.082102 0.550035 1.402707 0.077858 -0.014583 429558.000000 0 0 1
36.330446 20.537419 6.777371 42.280251 0.514510 1.409805 0.073739 -0.015640 -271457.000000 0 0 1
36.156736 19.880219 5.546471 41.632871 0.502716 1.437176 0.093433 -0.025086 -42201.900000 0 0 1
-36.332822 18.578019 5.672271 41.199410 -0.472670 1.432679 0.103589 -0.022500 -227820.000000 0 0 1
36.419586 17.571119 4.542571 40.691097 0.449520 1.458928 0.102619 -0.032378 -339958.000000 0 0 1
-35.811520 17.608919 3.340671 40.046211 -0.456994 1.487279 0.105463 -0.028792 368136.000000 0 0 1
-36.281142 16.492019 2.474971 39.930357 -0.426641 1.508774 0.114693 -0.031382 -210574.000000 0 0 1
-35.222257 16.143119 1.422471 38.771524 -0.429753 1.534100 0.123053 -0.019414 365794.000000 0 0 1
-34.119186 15.356719 1.869771 37.462564 -0.422929 1.520865 0.113323 -0.030892 440563.000000 0 0 1
-33.026802 16.090319 2.363371 36.813768 -0.453347 1.506554 0.112613 -0.025741 -451387.000000 0 0 1
-31.766932 15.258019 2.694171 35.344075 -0.447773 1.494495 0.085206 -0.020347 11867.800000 0 0 1
-31.769382 14.513319 3.863371 35.140513 -0.428522 1.460633 0.105735 -0.024419 -1085950.000000 0 0 1
-30.490472 14.144619 4.163271 33.868450 -0.434355 1.447560 0.082653 -0.016727 -1298370.000000 0 0 1
-30.355602 13.286919 5.450471 33.581429 -0.412586 1.407769 0.099635 -0.007790 -204130.000000 0 0 1
-30.623272 11.925819 5.261871 33.282086 -0.371367 1.412031 0.117236 -0.010737 219230.000000 0 0 1
-30.448072 11.222919 6.460171 33.087351 -0.353141 1.374288 0.113540 -0.006722 -135030.000000 0 0 1
-30.970322 9.788619 6.433971 33.111537 -0.306129 1.375240 0.134644 -0.025440 -1121420.000000 0 0 1
-32.324152 9.591019 6.561971 34.349642 -0.288439 1.378580 0.136285 -0.019251 -1167790.000000 0 0 1
-32.617422 8.258019 6.486871 34.266173 -0.247968 1.380339 0.158852 -0.023076 -281027.000000 0 0 1
-34.124558 7.955119 6.348271 35.609969 -0.229030 1.391566 0.147931 -0.018961 -194146.000000 0 0 1
-34.783098 7.891219 7.576871 36.462915 -0.223093 1.361474 0.134048 -0.013902 4111.420000 0 0 1
-35.996010 7.154419 7.487671 37.456156 -0.196199 1.369535 0.097912 -0.019239 306183.000000 0 0 1
-36.495412 6.541719 8.765971 38.099231 -0.177364 1.338634 0.089839 -0.021501 47965.500000 0 0 1
35.815006 7.334719 9.714571 37.827049 0.202001 1.311071 0.085342 -0.016931 676237.000000 0 0 1
-36.270062 7.970319 10.628071 38.626406 -0.216311 1.292050 0.116473 -0.023400 257983.000000 0 0 1
36.022746 8.854419 11.644771 38.879810 0.241023 1.266621 0.101537 -0.026517 -108071.000000 0 0 1
35.271236 8.161819 12.665271 38.354719 0.227399 1.234266 0.084968 -0.022552 669333.000000 0 0 1
34.730666 9.183219 13.494871 38.375281 0.258497 1.211458 0.101915 -0.027301 -40421.900000 0 0 1
33.909356 8.616519 14.687171 37.944720 0.248838 1.173347 0.106470 -0.029432 551542.000000 0 0 1
32.580146 8.088819 14.582871 36.599932 0.243354 1.160981 0.068284 -0.024501 838135.000000 0 0 1
32.218816 7.601219 15.865571 36.708949 0.231688 1.123866 0.078479 -0.019356 -1254880.000000 0 0 1
30.768846 7.259619 16.016171 35.439267 0.231703 1.101865 0.035850 -0.005429 -1837300.000000 0 0 1
29.950576 8.409019 15.983771 34.974698 0.273716 1.096166 0.043246 -0.012934 1071760.000000 0 0 1
28.545136 8.099119 16.121571 33.768707 0.276464 1.073090 0.046353 -0.009320 1238940.000000 0 0 1
27.979776 7.480119 17.470971 33.823880 0.261231 1.028005 0.050171 -0.015664 -619684.000000 0 0 1
27.999776 8.379119 18.578471 34.631729 0.290775 1.004562 0.071817 -0.019275 441755.000000 0 0 1
27.292516 7.959119 19.771471 34.628602 0.283754 0.963124 0.074548 -0.006130 56745.500000 0 0 1
27.821916 6.687619 20.485971 35.191736 0.235897 0.949457 0.082323 -0.000896 13065.300000 0 0 1
27.022616 6.431719 21.615471 35.196837 0.233665 0.909512 0.069102 0.007087 18581.000000 0 0 1
27.449016 5.345619 22.369971 35.811168 0.192340 0.896094 0.072611 0.002510 -7260.350000 0 0 1
26.577716 5.191719 23.696971 35.984377 0.192912 0.851926 0.084302 0.000129 1470290.000000 0 0 1
25.217916 4.796919 23.480671 34.789303 0.187973 0.829914 0.042035 0.002212 749227.000000 0 0 1
24.273216 5.857519 23.499371 34.288773 0.236789 0.815730 0.056144 0.016387 1174050.000000 0 0 1
22.755716 5.476819 23.275571 33.008641 0.236187 0.788182 0.067966 0.002923 958692.000000 0 0 1
22.449116 5.151019 21.901471 31.783175 0.225549 0.810564 0.064872 0.001157 -208297.000000 0 0 1
21.131916 5.196119 21.443271 30.551128 0.241106 0.792761 0.040695 -0.000414 -1219010.000000 0 0 1
20.216816 3.988219 21.817371 30.010385 0.194771 0.756862 0.055423 -0.005247 238670.000000 0 0 1
19.053216 3.791119 21.021271 28.623268 0.196410 0.745996 0.048161 -0.009075 592698.000000 0 0 1
18.031316 4.752919 21.249971 28.271538 0.257730 0.720254 0.046615 -0.016282 -254146.000000 0 0 1
16.753116 4.492219 20.368771 26.753201 0.261980 0.705391 0.066797 -0.027274 234789.000000 0 0 1
16.010516 3.398419 20.872571 26.524519 0.209157 0.665001 0.064553 -0.020749 -300576.000000 0 0 1
15.035416 3.067419 19.926971 25.150685 0.201251 0.656221 0.071027 -0.027433 -514740.000000 0 0 1
14.033716 2.035419 20.529271 24.950733 0.144033 0.604490 0.075382 -0.033072 -247943.000000 0 1 0
14.506516 0.737519 20.660871 25.255782 0.050797 0.612758 0.054576 -0.014075 299494.000000 0 0 1
13.490116 0.012019 21.313571 25.224030 0.000891 0.564286 0.054293 -0.024124 210884.000000 0 0 1
13.855416 -1.521981 21.585971 25.695197 -0.109409 0.573369 0.032178 -0.008685 54052.900000 0 0 1
13.728616 -2.276781 20.411071 24.703653 -0.164346 0.598402 0.041680 -0.008737 270788.000000 0 1 0
13.955116 -3.621581 20.735671 25.255280 -0.253915 0.607561 0.048125 0.006465 -186629.000000 0 0 1
13.695216 -4.527481 19.532371 24.281074 -0.319278 0.636085 0.054796 0.004314 82455.800000 0 1 0
12.332016 -4.483581 19.152071 23.216006 -0.348715 0.600681 0.050871 -0.000257 75606.900000 0 1 0
12.042616 -5.125981 17.929471 22.198338 -0.402424 0.630565 0.058559 -0.003715 -520964.000000 0 1 0
10.559416 -5.241381 17.603771 21.186460 -0.460740 0.590078 0.053232 -0.005493 -519433.000000 0 1 0
10.022616 -6.250281 18.382171 21.850013 -0.557605 0.571133 0.055000 0.002696 513619.000000 0 1 0
8.582416 -6.170081 18.402571 21.222215 -0.623312 0.521371 0.047178 -0.003249 919247.000000 0 1 0
7.896116 -7.208781 19.277971 22.044395 -0.739925 0.506379 0.048365 -0.011806 -500385.000000 0 1 0
8.021616 -8.545081 18.952071 22.283306 -0.816985 0.553851 0.047448 -0.012197 -52388.500000 0 1 0
9.086516 -9.176981 19.632271 23.499103 -0.790351 0.581849 0.069625 -0.013086 54767.000000 0 1 0
9.364916 -10.648181 19.182171 23.854583 -0.849432 0.636587 0.077280 -0.020869 13151.100000 0 1 0
9.820916 -10.507281 17.851971 22.924795 -0.819150 0.678175 0.074275 -0.006455 -167506.000000 0 1 0
9.868916 -11.773881 17.240071 23.091987 -0.873190 0.727886 0.053472 -0.014997 92809.700000 0 1 0
10.729316 -11.910981 15.951071 22.614738 -0.837544 0.787894 0.070479 -0.010521 53068.600000 0 1 0
10.603316 -13.143481 15.227771 22.739095 -0.891962 0.837027 0.053836 -0.010597 179681.000000 0 1 0
10.164416 -12.957381 13.860971 21.525232 -0.905609 0.871159 0.042613 -0.009410 -331697.000000 0 1 0
10.682816 -14.182581 13.070071 22.047561 -0.925228 0.936250 0.046933 -0.014280 515197.000000 0 1 0
12.060816 -14.106181 12.734971 22.508379 -0.863405 0.969408 0.034265 -0.009698 210244.000000 0 1 0
12.232916 -13.382081 11.496971 21.468691 -0.830231 1.005670 0.014722 -0.008069 -348120.000000 0 1 0
13.723116 -13.196581 11.122271 22.049458 -0.765841 1.042082 0.052664 -0.016029 626557.000000 0 1 0
14.510416 -14.371681 10.873871 23.137383 -0.780595 1.081540 0.066083 -0.011040 1079440.000000 0 1 0
15.834916 -14.028381 10.428471 23.585866 -0.724978 1.112803 0.076677 -0.026202 1231870.000000 0 1 0
16.754216 -15.177881 9.896771 24.678288 -0.736073 1.158154 0.075586 -0.034170 412236.000000 0 1 0
17.209316 -16.146481 10.832771 25.965715 -0.753545 1.140439 0.066546 -0.025815 -374470.000000 0 0 1
16.266316 -17.073581 11.215771 26.113095 -0.809607 1.126849 0.089737 -0.020595 -460450.000000 0 0 1
16.726516 -17.719681 12.513071 27.392342 -0.814223 1.096391 0.062750 -0.019305 -806819.000000 0 0 1
17.930616 -18.382181 12.398071 28.515325 -0.797833 1.120995 0.085566 -0.031484 -890001.000000 0 0 1
18.180416 -19.125981 13.534771 29.656715 -0.810739 1.096872 0.048489 -0.027779 -1070300.000000 0 0 1
19.472516 -19.870081 13.395371 30.877743 -0.795503 1.122069 0.006510 -0.032077 -550598.000000 0 0 1
20.565116 -18.950681 13.202171 30.924903 -0.744565 1.129723 0.010208 -0.034674 -298062.000000 0 0 1
21.705916 -19.710081 12.879771 32.023782 -0.737245 1.156884 -0.000036 -0.035594 -158700.000000 0 0 1
22.444716 -19.007981 11.711871 31.658120 -0.702680 1.191843 0.024758 -0.028987 -507822.000000 0 0 1
21.968616 -19.254781 10.362271 30.995860 -0.719661 1.229922 0.027743 -0.029711 528824.000000 0 0 1
20.750716 -18.624481 9.953271 29.606268 -0.731451 1.227930 0.033770 -0.030925 311427.000000 0 0 1
20.600416 -17.088981 10.058071 28.593272 -0.692499 1.211342 0.080320 -0.031789 -841378.000000 0 0 1
21.498216 -16.505781 9.187071 28.618462 -0.654780 1.243991 0.080489 -0.024072 -183076.000000 0 0 1
21.251116 -15.117481 9.012971 27.593148 -0.618318 1.238052 0.086951 -0.034773 -68327.100000 0 0 1
-35.051542 24.672877 8.293471 43.659399 -0.613340 1.379677 0.077733 -0.002861 -274750.000000 0 0 1
-34.068141 23.836477 8.919971 42.525072 -0.610505 1.359469 0.091211 -0.019345 686727.000000 0 0 1
-33.161302 24.692577 9.654171 42.457018 -0.640049 1.341403 0.080716 -0.008108 -73895.300000 0 0 1
-31.925362 23.890977 10.065571 41.125701 -0.642437 1.323533 0.102472 -0.036937 -670186.000000 0 0 1
-31.074372 23.509977 9.040971 40.000935 -0.647693 1.342807 0.096076 -0.025603 114488.000000 0 0 1
-29.931532 22.863877 9.628471 38.876226 -0.652321 1.320522 0.102554 -0.026498 585197.000000 0 0 1
-29.143852 21.957477 8.682271 37.508356 -0.645684 1.337202 0.084997 -0.026951 402356.000000 0 0 1
-29.901792 20.780077 8.325871 37.353031 -0.607325 1.346011 0.083652 -0.025508 498447.000000 0 0 1
-29.309782 20.175377 7.198271 36.303227 -0.602864 1.371192 0.070295 -0.028308 52878.900000 0 0 1
-30.358312 19.515877 6.291971 36.634485 -0.571333 1.398191 0.075448 -0.024401 131582.000000 0 0 1
-31.039382 18.357977 6.813671 36.699927 -0.534103 1.384054 0.088972 -0.022444 648958.000000 0 0 1
-32.010682 17.891977 5.884571 37.140743 -0.509679 1.411686 0.076669 -0.021963 223980.000000 0 0 1
-32.758132 16.583977 6.231871 37.241908 -0.468639 1.402670 0.091647 -0.017796 179704.000000 0 0 1
-33.554842 16.730277 7.432371 38.223942 -0.462523 1.375107 0.088063 -0.025539 374261.000000 0 0 1
-34.379906 15.621077 7.641771 38.527817 -0.426479 1.371128 0.096573 -0.027124 -675785.000000 0 0 1
-35.385833 15.774477 8.735171 39.715167 -0.419343 1.349038 0.103834 -0.025638 -227965.000000 0 0 1
-36.474162 16.670777 8.477871 40.989677 -0.428707 1.362463 0.107744 -0.027171 553041.000000 0 0 1
35.745076 16.842377 9.668171 40.679843 0.440327 1.330835 0.109263 -0.023450 229660.000000 0 0 1
34.821026 18.070477 9.668071 40.404425 0.478695 1.329170 0.098409 -0.025910 760683.000000 0 0 1
33.541716 17.959977 9.037771 39.106122 0.491605 1.337579 0.084894 -0.024570 615988.000000 0 0 1
32.821596 19.178977 9.009071 39.067297 0.528825 1.338098 0.065690 -0.018731 771301.000000 0 0 1
31.305876 19.087577 8.614971 37.664455 0.547530 1.340024 0.046205 -0.014892 469547.000000 0 0 1
30.808986 20.424477 8.722871 37.979486 0.585417 1.339054 0.039370 -0.013329 1026550.000000 0 0 1
29.477206 20.722377 8.224971 36.959068 0.612734 1.346375 0.026861 -0.012179 1226020.000000 0 0 1
29.144846 20.419977 6.727871 36.216871 0.611154 1.383945 0.020825 -0.008191 -754361.000000 0 0 1
29.202546 19.065577 6.267671 35.434004 0.578393 1.392978 0.040162 -0.008528 20957.700000 0 0 1
29.114846 18.990177 4.826471 35.094101 0.577956 1.432830 0.040137 -0.016148 -242177.000000 0 0 1
27.692216 19.277977 4.319471 34.017011 0.608138 1.443473 0.065261 -0.014142 -386572.000000 0 0 1
26.712016 18.460377 4.980471 32.849999 0.604720 1.418597 0.064571 -0.013510 1476290.000000 0 0 1
25.328116 18.720477 4.655571 31.837777 0.636500 1.424042 0.081966 -0.016941 1342930.000000 0 0 1
24.627316 20.073977 5.052271 32.171333 0.683887 1.413101 0.090491 -0.019880 -558288.000000 0 0 1
24.922416 21.084577 4.138971 32.906189 0.702172 1.444681 0.072297 -0.019553 229548.000000 0 0 1
24.583216 22.327977 4.674471 33.536901 0.737361 1.430958 0.075651 -0.020713 -254953.000000 0 0 1
25.571016 23.442677 4.273971 34.952865 0.742002 1.448211 0.048806 -0.011792 911259.000000 0 0 1
26.792616 23.467077 5.055471 35.973682 0.719327 1.429797 0.051364 -0.019983 202776.000000 0 0 1
27.692516 24.399177 4.647871 37.199435 0.722260 1.445524 0.062610 -0.022149 -1764020.000000 0 0 1
28.982396 24.327577 5.458171 38.230903 0.698303 1.427538 0.043925 -0.019640 -762522.000000 0 0 1
29.893946 23.280277 5.131671 38.235499 0.661656 1.436178 0.036579 -0.016420 471664.000000 0 0 1
30.505126 23.305577 3.836471 38.580191 0.652394 1.471190 0.049951 -0.027076 -492847.000000 0 0 1
31.339366 24.579177 3.431871 39.975862 0.665089 1.484842 0.071722 -0.037280 -591591.000000 0 0 1
30.655516 25.827277 3.287271 40.219586 0.700124 1.488972 0.053502 -0.035237 -540453.000000 0 0 1
31.275266 26.716377 2.412071 41.203461 0.706947 1.512222 0.083459 -0.027544 -1146730.000000 0 0 1
30.821636 28.183877 2.530071 41.841432 0.740724 1.510291 0.078441 -0.019837 442335.000000 0 0 1
29.520996 28.524777 2.065171 41.102519 0.768237 1.520531 0.109131 -0.025598 291102.000000 0 0 1
28.457966 27.966977 2.800871 39.998156 0.776697 1.500714 0.086319 -0.015468 -254551.000000 0 0 1
27.043016 28.486777 2.385471 39.351133 0.811392 1.510139 0.044513 -0.013690 567494.000000 0 0 1
26.763116 29.791877 2.892471 40.152045 0.838901 1.498696 0.040214 -0.013154 -663001.000000 0 0 1
25.423216 30.058677 2.649271 39.457352 0.868754 1.503603 0.042834 0.000731 -625045.000000 0 0 1
25.056716 31.517377 3.142271 40.386359 0.899104 1.492912 0.055357 -0.006802 -355911.000000 0 0 1
25.077316 31.707277 4.546071 40.680339 0.901628 1.458811 0.042110 -0.027679 -194235.000000 0 0 1
26.306616 31.587677 5.234371 41.439330 0.876365 1.444144 0.041388 -0.028034 -234951.000000 0 0 1
26.306116 31.657977 6.806271 41.720074 0.877468 1.406922 0.065245 -0.043138 -83566.000000 0 0 1
25.902016 30.427577 7.373271 40.633939 0.865567 1.388330 0.066343 -0.043194 719500.000000 0 0 1
26.759716 29.300477 7.026871 40.298602 0.830689 1.395530 0.063871 -0.040625 633316.000000 0 0 1
26.068516 27.972577 7.449671 38.955490 0.820617 1.378376 0.074674 -0.035158 -106704.000000 0 0 1
24.944716 27.603777 6.702971 37.803931 0.835957 1.392545 0.063121 -0.038651 -208081.000000 0 0 1
24.535916 26.292277 7.047171 36.646386 0.819939 1.377289 0.069598 -0.035100 -493168.000000 0 0 1
23.150616 25.956977 6.475971 35.378721 0.842483 1.386711 0.078559 -0.022181 -314668.000000 0 0 1
23.008716 25.703477 5.063571 34.867026 0.840662 1.425056 0.057567 -0.024938 171584.000000 0 0 1
23.205216 26.837477 4.205771 35.727031 0.857854 1.452803 0.050428 -0.020644 -303533.000000 0 0 1
23.219716 26.428777 2.692771 35.282949 0.849944 1.494403 0.045074 -0.010722 -156340.000000 0 0 1
24.462716 25.942477 2.240471 35.727529 0.814747 1.508045 0.043926 0.000197 -31219.900000 0 0 1
24.457816 25.668077 0.860971 35.465141 0.809538 1.546517 0.054538 -0.002705 -698371.000000 0 0 1
25.655516 24.982577 0.218471 35.810367 0.772110 1.564696 0.065296 -0.007608 -1730930.000000 0 0 1
26.727316 25.843577 0.258171 37.179383 0.768589 1.563852 0.061896 -0.007177 -392029.000000 0 0 1
27.893316 25.521277 -0.488929 37.810207 0.741019 1.583728 0.073106 0.000466 1220580.000000 0 0 1
28.824756 24.350277 0.049971 37.733341 0.701450 1.569472 0.082367 -0.011265 -204904.000000 0 0 1
28.141566 23.158477 -0.142829 36.445620 0.688566 1.574715 0.083566 -0.011212 142489.000000 0 0 1
28.488266 22.256977 0.899971 36.163024 0.663214 1.545907 0.082074 -0.015993 -195008.000000 0 0 1
27.275016 21.507277 1.453171 34.764942 0.667710 1.528984 0.068435 -0.017194 -138673.000000 0 0 1
26.727716 20.466477 0.704771 33.671118 0.653499 1.549864 0.085856 -0.023384 973976.000000 0 0 1
25.447816 19.968777 1.126671 32.366847 0.665339 1.535980 0.078305 -0.022884 647863.000000 0 0 1
24.929216 18.728277 0.270971 31.181527 0.644306 1.562106 0.087471 -0.018080 676827.000000 0 0 1
23.605816 18.327677 0.670071 29.892931 0.660187 1.548379 0.084911 -0.016710 718914.000000 0 0 1
23.187816 17.156277 0.093771 28.844782 0.636995 1.567545 0.099897 -0.034115 -97892.400000 0 0 1
21.640916 17.128177 0.021771 27.598989 0.669519 1.570007 0.090004 -0.009356 -697728.000000 0 0 1
21.147016 16.017377 -0.728729 26.538344 0.648239 1.598259 0.095487 -0.018014 1097680.000000 0 0 1
19.751416 15.773677 -0.474029 25.281456 0.673893 1.589547 0.092591 -0.012336 700608.000000 0 0 1
18.722516 16.685577 -1.119429 25.103669 0.727934 1.615403 0.094145 -0.015631 -934341.000000 0 0 1
18.616916 17.974077 -0.557829 25.883744 0.767832 1.592349 0.085264 -0.013904 547935.000000 0 0 1
17.399516 18.619477 -0.961129 25.501997 0.819255 1.608494 0.063424 -0.018319 731794.000000 0 0 1
17.306016 20.116477 -0.518029 26.541274 0.860358 1.590315 0.056512 -0.019741 -28550.800000 0 0 1
16.933216 20.244777 0.840471 26.406272 0.874237 1.538962 0.064988 -0.018569 -67236.000000 0 0 1
17.049516 21.558777 1.300671 27.516515 0.901667 1.523510 0.077742 -0.019767 48506.600000 0 0 1
15.919616 22.557077 0.963471 27.625788 0.956223 1.535913 0.064750 -0.021634 -148747.000000 0 0 1
14.662016 22.281277 1.509371 26.715318 0.988788 1.514268 0.049613 -0.016816 -150928.000000 0 0 1
13.692816 23.276277 1.236771 27.033459 1.039044 1.525031 0.046036 -0.013053 -288947.000000 0 0 1
12.353916 23.025277 1.906671 26.199581 1.078348 1.497957 0.038891 -0.016314 -390500.000000 0 0 1
12.385816 23.360377 3.280971 26.643582 1.083277 1.447340 0.032809 -0.009946 450595.000000 0 0 1
11.115516 23.157477 3.909771 25.982874 1.123279 1.419748 0.028940 -0.009941 326081.000000 0 0 1
11.086116 23.539377 5.437471 26.581391 1.130649 1.364783 0.034973 -0.013513 -386239.000000 0 0 1
11.835316 22.707277 6.271971 26.363474 1.090323 1.330589 0.031631 -0.034230 280862.000000 0 0 1
10.962616 22.119677 7.246971 25.728927 1.110671 1.285266 0.027828 -0.037892 -171459.000000 0 0 1
11.588016 20.915077 8.036971 25.225294 1.064848 1.246536 0.038012 -0.036384 1103480.000000 0 0 1
12.789916 21.117377 8.834771 26.221723 1.026227 1.227147 0.045444 -0.034654 520544.000000 0 0 1
13.954016 21.228577 8.098871 26.663810 0.989291 1.262180 0.059675 -0.029846 -1159010.000000 0 0 1
15.252816 21.508177 8.852371 27.813928 0.953947 1.246891 0.071400 -0.027964 -404121.000000 0 0 1
15.687616 20.318777 9.556871 27.391382 0.913316 1.214399 0.085351 -0.036229 1252640.000000 0 0 1
17.027416 20.518377 10.111171 28.516179 0.878110 1.208335 0.083795 -0.038104 1426210.000000 0 0 1
17.176216 21.410477 11.336371 29.697546 0.894695 1.179132 0.073750 -0.033071 -918365.000000 0 0 1
16.362116 21.082177 12.443771 29.445279 0.910792 1.134477 0.071448 -0.028791 -206800.000000 0 0 1
16.646716 21.710977 13.658671 30.578407 0.916666 1.107749 0.067912 -0.020111 -283724.000000 0 0 1
17.854116 21.226677 14.479171 31.288779 0.871482 1.089691 0.065953 -0.023979 389548.000000 0 0 1
19.103116 21.533177 13.871471 31.953474 0.845127 1.121741 0.074066 -0.023376 315681.000000 0 0 1
20.199916 21.120377 14.690371 32.709539 0.807671 1.105021 0.057821 -0.024368 669984.000000 0 0 1
21.567516 21.760777 14.347771 33.831165 0.789859 1.132829 0.063139 -0.023218 -30920.700000 0 0 1
22.043616 21.256177 13.130971 33.319191 0.767214 1.165712 0.058955 -0.026505 806789.000000 0 0 1
23.453816 21.531277 12.955171 34.373156 0.742687 1.184351 0.056992 -0.020038 1215280.000000 0 0 1
24.024716 20.755077 11.714671 33.840711 0.712512 1.217310 0.052720 -0.020123 32118.300000 0 0 1
23.899916 21.498077 10.497171 33.816622 0.732541 1.255167 0.075051 -0.025546 863562.000000 0 0 1
24.876716 21.080077 9.515171 33.967030 0.702972 1.286867 0.080259 -0.025740 310810.000000 0 0 1
24.942516 22.075177 8.342171 34.337070 0.724489 1.325391 0.073510 -0.029974 129687.000000 0 0 1
25.448116 23.387877 8.615371 35.620556 0.743236 1.326509 0.073311 -0.024189 236481.000000 0 0 1
26.831216 23.618977 8.450871 36.731287 0.721813 1.338644 0.056581 -0.023637 -428586.000000 0 0 1
27.343616 24.725877 9.368671 38.037013 0.735167 1.321931 0.063682 -0.032165 273105.000000 0 0 1
28.642236 25.120177 8.913371 39.126068 0.719980 1.340967 0.053657 -0.023214 627912.000000 0 0 1
29.275186 26.127377 9.682571 40.415697 0.728642 1.328869 0.054947 -0.020495 -340133.000000 0 0 1
30.515816 26.676677 9.020071 41.523750 0.718372 1.351824 0.041596 -0.017345 -684676.000000 0 0 1
30.278476 27.512477 7.856571 41.658711 0.737573 1.381066 0.062267 -0.020134 -71113.900000 0 0 1
31.472406 28.005977 7.310071 42.758441 0.727184 1.398990 0.038605 -0.007769 -221744.000000 0 0 1
31.253876 28.942177 6.159671 43.039470 0.747014 1.427186 0.048689 -0.007608 17301.300000 0 0 1
31.225656 30.272777 6.588271 43.987361 0.769905 1.420454 0.048005 -0.011745 135186.000000 0 0 1
30.887736 31.119477 5.476171 44.186678 0.789135 1.446544 0.061213 -0.016871 136564.000000 0 0 1
31.011356 32.620477 5.792071 45.380038 0.810681 1.442812 0.040333 -0.015216 217066.000000 0 0 1
29.903776 33.165577 6.491071 45.125662 0.837070 1.426451 0.041731 -0.025577 97913.300000 0 0 1
29.880446 -33.637964 6.578471 45.471199 -0.844486 1.425613 0.044372 -0.022638 83392.300000 0 0 1
28.601246 -33.003064 7.208371 44.262785 -0.856730 1.407214 0.088557 -0.033415 763654.000000 0 0 1
27.464516 -33.266264 6.378971 43.607743 -0.880641 1.423989 0.077144 -0.037048 -226603.000000 0 0 1
26.321516 -32.626964 6.898071 42.484401 -0.891958 1.407707 0.062836 -0.042012 13236.500000 0 0 1
25.082216 -32.805764 6.000471 41.729382 -0.918037 1.426501 0.074787 -0.028383 -124937.000000 0 0 1
25.206416 -32.085664 4.767171 41.080155 -0.904899 1.454489 0.052964 -0.007443 -311809.000000 0 0 1
24.106016 -32.131564 3.895071 40.357267 -0.927149 1.474131 0.047411 -0.013812 -336651.000000 0 0 1
24.340016 -31.491264 2.513971 39.880523 -0.912791 1.507717 0.045039 0.008895 -344989.000000 0 0 1
24.504716 -30.083664 2.509671 38.881954 -0.887245 1.506206 0.054529 0.010126 43875.400000 0 0 1
24.980916 -29.662464 1.265671 38.800900 -0.870864 1.538171 0.043881 0.013447 -331355.000000 0 0 1
25.423216 -28.161764 1.328971 37.963022 -0.836460 1.535782 0.050673 0.000625 -17922.400000 0 0 1
24.416716 -27.162064 1.396271 36.550011 -0.838574 1.532585 0.048408 -0.001482 -95494.600000 0 0 1
23.751216 -26.978464 0.186171 35.944296 -0.848929 1.565617 0.042905 -0.003987 -49180.600000 0 0 1
22.572516 -25.961564 0.107571 34.402512 -0.855113 1.567669 0.031841 0.003955 258838.000000 0 0 1
22.911016 -24.525264 0.278571 33.563087 -0.819415 1.562496 0.033866 -0.004205 -168604.000000 0 0 1
22.997716 -24.038964 1.622271 33.307634 -0.807531 1.522071 0.029062 0.001779 1019920.000000 0 0 1
21.634916 -24.014064 2.429271 32.413673 -0.837469 1.495780 0.028823 0.003095 913539.000000 0 0 1
21.763216 -23.174264 3.566171 31.990649 -0.816788 1.459089 0.033487 -0.005201 -193356.000000 0 0 1
20.515616 -23.037764 4.206971 31.134027 -0.843243 1.435257 0.015837 0.000115 -3813.970000 0 0 1
20.523516 -22.177364 5.484471 30.710415 -0.824110 1.391246 0.012423 -0.009603 -307831.000000 0 0 1
20.710616 -20.782664 5.410271 29.834875 -0.787135 1.388447 0.042129 -0.012743 337271.000000 0 0 1
19.565616 -20.007764 5.062871 28.438646 -0.796571 1.391814 0.030849 -0.009334 -59058.700000 0 0 1
19.635516 -18.531364 5.560171 27.565929 -0.756477 1.367698 0.044392 -0.007678 132048.000000 0 0 1
19.504016 -18.388864 6.981671 27.700193 -0.755978 1.316004 0.059472 -0.018843 44394.000000 0 0 1
18.153516 -18.381464 7.406871 26.875455 -0.791637 1.291583 0.052408 0.003486 82658.000000 0 0 1
18.531978 -25.880183 -11.849629 33.965155 -0.949367 1.927168 0.106149 -0.026855 134650.000000 0 0 1
18.907878 -24.685723 -12.486829 33.508412 -0.917169 1.952657 0.127357 -0.027846 -221525.000000 0 0 1
17.749878 -24.051823 -12.942829 32.573995 -0.935029 1.979409 0.093104 -0.025922 -123851.000000 0 0 1
18.073178 -22.525523 -13.188429 31.748600 -0.894629 1.999181 0.090937 -0.028367 87822.200000 0 0 1
18.133178 -21.757123 -11.984329 30.754002 -0.875997 1.971084 0.091589 -0.037538 -358773.000000 0 0 1
19.351278 -21.699323 -11.290329 31.189807 -0.842535 1.941196 0.092022 -0.040631 -1006800.000000 0 0 1
19.331078 -22.533023 -9.949829 31.311767 -0.861734 1.894169 0.087906 -0.029467 -276917.000000 0 0 1
18.477278 -22.152023 -8.908429 30.190760 -0.875598 1.870327 0.079507 -0.028372 -1068150.000000 0 0 1
17.160678 -22.460923 -9.207229 29.728017 -0.918380 1.885690 0.077324 -0.014805 -1392400.000000 0 0 1
16.212478 -21.815823 -8.185229 28.386133 -0.931692 1.863303 0.058766 -0.019917 -1708300.000000 0 0 1
16.264678 -20.434023 -8.268329 27.394421 -0.898523 1.877403 0.052754 -0.026831 102394.000000 0 0 1
15.309478 -19.678223 -7.581029 26.059251 -0.909620 1.865979 0.041888 -0.028404 -1036440.000000 0 0 1
13.856978 -19.828423 -7.952329 25.464126 -0.960846 1.888405 0.021087 -0.008934 -1360990.000000 0 0 1
13.342078 -21.132423 -7.744329 26.164192 -1.007640 1.871288 0.016601 -0.009133 74774.000000 0 0 1
11.933378 -21.103823 -8.021729 25.536738 -1.056161 1.890331 0.012887 -0.008062 478245.000000 0 0 1
11.361078 -22.488723 -7.716729 26.350800 -1.103005 1.867998 0.014356 -0.003425 -492737.000000 0 0 1
11.143878 -22.682423 -6.362029 26.060578 -1.114133 1.817413 0.021429 -0.012998 358652.000000 0 0 1
10.515878 -23.929723 -6.112229 26.843522 -1.156752 1.800510 0.016377 -0.013239 82308.800000 0 0 1
10.850578 -24.406623 -4.668029 27.114733 -1.152463 1.743817 0.035355 -0.022518 450404.000000 0 0 1
10.008778 -25.430983 -4.091229 27.634194 -1.195849 1.719392 0.037650 -0.024617 42177.900000 0 0 1
10.659678 -25.873253 -2.952329 28.138411 -1.179991 1.675911 0.041384 -0.021235 -234089.000000 0 0 1
9.819878 -26.813253 -2.028829 28.626852 -1.219735 1.641727 0.052558 -0.017224 202518.000000 0 0 1
8.876578 -26.014723 -1.333329 27.519760 -1.241970 1.619265 0.048780 -0.016443 -461615.000000 0 0 1
8.319578 -26.802083 -0.356529 28.065889 -1.269819 1.583500 0.056072 -0.019172 -127064.000000 0 0 1
7.364178 -26.084233 0.602971 27.110549 -1.295635 1.548553 0.056515 -0.015715 401170.000000 0 0 1
6.078678 -25.689493 0.129371 26.399187 -1.338449 1.565896 0.059227 -0.019519 301440.000000 0 0 1
5.407078 -25.138523 1.296071 25.746099 -1.358933 1.520435 0.073061 -0.018147 47839.100000 0 0 1
3.969578 -24.701823 0.959571 25.037140 -1.411459 1.532461 0.046522 -0.025073 383278.000000 0 0 1
3.149478 -25.833583 0.632171 26.032534 -1.449481 1.546510 0.040088 -0.029240 383612.000000 0 0 1
1.797678 -25.536873 0.323871 25.602117 -1.500517 1.558146 0.032153 -0.024173 736522.000000 0 0 1
0.903578 -26.661203 -0.293129 26.678120 -1.536918 1.581784 0.034305 -0.023775 195134.000000 0 0 1
0.405678 -27.617443 0.586671 27.626652 -1.556108 1.549559 0.036745 -0.015528 611715.000000 0 0 1
1.304878 -28.758173 0.691871 28.796074 -1.525453 1.546767 0.016975 -0.015716 365541.000000 0 0 1
0.658478 -29.789013 1.645071 29.841668 -1.548695 1.515642 0.043668 -0.016638 250775.000000 0 0 1
0.826978 -29.513863 3.002471 29.677716 -1.542784 1.469454 0.030798 -0.015055 105776.000000 0 0 1
0.186478 -30.561203 3.690571 30.783798 -1.564695 1.450620 0.046875 -0.015660 -157948.000000 0 0 1
0.544578 -30.451183 5.165371 30.890972 -1.552915 1.402794 0.043754 -0.015795 158905.000000 0 0 1
1.920078 -30.608743 5.489171 31.156265 -1.508149 1.393690 0.020788 -0.003745 300838.000000 0 0 1
1.994078 -30.568503 6.929171 31.407374 -1.505656 1.348344 0.029155 -0.009784 -72114.600000 0 0 1
3.425078 -30.887063 7.372371 31.938905 -1.460357 1.337868 0.036164 -0.008413 -96789.700000 0 0 1
3.707378 -32.300513 7.317171 33.325797 -1.456519 1.349428 0.030361 -0.014847 40433.000000 0 0 1
5.017378 -32.644593 7.736471 33.921918 -1.418293 1.340704 0.029461 -0.013661 209284.000000 0 0 1
5.152278 34.033012 7.472671 35.222616 1.420547 1.357016 0.014196 -0.004210 -212127.000000 0 0 1
5.161278 33.735487 6.127171 34.673680 1.418981 1.393154 0.010545 0.001664 -91475.700000 0 0 1
4.907578 32.356505 5.854171 33.246038 1.420272 1.393787 0.010948 -0.003017 -650976.000000 0 0 1
5.120878 31.848089 4.380471 32.553228 1.411370 1.435824 0.024388 -0.001623 2338090.000000 0 0 1
6.565078 31.682279 4.102271 32.614347 1.366472 1.444681 0.039021 -0.001145 2000800.000000 0 0 1
7.218478 30.583709 4.706671 31.774556 1.339015 1.422122 0.035378 -0.004243 154083.000000 0 0 1
8.669078 30.420359 4.145871 31.902028 1.293179 1.440471 0.036795 0.000374 51641.400000 0 0 1
9.613978 31.365179 4.577571 33.123363 1.273371 1.432155 0.037942 -0.009531 -531881.000000 0 0 1
10.801878 30.952399 3.929371 33.017745 1.235027 1.451506 0.037497 -0.011403 -458034.000000 0 0 1
12.043078 31.440909 4.673471 33.991290 1.204997 1.432869 0.041487 -0.012061 -281193.000000 0 0 1
12.533778 30.629109 5.767771 33.593230 1.182374 1.398247 0.048427 -0.020026 -632612.000000 0 0 1
13.688578 31.167439 6.300371 34.619085 1.156964 1.387785 0.066795 -0.020419 -663274.000000 0 0 1
14.404978 30.180459 7.264471 34.221865 1.125477 1.356893 0.060558 -0.025786 -66587.100000 0 0 1
13.746578 29.849419 8.487371 33.941003 1.139220 1.318052 0.051279 -0.021179 394080.000000 0 0 1
14.506678 28.835339 9.156471 33.552368 1.104682 1.294389 0.049871 -0.016303 354305.000000 0 0 1
14.276978 28.816699 10.628371 33.870289 1.110802 1.251608 0.042511 -0.011701 250259.000000 0 0 1
15.037978 29.807069 11.321371 35.253022 1.103547 1.243857 0.044024 -0.009028 485351.000000 0 0 1
14.650578 29.758549 12.719871 35.524721 1.113316 1.204610 0.040847 -0.005860 366601.000000 0 0 1
15.491678 30.819769 13.484471 37.036215 1.105028 1.198142 0.042055 -0.012052 171862.000000 0 0 1
16.647678 30.377979 14.154671 37.420870 1.069476 1.182885 0.033206 -0.011180 -181050.000000 0 0 1
17.242178 31.458089 14.824671 38.815911 1.069413 1.178921 0.038968 -0.008750 -83520.800000 0 0 1
18.477678 31.028999 15.649971 39.359179 1.033694 1.161876 0.038075 -0.005927 1294200.000000 0 0 1
19.749278 30.740669 15.018171 39.504027 0.999748 1.180818 0.037945 0.000547 1098370.000000 0 0 1
19.880478 29.402009 14.649571 38.396894 0.976250 1.179345 0.037185 0.008045 1272080.000000 0 0 1
21.345278 29.034079 14.133071 38.708427 0.936848 1.197039 0.061945 -0.000237 1257180.000000 0 0 1
22.364478 28.981149 15.075771 39.589844 0.913557 1.180136 0.068598 -0.007235 288673.000000 0 0 1
23.664878 29.200599 14.505371 40.287805 0.889731 1.202482 0.081812 -0.006332 610080.000000 0 0 1
24.788678 29.378989 15.522871 41.455555 0.869939 1.186997 0.099506 -0.014069 -272381.000000 0 0 1
25.005378 28.165659 16.256071 41.022349 0.844764 1.163342 0.078039 -0.009205 62150.200000 0 0 1
25.690478 28.362629 17.499371 42.079298 0.834794 1.141901 0.073371 -0.020395 46369.500000 0 0 1
26.453478 27.085509 18.002871 41.922722 0.797203 1.126935 0.038269 -0.019166 468108.000000 0 0 1
25.614078 25.949049 18.345571 40.816591 0.791894 1.104632 0.020805 -0.009991 456232.000000 0 0 1
25.125478 26.034619 19.674671 41.184751 0.803167 1.072742 0.047190 -0.013880 -459232.000000 0 0 1
24.672778 24.604749 19.987471 40.170121 0.784018 1.050001 0.049389 -0.016923 522842.000000 0 0 1
25.756778 23.636119 20.227971 40.388718 0.742490 1.046236 0.031963 -0.014051 720004.000000 0 0 1
25.290878 22.374419 20.605271 39.557810 0.724288 1.022903 0.034275 -0.015330 -684687.000000 0 0 1
26.300878 21.225719 20.623071 39.592656 0.679016 1.022913 0.010533 -0.015504 -610462.000000 0 0 1
25.797878 19.913719 20.675371 38.594788 0.657379 1.005455 0.002092 -0.002770 749514.000000 0 0 1
26.861378 18.914219 20.831671 38.900383 0.613500 1.005681 0.013799 -0.011500 937624.000000 0 0 1
27.230878 18.682819 22.343071 39.872061 0.601329 0.975965 0.012449 -0.004395 -325531.000000 0 0 1
26.284578 17.881319 22.979471 39.225970 0.597380 0.944901 0.016276 0.006221 117175.000000 0 0 1
26.755278 17.528119 24.255371 40.142283 0.579971 0.921991 0.038204 0.009759 557283.000000 0 0 1
25.570078 16.843519 25.022571 39.543167 0.582481 0.885644 0.025590 0.008798 616754.000000 0 0 1
25.297878 15.581119 24.386971 38.437979 0.552033 0.883500 0.023046 0.002433 443204.000000 0 0 1
24.165978 14.932719 24.953571 37.810862 0.553494 0.850034 0.032246 0.002033 107709.000000 0 0 1
23.697478 13.567419 24.457071 36.657791 0.519973 0.840390 0.024563 0.010205 -312201.000000 0 0 1
22.472778 13.194819 25.038671 36.139508 0.530915 0.805385 0.003146 0.008404 166484.000000 0 0 1
21.871378 12.153219 24.217571 34.821669 0.507184 0.801717 0.001601 0.013200 337719.000000 0 0 1
20.519978 11.568219 24.717371 34.144423 0.513341 0.761348 -0.001631 0.006046 782276.000000 0 0 1
19.444178 12.466019 24.406871 33.603170 0.570106 0.757834 0.002677 -0.000925 1334920.000000 0 0 1
18.159478 11.794019 24.411171 32.630826 0.576002 0.725600 0.009408 -0.002408 1961390.000000 0 0 1
16.898178 12.669019 24.796371 32.571652 0.643326 0.705501 0.018004 -0.007878 675487.000000 0 0 1
16.927478 13.100619 26.137171 33.783390 0.658639 0.686184 0.022398 -0.003019 -7060.670000 0 0 1
15.784178 13.778019 26.578571 33.843678 0.717640 0.667562 0.035958 -0.006971 -322098.000000 0 0 1
15.813678 13.905619 28.105971 35.119571 0.721283 0.643011 0.025602 -0.007625 -294104.000000 0 0 1
15.622878 12.690719 28.898471 35.217188 0.682206 0.608374 0.055286 -0.005811 70123.800000 0 0 1
15.826878 12.843119 30.279171 36.500192 0.681699 0.592473 0.044292 -0.012500 -293421.000000 0 0 1
17.311578 12.780019 30.686571 37.479131 0.635929 0.611541 0.037281 -0.009496 -271541.000000 0 0 1
18.014778 13.897719 30.190371 37.803933 0.657096 0.645824 0.030639 -0.012144 -216003.000000 0 0 1
19.386178 13.623319 30.016471 38.241434 0.612558 0.668229 0.025267 -0.003462 -325654.000000 0 0 1
20.164778 14.913119 29.575571 38.778007 0.636788 0.703335 0.035777 -0.004516 -311317.000000 0 0 1
19.834178 15.465019 28.294071 37.856517 0.662249 0.726652 0.033106 -0.007443 341062.000000 0 0 1
20.023178 14.561419 27.208571 36.786804 0.628767 0.738278 0.029576 0.000825 -288052.000000 0 0 1
19.693378 15.361219 25.964371 36.027000 0.662438 0.765996 0.018162 -0.000591 -189890.000000 0 0 1
20.799278 16.147819 25.604071 36.727789 0.660162 0.799409 0.028319 0.005770 293537.000000 0 0 1
20.546078 16.747119 24.351371 35.994397 0.683881 0.827753 0.024554 -0.008534 955310.000000 0 0 1
21.848278 17.549119 23.905771 36.834830 0.676705 0.864528 0.032395 -0.012723 580239.000000 0 0 1
21.741478 18.253219 22.688071 36.340342 0.698400 0.896533 0.039903 -0.020421 -579612.000000 0 0 1
22.905578 18.832119 22.168271 37.023593 0.688110 0.928843 0.036115 -0.016029 -278212.000000 0 0 1
23.245278 20.174519 22.915771 38.372995 0.714793 0.930810 0.054809 -0.022756 62889.400000 0 0 1
22.194878 21.096919 22.738571 38.140991 0.760042 0.932072 0.054970 -0.023879 76358.000000 0 0 1
22.609378 22.241919 23.394371 39.410449 0.777206 0.935261 0.072168 -0.025182 426823.000000 0 0 1
21.762578 23.546059 23.143871 39.543210 0.824741 0.945570 0.063658 -0.027019 326873.000000 0 0 1
21.913378 24.065979 21.820071 39.185239 0.832181 0.980215 0.067666 -0.023355 -518290.000000 0 0 1
21.060378 25.118549 21.714271 39.319087 0.873052 0.985726 0.068253 -0.017131 -599639.000000 0 0 1
21.440278 26.134379 20.576871 39.573967 0.883748 1.023992 0.066113 -0.014351 -372975.000000 0 0 1
21.481678 25.638159 19.272771 38.603334 0.873381 1.048062 0.057539 -0.017958 65105.100000 0 0 1
21.789278 26.579179 18.302871 38.938676 0.884106 1.081456 0.058344 -0.013217 -435861.000000 0 0 1
21.700378 26.025479 16.845871 37.841978 0.875775 1.109439 0.050518 -0.004195 102231.000000 0 0 1
20.363278 25.968849 16.394071 36.848470 0.905800 1.109728 0.049751 -0.007235 -137818.000000 0 0 1
20.379178 25.638629 15.026871 36.034109 0.899196 1.140634 0.060622 -0.010042 -267742.000000 0 0 1
19.144478 24.873159 14.475071 34.564617 0.914816 1.138692 0.057020 -0.013235 826518.000000 0 0 1
18.020878 25.605529 13.969671 34.286249 0.957532 1.151145 0.052638 -0.007219 333867.000000 0 0 1
17.229878 26.118399 15.010671 34.703886 0.987644 1.123493 0.058647 -0.009685 -2214210.000000 0 0 1
15.829678 26.601979 14.639471 34.242636 1.034020 1.129047 0.054338 -0.005911 -317316.000000 0 0 1
14.863478 25.574339 14.380071 32.890063 1.044325 1.118295 0.058790 -0.015544 394039.000000 0 0 1
14.544078 24.619299 15.386071 32.471083 1.037199 1.077151 0.069997 -0.024505 -1146520.000000 0 0 1
13.658178 25.100339 16.494271 32.994451 1.072461 1.047301 0.071223 -0.025824 -278988.000000 0 0 1
14.407178 26.070719 17.282371 34.437327 1.065944 1.045060 0.057521 -0.020982 707562.000000 0 0 1
13.647578 26.569339 18.350171 35.055883 1.096281 1.019896 0.056738 -0.029410 -127290.000000 0 0 1
14.313778 27.830699 18.965671 36.594108 1.095761 1.025968 0.056981 -0.029513 -230877.000000 0 0 1
14.438478 28.874149 17.996571 36.960285 1.107110 1.062240 0.051476 -0.026072 -30530.700000 0 0 1
15.138478 29.964589 18.445071 38.304970 1.102988 1.068394 0.035041 -0.023636 -644341.000000 0 0 1
14.851778 31.280169 17.656171 38.868556 1.127512 1.099262 0.047276 -0.021123 90500.400000 0 0 1
13.543078 31.794499 17.816571 38.881041 1.168116 1.094790 0.049333 -0.021753 55404.600000 0 0 1
13.341178 32.997829 17.050171 39.465834 1.186584 1.124061 0.050681 -0.018203 1046990.000000 0 0 1
11.915878 33.708755 17.097971 39.630908 1.231011 1.124719 0.055655 -0.023117 1050050.000000 0 0 1
11.830978 -33.188133 16.438071 38.879743 -1.228358 1.134272 0.054244 -0.017249 17205.900000 0 0 1
12.512378 -32.094293 17.107271 38.461175 -1.199059 1.109853 0.048591 -0.016610 234560.000000 0 0 1
12.328578 -31.942703 18.678571 39.002809 -1.202452 1.071391 0.052699 -0.027715 172864.000000 0 0 1
13.177978 -32.847243 19.406671 40.363589 -1.189265 1.069233 0.059689 -0.027767 600440.000000 0 0 1
12.891978 -32.674573 20.807171 40.826084 -1.194991 1.036014 0.055593 -0.032126 -44368.400000 0 0 1
14.012678 -33.183283 21.766571 42.086447 -1.171231 1.027235 0.054481 -0.035915 776814.000000 0 0 1
15.221478 -32.415173 21.671471 41.857968 -1.131780 1.026591 0.051726 -0.030692 -181388.000000 0 0 1
16.206578 -32.919523 22.495371 43.039399 -1.113320 1.020817 0.058267 -0.030895 591106.000000 0 0 1
17.602678 -32.197153 22.270571 42.924227 -1.070478 1.025309 0.088495 -0.032902 904133.000000 0 0 1
17.713978 -30.813693 22.612271 42.125805 -1.049057 1.004181 0.098532 -0.039596 -411943.000000 0 0 1
18.968778 -30.420023 22.161071 42.146238 -1.013232 1.017125 0.097802 -0.030719 -784355.000000 0 0 1
-5.035722 12.883977 18.440464 23.052247 -1.198201 0.643598 0.025314 -0.002901 -191658.000000 0 1 0
-4.820022 14.110177 17.771664 23.198314 -1.241625 0.698083 0.027581 -0.006842 -247514.000000 0 1 0
-5.968722 14.885677 17.913564 24.043810 -1.189453 0.730204 0.030838 -0.009150 -532030.000000 0 1 0
-5.768022 16.400977 17.531264 24.690228 -1.232619 0.781229 0.034590 -0.009682 -77903.900000 0 1 0
-4.979922 16.997477 18.560564 25.655572 -1.285792 0.762007 0.015342 -0.005489 384734.000000 0 0 1
-4.759422 18.328877 18.213164 26.273926 -1.316739 0.804873 0.010294 0.001496 -412845.000000 0 0 1
-4.160022 19.120777 19.394364 27.550885 -1.356569 0.789857 0.013954 -0.002364 -130546.000000 0 0 1
-5.050322 19.323677 20.485764 28.610781 -1.315160 0.772719 -0.000203 -0.000340 229376.000000 0 0 1
-4.463522 20.094577 21.543164 29.796359 -1.352219 0.762642 0.013075 0.005126 -144200.000000 0 0 1
-5.381322 20.288477 22.771064 30.969377 -1.311526 0.744721 0.005965 0.008491 24396.300000 0 0 1
-5.546922 19.092677 23.518134 30.796125 -1.288054 0.701815 0.002763 0.002036 -405676.000000 0 0 1
-6.430022 19.153777 24.597594 31.831651 -1.246913 0.687649 -0.000812 -0.001393 -366579.000000 0 0 1
-5.900422 19.810477 25.847094 33.095955 -1.281319 0.674572 0.001802 -0.004475 -565469.000000 0 0 1
-5.579322 21.199077 25.685714 33.768115 -1.313445 0.706483 0.008520 -0.010747 85358.700000 0 0 1
-4.679422 21.584077 26.723364 34.668539 -1.357301 0.690662 0.026296 -0.009426 1077000.000000 0 0 1
-3.152622 21.461877 26.340494 34.122908 -1.424945 0.688925 0.042642 -0.000360 798647.000000 0 0 1
-2.592722 20.234677 26.889464 33.752150 -1.443358 0.649024 0.039343 0.004132 -341081.000000 0 0 1
-1.278222 20.124877 26.448484 33.259087 -1.507367 0.651416 0.039783 0.009467 -405465.000000 0 0 1
-0.493622 18.848077 26.872854 32.827488 -1.544613 0.611813 0.031918 0.014490 -99267.000000 0 0 1
-1.056722 17.620177 26.398144 31.756091 -1.510896 0.589393 0.036222 0.009645 67852.000000 0 0 1
-0.375522 16.437977 26.835124 31.471765 -1.547956 0.549716 0.035917 0.004316 -204075.000000 0 0 1
1.064078 16.218877 26.347534 30.957661 1.505283 0.552752 0.051578 0.004299 -572624.000000 0 0 1
1.263378 15.976077 24.972794 29.672742 1.491881 0.570544 0.043329 0.003502 -175687.000000 0 0 1
0.862578 14.645477 24.628824 28.667281 1.511967 0.537236 0.048747 -0.001092 -97341.300000 0 0 1
0.904078 14.546777 23.092164 27.307034 1.508726 0.563017 0.056382 -0.011331 -51617.700000 0 0 1
2.209778 14.412077 22.591364 26.887931 1.418653 0.573136 0.057398 -0.009296 -249054.000000 0 0 1
2.180878 13.774377 21.364064 25.512995 1.413771 0.578325 0.046009 -0.006624 384764.000000 0 0 1
3.599378 13.618577 20.740764 25.071906 1.312406 0.596599 0.030058 -0.006699 309770.000000 0 0 1
4.172678 14.797577 20.304064 25.468305 1.295949 0.648106 0.040212 -0.002471 -16107.400000 0 0 1
5.582778 14.635077 20.229364 25.584763 1.206369 0.658877 0.047843 -0.006149 308676.000000 0 0 1
6.214978 15.656577 19.224264 25.560256 1.192917 0.719530 0.060155 -0.015414 -16991.100000 0 0 1
5.997878 15.271277 17.862364 24.253876 1.196551 0.742952 0.053939 -0.023995 168827.000000 0 1 0
6.342078 16.367577 16.994864 24.432457 1.201131 0.801562 0.053803 -0.014921 -146506.000000 0 1 0
6.341578 15.968277 15.511964 23.147841 1.192761 0.836418 0.037418 -0.013404 58683.500000 0 1 0
7.356278 15.118377 15.019864 22.544988 1.117943 0.841671 0.036596 -0.016447 60753.200000 0 1 0
7.637178 13.880877 15.725864 22.322815 1.067804 0.789113 0.044335 -0.014152 -202632.000000 0 1 0
8.720478 12.996377 15.060364 21.720201 0.979805 0.804626 0.044376 -0.017234 -199937.000000 0 1 0
9.995778 13.575177 15.079964 22.618717 0.936103 0.841020 0.051200 -0.021882 -173062.000000 0 1 0
10.965178 12.635677 14.612364 22.212984 0.856062 0.852863 0.058629 -0.010413 -994414.000000 0 1 0
12.305478 13.246677 14.403364 23.116145 0.822216 0.898113 0.055914 -0.013850 -1956240.000000 0 1 0
13.140878 13.292077 15.556364 24.317945 0.791118 0.876679 0.065381 -0.017371 620414.000000 0 1 0
14.323178 14.082777 15.381864 25.299798 0.776935 0.917278 0.058445 -0.016218 225052.000000 0 0 1
15.427278 13.349577 14.634064 25.107130 0.713323 0.948546 0.046145 -0.017813 -1612940.000000 0 0 1
16.674778 13.966677 14.710064 26.258376 0.697247 0.976163 0.044782 -0.029146 -64577.500000 0 0 1
17.614378 13.438377 13.787964 26.095292 0.651719 1.014117 0.039427 -0.023982 248812.000000 0 0 1
19.044878 14.017277 13.910464 27.435241 0.634489 1.039062 0.030096 -0.025774 -111536.000000 0 0 1
19.599178 13.820577 15.128464 28.355010 0.614181 1.008019 -0.005567 -0.028780 -363227.000000 0 0 1
20.932378 14.308077 15.099264 29.510563 0.599592 1.033685 0.016554 -0.036429 -97548.100000 0 0 1
21.672778 13.765877 16.335164 30.431009 0.565878 1.004164 0.034192 -0.027989 -402523.000000 0 0 1
21.953878 12.413677 16.108164 29.925660 0.514623 1.002410 0.032778 -0.027644 315160.000000 0 0 1
22.837178 11.960977 17.125564 30.949744 0.482467 0.984434 0.020445 -0.025288 -69205.000000 0 0 1
23.287678 10.475177 17.131864 30.749733 0.422701 0.979860 0.036911 -0.012187 -342574.000000 0 0 1
22.295678 9.680477 17.710464 30.074398 0.409626 0.941114 0.025156 -0.002063 184887.000000 0 0 1
22.267678 8.440777 17.089964 29.311484 0.362325 0.948323 0.033467 0.005081 -771897.000000 0 0 1
21.148978 7.614477 17.697764 28.608922 0.345591 0.903824 0.046963 -0.000959 -650649.000000 0 0 1
21.052178 6.297277 17.220964 27.917942 0.290656 0.906072 0.066713 -0.007234 123683.000000 0 0 1
20.096978 5.545577 17.913664 27.487112 0.269241 0.860958 0.062144 -0.010563 -438789.000000 0 0 1
19.766378 4.123077 17.409564 26.660878 0.205642 0.859257 0.088822 -0.006674 -286721.000000 0 0 1
18.963478 4.184377 16.211664 25.297047 0.217175 0.875189 0.089856 -0.019953 626915.000000 0 0 1
18.672878 2.914677 15.609764 24.511966 0.154842 0.880427 0.091775 -0.026225 173472.000000 0 1 0
17.745478 1.932577 16.390864 24.234217 0.108478 0.827997 0.096201 -0.019877 152212.000000 0 1 0
18.488078 1.261477 17.394664 25.416032 0.068126 0.817020 0.106554 -0.022081 558935.000000 0 0 1
17.571378 0.885177 18.429164 25.478834 0.050334 0.762209 0.085915 -0.015183 81088.000000 0 0 1
18.147478 0.204977 19.649264 26.748207 0.011295 0.745718 0.100648 -0.016424 -276590.000000 0 0 1
18.517778 -1.176923 19.497164 26.915287 -0.063471 0.760647 0.104315 -0.011464 578230.000000 0 0 1
17.405378 -2.067423 19.676764 26.351404 -0.118227 0.727700 0.081546 -0.002156 365126.000000 0 0 1
17.580078 -3.452623 18.996464 26.112170 -0.193926 0.756133 0.061672 0.001806 -111173.000000 0 0 1
17.473978 -3.432723 17.575264 25.020260 -0.193978 0.791975 0.079596 -0.011612 257514.000000 0 0 1
17.522578 -4.729423 17.080164 24.922684 -0.263623 0.815745 0.089560 -0.009376 -224303.000000 0 1 0
17.093578 -4.860023 15.595464 23.643788 -0.277009 0.850509 0.081722 -0.016392 90604.600000 0 1 0
15.710978 -4.620123 15.370464 22.459553 -0.286007 0.817068 0.070056 -0.018263 339584.000000 0 1 0
15.371378 -4.553923 14.009564 21.290499 -0.288022 0.852611 0.066267 -0.021998 47706.600000 0 1 0
15.799678 -3.268723 13.244164 20.873961 -0.204007 0.883457 0.072085 -0.020097 -157866.000000 0 1 0
15.055378 -2.077623 13.490564 20.321817 -0.137133 0.844846 0.064853 -0.015519 214169.000000 0 1 0
15.537978 -0.921623 12.813564 20.160991 -0.059245 0.882060 0.066351 -0.022623 -259254.000000 0 1 0
14.551378 0.250777 12.937064 19.472368 0.017232 0.844132 0.070076 -0.020754 -569692.000000 0 1 0
14.871678 1.526477 12.393664 19.419059 0.102285 0.878610 0.069343 -0.022822 579843.000000 0 1 0
15.901678 2.218877 13.145064 20.750410 0.138642 0.884748 0.088038 -0.028751 493279.000000 0 1 0
16.145978 3.670777 12.631764 20.826154 0.223549 0.919103 0.086022 -0.029925 -768295.000000 0 1 0
15.102778 4.457177 13.018264 20.431239 0.286977 0.879970 0.073750 -0.024389 -335001.000000 0 1 0
15.183378 5.645877 12.213764 20.287605 0.356003 0.924754 0.085035 -0.030637 1210190.000000 0 1 0
13.971778 6.633877 12.607664 19.954250 0.443290 0.886886 0.064799 -0.023347 1025020.000000 0 1 0
14.117478 7.844477 11.858064 20.036285 0.507176 0.937470 0.054008 -0.029141 316128.000000 0 1 0
13.322578 8.943077 12.313264 20.225879 0.591184 0.916265 0.052109 -0.012439 -130559.000000 0 1 0
13.699278 9.593677 13.659364 21.593682 0.610931 0.885938 0.066519 -0.018094 2192.680000 0 1 0
13.271878 8.924077 14.851564 21.825464 0.591965 0.822393 0.064584 -0.018627 613334.000000 0 1 0
13.761078 9.612277 15.990164 23.182935 0.609727 0.809668 0.070028 -0.023841 -103947.000000 0 1 0
13.217378 8.958377 17.241564 23.499429 0.595652 0.747043 0.060991 -0.030996 93382.800000 0 1 0
11.886578 9.304077 17.601064 23.187368 0.664126 0.708898 0.043176 -0.023828 325316.000000 0 1 0
11.305978 8.596777 18.682264 23.468206 0.650108 0.650028 0.044191 -0.017488 -189386.000000 0 1 0
11.908778 8.840977 20.063464 24.950440 0.638614 0.636581 0.053540 -0.019465 81459.100000 0 1 0
13.184778 8.191977 20.133764 25.422732 0.555949 0.656785 0.061997 -0.023864 607835.000000 0 0 1
13.750978 8.402577 21.456064 26.833848 0.548507 0.644185 0.046960 -0.016350 -337720.000000 0 0 1
15.270978 8.255477 21.436764 27.584244 0.495597 0.680691 0.035720 -0.009745 -270703.000000 0 0 1
15.973878 9.308077 20.788764 27.820457 0.527606 0.726886 0.039848 -0.011757 -3384.070000 0 0 1
16.928478 8.801877 19.893864 27.564692 0.479476 0.764519 0.027624 -0.012031 -343514.000000 0 0 1
17.587878 9.890777 19.024764 27.732699 0.512286 0.814813 0.037089 -0.014585 322623.000000 0 0 1
18.536678 10.687877 19.761364 29.126460 0.523021 0.825121 0.026184 -0.015109 659810.000000 0 0 1
19.311478 11.522977 18.914664 29.384974 0.537983 0.871493 0.033057 -0.020458 233809.000000 0 0 1
20.409378 12.318977 19.629064 30.880416 0.543058 0.881949 0.016849 -0.015865 -357270.000000 0 0 1
19.725478 13.377377 20.296264 31.304745 0.595929 0.865388 0.014495 -0.014477 755273.000000 0 0 1
20.543278 14.050177 21.250564 32.726446 0.599860 0.864081 0.014577 -0.012966 -409798.000000 0 0 1
21.770778 14.830677 20.817164 33.574843 0.598010 0.902025 0.002156 -0.009578 -21262.000000 0 0 1
22.906678 14.000677 20.522064 33.791863 0.548618 0.918129 -0.007974 -0.001077 512666.000000 0 0 1
24.094278 14.793577 20.580864 34.970790 0.550641 0.941574 0.000658 -0.011004 319650.000000 0 0 1
25.367178 13.919977 20.617764 35.529589 0.501875 0.951701 0.015233 -0.012974 -47558.500000 0 0 1
25.624178 13.306377 19.337864 34.750700 0.478960 0.980660 0.028332 -0.027743 -387682.000000 0 0 1
26.858378 12.678877 19.295464 35.418093 0.441050 0.994656 0.055452 -0.028137 -716331.000000 0 0 1
27.163978 11.889177 18.015464 34.695694 0.412563 1.024832 0.071210 -0.032874 -150940.000000 0 0 1
27.700878 12.652377 16.932764 34.844509 0.428453 1.063344 0.075528 -0.041282 200241.000000 0 0 1
27.744178 11.891077 15.721864 34.034015 0.404914 1.090609 0.085728 -0.037349 -757022.000000 0 0 1
26.502378 11.517277 14.933564 32.527451 0.409953 1.093807 0.063097 -0.044768 -739475.000000 0 0 1
25.864478 12.653877 14.340164 32.167253 0.455001 1.108728 0.082613 -0.050356 -149165.000000 0 0 1
24.708478 12.176077 13.691664 30.760810 0.457863 1.109509 0.076321 -0.042693 -98154.700000 0 0 1
24.123078 13.256277 12.736064 30.329179 0.502480 1.137431 0.068209 -0.038610 -101981.000000 0 0 1
23.742878 14.394877 13.472364 30.861649 0.545026 1.119046 0.043955 -0.036884 311871.000000 0 0 1
24.306278 15.599377 12.919964 31.639551 0.570578 1.150152 0.040262 -0.027605 145453.000000 0 0 1
23.491778 16.859877 13.376464 31.859832 0.622502 1.137512 0.036899 -0.030332 -79416.400000 0 0 1
22.220778 16.914577 12.791264 30.716158 0.650634 1.141276 0.040401 -0.044870 -610054.000000 0 0 1
21.404878 17.835477 13.441564 30.934588 0.694685 1.121296 0.044958 -0.037431 -471400.000000 0 0 1
20.411178 18.431477 12.384564 30.161449 0.734475 1.147674 0.058441 -0.030109 -109122.000000 0 0 1
19.471278 17.607977 11.771964 28.770657 0.735189 1.149257 0.054451 -0.028319 -8067.310000 0 0 1
18.302478 17.549977 12.602864 28.316331 0.764412 1.109539 0.057060 -0.030052 607018.000000 0 0 1
16.979878 17.117677 11.871964 26.875168 0.789439 1.113254 0.070301 -0.024435 591881.000000 0 0 1
17.063078 15.737977 11.520164 25.914219 0.745022 1.110125 0.071002 -0.022101 862586.000000 0 0 1
15.869278 15.273277 10.846464 24.551024 0.766263 1.113200 0.076170 -0.027222 818947.000000 0 1 0
16.106678 13.918977 10.103764 23.563723 0.712666 1.127649 0.080832 -0.028804 -210655.000000 0 1 0
16.555178 12.833677 10.938564 23.631110 0.659439 1.089546 0.113051 -0.017774 481095.000000 0 1 0
16.869878 11.646377 10.170264 22.883731 0.604230 1.110256 0.092683 -0.017466 29846.700000 0 1 0
17.405878 10.506777 11.121264 23.174112 0.543087 1.070255 0.096526 -0.015982 -536386.000000 0 1 0
18.084078 9.475777 10.445164 22.933070 0.482651 1.097904 0.112384 -0.014159 269252.000000 0 1 0
18.564178 8.365377 11.144564 23.212272 0.423369 1.070010 0.127824 -0.011561 688620.000000 0 1 0
19.814078 8.639377 12.046164 24.745638 0.411169 1.062374 0.083973 -0.020364 -144363.000000 0 1 0
19.380178 9.439877 13.135364 25.243621 0.453266 1.023543 0.063894 -0.022854 724860.000000 0 0 1
20.405978 9.632977 14.104464 26.610789 0.441052 1.012163 0.061385 -0.012933 -262979.000000 0 0 1
19.627278 10.026777 15.416264 26.896608 0.472297 0.960430 0.033736 -0.017325 521553.000000 0 0 1
18.886778 8.976077 16.094064 26.387483 0.443658 0.914846 0.049030 -0.015484 1353590.000000 0 0 1
17.781778 8.424477 15.347564 24.954182 0.442444 0.908373 0.070775 -0.025968 -336509.000000 0 1 0
17.157178 7.112677 15.756164 24.356019 0.392995 0.867270 0.078790 -0.022433 -532002.000000 0 1 0
16.426678 7.183577 16.993264 24.702440 0.412252 0.812179 0.083394 -0.021968 424605.000000 0 1 0
15.798578 6.000677 17.427764 24.276123 0.362993 0.770019 0.085457 -0.009261 137646.000000 0 1 0
14.639978 5.468477 16.540464 22.755662 0.357482 0.757039 0.086947 -0.035797 -544758.000000 0 1 0
14.106978 4.269677 17.134764 22.601706 0.293899 0.710374 0.084555 -0.022523 275852.000000 0 1 0
13.368078 3.452277 16.254564 21.326851 0.252726 0.704147 0.063343 -0.023308 -76060.100000 0 1 0
13.189378 2.000077 16.708164 21.380429 0.150496 0.673778 0.058487 -0.017132 -115791.000000 0 1 0
14.414978 1.313977 16.756064 22.142353 0.090902 0.712480 0.065395 -0.017252 91562.600000 0 1 0
14.184278 -0.086423 16.696364 21.908213 -0.006093 0.704238 0.062583 -0.012967 465624.000000 0 1 0
13.259378 -0.874623 17.744064 22.168173 -0.065867 0.642785 0.052621 -0.011887 -206218.000000 0 1 0
11.925378 -0.751823 17.426664 21.129801 -0.062961 0.601048 0.045617 -0.012941 -953387.000000 0 1 0
11.061978 -1.576123 18.196364 21.353201 -0.141528 0.550695 0.039946 -0.013456 271850.000000 0 1 0
-25.883862 13.688977 28.515054 40.871392 -0.486469 0.798646 0.066749 -0.011803 -472706.000000 0 0 1
-24.984422 13.747377 29.587554 41.093005 -0.503026 0.766973 0.062241 -0.013524 10039.100000 0 0 1
-24.450622 12.451577 29.816794 40.520561 -0.471023 0.743885 0.057813 -0.012768 -606007.000000 0 0 1
-23.300422 12.485477 30.796224 40.585764 -0.491913 0.709337 0.041940 -0.018710 -548015.000000 0 0 1
-23.645922 12.700177 32.161444 41.890125 -0.492884 0.695463 0.044183 -0.019114 -653365.000000 0 0 1
-22.488822 12.614177 32.941777 41.833303 -0.511180 0.664130 0.035854 -0.021847 -405646.000000 0 0 1
-22.724222 12.905077 -33.842779 42.758215 -0.516482 2.484042 0.049691 -0.020435 -200113.000000 0 0 1
-23.457822 11.879277 -33.210149 42.359186 -0.468763 2.471901 0.044325 -0.019656 -54279.500000 0 0 1
-23.847522 12.380377 -31.963179 41.756710 -0.478848 2.442555 0.017970 -0.015124 -52102.400000 0 0 1
-24.706522 11.330077 -31.170489 41.356768 -0.429971 2.424466 0.010348 -0.018175 -81517.400000 0 0 1
-24.088322 10.205477 -30.547899 40.219064 -0.400743 2.433399 0.020684 -0.017741 -87686.300000 0 0 1
-23.717622 9.191577 -31.438889 40.440257 -0.369721 2.461343 0.024884 -0.019457 534969.000000 0 0 1
-22.817322 8.140277 -30.678159 39.090200 -0.342683 2.473177 0.031014 -0.010126 431713.000000 0 0 1
-23.689022 7.383177 -29.881059 38.840169 -0.302129 2.448594 0.029547 -0.008380 369135.000000 0 0 1
-22.923922 6.597977 -29.015199 37.562232 -0.280246 2.453497 0.027679 -0.000262 -393030.000000 0 0 1
-23.740622 5.908477 -27.937279 37.135142 -0.243921 2.422363 0.034729 0.001861 -228882.000000 0 0 1
-24.648422 4.954477 -28.465849 37.978890 -0.198363 2.418129 0.033401 -0.005551 272386.000000 0 0 1
-24.972322 4.021677 -27.458429 37.333042 -0.159674 2.397200 0.050509 -0.005690 -728427.000000 0 0 1
-25.697412 2.721877 -27.967709 38.078318 -0.105527 2.395694 0.053021 -0.003137 -78282.700000 0 0 1
-27.078882 2.833377 -28.130489 39.148669 -0.104255 2.372519 0.053719 -0.007670 -326383.000000 0 0 1
-27.444032 3.679177 -29.230419 40.263241 -0.133267 2.383259 0.058858 -0.008100 -128766.000000 0 0 1
-28.875682 3.438477 -29.809679 41.644268 -0.118521 2.368590 0.070050 -0.015776 749537.000000 0 0 1
-30.047712 3.755977 -29.067249 41.974722 -0.124355 2.335737 0.073449 -0.012466 1490580.000000 0 0 1
-31.256232 3.882977 -29.866769 43.405684 -0.123597 2.329642 0.077041 -0.014681 1143510.000000 0 0 1
-31.408252 5.228477 -30.645699 44.192467 -0.164956 2.337076 0.061173 -0.030466 -469009.000000 0 0 1
-30.408762 5.503077 -31.637079 44.225348 -0.179032 2.367937 0.066715 -0.026120 420399.000000 0 0 1
-30.510042 6.827377 -32.231909 44.904027 -0.220148 2.371427 0.066793 -0.025353 -578673.000000 0 0 1
-30.087452 8.084377 -31.387589 44.224344 -0.262496 2.359919 0.044700 -0.033914 -167979.000000 0 0 1
-28.694412 8.303677 -31.249099 43.229926 -0.281688 2.378726 0.031357 -0.037833 196286.000000 0 0 1
-28.043962 7.589277 -30.218139 41.918932 -0.264290 2.375854 0.022478 -0.038025 -418287.000000 0 0 1
-28.157612 8.163577 -28.775399 41.079419 -0.282188 2.346869 0.012654 -0.024772 -796311.000000 0 0 1
-29.463752 8.434077 -28.368579 41.761497 -0.278797 2.317604 0.018031 -0.033008 -462265.000000 0 0 1
-29.903962 7.407677 -27.505189 41.299589 -0.242827 2.299619 0.013003 -0.020882 887866.000000 0 0 1
-31.342352 7.702877 -26.905499 42.018843 -0.240990 2.265711 0.004484 -0.016392 1007090.000000 0 0 1
-31.159682 8.597277 -25.800789 41.358429 -0.269212 2.244435 -0.007940 -0.015857 120350.000000 0 0 1
-31.191692 7.853077 -24.613929 40.502320 -0.246642 2.223978 -0.000414 -0.012491 28266.100000 0 0 1
-30.548712 8.604577 -23.395629 39.428644 -0.274554 2.206031 0.000308 -0.008450 63710.400000 0 0 1
-31.363612 9.637977 -22.887229 40.004900 -0.298139 2.179873 0.002600 -0.011703 241431.000000 0 0 1
-30.617272 10.505777 -22.072629 39.178944 -0.330544 2.169267 0.008105 -0.020415 -177247.000000 0 0 1
-31.540972 11.391277 -21.231329 39.690848 -0.346580 2.135206 0.001989 -0.009737 -115820.000000 0 0 1
-32.037152 10.719077 -20.097929 39.309089 -0.322875 2.107469 0.001477 -0.017018 46149.200000 0 0 1
-32.715942 11.534077 -19.158229 39.628342 -0.338947 2.075385 -0.006638 -0.002488 342483.000000 0 0 1
-31.844032 12.286877 -18.057429 38.614511 -0.368245 2.057408 0.007986 -0.003853 37223.100000 0 0 1
-31.459992 11.498677 -16.908129 37.521134 -0.350417 2.038267 0.049965 -0.003629 411732.000000 0 0 1
-32.445222 11.376977 -15.893729 37.877944 -0.337255 2.003805 0.045038 -0.003660 57290.300000 0 0 1
-32.990782 12.669677 -15.202429 38.471109 -0.366670 1.977044 0.024229 0.002770 -142682.000000 0 0 1
-33.712862 13.636377 -15.946729 39.709017 -0.384368 1.984048 0.015438 -0.003711 394723.000000 0 0 1
-34.268768 14.647977 -15.097729 40.210112 -0.403939 1.955701 0.002226 -0.001105 960.320000 0 0 1
-34.871179 15.824377 -15.834429 41.438378 -0.426006 1.962886 -0.000827 -0.007571 -410207.000000 0 0 1
-35.715267 15.429077 -16.855729 42.399909 -0.407787 1.979632 0.000364 -0.011200 -178057.000000 0 0 1
-36.461852 16.563077 -17.274829 43.614469 -0.426389 1.978040 0.006145 -0.008882 -464028.000000 0 0 1
35.949276 16.436177 -18.683229 43.721407 0.428829 2.012328 0.014321 -0.010396 283891.000000 0 0 1
34.839206 15.573177 -18.825329 42.552169 0.420358 2.029076 0.043692 -0.017191 1034840.000000 0 0 1
33.542406 16.064277 -18.430529 41.507088 0.446645 2.030891 0.074486 -0.024275 413775.000000 0 0 1
32.452666 15.010577 -18.708529 40.354702 0.433231 2.052853 0.095585 -0.034850 -285826.000000 0 0 1
32.155416 14.814977 -20.052829 40.688699 0.431741 2.086142 0.101286 -0.031668 408546.000000 0 0 1
31.178896 13.831077 -20.372729 39.729968 0.417522 2.109216 0.085369 -0.026916 183262.000000 0 0 1
31.699626 12.365277 -20.336229 39.639987 0.371922 2.109499 0.070058 -0.006256 -39886.400000 0 0 1
31.945416 11.927977 -19.000129 39.035767 0.357355 2.079146 0.075092 -0.008913 -128409.000000 0 0 1
32.670986 10.764777 -18.866129 39.232698 0.318288 2.072452 0.052546 -0.001761 -285739.000000 0 0 1
32.957916 10.392277 -17.350429 38.668605 0.305452 2.036101 0.043096 0.007741 232606.000000 0 0 1
31.742856 9.976677 -16.717629 37.237375 0.304521 2.036384 0.047366 0.001747 574202.000000 0 0 1
31.964606 9.740977 -15.382829 36.786602 0.295802 2.002219 0.018791 0.002368 -290486.000000 0 0 1
31.372656 10.778877 -14.397329 36.162284 0.330940 1.980275 0.038964 -0.006458 619891.000000 0 0 1
29.950836 10.742077 -14.205029 34.845769 0.344366 1.990680 0.054025 -0.010738 750801.000000 0 0 1
29.546306 11.834577 -13.442529 34.550586 0.380975 1.970416 0.056128 -0.012827 684095.000000 0 0 1
27.984126 12.007677 -13.474729 33.299609 0.405329 1.987394 0.085488 -0.007050 175397.000000 0 0 1
27.358716 11.004177 -12.708429 32.110674 0.382417 1.977702 0.064440 -0.005446 -705597.000000 0 0 1
25.991616 10.880977 -12.922529 30.999218 0.396466 2.000791 0.073051 -0.003768 -621734.000000 0 0 1
25.500616 10.273077 -14.302929 30.990181 0.382966 2.050517 0.076476 -0.020991 -663518.000000 0 0 1
25.792016 8.887177 -14.433729 30.863288 0.331830 2.057445 0.074670 -0.013920 1408770.000000 0 0 1
27.186116 8.673677 -14.761429 32.128140 0.308839 2.048178 0.069037 -0.021139 1357730.000000 0 0 1
28.037316 7.729077 -13.787829 32.185928 0.268990 2.013496 0.076840 -0.014511 210468.000000 0 0 1
27.631016 6.384377 -13.752129 31.517525 0.227073 2.022315 0.069455 -0.025938 606509.000000 0 0 1
26.537816 5.925577 -12.963129 30.123261 0.219684 2.015661 0.077294 -0.019837 44388.500000 0 0 1
26.383416 4.374377 -12.958929 29.717901 0.164306 2.022017 0.083106 -0.022219 -561122.000000 0 0 1
25.512016 3.864277 -12.012629 28.462235 0.150326 2.006507 0.080665 -0.019190 106933.000000 0 0 1
25.435016 2.445077 -12.017329 28.237114 0.095836 2.010406 0.078626 -0.022204 -139607.000000 0 0 1
24.470716 1.954377 -10.931129 26.872385 0.079697 1.989722 0.094515 -0.023663 -115192.000000 0 0 1
25.091716 1.960577 -9.682029 26.966271 0.077978 1.938038 0.093617 -0.014182 1148040.000000 0 0 1
24.062616 1.829777 -8.687929 25.648346 0.075896 1.916366 0.091879 -0.011502 141511.000000 0 0 1
24.610616 1.476277 -7.260729 25.701751 0.059914 1.857195 0.097278 -0.014303 -96253.600000 0 0 1
24.886716 0.103277 -6.936329 25.835478 0.004150 1.842612 0.083159 -0.023386 164953.000000 0 0 1
25.833016 -0.574623 -7.682229 26.957217 -0.022240 1.859780 0.077903 -0.014910 -958862.000000 0 0 1
26.049216 -2.033023 -7.226529 27.109363 -0.077888 1.840628 0.076581 -0.028731 -132127.000000 0 0 1
26.952316 -2.176223 -6.117829 27.723476 -0.080569 1.793301 0.087156 -0.036372 766749.000000 0 0 1
27.140216 -3.469523 -5.620729 27.932445 -0.127147 1.773405 0.091811 -0.042433 -458986.000000 0 0 1
28.432306 -3.715723 -4.814429 29.075442 -0.129950 1.737147 0.091230 -0.041472 190751.000000 0 0 1
29.561416 -3.796523 -5.671229 30.338980 -0.127729 1.758831 0.070080 -0.030938 594653.000000 0 0 1
30.693746 -4.487723 -5.200829 31.453049 -0.145181 1.736911 0.078383 -0.032361 270008.000000 0 0 1
31.756796 -4.846023 -6.282429 32.732964 -0.151430 1.763924 0.077159 -0.023794 194385.000000 0 0 1
31.455096 -6.000823 -7.015229 32.781799 -0.188509 1.786462 0.071284 -0.021439 363354.000000 0 0 1
32.226176 -5.981423 -8.212429 33.789759 -0.183519 1.816300 0.069052 -0.022536 -254613.000000 0 0 1
31.610946 -6.827723 -9.388329 33.675071 -0.212724 1.853332 0.060095 -0.017962 1154140.000000 0 0 1
30.364346 -6.337523 -9.936929 32.571464 -0.205762 1.880820 0.055177 -0.017871 1566750.000000 0 0 1
29.196996 -6.827823 -9.268729 31.384599 -0.229725 1.870594 0.069129 -0.020562 -60804.900000 0 0 1
28.086206 -5.805023 -9.043329 30.071831 -0.203816 1.876248 0.067574 -0.017620 -715926.000000 0 0 1
27.346016 -5.418023 -10.153929 29.669207 -0.195595 1.920094 0.047447 -0.012399 1684330.000000 0 0 1
26.021216 -4.867823 -9.923529 28.271466 -0.184934 1.929444 0.051848 -0.016052 1666550.000000 0 0 1
24.803016 -5.798823 -9.715529 27.261831 -0.229670 1.935185 0.081103 -0.017758 -725242.000000 0 0 1
24.893416 -6.441423 -8.440229 27.063103 -0.253206 1.887959 0.084195 -0.024777 1341820.000000 0 0 1
23.649916 -6.999623 -7.982829 25.923711 -0.287754 1.883819 0.081442 -0.025956 389510.000000 0 0 1
22.644416 -6.038423 -7.303929 24.547495 -0.260599 1.872914 0.095947 -0.022963 -187420.000000 0 1 0
22.106316 -5.089223 -8.223229 24.129046 -0.226273 1.918566 0.098647 -0.025691 454764.000000 0 1 0
22.118516 -3.761823 -7.830529 23.763359 -0.168464 1.906593 0.112743 -0.028104 -66903.500000 0 1 0
22.007616 -2.768623 -9.034629 23.950468 -0.125145 1.957591 0.117364 -0.020413 -222696.000000 0 1 0
23.227616 -2.821623 -9.722129 25.337788 -0.120885 1.964597 0.090935 -0.018940 389146.000000 0 0 1
23.220116 -1.911523 -10.843029 25.698229 -0.082137 2.006377 0.108754 -0.023119 -100311.000000 0 0 1
24.539816 -1.915523 -11.650329 27.232369 -0.077900 2.012867 0.072866 -0.013821 -466697.000000 0 0 1
25.637316 -1.396223 -10.980929 27.924939 -0.054407 1.974938 0.069818 -0.011579 -613818.000000 0 0 1
26.796216 -1.519723 -11.735429 29.292781 -0.056653 1.982996 0.053015 -0.006445 -776950.000000 0 0 1
27.935516 -0.633523 -11.174929 30.094409 -0.022674 1.951236 0.034933 -0.000617 -739668.000000 0 0 1
29.028276 -0.692623 -12.033329 31.431219 -0.023856 1.963672 0.032791 -0.004042 -36291.000000 0 0 1
30.093236 0.229277 -11.884229 32.355684 0.007619 1.946900 0.045070 -0.003938 160716.000000 0 0 1
30.004626 1.553777 -12.601429 32.580482 0.051738 1.967932 0.042346 -0.004975 -354964.000000 0 0 1
30.071236 1.418977 -13.993929 33.198234 0.047152 2.005924 0.031200 -0.004689 363294.000000 0 0 1
29.919596 2.643577 -14.694229 33.437869 0.088127 2.025781 0.031652 -0.006931 -285370.000000 0 0 1
30.263456 2.548577 -16.219229 34.430152 0.084015 2.061307 0.034471 -0.008519 -852990.000000 0 0 1
29.414526 1.798477 -17.013229 34.027912 0.061066 2.094370 0.039964 -0.008571 -603796.000000 0 0 1
29.784076 1.558877 -18.363929 35.025065 0.052292 2.122699 0.038592 -0.012190 -356784.000000 0 0 1
28.696386 0.821977 -19.190629 34.531702 0.028636 2.160048 0.042699 -0.008897 100839.000000 0 0 1
28.538806 -0.612223 -19.055229 34.321130 -0.021449 2.159405 0.037873 -0.005264 117354.000000 0 0 1
27.991856 -1.178423 -20.241029 34.563448 -0.042074 2.196440 0.040505 -0.007447 -8046.590000 0 0 1
27.726516 -2.720823 -20.279529 34.458988 -0.097818 2.200013 0.042407 -0.010769 -145411.000000 0 0 1
26.533716 -3.041023 -19.595629 33.125135 -0.114112 2.203793 0.049852 -0.011208 72135.300000 0 0 1
26.310616 -4.411923 -19.433829 33.005867 -0.166140 2.200369 0.048864 -0.016751 160204.000000 0 0 1
27.159316 -5.081823 -18.240429 33.108407 -0.184973 2.154275 0.043987 -0.022691 -252414.000000 0 0 1
28.490156 -5.186023 -18.624629 34.430518 -0.180057 2.142343 0.038425 -0.021683 -808509.000000 0 0 1
29.278926 -5.317823 -17.457729 34.500826 -0.179668 2.101348 0.034347 -0.021453 -166399.000000 0 0 1
30.794666 -5.139823 -17.651929 35.865301 -0.165382 2.085380 0.037301 -0.017074 -248673.000000 0 0 1
31.361336 -6.178123 -18.389429 36.876465 -0.194507 2.092868 0.020877 -0.015988 873791.000000 0 0 1
32.743406 -5.872023 -18.690529 38.156875 -0.177448 2.082695 0.032771 -0.019293 892084.000000 0 0 1
33.439186 -7.001823 -19.453129 39.314487 -0.206408 2.088410 0.017757 -0.002663 -408097.000000 0 0 1
33.785896 -8.041023 -18.552229 39.374230 -0.233652 2.061421 0.017094 -0.003997 -146986.000000 0 0 1
34.508736 -9.062323 -19.151829 40.494087 -0.256811 2.063436 0.012193 0.005678 -376319.000000 0 0 1
35.265706 -9.914023 -18.126429 40.872060 -0.274050 2.030287 0.020417 -0.002561 -425456.000000 0 0 1
34.299826 -10.441023 -17.189229 39.761320 -0.295493 2.017850 0.026526 -0.011667 694485.000000 0 0 1
34.783386 -11.368923 -16.170529 40.007778 -0.315904 1.986884 0.040703 -0.016743 -218836.000000 0 0 1
35.739946 -10.809823 -15.055429 40.259930 -0.293710 1.954067 0.054851 -0.018078 -32672.000000 0 0 1
36.118746 -11.766723 -14.049929 40.502099 -0.314936 1.925054 0.042014 -0.016450 689461.000000 0 0 1
-36.089092 -12.932623 -14.329429 40.926859 0.344096 1.928499 0.038254 -0.015105 123221.000000 0 0 1
-34.617851 -12.785523 -14.764829 39.747520 0.353793 1.951383 0.051250 -0.020667 -37883.400000 0 0 1
-34.658533 -12.282723 -16.071029 40.129255 0.340583 1.982839 0.048595 -0.016887 856770.000000 0 0 1
-33.335762 -12.327723 -16.650829 39.249151 0.354208 2.008912 0.079213 -0.025593 992342.000000 0 0 1
-33.307542 -11.559923 -18.008229 39.589398 0.334059 2.043028 0.096909 -0.022604 169433.000000 0 0 1
-33.277502 -10.188523 -17.618329 39.007738 0.297106 2.039424 0.077403 -0.023142 89384.700000 0 0 1
-33.972002 -9.347723 -18.508729 39.800124 0.268515 2.054478 0.064116 -0.013787 -135346.000000 0 0 1
-34.728913 -8.228723 -17.768929 39.869087 0.232651 2.032732 0.076331 -0.018196 -756619.000000 0 0 1
-35.364788 -7.335723 -18.579029 40.616023 0.204530 2.045900 0.067737 -0.014581 -194485.000000 0 0 1
-36.123622 -6.402323 -17.824729 40.787581 0.175412 2.023072 0.064409 -0.014403 -112578.000000 0 0 1
24.580678 26.727777 -26.628969 45.029832 0.827221 2.203544 0.038579 0.007841 126446.000000 0 0 1
25.401078 25.907377 -25.818019 44.530631 0.795266 2.189256 0.057313 -0.009432 716981.000000 0 0 1
26.660778 25.594977 -26.442749 45.443579 0.765005 2.191836 0.047077 -0.008992 472731.000000 0 0 1
27.521878 24.712277 -25.529689 44.943469 0.731661 2.174919 0.053577 -0.018137 -420568.000000 0 0 1
27.969178 25.351877 -24.348629 44.920467 0.736352 2.143657 0.065802 -0.015060 213508.000000 0 0 1
28.241278 24.460877 -23.294929 44.029059 0.713789 2.128313 0.063052 -0.017912 -53668.900000 0 0 1
28.817378 25.115177 -22.029029 44.119061 0.716861 2.093597 0.046255 -0.007947 654957.000000 0 0 1
27.856078 25.933677 -21.332529 43.630190 0.749674 2.081670 0.056660 -0.007398 399397.000000 0 0 1
28.469278 26.379977 -20.166929 43.739090 0.747325 2.050001 0.036110 -0.004247 -81056.700000 0 0 1
27.670178 27.486877 -19.498629 43.604629 0.782075 2.034394 0.051322 -0.002508 -56507.800000 0 0 1
26.544678 27.090177 -18.746729 42.307653 0.795568 2.029856 0.049526 -0.003848 19346.900000 0 0 1
25.762178 28.216077 -18.415229 42.414119 0.830828 2.019921 0.050762 -0.003650 154365.000000 0 0 1
24.615178 27.919277 -17.403329 41.088549 0.848209 2.008164 0.039927 -0.000167 -368329.000000 0 0 1
23.624278 27.143277 -18.008829 40.239060 0.854603 2.034816 0.052353 -0.001521 -745862.000000 0 0 1
22.633478 26.948277 -17.029229 39.095762 0.872203 2.021476 0.036786 0.002951 341298.000000 0 0 1
21.541078 25.913177 -17.518329 37.978976 0.877272 2.050215 0.041242 0.000167 602191.000000 0 0 1
20.720178 26.384277 -18.581129 38.349892 0.905069 2.076606 0.043538 0.001765 186089.000000 0 0 1
19.872078 25.399477 -19.170029 37.516969 0.906891 2.107109 0.055599 0.003063 417768.000000 0 0 1
19.166878 25.885577 -20.447429 38.151405 0.933438 2.136435 0.034256 0.009922 127266.000000 0 0 1
18.230078 26.904877 -20.256529 38.295367 0.975280 2.128165 0.027286 0.009462 -542546.000000 0 0 1
17.286978 26.968677 -21.298929 38.468085 1.000773 2.157571 0.018009 0.006973 147722.000000 0 0 1
16.139778 27.968677 -20.999929 38.519299 1.047411 2.147399 0.026222 0.009391 108168.000000 0 0 1
15.424978 27.603877 -19.830529 37.324976 1.061224 2.130923 0.041471 0.012675 22572.500000 0 0 1
14.526778 28.667677 -19.492329 37.587417 1.101779 2.115993 0.026204 0.003507 352430.000000 0 0 1
13.947878 28.497677 -18.082529 36.519019 1.115633 2.088808 0.027730 0.006494 -371548.000000 0 0 1
13.167978 27.359477 -17.779329 35.185809 1.122224 2.100524 0.029052 0.007720 -149284.000000 0 0 1
12.750678 27.310977 -16.425429 34.325850 1.134002 2.069759 0.045469 0.008534 207322.000000 0 0 1
11.727678 26.149677 -16.224429 32.932904 1.149205 2.085930 0.056837 0.002830 582906.000000 0 0 1
12.457578 24.935477 -16.028329 32.153952 1.107475 2.092649 0.063592 -0.002320 194638.000000 0 0 1
11.588678 23.828977 -16.005129 30.956127 1.118147 2.114169 0.068452 -0.003203 -29546.700000 0 0 1
12.335878 22.515877 -16.124029 30.317040 1.069586 2.131577 0.068619 -0.005977 85619.600000 0 0 1
12.819578 22.402077 -17.457329 31.160118 1.051032 2.165479 0.061024 -0.001170 -50111.800000 0 0 1
13.849878 21.473677 -17.719829 31.095502 0.997965 2.177122 0.061593 0.002691 23959.700000 0 0 1
13.268378 20.071277 -17.950129 30.018547 0.986683 2.211760 0.067065 -0.006711 153859.000000 0 0 1
12.633278 19.565277 -16.800329 28.716734 0.997451 2.195721 0.076923 -0.015924 -338174.000000 0 0 1
12.217178 18.240177 -16.915129 27.714348 0.980631 2.227284 0.073674 -0.019344 -386006.000000 0 0 1
13.293978 17.163677 -17.059629 27.610734 0.911773 2.236817 0.070211 -0.023051 -683920.000000 0 0 1
14.005278 16.890577 -15.925429 27.111966 0.878516 2.198632 0.072332 -0.024695 -348909.000000 0 0 1
14.966678 15.882177 -16.158229 27.153883 0.815066 2.208138 0.068424 -0.022472 -912025.000000 0 0 1
15.447878 15.208277 -14.902329 26.306046 0.777583 2.173047 0.100983 -0.009194 -621786.000000 0 0 1
16.271778 15.933177 -13.961729 26.712671 0.774885 2.120768 0.079157 -0.006419 2341320.000000 0 0 1
17.624878 16.232877 -14.465029 27.988921 0.744308 2.113920 0.059445 -0.001495 1051410.000000 0 0 1
18.605078 15.117877 -14.907329 28.229906 0.682357 2.127121 0.046422 -0.006217 -910079.000000 0 0 1
18.910178 14.277977 -13.824529 27.433065 0.646720 2.098947 0.069777 -0.014617 -220775.000000 0 0 1
20.047578 14.711277 -13.144829 28.126742 0.633064 2.057079 0.078870 -0.014368 -1048750.000000 0 0 1
20.903978 13.539477 -12.659029 27.938231 0.574756 2.041045 0.099644 -0.020386 -599545.000000 0 0 1
20.375278 12.819077 -11.570329 26.708673 0.561577 2.018842 0.154788 -0.025770 329169.000000 0 0 1
21.280478 11.884777 -10.984529 26.735118 0.509332 1.994199 0.170084 -0.003951 -24438.400000 0 0 1
21.165178 10.438577 -11.464329 26.236606 0.458189 2.023012 0.131100 -0.014288 -280538.000000 0 0 1
21.860878 10.297077 -12.704829 27.300924 0.440202 2.054841 0.097008 -0.002840 388620.000000 0 0 1
21.815678 9.109077 -13.401229 27.175210 0.395541 2.086494 0.084051 -0.002677 136667.000000 0 0 1
22.657678 7.921777 -12.791929 27.198499 0.336344 2.060447 0.088209 0.010442 5241.570000 0 0 1
22.015478 7.411577 -11.620329 25.973925 0.324735 2.034635 0.088394 -0.002557 523956.000000 0 0 1
22.458778 6.174477 -11.091429 25.798075 0.268296 2.015214 0.083554 0.012165 -1111010.000000 0 0 1
22.200978 4.887977 -11.933229 25.674456 0.216712 2.054194 0.081912 0.001912 582631.000000 0 0 1
20.894178 4.295277 -11.936929 24.443943 0.202748 2.080982 0.061696 -0.013033 926124.000000 0 1 0
19.894978 5.013677 -12.643529 24.099916 0.246867 2.123076 0.015496 -0.024207 3567.730000 0 1 0
18.766578 4.023577 -13.074829 23.223367 0.211204 2.168811 0.012091 -0.033195 -99975.900000 0 1 0
19.159478 3.130277 -14.042629 23.959959 0.161949 2.197018 0.018603 -0.034611 185016.000000 0 1 0
19.233978 1.757677 -13.646729 23.648859 0.091131 2.185916 0.065866 -0.038991 149191.000000 0 1 0
20.304178 0.986777 -14.539329 24.992508 0.048562 2.191672 0.100863 -0.028166 867440.000000 0 1 0
21.640278 1.168277 -14.010529 25.806228 0.053934 2.144698 0.131900 -0.013483 998747.000000 0 0 1
22.654078 0.708177 -14.871729 27.108616 0.031250 2.151483 0.087559 -0.016508 -101808.000000 0 0 1
22.810478 -0.828623 -14.973729 27.298664 -0.036310 2.151384 0.076493 -0.021404 -455577.000000 0 0 1
21.728978 -1.461823 -15.692429 26.842834 -0.067174 2.195188 0.079301 -0.021242 837624.000000 0 0 1
22.193578 -2.459423 -16.616529 27.833661 -0.110367 2.210545 0.068714 -0.023523 -670283.000000 0 0 1
21.104778 -2.949023 -17.553829 27.608790 -0.138834 2.259848 0.064044 -0.022406 -473698.000000 0 0 1
20.246978 -3.804123 -16.816429 26.593303 -0.185721 2.255387 0.072771 -0.024597 95294.600000 0 0 1
19.358378 -4.520523 -17.639029 26.576630 -0.229407 2.296557 0.073166 -0.027782 -508491.000000 0 0 1
18.751178 -5.700723 -16.883929 25.868358 -0.295140 2.281921 0.073973 -0.035611 -770294.000000 0 0 1
19.616578 -6.631723 -16.329229 26.371075 -0.326005 2.238532 0.070271 -0.030200 29253.600000 0 0 1
18.932678 -7.794223 -15.965729 25.963449 -0.390535 2.233095 0.078163 -0.024636 566279.000000 0 0 1
20.036878 -8.791023 -15.445429 26.782827 -0.413453 2.185469 0.100891 -0.018043 424982.000000 0 0 1
20.633078 -9.544523 -16.417829 28.042235 -0.433269 2.196253 0.079293 -0.018475 279292.000000 0 0 1
21.448978 -10.579323 -15.892029 28.714758 -0.458219 2.157291 0.063685 -0.023477 -368953.000000 0 0 1
22.177378 -11.431723 -16.942929 30.159297 -0.475945 2.167334 0.057465 -0.018872 -132499.000000 0 0 1
23.170778 -10.709323 -17.643729 31.030239 -0.432945 2.175597 0.053631 -0.017197 88608.100000 0 0 1
23.532678 -11.326323 -18.887329 32.230478 -0.448578 2.196920 0.058290 -0.015146 -670966.000000 0 0 1
22.608578 -11.120823 -20.142129 32.257183 -0.457135 2.245189 0.059503 -0.006974 324584.000000 0 0 1
21.325278 -11.707023 -20.066829 31.535686 -0.502055 2.260516 0.062115 -0.018992 257341.000000 0 0 1
21.344678 -13.110223 -20.163129 32.156259 -0.550806 2.248539 0.056162 -0.007895 -1080330.000000 0 0 1
19.955578 -13.684323 -19.921429 31.342449 -0.601091 2.259589 0.059727 0.001181 -769443.000000 0 0 1
19.080778 -13.405423 -20.953229 31.349948 -0.612443 2.302806 0.055994 0.011996 -533194.000000 0 0 1
17.770478 -13.833123 -20.651229 30.555170 -0.661451 2.312937 0.072348 0.007572 -23407.400000 0 0 1
16.798778 -13.532223 -21.814429 30.678809 -0.678115 2.361799 0.074726 0.001010 -190048.000000 0 0 1
17.112078 -14.228723 -23.014629 32.014886 -0.693656 2.372976 0.052231 0.006315 400888.000000 0 0 1
16.556678 -13.536023 -24.101329 32.221445 -0.685355 2.415825 0.059742 -0.008008 -199690.000000 0 0 1
16.582678 -14.353723 -25.417159 33.571514 -0.713473 2.429666 0.046236 -0.011511 -189438.000000 0 0 1
15.461278 -15.220423 -25.553659 33.521663 -0.777548 2.437660 0.060933 -0.019132 293825.000000 0 0 1
15.424178 -16.083923 -26.687249 34.767903 -0.806334 2.445858 0.057446 -0.014667 -774913.000000 0 0 1
16.380378 -17.251823 -26.794399 35.831299 -0.811303 2.415528 0.047628 -0.011262 -877150.000000 0 0 1
17.725778 -16.945423 -27.060169 36.518533 -0.762895 2.405352 0.040697 -0.005901 -54868.900000 0 0 1
18.550478 -18.092523 -26.936929 37.377236 -0.772901 2.375575 0.037005 -0.000909 -57511.500000 0 0 1
20.047278 -17.764223 -27.010289 38.039672 -0.725091 2.360374 0.019840 0.003554 -251419.000000 0 0 1
20.485978 -17.119323 -25.844139 37.157314 -0.696110 2.339958 0.021383 0.009192 1326220.000000 0 0 1
21.938078 -17.119423 -25.736429 37.904059 -0.662645 2.317181 0.024217 0.011543 1356830.000000 0 0 1
22.436978 -16.283923 -24.482329 36.986059 -0.627808 2.294192 0.024191 0.018272 24488.000000 0 0 1
22.195878 -14.913923 -24.441129 36.227764 -0.591633 2.311289 0.031319 0.010506 573876.000000 0 0 1
20.811678 -14.542623 -24.353529 35.181077 -0.609901 2.335376 0.058465 0.007841 707652.000000 0 0 1
20.709478 -13.189923 -23.609729 34.062822 -0.567113 2.336609 0.068848 0.009913 -236602.000000 0 0 1
21.219478 -12.145423 -24.334429 34.495535 -0.519857 2.353836 0.069701 -0.005100 78197.900000 0 0 1
21.123578 -10.943123 -23.610129 33.517095 -0.477985 2.352403 0.077601 -0.009659 -61089.300000 0 0 1
21.166778 -9.691023 -24.450929 33.760870 -0.429355 2.380726 0.088683 -0.017316 -311089.000000 0 0 1
20.578378 -8.609823 -23.788329 32.611091 -0.396260 2.388321 0.097502 -0.021715 240913.000000 0 0 1
20.300078 -7.543423 -24.641629 32.805583 -0.355783 2.420586 0.072170 -0.016327 -284740.000000 0 0 1
19.766978 -6.297823 -23.930129 31.670918 -0.308435 2.427346 0.082104 -0.023767 1019700.000000 0 0 1
18.381378 -6.273923 -23.495229 30.483814 -0.328921 2.450805 0.081158 -0.014509 1256270.000000 0 0 1
17.994578 -5.326523 -22.504829 29.302628 -0.287790 2.446531 0.070348 -0.015775 341323.000000 0 0 1
18.771378 -5.520623 -21.117329 28.788600 -0.286033 2.394299 0.076025 -0.025624 38396.000000 0 0 1
18.346278 -6.532723 -20.221729 28.074556 -0.342080 2.375012 0.083645 -0.026391 196639.000000 0 0 1
18.281278 -7.860523 -20.743829 28.745424 -0.406078 2.376964 0.087958 -0.023292 -297087.000000 0 0 1
17.903778 -8.873123 -19.692029 28.054475 -0.460122 2.348887 0.074122 -0.022476 -609539.000000 0 0 1
16.589578 -8.880123 -19.251229 26.919890 -0.491474 2.367607 0.077632 -0.022307 -943193.000000 0 0 1
16.120078 -10.146223 -18.906129 26.837370 -0.561768 2.352473 0.085452 -0.015027 115183.000000 0 0 1
14.660478 -10.203723 -18.377129 25.627416 -0.608038 2.370413 0.087028 -0.016932 146179.000000 0 0 1
14.408478 -9.594523 -17.119929 24.346479 -0.587468 2.350655 0.100849 -0.020527 146057.000000 0 1 0
14.449178 -8.145123 -17.090129 23.815841 -0.513307 2.371139 0.117729 -0.042747 -109515.000000 0 1 0
13.104778 -7.417623 -16.837029 22.588534 -0.515063 2.411900 0.096808 -0.029377 -30676.100000 0 1 0
12.116278 -7.443023 -17.815729 22.794801 -0.550867 2.467975 0.081892 -0.029354 32913.000000 0 1 0
11.047278 -6.561323 -17.533829 21.737720 -0.535945 2.509188 0.054760 -0.023469 648103.000000 0 1 0
9.625178 -6.965023 -18.039729 21.600634 -0.626407 2.559198 0.040783 -0.015294 637439.000000 0 1 0
9.314478 -6.681323 -19.370529 22.508153 -0.622246 2.607244 0.034702 -0.021892 -835593.000000 0 1 0
7.961578 -6.414023 -19.472629 21.993401 -0.678160 2.658118 0.033897 -0.026577 -800913.000000 0 1 0
7.351078 -6.109923 -20.827829 22.916543 -0.693454 2.711329 0.035504 -0.035348 -109110.000000 0 1 0
7.397978 -7.259423 -21.598729 23.956928 -0.775946 2.694170 0.040809 -0.033276 144109.000000 0 1 0
6.767678 -7.036623 -22.862629 24.859914 -0.804878 2.738006 0.049190 -0.032683 -131838.000000 0 1 0
6.858178 -8.175623 -23.865129 26.142299 -0.872807 2.721113 0.049126 -0.032656 -227004.000000 0 0 1
6.052278 -9.330723 -23.600229 26.089524 -0.995378 2.701205 0.050055 -0.029016 216085.000000 0 0 1
5.918078 -10.150523 -24.742429 27.390592 -1.042947 2.698240 0.054828 -0.016635 197962.000000 0 0 1
4.978278 -11.386923 -24.544229 27.511169 -1.158644 2.672890 0.058293 -0.017648 434156.000000 0 0 1
5.580078 -12.380523 -23.763529 27.370055 -1.147349 2.622422 0.058639 -0.021011 92727.600000 0 0 1
4.617078 -13.364523 -23.466029 27.396759 -1.238160 2.599296 0.069144 -0.028124 38505.300000 0 0 1
5.351678 -14.552623 -22.764729 27.543641 -1.218400 2.543652 0.083949 -0.031626 598704.000000 0 0 1
6.297778 -15.382123 -23.479029 28.766934 -1.182194 2.525567 0.114740 -0.033833 1926630.000000 0 0 1
7.568778 -14.788723 -23.899029 29.105949 -1.097758 2.534140 0.098385 -0.031061 1694040.000000 0 0 1
8.569778 -14.175023 -22.855829 28.226960 -1.027024 2.514465 0.097035 -0.013910 176744.000000 0 0 1
9.330678 -15.058923 -22.045129 28.281096 -1.016081 2.464664 0.095901 -0.013808 447166.000000 0 0 1
8.554678 -15.521623 -20.939429 27.432881 -1.067074 2.439197 0.091874 -0.029605 -15647.200000 0 0 1
9.225478 -15.378823 -19.567329 26.542381 -1.030464 2.399729 0.081980 -0.026944 602413.000000 0 0 1
10.283478 -16.331323 -19.303129 27.296022 -1.008840 2.356294 0.090748 -0.030241 449883.000000 0 0 1
10.593878 -16.528523 -17.939029 26.593816 -1.000813 2.311160 0.054954 -0.018095 3584.410000 0 0 1
9.563078 -17.421423 -17.128629 26.236394 -1.068778 2.282147 0.036082 -0.009956 -82422.700000 0 0 1
9.459678 -18.794623 -17.424829 27.319370 -1.104498 2.262460 0.030162 -0.009780 114391.000000 0 0 1
8.722878 -19.037723 -18.614429 28.018216 -1.141153 2.297445 0.057954 -0.015042 282799.000000 0 0 1
7.172678 -19.019023 -18.471929 27.466028 -1.210158 2.308428 0.072647 -0.022706 167143.000000 0 0 1
6.562878 -17.788823 -18.171429 26.262414 -1.217356 2.334938 0.074628 -0.021394 -221153.000000 0 0 1
5.157978 -17.743823 -18.211929 25.944601 -1.287901 2.348934 0.068430 -0.010360 -23037.300000 0 0 1
4.600578 -16.378623 -17.799329 24.621956 -1.296963 2.378793 0.039025 0.002999 -117532.000000 0 1 0
4.733378 -15.925023 -16.438629 23.371772 -1.281884 2.350901 0.010224 0.006947 46988.100000 0 1 0
4.441878 -14.562223 -16.252929 22.269852 -1.274734 2.388851 0.006867 0.011418 18045.100000 0 1 0
10.744078 29.712577 -18.096529 36.410944 1.223825 2.090944 0.038162 -0.009744 266939.000000 0 0 1
9.766078 29.314377 -19.138829 36.345616 1.249211 2.125367 0.054530 -0.012566 677149.000000 0 0 1
8.616878 28.798877 -18.521929 35.308466 1.280066 2.123012 0.044016 -0.010331 -358476.000000 0 0 1
7.599178 28.276977 -19.536029 35.199309 1.308258 2.159173 0.061941 -0.007014 -354484.000000 0 0 1
6.981278 29.253177 -20.317529 36.294471 1.336528 2.164937 0.066861 -0.008046 -549232.000000 0 0 1
6.185578 28.558477 -21.242129 36.125836 1.357498 2.199385 0.079637 -0.016766 61729.000000 0 0 1
5.179078 29.552377 -21.949329 37.174439 1.397307 2.202402 0.076256 -0.022622 -356201.000000 0 0 1
4.064278 29.616277 -21.137729 36.612099 1.434417 2.186267 0.071372 -0.015628 -343528.000000 0 0 1
3.021078 30.459977 -21.687729 37.513927 1.471938 2.187225 0.077741 -0.026706 806451.000000 0 0 1
1.626278 30.189577 -21.043929 36.836155 1.516979 2.178867 0.098137 -0.020930 308463.000000 0 0 1
1.200978 28.826377 -21.081129 35.732567 1.529158 2.201818 0.099285 -0.037417 -42172.400000 0 0 1
0.471178 28.465977 -22.221329 36.115389 1.554246 2.233546 0.117616 -0.046429 -163802.000000 0 0 1
-0.293022 27.106777 -22.102529 34.976921 -1.559987 2.254821 0.118477 -0.043353 -80063.900000 0 0 1
-1.462922 27.178077 -21.346429 34.589855 -1.517021 2.235886 0.129903 -0.052858 -627101.000000 0 0 1
-2.239422 26.030077 -21.584329 33.888983 -1.484976 2.261284 0.124393 -0.061462 -243833.000000 0 0 1
-3.328422 25.826377 -20.514229 33.149868 -1.442626 2.238052 0.094349 -0.059023 -679314.000000 0 0 1
-4.488322 26.551777 -20.812129 34.033610 -1.403339 2.228773 0.076563 -0.053755 -245876.000000 0 0 1
-5.560922 25.961377 -20.088429 33.293572 -1.359785 2.218520 0.058108 -0.053076 -109407.000000 0 0 1
-6.625222 26.957277 -19.626129 33.996666 -1.329805 2.186209 0.048595 -0.057856 199633.000000 0 0 1
-7.778522 26.298477 -19.112629 33.427652 -1.283217 2.179447 0.053112 -0.046506 93316.100000 0 0 1
-8.632722 27.165077 -18.384729 33.918484 -1.263102 2.143643 0.056089 -0.059207 1081610.000000 0 0 1
-9.861222 26.524377 -17.626229 33.338720 -1.214852 2.127866 0.065942 -0.050067 795875.000000 0 0 1
-9.466622 25.795077 -16.501429 32.051523 -1.219064 2.111618 0.067925 -0.049207 478150.000000 0 0 1
-10.593822 24.961277 -16.169429 31.571266 -1.169425 2.108490 0.032451 -0.034738 721706.000000 0 0 1
-10.439922 24.209977 -14.801829 30.235891 -1.163666 2.082364 0.034819 -0.023909 -41584.300000 0 0 1
-9.621022 23.054577 -14.770029 29.021222 -1.175453 2.104748 0.038378 -0.021580 18485.600000 0 0 1
-9.933122 22.375477 -13.551529 27.981652 -1.153003 2.076360 0.058242 -0.027545 -340628.000000 0 0 1
-9.427722 20.921077 -13.577129 26.662930 -1.147416 2.105067 0.074725 -0.015130 -182186.000000 0 0 1
-10.213622 19.881177 -14.147529 26.452445 -1.096223 2.135101 0.046840 -0.013693 -96389.900000 0 0 1
-10.777622 19.926677 -15.471029 27.433234 -1.074994 2.169960 0.062466 -0.007004 217688.000000 0 0 1
-9.774722 19.894577 -16.650529 27.723266 -1.114112 2.215045 0.049652 -0.009108 -115748.000000 0 0 1
-9.088722 18.674877 -16.732529 26.670835 -1.117860 2.248970 0.042470 -0.009740 -199198.000000 0 0 1
-8.276222 18.605177 -17.901529 27.112971 -1.152246 2.291957 0.054072 -0.011222 -292560.000000 0 0 1
-7.583622 17.249977 -17.901429 25.991041 -1.156599 2.330565 0.042797 -0.013957 -354224.000000 0 0 1
-8.369622 16.147777 -18.226829 25.749147 -1.092605 2.357262 0.044863 -0.020318 -542235.000000 0 0 1
-8.063522 15.640577 -19.482229 26.252719 -1.094785 2.406999 0.042999 -0.024901 -113255.000000 0 0 1
-6.813222 14.775177 -19.694529 25.546043 -1.138728 2.451116 0.034335 -0.015024 -120282.000000 0 0 1
-6.964922 13.532277 -19.005429 24.348285 -1.095466 2.466366 0.009579 -0.014181 447241.000000 0 1 0
-5.723422 12.896277 -18.691529 23.418898 -1.153107 2.494996 0.009268 -0.008265 592737.000000 0 1 0
-5.021922 13.368977 -17.398329 22.508911 -1.211465 2.454279 0.040892 -0.004280 -336819.000000 0 1 0
-4.311822 14.554677 -17.600929 23.242701 -1.282784 2.429915 0.043585 -0.013770 -791678.000000 0 1 0
-3.598622 14.849377 -16.463129 22.460826 -1.333038 2.393475 0.046699 -0.005638 167257.000000 0 1 0
-2.684522 16.116977 -16.489029 23.213179 -1.405747 2.360764 0.075672 -0.009616 116697.000000 0 1 0
-3.451122 17.252877 -16.704729 24.261492 -1.373370 2.330254 0.064933 -0.013750 -472038.000000 0 1 0
-2.673522 18.418377 -16.686329 24.996358 -1.426648 2.301710 0.086218 -0.018554 418447.000000 0 1 0
-3.490622 19.698177 -17.156929 26.354560 -1.395412 2.279703 0.099640 -0.024776 669463.000000 0 0 1
-3.734422 19.638777 -18.566729 27.282795 -1.382884 2.319280 0.092002 -0.028915 -428094.000000 0 0 1
-4.199922 20.919277 -19.080629 28.623869 -1.372662 2.300433 0.097002 -0.026534 -39792.800000 0 0 1
-3.217822 22.086377 -19.324029 29.522543 -1.426122 2.284386 0.108508 -0.038693 -507439.000000 0 0 1
-2.262322 21.850477 -20.334029 29.933830 -1.467627 2.317604 0.117825 -0.034821 -253430.000000 0 0 1
-1.161822 22.718277 -20.279129 30.474793 -1.519700 2.298879 0.111042 -0.040836 912964.000000 0 0 1
0.041278 22.275377 -19.332229 29.494562 1.568943 2.285575 0.123774 -0.041350 642832.000000 0 0 1
-0.354722 22.175077 -17.988629 28.556096 -1.554801 2.252272 0.130369 -0.037816 -550782.000000 0 0 1
0.800678 22.014477 -17.220629 27.961194 1.534442 2.234294 0.121528 -0.031671 -146984.000000 0 0 1
0.520778 21.972677 -15.694029 27.006894 1.547100 2.190891 0.137742 -0.037357 -163527.000000 0 0 1
-0.336122 20.929377 -15.308729 25.932778 -1.554738 2.202256 0.120183 -0.024464 -276846.000000 0 0 1
-0.595322 20.990077 -13.922329 25.194622 -1.542442 2.156266 0.123386 -0.027137 -96894.500000 0 0 1
-1.659822 20.011277 -13.495929 24.193932 -1.488041 2.162557 0.089471 -0.015248 4035.500000 0 1 0
-1.052322 18.737177 -13.328329 23.018113 -1.514693 2.188343 0.080959 -0.011957 617126.000000 0 1 0
-2.067422 17.803877 -12.951129 22.112983 -1.455192 2.196515 0.065111 -0.006002 519844.000000 0 1 0
-1.604522 16.322077 -13.043029 20.954839 -1.472807 2.242647 0.043800 -0.001891 -652613.000000 0 1 0
-0.621222 15.998577 -12.106029 20.072278 -1.531986 2.218205 0.028631 -0.005456 136899.000000 0 1 0
-0.032922 14.667277 -12.072629 18.996802 -1.568552 2.259463 0.025083 -0.004694 347518.000000 0 1 0
0.563478 13.979377 -13.304929 19.307036 1.530510 2.331075 0.023170 -0.005829 -299993.000000 0 1 0
-0.326522 13.627077 -14.354329 19.795217 -1.546840 2.382036 0.030241 -0.016589 16174.500000 0 1 0
0.398378 12.883777 -15.306029 20.010621 1.539885 2.441675 0.032278 -0.013746 -228736.000000 0 1 0
-0.399722 12.632477 -16.578429 20.846668 -1.539164 2.490225 0.036996 -0.016617 -57934.000000 0 1 0
-0.523322 13.849277 -17.241429 22.121103 -1.533027 2.464521 0.055098 -0.024173 -193509.000000 0 1 0
-0.408722 13.565777 -18.634129 23.052725 -1.540677 2.512100 0.060157 -0.025371 -179813.000000 0 1 0
-0.954722 14.717077 -19.467529 24.423115 -1.506015 2.493264 0.065210 -0.017636 207477.000000 0 1 0
-0.192222 15.911677 -19.310829 25.022520 -1.558716 2.452366 0.071914 -0.025892 -39120.800000 0 0 1
-0.949822 16.968677 -19.779329 26.077960 -1.514880 2.431757 0.089388 -0.033117 -482032.000000 0 0 1
-0.036222 18.156977 -19.870129 26.916522 -1.568801 2.401214 0.098372 -0.038402 -391200.000000 0 0 1
0.663078 17.982177 -21.070429 27.708507 1.533939 2.434774 0.093090 -0.036495 -422009.000000 0 0 1
1.625778 19.015577 -21.110529 28.458562 1.485507 2.406545 0.087392 -0.032546 21408.200000 0 0 1
2.200978 19.157977 -22.558629 29.677671 1.456412 2.434296 0.084177 -0.039692 283808.000000 0 0 1
3.100278 18.136977 -23.016029 29.466918 1.401496 2.467190 0.074382 -0.032433 103770.000000 0 0 1
3.423978 18.381877 -24.341129 30.693771 1.386638 2.486566 0.075599 -0.047693 16009.700000 0 0 1
4.377578 17.289577 -24.892429 30.622307 1.322816 2.519886 0.061515 -0.026493 -1345940.000000 0 0 1
5.585078 17.281677 -24.236429 30.286201 1.258212 2.498503 0.055050 -0.020901 -1151710.000000 0 0 1
6.402778 16.191577 -24.545329 30.093785 1.194228 2.524610 0.056956 -0.013254 235913.000000 0 0 1
7.087078 16.182877 -25.997329 31.432042 1.158019 2.544718 0.047280 -0.015718 -340428.000000 0 0 1
8.145778 17.165577 -26.097939 32.281777 1.127722 2.512296 0.042448 -0.009595 690441.000000 0 0 1
8.508078 17.531277 -27.432139 33.649002 1.118971 2.523946 0.042837 -0.014258 -8151.610000 0 0 1
9.185378 16.413877 -28.235539 33.926865 1.060605 2.553945 0.021583 -0.012093 -327187.000000 0 0 1
10.485178 16.056277 -27.782859 33.758410 0.992296 2.537452 0.024001 -0.006250 234541.000000 0 0 1
10.884178 14.749677 -28.118029 33.565486 0.935067 2.563866 0.017102 -0.003848 -298428.000000 0 0 1
10.523878 13.603877 -27.155999 32.144451 0.912365 2.577009 0.029415 -0.012776 -1200860.000000 0 0 1
9.188078 13.311277 -27.320779 31.749580 0.966646 2.607063 0.048103 -0.010075 -1053140.000000 0 0 1
8.679778 12.669277 -26.187409 30.358352 0.970137 2.611202 0.051473 -0.006717 225672.000000 0 0 1
7.266378 12.060677 -26.353689 29.879376 1.028552 2.650891 0.052629 -0.009448 -269956.000000 0 0 1
6.225178 12.945877 -26.471809 30.118188 1.122576 2.644413 0.045628 -0.007655 -880113.000000 0 0 1
4.972878 12.309677 -26.441119 29.586998 1.186863 2.676263 0.069940 -0.012838 208837.000000 0 0 1
3.752978 13.197477 -26.764989 30.076949 1.293739 2.667887 0.068545 -0.015866 -528825.000000 0 0 1
3.488778 13.540777 -28.100489 31.387285 1.318631 2.679861 0.067744 -0.020739 301515.000000 0 0 1
4.452578 14.364977 -28.737159 32.434585 1.270227 2.659450 0.074523 -0.033218 -42233.600000 0 0 1
4.382478 14.163877 -30.250489 33.688479 1.270727 2.685880 0.066103 -0.027539 -458138.000000 0 0 1
5.079778 13.049377 -30.651959 33.699154 1.199571 2.713060 0.070725 -0.025765 -576686.000000 0 0 1
5.001378 12.851377 -31.999189 34.844221 1.199660 2.734687 0.072963 -0.027735 -16036.500000 0 0 1
6.200478 11.916977 -32.459069 35.129068 1.091036 2.749194 0.078872 -0.019726 1391840.000000 0 0 1
7.524978 12.420077 -32.225009 35.345930 1.026070 2.718208 0.082120 -0.015323 716583.000000 0 0 1
8.019878 12.552777 -30.880429 34.285442 1.002269 2.692143 0.069604 -0.015647 -779927.000000 0 0 1
7.986978 11.357277 -29.975879 33.035328 0.957894 2.707825 0.075819 -0.014788 -513155.000000 0 0 1
8.978878 10.392277 -30.200479 33.176627 0.858233 2.714790 0.054499 -0.006521 -215529.000000 0 0 1
8.745978 9.245477 -29.402289 32.038501 0.813154 2.733092 0.052552 -0.010425 -8990.470000 0 0 1
9.712578 8.056977 -29.625189 32.200945 0.692496 2.738902 0.043381 -0.011454 1370330.000000 0 0 1
11.061478 8.330077 -29.135019 32.258267 0.645464 2.697917 0.038945 -0.011663 924492.000000 0 0 1
11.782978 7.137177 -29.205929 32.291859 0.544614 2.700853 0.024932 0.000600 79908.200000 0 0 1
13.246578 7.418777 -28.695469 32.464442 0.510528 2.654943 0.024675 -0.004379 556387.000000 0 0 1
14.038278 6.328477 -28.338529 32.252056 0.423520 2.643841 0.028533 -0.008917 -106737.000000 0 0 1
14.817378 5.908377 -29.421669 33.467868 0.379425 2.644771 0.032831 -0.010472 -1177290.000000 0 0 1
15.711578 4.711877 -29.123239 33.424819 0.291364 2.628653 0.044541 -0.011922 -1266590.000000 0 0 1
16.731678 5.106977 -28.325619 33.292205 0.296246 2.588337 0.043774 -0.011936 -808953.000000 0 0 1
17.526178 4.002177 -27.911629 33.200051 0.224505 2.569390 0.050073 -0.007455 -64233.600000 0 0 1
18.174678 4.338177 -26.555659 32.470629 0.234309 2.528437 0.047606 -0.003580 -93030.100000 0 0 1
19.077878 5.440977 -26.549779 33.143030 0.277823 2.499872 0.059505 -0.008884 382847.000000 0 0 1
19.426678 5.648577 -25.209939 32.324035 0.282962 2.465323 0.061591 -0.009571 372734.000000 0 0 1
20.569578 6.748577 -25.157599 33.189691 0.317020 2.431029 0.056746 -0.015013 287307.000000 0 0 1
20.157278 8.043677 -25.574779 33.542300 0.379684 2.437908 0.061032 -0.016762 379289.000000 0 0 1
20.985678 8.684177 -26.560089 34.946415 0.392358 2.434145 0.066861 -0.021927 -590906.000000 0 0 1
20.910578 8.265977 -28.044169 35.945153 0.376449 2.465771 0.076792 -0.031093 -325868.000000 0 0 1
19.809978 8.606277 -28.840119 36.031315 0.409840 2.498789 0.070437 -0.031744 -463452.000000 0 0 1
18.657478 7.843677 -28.573159 35.014999 0.397971 2.525299 0.069512 -0.023532 -756065.000000 0 0 1
17.423478 8.394377 -29.292259 35.100991 0.448970 2.558046 0.057932 -0.026247 -683080.000000 0 0 1
17.540578 8.391777 -30.671619 36.315864 0.446236 2.576575 0.049567 -0.023451 26271.000000 0 0 1
16.470278 9.018377 -31.316189 36.514447 0.500964 2.601456 0.033861 -0.017240 -568082.000000 0 0 1
16.008578 8.433777 -32.643119 37.322599 0.484879 2.635449 0.015705 -0.007644 -563234.000000 0 0 1
15.291178 7.271777 -32.588439 36.724722 0.443900 2.662407 0.026591 0.000157 521437.000000 0 0 1
13.924478 7.485577 -32.985859 36.578571 0.493261 2.694669 0.024879 0.005870 452943.000000 0 0 1
13.227078 6.203377 -33.337799 36.398438 0.438534 2.728573 0.032947 -0.001982 -286794.000000 0 0 1
13.130978 5.252777 -32.285259 35.247017 0.380532 2.728719 0.030191 0.000587 504498.000000 0 0 1
12.054678 4.326377 -32.455349 34.891008 0.344578 2.765733 0.026274 -0.008414 431508.000000 0 0 1
12.009278 3.319777 -31.267699 33.658768 0.269699 2.762394 0.036857 -0.005682 -448174.000000 0 0 1
13.158778 2.533477 -31.256089 34.007573 0.190204 2.736566 0.035105 -0.012518 -183966.000000 0 0 1
13.177278 1.533177 -30.226709 33.009774 0.115829 2.728017 0.040398 -0.011717 353279.000000 0 0 1
12.271078 0.239077 -30.409369 32.792777 0.019481 2.757981 0.032297 -0.009579 476732.000000 0 0 1
12.752378 -0.747423 -31.332159 33.836163 -0.058543 2.754462 0.024954 -0.013780 -125485.000000 0 0 1
13.786378 -1.528323 -30.799389 33.778726 -0.110407 2.718439 0.027996 -0.013992 6908.390000 0 0 1
14.172878 -2.848023 -31.535649 34.691193 -0.198308 2.711769 0.022931 -0.017499 902706.000000 0 0 1
13.128378 -3.856823 -31.537539 34.377983 -0.285738 2.732233 0.028603 -0.028501 900017.000000 0 0 1
13.534778 -4.912523 -32.416309 35.470272 -0.348170 2.723588 0.047455 -0.028816 540579.000000 0 0 1
12.727578 -6.238123 -32.131919 35.119305 -0.455718 2.726146 0.047030 -0.031378 136292.000000 0 0 1
13.307378 -6.875523 -31.020799 34.447773 -0.476894 2.691753 0.055105 -0.026382 224644.000000 0 0 1
12.807378 -8.230723 -30.808189 34.364491 -0.571194 2.682629 0.069410 -0.040547 104337.000000 0 0 1
13.265378 -8.806323 -29.479959 33.505067 -0.586055 2.646376 0.056621 -0.038556 323664.000000 0 0 1
14.592478 -9.340423 -29.493569 34.206059 -0.569373 2.610457 0.072059 -0.040328 487850.000000 0 0 1
14.946178 -10.089423 -28.357509 33.605550 -0.593784 2.575185 0.085147 -0.036516 -87169.300000 0 0 1
14.627378 -11.622923 -28.419919 34.010944 -0.671440 2.560040 0.073188 -0.026593 300410.000000 0 0 1
13.235678 -11.903523 -28.486069 33.590670 -0.732457 2.583063 0.071048 -0.033724 302514.000000 0 0 1
12.986578 -13.283223 -28.727439 34.210539 -0.796690 2.567573 0.073784 -0.034209 -126084.000000 0 0 1
-9.674822 -3.118323 -17.731929 20.438870 0.311800 2.621070 -0.001544 -0.004764 -795527.000000 0 1 0
-10.392022 -2.748223 -18.833529 21.685217 0.258536 2.622957 -0.000927 -0.007892 -603359.000000 0 1 0
-11.543422 -3.556923 -18.918429 22.445695 0.298903 2.573360 0.010232 -0.016847 -582622.000000 0 1 0
-12.423222 -3.251423 -20.100329 23.852283 0.255980 2.573076 0.022083 -0.026306 -537699.000000 0 1 0
-13.314622 -2.186623 -19.797029 23.957939 0.162774 2.543346 0.022550 -0.022586 -57756.400000 0 1 0
-14.230122 -2.046023 -20.872029 25.344115 0.142802 2.538429 0.024738 -0.011745 474485.000000 0 0 1
-15.077922 -0.700323 -20.823429 25.718658 0.046414 2.514373 0.027215 -0.013350 499140.000000 0 0 1
-14.352622 0.488477 -21.179529 25.589232 -0.034021 2.545746 0.035728 -0.015836 -143555.000000 0 0 1
-15.139022 1.648177 -21.090129 26.013458 -0.108442 2.516210 0.034998 -0.008406 -326546.000000 0 0 1
-14.531222 2.874677 -21.774229 26.335095 -0.195306 2.544216 0.063736 -0.022689 191637.000000 0 0 1
-13.601622 3.533877 -20.886429 25.174100 -0.254193 2.549329 0.061567 -0.020964 317985.000000 0 0 1
-13.312022 4.721677 -21.478029 25.706223 -0.340849 2.559872 0.070199 -0.030994 -1294970.000000 0 0 1
-12.107222 5.444577 -20.990629 24.836158 -0.422602 2.577668 0.049642 -0.025262 -1203660.000000 0 1 0
-12.216222 6.069577 -19.723129 23.980777 -0.461121 2.536511 0.055058 -0.029729 -357264.000000 0 1 0
-10.977622 6.434777 -19.204029 23.037128 -0.530190 2.556412 0.030901 -0.015601 -448067.000000 0 1 0
-11.121422 7.178677 -17.841329 22.215590 -0.573193 2.503275 0.031404 -0.013593 30825.600000 0 1 0
-11.634822 8.507677 -17.943829 23.015878 -0.631377 2.464868 0.028347 -0.018807 678144.000000 0 1 0
-12.634222 8.652677 -16.906429 22.810518 -0.600493 2.405605 0.046640 -0.013330 -89442.900000 0 1 0
-13.427522 9.895277 -16.937629 23.771793 -0.635090 2.363865 0.060215 -0.016177 -247165.000000 0 1 0
-12.741622 10.981577 -16.322729 23.438759 -0.711343 2.341164 0.020590 0.000510 785474.000000 0 1 0
-13.659622 12.072377 -16.488429 24.580396 -0.723793 2.306078 0.042429 -0.012868 596051.000000 0 1 0
-13.191422 13.339477 -15.750929 24.495857 -0.790979 2.269210 0.040618 -0.008250 -227723.000000 0 1 0
-13.367122 13.348277 -14.334329 23.713486 -0.784693 2.219909 0.053948 -0.011262 144318.000000 0 1 0
-12.942522 14.603177 -13.872129 23.941546 -0.845613 2.188809 0.055706 -0.014836 -789178.000000 0 1 0
-13.215422 14.795577 -12.356729 23.371890 -0.841750 2.127865 0.055814 -0.018801 1626950.000000 0 1 0
-14.571022 15.098677 -11.925429 24.135049 -0.803181 2.087610 0.063909 -0.020788 1007120.000000 0 1 0
-15.584622 14.205777 -12.246929 24.385894 -0.739146 2.096953 0.053500 -0.016505 11885.800000 0 1 0
-17.004022 14.462277 -11.617329 25.164589 -0.704796 2.050655 0.038886 -0.005775 275167.000000 0 0 1
-17.928122 13.492377 -11.968829 25.430585 -0.645151 2.060820 0.025081 -0.013284 37827.200000 0 0 1
-19.178622 13.897577 -11.375829 26.274925 -0.627072 2.018563 0.054019 -0.021160 884837.000000 0 0 1
-20.400422 13.420677 -12.260729 27.324298 -0.581883 2.036119 0.067154 -0.026918 246591.000000 0 0 1
-20.668522 12.067477 -12.139029 26.835943 -0.528466 2.040186 0.083819 -0.027579 870228.000000 0 0 1
-21.753922 11.591377 -12.976629 27.856526 -0.489574 2.055378 0.119008 -0.026113 425088.000000 0 0 1
-22.333122 10.354377 -12.247329 27.495064 -0.434133 2.032459 0.110557 -0.025287 -221135.000000 0 0 1
-21.610122 9.183477 -12.553129 26.625451 -0.401838 2.061754 0.109597 -0.025586 113494.000000 0 0 1
-22.105922 8.128677 -11.840129 26.361635 -0.352369 2.036602 0.107211 -0.025556 -425250.000000 0 0 1
-21.110922 6.997977 -11.507129 25.041101 -0.320087 2.048262 0.123562 -0.026983 -234454.000000 0 0 1
-20.742122 6.293377 -12.682529 25.113517 -0.294583 2.100188 0.125940 -0.028076 336240.000000 0 0 1
-19.574622 5.541477 -12.420929 23.835966 -0.275876 2.118936 0.116488 -0.036594 51802.300000 0 1 0
-19.416822 4.542777 -13.578429 24.125164 -0.229827 2.168605 0.118495 -0.042355 355585.000000 0 1 0
-20.396722 3.502777 -13.422129 24.666764 -0.170073 2.146158 0.116948 -0.039892 889298.000000 0 1 0
-20.126022 2.429377 -14.364329 24.845373 -0.120127 2.187255 0.113158 -0.037451 254855.000000 0 1 0
-20.916522 1.096177 -13.998629 25.192540 -0.052359 2.159960 0.094788 -0.031133 363748.000000 0 0 1
-22.204722 0.955177 -14.549629 26.564144 -0.042990 2.150429 0.092854 -0.029627 217010.000000 0 0 1
-22.789122 -0.290523 -14.221129 26.863897 0.012748 2.128662 0.087418 -0.037064 539114.000000 0 0 1
-24.134622 -0.632123 -14.938429 28.390777 0.026186 2.124889 0.103827 -0.026605 647353.000000 0 0 1
-25.317352 -0.140023 -14.339629 29.096613 0.005531 2.086133 0.123744 -0.039396 785537.000000 0 0 1
-26.521222 -0.480723 -15.033029 30.489314 0.018124 2.086399 0.110267 -0.027959 440053.000000 0 0 1
-27.819722 0.041877 -14.430629 31.339779 -0.001505 2.049307 0.110337 -0.029370 -418657.000000 0 0 1
-28.196512 -0.689123 -13.281229 31.175458 0.024435 2.010880 0.119724 -0.031568 281248.000000 0 0 1
-29.467192 -0.283123 -12.799729 32.128315 0.009608 1.980562 0.145134 -0.034067 534098.000000 0 0 1
-30.022442 -0.895323 -11.446029 32.142809 0.029813 1.934886 0.129462 -0.036658 -23728.300000 0 0 1
-30.391922 -2.267223 -11.347029 32.520213 0.074462 1.927217 0.126492 -0.024986 241684.000000 0 0 1
-29.386022 -3.233023 -11.516029 31.727112 0.109578 1.942251 0.124803 -0.033168 -368273.000000 0 0 1
-29.805952 -4.614023 -10.969329 32.093771 0.153583 1.919617 0.118304 -0.030942 -12586.300000 0 0 1
-30.825652 -5.275123 -11.700429 33.390834 0.169486 1.928803 0.098730 -0.020744 300277.000000 0 0 1
-31.352722 -6.468423 -11.151829 33.899807 0.203457 1.906003 0.091654 -0.019541 -39685.900000 0 0 1
-30.626112 -7.720823 -11.672529 33.672210 0.246954 1.924795 0.088865 -0.027310 -524951.000000 0 0 1
-29.281792 -7.795223 -11.328429 32.349994 0.260180 1.928563 0.109469 -0.019854 -706265.000000 0 0 1
-28.552782 -8.787923 -11.987829 32.190014 0.298577 1.952399 0.112409 -0.026050 1356630.000000 0 0 1
-27.017482 -8.892623 -11.559529 30.702537 0.317975 1.956813 0.091319 -0.028564 1202870.000000 0 0 1
-26.235022 -7.757423 -11.955229 29.856012 0.287498 1.982782 0.084364 -0.022912 1359880.000000 0 0 1
-24.826022 -7.890923 -11.684429 28.550375 0.307750 1.992435 0.112957 -0.026238 913126.000000 0 0 1
-24.396122 -7.642523 -10.202029 27.525630 0.303584 1.950492 0.123984 -0.028454 -525836.000000 0 0 1
-24.627122 -6.393723 -9.591829 27.191506 0.254013 1.931306 0.115630 -0.021356 1338100.000000 0 0 1
-26.021712 -6.059223 -9.422829 28.330785 0.228776 1.909856 0.121792 -0.024802 584350.000000 0 0 1
-26.341202 -4.722723 -8.748129 28.154800 0.177405 1.886742 0.135327 -0.028519 -188724.000000 0 0 1
-25.912542 -4.700923 -7.368129 27.346806 0.179463 1.843600 0.125128 -0.023927 569880.000000 0 0 1
-26.019802 -3.351123 -6.795929 27.100641 0.128086 1.824268 0.151829 -0.032731 -43444.700000 0 0 1
-25.864392 -3.178923 -5.227529 26.578175 0.122294 1.768772 0.143476 -0.027719 394384.000000 0 0 1
-24.502122 -3.324423 -4.820329 25.192089 0.134855 1.763327 0.111563 -0.022399 680051.000000 0 0 1
-24.328922 -3.204423 -3.426629 24.777138 0.130959 1.709539 0.076888 -0.012887 90745.200000 0 1 0
-22.886522 -3.548623 -2.985429 23.351625 0.153828 1.698994 0.065880 -0.011035 35982.900000 0 1 0
-22.643222 -4.933023 -3.105829 23.381539 0.214507 1.704023 0.074065 -0.007844 -473745.000000 0 1 0
-21.326622 -5.271523 -2.866829 22.154739 0.242323 1.700560 0.057197 -0.011107 -1158190.000000 0 1 0
-21.069822 -6.795323 -2.776329 22.311921 0.311982 1.695552 0.060508 -0.012538 -330908.000000 0 1 0
-21.615422 -7.308223 -1.597129 22.873290 0.326036 1.640678 0.056824 -0.008193 685792.000000 0 1 0
-22.319722 -8.538823 -1.831129 23.967363 0.365390 1.647272 0.070636 -0.016732 118631.000000 0 1 0
-22.938722 -9.223823 -0.617329 24.731457 0.382322 1.595760 0.079757 -0.021119 -23517.100000 0 1 0
-21.968122 -9.875423 0.193671 24.086508 0.422467 1.562756 0.066114 -0.017633 699528.000000 0 1 0
-22.564322 -10.536123 1.297971 24.936785 0.436849 1.518722 0.059533 -0.021720 -314323.000000 0 1 0
-21.494122 -11.235023 2.097671 24.343854 0.481644 1.484521 0.059610 -0.016423 -204354.000000 0 1 0
-20.811022 -12.252023 1.387871 24.189603 0.532090 1.513390 0.059835 -0.014701 -87098.000000 0 1 0
-19.763022 -12.807523 2.141771 23.647343 0.575007 1.480101 0.054644 -0.012955 -383746.000000 0 1 0
-18.948422 -13.849723 1.291971 23.505886 0.631176 1.515805 0.057240 -0.005459 -251528.000000 0 1 0
-19.624622 -15.092623 1.010271 24.777685 0.655592 1.530012 0.060022 -0.002297 422025.000000 0 1 0
-18.935022 -16.122623 0.308971 24.871057 0.705347 1.558373 0.055292 -0.007352 777275.000000 0 1 0
-17.638022 -16.780223 0.940471 24.363090 0.760481 1.532184 0.060008 -0.001638 1041630.000000 0 1 0
-16.446322 -16.002323 1.078971 22.972157 0.771716 1.523810 0.060964 -0.006017 546067.000000 0 1 0
-15.495522 -16.700023 1.839771 22.855781 0.822793 1.490214 0.066475 -0.005688 -134968.000000 0 1 0
-15.660122 -16.599023 3.407771 23.073359 0.814495 1.422561 0.083410 -0.008501 -514868.000000 0 1 0
-15.530822 -15.284623 3.788171 22.117332 0.777409 1.398672 0.070813 -0.011585 84286.500000 0 1 0
-14.538622 -15.003923 4.762571 21.428283 0.801147 1.346668 0.049925 -0.014401 9154.810000 0 1 0
-14.794922 -15.447823 6.215371 22.274554 0.806983 1.288008 0.048635 -0.009895 -842864.000000 0 1 0
-15.580622 -14.583923 6.973071 22.451510 0.752368 1.254989 0.045068 -0.006896 21654.600000 0 1 0
-15.641322 -14.965523 8.339071 23.198231 0.763322 1.203096 0.044729 -0.002036 -486115.000000 0 1 0
-16.540922 -16.192023 8.654471 24.712013 0.774740 1.212998 0.042182 -0.002855 -578568.000000 0 1 0
-16.027822 -17.418523 8.303171 25.084630 0.826954 1.233427 0.042716 -0.002796 -436173.000000 0 0 1
-16.775022 -18.505023 8.823071 26.489315 0.834395 1.231228 0.057630 -0.014779 -122389.000000 0 0 1
-16.520222 -18.885923 10.286071 27.118242 0.852115 1.181752 0.065177 -0.015331 911189.000000 0 0 1
-15.205222 -19.427023 10.546371 26.829721 0.906703 1.166812 0.040066 -0.009646 767558.000000 0 0 1
-14.988522 -19.923423 11.821871 27.592666 0.925821 1.128028 0.048852 -0.015620 62430.700000 0 0 1
-13.567722 -20.448223 12.076071 27.350400 0.984978 1.113491 0.047360 -0.014206 599447.000000 0 0 1
-12.453222 -19.567323 11.937871 26.085928 1.004020 1.095461 0.037424 -0.011556 558901.000000 0 0 1
-11.218622 -20.289623 12.023871 26.117039 1.065711 1.092368 0.045240 -0.014721 1064110.000000 0 0 1
-10.008922 -19.367623 12.377271 25.069507 1.093810 1.054436 0.033357 -0.015505 303811.000000 0 0 1
-9.503122 -18.643723 11.275471 23.770443 1.099401 1.076573 0.026339 -0.019020 -98131.600000 0 1 0
-8.451622 -17.792523 11.708771 22.915041 1.127340 1.034490 0.024031 -0.016172 300377.000000 0 1 0
-7.551622 -17.297323 10.555771 21.625186 1.159160 1.060857 0.014595 -0.017361 118241.000000 0 1 0
-6.619122 -18.222023 10.023771 21.825006 1.222368 1.093613 0.020905 -0.017530 -287977.000000 0 1 0
-5.838722 -17.570223 9.071871 20.618008 1.249969 1.115200 0.020301 -0.012916 -445251.000000 0 1 0
-4.745922 -18.393323 8.392571 20.767122 1.318280 1.154771 0.015865 -0.014230 75957.000000 0 1 0
-3.578722 -18.511723 9.201871 20.980123 1.379830 1.116757 0.023509 -0.007965 -525188.000000 0 1 0
-2.534322 -18.947523 8.404671 20.882287 1.437831 1.156574 0.026898 -0.019491 -695774.000000 0 1 0
-1.279122 -19.342223 9.185271 21.450570 1.504761 1.128289 0.030155 -0.013220 -5141.520000 0 1 0
-0.206222 -19.602623 8.294671 21.286308 1.560277 1.170521 0.032828 -0.016635 -14472.400000 0 1 0
1.060278 -19.679423 8.923371 21.634011 -1.516971 1.145633 0.040232 -0.023804 -139793.000000 0 1 0
2.092478 -20.281723 7.987971 21.898274 -1.467989 1.197404 0.040208 -0.028990 -537234.000000 0 1 0
1.864378 -21.592023 7.515171 22.938377 -1.484664 1.237008 0.039974 -0.022485 -80567.000000 0 1 0
2.063078 -22.555923 8.545271 24.208420 -1.479585 1.210034 0.048533 -0.022742 -184476.000000 0 1 0
1.633478 -23.977223 8.158671 25.379901 -1.502775 1.243523 0.027261 -0.017817 -33184.900000 0 0 1
1.753678 -24.902423 9.192571 26.602808 -1.500490 1.217973 0.042832 -0.017649 -255521.000000 0 0 1
1.431978 -26.185243 8.670171 27.620452 -1.516164 1.251494 0.044734 -0.014078 -634145.000000 0 0 1
1.607078 -27.383903 9.620471 29.069130 -1.512177 1.233485 0.053809 -0.011206 306523.000000 0 0 1
0.898978 -27.300013 10.850571 29.391049 -1.537879 1.192670 0.037807 -0.014022 961777.000000 0 0 1
-0.540522 -27.376773 10.789971 29.431332 1.551055 1.195428 0.024771 -0.007331 774791.000000 0 0 1
-1.213922 -27.472963 12.130771 30.056495 1.526639 1.155349 0.021360 -0.009653 -112506.000000 0 0 1
-0.910022 -28.727343 12.744271 31.440496 1.539129 1.153439 0.023364 -0.014693 -48322.600000 0 0 1
-1.300222 -28.645643 14.132471 31.968581 1.525438 1.112887 0.013136 -0.018324 -127595.000000 0 0 1
-0.551722 -29.666843 15.009471 33.252221 1.552201 1.102482 0.011529 -0.001532 139816.000000 0 0 1
-0.744722 -29.330573 16.367371 33.596547 1.545411 1.061945 0.016671 -0.005652 -101670.000000 0 0 1
-0.162322 -30.278073 17.194671 34.820177 1.565435 1.054327 0.020269 -0.005619 -241620.000000 0 0 1
-0.603122 -29.960433 18.633371 35.287304 1.550668 1.014497 0.033014 -0.008885 1032130.000000 0 0 1
-2.004522 -30.262123 18.798371 35.681829 1.504654 1.015926 0.020882 -0.006855 926866.000000 0 0 1
-2.453822 -30.059133 20.104071 36.245639 1.489344 0.982840 0.042401 -0.014226 124980.000000 0 0 1
-3.956122 -30.073713 20.458671 36.587379 1.440000 0.977408 0.072467 -0.021024 137115.000000 0 0 1
-4.790622 -29.043043 19.948571 35.558317 1.407319 0.975191 0.053858 -0.018448 731167.000000 0 0 1
-6.047022 -28.900693 20.623671 36.016001 1.364537 0.961092 0.065809 -0.025644 704516.000000 0 0 1
-6.050822 -27.840503 21.742271 35.838979 1.356786 0.918937 0.074492 -0.028159 -138269.000000 0 0 1
-5.241822 -28.185763 22.868771 36.672805 1.386923 0.897471 0.079378 -0.026504 151735.000000 0 0 1
-5.266822 -27.133963 23.775671 36.459209 1.379076 0.860423 0.075953 -0.024124 -257419.000000 0 0 1
-4.322222 -27.406343 24.977071 37.331532 1.414376 0.837852 0.086084 -0.025686 47493.300000 0 0 1
-4.626922 -28.577593 25.752171 38.746116 1.410282 0.843786 0.088958 -0.025071 26464.300000 0 0 1
-4.015522 -29.748063 25.261871 39.233070 1.436623 0.871222 0.079264 -0.024775 -60878.500000 0 0 1
-4.329622 -31.006323 26.140971 40.785881 1.432057 0.875085 0.090493 -0.020021 62590.100000 0 0 1
-3.671322 -31.057653 27.405671 41.582775 1.453132 0.851224 0.076476 -0.019129 -9417.820000 0 0 1
-4.044722 -32.111873 28.268271 42.972402 1.445499 0.852871 0.061740 -0.024227 -297607.000000 0 0 1
-3.398922 -32.024603 29.685471 43.799030 1.465057 0.826077 0.086256 -0.023387 112304.000000 0 0 1
-1.983822 -31.990533 29.606071 43.633120 1.508863 0.825046 0.089299 -0.028294 281187.000000 0 0 1
-1.431422 -31.850313 30.924071 44.416096 1.525884 0.800656 0.096906 -0.031641 -126568.000000 0 0 1
-28.414562 2.741477 -10.094929 30.278881 -0.096184 1.910702 0.134341 -0.027711 -279567.000000 0 0 1
-29.256742 2.264377 -11.151829 31.391840 -0.077243 1.933974 0.128842 -0.040622 305406.000000 0 0 1
-29.735362 3.453377 -11.770229 32.166067 -0.115619 1.945418 0.118212 -0.038565 -387670.000000 0 0 1
-30.628722 3.209377 -12.965229 33.414306 -0.104402 1.969272 0.104375 -0.030424 -691628.000000 0 0 1
-31.874012 2.692677 -12.606829 34.382194 -0.084279 1.946221 0.112747 -0.033058 -549210.000000 0 0 1
-32.722072 2.621777 -13.693829 35.568647 -0.079952 1.966001 0.117770 -0.028147 -978837.000000 0 0 1
-33.911132 1.727077 -13.484429 36.534607 -0.050886 1.948822 0.108892 -0.028038 -497192.000000 0 0 1
-33.498582 0.383977 -13.355329 36.064764 -0.011462 1.950145 0.113006 -0.026562 516846.000000 0 0 1
-34.471292 -0.316523 -12.599729 36.703179 0.009182 1.921211 0.100595 -0.026853 280652.000000 0 0 1
-33.889442 -1.677723 -12.327629 36.100962 0.049465 1.919284 0.084153 -0.027014 22911.400000 0 0 1
-34.262023 -2.671123 -13.235129 36.826481 0.077804 1.938412 0.086554 -0.019228 209896.000000 0 0 1
-33.610492 -3.919023 -12.928829 36.224005 0.116077 1.935758 0.087096 -0.020272 325787.000000 0 0 1
-34.247016 -5.101723 -13.749229 37.254892 0.147881 1.948792 0.077378 -0.018016 254718.000000 0 0 1
-34.208761 -6.348723 -13.150929 37.195329 0.183500 1.932175 0.068126 -0.023752 67036.800000 0 0 1
-34.442172 -7.354723 -14.144929 37.953052 0.210379 1.952708 0.070271 -0.021251 -644035.000000 0 0 1
-34.332023 -8.803423 -13.534029 37.938872 0.251012 1.935564 0.073845 -0.019132 -368561.000000 0 0 1
-33.079342 -9.359823 -13.204329 36.826667 0.275743 1.937514 0.071015 -0.023232 48172.300000 0 0 1
-32.262562 -9.572623 -14.341429 36.581205 0.288436 1.973648 0.065123 -0.029058 -282432.000000 0 0 1
-31.024932 -10.450823 -14.024829 35.615473 0.324914 1.975542 0.067250 -0.031780 -61084.600000 0 0 1
-31.390222 -11.807923 -13.847229 36.283864 0.359792 1.962362 0.059903 -0.026909 794762.000000 0 0 1
-30.249082 -12.629223 -13.564529 35.475353 0.395507 1.963151 0.095164 -0.029766 436034.000000 0 0 1
-30.551182 -14.062223 -14.077329 36.459457 0.431373 1.967206 0.101893 -0.031464 -84182.000000 0 0 1
-30.534242 -14.134223 -15.543129 37.063527 0.433528 2.003542 0.103292 -0.038362 80195.500000 0 0 1
-30.773382 -15.459723 -16.119129 38.024076 0.465544 2.008564 0.108999 -0.037426 120170.000000 0 0 1
-29.611332 -16.473423 -15.843029 37.405965 0.507684 2.008149 0.108201 -0.033029 95607.500000 0 0 1
-28.341402 -15.986123 -16.160029 36.330947 0.513570 2.031748 0.117981 -0.037205 -969958.000000 0 0 1
-27.393832 -17.006723 -16.108729 36.043609 0.555590 2.034119 0.110430 -0.037646 1263990.000000 0 0 1
-25.924892 -16.527223 -16.516429 34.900452 0.567540 2.063766 0.117412 -0.049659 1417480.000000 0 0 1
-25.835002 -16.170823 -17.891329 35.341795 0.559266 2.101612 0.127602 -0.045821 -1700550.000000 0 0 1
-24.543522 -16.053623 -18.280129 34.558159 0.579244 2.128179 0.118142 -0.037934 -1700510.000000 0 0 1
-24.326222 -15.468023 -19.715229 34.924419 0.566369 2.170637 0.129004 -0.037276 -28587.500000 0 0 1
-24.780622 -16.227223 -20.822029 36.207166 0.579767 2.183499 0.111054 -0.038928 919675.000000 0 0 1
-26.198462 -16.175823 -21.034629 37.289037 0.553140 2.170135 0.115898 -0.044297 349190.000000 0 0 1
-26.726292 -17.397523 -21.738029 38.594175 0.577044 2.169106 0.104259 -0.040724 -751103.000000 0 0 1
-26.120002 -17.592823 -22.932329 38.957074 0.592745 2.200192 0.099273 -0.027617 59136.800000 0 0 1
-26.712402 -18.727123 -23.588329 40.257506 0.611440 2.196831 0.080491 -0.016050 641424.000000 0 0 1
-26.024282 -19.038923 -25.039029 40.825198 0.631610 2.231057 0.061316 -0.020354 706726.000000 0 0 1
-24.665022 -19.417723 -25.024329 40.145090 0.666923 2.243812 0.055564 -0.023109 -80425.300000 0 0 1
-24.403922 -20.792723 -24.810029 40.539194 0.705668 2.229385 0.054084 -0.025723 -1191720.000000 0 0 1
-22.948622 -21.180723 -24.721729 39.829965 0.745358 2.240408 0.056887 -0.018458 -834474.000000 0 0 1
-22.402122 -21.124423 -26.001269 40.300897 0.756052 2.272053 0.045593 -0.020800 69559.100000 0 0 1
-21.017822 -21.465023 -25.980089 39.717264 0.795924 2.283823 0.040775 -0.017678 477310.000000 0 0 1
-20.461522 -21.550923 -27.421159 40.435579 0.811323 2.316031 0.040917 -0.014688 -498525.000000 0 0 1
-21.159022 -22.517223 -28.166779 41.810249 0.816485 2.309975 0.094035 -0.018973 -33512.500000 0 0 1
-21.573722 -22.105123 -29.470769 42.691781 0.797564 2.332720 0.082279 -0.013517 389407.000000 0 0 1
-20.429822 -22.156723 -30.550779 42.914427 0.825926 2.362996 0.082790 -0.018692 585498.000000 0 0 1
-20.070222 -23.468423 -30.905659 43.689134 0.863290 2.356608 0.092425 -0.027384 -182745.000000 0 0 1
-19.183322 -23.308823 -32.000629 43.992514 0.882183 2.385337 0.084670 -0.021047 71728.500000 0 0 1
-18.887522 -24.631023 -32.724859 45.103682 0.916618 2.382626 0.096488 -0.019396 220400.000000 0 0 1
-18.248922 -24.664723 -34.005149 45.800893 0.933804 2.407526 0.089082 -0.018057 -175160.000000 0 0 1
-19.120522 -24.308023 33.196073 45.370184 0.904284 0.750025 0.099976 -0.011723 -129820.000000 0 0 1
-18.495722 -24.205023 31.785874 44.026318 0.918315 0.764145 0.095324 -0.008343 48140.600000 0 0 1
-17.577022 -23.160923 31.564664 42.915126 0.921618 0.744372 0.074431 -0.011456 -197825.000000 0 0 1
-16.969522 -23.225423 30.304294 41.781996 0.939798 0.759333 0.082389 -0.013398 -114155.000000 0 0 1
-16.152622 -21.980723 30.018454 40.560658 0.937059 0.737595 0.064125 -0.013583 10906.600000 0 0 1
-16.996522 -20.841423 29.889704 40.207475 0.886666 0.732677 0.059560 -0.014954 224556.000000 0 0 1
-16.280722 -19.628623 29.827684 39.243286 0.878361 0.707374 0.059791 -0.015007 -222816.000000 0 0 1
-15.785922 -19.023423 31.151764 39.768308 0.878138 0.670789 0.060357 -0.021174 11954.100000 0 0 1
-15.426422 -17.681523 30.933354 38.826320 0.853407 0.648963 0.066129 -0.024135 -374813.000000 0 0 1
-14.822522 -17.074923 32.050984 39.224045 0.855895 0.614389 0.057527 -0.024391 -1553.030000 0 0 1
-14.188222 -15.703523 31.712484 38.125948 0.836048 0.588486 0.070381 -0.029362 -186472.000000 0 0 1
-12.949422 -15.853423 31.053324 37.193111 0.885882 0.582806 0.082123 -0.031750 -151616.000000 0 0 1
-12.541522 -14.661123 30.468314 36.063229 0.863160 0.564496 0.072574 -0.036282 414434.000000 0 0 1
-11.039822 -14.663523 30.035624 35.199933 0.925457 0.548541 0.083570 -0.039543 666106.000000 0 0 1
-10.600722 -13.289923 29.988424 34.471770 0.897489 0.515713 0.087683 -0.040492 492299.000000 0 0 1
-9.220522 -13.108023 30.322584 34.297192 0.957775 0.486205 0.079177 -0.035682 632198.000000 0 0 1
-8.751222 -11.620523 30.433644 33.731693 0.925325 0.445890 0.076568 -0.033615 -74068.300000 0 0 1
-9.306622 -10.905323 31.512674 34.620628 0.864331 0.426961 0.074757 -0.029196 -7030.500000 0 0 1
-9.139222 -9.494023 31.268924 33.932395 0.804437 0.398854 0.057036 -0.019368 -525572.000000 0 0 1
-9.804122 -8.561023 32.274689 34.800395 0.717813 0.383333 0.030446 -0.018577 322975.000000 0 0 1
-11.199822 -8.428023 31.981094 34.917874 0.645108 0.413065 0.047353 -0.021366 836410.000000 0 0 1
-12.015222 -7.681523 32.904254 35.861697 0.568828 0.408967 0.029860 -0.021944 449349.000000 0 0 1
-11.655622 -6.170423 33.102752 35.633128 0.486886 0.379127 0.014090 -0.013556 -430414.000000 0 0 1
-12.141022 -5.348823 32.055384 34.692391 0.414974 0.392413 0.031094 -0.012999 196233.000000 0 0 1
-12.310122 -4.048723 32.583026 35.065437 0.317750 0.378537 0.024098 -0.016146 -368986.000000 0 0 1
-11.815822 -2.933423 31.627744 33.890011 0.243342 0.367449 0.018053 -0.003562 -307765.000000 0 0 1
-10.419022 -2.844623 31.543604 33.341369 0.266526 0.329884 0.017188 -0.005648 -284933.000000 0 0 1
-10.097722 -1.506523 31.129974 32.761393 0.148102 0.316910 0.013958 -0.002047 24544.200000 0 0 1
-8.572122 -1.263723 31.165034 32.347142 0.146368 0.271180 0.025274 -0.002631 94531.000000 0 0 1
-8.065822 -1.046923 32.468022 33.471271 0.129076 0.245456 0.036246 -0.017917 -523387.000000 0 0 1
-6.790222 -0.487023 32.468120 33.174133 0.071601 0.206678 0.051509 -0.018875 -562609.000000 0 0 1
-6.361722 0.000477 33.887681 34.479653 -0.000075 0.185570 0.078022 -0.032335 -81858.000000 0 0 1
-7.073322 1.204277 -33.938399 34.688573 -0.168639 2.933245 0.071944 -0.020062 534275.000000 0 0 1
-6.552722 2.404577 33.743886 34.458236 -0.351702 0.203975 0.085420 -0.018765 128238.000000 0 0 1
-7.479322 3.622977 34.008320 35.009028 -0.451089 0.239673 0.079350 -0.016811 198861.000000 0 0 1
-8.564222 3.724977 33.105742 34.397842 -0.410265 0.274958 0.048054 -0.007181 305592.000000 0 0 1
-9.372922 4.887377 33.334883 34.970739 -0.480649 0.307074 0.042581 0.010960 127804.000000 0 0 1
-10.588522 4.923377 32.395427 34.435739 -0.435236 0.345961 0.032064 0.010115 -97320.000000 0 0 1
-11.514322 5.936377 32.703464 35.175798 -0.476022 0.377158 0.027087 0.011844 83877.400000 0 0 1
-12.437722 6.311577 31.712074 34.643738 -0.469593 0.414353 0.002689 0.013070 -145569.000000 0 0 1
-13.041422 7.668277 31.973374 35.371992 -0.531545 0.441954 0.021804 -0.002660 -344352.000000 0 0 1
-13.912722 7.741677 33.059966 36.694124 -0.507779 0.448818 0.013239 0.000132 -213367.000000 0 0 1
-14.528522 8.967377 33.181637 37.316389 -0.552989 0.475208 0.014633 0.000074 152160.000000 0 0 1
-15.479222 9.173177 -33.852599 38.337344 -0.534970 2.653052 0.002869 -0.003004 867968.000000 0 0 1
-14.714822 9.356277 -32.635099 37.001562 -0.566357 2.650870 0.016041 -0.008101 512267.000000 0 0 1
-15.581022 9.805777 -31.586149 36.559627 -0.561715 2.613883 0.022946 -0.012332 -787013.000000 0 0 1
-15.039822 9.925577 -30.092429 35.075171 -0.583340 2.602045 0.059443 -0.019269 562110.000000 0 0 1
-14.012122 10.917477 -29.877299 34.758939 -0.661895 2.605199 0.064487 -0.021160 852012.000000 0 0 1
-12.773322 10.709277 -30.545299 34.797437 -0.697727 2.642053 0.060313 -0.029362 -479010.000000 0 0 1
-12.071022 12.056977 -30.808499 35.217096 -0.784816 2.635853 0.056825 -0.024808 -32061.500000 0 0 1
-12.647022 12.928577 -31.791579 36.575945 -0.796406 2.624366 0.060888 -0.029113 83622.400000 0 0 1
-11.953322 14.158977 -31.903719 36.894523 -0.869666 2.615404 0.067499 -0.034214 -8449.970000 0 0 1
-12.058122 15.243077 -30.793059 36.413764 -0.901533 2.578566 0.074677 -0.035039 1101950.000000 0 0 1
-13.389522 15.804177 -30.875769 37.180162 -0.867922 2.550687 0.072058 -0.036063 998845.000000 0 0 1
-13.461622 16.809777 -29.914639 36.860134 -0.895555 2.517633 0.063604 -0.030578 -309439.000000 0 0 1
-14.849622 17.422677 -30.078459 37.799135 -0.864959 2.491032 0.055058 -0.033875 -716868.000000 0 0 1
-15.007922 18.136377 -31.261599 39.133789 -0.879508 2.496159 0.056949 -0.028856 -204246.000000 0 0 1
-16.341622 18.569877 -31.357479 39.939710 -0.849138 2.473687 0.045131 -0.030250 35465.000000 0 0 1
-16.656022 19.846677 -30.536349 40.047250 -0.872585 2.437977 0.020966 -0.017926 -575378.000000 0 0 1
-16.052022 20.986577 -31.088399 40.799416 -0.917846 2.437164 0.022628 -0.011912 145612.000000 0 0 1
-16.639722 22.230677 -30.670279 41.373293 -0.928254 2.405811 0.013775 -0.007904 378656.000000 0 0 1
-17.973922 22.662877 -31.347139 42.653382 -0.900277 2.396356 0.010082 -0.006233 936785.000000 0 0 1
-19.132522 22.163577 -30.646549 42.385003 -0.858665 2.379006 0.025112 -0.014227 499197.000000 0 0 1
-20.267922 22.166477 -31.475239 43.506689 -0.830109 2.379594 0.050420 -0.020014 -676644.000000 0 0 1
-21.469122 21.407277 -30.879229 43.274952 -0.783956 2.365361 0.061185 -0.029058 16257.800000 0 0 1
-22.408322 22.075777 -30.017319 43.480021 -0.777923 2.332797 0.099281 -0.024824 1016870.000000 0 0 1
-23.236822 23.098977 -30.631979 44.853436 -0.782423 2.322569 0.104080 -0.020214 -337892.000000 0 0 1
-24.500322 22.565977 -31.297739 45.705990 -0.744323 2.325074 0.102818 -0.032585 -783510.000000 0 0 1
-24.216722 21.707377 -32.429149 45.927220 -0.730811 2.354770 0.097157 -0.033504 -716624.000000 0 0 1
-25.389572 21.328677 -33.050299 46.817359 -0.698693 2.354547 0.107272 -0.037471 -758306.000000 0 0 1
-25.354092 20.479477 33.914557 47.036541 -0.679442 0.765515 0.106986 -0.027675 -120958.000000 0 0 1
-24.829722 19.174977 34.102857 46.337886 -0.657595 0.743712 0.109164 -0.034703 150421.000000 0 0 1
-24.643922 18.604677 32.812695 45.056962 -0.646655 0.755033 0.095189 -0.041755 -105557.000000 0 0 1
-24.282322 17.097577 32.830608 44.269709 -0.613483 0.735338 0.055072 -0.019529 -404747.000000 0 0 1
-25.314392 16.298777 33.299092 44.892072 -0.572043 0.735107 0.064704 -0.023074 -166620.000000 0 0 1
-25.348922 15.175877 32.422554 43.864531 -0.539448 0.738986 0.067950 -0.027302 -570934.000000 0 0 1
-26.317552 14.069977 32.834517 44.369847 -0.490961 0.737698 0.061908 -0.022048 -780929.000000 0 0 1
-27.681392 14.380477 32.675628 45.174708 -0.479125 0.762203 0.064193 -0.013270 250897.000000 0 0 1
-28.653702 13.320677 32.648221 45.435464 -0.435163 0.769063 0.057034 -0.003792 842910.000000 0 0 1
-28.753282 12.307877 33.811865 46.059497 -0.404452 0.746469 0.039236 -0.006696 -144566.000000 0 0 1
-27.685292 11.366577 33.756197 45.112696 -0.389580 0.725355 0.042135 -0.015996 155381.000000 0 0 1
-28.190612 10.120177 -34.064128 45.359601 -0.344662 2.420340 0.045194 -0.017355 -279428.000000 0 0 1
-27.058322 9.090277 -33.929949 44.339907 -0.324105 2.442185 0.040171 -0.024804 198807.000000 0 0 1
-26.239712 8.767577 33.185188 43.204741 -0.322471 0.694941 0.057653 -0.024338 210456.000000 0 0 1
-25.147802 9.676477 33.190340 42.750963 -0.367321 0.681919 0.055611 -0.030852 -1019610.000000 0 0 1
-24.007422 9.054277 32.365367 41.301976 -0.360650 0.670313 0.055085 -0.024063 -493686.000000 0 0 1
-24.067422 9.144977 30.958724 40.265544 -0.363124 0.693734 0.050186 -0.017993 558681.000000 0 0 1
-22.825822 8.718277 30.394424 38.998045 -0.364848 0.677115 0.045734 -0.016179 818703.000000 0 0 1
-23.052922 8.606177 28.862894 37.928487 -0.357299 0.705971 0.057208 -0.026036 147431.000000 0 0 1
-23.148522 9.831977 28.170194 37.763497 -0.401646 0.728816 0.048499 -0.018386 118590.000000 0 0 1
-23.241822 9.635177 26.782054 36.746392 -0.392997 0.754178 0.043592 -0.016586 -856886.000000 0 0 1
-23.487322 10.978577 26.036424 36.743419 -0.437250 0.783283 0.039653 -0.013676 89444.200000 0 0 1
-24.752822 11.561577 26.225424 37.870109 -0.436967 0.805834 0.056361 -0.010086 -614213.000000 0 0 1
-25.770742 10.954477 25.499354 37.872797 -0.401933 0.832148 0.058361 -0.003720 -1300960.000000 0 0 1
-27.126812 11.591077 25.728754 39.143145 -0.403811 0.853567 0.082666 -0.005388 -627207.000000 0 0 1
-27.106002 12.953477 25.302174 39.277575 -0.445797 0.870834 0.088352 -0.005875 -261670.000000 0 0 1
-28.314172 13.626077 25.556684 40.503166 -0.448532 0.887981 0.097907 -0.012324 78543.200000 0 0 1
-28.240892 15.099377 25.103864 40.690824 -0.490992 0.905946 0.106869 -0.013695 303684.000000 0 0 1
-27.535012 15.883477 26.083934 41.119744 -0.523221 0.883641 0.130037 -0.016776 284183.000000 0 0 1
-27.263842 17.185977 25.581974 41.147446 -0.562443 0.899866 0.108428 -0.004802 -972112.000000 0 0 1
-22.805322 -9.100123 31.957034 40.300707 0.379674 0.655137 0.062320 -0.013917 -543473.000000 0 0 1
-21.873722 -8.813323 30.979524 38.934115 0.383020 0.650649 0.071358 -0.027960 -475580.000000 0 0 1
-22.230722 -9.256823 29.706434 38.240894 0.394562 0.681190 0.073651 -0.026924 -167437.000000 0 0 1
-21.265822 -8.929323 28.531444 36.688026 0.397535 0.679834 0.089481 -0.035841 -673124.000000 0 0 1
-21.045122 -7.543923 28.226124 36.007249 0.344195 0.669872 0.089174 -0.038005 31679.500000 0 0 1
-19.919322 -6.994023 28.900324 35.790005 0.337670 0.630900 0.073786 -0.035981 -442012.000000 0 0 1
-18.569622 -7.224223 28.220594 34.545943 0.371018 0.614780 0.073746 -0.028989 -1088080.000000 0 0 1
-18.138822 -8.544423 28.148174 34.559278 0.440226 0.618947 0.069599 -0.034457 -49456.300000 0 0 1
-17.611822 -9.193123 29.315594 35.413187 0.481081 0.595593 0.069814 -0.031590 -373390.000000 0 0 1
-16.231722 -8.747723 29.851914 35.087437 0.494303 0.553316 0.062028 -0.028548 897600.000000 0 0 1
-15.071822 -9.426423 29.267324 34.243153 0.558911 0.545840 0.051210 -0.027016 42571.500000 0 0 1
-13.908222 -8.935423 29.807894 34.085055 0.571054 0.506361 0.053256 -0.027488 -452869.000000 0 0 1
-12.649222 -9.760323 29.433544 33.490301 0.657191 0.497313 0.059054 -0.031232 151221.000000 0 0 1
-12.332422 -9.601223 28.032524 32.095085 0.661515 0.508612 0.069400 -0.028103 108406.000000 0 0 1
-11.163222 -10.332923 27.674864 31.579818 0.746792 0.502572 0.070893 -0.025324 285877.000000 0 0 1
-10.623922 -9.972923 26.293864 30.061507 0.753802 0.506044 0.058776 -0.022627 -508073.000000 0 0 1
-11.590022 -10.258323 25.373134 29.721334 0.724522 0.547745 0.053320 -0.019257 -574471.000000 0 0 1
-11.049522 -9.992723 24.077794 28.314071 0.735218 0.554084 0.030045 -0.017509 -147373.000000 0 0 1
-11.926022 -10.392923 22.913664 27.843829 0.716815 0.604238 0.029172 -0.020323 -526370.000000 0 0 1
-12.047422 -11.814423 22.758964 28.331809 0.775634 0.637979 0.029430 -0.015565 372681.000000 0 0 1
-13.278622 -12.257023 22.225364 28.644776 0.745413 0.682662 0.036030 -0.012199 508157.000000 0 0 1
-14.559222 -12.339323 23.082064 29.950150 0.703056 0.690884 0.048012 -0.016617 129864.000000 0 0 1
-15.744422 -12.802223 22.452064 30.263491 0.682694 0.734917 0.047617 -0.005857 270010.000000 0 0 1
-16.759322 -12.793523 23.440694 31.528007 0.652002 0.732525 0.053860 -0.006140 385986.000000 0 0 1
-18.029622 -13.596023 22.966764 32.208560 0.646116 0.776938 0.077377 -0.014688 11870.800000 0 0 1
-17.924422 -15.031623 23.080464 32.862477 0.697845 0.792124 0.068709 -0.016647 150321.000000 0 0 1
-19.192522 -15.645423 23.052864 33.831445 0.683931 0.821118 0.069342 -0.014170 90630.500000 0 0 1
-20.048822 -15.563723 24.326254 35.156100 0.660116 0.806610 0.069895 -0.018869 -312903.000000 0 0 1
-19.609822 -16.507723 25.292644 36.010663 0.699719 0.792081 0.062971 -0.012125 548031.000000 0 0 1
-20.487522 -16.524823 26.430544 37.301233 0.678740 0.783326 0.060677 -0.014329 -7607.250000 0 0 1
-19.976122 -17.379423 27.553204 38.213464 0.715997 0.765503 0.054468 -0.011749 -139847.000000 0 0 1
-20.097322 -18.756723 27.200704 38.672927 0.750908 0.790693 0.064535 -0.008511 163178.000000 0 0 1
-19.717422 -19.537623 28.327424 39.660287 0.780818 0.775242 0.057998 -0.009383 -232023.000000 0 0 1
-19.892122 -21.090823 28.116294 40.386202 0.814639 0.800726 0.063723 -0.008290 -336969.000000 0 0 1
-21.168922 -21.570923 27.813984 41.073661 0.794804 0.826882 0.057374 -0.003756 -493908.000000 0 0 1
-21.080922 -22.964923 27.599114 41.635370 0.828146 0.846142 0.067011 0.000935 527179.000000 0 0 1
-22.415622 -23.659223 27.184464 42.440712 0.812382 0.875611 0.067103 0.001926 747739.000000 0 0 1
-23.402922 -23.727623 28.215184 43.666846 0.792287 0.868272 0.059878 0.008530 1284520.000000 0 0 1
-24.638322 -24.280523 27.674044 44.299474 0.778084 0.896044 0.042412 0.013763 1199000.000000 0 0 1
-25.380072 -25.306663 28.567704 45.833273 0.783950 0.897846 0.017948 0.014704 -176832.000000 0 0 1
-25.970802 -24.772523 29.714624 46.595271 0.761788 0.879265 0.014373 0.014985 -233702.000000 0 0 1
-26.734802 -25.775463 30.317094 47.940070 0.767131 0.886154 0.010818 0.018152 -808250.000000 0 0 1
-27.737682 -25.111783 31.253124 48.751804 0.735753 0.874910 0.008571 0.012552 -552776.000000 0 0 1
-28.852762 -24.687423 30.477624 48.691234 0.707756 0.894464 0.005909 0.008859 339192.000000 0 0 1
-29.717952 -23.956723 31.397984 49.425850 0.678471 0.882459 0.014973 -0.007255 387962.000000 0 0 1
-31.120072 -23.643323 30.803804 49.762837 0.649709 0.903312 0.017162 -0.016320 175883.000000 0 0 1
-31.909542 -24.825123 30.679764 50.751882 0.661172 0.921652 0.015343 -0.023310 636145.000000 0 0 1
-33.088312 -24.624323 29.872514 50.927014 0.639779 0.943973 0.015848 -0.027080 445908.000000 0 0 1
-34.295129 -25.364413 30.459004 52.414313 0.636807 0.950692 0.017100 -0.028003 -349168.000000 0 0 1
-34.204685 -26.789003 30.430584 53.043676 0.664411 0.959793 0.018818 -0.028767 -325629.000000 0 0 1
-35.291767 -27.406773 31.038814 54.406323 0.660295 0.963682 0.034464 -0.029764 -196518.000000 0 0 1
-34.932674 -28.901433 31.272314 55.077601 0.691195 0.966982 0.032425 -0.027828 386315.000000 0 0 1
-33.923692 -29.051703 32.295065 55.116146 0.708189 0.944750 0.026591 -0.013078 139494.000000 0 0 1
-33.523332 -30.358893 32.353020 55.607500 0.735903 0.949844 0.031283 -0.020381 -208880.000000 0 0 1
-32.514422 -30.589623 33.488797 55.806919 0.754906 0.927191 0.027093 -0.021651 -180207.000000 0 0 1
-33.024362 -30.379783 -33.447149 55.966521 0.743712 2.211335 0.030127 -0.012499 -515068.000000 0 0 1
-32.051602 -30.447913 -32.457979 54.844334 0.759745 2.204111 0.030276 -0.012227 -384296.000000 0 0 1
-32.558332 -29.904393 -31.121419 54.063485 0.742935 2.184190 0.037819 -0.013443 162588.000000 0 0 1
-32.704992 -28.537863 -31.077429 53.383824 0.717460 2.192168 0.026603 -0.012864 876016.000000 0 0 1
-31.406342 -27.899473 -31.020899 52.221021 0.726335 2.206857 0.027714 -0.009139 895764.000000 0 0 1
-31.583662 -26.352823 -30.860509 51.423438 0.695357 2.214454 0.015949 -0.005764 -312209.000000 0 0 1
-32.187822 -25.954543 -29.686959 50.901961 0.678599 2.193481 0.014414 -0.005846 -392132.000000 0 0 1
-32.233752 -24.569523 -29.444569 50.096495 0.651282 2.199080 0.014242 -0.007363 -132310.000000 0 0 1
-31.002952 -23.985023 -28.736539 48.603014 0.658458 2.203404 0.027631 -0.010484 -360092.000000 0 0 1
-30.906382 -22.599023 -28.791029 47.904526 0.631366 2.215559 0.033538 -0.007108 16108.200000 0 0 1
-29.752392 -22.021323 -28.206899 46.537862 0.637169 2.221953 0.053851 -0.011525 76496.100000 0 0 1
-29.530332 -20.500623 -28.384399 45.803822 0.606838 2.239150 0.065557 -0.022063 85821.500000 0 0 1
-29.006682 -20.128623 -29.671469 46.118815 0.606641 2.269689 0.078219 -0.015985 321385.000000 0 0 1
-28.894232 -18.705223 -29.748989 45.494662 0.574523 2.283525 0.071950 -0.020530 -278445.000000 0 0 1
-28.418272 -18.192823 -31.115259 45.899197 0.569441 2.315704 0.085282 -0.017671 378678.000000 0 0 1
-29.292262 -18.154423 -32.283499 47.221224 0.554829 2.323569 0.082377 -0.029346 566961.000000 0 0 1
-30.273292 -17.122223 -32.173329 47.378959 0.514732 2.317283 0.061008 -0.025413 43750.600000 0 0 1
-31.155282 -16.822823 -33.387729 48.666204 0.495108 2.326850 0.057289 -0.035406 87919.600000 0 0 1
-32.100232 -17.807423 -33.782149 49.887501 0.506478 2.314701 0.067322 -0.039629 530465.000000 0 0 1
-33.414662 -17.263123 -33.802069 50.568121 0.476865 2.302914 0.063314 -0.039834 126802.000000 0 0 1
-34.336681 -17.991123 33.475973 51.218443 0.482633 0.858475 0.074283 -0.043015 -488855.000000 0 0 1
-34.655795 -19.329023 33.832908 52.146917 0.508768 0.864790 0.046769 -0.041267 410643.000000 0 0 1
-35.454899 -19.964723 32.818226 52.275003 0.512847 0.892073 0.044057 -0.041423 24506.800000 0 0 1
-35.813765 -21.371423 33.242031 53.332880 0.538017 0.897849 0.022267 -0.032338 -612578.000000 0 0 1
-34.849307 -22.286523 32.916969 52.864829 0.568966 0.898655 0.047464 -0.032697 -584211.000000 0 0 1
-35.144023 -23.446023 33.652941 54.012395 0.588331 0.898148 0.043223 -0.028952 -330155.000000 0 0 1
-33.878032 -24.320023 33.909299 53.749652 0.622619 0.888116 0.039032 -0.023691 731362.000000 0 0 1
-32.960502 -23.734523 -33.413039 52.594234 0.624082 2.259191 0.029542 -0.027494 596533.000000 0 0 1
-32.153192 -22.582523 -33.777659 51.814364 0.612296 2.280880 0.029166 -0.025782 383714.000000 0 0 1
-30.779792 -22.538723 -32.997869 50.440549 0.632049 2.283912 0.037112 -0.017494 608383.000000 0 0 1
-29.910752 -23.587023 -33.404769 50.664379 0.667739 2.290729 0.033654 -0.013833 147807.000000 0 0 1
-28.598832 -23.487423 -32.883929 49.506615 0.687578 2.297264 0.046522 -0.012684 198209.000000 0 0 1
-28.305192 -24.101123 -31.483529 48.716122 0.705349 2.273476 0.050119 -0.002197 -720597.000000 0 0 1
-28.284592 -25.534203 -31.348609 49.343175 0.734338 2.259217 0.035671 -0.007982 -170277.000000 0 0 1
-27.961382 -25.744773 -29.981869 48.410171 0.744149 2.238685 0.034330 -0.007973 -320180.000000 0 0 1
-27.432412 -27.128373 -29.583069 48.617320 0.779826 2.224951 0.031683 -0.012385 -175885.000000 0 0 1
-28.286042 -28.182513 -29.945979 49.911079 0.783565 2.214281 0.021262 -0.001128 -131401.000000 0 0 1
-27.912702 -29.399323 -29.318399 50.030067 0.811331 2.196929 0.021068 -0.005464 250624.000000 0 0 1
-28.765852 -30.605503 -29.859729 51.534206 0.816374 2.188808 0.029027 0.004685 133117.000000 0 0 1
-28.319902 -31.087343 -31.120409 52.315577 0.831949 2.207887 0.037088 -0.012739 188747.000000 0 0 1
-28.820272 -32.349223 -31.505209 53.569193 0.843026 2.199531 0.058200 -0.006135 -273575.000000 0 0 1
-28.356942 -32.687473 -32.941739 54.385156 0.856220 2.221457 0.035034 -0.020517 -113689.000000 0 0 1
-26.968322 -32.850953 -33.062939 53.848244 0.883423 2.231917 0.035121 -0.019152 -500429.000000 0 0 1
-26.645452 -33.228643 33.868105 54.416646 0.894909 0.899010 0.043099 -0.023249 206709.000000 0 0 1
-25.136872 -33.532843 33.675143 53.761781 0.927539 0.893900 0.046711 -0.024150 301544.000000 0 0 1
-24.939922 33.855644 32.551418 53.177054 -0.935891 0.912041 0.036838 -0.011259 -441947.000000 0 0 1
-23.739122 33.152728 32.692281 52.263128 -0.949377 0.894983 0.036867 -0.006532 -545860.000000 0 0 1
-23.502922 32.216738 31.487094 50.810851 -0.940528 0.902446 0.034229 -0.008939 -89108.000000 0 0 1
-24.486522 31.191179 31.428584 50.598767 -0.905240 0.900608 0.076349 -0.036184 43661.900000 0 0 1
-24.316822 30.341479 30.356184 49.329616 -0.895179 0.907935 0.068005 -0.021851 -11036.900000 0 0 1
-25.613142 29.623229 29.881114 49.259006 -0.857870 0.919004 0.068513 -0.020214 112852.000000 0 0 1
-26.239102 28.768519 30.802164 49.647673 -0.831349 0.901525 0.067260 -0.022954 -819982.000000 0 0 1
-27.538072 28.509649 30.411794 49.960211 -0.802731 0.916350 0.067073 -0.030928 -551413.000000 0 0 1
-28.074292 27.255779 31.150234 50.013802 -0.770606 0.898438 0.066340 -0.050990 29388.000000 0 0 1
-27.242192 26.152679 30.806394 48.735342 -0.764996 0.886515 0.071176 -0.039737 -85968.900000 0 0 1
-27.716492 24.886759 31.101694 48.527003 -0.731656 0.875106 0.078561 -0.036775 277566.000000 0 0 1
-28.800412 24.353759 30.091544 48.250081 -0.701937 0.897383 0.082371 -0.036232 654045.000000 0 0 1
-28.275502 24.070039 28.809764 46.998652 -0.705230 0.910955 0.087428 -0.029924 -136468.000000 0 0 1
-29.165722 23.297529 28.005584 46.666122 -0.674008 0.927137 0.095794 -0.020605 596928.000000 0 0 1
-28.486872 22.907719 26.622184 45.221744 -0.677266 0.941343 0.114439 -0.024338 822356.000000 0 0 1
-27.362272 22.028319 26.793884 44.179780 -0.677820 0.919178 0.096328 -0.023657 511958.000000 0 0 1
-26.606792 21.851419 25.578394 42.891259 -0.687578 0.931844 0.065780 -0.012718 -776692.000000 0 0 1
-25.222612 21.454519 26.012224 42.108340 -0.704846 0.904924 0.038009 -0.022908 -1493630.000000 0 0 1
-25.260702 20.211319 26.648274 41.913375 -0.674807 0.881759 0.090826 -0.028729 -851808.000000 0 0 1
-24.076522 19.789519 27.187264 41.357602 -0.687978 0.853472 0.032415 -0.023750 -1083730.000000 0 0 1
-24.251622 18.395719 27.896284 41.288573 -0.648942 0.828961 0.070081 -0.017791 323990.000000 0 0 1
-23.022522 18.032319 28.515564 40.845299 -0.664442 0.798006 0.033079 -0.010437 526518.000000 0 0 1
-23.243322 16.795419 29.183854 40.914978 -0.625727 0.776629 0.045286 -0.013020 -319238.000000 0 0 1
-22.010822 15.895419 29.328734 39.966427 -0.625447 0.746847 0.037223 -0.013102 -110894.000000 0 0 1
-21.057322 16.569119 30.147434 40.333786 -0.666676 0.726583 0.049233 -0.008652 354367.000000 0 0 1
-19.793522 15.916519 30.052094 39.347775 -0.677253 0.701685 0.037241 -0.006272 197448.000000 0 0 1
-18.758722 16.519719 31.011994 39.831326 -0.722017 0.678392 0.030804 -0.015904 -266272.000000 0 0 1
-19.037622 16.129119 32.364549 40.866166 -0.702880 0.656777 0.024595 -0.020985 413466.000000 0 0 1
-18.060222 16.736519 33.182338 41.320095 -0.747375 0.638391 0.032369 -0.022444 -821232.000000 0 0 1
-18.100222 16.267319 -33.583199 41.473786 -0.732116 2.514514 0.024390 -0.028842 821724.000000 0 0 1
-19.238522 16.723919 -32.822619 41.558807 -0.715589 2.481258 0.043270 -0.029849 2594750.000000 0 0 1
-20.561022 16.200819 -33.199999 42.278388 -0.667343 2.473930 0.043171 -0.024803 1428860.000000 0 0 1
-21.814322 16.864419 -32.566319 42.671283 -0.658115 2.439033 0.049383 -0.036261 251250.000000 0 0 1
-21.943322 16.694219 -31.209319 41.644062 -0.650370 2.417997 0.055337 -0.034791 119971.000000 0 0 1
-22.877322 17.673619 -30.781389 42.228220 -0.657771 2.387553 0.057092 -0.029802 -299040.000000 0 0 1
-23.105322 17.637119 -29.224009 41.218522 -0.651982 2.358878 0.055983 -0.021860 374237.000000 0 0 1
-23.810522 16.515619 -28.696619 40.782380 -0.606436 2.351321 0.038171 -0.021667 306096.000000 0 0 1
-25.171992 16.324119 -29.059729 41.768096 -0.575322 2.340246 0.040201 -0.018915 181847.000000 0 0 1
-25.775802 15.211119 -28.167089 41.099331 -0.533132 2.325869 0.048826 -0.009344 -271776.000000 0 0 1
-25.326482 13.901919 -28.472409 40.563186 -0.502005 2.348896 0.036085 -0.007304 -111299.000000 0 0 1
-26.043902 12.960219 -27.704019 40.171691 -0.461750 2.331789 0.015520 -0.001614 109858.000000 0 0 1
-25.500502 11.531619 -27.715879 39.388117 -0.424691 2.351333 0.023423 -0.006440 -20200.200000 0 0 1
-24.568422 11.073519 -26.768899 37.984261 -0.423454 2.352848 0.026727 -0.001839 81414.500000 0 0 1
-23.924522 9.873419 -27.229629 37.567537 -0.391398 2.381567 0.020415 0.008701 -84155.300000 0 0 1
-22.901722 9.223919 -26.319649 36.087303 -0.382884 2.388142 0.048855 0.005385 -251941.000000 0 0 1
-23.430822 8.322019 -25.330599 35.495051 -0.341277 2.365473 0.037288 0.000215 -212372.000000 0 0 1
-22.437622 7.750019 -24.507329 34.119186 -0.332574 2.372132 0.066810 0.005279 -182161.000000 0 0 1
-22.944922 6.660419 -23.550229 33.547636 -0.282514 2.348989 0.066087 0.004893 105138.000000 0 0 1
-23.450922 5.545119 -24.313429 34.232103 -0.232192 2.360653 0.051722 -0.005089 287408.000000 0 0 1
-23.722922 4.520119 -23.337429 33.583390 -0.188281 2.339091 0.059718 -0.006468 -88481.300000 0 0 1
35.847216 24.712677 -10.124229 44.701670 0.603569 1.799263 0.024367 -0.000903 -523749.000000 0 0 1
-36.330502 24.131677 -9.211929 44.576932 -0.586311 1.778949 0.039979 -0.003085 -412504.000000 0 0 1
-35.641837 23.007077 -9.815129 43.543115 -0.573211 1.798162 0.068358 -0.004387 406722.000000 0 0 1
-34.710433 22.317177 -8.797129 42.193128 -0.571405 1.780834 0.057077 -0.004831 140172.000000 0 0 1
-35.435856 21.639677 -7.815129 42.249873 -0.548229 1.756842 0.058283 -0.011400 995281.000000 0 0 1
-34.410087 21.001577 -6.999729 40.915969 -0.547982 1.742718 0.047087 -0.012873 760072.000000 0 0 1
-34.994316 20.072577 -5.898529 40.771352 -0.520778 1.715979 0.062771 -0.000616 -181753.000000 0 0 1
-35.685705 18.976477 -6.385129 40.918774 -0.488737 1.727481 0.064997 -0.002583 -186497.000000 0 0 1
-36.211942 18.211777 -5.373329 40.888216 -0.465982 1.702593 0.074684 -0.013754 -434169.000000 0 0 1
35.976026 17.032077 -5.932929 40.243829 0.442165 1.718760 0.072256 -0.001747 -356159.000000 0 0 1
34.847936 17.530177 -6.606129 39.564210 0.466083 1.738554 0.076133 -0.007696 -644287.000000 0 0 1
34.258196 16.475577 -7.279529 38.704782 0.448270 1.760001 0.086888 -0.009385 -534565.000000 0 0 1
33.171736 16.891477 -8.242029 38.126331 0.470991 1.788693 0.061081 -0.014440 -451746.000000 0 0 1
32.543006 15.803677 -8.854529 37.245216 0.452081 1.810831 0.067769 -0.010683 -142534.000000 0 0 1
32.117116 16.089377 -10.178229 37.335955 0.464415 1.846903 0.062754 -0.010049 -296725.000000 0 0 1
31.483406 14.833377 -10.824729 36.447341 0.440302 1.872342 0.058077 -0.012588 448893.000000 0 0 1
30.267486 14.226077 -10.374529 35.016179 0.439371 1.871590 0.057724 -0.005811 753022.000000 0 0 1
30.196226 13.778177 -9.000029 34.389689 0.428071 1.835587 0.067669 -0.009122 -903797.000000 0 0 1
29.087946 12.751777 -8.811129 32.959861 0.413155 1.841416 0.053186 0.008251 -253151.000000 0 0 1
29.530186 11.576777 -9.449929 33.096145 0.373619 1.860355 0.053731 0.004627 459079.000000 0 0 1
28.530986 10.594477 -9.626329 31.920625 0.355551 1.877136 0.062750 0.001012 -417079.000000 0 0 1
29.072176 9.249077 -10.144729 32.150464 0.308017 1.891821 0.075182 0.005733 -143676.000000 0 0 1
29.936176 8.604577 -9.205629 32.480101 0.279886 1.858159 0.070074 0.001782 533410.000000 0 0 1
30.211086 7.248177 -9.559929 32.505969 0.235467 1.869308 0.065696 -0.000202 -859916.000000 0 0 1
31.227536 6.739377 -8.549929 33.070825 0.212555 1.832300 0.082331 -0.007876 -1432900.000000 0 0 1
32.482186 7.119877 -8.964429 34.440471 0.215781 1.834116 0.073733 -0.013927 -1325690.000000 0 0 1
33.459716 6.736277 -8.043829 35.066126 0.198669 1.802248 0.085217 -0.022638 -820450.000000 0 0 1
34.889856 6.973877 -8.494729 36.580014 0.197283 1.805159 0.079204 -0.023168 -597294.000000 0 0 1
35.214126 6.078077 -9.503129 36.976846 0.170919 1.830715 0.085707 -0.017511 314553.000000 0 0 1
-36.402192 6.169177 -9.812929 38.203035 -0.167878 1.830571 0.088921 -0.021427 -446763.000000 0 0 1
-35.963346 5.268277 -11.035829 37.985609 -0.145456 1.865573 0.083815 -0.017444 600002.000000 0 0 1
-34.542608 5.206077 -11.231129 36.693777 -0.149589 1.881866 0.094636 -0.017930 920466.000000 0 0 1
-33.998942 6.302477 -11.959329 36.587905 -0.183292 1.903781 0.077995 -0.016320 -82897.600000 0 0 1
-33.134322 7.209577 -10.990729 35.646282 -0.214247 1.884231 0.072455 -0.007937 -243296.000000 0 0 1
-33.868382 8.078877 -10.115029 36.258094 -0.234162 1.853521 0.079735 -0.017202 158177.000000 0 0 1
-34.299475 9.244877 -10.705129 37.101503 -0.263278 1.863494 0.073983 -0.013320 -9278.080000 0 0 1
-35.144121 10.172477 -9.786729 37.873059 -0.281750 1.832171 0.070992 -0.011149 -76529.200000 0 0 1
-34.381374 10.938277 -8.941829 37.170971 -0.308020 1.813739 0.061519 -0.011295 -362472.000000 0 0 1
-35.196943 11.772177 -8.143629 37.996416 -0.322770 1.786798 0.065835 -0.013044 123418.000000 0 0 1
-34.408352 12.731077 -7.231229 37.393926 -0.354380 1.765402 0.082964 -0.012805 -63441.300000 0 0 1
-33.946992 13.875277 -7.860229 37.506063 -0.388013 1.781934 0.061598 -0.018246 -68654.600000 0 0 1
-33.048272 14.592277 -7.007429 36.799822 -0.415800 1.762386 0.077436 -0.018817 23972.500000 0 0 1
-32.091352 15.515377 -7.753029 36.478641 -0.450341 1.784966 0.061242 -0.020755 -141686.000000 0 0 1
-32.781022 16.515077 -8.530929 37.684479 -0.466683 1.799154 0.043301 -0.017922 -414816.000000 0 0 1
-32.030832 17.616777 -8.888229 37.620814 -0.502839 1.809310 0.046167 -0.013837 -291047.000000 0 0 1
-32.748302 18.599777 -9.838229 38.925490 -0.516529 1.826313 0.024386 -0.012050 71404.000000 0 0 1
-32.577972 18.190077 -11.199229 38.956718 -0.509235 1.862390 0.011911 -0.011502 -343264.000000 0 0 1
-33.463692 18.860877 -12.043129 40.256531 -0.513241 1.874608 0.011162 -0.013069 -566644.000000 0 0 1
-33.103112 19.087177 -13.542329 40.540486 -0.523034 1.911388 0.004725 -0.002121 -620463.000000 0 0 1
-31.987672 19.916177 -13.721629 40.101725 -0.556886 1.920022 0.013574 -0.008013 -17497.800000 0 0 1
-31.890512 20.226877 -15.132729 40.683299 -0.565231 1.951920 0.009896 -0.008002 70348.900000 0 0 1
-31.026682 21.452977 -15.589929 40.815819 -0.604955 1.962710 0.028924 -0.015978 530548.000000 0 0 1
-29.646542 21.277977 -15.252529 39.551351 -0.622521 1.966696 0.017187 -0.012554 1192290.000000 0 0 1
-28.781202 22.423577 -15.219029 39.532180 -0.661870 1.965981 0.039593 -0.014016 459673.000000 0 0 1
-28.357372 23.023477 -16.556429 40.104069 -0.681958 1.996363 0.017795 -0.002504 -579164.000000 0 0 1
-29.426692 23.777877 -17.119529 41.525846 -0.679623 1.995732 0.040598 0.004030 229289.000000 0 0 1
-29.106392 24.596877 -18.261129 42.257038 -0.701624 2.017665 0.013814 0.007580 128680.000000 0 0 1
-28.222762 25.840277 -17.902129 42.246070 -0.741358 2.008387 0.023352 0.006636 475032.000000 0 0 1
-28.881352 26.786177 -17.102229 42.943195 -0.747779 1.980407 0.046114 0.006418 -229574.000000 0 0 1
-28.086662 27.929677 -17.135529 43.157315 -0.782596 1.979095 0.040142 0.004450 158965.000000 0 0 1
-28.769152 29.231877 -16.611629 44.250570 -0.793376 1.955624 0.032597 0.002015 -83831.700000 0 0 1
-29.163562 29.333277 -15.231629 44.078986 -0.788299 1.923624 0.029905 0.003869 -172510.000000 0 0 1
-28.163112 29.251177 -14.255029 43.034847 -0.804347 1.908418 0.019657 0.008956 -251951.000000 0 0 1
-28.544802 30.329877 -13.129029 43.670111 -0.815709 1.876161 0.015527 0.005637 42887.700000 0 0 1
-28.178562 31.642777 -13.326929 44.417381 -0.843243 1.875529 0.021649 0.001652 -7139.110000 0 0 1
-28.881012 32.502677 -12.456029 45.229300 -0.844330 1.849799 0.004236 -0.003259 152662.000000 0 0 1
-28.156912 33.850277 -12.495729 45.768944 -0.876959 1.847325 -0.003788 -0.006265 122034.000000 0 0 1
-28.391092 -33.610064 -13.689029 46.076892 0.869376 1.872441 -0.009570 -0.018724 -260880.000000 0 0 1
-27.498632 -32.544864 -13.794629 44.784313 0.869244 1.883911 0.021377 -0.018060 -269684.000000 0 0 1
-27.801402 -31.765464 -15.114729 44.837681 0.851848 1.914630 0.003351 -0.014133 -175616.000000 0 0 1
-27.421562 -32.521164 -16.265029 45.542500 0.870268 1.936000 0.008127 -0.018405 -206575.000000 0 0 1
-27.658112 -31.776864 -17.406429 45.582058 0.854586 1.962615 0.021153 -0.004320 71628.600000 0 0 1
-26.669542 -32.223864 -18.516329 45.743811 0.879431 1.987538 0.009597 -0.000831 -12456.900000 0 0 1
-26.939912 -33.498464 -19.074329 47.029097 0.893492 1.988416 0.010187 0.003268 16486.300000 0 0 1
-26.446892 33.540877 -18.416529 46.514482 -0.903109 1.977878 0.009720 -0.001570 -756342.000000 0 0 1
-26.727602 32.177677 -19.158529 46.008878 -0.877658 2.000289 0.020511 -0.008452 802090.000000 0 0 1
-28.047492 31.618377 -19.150429 46.401751 -0.845175 1.996223 0.032090 -0.010396 325649.000000 0 0 1
-28.955992 32.355477 -19.924429 47.773520 -0.840788 2.001005 0.025116 -0.006483 -330658.000000 0 0 1
-30.435412 31.900277 -19.861929 48.357401 -0.808893 1.994053 0.031421 -0.009232 261583.000000 0 0 1
-30.572912 30.652277 -20.540329 47.918370 -0.786694 2.013797 0.037208 -0.008954 -771451.000000 0 0 1
-31.916422 30.352177 -20.646329 48.643433 -0.760283 2.009142 0.042828 -0.007879 -987100.000000 0 0 1
-32.160452 28.998477 -21.349129 48.280344 -0.733743 2.028836 0.047352 -0.013953 -881780.000000 0 0 1
-33.488142 28.662077 -21.597529 49.085880 -0.707902 2.026389 0.043340 -0.012465 -514870.000000 0 0 1
-33.597172 27.360577 -22.152429 48.663141 -0.683443 2.043415 0.036487 -0.004786 57616.700000 0 0 1
-35.068501 26.884077 -22.147929 49.427564 -0.654051 2.035422 0.027473 -0.004111 360503.000000 0 0 1
-35.915975 27.528977 -23.084329 50.800473 -0.653967 2.042508 0.023612 -0.000528 -937472.000000 0 0 1
36.048086 26.719477 -23.462329 50.634729 0.637857 2.052584 0.026959 0.002379 -1004070.000000 0 0 1
35.318556 27.220377 -24.711229 50.980331 0.656625 2.076840 0.034459 -0.008780 -257995.000000 0 0 1
36.087716 27.244577 -25.857299 52.088292 0.646664 2.090258 0.055354 -0.016177 -235764.000000 0 0 1
35.213586 27.369777 -26.987939 52.129168 0.660715 2.114972 0.063322 -0.017619 350973.000000 0 0 1
35.975096 27.718677 -28.275659 53.498088 0.656490 2.127671 0.079080 -0.018619 -6862.570000 0 0 1
36.379686 26.557077 -28.946459 53.541175 0.630576 2.141993 0.055741 0.003147 -466187.000000 0 0 1
-35.918166 27.040277 -30.051759 54.077717 -0.645310 2.160018 0.017630 0.006180 -840908.000000 0 0 1
-35.526062 25.798277 -30.940979 53.712162 -0.628081 2.184686 -0.003181 0.005519 550618.000000 0 0 1
-34.585967 24.822077 -30.488199 52.362724 -0.622501 2.192290 0.003708 0.010733 -1361250.000000 0 0 1
-33.296172 25.248277 -30.416289 51.684245 -0.648788 2.200001 -0.016538 0.021301 -1318430.000000 0 0 1
-32.509592 24.364377 -29.375929 50.134236 -0.643150 2.196843 -0.023513 0.025555 42004.500000 0 0 1
-32.033722 23.146977 -29.908969 49.562973 -0.625721 2.218622 -0.006378 0.016202 -9592.940000 0 0 1
-32.170822 22.123677 -28.954079 48.608205 -0.602419 2.208886 -0.002998 0.025942 25604.600000 0 0 1
-31.828412 20.718577 -29.490509 48.083234 -0.577040 2.231056 -0.004118 0.018466 228358.000000 0 0 1
-30.439912 20.479277 -29.641189 47.165550 -0.592221 2.250355 0.027744 0.012461 56203.800000 0 0 1
-30.264122 19.100377 -30.020159 46.711363 -0.562990 2.268779 0.021038 -0.002308 -116668.000000 0 0 1
-28.818192 18.595777 -30.222199 45.712935 -0.573049 2.293120 0.053546 -0.011261 -254356.000000 0 0 1
-28.342682 19.037377 -31.486389 46.444828 -0.591469 2.315741 0.072719 -0.021219 4570.130000 0 0 1
-27.150492 18.324477 -31.825189 45.670322 -0.593696 2.341787 0.074115 -0.027820 178233.000000 0 0 1
-27.197412 16.904877 -32.347789 45.517618 -0.556123 2.361240 0.069526 -0.034068 -449981.000000 0 0 1
-27.596822 15.986477 -31.368429 44.733996 -0.525050 2.347905 0.033634 -0.016471 -25162.300000 0 0 1
-27.698532 14.717077 -31.969379 44.786630 -0.488397 2.365727 0.012973 -0.011924 -60034.000000 0 0 1
-28.093782 13.518977 -31.056469 44.005995 -0.448502 2.354253 0.019125 -0.009047 1275700.000000 0 0 1
-29.488862 13.588677 -30.626879 44.634637 -0.431805 2.327005 0.016037 -0.012405 1257960.000000 0 0 1
-29.998232 12.306377 -30.467219 44.492609 -0.389300 2.325085 0.016882 -0.004853 -340460.000000 0 0 1
-29.745672 11.666077 -29.097579 43.215407 -0.373759 2.309480 0.004565 -0.022178 -221060.000000 0 0 1
-30.286802 12.260877 -27.879539 42.952161 -0.384660 2.277175 -0.002774 -0.012263 297258.000000 0 0 1
-30.267052 11.345777 -26.813329 41.997330 -0.358644 2.263283 0.000233 -0.013588 28738.300000 0 0 1
-30.203622 12.008877 -25.407839 41.255668 -0.378433 2.234277 -0.006979 -0.014903 -643679.000000 0 0 1
-28.924512 12.496477 -25.199409 40.345998 -0.407816 2.245393 -0.003078 -0.014875 -689051.000000 0 0 1
-28.889822 13.367077 -24.086129 39.917943 -0.433358 2.218543 -0.002222 -0.002255 -374795.000000 0 0 1
-27.440182 13.532977 -23.632829 38.660259 -0.458178 2.228492 0.012292 0.000675 -1299820.000000 0 0 1
-26.682362 14.289477 -24.542829 38.967782 -0.491674 2.252122 0.011164 -0.001720 261036.000000 0 0 1
-25.283742 14.298077 -24.265429 37.848562 -0.514669 2.266752 0.035824 -0.010052 602156.000000 0 0 1
-24.774222 14.869277 -22.918929 36.880005 -0.540560 2.241383 0.041275 -0.003088 -1179440.000000 0 0 1
-24.934922 16.271877 -22.756029 37.474807 -0.578182 2.223373 0.048657 -0.006639 113497.000000 0 0 1
-25.156092 16.649677 -21.426229 37.001676 -0.584664 2.188373 0.041174 0.002330 479769.000000 0 0 1
-26.652772 16.961577 -21.094629 37.987481 -0.566749 2.159526 0.032061 0.002161 742185.000000 0 0 1
-27.500692 15.813777 -21.015929 38.053027 -0.521858 2.155893 0.035733 0.000026 -491056.000000 0 0 1
-28.667402 16.161077 -20.355429 38.695527 -0.513334 2.124735 0.038115 0.003022 -1241250.000000 0 0 1
-29.707622 15.020777 -20.294329 38.987515 -0.468134 2.118273 0.008790 -0.008069 119622.000000 0 0 1
-30.424772 14.749177 -21.489629 40.062565 -0.451394 2.136964 0.003012 0.001562 994099.000000 0 0 1
-31.485052 15.690577 -21.799429 41.384995 -0.462327 2.125566 -0.019071 -0.000740 48292.500000 0 0 1
-31.812842 15.848877 -23.288129 42.492126 -0.462200 2.150836 -0.021787 0.015098 -430342.000000 0 0 1
-32.721072 14.881577 -23.764129 43.091341 -0.426839 2.154937 -0.003751 0.000950 -51186.900000 0 0 1
-32.837982 14.919277 -25.199899 43.999463 -0.426449 2.180631 0.001153 -0.003621 -1130010.000000 0 0 1
-34.065208 14.215677 -25.676489 44.964496 -0.395337 2.178567 -0.005996 -0.010137 -889473.000000 0 0 1
-34.043453 12.835577 -25.704639 44.547022 -0.360554 2.185875 0.002235 -0.019171 -11228.700000 0 0 1
-34.138775 12.199677 -24.457829 43.731836 -0.343212 2.164299 -0.001084 -0.012656 -295644.000000 0 0 1
-34.111940 10.661677 -24.723029 43.457151 -0.302930 2.175971 0.009445 -0.022695 136624.000000 0 0 1
-35.331340 10.256977 -25.307549 44.654016 -0.282542 2.173349 0.019891 -0.026666 132078.000000 0 0 1
-35.114468 9.062177 -26.014199 44.630566 -0.252564 2.193063 0.019058 -0.021618 370503.000000 0 0 1
-36.417692 8.498977 -26.671359 45.933019 -0.229271 2.190333 0.036298 -0.015571 560418.000000 0 0 1
35.673696 7.980277 -25.716599 44.694976 0.220079 2.183865 0.041314 -0.013028 213534.000000 0 0 1
34.643016 7.190777 -26.297199 44.083880 0.204662 2.209962 0.055623 -0.008507 551777.000000 0 0 1
33.829336 6.330977 -25.240779 42.680231 0.185005 2.203581 0.063565 -0.013824 303608.000000 0 0 1
34.605136 5.322477 -24.632529 42.808944 0.152610 2.183897 0.048780 -0.015290 -11495.800000 0 0 1
33.842206 4.491777 -23.779729 41.604645 0.131956 2.179207 0.065493 -0.010440 14895.400000 0 0 1
34.671256 3.498077 -22.945029 41.722978 0.100552 2.153086 0.046986 -0.009765 -39206.700000 0 0 1
35.182006 2.403077 -23.669329 42.470995 0.068198 2.161934 0.051484 -0.018232 -1089.000000 0 0 1
36.075446 1.693177 -22.853729 42.738713 0.046900 2.134986 0.057075 -0.019335 -365837.000000 0 0 1
-36.447712 0.413277 -23.572729 43.408295 -0.011338 2.144857 0.084964 -0.015621 -444312.000000 0 0 1
35.788076 -0.739923 -23.509529 42.825597 -0.020672 2.151915 0.056185 -0.019619 -252233.000000 0 0 1
36.414986 -1.876723 -24.121429 43.719751 -0.051492 2.155232 0.068783 -0.021284 168396.000000 0 0 1
-23.232722 29.377377 27.053984 46.202897 -0.901668 0.945241 0.025959 -0.016352 36297.100000 0 0 1
-24.488722 29.598377 26.394304 46.609234 -0.879589 0.968800 0.012993 -0.012164 1013030.000000 0 0 1
-24.624722 28.887577 25.172404 45.546888 -0.864892 0.985232 0.009583 -0.000069 -299881.000000 0 0 1
-24.840522 27.320277 25.245464 44.730108 -0.832903 0.971096 0.012368 -0.011302 -54375.400000 0 0 1
-26.108662 26.803977 25.644454 45.362467 -0.798538 0.969971 0.028200 -0.016480 311407.000000 0 0 1
-26.298552 26.500277 27.004374 46.077269 -0.789219 0.944600 0.047070 -0.014373 -655879.000000 0 0 1
-25.567102 25.227077 27.495254 45.233518 -0.778704 0.917445 0.038056 -0.007962 994370.000000 0 0 1
-24.186022 25.385677 27.903004 44.810422 -0.809594 0.898620 0.013149 -0.001250 927307.000000 0 0 1
-23.980722 25.756477 29.256574 45.764815 -0.821086 0.877234 0.010135 -0.006177 1468280.000000 0 0 1
-22.456022 25.600877 29.692864 45.181235 -0.850745 0.853706 0.003797 0.001520 668984.000000 0 0 1
-21.483722 26.478577 29.127724 44.845175 -0.889165 0.863847 0.016694 -0.002770 1359260.000000 0 0 1
-20.154122 26.327677 29.679694 44.499657 -0.917442 0.840669 0.043336 -0.013368 1464780.000000 0 0 1
-19.477422 24.917377 29.666534 43.362990 -0.907326 0.817367 0.044187 -0.003910 -1220940.000000 0 0 1
-18.925322 24.505277 28.447654 42.046943 -0.913178 0.827703 0.047016 -0.010963 80301.800000 0 0 1
-19.789422 23.783277 27.561204 41.435317 -0.876802 0.843085 0.039553 -0.009075 156941.000000 0 0 1
-19.855922 22.234077 27.746954 40.724750 -0.841840 0.821220 0.035180 0.002336 387958.000000 0 0 1
-20.522422 21.819577 28.959844 41.664569 -0.816024 0.802277 0.009482 -0.000023 273469.000000 0 0 1
-20.453322 20.403177 29.084324 40.994218 -0.784171 0.782045 0.023960 -0.002827 -153579.000000 0 0 1
-20.929922 19.872077 30.429364 41.939329 -0.759478 0.758953 0.021780 -0.002060 -806361.000000 0 0 1
-20.113522 20.163077 31.504144 42.468983 -0.786629 0.735023 0.021765 -0.011922 -597034.000000 0 0 1
-20.443022 19.675877 32.783194 43.356604 -0.766279 0.713418 0.018333 -0.009370 -231004.000000 0 0 1
-19.414622 20.226977 33.813803 43.925294 -0.805888 0.692265 0.030528 -0.011674 -181604.000000 0 0 1
-19.403022 21.681877 33.870930 44.652222 -0.840808 0.709712 0.013427 -0.006552 -97689.800000 0 0 1
-18.766822 22.389577 32.819176 43.938424 -0.873196 0.727355 0.034357 -0.003892 -148963.000000 0 0 1
-17.250622 22.532877 33.132303 43.624122 -0.917401 0.708260 0.043520 0.000273 111133.000000 0 0 1
-16.543922 21.342777 33.138607 42.747898 -0.911391 0.683749 0.055458 -0.017546 -291769.000000 0 0 1
-15.163122 21.501877 33.424813 42.537855 -0.956589 0.666862 0.055982 -0.023269 -180702.000000 0 0 1
-14.320822 20.183977 33.323434 41.508194 -0.953713 0.638793 0.068713 -0.030221 -279031.000000 0 0 1
-12.980322 20.266577 33.693292 41.406048 -1.001143 0.620258 0.052052 -0.032541 -333995.000000 0 0 1
-12.793722 20.543677 -33.130799 41.028914 -1.013811 2.510696 0.060019 -0.030670 -1140680.000000 0 0 1
-11.376622 20.301877 -32.635069 40.082932 -1.060024 2.522127 0.049223 -0.031956 -969881.000000 0 0 1
-10.580822 21.385977 -32.734319 40.507400 -1.111353 2.511728 0.038756 -0.031038 -1610140.000000 0 0 1
-9.278022 21.080877 -32.369569 39.727497 -1.156193 2.523163 0.042512 -0.027300 -553990.000000 0 0 1
-8.250922 22.235877 -32.476299 40.214698 -1.215481 2.510821 0.035321 -0.030725 168052.000000 0 0 1
-8.362622 23.210877 -31.461819 39.981550 -1.224985 2.476579 0.020171 -0.024840 83592.100000 0 0 1
-7.780822 22.775177 -30.207709 38.623252 -1.241592 2.468844 0.022114 -0.020993 2669.510000 0 0 1
-7.593122 23.904077 -29.220199 38.508186 -1.263227 2.432273 0.014440 -0.019071 256673.000000 0 0 1
-6.605922 24.814177 -29.697969 39.260043 -1.310615 2.428653 0.016777 -0.019188 229004.000000 0 0 1
-6.340022 25.873577 -28.792049 39.225246 -1.330493 2.395016 0.012871 -0.010665 727457.000000 0 0 1
-4.946822 26.561277 -29.038479 39.663658 -1.386664 2.392222 0.027904 -0.019982 -105094.000000 0 0 1
-3.801722 25.910577 -28.577529 38.761918 -1.425111 2.399799 0.036965 -0.015744 -6803.080000 0 0 1
-2.633822 26.224877 -29.329419 39.432170 -1.470700 2.409525 0.044055 -0.021581 597462.000000 0 0 1
-1.975022 27.630977 -29.038489 40.132349 -1.499439 2.379754 0.056898 -0.027309 -434000.000000 0 0 1
-1.214822 27.609677 -27.828399 39.219764 -1.526825 2.359656 0.071427 -0.037797 181731.000000 0 0 1
-0.450622 28.768577 -27.653469 39.906747 -1.555134 2.336372 0.081619 -0.027677 -544359.000000 0 0 1
0.194778 28.827677 -26.234409 38.978419 1.564040 2.309121 0.094094 -0.049962 743474.000000 0 0 1
1.232778 27.900277 -25.887009 38.079948 1.526640 2.318296 0.131241 -0.062866 157559.000000 0 0 1
2.451978 27.991977 -26.557989 38.663804 1.483424 2.328005 0.136926 -0.066423 -426278.000000 0 0 1
3.688878 27.950177 -25.618249 38.093502 1.439574 2.308391 0.125547 -0.063618 169350.000000 0 0 1
4.058578 26.648777 -25.148809 36.865865 1.419659 2.321523 0.145311 -0.063017 460759.000000 0 0 1
5.376178 26.738777 -24.621829 36.743706 1.372379 2.305135 0.112706 -0.055463 242382.000000 0 0 1
6.008278 25.538077 -23.909529 35.495892 1.339731 2.309846 0.109928 -0.049774 -427298.000000 0 0 1
7.271978 25.888277 -23.455329 35.682447 1.296955 2.288074 0.087892 -0.041589 -661596.000000 0 0 1
8.106178 24.782577 -23.049129 34.801560 1.254674 2.294683 0.067563 -0.017109 685348.000000 0 0 1
9.507178 25.257677 -22.609529 35.206924 1.210792 2.268148 0.048142 -0.001104 -619793.000000 0 0 1
9.430978 25.936177 -21.346329 34.889746 1.222038 2.229159 0.057250 -0.004103 847525.000000 0 0 1
10.718478 26.478577 -20.974229 35.438949 1.186161 2.204137 0.054774 -0.004568 1063110.000000 0 0 1
11.697978 25.437677 -20.373729 34.626680 1.139766 2.199853 0.037622 0.002997 -244547.000000 0 0 1
12.125578 24.418977 -21.269429 34.578963 1.109902 2.233306 0.041265 -0.001062 -281221.000000 0 0 1
12.385278 23.226877 -20.592329 33.420457 1.080919 2.234653 0.034033 0.008100 -343460.000000 0 0 1
12.633378 22.123377 -21.671729 33.447121 1.051942 2.275673 0.027092 0.001807 -101540.000000 0 0 1
11.477978 21.962077 -22.479529 33.457526 1.089211 2.307544 0.043633 -0.014447 343196.000000 0 0 1
11.594478 20.954277 -23.429029 33.502732 1.065406 2.345238 0.036355 -0.013035 116526.000000 0 0 1
10.732578 21.362177 -24.665829 34.350167 1.105222 2.371822 0.056384 -0.022731 290649.000000 0 0 1
9.341278 21.181277 -24.478529 33.691310 1.155439 2.384088 0.062608 -0.029853 107912.000000 0 0 1
8.730578 21.424777 -25.734159 34.604783 1.183842 2.409323 0.062226 -0.035910 758123.000000 0 0 1
7.309978 20.780177 -25.999989 34.077133 1.232540 2.438699 0.071872 -0.040379 2236470.000000 0 0 1
6.042778 21.338277 -25.584079 33.858268 1.294832 2.427401 0.091254 -0.040261 1124630.000000 0 0 1
5.923678 21.524677 -24.161729 32.896669 1.302240 2.395687 0.086100 -0.037300 595162.000000 0 0 1
4.447778 21.765477 -23.615729 32.422544 1.369221 2.386742 0.104539 -0.046292 998230.000000 0 0 1
3.984078 23.040277 -23.988529 33.498907 1.399572 2.368993 0.106962 -0.047845 -118262.000000 0 0 1
2.569978 22.964777 -23.947729 33.278815 1.459350 2.374035 0.122385 -0.048924 -86890.900000 0 0 1
1.931878 24.335177 -24.042129 34.263055 1.491576 2.348567 0.126198 -0.050281 -375951.000000 0 0 1
0.550878 24.293677 -24.293529 34.360759 1.548124 2.356063 0.107564 -0.058892 -536250.000000 0 0 1
0.089878 25.277277 -25.207839 35.698515 1.567241 2.354816 0.092301 -0.045171 -862164.000000 0 0 1
-1.350722 25.022877 -25.577889 35.807782 -1.516869 2.366435 0.093444 -0.041646 -758023.000000 0 0 1
-1.557122 23.731077 -26.143639 35.342305 -1.505275 2.403460 0.102949 -0.049219 -697332.000000 0 0 1
-2.842722 23.671477 -26.705919 35.799804 -1.451278 2.412801 0.096849 -0.033650 -160414.000000 0 0 1
-3.117222 22.238277 -27.099739 35.194515 -1.431530 2.449636 0.076332 -0.028499 -311071.000000 0 0 1
-2.412122 21.779677 -28.294159 35.787318 -1.460495 2.482617 0.089324 -0.043030 157932.000000 0 0 1
-2.892222 20.547677 -28.853079 35.539726 -1.430958 2.518117 0.065197 -0.033186 1652280.000000 0 0 1
-4.335022 20.719777 -29.580279 36.374366 -1.364550 2.520456 0.057380 -0.032544 1518130.000000 0 0 1
-4.376822 21.274177 -30.885169 37.757659 -1.367893 2.528694 0.058273 -0.030583 -28867.400000 0 0 1
-3.857722 22.610377 -30.984189 38.550371 -1.401806 2.504339 0.065289 -0.030062 -162527.000000 0 0 1
-3.496622 22.957477 -32.450699 39.903884 -1.419649 2.520463 0.055784 -0.022882 -191375.000000 0 0 1
-2.504922 22.068777 -32.889809 39.686838 -1.457775 2.547637 0.057466 -0.019254 -452.138000 0 0 1
-2.155522 22.281977 34.024820 40.728628 -1.474358 0.581931 0.049703 -0.003911 729185.000000 0 0 1
-0.951022 21.367577 33.508402 39.752872 -1.526318 0.568113 0.045743 0.010627 785971.000000 0 0 1
-1.278722 20.025277 33.284770 38.865445 -1.507028 0.542520 0.037604 0.004570 86770.000000 0 0 1
-0.163422 19.236777 32.930608 38.137977 -1.562301 0.528707 0.031719 0.014321 -148400.000000 0 0 1
-0.556222 17.794377 32.511684 37.066951 -1.539548 0.500991 0.027351 0.021244 -79068.900000 0 0 1
-1.192422 17.753777 31.250474 35.961238 -1.503733 0.517610 0.017807 0.011114 123225.000000 0 0 1
-1.477922 16.358077 30.971984 35.057592 -1.480693 0.487599 0.014394 0.007677 -298478.000000 0 0 1
-2.350822 16.043377 29.720734 33.856142 -1.425303 0.499434 0.019258 0.006706 859065.000000 0 0 1
-3.701222 16.527477 29.745154 34.229092 -1.350488 0.517614 0.000707 -0.001258 697051.000000 0 0 1
-3.839522 17.898277 29.407564 34.639502 -1.359480 0.556781 0.001240 -0.001579 594766.000000 0 0 1
-5.301622 18.455777 29.633814 35.311271 -1.291067 0.574955 0.002755 -0.015652 1026850.000000 0 0 1
-6.273022 17.959577 28.759184 34.481704 -1.234758 0.584403 -0.004430 -0.008808 -709858.000000 0 0 1
-7.508622 18.592177 28.961994 35.225638 -1.186967 0.605557 0.029244 -0.026115 -347350.000000 0 0 1
-8.608022 18.051977 27.984614 34.396374 -1.125843 0.620493 0.031566 -0.018528 226088.000000 0 0 1
-9.082122 16.705777 28.246104 34.050115 -1.072840 0.592504 0.043994 -0.017980 -9316.900000 0 0 1
-9.905722 16.580877 29.376284 35.157003 -1.032277 0.581619 0.062544 -0.017927 -509056.000000 0 0 1
-10.553722 15.180977 29.644644 34.937774 -0.963303 0.557655 0.065111 -0.019103 1304320.000000 0 0 1
-9.580422 14.084177 29.920134 34.429101 -0.973465 0.517545 0.045879 -0.006741 1757140.000000 0 0 1
-8.851522 14.026277 31.208074 35.341616 -1.007846 0.488494 0.042077 -0.006787 386231.000000 0 0 1
-9.728022 13.624677 32.385615 36.456746 -0.950736 0.477101 0.083162 -0.023348 -204555.000000 0 0 1
-10.257122 12.313177 32.354715 36.106100 -0.876243 0.459891 0.072941 -0.003381 193952.000000 0 0 1
-10.609322 11.935977 33.679783 37.274027 -0.844174 0.442760 0.070085 0.000056 -158592.000000 0 0 1
-11.048322 10.445377 33.875344 37.130988 -0.757353 0.421882 0.071306 -0.006960 -501077.000000 0 0 1
-10.050522 9.486877 33.566949 36.300880 -0.756557 0.390584 0.060860 -0.002675 115915.000000 0 0 1
-9.616722 8.745977 -33.552739 35.982770 -0.738014 2.771979 0.093354 -0.016976 -232748.000000 0 0 1
-8.584922 9.391977 -32.641369 35.033828 -0.830262 2.769889 0.079011 -0.023716 -788314.000000 0 0 1
-9.127822 10.400477 -31.812609 34.691917 -0.850476 2.731298 0.069704 -0.022518 522574.000000 0 0 1
-8.172422 10.907077 -30.849659 33.726166 -0.927758 2.725586 0.069667 -0.018148 332924.000000 0 0 1
-7.226222 11.981877 -31.384009 34.361893 -1.028103 2.722203 0.058132 -0.016969 -581256.000000 0 0 1
-7.802722 13.239377 -31.617509 35.154380 -1.038239 2.689169 0.066721 -0.021269 -1556.790000 0 0 1
-6.889822 14.120577 -32.242099 35.866604 -1.116853 2.688151 0.048177 -0.016044 187291.000000 0 0 1
-7.492322 15.563177 -32.448139 36.759068 -1.122128 2.652426 0.049187 -0.023131 112088.000000 0 0 1
-8.001322 15.860577 -33.704189 38.099231 -1.103572 2.656522 0.043544 -0.025944 -278104.000000 0 0 1
-8.553322 17.136077 -33.730029 38.788133 -1.107836 2.625181 0.070528 -0.028785 -1266470.000000 0 0 1
-9.115622 17.545277 33.159067 38.606412 -1.091633 0.537677 0.071462 -0.032551 1469600.000000 0 0 1
-10.361822 16.890277 32.778013 38.302049 -1.020525 0.543745 0.059887 -0.034191 1259170.000000 0 0 1
-11.491522 17.107577 33.584436 39.403536 -0.979303 0.550390 0.063280 -0.045766 368288.000000 0 0 1
-12.914522 16.563477 33.135909 39.231647 -0.908557 0.564938 0.065007 -0.040870 1155610.000000 0 0 1
-13.118422 15.183777 33.092943 38.701201 -0.858244 0.545075 0.052213 -0.038721 311612.000000 0 0 1
-14.381922 14.777877 33.598947 39.422260 -0.798976 0.550461 0.053102 -0.029368 146210.000000 0 0 1
-14.706422 13.262477 33.468900 38.888808 -0.733817 0.534290 0.046243 -0.021875 -492083.000000 0 0 1
-14.860222 12.725177 32.179744 37.660221 -0.708155 0.546256 0.024453 -0.019851 454884.000000 0 0 1
-13.670822 12.410977 31.440804 36.461595 -0.737132 0.531004 0.036367 -0.002590 506181.000000 0 0 1
-14.090822 11.968677 29.998664 35.238053 -0.704143 0.552311 0.016359 0.004437 118183.000000 0 0 1
-14.585922 10.630977 29.919504 34.942002 -0.629828 0.542807 0.019960 0.008157 -12780.700000 0 0 1
-14.659122 10.223077 28.548094 33.680779 -0.608970 0.559335 0.016136 0.006013 -87399.700000 0 0 1
-15.214122 8.832477 28.123674 33.172627 -0.525991 0.558978 0.020996 0.003716 117951.000000 0 0 1
-14.474322 7.689677 28.500764 32.877510 -0.488344 0.521893 0.006519 0.004243 -18875.000000 0 0 1
-15.182822 6.505877 28.173304 32.658530 -0.404834 0.530285 0.017657 0.009926 553532.000000 0 0 1
-14.296122 5.169877 28.356644 32.174617 -0.346996 0.492114 0.016291 0.008140 1071280.000000 0 0 1
-13.375922 4.924777 27.264894 30.765942 -0.352780 0.481710 0.015142 0.001925 607552.000000 0 0 1
-14.012422 4.655877 25.979544 29.882468 -0.320791 0.516828 0.012266 0.004112 -155546.000000 0 0 1
-13.022422 4.424777 24.821224 28.377021 -0.327543 0.505991 0.021258 0.009452 -259133.000000 0 0 1
-12.243422 3.257277 24.996984 28.024283 -0.260020 0.469099 0.018296 -0.001120 -112655.000000 0 0 1
-11.789122 2.886077 23.728364 26.652356 -0.240087 0.472812 0.017062 -0.006535 -223903.000000 0 0 1
-10.800222 1.709777 23.884834 26.268868 -0.157006 0.429330 0.011862 -0.009389 -652637.000000 0 0 1
-9.454622 2.021177 24.031714 25.903635 -0.210607 0.382498 0.013584 -0.016470 -766009.000000 0 0 1
-8.762322 0.915677 24.506904 26.042371 -0.104124 0.345106 0.015987 -0.005082 627905.000000 0 0 1
-7.198922 1.058977 24.423584 25.484453 -0.146055 0.289552 0.035784 -0.015018 -198151.000000 0 0 1
-6.648022 0.945577 23.129764 24.084773 -0.141287 0.282549 0.032449 -0.009072 648011.000000 0 1 0
-5.217922 1.085077 23.103864 23.710602 -0.205030 0.226712 0.029726 -0.007186 877425.000000 0 1 0
-4.711822 2.517277 23.355874 23.959023 -0.490669 0.224858 0.056506 -0.014512 -854341.000000 0 1 0
-4.875922 2.888277 24.693624 25.335584 -0.534779 0.225593 0.072918 -0.018801 -210440.000000 0 0 1
-4.281722 4.146377 24.882704 25.586609 -0.769341 0.235107 0.063304 -0.031867 67555.200000 0 0 1
4.270578 -23.251023 13.069771 27.012346 -1.389148 1.065754 0.097655 -0.012497 308619.000000 0 0 1
3.899178 -24.521123 13.526571 28.274674 -1.413104 1.071966 0.088307 -0.011811 -291972.000000 0 0 1
2.498378 -24.676923 13.589571 28.281953 -1.469897 1.069568 0.052606 -0.005231 2832.540000 0 0 1
2.049878 -25.986293 14.200171 29.683906 -1.492076 1.071988 0.036525 -0.006054 -93842.600000 0 0 1
2.099978 -25.972753 15.610171 30.375504 -1.490119 1.031064 0.063686 -0.012794 21153.100000 0 0 1
2.079478 -27.285553 16.187371 31.793971 -1.494732 1.036619 0.053112 -0.011986 -214318.000000 0 0 1
1.949278 -27.280413 17.728871 32.593458 -1.499464 0.995671 0.044659 -0.005969 272424.000000 0 0 1
2.985178 -26.528313 18.380971 32.411769 -1.458740 0.967806 0.074940 -0.018993 505036.000000 0 0 1
3.379778 -27.237933 19.529171 33.685552 -1.447344 0.952375 0.059356 -0.014843 -168251.000000 0 0 1
4.108778 -26.353723 20.565471 33.679955 -1.416133 0.913960 0.065050 -0.012096 -393756.000000 0 0 1
3.361278 -25.312833 21.114171 33.133758 -1.438779 0.879884 0.083262 -0.014224 -307849.000000 0 0 1
4.179778 -24.384223 21.758271 32.946672 -1.401033 0.849433 0.095434 -0.021337 -258280.000000 0 0 1
3.416978 -23.335423 22.608471 32.670486 -1.425401 0.806519 0.102583 -0.025364 -180075.000000 0 0 1
2.683478 -22.350723 21.893471 31.401910 -1.451306 0.799309 0.116859 -0.017529 -67407.400000 0 0 1
3.423878 -21.563623 20.973871 30.275667 -1.413331 0.805483 0.107490 -0.010936 -497454.000000 0 0 1
2.738878 -20.413523 20.272871 28.899873 -1.437423 0.793315 0.097843 -0.011526 -192475.000000 0 0 1
2.518578 -19.275023 21.079371 28.674198 -1.440867 0.744932 0.079620 -0.017662 434838.000000 0 0 1
1.483478 -18.483123 20.460371 27.612557 -1.490707 0.736267 0.070173 -0.012245 662918.000000 0 0 1
1.196678 -17.159123 21.206671 27.305502 -1.501169 0.681475 0.066677 -0.016516 -168.173000 0 0 1
2.177478 -16.194423 20.887371 26.519484 -1.437139 0.663854 0.047073 -0.003388 -102418.000000 0 0 1
1.853378 -14.890723 21.232571 25.999821 -1.446968 0.615226 0.050196 -0.004814 646183.000000 0 0 1
2.990178 -13.870923 20.789771 25.170583 -1.358474 0.598902 0.022131 -0.004773 72800.000000 0 0 1
3.096278 -13.524423 19.375271 23.830612 -1.345735 0.621439 0.007854 -0.009199 -588000.000000 0 1 0
2.015078 -13.122623 18.583071 22.838439 -1.418429 0.620350 0.018892 -0.002192 -480319.000000 0 1 0
1.157578 -11.957123 19.041071 22.513888 -1.474286 0.562831 0.011933 -0.008426 -707726.000000 0 1 0
1.847378 -10.753423 18.892071 21.816491 -1.400663 0.523742 0.014862 -0.010388 -246871.000000 0 1 0
1.407378 -9.814623 19.840371 22.179898 -1.428371 0.463439 0.016348 -0.023563 966799.000000 0 1 0
-0.061422 -9.254923 19.722071 21.785717 1.564160 0.438769 0.021027 -0.032498 661788.000000 0 1 0
-0.455622 -8.382623 20.773971 22.406112 1.516497 0.384046 0.010235 -0.038497 -80033.600000 0 1 0
-1.865622 -8.247623 20.781371 22.435891 1.348339 0.386443 0.017172 -0.030929 -103239.000000 0 1 0
-2.286222 -7.501923 22.054271 23.407190 1.274986 0.341657 0.018220 -0.030370 -560172.000000 0 1 0
-2.033022 -8.341523 23.176971 24.716112 1.331734 0.354768 0.020684 -0.022632 115424.000000 0 1 0
-2.104022 -7.647623 24.386671 25.644157 1.302318 0.314458 0.030614 -0.010203 -211989.000000 0 0 1
-2.174722 -8.470423 25.689571 27.137272 1.319481 0.328111 0.030591 -0.014650 11859.100000 0 0 1
-0.939322 -9.084623 25.953471 27.513549 1.467766 0.338367 0.024167 -0.011858 -120963.000000 0 0 1
-1.140622 -9.981623 26.982071 28.791769 1.457018 0.356439 0.027035 -0.014483 566530.000000 0 0 1
0.056778 -10.909723 27.392971 29.485592 -1.565592 0.379016 0.018013 -0.012138 1383480.000000 0 0 1
1.201478 -10.301423 28.044671 29.900944 -1.454689 0.354214 0.010732 -0.013806 626226.000000 0 0 1
2.217778 -11.257923 28.239271 30.481401 -1.376290 0.385946 0.013945 -0.017271 -475928.000000 0 0 1
3.176378 -10.795223 29.307471 31.393536 -1.284633 0.366601 0.021916 -0.016314 -784007.000000 0 0 1
2.597278 -10.542423 30.540871 32.413475 -1.329242 0.341577 0.021719 -0.019446 -199155.000000 0 0 1
3.506878 -9.956023 31.461971 33.185482 -1.232130 0.323702 0.037288 -0.018772 -541965.000000 0 0 1
2.992778 -9.929723 32.919871 34.514838 -1.278059 0.305193 0.035142 -0.021593 -357014.000000 0 0 1
3.049178 -11.126923 33.635871 35.559496 -1.303326 0.330426 0.026007 -0.021427 -175888.000000 0 0 1
2.584078 -11.063623 -33.274421 35.160608 -1.341344 2.812559 0.028881 -0.016889 -375143.000000 0 0 1
3.315678 -10.224423 -32.218821 33.964467 -1.257207 2.819591 0.034351 -0.015604 -286639.000000 0 0 1
2.909578 -8.909623 -32.350221 33.680615 -1.255149 2.859589 0.045921 -0.022295 194767.000000 0 0 1
3.538378 -8.108423 -31.373621 32.597097 -1.159324 2.866746 0.059517 -0.020180 -145470.000000 0 0 1
2.887778 -6.731723 -31.220021 32.067820 -1.165559 2.911137 0.052772 -0.030549 -38188.600000 0 0 1
3.211578 -5.801923 -32.222221 32.897539 -1.065242 2.938622 0.082409 -0.028028 13288.600000 0 0 1
2.513378 -4.605323 -31.986921 32.414336 -1.071218 2.979019 0.073851 -0.025119 -115267.000000 0 0 1
2.797678 -3.516023 -33.013421 33.317794 -0.898687 3.006320 0.080222 -0.019152 37485.300000 0 0 1
2.144578 -3.810723 34.007471 34.287446 -1.058198 0.127880 0.083254 -0.024675 -5254.680000 0 0 1
2.290578 -2.734623 33.078071 33.269862 -0.873533 0.107427 0.096311 -0.032336 189034.000000 0 0 1
1.595878 -3.065223 31.722771 31.910447 -1.090773 0.108509 0.096748 -0.031314 -64426.400000 0 0 1
0.200078 -3.140323 31.833771 31.988915 -1.507170 0.098527 0.083836 -0.026721 -666756.000000 0 0 1
-0.383122 -3.613923 30.668871 30.883440 1.465178 0.117947 0.082488 -0.022176 -1079470.000000 0 0 1
-1.876222 -3.723523 30.693671 30.975576 1.104047 0.135016 0.067474 -0.021832 -878687.000000 0 0 1
-2.654922 -2.603723 30.308671 30.535938 0.775662 0.122081 0.061503 -0.020151 -274094.000000 0 0 1
-4.026022 -2.900323 30.382371 30.784886 0.624283 0.161887 0.060456 -0.019144 -35365.100000 0 0 1
-4.941322 -1.848323 29.728271 30.192765 0.357941 0.175635 0.049711 -0.018316 -303502.000000 0 0 1
-4.872422 -1.894123 28.330171 28.808450 0.370765 0.182473 0.038196 -0.014313 -55088.600000 0 0 1
-5.834222 -1.184123 27.565471 28.200984 0.200242 0.212698 0.021164 -0.011812 117894.000000 0 0 1
-5.925022 0.335577 27.691271 28.320046 -0.056577 0.211117 0.046477 -0.012316 -25735.000000 0 0 1
-6.536022 0.689277 28.917771 29.655222 -0.105070 0.223478 0.040328 -0.010973 -254789.000000 0 0 1
-6.821822 2.011377 29.042071 29.900247 -0.286720 0.240165 0.046107 -0.013830 -48145.800000 0 0 1
-8.196022 2.343777 29.688471 30.888079 -0.278532 0.279611 0.024774 -0.011566 155501.000000 0 0 1
-9.246622 2.120377 28.774671 30.298147 -0.225417 0.318465 0.012629 -0.003971 66467.500000 0 0 1
-10.437722 2.803177 29.204771 31.140368 -0.262371 0.354435 0.005010 0.005362 309201.000000 0 0 1
-11.610522 2.263077 28.349771 30.718647 -0.192502 0.395290 0.013452 0.010863 -322082.000000 0 0 1
-11.867822 0.897477 28.631571 31.006734 -0.075479 0.393954 0.013066 0.010385 33052.700000 0 0 1
-12.099222 0.145677 27.465871 30.013105 -0.012040 0.414968 0.014524 0.009104 -646215.000000 0 0 1
-12.319322 -1.361223 27.774271 30.414286 0.110049 0.419732 0.016292 0.000625 -7211.170000 0 0 1
-11.214422 -2.141623 28.180471 30.405407 0.188698 0.384931 0.023484 -0.004659 208526.000000 0 0 1
-10.020822 -2.171223 27.419071 29.273479 0.213373 0.357849 0.015513 -0.001871 -152812.000000 0 0 1
-10.068722 -2.794023 25.998271 28.019562 0.270685 0.382160 0.019379 -0.006458 -610778.000000 0 0 1
-10.594722 -1.916523 25.017571 27.236007 0.178959 0.406405 0.012139 -0.001873 294140.000000 0 0 1
-10.756222 -2.655023 23.828671 26.278338 0.241999 0.435214 0.016217 -0.003883 158359.000000 0 0 1
-9.616022 -2.304923 22.824071 24.874058 0.235258 0.408833 0.018257 -0.006067 1194090.000000 0 1 0
-8.305622 -2.647523 23.300071 24.877421 0.308580 0.358012 0.019178 -0.007681 919207.000000 0 1 0
-7.290022 -2.123623 22.420471 23.671327 0.283461 0.326542 0.018348 -0.007844 1327590.000000 0 1 0
-5.808822 -2.426823 22.849471 23.700848 0.395741 0.268845 0.021083 -0.008423 885481.000000 0 1 0
-5.222022 -3.692023 22.588871 23.476747 0.615415 0.275899 0.025167 -0.018477 -59349.800000 0 1 0
-5.673122 -4.738723 23.423971 24.562619 0.695894 0.305678 0.024923 -0.015390 44240.700000 0 1 0
-5.312022 -6.184323 22.910071 24.317376 0.861129 0.341875 0.018919 -0.020493 -735623.000000 0 1 0
-6.242022 -6.636323 21.969571 23.783727 0.816006 0.393108 0.017210 -0.023677 -301311.000000 0 1 0
-6.101822 -6.186823 20.660071 22.413111 0.792315 0.398137 0.029605 -0.026589 9158.800000 0 1 0
-7.405922 -6.178723 19.806671 22.030173 0.695305 0.453155 0.024570 -0.018620 236559.000000 0 1 0
-8.284522 -5.095723 19.971371 22.213855 0.551441 0.453201 0.022782 -0.021467 -701960.000000 0 1 0
-9.199522 -5.034023 18.935871 21.645780 0.500695 0.505760 0.018442 -0.017185 14634.200000 0 1 0
-10.049322 -3.736723 19.082671 21.888360 0.355996 0.511894 0.024018 -0.016531 620486.000000 0 1 0
-9.159722 -2.613823 18.886271 21.152395 0.277973 0.467125 0.021608 -0.014963 377436.000000 0 1 0
-9.749022 -1.390023 18.899971 21.311605 0.141626 0.480337 0.019026 -0.012381 -556991.000000 0 1 0
-8.727022 -0.362323 18.348471 20.321383 0.041493 0.444294 0.022471 -0.007753 739113.000000 0 1 0
-7.664022 -0.080823 19.288871 20.755826 0.010545 0.378220 0.019240 0.003108 598546.000000 0 1 0
-8.020822 0.722477 20.411071 21.942365 -0.089833 0.375804 0.035767 0.001776 -447721.000000 0 1 0
-7.945322 2.273577 20.256971 21.877893 -0.278705 0.387357 0.029384 -0.002328 344271.000000 0 1 0
-8.883922 2.768977 19.296371 21.422914 -0.302141 0.449337 0.020512 -0.009281 378902.000000 0 1 0
-8.666122 4.109677 18.980671 21.266335 -0.442814 0.467890 0.015582 -0.006855 -152172.000000 0 1 0
-9.489322 4.517377 17.758371 20.635253 -0.444303 0.534381 0.012363 -0.007426 -224645.000000 0 1 0
-10.864922 4.630977 18.105171 21.616885 -0.402914 0.578017 0.010432 -0.000002 -384667.000000 0 1 0
-11.649522 4.978777 17.031271 21.226488 -0.403885 0.639558 0.011059 0.006652 -593493.000000 0 1 0
-11.698622 6.515877 16.705371 21.409901 -0.508185 0.675709 0.011351 0.000688 -1163590.000000 0 1 0
-10.525522 7.231477 16.411571 20.794724 -0.601976 0.661262 0.013202 -0.006329 -193853.000000 0 1 0
-10.845322 8.614377 16.479571 21.526838 -0.671252 0.698922 0.016561 -0.007426 -269076.000000 0 1 0
-9.627022 9.522477 16.542971 21.378190 -0.779939 0.685939 0.017966 -0.006724 -261382.000000 0 1 0
-9.002122 9.577077 17.817471 22.140933 -0.816334 0.635576 0.024609 0.004720 -390844.000000 0 1 0
-8.182522 10.689977 18.085571 22.545890 -0.917487 0.639881 0.037136 -0.001193 -186569.000000 0 1 0
-8.623722 12.164577 17.893371 23.292021 -0.954108 0.694742 0.033305 -0.000639 -454345.000000 0 1 0
-8.575122 12.524477 16.539971 22.449185 -0.970434 0.742510 0.036773 -0.015379 -293342.000000 0 1 0
-9.327822 13.669577 16.235071 23.182820 -0.971995 0.794970 0.045186 -0.022660 -199568.000000 0 1 0
-9.119722 14.147277 14.797971 22.411933 -0.998207 0.849615 0.049918 -0.023346 660816.000000 0 1 0
-7.854722 14.794777 14.699771 22.285990 -1.082726 0.850514 0.050645 -0.009367 114064.000000 0 1 0
-7.741022 15.333177 13.402471 21.786601 -1.103273 0.908194 0.041976 -0.015894 -286396.000000 0 1 0
-6.720522 16.457677 13.242571 22.167234 -1.183111 0.930549 0.021601 -0.004938 269267.000000 0 1 0
-5.371322 16.021677 13.355871 21.538908 -1.247319 0.901950 0.013642 -0.012876 291666.000000 0 1 0
-4.528922 17.178077 13.520471 22.324888 -1.313017 0.920247 0.008693 -0.014203 -626467.000000 0 1 0
-3.049222 17.006177 13.704571 22.052734 -1.393381 0.900210 0.012478 -0.015912 -845152.000000 0 1 0
-2.449322 16.511277 14.911471 22.382436 -1.423528 0.841677 0.014049 -0.011602 -35006.800000 0 1 0
-2.778322 15.161777 15.252871 21.685217 -1.389562 0.790660 0.008490 -0.002904 326364.000000 0 1 0
-1.763222 14.583677 16.323971 21.960525 -1.450477 0.732758 0.006937 0.007306 963211.000000 0 1 0
-0.491122 14.193677 15.761871 21.216462 -1.536209 0.733393 0.000370 -0.005617 -75672.300000 0 1 0
0.377278 13.602977 16.663071 21.513746 1.543068 0.684822 -0.000007 0.013182 -65286.400000 0 1 0
1.245578 14.688977 17.412471 22.814725 1.486202 0.702527 -0.001075 0.009773 -321641.000000 0 1 0
0.560878 15.691777 18.157371 24.004929 1.535068 0.713002 -0.008748 0.007054 -304995.000000 0 1 0
1.506378 16.648077 18.624271 25.025809 1.480558 0.731456 0.020929 0.001807 -205918.000000 0 0 1
0.937278 18.052077 19.049971 26.261329 1.518922 0.759181 0.029347 -0.002685 139173.000000 0 0 1
0.430878 18.772077 17.954471 25.979599 1.547847 0.807788 0.012345 -0.006194 1302700.000000 0 0 1
-0.915022 18.330777 17.566571 25.405493 -1.520920 0.807305 0.013024 -0.003013 471935.000000 0 0 1
-1.589422 19.206077 16.562671 25.411056 -1.488228 0.860854 0.012486 0.001029 -574735.000000 0 0 1
-2.021522 20.378577 17.197171 26.741647 -1.471921 0.872275 0.009662 0.010263 123478.000000 0 0 1
-2.852622 21.242677 16.429471 27.005857 -1.437308 0.916795 0.016120 0.001116 -86360.500000 0 0 1
-3.719822 22.304077 17.186671 28.402299 -1.405540 0.920885 0.014499 0.006178 529489.000000 0 0 1
-4.709922 21.831577 18.103471 28.749553 -1.358314 0.889635 0.021986 0.004391 237462.000000 0 0 1
-5.240022 22.805177 18.943971 30.106610 -1.344943 0.890235 0.026186 0.013518 -110879.000000 0 0 1
-6.420622 22.369877 19.835471 30.579106 -1.291289 0.864973 0.006654 0.014525 94503.900000 0 0 1
-7.649822 22.345377 19.107371 30.379719 -1.240958 0.890592 -0.002562 0.014811 58535.900000 0 0 1
-8.660122 21.877677 19.991471 30.875385 -1.193879 0.866512 -0.029604 0.013701 482315.000000 0 0 1
-10.116722 22.148977 19.517871 31.206931 -1.142337 0.895109 -0.015695 0.007604 313630.000000 0 0 1
-10.262922 23.564177 19.673571 32.367382 -1.160040 0.917483 -0.016441 0.012457 -293755.000000 0 0 1
-11.339722 23.998277 18.888771 32.577481 -1.129371 0.952300 -0.020312 0.009795 -307741.000000 0 0 1
-11.758722 25.434277 19.148371 33.938623 -1.137746 0.971325 -0.015327 0.005765 -336671.000000 0 0 1
-12.323722 25.667177 20.384671 35.017323 -1.123166 0.949449 -0.012851 0.005324 -169453.000000 0 0 1
-12.847822 26.988777 20.443271 36.213091 -1.126497 0.970936 -0.002226 -0.004235 -226813.000000 0 0 1
-13.863722 27.135677 21.647271 37.378498 -1.098464 0.953127 0.033027 -0.018604 -253169.000000 0 0 1
-15.032522 26.371177 21.573471 37.240172 -1.052701 0.952919 0.033284 -0.016769 -60764.700000 0 0 1
-15.769522 26.464677 22.780971 38.314875 -1.033419 0.934062 0.024878 -0.010888 1741540.000000 0 0 1
-17.335522 26.150477 22.717671 38.735776 -0.985396 0.944093 0.037797 -0.010027 1749720.000000 0 0 1
-17.590222 24.726177 22.680671 37.884200 -0.952460 0.928939 0.051269 -0.011125 72005.700000 0 0 1
-18.976922 24.474977 22.828471 38.474500 -0.911261 0.935594 0.059681 -0.008149 128022.000000 0 0 1
27.366478 24.403877 23.100264 43.337000 0.728235 1.008609 0.074715 -0.031035 -150378.000000 0 0 1
27.290978 23.670477 24.309114 43.543335 0.714473 0.978492 0.074233 -0.030894 188640.000000 0 0 1
27.012778 22.315977 24.105214 42.529453 0.690470 0.968194 0.074389 -0.026175 -469938.000000 0 0 1
26.907478 21.568777 25.493674 42.885335 0.675710 0.934201 0.103397 -0.031384 -67934.800000 0 0 1
25.562078 21.593277 25.923784 42.328856 0.701432 0.911656 0.099543 -0.029226 -18530.500000 0 0 1
25.274778 20.873277 27.067844 42.510896 0.690308 0.880550 0.102872 -0.032478 48404.000000 0 0 1
23.866578 21.173877 27.625364 42.203168 0.725685 0.857169 0.102611 -0.038129 65043.300000 0 0 1
23.666478 22.367477 28.377854 43.193852 0.757187 0.853979 0.118977 -0.043852 81040.800000 0 0 1
22.337678 22.459577 28.853584 42.847798 0.788119 0.832002 0.125499 -0.037457 -13822.600000 0 0 1
21.963478 23.766477 29.692904 43.919339 0.824805 0.828369 0.125252 -0.040011 -669197.000000 0 0 1
21.769678 24.870277 28.864104 43.881501 0.851780 0.852937 0.111227 -0.032292 31512.100000 0 0 1
21.388378 25.972877 29.670714 44.859830 0.881896 0.848100 0.112015 -0.029093 -221456.000000 0 0 1
20.012578 25.947277 30.367284 44.675904 0.913815 0.823410 0.100814 -0.020765 -1840910.000000 0 0 1
19.007778 25.869377 29.384464 43.519732 0.937121 0.829562 0.097704 -0.022350 -38819.300000 0 0 1
17.701378 26.251277 29.770174 43.459540 0.977524 0.816180 0.086218 -0.016312 275697.000000 0 0 1
16.994178 25.310677 30.769244 43.314880 0.979508 0.780784 0.052395 -0.010655 -1450230.000000 0 0 1
17.552378 25.115577 32.004504 44.307635 0.960833 0.763638 0.070193 -0.012824 -605263.000000 0 0 1
16.883178 24.132577 32.745969 44.042269 0.960338 0.732489 0.060007 -0.014814 -68294.400000 0 0 1
17.443078 23.852077 -34.093838 45.117317 0.939370 2.427474 0.079024 -0.022456 -200608.000000 0 0 1
17.279978 24.980377 -33.290909 45.065525 0.965634 2.401969 0.071826 -0.023617 289954.000000 0 0 1
17.645178 24.685477 -31.923029 44.043216 0.950206 2.381557 0.057326 -0.015734 -418266.000000 0 0 1
17.950878 25.959177 -31.151109 44.345287 0.965795 2.349654 0.059212 -0.009798 -462593.000000 0 0 1
16.908778 26.884077 -30.903019 44.313169 1.009361 2.342529 0.061435 -0.024655 162157.000000 0 0 1
17.406478 28.055277 -30.285439 44.802811 1.015486 2.313079 0.067533 -0.026769 56403.100000 0 0 1
16.829278 28.341877 -28.885899 43.827865 1.034951 2.290386 0.076036 -0.022403 -98028.400000 0 0 1
17.508378 27.587577 -27.921289 42.979252 1.005290 2.277915 0.052956 -0.011597 375223.000000 0 0 1
17.029978 27.961477 -26.640689 42.208893 1.023748 2.253848 0.041612 -0.008052 77356.300000 0 0 1
17.769178 27.084977 -25.618609 41.299550 0.990178 2.239937 0.033586 0.001257 508952.000000 0 0 1
19.166778 27.247277 -25.431169 41.910904 0.957767 2.222814 0.043470 0.003148 30223.500000 0 0 1
19.661378 26.676777 -24.241429 41.059312 0.935653 2.202351 0.047357 0.005510 -588403.000000 0 0 1
21.176878 26.777877 -24.197129 41.845142 0.901669 2.187384 0.052288 0.006729 -577231.000000 0 0 1
21.722478 26.215077 -23.008529 41.091224 0.878843 2.165107 0.055359 0.001448 -1369730.000000 0 0 1
23.050378 25.928077 -23.201829 41.736195 0.844085 2.160261 0.061455 0.003487 -1269730.000000 0 0 1
23.760478 25.762977 -21.883929 41.318248 0.825812 2.128976 0.073521 -0.001627 -283584.000000 0 0 1
23.511578 24.501577 -21.346429 40.109745 0.806015 2.131994 0.075444 -0.001671 123460.000000 0 0 1
23.947578 24.468377 -19.992529 39.647058 0.796155 2.099324 0.056345 -0.008097 -117745.000000 0 0 1
23.397078 23.253977 -19.221229 38.178873 0.782331 2.098386 0.047578 -0.007840 28817.600000 0 0 1
24.058778 22.028477 -19.611029 38.061412 0.741373 2.112092 0.059438 0.000582 536461.000000 0 0 1
23.704378 20.962077 -18.710429 36.761207 0.724080 2.104787 0.059974 0.002302 -802748.000000 0 0 1
23.731078 19.556277 -19.343929 36.329047 0.689252 2.132306 0.066401 -0.003108 584464.000000 0 0 1
22.816778 19.330177 -20.441429 36.223102 0.702861 2.170406 0.058527 -0.001223 213223.000000 0 0 1
21.460978 19.492477 -20.145729 35.304116 0.737368 2.178074 0.061996 0.002203 -1047640.000000 0 0 1
20.514578 19.647177 -21.354029 35.536658 0.763804 2.215425 0.048063 0.007192 -36607.600000 0 0 1
20.820778 20.599377 -22.346529 36.840284 0.780053 2.222546 0.047904 0.008773 -226438.000000 0 0 1
20.745478 21.945877 -21.964129 37.341925 0.813509 2.199615 0.046022 0.014102 -8379.710000 0 0 1
20.154178 22.788677 -23.110329 38.204738 0.846670 2.220446 0.066633 0.000336 -81428.100000 0 0 1
18.777978 22.661977 -23.332029 37.557439 0.878851 2.241115 0.048340 0.009644 -499083.000000 0 0 1
18.357578 23.055077 -24.625029 38.404808 0.898347 2.266853 0.049444 0.003170 316292.000000 0 0 1
16.817878 23.121977 -24.810929 37.855634 0.941946 2.285521 0.039634 0.002477 353751.000000 0 0 1
16.213278 24.169077 -24.096529 37.784354 0.979919 2.262355 0.032982 -0.005973 93690.500000 0 0 1
14.806578 24.257777 -24.191229 37.321442 1.022776 2.275996 0.025292 -0.006746 276522.000000 0 0 1
14.171878 25.455577 -23.462829 37.407658 1.062801 2.248775 0.028716 -0.001730 55998.000000 0 0 1
14.547978 26.720477 -23.960229 38.726220 1.072224 2.237894 0.024110 -0.002086 706090.000000 0 0 1
13.428578 27.614177 -23.818229 38.861003 1.118174 2.230532 0.040085 -0.009032 822750.000000 0 0 1
13.592878 28.840877 -24.750829 40.362929 1.130366 2.230910 0.044790 -0.012966 96488.200000 0 0 1
13.565678 28.614077 -26.147859 41.067062 1.128090 2.261022 0.051296 -0.024332 -345254.000000 0 0 1
13.161378 29.695777 -26.911189 42.181431 1.153606 2.262677 0.077382 -0.033567 -250584.000000 0 0 1
13.871678 31.099077 -26.888699 43.388687 1.151234 2.239178 0.089016 -0.031844 693885.000000 0 0 1
15.177878 31.042077 -27.482439 44.150459 1.116032 2.242694 0.068290 -0.011970 522042.000000 0 0 1
15.945178 32.210377 -27.280169 45.121666 1.111131 2.220049 0.076049 -0.028527 852186.000000 0 0 1
17.447178 32.081577 -27.709139 45.841335 1.072696 2.219881 0.066632 -0.007689 503901.000000 0 0 1
18.240978 31.295877 -26.899569 45.119309 1.043078 2.209540 0.030853 -0.001684 213214.000000 0 0 1
19.554478 31.086077 -27.405179 45.823200 1.009295 2.211879 0.034627 -0.000848 399270.000000 0 0 1
20.565278 30.317277 -26.490429 45.208526 0.974759 2.196862 0.021084 0.009239 -1337740.000000 0 0 1
20.881078 30.989777 -25.278469 45.115260 0.977868 2.165555 0.028000 0.006535 -216509.000000 0 0 1
21.765278 32.066977 -25.351439 46.311055 0.974479 2.150070 0.028124 -0.005703 353899.000000 0 0 1
23.194578 31.708577 -25.930809 47.072595 0.939246 2.154201 0.020760 -0.006171 -268183.000000 0 0 1
23.177078 31.316477 -27.285719 47.564789 0.933666 2.181756 0.013957 0.004091 -447740.000000 0 0 1
24.453678 31.356877 -27.892199 48.571709 0.908463 2.182481 0.007154 0.014157 -324524.000000 0 0 1
24.421578 30.879577 -29.355399 49.109075 0.901650 2.211499 0.000646 0.019223 -442318.000000 0 0 1
23.600778 31.542077 -30.220219 49.650388 0.928428 2.225167 0.017981 0.000815 -822342.000000 0 0 1
22.318778 31.012077 -30.351369 48.796336 0.946984 2.242092 0.017954 0.004147 -464700.000000 0 0 1
21.279478 31.781177 -31.192839 49.354358 0.980792 2.254951 0.018442 0.003354 -684283.000000 0 0 1
20.835378 32.998677 -30.712709 49.661818 1.007608 2.237549 0.041490 -0.019215 409767.000000 0 0 1
19.834178 33.595577 -31.543139 50.169981 1.037480 2.250709 0.058862 -0.027250 939469.000000 0 0 1
18.312178 33.347077 -31.179739 49.188815 1.068614 2.257354 0.077649 -0.032782 727339.000000 0 0 1
17.857378 31.994477 -31.336749 48.213321 1.061726 2.278329 0.093429 -0.038152 262415.000000 0 0 1
18.108878 31.394777 -32.654039 48.783704 1.047601 2.304148 0.101355 -0.039078 -483295.000000 0 0 1
17.306278 32.011977 -33.896019 49.731419 1.075184 2.320718 0.119477 -0.045779 -15747.100000 0 0 1
17.841478 33.267177 34.048809 50.836452 1.078525 0.836895 0.107125 -0.035139 149400.000000 0 0 1
17.327578 33.810377 32.841690 50.219152 1.097204 0.857979 0.098481 -0.039169 182762.000000 0 0 1
15.862578 -33.894464 32.830812 49.782711 -1.133076 0.850667 0.114316 -0.040334 -291286.000000 0 0 1
14.966678 33.243777 32.512779 48.849063 1.147768 0.842531 0.111169 -0.041955 802967.000000 0 0 1
13.573178 33.598977 32.613859 48.752295 1.186867 0.837973 0.087682 -0.041032 1012300.000000 0 0 1
13.047478 -33.824564 31.392864 47.956748 -1.202643 0.857133 0.074665 -0.033995 -1074780.000000 0 0 1
13.649678 -32.523264 31.190444 47.084182 -1.173432 0.846725 0.103505 -0.032679 310427.000000 0 0 1
13.162578 -31.749864 30.106624 45.691532 -1.177792 0.851427 0.086282 -0.039740 -405995.000000 0 0 1
13.570578 -30.258364 30.040094 44.745239 -1.149199 0.834756 0.088280 -0.045606 -251635.000000 0 0 1
13.049678 -29.472164 31.101384 44.790609 -1.153963 0.803248 0.088907 -0.029544 236560.000000 0 0 1
13.527578 -28.174964 31.052094 44.057423 -1.123173 0.788642 0.102298 -0.024780 -679532.000000 0 0 1
12.922678 -27.233264 32.194084 44.103348 -1.127741 0.752519 0.076235 -0.016991 1826160.000000 0 0 1
11.469978 -27.036264 32.237237 43.609167 -1.169566 0.738869 0.047176 -0.012639 1783660.000000 0 0 1
11.075778 -26.242864 31.118004 42.186383 -1.171428 0.741241 0.030316 -0.020545 -719648.000000 0 0 1
11.314878 -24.691564 31.238014 41.394605 -1.141104 0.715691 0.022122 -0.015575 213359.000000 0 0 1
10.460878 -24.105364 32.232086 41.586126 -1.161357 0.683973 0.043645 -0.010878 521746.000000 0 0 1
11.003278 -22.819864 32.544738 41.242918 -1.121506 0.661456 0.035184 -0.009260 -23852.800000 0 0 1
10.217578 -21.950864 33.518802 41.349116 -1.135148 0.625570 0.036219 -0.007124 -857897.000000 0 0 1
10.012078 -22.503564 -33.427799 41.521920 -1.152183 2.506580 0.030667 0.000120 1020580.000000 0 0 1
11.187978 -22.997664 -32.701119 41.514173 -1.118020 2.477879 0.048213 -0.006448 1341210.000000 0 0 1
12.241778 -21.915864 -32.288719 40.898992 -1.061389 2.480749 0.049485 -0.017451 56505.700000 0 0 1
12.890278 -21.257764 -33.337149 41.586263 -1.025699 2.500827 0.042132 -0.019091 453840.000000 0 0 1
14.103378 -20.639164 -32.873579 41.298336 -0.971346 2.491458 0.047219 -0.020455 562100.000000 0 0 1
14.326778 -19.306164 -33.619209 41.330808 -0.932381 2.520800 0.048986 -0.018085 -293088.000000 0 0 1
14.870978 -19.563764 33.335104 41.413959 -0.920844 0.635248 0.049364 -0.001183 286019.000000 0 0 1
14.662678 -18.507264 32.390874 40.083434 -0.900789 0.629900 0.039563 -0.000106 -395048.000000 0 0 1
15.541578 -17.254564 32.440290 39.895276 -0.837582 0.621276 0.047722 -0.000580 -720550.000000 0 0 1
15.296378 -16.429364 33.577004 40.389583 -0.821095 0.589303 0.048850 -0.012125 93420.200000 0 0 1
15.876678 -15.166864 33.544260 40.091396 -0.762537 0.579576 0.048959 -0.017270 -139943.000000 0 0 1
17.390478 -15.087964 33.874170 40.957719 -0.714623 0.596953 0.044469 -0.007665 586337.000000 0 0 1
18.260278 -15.731364 32.932499 40.810085 -0.711137 0.631793 0.049613 -0.010731 133196.000000 0 0 1
19.622678 -15.736364 33.273117 41.710705 -0.675928 0.647305 0.057129 -0.007638 66723.200000 0 0 1
20.462778 -16.564064 32.245642 41.627814 -0.680490 0.684686 0.078831 -0.013489 -163599.000000 0 0 1
20.572278 -15.878864 31.025394 40.471373 -0.657344 0.697265 0.058174 -0.001055 302189.000000 0 0 1
21.419578 -16.579664 30.157924 40.536206 -0.658712 0.731797 0.058935 -0.008655 -360413.000000 0 0 1
21.627178 -15.867264 28.764064 39.330348 -0.632969 0.750504 0.043411 -0.002374 -90216.700000 0 0 1
22.437978 -14.700964 28.931374 39.453841 -0.580010 0.747638 0.034767 -0.004813 468924.000000 0 0 1
22.876278 -14.154864 27.696024 38.610284 -0.554098 0.770845 0.018091 -0.005931 168182.000000 0 0 1
23.434878 -12.684264 27.837714 38.535988 -0.496105 0.763555 0.017532 0.000911 141012.000000 0 0 1
22.494078 -11.733964 28.280644 37.992950 -0.480815 0.731212 0.013288 -0.004345 10146.700000 0 0 1
23.123678 -10.481664 28.551664 38.206901 -0.425584 0.726821 0.033198 -0.009184 -335990.000000 0 0 1
22.209078 -9.292564 28.683824 37.448053 -0.396278 0.698258 0.034819 -0.007604 -276753.000000 0 0 1
21.248978 -9.407764 29.729014 37.733796 -0.416800 0.663467 0.028764 -0.014744 -148187.000000 0 0 1
20.270778 -8.420864 29.502294 36.772282 -0.393727 0.639663 0.041103 -0.014814 -19922.600000 0 0 1
19.138178 -8.401464 30.565354 37.028304 -0.413660 0.599781 0.034323 -0.010029 -102958.000000 0 0 1
19.521878 -7.941364 31.844554 38.186969 -0.386349 0.584639 0.039533 -0.015578 321533.000000 0 0 1
19.988578 -8.988764 32.742471 39.400641 -0.422600 0.589869 0.043370 -0.018464 -537241.000000 0 0 1
20.062778 -8.349464 -34.116470 40.449501 -0.394365 2.574439 0.044734 -0.025613 106411.000000 0 0 1
18.785478 -8.133864 -33.538879 39.292624 -0.408616 2.593590 0.037938 -0.030236 449629.000000 0 0 1
18.928778 -7.392264 -32.360759 38.212078 -0.372316 2.580873 0.045557 -0.028812 907442.000000 0 0 1
17.495178 -7.090464 -31.784359 36.967572 -0.385051 2.605655 0.051366 -0.033029 876183.000000 0 0 1
17.586078 -6.311564 -30.617579 35.868400 -0.344577 2.593670 0.058362 -0.027025 -408190.000000 0 0 1
16.335178 -6.181864 -30.033419 34.742765 -0.361782 2.614854 0.060522 -0.019562 -751647.000000 0 0 1
16.270978 -5.064564 -29.007949 33.643062 -0.301758 2.610446 0.055098 -0.018181 11919.700000 0 0 1
17.106878 -5.198064 -27.850729 33.095743 -0.294993 2.570887 0.053834 -0.013812 247845.000000 0 0 1
16.785278 -6.191364 -26.853639 32.267576 -0.353374 2.553891 0.068773 -0.018306 -90319.300000 0 0 1
15.422278 -6.066064 -26.141659 30.952061 -0.374744 2.576587 0.061898 -0.019547 70528.600000 0 0 1
15.199678 -4.848864 -25.379919 29.978025 -0.308806 2.580393 0.067971 -0.019949 263197.000000 0 0 1
13.999378 -4.895564 -24.594429 28.719942 -0.336406 2.598963 0.033591 -0.019116 513181.000000 0 0 1
13.862378 -3.743364 -23.591929 27.618063 -0.263747 2.594847 0.042522 -0.016662 52036.500000 0 0 1
13.929378 -2.484264 -24.284729 28.105999 -0.176491 2.614038 0.029560 -0.016073 219328.000000 0 0 1
13.524378 -1.424264 -23.467529 27.123094 -0.104924 2.616392 0.031345 -0.017639 52713.500000 0 0 1
13.995478 -0.050264 -24.075229 27.847667 -0.003591 2.615017 0.027102 -0.014896 -211661.000000 0 0 1
13.226778 0.387736 -25.174959 28.440755 0.029306 2.657660 0.026946 -0.013718 -8612.010000 0 0 1
13.763578 1.566736 -25.716149 29.209777 0.113344 2.647491 0.032896 -0.005620 -169994.000000 0 0 1
12.913378 2.288736 -26.800599 29.837321 0.175416 2.686508 0.029982 -0.008634 -317205.000000 0 0 1
11.787078 2.991736 -26.367969 29.037139 0.248566 2.709466 0.039706 -0.024133 -124770.000000 0 0 1
11.094178 3.524736 -27.462379 29.827618 0.307625 2.740674 0.044462 -0.020745 -847772.000000 0 0 1
9.795378 4.244736 -27.205659 29.225247 0.408914 2.767654 0.049407 -0.029083 -751645.000000 0 0 1
9.936678 5.462736 -26.508309 28.831744 0.502655 2.737384 0.062155 -0.032585 417853.000000 0 0 1
8.643778 6.027736 -26.363879 28.391946 0.608945 2.761335 0.073690 -0.030312 257191.000000 0 0 1
8.241178 4.927777 -31.058799 32.509214 0.538908 2.841755 0.046558 -0.016348 -83137.100000 0 0 1
8.127178 3.973377 -30.055749 31.387685 0.454728 2.849228 0.040212 -0.007615 480757.000000 0 0 1
8.103278 2.634477 -30.597389 31.761672 0.314334 2.869994 0.035693 -0.007284 -287449.000000 0 0 1
7.877278 1.558677 -29.512879 30.585797 0.195347 2.875939 0.039246 -0.010315 128862.000000 0 0 1
9.012678 1.252977 -28.682319 30.091090 0.138138 2.834390 0.043552 -0.013148 762649.000000 0 0 1
8.755178 0.387377 -27.618069 28.975178 0.044217 2.834323 0.038640 -0.016573 -23968.100000 0 0 1
10.053978 -0.176123 -26.978739 28.791767 -0.017516 2.784822 0.028592 -0.027518 367968.000000 0 0 1
10.707078 -1.168423 -27.790659 29.804822 -0.108696 2.771853 0.026496 -0.014643 -149195.000000 0 0 1
11.757878 -1.777423 -27.109509 29.602912 -0.150033 2.728221 0.025798 -0.014025 -664757.000000 0 0 1
12.304978 -3.056223 -27.762929 30.521029 -0.243447 2.713196 0.020300 -0.016063 -359494.000000 0 0 1
11.470078 -4.163823 -27.716859 30.284061 -0.348223 2.726873 0.023608 -0.012602 -537334.000000 0 0 1
12.156178 -5.299023 -28.080639 31.054381 -0.411077 2.700395 0.038977 -0.016923 -184731.000000 0 0 1
11.426378 -6.491223 -27.443899 30.428041 -0.516626 2.695009 0.026809 -0.027050 71434.300000 0 0 1
11.593078 -6.380223 -26.055989 29.223642 -0.503110 2.671677 0.043109 -0.025982 136626.000000 0 0 1
10.710478 -7.227823 -25.325659 28.431404 -0.593637 2.669819 0.051153 -0.028581 41044.500000 0 0 1
10.623978 -6.938323 -23.854829 27.019661 -0.578538 2.652734 0.056033 -0.027869 -162240.000000 0 0 1
11.873378 -6.947423 -23.195229 26.967803 -0.529411 2.606278 0.048893 -0.022786 142575.000000 0 0 1
11.677278 -7.046523 -21.812729 25.725618 -0.542944 2.582806 0.061958 -0.028078 34935.500000 0 0 1
13.044878 -7.009723 -21.112929 25.788773 -0.493083 2.529917 0.070799 -0.023796 168279.000000 0 0 1
13.613478 -5.708123 -20.905329 25.591839 -0.397032 2.526768 0.057325 -0.027634 -700958.000000 0 0 1
14.679778 -5.882523 -20.048629 25.535220 -0.381129 2.473713 0.069510 -0.025753 -323282.000000 0 0 1
15.340478 -4.534023 -19.524329 25.240583 -0.287378 2.455187 0.071371 -0.024444 142837.000000 0 0 1
16.027678 -3.745523 -20.458229 26.257466 -0.229571 2.464088 0.056659 -0.021612 90660.700000 0 0 1
16.411278 -2.512423 -19.909029 25.923189 -0.151912 2.446510 0.057841 -0.013722 59139.000000 0 0 1
17.546478 -1.693623 -20.593329 27.107793 -0.096224 2.433622 0.044145 -0.015418 564698.000000 0 0 1
18.822378 -2.308123 -20.478529 27.910204 -0.122017 2.394591 0.063996 -0.018199 470456.000000 0 0 1
19.789078 -1.565523 -21.222229 29.059275 -0.078946 2.389569 0.068576 -0.010764 704596.000000 0 0 1
21.145878 -2.308123 -21.452729 30.210845 -0.108722 2.360437 0.048821 -0.010910 -635825.000000 0 0 1
22.034078 -2.243523 -20.349729 30.077325 -0.101471 2.313905 0.043811 -0.019073 1065440.000000 0 0 1
23.333578 -2.776523 -20.686329 31.306375 -0.118436 2.292641 0.042513 -0.021363 1117690.000000 0 0 1
24.239378 -1.984223 -21.721929 32.608692 -0.081677 2.299817 0.044859 -0.017920 -1356180.000000 0 0 1
23.783278 -1.892623 -23.029729 33.160138 -0.079411 2.338522 0.050779 -0.018628 29142.900000 0 0 1
24.638278 -1.188823 -23.909029 34.352579 -0.048214 2.340593 0.054504 -0.013420 -545366.000000 0 0 1
25.816378 -1.942523 -24.501729 35.645385 -0.075102 2.328664 0.065713 -0.018094 -298149.000000 0 0 1
26.863378 -2.259823 -23.526029 35.780189 -0.083925 2.288313 0.070574 -0.017696 851021.000000 0 0 1
27.949978 -2.972123 -24.080229 37.012055 -0.105939 2.279177 0.058233 -0.011105 690382.000000 0 0 1
28.967078 -2.096523 -24.907129 38.260320 -0.072250 2.279686 0.062438 -0.014630 -685972.000000 0 0 1
28.525978 -1.935123 -26.222589 38.795622 -0.067733 2.313003 0.064587 -0.017663 89064.100000 0 0 1
29.213478 -0.938123 -26.975419 39.774120 -0.032102 2.316128 0.068833 -0.024329 -895937.000000 0 0 1
28.662178 -0.611323 -28.381189 40.340873 -0.021325 2.351155 0.068023 -0.024245 536951.000000 0 0 1
27.342978 -0.065223 -28.514629 39.506034 -0.002385 2.377166 0.053903 -0.019727 698277.000000 0 0 1
27.127578 1.137177 -27.710009 38.794887 0.041895 2.366376 0.041006 -0.008040 -922261.000000 0 0 1
25.695778 1.652977 -27.927069 37.985873 0.064240 2.396752 0.043307 -0.010739 -332612.000000 0 0 1
24.750678 1.040577 -27.110189 36.723851 0.042018 2.401220 0.052043 -0.009169 271553.000000 0 0 1
23.436378 1.549377 -27.299379 36.012782 0.066014 2.431110 0.042491 -0.006238 688623.000000 0 0 1
22.345578 1.105077 -26.263379 34.500886 0.049414 2.436016 0.044780 -0.003781 289645.000000 0 0 1
22.405778 1.763677 -25.034329 33.642935 0.078553 2.410011 0.051776 -0.001898 817019.000000 0 0 1
21.406078 1.245077 -24.130429 32.280768 0.058099 2.415113 0.052744 0.003048 390273.000000 0 0 1
21.513778 1.796477 -22.666729 31.302565 0.083310 2.380550 0.054974 0.000187 -245640.000000 0 0 1
21.302878 3.208177 -22.621829 31.238632 0.149475 2.380615 0.054766 -0.005504 480713.000000 0 0 1
21.660978 3.790677 -21.344329 30.645515 0.173246 2.341292 0.052597 -0.013082 -218346.000000 0 0 1
21.186478 5.302377 -21.016429 30.309608 0.245234 2.336982 0.050551 -0.008141 -104736.000000 0 0 1
21.959178 6.338077 -21.610429 31.454528 0.280993 2.328200 0.055652 -0.009846 220163.000000 0 0 1
21.749778 7.687577 -21.121629 31.277386 0.339750 2.312168 0.044935 -0.007565 -505574.000000 0 0 1
22.018778 7.999377 -19.625929 30.561311 0.348472 2.268138 0.060304 -0.017643 427578.000000 0 0 1
23.406678 7.947777 -19.249929 31.330488 0.327337 2.232441 0.070827 -0.014086 888353.000000 0 0 1
23.684178 8.220477 -17.843929 30.772103 0.334078 2.189370 0.081946 -0.031504 18069.500000 0 0 1
23.391678 9.655977 -17.407529 30.715315 0.391488 2.173337 0.088901 -0.041283 1264130.000000 0 0 1
22.000978 9.872877 -17.011129 29.510934 0.421812 2.185155 0.066800 -0.041797 1529080.000000 0 0 1
21.779978 11.296877 -16.743229 29.703915 0.478481 2.169619 0.043575 -0.034060 236822.000000 0 0 1
20.275378 11.748877 -16.730329 28.792898 0.525184 2.190824 0.045696 -0.034161 834833.000000 0 0 1
19.572578 11.687777 -17.960229 29.021712 0.538322 2.238080 0.033700 -0.035911 260417.000000 0 0 1
18.979778 10.401077 -18.095729 28.211164 0.501313 2.267168 0.032940 -0.035224 -778013.000000 0 0 1
18.295678 10.098877 -19.405929 28.518577 0.504363 2.319195 0.027113 -0.014337 -93177.100000 0 0 1
19.144978 10.278277 -20.535429 29.897776 0.492703 2.327949 0.035173 -0.012281 396643.000000 0 0 1
18.501678 9.792977 -21.710729 30.159082 0.486814 2.374417 0.026731 -0.018151 -436489.000000 0 0 1
19.198478 10.087377 -23.029729 31.633924 0.483781 2.386207 0.045120 -0.016077 -503865.000000 0 0 1
19.306378 11.472477 -23.344129 32.392936 0.536168 2.375543 0.053318 -0.018944 -131040.000000 0 0 1
19.925178 11.550077 -24.539929 33.654496 0.525339 2.387908 0.069802 -0.026439 -479188.000000 0 0 1
20.264678 13.025777 -24.894229 34.641748 0.571285 2.372611 0.074297 -0.023009 -85200.600000 0 0 1
20.759278 13.220677 -26.214669 35.957514 0.567080 2.387723 0.075532 -0.026231 229471.000000 0 0 1
20.833278 14.617077 -26.508179 36.747353 0.611813 2.376565 0.082033 -0.018753 -377372.000000 0 0 1
19.612178 15.168977 -27.258869 36.848084 0.658339 2.403515 0.073438 -0.021076 -761943.000000 0 0 1
18.509878 15.069177 -26.425009 35.608662 0.683289 2.406987 0.053894 -0.010705 -650120.000000 0 0 1
17.331578 15.406377 -27.148819 35.704319 0.726659 2.434693 0.036554 -0.020657 -399215.000000 0 0 1
16.042978 14.963577 -26.488819 34.393943 0.750600 2.449887 0.050730 -0.027474 -766655.000000 0 0 1
15.900278 13.581777 -26.581739 33.821182 0.706919 2.475027 0.034987 -0.017573 159592.000000 0 0 1
14.587978 13.197377 -26.245359 32.799371 0.735392 2.498389 0.015822 -0.015985 -329007.000000 0 0 1
14.334078 11.713177 -26.037929 31.947426 0.685115 2.523567 0.012573 -0.015347 -510231.000000 0 0 1
12.984878 11.383577 -25.901139 31.129759 0.719780 2.553568 0.026909 -0.014439 -365006.000000 0 0 1
12.892678 9.972877 -25.830929 30.543679 0.658391 2.578680 0.040602 -0.023464 -232926.000000 0 0 1
11.468478 9.456277 -25.607779 29.609213 0.689529 2.615665 0.054202 -0.023435 -385133.000000 0 0 1
11.016378 9.605377 -24.276729 28.336962 0.717082 2.599665 0.074688 -0.030974 282881.000000 0 0 1
9.669478 9.144577 -24.273229 27.682336 0.757506 2.640065 0.078988 -0.030979 427786.000000 0 0 1
8.853478 9.756777 -23.078229 26.574112 0.833898 2.622859 0.077844 -0.026260 94737.800000 0 0 1
8.592278 11.142377 -23.241029 27.168460 0.913905 2.597199 0.079820 -0.029292 71805.300000 0 0 1
7.851378 11.716377 -22.174229 26.279537 0.980407 2.575090 0.075929 -0.016438 398947.000000 0 0 1
8.695978 12.726377 -21.309929 26.300072 0.971364 2.515394 0.074977 -0.020112 114767.000000 0 0 1
9.528478 11.965977 -20.502429 25.579799 0.898317 2.500610 0.083735 -0.026515 -216974.000000 0 0 1
10.535578 12.731077 -19.840029 25.820640 0.879482 2.447100 0.092111 -0.027038 -34820.600000 0 0 1
11.667778 11.894777 -19.235529 25.448543 0.795032 2.427763 0.089965 -0.028325 117290.000000 0 0 1
12.657178 11.271077 -20.073829 26.271657 0.727535 2.440421 0.068593 -0.025387 629681.000000 0 0 1
12.191578 10.217077 -20.902329 26.266530 0.697512 2.491088 0.070605 -0.027721 -529248.000000 0 0 1
13.310378 9.431477 -21.615429 27.080356 0.616462 2.495091 0.063824 -0.024041 -169928.000000 0 0 1
14.010178 8.599077 -20.740029 26.464656 0.550486 2.471377 0.079279 -0.034727 -381491.000000 0 0 1
15.124378 8.116977 -21.423629 27.451849 0.492561 2.466114 0.070800 -0.035744 -648937.000000 0 0 1
15.714378 6.814477 -20.856829 26.988629 0.409171 2.454039 0.093462 -0.032478 -80400.600000 0 0 1
16.261378 7.051377 -19.586629 26.415722 0.409155 2.406064 0.055975 -0.024304 -211381.000000 0 0 1
16.955978 5.916177 -19.219329 26.303782 0.335707 2.390096 0.046195 -0.031323 -309977.000000 0 0 1
17.758278 5.922577 -17.924429 25.917533 0.321910 2.334491 0.059954 -0.027921 -652014.000000 0 0 1
18.957878 6.663677 -18.010329 26.984768 0.338010 2.301543 0.045191 -0.034740 199147.000000 0 0 1
19.624278 6.856277 -16.772729 26.710396 0.336120 2.249710 0.049276 -0.050921 -146181.000000 0 0 1
20.332178 5.703977 -16.142929 26.580575 0.273509 2.223480 0.063572 -0.050019 50442.800000 0 0 1
21.634178 5.438377 -16.702729 27.867450 0.246276 2.213502 0.063272 -0.047121 1156210.000000 0 0 1
22.390278 4.389277 -16.150529 27.954067 0.193580 2.186769 0.088632 -0.049290 145223.000000 0 0 1
23.813678 4.162077 -16.695529 29.379497 0.173029 2.175200 0.050901 -0.011697 -73832.200000 0 0 1
24.480478 3.188477 -15.947929 29.390417 0.129517 2.144354 0.058776 -0.016234 382276.000000 0 0 1
25.771378 2.890777 -16.483929 30.728495 0.111703 2.137007 0.052045 -0.018844 568015.000000 0 0 1
26.495478 1.713077 -15.790829 30.891670 0.064566 2.107339 0.058886 -0.025591 -105212.000000 0 0 1
25.819178 0.448277 -16.008829 30.382783 0.017360 2.125751 0.073714 -0.013427 639070.000000 0 0 1
26.771778 -0.595823 -16.182529 31.288294 -0.022252 2.114381 0.054818 -0.007957 213378.000000 0 0 1
26.124878 -2.024423 -16.194329 30.803633 -0.077336 2.124367 0.036135 -0.020232 -36811.100000 0 0 1
25.712878 -2.626723 -14.944129 29.855967 -0.101803 2.095020 0.048206 -0.021531 500902.000000 0 0 1
25.660578 -4.048423 -15.021629 30.008404 -0.156478 2.095066 0.041235 -0.018488 -1016020.000000 0 0 1
25.096578 -4.767723 -13.749129 29.010480 -0.187738 2.064552 0.043230 -0.019666 606865.000000 0 0 1
23.723978 -4.647423 -13.370629 27.626064 -0.193446 2.076000 0.063690 -0.013771 1271280.000000 0 0 1
22.813278 -5.210323 -14.340429 27.445237 -0.224539 2.120589 0.067577 -0.016471 222714.000000 0 0 1
21.326778 -5.406423 -13.920529 26.035399 -0.248274 2.134922 0.088049 -0.018980 181561.000000 0 0 1
21.144078 -6.411223 -12.902629 25.586200 -0.294405 2.099345 0.094334 -0.017058 400402.000000 0 0 1
21.193878 -5.865623 -11.599229 24.862182 -0.270002 2.056172 0.114821 -0.020638 -571867.000000 0 1 0
20.706178 -6.899323 -10.554029 24.243226 -0.321632 2.021211 0.102427 -0.024858 1587390.000000 0 1 0
19.316378 -7.386923 -10.606229 23.241798 -0.365258 2.044677 0.093160 -0.022516 2365900.000000 0 1 0
19.113478 -8.382323 -11.524429 23.841158 -0.413296 2.075312 0.085699 -0.030569 -1581990.000000 0 1 0
17.796378 -9.089323 -11.393929 23.003227 -0.472203 2.088998 0.111592 -0.034446 -906855.000000 0 1 0
16.774678 -8.200023 -11.794429 22.084808 -0.454674 2.134182 0.096341 -0.027547 -31186.200000 0 1 0
15.494178 -8.800223 -11.901729 21.428127 -0.516535 2.159671 0.098494 -0.026765 142203.000000 0 1 0
14.406778 -7.771723 -12.259529 20.451185 -0.494707 2.213614 0.071789 -0.024267 -543879.000000 0 1 0
14.569978 -7.060523 -13.515629 21.090459 -0.451247 2.266389 0.077114 -0.023221 265081.000000 0 1 0
15.465178 -5.986323 -13.430329 21.339670 -0.369323 2.251525 0.071331 -0.023518 -298315.000000 0 1 0
15.168278 -4.923123 -14.499929 21.553694 -0.313840 2.308696 0.053684 -0.021592 147364.000000 0 1 0
14.008378 -4.159823 -14.184129 20.364879 -0.288659 2.341304 0.056184 -0.020056 366901.000000 0 1 0
13.607878 -3.152523 -15.077629 20.553531 -0.227653 2.394369 0.038249 -0.024785 -564130.000000 0 1 0
14.595578 -1.988823 -15.344829 21.270874 -0.135428 2.376619 0.059402 -0.024951 183953.000000 0 1 0
15.652578 -2.346523 -16.262529 22.693153 -0.148805 2.369751 0.053195 -0.021794 920478.000000 0 1 0
16.782278 -1.494623 -16.137729 23.330346 -0.088825 2.334644 0.057572 -0.016647 1011150.000000 0 1 0
17.962278 -2.033823 -15.221529 23.632072 -0.112747 2.270649 0.081137 -0.016392 210976.000000 0 1 0
17.775578 -1.986323 -13.823129 22.605210 -0.111283 2.228754 0.079973 -0.013687 -81631.000000 0 1 0
18.885278 -2.512523 -13.175429 23.163731 -0.132265 2.175837 0.083702 -0.006337 -365368.000000 0 1 0
18.566978 -2.835123 -11.659629 22.106957 -0.151527 2.126356 0.091328 -0.010235 -77113.800000 0 1 0
18.217678 -1.694623 -10.890529 21.292232 -0.092754 2.107701 0.078669 -0.011613 816584.000000 0 1 0
17.844278 -2.031623 -9.592729 20.360899 -0.113365 2.061373 0.078339 -0.012032 -707648.000000 0 1 0
17.685678 -0.772023 -8.557029 19.662196 -0.043625 2.021059 0.062585 -0.013388 563219.000000 0 1 0
18.899178 -0.325323 -7.914129 20.491906 -0.017212 1.967313 0.069352 -0.015264 2136260.000000 0 1 0
19.949078 0.320577 -8.683129 21.759256 0.016068 1.981282 0.075822 -0.014271 498063.000000 0 1 0
19.577678 1.643977 -9.387829 21.774285 0.083775 2.016555 0.075599 -0.013619 -715629.000000 0 1 0
19.381878 2.643277 -8.424329 21.298202 0.135543 1.977454 0.062177 -0.016358 571556.000000 0 1 0
19.034578 3.833477 -9.091629 21.439879 0.198737 2.008711 0.058936 -0.018936 -160756.000000 0 1 0
18.847878 5.021577 -8.117729 21.127145 0.260378 1.965172 0.061526 -0.019534 -76472.600000 0 1 0
18.320278 6.209677 -8.788729 21.246987 0.326798 1.997251 0.066277 -0.024604 764667.000000 0 1 0
19.331178 6.963677 -9.444229 22.613728 0.345760 2.001635 0.125840 -0.000045 591.640000 0 1 0
-26.502432 -29.425023 5.769971 40.018788 0.837607 1.426110 0.069786 -0.017831 16536.000000 0 0 1
-26.540962 -28.365943 6.660071 39.413271 0.818624 1.401001 0.058296 -0.020806 428719.000000 0 0 1
-25.563712 -27.321543 6.390671 37.958013 0.818625 1.401629 0.063789 -0.016089 122139.000000 0 0 1
-25.762282 -26.130063 7.352171 37.423652 0.792485 1.373052 0.047465 -0.008628 295343.000000 0 0 1
-26.949582 -25.360793 7.077271 37.676751 0.755035 1.381832 0.035222 -0.014744 2043050.000000 0 0 1
-28.211372 -25.906393 7.613371 39.051070 0.742832 1.374580 0.037885 -0.014514 1492160.000000 0 0 1
-28.386402 -25.714073 9.151371 39.379550 0.736043 1.336263 0.025332 -0.015803 -644725.000000 0 0 1
-27.439992 -26.461733 9.851371 39.372909 0.767251 1.317902 0.021803 -0.021561 -429097.000000 0 0 1
-27.842632 -26.703933 11.171171 40.163506 0.764525 1.288937 0.012443 -0.024863 -81868.800000 0 0 1
-26.735742 -27.458553 11.973571 40.151444 0.798735 1.267979 0.002778 -0.028211 520075.000000 0 0 1
-25.591712 -26.741413 12.393571 39.033825 0.807364 1.247695 0.020813 -0.023319 86822.100000 0 0 1
-25.885292 -25.715713 13.389571 38.866783 0.782112 1.219091 0.019890 -0.016371 -690063.000000 0 0 1
-24.610422 -25.160743 14.054971 37.898259 0.796455 1.190861 0.039693 -0.019210 -34178.700000 0 0 1
-24.014122 -26.236743 14.788271 38.519316 0.829600 1.176760 0.044126 -0.021205 -205571.000000 0 0 1
-22.850522 -25.835343 15.473671 37.802722 0.846629 1.149080 0.046432 -0.019690 -74553.300000 0 0 1
-22.073822 -27.040993 16.047171 38.418493 0.886189 1.139891 0.043018 -0.022837 129768.000000 0 0 1
-22.797422 -27.735173 17.082171 39.758808 0.882803 1.126697 0.033134 -0.016398 343073.000000 0 0 1
-22.122122 -28.955433 17.417171 40.387662 0.918392 1.124919 0.052604 -0.011826 -82579.800000 0 0 1
-22.850022 -29.989273 18.294171 41.906523 0.919697 1.119039 0.062878 -0.023275 -275415.000000 0 0 1
-23.895522 -30.610423 17.579271 42.626573 0.907976 1.145708 0.036712 -0.009667 -25002.500000 0 0 1
-24.372022 -31.690343 18.301771 43.968490 0.915203 1.141482 0.041827 -0.008309 17173.500000 0 0 1
-25.482532 -32.530883 17.593171 44.912553 0.906301 1.168295 0.038715 -0.009301 250021.000000 0 0 1
-24.877422 -33.377073 16.660471 44.838448 0.930281 1.190100 0.044234 -0.013781 494000.000000 0 0 1
-25.805202 33.961804 16.003771 45.556923 -0.921034 1.211846 0.041473 -0.012531 -530472.000000 0 0 1
-25.281072 33.534740 14.609771 44.465231 -0.924818 1.236011 0.047247 -0.018067 -245825.000000 0 0 1
-24.194822 32.652729 14.624571 43.191066 -0.933097 1.225366 0.038723 -0.014551 293608.000000 0 0 1
-22.983422 33.411633 14.700371 43.135551 -0.968246 1.223034 0.041309 -0.013611 33448.500000 0 0 1
-21.628022 32.639502 14.668071 41.812208 -0.985591 1.212362 0.059160 -0.024704 467756.000000 0 0 1
-21.339122 31.997579 13.450771 40.744649 -0.982634 1.234362 0.054532 -0.021266 -324573.000000 0 0 1
-20.206922 31.183219 13.504971 39.536022 -0.995824 1.222192 0.049054 -0.019127 -293506.000000 0 0 1
-19.913022 30.189749 12.375271 38.224295 -0.987705 1.241102 0.039561 -0.016008 94408.800000 0 0 1
-19.530622 30.823349 11.177071 38.163476 -1.006015 1.273566 0.031747 -0.015679 -16665.500000 0 0 1
-19.755622 29.958589 10.050471 37.266789 -0.987820 1.297725 0.030256 -0.017649 167800.000000 0 0 1
-19.375322 30.612009 8.673771 37.252281 -1.006513 1.335801 0.027676 -0.022501 -554502.000000 0 0 1
-18.005522 30.826519 8.545171 36.708215 -1.042156 1.335855 0.016585 -0.029198 -774869.000000 0 0 1
-17.529322 31.268719 7.298471 36.582476 -1.059849 1.369941 0.033617 -0.025582 243969.000000 0 0 1
-16.839822 30.194249 6.401771 35.160417 -1.062048 1.387702 0.026017 -0.024172 -376964.000000 0 0 1
-17.725822 29.202279 5.872371 34.662120 -1.025245 1.400558 0.027265 -0.016781 129256.000000 0 0 1
-17.818722 28.053749 6.725271 33.907948 -1.004922 1.371133 0.017901 -0.016532 -846473.000000 0 0 1
-18.933622 27.159649 6.267471 33.695842 -0.962004 1.383705 0.027503 -0.012064 -499247.000000 0 0 1
-18.595222 26.454269 5.057071 32.728956 -0.958114 1.415661 0.031519 -0.018202 48695.000000 0 0 1
-19.742022 25.896509 4.491671 32.871746 -0.919442 1.433725 0.052210 -0.021628 -670407.000000 0 0 1
-19.404222 25.018069 3.241771 31.826666 -0.911106 1.468762 0.062357 -0.029567 -461391.000000 0 0 1
-18.970122 25.770159 2.078171 32.066889 -0.936233 1.505943 0.074747 -0.027540 863003.000000 0 0 1
-17.669322 26.347239 2.002371 31.786654 -0.980053 1.507761 0.064050 -0.024980 1309100.000000 0 0 1
-16.352622 25.442489 2.157571 30.321339 -0.999550 1.499579 0.055474 -0.024960 845460.000000 0 0 1
-16.224522 24.300969 1.287171 29.247718 -0.982114 1.526773 0.079984 -0.032512 -1565.240000 0 0 1
-16.137422 24.611069 -0.065929 29.430009 -0.990426 1.573037 0.078794 -0.030552 -270765.000000 0 0 1
-15.928522 23.375849 -1.026729 28.305517 -0.972657 1.607077 0.082358 -0.040768 -260815.000000 0 0 1
-16.922522 22.374019 -0.949829 28.069033 -0.923245 1.604642 0.093524 -0.049734 -48400.000000 0 0 1
-16.822222 21.197619 -1.791929 27.120789 -0.899976 1.636917 0.087639 -0.046843 -497148.000000 0 0 1
-15.843822 20.159419 -1.259229 25.671278 -0.904696 1.619868 0.082894 -0.044675 -161708.000000 0 0 1
-16.249222 19.461319 -0.100129 25.353307 -0.875105 1.574746 0.092704 -0.049450 1193210.000000 0 0 1
-15.164822 18.556919 0.295571 23.967028 -0.885652 1.558464 0.112315 -0.057346 1391480.000000 0 1 0
-15.864022 17.456919 1.138671 23.615837 -0.833166 1.522561 0.090559 -0.046116 439818.000000 0 1 0
-16.391022 16.410819 0.351371 23.197069 -0.786002 1.555649 0.079383 -0.041667 351070.000000 0 1 0
-17.220822 15.586119 1.169071 23.256193 -0.735611 1.520506 0.092415 -0.053492 -232524.000000 0 1 0
-17.905222 14.484119 0.369871 23.033095 -0.680164 1.554737 0.104893 -0.041812 -256558.000000 0 1 0
-19.130322 14.737719 -0.279629 24.150523 -0.656421 1.582375 0.116640 -0.046068 63729.700000 0 1 0
-19.667222 13.586319 -0.872329 23.919628 -0.604532 1.607274 0.110357 -0.031535 -371408.000000 0 1 0
-20.822822 13.960219 -1.806929 25.134490 -0.590603 1.642749 0.118287 -0.022157 -877061.000000 0 0 1
-21.665722 12.936219 -2.341329 25.342278 -0.538271 1.663317 0.110288 -0.024043 1347990.000000 0 0 1
-22.790122 12.642519 -1.458629 26.102692 -0.506473 1.626706 0.109238 -0.016556 1324580.000000 0 0 1
-23.927722 13.724119 -1.209529 27.610691 -0.520756 1.614617 0.092007 -0.008810 -28657.000000 0 0 1
-23.488522 14.812919 -0.383929 27.771939 -0.562648 1.584621 0.075414 -0.018695 580155.000000 0 0 1
-24.566222 15.701219 -0.021229 29.155239 -0.568702 1.571524 0.055486 -0.014558 333404.000000 0 0 1
-24.158222 16.959419 0.829171 29.528445 -0.612077 1.542712 0.043945 -0.017608 -48754.000000 0 0 1
-23.706922 16.601119 2.097271 29.017475 -0.610904 1.498457 0.042082 -0.020727 -113425.000000 0 0 1
-23.290922 17.685919 2.917471 29.389971 -0.649457 1.471365 0.036513 -0.024068 -85381.400000 0 0 1
-24.343922 18.759119 3.366171 30.917021 -0.656547 1.461702 0.040806 -0.026466 -617296.000000 0 0 1
-25.149002 18.105219 4.356871 31.293027 -0.623969 1.431114 0.047017 -0.025428 -12065.500000 0 0 1
-26.464232 18.595119 4.429171 32.645851 -0.612503 1.434703 0.037042 -0.027020 -238209.000000 0 0 1
-27.424792 18.315919 3.289171 33.142280 -0.588828 1.471389 0.059506 -0.024097 -1625000.000000 0 0 1
-28.606372 19.047919 3.394371 34.535047 -0.587446 1.472350 0.065366 -0.022272 -310914.000000 0 0 1
-29.525892 18.548819 2.434871 34.953763 -0.560913 1.501080 0.063987 -0.018877 -441975.000000 0 0 1
-30.693402 19.419419 2.009071 36.376299 -0.564110 1.515538 0.077299 -0.035631 -765975.000000 0 0 1
-31.863482 19.069119 2.697771 37.231582 -0.539289 1.498274 0.115742 -0.027989 -318469.000000 0 0 1
-32.911782 19.946019 2.310371 38.553429 -0.544852 1.510834 0.105454 -0.030228 177705.000000 0 0 1
-33.627022 20.552119 3.545271 39.569371 -0.548599 1.481080 0.086841 -0.031780 -237233.000000 0 0 1
-32.670002 21.290319 4.231871 39.223914 -0.577554 1.462696 0.080368 -0.033198 257164.000000 0 0 1
-33.229892 21.866719 5.432171 40.148320 -0.582009 1.435077 0.062661 -0.024658 49057.100000 0 0 1
-32.377242 22.959819 6.145971 40.164811 -0.616830 1.417174 0.073586 -0.030653 -136520.000000 0 0 1
-32.289752 24.219759 5.449871 40.729914 -0.643550 1.436589 0.060991 -0.021522 422817.000000 0 0 1
-31.370562 25.059779 6.137471 40.617400 -0.674028 1.419111 0.050262 -0.020092 50056.400000 0 0 1
-31.666482 26.507329 5.905671 41.716681 -0.696944 1.428753 0.043429 -0.013963 144489.000000 0 0 1
-32.921312 26.782239 6.530071 42.938827 -0.682932 1.418125 0.057761 -0.007165 486556.000000 0 0 1
-33.170372 28.147209 6.543471 43.992680 -0.703660 1.421502 0.036780 0.002415 -162936.000000 0 0 1
-34.160158 28.642049 7.590871 45.220622 -0.697758 1.402135 0.029791 0.006276 -625249.000000 0 0 1
-33.644922 28.417239 8.895971 44.929484 -0.701364 1.371481 0.046022 -0.005180 46590.000000 0 0 1
-34.411933 29.032549 9.891071 46.096673 -0.700812 1.354542 0.041619 -0.001938 -874948.000000 0 0 1
-35.730611 28.353089 10.225871 46.745509 -0.670780 1.350257 0.030146 0.005973 -789478.000000 0 0 1
-35.447790 27.098359 10.789971 45.905232 -0.652690 1.333528 0.049143 -0.004212 -334183.000000 0 0 1
-36.482012 26.533849 11.514171 46.557045 -0.628823 1.320890 0.043771 -0.005615 -574161.000000 0 0 1
-35.951474 25.323499 12.327971 45.670197 -0.613660 1.297471 0.096077 -0.015334 170804.000000 0 0 1
-34.949902 25.689709 13.251471 45.354804 -0.633860 1.274298 0.118536 -0.026960 -162358.000000 0 0 1
-34.383496 24.644339 13.985671 44.555215 -0.621879 1.251503 0.141902 -0.031848 -32590.400000 0 0 1
-33.169492 25.156489 14.785071 44.177624 -0.648870 1.229538 0.147412 -0.031240 -163007.000000 0 0 1
-33.495842 26.078179 15.810071 45.299020 -0.661524 1.214276 0.125472 -0.033375 -372316.000000 0 0 1
-32.349622 26.612749 16.410271 44.989259 -0.688406 1.197422 0.128311 -0.025200 -231896.000000 0 0 1
-32.635652 27.934539 17.144771 46.253296 -0.707939 1.191065 0.120035 -0.030785 -167697.000000 0 0 1
-32.559472 29.127359 16.369771 46.652885 -0.729818 1.212281 0.118540 -0.020940 30417.900000 0 0 1
-32.881302 30.268709 17.186171 47.882556 -0.744051 1.203682 0.091730 -0.011663 -7021.800000 0 0 1
-32.618952 31.605229 16.505871 48.325255 -0.769615 1.222222 0.069579 -0.014996 -642959.000000 0 0 1
-31.306812 31.778319 16.091471 47.422710 -0.792872 1.224602 0.058576 -0.013595 -974898.000000 0 0 1
-31.054652 33.108649 15.769371 48.054626 -0.817399 1.236446 0.034527 -0.005700 -146964.000000 0 0 1
-29.596832 33.292808 15.285271 47.095892 -0.844100 1.240254 0.056970 -0.011596 51108.400000 0 0 1
-29.206362 32.681713 14.046271 46.026119 -0.841495 1.260668 0.055881 -0.016484 214663.000000 0 0 1
-28.726042 31.335099 14.166571 44.808098 -0.828811 1.249116 0.071266 -0.020662 -682541.000000 0 0 1
-29.734202 30.214979 14.014071 44.648201 -0.793418 1.251522 0.100838 -0.022245 -453273.000000 0 0 1
-29.844922 29.814309 12.704771 44.057049 -0.784885 1.278271 0.115804 -0.025946 382163.000000 0 0 1
-30.931172 28.913099 12.466371 44.137457 -0.751689 1.284455 0.115197 -0.027918 369849.000000 0 0 1
-31.096992 28.581189 10.954471 43.633791 -0.743267 1.317027 0.103056 -0.018370 -376152.000000 0 0 1
-29.967802 27.923929 10.417671 42.265149 -0.750108 1.321746 0.106993 -0.018924 -115001.000000 0 0 1
-29.917012 28.057729 9.008271 41.993008 -0.753339 1.354598 0.097583 -0.020881 266289.000000 0 0 1
-28.674702 27.321329 8.450871 40.498281 -0.761234 1.360579 0.097053 -0.025625 271943.000000 0 0 1
-28.311852 27.628909 7.085171 40.188521 -0.773190 1.393572 0.085952 -0.029177 431234.000000 0 0 1
-27.226312 26.830749 6.574371 38.786383 -0.778081 1.400472 0.065109 -0.023371 496428.000000 0 0 1
-27.021652 27.137189 5.113671 38.636075 -0.787531 1.438052 0.061690 -0.029280 -254910.000000 0 0 1
-26.394682 28.337149 4.790971 39.020849 -0.820874 1.447706 0.065128 -0.026862 -109209.000000 0 0 1
-26.102082 28.305049 3.423671 38.655090 -0.825866 1.482110 0.057514 -0.023670 245200.000000 0 0 1
-24.886722 29.240819 3.072171 38.520289 -0.865667 1.490957 0.058126 -0.024218 937555.000000 0 0 1
-23.606522 28.743029 3.480171 37.356943 -0.883204 1.477501 0.060276 -0.029327 1018960.000000 0 0 1
-22.606222 29.758729 3.171671 37.505769 -0.921148 1.486130 0.065786 -0.030717 1134380.000000 0 0 1
-21.121422 29.389649 3.434371 36.354653 -0.947651 1.476187 0.045491 -0.030761 1148590.000000 0 0 1
-20.217422 30.467879 3.076771 36.694717 -0.984944 1.486850 0.043484 -0.022786 157910.000000 0 0 1
-18.866322 30.079749 3.180271 35.648892 -1.010609 1.481467 0.040725 -0.024501 197889.000000 0 0 1
-17.760722 31.094109 2.858471 35.922941 -1.051828 1.491140 0.045676 -0.024321 162500.000000 0 0 1
-17.761622 32.252783 3.682771 37.003784 -1.067416 1.471107 0.050092 -0.028334 -249979.000000 0 0 1
-16.653522 32.998587 3.281271 37.108129 -1.103417 1.482256 0.056877 -0.017254 -99196.200000 0 0 1
-16.289622 -34.013293 4.192971 37.945182 1.124155 1.460069 0.067360 -0.014324 -607687.000000 0 0 1
-17.266522 -33.042233 4.113671 37.507922 1.089265 1.460901 0.071692 -0.019890 -417752.000000 0 0 1
-16.952022 -31.807263 4.767571 36.356605 1.081129 1.439284 0.077789 -0.027864 710970.000000 0 0 1
-18.234022 -30.890363 4.949671 36.210403 1.037553 1.433675 0.087002 -0.023558 916904.000000 0 0 1
-18.611922 -30.268313 3.744471 35.729476 1.019494 1.465803 0.080573 -0.016335 1134200.000000 0 0 1
-19.802022 -29.432253 3.837371 35.680569 0.978560 1.463040 0.090656 -0.022836 919861.000000 0 0 1
-20.046222 -28.605763 2.578871 35.025580 0.959550 1.497101 0.078402 -0.026296 461130.000000 0 0 1
-19.081022 -27.549543 2.482471 33.603949 0.965049 1.496855 0.076800 -0.022211 455586.000000 0 0 1
-19.494122 -26.590783 1.547971 33.007374 0.938189 1.523881 0.061585 -0.013447 541081.000000 0 0 1
-18.511022 -25.356963 1.619771 31.436557 0.940207 1.519248 0.070597 -0.008614 461639.000000 0 0 1
-17.257322 -25.637373 1.070271 30.923058 0.978331 1.536179 0.082436 -0.015227 -696285.000000 0 0 1
-16.291322 -24.638423 1.363271 29.568861 0.986577 1.524675 0.071496 -0.017639 313312.000000 0 0 1
-14.989822 -24.850223 0.565471 29.026679 1.028022 1.551314 0.066720 -0.019956 -361067.000000 0 0 1
-15.153322 -24.745923 -0.830429 29.028838 1.021341 1.599407 0.054694 -0.016103 22287.800000 0 0 1
-15.158322 -23.434423 -1.361529 27.942810 0.996646 1.619541 0.066421 -0.021721 -209068.000000 0 0 1
-15.280022 -23.388623 -2.883129 28.085925 0.992098 1.673631 0.045561 -0.011327 200603.000000 0 0 1
-14.199722 -23.990223 -3.600829 28.109231 1.036357 1.699251 0.062421 -0.017551 228908.000000 0 0 1
-14.247822 -23.587923 -4.946929 27.997547 1.027419 1.748420 0.061497 -0.012003 -109059.000000 0 0 1
-13.193022 -24.167223 -5.895029 28.157802 1.071102 1.781714 0.065222 -0.023363 -166413.000000 0 0 1
-13.230322 -25.538903 -6.221029 29.427507 1.092817 1.783805 0.036731 -0.020012 -319816.000000 0 0 1
-12.080622 -25.979953 -6.910729 29.472997 1.135540 1.807476 0.056579 -0.022795 -18095.500000 0 0 1
23.131878 12.870677 27.995354 38.528924 0.507747 0.757427 0.009136 0.011464 -44090.600000 0 0 1
23.991478 11.733777 28.231504 38.862455 0.454874 0.757659 0.013492 0.012033 495717.000000 0 0 1
23.639378 10.862177 29.278024 39.166437 0.430722 0.726463 0.022890 0.003831 -461057.000000 0 0 1
23.790678 11.399277 30.767154 40.528480 0.446828 0.708792 0.032232 -0.007659 161098.000000 0 0 1
22.623778 12.112577 31.108194 40.327033 0.491558 0.689761 0.032640 -0.000996 2663.060000 0 0 1
22.747878 12.744377 32.345104 41.546250 0.510675 0.678472 0.043682 -0.006673 -439306.000000 0 0 1
21.626678 13.719577 32.773448 41.593736 0.565318 0.663337 0.032896 -0.010929 -235484.000000 0 0 1
20.425278 12.982677 32.975907 40.904185 0.566198 0.633139 0.027303 -0.007047 216501.000000 0 0 1
19.610178 13.869677 33.775543 41.445318 0.615588 0.618167 0.036112 -0.011344 -340156.000000 0 0 1
18.478278 13.156077 -33.752709 40.666626 0.618718 2.549878 0.030676 -0.012816 -498782.000000 0 0 1
17.393678 12.761877 33.700259 40.013910 0.632992 0.569420 0.016290 -0.006913 97539.800000 0 0 1
16.294078 12.419477 -33.724579 39.459949 0.651269 2.595679 0.012192 -0.005629 345309.000000 0 0 1
15.001078 12.062777 33.768797 38.869970 0.677253 0.518097 0.021672 -0.001564 203511.000000 0 0 1
15.237078 10.848977 33.049379 37.975391 0.618742 0.515017 0.019945 0.005254 547773.000000 0 0 1
14.047278 10.342677 32.456393 36.847177 0.634660 0.493167 0.043920 0.002564 414090.000000 0 0 1
14.522478 9.234877 31.471644 35.869900 0.566401 0.500416 0.050708 0.008156 205740.000000 0 0 1
14.922878 8.111677 32.193244 36.399129 0.497896 0.485480 0.045337 0.001177 50190.200000 0 0 1
15.771078 7.365177 31.344774 35.853418 0.436905 0.506912 0.046012 -0.014360 -6070.440000 0 0 1
16.065778 5.974577 31.873184 36.189842 0.356034 0.493412 0.054867 -0.018293 742268.000000 0 0 1
14.886078 5.103977 31.889284 35.560826 0.330308 0.458419 0.048820 -0.013055 937079.000000 0 0 1
15.187378 3.803477 32.385521 35.971445 0.245390 0.450311 0.061406 -0.016914 -255506.000000 0 0 1
14.024678 2.841277 32.675650 35.671593 0.199886 0.412770 0.043403 -0.010575 -122628.000000 0 0 1
14.460278 1.442477 32.717476 35.799632 0.099426 0.417993 0.045546 -0.018380 -181154.000000 0 0 1
13.449278 0.642477 33.240343 35.863857 0.047734 0.384868 0.038371 -0.016777 -462419.000000 0 0 1
13.908178 -0.741823 33.583997 36.357566 -0.053287 0.393131 0.027966 -0.018088 -172643.000000 0 0 1
13.932678 -1.640723 32.491819 35.391098 -0.117221 0.407590 0.007679 -0.023042 32728.000000 0 0 1
14.453378 -2.873623 32.933062 36.079695 -0.196261 0.420741 0.035738 -0.026572 -361054.000000 0 0 1
14.608578 -3.927423 31.837264 35.248356 -0.262634 0.443566 0.044164 -0.032118 -959307.000000 0 0 1
15.093478 -5.241123 32.119304 35.873836 -0.334218 0.461601 0.047285 -0.033419 884342.000000 0 0 1
16.453478 -5.424923 32.553465 36.876481 -0.318489 0.489070 0.037707 -0.030926 1054900.000000 0 0 1
17.585478 -4.939423 31.610864 36.508816 -0.273825 0.523966 0.043591 -0.033305 -615270.000000 0 0 1
17.710478 -3.528723 31.553704 36.355868 -0.196669 0.519813 0.050094 -0.035091 103938.000000 0 0 1
18.854678 -3.111823 30.827384 36.269959 -0.163568 0.554920 0.071458 -0.034502 258235.000000 0 0 1
18.934478 -1.555423 30.836954 36.219491 -0.081964 0.552165 0.079041 -0.033202 -344999.000000 0 0 1
19.079578 -0.954723 32.116144 37.368282 -0.049997 0.536605 0.069835 -0.028928 211725.000000 0 0 1
18.856978 0.443577 32.096894 37.228927 0.023519 0.531300 0.071277 -0.019081 69992.300000 0 0 1
20.128978 1.240077 31.714694 37.583712 0.061529 0.566394 0.066838 -0.022113 -101243.000000 0 0 1
20.502378 1.212977 30.347644 36.644213 0.059094 0.594961 0.071545 -0.023711 217839.000000 0 0 1
21.585178 2.093677 30.053734 37.061170 0.096694 0.625070 0.062117 -0.026653 67942.200000 0 0 1
21.311978 3.587077 29.878084 36.875025 0.166750 0.626213 0.049933 -0.010699 -487611.000000 0 0 1
21.119378 4.206677 31.127514 37.850316 0.196612 0.605207 0.043413 -0.015294 397421.000000 0 0 1
20.398278 5.407977 30.976634 37.481833 0.259157 0.598034 0.047222 -0.014989 -392456.000000 0 0 1
19.947678 6.000077 32.317559 38.449128 0.292182 0.572540 0.054619 -0.017421 -159201.000000 0 0 1
18.964578 5.236777 32.999557 38.419394 0.269421 0.537620 0.061353 -0.019290 108060.000000 0 0 1
18.823078 5.733877 -33.943049 39.234120 0.295689 2.616228 0.053199 -0.015555 -515424.000000 0 0 1
17.608278 5.187977 -33.207429 37.943377 0.286526 2.636612 0.063024 -0.015431 -343373.000000 0 0 1
17.911978 3.817877 -33.112209 37.839576 0.210004 2.636373 0.053148 -0.018795 872900.000000 0 0 1
16.733878 3.111477 -32.661869 36.830716 0.183839 2.661194 0.051892 -0.019256 741119.000000 0 0 1
16.665878 1.612077 -33.008649 37.012446 0.096429 2.672161 0.049072 -0.020952 -601837.000000 0 0 1
17.605178 0.881477 -32.298979 36.795969 0.050027 2.642017 0.042802 -0.014818 -272918.000000 0 0 1
17.712978 -0.430423 -32.733749 37.221407 -0.024295 2.645467 0.045420 -0.014565 -279077.000000 0 0 1
18.845878 -1.146623 -31.970779 37.129672 -0.060767 2.608142 0.060241 -0.015511 -473495.000000 0 0 1
18.633678 -1.446023 -30.597879 35.854360 -0.077447 2.593257 0.061470 -0.011142 256540.000000 0 0 1
18.509378 -0.265823 -29.803579 35.084484 -0.014361 2.585796 0.054656 -0.010774 -375712.000000 0 0 1
18.113478 -0.532223 -28.361349 33.656314 -0.029374 2.573029 0.053983 -0.005441 -46772.100000 0 0 1
16.813178 -1.071123 -28.204249 32.852852 -0.063621 2.603138 0.057175 -0.007698 244810.000000 0 0 1
16.405178 -1.297423 -26.863029 31.502944 -0.078922 2.591957 0.053464 -0.006213 -222614.000000 0 0 1
17.172578 -2.332323 -26.001799 31.247891 -0.134991 2.553704 0.061047 -0.007287 -423473.000000 0 0 1
18.363578 -1.775423 -25.470869 31.450569 -0.096382 2.514727 0.065901 -0.004937 333464.000000 0 0 1
19.372078 -2.719623 -25.110389 31.830887 -0.139477 2.479762 0.052102 -0.007988 704393.000000 0 0 1
20.213678 -3.312823 -26.301639 33.336823 -0.162446 2.479922 0.059456 -0.014108 409962.000000 0 0 1
21.322978 -2.427223 -26.602989 34.180108 -0.113343 2.462779 0.057678 -0.007476 431761.000000 0 0 1
21.628678 -2.412123 -27.935169 35.411745 -0.111065 2.479760 0.059589 -0.012405 -203338.000000 0 0 1
23.091478 -2.102323 -28.284959 36.574240 -0.090793 2.454916 0.048429 -0.018261 -385913.000000 0 0 1
24.027678 -3.035223 -27.841689 36.901240 -0.125656 2.425676 0.052971 -0.020036 -181349.000000 0 0 1
25.299878 -2.680623 -28.372449 38.108600 -0.105560 2.410605 0.044283 -0.020438 677606.000000 0 0 1
26.438278 -3.725123 -28.067179 38.737909 -0.139977 2.381164 0.064069 -0.021177 156094.000000 0 0 1
26.300778 -4.937123 -28.748079 39.275414 -0.185558 2.391992 0.063391 -0.028753 857348.000000 0 0 1
27.476778 -5.774623 -28.718519 40.163079 -0.207149 2.367489 0.061611 -0.030631 626655.000000 0 0 1
27.506078 -6.796123 -27.535369 39.509089 -0.242226 2.341915 0.045415 -0.022662 -180654.000000 0 0 1
27.615778 -6.180423 -26.258699 38.605027 -0.220172 2.318816 0.041731 -0.013509 303333.000000 0 0 1
27.580778 -7.145523 -25.242399 38.064899 -0.253503 2.295804 0.026961 -0.014086 -418235.000000 0 0 1
27.832578 -6.585323 -23.832829 37.229324 -0.232332 2.265506 0.026612 -0.011742 665972.000000 0 0 1
29.177178 -6.263023 -23.425829 37.938142 -0.211446 2.236324 0.021176 -0.008385 900170.000000 0 0 1
29.272478 -5.926923 -22.099529 37.153675 -0.199773 2.207831 0.037119 -0.017729 31420.900000 0 0 1
30.664978 -5.421923 -21.638029 37.920211 -0.175003 2.178057 0.033678 -0.016729 -101820.000000 0 0 1
31.051478 -4.233823 -22.247329 38.432580 -0.135513 2.188134 0.043384 -0.018628 -426090.000000 0 0 1
32.287678 -3.800923 -21.760429 39.121061 -0.117181 2.160642 0.037017 -0.016981 -310967.000000 0 0 1
32.702378 -2.500023 -22.477529 39.760973 -0.076299 2.171613 0.047293 -0.022368 -65832.100000 0 0 1
31.984678 -1.385823 -21.985929 38.837111 -0.043301 2.172571 0.041467 -0.020010 41944.200000 0 0 1
32.325678 -0.194423 -22.620329 39.454614 -0.006014 2.181355 0.048520 -0.020268 -283800.000000 0 0 1
31.234778 0.870477 -22.559729 38.539726 0.027862 2.196124 0.046203 -0.011522 -383192.000000 0 0 1
30.147678 0.731177 -23.450129 38.201121 0.024248 2.231737 0.047316 -0.009589 113071.000000 0 0 1
29.108878 1.543977 -22.937029 37.092020 0.052992 2.237478 0.044295 -0.003069 -172339.000000 0 0 1
27.851678 1.547877 -23.837629 36.692567 0.055519 2.277931 0.047873 -0.002255 10982.900000 0 0 1
26.896678 2.484777 -23.346629 35.702528 0.092121 2.283552 0.044683 -0.001913 861235.000000 0 0 1
25.796378 2.597777 -24.293429 35.529878 0.100365 2.323681 0.049083 -0.004634 670866.000000 0 0 1
24.764678 3.665277 -23.875029 34.593938 0.146938 2.332494 0.055307 -0.002705 -486000.000000 0 0 1
25.252778 4.981477 -23.851729 35.091635 0.194764 2.318148 0.058426 -0.002039 209131.000000 0 0 1
24.260678 5.935177 -23.514829 34.303848 0.239929 2.326068 0.059666 -0.011885 -457227.000000 0 0 1
24.862778 7.292677 -23.197629 34.777448 0.285314 2.301013 0.071905 -0.011568 -224292.000000 0 0 1
25.372678 8.035577 -24.292829 36.034495 0.306708 2.310616 0.070883 -0.008740 232347.000000 0 0 1
25.726078 9.327177 -23.847729 36.297954 0.347818 2.287628 0.080969 -0.013662 -208730.000000 0 0 1
26.583878 10.165077 -24.857229 37.787739 0.365223 2.288706 0.093932 -0.014535 -60183.500000 0 0 1
26.036278 10.476277 -26.124919 38.342555 0.382550 2.320410 0.104683 -0.030905 1212820.000000 0 0 1
24.745078 11.143877 -26.105349 37.656263 0.423143 2.336791 0.095727 -0.035158 1068630.000000 0 0 1
24.182278 11.408777 -27.509199 38.362727 0.440820 2.370402 0.091862 -0.037795 -601738.000000 0 0 1
23.749278 10.353977 -28.354099 38.408176 0.411126 2.401240 0.089821 -0.031876 895558.000000 0 0 1
24.820078 9.473877 -28.761469 39.153706 0.364634 2.395842 0.094240 -0.038172 456991.000000 0 0 1
25.836678 10.006977 -29.779789 40.675660 0.369525 2.392237 0.103579 -0.031238 -1092230.000000 0 0 1
26.675078 10.995177 -29.205919 41.054103 0.390970 2.362286 0.105683 -0.025690 324847.000000 0 0 1
27.581578 11.647677 -30.069729 42.433482 0.399581 2.358354 0.101713 -0.012557 18524.700000 0 0 1
28.763578 10.839577 -30.609729 43.379665 0.360392 2.354100 0.089112 -0.015348 -951161.000000 0 0 1
28.384178 9.943177 -31.666949 43.672920 0.336948 2.381966 0.084122 -0.021006 182204.000000 0 0 1
29.180078 8.756977 -31.688499 43.958191 0.291550 2.375865 0.072011 -0.012684 122311.000000 0 0 1
28.618578 7.577177 -32.617989 44.049629 0.258825 2.404585 0.067222 -0.009035 76448.700000 0 0 1
27.453478 6.933177 -32.182539 42.865816 0.247370 2.420029 0.069740 -0.014664 -187904.000000 0 0 1
26.977078 6.001577 -33.121649 43.137284 0.218905 2.446227 0.060070 -0.006958 -260667.000000 0 0 1
25.713878 5.207977 -32.672589 41.902561 0.199833 2.465027 0.057625 -0.011151 -172530.000000 0 0 1
24.539078 5.956077 -32.795989 41.391039 0.238113 2.485440 0.064898 -0.014341 -365380.000000 0 0 1
24.202278 6.615777 -31.595949 40.346285 0.266835 2.470462 0.070742 -0.016811 276380.000000 0 0 1
22.696778 7.043277 -31.444219 39.414342 0.300898 2.494411 0.066603 -0.020392 721658.000000 0 0 1
22.287378 8.076977 -32.298809 40.064671 0.347680 2.508441 0.070064 -0.020237 2624430.000000 0 0 1
20.828978 8.376577 -32.138969 39.203657 0.382367 2.531850 0.059008 -0.015426 2711450.000000 0 0 1
20.276478 9.347877 -33.176109 39.989656 0.431981 2.549218 0.052442 -0.019561 -213349.000000 0 0 1
20.363678 8.812877 33.759385 40.398543 0.408437 0.581466 0.045967 -0.022654 169041.000000 0 0 1
20.102978 9.858177 32.786311 39.702085 0.455925 0.599162 0.033059 -0.013939 358508.000000 0 0 1
19.001078 9.512677 31.730484 38.188423 0.464159 0.590086 0.037285 -0.005274 278941.000000 0 0 1
19.377578 8.549177 30.749374 37.337688 0.415503 0.603159 0.032707 -0.010208 -60892.800000 0 0 1
20.370278 8.924377 29.818554 37.198641 0.412920 0.640824 0.037262 -0.008652 -749578.000000 0 0 1
19.915778 9.815277 28.651234 36.247360 0.457903 0.659275 0.029976 -0.007187 -248339.000000 0 0 1
18.937778 9.320677 27.784714 34.892762 0.457367 0.649661 0.014042 0.004367 749275.000000 0 0 1
17.582178 9.472977 28.216164 34.569093 0.494190 0.615950 0.020328 -0.005923 490053.000000 0 0 1
16.419078 8.901277 27.390084 33.151705 0.496781 0.598460 0.039277 -0.001303 -365042.000000 0 0 1
16.167678 9.316977 26.064644 32.055663 0.522790 0.621329 0.029206 0.000491 469638.000000 0 0 1
14.894678 8.973277 25.529854 30.889231 0.542218 0.597940 0.048346 -0.007103 302564.000000 0 0 1
14.780878 7.425377 25.114754 30.072603 0.465537 0.582414 0.044442 -0.002725 -157429.000000 0 0 1
14.953578 6.581777 26.220704 30.894249 0.414630 0.557228 0.041415 -0.004461 -23635.000000 0 0 1
14.760578 5.222877 25.911064 30.274351 0.340091 0.543556 0.055260 -0.010151 -46519.600000 0 0 1
15.045378 4.345677 27.210354 31.395090 0.281185 0.522233 0.052781 -0.013391 286406.000000 0 0 1
16.396178 4.561577 27.632784 32.453250 0.271348 0.552025 0.050921 -0.007731 501845.000000 0 0 1
16.847678 3.850977 28.778724 33.569171 0.224716 0.540802 0.061318 -0.013213 -364948.000000 0 0 1
17.292378 2.402977 28.536974 33.453842 0.138077 0.549041 0.064262 -0.010941 -389678.000000 0 0 1
16.347878 1.342377 28.439734 32.830985 0.081929 0.523156 0.056953 -0.019253 168848.000000 0 0 1
15.737378 1.011177 29.670494 33.600979 0.064165 0.488528 0.052960 -0.021737 -116358.000000 0 0 1
15.626978 -0.520423 29.734504 33.594851 -0.033291 0.484107 0.052773 -0.026274 -525709.000000 0 0 1
14.841678 -1.248923 28.816374 32.437920 -0.083952 0.477047 0.043255 -0.025486 7102.650000 0 0 1
15.224278 -1.359723 27.461224 31.428432 -0.089076 0.507895 0.054887 -0.020786 -412662.000000 0 0 1
16.403878 -2.360323 27.190734 31.843278 -0.142907 0.547377 0.059241 -0.017403 1463600.000000 0 0 1
17.755978 -2.061423 27.589784 32.874312 -0.115580 0.574893 0.066466 -0.027604 1053840.000000 0 0 1
18.404978 -1.019123 26.869954 32.584909 -0.055316 0.601278 0.071993 -0.022359 -946508.000000 0 0 1
19.814878 -0.707723 27.340904 33.773589 -0.035702 0.627437 0.099499 -0.023886 -680579.000000 0 0 1
20.783178 -1.587923 26.854584 33.994568 -0.076256 0.660041 0.093003 -0.024271 -1512730.000000 0 0 1
22.031978 -1.161023 27.269424 35.076738 -0.052648 0.680240 0.094993 -0.028056 -528704.000000 0 0 1
23.154778 -1.876423 26.464934 35.214449 -0.080862 0.720409 0.092017 -0.019777 -245038.000000 0 0 1
23.277178 -1.455423 25.166964 34.312117 -0.062444 0.747381 0.097129 -0.013341 878846.000000 0 0 1
22.231678 -1.965223 24.290204 32.986719 -0.088168 0.743117 0.102047 -0.000617 682057.000000 0 0 1
22.282178 -1.244923 22.867564 31.952633 -0.055813 0.773212 0.099829 -0.026819 -94697.900000 0 0 1
21.587378 -0.038923 22.870964 31.449919 -0.001803 0.756535 0.095369 -0.012749 -24176.900000 0 0 1
21.498678 0.492577 21.587164 30.470337 0.022908 0.783476 0.086904 -0.009660 -51110.900000 0 0 1
-30.407622 -27.342564 -10.813929 42.298703 0.732373 1.829323 0.022302 0.006160 -300369.000000 0 0 1
-29.971102 -26.404864 -9.931229 41.159605 0.722224 1.814487 0.033275 0.005405 -83506.400000 0 0 1
-30.636452 -26.758364 -8.717929 41.600535 0.717932 1.781924 0.056943 -0.004596 29886.900000 0 0 1
-30.876872 -25.594664 -7.712129 40.840482 0.692132 1.760772 0.081191 -0.009347 1707160.000000 0 0 1
-29.608592 -25.012164 -7.247029 39.430908 0.701444 1.755638 0.057805 -0.009547 1095610.000000 0 0 1
-29.151722 -25.597564 -6.048329 39.263729 0.720572 1.725456 0.053594 -0.009064 274601.000000 0 0 1
-28.043392 -24.850664 -5.242329 37.834763 0.725110 1.709802 0.049691 0.000913 108983.000000 0 0 1
-28.384442 -23.672464 -4.535429 37.237511 0.695128 1.692897 0.062699 -0.005097 -19165.300000 0 0 1
-29.013752 -22.587064 -5.260629 37.143606 0.661490 1.712904 0.064948 -0.004830 245401.000000 0 0 1
-29.310682 -21.328464 -4.398829 36.515327 0.629055 1.691555 0.071125 -0.019867 -180463.000000 0 0 1
-28.189192 -20.508764 -4.176029 35.109531 0.628971 1.690021 0.074472 -0.017656 88481.000000 0 0 1
-28.441142 -19.518964 -3.168429 34.639969 0.601467 1.662392 0.073478 -0.014294 -524912.000000 0 0 1
-27.271202 -18.566764 -3.083929 33.135386 0.597737 1.664002 0.071239 -0.018929 -490413.000000 0 0 1
-27.125882 -17.794064 -4.276329 32.721998 0.580568 1.701858 0.082979 -0.023747 471771.000000 0 0 1
-26.178832 -16.721664 -4.090029 31.331671 0.568424 1.701710 0.078309 -0.027342 405492.000000 0 0 1
-26.356572 -15.612264 -5.136929 31.061225 0.534774 1.736940 0.084746 -0.034774 -337674.000000 0 0 1
-27.497902 -14.819564 -5.024229 31.638536 0.494308 1.730272 0.074414 -0.028393 -361978.000000 0 0 1
-27.665362 -13.784764 -6.024229 31.491003 0.462261 1.763283 0.097971 -0.040058 -270235.000000 0 0 1
-29.001632 -13.056264 -5.885429 32.344999 0.423012 1.753774 0.085459 -0.031671 307382.000000 0 0 1
-30.159632 -13.812664 -6.224529 33.751116 0.429475 1.756282 0.086556 -0.027646 509964.000000 0 0 1
-31.362692 -13.082864 -6.248429 34.551738 0.395201 1.752640 0.069023 -0.023627 49248.700000 0 0 1
-32.491742 -13.753464 -7.067729 35.983661 0.400422 1.768497 0.058273 -0.022368 9982.270000 0 0 1
-32.978622 -14.979664 -6.506429 36.800998 0.426361 1.748531 0.047207 -0.024677 363709.000000 0 0 1
-33.488922 -15.854564 -7.511429 37.806040 0.442164 1.770811 0.052258 -0.019787 -269565.000000 0 0 1
-34.364011 -17.013164 -6.920629 38.964446 0.459709 1.749358 0.043347 -0.022127 455197.000000 0 0 1
-35.741197 -16.854564 -6.638429 40.069667 0.440648 1.737236 0.047183 -0.022996 142983.000000 0 0 1
-36.036712 -15.974164 -5.603129 39.814740 0.417247 1.711995 0.040069 -0.025739 -1273620.000000 0 0 1
35.471776 -15.919464 -5.371129 39.249525 -0.421849 1.708073 0.059801 -0.025656 -980270.000000 0 0 1
34.742816 -15.236164 -6.407229 38.474102 -0.413284 1.738109 0.064830 -0.034011 1070920.000000 0 0 1
33.317156 -15.257164 -6.315429 37.184655 -0.429435 1.741463 0.075706 -0.037671 615206.000000 0 0 1
32.620636 -14.354164 -5.327329 36.035099 -0.414535 1.719177 0.084287 -0.037992 -889161.000000 0 0 1
32.858616 -14.783464 -3.998929 36.252322 -0.422780 1.681329 0.076962 -0.026783 336599.000000 0 0 1
31.997386 -14.278964 -3.018229 35.168611 -0.419734 1.656724 0.093558 -0.034590 -1323160.000000 0 0 1
32.093486 -15.113164 -1.696929 35.514492 -0.440106 1.618596 0.097928 -0.028923 -471914.000000 0 0 1
33.277406 -15.052964 -0.930629 36.535510 -0.424805 1.596271 0.103972 -0.023527 531536.000000 0 0 1
34.479036 -15.660164 -1.386129 37.894142 -0.426336 1.607383 0.078993 -0.021234 -242134.000000 0 0 1
34.434716 -17.146064 -1.847729 38.511703 -0.461990 1.618793 0.060166 -0.023990 -1122350.000000 0 0 1
34.375396 -18.042264 -0.716629 38.829173 -0.483337 1.589253 0.064377 -0.019705 254249.000000 0 0 1
33.855246 -19.306764 -1.084629 38.988527 -0.518275 1.598619 0.055115 -0.024024 -323482.000000 0 0 1
34.651236 -20.287164 -2.047229 40.205327 -0.529665 1.621738 0.058132 -0.031878 172548.000000 0 0 1
34.823296 -19.708364 -3.326629 40.151563 -0.515009 1.653743 0.042804 -0.031118 -198063.000000 0 0 1
35.602526 -20.455564 -4.191429 41.273939 -0.521499 1.672523 0.053780 -0.029158 -247858.000000 0 0 1
35.771946 -19.753864 -5.503729 41.232733 -0.504543 1.704676 0.065462 -0.034773 -165837.000000 0 0 1
34.615426 -19.779264 -6.305629 40.363448 -0.519125 1.727660 0.059590 -0.039049 177210.000000 0 0 1
34.800636 -19.031064 -7.470929 40.361868 -0.500429 1.756969 0.071669 -0.037776 -197756.000000 0 0 1
33.646336 -19.344164 -8.422429 39.714102 -0.521779 1.784496 0.078192 -0.042940 -294264.000000 0 0 1
33.833596 -20.514164 -9.176829 40.617205 -0.545057 1.798699 0.093780 -0.041714 149127.000000 0 0 1
32.799266 -20.788564 -10.097529 40.123762 -0.564911 1.825191 0.089444 -0.042969 -233832.000000 0 0 1
32.693496 -22.279364 -10.602529 40.959106 -0.598175 1.832634 0.091522 -0.028294 -110747.000000 0 0 1
32.224626 -23.120564 -9.574329 40.800181 -0.622362 1.807669 0.085014 -0.025739 97390.400000 0 0 1
32.038526 -24.451164 -9.983129 41.520951 -0.651883 1.813611 0.071099 -0.013173 -61077.600000 0 0 1
31.248386 -25.285164 -8.883329 41.166912 -0.680306 1.788295 0.073824 -0.014487 -533641.000000 0 0 1
30.008906 -24.728564 -8.634029 39.831931 -0.689229 1.789292 0.071106 -0.016324 -843249.000000 0 0 1
29.095156 -25.700264 -8.200029 39.677098 -0.723521 1.778966 0.044269 -0.016017 301074.000000 0 0 1
27.619616 -25.222964 -8.075329 38.265546 -0.740075 1.783429 0.037567 -0.029035 386974.000000 0 0 1
26.986916 -24.917764 -9.288329 37.887486 -0.745555 1.818476 0.043352 -0.024371 411158.000000 0 0 1
25.633616 -24.525764 -9.080929 36.620467 -0.763315 1.821385 0.045735 -0.032945 34119.500000 0 0 1
24.951616 -23.744464 -10.191129 35.919936 -0.760614 1.858465 0.075577 -0.039794 -541782.000000 0 0 1
24.436016 -24.522364 -11.242429 36.398591 -0.787162 1.884801 0.070062 -0.039797 235164.000000 0 0 1
23.880916 -23.768964 -12.293129 35.866179 -0.783049 1.920639 0.088462 -0.018231 -387493.000000 0 0 1
23.033816 -24.699064 -13.193229 36.258264 -0.820271 1.943214 0.089640 -0.036585 -517469.000000 0 0 1
23.649216 -25.826064 -13.761729 37.625206 -0.829369 1.945244 0.086091 -0.031139 -259794.000000 0 0 1
23.058416 -27.008964 -13.413829 37.961895 -0.864140 1.931946 0.084046 -0.007753 -280422.000000 0 0 1
23.918616 -28.211664 -13.897329 39.511187 -0.867565 1.930216 0.076584 -0.023020 -284195.000000 0 0 1
23.826516 -28.496664 -15.277329 40.164157 -0.874418 1.960995 0.093485 -0.018537 487005.000000 0 0 1
24.238916 -29.806764 -15.678929 41.494542 -0.888057 1.958275 0.069597 -0.005336 -134372.000000 0 0 1
24.414816 -29.979664 -17.221829 42.325582 -0.887349 1.989843 0.074144 -0.017487 -19879.300000 0 0 1
23.141116 -30.172964 -17.812029 41.990324 -0.916536 2.008868 0.081646 -0.017083 449202.000000 0 0 1
23.164916 -29.995764 -19.190329 42.480912 -0.913192 2.039511 0.076917 -0.019278 945319.000000 0 0 1
21.691416 -30.058364 -19.764629 42.007896 -0.945692 2.060651 0.064132 -0.017324 887017.000000 0 0 1
21.623416 -29.998864 -21.169929 42.610677 -0.946241 2.090730 0.052105 -0.009893 -42513.600000 0 0 1
20.324716 -30.253964 -21.643129 42.388930 -0.979246 2.106661 0.058889 -0.017257 -504102.000000 0 0 1
20.215316 -30.418064 -23.208029 43.272742 -0.984238 2.136867 0.060101 -0.015353 -655969.000000 0 0 1
20.668016 -29.271164 -23.905329 43.074733 -0.955996 2.159127 0.066574 -0.017322 506164.000000 0 0 1
20.579416 -29.515964 -25.277899 43.973590 -0.961932 2.183208 0.066071 -0.021747 -564808.000000 0 0 1
21.010916 -28.235864 -26.063879 43.795529 -0.931068 2.208219 0.066174 -0.021936 123509.000000 0 0 1
20.091216 -27.173864 -26.285879 42.813821 -0.934141 2.231861 0.087390 -0.029296 27438.400000 0 0 1
19.066416 -27.480164 -27.217629 43.121769 -0.964227 2.253871 0.098803 -0.029111 -265603.000000 0 0 1
18.315616 -26.201564 -27.646489 42.264785 -0.960723 2.283823 0.092865 -0.028475 -375728.000000 0 0 1
17.449116 -25.808364 -26.596289 40.962249 -0.976289 2.277444 0.074686 -0.022903 -15121.900000 0 0 1
16.995116 -24.433364 -26.797589 40.049145 -0.963050 2.303817 0.054982 -0.011477 340138.000000 0 0 1
15.818416 -24.097464 -25.820069 38.698656 -0.989911 2.301251 0.055968 -0.016714 -1103390.000000 0 0 1
14.634416 -24.691864 -26.197949 38.861122 -1.035775 2.310600 0.088055 -0.019092 -290692.000000 0 0 1
13.439416 -24.232164 -25.521989 37.672106 -1.064420 2.315124 0.065509 -0.015282 1083470.000000 0 0 1
13.346816 -24.494364 -24.012729 36.806555 -1.071882 2.281548 0.057873 -0.011461 -955888.000000 0 0 1
14.355716 -23.821464 -23.304329 36.285540 -1.028439 2.268224 0.040866 -0.010399 -344250.000000 0 0 1
14.488416 -24.308664 -21.943529 35.809828 -1.033309 2.230369 0.055807 -0.018203 330127.000000 0 0 1
15.722216 -23.758564 -21.179329 35.499597 -0.986206 2.210064 0.039513 -0.016908 279519.000000 0 0 1
15.505116 -22.409964 -20.843029 34.308118 -0.965538 2.223737 0.034560 -0.021519 -371661.000000 0 0 1
16.637216 -21.910264 -20.222929 34.144157 -0.921348 2.204683 0.037395 -0.015640 -583084.000000 0 0 1
16.423416 -20.525964 -19.644929 32.817175 -0.895977 2.212570 0.035050 0.003228 -119207.000000 0 0 1
15.690516 -20.592664 -18.458029 31.795423 -0.919693 2.190169 0.047353 -0.010993 194184.000000 0 0 1
14.462316 -19.889564 -18.609129 30.839147 -0.942093 2.218586 0.038923 -0.013373 85121.600000 0 0 1
13.595816 -19.884564 -17.310829 29.663224 -0.971069 2.193925 0.041735 -0.012357 64673.800000 0 0 1
13.967316 -18.930764 -16.315429 28.629582 -0.935142 2.177156 0.053667 -0.012911 232730.000000 0 0 1
12.922616 -18.706364 -15.403529 27.462533 -0.966262 2.166260 0.052639 -0.014100 -161074.000000 0 0 1
13.087716 -17.297764 -14.748329 26.230024 -0.923076 2.167923 0.048534 -0.015490 -339721.000000 0 0 1
12.549016 -16.242864 -15.586229 25.772833 -0.912996 2.220253 0.060073 -0.030775 259445.000000 0 0 1
12.559816 -14.996164 -14.942729 24.615423 -0.873583 2.223136 0.052569 -0.032962 -742652.000000 0 1 0
11.240716 -14.499564 -14.362629 23.299703 -0.911333 2.234997 0.049038 -0.022761 -458862.000000 0 1 0
10.306416 -14.287664 -15.406129 23.403169 -0.945884 2.289344 0.062408 -0.013558 357855.000000 0 1 0
9.133416 -13.571364 -14.983429 22.183425 -0.978428 2.312349 0.063000 -0.022315 726292.000000 0 1 0
8.208216 -13.152264 -16.158229 22.392972 -1.012851 2.376872 0.053477 -0.013439 -153703.000000 0 1 0
8.534716 -12.049064 -17.014329 22.527954 -0.954501 2.426838 0.046532 -0.006128 -301136.000000 0 1 0
9.777816 -12.131364 -17.676329 23.563282 -0.892411 2.419107 0.068587 -0.011907 -18521.200000 0 1 0
9.946216 -10.991164 -18.699929 23.862528 -0.835265 2.471320 0.071412 -0.015203 61906.200000 0 1 0
9.208616 -11.274364 -19.881429 24.641045 -0.885910 2.509583 0.072124 -0.014131 424106.000000 0 1 0
8.896016 -10.104664 -20.632029 24.635826 -0.848923 2.563453 0.038659 -0.014646 -167055.000000 0 1 0
8.804616 -10.405164 -22.146529 26.004950 -0.868526 2.589879 0.055759 -0.006369 -279609.000000 0 0 1
10.031616 -10.704664 -22.777329 27.092985 -0.817844 2.569388 0.082551 -0.020083 -306200.000000 0 0 1
9.926916 -10.778364 -24.191529 28.283332 -0.826497 2.596980 0.074621 -0.016369 -183652.000000 0 0 1
11.151416 -11.333964 -24.925829 29.565347 -0.793517 2.573773 0.104271 -0.020320 -442932.000000 0 0 1
11.187716 -12.755664 -24.789929 30.040182 -0.850790 2.541398 0.106006 -0.026759 266102.000000 0 0 1
12.364116 -13.428364 -25.235079 31.144847 -0.826637 2.515373 0.092288 -0.037285 322438.000000 0 0 1
12.278916 -14.848264 -24.795229 31.401371 -0.879831 2.480990 0.086528 -0.031901 -93914.100000 0 0 1
11.196816 -15.513864 -25.398519 31.798324 -0.945635 2.495991 0.097260 -0.037807 -152954.000000 0 0 1
11.061616 -16.766364 -24.746729 31.872729 -0.987597 2.459767 0.089472 -0.036027 191620.000000 0 0 1
9.812916 -17.620164 -25.081609 32.184633 -1.062660 2.464350 0.100355 -0.041108 101943.000000 0 0 1
10.003016 -18.483164 -26.213779 33.598361 -1.074737 2.465798 0.097991 -0.046792 217176.000000 0 0 1
8.800816 -19.015364 -26.741999 33.973120 -1.137327 2.476973 0.109183 -0.047787 59420.900000 0 0 1
9.085516 -19.865164 -27.999189 35.512334 -1.141839 2.479058 0.088946 -0.037012 76212.400000 0 0 1
9.773616 -21.092164 -27.839599 36.269080 -1.136874 2.445861 0.078851 -0.032850 126327.000000 0 0 1
9.993316 -21.798264 -29.037219 37.658873 -1.140941 2.451299 0.077038 -0.025546 89194.200000 0 0 1
10.391116 -23.277564 -28.717029 38.399062 -1.150940 2.415625 0.056951 -0.016330 60318.000000 0 0 1
10.359016 -24.253864 -29.769969 39.771977 -1.167142 2.416618 0.062794 -0.012176 236192.000000 0 0 1
11.000416 -25.512564 -29.458419 40.493191 -1.163706 2.385454 0.075109 -0.012467 465192.000000 0 0 1
10.307316 -26.264064 -28.280609 39.947899 -1.196816 2.357370 0.075444 -0.018484 690098.000000 0 0 1
10.937916 -25.961064 -27.006829 39.025423 -1.172047 2.335096 0.076081 -0.019567 56494.500000 0 0 1
10.093016 -26.340064 -25.916799 38.305984 -1.204873 2.313895 0.056881 -0.017804 682898.000000 0 0 1
9.229016 -25.117864 -25.508049 36.969479 -1.218680 2.332252 0.053455 -0.019472 -93744.200000 0 0 1
10.077816 -24.070364 -25.097569 36.205424 -1.174290 2.336715 0.050381 -0.013307 -10617.000000 0 0 1
9.349416 -22.897664 -24.690329 34.947488 -1.183144 2.355334 0.057989 -0.019157 -326654.000000 0 0 1
10.219016 -21.647364 -24.503029 34.255438 -1.129743 2.367854 0.086525 -0.029386 -35114.500000 0 0 1
10.827116 -21.715564 -23.209729 33.578023 -1.108279 2.333969 0.073238 -0.027359 -136390.000000 0 0 1
12.003716 -20.951564 -23.214829 33.496052 -1.050521 2.336524 0.082205 -0.035140 -495742.000000 0 0 1
12.653816 -20.703964 -21.863229 32.661505 -1.022198 2.304181 0.067603 -0.021681 -402593.000000 0 0 1
11.934716 -19.995264 -20.865129 31.266621 -1.032676 2.301413 0.043796 -0.015678 -59003.100000 0 0 1
11.564916 -18.622764 -21.121129 30.441036 -1.015072 2.337601 0.056504 -0.023947 5476.470000 0 0 1
12.730816 -17.597764 -20.948829 30.176288 -0.944516 2.338125 0.073385 -0.022491 -10587.600000 0 0 1
13.742116 -17.883664 -21.881229 31.423866 -0.915612 2.341061 0.068211 -0.019378 -981604.000000 0 0 1
14.687016 -16.874164 -21.853929 31.273632 -0.854586 2.344511 0.066997 -0.014613 -1081000.000000 0 0 1
15.855316 -17.261064 -22.735629 32.653394 -0.827821 2.340986 0.036109 0.000387 -174149.000000 0 0 1
17.007116 -17.808564 -22.066529 33.065369 -0.808414 2.301456 0.036811 0.014008 893342.000000 0 0 1
18.137016 -17.615264 -22.897429 34.110718 -0.770806 2.306714 0.032642 0.015244 -52057.100000 0 0 1
19.498316 -17.795764 -22.200829 34.492758 -0.739778 2.270038 0.020675 0.019522 -99609.300000 0 0 1
19.826416 -19.169564 -21.972929 35.261431 -0.768556 2.243552 0.026243 0.010482 654412.000000 0 0 1
21.028116 -19.368664 -21.211729 35.598655 -0.744342 2.209129 0.034203 0.013369 583720.000000 0 0 1
21.338316 -20.885964 -21.116129 36.571001 -0.774685 2.186338 0.034752 0.002445 542494.000000 0 0 1
20.390916 -21.594364 -20.250529 35.947043 -0.814054 2.169223 0.042095 0.003732 1168910.000000 0 0 1
20.743116 -22.961064 -20.274929 36.994054 -0.836104 2.150838 0.060799 -0.011172 -133213.000000 0 0 1
-17.177922 12.869477 28.124564 35.379310 -0.642981 0.651881 0.037607 -0.023385 -108269.000000 0 0 1
-18.434422 13.476577 27.942354 36.086302 -0.631266 0.685156 0.023864 -0.020293 -203567.000000 0 0 1
-18.700922 13.470077 26.550774 35.158371 -0.624214 0.714873 0.042590 -0.017293 -245506.000000 0 0 1
-19.924122 14.307477 26.156134 35.858303 -0.622769 0.753308 0.054430 -0.017646 -107754.000000 0 0 1
-19.719022 15.663677 26.424294 36.502520 -0.671282 0.761353 0.052819 -0.005928 -88251.500000 0 0 1
-20.653422 16.446577 25.744214 36.875714 -0.672488 0.798008 0.034175 -0.002757 -739867.000000 0 0 1
-20.428422 17.975077 26.159334 37.745657 -0.721601 0.805096 0.032979 0.002953 646087.000000 0 0 1
-19.314322 18.651777 25.552334 37.065531 -0.767949 0.810160 0.037691 -0.004323 1472490.000000 0 0 1
-18.075122 18.485377 26.309784 36.886636 -0.796619 0.776657 0.041648 0.000759 1341330.000000 0 0 1
-16.895722 19.388077 25.813694 36.437752 -0.853981 0.783521 0.050235 -0.002353 254599.000000 0 0 1
-17.013522 20.807777 25.836274 37.281853 -0.885384 0.805156 0.060036 -0.003447 499568.000000 0 0 1
-15.886222 21.459177 25.201104 36.714629 -0.933532 0.814262 0.088736 -0.009947 811128.000000 0 0 1
-16.016922 23.000377 25.035004 37.580721 -0.962506 0.841740 0.067930 -0.008890 60759.900000 0 0 1
-15.638722 23.720377 26.233854 38.670933 -0.987915 0.825231 0.065776 -0.005100 -16723.900000 0 0 1
-16.108522 25.044177 26.164474 39.639311 -0.999213 0.849893 0.057160 -0.007299 -165380.000000 0 0 1
-15.474722 25.930177 27.223164 40.656387 -1.032745 0.837138 0.039749 0.000564 523452.000000 0 0 1
-14.076622 26.172177 27.047324 40.183229 -1.077332 0.832404 0.047675 -0.008461 398203.000000 0 0 1
-13.507122 26.825177 28.163824 41.173213 -1.104333 0.817520 0.052907 -0.005762 520278.000000 0 0 1
-11.953722 26.906077 28.127764 40.718541 -1.152713 0.808222 0.063497 -0.012722 209281.000000 0 0 1
-11.393122 27.721477 27.179574 40.460015 -1.180856 0.834209 0.063953 -0.012733 -738701.000000 0 0 1
-10.016422 27.646377 27.461414 40.234067 -1.223202 0.819562 0.054683 -0.009695 -305693.000000 0 0 1
-9.183022 28.291077 26.306584 39.708303 -1.256935 0.846651 0.054813 -0.014827 359802.000000 0 0 1
-7.770922 28.168177 26.505724 39.451069 -1.301616 0.834075 0.043780 -0.017020 643522.000000 0 0 1
-7.166122 28.617577 25.280484 38.851279 -1.325432 0.862292 0.052468 -0.022267 -841032.000000 0 0 1
-5.736722 28.120277 25.219734 38.205955 -1.369551 0.849845 0.052903 -0.021653 -1197860.000000 0 0 1
-4.853622 28.897777 26.009914 39.181052 -1.404391 0.844856 0.058484 -0.018294 -331644.000000 0 0 1
-3.540622 28.415077 25.833314 38.565694 -1.446832 0.836787 0.048050 -0.015631 414402.000000 0 0 1
-2.595022 29.180777 24.862634 38.423983 -1.482100 0.867074 0.045464 -0.020264 -89921.200000 0 0 1
-3.140522 29.029577 23.568414 37.523984 -1.463032 0.891701 0.040178 -0.017540 -23381.700000 0 0 1
-2.764422 30.064677 22.703864 37.775552 -1.479105 0.926020 0.035393 -0.017347 -494061.000000 0 0 1
-3.151322 29.712777 21.234364 36.656216 -1.465132 0.952946 0.037539 -0.013169 916848.000000 0 0 1
-4.546622 29.740277 20.933764 36.652126 -1.419093 0.962893 0.029758 -0.000108 362875.000000 0 0 1
-5.331422 28.714377 21.481964 36.254852 -1.387216 0.936605 0.048438 -0.002033 -1148710.000000 0 0 1
-6.769822 28.678477 20.990564 36.178576 -1.338981 0.951830 0.030455 -0.005759 -897825.000000 0 0 1
-6.920122 28.605577 19.600864 35.360444 -1.333441 0.983255 0.021841 0.002045 -180771.000000 0 0 1
-7.823122 27.669977 19.080364 34.509262 -1.295258 0.984949 0.001585 0.001591 -974666.000000 0 0 1
-7.260622 26.207077 18.887664 33.109989 -1.300527 0.963740 -0.007597 0.009026 232529.000000 0 0 1
-6.284222 26.188277 17.860664 32.315950 -1.335286 0.985209 -0.000959 0.009204 395938.000000 0 0 1
-4.956522 26.450277 18.312664 32.550545 -1.385554 0.973279 0.016679 0.007611 -222879.000000 0 0 1
-3.999322 26.789677 17.158864 32.064123 -1.422605 1.006120 0.017576 0.008307 -54128.500000 0 0 1
-3.551422 25.654077 16.419664 30.665121 -1.433236 1.005755 0.028577 -0.000935 119166.000000 0 0 1
-2.696122 26.054377 15.347264 30.358494 -1.467683 1.040795 0.033898 -0.009648 -14402.200000 0 0 1
-2.021022 24.880777 14.666664 28.952524 -1.489746 1.039587 0.028889 -0.005312 -771977.000000 0 0 1
-1.038922 24.248277 15.399164 28.743566 -1.527977 1.005409 0.025999 -0.002148 -681027.000000 0 0 1
-0.572022 23.123877 14.729964 27.422851 -1.546064 1.003751 0.029938 -0.018218 -815225.000000 0 0 1
0.778778 22.707277 15.308164 27.396475 1.536513 0.977902 0.020492 -0.015113 -22619.800000 0 0 1
1.819978 23.661077 15.101264 28.128403 1.494029 1.004075 0.035369 -0.023733 396212.000000 0 0 1
3.057078 23.229477 15.639364 28.169914 1.439945 0.982217 0.042693 -0.023811 -282215.000000 0 0 1
4.217278 24.180277 15.464364 29.010650 1.398123 1.008585 0.054527 -0.029879 104102.000000 0 0 1
5.469878 23.580077 15.825164 28.920156 1.342857 0.991779 0.055395 -0.023542 647018.000000 0 0 1
6.520778 24.543577 15.674964 29.843127 1.311114 1.017793 0.065971 -0.021811 -500257.000000 0 0 1
7.898778 23.912877 15.751564 29.704009 1.251765 1.011861 0.069135 -0.018277 -793208.000000 0 0 1
8.320678 23.462777 14.498964 28.808949 1.230000 1.043406 0.053826 -0.018463 475328.000000 0 0 1
9.308878 24.289477 13.853564 29.471260 1.204815 1.081426 0.057710 -0.021528 -74924.600000 0 0 1
10.076278 23.631077 12.717564 28.665234 1.167741 1.111120 0.045425 -0.018276 -371019.000000 0 0 1
11.029178 22.642977 12.937764 28.314889 1.117530 1.096262 0.049108 -0.020736 -20829.100000 0 0 1
11.638778 22.134477 11.743164 27.627851 1.086706 1.131781 0.066172 -0.016817 85276.500000 0 0 1
12.752278 21.129877 12.018464 27.450606 1.027793 1.117622 0.058909 -0.024146 -109877.000000 0 0 1
12.197978 19.814677 12.103064 26.227777 1.018983 1.091156 0.063860 -0.015155 697978.000000 0 0 1
13.160078 18.823877 12.535664 26.166178 0.960664 1.071191 0.069572 -0.026543 1026890.000000 0 0 1
13.836878 18.958777 14.001364 27.330068 0.940323 1.032928 0.072540 -0.024423 461119.000000 0 0 1
14.836178 17.978177 14.233564 27.311561 0.880858 1.022592 0.068450 -0.024766 306204.000000 0 0 1
15.378078 18.033077 15.565564 28.354258 0.864696 0.989668 0.059004 -0.024277 1390150.000000 0 0 1
16.778578 17.275677 15.749164 28.775091 0.799994 0.991638 0.045298 -0.029297 953474.000000 0 0 1
17.300478 17.235977 17.010164 29.761236 0.783531 0.962397 0.048596 -0.041456 -190853.000000 0 0 1
18.334078 16.270477 16.996264 29.828507 0.725835 0.964535 0.035352 -0.038307 -181783.000000 0 0 1
18.710978 15.747077 18.370364 30.586622 0.699595 0.926543 0.034073 -0.038464 -195856.000000 0 0 1
19.422678 16.634077 19.193164 31.973591 0.708213 0.926943 0.038460 -0.028861 -126224.000000 0 0 1
18.554678 17.552477 19.723164 32.270246 0.757649 0.913237 0.030556 -0.027813 -502448.000000 0 0 1
19.223878 18.561577 20.667864 33.782396 0.767872 0.912470 0.019555 -0.024492 -225008.000000 0 0 1
18.304378 19.575777 21.069964 34.091124 0.818949 0.904539 0.032833 -0.028615 164811.000000 0 0 1
18.888578 20.682177 21.751464 35.463461 0.830694 0.910503 0.034586 -0.018359 -260878.000000 0 0 1
17.880578 21.729077 22.230864 35.861946 0.882255 0.902180 0.037120 -0.020890 -382655.000000 0 0 1
17.021178 21.223677 23.197064 35.752885 0.894843 0.864768 0.034223 -0.021965 -413923.000000 0 0 1
16.273478 22.300077 23.724284 36.400016 0.940382 0.860886 0.033257 -0.022254 -209764.000000 0 0 1
15.571078 21.943477 25.016024 36.739300 0.953657 0.821797 0.041256 -0.018718 -689723.000000 0 0 1
14.541778 21.034677 24.880624 35.678655 0.965917 0.799098 0.042724 -0.016302 -737323.000000 0 0 1
13.973778 20.765077 26.155434 36.201680 0.978459 0.763396 0.037334 -0.008748 -103644.000000 0 0 1
13.156378 19.467877 26.191784 35.186618 0.976498 0.731209 0.065293 -0.007524 -131618.000000 0 0 1
13.859278 18.245477 26.042224 34.686805 0.921179 0.721551 0.041953 -0.017024 -455026.000000 0 0 1
14.116678 17.808677 24.734214 33.588851 0.900531 0.743090 0.048453 -0.019846 -486420.000000 0 0 1
13.080278 17.747677 23.581294 32.282366 0.935659 0.751787 0.062539 -0.020779 -503223.000000 0 0 1
12.853778 18.901777 22.804664 32.288535 0.973599 0.786570 0.070662 -0.016743 170900.000000 0 0 1
13.926778 19.388477 21.990564 32.456942 0.947893 0.826397 0.057563 -0.023053 621901.000000 0 0 1
14.577278 18.452277 20.882264 31.449206 0.902183 0.844641 0.065545 -0.023647 147993.000000 0 0 1
13.608278 18.021577 19.956764 30.136936 0.924033 0.847042 0.085202 -0.025613 119225.000000 0 0 1
14.185778 17.046077 19.108264 29.273381 0.876726 0.859585 0.069736 -0.029210 59064.700000 0 0 1
13.173878 16.295277 18.242864 27.782894 0.890926 0.854465 0.074455 -0.018484 75210.400000 0 0 1
12.418278 17.039777 17.292764 27.269165 0.941014 0.883887 0.085323 -0.018273 272827.000000 0 0 1
11.357978 16.255377 16.772864 25.972484 0.960929 0.868734 0.080974 -0.020477 43456.100000 0 0 1
10.722078 16.932377 15.559764 25.372714 1.006301 0.910630 0.075462 -0.019044 -409588.000000 0 0 1
9.987378 18.066077 15.854264 26.028611 1.065787 0.915860 0.073455 -0.019664 -297599.000000 0 0 1
9.573178 18.517877 14.581864 25.439896 1.093665 0.960404 0.056119 -0.015159 -329061.000000 0 0 1
8.604878 19.721877 14.562064 25.981726 1.159384 0.975839 0.055705 -0.016761 979125.000000 0 0 1
7.267878 19.321277 14.939864 25.482020 1.211010 0.944324 0.038426 -0.015123 1285470.000000 0 0 1
6.307078 20.393577 14.868164 26.014218 1.270859 0.962415 0.048833 -0.018742 1006570.000000 0 0 1
4.934778 20.114777 15.543964 25.895388 1.330217 0.926970 0.041865 -0.019107 -32883.600000 0 0 1
4.220978 19.099477 14.987064 24.641810 1.353293 0.917010 0.030605 -0.027160 -412339.000000 0 1 0
3.004678 18.880577 15.697264 24.736782 1.412979 0.883342 0.010812 -0.014577 1243740.000000 0 1 0
1.803778 18.375177 14.799264 23.662607 1.472946 0.895116 0.007452 -0.015740 597790.000000 0 1 0
1.129778 19.360077 14.082364 23.966685 1.512506 0.942730 0.009526 -0.022272 420269.000000 0 1 0
0.074278 18.821677 13.247564 23.016494 1.566850 0.957497 0.008431 -0.027621 216461.000000 0 1 0
-0.644922 19.870177 12.447464 23.455900 -1.538351 1.011399 0.017541 -0.025110 -319968.000000 0 1 0
-1.717122 20.499577 13.113064 24.395361 -1.487228 1.003300 0.019672 -0.014931 -1112550.000000 0 1 0
-2.741222 20.606377 12.203164 24.105068 -1.438545 1.039967 0.025981 -0.023930 -1062730.000000 0 1 0
-3.922322 21.378877 12.770964 25.209890 -1.389347 1.039576 0.022300 -0.016323 -266315.000000 0 0 1
-4.650422 20.658777 13.742964 25.244417 -1.349381 0.995127 0.032106 -0.018258 -264802.000000 0 0 1
-5.753722 21.367577 14.236664 26.312759 -1.307762 0.999105 0.014206 -0.004275 -122281.000000 0 0 1
-6.622322 20.645377 15.329364 26.553270 -1.260399 0.955371 0.011320 -0.007972 -624240.000000 0 0 1
-7.399722 19.559177 14.881564 25.666676 -1.209114 0.952312 0.026110 -0.010398 -142574.000000 0 0 1
-7.964422 18.777277 15.907164 25.866117 -1.169644 0.908435 0.027101 0.000999 232801.000000 0 0 1
-9.109122 19.505877 16.715464 27.255497 -1.133901 0.910580 0.014938 0.008213 296795.000000 0 0 1
-10.265322 19.571777 15.850664 27.196964 -1.087744 0.948614 0.007884 -0.000540 -567423.000000 0 0 1
-11.391422 19.833677 16.602364 28.262656 -1.049453 0.942915 0.007463 0.009327 398232.000000 0 0 1
-12.754622 19.759777 15.796164 28.331043 -0.997602 0.979357 0.011390 -0.006673 846917.000000 0 0 1
-13.035122 20.885977 14.990164 28.824356 -1.012838 1.023884 0.002097 0.002104 332059.000000 0 0 1
-13.890222 20.487177 13.881264 28.378728 -0.974991 1.059689 0.009077 -0.011551 194038.000000 0 0 1
-15.001222 21.539677 13.713164 29.614949 -0.962460 1.089365 0.000997 -0.005427 -470261.000000 0 0 1
-16.083722 21.396777 14.592764 30.486997 -0.926215 1.071674 -0.007264 -0.005860 -1058720.000000 0 0 1
-17.000422 22.375577 14.381764 31.567641 -0.921068 1.097766 0.016925 -0.019615 -536867.000000 0 0 1
-18.247622 22.220477 15.285064 32.563146 -0.883257 1.082188 0.076734 -0.035825 -311514.000000 0 0 1
-19.271222 21.300677 14.937564 32.376375 -0.835378 1.091255 0.067455 -0.032279 283144.000000 0 0 1
-20.251622 21.143677 15.943064 33.337135 -0.806945 1.072150 0.067832 -0.022952 127209.000000 0 0 1
-21.331722 22.246477 16.003264 34.728268 -0.806386 1.091884 0.065034 -0.022687 -966998.000000 0 0 1
-22.155522 22.237577 14.852864 34.727289 -0.787247 1.128849 0.065016 -0.022012 275051.000000 0 0 1
-22.962522 23.434477 14.782964 35.985944 -0.795570 1.147467 0.088844 -0.036085 119299.000000 0 0 1
-22.465722 24.583077 13.845364 36.065641 -0.830371 1.176787 0.078787 -0.033771 -237183.000000 0 0 1
-21.301822 25.191777 14.338964 35.972200 -0.868870 1.160793 0.066480 -0.036359 -179179.000000 0 0 1
-20.975822 26.355977 13.644864 36.342881 -0.898581 1.185916 0.055029 -0.026805 -790359.000000 0 0 1
-19.501622 26.674477 13.798164 35.808244 -0.939504 1.175226 0.045593 -0.024269 -430713.000000 0 0 1
-18.598722 25.923777 13.026664 34.462279 -0.948462 1.183164 0.033725 -0.016287 -121530.000000 0 0 1
-17.241722 26.144677 13.340364 34.040952 -0.987790 1.168110 -0.007605 -0.005562 613322.000000 0 0 1
-16.196322 25.540777 12.318964 32.655919 -1.005654 1.183987 0.000475 -0.012179 1967160.000000 0 0 1
-14.859322 26.053777 12.619264 32.539892 -1.052477 1.172543 -0.005424 -0.009768 1234730.000000 0 0 1
-13.882922 25.566677 11.733164 31.369693 -1.073337 1.187447 -0.004032 -0.019534 162066.000000 0 0 1
-12.526422 26.311177 11.796264 31.437893 -1.126461 1.186157 0.002459 -0.020359 -596224.000000 0 0 1
-11.475222 25.589477 11.221964 30.206532 -1.149244 1.190164 0.006627 -0.020860 -609579.000000 0 0 1
-10.240822 26.089877 11.652864 30.353672 -1.196754 1.176777 0.024799 -0.018202 -317239.000000 0 0 1
-9.625522 27.280177 10.902864 30.914902 -1.231594 1.210370 0.043138 -0.030954 -696702.000000 0 0 1
-8.589122 27.888077 11.648964 31.419997 -1.272030 1.190980 0.056442 -0.033555 -13092.600000 0 0 1
-8.085322 28.988777 10.939864 32.021903 -1.298797 1.222138 0.064960 -0.040251 144562.000000 0 0 1
-6.787622 29.552577 11.582464 32.458899 -1.345032 1.205919 0.056470 -0.035176 450001.000000 0 0 1
-5.549022 29.081877 11.118664 31.625495 -1.382256 1.211546 0.072064 -0.033865 -309176.000000 0 0 1
-4.459922 29.424377 11.931064 32.062988 -1.420369 1.189512 0.064753 -0.027734 -199367.000000 0 0 1
-3.100322 29.077777 11.315264 31.355451 -1.464576 1.201595 0.063835 -0.035837 -378758.000000 0 0 1
-2.867822 29.896177 10.192264 31.715739 -1.475163 1.243628 0.089129 -0.044915 1246390.000000 0 0 1
-1.563822 29.672877 9.580464 31.220354 -1.518143 1.258898 0.050321 -0.040607 1384730.000000 0 0 1
-1.350922 30.483577 8.326964 31.629287 -1.526509 1.304389 0.047131 -0.040496 -24935.200000 0 0 1
-2.262622 30.106777 7.330864 31.068941 -1.495784 1.332595 0.069401 -0.039177 103118.000000 0 0 1
-2.098222 30.965077 6.229864 31.655170 -1.503139 1.372699 0.068117 -0.029680 24530.800000 0 0 1
11.432778 33.794277 -26.467889 44.421962 1.244578 2.209094 0.110482 -0.055311 -68662.800000 0 0 1
11.790378 -34.088864 -25.148929 43.971949 -1.237804 2.179654 0.090044 -0.046393 441858.000000 0 0 1
12.902478 -33.200964 -25.129009 43.591800 -1.200141 2.185188 0.095779 -0.043871 187360.000000 0 0 1
13.584178 -32.980164 -23.758529 42.856607 -1.180083 2.158405 0.079310 -0.031646 -609944.000000 0 0 1
12.993078 -32.025264 -22.868029 41.441336 -1.185374 2.155338 0.079748 -0.026981 378347.000000 0 0 1
13.533378 -31.875664 -21.524329 40.773852 -1.169292 2.126917 0.058618 -0.019776 92091.700000 0 0 1
15.061278 -31.665164 -21.387429 41.072458 -1.126824 2.118496 0.034179 -0.015167 261899.000000 0 0 1
15.929178 -32.811064 -21.452529 42.314485 -1.118830 2.102472 0.053584 -0.011788 -576667.000000 0 0 1
17.219578 -32.373664 -21.223529 42.367513 -1.081955 2.095479 0.035375 -0.014773 -914638.000000 0 0 1
18.224678 -33.561664 -21.374629 43.765271 -1.073327 2.081043 0.022693 -0.011296 -495199.000000 0 0 1
19.551078 -33.233864 -21.061729 43.935530 -1.039033 2.070742 0.033896 -0.004540 -86796.800000 0 0 1
20.305078 33.793877 -21.339929 44.829844 1.029751 2.066921 0.021991 0.003127 -420026.000000 0 0 1
21.817878 33.903777 -21.138029 45.522546 0.998987 2.053688 0.053597 0.008757 -667639.000000 0 0 1
22.406778 -33.803964 -22.287729 46.276501 -0.985444 2.073300 0.041194 0.003852 -570752.000000 0 0 1
23.761378 34.081277 -22.335029 47.169800 0.961954 2.064060 0.037337 0.010975 -531912.000000 0 0 1
24.488878 -33.581164 -23.555729 47.773131 -0.940712 2.086417 0.057171 0.002642 -88649.800000 0 0 1
24.813178 -32.201364 -23.555929 46.984076 -0.914264 2.095966 0.059446 -0.001988 32112.400000 0 0 1
23.673978 -31.407464 -23.753729 45.946987 -0.924887 2.114117 0.040435 0.001554 -460425.000000 0 0 1
23.962878 -29.939064 -23.443629 44.946310 -0.895819 2.119512 0.042543 -0.016022 -116998.000000 0 0 1
24.834078 -29.296964 -24.367229 45.484122 -0.867658 2.136169 0.037340 -0.017247 165217.000000 0 0 1
24.884778 -27.954364 -24.081329 44.504034 -0.843426 2.142546 0.050063 -0.018371 94500.000000 0 0 1
25.487378 -27.073564 -25.161589 44.896435 -0.815567 2.165709 0.043654 -0.016205 -327927.000000 0 0 1
24.541678 -26.663964 -26.077379 44.646283 -0.826821 2.194553 0.030158 -0.015731 -832279.000000 0 0 1
25.160178 -26.135764 -27.214869 45.351536 -0.804415 2.214406 0.028462 -0.015992 -1025390.000000 0 0 1
24.239878 -25.925664 -28.381179 45.444505 -0.818990 2.245318 0.034042 -0.018178 102743.000000 0 0 1
23.330878 -24.818264 -28.413799 44.357863 -0.816280 2.266021 0.051178 -0.025985 618972.000000 0 0 1
22.210878 -24.986864 -27.543769 43.316575 -0.844147 2.259933 0.049919 -0.021610 209084.000000 0 0 1
21.193678 -23.778664 -27.455179 42.052154 -0.842814 2.282182 0.049879 -0.021791 407727.000000 0 0 1
20.764878 -23.298864 -28.710879 42.406742 -0.842842 2.314524 0.062694 -0.023790 452153.000000 0 0 1
20.232578 -21.945264 -28.591339 41.332995 -0.825982 2.334680 0.045877 -0.010262 -244272.000000 0 0 1
19.245278 -21.347764 -29.587819 41.249809 -0.837146 2.370693 0.054855 -0.019224 -187645.000000 0 0 1
18.077378 -22.136564 -29.561099 41.117850 -0.885997 2.373067 0.063606 -0.024925 355124.000000 0 0 1
16.920778 -21.452464 -30.057359 40.619770 -0.902949 2.403820 0.056046 -0.024422 362970.000000 0 0 1
15.650078 -22.319364 -29.946139 40.495063 -0.959273 2.403125 0.053905 -0.025466 -260827.000000 0 0 1
15.747778 -23.556464 -30.608269 41.710498 -0.981517 2.394734 0.064252 -0.022629 -281257.000000 0 0 1
14.942878 -24.498364 -30.005499 41.518543 -1.023090 2.378499 0.072438 -0.020748 -250551.000000 0 0 1
15.063978 -25.880364 -30.700139 42.886072 -1.043671 2.368642 0.095198 -0.020479 628036.000000 0 0 1
14.113978 -26.766764 -30.091639 42.675177 -1.085552 2.353406 0.104997 -0.020387 393796.000000 0 0 1
14.277278 -27.999364 -30.714749 43.945430 -1.099249 2.344696 0.172662 -0.025663 293651.000000 0 0 1
13.497578 -29.058564 -29.884589 43.814077 -1.135953 2.321396 0.154877 -0.032503 181459.000000 0 0 1
14.073178 -29.430264 -28.627019 43.401624 -1.124751 2.291062 0.175151 -0.042293 -109429.000000 0 0 1
14.148278 -28.415764 -27.591499 42.058533 -1.108828 2.286338 0.142036 -0.032290 365812.000000 0 0 1
15.303378 -28.636764 -26.561889 41.949869 -1.080012 2.256453 0.103471 -0.021693 303457.000000 0 0 1
14.996678 -29.735864 -25.670569 42.048782 -1.103691 2.227482 0.112624 -0.024900 295296.000000 0 0 1
15.775678 -29.702664 -24.473729 41.594274 -1.082564 2.199865 0.104168 -0.032617 -702532.000000 0 0 1
15.416878 -28.612864 -23.427529 40.065262 -1.076585 2.195349 0.086447 -0.024763 1125100.000000 0 0 1
14.202478 -28.775164 -22.651929 39.278879 -1.112308 2.185474 0.080301 -0.022448 1231130.000000 0 0 1
13.005178 -28.617264 -23.405029 39.190277 -1.144246 2.210821 0.076483 -0.015838 -1033180.000000 0 0 1
11.786978 -28.275364 -22.596229 38.065977 -1.175837 2.206330 0.041218 -0.005666 -761822.000000 0 0 1
11.723778 -26.960664 -22.205529 36.843044 -1.160614 2.217684 0.027247 -0.010475 -433854.000000 0 0 1
10.584278 -26.701164 -21.461329 35.854814 -1.193399 2.212501 0.027476 -0.010691 -1099190.000000 0 0 1
10.343678 -25.207364 -21.261029 34.560587 -1.181405 2.233412 0.028836 -0.010865 -57784.200000 0 0 1
10.974078 -24.587164 -20.142329 33.625473 -1.150996 2.213073 0.015140 -0.010469 330531.000000 0 0 1
10.657878 -23.223464 -20.212429 32.580085 -1.140543 2.240039 0.018699 -0.014327 -364237.000000 0 0 1
11.026878 -22.622864 -18.859229 31.449269 -1.117262 2.213887 0.009241 -0.010176 264818.000000 0 0 1
10.138678 -23.004364 -17.804429 30.805701 -1.155679 2.187022 0.015442 -0.015570 279514.000000 0 0 1
10.216878 -22.136664 -16.701129 29.552397 -1.138390 2.171395 0.012941 -0.014341 -78361.300000 0 0 1
9.464678 -22.436364 -15.386229 28.804628 -1.171601 2.134308 0.004691 -0.007100 -18790.700000 0 0 1
9.802078 -23.761564 -14.907529 29.714089 -1.179545 2.096358 0.006767 -0.009035 -13903.600000 0 0 1
9.175278 -24.192564 -13.723829 29.288382 -1.208296 2.058474 0.005533 -0.007290 -304385.000000 0 0 1
9.320678 -25.749864 -13.472329 30.519406 -1.223498 2.027993 0.027499 -0.018513 67288.500000 0 0 1
10.630878 -26.209964 -13.204829 31.214504 -1.185468 2.007589 0.035010 -0.021421 2112.100000 0 0 1
10.704178 -27.599764 -13.411829 32.499285 -1.200820 1.996191 0.039377 -0.024049 -466612.000000 0 0 1
11.985478 -28.216664 -12.750029 33.202335 -1.169124 1.964932 0.054498 -0.029880 1392890.000000 0 0 1
13.288178 -27.780964 -13.181029 33.497718 -1.124643 1.975221 0.052313 -0.022962 774519.000000 0 0 1
13.510778 -27.901764 -14.565029 34.251855 -1.119847 2.010016 0.057462 -0.024788 -1671270.000000 0 0 1
14.876478 -27.408764 -15.046529 34.625828 -1.073526 2.020331 0.043972 -0.019069 929653.000000 0 0 1
15.983378 -28.224164 -14.538829 35.545032 -1.055524 1.992182 0.070141 -0.020070 1334970.000000 0 0 1
17.248578 -27.853464 -15.073329 36.062919 -1.016334 2.002009 0.089079 -0.026873 681323.000000 0 0 1
18.460578 -28.761464 -14.788229 37.238508 -1.000171 1.979175 0.078355 -0.022261 258946.000000 0 0 1
18.528778 -29.987964 -15.548529 38.527267 -1.017338 1.986214 0.057550 -0.016128 -7938.970000 0 0 1
19.870378 -30.233064 -15.943329 39.535551 -0.989348 1.985879 0.059568 -0.013101 413116.000000 0 0 1
20.028478 -31.386564 -16.951829 40.909911 -1.002816 1.998046 0.055664 -0.013367 -89199.500000 0 0 1
20.041178 -32.717164 -16.439629 41.741143 -1.021194 1.975610 0.036492 0.001513 54820.600000 0 0 1
20.326078 -33.643964 -17.484929 43.020791 -1.027329 1.989339 0.030820 0.004698 103645.000000 0 0 1
20.223178 33.139177 -16.982029 42.374182 1.022874 1.983146 0.019293 0.003313 -387481.000000 0 0 1
21.384278 32.775677 -16.312129 42.398325 0.992705 1.965717 0.024746 0.002568 -205526.000000 0 0 1
21.186478 31.444277 -15.823629 41.085237 0.977886 1.966157 0.027859 -0.008188 -254828.000000 0 0 1
22.106778 31.021777 -14.667129 40.818929 0.951650 1.938337 0.017783 -0.011161 -957242.000000 0 0 1
23.379878 30.744677 -15.159729 41.493027 0.920639 1.944812 0.025517 -0.004098 -235862.000000 0 0 1
24.310578 30.248777 -14.184229 41.318096 0.893811 1.921217 0.030081 -0.012053 57830.900000 0 0 1
23.978578 28.879277 -13.478829 39.883125 0.877849 1.915543 0.020677 0.001119 -1234710.000000 0 0 1
23.998978 27.636677 -14.267229 39.284739 0.855731 1.942469 0.026720 0.012713 89227.100000 0 0 1
23.592278 26.517077 -13.408329 37.941195 0.843700 1.931997 0.016732 0.009994 -626469.000000 0 0 1
22.128978 26.524677 -13.014629 36.913829 0.875500 1.931110 0.020608 -0.001138 -2327490.000000 0 0 1
21.278478 26.181477 -14.027329 36.537780 0.888341 1.964827 0.028217 -0.010797 261536.000000 0 0 1
19.879278 26.398177 -13.757629 35.795556 0.925343 1.965288 0.054530 -0.017498 837322.000000 0 0 1
19.511278 27.907977 -13.947529 36.797809 0.960655 1.959546 0.062275 -0.015208 -902769.000000 0 0 1
19.451378 28.474177 -15.266929 37.712253 0.971487 1.987586 0.056361 -0.014945 851986.000000 0 0 1
18.402278 27.900077 -16.104629 37.100097 0.987717 2.019820 0.044649 -0.003994 449171.000000 0 0 1
18.407578 28.529477 -17.549929 38.220021 0.997794 2.047870 0.030341 0.000797 128691.000000 0 0 1
17.736878 29.792977 -17.559829 38.866000 1.033812 2.039583 0.030139 -0.003326 -73359.400000 0 0 1
18.061678 30.599077 -18.659029 40.133366 1.037563 2.054347 0.022333 0.005679 -479407.000000 0 0 1
17.140978 31.731977 -19.093229 40.807878 1.075524 2.057688 0.016363 0.007490 -299275.000000 0 0 1
17.114778 32.791877 -18.197129 41.223274 1.089766 2.027986 0.013045 0.000471 669593.000000 0 0 1
15.960378 33.623377 -18.407229 41.522178 1.127608 2.030085 0.016340 -0.008060 571088.000000 0 0 1
16.099778 -33.334064 -17.511129 40.951218 -1.120855 2.012643 0.025315 -0.005107 -158178.000000 0 0 1
15.024878 -32.469964 -17.735029 39.932152 -1.137405 2.030998 0.016764 -0.006191 -255820.000000 0 0 1
14.873578 -31.451464 -16.824629 38.645647 -1.129058 2.021230 0.034424 -0.012139 334613.000000 0 0 1
13.672378 -30.512764 -17.139929 37.573126 -1.149534 2.044489 0.039763 -0.019133 859092.000000 0 0 1
12.370478 -31.093164 -17.057329 37.560165 -1.192143 2.042196 0.032946 -0.019858 1168850.000000 0 0 1
11.330378 -30.086764 -16.944529 36.341545 -1.210632 2.055852 0.019583 -0.011941 1486110.000000 0 0 1
9.884678 -30.546464 -17.330729 36.484894 -1.257836 2.065773 0.039337 -0.017073 166741.000000 0 0 1
9.260278 -31.537764 -16.496229 36.776471 -1.285198 2.035943 0.055522 -0.022027 1341420.000000 0 0 1
8.241378 -32.405164 -17.109629 37.560010 -1.321753 2.043761 0.077565 -0.012940 1862060.000000 0 0 1
6.963078 -31.733464 -17.784329 37.037542 -1.354796 2.071645 0.067389 -0.008095 114626.000000 0 0 1
7.060178 -30.970664 -18.996529 37.012109 -1.346663 2.109766 0.049601 -0.004365 -80693.500000 0 0 1
7.095378 -31.766164 -20.147229 38.279817 -1.351041 2.125057 0.044712 -0.013914 -1183570.000000 0 0 1
7.312878 -31.030264 -21.489529 38.446785 -1.339350 2.163906 0.040818 -0.007152 325020.000000 0 0 1
8.619178 -30.711664 -21.958929 38.725845 -1.297186 2.173699 0.037598 -0.011222 803465.000000 0 0 1
9.648578 -31.705364 -21.940429 39.745535 -1.275381 2.155584 0.045180 -0.012828 -296339.000000 0 0 1
9.589378 -32.967964 -22.897129 41.268890 -1.287737 2.158952 0.064838 -0.026626 -521040.000000 0 0 1
8.394778 -33.700864 -22.725429 41.505007 -1.326668 2.150211 0.061665 -0.037045 -13783.400000 0 0 1
8.128678 33.559677 -23.740929 41.904165 1.333157 2.173113 0.072801 -0.041500 -185841.000000 0 0 1
6.994678 32.513077 -23.485329 40.713467 1.358892 2.185656 0.074137 -0.043710 155728.000000 0 0 1
5.696578 33.050677 -23.533729 40.971144 1.400114 2.182664 0.072705 -0.044617 -159980.000000 0 0 1
5.306378 33.594877 -22.270829 40.654191 1.414139 2.150542 0.055199 -0.029460 -1472300.000000 0 0 1
3.988278 -33.908364 -22.326429 40.794030 -1.453715 2.149927 0.061193 -0.023347 -801893.000000 0 0 1
2.851778 33.466077 -22.428729 40.387608 1.485788 2.159564 0.068684 -0.026718 -2758.800000 0 0 1
1.742078 -33.921964 -22.664729 40.834108 -1.519486 2.159212 0.058226 -0.023023 363275.000000 0 0 1
0.343278 33.653777 -22.334229 40.391984 1.560596 2.156682 0.056855 -0.027148 717424.000000 0 0 1
0.035978 33.678177 -20.915629 39.644476 1.569728 2.126546 0.048363 -0.020360 -125205.000000 0 0 1
-1.007822 32.820077 -20.510429 38.714995 -1.540098 2.129137 0.042052 -0.025306 -22149.900000 0 0 1
-1.286922 32.855777 -18.984129 37.967821 -1.531648 2.094402 0.047322 -0.014022 593764.000000 0 0 1
-0.395922 32.120677 -18.084029 36.863624 -1.558471 2.083535 0.062865 -0.040985 107145.000000 0 0 1
-0.905222 32.160077 -16.783029 36.287189 -1.542656 2.051615 0.037661 -0.032978 158046.000000 0 0 1
-0.213422 31.286377 -15.682229 34.997361 -1.563975 2.035432 0.023619 -0.035539 634632.000000 0 0 1
0.897978 31.885877 -15.021029 35.258288 1.542642 2.010895 0.035054 -0.024353 78019.100000 0 0 1
1.627678 30.965877 -14.237729 34.121076 1.518281 2.001236 0.057254 -0.013319 -39102.200000 0 0 1
2.833678 31.567777 -13.509529 34.453761 1.481271 1.973716 0.066044 -0.025913 -59408.600000 0 0 1
3.826178 32.194177 -14.320529 35.442661 1.452504 1.986734 0.060711 -0.030059 181535.000000 0 0 1
4.670578 33.043777 -13.600429 36.037164 1.430381 1.957783 0.068993 -0.040570 1350160.000000 0 0 1
6.057178 33.522177 -14.259529 36.929121 1.392034 1.967231 0.085187 -0.055294 1702670.000000 0 0 1
6.977078 32.451677 -14.278129 36.133861 1.359021 1.977022 0.076540 -0.035104 -718582.000000 0 0 1
8.147278 32.696777 -14.979829 36.876180 1.326593 1.989109 0.071526 -0.021971 -249380.000000 0 0 1
9.107378 31.529477 -15.218229 36.175223 1.289597 2.004992 0.050185 -0.023304 46035.400000 0 0 1
9.838378 31.142877 -14.073629 35.563176 1.264807 1.977665 0.054988 -0.032815 59442.100000 0 0 1
10.736078 30.053477 -14.267729 34.957731 1.227693 1.991215 0.065870 -0.027796 430723.000000 0 0 1
10.048678 28.685877 -14.118629 33.514044 1.233854 2.005647 0.055196 -0.021450 43120.500000 0 0 1
9.212978 28.240477 -15.173429 33.356206 1.255450 2.043046 0.048407 -0.027846 514396.000000 0 0 1
8.266478 27.235377 -14.766529 32.064791 1.276113 2.049379 0.039272 -0.019873 293775.000000 0 0 1
7.540378 26.597477 -15.972729 31.928219 1.294545 2.094707 0.036399 -0.004923 145624.000000 0 0 1
8.371278 25.737577 -16.741129 31.823994 1.256334 2.124750 0.042586 -0.001678 -82032.500000 0 0 1
7.631478 24.767477 -17.456629 31.247420 1.271902 2.163563 0.043369 0.001867 110748.000000 0 0 1
8.504978 23.981077 -18.462129 31.436872 1.229982 2.198486 0.051244 0.001018 148847.000000 0 0 1
7.841978 23.073777 -19.300429 31.087013 1.243178 2.240625 0.061823 -0.006880 917239.000000 0 0 1
8.896278 22.264177 -19.927029 31.175693 1.190654 2.264234 0.053473 -0.007441 1127860.000000 0 0 1
8.308278 21.203177 -20.948429 30.942509 1.197343 2.314490 0.058176 -0.017434 338519.000000 0 0 1
7.497178 20.166077 -20.421529 29.663398 1.214859 2.330135 0.061513 -0.011041 74989.600000 0 0 1
7.146678 19.287377 -21.431729 29.705167 1.215945 2.376736 0.060942 -0.008588 23455.100000 0 0 1
25.236478 -12.223123 -9.712629 29.675237 -0.451044 1.904238 0.066076 -0.014249 -239947.000000 0 0 1
25.828478 -11.767723 -8.539329 29.639665 -0.427510 1.863043 0.084143 -0.020950 326144.000000 0 0 1
25.014478 -12.073123 -7.436529 28.753893 -0.449668 1.832397 0.093173 -0.016921 -389917.000000 0 0 1
25.659578 -11.587423 -6.102529 28.808387 -0.424169 1.784245 0.087110 -0.017378 -179859.000000 0 0 1
25.721178 -10.205723 -5.800729 28.273384 -0.377730 1.777429 0.097677 -0.022427 693263.000000 0 0 1
26.534778 -9.478023 -6.727429 28.968701 -0.343068 1.805167 0.076164 -0.024724 -789820.000000 0 0 1
26.864178 -8.002923 -6.345629 28.740178 -0.289532 1.793424 0.114899 -0.028399 -49689.100000 0 0 1
27.566578 -7.772523 -5.103029 29.092426 -0.274820 1.747116 0.117418 -0.039115 45552.800000 0 0 1
28.927478 -8.050423 -5.224029 30.477841 -0.271429 1.743051 0.099967 -0.038493 -923536.000000 0 0 1
29.627978 -8.007923 -3.838029 30.930153 -0.263975 1.695204 0.107999 -0.048726 -222006.000000 0 0 1
29.683478 -6.754823 -3.197029 30.609761 -0.223751 1.675432 0.103593 -0.033478 239535.000000 0 0 1
30.469678 -6.833723 -2.040729 31.293220 -0.220629 1.636056 0.105062 -0.031301 -392526.000000 0 0 1
30.761778 -5.418123 -1.570829 31.274759 -0.174343 1.621044 0.094544 -0.040403 -521729.000000 0 0 1
29.637578 -4.701123 -1.122929 30.029112 -0.157310 1.608200 0.113280 -0.034924 -229745.000000 0 0 1
29.897478 -3.375823 -0.680329 30.095153 -0.112437 1.593404 0.096666 -0.021113 -265961.000000 0 0 1
30.640078 -3.206823 0.647171 30.814233 -0.104281 1.549792 0.093517 -0.030882 -287375.000000 0 0 1
29.824178 -3.436323 1.778771 30.074141 -0.114714 1.511616 0.111079 -0.041237 308598.000000 0 0 1
30.377678 -2.926123 2.976171 30.663058 -0.096028 1.473583 0.082790 -0.029684 -250249.000000 0 0 1
29.808178 -3.604923 4.220271 30.320515 -0.120353 1.431154 0.091340 -0.031748 -267531.000000 0 0 1
30.229178 -4.933623 4.211171 30.917274 -0.161781 1.434164 0.087106 -0.033371 163893.000000 0 0 1
29.987678 -5.681123 5.366871 30.989342 -0.187230 1.396734 0.083245 -0.033206 186857.000000 0 0 1
30.716378 -7.082323 5.191171 31.946885 -0.226611 1.407579 0.063833 -0.028048 945832.000000 0 0 1
32.139078 -6.979923 5.198271 33.296572 -0.213858 1.414035 0.070845 -0.033003 438356.000000 0 0 1
32.778878 -8.272723 5.160871 34.198354 -0.247217 1.419308 0.079348 -0.025564 566582.000000 0 0 1
34.298578 -8.197123 5.489171 35.689162 -0.234593 1.416378 0.095912 -0.024899 387064.000000 0 0 1
35.001178 -7.680923 4.376071 36.100264 -0.216023 1.449278 0.096243 -0.029124 -1009840.000000 0 0 1
36.362478 -7.596223 4.607971 37.432149 -0.205941 1.447381 0.114936 -0.031387 -557576.000000 0 0 1
-35.791260 -7.256023 3.354471 36.673105 0.200021 1.479199 0.100423 -0.025444 -16664.600000 0 0 1
-35.657160 -8.398023 2.576971 36.723298 0.231306 1.500566 0.120308 -0.031565 -325278.000000 0 0 1
-34.613760 -8.147423 1.701171 35.600377 0.231173 1.522993 0.122056 -0.031351 -516053.000000 0 0 1
-34.181760 -9.367323 0.861871 35.452535 0.267478 1.546483 0.112077 -0.027415 -94801.900000 0 0 1
-33.692960 -10.323523 1.791571 35.284563 0.297318 1.520000 0.115719 -0.028215 244144.000000 0 0 1
-33.348560 -11.457123 1.029771 35.276798 0.330923 1.541601 0.118329 -0.032396 -452411.000000 0 0 1
-33.054860 -12.766223 1.818671 35.481090 0.368565 1.519516 0.086224 -0.033601 263887.000000 0 0 1
-31.827960 -12.815123 2.522471 34.403622 0.382778 1.497411 0.087961 -0.030546 30718.200000 0 0 1
-30.771760 -13.307123 1.750471 33.571489 0.408160 1.518631 0.091096 -0.012046 -290090.000000 0 0 1
-29.488560 -13.687923 2.566371 32.611664 0.434581 1.492020 0.086994 -0.016504 408560.000000 0 0 1
-28.781360 -12.515323 2.934071 31.521560 0.410177 1.477580 0.079057 -0.029683 -1243410.000000 0 0 1
-27.459660 -12.816723 3.101371 30.461776 0.436693 1.468808 0.069832 -0.020776 -1198700.000000 0 0 1
-26.714460 -11.706123 3.924371 29.429515 0.412993 1.437050 0.077000 -0.026125 187609.000000 0 0 1
-25.338460 -11.986923 4.119871 28.331911 0.441874 1.424864 0.067776 -0.014833 453483.000000 0 0 1
-24.828360 -11.099223 5.122671 27.674572 0.420388 1.384619 0.064153 -0.012748 -11146.000000 0 0 1
-23.447260 -11.524723 5.666471 26.733913 0.456838 1.357218 0.066105 0.001746 -210351.000000 0 0 1
-23.350960 -12.678023 6.460071 27.344690 0.497402 1.332296 0.074499 -0.005833 690362.000000 0 0 1
-22.008860 -12.862623 6.942371 26.420323 0.528892 1.304908 0.070667 0.002659 732107.000000 0 0 1
-21.679460 -12.138423 8.308371 26.198651 0.510415 1.248095 0.083941 -0.004214 -550757.000000 0 0 1
-21.573760 -10.705923 8.168871 25.431758 0.460641 1.243792 0.079395 -0.001312 776634.000000 0 0 1
-22.624860 -9.860423 8.688971 26.165061 0.411002 1.232285 0.074390 -0.008032 -231955.000000 0 0 1
-22.832260 -9.730123 10.228371 26.844123 0.402850 1.179888 0.084447 -0.006469 345484.000000 0 0 1
-23.469360 -10.856623 10.943771 28.079231 0.433272 1.170440 0.074731 -0.011886 864345.000000 0 0 1
-24.703860 -11.380023 10.475771 29.146653 0.431681 1.203154 0.078085 -0.009636 499437.000000 0 0 1
-25.945760 -10.916723 11.332271 30.344318 0.398267 1.188064 0.086641 -0.016683 304156.000000 0 0 1
-26.081960 -11.513923 12.628971 31.182206 0.415722 1.153811 0.088183 -0.017586 -55355.700000 0 0 1
-27.301360 -11.203123 13.254171 32.350382 0.389397 1.148664 0.092588 -0.026433 -137502.000000 0 0 1
-27.431160 -12.016523 14.608871 33.320931 0.412881 1.116946 0.090466 -0.023854 -65303.800000 0 0 1
-27.693960 -13.364823 14.407071 33.957880 0.449623 1.132648 0.068591 -0.023253 275600.000000 0 0 1
-27.246160 -14.183823 15.491071 34.402141 0.479976 1.103702 0.058807 -0.012812 -315066.000000 0 0 1
-27.078660 -15.694123 15.268971 34.823854 0.525266 1.116909 0.052609 -0.011600 -536118.000000 0 0 1
-28.142160 -16.476523 15.678371 36.183812 0.529671 1.122647 0.040463 -0.007310 -636017.000000 0 0 1
-27.780160 -17.833723 15.669571 36.541954 0.570702 1.127621 0.029948 -0.006394 -336298.000000 0 0 1
-28.794260 -18.814423 16.285171 38.056520 0.578768 1.128605 0.011535 0.003692 -194001.000000 0 0 1
-28.931460 -18.663623 17.684071 38.705123 0.572921 1.096298 0.022349 0.007389 -206487.000000 0 0 1
-29.370460 -19.853423 18.389171 39.936749 0.594413 1.092286 0.025235 0.010439 -209138.000000 0 0 1
-28.427560 -21.064923 18.614071 39.979254 0.637718 1.086491 0.012403 0.005349 -144802.000000 0 0 1
-27.350460 -20.747923 19.464671 39.463874 0.648979 1.055000 0.017704 0.008328 78535.200000 0 0 1
-26.371060 -21.778123 19.458371 39.349049 0.690296 1.053529 0.022525 0.002365 339498.000000 0 0 1
-25.053260 -21.490923 20.231371 38.714777 0.709010 1.020928 0.026998 0.004923 261701.000000 0 0 1
-24.139860 -20.823523 19.395871 37.316910 0.711775 1.024225 0.040098 0.000906 209165.000000 0 0 1
-22.841960 -20.780323 19.998771 36.790322 0.738172 0.996091 0.050668 -0.001064 742382.000000 0 0 1
-21.676360 -20.643123 18.992171 35.450044 0.760988 1.005407 0.049821 -0.014279 -157136.000000 0 0 1
-21.554860 -21.808523 18.176371 35.645534 0.791248 1.035705 0.044529 -0.012911 120745.000000 0 0 1
-20.472260 -21.666723 17.286571 34.458465 0.813736 1.045275 0.052048 -0.015905 -24874.300000 0 0 1
-20.372760 -22.767223 16.223271 34.591766 0.840846 1.082647 0.044019 -0.009741 -474194.000000 0 0 1
-20.333760 -24.146723 16.646671 35.688060 0.870911 1.085524 0.050649 -0.016107 410818.000000 0 0 1
-19.168060 -24.605023 17.334271 35.683310 0.908973 1.063540 0.068589 -0.022813 -333351.000000 0 0 1
-17.899460 -24.779523 16.516071 34.744726 0.945228 1.075429 0.073081 -0.027374 -649543.000000 0 0 1
-17.214560 -23.534823 16.391571 33.450150 0.939273 1.058672 0.077363 -0.029691 543816.000000 0 0 1
-16.010560 -23.761223 15.624971 32.635463 0.977864 1.071540 0.080734 -0.024516 1050530.000000 0 0 1
-15.055160 -22.513023 15.512071 31.210869 0.981366 1.050648 0.073839 -0.018793 531664.000000 0 0 1
-15.630960 -21.423323 14.734271 30.337838 0.940464 1.063663 0.079163 -0.016216 14604.800000 0 0 1
-16.488760 -20.522423 15.436671 30.517861 0.893955 1.040459 0.063682 -0.012620 -186755.000000 0 0 1
-15.964760 -19.541423 16.475671 30.136166 0.885793 0.992369 0.073249 -0.023746 -534081.000000 0 0 1
-15.490360 -18.344423 15.830571 28.758930 0.869552 0.987884 0.066483 -0.020886 -40562.500000 0 0 1
-15.146460 -17.268323 16.705571 28.402224 0.850765 0.941992 0.057325 -0.017794 -383094.000000 0 0 1
-14.386860 -16.149723 15.925671 26.859305 0.843064 0.936104 0.053108 -0.013119 502675.000000 0 0 1
-15.129460 -15.635323 14.771771 26.297701 0.801840 0.974341 0.048628 -0.013908 474794.000000 0 0 1
-15.093660 -16.373623 13.568571 26.077197 0.826052 1.023567 0.046590 -0.017133 128234.000000 0 0 1
-15.981960 -15.555323 12.569871 25.600640 0.771871 1.057561 0.044366 -0.013500 1199940.000000 0 0 1
-17.399260 -15.600523 12.852571 26.670192 0.730945 1.067966 0.046726 -0.014633 1029390.000000 0 0 1
-18.103660 -14.762023 11.961071 26.243609 0.684071 1.097558 0.056353 -0.015664 -137204.000000 0 0 1
-19.645060 -14.738023 12.219971 27.431102 0.643639 1.109087 0.073314 -0.016141 645589.000000 0 0 1
-20.399660 -15.798023 11.643371 28.307097 0.658951 1.146891 0.089679 -0.022703 273222.000000 0 0 1
-20.548960 -15.740923 10.286971 27.854231 0.653676 1.192525 0.096390 -0.017726 -175974.000000 0 0 1
-21.494360 -16.899323 9.707871 29.014434 0.666283 1.229629 0.096270 -0.011801 512937.000000 0 0 1
-20.929460 -18.196923 9.612671 29.352576 0.715673 1.237151 0.094100 -0.001656 -154829.000000 0 0 1
-21.766960 -19.126323 8.986271 30.337597 0.720914 1.270075 0.084975 -0.008137 -19901.000000 0 0 1
-21.090860 -20.495723 9.146671 30.798711 0.771088 1.269266 0.088340 -0.006451 -186973.000000 0 0 1
-19.975760 -20.676223 8.352871 29.938397 0.802627 1.288042 0.101403 -0.006357 -900350.000000 0 0 1
-19.484460 -21.956823 8.553571 30.576295 0.844987 1.287268 0.099888 -0.018965 137062.000000 0 0 1
-18.251760 -22.423723 7.727171 29.927567 0.887608 1.309642 0.095145 -0.018101 711329.000000 0 0 1
-17.050560 -21.805123 8.163271 28.858689 0.907158 1.284011 0.073732 -0.021615 -91937.300000 0 0 1
-15.866060 -22.358123 7.659671 28.465559 0.953635 1.298353 0.087996 -0.011906 -485129.000000 0 0 1
-14.589160 -21.832323 8.274571 27.531117 0.981708 1.265523 0.027869 -0.011449 -319280.000000 0 0 1
-13.424160 -22.414123 7.726171 27.245085 1.031175 1.283271 0.047776 -0.006155 706744.000000 0 0 1
-12.201560 -21.939023 8.326971 26.448766 1.063238 1.250515 0.046912 -0.015511 1531610.000000 0 0 1
-10.887760 -22.437323 7.649171 26.086138 1.119016 1.273195 0.047209 -0.017381 472802.000000 0 0 1
-10.804260 -23.849323 7.725871 27.298559 1.145432 1.283861 0.045018 -0.014299 -957577.000000 0 0 1
-9.620860 -24.278123 7.140671 27.073555 1.193504 1.303888 0.055240 -0.019050 -330719.000000 0 0 1
-9.359360 -25.830573 7.021871 28.357059 1.223174 1.320570 0.054512 -0.022187 -169309.000000 0 0 1
-10.225760 -26.486163 6.108471 29.041288 1.202348 1.358876 0.049783 -0.024464 -252251.000000 0 0 1
-10.291060 -27.892353 6.125771 30.354807 1.217335 1.367595 0.060227 -0.016303 732271.000000 0 0 1
-9.044360 -28.640383 5.495471 30.533132 1.264917 1.389826 0.057740 -0.016338 380725.000000 0 0 1
-7.825960 -28.191243 6.046971 29.875704 1.300012 1.366984 0.053308 -0.019458 178509.000000 0 0 1
-6.610960 -28.857073 5.668371 30.142426 1.345589 1.381617 0.053452 -0.015520 1110990.000000 0 0 1
-6.534960 -30.338373 6.227571 31.652886 1.358636 1.372759 0.060842 -0.017160 -622604.000000 0 0 1
-6.603960 -30.356303 7.627371 31.988970 1.356586 1.330040 0.057606 -0.014648 90434.000000 0 0 1
-6.659960 -31.647283 8.214171 33.367322 1.363380 1.322065 0.083552 -0.021763 -266554.000000 0 0 1
-7.045960 -31.694573 9.717571 33.891336 1.352046 1.279987 0.067531 -0.016398 -305547.000000 0 0 1
-6.036960 -31.318813 10.615871 33.615616 1.380374 1.249495 0.055666 -0.006409 197948.000000 0 0 1
-6.449960 -31.604133 11.949871 34.398003 1.369475 1.215999 0.052476 -0.010923 55383.700000 0 0 1
-5.509960 -30.757313 12.836371 33.780828 1.393534 1.181011 0.042414 -0.010972 165988.000000 0 0 1
-5.770960 -29.355343 12.696771 32.499971 1.376682 1.169437 0.045485 -0.008766 425887.000000 0 0 1
-4.880960 -28.462203 13.393371 31.832423 1.400959 1.136529 0.026568 -0.012574 -6324.710000 0 0 1
-5.549960 -27.821393 14.639871 31.924251 1.373896 1.094398 0.042132 -0.013219 -34754.600000 0 0 1
-6.024960 -28.780383 15.602471 33.287350 1.364434 1.082954 0.049916 -0.015550 86168.100000 0 0 1
-5.041960 -29.325983 16.436871 33.994196 1.400533 1.066125 0.030415 -0.009990 -178094.000000 0 0 1
-5.536960 -30.670893 17.014171 35.508360 1.392192 1.071099 0.038635 -0.008857 143921.000000 0 0 1
-5.538960 -31.581393 15.920271 35.798317 1.397175 1.109933 0.033636 -0.007937 152781.000000 0 0 1
-6.091960 -32.810223 16.335371 37.154637 1.387214 1.115577 0.034207 -0.007226 -5138.350000 0 0 1
-5.589960 -34.040283 15.539971 37.834894 1.408033 1.147540 0.029900 -0.011127 -218566.000000 0 0 1
-6.122960 33.989894 14.265071 37.367041 -1.392567 1.179101 0.040977 -0.019749 -42548.100000 0 0 1
-5.476960 32.948050 13.570971 36.051939 -1.406072 1.184858 0.044816 -0.020715 -175231.000000 0 0 1
-4.217960 33.316196 12.793271 35.936442 -1.444862 1.206815 0.061811 -0.029432 -382657.000000 0 0 1
-4.558960 33.736284 11.503571 35.934010 -1.436475 1.244929 0.065059 -0.027608 407121.000000 0 0 1
-3.492960 -33.870083 10.797371 35.720673 1.468031 1.263721 0.075813 -0.033442 -147210.000000 0 0 1
-4.012960 -33.758673 9.318871 35.250435 1.452480 1.303254 0.069866 -0.032276 -870740.000000 0 0 1
-4.065960 33.323901 8.453471 34.619006 -1.449383 1.324116 0.081577 -0.042199 -61835.100000 0 0 1
-4.878960 32.209340 8.737971 33.728296 -1.420463 1.308738 0.094180 -0.043184 1068490.000000 0 0 1
-6.397960 32.555749 9.046371 34.389642 -1.376746 1.304609 0.097155 -0.033795 321934.000000 0 0 1
-7.116960 33.128363 8.028071 34.822256 -1.359183 1.338159 0.104726 -0.034247 -820124.000000 0 0 1
-8.482260 33.218590 8.363971 35.289935 -1.320792 1.331512 0.091141 -0.027739 -348132.000000 0 0 1
-9.345560 33.562625 7.196671 35.575010 -1.299224 1.367095 0.086906 -0.031586 -589710.000000 0 0 1
-9.305360 -33.309673 6.721271 35.232080 1.298382 1.378848 0.086936 -0.024851 4869.080000 0 0 1
-9.807260 -33.271613 5.402571 35.105132 1.284150 1.416285 0.073117 -0.017769 -634092.000000 0 0 1
-9.844760 -31.891403 4.722971 33.708861 1.271380 1.430223 0.065028 -0.018481 1208500.000000 0 0 1
-10.929660 -30.983963 5.137471 33.254428 1.231672 1.415685 0.069879 -0.020439 1536750.000000 0 0 1
-12.248060 -31.382883 4.716671 34.016867 1.198699 1.431691 0.065455 -0.019931 32521.900000 0 0 1
-13.292260 -30.458503 5.308671 33.653923 1.159305 1.412392 0.069070 -0.028458 -631071.000000 0 0 1
-13.383660 -30.600533 6.760371 34.076642 1.158498 1.371084 0.069335 -0.020128 643110.000000 0 0 1
-14.512860 -29.865583 7.282471 33.994272 1.118460 1.354897 0.076047 -0.025134 875954.000000 0 0 1
33.105666 -12.855923 -12.375929 37.608822 -0.370406 1.906115 0.053843 -0.020290 130865.000000 0 0 1
31.963996 -13.322523 -11.652429 36.537183 -0.394903 1.895386 0.073974 -0.018448 548657.000000 0 0 1
32.052266 -14.680123 -11.086929 36.956376 -0.429492 1.875489 0.073232 -0.026485 -1398250.000000 0 0 1
33.107276 -15.017723 -10.101929 37.731587 -0.425850 1.841834 0.069449 -0.029617 -519858.000000 0 0 1
34.412506 -14.980923 -10.642129 39.011582 -0.410591 1.847092 0.067261 -0.027994 333995.000000 0 0 1
35.408386 -15.560723 -9.799129 39.898782 -0.414058 1.818935 0.057488 -0.030634 779294.000000 0 0 1
-36.174562 -15.780823 -10.393929 40.812584 0.411353 1.828308 0.035727 -0.035117 285101.000000 0 0 1
-35.403363 -14.613623 -10.476329 39.707802 0.391471 1.837793 0.041457 -0.031299 495799.000000 0 0 1
-34.069958 -14.919823 -10.904929 38.759265 0.412761 1.855997 0.058701 -0.033313 718899.000000 0 0 1
-33.293992 -13.654823 -11.344129 37.731066 0.389207 1.876178 0.055669 -0.037427 -238895.000000 0 0 1
-33.144042 -12.757923 -10.305029 36.979531 0.367442 1.853204 0.067990 -0.030733 227720.000000 0 0 1
-32.582252 -11.564823 -10.756329 36.208381 0.341071 1.872416 0.061865 -0.026820 -348623.000000 0 0 1
-33.023522 -10.368023 -9.953229 36.015492 0.304213 1.850800 0.068968 -0.022628 -426289.000000 0 0 1
-32.508662 -10.364223 -8.663229 35.203434 0.308627 1.819441 0.067987 -0.017407 101503.000000 0 0 1
-33.167602 -9.432623 -7.812329 35.356706 0.277077 1.793592 0.071555 -0.009728 -71454.300000 0 0 1
-32.650222 -9.274623 -6.365729 34.533724 0.276770 1.756190 0.068772 -0.007856 -196778.000000 0 0 1
-31.525052 -8.395623 -6.219729 33.211450 0.260275 1.759185 0.084946 -0.017711 850329.000000 0 0 1
-30.959052 -8.376623 -4.895929 32.443810 0.264244 1.722280 0.092945 -0.019748 -87798.600000 0 0 1
-30.221632 -9.615423 -4.331229 32.008795 0.308036 1.706526 0.099506 -0.017596 -811457.000000 0 0 1
-31.065272 -10.697323 -4.064829 33.105991 0.331632 1.693889 0.099588 -0.016514 211388.000000 0 0 1
-31.042112 -10.974923 -2.671129 33.033265 0.339833 1.651746 0.090585 -0.023007 -103302.000000 0 0 1
-31.868422 -12.254823 -2.366229 34.225371 0.367112 1.639988 0.084132 -0.019173 -556760.000000 0 0 1
-33.247232 -12.088523 -2.486429 35.463970 0.348734 1.640965 0.088255 -0.027811 -107320.000000 0 0 1
-33.948542 -13.296523 -2.134229 36.521993 0.373302 1.629266 0.094690 -0.038697 173270.000000 0 0 1
-35.485093 -13.170623 -2.138729 37.910833 0.355399 1.627241 0.081651 -0.029827 44016.200000 0 0 1
-35.986660 -12.390623 -1.072029 38.075142 0.331598 1.598956 0.099026 -0.035829 1715930.000000 0 0 1
35.566556 -12.195323 -1.042229 37.613721 -0.330324 1.598509 0.111236 -0.036235 1426400.000000 0 0 1
35.172086 -11.307823 0.140671 36.945396 -0.311063 1.566989 0.109820 -0.038876 -175263.000000 0 0 1
35.234256 -11.966023 1.391771 37.236749 -0.327392 1.533411 0.130093 -0.034888 209730.000000 0 0 1
35.460506 -10.948923 2.341371 37.186132 -0.299478 1.507791 0.111073 -0.030690 73018.000000 0 0 1
36.001456 -11.315223 3.728671 37.921525 -0.304523 1.472311 0.116928 -0.036068 -149109.000000 0 0 1
34.910276 -11.766223 4.462171 37.109060 -0.325084 1.450260 0.107334 -0.035183 -201123.000000 0 0 1
35.328896 -12.448323 5.597471 37.873781 -0.338772 1.422460 0.106302 -0.033721 -437264.000000 0 0 1
34.276976 -12.617023 6.697071 37.134231 -0.352699 1.389456 0.096780 -0.035390 -240741.000000 0 0 1
33.738736 -11.353123 6.991071 36.277690 -0.324599 1.376873 0.095887 -0.030275 -62704.100000 0 0 1
33.391186 -11.105923 8.333871 36.163050 -0.321091 1.338253 0.068853 -0.015722 -262900.000000 0 0 1
32.572926 -9.801423 8.441971 35.047543 -0.292289 1.327532 0.066464 -0.027845 -499462.000000 0 0 1
31.197496 -9.942323 8.232271 33.762462 -0.308514 1.324484 0.073835 -0.022190 8610.420000 0 0 1
30.397286 -8.909423 8.814571 32.879621 -0.285114 1.299390 0.065765 -0.008508 -964545.000000 0 0 1
28.932976 -9.055823 8.542571 31.497627 -0.303334 1.296143 0.050569 -0.009007 -1285350.000000 0 0 1
28.520386 -8.780123 7.222671 30.702931 -0.298647 1.333327 0.057714 -0.013415 922849.000000 0 0 1
27.374016 -9.628023 6.914671 29.830324 -0.338207 1.336869 0.084873 -0.023681 523272.000000 0 0 1
26.538416 -9.057423 5.771571 28.629276 -0.328899 1.367808 0.105101 -0.028089 236826.000000 0 0 1
25.631316 -8.011523 6.267471 27.575896 -0.302947 1.341512 0.109387 -0.028679 655231.000000 0 0 1
24.770416 -7.563823 5.258271 26.427908 -0.296364 1.370493 0.141378 -0.033406 -492913.000000 0 0 1
25.178016 -6.347523 4.463271 26.346619 -0.246960 1.400570 0.127632 -0.029254 -195845.000000 0 0 1
26.201816 -6.639323 3.502671 27.255907 -0.248168 1.441929 0.126915 -0.025510 523614.000000 0 0 1
26.728816 -5.486623 2.958371 27.446030 -0.202458 1.462798 0.126028 -0.031225 -296131.000000 0 0 1
27.233916 -5.760023 1.549071 27.879449 -0.208430 1.515204 0.127377 -0.037960 -295389.000000 0 0 1
26.225516 -5.877223 0.569071 26.882025 -0.220461 1.549626 0.149734 -0.044044 -288621.000000 0 0 1
26.647116 -5.605123 -0.745029 27.240434 -0.207324 1.598150 0.137460 -0.046176 -564976.000000 0 0 1
25.679516 -5.845923 -1.922429 26.406592 -0.223835 1.643662 0.144728 -0.042267 -89687.000000 0 0 1
24.786116 -4.781423 -2.179129 25.336972 -0.190566 1.656909 0.160488 -0.035517 -279412.000000 0 0 1
23.999916 -5.065523 -3.284029 24.747532 -0.208011 1.703890 0.139621 -0.031382 -565481.000000 0 1 0
22.710116 -4.223323 -3.310129 23.335440 -0.183866 1.713126 0.108191 -0.031991 -424261.000000 0 1 0
22.786916 -2.798723 -3.342529 23.200191 -0.122209 1.715373 0.096584 -0.034210 43004.600000 0 1 0
23.236216 -2.219223 -4.511329 23.773909 -0.095218 1.761714 0.100820 -0.034615 128584.000000 0 1 0
22.155416 -1.233423 -5.084829 22.764869 -0.055614 1.796060 0.074804 -0.027042 528440.000000 0 1 0
22.185216 0.047277 -4.460929 22.629316 0.002131 1.769226 0.074017 -0.025023 270855.000000 0 1 0
21.237716 0.922377 -5.023729 21.843287 0.043404 1.802863 0.081229 -0.019596 -638006.000000 0 1 0
21.064616 2.211577 -4.157429 21.584562 0.104607 1.764619 0.079675 -0.012878 209179.000000 0 1 0
22.237216 3.012777 -4.202129 22.830429 0.134664 1.755910 0.102559 -0.014323 819207.000000 0 1 0
23.313816 2.666677 -3.342129 23.702637 0.113887 1.712270 0.114630 -0.017218 -183453.000000 0 1 0
24.432216 3.707777 -3.397129 24.944363 0.150609 1.707409 0.105274 -0.026241 -805763.000000 0 1 0
23.975116 4.973377 -3.063129 24.676374 0.204538 1.695249 0.086485 -0.019576 592359.000000 0 1 0
24.981816 5.985177 -2.966629 25.859512 0.235149 1.685770 0.085190 -0.023650 304107.000000 0 0 1
24.346216 7.405277 -3.145029 25.641130 0.295274 1.693762 0.056172 -0.019186 -509573.000000 0 0 1
23.613416 7.809577 -2.077029 24.957904 0.319402 1.654114 0.068602 -0.022616 555769.000000 0 1 0
22.604916 8.776477 -2.488429 24.376239 0.370341 1.673059 0.068056 -0.014890 252709.000000 0 1 0
21.554716 9.025777 -1.405029 23.410351 0.396555 1.630850 0.058650 -0.011229 -386809.000000 0 1 0
22.053516 9.785777 -0.348529 24.129660 0.417626 1.585241 0.039901 -0.004962 494684.000000 0 1 0
21.014716 9.953677 0.591471 23.260349 0.442349 1.545365 0.040438 -0.005625 137717.000000 0 1 0
21.477916 10.420977 2.063571 23.961552 0.451734 1.484569 0.054772 -0.006986 -245508.000000 0 1 0
22.365616 11.514377 2.150771 25.247326 0.475437 1.485505 0.071233 -0.015234 352407.000000 0 0 1
21.938016 12.768277 1.642571 25.436263 0.527091 1.506175 0.080212 -0.006371 -565768.000000 0 0 1
20.883116 13.539077 2.479771 25.011206 0.575198 1.471487 0.072501 0.001191 1462550.000000 0 0 1
19.567616 12.874577 2.280371 23.533942 0.581946 1.473747 0.084861 -0.001658 1892950.000000 0 1 0
18.485816 13.510377 2.948971 23.085756 0.631133 1.442706 0.070118 -0.009682 33039.000000 0 1 0
18.420016 13.661777 4.448771 23.360923 0.638156 1.379190 0.051297 -0.005588 -772750.000000 0 1 0
17.981316 12.479477 5.077971 22.468887 0.606704 1.342827 0.036342 -0.005285 269959.000000 0 1 0
18.241416 12.401377 6.449271 22.981221 0.597072 1.286344 0.048166 -0.019817 -142546.000000 0 1 0
18.338716 10.919977 7.086671 22.489449 0.537075 1.250223 0.028668 -0.023156 -497619.000000 0 1 0
19.276116 10.098377 6.476971 22.704560 0.482569 1.281506 0.011479 -0.029653 -78719.600000 0 1 0
19.511016 8.947677 7.220571 22.646795 0.429979 1.246297 0.038332 -0.025281 -225623.000000 0 1 0
20.478016 8.009377 6.498271 22.928733 0.372829 1.283447 0.038320 -0.019251 -292262.000000 0 1 0
20.039716 7.705177 5.210071 22.093094 0.367069 1.332730 0.026182 -0.020513 677326.000000 0 1 0
20.918916 6.782777 4.595871 22.466178 0.313546 1.364774 0.028073 -0.025940 -211689.000000 0 1 0
20.640816 6.622377 3.075471 21.894239 0.310464 1.429861 0.042179 -0.019751 -351846.000000 0 1 0
21.572816 5.885977 2.313471 22.480731 0.266359 1.467705 0.036188 -0.023717 232075.000000 0 1 0
21.357816 5.848477 0.945171 22.164258 0.267281 1.528139 0.047451 -0.014152 110862.000000 0 1 0
22.498016 4.987077 0.344471 23.046699 0.218140 1.555849 0.070747 -0.025319 334587.000000 0 1 0
22.376216 3.658777 0.734671 22.685269 0.162078 1.538405 0.071488 -0.022712 1175990.000000 0 1 0
23.590316 2.939477 0.437871 23.776780 0.123966 1.552379 0.088327 -0.025353 775004.000000 0 1 0
23.371116 1.392277 0.462671 23.417121 0.059502 1.551037 0.111150 -0.028474 220451.000000 0 1 0
22.463216 0.911477 -0.548329 22.488386 0.040554 1.595181 0.094936 -0.023604 957148.000000 0 1 0
22.660016 -0.436723 -0.963029 22.684675 -0.019270 1.613262 0.111653 -0.030578 -1049430.000000 0 1 0
22.437416 -1.724623 -0.035929 22.503627 -0.076713 1.572393 0.126451 -0.020119 -158120.000000 0 1 0
23.400016 -2.035023 0.938471 23.507079 -0.086748 1.530863 0.127776 -0.017400 100929.000000 0 1 0
24.697916 -2.284323 0.442871 24.807283 -0.092228 1.552943 0.134030 -0.033518 -647833.000000 0 1 0
25.718916 -2.032123 1.567671 25.846658 -0.078849 1.510106 0.118900 -0.028424 -508054.000000 0 0 1
25.721616 -0.647223 1.896371 25.799547 -0.025157 1.497226 0.105416 -0.029287 293886.000000 0 0 1
26.487316 -0.427523 3.027371 26.663189 -0.016139 1.457010 0.104264 -0.033852 -595573.000000 0 0 1
26.180916 0.915077 3.670271 26.452762 0.034938 1.431599 0.091269 -0.026787 -295194.000000 0 0 1
26.406116 1.991477 2.782571 26.626897 0.075275 1.466103 0.095222 -0.030912 209840.000000 0 0 1
27.773216 2.324877 2.675671 27.998496 0.083515 1.475085 0.090159 -0.031911 -154039.000000 0 0 1
27.926016 3.424477 1.611971 28.181339 0.122018 1.513565 0.094511 -0.036394 -307498.000000 0 0 1
27.540716 3.038577 0.307571 27.709540 0.109886 1.559696 0.113800 -0.041888 191965.000000 0 0 1
27.850216 3.969577 -0.708329 28.140608 0.141579 1.595970 0.104216 -0.030605 114971.000000 0 0 1
29.301266 3.972177 -1.259429 29.596090 0.134742 1.613363 0.114986 -0.032885 132763.000000 0 0 1
30.258216 4.502877 -0.371729 30.593687 0.147731 1.582947 0.111383 -0.029952 853104.000000 0 0 1
31.599276 4.455077 -0.881529 31.923957 0.140064 1.598413 0.106011 -0.029962 1753810.000000 0 0 1
32.798286 4.699077 0.135071 33.133474 0.142304 1.566720 0.084170 -0.026379 870353.000000 0 0 1
32.858696 3.799577 1.223371 33.100262 0.115123 1.533828 0.081429 -0.025867 236317.000000 0 0 1
31.989286 4.124877 2.294571 32.335647 0.128238 1.499776 0.071543 -0.017906 -50256.400000 0 0 1
32.082026 3.110477 3.484371 32.420245 0.096652 1.463113 0.074882 -0.024637 -409863.000000 0 0 1
31.410276 1.913377 3.211271 31.631925 0.060840 1.469101 0.074995 -0.028738 45734.800000 0 0 1
31.633586 0.854177 4.104271 31.910162 0.026996 1.441819 0.078164 -0.032639 562984.000000 0 0 1
32.974036 0.015877 3.991771 33.214779 0.000482 1.450325 0.078276 -0.024529 -5349.350000 0 0 1
34.079866 0.731577 4.391371 34.369414 0.021463 1.442676 0.075263 -0.029537 -935620.000000 0 0 1
35.213906 -0.086923 4.376971 35.484991 -0.002468 1.447134 0.064384 -0.028042 -640140.000000 0 0 1
-36.421812 0.596777 4.631971 36.720017 -0.016384 1.444316 0.081359 -0.036452 170949.000000 0 0 1
-36.056772 1.633077 3.732071 36.286169 -0.045261 1.467763 0.086915 -0.037716 185343.000000 0 0 1
-35.871123 1.242577 2.404871 35.973113 -0.034626 1.503895 0.093448 -0.030636 -920636.000000 0 0 1
-35.735205 2.538477 1.513571 35.857212 -0.070917 1.528573 0.083810 -0.030319 89876.600000 0 0 1
-34.589717 3.321277 1.728671 34.791776 -0.095726 1.521090 0.107840 -0.042249 9060.790000 0 0 1
-33.413172 2.884077 1.077271 33.554709 -0.086102 1.538686 0.130825 -0.036536 -354657.000000 0 0 1
-32.210262 3.689277 1.633471 32.461977 -0.114040 1.520456 0.137374 -0.037999 -215498.000000 0 0 1
-31.899542 3.443977 2.994471 32.224348 -0.107547 1.477736 0.138497 -0.042802 -329193.000000 0 0 1
-30.954492 4.359477 3.448571 31.449615 -0.139915 1.460922 0.137975 -0.040918 -1049980.000000 0 0 1
-31.092532 4.747277 4.930971 31.837033 -0.151512 1.415289 0.145500 -0.034130 -253978.000000 0 0 1
-32.326992 5.294977 5.319671 33.186896 -0.162353 1.409807 0.145808 -0.022319 -153696.000000 0 0 1
-33.483642 4.507377 5.294971 34.198062 -0.133810 1.415338 0.145947 -0.020490 -839831.000000 0 0 1
-33.607022 3.384777 6.395171 34.377127 -0.100378 1.383676 0.123396 -0.020445 -756831.000000 0 0 1
-33.875702 3.908477 7.670271 34.952431 -0.114869 1.349547 0.120415 -0.020913 295296.000000 0 0 1
-33.740562 2.998377 8.752271 34.985969 -0.088633 1.317945 0.108584 -0.020782 688613.000000 0 0 1
-34.957605 1.990577 8.957471 36.141843 -0.056881 1.320344 0.094825 -0.016110 473830.000000 0 0 1
-34.904999 0.878177 8.060771 35.834427 -0.025154 1.343910 0.095749 -0.022400 286294.000000 0 0 1
-35.828821 -0.163723 8.359671 36.791511 0.004570 1.341577 0.096267 -0.017274 14616.200000 0 0 1
-35.664363 -0.937323 9.706671 36.973569 0.026276 1.305153 0.096659 -0.013968 -338086.000000 0 0 1
-34.453180 -1.648123 9.750571 35.844268 0.047800 1.295299 0.100873 -0.024213 6132.840000 0 0 1
-34.257250 -2.532823 10.821871 36.015098 0.073801 1.265599 0.100414 -0.017362 208823.000000 0 0 1
-32.922262 -3.328623 10.938971 34.851344 0.100763 1.251525 0.114244 -0.018136 270652.000000 0 0 1
-32.848752 -4.283423 9.862271 34.563747 0.129667 1.281440 0.113755 -0.021954 448163.000000 0 0 1
-31.658092 -5.047723 10.015071 33.585949 0.158114 1.267998 0.113952 -0.029880 387301.000000 0 0 1
-31.628002 -6.155423 8.926471 33.435036 0.192217 1.300539 0.106309 -0.020350 452994.000000 0 0 1
-32.729302 -7.047323 9.017971 34.672695 0.212083 1.307682 0.113801 -0.024216 302012.000000 0 0 1
-32.555612 -8.152223 8.008571 34.503099 0.245364 1.336548 0.095075 -0.024516 -67559.600000 0 0 1
-33.563772 -9.278723 8.228471 35.781688 0.269714 1.338756 0.095174 -0.024658 -361616.000000 0 0 1
-34.872529 -8.826523 8.073171 36.867016 0.247902 1.350026 0.104332 -0.035199 -468664.000000 0 0 1
-35.847395 -9.742023 8.516271 38.111279 0.265355 1.345436 0.103571 -0.037366 16190.200000 0 0 1
7.669978 -24.178723 10.865571 27.595286 -1.263617 1.166092 0.122291 -0.020840 124285.000000 0 0 1
6.805178 -24.236323 9.745271 26.994075 -1.297061 1.201440 0.109187 -0.021792 -577972.000000 0 0 1
5.781078 -25.144933 9.996871 27.669946 -1.344813 1.201145 0.103333 -0.022032 -79704.600000 0 0 1
5.553378 -26.122433 8.825271 28.126623 -1.361324 1.251636 0.094043 -0.018157 -145683.000000 0 0 1
4.917278 -25.511343 7.716471 27.102623 -1.380383 1.282089 0.092771 -0.010232 -86951.800000 0 0 1
4.836978 -26.348983 6.605671 27.591668 -1.389244 1.329040 0.084583 -0.006712 -888959.000000 0 0 1
4.169078 -25.685933 5.373871 26.571166 -1.409890 1.367147 0.065381 -0.005981 -210765.000000 0 0 1
2.770178 -25.622703 5.383171 26.328223 -1.463100 1.364880 0.042904 -0.015386 -477515.000000 0 0 1
2.147578 -26.886213 5.121571 27.453798 -1.491089 1.383145 0.032466 -0.015441 -1040400.000000 0 0 1
0.637378 -26.725533 4.982771 27.193535 -1.546952 1.386522 0.033418 -0.022827 -1225130.000000 0 0 1
-0.003422 -26.307173 6.153571 27.017287 1.570666 1.341015 0.026742 -0.018086 286250.000000 0 0 1
-1.430522 -26.477533 6.167371 27.223934 1.516821 1.342270 0.029406 -0.018717 1341800.000000 0 0 1
-1.966122 -27.983743 6.098171 28.707894 1.500652 1.356744 0.045012 -0.014825 -727495.000000 0 0 1
-1.657222 -28.588043 7.351771 29.564694 1.512892 1.319492 0.034011 -0.018690 346527.000000 0 0 1
-2.318822 -29.837123 7.514571 30.856111 1.493236 1.324786 0.047575 -0.020830 35507.800000 0 0 1
-2.199922 -30.372843 8.921171 31.732263 1.498492 1.285816 0.040244 -0.018718 301351.000000 0 0 1
-0.925722 -30.903973 9.240871 32.269276 1.540850 1.280363 0.039034 -0.011985 154272.000000 0 0 1
-0.633822 -31.015613 10.660871 32.802807 1.550364 1.239786 0.033132 -0.008791 -331305.000000 0 0 1
0.838078 -31.106053 11.051371 33.021534 -1.543860 1.229540 0.037094 -0.008489 -499214.000000 0 0 1
1.364478 -32.428253 10.834671 34.217590 -1.528744 1.248611 0.040980 -0.014729 421586.000000 0 0 1
2.763878 -32.417593 11.128471 34.385785 -1.485743 1.241227 0.040683 -0.009779 359771.000000 0 0 1
3.197178 -32.943293 12.536771 35.392840 -1.474048 1.208719 0.043853 -0.007217 -362271.000000 0 0 1
2.898378 -32.259723 13.734171 35.181213 -1.481192 1.169748 0.041685 -0.005952 53613.900000 0 0 1
3.523678 -32.879833 14.818971 36.236744 -1.464035 1.149495 0.041230 -0.007576 -585939.000000 0 0 1
3.376978 -31.968013 16.020371 35.916711 -1.465550 1.108458 0.039349 -0.005743 131348.000000 0 0 1
3.856078 -30.602633 15.888171 34.696173 -1.445452 1.095139 0.037244 -0.009395 571907.000000 0 0 1
5.268378 -30.449023 15.865371 34.736275 -1.399470 1.096472 0.041711 -0.002774 -7836.130000 0 0 1
5.735078 -29.195343 15.156971 33.391510 -1.376828 1.099640 0.059039 -0.010019 -183258.000000 0 0 1
5.700078 -29.201093 13.768571 32.783658 -1.378020 1.137370 0.061342 -0.007146 69091.500000 0 0 1
4.414478 -29.218623 13.159271 32.347828 -1.420846 1.151842 0.052829 0.002296 -273650.000000 0 0 1
4.554878 -29.284713 11.593771 31.823841 -1.416495 1.197904 0.054753 -0.011842 270223.000000 0 0 1
5.133178 -30.467803 10.995271 32.795312 -1.403885 1.228905 0.054818 -0.013413 -243719.000000 0 0 1
6.450978 -30.739083 11.384371 33.408236 -1.363936 1.223065 0.059413 -0.008311 -757883.000000 0 0 1
7.024678 -32.061403 10.796571 34.552071 -1.355104 1.253002 0.048352 -0.009740 -116386.000000 0 0 1
6.614578 -33.156473 11.544471 35.726449 -1.373886 1.241756 0.031578 -0.015481 272753.000000 0 0 1
7.068478 33.843319 10.884371 36.246422 1.364897 1.265802 0.043302 -0.015285 178690.000000 0 0 1
6.874078 32.539602 11.741771 35.269644 1.362605 1.231404 0.041549 -0.008187 -201412.000000 0 0 1
5.533878 32.343961 12.091471 34.970835 1.401342 1.217749 0.035209 -0.010269 -481662.000000 0 0 1
5.283078 31.061539 12.662571 33.956896 1.402324 1.188662 0.041959 -0.006979 -784472.000000 0 0 1
4.026178 30.998919 13.468071 34.037215 1.441638 1.163981 0.035922 -0.011986 -779564.000000 0 0 1
4.194078 31.545739 14.729071 35.066643 1.438619 1.137317 0.055952 -0.012254 250306.000000 0 0 1
3.011778 31.399709 15.487871 35.140954 1.475171 1.114378 0.057017 -0.013820 383720.000000 0 0 1
3.452978 31.458259 17.026171 35.936550 1.461470 1.077213 0.054355 -0.015072 255587.000000 0 0 1
3.858578 32.692730 17.498071 37.281171 1.453314 1.082237 0.054956 -0.010039 46183.600000 0 0 1
4.189178 32.655017 18.863271 37.943673 1.443207 1.050498 0.052348 -0.008341 -52947.500000 0 0 1
4.542378 34.059569 19.457571 39.487776 1.438213 1.055550 0.042901 -0.010895 615953.000000 0 0 1
3.411678 -33.291853 19.656471 38.811904 -1.468675 1.039728 0.033567 -0.011178 284789.000000 0 0 1
3.690678 -32.289043 20.595171 38.475505 -1.456989 1.005957 0.035878 -0.013888 354867.000000 0 0 1
2.431178 -31.547793 21.122271 38.043714 -1.493885 0.982180 0.035799 -0.015258 659379.000000 0 0 1
1.427478 -32.317793 21.772871 38.994042 -1.526655 0.978384 0.050080 -0.015193 80561.200000 0 0 1
0.482978 -31.571873 22.487571 38.764768 -1.555500 0.951941 0.050985 -0.014408 -15430.800000 0 0 1
-0.642622 -32.413213 23.119671 39.818947 1.550973 0.951307 0.042791 -0.010934 -750262.000000 0 0 1
-1.593822 -32.944203 22.269171 39.796693 1.522455 0.976925 0.037158 -0.014637 -610629.000000 0 0 1
-2.348522 -33.981843 22.834071 41.008243 1.501795 0.980248 0.044056 -0.014757 230844.000000 0 0 1
-3.708522 -33.490083 23.405471 41.026270 1.460511 0.963682 0.067169 -0.010191 58068.200000 0 0 1
-4.541922 -32.972543 22.351871 40.092690 1.433909 0.979419 0.059948 -0.013220 -302029.000000 0 0 1
-5.710922 -32.455263 22.952771 40.159537 1.396617 0.962415 0.062198 -0.002009 1067600.000000 0 0 1
-6.953122 -32.287683 21.965271 39.665016 1.358687 0.983912 0.047134 -0.005299 1033110.000000 0 0 1
-7.781622 -33.389223 21.661171 40.553670 1.341826 1.007311 0.027000 0.006792 6226.820000 0 0 1
-8.890122 -32.884973 20.930671 39.981855 1.306768 1.019838 0.040279 -0.013802 336939.000000 0 0 1
-9.932822 -34.024113 20.702771 41.047606 1.286755 1.042156 0.064718 -0.025635 235252.000000 0 0 1
-10.508522 33.649153 21.890371 41.495576 -1.268097 1.015100 0.078505 -0.026987 -122146.000000 0 0 1
-11.911722 33.519946 21.740371 41.690762 -1.229352 1.022227 0.053462 -0.022300 569524.000000 0 0 1
-12.684222 33.423429 23.134071 42.581690 -1.208085 0.996449 0.049304 -0.017049 179950.000000 0 0 1
-12.861022 -33.572323 23.829171 43.131614 1.204957 0.985465 0.048115 -0.014875 -390571.000000 0 0 1
-11.686622 -32.918383 24.209971 42.500821 1.229658 0.964734 0.047935 -0.015293 -221961.000000 0 0 1
-11.971822 -31.551583 24.955271 41.971329 1.208142 0.934054 0.050133 -0.014196 274842.000000 0 0 1
-12.570522 -31.605803 26.270871 42.977942 1.192250 0.913140 0.054102 -0.007908 299837.000000 0 0 1
-13.228422 -30.372603 26.563171 42.462786 1.160034 0.894943 0.071372 -0.016899 111544.000000 0 0 1
-13.791922 -30.355743 28.029571 43.558525 1.144337 0.871744 0.055992 -0.015606 624470.000000 0 0 1
-12.900022 -30.076803 29.142071 43.821056 1.165625 0.843270 0.048641 -0.002863 562556.000000 0 0 1
-13.733622 -29.670803 30.230171 44.529004 1.137294 0.824550 0.055642 -0.004029 277424.000000 0 0 1
-13.019322 -29.236653 31.524271 44.922870 1.151851 0.792956 0.046147 -0.003523 -405161.000000 0 0 1
-13.856422 -28.697583 32.523271 45.533667 1.120968 0.775218 0.056237 -0.005769 68654.500000 0 0 1
-13.210222 -28.489953 33.761871 46.109124 1.136625 0.749225 0.041101 -0.001594 -138126.000000 0 0 1
-12.574822 -29.655373 -33.705121 46.621910 1.169746 2.378853 0.040656 0.001717 525294.000000 0 0 1
-11.237722 -29.991423 -34.073421 46.762911 1.212291 2.387133 0.032795 0.001822 192841.000000 0 0 1
-10.903122 -31.184453 -33.394721 46.973988 1.234448 2.361601 0.025562 -0.001397 -392166.000000 0 0 1
-9.410422 -31.517733 -33.478721 46.933445 1.280647 2.365025 0.020142 -0.012444 -451876.000000 0 0 1
-8.738222 -30.653323 -32.598421 45.592102 1.293096 2.367423 0.038779 -0.016842 28792.800000 0 0 1
-7.363522 -31.044933 -32.504521 45.547263 1.337911 2.365482 0.053465 -0.023884 358334.000000 0 0 1
-6.584322 -30.173183 -31.518121 44.126706 1.355947 2.366368 0.062174 -0.021949 -328870.000000 0 0 1
-6.857122 -30.413833 -30.177121 43.389860 1.349043 2.339895 0.060286 -0.030788 301659.000000 0 0 1
-6.043622 -29.659403 -29.218421 42.070437 1.369781 2.338538 0.058016 -0.025980 397779.000000 0 0 1
-6.462322 -29.936093 -27.749621 41.327627 1.358188 2.306966 0.058832 -0.033509 -102166.000000 0 0 1
-6.171222 -31.271253 -27.430621 42.052517 1.375955 2.281404 0.052841 -0.025133 -67987.000000 0 0 1
-7.194522 -31.740583 -26.577221 42.018739 1.347896 2.255584 0.058632 -0.027645 127859.000000 0 0 1
-6.730222 -32.952543 -25.832721 42.408672 1.369327 2.225769 0.060870 -0.026761 148091.000000 0 0 1
-5.797022 -32.602803 -24.832321 41.390728 1.394828 2.214234 0.046429 -0.026366 -142087.000000 0 0 1
-5.231022 -33.748213 -24.245921 41.882815 1.417019 2.188174 0.051102 -0.028072 112987.000000 0 0 1
-4.243722 -33.509273 -23.047021 40.890656 1.444824 2.169565 0.062341 -0.035973 278643.000000 0 0 1
-4.768822 -32.932673 -21.837221 39.801593 1.426991 2.151547 0.070585 -0.029851 94584.600000 0 0 1
-5.001022 -31.531653 -21.935821 38.735457 1.413503 2.172804 0.053946 -0.023350 -58928.900000 0 0 1
-5.195922 -30.748033 -20.590321 37.368442 1.403394 2.154368 0.084523 -0.033882 -801782.000000 0 0 1
-6.513922 -30.886953 -20.138421 37.443171 1.362947 2.138669 0.085553 -0.044388 -113265.000000 0 0 1
-7.152922 -29.663863 -19.743021 36.344132 1.334181 2.145069 0.088065 -0.038537 251447.000000 0 0 1
-7.572222 -28.732743 -20.945921 36.354376 1.313115 2.184818 0.097517 -0.051098 -269712.000000 0 0 1
-6.433822 -28.281453 -21.673621 36.207465 1.347111 2.212543 0.090268 -0.036077 -22324.600000 0 0 1
-6.730922 -27.665443 -22.964421 36.579320 1.332136 2.249517 0.111829 -0.048755 -726453.000000 0 0 1
-5.616022 -27.748333 -24.054321 37.149967 1.371102 2.275086 0.113688 -0.046868 360522.000000 0 0 1
-4.421422 -27.025273 -23.837021 36.305894 1.408630 2.287046 0.114317 -0.044559 427166.000000 0 0 1
-3.605522 -27.496003 -22.750821 35.869623 1.440411 2.257853 0.068809 -0.042353 -1423420.000000 0 0 1
-2.188422 -26.949303 -22.746621 35.333594 1.489769 2.270208 0.075597 -0.039349 -835806.000000 0 0 1
-1.928722 -25.539523 -22.758821 34.262970 1.495420 2.297272 0.082673 -0.043151 58786.700000 0 0 1
-2.518822 -24.665423 -21.757221 32.986425 1.469030 2.291058 0.104232 -0.046614 -721347.000000 0 0 1
-2.641722 -23.216823 -22.397521 32.367399 1.457499 2.335021 0.119338 -0.046974 -46401.900000 0 0 1
-3.428222 -22.978123 -23.559621 33.087801 1.422694 2.363186 0.101316 -0.053331 365073.000000 0 0 1
-4.777822 -23.352923 -23.353521 33.370249 1.368989 2.345957 0.095576 -0.050550 -922629.000000 0 0 1
-5.660722 -23.504023 -24.545521 34.452365 1.334457 2.363777 0.086236 -0.036770 -351197.000000 0 0 1
-5.940222 -22.284423 -25.188921 34.152064 1.310290 2.400234 0.111135 -0.035747 66188.300000 0 0 1
-6.134322 -22.490023 -26.577021 35.352073 1.304516 2.421555 0.120130 -0.035372 144383.000000 0 0 1
-6.034522 -21.241823 -27.480921 35.253816 1.294002 2.464689 0.129156 -0.039973 292372.000000 0 0 1
-6.574822 -21.392823 -28.793521 36.468452 1.272621 2.480865 0.136176 -0.037839 643301.000000 0 0 1
-5.542022 -21.840723 -29.694321 37.275782 1.322294 2.492465 0.120848 -0.037668 239618.000000 0 0 1
-5.976222 -22.049923 -31.091121 38.582018 1.306123 2.507897 0.123356 -0.042932 -716991.000000 0 0 1
-6.291422 -20.848923 -31.706521 38.465089 1.277723 2.539749 0.112388 -0.042775 -233257.000000 0 0 1
-7.241222 -21.053323 -32.721321 39.577299 1.239524 2.544138 0.107681 -0.034902 -467874.000000 0 0 1
-7.051722 -20.070423 -33.908321 40.029026 1.232920 2.581288 0.108275 -0.037349 -100149.000000 0 0 1
-5.781522 -20.336923 33.817071 39.882461 1.293817 0.558750 0.104680 -0.030877 -665319.000000 0 0 1
-5.584722 -19.882223 32.489071 38.497164 1.296962 0.566221 0.113587 -0.028823 44855.100000 0 0 1
-4.262922 -20.288423 31.812271 37.971215 1.363693 0.577556 0.082909 -0.032653 -807015.000000 0 0 1
-4.111722 -21.668423 31.644271 38.571838 1.383270 0.608689 0.101573 -0.033525 -174086.000000 0 0 1
-3.001822 -22.165623 30.948371 38.185435 1.436188 0.625832 0.085163 -0.021820 -455874.000000 0 0 1
-1.579122 -22.025123 31.460871 38.436780 1.499222 0.611985 0.065442 -0.028973 -887641.000000 0 0 1
-1.178422 -20.689623 31.339971 37.571837 1.513901 0.584234 0.049640 -0.025624 -887360.000000 0 0 1
-0.065022 -20.355923 32.087471 37.999653 1.567602 0.565324 0.056447 -0.024289 -481483.000000 0 0 1
-0.487622 -19.989823 33.567771 39.072062 1.546408 0.537240 0.050533 -0.026130 386275.000000 0 0 1
-1.259422 -18.754723 33.504971 38.417559 1.503745 0.511265 0.051290 -0.027741 20149.600000 0 0 1
-1.758922 -18.480723 -33.475821 38.278735 1.475906 2.635258 0.066613 -0.033147 875661.000000 0 0 1
-2.911622 -17.371123 -33.515521 37.861902 1.404727 2.657729 0.063433 -0.033369 1047620.000000 0 0 1
-2.420622 -16.076923 -33.810721 37.516553 1.421354 2.693376 0.070392 -0.030133 -477921.000000 0 0 1
-3.416722 -15.123723 -33.606521 37.010799 1.348608 2.709328 0.073219 -0.027064 -206038.000000 0 0 1
-3.172922 -13.625023 -33.970921 36.738701 1.341999 2.750946 0.057380 -0.024883 -425355.000000 0 0 1
-2.209322 -13.014923 -33.156821 35.688151 1.402646 2.762689 0.054138 -0.014917 -226349.000000 0 0 1
-2.024722 -11.649423 -33.286621 35.324322 1.398711 2.800275 0.052508 -0.010617 -38592.200000 0 0 1
-1.255122 -11.097323 33.724371 35.525471 1.458174 0.319791 0.054562 -0.012487 -17552.400000 0 0 1
-1.994222 -11.183423 32.480771 34.409975 1.394332 0.336443 0.060686 -0.019667 -163123.000000 0 0 1
-1.288922 -10.803623 31.371071 33.204272 1.452053 0.333843 0.061763 -0.017771 -771194.000000 0 0 1
-0.367822 -11.897223 30.855471 33.071730 1.539890 0.368173 0.038374 -0.025325 -267646.000000 0 0 1
-1.015522 -13.116223 30.356871 33.084834 1.493526 0.408931 0.059254 -0.029426 25676.800000 0 0 1
-0.106622 -14.150123 30.131471 33.288780 1.563261 0.439055 0.034627 -0.027055 -492972.000000 0 0 1
-0.594422 -15.536723 30.728371 34.438001 1.532556 0.468424 0.035889 -0.031080 267337.000000 0 0 1
-1.560622 -16.126723 29.869871 33.981111 1.474324 0.497006 0.041989 -0.032391 209865.000000 0 0 1
-1.971522 -17.341123 30.493071 35.134439 1.457592 0.519844 0.051645 -0.027811 -157901.000000 0 0 1
-2.433622 -18.406723 29.507371 34.862801 1.439345 0.561635 0.052456 -0.024147 -803562.000000 0 0 1
-3.684622 -18.234323 28.921571 34.387850 1.371411 0.571593 0.057978 -0.029913 -457838.000000 0 0 1
-3.988422 -19.403323 28.183371 34.448496 1.368067 0.612644 0.066358 -0.031154 272972.000000 0 0 1
-4.508622 -18.963623 26.767371 33.112518 1.337379 0.629408 0.050410 -0.032101 99041.200000 0 0 1
-5.308822 -19.908623 26.027471 33.195875 1.310201 0.669620 0.050688 -0.028418 -416759.000000 0 0 1
-4.686322 -21.084923 25.602471 33.496599 1.352092 0.700794 0.058507 -0.027079 -397972.000000 0 0 1
-29.527592 -33.623164 -0.264929 44.748922 0.850161 1.576717 0.068666 -0.012756 -357063.000000 0 0 1
-28.635492 -32.633664 0.101471 43.416100 0.850562 1.568459 0.069727 -0.007337 -314082.000000 0 0 1
-29.128332 -31.867864 1.156471 43.189789 0.830281 1.544017 0.049545 -0.004179 228265.000000 0 0 1
-28.207752 -30.634164 1.382171 41.665809 0.826611 1.537617 0.064673 -0.009298 -172473.000000 0 0 1
-26.878192 -30.974764 1.606371 41.042096 0.856090 1.531647 0.083846 -0.010957 -1260380.000000 0 0 1
-26.152002 -29.837264 1.877871 39.720472 0.851124 1.523502 0.086487 -0.010485 -156157.000000 0 0 1
-24.673022 -30.101864 2.233171 38.985475 0.884187 1.513483 0.069678 -0.013667 9816.070000 0 0 1
-24.489422 -30.613764 3.507471 39.360344 0.896087 1.481566 0.073546 -0.012385 107100.000000 0 0 1
-23.153322 -30.959064 3.854871 38.850997 0.928660 1.471411 0.075202 -0.009098 216899.000000 0 0 1
-22.994622 -31.545664 5.254771 39.389011 0.940916 1.436990 0.087546 -0.014711 -41898.800000 0 0 1
-23.174322 -30.476864 6.165371 38.780152 0.920678 1.411136 0.073542 -0.015753 -61037.900000 0 0 1
-22.801222 -30.868764 7.489171 39.100690 0.934599 1.378070 0.074898 -0.023008 3398.010000 0 0 1
-23.357022 -29.966764 8.614071 38.958435 0.908724 1.347845 0.071662 -0.022837 -170414.000000 0 0 1
-22.815422 -28.643164 8.703071 37.639311 0.898169 1.337462 0.088515 -0.024191 120415.000000 0 0 1
-23.460122 -27.953464 9.767271 37.777944 0.872573 1.309281 0.067448 -0.014984 414747.000000 0 0 1
-22.556522 -26.930464 10.565571 36.683482 0.873555 1.278638 0.070026 -0.024224 914586.000000 0 0 1
-21.475822 -27.463664 11.339771 36.661344 0.907145 1.256328 0.081009 -0.024030 54800.000000 0 0 1
-20.747122 -26.476964 11.992771 35.711332 0.906141 1.228315 0.074298 -0.025256 99800.300000 0 0 1
-19.392422 -26.929164 12.576171 35.488110 0.946690 1.208549 0.076288 -0.021177 56084.300000 0 0 1
-19.532822 -27.751364 13.723371 36.606014 0.957491 1.186514 0.066085 -0.023718 -344152.000000 0 0 1
-18.264522 -28.004264 14.274671 36.353786 0.992873 1.167274 0.085800 -0.025435 -12125.100000 0 0 1
-18.075722 -29.103064 15.377071 37.552288 1.015011 1.148908 0.097793 -0.033838 -304931.000000 0 0 1
-18.178922 -30.381364 14.707371 38.338065 1.031585 1.177080 0.100068 -0.033582 -81988.600000 0 0 1
-17.920722 -31.389264 15.616271 39.373926 1.052035 1.162970 0.110672 -0.032154 56683.500000 0 0 1
-18.237322 -32.779064 15.090871 40.432676 1.063075 1.188303 0.096266 -0.037195 68170.300000 0 0 1
-17.941722 -33.710564 16.096171 41.441455 1.081700 1.171894 0.107879 -0.033612 73916.400000 0 0 1
-17.590422 33.325777 15.458971 40.730949 -1.085132 1.181499 0.084621 -0.033244 -232387.000000 0 0 1
-17.542122 32.106277 16.378371 40.084787 -1.070739 1.149884 0.081817 -0.028693 483195.000000 0 0 1
-18.839022 31.688577 16.822371 40.522424 -1.034427 1.142703 0.089421 -0.028052 582660.000000 0 0 1
-18.833722 30.488277 17.642071 39.943545 -1.017437 1.113331 0.068187 -0.018188 77923.000000 0 0 1
-19.465122 30.738077 19.034371 41.061267 -1.006281 1.088787 0.060157 -0.019203 538461.000000 0 0 1
-18.634722 31.572577 19.842171 41.686836 -1.037600 1.074716 0.059608 -0.015918 140444.000000 0 0 1
-19.392722 31.866177 20.958371 42.787665 -1.024101 1.058910 0.054552 -0.013354 -146999.000000 0 0 1
-18.969622 33.058277 21.801471 43.909001 -1.049847 1.051217 0.047060 -0.008407 302784.000000 0 0 1
-17.696822 32.879077 22.420171 43.553132 -1.077027 1.030048 0.034505 -0.010255 22097.000000 0 0 1
-17.436622 33.811177 23.428871 44.678222 -1.094663 1.018796 0.038784 -0.009700 -47221.900000 0 0 1
-17.868222 33.203477 24.810871 45.136721 -1.077102 0.988812 0.025761 -0.014171 364489.000000 0 0 1
-19.273922 33.266477 25.011171 45.866123 -1.045677 0.994040 -0.000236 -0.013828 140449.000000 0 0 1
-19.793722 32.043477 25.463971 45.464158 -1.017453 0.976303 0.002645 -0.001073 -1197160.000000 0 0 1
-21.290922 32.058577 25.353771 46.085458 -0.984555 0.988256 0.075930 -0.010738 -1110220.000000 0 0 1
-21.803722 31.978177 24.037171 45.560857 -0.972368 1.015043 0.052726 -0.001195 -324406.000000 0 0 1
-23.183522 32.224177 24.052071 46.415250 -0.947139 1.026059 0.028346 -0.006263 -345963.000000 0 0 1
-23.941822 31.999777 22.709771 45.966622 -0.928456 1.054055 0.018762 -0.008814 -21110.600000 0 0 1
-23.583822 32.866877 21.646471 45.880257 -0.948385 1.079461 0.026585 -0.008694 53948.600000 0 0 1
-23.625222 32.194077 20.400871 44.842004 -0.937720 1.098480 0.019567 -0.008220 -8967.320000 0 0 1
-23.268122 33.018877 19.130971 44.695031 -0.956929 1.128481 0.037658 -0.005628 256753.000000 0 0 1
-21.932722 33.487177 19.231971 44.410630 -0.990943 1.122924 0.056977 -0.012960 17766.200000 0 0 1
-21.471322 -33.939364 18.164471 44.077728 1.006724 1.146038 0.068011 -0.007211 -178713.000000 0 0 1
-20.111122 -33.311864 18.503271 43.087220 1.027644 1.126926 0.072151 -0.016732 -269778.000000 0 0 1
-20.113522 -32.342864 19.492471 42.785173 1.014441 1.097762 0.085612 -0.028173 165796.000000 0 0 1
-18.844522 -31.729364 19.638571 41.803612 1.034864 1.081753 0.073915 -0.036062 -55374.800000 0 0 1
-18.798822 -30.634564 20.715971 41.485222 1.020402 1.047939 0.083069 -0.037327 -191066.000000 0 0 1
-19.472022 -29.471064 20.288171 40.734667 0.986924 1.049440 0.103142 -0.040339 171460.000000 0 0 1
-20.218222 -28.847664 21.299771 41.166060 0.959492 1.026974 0.097512 -0.041066 735.370000 0 0 1
-21.147322 -27.662964 20.956371 40.640107 0.918103 1.029022 0.073968 -0.030726 -269819.000000 0 0 1
-20.459522 -26.479964 20.581871 39.286053 0.912961 1.019376 0.070787 -0.030302 148892.000000 0 0 1
-21.218722 -25.280464 20.601971 38.907290 0.872528 1.012768 0.054572 -0.017339 -443692.000000 0 0 1
-22.278622 -25.025464 19.484471 38.758940 0.843401 1.044067 0.038625 -0.011665 141874.000000 0 0 1
-23.536122 -25.560064 19.888471 40.035199 0.826599 1.050918 0.036364 -0.009977 -174502.000000 0 0 1
-24.434822 -25.328664 18.820871 39.910236 0.803358 1.079715 0.027948 -0.007669 17485.200000 0 0 1
-25.872282 -25.774064 19.269971 41.291756 0.783496 1.085265 0.020104 -0.010182 365508.000000 0 0 1
-26.110742 -27.125064 19.302871 42.310055 0.804449 1.097049 0.016029 -0.010766 -231340.000000 0 0 1
-26.235342 -27.734064 18.031271 42.220827 0.813161 1.129546 0.018959 -0.012438 -550960.000000 0 0 1
-27.468222 -28.653764 18.088171 43.620217 0.806519 1.143212 0.020819 -0.017944 -736479.000000 0 0 1
-28.626222 -28.002364 18.437371 44.085481 0.774382 1.139313 0.004981 -0.020120 -1535350.000000 0 0 1
-29.699172 -28.807564 18.047671 45.140170 0.770160 1.159482 0.012037 -0.012390 264733.000000 0 0 1
-31.124952 -28.298364 18.426671 45.924963 0.737867 1.157932 0.021543 -0.008785 619242.000000 0 0 1
-31.465252 -27.059664 17.849471 45.176223 0.710263 1.164611 0.040229 -0.000578 -93445.700000 0 0 1
-32.856342 -26.822564 17.863471 46.022741 0.684637 1.172179 0.056074 0.012966 -76413.800000 0 0 1
-33.256372 -25.511364 17.031571 45.242573 0.654363 1.184835 0.068599 -0.003173 -276766.000000 0 0 1
-33.168702 -25.749464 15.590771 44.791403 0.660133 1.215279 0.077884 -0.016765 -33949.700000 0 0 1
-33.416222 -24.593964 14.780871 44.045216 0.634473 1.228571 0.070609 -0.018502 -587080.000000 0 0 1
-32.471802 -23.419664 14.829571 42.694435 0.624833 1.216061 0.068450 -0.009300 -480382.000000 0 0 1
-32.727722 -22.550464 15.932371 42.819010 0.603327 1.189541 0.046034 0.000552 19454.500000 0 0 1
-31.885022 -21.446764 15.854571 41.569048 0.592118 1.179482 0.040970 -0.001541 -302508.000000 0 0 1
-32.571892 -20.189464 16.372371 41.672498 0.554882 1.167033 0.047439 -0.012620 -80489.200000 0 0 1
-32.860992 -20.148864 17.755671 42.439196 0.550036 1.139136 0.040396 0.005881 494989.000000 0 0 1
-33.741772 -19.078364 18.119571 42.787966 0.514607 1.133520 0.040932 0.010186 264827.000000 0 0 1
-34.187268 -19.092364 19.571171 43.775774 0.509318 1.107301 0.036036 -0.005360 573832.000000 0 0 1
-35.320369 -19.914564 19.945071 45.187655 0.513397 1.113657 0.039966 0.001839 939082.000000 0 0 1
-35.806896 -19.445464 21.191771 45.927672 0.497503 1.091206 0.040112 0.003275 -373236.000000 0 0 1
35.784756 -19.928164 21.660771 46.334323 -0.508117 1.084349 0.056527 -0.002743 73937.800000 0 0 1
35.427306 -21.255964 21.958671 46.787747 -0.540411 1.082270 0.071508 -0.014140 -225068.000000 0 0 1
36.224876 -21.986064 22.857471 48.146574 -0.545502 1.076119 0.052067 -0.001686 -342344.000000 0 0 1
35.540136 -23.315364 23.241971 48.444780 -0.580602 1.070413 0.052133 -0.000387 -306849.000000 0 0 1
34.538636 -23.100464 24.177171 48.073739 -0.589499 1.043824 0.067000 -0.026285 -482505.000000 0 0 1
34.173446 -24.277364 24.783371 48.697333 -0.617682 1.036859 0.062940 -0.038461 -316391.000000 0 0 1
33.192456 -24.088564 25.973071 48.544809 -0.627783 1.006250 0.064340 -0.035092 371041.000000 0 0 1
31.845526 -24.229064 25.556671 47.479769 -0.650397 1.002420 0.072477 -0.035215 -307157.000000 0 0 1
31.000086 -24.315564 26.653571 47.567477 -0.665138 0.976010 0.058753 -0.030875 -368786.000000 0 0 1
29.588886 -24.823364 26.342071 46.750468 -0.698039 0.972227 0.036839 -0.028231 214539.000000 0 0 1
28.703686 -23.930664 25.657971 45.331112 -0.694963 0.969136 0.038208 -0.025445 188018.000000 0 0 1
27.508316 -24.522564 25.193071 44.640278 -0.728077 0.971142 0.023243 -0.015473 65724.700000 0 0 1
26.437316 -23.467664 24.848671 43.210177 -0.725962 0.958112 0.022040 -0.011182 -513094.000000 0 0 1
26.547916 -22.695764 23.606471 42.156316 -0.707331 0.976441 0.025590 -0.005411 -204712.000000 0 0 1
27.551516 -21.723864 23.513171 42.236021 -0.667678 0.980378 0.035774 -0.000628 -158003.000000 0 0 1
27.372916 -21.028664 22.142371 41.009338 -0.655066 1.000437 0.044401 -0.012524 245894.000000 0 0 1
26.320316 -20.075564 22.128871 39.818014 -0.651605 0.981531 0.039519 -0.019628 147458.000000 0 0 1
26.105616 -19.578264 20.824971 38.710348 -0.643478 1.002770 0.021206 -0.019409 563969.000000 0 0 1
25.167616 -18.286764 20.887571 37.471392 -0.628355 0.979513 0.040190 -0.015160 380671.000000 0 0 1
25.788916 -17.147264 21.470071 37.683694 -0.586784 0.964602 0.049204 -0.039384 168305.000000 0 0 1
25.783116 -17.115164 22.907671 38.502718 -0.586024 0.933577 0.049404 -0.023857 -252357.000000 0 0 1
25.772216 -15.688364 23.504471 38.246464 -0.546815 0.908977 0.067006 -0.012040 198026.000000 0 0 1
24.542416 -15.090464 23.117171 36.938542 -0.551284 0.894604 0.016568 -0.017080 -89595.000000 0 0 1
24.542916 -13.757464 23.609371 36.729075 -0.510905 0.872651 0.008509 -0.010464 -415685.000000 0 0 1
23.190916 -13.069464 23.621071 35.589106 -0.513194 0.845020 -0.013103 -0.013720 191991.000000 0 0 1
22.099716 -13.807064 24.227471 35.580933 -0.558428 0.821790 0.016015 -0.016523 224574.000000 0 0 1
20.923316 -13.066964 24.050271 34.452086 -0.558252 0.798085 0.027099 -0.017636 -597715.000000 0 0 1
19.649616 -13.870164 24.290271 34.183419 -0.614658 0.780465 0.044023 -0.016547 -555316.000000 0 0 1
19.293116 -14.800264 23.305671 33.681248 -0.654372 0.806613 0.052850 -0.025043 -239607.000000 0 0 1
18.060316 -15.354464 23.700171 33.520631 -0.704597 0.785503 0.054288 -0.012754 -162109.000000 0 0 1
17.653016 -16.662264 23.075371 33.492279 -0.756534 0.810721 0.050600 -0.016436 -198013.000000 0 0 1
18.269016 -17.866364 23.560471 34.757153 -0.774256 0.825949 0.048328 -0.014288 44222.200000 0 0 1
17.867816 -18.979864 22.786871 34.622761 -0.815569 0.852441 0.051249 -0.017079 -68878.500000 0 0 1
18.552816 -20.294964 23.140971 35.938796 -0.830214 0.871212 0.049815 -0.005104 -122783.000000 0 0 1
17.971216 -20.790464 24.329171 36.703086 -0.858003 0.846158 0.070649 -0.007508 158869.000000 0 0 1
18.459516 -22.075164 24.713671 37.931941 -0.874362 0.861201 0.077511 -0.013769 -215292.000000 0 0 1
17.905316 -23.221264 23.851471 37.798414 -0.913944 0.887932 0.071681 -0.013437 28065.800000 0 0 1
18.457816 -23.377464 22.537771 37.351679 -0.902456 0.923046 0.067589 -0.006470 220198.000000 0 0 1
19.340216 -24.514164 22.475071 38.472289 -0.902835 0.946916 0.071179 -0.013305 831296.000000 0 0 1
20.314416 -24.482764 21.222971 38.242590 -0.878180 0.982486 0.059652 -0.006392 140049.000000 0 0 1
19.731816 -25.017164 20.090971 37.667628 -0.902965 1.008211 0.066598 -0.017925 233628.000000 0 0 1
20.667116 -25.317664 19.031171 37.819297 -0.886188 1.043483 0.053207 0.005893 358479.000000 0 0 1
19.922116 -25.826564 17.802471 37.159522 -0.913751 1.071187 0.047752 -0.005807 -30236.600000 0 0 1
19.414716 -27.094764 18.150571 37.953928 -0.949050 1.072162 0.068977 -0.019313 -504189.000000 0 0 1
18.459316 -27.546764 17.241471 37.374308 -0.980415 1.091315 0.071472 -0.020808 -443581.000000 0 0 1
17.694216 -28.696664 17.913571 38.176954 -1.018264 1.082384 0.073786 -0.023405 -609042.000000 0 0 1
16.772316 -28.400864 18.891371 38.010572 -1.037349 1.050655 0.071675 -0.027615 17505.000000 0 0 1
16.008716 -29.589864 19.280671 38.776066 -1.074873 1.050392 0.077596 -0.031362 886532.000000 0 0 1
14.693116 -29.295864 20.057271 38.424334 -1.105916 1.021609 0.066926 -0.025442 1809920.000000 0 0 1
13.558716 -28.877564 19.218571 37.243871 -1.131825 1.028599 0.071382 -0.018763 1009400.000000 0 0 1
12.359216 -28.536064 19.861671 36.899094 -1.162078 1.002413 0.046554 -0.014920 185515.000000 0 0 1
11.354216 -27.856364 18.908571 35.530681 -1.183757 1.009628 0.045438 -0.016181 -107961.000000 0 0 1
10.886716 -28.758364 17.918771 35.589977 -1.208910 1.043177 0.048323 -0.020922 98195.000000 0 0 1
10.457416 -28.089264 16.752971 34.336953 -1.214402 1.061115 0.061781 -0.022222 -67615.700000 0 0 1
10.391116 -28.964564 15.524571 34.466412 -1.226345 1.103554 0.065184 -0.019955 -53562.100000 0 0 1
9.410016 -29.972264 15.606571 35.077772 -1.266584 1.109719 0.062508 -0.013017 93935.100000 0 0 1
9.610316 -30.842564 14.509871 35.414097 -1.268738 1.148649 0.057319 -0.010229 -374262.000000 0 0 1
8.489116 -31.827164 14.245271 35.888176 -1.310139 1.162621 0.051976 -0.012705 -558317.000000 0 0 1
8.476216 -32.899264 15.245971 37.237715 -1.318639 1.148975 0.051204 -0.013254 157938.000000 0 0 1
7.363516 -33.763564 15.034671 37.686084 -1.356068 1.160430 0.037231 -0.010853 295426.000000 0 0 1
7.204016 33.309577 16.044571 37.667679 1.357802 1.130784 0.050242 -0.014138 394455.000000 0 0 1
8.407816 32.554377 16.090671 37.274503 1.318049 1.124441 0.061106 -0.017588 56086.800000 0 0 1
8.320116 31.500677 16.940771 36.722020 1.312568 1.091309 0.066427 -0.025195 -836940.000000 0 0 1
9.570516 30.689177 17.104871 36.414242 1.268501 1.081811 0.068184 -0.029989 -910483.000000 0 0 1
10.030916 29.879477 16.053671 35.371214 1.246906 1.099701 0.073552 -0.029543 160523.000000 0 0 1
11.034316 28.979777 16.552971 35.150882 1.206986 1.080472 0.065084 -0.025925 436505.000000 0 0 1
11.837516 28.311277 15.413371 34.339878 1.174767 1.105321 0.061736 -0.022916 177176.000000 0 0 1
11.032816 27.483577 14.599871 33.018575 1.189055 1.112778 0.063665 -0.023536 649023.000000 0 0 1
11.938016 26.746977 13.725371 32.346605 1.150997 1.132583 0.056396 -0.019890 469767.000000 0 0 1
-9.601522 -9.395623 19.403764 23.600276 0.774560 0.605559 0.022193 -0.007103 -296171.000000 0 1 0
-9.410522 -9.425523 17.996864 22.389406 0.786195 0.637121 0.006667 -0.008221 138829.000000 0 1 0
-9.282022 -10.755123 17.524464 22.559597 0.858785 0.681216 0.013468 -0.013636 -114091.000000 0 1 0
-9.525622 -10.857023 16.026064 21.574224 0.850626 0.733503 0.011829 -0.016508 383295.000000 0 1 0
-10.879722 -10.540623 15.692564 21.811227 0.769569 0.767755 0.023837 -0.021952 438170.000000 0 1 0
-11.349322 -10.916023 14.407464 21.343422 0.765940 0.829790 0.022586 -0.026318 210355.000000 0 1 0
-11.510522 -12.441623 14.167964 22.091113 0.824252 0.874550 0.017865 -0.027729 804105.000000 0 1 0
-10.370922 -13.084823 13.476964 21.456868 0.900589 0.891693 0.026311 -0.027457 1274740.000000 0 1 0
-10.364822 -14.515723 13.510164 22.375439 0.950709 0.922544 0.034733 -0.028228 -398717.000000 0 1 0
-9.877922 -15.213323 14.782964 23.399884 0.994917 0.886983 0.038494 -0.029757 336936.000000 0 1 0
-10.772622 -15.053923 15.892564 24.397614 0.949676 0.861370 0.053649 -0.012472 -33629.100000 0 1 0
-10.167522 -15.482323 17.055064 25.178483 0.989713 0.826619 0.045332 -0.014457 -65473.200000 0 0 1
-11.110722 -15.290223 18.299964 26.308321 0.942404 0.801547 0.049449 -0.009272 210839.000000 0 0 1
-11.443722 -13.945123 18.610064 25.918328 0.883605 0.769833 0.043516 -0.016638 239526.000000 0 0 1
-12.567122 -13.445923 17.913464 25.683021 0.819168 0.798918 0.033817 -0.022428 489707.000000 0 0 1
-13.964522 -13.428323 18.617664 26.869037 0.765826 0.805287 0.025157 -0.013518 733861.000000 0 0 1
-14.503322 -14.738923 18.820164 27.960343 0.793455 0.832401 0.041410 -0.013978 -447985.000000 0 0 1
-15.545622 -14.662323 19.738064 29.090226 0.756166 0.825061 0.055897 -0.013724 -509540.000000 0 0 1
-16.258222 -15.919323 20.169664 30.406742 0.774866 0.845538 0.069668 -0.012710 328015.000000 0 0 1
-17.261322 -16.432223 19.267864 30.646725 0.760796 0.890905 0.065595 -0.010130 450530.000000 0 0 1
-17.465222 -17.816723 19.553164 31.698514 0.795360 0.906065 0.052957 -0.021229 255977.000000 0 0 1
-18.795822 -18.391923 18.940664 32.408247 0.774538 0.946607 0.057444 -0.015553 401385.000000 0 0 1
-18.864022 -18.449323 17.513464 31.669390 0.774285 0.984825 0.063805 -0.018384 -30561.100000 0 0 1
-19.164122 -17.201323 16.910264 30.807566 0.731476 0.989749 0.056838 -0.014115 -422955.000000 0 0 1
-18.996322 -17.241123 15.367864 29.904645 0.737000 1.031077 0.062985 -0.018185 -131421.000000 0 0 1
-19.661622 -18.304923 14.788164 30.664953 0.749679 1.067575 0.069861 -0.026660 -207635.000000 0 0 1
-19.303322 -18.322123 13.474264 29.830759 0.759326 1.102137 0.084301 -0.029888 -34252.000000 0 0 1
-19.660822 -19.615623 12.793764 30.577786 0.784247 1.139113 0.097235 -0.031190 -130991.000000 0 0 1
-18.898522 -20.713623 13.233164 31.005240 0.831188 1.129840 0.089879 -0.026382 -82574.300000 0 0 1
-18.881122 -21.827823 12.322564 31.381463 0.857657 1.167263 0.076570 -0.022429 -16761.900000 0 0 1
-17.929722 -22.979623 12.811364 31.838169 0.908218 1.156670 0.075252 -0.021077 -14299.300000 0 0 1
-17.937022 -24.186223 12.049764 32.433115 0.932679 1.190144 0.094174 -0.031349 81088.900000 0 0 1
-17.090822 -24.173323 10.900664 31.547903 0.955380 1.217996 0.082863 -0.026312 -104973.000000 0 0 1
-17.213722 -25.339633 9.914164 32.197824 0.974085 1.257796 0.089065 -0.026047 -908089.000000 0 0 1
-18.484822 -25.352563 9.396164 32.752541 0.940799 1.279824 0.087024 -0.021551 -1313590.000000 0 0 1
-18.516722 -26.410183 8.529264 33.363379 0.959319 1.312279 0.100227 -0.022414 537657.000000 0 0 1
-19.828122 -26.380813 7.701864 33.888352 0.926265 1.341521 0.084529 -0.022043 283207.000000 0 0 1
-19.939122 -25.202223 6.953264 32.879606 0.901466 1.357711 0.094144 -0.023252 -242695.000000 0 0 1
-20.927622 -25.261293 5.943564 33.338030 0.878949 1.391556 0.091956 -0.014653 -22072.300000 0 0 1
-20.938422 -24.044023 5.007964 32.274018 0.854329 1.414997 0.093667 -0.015107 931480.000000 0 0 1
-21.883422 -24.043923 3.875764 32.741654 0.832405 1.452144 0.084831 -0.010636 907454.000000 0 0 1
-21.618622 -22.866023 3.168164 31.626841 0.813432 1.470455 0.082113 -0.004128 304526.000000 0 0 1
-22.217522 -22.774223 1.730864 31.863449 0.797771 1.516448 0.064484 -0.002077 212670.000000 0 0 1
-21.510522 -23.611023 0.818164 31.950780 0.831917 1.545187 0.051093 -0.006526 231623.000000 0 0 1
-21.881422 -23.421023 -0.554636 32.056958 0.819370 1.588099 0.056625 -0.004441 -9940.140000 0 0 1
-21.111022 -24.341223 -1.560736 32.258429 0.856347 1.619197 0.059196 -0.009051 661355.000000 0 0 1
-19.732622 -23.975623 -1.773136 31.102264 0.882170 1.627837 0.068988 -0.009794 873275.000000 0 0 1
-19.059422 -24.603423 -2.837536 31.251265 0.911695 1.661719 0.064107 -0.003134 71343.400000 0 0 1
-18.953922 -26.154933 -2.849636 32.426102 0.943699 1.658791 0.077184 -0.005609 -722424.000000 0 0 1
-20.123622 -26.843233 -3.257936 33.706579 0.927505 1.667603 0.073126 -0.008235 51372.500000 0 0 1
-19.817722 -28.170703 -3.572136 34.627890 0.957734 1.674138 0.074146 -0.001286 162691.000000 0 0 1
-21.011622 -28.848743 -4.281636 35.945384 0.941304 1.690195 0.080769 -0.012881 -30762.200000 0 0 1
-21.216622 -28.210893 -5.543136 35.731301 0.925970 1.726559 0.069844 -0.009708 -555825.000000 0 0 1
-22.312122 -28.741183 -6.210536 36.911477 0.910667 1.739855 0.078571 -0.023134 -413419.000000 0 0 1
-22.698922 -28.124043 -7.607936 36.933501 0.891741 1.778272 0.052412 -0.006221 -392175.000000 0 0 1
-21.659222 -28.215423 -8.533436 36.579386 0.916102 1.806251 0.077068 -0.005557 -52305.800000 0 0 1
-22.094122 -28.098213 -9.931336 37.098399 0.904454 1.841804 0.068358 -0.001725 63888.300000 0 0 1
-22.783722 -26.784443 -10.459236 36.686509 0.865935 1.859905 0.044617 0.007055 -57175.200000 0 0 1
-22.056422 -25.588983 -10.674136 35.429069 0.859405 1.876833 0.040214 0.008665 -134204.000000 0 0 1
-21.866522 -24.865123 -9.489836 34.445262 0.849477 1.849911 0.034300 0.011093 -66172.400000 0 0 1
-21.622422 -23.333423 -9.535636 33.210030 0.823439 1.862027 0.024537 0.002871 -224103.000000 0 0 1
-22.643322 -22.611423 -10.158336 33.573624 0.784693 1.878183 0.024004 0.001209 -110340.000000 0 0 1
-22.324122 -21.253923 -10.190936 32.464609 0.760845 1.890104 0.040216 -0.001393 -573342.000000 0 0 1
-23.589122 -20.496423 -10.477336 32.959438 0.715361 1.894295 0.059156 -0.000914 -1131990.000000 0 0 1
-24.119222 -20.712623 -11.765436 33.899485 0.709558 1.925240 0.054802 0.002427 173655.000000 0 0 1
-25.366842 -20.087723 -11.993636 34.508558 0.669776 1.925759 0.057584 -0.003837 -129179.000000 0 0 1
-25.406672 -18.553823 -11.984636 33.665632 0.630756 1.934770 0.062655 -0.013500 -1044010.000000 0 0 1
-24.835122 -17.984723 -13.168236 33.371185 0.626761 1.976428 0.086729 -0.010127 447869.000000 0 0 1
-24.693122 -16.589423 -13.103736 32.506416 0.591564 1.985711 0.087639 -0.022225 255460.000000 0 0 1
-23.676022 -15.960723 -12.088736 31.007035 0.593152 1.971288 0.079595 -0.020502 -336654.000000 0 0 1
-24.188522 -16.058323 -10.788736 30.973394 0.586072 1.926577 0.088162 -0.020773 490640.000000 0 0 1
-23.219122 -16.217623 -9.764536 29.958055 0.609692 1.902802 0.076741 -0.018752 -101542.000000 0 0 1
-23.961222 -16.630323 -8.495936 30.379083 0.606723 1.854240 0.067018 -0.022371 81366.100000 0 0 1
-24.301122 -17.967023 -8.384036 31.363203 0.636650 1.841408 0.058791 -0.017246 -149254.000000 0 0 1
-25.532312 -18.092823 -7.731736 32.233972 0.616491 1.813021 0.064472 -0.019317 -196014.000000 0 0 1
-25.774312 -19.485623 -7.066436 33.074751 0.647336 1.786107 0.056752 -0.000464 33025.600000 0 0 1
-25.789082 -20.537823 -8.024136 33.930306 0.672528 1.809547 0.049460 -0.011541 128573.000000 0 0 1
-25.975032 -21.765023 -7.420836 34.691314 0.697440 1.786373 0.061448 -0.003550 -23419.400000 0 0 1
-25.621522 -22.924123 -8.316036 35.371376 0.729891 1.808124 0.048625 0.004261 169998.000000 0 0 1
-26.134052 -24.153923 -7.782536 36.427579 0.746043 1.786100 0.041123 0.005273 -102456.000000 0 0 1
-25.897752 -25.180613 -8.704736 37.155474 0.771359 1.807273 0.026070 0.015258 -164121.000000 0 0 1
-26.399012 -26.613313 -8.359036 38.406376 0.789441 1.790199 0.022966 0.004532 -305289.000000 0 0 1
-25.949802 -27.085923 -7.153436 38.186530 0.806817 1.759238 0.036567 -0.009658 -125689.000000 0 0 1
-26.494032 -28.335723 -6.860436 39.394320 0.818975 1.745837 0.051641 -0.013575 -450266.000000 0 0 1
-26.175132 -28.963253 -5.488336 39.422447 0.835921 1.710469 0.070632 -0.020583 -366235.000000 0 0 1
-26.861992 -28.397573 -4.398336 39.336168 0.813180 1.682845 0.054520 -0.023524 70337.900000 0 0 1
-26.561432 -28.963363 -3.127036 39.422892 0.828630 1.650200 0.050695 -0.014219 -216127.000000 0 0 1
-27.079702 -30.432493 -2.872636 40.837469 0.843629 1.641198 0.044965 0.003286 -52805.000000 0 0 1
-26.390152 -31.441573 -3.638636 41.209857 0.872524 1.659207 0.080442 -0.011454 379246.000000 0 0 1
-26.065062 -32.621203 -2.878336 41.854691 0.896652 1.639620 0.085374 -0.018857 -102470.000000 0 0 1
-25.182282 -32.597993 -1.626736 41.224055 0.913044 1.610267 0.093856 -0.016877 -633084.000000 0 0 1
-23.902322 -32.112543 -1.891736 40.076365 0.930934 1.618017 0.095068 -0.026738 -731297.000000 0 0 1
-23.040522 -32.127033 -0.805136 39.543142 0.948640 1.591159 0.094291 -0.018622 380569.000000 0 0 1
-22.000422 -30.945793 -0.763136 37.976875 0.952770 1.590892 0.096416 -0.019258 535261.000000 0 0 1
-22.520822 -29.662393 -0.425636 37.245485 0.921409 1.582224 0.086988 -0.018211 -131461.000000 0 0 1
-23.068522 -28.973283 -1.541636 37.067296 0.898377 1.612399 0.096422 -0.021463 -317205.000000 0 0 1
-23.660922 -27.605803 -1.063636 36.373766 0.862195 1.600042 0.054822 -0.016726 -95790.100000 0 0 1
-24.931222 -27.711403 -0.466136 37.278747 0.838161 1.583301 0.075874 -0.020420 -84390.300000 0 0 1
-25.600272 -26.470673 -0.245736 36.825681 0.802112 1.577469 0.067367 -0.020475 326234.000000 0 0 1
-24.965822 -25.615673 0.881664 35.780334 0.798245 1.546153 0.071651 -0.007176 -25716.300000 0 0 1
-25.244662 -26.221963 2.167464 36.463436 0.804385 1.511319 0.052305 -0.008316 -105528.000000 0 0 1
-24.725222 -25.471483 3.259764 35.647708 0.800264 1.479225 0.067092 -0.007069 21976.400000 0 0 1
-25.602662 -24.299223 3.758564 35.497540 0.759284 1.464715 0.073296 -0.009622 -249124.000000 0 0 1
-25.605072 -23.177423 2.893664 34.658129 0.735674 1.487207 0.068499 -0.002744 345988.000000 0 0 1
-26.571542 -22.184623 3.279264 34.770072 0.695663 1.476343 0.056798 -0.004101 268379.000000 0 0 1
-26.556832 -21.005823 2.235664 33.933878 0.669214 1.504866 0.060067 0.000446 821708.000000 0 0 1
-25.361602 -20.212123 2.397264 32.519035 0.672883 1.497011 0.056063 0.000815 618401.000000 0 0 1
-25.245372 -19.117523 1.548064 31.704968 0.648137 1.521950 0.041630 -0.002898 -1157100.000000 0 0 1
-23.907122 -18.496823 1.704064 30.275184 0.658494 1.514481 0.061863 -0.006463 -1981690.000000 0 0 1
-22.816622 -19.179723 1.223364 29.832141 0.699013 1.529777 0.065735 -0.005326 -1663500.000000 0 0 1
-21.688422 -18.518423 1.629564 28.565278 0.706719 1.513718 0.071727 -0.006659 -1093040.000000 0 0 1
-20.404822 -19.351823 1.481564 28.161052 0.758918 1.518162 0.066386 -0.007516 -323400.000000 0 0 1
-20.199422 -19.702123 0.128264 28.217135 0.772936 1.566251 0.048767 -0.004636 604119.000000 0 0 1
-19.053022 -20.536423 -0.110136 28.013826 0.822850 1.574728 0.068617 0.001291 559377.000000 0 0 1
-18.714122 -20.893023 -1.598036 28.094314 0.840356 1.627708 0.071356 -0.004330 91913.800000 0 0 1
-18.060822 -19.752323 -2.160236 26.851707 0.830102 1.651334 0.064841 -0.007443 70652.900000 0 0 1
-17.930422 -20.093023 -3.505336 27.157264 0.842212 1.700233 0.072327 -0.008896 163426.000000 0 0 1
-17.136522 -19.091323 -4.390236 26.027162 0.839304 1.740286 0.072906 -0.012043 -349678.000000 0 0 1
-15.752822 -19.055723 -4.221636 25.081750 0.880003 1.739916 0.089861 -0.019039 -423049.000000 0 0 1
-15.143922 -18.411923 -5.352436 24.433294 0.882482 1.791651 0.090045 -0.016998 214298.000000 0 1 0
-13.614322 -18.232723 -5.248236 23.352214 0.929412 1.797475 0.096274 -0.028459 -298040.000000 0 1 0
-12.864122 -19.388823 -5.353636 23.876212 0.985002 1.796944 0.073757 -0.035453 611784.000000 0 1 0
-11.477122 -19.044823 -5.573936 22.923751 1.028440 1.816409 0.063760 -0.041052 1296410.000000 0 1 0
-10.500022 -20.261123 -5.557736 23.487273 1.092667 1.809690 0.060564 -0.042458 197499.000000 0 1 0
-10.768122 -21.288523 -6.539336 24.736947 1.102505 1.838331 0.057771 -0.034759 -413485.000000 0 1 0
-9.648522 -22.086823 -6.742636 25.027682 1.158936 1.843574 0.060552 -0.030260 -518042.000000 0 0 1
-10.027622 -23.207723 -7.673036 26.420202 1.162943 1.865465 0.067124 -0.021206 -575020.000000 0 0 1
-10.162222 -22.844223 -9.023436 26.581039 1.152235 1.917149 0.067492 -0.017010 -47024.200000 0 0 1
-10.389322 -23.913623 -9.890936 27.886017 1.160947 1.933381 0.075650 -0.013873 88285.200000 0 0 1
-11.289322 -23.561323 -11.132336 28.399183 1.123970 1.973595 0.090393 -0.017384 195031.000000 0 0 1
-10.734222 -22.690723 -12.107336 27.868979 1.128927 2.020210 0.080655 -0.013810 -50951.500000 0 0 1
-11.613122 -22.409923 -13.196536 28.481885 1.092684 2.052546 0.079673 -0.018848 -77355.600000 0 0 1
-11.207122 -21.217223 -14.145736 27.854478 1.084837 2.103477 0.062686 -0.002544 -148502.000000 0 0 1
-10.947822 -20.059223 -13.429136 26.506016 1.071203 2.102085 0.060242 -0.001812 -184240.000000 0 0 1
-10.786022 -18.905023 -14.198336 25.987129 1.052322 2.148809 0.051570 0.010077 -30381.000000 0 0 1
-10.353022 -17.658523 -13.408536 24.470335 1.040518 2.150709 0.063917 0.003449 -423181.000000 0 1 0
-11.300322 -17.266823 -12.467036 24.109488 0.991297 2.114257 0.060821 -0.005129 -542173.000000 0 1 0
-10.831122 -16.363823 -11.456836 22.723270 0.986105 2.099240 0.049441 -0.016330 263732.000000 0 1 0
-10.452422 -14.890523 -11.942936 21.762686 0.958762 2.151701 0.046724 -0.012215 1280620.000000 0 1 0
-11.623822 -14.191823 -12.436236 22.162604 0.884547 2.166554 0.044514 0.000719 706044.000000 0 1 0
-11.479422 -14.099223 -13.864836 22.864796 0.887464 2.222301 0.050864 -0.005164 -177839.000000 0 1 0
-12.621222 -13.374623 -14.606536 23.484605 0.814372 2.242042 0.035736 -0.007339 -162584.000000 0 1 0
-12.709822 -11.948523 -14.335036 22.578751 0.754534 2.258663 0.036010 0.011413 -312378.000000 0 1 0
-13.745022 -11.365523 -15.097536 23.367420 0.690919 2.273251 0.045339 0.000499 -177755.000000 0 1 0
-14.126722 -10.028023 -14.355636 22.499106 0.617314 2.262764 0.054002 -0.012923 -12510.200000 0 1 0
-13.249522 -8.908723 -14.514136 21.577194 0.591948 2.308595 0.049546 -0.013106 15947.300000 0 1 0
-13.210322 -8.253723 -15.791736 22.181422 0.558451 2.363047 0.047090 -0.015582 -392014.000000 0 1 0
-12.074222 -7.251123 -15.863436 21.213538 0.540821 2.415535 0.034288 -0.009282 707970.000000 0 1 0
-10.729822 -7.783623 -15.909036 20.707759 0.627583 2.446922 0.023905 -0.009905 728525.000000 0 1 0
-9.818322 -6.748923 -15.733136 19.735221 0.602206 2.493458 0.014430 -0.001095 -264215.000000 0 1 0
11.154378 21.759777 16.045864 29.246843 1.097108 0.990065 0.085769 -0.023065 -307521.000000 0 0 1
12.141278 21.845377 17.036764 30.247024 1.063524 0.972477 0.097693 -0.026625 -86807.500000 0 0 1
12.745078 20.569777 17.291964 29.741634 1.016088 0.950341 0.088809 -0.022308 -183635.000000 0 0 1
13.952778 20.633677 18.218564 30.860083 0.976213 0.939291 0.089636 -0.030057 -58881.500000 0 0 1
15.168678 21.087277 17.624764 31.390992 0.947216 0.974648 0.071618 -0.028368 321494.000000 0 0 1
16.228578 20.637077 18.455064 32.091200 0.904416 0.958092 0.070239 -0.025023 527317.000000 0 0 1
17.659078 21.139777 18.104564 32.962228 0.874870 0.989328 0.046838 -0.018823 -552597.000000 0 0 1
17.717378 22.522377 18.320064 34.011582 0.904245 1.001972 0.050513 -0.022665 317970.000000 0 0 1
18.948178 23.142377 17.948164 34.881796 0.884717 1.030322 0.056048 -0.016661 2078010.000000 0 0 1
20.300878 22.664377 18.701764 35.714922 0.840352 1.019678 0.049087 -0.019626 811896.000000 0 0 1
20.742278 21.433477 18.214464 34.948573 0.801785 1.022564 0.046398 -0.022982 121520.000000 0 0 1
21.978478 21.151777 18.870764 35.868606 0.766233 1.016779 0.045567 -0.024712 213234.000000 0 0 1
22.233578 19.592777 18.792964 35.091088 0.722345 1.005640 0.033405 -0.026708 -118905.000000 0 0 1
22.416178 19.049777 17.494764 34.226391 0.704391 1.034276 0.021738 -0.020602 -73419.100000 0 0 1
22.177978 17.677477 17.363664 33.254364 0.672954 1.021430 0.015167 -0.023600 -661760.000000 0 0 1
23.237078 16.685377 17.841764 33.714866 0.622737 1.013144 0.021518 -0.017565 29097.400000 0 0 1
24.321878 16.704977 16.898864 34.002671 0.601832 1.050674 0.031304 -0.027279 486860.000000 0 0 1
25.283678 15.691177 17.120564 34.330615 0.555433 1.048702 0.019978 -0.013102 -739016.000000 0 0 1
26.444478 15.714677 16.076764 34.709132 0.536182 1.089210 0.082668 -0.032309 456713.000000 0 0 1
27.459178 16.693377 16.360264 36.060138 0.546233 1.099890 0.059473 -0.030711 577978.000000 0 0 1
28.300178 16.537777 17.495364 37.154891 0.528848 1.080512 0.075508 -0.039714 837947.000000 0 0 1
29.634878 15.725277 17.097564 37.654177 0.487854 1.099470 0.095412 -0.046479 1277000.000000 0 0 1
30.516578 16.335177 16.147564 38.194808 0.491478 1.134298 0.126671 -0.039946 34469.900000 0 0 1
30.917578 15.497577 15.106864 37.739752 0.464651 1.158963 0.121656 -0.040151 -753191.000000 0 0 1
30.046878 15.225977 13.900264 36.439849 0.469026 1.179424 0.098217 -0.035391 -688018.000000 0 0 1
30.042778 16.248677 12.910764 36.514050 0.495792 1.209397 0.113728 -0.027032 -122575.000000 0 0 1
29.231878 15.936277 11.760364 35.309684 0.499126 1.231246 0.101269 -0.021644 99945.300000 0 0 1
27.915678 16.722677 11.915464 34.654167 0.539715 1.219794 0.077492 -0.023853 -683969.000000 0 0 1
27.915578 18.119077 11.765664 35.298886 0.575719 1.230978 0.051704 -0.014438 -174454.000000 0 0 1
28.442978 18.904677 12.782164 36.466060 0.586606 1.212668 0.064962 -0.017160 -420908.000000 0 0 1
27.660478 18.853277 14.098764 36.322490 0.598267 1.172167 0.047988 -0.020851 281463.000000 0 0 1
26.334078 19.356077 14.148464 35.613487 0.633845 1.162247 0.039135 -0.015423 814285.000000 0 0 1
25.551978 19.214577 15.352964 35.465717 0.644767 1.123093 0.029090 -0.019953 379840.000000 0 0 1
26.107378 20.005777 16.551864 36.821061 0.653844 1.104567 0.040635 -0.033223 -351820.000000 0 0 1
25.939778 21.417877 16.500264 37.468070 0.690203 1.114772 0.023873 -0.024109 429142.000000 0 0 1
24.642678 22.010577 16.605164 36.979164 0.729040 1.105104 0.021331 -0.016414 75577.300000 0 0 1
24.651478 23.537577 16.385564 37.817980 0.762287 1.122674 0.028509 -0.007327 -106555.000000 0 0 1
24.916678 23.860477 15.004164 37.620316 0.763748 1.160554 0.050492 -0.015477 -23327.900000 0 0 1
24.960378 25.232277 14.817764 38.461077 0.790815 1.175300 0.055191 -0.010023 -209031.000000 0 0 1
25.012478 25.518277 13.303764 38.128686 0.795408 1.214381 0.068199 -0.017894 -635999.000000 0 0 1
23.915378 25.008177 12.642164 36.839904 0.807731 1.220512 0.084877 -0.013105 -528007.000000 0 0 1
23.840978 25.318577 11.267664 36.556571 0.815446 1.257469 0.093750 -0.026184 -250200.000000 0 0 1
22.907878 24.493277 10.326864 35.090392 0.818832 1.272080 0.088380 -0.030659 -286561.000000 0 0 1
21.540178 24.803177 10.566864 34.508484 0.855691 1.259586 0.095755 -0.026457 144898.000000 0 0 1
20.844478 23.760777 11.256964 33.552735 0.850685 1.228660 0.094818 -0.030080 24827.100000 0 0 1
20.433178 22.545877 10.354864 32.141166 0.834515 1.242777 0.101542 -0.028824 -204321.000000 0 0 1
19.395278 22.824377 9.388864 31.389167 0.866441 1.267035 0.107346 -0.023138 863491.000000 0 0 1
19.954678 23.271677 8.114864 31.711373 0.861984 1.312020 0.103784 -0.027360 408158.000000 0 0 1
18.836878 23.490877 7.062864 30.927873 0.894910 1.340398 0.095982 -0.029476 -300959.000000 0 0 1
18.161778 22.326577 6.680864 29.545900 0.887902 1.342706 0.097869 -0.022462 388209.000000 0 0 1
17.414178 22.373077 5.440264 28.868749 0.909394 1.381215 0.099790 -0.023056 131558.000000 0 0 1
16.034978 23.064277 5.494364 28.622883 0.963279 1.377640 0.073399 -0.018690 -511154.000000 0 0 1
16.037078 24.475577 5.643264 29.800809 0.990755 1.380280 0.083941 -0.023054 13797.700000 0 0 1
14.716078 24.951377 5.784964 29.539804 1.037918 1.373686 0.068869 -0.022933 -36515.700000 0 0 1
14.580978 26.447277 5.509364 30.698803 1.066938 1.390354 0.069716 -0.024834 -330293.000000 0 0 1
14.489378 26.754277 4.135464 30.705627 1.074446 1.435705 0.063760 -0.016892 305308.000000 0 0 1
14.480678 28.150677 3.853864 31.890484 1.095696 1.449653 0.065582 -0.022122 -174397.000000 0 0 1
13.943878 28.574877 2.471964 31.891472 1.116813 1.493207 0.068699 -0.020394 -88814.000000 0 0 1
14.786678 28.113177 1.440864 31.797369 1.086589 1.525467 0.085567 -0.024443 247907.000000 0 0 1
14.208378 27.013577 0.774364 30.532131 1.086588 1.545431 0.073480 -0.018857 158230.000000 0 0 1
15.214078 26.414977 -0.225036 30.483928 1.048238 1.578179 0.074494 -0.022312 156475.000000 0 0 1
15.159678 27.075277 -1.428736 31.063287 1.060378 1.616807 0.074589 -0.009866 -752377.000000 0 0 1
16.192878 26.706077 -2.256536 31.313189 1.025730 1.642922 0.070646 -0.010408 -633435.000000 0 0 1
16.046378 27.274577 -3.701936 31.860527 1.039004 1.687251 0.092799 -0.021906 -155567.000000 0 0 1
15.019378 26.668277 -4.460236 30.930122 1.057881 1.715504 0.109026 -0.024819 -284454.000000 0 0 1
15.089478 27.008277 -5.880736 31.491625 1.061300 1.758639 0.109978 -0.023585 506099.000000 0 0 1
13.774078 26.701477 -6.662236 30.774657 1.094546 1.789008 0.125129 -0.043103 449476.000000 0 0 1
13.614978 25.374277 -7.056936 29.648304 1.078325 1.811125 0.106585 -0.037723 191764.000000 0 0 1
12.383078 25.335777 -7.776436 29.252610 1.116182 1.839869 0.089392 -0.039866 406261.000000 0 0 1
11.997978 23.928277 -8.258936 28.012925 1.106018 1.870070 0.089028 -0.031691 -2111.090000 0 0 1
12.694978 23.467377 -9.401436 28.288996 1.074918 1.909575 0.088308 -0.035379 330484.000000 0 0 1
12.217478 22.159877 -9.749736 27.117970 1.066930 1.938561 0.086542 -0.028000 -85383.400000 0 0 1
12.708778 21.799677 -11.212436 27.612636 1.042985 1.988937 0.089858 -0.024805 633978.000000 0 0 1
12.067878 20.559177 -11.627736 26.523908 1.040003 2.024600 0.095342 -0.024430 248465.000000 0 0 1
12.321378 20.339577 -13.015936 27.109580 1.026135 2.071591 0.089975 -0.020659 453127.000000 0 0 1
13.602178 19.579977 -13.512236 27.403928 0.963637 2.086419 0.081835 -0.020090 1190150.000000 0 0 1
14.795878 20.280577 -13.132236 28.331527 0.940506 2.052760 0.074479 -0.019494 34956.700000 0 0 1
15.955778 19.657777 -13.597236 28.738474 0.888975 2.063645 0.072064 -0.014964 228071.000000 0 0 1
17.320278 20.343177 -13.332736 29.859651 0.865487 2.033661 0.075658 -0.003570 62086.800000 0 0 1
17.674378 21.496477 -14.116136 31.204927 0.882665 2.040216 0.060054 -0.003522 410629.000000 0 0 1
16.818578 22.675077 -13.997936 31.511362 0.932615 2.031098 0.066361 -0.009184 313912.000000 0 0 1
17.361278 23.971277 -14.715336 33.054156 0.943978 2.032181 0.057055 -0.015886 -239024.000000 0 0 1
17.330478 24.119277 -16.131236 33.797955 0.947741 2.068358 0.050858 -0.005412 -419759.000000 0 0 1
16.048678 24.408077 -16.608436 33.602894 0.989156 2.087775 0.069304 -0.002019 -53090.400000 0 0 1
16.007978 24.320277 -18.158936 34.314402 0.988668 2.128445 0.043094 0.013771 163430.000000 0 0 1
16.498178 23.164377 -18.796636 34.089467 0.951915 2.154827 0.038978 0.015265 87568.500000 0 0 1
16.209978 23.340877 -20.151536 34.837399 0.963779 2.187618 0.043063 0.018038 -117475.000000 0 0 1
16.561478 22.066077 -20.995736 34.670092 0.926950 2.221299 0.045849 0.016528 -58169.300000 0 0 1
15.672278 21.004577 -20.735036 33.417874 0.929773 2.240148 0.045959 0.013703 28346.000000 0 0 1
15.956778 19.940577 -21.650836 33.481399 0.895923 2.273984 0.043653 0.017623 27738.100000 0 0 1
14.869878 18.846877 -21.753436 32.396451 0.902809 2.306995 0.037898 0.014905 -495513.000000 0 0 1
14.741078 18.096377 -20.599536 31.130678 0.887224 2.293896 0.034573 0.006936 426345.000000 0 0 1
14.016478 16.854477 -20.826836 30.237264 0.877072 2.330602 0.038165 -0.001652 621136.000000 0 0 1
12.473378 16.879877 -21.011336 29.698344 0.934405 2.356739 0.058655 -0.011630 -603361.000000 0 0 1
11.782178 17.236277 -19.880536 28.829580 0.971183 2.331716 0.057677 -0.012576 609951.000000 0 0 1
10.389678 17.279977 -20.281436 28.598596 1.029454 2.359125 0.066833 -0.012288 375787.000000 0 0 1
9.382378 16.973577 -19.236136 27.315934 1.065834 2.352105 0.066737 -0.017959 -986654.000000 0 0 1
9.349078 15.644977 -18.812936 26.193456 1.032160 2.372052 0.066288 -0.028005 -439402.000000 0 0 1
8.062678 15.139177 -18.621536 25.317248 1.081433 2.397241 0.080318 -0.021919 -242312.000000 0 0 1
7.462978 15.368277 -17.193136 24.238067 1.118727 2.359364 0.068224 -0.022508 147376.000000 0 1 0
7.329378 16.727577 -16.804136 24.817546 1.157831 2.314621 0.064844 -0.020743 -204601.000000 0 1 0
6.552778 16.756277 -15.613236 23.821941 1.198017 2.285527 0.057778 -0.025567 21304.900000 0 1 0
6.012078 18.230177 -15.488336 24.665218 1.252241 2.249703 0.053548 -0.016460 -695869.000000 0 1 0
6.978878 19.199977 -15.141236 25.428348 1.222160 2.208618 0.039158 -0.019032 -71067.800000 0 0 1
7.579678 19.807977 -16.300836 26.749294 1.205329 2.226091 0.049794 -0.009906 288268.000000 0 0 1
8.918678 20.551777 -16.007536 27.534698 1.161360 2.191194 0.052036 -0.002834 239884.000000 0 0 1
8.931578 21.740877 -15.229936 28.006960 1.180998 2.145744 0.046151 -0.013466 -160708.000000 0 0 1
8.671278 21.605677 -13.830536 27.079145 1.189133 2.106847 0.032890 -0.019146 -163850.000000 0 0 1
8.373378 22.938177 -13.126436 27.723217 1.220785 2.064036 0.041647 -0.023390 -96399.300000 0 0 1
7.127278 23.485877 -13.554236 28.037508 1.276158 2.075368 0.031834 -0.017907 68713.800000 0 0 1
6.797478 24.556077 -12.698036 28.468347 1.300744 2.033133 0.024326 -0.021920 217196.000000 0 0 1
5.957778 24.179577 -11.439536 27.404563 1.329211 2.001414 0.020838 -0.020149 -819442.000000 0 0 1
6.699578 23.433577 -10.530536 26.550124 1.292328 1.978638 0.016681 -0.022620 -544839.000000 0 0 1
5.942978 23.062177 -9.443336 25.619516 1.318590 1.948298 0.029588 -0.031834 -252465.000000 0 0 1
6.805778 22.976577 -8.154636 25.312839 1.282825 1.898800 0.017589 -0.034880 98373.700000 0 0 1
7.199178 24.213177 -7.661236 26.396982 1.281796 1.865265 0.023668 -0.026844 -84110.800000 0 0 1
8.177378 24.054677 -6.660236 26.265105 1.243103 1.827173 0.046862 -0.025061 4536.160000 0 0 1
8.481678 25.329777 -5.748736 27.323698 1.247681 1.782774 0.044636 -0.030353 -23550.400000 0 0 1
9.200078 26.268977 -6.487536 28.579516 1.233920 1.799792 0.070300 -0.034276 -88942.400000 0 0 1
9.464278 27.455577 -5.756336 29.606025 1.238840 1.766474 0.064839 -0.028893 178513.000000 0 0 1
9.853578 28.633077 -6.674436 31.007970 1.239358 1.787743 0.067629 -0.021655 -534401.000000 0 0 1
11.156778 28.600377 -7.137636 31.518267 1.198860 1.799238 0.074033 -0.027277 -988586.000000 0 0 1
11.445878 29.792577 -7.817336 32.859040 1.203997 1.811005 0.069875 -0.019587 330091.000000 0 0 1
12.794778 29.894477 -8.587336 33.632253 1.166389 1.828986 0.085653 -0.028536 733456.000000 0 0 1
13.926378 29.969877 -7.740036 33.941799 1.135802 1.800859 0.082979 -0.021354 465120.000000 0 0 1
15.020978 30.681477 -8.373336 35.172370 1.115521 1.811170 0.077355 -0.021837 977945.000000 0 0 1
16.264878 30.945177 -7.497036 35.754102 1.086877 1.782047 0.074985 -0.017825 195426.000000 0 0 1
16.889278 29.797177 -6.961936 34.951224 1.055140 1.771328 0.077393 -0.018696 469679.000000 0 0 1
18.038778 30.184277 -6.179636 35.702605 1.032127 1.744759 0.059104 -0.009576 748258.000000 0 0 1
19.108778 29.087977 -5.990036 35.314818 0.989565 1.741239 0.056547 -0.004144 -216624.000000 0 0 1
18.809478 28.007177 -5.123136 34.123965 0.979390 1.721499 0.074310 -0.013121 -822608.000000 0 0 1
19.907678 27.195277 -4.947136 34.064247 0.938897 1.716541 0.060123 -0.008686 -804127.000000 0 0 1
20.045978 26.016277 -5.972536 33.382018 0.914293 1.750680 0.060787 -0.003374 -534786.000000 0 0 1
20.527478 26.308377 -7.231436 34.143839 0.908206 1.784206 0.049708 0.003747 137842.000000 0 0 1
20.569478 25.220177 -8.166736 33.553783 0.886618 1.816658 0.046455 -0.009996 -1204520.000000 0 0 1
21.040478 25.671577 -9.527736 34.532729 0.884217 1.850327 0.044722 -0.011628 1040580.000000 0 0 1
22.454978 25.913877 -9.612536 35.611177 0.856788 1.844117 0.022488 -0.004428 907039.000000 0 0 1
23.319578 24.816177 -9.498236 35.353386 0.816479 1.842804 0.040044 -0.004380 -393170.000000 0 0 1
24.846678 25.097477 -9.557736 36.586761 0.790420 1.835098 0.018128 0.006793 461456.000000 0 0 1
25.287578 25.341777 -10.865436 37.412899 0.786469 1.865462 0.018397 0.006212 468579.000000 0 0 1
26.716878 25.394177 -10.911836 38.441176 0.760021 1.858612 0.008101 0.019390 552372.000000 0 0 1
27.334678 25.470277 -12.277436 39.327536 0.750106 1.888288 0.001390 0.008855 -45530.300000 0 0 1
27.104778 26.697377 -12.955136 40.190229 0.777826 1.899002 -0.005271 0.012958 -36797.200000 0 0 1
27.766478 26.648577 -14.203036 41.022557 0.764857 1.924341 -0.008341 0.011407 296422.000000 0 0 1
27.366878 27.854177 -15.081936 41.860077 0.794222 1.939379 -0.002553 0.005437 -169845.000000 0 0 1
27.966378 29.052577 -14.611836 42.891448 0.804446 1.918426 0.007882 -0.000188 130148.000000 0 0 1
27.734678 30.153977 -15.467536 43.791773 0.827166 1.931793 0.033795 -0.005030 -338360.000000 0 0 1
28.317578 31.512377 -14.959736 44.930044 0.838745 1.910233 0.036348 -0.010402 -539253.000000 0 0 1
29.705678 31.587077 -14.979736 45.875519 0.816084 1.903426 0.030495 -0.008841 -787246.000000 0 0 1
30.163178 32.888177 -15.155436 47.128938 0.828590 1.898188 0.040561 -0.015821 -185089.000000 0 0 1
16.027178 -32.335064 -27.956709 45.650896 -1.110627 2.229892 0.103505 -0.047006 130304.000000 0 0 1
17.077278 -33.060064 -27.342889 46.176128 -1.093994 2.204512 0.086651 -0.038199 151048.000000 0 0 1
17.500278 -32.614564 -26.076079 45.276168 -1.078316 2.184542 0.087810 -0.038427 -645153.000000 0 0 1
18.757478 -33.381164 -25.580509 46.048969 -1.058849 2.159768 0.033493 -0.026059 347973.000000 0 0 1
19.981178 -32.779464 -25.982499 46.355485 -1.023374 2.165792 0.047612 -0.027311 381067.000000 0 0 1
20.373978 -32.995064 -27.309329 47.429660 -1.017619 2.184361 0.051691 -0.028826 -1186990.000000 0 0 1
21.855778 -32.680664 -27.520429 47.990362 -0.981340 2.181516 0.062920 -0.020421 -378756.000000 0 0 1
22.161678 -31.339164 -27.690169 47.328940 -0.955284 2.195748 0.067369 -0.027667 -1648060.000000 0 0 1
23.483378 -31.139764 -27.469589 47.704635 -0.924658 2.184411 0.025228 -0.011060 -1740290.000000 0 0 1
24.045278 -29.937364 -28.273929 47.684758 -0.894116 2.205494 0.009242 -0.008685 -33427.800000 0 0 1
24.326178 -30.191564 -29.604019 48.782081 -0.892573 2.222904 0.004698 -0.010284 140667.000000 0 0 1
24.916878 -29.119764 -30.362969 48.895003 -0.863020 2.240793 0.009810 -0.016370 262313.000000 0 0 1
25.066578 -29.476164 -31.852969 50.117753 -0.866069 2.259533 0.021618 -0.007442 -66443.600000 0 0 1
26.178778 -30.313064 -32.036679 51.288976 -0.858452 2.245455 0.013579 -0.010567 -359603.000000 0 0 1
26.255378 -30.478364 -33.455089 52.321301 -0.859696 2.264535 0.010299 -0.018212 224786.000000 0 0 1
27.465078 -31.332264 -33.949139 53.745561 -0.851075 2.254494 -0.000889 -0.018968 -204013.000000 0 0 1
28.672278 -30.662064 -33.889619 53.951533 -0.818921 2.249969 0.009455 -0.025137 -1517810.000000 0 0 1
29.692078 -31.374964 33.786501 54.841002 -0.812949 0.907039 0.018099 -0.010441 -780743.000000 0 0 1
30.946478 -30.527364 33.584393 54.931921 -0.778581 0.912990 0.031919 -0.020661 -331053.000000 0 0 1
30.894078 -29.634764 32.504745 53.751481 -0.764596 0.921379 0.039100 -0.018409 800069.000000 0 0 1
32.187478 -29.020264 32.321788 54.063920 -0.733699 0.929988 0.043891 -0.027914 645704.000000 0 0 1
32.197978 -27.938464 31.217374 52.837411 -0.714685 0.938722 0.036704 -0.033290 -299611.000000 0 0 1
33.369278 -27.126264 31.199624 53.129648 -0.682564 0.943157 0.045934 -0.038173 363647.000000 0 0 1
33.627678 -26.354764 30.052524 52.235510 -0.664736 0.957792 0.046128 -0.030972 -90627.300000 0 0 1
34.251678 -27.089964 28.777434 52.298990 -0.669173 0.988135 0.053179 -0.030121 -435209.000000 0 0 1
33.555078 -28.111164 28.134344 52.035777 -0.697346 0.999559 0.056112 -0.043259 2049.730000 0 0 1
32.454678 -27.613664 27.386994 50.654398 -0.704980 0.999570 0.059865 -0.046271 -154363.000000 0 0 1
31.717978 -28.702764 26.595834 50.370797 -0.735536 1.014551 0.055198 -0.033120 409501.000000 0 0 1
30.457878 -28.202564 26.130064 49.049436 -0.746970 1.008974 0.058932 -0.030096 414218.000000 0 0 1
29.877178 -29.088264 25.196114 48.719781 -0.772020 1.027262 0.038775 -0.023774 628421.000000 0 0 1
28.505878 -28.526864 24.682344 47.281975 -0.785766 1.021574 0.033053 -0.013050 946533.000000 0 0 1
27.423178 -28.559364 25.599394 47.148668 -0.805691 0.996850 0.024913 -0.016401 811297.000000 0 0 1
26.145378 -28.201664 25.037704 45.889010 -0.823216 0.993674 0.016941 -0.003536 587606.000000 0 0 1
25.099578 -28.167464 26.130054 45.893078 -0.842929 0.965059 0.036696 -0.003133 -694648.000000 0 0 1
25.222478 -27.073564 26.997604 45.804169 -0.820780 0.940463 0.015983 -0.005809 653349.000000 0 0 1
24.001078 -26.908864 27.731014 45.487887 -0.842452 0.915196 0.035059 -0.013904 342867.000000 0 0 1
24.023978 -25.741264 28.756864 45.461208 -0.819892 0.885944 0.038538 -0.005314 -12241.400000 0 0 1
22.837678 -25.666764 29.549304 45.315601 -0.843658 0.860474 0.071126 -0.008132 326222.000000 0 0 1
22.666278 -24.479764 30.298684 45.066942 -0.823844 0.833480 0.073794 -0.003759 -271444.000000 0 0 1
22.499878 -23.092364 29.612264 43.776569 -0.798393 0.827877 0.073858 -0.006202 -851782.000000 0 0 1
23.610178 -22.629364 28.897964 43.641963 -0.764190 0.847099 0.064557 -0.007209 -212251.000000 0 0 1
23.518578 -21.293564 28.454114 42.616616 -0.735787 0.839713 0.095732 -0.003048 -50742.000000 0 0 1
23.919078 -20.220364 29.498554 43.024994 -0.701797 0.815349 0.078660 -0.002951 171315.000000 0 0 1
22.995478 -20.155164 30.598374 43.258330 -0.719670 0.785067 0.083100 0.003957 381717.000000 0 0 1
23.492678 -19.267864 31.539274 43.793633 -0.686916 0.766735 0.075619 -0.007999 -104753.000000 0 0 1
22.850778 -19.314564 33.000759 44.545039 -0.701729 0.736476 0.077351 -0.007709 160286.000000 0 0 1
23.213878 -20.423264 33.773440 45.789072 -0.721535 0.741306 0.078038 -0.010079 215842.000000 0 0 1
22.465578 -20.409764 -33.281829 45.043765 -0.737486 2.402199 0.077961 -0.020121 -11849.600000 0 0 1
22.715578 -21.619564 -32.388649 45.082453 -0.760682 2.372341 0.070100 -0.010443 -224805.000000 0 0 1
23.928278 -21.607164 -31.675769 45.197194 -0.734468 2.347364 0.062168 -0.013985 -141297.000000 0 0 1
23.901578 -22.597964 -30.712409 45.002283 -0.757371 2.321924 0.053106 -0.014656 -548908.000000 0 0 1
25.139678 -22.666064 -29.824369 45.113710 -0.733701 2.293071 0.056777 -0.015654 -1142280.000000 0 0 1
26.145078 -23.273564 -30.526329 46.444382 -0.727358 2.287982 0.043844 -0.012441 -949021.000000 0 0 1
27.090678 -23.898064 -29.645129 46.731745 -0.722866 2.257987 0.035591 -0.020636 413623.000000 0 0 1
28.146078 -24.781064 -30.398389 48.273853 -0.721905 2.251972 0.020579 -0.016020 645325.000000 0 0 1
29.130978 -24.011364 -31.119339 48.924153 -0.689357 2.260195 0.018974 -0.008958 734204.000000 0 0 1
28.744378 -23.838764 -32.484719 49.495281 -0.692375 2.286727 0.024578 -0.002276 -228545.000000 0 0 1
28.973478 -25.114064 -33.357659 50.822358 -0.714164 2.286777 0.009014 -0.004360 -215891.000000 0 0 1
28.210778 -26.260964 -33.021619 50.753458 -0.749618 2.279207 0.030837 -0.013774 -92008.300000 0 0 1
28.533078 -27.437264 -33.777509 52.037103 -0.765822 2.277203 0.015311 -0.017935 -6648.060000 0 0 1
28.170878 -27.553564 32.938434 51.358911 -0.774321 0.874555 0.019580 -0.017712 26894.600000 0 0 1
28.910878 -26.652964 32.141674 50.786874 -0.744784 0.885537 0.002281 -0.023230 243646.000000 0 0 1
28.402678 -26.756464 30.790214 49.705712 -0.755562 0.902754 -0.000416 -0.017540 -156479.000000 0 0 1
29.387878 -26.180964 29.732064 49.326320 -0.727751 0.923837 0.015360 -0.020441 -27732.500000 0 0 1
29.642678 -24.734564 29.730934 48.727974 -0.695382 0.914558 0.008015 -0.021350 219821.000000 0 0 1
30.084978 -24.135564 30.957224 49.456861 -0.676109 0.894455 0.007508 -0.013202 -1758720.000000 0 0 1
30.547178 -22.667664 30.724924 48.897587 -0.638396 0.891363 -0.000454 0.000145 273473.000000 0 0 1
31.869778 -22.402964 30.283244 49.342177 -0.612705 0.910008 0.019840 -0.012289 645846.000000 0 0 1
32.898878 -22.959764 31.105754 50.764701 -0.609308 0.911269 0.020541 -0.015229 319902.000000 0 0 1
34.357378 -22.434364 30.787124 51.298900 -0.578461 0.927106 0.018798 -0.024446 959250.000000 0 0 1
34.758678 -22.654564 29.431854 50.868743 -0.577616 0.953804 0.028285 -0.028046 -401271.000000 0 0 1
36.011378 -22.067764 29.257254 51.378911 -0.549778 0.964971 0.015023 -0.026296 -399803.000000 0 0 1
-36.402160 -22.341064 27.835874 50.981136 0.550453 0.993210 0.032362 -0.026813 -172746.000000 0 0 1
-35.905460 -23.691964 27.740344 51.186305 0.583264 0.998042 0.035512 -0.032555 243988.000000 0 0 1
-35.478160 -23.939064 26.435444 50.305181 0.593581 1.017492 0.034739 -0.023517 -460130.000000 0 0 1
-35.191660 -25.394364 26.152114 50.668133 0.625077 1.028452 0.029053 -0.030267 354240.000000 0 0 1
-36.405760 -26.154564 26.355034 52.000273 0.622981 1.039299 0.047971 -0.032056 966204.000000 0 0 1
-36.240260 -27.514664 26.018204 52.415266 0.649382 1.051366 0.048549 -0.031394 448859.000000 0 0 1
-35.227160 -28.317164 26.924004 52.609092 0.677081 1.033547 0.029747 -0.031067 -818069.000000 0 0 1
-34.998960 -29.621664 26.354504 52.886010 0.702376 1.049129 0.036872 -0.025579 214688.000000 0 0 1
-33.841960 -30.228464 26.913884 52.757894 0.729059 1.035449 0.019551 -0.026465 447855.000000 0 0 1
-32.494360 -29.519964 26.610724 51.336559 0.737472 1.025866 0.014890 -0.015738 -1626620.000000 0 0 1
-32.183860 -29.578364 25.308204 50.509263 0.743237 1.045972 0.006973 -0.007784 -770847.000000 0 0 1
-31.083260 -28.774964 25.055844 49.213442 0.746855 1.036627 -0.017232 0.004537 -722789.000000 0 0 1
-30.654160 -28.833264 23.602314 48.250428 0.754798 1.059667 -0.007391 0.001463 -504111.000000 0 0 1
-30.173460 -30.107664 23.298024 48.576816 0.784307 1.070584 0.001007 0.000315 54873.900000 0 0 1
-30.009560 -30.189064 21.887164 47.864404 0.788380 1.095868 -0.001668 0.001653 -449381.000000 0 0 1
-30.145860 -31.673664 21.371564 48.669678 0.810107 1.116183 0.018684 -0.001142 81780.000000 0 0 1
-29.116860 -32.598364 21.695364 48.796861 0.841751 1.110062 0.009754 -0.002235 15194.000000 0 0 1
-27.998260 -32.505664 20.846864 47.698139 0.859759 1.118471 0.025401 -0.002254 -119710.000000 0 0 1
-27.042660 -33.718064 20.868864 47.997112 0.894823 1.120987 0.019633 0.005547 3817.480000 0 0 1
-27.339360 33.546477 19.835864 47.605338 -0.886994 1.141014 0.018941 0.007901 380887.000000 0 0 1
-28.423160 32.639877 20.021364 47.687447 -0.854344 1.137521 0.026093 0.006373 167526.000000 0 0 1
-28.228460 31.594477 21.181764 47.367965 -0.841605 1.107192 0.033332 -0.000040 70568.700000 0 0 1
-27.385560 30.556077 20.696464 45.956353 -0.840063 1.103639 0.029415 -0.005706 104171.000000 0 0 1
-27.302460 29.561577 21.638464 45.689542 -0.825106 1.077425 0.030203 -0.011287 -360510.000000 0 0 1
-26.390560 28.409877 21.194664 44.190458 -0.822230 1.070574 0.032219 -0.007762 -901279.000000 0 0 1
-25.068760 28.814877 21.359864 43.760526 -0.854809 1.060876 0.030242 -0.005722 -1119140.000000 0 0 1
-24.253260 27.810377 20.818564 42.368034 -0.853615 1.057129 0.027257 -0.011977 85589.900000 0 0 1
-22.746360 28.128377 21.032164 41.844407 -0.890796 1.044161 0.026458 -0.003477 145052.000000 0 0 1
-22.296660 27.998877 22.351364 42.197887 -0.898290 1.012573 0.027165 -0.003677 180783.000000 0 0 1
-20.958260 28.393477 22.553564 41.881994 -0.934931 1.002137 0.040408 -0.012282 -25616.200000 0 0 1
-20.800460 28.547477 24.039884 42.726264 -0.941115 0.973210 0.027327 -0.000276 -541079.000000 0 0 1
-20.505060 27.287577 24.596224 42.071886 -0.926372 0.946380 0.039141 -0.006230 341179.000000 0 0 1
-20.283060 27.280477 25.997494 42.795989 -0.931468 0.917918 0.026013 -0.005000 -101657.000000 0 0 1
-18.893060 27.741777 26.480954 42.752717 -0.972914 0.902820 0.039148 -0.002577 -594659.000000 0 0 1
-18.548660 29.120577 26.320654 43.414717 -1.003642 0.919446 0.007754 0.001897 -935854.000000 0 0 1
-17.203160 29.312577 26.540294 43.122652 -1.040075 0.907826 0.013694 0.005059 -1014550.000000 0 0 1
-16.799060 29.719777 27.994794 44.149542 -1.056321 0.883965 0.000635 0.015000 -333254.000000 0 0 1
-16.983460 28.606277 28.862894 44.043429 -1.035024 0.856179 0.016657 0.009796 231435.000000 0 0 1
-16.865160 28.926277 30.249074 45.123936 -1.042941 0.836109 0.005316 0.013347 -192618.000000 0 0 1
-16.811860 27.736577 31.247204 45.037141 -1.025885 0.804031 0.012873 0.011597 403482.000000 0 0 1
-15.488260 27.200777 31.347164 44.299133 -1.053177 0.784665 0.021271 0.012653 512697.000000 0 0 1
-15.371660 26.023777 32.136434 44.116610 -1.037260 0.754750 0.040322 0.004365 -278978.000000 0 0 1
-15.713560 26.090677 33.612850 45.359267 -1.028711 0.736184 0.030816 0.008005 -205784.000000 0 0 1
-17.091760 25.954277 33.847668 45.950162 -0.988446 0.742742 0.019859 0.007755 -836144.000000 0 0 1
-17.444460 26.446477 -33.106829 45.823438 -0.987692 2.378189 0.017712 0.014471 1222570.000000 0 0 1
-18.888960 25.926677 -32.685199 45.796371 -0.941163 2.365573 0.009023 0.011647 1953170.000000 0 0 1
-19.894260 26.339077 -33.644719 47.132745 -0.923903 2.365747 0.014302 0.004764 -325753.000000 0 0 1
-21.195260 26.090177 -33.240859 47.274635 -0.888549 2.350605 0.046584 -0.007476 -884985.000000 0 0 1
-22.210160 26.064777 33.876791 48.169501 -0.865076 0.790791 0.054309 -0.027989 -700109.000000 0 0 1
-22.145160 24.963577 32.933520 46.885019 -0.845155 0.791988 0.050281 -0.017109 -118794.000000 0 0 1
-22.392060 23.687577 33.492382 46.735910 -0.813506 0.771837 0.048675 -0.019630 -228448.000000 0 0 1
-22.635960 22.714277 32.346897 45.548291 -0.787125 0.781061 0.031563 -0.011965 216428.000000 0 0 1
-23.873060 22.921177 31.669724 45.806929 -0.765059 0.807407 0.063570 -0.024458 88337.600000 0 0 1
-23.926660 22.196077 30.485434 44.659966 -0.747895 0.819465 0.068501 -0.020190 -434146.000000 0 0 1
-25.325160 21.802377 30.032814 44.929693 -0.710787 0.838687 0.087353 -0.023024 -297776.000000 0 0 1
-25.818660 20.509477 30.510264 44.923469 -0.671296 0.824177 0.098704 -0.038833 -114845.000000 0 0 1
-27.043860 20.322477 29.828884 45.101394 -0.644437 0.848147 0.113369 -0.037573 -204384.000000 0 0 1
-27.627360 18.964577 30.304844 45.180856 -0.601568 0.835583 0.138200 -0.045183 -538306.000000 0 0 1
-28.312160 19.089277 31.528394 46.475999 -0.593229 0.825241 0.138117 -0.040006 -59536.000000 0 0 1
-28.612060 17.818677 32.093004 46.541553 -0.556993 0.809921 0.117610 -0.029084 351320.000000 0 0 1
-29.451460 16.691977 31.372194 46.154362 -0.515621 0.823411 0.106367 -0.030223 -662751.000000 0 0 1
-30.809560 16.929877 31.317644 47.081255 -0.502460 0.843058 0.086606 -0.028969 -940946.000000 0 0 1
-31.588560 15.772977 31.005464 46.988964 -0.463108 0.850183 0.080984 -0.017593 787079.000000 0 0 1
-33.125360 16.026477 30.985224 48.106357 -0.450614 0.870952 0.067098 -0.005443 420430.000000 0 0 1
-33.584060 16.079077 32.336679 49.316190 -0.446521 0.855686 0.047540 -0.009656 -283719.000000 0 0 1
-34.966260 16.295177 32.346026 50.343197 -0.436101 0.873026 0.054303 -0.011312 -443823.000000 0 0 1
-35.525760 16.689177 33.738172 51.757825 -0.439178 0.860779 0.044594 -0.003935 -394893.000000 0 0 1
36.075078 16.724077 33.807459 52.192435 0.434098 0.866174 0.027720 -0.009517 -518917.000000 0 0 1
35.707378 17.319177 -33.289359 51.799152 0.451601 2.268764 0.035313 -0.011836 103006.000000 0 0 1
34.194178 17.439577 -32.989859 50.613353 0.471628 2.280754 0.053905 -0.014966 511215.000000 0 0 1
33.540078 16.151177 -32.840229 49.641495 0.448778 2.293677 0.074259 -0.017157 -263616.000000 0 0 1
32.233178 16.266277 -32.365189 48.487885 0.467356 2.301629 0.071911 -0.015123 -805099.000000 0 0 1
31.475278 14.987277 -32.564339 47.704798 0.444395 2.322141 0.087142 -0.022887 -494827.000000 0 0 1
31.005378 14.846277 -33.905799 48.284041 0.446568 2.349301 0.082441 -0.025339 -151787.000000 0 0 1
30.302378 13.626177 -34.126891 47.629313 0.422582 2.369583 0.085225 -0.015898 425081.000000 0 0 1
31.142378 12.284977 34.070126 47.765488 0.375737 0.776631 0.089657 -0.015735 317532.000000 0 0 1
31.639278 11.865177 -32.897589 47.160128 0.358783 2.342800 0.094529 -0.009664 -63465.100000 0 0 1
32.358378 10.678377 -33.053189 47.472157 0.318751 2.340977 0.088146 -0.012560 -355358.000000 0 0 1
17.567878 -21.034223 9.991971 29.170333 -0.874955 1.221178 0.007103 -0.028250 -257721.000000 0 0 1
17.530078 -22.236423 10.727971 30.279556 -0.903200 1.208634 0.012695 -0.027135 725802.000000 0 0 1
18.806278 -22.836723 11.034371 31.574505 -0.881883 1.213790 0.006102 -0.024458 253228.000000 0 0 1
18.718678 -24.101423 11.927271 32.764726 -0.910448 1.198208 0.020273 -0.024348 -127655.000000 0 0 1
18.030178 -25.154173 11.308271 32.949912 -0.948893 1.220479 0.009813 -0.024027 -912455.000000 0 0 1
16.657578 -25.130423 11.469171 32.257634 -0.985444 1.207295 0.017129 -0.016308 -953886.000000 0 0 1
15.861478 -26.133203 10.562271 32.343351 -1.025284 1.238127 0.048024 -0.010937 178947.000000 0 0 1
15.749378 -25.696253 9.201871 31.512136 -1.020941 1.274468 0.041335 -0.016627 -116706.000000 0 0 1
14.843178 -26.512153 8.516171 31.555338 -1.060412 1.297527 0.052973 -0.010987 -209838.000000 0 0 1
14.476378 -26.053693 7.040971 30.625736 -1.063636 1.338818 0.055199 -0.011121 216058.000000 0 0 1
13.730278 -24.804023 7.086171 29.222832 -1.065231 1.325867 0.071183 -0.023777 412702.000000 0 0 1
13.430278 -24.232423 5.835771 28.313228 -1.064713 1.363194 0.075711 -0.005648 -188820.000000 0 0 1
12.526578 -22.991723 5.912771 26.842044 -1.071931 1.348695 0.095845 -0.012597 -197820.000000 0 0 1
12.123578 -22.344723 4.690371 25.850868 -1.073675 1.388346 0.099825 -0.013541 -189396.000000 0 0 1
11.234178 -21.311023 4.941571 24.592388 -1.085663 1.368480 0.104500 -0.015768 90026.100000 0 1 0
10.381578 -20.738423 3.748371 23.492757 -1.106672 1.410557 0.084295 -0.018439 285471.000000 0 1 0
11.147278 -20.058323 2.761871 23.113331 -1.063554 1.451018 0.067140 -0.015154 -277255.000000 0 1 0
10.411078 -19.380523 1.789571 22.072557 -1.077839 1.489630 0.053599 -0.010917 -216220.000000 0 1 0
11.261078 -19.135523 0.524971 22.209361 -1.038882 1.547157 0.048488 -0.003040 815017.000000 0 1 0
12.241678 -18.082423 0.800871 21.851180 -0.975679 1.534137 0.049739 -0.001431 375612.000000 0 1 0
12.967078 -17.865023 -0.373829 22.078132 -0.942940 1.587729 0.062311 -0.003762 -311723.000000 0 1 0
14.217478 -16.993423 -0.213729 22.157590 -0.874106 1.580442 0.060667 0.008246 500727.000000 0 1 0
15.305678 -17.558023 0.536671 23.298840 -0.853827 1.547760 0.067005 0.004588 -314617.000000 0 1 0
16.446478 -16.779123 0.392471 23.498503 -0.795410 1.554094 0.063685 -0.002128 -679366.000000 0 1 0
17.534978 -17.452623 1.258671 24.772036 -0.783044 1.519964 0.055127 0.000941 -187965.000000 0 1 0
18.021478 -18.697623 0.705871 25.978318 -0.803810 1.543621 0.049903 -0.007391 328041.000000 0 0 1
19.182278 -19.237223 1.310071 27.198287 -0.786828 1.522610 0.047927 -0.003862 380706.000000 0 0 1
19.607778 -20.646423 0.841571 28.485926 -0.811195 1.541249 0.036980 0.001339 -45095.200000 0 0 1
18.684678 -21.638523 1.224771 28.615432 -0.858522 1.527982 0.039512 0.007943 31083.900000 0 0 1
18.583078 -22.772423 0.451371 29.395880 -0.886355 1.555441 0.037940 0.010122 -764243.000000 0 0 1
17.499578 -23.685123 0.956871 29.464146 -0.934474 1.538315 0.034720 0.006082 -570462.000000 0 0 1
17.883578 -24.310123 2.146171 30.255751 -0.936547 1.499802 0.023338 0.018858 698985.000000 0 0 1
16.709778 -25.035023 2.549171 30.207074 -0.982247 1.486306 0.023485 0.018290 460951.000000 0 0 1
16.837378 -25.763353 3.886171 31.021766 -0.991937 1.445194 0.015320 0.001447 -44119.200000 0 0 1
17.711378 -26.855443 3.858271 32.400524 -0.987766 1.451433 -0.005645 0.008751 260661.000000 0 0 1
19.069778 -26.510673 4.144671 32.918847 -0.947218 1.444556 0.004405 0.012604 35251.600000 0 0 1
20.032778 -27.725593 4.119171 34.452696 -0.945104 1.450949 0.016193 0.003102 -208303.000000 0 0 1
20.244078 -28.252893 2.834171 34.872355 -0.949062 1.489434 0.029290 0.009873 -42384.700000 0 0 1
21.122278 -29.371783 2.821471 36.287917 -0.947343 1.492965 0.061425 0.001113 -156996.000000 0 0 1
20.628878 -30.736543 3.335371 37.167329 -0.979695 1.480936 0.054136 0.001025 -378217.000000 0 0 1
20.599178 -30.811233 4.718671 37.362067 -0.981484 1.444162 0.071800 0.002706 383807.000000 0 0 1
19.636478 -31.834003 5.049671 37.742472 -1.018087 1.436601 0.060603 -0.016605 195523.000000 0 0 1
19.535678 -32.201143 6.588071 38.235572 -1.025482 1.397630 0.070361 -0.027585 43549.700000 0 0 1
20.636078 -32.940713 7.086471 39.511471 -1.011147 1.390468 0.071579 -0.046843 259467.000000 0 0 1
20.327278 -33.471033 8.359471 40.042340 -1.025019 1.360484 0.066945 -0.046850 -283502.000000 0 0 1
21.498578 33.911221 8.862371 41.118139 1.005775 1.353557 0.073369 -0.044533 -743280.000000 0 0 1
22.556078 -33.499733 9.242771 41.429912 -0.978201 1.345809 0.086821 -0.049617 -785183.000000 0 0 1
23.696678 33.939440 9.503771 42.470458 0.961276 1.345112 0.094915 -0.049788 225351.000000 0 0 1
24.709978 -33.515263 10.439571 42.928318 -0.935489 1.325147 0.090486 -0.048061 177226.000000 0 0 1
25.519678 -32.557193 9.805071 42.513106 -0.905986 1.338065 0.077579 -0.041639 50544.300000 0 0 1
26.306178 -31.794903 10.716671 42.635406 -0.879587 1.316715 0.067177 -0.031218 -3805.070000 0 0 1
26.887878 -30.631103 9.941871 41.953108 -0.850385 1.331545 0.068377 -0.036083 -497643.000000 0 0 1
25.910978 -29.801893 9.345971 40.581754 -0.855124 1.338411 0.057803 -0.038107 93989.000000 0 0 1
26.471078 -28.962723 8.351071 40.116053 -0.830316 1.361090 0.061672 -0.038331 65255.400000 0 0 1
25.836378 -27.558253 8.345471 38.686207 -0.817635 1.353365 0.054513 -0.028272 32054.300000 0 0 1
26.474678 -26.794553 9.363771 38.814132 -0.791403 1.327146 0.056161 -0.029633 227896.000000 0 0 1
26.132078 -25.426063 9.286571 37.624601 -0.771705 1.321397 0.046286 -0.023260 -170349.000000 0 0 1
26.823178 -24.570323 10.355371 37.820859 -0.741591 1.293454 0.039386 -0.027631 316808.000000 0 0 1
28.197978 -24.422323 10.047271 38.633191 -0.713768 1.307703 0.052627 -0.023403 -174195.000000 0 0 1
28.934078 -23.601623 10.957671 38.913854 -0.684243 1.285348 0.039710 -0.024909 162298.000000 0 0 1
30.384478 -23.420123 10.502271 39.774569 -0.656676 1.303583 0.066894 -0.033510 -156732.000000 0 0 1
30.345078 -22.673423 9.291471 39.003068 -0.641698 1.330259 0.070269 -0.033537 -1180920.000000 0 0 1
31.508678 -22.558423 8.571071 39.688065 -0.621346 1.353120 0.069492 -0.042777 -1004920.000000 0 0 1
31.496078 -21.659423 7.281971 38.912217 -0.602414 1.382548 0.060849 -0.022405 -477609.000000 0 0 1
31.107378 -20.382023 7.492671 37.937263 -0.580033 1.371988 0.049678 -0.012833 -54081.500000 0 0 1
31.341278 -19.655523 6.292871 37.526198 -0.560140 1.402308 0.033442 -0.008840 40620.000000 0 0 1
31.035478 -18.148723 6.507171 36.536561 -0.529148 1.391741 0.048721 -0.008288 -370745.000000 0 0 1
31.901178 -17.586323 7.434471 37.178425 -0.503822 1.369472 0.068551 -0.013992 -60291.100000 0 0 1
31.670478 -16.201123 7.496771 36.355153 -0.472847 1.363097 0.072897 -0.010522 -49607.700000 0 0 1
32.314878 -15.692923 8.807471 36.987710 -0.452082 1.330368 0.078160 -0.031406 648634.000000 0 0 1
33.742478 -15.681623 8.748271 38.223035 -0.435047 1.339875 0.074836 -0.030428 175905.000000 0 0 1
34.310078 -15.290023 9.989171 38.868365 -0.419224 1.310880 0.072726 -0.041827 167936.000000 0 0 1
35.835278 -15.370923 9.725471 40.187277 -0.405197 1.326366 0.068550 -0.053562 -41492.100000 0 0 1
36.400278 -14.314423 8.963171 40.127564 -0.374674 1.345529 0.074564 -0.035676 -157188.000000 0 0 1
-35.218060 -14.541723 8.831271 39.112207 0.391582 1.343039 0.074734 -0.043964 258505.000000 0 0 1
-34.315860 -13.426223 8.286771 37.769197 0.372944 1.349591 0.086492 -0.036294 -362862.000000 0 0 1
-34.760260 -13.148723 6.956571 37.809502 0.361633 1.385752 0.096402 -0.038141 493462.000000 0 0 1
-33.789660 -12.527623 6.084671 36.547307 0.355042 1.403530 0.080041 -0.028263 962712.000000 0 0 1
-32.637860 -13.515923 5.636671 35.772645 0.392617 1.412568 0.059635 -0.023251 -144206.000000 0 0 1
-31.811360 -13.865523 6.661371 35.335381 0.411039 1.381143 0.073980 -0.027007 -848367.000000 0 0 1
-30.821660 -14.780623 6.281971 34.754923 0.447157 1.389047 0.068986 -0.011250 -309057.000000 0 0 1
-30.319560 -15.606623 7.428171 34.900145 0.475368 1.356315 0.055763 -0.018678 -568566.000000 0 0 1
-31.241360 -16.495423 7.961071 36.214640 0.485796 1.349156 0.066834 -0.027346 -453583.000000 0 0 1
-31.004760 -16.834423 9.311671 36.488356 0.497424 1.312746 0.045388 -0.026868 -242180.000000 0 0 1
-32.136560 -17.700523 9.874471 37.994370 0.503450 1.307885 0.015786 -0.027280 -312179.000000 0 0 1
-33.411260 -17.069023 9.941671 38.813665 0.472311 1.311771 0.041466 -0.029035 472709.000000 0 0 1
-34.430460 -17.700823 10.675371 40.158925 0.474867 1.301733 0.064947 -0.037879 128395.000000 0 0 1
-34.928460 -19.112523 10.176471 41.095576 0.500684 1.320564 0.072041 -0.037962 -366966.000000 0 0 1
-33.971160 -20.191223 10.377171 40.858424 0.536265 1.314005 0.076618 -0.033281 311175.000000 0 0 1
-33.586560 -20.549923 11.715571 41.080542 0.549087 1.281596 0.059115 -0.042460 -878273.000000 0 0 1
-34.734060 -20.903123 12.696571 42.480564 0.541745 1.267278 0.079954 -0.046680 24333.200000 0 0 1
-35.214960 -22.215323 12.463771 43.462162 0.562794 1.279940 0.091808 -0.051455 -187390.000000 0 0 1
-36.123760 -22.309323 11.408271 43.963400 0.553246 1.308297 0.090381 -0.042049 -934155.000000 0 0 1
36.245078 -23.706623 11.236871 44.743457 -0.579227 1.316939 0.095830 -0.030080 105850.000000 0 0 1
35.547778 -24.098923 12.418871 44.706051 -0.595760 1.289304 0.146895 -0.023387 32469.400000 0 0 1
35.416478 -25.473413 12.610671 45.412011 -0.623531 1.289403 0.100218 -0.014059 -613278.000000 0 0 1
34.362378 -25.910873 13.619971 45.140336 -0.646087 1.264295 0.104119 -0.021365 -859425.000000 0 0 1
33.110278 -25.440993 13.198471 43.791943 -0.655156 1.264646 0.096918 -0.021588 -447593.000000 0 0 1
32.265478 -25.191033 14.324171 43.368550 -0.662888 1.234186 0.071209 -0.000071 -419808.000000 0 0 1
32.176678 -23.672723 14.693971 42.563473 -0.634293 1.218318 0.099845 -0.007111 -344876.000000 0 0 1
33.224378 -23.089223 15.437171 43.304477 -0.607327 1.206299 0.105508 -0.016637 -51373.600000 0 0 1
34.213778 -22.493423 14.619471 43.477185 -0.581586 1.227858 0.095829 -0.022031 410346.000000 0 0 1
35.489778 -21.923723 15.311471 44.436642 -0.553367 1.219017 0.081174 -0.021008 375204.000000 0 0 1
35.351678 -20.673523 15.925971 43.940554 -0.529165 1.199908 0.081155 -0.003725 -433149.000000 0 0 1
34.698278 -20.534423 17.113171 43.800612 -0.534368 1.169398 0.089500 -0.016345 -189408.000000 0 0 1
34.985678 -19.137923 17.753971 43.651589 -0.500554 1.151936 0.065565 -0.003935 84482.800000 0 0 1
34.491878 -18.069523 16.927871 42.458805 -0.482567 1.160709 0.064384 -0.015621 64454.200000 0 0 1
34.399278 -16.798523 17.558771 42.116637 -0.454276 1.140755 0.071757 -0.017882 312521.000000 0 0 1
35.702778 -16.003423 17.914071 43.031522 -0.421390 1.141423 0.044719 -0.015348 406398.000000 0 0 1
36.401178 -16.419623 19.085271 44.259432 -0.423747 1.124959 0.052723 0.003267 93686.400000 0 0 1
-35.621160 -15.485723 19.417371 43.424750 0.410086 1.107220 0.039204 -0.004435 -224512.000000 0 0 1
-35.092560 -15.421523 20.894471 43.656500 0.414048 1.071725 0.034611 0.004634 26485.200000 0 0 1
-34.472560 -16.578823 21.383671 43.823237 0.448274 1.061053 0.017940 0.009884 101057.000000 0 0 1
-34.147960 -16.426723 22.782871 44.215151 0.448369 1.029470 0.017927 0.006625 -36424.900000 0 0 1
-33.253760 -17.549723 23.366071 44.269386 0.485602 1.014770 0.013267 0.009064 -665187.000000 0 0 1
-33.887060 -18.824523 23.348971 45.253397 0.507062 1.028668 0.014709 0.000582 201422.000000 0 0 1
-33.145160 -19.822823 24.022471 45.482140 0.538992 1.014348 0.000328 0.003967 190702.000000 0 0 1
-31.983860 -20.428523 23.184071 44.472384 0.568400 1.022406 -0.003883 0.007656 929245.000000 0 0 1
-30.874360 -19.598223 22.808771 43.099379 0.565597 1.013123 0.002598 0.015450 740015.000000 0 0 1
-29.699160 -20.339323 22.524271 42.462583 0.600482 1.011665 0.009084 0.014894 304987.000000 0 0 1
-28.443160 -19.483023 22.270271 41.043471 0.600575 0.997265 0.018445 0.007006 145914.000000 0 0 1
-27.809660 -19.190523 23.526971 41.172463 0.604028 0.962555 0.019433 0.006243 692810.000000 0 0 1
-26.752660 -18.217823 23.408071 39.944107 0.597841 0.944657 0.036313 -0.002016 409168.000000 0 0 1
-26.507260 -17.471423 24.726371 40.240264 0.582759 0.909084 0.040437 -0.015059 -375766.000000 0 0 1
-25.335560 -16.627423 24.711371 39.102604 0.580783 0.886714 0.049225 -0.020323 865775.000000 0 0 1
-25.026860 -16.155523 26.039471 39.565119 0.573225 0.852448 0.050940 -0.023963 27943.700000 0 0 1
-24.067860 -17.181323 26.695471 39.838523 0.619974 0.836464 0.038151 -0.013829 -998052.000000 0 0 1
-24.654560 -18.322223 27.174171 41.012032 0.639108 0.846525 0.041864 -0.009058 -265018.000000 0 0 1
-23.711860 -19.079223 27.930371 41.308288 0.677556 0.828279 0.045087 -0.007558 94043.100000 0 0 1
-24.273360 -20.341823 28.608171 42.678018 0.697504 0.836149 0.043075 0.000017 343991.000000 0 0 1
-25.257460 -20.105523 29.645371 43.829435 0.672311 0.827959 0.038456 -0.010577 634793.000000 0 0 1
-25.511960 -21.357523 30.268071 44.979551 0.696991 0.832634 0.039757 -0.005563 -162670.000000 0 0 1
-26.773560 -21.334123 31.167871 46.296917 0.672808 0.832246 0.051447 -0.010442 -257346.000000 0 0 1
-26.613560 -20.635223 32.390371 46.725048 0.659538 0.804860 0.067156 -0.021000 1308980.000000 0 0 1
-27.775760 -20.684223 33.272871 48.025138 0.640092 0.805401 0.068894 -0.025890 797834.000000 0 0 1
-28.962760 -19.744523 33.050671 48.177116 0.598353 0.814786 0.060628 -0.032546 -248055.000000 0 0 1
-29.752060 -20.176023 31.954671 48.097380 0.595903 0.844140 0.061477 -0.033488 651564.000000 0 0 1
-31.118560 -19.850623 32.224871 48.998513 0.567824 0.853074 0.056659 -0.038064 836538.000000 0 0 1
-32.195360 -20.378123 31.215371 49.256558 0.564297 0.884430 0.050906 -0.017437 72332.100000 0 0 1
-32.158360 -19.656923 30.031171 48.191555 0.548653 0.898016 0.037434 -0.024676 843987.000000 0 0 1
-33.061760 -20.292323 29.094971 48.490985 0.550483 0.927285 0.027038 -0.022435 414340.000000 0 0 1
-33.242860 -19.452623 27.820071 47.512615 0.529441 0.945262 0.022749 -0.013698 23493.100000 0 0 1
-34.493860 -19.771523 27.242171 48.196217 0.520473 0.970079 -0.000727 -0.012466 67786.200000 0 0 1
-35.161260 -18.562723 26.959471 48.038546 0.485742 0.974955 0.026838 -0.005606 -206167.000000 0 0 1
-36.409360 -18.885023 26.109071 48.620666 0.478484 1.003925 0.019815 -0.007463 434988.000000 0 0 1
35.478278 -19.571423 26.704971 48.527356 -0.504105 0.988064 0.024229 -0.007951 291381.000000 0 0 1
34.462678 -19.732423 25.759271 47.334815 -0.520009 0.995370 0.069596 -0.014983 336092.000000 0 0 1
33.139578 -20.375923 26.306371 46.962060 -0.551268 0.976215 0.068819 -0.020929 432914.000000 0 0 1
32.471378 -19.560023 27.231071 46.674577 -0.542166 0.947858 0.061513 -0.019663 335965.000000 0 0 1
31.458378 -20.341723 27.871371 46.692918 -0.573998 0.931155 0.057440 -0.014453 235970.000000 0 0 1
-29.954902 -6.147223 33.615023 45.442868 0.202406 0.738141 0.021411 0.008894 191032.000000 0 0 1
-30.983402 -5.535123 32.824816 45.476118 0.176783 0.764392 0.029023 0.006120 654470.000000 0 0 1
-30.568712 -4.430023 31.977004 44.458970 0.143918 0.768078 0.042100 0.002087 -322933.000000 0 0 1
-31.253102 -4.360623 30.631804 43.978163 0.138631 0.800256 0.039656 -0.009969 -128342.000000 0 0 1
-30.958452 -5.505323 29.816504 43.333108 0.175990 0.811961 0.037646 -0.010725 860612.000000 0 0 1
-29.632172 -5.504723 29.251234 42.000027 0.183675 0.800347 0.048219 -0.016222 712173.000000 0 0 1
-29.385302 -6.580923 28.199264 41.255339 0.220318 0.818208 0.050408 -0.022679 -173397.000000 0 0 1
-29.944982 -6.256823 26.938544 40.761930 0.205981 0.848812 0.063983 -0.030288 356234.000000 0 0 1
-29.376072 -7.170123 25.941434 39.841213 0.239400 0.861736 0.095114 -0.028857 348292.000000 0 0 1
-29.935302 -6.808723 24.563254 39.317101 0.223643 0.895988 0.084315 -0.025717 206158.000000 0 0 1
-29.525852 -5.517223 24.051224 38.479567 0.184730 0.895615 0.100234 -0.030254 -259179.000000 0 0 1
-30.300412 -5.196923 22.955964 38.367946 0.169861 0.929405 0.104660 -0.028643 -60687.600000 0 0 1
-29.811372 -3.887123 22.227064 37.388100 0.129659 0.934158 0.116949 -0.030140 237330.000000 0 0 1
-28.571532 -4.024423 21.569164 36.024398 0.139934 0.928872 0.122108 -0.025023 -284292.000000 0 0 1
-28.163702 -2.769023 20.997064 35.238307 0.098004 0.932461 0.125864 -0.018185 570150.000000 0 0 1
-26.664202 -2.744423 20.577264 33.792533 0.102564 0.916086 0.110629 -0.010085 420404.000000 0 0 1
-26.402872 -3.616623 19.451964 32.993492 0.136131 0.940270 0.120557 -0.012442 -400959.000000 0 0 1
-25.326492 -3.250623 18.636964 31.612247 0.127651 0.940296 0.089987 -0.003006 -524097.000000 0 0 1
-25.204282 -3.888323 17.233464 30.779330 0.153066 0.976527 0.086485 -0.011167 -716918.000000 0 0 1
-26.291752 -3.629623 16.424364 31.212019 0.137185 1.016648 0.101350 -0.006564 -411939.000000 0 0 1
-26.026832 -4.050623 15.080664 30.351770 0.154394 1.050816 0.106066 -0.015433 412560.000000 0 0 1
-27.379662 -4.111623 14.320464 31.170932 0.149057 1.093457 0.119460 -0.025679 691128.000000 0 0 1
-27.863912 -2.839523 13.835064 31.238910 0.101556 1.111989 0.120621 -0.028729 296448.000000 0 0 1
-29.175992 -2.856223 13.289764 32.187177 0.097585 1.145171 0.125531 -0.033717 430087.000000 0 0 1
-29.465722 -1.561623 12.504764 32.047411 0.052948 1.169952 0.133907 -0.026184 -26177.800000 0 0 1
-28.585552 -1.465023 11.391664 30.806656 0.051206 1.192025 0.137064 -0.027502 251553.000000 0 0 1
-28.786762 -0.306723 10.586464 30.673196 0.010655 1.218411 0.129878 -0.023665 -406909.000000 0 0 1
-30.090442 -0.344023 9.788364 31.644354 0.011432 1.256314 0.127389 -0.020122 -147557.000000 0 0 1
-30.038412 -1.085023 8.584764 31.259905 0.036105 1.292596 0.132145 -0.026311 -955513.000000 0 0 1
-31.307972 -1.245923 8.064064 32.353834 0.039775 1.318895 0.118233 -0.030701 -804561.000000 0 0 1
-31.480412 -2.060023 6.778264 32.267707 0.065345 1.359157 0.124137 -0.029594 -426380.000000 0 0 1
-31.186872 -1.415823 5.562364 31.710652 0.045367 1.394474 0.133962 -0.038903 -454943.000000 0 0 1
-32.168562 -0.545623 5.110864 32.576602 0.016960 1.413258 0.124855 -0.037282 -827327.000000 0 0 1
-31.835202 0.166477 3.789564 32.060390 -0.005229 1.452319 0.125471 -0.036856 -169922.000000 0 0 1
-31.984382 -0.756123 2.809264 32.116419 0.023636 1.483213 0.120091 -0.047804 344179.000000 0 0 1
-31.485662 -0.284323 1.571664 31.526146 0.009030 1.520923 0.117629 -0.045181 -287214.000000 0 0 1
-32.077242 -0.947523 0.301864 32.092653 0.029530 1.561390 0.102956 -0.035744 338343.000000 0 0 1
-33.427082 -0.521923 0.164664 33.431562 0.015612 1.565871 0.105132 -0.033205 556900.000000 0 0 1
-34.142203 -0.955823 -1.011036 34.170540 0.027988 1.600389 0.090299 -0.026781 -23684.100000 0 0 1
-35.639421 -0.662023 -0.838836 35.655438 0.018573 1.594325 0.077169 -0.026096 -420449.000000 0 0 1
-36.274862 -1.581023 0.016964 36.309304 0.043557 1.570329 0.074132 -0.020823 17332.000000 0 0 1
35.359856 -1.251223 0.184464 35.382467 -0.035371 1.565583 0.068152 -0.016547 254393.000000 0 0 1
34.480416 -2.415723 0.807164 34.574359 -0.069946 1.547448 0.074024 -0.029143 49747.400000 0 0 1
34.612456 -2.542823 2.186764 34.774559 -0.073334 1.507871 0.076632 -0.029352 269080.000000 0 0 1
34.135976 -3.855523 2.541064 34.446871 -0.112469 1.496962 0.071499 -0.025129 70975.300000 0 0 1
34.106846 -4.078623 4.102764 34.593999 -0.119019 1.451919 0.073437 -0.013736 292007.000000 0 0 1
33.310686 -3.084023 4.735264 33.786620 -0.092320 1.430181 0.075492 -0.022783 171000.000000 0 0 1
33.372466 -3.229723 6.115964 34.081631 -0.096478 1.390369 0.076514 -0.018302 -90801.800000 0 0 1
32.568146 -2.181323 6.903264 33.363114 -0.066877 1.362378 0.085110 -0.016257 461003.000000 0 0 1
31.150336 -2.316823 6.871564 31.983269 -0.074239 1.354259 0.073853 -0.013455 124487.000000 0 0 1
30.523336 -1.294123 7.530964 31.465286 -0.042372 1.329108 0.103936 -0.017353 -544257.000000 0 0 1
29.012846 -1.537123 7.645264 30.042604 -0.052931 1.313486 0.069840 -0.018030 -867140.000000 0 0 1
28.273776 -1.447323 6.413164 29.028087 -0.051145 1.348029 0.066887 -0.019688 1109970.000000 0 0 1
26.873016 -1.629923 6.677464 27.738135 -0.060579 1.327676 0.076829 -0.008846 698880.000000 0 0 1
26.460116 -3.126023 6.826164 27.504659 -0.117596 1.319993 0.088649 -0.015208 -1271350.000000 0 0 1
26.760516 -3.636723 8.073464 28.187440 -0.135071 1.280307 0.071886 -0.009598 403969.000000 0 0 1
26.517016 -5.033223 8.105464 28.181270 -0.187580 1.279057 0.079764 -0.014523 -562932.000000 0 0 1
26.964516 -5.681923 9.415264 29.120724 -0.207680 1.241562 0.058585 -0.018815 -197167.000000 0 0 1
25.971216 -5.453523 10.385764 28.497527 -0.206976 1.197760 0.059861 -0.005347 1022580.000000 0 0 1
26.454716 -6.166823 11.558364 29.520797 -0.229019 1.168499 0.041724 -0.002582 -231718.000000 0 0 1
25.335816 -6.400923 12.557264 28.992417 -0.247465 1.122842 0.033953 -0.006303 -909058.000000 0 0 1
24.382616 -7.240723 12.008264 28.127183 -0.288668 1.129704 0.055809 -0.021774 -17027.700000 0 0 1
23.182416 -7.053623 12.786464 27.398388 -0.295366 1.085256 0.072273 -0.024528 613966.000000 0 0 1
22.202116 -8.231823 12.627364 26.835558 -0.355055 1.080887 0.083189 -0.022989 4041.270000 0 0 1
22.654116 -9.259723 13.462464 27.931870 -0.388021 1.067889 0.063079 -0.029234 1011630.000000 0 0 1
21.740916 -10.379823 13.368864 27.552399 -0.445431 1.064186 0.098206 -0.042048 238583.000000 0 0 1
22.138816 -11.388923 14.437164 28.779618 -0.475127 1.045297 0.056743 -0.037944 -157604.000000 0 0 1
21.827916 -10.960123 15.800264 29.090042 -0.465338 0.996612 0.046779 -0.036415 302012.000000 0 0 1
22.376316 -11.895123 16.688964 30.343285 -0.488602 0.988426 0.046233 -0.038821 -419875.000000 0 0 1
22.301516 -11.705223 18.234364 31.094403 -0.483339 0.944165 0.059803 -0.035779 -292371.000000 0 0 1
20.971316 -11.663123 18.696364 30.420035 -0.507550 0.908909 0.062101 -0.039628 -282241.000000 0 0 1
20.836316 -11.878623 20.090564 31.287130 -0.518138 0.873516 0.090876 -0.034204 90368.500000 0 0 1
21.248716 -10.715323 21.070764 31.785266 -0.467067 0.846098 0.063482 -0.030422 -441101.000000 0 0 1
20.444816 -9.559023 21.146764 30.928159 -0.437354 0.817923 0.070525 -0.022326 -400439.000000 0 0 1
20.687016 -8.507923 20.240564 30.166501 -0.390183 0.835291 0.073424 -0.016566 -381171.000000 0 0 1
21.910616 -7.586523 20.527764 30.968040 -0.333329 0.846152 0.051891 -0.007114 990483.000000 0 0 1
23.218216 -8.145923 20.612564 32.098589 -0.337425 0.873478 0.049866 -0.010359 632605.000000 0 0 1
23.815016 -8.468423 19.356364 31.836111 -0.341648 0.917257 0.049072 -0.020181 -370092.000000 0 0 1
25.125016 -9.274323 19.489964 33.123076 -0.353612 0.941705 0.020029 -0.027428 -25081.300000 0 0 1
24.964116 -10.589223 19.968064 33.675841 -0.401174 0.936080 0.015430 -0.038549 -313398.000000 0 0 1
26.143316 -11.291723 19.719464 34.638609 -0.407714 0.965153 0.019518 -0.040540 -248784.000000 0 0 1
26.019716 -12.759723 20.107464 35.272457 -0.455927 0.964216 0.005846 -0.042197 17935.900000 0 0 1
24.949216 -13.344123 19.382364 34.295845 -0.491138 0.970179 0.034744 -0.044806 157764.000000 0 0 1
24.753816 -14.696323 19.648664 34.854028 -0.535774 0.971888 0.030133 -0.038492 -670271.000000 0 0 1
23.557216 -15.168423 18.874564 33.782727 -0.572073 0.977973 0.047008 -0.035034 -1059740.000000 0 0 1
23.786816 -14.979923 17.439964 33.081158 -0.562013 1.015509 0.039745 -0.037131 1287110.000000 0 0 1
22.649216 -15.428323 16.631564 32.056654 -0.597987 1.025329 0.033605 -0.026462 876070.000000 0 0 1
22.435416 -16.932323 16.623664 32.655744 -0.646511 1.036706 0.021036 -0.029577 -1380540.000000 0 0 1
23.516516 -17.608723 16.142564 33.521277 -0.642721 1.068361 0.063638 -0.029971 -865927.000000 0 0 1
23.425816 -18.969123 16.537164 34.381307 -0.680660 1.069009 0.043923 -0.011912 -266995.000000 0 0 1
24.651216 -19.820423 16.188464 35.533055 -0.677196 1.097763 0.037316 -0.009137 -279350.000000 0 0 1
24.881716 -19.969023 14.821564 35.178693 -0.676299 1.135894 0.035486 -0.016961 327752.000000 0 0 1
25.837516 -21.017623 14.584564 36.359692 -0.682891 1.158058 0.033434 -0.012403 253183.000000 0 0 1
26.321716 -21.075023 13.112264 36.179010 -0.675150 1.199925 0.024889 -0.024455 -81623.500000 0 0 1
25.311816 -21.352823 12.171364 35.281343 -0.700762 1.218579 0.030677 -0.021705 128701.000000 0 0 1
25.838216 -21.161623 10.844364 35.114497 -0.686222 1.256835 0.051957 -0.015274 -261867.000000 0 0 1
24.811716 -21.208423 9.716064 34.056135 -0.707259 1.281482 0.021905 -0.025415 -260673.000000 0 0 1
24.324916 -22.556623 9.540864 34.518558 -0.747698 1.290752 0.015896 -0.024447 247702.000000 0 0 1
22.912816 -22.608223 9.715864 33.623308 -0.778707 1.277654 -0.003013 -0.014084 262396.000000 0 0 1
22.295216 -23.622023 8.705264 33.628236 -0.814286 1.308947 0.002110 -0.015316 -652217.000000 0 0 1
22.612816 -24.951123 8.991364 34.853157 -0.834520 1.309867 -0.004412 -0.015225 11158.000000 0 0 1
22.207516 -25.859243 7.980564 35.008050 -0.861224 1.340811 0.009135 -0.014919 1076180.000000 0 0 1
20.662316 -26.166913 7.772464 34.235213 -0.902407 1.341768 0.000502 -0.014057 933100.000000 0 0 1
19.970716 -25.013223 7.433564 32.859529 -0.897028 1.342598 0.000302 -0.011585 -553634.000000 0 0 1
18.590616 -25.215313 7.697564 32.259502 -0.935489 1.329858 -0.004929 -0.019295 365309.000000 0 0 1
17.723216 -23.914223 7.657664 30.735033 -0.933005 1.318993 0.003219 -0.015829 -31292.100000 0 0 1
17.521616 -23.393423 6.346764 29.908873 -0.927937 1.356967 0.004630 -0.005865 385444.000000 0 0 1
16.648116 -22.244823 6.418364 28.516439 -0.928317 1.343775 0.025211 -0.015400 174440.000000 0 0 1
16.175916 -21.649123 5.076664 27.497587 -0.929099 1.385109 0.036960 -0.002082 -252142.000000 0 0 1
15.612116 -20.368823 5.180364 26.181353 -0.916837 1.371617 0.083009 -0.012445 -214466.000000 0 0 1
15.163616 -20.023523 3.879664 25.415123 -0.922646 1.417545 0.079441 -0.008121 -64449.700000 0 0 1
14.361016 -18.746423 3.976164 23.947380 -0.917091 1.403986 0.079447 -0.005917 -103239.000000 0 1 0
15.208816 -17.710523 4.387464 23.753327 -0.861247 1.385020 0.072169 -0.007616 451270.000000 0 1 0
14.491816 -16.494623 4.361264 22.385395 -0.849943 1.374716 0.053527 -0.003066 702413.000000 0 1 0
15.553316 -15.343423 4.469664 22.300317 -0.778605 1.368999 0.050901 -0.004580 -176869.000000 0 1 0
16.033916 -15.278623 5.780264 22.889609 -0.761282 1.315504 0.069146 -0.011355 44558.900000 0 1 0
17.184316 -14.486223 5.900864 23.237288 -0.700411 1.314045 0.074284 -0.012886 1199030.000000 0 1 0
18.592916 -15.039023 5.409064 24.517885 -0.680119 1.348349 0.082454 -0.021434 263130.000000 0 1 0
19.566116 -14.057723 5.414864 24.693586 -0.623017 1.349718 0.102418 -0.023551 -130802.000000 0 1 0
20.876516 -14.586423 5.351564 26.023679 -0.609853 1.363677 0.105124 -0.021258 -257831.000000 0 0 1
21.994916 -13.588723 5.225864 26.376872 -0.553414 1.371354 0.110088 -0.024112 -666612.000000 0 0 1
22.166216 -12.689723 6.367464 26.323275 -0.519939 1.326478 0.133311 -0.032555 799712.000000 0 0 1
23.269916 -11.767723 6.358764 26.840308 -0.468202 1.331611 0.132718 -0.031740 331760.000000 0 0 1
23.440416 -11.031823 7.642064 27.010282 -0.439879 1.283947 0.130354 -0.030034 -233686.000000 0 0 1
23.962916 -11.748323 8.708264 28.072732 -0.455834 1.255389 0.106745 -0.021477 186819.000000 0 0 1
23.883716 -10.949423 9.909164 28.080478 -0.429856 1.210144 0.106605 -0.034385 -39050.300000 0 0 1
24.258916 -11.839823 11.159864 29.209912 -0.454051 1.178775 0.083080 -0.029206 -330600.000000 0 0 1
23.291716 -12.829323 11.456264 28.954128 -0.503465 1.164000 0.080861 -0.035410 277800.000000 0 0 1
23.761116 -14.014623 12.137564 30.138360 -0.532896 1.156301 0.070757 -0.041698 255592.000000 0 0 1
22.640216 -15.084623 12.426864 29.909065 -0.587732 1.142317 0.053207 -0.046839 690751.000000 0 0 1
21.550316 -14.574523 13.194264 29.170558 -0.594644 1.101438 0.045554 -0.039265 406367.000000 0 0 1
20.563016 -15.589723 13.417364 29.084407 -0.648693 1.091308 0.031251 -0.036165 401702.000000 0 0 1
19.289316 -15.032023 14.086364 28.221713 -0.661986 1.048199 0.032958 -0.034053 -435411.000000 0 0 1
19.478916 -14.583423 15.404564 28.799392 -0.642654 1.006416 0.035473 -0.036380 122859.000000 0 0 1
19.047916 -13.236923 15.665964 27.990385 -0.607314 0.976784 0.054534 -0.045328 1281620.000000 0 0 1
17.478216 -12.958323 15.740464 26.854578 -0.637973 0.944514 0.073929 -0.040439 1690510.000000 0 0 1
16.806716 -13.098823 14.421764 25.729985 -0.662041 0.975802 0.077241 -0.046752 168131.000000 0 0 1
15.448216 -12.765723 14.566664 24.774962 -0.690606 0.942263 0.106413 -0.040965 -79408.900000 0 1 0
14.913716 -11.351623 14.191064 23.508819 -0.650601 0.922727 0.090150 -0.040996 -351517.000000 0 1 0
15.170816 -10.387823 15.124764 23.807961 -0.600400 0.882423 0.085283 -0.032242 96498.200000 0 1 0
14.779916 -9.057323 14.911064 22.865276 -0.549787 0.860410 0.078037 -0.024544 -517857.000000 0 1 0
15.432516 -8.126523 16.017764 23.680618 -0.484688 0.827921 0.090727 -0.017710 1164060.000000 0 1 0
16.872516 -8.052223 15.952264 24.576306 -0.445274 0.864407 0.094205 -0.027107 1103320.000000 0 1 0
17.411916 -9.104623 16.787364 25.843463 -0.481796 0.863766 0.106372 -0.022236 881477.000000 0 0 1
18.993516 -9.181123 16.683564 26.895873 -0.450265 0.901669 0.080739 -0.021494 1389630.000000 0 0 1
19.706516 -8.046023 17.131964 27.323789 -0.387635 0.893103 0.080386 -0.029995 -313158.000000 0 0 1
20.790116 -7.808123 16.295964 27.545492 -0.359269 0.937752 0.065562 -0.014512 -628562.000000 0 0 1
21.314716 -6.386923 16.460564 27.677790 -0.291134 0.933878 0.058775 0.001123 -233377.000000 0 0 1
22.097316 -6.278023 17.628264 28.956185 -0.276814 0.916261 0.066894 -0.003292 220192.000000 0 0 1
22.525116 -4.944823 17.885764 29.184459 -0.216097 0.911131 0.085366 -0.006011 -44882.600000 0 0 1
-5.409622 -32.901364 -6.886429 34.046830 1.407835 1.774465 0.026957 -0.027303 -593044.000000 0 0 1
-6.094722 -31.685564 -6.799329 32.975013 1.380767 1.778483 0.029480 -0.032190 -7462.540000 0 0 1
-5.570622 -30.825764 -5.822029 31.861506 1.392013 1.754558 0.031694 -0.033454 -762123.000000 0 0 1
-6.323722 -29.482864 -5.810929 30.708233 1.359510 1.761175 0.041183 -0.031906 1161700.000000 0 0 1
-7.693222 -29.473664 -5.365829 30.930157 1.315473 1.745161 0.041841 -0.028073 1371370.000000 0 0 1
-8.641122 -30.001964 -6.323029 31.855416 1.290368 1.770615 0.041374 -0.024466 190285.000000 0 0 1
-10.098022 -29.652064 -5.911929 31.877356 1.242565 1.757335 0.062402 -0.009559 767416.000000 0 0 1
-11.123022 -30.215764 -6.742529 32.896439 1.218071 1.777221 0.049002 -0.013503 665770.000000 0 0 1
-12.415022 -29.792664 -6.280729 32.881349 1.175965 1.762989 0.054172 -0.010040 1190270.000000 0 0 1
-13.572322 -30.442264 -7.133329 34.085535 1.151409 1.781632 0.061718 -0.012163 527326.000000 0 0 1
-13.539222 -29.976764 -8.493129 33.971313 1.146565 1.823486 0.072968 -0.023214 -538728.000000 0 0 1
-14.594422 -30.460764 -9.244829 35.018883 1.123990 1.837959 0.072771 -0.022952 -324560.000000 0 0 1
-14.801022 -29.520464 -10.489029 34.648921 1.106044 1.878345 0.084777 -0.024609 -157879.000000 0 0 1
-15.265822 -28.192164 -10.258529 33.661266 1.074509 1.880480 0.093613 -0.024049 188121.000000 0 0 1
-14.202322 -27.363664 -9.875329 32.372800 1.092048 1.880787 0.084986 -0.022596 -250959.000000 0 0 1
-14.636522 -25.901364 -9.542029 31.243539 1.056444 1.881163 0.077695 -0.009080 -224267.000000 0 0 1
-15.013222 -25.194364 -10.694329 31.217326 1.033400 1.920455 0.085566 -0.020642 217239.000000 0 0 1
-15.571122 -23.957164 -10.302629 30.373503 0.994451 1.916860 0.069404 -0.012209 -307727.000000 0 0 1
-16.051522 -23.017864 -11.394729 30.287180 0.961851 1.956513 0.070232 -0.011784 -779612.000000 0 0 1
-17.316022 -23.411164 -11.806229 31.421557 0.933953 1.955988 0.066490 -0.018094 -766010.000000 0 0 1
-17.805822 -22.655464 -12.938329 31.586669 0.904688 1.992827 0.067511 -0.019009 875750.000000 0 0 1
-19.252922 -23.134864 -13.365729 32.932349 0.876725 1.988709 0.051053 -0.005434 865630.000000 0 0 1
-19.273522 -24.519264 -13.741329 34.080596 0.904616 1.985808 0.069353 -0.011611 87785.100000 0 0 1
-19.252922 -25.472664 -12.677229 34.354675 0.923576 1.948740 0.082556 -0.017906 -1102950.000000 0 0 1
-19.431122 -26.970664 -12.945529 35.673126 0.946474 1.942167 0.091172 -0.023356 837407.000000 0 0 1
-18.355722 -27.633764 -13.645829 35.871522 0.984469 1.961034 0.088830 -0.026345 936718.000000 0 0 1
-17.051022 -27.594964 -13.092829 34.980588 1.017316 1.954426 0.095460 -0.029443 -396671.000000 0 0 1
-16.223022 -28.759064 -13.646229 35.727997 1.057191 1.962699 0.094873 -0.035357 -554155.000000 0 0 1
-16.211622 -28.809764 -15.099729 36.343101 1.058245 1.999264 0.096875 -0.033732 -30929.000000 0 0 1
-15.509022 -29.930364 -15.624529 37.154843 1.092718 2.004820 0.118079 -0.040401 45005.800000 0 0 1
-16.140522 -31.367864 -15.551629 38.552723 1.095572 1.986011 0.121594 -0.046058 -169134.000000 0 0 1
-16.238222 -31.888264 -14.229329 38.509934 1.099798 1.949265 0.118960 -0.045360 49363.300000 0 0 1
-16.837122 -33.165264 -14.180429 39.805878 1.101029 1.935037 0.115513 -0.041319 -819263.000000 0 0 1
-17.482322 -33.438364 -12.820229 39.851148 1.089058 1.898324 0.118526 -0.038761 784875.000000 0 0 1
-18.837322 -33.000564 -12.576029 40.025472 1.052110 1.890411 0.129828 -0.033768 955231.000000 0 0 1
-19.113622 -31.591264 -12.677529 39.039188 1.026687 1.901532 0.130197 -0.030404 -258412.000000 0 0 1
-18.425922 -30.667464 -11.591929 37.608254 1.029767 1.884126 0.129839 -0.036061 -199723.000000 0 0 1
-18.890322 -30.996364 -10.311429 37.735188 1.023467 1.847574 0.119212 -0.032920 143523.000000 0 0 1
-18.775122 -29.950564 -9.356529 36.566188 1.010853 1.829553 0.113423 -0.024733 -54646.600000 0 0 1
-19.101022 -30.368564 -7.887029 36.732872 1.009345 1.787194 0.103135 -0.017598 236160.000000 0 0 1
-18.061922 -31.183564 -7.365029 36.781671 1.045802 1.772396 0.105183 -0.020116 254623.000000 0 0 1
-18.275222 -31.568964 -6.006029 36.968305 1.046037 1.733984 0.109585 -0.023937 -188489.000000 0 0 1
-17.229922 -32.553764 -5.409929 37.227477 1.084003 1.716634 0.095485 -0.021119 1176120.000000 0 0 1
-15.911822 -32.036964 -5.120029 36.135409 1.109816 1.712965 0.079627 -0.012115 1192730.000000 0 0 1
-15.886922 -31.543664 -3.841429 35.526801 1.104234 1.679136 0.059235 -0.009686 -366670.000000 0 0 1
-14.576422 -30.817664 -3.480129 34.268233 1.128990 1.672527 0.063054 -0.011835 325268.000000 0 0 1
-13.406022 -31.634464 -3.368629 34.522578 1.169960 1.668529 0.042153 -0.002925 -140507.000000 0 0 1
-12.537222 -31.017264 -2.467629 33.546114 1.186673 1.644422 0.052661 -0.001156 1046840.000000 0 0 1
-11.063922 -31.611264 -2.492629 33.584156 1.234122 1.645085 0.049927 -0.009298 364630.000000 0 0 1
-11.025422 -32.885664 -1.845229 34.733725 1.247308 1.623946 0.044202 -0.007623 -184326.000000 0 0 1
-9.746522 -33.481664 -1.729429 34.914287 1.287524 1.620350 0.061202 -0.014814 -161688.000000 0 0 1
-8.658922 -32.740264 -0.929829 33.878701 1.312243 1.598246 0.063517 -0.018114 -739968.000000 0 0 1
-8.981522 -32.642664 0.421471 33.858365 1.302294 1.558348 0.070490 -0.012497 393578.000000 0 0 1
-7.847122 -32.247464 1.206571 33.210421 1.332095 1.534457 0.075570 -0.014567 447669.000000 0 0 1
-6.939022 -33.358464 1.658871 34.112886 1.365707 1.522148 0.079459 -0.016276 -205784.000000 0 0 1
-7.694822 33.888377 2.439971 34.836559 -1.347518 1.500698 0.086287 -0.020485 515096.000000 0 0 1
-6.912922 32.882377 3.051771 33.739480 -1.363582 1.480221 0.093996 -0.021501 215080.000000 0 0 1
-6.065322 33.281977 4.313271 34.103995 -1.390534 1.443983 0.101492 -0.029200 -92811.800000 0 0 1
-4.923722 34.038877 4.058471 34.631769 -1.427143 1.453337 0.091232 -0.028103 -372455.000000 0 0 1
-4.377222 -33.761864 5.315871 34.456959 1.441866 1.415902 0.079468 -0.028388 562161.000000 0 0 1
-3.057222 -32.922664 5.233371 33.475910 1.478201 1.413820 0.077871 -0.019469 432453.000000 0 0 1
-3.244322 -31.655964 4.654771 32.160419 1.468666 1.425550 0.075455 -0.014605 76031.300000 0 0 1
-3.427422 -31.679164 3.241871 32.028524 1.463024 1.469404 0.078912 -0.022816 -501894.000000 0 0 1
-3.942122 -30.366964 2.675171 30.738402 1.441702 1.483656 0.067078 -0.029511 -490725.000000 0 0 1
-3.198922 -29.289364 3.078771 29.623956 1.462010 1.466680 0.061892 -0.023587 -395377.000000 0 0 1
-3.590422 -28.177564 2.303171 28.498611 1.444058 1.489891 0.062547 -0.031158 179804.000000 0 0 1
-2.598222 -27.007964 2.337071 27.233119 1.474889 1.484873 0.049497 -0.028934 -81357.600000 0 0 1
-3.107322 -25.936864 1.575571 26.169807 1.451561 1.510554 0.063805 -0.028250 -125259.000000 0 0 1
-2.893122 -24.686664 2.174771 24.950574 1.454135 1.483522 0.044176 -0.025220 -77395.800000 0 1 0
-3.929022 -24.232364 3.234871 24.761039 1.410056 1.439778 0.032403 -0.024232 -118064.000000 0 1 0
-4.022022 -24.850664 4.424671 25.559927 1.410340 1.396810 0.043904 -0.026440 -331767.000000 0 0 1
-5.083322 -24.282464 5.140771 25.335859 1.364435 1.366473 0.034307 -0.025191 -83471.700000 0 0 1
-5.719022 -25.252964 6.143071 26.611214 1.348084 1.337850 0.045677 -0.022898 -280289.000000 0 0 1
-4.860222 -25.479064 7.231071 26.927548 1.382307 1.298921 0.039792 -0.027310 334191.000000 0 0 1
-5.491822 -26.409064 8.159671 28.181181 1.365766 1.277047 0.040661 -0.027484 308525.000000 0 0 1
-4.525122 -26.913164 9.228171 28.808927 1.404217 1.244726 0.032803 -0.024039 -236083.000000 0 0 1
-4.112922 -25.975764 10.228571 28.218435 1.413763 1.199871 0.020007 -0.022534 -142966.000000 0 0 1
-5.080822 -25.331564 11.069171 28.107462 1.372850 1.166017 0.039303 -0.020495 -151885.000000 0 0 1
-4.515122 -24.444264 12.195171 27.688094 1.388144 1.114698 0.000703 -0.014851 -95245.800000 0 0 1
-3.751322 -25.203464 13.106571 28.654305 1.423040 1.095723 -0.015367 -0.004550 -476837.000000 0 0 1
-3.119122 -24.235864 13.919871 28.122390 1.442801 1.052991 0.001922 -0.008900 -352100.000000 0 0 1
-2.244622 -24.883564 14.982771 29.132688 1.480835 1.030612 0.017509 -0.006125 -304106.000000 0 0 1
-2.936922 -25.540264 15.993171 30.277254 1.456307 1.014289 0.020384 -0.003342 201839.000000 0 0 1
-2.007422 -26.291764 16.792971 31.261645 1.494592 1.003712 0.032439 0.003349 490616.000000 0 0 1
-2.588422 -26.673364 18.178971 32.382762 1.474058 0.974746 0.040772 -0.013661 -63761.400000 0 0 1
-2.739922 -25.572864 19.019071 31.987554 1.464062 0.934057 0.050267 -0.014034 -140971.000000 0 0 1
-2.996122 -26.005964 20.337571 33.149716 1.456093 0.910303 0.077879 -0.020160 25460.400000 0 0 1
-3.326022 -24.848064 21.332171 32.917324 1.437733 0.865771 0.090182 -0.031670 -150514.000000 0 0 1
-2.918522 -25.279764 22.608971 34.040414 1.455856 0.844400 0.090397 -0.026082 -39287.600000 0 0 1
-2.782522 -24.236964 23.615171 33.953632 1.456492 0.801664 0.077716 -0.026677 793789.000000 0 0 1
-1.717922 -23.065464 23.410871 32.909509 1.496453 0.779349 0.075431 -0.028231 900609.000000 0 0 1
-2.308822 -21.904364 22.779971 31.686888 1.465779 0.768566 0.097359 -0.026809 -41600.200000 0 0 1
-1.303322 -21.051764 22.322971 30.711406 1.508965 0.757054 0.096847 -0.029157 -396842.000000 0 0 1
-1.897322 -19.834764 21.556671 29.354859 1.475430 0.746091 0.075482 -0.013742 -371715.000000 0 0 1
-2.610722 -18.864264 22.352871 29.365408 1.433275 0.705639 0.078839 -0.028239 1116840.000000 0 0 1
-3.962022 -19.304564 22.646371 30.020359 1.368370 0.716107 0.081978 -0.032559 834500.000000 0 0 1
-4.976522 -18.894564 21.484371 29.040463 1.313261 0.738011 0.065139 -0.023452 -247657.000000 0 0 1
-4.993522 -19.779264 20.373971 28.831463 1.323501 0.786033 0.078422 -0.019609 -294597.000000 0 0 1
-5.326722 -21.149864 20.557871 29.971933 1.324072 0.814951 0.061415 -0.016751 -123264.000000 0 0 1
-5.409822 -21.903564 19.188471 29.618064 1.328659 0.866020 0.042120 -0.014656 -189004.000000 0 0 1
-5.570122 -23.265664 19.211671 30.682335 1.335806 0.894194 0.036752 -0.015098 -175542.000000 0 0 1
-5.415822 -23.749764 17.897771 30.227680 1.346593 0.937136 0.023745 -0.014626 -67906.400000 0 0 1
-6.070922 -25.139964 17.673871 31.324744 1.333848 0.971315 0.031434 -0.022872 -834609.000000 0 0 1
-7.446422 -25.106164 17.770471 31.647406 1.282464 0.974582 0.067086 -0.028814 -1360660.000000 0 0 1
-8.000922 -26.281464 17.239871 32.433675 1.275278 1.010376 0.092373 -0.030757 -89656.200000 0 0 1
-9.521022 -26.489764 17.280771 33.030024 1.225752 1.020214 0.073635 -0.037613 -951867.000000 0 0 1
-10.220722 -25.622964 16.409771 32.097975 1.191248 1.034169 0.102408 -0.038546 -1150530.000000 0 0 1
-11.569622 -25.922664 16.424271 32.796301 1.151013 1.046278 0.123527 -0.042087 -619499.000000 0 0 1
-12.338722 -25.242064 17.600071 33.153708 1.116136 1.011178 0.108645 -0.035001 -858341.000000 0 0 1
-12.399422 -23.841664 17.422171 32.026593 1.091219 0.995610 0.108430 -0.038957 -226275.000000 0 0 1
-12.813822 -23.028864 18.484671 32.190149 1.063034 0.959128 0.090361 -0.026769 -228008.000000 0 0 1
-11.722722 -22.424464 19.413171 31.892789 1.089103 0.916374 0.085218 -0.034553 -321540.000000 0 0 1
-10.947122 -23.321464 20.098771 32.675538 1.131926 0.908282 0.094220 -0.034762 -1139990.000000 0 0 1
-9.612922 -23.145164 19.713771 31.886355 1.177143 0.904281 0.077272 -0.033652 -541235.000000 0 0 1
-8.749522 -24.082464 20.591271 32.871259 1.222309 0.893842 0.066560 -0.033968 -138092.000000 0 0 1
-8.615822 -23.680664 21.914171 33.395166 1.221851 0.855014 0.062689 -0.030146 -122910.000000 0 0 1
-7.766122 -24.473464 22.699871 34.271668 1.263519 0.846844 0.047689 -0.022875 -29701.100000 0 0 1
-7.625522 -23.877864 24.107271 34.777313 1.261678 0.804891 0.063246 -0.032686 77837.200000 0 0 1
-6.703622 -24.541164 24.948971 35.632267 1.304143 0.795148 0.075115 -0.030615 -101682.000000 0 0 1
-6.765422 -24.089964 26.276471 36.284297 1.297009 0.760947 0.074654 -0.022327 -581100.000000 0 0 1
-5.560822 -24.475564 27.099971 36.937574 1.347390 0.747090 0.077222 -0.016240 -277051.000000 0 0 1
-4.339922 -23.853064 26.719471 36.079547 1.390821 0.736876 0.073409 -0.016161 -485623.000000 0 0 1
-3.357222 -24.140264 27.658471 36.864811 1.432611 0.722330 0.073637 -0.015933 -430329.000000 0 0 1
-1.977722 -23.619564 27.235571 36.105007 1.487259 0.716143 0.065178 -0.015789 -464425.000000 0 0 1
-1.933922 -22.182764 27.060371 35.043955 1.483835 0.688526 0.077085 -0.016837 -8563.340000 0 0 1
-0.671922 -21.612964 26.769071 34.411551 1.539718 0.679464 0.075305 -0.027782 378804.000000 0 0 1
0.351178 -21.325664 27.888771 35.109697 -1.554330 0.652888 0.068230 -0.022563 -47625.000000 0 0 1
0.758278 -22.508264 28.515071 36.336018 -1.537120 0.668487 0.076021 -0.025625 145715.000000 0 0 1
1.814778 -22.204864 29.419771 36.903555 -1.489249 0.648142 0.052096 -0.031591 287366.000000 0 0 1
2.459378 -23.497664 30.016971 38.199572 -1.466511 0.666818 0.053475 -0.029452 -125506.000000 0 0 1
3.139878 -24.409964 29.108771 38.118575 -1.442868 0.701868 0.050513 -0.032547 718976.000000 0 0 1
3.803278 -25.446364 29.857871 39.414145 -1.422432 0.711257 0.027878 -0.017040 -506248.000000 0 0 1
5.125378 -25.195364 30.611471 39.976719 -1.370109 0.698617 0.009199 -0.015826 42753.200000 0 0 1
6.325678 -25.033164 29.872771 39.484883 -1.323286 0.712756 0.014842 -0.015237 322802.000000 0 0 1
6.728678 -26.089864 29.040271 39.614309 -1.318393 0.747964 0.019663 -0.010908 -275807.000000 0 0 1
8.081278 -25.642064 28.346271 39.068319 -1.265493 0.758954 0.028727 -0.017221 731739.000000 0 0 1
7.962378 -24.496964 27.544071 37.711756 -1.256532 0.751912 0.033604 -0.017359 335434.000000 0 0 1
9.161278 -24.411164 26.783071 37.378695 -1.211771 0.771977 0.020549 -0.003823 292399.000000 0 0 1
9.097178 -23.144364 25.829771 35.855227 -1.196285 0.766431 0.034046 0.006160 63701.100000 0 0 1
8.331578 -23.265664 24.650071 34.904617 -1.226918 0.786662 0.045889 -0.004678 -71084.200000 0 0 1
8.360478 -22.050864 23.870771 33.555207 -1.208397 0.779325 0.046878 -0.000860 -81532.800000 0 0 1
7.698078 -22.233064 22.487871 32.546488 -1.237471 0.807999 0.063014 0.002513 -380170.000000 0 0 1
8.341378 -23.061964 21.576971 32.664942 -1.223742 0.849239 0.046816 0.010344 -309829.000000 0 0 1
7.800978 -22.990464 20.295871 31.643942 -1.243673 0.874497 0.073902 0.005248 111689.000000 0 0 1
8.591578 -23.931464 19.297571 31.920627 -1.226120 0.921597 0.065289 -0.003313 895296.000000 0 0 1
9.865778 -23.374564 18.970571 31.679432 -1.171407 0.928758 0.038894 -0.003888 -47325.700000 0 0 1
10.613078 -24.275664 18.183471 32.133844 -1.158646 0.969312 0.066396 -0.013578 435658.000000 0 0 1
11.950078 -23.626864 17.731771 31.866107 -1.102533 0.980694 0.039384 -0.011781 -249255.000000 0 0 1
11.662078 -22.695564 16.723271 30.508367 -1.096132 0.990641 0.037386 -0.008548 -317690.000000 0 0 1
12.735078 -22.391764 15.882671 30.262725 -1.053680 1.018285 0.055050 -0.022643 -764841.000000 0 0 1
-12.562622 22.199377 10.950571 27.758725 -1.055828 1.165282 0.027622 -0.018678 -561832.000000 0 0 1
-13.596622 21.368777 10.590371 27.452664 -1.004123 1.174756 0.010718 -0.027584 -519014.000000 0 0 1
-13.009122 20.175177 10.135571 26.057721 -0.998079 1.171287 0.040985 -0.030145 51744.500000 0 0 1
-13.972622 19.534477 9.175471 25.710294 -0.949889 1.205871 0.045594 -0.028921 -646008.000000 0 0 1
-14.204122 20.334977 8.004071 26.064028 -0.961073 1.258660 0.050529 -0.026783 -162102.000000 0 0 1
-15.149422 19.882077 7.084671 25.980657 -0.919682 1.294608 0.062005 -0.023550 667040.000000 0 0 1
-16.675422 19.846477 7.429171 26.965625 -0.872007 1.291681 0.049092 -0.024210 288818.000000 0 0 1
-17.025422 18.964577 8.489171 26.862357 -0.839227 1.249260 0.048620 -0.029214 566682.000000 0 0 1
-18.406722 19.031177 8.859971 27.919388 -0.802076 1.247872 0.060374 -0.029160 721124.000000 0 0 1
-18.940922 17.849777 9.746071 27.791347 -0.755749 1.212491 0.041707 -0.027942 10484.400000 0 0 1
-19.005622 16.692677 9.021371 26.855992 -0.720697 1.228218 0.044008 -0.019600 94718.100000 0 0 1
-19.441922 15.622477 9.882371 26.827437 -0.676899 1.193543 0.045443 -0.027479 -101431.000000 0 0 1
-18.422722 15.104377 10.962671 26.224398 -0.686744 1.139517 0.044249 -0.022176 -105054.000000 0 0 1
-17.407522 14.372477 10.317571 24.820197 -0.690185 1.142092 0.027988 -0.004711 -145696.000000 0 1 0
-16.603722 13.619277 11.201171 24.220540 -0.686970 1.090022 0.032458 -0.012238 176362.000000 0 1 0
-17.342922 12.471977 12.002571 24.502834 -0.623456 1.058885 0.031546 -0.019519 -706279.000000 0 1 0
-18.107022 11.722977 11.181571 24.296501 -0.574564 1.092561 0.019005 -0.020200 -743067.000000 0 1 0
-18.794322 10.743577 11.911771 24.709134 -0.519305 1.067769 0.029021 -0.026148 301088.000000 0 1 0
-19.744322 9.839577 11.049271 24.672696 -0.462327 1.106455 0.032496 -0.031282 208755.000000 0 1 0
-19.019822 8.972377 10.139871 23.346824 -0.440784 1.121519 0.014564 -0.029941 448858.000000 0 1 0
-18.767822 9.480777 8.836771 22.807999 -0.467768 1.172941 0.037775 -0.020416 -472723.000000 0 1 0
-19.940622 9.711177 7.844871 23.526100 -0.453197 1.230831 0.054811 -0.023900 130857.000000 0 1 0
-20.638322 8.497677 7.556471 23.563767 -0.390588 1.244347 0.051938 -0.021035 66614.300000 0 1 0
-21.511822 8.702777 6.492171 24.096579 -0.384429 1.298003 0.072692 -0.013593 -267917.000000 0 1 0
-21.693122 7.517177 5.536871 23.616868 -0.333574 1.334148 0.082899 -0.019102 -119278.000000 0 1 0
-22.407822 6.450577 6.135071 24.111398 -0.280293 1.313521 0.082719 -0.021678 431780.000000 0 1 0
-22.364222 5.423477 5.193271 23.591155 -0.237914 1.348842 0.103906 -0.022217 -29385.900000 0 1 0
-23.226322 4.182077 5.580871 24.250730 -0.178149 1.338583 0.107011 -0.027662 257400.000000 0 1 0
-24.532022 4.224277 5.029171 25.396007 -0.170522 1.371449 0.131838 -0.031130 26802.000000 0 0 1
-25.130392 3.009077 5.150171 25.828577 -0.119171 1.370053 0.129421 -0.037012 47974.700000 0 0 1
-26.407882 2.779777 4.273571 26.895479 -0.104877 1.411224 0.142419 -0.042128 -49712.100000 0 0 1
-26.151042 2.803777 2.864471 26.456443 -0.106807 1.462312 0.149371 -0.035679 254595.000000 0 0 1
-27.280322 2.636877 2.013771 27.481346 -0.096359 1.497453 0.143815 -0.031012 -37371.000000 0 0 1
-27.031502 2.665577 0.484871 27.166938 -0.098292 1.552948 0.157976 -0.030545 -311838.000000 0 0 1
-26.510062 3.892777 0.013771 26.794352 -0.145800 1.570282 0.154439 -0.035719 352354.000000 0 0 1
-26.494242 4.074977 -1.415129 26.843116 -0.152610 1.623539 0.181138 -0.027428 147338.000000 0 0 1
-27.851372 4.516577 -2.046529 28.289338 -0.160768 1.643202 0.157618 -0.029323 504265.000000 0 0 1
-28.770682 3.423377 -2.117029 29.050877 -0.118432 1.643734 0.124568 -0.028724 323586.000000 0 0 1
-30.089762 3.936477 -2.089329 30.418003 -0.130086 1.639538 0.117700 -0.012979 512719.000000 0 0 1
-31.216002 2.815377 -2.176929 31.418214 -0.089947 1.640141 0.109039 -0.013906 473137.000000 0 0 1
-31.253762 2.383077 -3.525129 31.542087 -0.076102 1.682790 0.095630 -0.024294 526919.000000 0 0 1
-32.104942 1.254477 -3.721529 32.344254 -0.039054 1.686112 0.114076 -0.035972 -66090.000000 0 0 1
-32.158282 0.813977 -5.194229 32.585237 -0.025306 1.730884 0.109189 -0.025959 -557017.000000 0 0 1
-30.955032 0.278777 -5.692929 31.475406 -0.009006 1.752666 0.117818 -0.031958 86583.700000 0 0 1
-31.005542 -0.276823 -7.035529 31.794951 0.008928 1.793921 0.120716 -0.030882 -219057.000000 0 0 1
-31.538272 0.543477 -8.266029 32.608054 -0.017231 1.827089 0.123738 -0.030340 282157.000000 0 0 1
-32.949322 0.735677 -8.282229 33.982265 -0.022324 1.816998 0.116244 -0.027547 533237.000000 0 0 1
-33.232982 1.738577 -9.262029 34.543290 -0.052267 1.842246 0.110331 -0.027394 465383.000000 0 0 1
-34.755233 2.092377 -9.248029 36.025412 -0.060131 1.830411 0.107518 -0.026273 548252.000000 0 0 1
-35.030852 2.775777 -8.004629 36.040805 -0.079073 1.794763 0.088294 -0.024039 229593.000000 0 0 1
-36.431922 2.716777 -7.788329 37.354034 -0.074434 1.780838 0.094559 -0.020625 365250.000000 0 0 1
36.085466 3.565077 -6.541029 36.846379 0.098476 1.749264 0.094736 -0.021065 -110147.000000 0 0 1
34.698566 3.772377 -6.447929 35.493620 0.108293 1.753475 0.093864 -0.024869 -69509.400000 0 0 1
34.421556 4.627077 -5.344329 35.139937 0.133623 1.723476 0.096194 -0.028443 -380347.000000 0 0 1
33.006636 4.397277 -4.829529 33.646670 0.132444 1.714830 0.102369 -0.033637 -448382.000000 0 0 1
32.890096 3.110877 -4.277929 33.312710 0.094303 1.699569 0.102414 -0.037006 456261.000000 0 0 1
31.563856 2.586177 -4.187329 31.945250 0.081752 1.702253 0.107196 -0.034482 290703.000000 0 0 1
31.542326 1.265077 -3.409529 31.751278 0.040086 1.678386 0.126589 -0.030614 -215898.000000 0 0 1
32.298906 0.261677 -4.043529 32.552080 0.008102 1.695335 0.093354 -0.030285 197883.000000 0 0 1
32.215936 -0.937323 -3.267929 32.394821 -0.029087 1.671846 0.091310 -0.030696 125347.000000 0 0 1
33.183646 -2.049523 -3.763829 33.459248 -0.061685 1.683525 0.067152 -0.030004 100236.000000 0 0 1
33.336236 -3.265023 -3.071129 33.636243 -0.097631 1.662228 0.051140 -0.022855 652636.000000 0 0 1
34.655006 -3.824323 -3.161329 35.008411 -0.109909 1.661221 0.073301 -0.021874 658609.000000 0 0 1
34.664896 -5.275023 -2.680529 35.166264 -0.151013 1.647095 0.070658 -0.026629 -121892.000000 0 0 1
34.245076 -5.504423 -1.373029 34.711800 -0.159373 1.610362 0.074436 -0.024868 -146704.000000 0 0 1
34.273856 -6.912223 -1.151529 34.982882 -0.199007 1.603719 0.094313 -0.031182 -231456.000000 0 0 1
33.831866 -7.411423 0.238571 34.634971 -0.215660 1.563908 0.088950 -0.025598 137176.000000 0 0 1
32.414606 -7.339623 0.357071 33.237091 -0.222675 1.560053 0.072776 -0.022570 282204.000000 0 0 1
32.015796 -7.674623 1.729071 32.968177 -0.235274 1.518326 0.078068 -0.028235 -546380.000000 0 0 1
31.553856 -9.107123 1.841171 32.893395 -0.280985 1.514793 0.089015 -0.025538 351793.000000 0 0 1
30.333676 -9.532323 1.181971 31.818141 -0.304477 1.533640 0.086572 -0.034321 584250.000000 0 0 1
29.243926 -9.227023 2.010471 30.730882 -0.305633 1.505328 0.096573 -0.036024 -1438200.000000 0 0 1
28.099936 -10.217523 1.737571 29.950348 -0.348751 1.512749 0.112034 -0.034383 -1298080.000000 0 0 1
26.854816 -10.055423 2.308771 28.768439 -0.358277 1.490456 0.125626 -0.033836 112037.000000 0 0 1
26.010416 -9.114823 1.642771 27.610151 -0.337058 1.511262 0.135183 -0.035978 22048.000000 0 0 1
25.286116 -9.329523 0.252671 26.953506 -0.353463 1.561422 0.123475 -0.029565 -397032.000000 0 0 1
26.255116 -9.465923 -0.766529 27.919928 -0.346030 1.598254 0.116910 -0.038758 261322.000000 0 0 1
25.852516 -9.874123 -2.060729 27.750630 -0.364842 1.645124 0.122198 -0.037393 141338.000000 0 0 1
25.002216 -11.218323 -2.218129 27.493302 -0.421767 1.651563 0.114529 -0.024949 314904.000000 0 0 1
23.633016 -11.188023 -1.918229 26.217759 -0.442147 1.644027 0.097231 -0.010719 -158611.000000 0 0 1
23.153716 -12.491723 -1.706529 26.363800 -0.494756 1.635572 0.087410 -0.004166 -459674.000000 0 0 1
21.658716 -12.675923 -1.494529 25.139861 -0.529509 1.630280 0.077548 -0.009416 -32219.200000 0 0 1
20.740616 -12.433423 -2.569329 24.317989 -0.540031 1.676649 0.076613 -0.001969 1300690.000000 0 1 0
19.362916 -12.495023 -2.175129 23.146907 -0.573069 1.664906 0.068187 -0.006407 832599.000000 0 1 0
18.459216 -12.058823 -3.368429 22.304801 -0.578669 1.722394 0.057171 -0.000494 -14025.700000 0 1 0
18.586016 -12.841223 -4.530929 23.040536 -0.604598 1.768737 0.066463 -0.008766 393994.000000 0 1 0
17.890416 -12.195323 -5.581929 22.359580 -0.598316 1.823109 0.065152 -0.010003 -108662.000000 0 1 0
17.953316 -12.961323 -6.943229 23.206160 -0.625303 1.874648 0.066955 -0.011399 -379505.000000 0 1 0
17.001616 -13.983023 -7.112729 23.133758 -0.688282 1.883320 0.055396 -0.014677 294752.000000 0 1 0
17.184116 -14.629223 -8.351329 24.063513 -0.705261 1.925224 0.061667 -0.016551 -222328.000000 0 1 0
16.140816 -15.732423 -8.606929 24.127045 -0.772586 1.935565 0.053834 -0.022373 514237.000000 0 1 0
14.776316 -15.303223 -8.638629 22.959835 -0.802913 1.956541 0.054734 -0.016347 1188920.000000 0 1 0
13.909516 -16.090723 -9.481229 23.286899 -0.857977 1.990126 0.048680 -0.016323 161986.000000 0 1 0
13.828416 -15.717523 -11.042629 23.668655 -0.849249 2.056183 0.060633 -0.028474 -175643.000000 0 1 0
12.903316 -14.668923 -11.377529 22.607985 -0.849347 2.098155 0.040206 -0.025277 431308.000000 0 1 0
13.294016 -13.395923 -10.954429 21.821574 -0.789216 2.096706 0.046220 -0.018728 -324739.000000 0 1 0
13.474616 -12.397623 -12.169529 21.985535 -0.743795 2.157386 0.067864 -0.020493 346328.000000 0 1 0
14.689616 -12.547923 -12.914029 23.238057 -0.706929 2.160034 0.083051 -0.023212 568244.000000 0 1 0
14.634416 -11.857523 -14.148529 23.557331 -0.680959 2.215047 0.100322 -0.022712 -276471.000000 0 1 0
15.994416 -11.548523 -14.811329 24.669114 -0.625362 2.214797 0.110373 -0.031669 -143986.000000 0 1 0
16.694016 -12.706623 -15.176929 25.893775 -0.650598 2.197061 0.109810 -0.024966 -368284.000000 0 0 1
17.719616 -12.405723 -16.074629 26.949590 -0.610801 2.209892 0.102533 -0.020681 -628567.000000 0 0 1
18.751616 -13.532123 -16.182629 28.224438 -0.625110 2.181392 0.086937 -0.016239 -433121.000000 0 0 1
19.482916 -13.665923 -14.981229 28.120787 -0.611686 2.132638 0.066637 -0.029413 173240.000000 0 0 1
20.513216 -14.629723 -15.126829 29.387782 -0.619520 2.111491 0.046080 -0.015824 -308795.000000 0 0 1
21.627816 -14.529223 -14.088829 29.620193 -0.591537 2.066499 0.027280 -0.013407 -323123.000000 0 0 1
22.327816 -13.291223 -14.236429 29.628767 -0.536939 2.072014 0.030510 -0.016605 -241968.000000 0 0 1
23.291516 -13.207423 -13.230629 29.866039 -0.515838 2.029738 0.027341 -0.011461 -282274.000000 0 0 1
23.964716 -11.819923 -13.227429 29.815819 -0.458210 2.030450 0.044583 -0.014534 -394529.000000 0 0 1
23.122816 -10.769823 -12.730829 28.508379 -0.435887 2.033718 0.031722 -0.007996 484505.000000 0 0 1
23.538016 -9.426123 -13.007529 28.497119 -0.380906 2.044798 0.043852 -0.014802 -326648.000000 0 0 1
24.649916 -8.767823 -12.155729 28.848827 -0.341738 2.005740 0.051207 -0.015371 192632.000000 0 0 1
25.881316 -9.407823 -12.449029 30.221316 -0.348649 1.995366 0.046223 -0.009387 422899.000000 0 0 1
26.860116 -9.212723 -11.418729 30.606003 -0.330415 1.953131 0.054514 -0.009240 -111405.000000 0 0 1
28.030536 -10.182823 -11.574029 31.989982 -0.348453 1.940996 0.075785 -0.018889 -9595.960000 0 0 1
28.913416 -9.824823 -12.654729 33.055331 -0.327561 1.963659 0.061471 -0.011052 571872.000000 0 0 1
30.205386 -10.399523 -12.487729 34.299545 -0.331582 1.943440 0.056311 -0.008786 267798.000000 0 0 1
31.050206 -9.826723 -13.710429 35.336321 -0.306505 1.969255 0.036272 -0.004961 -358195.000000 0 0 1
30.535016 -10.191623 -14.971629 35.502198 -0.322142 2.006127 0.028513 -0.006566 281248.000000 0 0 1
31.420376 -9.945823 -16.062029 36.662626 -0.306562 2.024284 0.011176 -0.007931 -575262.000000 0 0 1
31.014766 -10.559823 -17.439629 37.115579 -0.328166 2.059944 -0.012219 -0.003845 161599.000000 0 0 1
29.730266 -10.293323 -17.982329 36.238175 -0.333307 2.090043 0.008500 -0.010590 405641.000000 0 0 1
29.638696 -9.034923 -18.542329 36.109556 -0.295887 2.110057 0.015369 -0.009511 -82233.000000 0 0 1
28.255976 -8.675623 -19.148929 35.218576 -0.297900 2.145656 -0.016213 -0.016051 134533.000000 0 0 1
27.849416 -9.300723 -20.325529 35.710230 -0.322319 2.176304 -0.016779 -0.008368 1316950.000000 0 0 1
26.447416 -9.048423 -20.591029 34.717866 -0.329645 2.205695 0.018683 -0.007201 1114440.000000 0 0 1
26.064616 -9.451923 -22.040529 35.418751 -0.347886 2.242454 0.032436 -0.011951 -120774.000000 0 0 1
26.078316 -10.838123 -22.220029 35.934289 -0.393881 2.237440 0.019752 -0.006264 315019.000000 0 0 1
25.218216 -11.265523 -23.256629 36.107356 -0.420124 2.270638 0.025493 -0.009226 -548718.000000 0 0 1
25.352816 -12.788823 -23.468229 36.838526 -0.467189 2.261470 0.008571 0.006889 954992.000000 0 0 1
26.527316 -13.285023 -24.132529 38.243552 -0.464292 2.253666 0.007571 0.007775 943359.000000 0 0 1
27.764716 -13.268723 -23.420929 38.671415 -0.445811 2.221365 -0.006374 0.012339 13281.800000 0 0 1
28.898146 -13.930723 -24.206429 40.188544 -0.449195 2.217203 0.000208 0.015786 -237837.000000 0 0 1
29.193756 -13.319523 -25.452069 40.957208 -0.428036 2.241364 0.008834 0.004980 113692.000000 0 0 1
30.601856 -13.319523 -25.550009 42.031966 -0.410522 2.224173 -0.004080 -0.000682 -313946.000000 0 0 1
31.206446 -12.786023 -26.838549 43.100259 -0.388861 2.242985 0.018772 -0.011791 -64485.900000 0 0 1
30.864566 -13.606723 -27.912299 43.781968 -0.415221 2.262084 0.033288 -0.017683 44909.200000 0 0 1
31.613356 -13.209223 -29.020539 44.900774 -0.395788 2.273556 0.041272 -0.026171 -99599.000000 0 0 1
31.622436 -14.122823 -30.246489 45.981329 -0.420029 2.288690 0.044489 -0.032588 117329.000000 0 0 1
32.375796 -15.304123 -30.008829 46.721923 -0.441572 2.268273 0.057982 -0.039526 -36653.700000 0 0 1
32.548666 -16.136523 -31.155179 47.858627 -0.460255 2.279676 0.024831 -0.036771 736465.000000 0 0 1
31.248296 -16.873923 -31.690939 47.597278 -0.495129 2.299381 0.035125 -0.024515 626907.000000 0 0 1
30.549586 -16.111823 -32.606249 47.497742 -0.485326 2.327433 0.052110 -0.034041 165617.000000 0 0 1
29.379036 -16.854123 -33.017639 47.300673 -0.520841 2.343449 0.048792 -0.031006 965307.000000 0 0 1
28.443656 -16.036023 -34.004329 47.143292 -0.513363 2.376470 0.058843 -0.026216 146875.000000 0 0 1
27.766316 -14.933723 -33.425099 45.948031 -0.493456 2.385401 0.067558 -0.030309 3389.430000 0 0 1
28.505206 -13.744023 -33.269599 45.916349 -0.449273 2.381206 0.074175 -0.034740 -697688.000000 0 0 1
27.679016 -12.494523 -33.053259 44.886066 -0.424024 2.398502 0.073318 -0.029675 -228146.000000 0 0 1
26.810316 -12.180223 -34.103026 45.057377 -0.426433 2.429322 0.075539 -0.028336 -203751.000000 0 0 1
26.088016 -11.004523 -33.812149 44.101536 -0.399177 2.444464 0.050127 -0.025474 35369.800000 0 0 1
20.632078 -29.744964 9.301071 37.375867 -0.964357 1.319301 0.023006 -0.029778 32254.300000 0 0 1
21.091178 -29.316464 8.016471 36.994008 -0.947148 1.352367 0.022468 -0.031677 -622664.000000 0 0 1
22.374578 -29.790264 7.801571 38.065024 -0.926611 1.364380 0.056060 -0.032066 -480181.000000 0 0 1
22.983678 -29.503964 6.377271 37.939464 -0.908990 1.401904 0.057779 -0.026966 11600.500000 0 0 1
23.265678 -28.142464 6.117671 37.023181 -0.879979 1.404796 0.055891 -0.021692 42097.400000 0 0 1
23.899578 -28.016364 4.866571 37.145524 -0.864530 1.439405 0.060562 -0.011584 -240610.000000 0 0 1
24.007478 -26.501664 4.541771 36.046149 -0.834739 1.444462 0.055975 -0.012774 309513.000000 0 0 1
25.015178 -25.810064 5.281071 36.329165 -0.801036 1.424912 0.052287 -0.014975 360602.000000 0 0 1
24.790578 -24.462864 5.192771 35.213198 -0.778745 1.422790 0.048074 -0.005921 236152.000000 0 0 1
25.668578 -23.588864 6.168471 35.402831 -0.743202 1.395666 0.041834 -0.005716 631222.000000 0 0 1
27.041978 -23.628064 5.771871 36.371259 -0.718124 1.411429 0.038016 -0.002857 1044050.000000 0 0 1
27.986078 -22.862964 6.565871 36.729366 -0.684986 1.391067 0.040171 -0.005484 656850.000000 0 0 1
27.645378 -21.316864 6.767471 35.559447 -0.656858 1.379314 0.037224 -0.004203 -556943.000000 0 0 1
27.741978 -20.648664 5.556771 35.026595 -0.639850 1.411479 0.035137 0.001935 234119.000000 0 0 1
27.395878 -19.259464 5.714471 33.972287 -0.612740 1.401783 0.044802 -0.006902 -332688.000000 0 0 1
27.535878 -18.325464 4.481671 33.378625 -0.587203 1.436122 0.049002 0.000533 302982.000000 0 0 1
28.882478 -17.963464 4.203071 34.271699 -0.556403 1.447847 0.041478 0.004960 410258.000000 0 0 1
28.917278 -17.446364 2.913371 33.897969 -0.542857 1.484745 0.046306 0.010290 -290804.000000 0 0 1
30.020078 -16.409464 2.774571 34.324537 -0.500242 1.489875 0.059319 -0.003218 -187485.000000 0 0 1
29.725578 -15.156864 3.396671 33.539199 -0.471531 1.469348 0.067112 -0.013501 129367.000000 0 0 1
30.850778 -14.321564 3.335871 34.176099 -0.434617 1.473032 0.080035 -0.021316 124163.000000 0 0 1
30.671178 -13.149264 4.333571 33.651213 -0.405015 1.441659 0.088817 -0.019567 253846.000000 0 0 1
30.344978 -13.577664 5.636971 33.718631 -0.420726 1.402831 0.078006 -0.014296 63877.800000 0 0 1
30.211478 -12.530664 6.510371 33.348701 -0.393170 1.374313 0.066745 -0.019788 -271577.000000 0 0 1
29.614078 -12.823164 7.869971 33.216917 -0.408635 1.331595 0.084260 -0.011605 278762.000000 0 0 1
28.213378 -13.132464 7.872071 32.100246 -0.435644 1.323035 0.072558 -0.004098 472360.000000 0 0 1
27.754078 -13.123764 9.226571 32.057006 -0.441700 1.278849 0.079008 -0.003208 202812.000000 0 0 1
28.214478 -14.278464 10.231071 33.235615 -0.468491 1.257880 0.086573 -0.012499 77884.300000 0 0 1
29.354578 -14.188664 11.069171 34.431613 -0.450243 1.243501 0.072016 -0.006588 195172.000000 0 0 1
29.581978 -15.342664 11.852771 35.369181 -0.478455 1.229068 0.089663 -0.016983 410435.000000 0 0 1
30.578778 -15.186864 13.041571 36.548394 -0.460962 1.205924 0.096344 -0.018733 134111.000000 0 0 1
31.950678 -15.129264 12.771171 37.587807 -0.442240 1.224125 0.078719 -0.015962 -128599.000000 0 0 1
32.701478 -15.137364 13.979071 38.651532 -0.433526 1.200739 0.075695 -0.016410 895378.000000 0 0 1
34.248678 -14.954364 13.767271 39.826407 -0.411689 1.217831 0.078328 -0.018781 817740.000000 0 0 1
34.633278 -13.659364 13.357071 39.553173 -0.375669 1.226325 0.075017 -0.026917 385156.000000 0 0 1
36.027778 -13.506964 13.153271 40.662605 -0.358687 1.241398 0.089772 -0.023032 199290.000000 0 0 1
36.471378 -12.047464 12.726971 40.463299 -0.319042 1.250834 0.082683 -0.030896 -1305530.000000 0 0 1
-35.237560 -12.002664 12.290271 39.202045 0.328295 1.251908 0.089314 -0.031914 -1137200.000000 0 0 1
-34.552560 -10.778764 12.496171 38.291192 0.302386 1.238361 0.098348 -0.039763 359729.000000 0 0 1
-33.214560 -10.659764 11.717471 36.798596 0.310552 1.246732 0.097518 -0.035335 377547.000000 0 0 1
-32.205760 -11.625164 12.003671 36.282827 0.346410 1.233607 0.085740 -0.033243 308223.000000 0 0 1
-32.363360 -12.936564 11.454671 36.687208 0.380272 1.253262 0.068706 -0.027145 -737760.000000 0 0 1
-31.267760 -13.888564 11.936471 36.235954 0.418005 1.235118 0.041799 -0.021758 1185340.000000 0 0 1
-29.963760 -13.684464 11.332571 34.835594 0.428412 1.239451 0.050981 -0.021876 659828.000000 0 0 1
-29.099360 -14.733164 11.622071 34.625300 0.468679 1.228498 0.054114 -0.013110 114827.000000 0 0 1
-27.661760 -14.562864 11.048771 33.156075 0.484592 1.231063 0.058894 -0.011244 178975.000000 0 0 1
-27.609860 -14.764364 9.671871 32.769435 0.491059 1.271185 0.052926 -0.014609 327703.000000 0 0 1
-26.406260 -14.306364 9.060471 31.369647 0.496510 1.277793 0.054487 -0.011942 236895.000000 0 0 1
-26.419560 -14.136864 7.536071 30.897191 0.491325 1.324403 0.069446 -0.010084 -62846.400000 0 0 1
-26.577060 -15.370364 6.871671 31.461215 0.524335 1.350604 0.061341 -0.004690 172871.000000 0 0 1
-26.535960 -15.240164 5.444871 31.081608 0.521324 1.394708 0.062141 -0.004078 -429900.000000 0 0 1
-27.157060 -16.417164 4.657571 32.073698 0.543741 1.425066 0.061478 -0.004830 1306070.000000 0 0 1
-28.582160 -16.665264 4.764471 33.427100 0.527874 1.427776 0.046244 -0.007159 1149690.000000 0 0 1
-28.955160 -17.701964 3.883271 34.159048 0.548729 1.456868 0.049417 0.000407 -94666.300000 0 0 1
-30.474060 -17.985764 3.883671 35.598299 0.533182 1.461482 0.059559 -0.009285 -178475.000000 0 0 1
-31.261660 -16.922764 3.435071 35.713737 0.496160 1.474464 0.076024 -0.014771 251983.000000 0 0 1
-32.606960 -17.212064 3.824871 37.068836 0.485690 1.467429 0.092059 -0.013671 683042.000000 0 0 1
-33.700660 -16.465564 2.995371 37.627403 0.454472 1.491106 0.086364 -0.022800 317134.000000 0 0 1
-33.777160 -16.757364 1.612871 37.739993 0.460535 1.528047 0.080092 -0.013688 89771.600000 0 0 1
-34.711560 -15.931064 0.933871 38.204231 0.430276 1.546350 0.095102 -0.021302 -142456.000000 0 0 1
-35.123260 -16.522264 -0.410029 38.817479 0.439695 1.581360 0.078640 -0.020949 -378206.000000 0 0 1
-34.031560 -16.848664 -1.261829 37.994957 0.459711 1.604013 0.081727 -0.018131 407553.000000 0 0 1
-34.510160 -17.498264 -2.418829 38.768429 0.469269 1.633229 0.065502 -0.013939 178111.000000 0 0 1
-33.411860 -18.207864 -3.264829 38.190807 0.498959 1.656388 0.059715 -0.013882 212039.000000 0 0 1
-33.954260 -19.143864 -4.219529 39.206934 0.513387 1.678627 0.065208 -0.020081 -67409.900000 0 0 1
-32.964160 -19.881864 -4.859929 38.801330 0.542722 1.696378 0.059183 -0.016547 -643349.000000 0 0 1
-33.556760 -20.953264 -5.776729 39.980820 0.558177 1.715791 0.072488 -0.016324 -235802.000000 0 0 1
-34.023660 -22.054164 -5.058929 40.860596 0.575109 1.694924 0.096796 -0.025193 -1735.280000 0 0 1
-34.504460 -23.027664 -6.004729 41.915245 0.588498 1.714550 0.099555 -0.019314 -46714.100000 0 0 1
-34.975460 -24.360664 -5.413329 42.965438 0.608378 1.697125 0.097218 -0.024696 659422.000000 0 0 1
-33.919060 -24.959864 -4.625929 42.366220 0.634393 1.680204 0.107234 -0.021323 494901.000000 0 0 1
-34.345260 -26.259464 -4.315429 43.448581 0.652763 1.670283 0.086498 -0.018228 -246273.000000 0 0 1
-33.259860 -27.115964 -3.710829 43.072776 0.683986 1.657056 0.072128 -0.017011 -327671.000000 0 0 1
-32.139660 -27.371664 -4.596029 42.465152 0.705450 1.679239 0.083359 -0.015930 829944.000000 0 0 1
-31.473360 -28.578564 -4.298929 42.729234 0.737231 1.671575 0.066132 -0.022253 4187.720000 0 0 1
-30.486860 -28.582564 -3.112929 41.905869 0.753171 1.645149 0.068996 -0.020300 -654597.000000 0 0 1
-31.161860 -28.356464 -1.861329 42.173630 0.738298 1.614946 0.072327 -0.014808 18439.700000 0 0 1
-30.284360 -28.250964 -0.744129 41.422375 0.750674 1.588762 0.064452 -0.020153 20483.500000 0 0 1
-30.911960 -28.033564 0.672871 41.735868 0.736605 1.554673 0.060378 -0.018243 334540.000000 0 0 1
-31.611060 -29.147564 1.242671 43.016088 0.744875 1.541904 0.049998 -0.006561 57661.700000 0 0 1
-32.592860 -28.970864 2.212971 43.663517 0.726633 1.520092 0.055137 -0.003746 -245668.000000 0 0 1
-33.038960 -30.354464 2.811071 44.954070 0.743077 1.508223 0.033531 0.003402 -94201.500000 0 0 1
-33.993060 -30.133864 3.889071 45.592792 0.725290 1.485392 0.024579 0.002443 963942.000000 0 0 1
-34.683960 -31.320164 4.355171 46.935032 0.734479 1.477871 0.016979 0.014026 452876.000000 0 0 1
-35.550360 -32.126164 3.310371 48.029960 0.734845 1.501819 0.010104 0.010981 -470091.000000 0 0 1
-36.123460 -33.275264 3.926471 49.270323 0.744380 1.491019 0.011503 0.010026 -609311.000000 0 0 1
35.962278 -33.744564 3.001571 49.406381 -0.753594 1.510006 0.012533 0.011110 -1425880.000000 0 0 1
34.905078 33.539477 3.656171 48.545119 0.765449 1.495410 0.004079 0.007981 -128553.000000 0 0 1
33.975278 -34.059064 4.549671 48.322240 -0.786630 1.476504 0.005768 0.002810 563872.000000 0 0 1
33.243878 -32.888264 4.171971 46.948894 -0.780021 1.481817 0.012504 0.001011 -203860.000000 0 0 1
32.272878 -33.064664 2.928971 46.296755 -0.797516 1.507489 0.033907 -0.001511 -188618.000000 0 0 1
32.868378 -33.519464 1.691171 46.976002 -0.795205 1.534788 0.029478 -0.001113 -754900.000000 0 0 1
31.990378 -33.449664 0.637771 46.288995 -0.807694 1.557018 0.043124 0.001965 -898826.000000 0 0 1
32.626878 -34.072864 -0.644629 47.179326 -0.807074 1.584460 0.034298 -0.004490 590374.000000 0 0 1
33.647178 -33.324064 -1.293229 47.374025 -0.780574 1.598098 0.023607 0.003721 237761.000000 0 0 1
34.937378 -33.323364 -0.693929 48.286111 -0.761758 1.585168 0.026295 0.008314 -165771.000000 0 0 1
36.049278 -32.902264 -1.661029 48.835115 -0.739789 1.604816 0.013718 0.008608 -449513.000000 0 0 1
36.396378 -34.013064 -2.459429 49.876183 -0.751562 1.620127 0.012232 0.002685 348682.000000 0 0 1
-35.847360 -33.632464 -3.611629 49.287115 0.753531 1.644139 0.025195 0.003955 -167003.000000 0 0 1
-35.174460 33.423877 -4.391229 48.720438 -0.759884 1.661050 0.024057 -0.000983 57491.500000 0 0 1
-34.015360 32.864277 -3.796529 47.450174 -0.768189 1.650893 0.035012 0.003018 82937.000000 0 0 1
-33.455360 31.993977 -4.781429 46.537487 -0.763073 1.673722 0.055693 -0.010042 589103.000000 0 0 1
-32.123060 31.311777 -4.332929 45.067645 -0.772610 1.667088 0.068555 -0.017256 118778.000000 0 0 1
-30.943960 32.039477 -4.183529 44.738782 -0.802790 1.664443 0.071524 -0.013288 111240.000000 0 0 1
-29.809760 31.272177 -3.785529 43.369356 -0.809335 1.658193 0.095248 -0.024505 719074.000000 0 0 1
-29.576860 31.218077 -2.232729 43.062095 -0.812388 1.622669 0.080657 -0.026047 20231.300000 0 0 1
-30.628760 30.456977 -1.659629 43.226181 -0.782586 1.609200 0.045042 -0.015264 106965.000000 0 0 1
-30.457660 30.298577 -0.274729 42.962173 -0.782780 1.577191 0.039577 -0.000063 -80330.600000 0 0 1
-31.594160 29.555677 0.460471 43.265934 -0.752075 1.560153 0.041333 -0.004523 -111451.000000 0 0 1
-31.800660 28.206777 0.062671 42.507742 -0.725579 1.569322 0.040073 -0.016677 -92614.500000 0 0 1
-33.018060 28.065077 -0.630529 43.338648 -0.704489 1.585346 0.037379 -0.010561 -269466.000000 0 0 1
-33.206460 26.651077 -1.090629 42.592703 -0.676316 1.596405 0.037671 -0.010188 -415048.000000 0 0 1
-33.434460 25.737577 -0.076129 42.193504 -0.656048 1.572601 0.031824 -0.010485 -121689.000000 0 0 1
-33.616660 24.424877 -0.624829 41.557729 -0.628337 1.585832 0.053539 -0.008792 -197114.000000 0 0 1
-33.551760 23.356577 0.477571 40.883717 -0.608128 1.559115 0.079202 -0.021110 -986189.000000 0 0 1
-32.286460 23.068677 0.917571 39.691577 -0.620391 1.547677 0.074730 -0.029495 -939246.000000 0 0 1
-31.844460 23.785177 2.079571 39.801117 -0.641525 1.518523 0.062505 -0.026539 739592.000000 0 0 1
-30.298760 23.660177 2.430871 38.519190 -0.662983 1.507646 0.055865 -0.034795 705384.000000 0 0 1
-29.450060 24.521477 1.773271 38.363438 -0.694333 1.524557 0.069073 -0.032775 -587858.000000 0 0 1
-29.473260 25.875177 2.186071 39.280743 -0.720482 1.515115 0.038470 -0.031984 -633383.000000 0 0 1
-28.985960 26.769777 1.082171 39.471229 -0.745671 1.543376 0.042641 -0.031384 1047810.000000 0 0 1
-27.571960 26.593177 0.840071 38.315999 -0.767330 1.548870 0.047428 -0.034933 525325.000000 0 0 1
-27.064960 27.499077 -0.105229 38.583965 -0.793354 1.573524 0.052794 -0.028904 242185.000000 0 0 1
-25.987760 26.759577 -0.951429 37.314124 -0.800029 1.596297 0.050553 -0.034089 61348.700000 0 0 1
-26.458160 25.614777 -1.718929 36.866051 -0.769203 1.617440 0.048880 -0.038501 1125610.000000 0 0 1
-25.343760 25.185877 -2.604329 35.824811 -0.782274 1.643557 0.046874 -0.031976 1734610.000000 0 0 1
-24.289160 24.234277 -1.987829 34.368808 -0.784267 1.628667 0.039616 -0.033961 312317.000000 0 0 1
-24.779660 22.929177 -1.637529 33.800299 -0.746631 1.619262 0.012578 -0.030698 -351100.000000 0 0 1
-23.714360 22.314677 -0.986729 32.577436 -0.754999 1.601090 0.019092 -0.043096 -1062730.000000 0 0 1
-23.972260 20.827277 -0.585029 31.761407 -0.715312 1.589217 0.019852 -0.037359 111918.000000 0 0 1
-24.785760 20.562777 0.604371 32.210665 -0.692543 1.552032 0.008960 -0.030211 731925.000000 0 0 1
-26.087860 21.121977 0.666271 33.573178 -0.680596 1.550950 0.003182 -0.028830 432177.000000 0 0 1
-27.152760 20.638277 -0.389329 34.108099 -0.649921 1.582211 0.010898 -0.035943 -288781.000000 0 0 1
-27.511860 19.270377 -0.299829 33.590769 -0.611020 1.579722 0.027513 -0.033297 -431256.000000 0 0 1
-28.331560 19.003477 -1.361629 34.141814 -0.590826 1.610688 0.054665 -0.031160 -588351.000000 0 0 1
-28.660560 17.542677 -1.534129 33.638174 -0.549258 1.616419 0.048194 -0.014148 -32757.900000 0 0 1
-29.489360 17.101277 -0.480029 34.092616 -0.525519 1.584877 0.064141 -0.015847 258800.000000 0 0 1
-29.872160 15.725277 -0.555129 33.762974 -0.484559 1.587239 0.078084 -0.019860 396606.000000 0 0 1
-28.744760 14.742077 -0.068429 32.304717 -0.473884 1.572915 0.083180 -0.010609 221095.000000 0 0 1
-28.439960 14.891477 1.309071 32.129442 -0.482358 1.530041 0.088381 -0.005549 297885.000000 0 0 1
-27.332160 14.175777 1.843671 30.844752 -0.478455 1.510988 0.088933 -0.009307 24562.700000 0 0 1
-27.382460 12.623677 1.841171 30.208380 -0.431975 1.509810 0.101467 -0.004730 -227710.000000 0 0 1
-27.253760 12.034577 0.548971 29.797648 -0.415826 1.552372 0.102033 -0.006378 218154.000000 0 0 1
-26.927560 10.686977 0.674071 28.978601 -0.377813 1.547533 0.135121 -0.007621 -102193.000000 0 0 1
-26.828960 9.838377 -0.599529 28.582270 -0.351481 1.591773 0.137245 -0.006998 841763.000000 0 0 1
-28.114860 9.659377 -1.228829 29.753301 -0.330934 1.612109 0.126960 -0.018476 749114.000000 0 0 1
-27.954960 8.741577 -2.288629 29.379121 -0.303069 1.648775 0.141065 -0.022323 99908.900000 0 0 1
-29.285860 8.374377 -2.965529 30.603695 -0.278520 1.667850 0.144954 -0.026558 -115602.000000 0 0 1
-29.066160 7.460277 -4.009429 30.274955 -0.251242 1.703620 0.159113 -0.020049 -200170.000000 0 0 1
-30.206760 7.216077 -4.770729 31.421011 -0.234495 1.723218 0.124021 -0.023547 -558566.000000 0 0 1
-11.335622 18.334277 -19.765029 29.245485 -1.017048 2.312889 0.076787 -0.020980 -135360.000000 0 0 1
-11.483322 17.308177 -20.728429 29.344632 -0.985015 2.355166 0.069688 -0.024427 -414670.000000 0 0 1
-10.628922 17.355177 -21.818629 29.836701 -1.021283 2.390976 0.063440 -0.025403 -393718.000000 0 0 1
-10.790622 16.163877 -22.772229 29.937983 -0.982164 2.435105 0.058033 -0.021416 100795.000000 0 0 1
-10.117922 14.956877 -22.331329 28.718788 -0.976035 2.461614 0.057832 -0.019733 140161.000000 0 0 1
-10.223422 13.927277 -23.261729 28.975773 -0.937577 2.502772 0.037901 -0.012919 -106343.000000 0 0 1
-9.495822 12.636477 -22.804729 27.747195 -0.926361 2.535491 0.022042 -0.007648 306358.000000 0 0 1
-8.083522 12.819577 -22.892429 27.454475 -1.008208 2.556810 0.019411 -0.009958 247225.000000 0 0 1
-7.537722 11.679977 -22.172029 26.169409 -0.997694 2.581583 0.010138 -0.003024 355107.000000 0 0 1
-6.003022 11.546177 -22.288529 25.809475 -1.091345 2.613122 0.009430 -0.001455 349985.000000 0 0 1
-5.357522 11.073877 -23.468929 26.497630 -1.120194 2.658794 0.003560 -0.003235 -503248.000000 0 0 1
-3.982922 10.951977 -23.268929 26.024076 -1.221994 2.677283 0.014705 -0.008439 -201427.000000 0 0 1
-3.161122 10.771877 -24.577729 27.020192 -1.285350 2.713131 0.033326 -0.005855 -63824.400000 0 0 1
-3.104422 9.410577 -25.024029 26.914651 -1.252151 2.764543 0.019497 -0.006056 5550.890000 0 0 1
-2.682422 9.376977 -26.384219 28.129168 -1.292173 2.787515 0.023393 -0.004334 -61187.000000 0 0 1
-2.451422 8.042377 -27.042259 28.319129 -1.274930 2.840158 0.022375 0.015724 121525.000000 0 0 1
-1.387222 7.279277 -26.477249 27.494672 -1.382483 2.868701 0.028016 0.004092 255316.000000 0 0 1
-1.683622 6.370777 -25.390929 26.232054 -1.312430 2.887673 0.038808 -0.002978 153451.000000 0 0 1
-0.369622 5.714877 -24.891029 25.541334 -1.506209 2.915452 -0.015353 0.000607 752440.000000 0 0 1
0.438678 6.406777 -23.927029 24.773816 1.502432 2.879382 0.010317 0.000108 482196.000000 0 1 0
1.387678 5.610777 -23.231029 23.939239 1.328338 2.897746 0.016378 0.000820 131839.000000 0 1 0
1.577978 6.236977 -21.903129 22.828424 1.322993 2.855903 0.024347 -0.001505 267005.000000 0 1 0
2.273278 7.494977 -21.921629 23.278752 1.276308 2.798448 0.017898 -0.003004 146939.000000 0 1 0
2.320278 8.042777 -20.633329 22.266661 1.289930 2.756189 0.029166 -0.005264 -315671.000000 0 1 0
3.069678 9.347777 -20.573629 22.805220 1.253505 2.695513 0.036824 -0.011521 -701107.000000 0 1 0
2.814978 10.105577 -19.442229 22.091787 1.299126 2.646797 0.041706 -0.020764 -18144.500000 0 1 0
3.418978 11.388577 -19.453029 22.799330 1.279146 2.592940 0.051153 -0.018791 525887.000000 0 1 0
4.785778 11.463177 -18.673629 22.427941 1.175303 2.554592 0.055321 -0.021694 704891.000000 0 1 0
5.789678 10.686077 -19.281429 22.792238 1.074273 2.579168 0.062072 -0.016879 -499985.000000 0 1 0
6.873678 10.466677 -18.406829 22.262303 0.989711 2.544220 0.062360 -0.010756 -277587.000000 0 1 0
7.933178 9.508477 -18.930629 22.621122 0.875472 2.562311 0.083651 -0.010346 -447723.000000 0 1 0
7.624678 8.113977 -19.141229 22.144051 0.816477 2.614744 0.075770 -0.012296 609415.000000 0 1 0
6.658378 7.727077 -20.171929 22.604168 0.859552 2.673429 0.053637 -0.019269 815927.000000 0 1 0
6.449178 6.162377 -20.254829 22.131988 0.762661 2.726759 0.063336 -0.021711 98790.200000 0 1 0
7.667978 5.546477 -20.621529 22.689397 0.626213 2.711344 0.060866 -0.005484 145696.000000 0 1 0
7.547378 4.227577 -21.093229 22.798237 0.510594 2.752393 0.051917 -0.002145 -261727.000000 0 1 0
7.379178 4.178677 -22.613029 24.150832 0.515256 2.782810 0.059991 -0.008745 -474137.000000 0 1 0
6.144478 4.647477 -23.074729 24.326873 0.647563 2.819352 0.062404 -0.016696 -389774.000000 0 1 0
5.970778 4.290177 -24.428729 25.511147 0.623054 2.849248 0.068772 -0.018235 -367976.000000 0 0 1
4.791478 4.963977 -25.129809 26.059674 0.803079 2.873651 0.046071 -0.018183 -405242.000000 0 0 1
4.902378 6.349377 -25.420799 26.656423 0.913298 2.835925 0.070573 -0.023282 63735.400000 0 0 1
4.824278 7.301977 -24.336929 25.862688 0.986949 2.796386 0.067784 -0.019240 -770651.000000 0 0 1
4.767078 8.782577 -24.779929 26.718974 1.073507 2.758273 0.066514 -0.020379 163912.000000 0 0 1
3.618378 9.244677 -25.450219 27.317949 1.197725 2.769669 0.071242 -0.016209 823863.000000 0 0 1
2.414378 9.332477 -24.666129 26.482867 1.317640 2.769035 0.048954 -0.004801 857822.000000 0 0 1
1.128278 9.888877 -25.335929 27.220804 1.457192 2.767272 0.038362 0.003450 305287.000000 0 0 1
1.293078 11.296577 -25.539279 27.956027 1.456826 2.722729 0.064993 -0.015503 249977.000000 0 0 1
0.131678 11.927377 -26.057749 28.658087 1.559757 2.712307 0.069848 -0.023634 -194045.000000 0 0 1
0.189178 13.431877 -26.372769 29.596859 1.556713 2.670486 0.064457 -0.026676 -386198.000000 0 0 1
0.208978 14.177977 -25.173479 28.892261 1.556058 2.628617 0.053448 -0.031458 31517.600000 0 0 1
-0.051722 15.568077 -25.359459 29.756845 -1.567474 2.591015 0.059721 -0.043727 -244593.000000 0 0 1
-0.827922 16.212877 -24.164929 29.111624 -1.519775 2.550045 0.064222 -0.027955 -236688.000000 0 0 1
-2.033922 15.522777 -24.026929 28.677286 -1.440510 2.564108 0.067110 -0.027458 -957488.000000 0 0 1
-2.568222 15.679777 -22.789429 27.781455 -1.408446 2.532751 0.064559 -0.038257 -564423.000000 0 0 1
-3.832022 14.878177 -22.408529 27.169592 -1.318715 2.540583 0.057781 -0.033932 711226.000000 0 0 1
-5.047022 15.321377 -23.015129 28.105394 -1.252581 2.530265 0.054715 -0.031571 31415.200000 0 0 1
-5.236722 14.957477 -24.355429 29.057465 -1.234026 2.564737 0.053260 -0.024587 -1115850.000000 0 0 1
-6.649822 15.175977 -24.856329 29.872521 -1.157815 2.553644 0.032594 -0.024820 -534966.000000 0 0 1
-7.035622 16.543777 -25.060149 30.841654 -1.168694 2.519297 0.045184 -0.032260 741250.000000 0 0 1
-8.456422 16.566177 -25.293349 31.395904 -1.098813 2.507527 0.052638 -0.022219 606518.000000 0 0 1
-9.047222 17.926277 -25.650389 32.575237 -1.103403 2.477408 0.062649 -0.026929 15741.600000 0 0 1
-9.616022 18.676677 -24.574529 32.329454 -1.095325 2.434307 0.059496 -0.032701 272104.000000 0 0 1
-10.738722 19.439077 -24.989829 33.431862 -1.066090 2.415065 0.068781 -0.024720 324303.000000 0 0 1
-11.178022 20.476577 -23.947329 33.432214 -1.071112 2.369275 0.052326 -0.021959 452688.000000 0 0 1
-10.209422 21.536677 -23.729829 33.632804 -1.128125 2.354004 0.061442 -0.017633 826501.000000 0 0 1
-10.541722 22.808277 -24.411429 35.032317 -1.137853 2.341759 0.056481 -0.025830 30368.100000 0 0 1
-10.214822 22.967777 -25.918139 36.105558 -1.152320 2.371496 0.042705 -0.020486 -594550.000000 0 0 1
-11.030822 22.163477 -26.681109 36.397532 -1.108988 2.393588 0.047834 -0.017348 -227646.000000 0 0 1
-11.265922 22.710977 -27.999679 37.771570 -1.110309 2.405786 0.042342 -0.008835 -337582.000000 0 0 1
-11.876022 21.677077 -28.989499 38.096281 -1.069597 2.435578 0.034280 -0.010106 -464910.000000 0 0 1
-11.110522 20.669777 -29.528649 37.717695 -1.077581 2.470087 0.050104 -0.019903 -750129.000000 0 0 1
-10.655222 19.685577 -28.678009 36.379718 -1.074680 2.478832 0.052299 -0.023480 75528.100000 0 0 1
-9.624222 18.713777 -29.337899 36.104618 -1.095786 2.519362 0.052299 -0.022973 -1272530.000000 0 0 1
-8.352422 19.290577 -29.385789 36.130512 -1.162187 2.520638 0.048986 -0.027559 -1049230.000000 0 0 1
-7.370122 18.404977 -29.804699 35.796396 -1.189909 2.554613 0.059354 -0.024977 -181677.000000 0 0 1
-7.078722 17.126377 -28.996339 34.412334 -1.178858 2.572917 0.071354 -0.036079 -1307720.000000 0 0 1
-8.061422 16.154577 -29.239949 34.364684 -1.107935 2.588439 0.056790 -0.031444 -78288.200000 0 0 1
-7.824522 14.958077 -28.480279 33.107303 -1.088842 2.606540 0.039127 -0.021096 -234386.000000 0 0 1
-9.049522 14.016977 -28.512449 33.035273 -0.997512 2.612155 0.043980 -0.015320 -81382.700000 0 0 1
-10.080822 14.517177 -27.707219 32.864287 -0.963834 2.573781 0.058420 -0.014350 14045.700000 0 0 1
-11.164822 13.606077 -27.499059 32.649300 -0.883634 2.572250 0.081704 -0.020879 557218.000000 0 0 1
-12.224422 14.123377 -26.516509 32.435035 -0.857346 2.527899 0.083400 -0.013561 -131130.000000 0 0 1
-12.899122 15.279777 -26.912819 33.528477 -0.869682 2.502581 0.086893 -0.019244 -614261.000000 0 0 1
-13.715522 15.691277 -25.861439 33.213638 -0.852484 2.463290 0.070743 -0.021770 -156666.000000 0 0 1
-14.563522 16.954977 -26.214669 34.449619 -0.861128 2.435583 0.051910 -0.019008 296782.000000 0 0 1
-13.914822 18.236877 -26.294579 34.894281 -0.919024 2.424242 0.055834 -0.016086 82131.900000 0 0 1
-14.892422 19.234777 -26.457029 35.940719 -0.911958 2.398131 0.042463 -0.013627 59829.300000 0 0 1
-14.278822 20.610877 -26.379229 36.394460 -0.964932 2.381561 0.032454 -0.012922 -167693.000000 0 0 1
-15.279122 21.577277 -26.638349 37.531748 -0.954647 2.359947 0.013890 -0.006973 197664.000000 0 0 1
-14.832622 22.911977 -26.771279 38.231750 -0.996269 2.346525 0.012361 -0.004818 -195424.000000 0 0 1
-14.406822 23.666777 -25.452939 37.623463 -1.023978 2.313820 0.002198 -0.006705 -88956.300000 0 0 1
-13.856722 24.856677 -25.810849 38.419566 -1.062240 2.307453 0.016363 -0.012662 -252148.000000 0 0 1
-13.615622 25.657377 -24.693329 38.124095 -1.082914 2.275370 0.039421 -0.023642 113263.000000 0 0 1
-13.171422 27.120077 -25.014529 39.175395 -1.118678 2.263378 0.055916 -0.023516 -226198.000000 0 0 1
-14.264422 27.918977 -25.331609 40.306742 -1.098449 2.250382 0.069629 -0.025705 -97690.700000 0 0 1
-14.877522 28.605377 -24.184229 40.304903 -1.091202 2.214337 0.070531 -0.028429 793507.000000 0 0 1
-16.206922 29.317177 -24.633329 41.580790 -1.065796 2.204857 0.054825 -0.023013 893683.000000 0 0 1
-17.272122 28.385977 -24.813529 41.470485 -1.024169 2.212226 0.040704 -0.022088 513251.000000 0 0 1
-18.496622 29.078977 -25.104809 42.637582 -1.004267 2.200364 0.037039 -0.022150 1022790.000000 0 0 1
-19.772822 28.195077 -25.182039 42.662184 -0.959208 2.202185 0.050946 -0.009025 305999.000000 0 0 1
-20.262122 27.734577 -23.938729 41.866730 -0.939845 2.179475 0.059436 -0.021806 -104580.000000 0 0 1
-21.392922 26.899877 -23.989029 41.913411 -0.898940 2.180162 0.062437 -0.034433 -156408.000000 0 0 1
-21.988022 26.498577 -22.631729 41.204889 -0.878158 2.152261 0.043548 -0.021232 -341336.000000 0 0 1
-22.786322 27.519277 -22.128529 42.026169 -0.879206 2.125324 0.039398 -0.016290 -329882.000000 0 0 1
-23.367122 27.180277 -20.869129 41.476625 -0.860693 2.098041 0.014952 -0.002501 -92595.700000 0 0 1
-24.574922 28.095977 -20.520429 42.595759 -0.852149 2.073445 0.006257 0.006043 -523043.000000 0 0 1
-25.716692 27.751977 -21.210629 43.375238 -0.823445 2.081743 0.009087 0.005963 -1153060.000000 0 0 1
-26.777922 28.606177 -20.882629 44.401066 -0.818397 2.060448 0.029904 0.000738 -246461.000000 0 0 1
-28.154542 28.062177 -21.270029 45.084123 -0.783755 2.062111 0.030566 0.002091 -321658.000000 0 0 1
-28.280292 27.876377 -22.648829 45.714732 -0.778206 2.089136 0.031519 0.003871 -773545.000000 0 0 1
-29.508042 27.370377 -23.062129 46.386678 -0.747833 2.091132 0.031787 0.004740 -710160.000000 0 0 1
-29.668732 26.718977 -24.502429 46.845559 -0.733134 2.121218 0.029349 0.015024 5791.050000 0 0 1
-29.161892 25.403477 -24.705029 45.892168 -0.716628 2.139248 0.029091 0.031673 -265206.000000 0 0 1
-29.234272 25.079077 -26.056219 46.503003 -0.709043 2.165559 0.042612 0.026160 -183365.000000 0 0 1
-29.360262 23.552777 -26.443609 46.000247 -0.676080 2.183227 0.035824 0.031081 -142989.000000 0 0 1
-28.249552 22.686777 -26.360759 44.806435 -0.676619 2.199783 0.036269 0.014458 -38973.600000 0 0 1
-28.557202 21.457277 -27.044259 44.803130 -0.644383 2.218836 0.047243 0.009789 38318.700000 0 0 1
-27.411792 20.444577 -26.841299 43.472318 -0.640828 2.236273 0.053847 0.010861 103377.000000 0 0 1
-27.249192 19.920377 -25.491149 42.298210 -0.631259 2.217618 0.047187 0.018602 155613.000000 0 0 1
-26.659492 18.610577 -25.431099 41.277389 -0.609439 2.234581 0.034495 0.010892 330857.000000 0 0 1
-27.698672 17.449577 -25.571749 41.540565 -0.562172 2.233924 0.029023 0.013351 213767.000000 0 0 1
-28.423592 17.346477 -26.791669 42.738675 -0.547947 2.248328 0.021355 0.008873 371942.000000 0 0 1
-29.087972 16.063777 -26.835679 42.711927 -0.504568 2.250156 0.007320 0.001341 -56184.900000 0 0 1
-29.911602 15.767777 -28.099269 43.964709 -0.485128 2.264166 -0.000763 -0.001359 913941.000000 0 0 1
-31.214072 16.393077 -28.125659 45.101042 -0.483590 2.244154 -0.008261 -0.001057 679925.000000 0 0 1
-31.914922 16.025877 -29.287959 46.186313 -0.465361 2.257674 0.000306 -0.002905 -122957.000000 0 0 1
-33.245022 16.770177 -29.490939 47.499324 -0.467195 2.240649 0.014415 -0.000355 -324510.000000 0 0 1
-34.279246 16.364177 -28.617589 47.558589 -0.445387 2.216466 0.004273 -0.001142 -221356.000000 0 0 1
-35.475269 16.442277 -29.389729 48.914204 -0.434012 2.215351 0.021333 -0.003577 -330443.000000 0 0 1
36.353226 15.971577 -28.530759 48.894299 0.413957 2.193852 0.047144 -0.006682 -726607.000000 0 0 1
36.041086 16.965177 -27.605249 48.464697 0.439949 2.176809 0.043455 -0.010865 700799.000000 0 0 1
34.886286 16.607877 -26.810039 47.028212 0.444311 2.177405 0.058590 -0.013398 771524.000000 0 0 1
34.475006 17.674477 -25.753149 46.520295 0.473736 2.157465 0.067766 -0.005678 89151.600000 0 0 1
33.642906 18.646877 -26.351379 46.625597 0.506107 2.171435 0.074074 -0.017834 -16150.800000 0 0 1
33.444436 19.664577 -25.417669 46.381934 0.531533 2.150777 0.075558 -0.013996 -470359.000000 0 0 1
32.837546 20.963977 -26.020569 46.849362 0.568188 2.159651 0.077720 -0.016326 -189667.000000 0 0 1
31.516316 20.802577 -26.442579 46.100275 0.583413 2.181676 0.077893 -0.020281 -1062000.000000 0 0 1
30.602466 21.206877 -25.473449 45.112517 0.605999 2.170823 0.071342 -0.017967 -425794.000000 0 0 1
29.171056 21.212477 -26.085269 44.512481 0.628733 2.196936 0.049606 -0.021013 159723.000000 0 0 1
28.730796 19.909377 -26.308739 43.749190 0.605987 2.215991 0.062671 -0.033075 -647727.000000 0 0 1
27.412516 19.962077 -26.785529 43.213367 0.629409 2.239340 0.069175 -0.034610 -347576.000000 0 0 1
26.706516 18.593377 -26.784889 42.147146 0.608179 2.259464 0.091950 -0.022854 -551491.000000 0 0 1
27.208916 17.614977 -27.705729 42.640590 0.574543 2.278052 0.096187 -0.027548 668846.000000 0 0 1
28.250376 16.811577 -27.097299 42.602541 0.536803 2.260163 0.084179 -0.019480 727656.000000 0 0 1
28.972246 15.813177 -28.058029 43.320902 0.499616 2.275330 0.085311 -0.018418 -88920.400000 0 0 1
28.267546 14.636977 -28.376389 42.644046 0.477787 2.298859 0.108654 -0.027359 -81599.400000 0 0 1
27.873916 13.768377 -27.333729 41.396330 0.458798 2.292006 0.126375 -0.031189 180702.000000 0 0 1
29.012666 12.950377 -26.598379 41.435743 0.419831 2.267794 0.107631 -0.031295 399637.000000 0 0 1
29.837976 13.825477 -25.877109 41.845829 0.433902 2.237491 0.099081 -0.027906 -579306.000000 0 0 1
30.743096 13.183977 -25.050369 41.790862 0.405122 2.213575 0.090869 -0.024430 -407451.000000 0 0 1
-14.534922 -31.322964 -23.747829 41.908846 1.136333 2.173236 0.090522 -0.012333 504626.000000 0 0 1
-13.673822 -30.388364 -24.438529 41.323937 1.147968 2.203577 0.079154 -0.021053 434741.000000 0 0 1
-14.068322 -30.211864 -25.761309 42.122671 1.135000 2.228850 0.054322 -0.015862 257969.000000 0 0 1
-13.414522 -28.962664 -26.457979 41.458533 1.137048 2.262927 0.051093 -0.014475 340424.000000 0 0 1
-14.041322 -27.751264 -26.017359 40.548666 1.102384 2.267422 0.057753 -0.001030 -13040.200000 0 0 1
-13.347822 -26.670164 -26.522359 39.911120 1.106767 2.297668 0.046421 -0.007200 -660785.000000 0 0 1
-13.913522 -25.304064 -26.221109 39.005490 1.068066 2.308029 0.014984 -0.004499 -479486.000000 0 0 1
-13.584622 -24.922864 -24.891829 37.753069 1.071749 2.290727 0.018009 -0.015167 9969.960000 0 0 1
-13.950122 -23.575864 -24.629129 36.837769 1.036493 2.303099 0.010840 -0.011583 -134877.000000 0 0 1
-13.563922 -23.075864 -23.168629 35.401424 1.039398 2.284258 0.013660 -0.006186 639985.000000 0 0 1
-12.157622 -23.029864 -22.900729 34.678895 1.085073 2.292101 0.024989 -0.016978 428279.000000 0 0 1
-11.824322 -22.192764 -21.805829 33.284043 1.081254 2.285169 0.020561 -0.008537 -630203.000000 0 0 1
-10.352022 -21.868164 -21.797629 32.565589 1.128668 2.304124 0.034623 -0.013556 -745604.000000 0 0 1
-9.911122 -21.021264 -22.847729 32.590529 1.130223 2.347671 0.047370 -0.017319 150554.000000 0 0 1
-8.513022 -20.788264 -22.841929 32.037122 1.182118 2.364540 0.077573 -0.020041 217079.000000 0 0 1
-8.237722 -19.424264 -23.564029 31.629504 1.169693 2.411333 0.092305 -0.012772 -247636.000000 0 0 1
-8.335922 -18.337164 -22.721129 30.364269 1.144131 2.416269 0.064642 -0.008101 35646.800000 0 0 1
-8.474522 -17.066564 -23.408629 30.183588 1.109907 2.458369 0.063418 -0.007568 -723254.000000 0 0 1
-7.309922 -16.554564 -24.222829 30.236302 1.154979 2.499956 0.092053 -0.021026 -601423.000000 0 0 1
-7.123922 -17.219564 -25.471139 31.560142 1.178526 2.509964 0.077806 -0.020300 225111.000000 0 0 1
-5.861622 -16.837464 -25.994799 31.521237 1.235789 2.540425 0.082127 -0.028484 64380.000000 0 0 1
-5.583722 -17.457364 -27.388819 32.955802 1.261230 2.551838 0.082286 -0.017927 8547.090000 0 0 1
-6.412522 -17.038464 -28.488859 33.808945 1.210838 2.572969 0.106263 -0.021400 73118.300000 0 0 1
-6.397122 -17.900864 -29.580529 35.162079 1.227576 2.570410 0.107565 -0.031330 935169.000000 0 0 1
-7.576622 -17.546664 -30.620429 36.095724 1.163181 2.583585 0.112389 -0.031557 1094490.000000 0 0 1
-7.385822 -16.474364 -31.527409 36.330876 1.149339 2.621525 0.099282 -0.027196 -140895.000000 0 0 1
-7.194522 -15.174864 -30.988769 35.246864 1.128076 2.644961 0.080309 -0.021465 39794.300000 0 0 1
-7.821522 -14.122764 -31.936969 35.785453 1.065022 2.673558 0.067893 -0.024088 -3897.460000 0 0 1
-7.028922 -13.917064 -33.143649 36.627747 1.103111 2.701890 0.091773 -0.034018 430098.000000 0 0 1
-7.596622 -13.114464 34.043418 37.264623 1.045770 0.418847 0.097272 -0.027575 -338060.000000 0 0 1
-7.892422 -11.627664 -33.994589 36.784847 0.974466 2.749592 0.065495 -0.024352 599719.000000 0 0 1
-6.769622 -10.723864 -33.965269 36.255600 1.007703 2.784246 0.053287 -0.023718 209090.000000 0 0 1
-6.212222 -10.470764 33.008448 35.182186 1.035324 0.353361 0.055104 -0.027419 508535.000000 0 0 1
-4.887422 -9.603464 33.019063 34.732865 1.100036 0.315448 0.056881 -0.025860 796663.000000 0 0 1
-4.533222 -9.049164 31.784734 33.357260 1.106385 0.308276 0.058911 -0.022469 -582665.000000 0 0 1
-3.616022 -8.012864 31.852674 33.043524 1.146881 0.269286 0.050491 -0.030768 -1220840.000000 0 0 1
-3.703522 -6.935564 30.710764 31.701248 1.080328 0.250633 0.046258 -0.023279 -155372.000000 0 0 1
-4.829822 -6.116864 30.802874 31.773578 0.902435 0.247820 0.040175 -0.021111 -166173.000000 0 0 1
-6.039522 -6.754664 30.380574 31.703006 0.841236 0.289850 0.039249 -0.020280 -47595.600000 0 0 1
-7.186022 -5.687064 30.376724 31.728961 0.669479 0.293000 0.021515 -0.008536 945801.000000 0 0 1
-8.415522 -6.288364 29.946474 31.735719 0.641728 0.337394 0.025869 -0.005105 236843.000000 0 0 1
-9.527722 -5.420364 29.849064 31.798183 0.517241 0.351947 0.022181 -0.008078 523848.000000 0 0 1
-10.660222 -6.114564 29.040854 31.534099 0.520772 0.400324 0.037668 -0.007172 235022.000000 0 0 1
-10.307622 -6.074964 27.658134 30.135106 0.532564 0.408282 0.032853 -0.005703 389942.000000 0 0 1
-11.382722 -6.540864 26.873814 29.909048 0.521557 0.454415 0.048720 -0.014949 71597.900000 0 0 1
-11.082022 -6.239964 25.422564 28.426310 0.512823 0.463860 0.029590 -0.015095 130200.000000 0 0 1
-9.948122 -6.940864 24.944974 27.737924 0.609185 0.452609 0.028650 -0.012907 27315.900000 0 0 1
-9.355522 -6.398164 23.828984 26.387171 0.599833 0.443974 0.025130 -0.015238 -62365.000000 0 0 1
-10.146422 -6.653564 22.500464 25.563464 0.580410 0.494554 0.023590 -0.016587 643824.000000 0 0 1
-11.302022 -5.848764 22.299664 25.675256 0.477547 0.518573 0.017050 -0.015120 164720.000000 0 0 1
-12.242122 -6.223164 21.292064 25.336719 0.470298 0.572842 0.019511 -0.014467 1006000.000000 0 0 1
-13.430822 -5.181264 21.350564 25.750322 0.368183 0.593233 0.025594 -0.008115 316389.000000 0 0 1
-13.067822 -3.892964 20.957164 25.002517 0.289533 0.576818 0.016196 -0.001071 -40038.700000 0 0 1
-14.182322 -3.018264 20.811764 25.364891 0.209690 0.608520 0.019978 -0.005479 547692.000000 0 0 1
-13.738322 -1.625264 20.236364 24.513127 0.117754 0.599653 0.009940 -0.007058 685860.000000 0 1 0
-12.854622 -0.880264 21.126164 24.745322 0.068372 0.547663 0.012682 -0.009545 315947.000000 0 1 0
-12.943122 0.485736 20.913164 24.599203 -0.037511 0.554514 0.020522 -0.012750 -236030.000000 0 1 0
-12.417922 1.158736 19.624664 23.252417 -0.093042 0.566129 0.020747 -0.018906 248398.000000 0 1 0
-13.209522 0.913736 18.454064 22.712967 -0.069063 0.622385 0.027263 -0.012875 140694.000000 0 1 0
-14.493522 1.487736 18.400064 23.469936 -0.102290 0.669738 0.018248 -0.006215 -613904.000000 0 1 0
-15.527722 0.855736 17.527864 23.432210 -0.055055 0.725716 0.036659 -0.007666 -543128.000000 0 1 0
-16.018322 -0.344264 18.119064 24.186890 0.021489 0.724052 0.031734 -0.010713 -1124.010000 0 1 0
-16.880222 -1.067264 17.303264 24.196774 0.063142 0.774020 0.032888 -0.004016 -295466.000000 0 1 0
-16.850022 -2.599264 17.572964 24.484454 0.153052 0.770275 0.032497 0.000855 -305556.000000 0 1 0
-17.416822 -3.069264 18.736264 25.764581 0.174433 0.756548 0.037513 -0.000304 -154778.000000 0 0 1
-17.370222 -4.494764 18.834764 26.012994 0.253209 0.761137 0.047203 0.002697 -273047.000000 0 0 1
-18.010622 -5.084664 20.079464 27.448519 0.275154 0.750230 0.041825 0.009283 -455166.000000 0 0 1
-17.452122 -4.668064 21.257164 27.896853 0.261360 0.704414 0.041504 0.000468 19550.800000 0 0 1
-18.337922 -4.741764 22.381364 29.320456 0.253035 0.702335 0.037425 -0.005873 -291421.000000 0 0 1
-18.462522 -6.084964 23.105264 30.195111 0.318373 0.699446 0.054050 -0.006687 426960.000000 0 0 1
-17.309122 -6.550164 23.808864 30.155801 0.361768 0.660756 0.040180 -0.019597 996826.000000 0 0 1
-16.265722 -7.072964 22.958264 29.011763 0.410174 0.657793 0.048841 -0.015250 272433.000000 0 0 1
-15.052922 -7.651164 23.727654 29.122712 0.470253 0.618503 0.050311 -0.015601 -29190.800000 0 0 1
-15.330722 -8.904864 24.296704 30.077524 0.526220 0.630382 0.047729 -0.023469 -194357.000000 0 0 1
-14.681222 -9.120664 25.491264 30.798203 0.555896 0.595823 0.055225 -0.019759 -282597.000000 0 0 1
-15.408322 -10.138764 26.413124 32.215897 0.581983 0.609597 0.048241 -0.023797 -210017.000000 0 0 1
-15.453722 -11.509464 26.169314 32.497973 0.640145 0.634683 0.048695 -0.026833 -15294.300000 0 0 1
-14.394122 -12.231464 26.765814 32.759857 0.704351 0.614554 0.061461 -0.021357 -100480.000000 0 0 1
-14.473122 -13.767964 26.585024 33.253445 0.760434 0.644389 0.049970 -0.021695 414549.000000 0 0 1
-15.631022 -14.269664 27.276464 34.524740 0.739900 0.659897 0.035385 -0.024743 718196.000000 0 0 1
-15.943322 -15.662464 27.065124 35.100188 0.776512 0.690258 0.049900 -0.015380 -139354.000000 0 0 1
-15.029422 -16.682264 27.762784 35.706493 0.837472 0.680072 0.054618 -0.015011 186506.000000 0 0 1
-13.672422 -16.649064 27.330544 34.800648 0.883254 0.667542 0.053611 -0.022018 -88594.100000 0 0 1
-12.971022 -17.549364 28.112534 35.588511 0.934297 0.660097 0.073423 -0.019416 -558352.000000 0 0 1
-11.589222 -17.745364 27.472414 34.697861 0.992256 0.657110 0.071727 -0.030962 -354547.000000 0 0 1
-10.646822 -18.462164 28.229244 35.370843 1.047698 0.646672 0.081815 -0.037760 -787053.000000 0 0 1
-9.446522 -18.531164 27.544754 34.516000 1.099368 0.646780 0.076411 -0.035890 -802883.000000 0 0 1
-8.298322 -19.021564 28.426314 35.195701 1.159428 0.630616 0.089296 -0.037628 -252114.000000 0 0 1
-8.555622 -20.378564 28.812934 36.313492 1.173309 0.654340 0.088525 -0.027973 -413622.000000 0 0 1
-7.437822 -21.001364 29.342384 36.842285 1.230421 0.649424 0.091352 -0.021308 -385164.000000 0 0 1
-7.792322 -22.303864 30.079584 38.248712 1.234682 0.665803 0.084734 -0.023989 271809.000000 0 0 1
-8.070122 -23.408064 29.251814 38.324052 1.238799 0.702428 0.071245 -0.019498 86645.200000 0 0 1
-8.636722 -24.510964 29.945944 39.650219 1.232019 0.714756 0.068905 -0.014894 -34391.400000 0 0 1
-8.897922 -25.748864 29.090124 39.854891 1.238077 0.752619 0.067975 -0.007139 382142.000000 0 0 1
-9.987322 -25.609364 28.153754 39.347427 1.198951 0.773432 0.064515 -0.012280 598653.000000 0 0 1
-10.404722 -26.872864 27.612654 39.910747 1.201387 0.806734 0.057250 -0.012307 -210853.000000 0 0 1
-11.749522 -26.837964 26.875444 39.756975 1.158138 0.828485 0.070605 -0.023776 -255337.000000 0 0 1
-11.703422 -26.271664 25.578354 38.489253 1.151710 0.843894 0.073350 -0.024932 21992.900000 0 0 1
-11.600322 -24.873064 25.439994 37.422320 1.134404 0.823295 0.069069 -0.018999 -240534.000000 0 0 1
-11.877222 -24.515364 23.965054 36.282162 1.119641 0.849287 0.089845 -0.036929 900095.000000 0 0 1
-13.206822 -24.776864 23.476154 36.598401 1.081075 0.874406 0.080227 -0.028738 765437.000000 0 0 1
-13.155022 -24.725564 22.068364 35.656988 1.081845 0.903446 0.096217 -0.037106 24760.900000 0 0 1
-14.523222 -24.693064 21.364364 35.736640 1.039136 0.930007 0.084679 -0.040033 -372989.000000 0 0 1
-15.321422 -25.833764 21.427564 36.895390 1.035483 0.951128 0.089363 -0.040642 -857036.000000 0 0 1
-16.385022 -25.611864 20.574464 36.711648 1.001665 0.975886 0.086788 -0.042181 -719383.000000 0 0 1
-16.888422 -26.932764 19.957564 37.535276 1.010718 1.010188 0.089213 -0.041619 668417.000000 0 0 1
-15.868422 -27.564064 19.150164 37.125641 1.048442 1.028831 0.088482 -0.045357 622774.000000 0 0 1
-16.241322 -28.900164 18.909964 38.165256 1.058802 1.052414 0.092137 -0.039157 349207.000000 0 0 1
-15.160822 -29.642364 18.069164 37.881591 1.098024 1.073569 0.099351 -0.037951 236455.000000 0 0 1
-15.323822 -29.191564 16.744364 36.977569 1.087396 1.100865 0.100106 -0.041687 367060.000000 0 0 1
-14.102722 -29.293164 15.993064 36.231951 1.122112 1.113629 0.105255 -0.045075 556845.000000 0 0 1
-14.256622 -28.833764 14.536364 35.297919 1.111605 1.146347 0.100293 -0.034304 -243533.000000 0 0 1
-14.334722 -27.447264 14.438564 34.165899 1.089496 1.134482 0.102577 -0.035330 -143564.000000 0 0 1
-14.649722 -26.956864 13.127964 33.371100 1.072995 1.166477 0.096054 -0.027155 141723.000000 0 0 1
-13.665322 -27.202564 11.940064 32.699933 1.105267 1.197013 0.076133 -0.019099 296988.000000 0 0 1
-14.091822 -26.606964 10.724064 31.961156 1.083727 1.228624 0.062521 -0.014903 -222906.000000 0 0 1
-13.208122 -26.982164 9.705564 31.570391 1.115573 1.258309 0.058092 -0.018512 -39216.900000 0 0 1
-13.272022 -26.122664 8.425664 30.488226 1.100717 1.290794 0.058568 -0.015286 206744.000000 0 0 1
-14.455122 -26.325564 7.673364 30.997845 1.068652 1.320651 0.074930 -0.023560 -75597.200000 0 0 1
-14.429222 -25.514464 6.523764 30.029149 1.056107 1.351802 0.063061 -0.024394 -213552.000000 0 0 1
-15.483122 -25.912064 5.514864 30.685108 1.032198 1.390090 0.065313 -0.018253 -398829.000000 0 0 1
-15.131022 -27.070264 4.873064 31.392575 1.061105 1.414936 0.068562 -0.028796 -334100.000000 0 0 1
-15.962622 -27.418864 3.799164 31.953608 1.043585 1.451618 0.074833 -0.018432 -39215.700000 0 0 1
-15.389022 -28.619064 2.980264 32.630580 1.077431 1.479335 0.070822 -0.013957 1149530.000000 0 0 1
-14.111222 -28.411964 2.323564 31.808257 1.109820 1.497682 0.060386 -0.012757 817875.000000 0 0 1
-13.710722 -29.591264 1.604364 32.652730 1.136907 1.521642 0.053940 -0.014470 364730.000000 0 0 1
-12.320422 -29.439564 0.913164 31.926706 1.174445 1.542191 0.040138 -0.013214 375557.000000 0 0 1
-12.124322 -28.698864 -0.313936 31.156420 1.171073 1.580873 0.047490 -0.014621 -112198.000000 0 0 1
-12.417722 -27.291764 -0.224136 29.984837 1.143793 1.578271 0.040915 -0.019273 -289097.000000 0 0 1
-12.075222 -26.547864 -1.560836 29.206784 1.143919 1.624263 0.047622 -0.018476 907575.000000 0 0 1
-10.695222 -26.671964 -1.940936 28.801886 1.189436 1.638237 0.052874 -0.022646 399166.000000 0 0 1
-10.436622 -25.864964 -3.055136 28.058034 1.187273 1.679899 0.063764 -0.029211 640340.000000 0 0 1
-9.006022 -26.130164 -3.617336 27.874343 1.238887 1.700936 0.055122 -0.031274 481170.000000 0 0 1
-8.625422 -25.283164 -4.678236 27.120512 1.242025 1.744162 0.053258 -0.034856 -793806.000000 0 0 1
-7.335922 -25.621664 -5.070636 27.129260 1.291939 1.758809 0.055499 -0.026232 -195908.000000 0 0 1
-6.644122 -24.529564 -5.969436 26.105134 1.306281 1.801507 0.039058 -0.025531 -275406.000000 0 0 1
-7.036522 -24.581764 -7.352536 26.605179 1.292002 1.850798 0.045423 -0.017589 108805.000000 0 0 1
-6.372222 -23.504264 -8.006036 25.634981 1.306051 1.888419 0.041720 -0.016033 -334612.000000 0 0 1
-6.557122 -23.432864 -9.513436 26.126623 1.297949 1.943493 0.044084 -0.012866 -342398.000000 0 0 1
-5.720522 -24.278864 -10.241436 26.964321 1.339399 1.960392 0.021172 -0.013138 -364756.000000 0 0 1
-6.033022 -24.410564 -11.591536 27.688205 1.328504 2.002749 0.022467 -0.007026 516437.000000 0 0 1
-7.223522 -25.334364 -12.065036 28.975409 1.293039 2.000266 0.032571 -0.009964 693436.000000 0 0 1
-7.407222 -25.317764 -13.462036 29.615579 1.286170 2.042674 0.043342 -0.011420 -231078.000000 0 0 1
-8.410222 -26.249564 -13.731536 30.794910 1.260735 2.032979 0.068079 -0.011076 -762590.000000 0 0 1
-8.578722 -26.453764 -15.267136 31.725093 1.257206 2.072856 0.075151 -0.017543 439577.000000 0 0 1
-7.503822 -27.032864 -16.024636 32.309008 1.300032 2.089760 0.071972 -0.024202 479984.000000 0 0 1
-6.338422 -26.247264 -16.139736 31.457678 1.333844 2.109545 0.065637 -0.026060 -376179.000000 0 0 1
-5.205322 -26.976064 -16.885636 32.247916 1.380178 2.121890 0.054752 -0.023702 -658521.000000 0 0 1
-5.430822 -26.915964 -18.259936 32.975570 1.371700 2.157647 0.092271 -0.029493 659994.000000 0 0 1
-4.287822 -27.191964 -19.092336 33.500830 1.414397 2.177188 0.082522 -0.029555 212469.000000 0 0 1
-24.940722 14.930577 -6.092029 29.699740 -0.539421 1.777383 0.078308 -0.017348 73236.700000 0 0 1
-24.829322 13.791477 -5.263929 28.886139 -0.507019 1.754051 0.075570 -0.023836 612497.000000 0 0 1
-23.636222 13.002577 -5.434929 27.518656 -0.502929 1.769603 0.093695 -0.027621 122983.000000 0 0 1
-23.528722 11.631177 -4.681329 26.660830 -0.459109 1.747300 0.091593 -0.022748 -146608.000000 0 0 1
-24.191522 10.493877 -5.254429 26.887919 -0.409287 1.767482 0.102107 -0.014157 860798.000000 0 0 1
-25.624512 10.524177 -5.273629 28.199026 -0.389703 1.758919 0.124018 -0.018050 566861.000000 0 0 1
-26.189692 9.740477 -6.498129 28.688021 -0.356068 1.799290 0.134014 -0.015097 -2112.060000 0 0 1
-26.086242 10.485277 -7.680029 29.144740 -0.382183 1.837459 0.150482 -0.018023 718.618000 0 0 1
-26.451302 9.771477 -8.852929 29.555498 -0.353864 1.875002 0.143194 -0.015207 -26938.600000 0 0 1
-26.760172 10.747977 -10.069729 30.545462 -0.381920 1.906744 0.114685 -0.011021 637673.000000 0 0 1
-25.597302 11.440677 -10.528429 29.949270 -0.420313 1.930014 0.118208 -0.020772 712839.000000 0 0 1
-25.993422 12.153777 -11.664129 30.974573 -0.437370 1.956888 0.114011 -0.027471 195935.000000 0 0 1
-24.988422 13.275477 -12.028429 30.746425 -0.488346 1.972747 0.105513 -0.032331 -77808.500000 0 0 1
-24.933922 14.349277 -11.118129 30.841774 -0.522204 1.939589 0.093855 -0.028512 58567.400000 0 0 1
-24.428422 15.500377 -11.721829 31.215553 -0.565417 1.955746 0.086620 -0.030177 -212220.000000 0 0 1
-24.528522 16.896477 -10.976829 31.743190 -0.603204 1.923889 0.084382 -0.031228 -467478.000000 0 0 1
-23.478622 17.121377 -10.087029 30.759314 -0.630077 1.904912 0.064972 -0.026066 -157580.000000 0 0 1
-23.349522 18.466377 -9.637329 31.290340 -0.669147 1.883883 0.027955 -0.016568 539196.000000 0 0 1
-22.230422 18.551677 -8.507329 30.178321 -0.695437 1.856572 0.028160 -0.013234 504163.000000 0 0 1
-22.488922 18.000277 -7.239829 29.701460 -0.674989 1.817030 0.047718 -0.017236 -451525.000000 0 0 1
-23.380922 18.724177 -6.479529 30.647131 -0.675248 1.783828 0.043573 -0.020221 -290492.000000 0 0 1
-23.795922 18.113477 -5.106829 30.338485 -0.650631 1.739930 0.038044 -0.015998 959338.000000 0 0 1
-22.702522 18.203077 -4.145929 29.392946 -0.675843 1.712320 0.048163 -0.023111 1040680.000000 0 0 1
-23.037822 17.648077 -2.881229 29.163288 -0.653693 1.669754 0.035948 -0.022776 495965.000000 0 0 1
-21.746622 17.295577 -2.059429 27.862050 -0.671882 1.644779 0.036259 -0.029707 466658.000000 0 0 1
-21.133422 18.418077 -1.424529 28.069136 -0.716852 1.621569 0.036936 -0.032917 42699.700000 0 0 1
-20.184522 18.074677 -0.438929 27.097999 -0.730308 1.586995 0.074064 -0.044622 130028.000000 0 0 1
-19.483022 19.342277 0.105971 27.454017 -0.781773 1.566936 0.080134 -0.052824 -797343.000000 0 0 1
-20.419322 20.239577 0.595271 28.756626 -0.780977 1.550095 0.065174 -0.040146 -591188.000000 0 0 1
-20.069322 21.573077 0.736771 29.474026 -0.821494 1.545796 0.084430 -0.040500 32413.200000 0 0 1
-21.140522 22.295177 1.601171 30.766221 -0.811975 1.518730 0.047713 -0.031585 -34969.200000 0 0 1
-21.135822 21.819177 2.914971 30.517151 -0.801305 1.475131 0.062258 -0.025484 127028.000000 0 0 1
-22.279122 22.016777 3.729271 31.543703 -0.779476 1.452294 0.036058 -0.026842 29621.700000 0 0 1
-22.045122 21.514177 5.131971 31.227942 -0.773210 1.405708 0.051175 -0.023828 254639.000000 0 0 1
-21.260422 22.432777 5.926571 31.469974 -0.812223 1.381340 0.048138 -0.020859 548255.000000 0 0 1
-20.598422 21.907277 7.076771 30.891819 -0.816181 1.339661 0.045623 -0.009024 123037.000000 0 0 1
-21.453422 21.855577 8.355571 31.744781 -0.794684 1.304447 0.026490 -0.025220 -471504.000000 0 0 1
-22.337722 20.733377 8.386271 31.609750 -0.748167 1.302275 0.038448 -0.020171 558917.000000 0 0 1
-22.921922 20.296177 9.609671 32.088863 -0.724717 1.266659 0.051107 -0.019912 301368.000000 0 0 1
-23.454522 21.352577 10.641071 33.455636 -0.738522 1.247108 0.045661 -0.022127 -325052.000000 0 0 1
-24.492322 22.179377 10.140871 34.563505 -0.735881 1.273017 0.066039 -0.021298 461990.000000 0 0 1
-25.331582 22.697577 11.151171 35.794101 -0.730611 1.253987 0.078621 -0.022491 343889.000000 0 0 1
-26.106322 24.000577 10.751771 37.056286 -0.743398 1.276416 0.091416 -0.033222 37508.800000 0 0 1
-27.139922 24.366277 11.612271 38.277091 -0.731599 1.262565 0.097813 -0.026493 -238504.000000 0 0 1
-27.374422 25.744077 11.680071 39.351500 -0.754715 1.269442 0.099494 -0.028841 274928.000000 0 0 1
-27.927052 26.151077 13.072671 40.431347 -0.752569 1.241550 0.108301 -0.035212 129179.000000 0 0 1
-26.880022 26.144977 14.018871 40.032789 -0.771537 1.213028 0.087645 -0.030242 67184.300000 0 0 1
-27.234262 26.677277 15.330871 41.090361 -0.775067 1.188447 0.095136 -0.031288 373010.000000 0 0 1
-26.005962 26.750077 16.289671 40.709091 -0.799502 1.159118 0.074115 -0.033079 357419.000000 0 0 1
-25.689772 25.479877 16.870271 39.922357 -0.781296 1.134509 0.074901 -0.030128 -467455.000000 0 0 1
-24.611222 25.625777 17.728071 39.707395 -0.805591 1.107982 0.057164 -0.027164 -609588.000000 0 0 1
-24.239322 24.303577 18.422971 38.956572 -0.786722 1.078205 0.054272 -0.022139 -136861.000000 0 0 1
-23.043222 24.317077 19.175471 38.600635 -0.812289 1.050928 0.053704 -0.033507 236564.000000 0 0 1
-22.638122 23.039777 19.513271 37.737033 -0.794191 1.027354 0.054818 -0.033865 -237024.000000 0 0 1
-21.180522 22.987377 20.065471 37.143737 -0.826284 1.000108 0.053036 -0.035444 -11737.000000 0 0 1
-20.293622 23.058877 18.933371 36.083451 -0.849097 1.018421 0.066161 -0.039110 601408.000000 0 0 1
-18.955722 22.737777 19.318871 35.348900 -0.875861 0.992594 0.052336 -0.035076 497303.000000 0 0 1
-18.580722 21.216077 19.264971 34.154125 -0.851522 0.971502 0.049515 -0.019254 -538509.000000 0 0 1
-19.167122 20.417077 20.314971 34.596729 -0.816965 0.943209 0.063745 -0.019518 553952.000000 0 0 1
-18.449722 20.371777 21.547871 34.924380 -0.834868 0.905889 0.068955 -0.009566 -145229.000000 0 0 1
-19.445922 19.888977 22.619171 35.851670 -0.796661 0.888071 0.044585 -0.009849 -166007.000000 0 0 1
-20.360122 20.957977 22.780571 37.050315 -0.799867 0.908594 0.033226 -0.014151 40707.000000 0 0 1
-21.094022 20.862377 23.996571 38.157987 -0.779877 0.890692 0.021805 -0.005626 -229055.000000 0 0 1
-22.177422 21.937877 24.150971 39.450956 -0.779968 0.911985 0.016682 -0.009165 -903923.000000 0 0 1
-21.665622 23.202677 24.518371 40.111270 -0.819642 0.913146 0.037499 -0.020544 90438.100000 0 0 1
-22.604722 24.236677 24.748971 41.363046 -0.820224 0.929374 0.029498 -0.019855 101048.000000 0 0 1
-23.547922 24.667977 23.562671 41.451335 -0.808624 0.966186 0.029937 -0.026360 330640.000000 0 0 1
-24.494622 23.702577 23.160371 41.209240 -0.768966 0.973972 0.022888 -0.022425 -459456.000000 0 0 1
-25.139512 24.082277 22.017771 41.191424 -0.763922 1.006853 0.022101 -0.028766 -194962.000000 0 0 1
-26.127652 22.970177 21.505671 40.899598 -0.721177 1.017122 0.035464 -0.024874 507813.000000 0 0 1
-27.411552 23.146577 22.094771 42.134738 -0.701240 1.018805 0.051768 -0.024528 6613.580000 0 0 1
-28.331962 22.217177 21.556671 41.964188 -0.665016 1.031314 0.079741 -0.025233 166636.000000 0 0 1
-29.732982 22.372477 22.197371 43.327835 -0.645065 1.032922 0.100789 -0.018029 -1043620.000000 0 0 1
-30.344692 23.621477 21.876671 44.242098 -0.661455 1.053564 0.123935 -0.022302 404601.000000 0 0 1
-31.745692 23.619277 22.117471 45.330362 -0.639660 1.061094 0.134709 -0.027962 231047.000000 0 0 1
-32.631842 22.834577 21.174771 45.106828 -0.610567 1.082144 0.147933 -0.035853 -1736360.000000 0 0 1
-32.465732 21.475777 21.340871 44.392179 -0.584411 1.069304 0.143410 -0.031641 464450.000000 0 0 1
-33.331182 20.639977 20.547771 44.262707 -0.554446 1.088039 0.142514 -0.028321 279974.000000 0 0 1
-34.837398 20.612977 20.858171 45.536825 -0.534288 1.094995 0.140293 -0.035861 -477891.000000 0 0 1
-35.614037 19.923077 19.926271 45.413048 -0.510044 1.116557 0.144076 -0.034886 -516409.000000 0 0 1
36.019286 20.008977 20.204971 45.891056 0.507062 1.114884 0.137450 -0.046697 134528.000000 0 0 1
35.129676 19.204377 19.166171 44.387435 0.500284 1.124317 0.141835 -0.047215 239202.000000 0 0 1
35.465156 17.796477 19.073571 44.026049 0.465088 1.122719 0.147486 -0.039634 238562.000000 0 0 1
34.704826 17.125677 18.082271 42.716300 0.458407 1.133700 0.150400 -0.051845 -259023.000000 0 0 1
35.114706 15.692577 17.762771 42.365264 0.420269 1.138148 0.141790 -0.056069 104034.000000 0 0 1
34.201786 15.100577 16.848171 41.007932 0.415775 1.147408 0.166072 -0.051891 65059.500000 0 0 1
34.558936 13.766977 16.559671 40.719435 0.379094 1.151982 0.131301 -0.041093 537395.000000 0 0 1
33.615996 12.905977 15.590371 39.238490 0.366571 1.162198 0.124997 -0.042353 377684.000000 0 0 1
33.540476 13.412277 14.266971 38.838115 0.380406 1.194644 0.133506 -0.043280 113585.000000 0 0 1
32.904666 12.503477 13.434571 37.676806 0.363139 1.206198 0.131894 -0.036767 -339502.000000 0 0 1
33.024566 13.019177 11.940771 37.452676 0.375520 1.246309 0.138653 -0.035640 248075.000000 0 0 1
34.315446 12.893977 11.353371 38.375819 0.359427 1.270454 0.130393 -0.030729 457520.000000 0 0 1
34.325066 12.876477 9.933971 37.982859 0.358888 1.306181 0.116782 -0.021308 -542218.000000 0 0 1
35.750896 12.754177 9.378171 39.099178 0.342677 1.328579 0.104615 -0.015288 -324532.000000 0 0 1
36.465536 11.569677 9.642371 39.453366 0.307231 1.323896 0.125024 -0.030761 442385.000000 0 0 1
-35.187997 11.481177 9.197371 38.139274 -0.315390 1.327243 0.129946 -0.026848 454796.000000 0 0 1
-34.985627 11.212877 7.720371 37.541002 -0.310156 1.363667 0.127784 -0.036540 -451133.000000 0 0 1
-34.972240 12.338677 6.893471 37.720293 -0.339179 1.387011 0.135676 -0.040793 -11176.400000 0 0 1
-34.578283 12.024677 5.603271 37.035755 -0.334671 1.418920 0.135918 -0.044303 -584987.000000 0 0 1
-35.392107 12.677977 4.519671 37.865020 -0.343974 1.451148 0.145532 -0.039446 -463117.000000 0 0 1
36.284016 12.172077 4.429071 38.526691 0.323669 1.455580 0.149192 -0.047585 168537.000000 0 0 1
35.294126 13.185777 4.412971 37.934343 0.357540 1.454201 0.130389 -0.041529 175722.000000 0 0 1
34.997866 13.919377 5.756471 38.101662 0.378540 1.419134 0.125157 -0.031550 -971319.000000 0 0 1
34.236816 15.135477 5.550271 37.842407 0.416250 1.423597 0.114895 -0.023833 310329.000000 0 0 1
33.808346 15.740577 6.734471 37.896215 0.435737 1.392139 0.087914 -0.016534 470925.000000 0 0 1
32.474976 15.149977 7.326871 36.576344 0.436500 1.369115 0.102322 -0.015419 171838.000000 0 0 1
32.573116 13.802577 7.642971 36.193011 0.400804 1.358022 0.130624 -0.013018 -190268.000000 0 0 1
31.322976 13.224577 7.967971 34.921438 0.399497 1.340600 0.139096 -0.012495 -105841.000000 0 0 1
30.948446 11.996177 7.128371 33.948906 0.369787 1.359248 0.133751 -0.018045 -210819.000000 0 0 1
30.707126 12.232977 5.758271 33.551915 0.379105 1.398320 0.128402 -0.025541 189025.000000 0 0 1
30.931626 11.152977 4.894871 33.243257 0.346059 1.423015 0.131777 -0.027778 -207052.000000 0 0 1
30.276736 11.457577 3.528771 32.563922 0.361773 1.462219 0.116612 -0.034620 955466.000000 0 0 1
28.836216 11.428377 3.536671 31.219276 0.377330 1.457268 0.087395 -0.027500 941119.000000 0 0 1
28.401276 11.774577 2.260071 30.828251 0.393011 1.497419 0.106393 -0.033930 -356125.000000 0 0 1
26.993816 11.259377 1.934271 29.311791 0.395168 1.504759 0.118290 -0.023852 -112223.000000 0 0 1
26.983516 9.890277 1.521471 28.779204 0.351325 1.517905 0.069484 -0.026202 730895.000000 0 0 1
25.620816 9.542577 1.247571 27.368658 0.356537 1.525197 0.055391 -0.026845 644051.000000 0 0 1
25.395716 8.017077 0.897871 26.646240 0.305785 1.537094 0.058138 -0.025677 57840.000000 0 0 1
25.661116 7.039177 1.914371 26.677850 0.267727 1.498976 0.060771 -0.017806 615876.000000 0 0 1
27.044616 6.847077 2.184271 27.983294 0.247967 1.492661 0.078129 -0.032628 -122774.000000 0 0 1
27.224716 6.264177 3.556571 28.161574 0.226155 1.444167 0.079812 -0.036727 -146511.000000 0 0 1
28.606326 6.200277 3.863071 29.524374 0.213443 1.439577 0.100267 -0.037749 399098.000000 0 0 1
28.828236 5.468277 5.071871 29.777393 0.187458 1.399636 0.087039 -0.029683 -475709.000000 0 0 1
30.301696 5.373077 5.475571 31.257713 0.175495 1.394713 0.084611 -0.035493 -421820.000000 0 0 1
30.740096 6.623077 6.072871 32.026527 0.212210 1.380021 0.105047 -0.032596 -37124.700000 0 0 1
32.104546 6.500077 6.439871 33.383002 0.199766 1.376671 0.108565 -0.032401 380769.000000 0 0 1
32.657906 7.847777 7.035671 34.316572 0.235831 1.364310 0.098327 -0.033295 99605.100000 0 0 1
32.266806 7.952777 8.382471 34.273302 0.241653 1.323713 0.092714 -0.031332 34790.100000 0 0 1
32.766806 9.135377 8.969171 35.179038 0.271895 1.312992 0.115577 -0.034361 5412.070000 0 0 1
32.461976 9.110877 10.478371 35.307000 0.273623 1.269479 0.104707 -0.026515 396901.000000 0 0 1
31.120996 9.512177 10.773071 34.279104 0.296634 1.251103 0.100896 -0.024632 709058.000000 0 0 1
30.672396 9.044777 12.063871 34.178076 0.286756 1.210052 0.089398 -0.025966 -621844.000000 0 0 1
29.201076 9.321877 12.370171 33.054824 0.309005 1.187228 0.075642 -0.029345 -738370.000000 0 0 1
28.935636 10.688277 12.768971 33.384980 0.353835 1.178321 0.101361 -0.030118 208428.000000 0 0 1
29.020206 11.699577 11.786871 33.436250 0.383221 1.210536 0.106395 -0.035402 -388586.000000 0 0 1
27.854316 11.695177 10.768771 32.071896 0.397517 1.228374 0.090787 -0.024254 -131893.000000 0 0 1
27.937316 12.726477 9.862671 32.244831 0.427449 1.259946 0.078253 -0.003817 443034.000000 0 0 1
26.889816 12.731877 8.888671 31.051109 0.442210 1.280476 0.075769 -0.006816 186512.000000 0 0 1
26.913716 13.912977 7.916771 31.314442 0.477113 1.315207 0.078434 -0.005939 8250.870000 0 0 1
26.654916 15.180977 8.531471 31.839168 0.517719 1.299526 0.072657 0.001653 148196.000000 0 0 1
26.931716 16.240977 7.661471 32.369504 0.542654 1.331841 0.067144 0.002106 -655200.000000 0 0 1
26.502516 17.595377 8.322271 32.882227 0.586094 1.314920 0.075516 -0.009458 1936760.000000 0 0 1
25.061616 17.846477 8.297771 31.865881 0.618803 1.307363 0.074343 -0.012360 1290880.000000 0 0 1
24.281216 17.065977 9.156271 31.059014 0.612634 1.271548 0.081591 -0.008860 -1081380.000000 0 0 1
22.900616 17.692377 9.319271 30.402422 0.657791 1.259250 0.082397 -0.020148 -573090.000000 0 0 1
22.303016 18.111177 8.123171 29.856744 0.682046 1.295251 0.092609 -0.025991 329291.000000 0 0 1
21.262916 19.070577 8.365771 29.762134 0.731096 1.285869 0.131168 -0.034850 282596.000000 0 0 1
20.672916 19.687377 7.125371 29.423344 0.760984 1.326197 0.115252 -0.027703 -361655.000000 0 0 1
21.479916 20.623977 6.471371 30.473166 0.765072 1.356804 0.087798 -0.016956 -256764.000000 0 0 1
20.928516 21.078177 5.228271 30.160026 0.788961 1.396565 0.108799 -0.023354 -260798.000000 0 0 1
18.448678 17.396877 33.393071 41.929730 0.756064 0.649468 0.038491 -0.021677 -880546.000000 0 0 1
17.668778 17.813777 32.371229 40.956231 0.789485 0.659358 0.032875 -0.022020 -252945.000000 0 0 1
17.434878 16.721577 31.461704 39.666421 0.764518 0.654821 0.037666 -0.026719 -272561.000000 0 0 1
16.555878 16.953577 30.238674 38.417422 0.797266 0.664689 0.034158 -0.030186 -556747.000000 0 0 1
17.224378 17.633177 29.275424 38.270858 0.797125 0.699827 0.036072 -0.009671 -210396.000000 0 0 1
16.436378 17.761977 28.101744 37.085717 0.824141 0.710936 0.036253 -0.009580 247338.000000 0 0 1
17.286678 18.088877 26.842324 36.695328 0.808071 0.750289 0.047260 -0.017323 87288.600000 0 0 1
17.908078 19.360477 26.848754 37.634863 0.824350 0.776457 0.044861 -0.019212 259676.000000 0 0 1
18.652378 19.674677 25.677094 37.340558 0.812065 0.812554 0.059297 -0.022721 -13009.100000 0 0 1
19.604778 20.872777 25.821214 38.558465 0.816714 0.837040 0.066978 -0.019975 -100456.000000 0 0 1
18.931078 22.107877 25.919544 38.973924 0.862653 0.843238 0.049360 -0.017645 337677.000000 0 0 1
19.814478 23.155877 26.351444 40.289041 0.863003 0.857857 0.075167 -0.023192 106186.000000 0 0 1
19.127478 24.544577 26.445334 40.836900 0.908808 0.866386 0.086348 -0.023833 78206.700000 0 0 1
19.081078 25.078977 25.139464 40.311727 0.920394 0.897423 0.082300 -0.027450 285117.000000 0 0 1
18.127078 26.110577 24.973894 40.423367 0.963945 0.904844 0.077769 -0.025076 -6761.190000 0 0 1
18.136178 26.925577 23.614814 40.144329 0.978032 0.941906 0.053394 -0.027401 67320.500000 0 0 1
19.215478 27.852277 23.629944 41.271760 0.966876 0.961190 0.081592 -0.033756 353946.000000 0 0 1
19.028478 28.719577 22.528364 41.163385 0.985641 0.991672 0.076993 -0.024400 298243.000000 0 0 1
20.136978 29.800377 22.351364 42.345529 0.976546 1.014749 0.086400 -0.022923 1566640.000000 0 0 1
21.428478 29.353877 21.836664 42.398935 0.940215 1.029755 0.085820 -0.023057 561190.000000 0 0 1
22.408578 30.322077 21.961564 43.633508 0.934360 1.043361 0.098238 -0.035425 -647671.000000 0 0 1
23.159278 30.357477 20.664564 43.416043 0.919099 1.074734 0.114645 -0.036011 -500580.000000 0 0 1
22.442178 31.113477 19.729364 43.138702 0.945917 1.095787 0.082440 -0.027305 230594.000000 0 0 1
23.112978 31.186977 18.438764 42.974706 0.933009 1.127344 0.077794 -0.004540 324627.000000 0 0 1
22.462178 32.056277 17.293564 42.792777 0.959594 1.154776 0.068777 -0.017619 -62687.800000 0 0 1
22.796778 33.435877 17.423664 44.059449 0.972386 1.164230 0.092037 -0.022600 100750.000000 0 0 1
22.470778 -34.003864 16.249964 43.877784 -0.986845 1.191415 0.086567 -0.020519 -185933.000000 0 0 1
23.399778 34.009777 15.041964 43.937174 0.968149 1.221378 0.067370 -0.020387 -180368.000000 0 0 1
23.212978 32.852977 14.264864 42.680755 0.955674 1.230016 0.092362 -0.019764 -198625.000000 0 0 1
22.285078 33.012077 13.228564 41.969237 0.977007 1.250132 0.053416 -0.018045 -370973.000000 0 0 1
22.144878 31.775477 12.292964 40.634881 0.962142 1.263458 0.066376 -0.026553 -579945.000000 0 0 1
23.359378 31.358977 11.741464 40.827785 0.930566 1.279092 0.099564 -0.046746 -421966.000000 0 0 1
23.163378 30.226977 10.943864 39.622978 0.916935 1.290958 0.099734 -0.048122 -851871.000000 0 0 1
24.394678 29.792177 10.075464 39.801873 0.884680 1.314871 0.100803 -0.042928 136052.000000 0 0 1
25.408478 29.076977 10.734664 40.078603 0.852627 1.299646 0.090867 -0.034497 -95970.700000 0 0 1
26.118478 29.949477 11.609964 41.399727 0.853620 1.286548 0.086023 -0.035734 -1055670.000000 0 0 1
27.497978 29.307977 11.997464 41.940857 0.817250 1.280687 0.082584 -0.028840 656613.000000 0 0 1
27.395678 28.243277 12.985664 41.434688 0.800631 1.252024 0.075509 -0.023998 -312295.000000 0 0 1
28.667778 27.947277 13.501264 42.251343 0.772673 1.245546 0.061261 -0.013032 -117211.000000 0 0 1
28.826378 26.676677 14.386164 41.827825 0.746686 1.219689 0.035908 -0.020850 220596.000000 0 0 1
30.005278 26.789977 15.170764 42.990367 0.728846 1.210141 0.024567 -0.024887 144839.000000 0 0 1
30.312078 25.664077 15.927364 42.791914 0.702553 1.189413 0.035502 -0.037387 128122.000000 0 0 1
31.540478 25.799077 16.860564 44.098444 0.685601 1.178470 0.058787 -0.042431 248865.000000 0 0 1
32.782878 25.911277 16.210664 44.820721 0.668854 1.200729 0.060113 -0.032374 177686.000000 0 0 1
33.883978 25.916977 17.132264 45.970949 0.652953 1.188905 0.070631 -0.036784 574930.000000 0 0 1
35.253778 26.217877 16.514864 46.935559 0.639450 1.211236 0.090844 -0.042326 -109510.000000 0 0 1
35.302878 27.553677 15.943164 47.536121 0.662733 1.228777 0.066993 -0.023925 99832.800000 0 0 1
-36.347260 27.898477 15.644464 48.416914 -0.654641 1.241772 0.084856 -0.017272 584801.000000 0 0 1
-36.151060 29.124877 14.693764 48.693575 -0.678173 1.264258 0.046092 -0.009599 127022.000000 0 0 1
36.442678 30.272477 15.395664 49.814839 0.693175 1.256594 0.044771 -0.011725 -75190.600000 0 0 1
-36.481560 31.344377 14.506664 50.237610 -0.709802 1.277864 0.041936 0.008967 271991.000000 0 0 1
35.698578 32.623977 14.885664 50.599361 0.740427 1.272192 0.038009 0.004733 -271919.000000 0 0 1
35.602378 33.507477 13.732664 50.782541 0.755095 1.296966 0.008393 0.001446 534236.000000 0 0 1
34.492978 -33.829164 13.903464 50.274090 -0.775683 1.290591 0.011790 0.005198 1436210.000000 0 0 1
33.083778 33.823877 13.461364 49.191456 0.796459 1.293608 0.055794 0.002604 757111.000000 0 0 1
32.495878 32.777577 14.228164 48.298989 0.789714 1.271775 0.044244 -0.006045 414344.000000 0 0 1
31.503878 32.004177 13.535764 46.903930 0.793276 1.278048 0.048975 -0.004524 290735.000000 0 0 1
30.906378 30.954877 14.508364 46.085803 0.786182 1.250538 0.080683 -0.017154 83676.200000 0 0 1
30.048878 31.441177 15.540464 46.184291 0.808037 1.227611 0.078689 -0.019364 112857.000000 0 0 1
29.501778 30.439677 16.278164 45.408232 0.801044 1.204152 0.074928 -0.026175 -194427.000000 0 0 1
28.495078 30.976777 17.320864 45.514202 0.827103 1.180395 0.085452 -0.031351 -143213.000000 0 0 1
28.170778 30.067477 18.336864 45.098631 0.817955 1.152073 0.071989 -0.032154 -83529.300000 0 0 1
29.005878 30.113877 19.490664 46.131037 0.804138 1.134587 0.073842 -0.041892 55189.500000 0 0 1
28.695478 29.003277 20.552464 45.683962 0.790733 1.104161 0.074900 -0.042954 131465.000000 0 0 1
27.467978 29.128977 21.249964 45.327123 0.814738 1.082849 0.093192 -0.044194 81022.200000 0 0 1
27.443378 28.248477 22.358864 45.288346 0.799853 1.054457 0.083365 -0.040802 -197562.000000 0 0 1
26.203678 28.233877 23.278724 45.007595 0.822675 1.027199 0.095558 -0.031904 -1037300.000000 0 0 1
25.073778 27.723677 22.685564 43.725638 0.835546 1.025331 0.110422 -0.030665 -258192.000000 0 0 1
23.962078 27.605777 23.594544 43.508191 0.855939 0.997623 0.113796 -0.030268 573951.000000 0 0 1
23.878778 26.349077 24.534314 43.201881 0.834540 0.966845 0.110943 -0.032371 107927.000000 0 0 1
24.861878 26.412977 25.593514 44.393539 0.815640 0.956340 0.109345 -0.030750 550589.000000 0 0 1
24.529478 25.480577 26.646724 44.283214 0.804414 0.925126 0.117140 -0.034154 -923379.000000 0 0 1
25.724778 25.106877 27.515194 45.268150 0.773243 0.917475 0.114860 -0.036231 -175790.000000 0 0 1
26.313078 26.111977 28.351854 46.669488 0.781562 0.917883 0.135803 -0.035283 389872.000000 0 0 1
27.013878 27.095577 27.602224 47.178414 0.786908 0.945842 0.104049 -0.027865 -794682.000000 0 0 1
27.460778 28.271977 28.505654 48.641252 0.799952 0.944635 0.062194 -0.015351 -280938.000000 0 0 1
28.518978 28.049077 29.399854 49.643069 0.777092 0.936979 0.070322 -0.009008 -166671.000000 0 0 1
28.891578 29.293677 29.982274 50.909523 0.792309 0.941059 0.058498 -0.008656 -262146.000000 0 0 1
30.418978 29.368577 30.035364 51.864734 0.767831 0.953160 0.044354 -0.006631 -323440.000000 0 0 1
31.047578 29.419677 28.768474 51.547014 0.758483 0.978700 0.031469 -0.010419 -508558.000000 0 0 1
32.444278 29.497377 28.878834 52.504414 0.737859 0.988400 0.038033 -0.016010 -238196.000000 0 0 1
32.956778 30.021277 27.508494 52.384574 0.738820 1.017933 0.032465 -0.012516 -362643.000000 0 0 1
32.787178 31.401377 27.473474 53.064464 0.763812 1.026592 0.032521 -0.011281 187504.000000 0 0 1
33.219878 31.870977 26.210974 52.974849 0.764678 1.053213 0.052020 -0.021615 2063.290000 0 0 1
32.918078 33.382377 26.083374 53.650027 0.792401 1.063088 0.043133 -0.023349 -46576.600000 0 0 1
33.878878 -34.073464 26.796104 55.016457 -0.788262 1.062080 0.059934 -0.026894 177175.000000 0 0 1
33.654078 -32.678664 26.566194 53.909690 -0.770694 1.055502 0.054445 -0.030537 -578413.000000 0 0 1
34.647478 -31.758164 27.233424 54.320236 -0.741916 1.045639 0.049116 -0.025439 -311656.000000 0 0 1
34.457378 -31.807764 28.626454 54.941047 -0.745434 1.022728 0.054620 -0.030872 -36425.000000 0 0 1
35.464778 -31.041164 29.177454 55.431292 -0.718981 1.016469 0.054325 -0.032288 -519261.000000 0 0 1
34.958578 -30.376364 30.497004 55.451717 -0.715379 0.988463 0.063524 -0.031856 -583030.000000 0 0 1
35.001078 -31.250264 31.634774 56.589870 -0.728844 0.977595 0.067447 -0.030691 77347.000000 0 0 1
34.161478 -32.372564 31.589434 56.682288 -0.758517 0.979657 0.060659 -0.031882 -655691.000000 0 0 1
34.171978 -33.302564 32.802312 57.903165 -0.772514 0.968540 0.072068 -0.023447 -475305.000000 0 0 1
33.486178 -32.750364 33.940904 57.843715 -0.774290 0.943733 0.060011 -0.026464 355223.000000 0 0 1
33.498278 -33.554564 -33.123799 57.837958 -0.786238 2.180592 0.069003 -0.018937 -13941.600000 0 0 1
32.585978 33.425777 -32.968539 57.149393 0.798119 2.185704 0.057583 -0.013038 -326246.000000 0 0 1
32.981378 32.425077 -33.883899 57.334767 0.776893 2.203074 0.071170 -0.020075 -113838.000000 0 0 1
32.249978 31.231677 -33.817119 56.205661 0.769359 2.216383 0.070447 -0.011081 -219265.000000 0 0 1
32.694578 30.231777 33.395395 55.661012 0.746280 0.927322 0.054330 -0.002648 223534.000000 0 0 1
34.041678 29.792377 33.463519 56.269252 0.718928 0.933900 0.054638 -0.015456 178315.000000 0 0 1
34.285978 29.014777 32.318667 55.334274 0.702318 0.947072 0.036354 -0.010926 -825969.000000 0 0 1
35.649278 28.393877 32.140204 55.768056 0.672590 0.956579 0.034182 -0.013260 -763448.000000 0 0 1
35.825978 27.286677 33.003619 55.832807 0.650912 0.938356 0.031190 -0.009441 944070.000000 0 0 1
-35.884760 26.689177 32.741208 55.425760 -0.639487 0.938843 0.002928 -0.008716 856370.000000 0 0 1
-35.711860 25.365777 33.505779 55.148860 -0.617599 0.917822 -0.006588 -0.006218 314486.000000 0 0 1
-36.404360 24.271377 32.880456 54.731175 -0.588037 0.926341 -0.007584 -0.006659 160488.000000 0 0 1
-36.419160 23.176877 33.786740 54.818488 -0.566750 0.906712 -0.014663 -0.013798 -56070.300000 0 0 1
36.004378 21.830277 33.181223 53.608486 0.545056 0.903385 -0.008387 -0.017210 -54943.600000 0 0 1
-36.163160 21.170077 32.237162 52.869470 -0.529618 0.915051 -0.000597 -0.017397 352732.000000 0 0 1
36.082078 20.203877 31.532424 52.003911 0.510444 0.919337 -0.005020 -0.011099 350935.000000 0 0 1
-35.963460 19.466277 30.566734 51.055182 -0.496123 0.928919 0.014968 -0.015369 79319.800000 0 0 1
-35.501660 20.312077 29.517594 50.440427 -0.519686 0.945673 0.024181 -0.018976 394395.000000 0 0 1
-34.404960 19.585077 28.906584 49.019048 -0.517503 0.940108 0.068468 -0.023900 431898.000000 0 0 1
-34.769460 18.620477 27.738074 48.218650 -0.491675 0.957879 0.094934 -0.020399 -779100.000000 0 0 1
-35.519360 17.549577 28.151554 48.601672 -0.458904 0.953012 0.074778 -0.016950 -137669.000000 0 0 1
-35.775660 16.635877 27.098624 47.864242 -0.435262 0.968961 0.074732 -0.021522 15971.200000 0 0 1
-36.448460 15.288377 27.483334 48.141026 -0.397162 0.963204 0.043671 -0.025672 -20022.300000 0 0 1
-35.515760 14.505177 28.165864 47.592912 -0.387740 0.937496 0.073845 -0.020270 75259.000000 0 0 1
-36.104260 13.263877 28.570154 47.913481 -0.352071 0.931929 0.070595 -0.022611 -441687.000000 0 0 1
-35.151460 12.318477 29.233224 47.349249 -0.337067 0.905369 0.079022 -0.015215 -496376.000000 0 0 1
-34.537460 12.799177 30.447064 47.787852 -0.354897 0.880028 0.079116 -0.011855 566355.000000 0 0 1
-33.667360 11.820477 31.017474 47.278943 -0.337651 0.855220 0.075670 -0.007098 864421.000000 0 0 1
-32.145260 12.107277 30.783384 46.125054 -0.360210 0.840098 0.068397 -0.007400 -91120.900000 0 0 1
-31.662960 11.901477 29.500754 44.882989 -0.359542 0.853591 0.074926 -0.014739 720072.000000 0 0 1
-30.330860 12.403277 29.290044 43.951212 -0.388183 0.841397 0.092533 -0.013978 1596440.000000 0 0 1
-29.121460 11.504977 29.756544 43.195785 -0.376248 0.810859 0.071222 -0.014250 275235.000000 0 0 1
-28.910160 10.279077 29.135484 42.312329 -0.341613 0.811265 0.062286 -0.019841 -957497.000000 0 0 1
-27.795860 9.679177 29.675474 41.796292 -0.335092 0.781294 0.062590 -0.018810 -707710.000000 0 0 1
-27.176560 8.575177 28.758234 40.486233 -0.305648 0.780842 0.061622 -0.020881 18230.000000 0 0 1
-27.812860 7.334877 28.577844 40.546871 -0.257852 0.788641 0.066176 -0.024952 -44080.200000 0 0 1
-29.113360 7.390577 27.991774 41.057859 -0.248604 0.820625 0.074955 -0.021872 117610.000000 0 0 1
-29.823860 6.022377 28.033814 41.371806 -0.199252 0.826293 0.064187 -0.019540 -57106.300000 0 0 1
-30.355160 5.695677 29.323674 42.588195 -0.185478 0.811322 0.061404 -0.017672 47809.600000 0 0 1
-30.761360 4.337877 29.412924 42.780820 -0.140093 0.812720 0.073715 -0.022507 19365.600000 0 0 1
-31.554960 4.105477 30.717724 44.228373 -0.129379 0.803036 0.076935 -0.013678 -187235.000000 0 0 1
-32.844960 4.653777 30.790474 45.260383 -0.140752 0.822629 0.070388 -0.011367 -113502.000000 0 0 1
-33.480760 4.439677 32.060174 46.567443 -0.131835 0.811422 0.072166 -0.016233 -394878.000000 0 0 1
-34.908460 4.918977 32.182034 47.733429 -0.139989 0.830911 0.066421 -0.006802 -670406.000000 0 0 1
-35.087460 6.286477 32.330763 48.124088 -0.177285 0.834132 0.064888 -0.002232 -851099.000000 0 0 1
-36.447960 6.548677 32.441671 49.232113 -0.177775 0.851370 0.056663 0.003875 -582134.000000 0 0 1
36.241278 8.051877 32.609382 49.412901 0.218623 0.850062 0.053907 0.002981 -266422.000000 0 0 1
-36.495260 8.511977 33.895403 50.529754 -0.229139 0.835508 0.054501 0.003761 132273.000000 0 0 1
36.158178 9.870377 34.115305 50.682267 0.266485 0.832375 0.057000 -0.010618 56892.500000 0 0 1
36.232978 10.282377 -32.647039 49.843607 0.276515 2.284965 0.055202 -0.025139 -99431.400000 0 0 1
35.205878 9.617177 -31.945169 48.501936 0.266664 2.289802 0.089457 -0.013963 -6858.230000 0 0 1
35.194478 9.896277 -30.565609 47.653374 0.274110 2.267138 0.088783 -0.011601 76774.600000 0 0 1
33.873478 9.376677 -29.946809 46.175166 0.270053 2.276472 0.086859 -0.010248 -33633.000000 0 0 1
33.819878 7.972277 -29.781379 45.763215 0.231501 2.279396 0.068208 -0.008225 1628330.000000 0 0 1
32.474978 7.399577 -29.874769 44.742371 0.224030 2.301920 0.072707 -0.009944 1285030.000000 0 0 1
35.297566 5.755777 -19.915729 40.935112 0.161642 2.078898 0.043436 -0.009834 -515922.000000 0 0 1
34.894226 6.677777 -18.932529 40.257178 0.189086 2.060415 0.037343 -0.008886 121516.000000 0 0 1
35.407946 7.980377 -19.149629 41.037999 0.221680 2.056275 0.024577 -0.008362 -26550.200000 0 0 1
-36.161242 8.136177 -18.512729 41.431316 -0.221312 2.034014 0.032637 -0.012535 1252240.000000 0 0 1
-35.078933 7.457177 -19.196129 40.677173 -0.209465 2.062257 0.038258 -0.027400 813850.000000 0 0 1
-34.643705 8.168877 -20.346929 40.998955 -0.231567 2.090104 0.024834 -0.020226 -567947.000000 0 0 1
-33.665922 7.410677 -21.297629 40.520383 -0.216669 2.124220 0.028164 -0.016051 -70893.700000 0 0 1
-34.193332 6.456477 -22.170529 41.260179 -0.186625 2.138070 0.030069 -0.010312 -9705.720000 0 0 1
-34.959634 6.850177 -23.266429 42.549120 -0.193494 2.149350 0.029436 -0.010242 -142031.000000 0 0 1
-34.963654 5.743677 -24.352229 42.993929 -0.162821 2.172941 0.040985 -0.012919 464186.000000 0 0 1
-33.672292 5.568577 -24.936229 42.268757 -0.163892 2.201787 0.031308 -0.014920 470177.000000 0 0 1
-33.521232 4.188677 -25.328969 42.222916 -0.124312 2.214156 0.035550 -0.004680 -829097.000000 0 0 1
-32.148982 3.907577 -25.892759 41.463974 -0.120953 2.245241 0.051797 -0.006011 -921783.000000 0 0 1
-31.097142 4.225077 -25.027129 40.140263 -0.135040 2.243997 0.055541 -0.009798 -677246.000000 0 0 1
-29.898512 4.035177 -25.707819 39.637048 -0.134152 2.276514 0.058265 -0.011299 -285018.000000 0 0 1
-28.571372 4.465777 -25.051529 38.260235 -0.155048 2.284670 0.045845 -0.011776 150531.000000 0 0 1
-28.402092 5.853177 -24.941729 38.249553 -0.203237 2.281120 0.028996 -0.010976 1106550.000000 0 0 1
-27.038442 6.209577 -24.592929 37.073553 -0.225743 2.296090 0.046247 -0.004951 1263950.000000 0 0 1
-26.741832 7.689077 -24.874029 37.322443 -0.279977 2.300251 0.038495 -0.008774 -249120.000000 0 0 1
-27.277292 8.598477 -23.955829 37.307723 -0.305365 2.268050 0.028789 -0.014348 -127223.000000 0 0 1
-26.832582 9.951477 -24.214829 37.488362 -0.355147 2.273036 0.023005 -0.010624 577111.000000 0 0 1
-25.461862 10.371377 -23.607929 36.238187 -0.386809 2.280311 0.045323 -0.009641 114292.000000 0 0 1
-25.522652 10.555177 -22.226129 35.451634 -0.392142 2.248418 0.053587 -0.013199 603653.000000 0 0 1
-24.268922 10.683277 -21.537629 34.161125 -0.414678 2.252957 0.083885 -0.022960 223395.000000 0 0 1
-24.382922 11.036577 -20.053229 33.443458 -0.425043 2.213817 0.108131 -0.029113 -794406.000000 0 0 1
-24.687522 12.387777 -19.752129 33.956993 -0.465073 2.191590 0.095115 -0.036178 1203670.000000 0 0 1
-26.021632 12.926377 -19.855829 35.191909 -0.461048 2.170279 0.087268 -0.021433 827804.000000 0 0 1
-27.238892 12.196977 -19.240329 35.509347 -0.421005 2.143419 0.083336 -0.026749 -508657.000000 0 0 1
-27.081742 12.047377 -17.868329 34.609785 -0.418565 2.113298 0.103462 -0.036751 30757.500000 0 0 1
-27.964872 11.070977 -17.410329 34.752268 -0.376957 2.095532 0.086223 -0.031900 -953015.000000 0 0 1
-27.640552 10.572377 -15.985229 33.634845 -0.365326 2.066054 0.108283 -0.036492 -13447.400000 0 0 1
-26.673652 9.569077 -15.855529 32.472276 -0.344445 2.080913 0.125758 -0.035715 909906.000000 0 0 1
-25.307132 10.007077 -15.982429 31.559952 -0.376556 2.101818 0.111716 -0.032560 232576.000000 0 0 1
-24.339122 8.812777 -16.006629 30.434685 -0.347398 2.124609 0.112809 -0.033521 215021.000000 0 0 1
-22.958722 9.169577 -16.018129 29.457843 -0.379984 2.145713 0.110351 -0.030674 731532.000000 0 0 1
-22.125822 8.018577 -15.824029 28.359292 -0.347686 2.162751 0.108596 -0.032789 -439060.000000 0 0 1
-20.679222 8.399277 -15.571929 27.215125 -0.385814 2.179957 0.123004 -0.033362 -818287.000000 0 0 1
-19.871622 8.521977 -16.711829 27.327471 -0.405128 2.228801 0.131292 -0.043265 393411.000000 0 0 1
-18.488122 8.459077 -16.380229 26.108974 -0.429107 2.248979 0.125856 -0.031550 329174.000000 0 0 1
-17.566222 9.146077 -17.433729 26.384802 -0.480041 2.292612 0.095855 -0.028289 -45187.400000 0 0 1
-17.304522 8.517377 -18.649429 26.828965 -0.457392 2.339387 0.129704 -0.037455 234052.000000 0 0 1
-16.215922 7.616377 -18.756029 25.937501 -0.439103 2.379111 0.117140 -0.032198 -203142.000000 0 0 1
-16.019822 6.937177 -20.127929 26.643810 -0.408658 2.427129 0.111809 -0.032761 166926.000000 0 0 1
-16.915122 5.879477 -20.451229 27.183494 -0.334524 2.422403 0.108088 -0.032985 -87545.900000 0 0 1
-17.997322 6.301877 -21.229029 28.535748 -0.336814 2.409751 0.112799 -0.032730 -244631.000000 0 0 1
-18.934922 5.224477 -21.848129 29.379707 -0.269219 2.409305 0.101064 -0.016239 687623.000000 0 0 1
-19.964222 4.704877 -20.981129 29.341332 -0.231442 2.367522 0.093221 -0.021064 699315.000000 0 0 1
-20.369922 3.465777 -21.517129 29.831731 -0.168528 2.376450 0.065649 -0.002536 -111999.000000 0 0 1
-21.359322 2.764377 -20.537329 29.759776 -0.128707 2.332429 0.077672 -0.004425 128230.000000 0 0 1
-21.839322 1.482777 -20.994329 30.330124 -0.067791 2.335321 0.081764 0.000474 151006.000000 0 0 1
-22.620522 0.935277 -19.976129 30.192855 -0.041323 2.293771 0.080451 -0.005624 -603553.000000 0 0 1
-23.183222 -0.389223 -20.455729 30.920060 0.016787 2.293704 0.079912 0.007157 288955.000000 0 0 1
-22.186422 -1.435523 -20.515129 30.251753 0.064613 2.316034 0.053434 -0.003438 476757.000000 0 0 1
-22.694922 -2.745423 -20.859429 30.946932 0.120386 2.310459 0.062770 -0.005271 -198592.000000 0 0 1
-23.289422 -2.997423 -22.301529 32.384254 0.128000 2.330427 0.065073 -0.006809 261690.000000 0 0 1
-22.404822 -2.842123 -23.419329 32.534884 0.126179 2.374342 0.034455 -0.002998 432755.000000 0 0 1
-21.458122 -3.913823 -23.523629 32.080058 0.180410 2.393928 0.021108 -0.008608 -154357.000000 0 0 1
-20.547822 -3.791523 -24.719229 32.367096 0.182469 2.439844 0.021607 -0.007956 -668189.000000 0 0 1
-21.250822 -3.920023 -25.918099 33.744805 0.182414 2.446605 0.022338 -0.010455 -15767.800000 0 0 1
-20.462022 -3.850723 -27.095699 34.171615 0.186013 2.486399 0.028218 -0.019957 -621095.000000 0 0 1
-21.273022 -3.813323 -28.400059 35.688180 0.177372 2.491096 0.035410 -0.020206 -141207.000000 0 0 1
-21.952722 -5.041723 -28.447369 36.284897 0.225748 2.471880 0.043089 -0.018956 192006.000000 0 0 1
-22.749922 -5.264323 -29.608349 37.708439 0.227397 2.473802 0.021148 -0.018648 62600.200000 0 0 1
-22.174622 -6.488023 -30.393849 38.178454 0.284643 2.491619 0.029835 -0.018963 -2019.850000 0 0 1
-20.998222 -6.237323 -31.107159 38.045825 0.288739 2.528067 0.030689 -0.017614 -311158.000000 0 0 1
-20.384222 -7.374823 -31.645179 38.357813 0.347140 2.540998 0.035740 -0.018582 165208.000000 0 0 1
-19.067322 -7.036223 -32.409349 38.254896 0.353518 2.581479 0.050827 -0.032924 -369183.000000 0 0 1
-19.215622 -6.440523 -33.677929 39.305513 0.323404 2.599875 0.057292 -0.039952 299039.000000 0 0 1
-19.312822 -7.446323 33.594491 39.459126 0.368000 0.552196 0.057935 -0.031239 -793046.000000 0 0 1
-19.189022 -6.933323 32.176294 38.099914 0.346721 0.565121 0.056693 -0.032549 -133046.000000 0 0 1
-17.883122 -6.674523 31.712124 37.013702 0.357218 0.541828 0.064798 -0.037700 -52926.100000 0 0 1
-17.217422 -5.558223 32.324961 37.043712 0.312264 0.510262 0.048877 -0.034469 -29817.100000 0 0 1
-15.795022 -5.485623 31.693194 35.833411 0.334268 0.485462 0.046666 -0.028426 88890.400000 0 0 1
-15.931322 -5.390823 30.300204 34.655019 0.326285 0.506726 0.049355 -0.030649 413070.000000 0 0 1
-14.833722 -4.722323 29.677394 33.512496 0.308206 0.483094 0.034937 -0.016540 297649.000000 0 0 1
-14.963022 -4.757823 28.130774 32.215980 0.307862 0.509080 0.044580 -0.017610 -64728.000000 0 0 1
-15.953322 -3.887123 27.671724 32.176739 0.238999 0.535543 0.037667 -0.018758 -316725.000000 0 0 1
-16.453322 -4.156823 26.372524 31.360820 0.247465 0.571781 0.042645 -0.019962 -306273.000000 0 0 1
-15.645222 -3.699423 25.167314 29.863898 0.232192 0.568455 0.042936 -0.009084 -133069.000000 0 0 1
-15.678022 -2.292723 25.032734 29.625913 0.145209 0.564305 0.040227 -0.004635 92235.400000 0 0 1
-14.555422 -1.926723 24.256654 28.354150 0.131606 0.544303 0.036699 -0.004579 100986.000000 0 0 1
-14.326222 -0.470623 24.291784 28.205547 0.032839 0.533089 0.034884 -0.003095 -787400.000000 0 0 1
-15.218722 0.219377 23.529014 28.022707 -0.014414 0.574174 0.030744 -0.009644 -521723.000000 0 0 1
-15.425122 1.493977 24.080204 28.636036 -0.096552 0.571842 0.010459 -0.003094 -626359.000000 0 0 1
-16.343022 2.284977 23.229794 28.494540 -0.138913 0.617659 0.019403 -0.001770 -640320.000000 0 0 1
-15.598322 2.901677 22.201764 27.288197 -0.183923 0.620474 0.018673 -0.002453 480930.000000 0 0 1
-16.396822 3.783377 21.472264 27.280540 -0.226770 0.664718 0.018052 -0.001045 -453636.000000 0 0 1
-15.509422 4.436877 20.407164 26.013081 -0.278634 0.668913 0.008362 0.001889 129307.000000 0 0 1
-14.585722 5.284877 21.065364 26.161475 -0.347619 0.634774 0.013004 0.006875 897313.000000 0 0 1
-13.437222 5.495777 20.207264 24.881640 -0.388238 0.622993 0.008383 0.005741 580353.000000 0 1 0
-12.378222 6.527577 20.540464 24.854382 -0.485283 0.598055 -0.001740 0.008144 -103874.000000 0 1 0
-12.811922 7.875877 20.380364 25.328522 -0.551180 0.635726 0.009745 0.001532 -32004.200000 0 0 1
-11.700622 8.711077 20.266564 24.970403 -0.639970 0.623871 0.009665 -0.003535 -327522.000000 0 1 0
-12.062522 10.174077 20.395364 25.787345 -0.700676 0.658508 0.006823 0.000478 -330117.000000 0 0 1
-12.523922 10.651877 19.114264 25.212422 -0.704797 0.710357 0.010999 -0.000253 373757.000000 0 0 1
-13.026422 11.973277 19.339364 26.211792 -0.743297 0.740974 0.000491 0.004870 -133019.000000 0 0 1
-13.599822 12.699977 18.111764 25.966913 -0.751197 0.798902 0.007541 -0.001442 -309958.000000 0 0 1
-12.657622 13.388077 17.313664 25.282780 -0.813436 0.816466 0.008328 -0.006057 -57556.900000 0 0 1
-12.438922 14.755577 17.626164 26.136861 -0.870381 0.830672 0.024380 -0.012862 -168822.000000 0 0 1
-13.536022 15.878377 17.386864 27.159709 -0.864863 0.876075 0.025464 -0.003771 326200.000000 0 0 1
-13.817822 16.311077 16.068464 26.742831 -0.867963 0.926231 0.034703 -0.016904 -6630.400000 0 0 1
-14.223422 15.371477 15.095664 25.816025 -0.824171 0.946237 0.056283 -0.024502 -677205.000000 0 0 1
-14.553722 16.078677 13.775264 25.692267 -0.835140 1.004910 0.047478 -0.023693 247808.000000 0 0 1
-15.702522 16.871277 14.053564 26.994664 -0.821263 1.023237 0.036558 -0.022834 -126704.000000 0 0 1
-16.122322 17.468677 12.850164 27.022411 -0.825458 1.075222 0.042459 -0.022032 -188847.000000 0 0 1
-17.359522 18.369377 12.983164 28.413898 -0.813655 1.096255 0.038775 -0.022418 -434550.000000 0 0 1
-18.559622 17.672777 13.080364 28.772948 -0.760926 1.098866 0.039854 -0.024081 346473.000000 0 0 1
-19.696322 18.509777 13.445264 30.188277 -0.754352 1.109197 0.038562 -0.024332 1971780.000000 0 0 1
-21.102622 17.812477 13.499664 30.738346 -0.701052 1.116111 0.047669 -0.021754 891464.000000 0 0 1
-21.595122 17.506177 12.215964 30.365199 -0.681204 1.156767 0.065177 -0.026678 1341000.000000 0 0 1
-22.956622 16.975477 12.342564 31.104858 -0.636721 1.162763 0.047456 -0.018076 1400470.000000 0 0 1
-23.424622 16.134777 11.106664 30.535257 -0.603167 1.198525 0.059187 -0.019067 -409046.000000 0 0 1
-22.714422 14.928077 10.932664 29.297024 -0.581425 1.188377 0.049851 -0.017529 -127730.000000 0 0 1
-22.980022 14.156677 9.785164 28.709621 -0.552132 1.222994 0.050052 -0.015670 -558019.000000 0 0 1
-22.077022 12.954577 9.568264 27.327050 -0.530650 1.213077 0.071378 -0.024170 -829921.000000 0 0 1
-22.257022 11.804877 10.405164 27.257982 -0.487662 1.179130 0.067938 -0.029029 1856220.000000 0 0 1
-23.549722 11.066877 10.361664 28.007664 -0.439309 1.191832 0.086717 -0.015221 1940660.000000 0 0 1
-24.147222 10.511777 9.039764 27.844266 -0.410580 1.240150 0.091115 -0.010680 -102650.000000 0 0 1
-24.528222 11.578977 8.198964 28.336009 -0.441053 1.277251 0.087208 -0.010473 74864.300000 0 0 1
-25.713312 11.297677 7.478564 29.064426 -0.413980 1.310559 0.114962 -0.008850 -55966.800000 0 0 1
-26.235582 12.498577 6.589264 29.798299 -0.444588 1.347824 0.093462 0.010721 -239841.000000 0 0 1
-25.584112 12.763377 5.338764 29.085271 -0.462750 1.386194 0.089382 0.000314 396015.000000 0 0 1
-24.309922 13.362777 5.537764 28.287859 -0.502601 1.373759 0.084338 -0.003977 -442043.000000 0 0 1
-24.257322 14.865177 5.955264 29.066412 -0.549787 1.364450 0.067275 -0.007435 311754.000000 0 0 1
-22.896922 15.338177 6.060464 28.218043 -0.590224 1.354337 0.053057 -0.010489 1146860.000000 0 0 1
-22.858322 16.725577 6.475664 29.054811 -0.631690 1.346031 0.045403 -0.012413 608861.000000 0 0 1
-21.388122 17.255577 6.554364 28.251839 -0.678863 1.336665 0.042422 -0.015784 574950.000000 0 0 1
-20.864922 17.828777 5.397164 27.970335 -0.707092 1.376618 0.051978 -0.025561 -397852.000000 0 0 1
-19.529122 18.216777 5.480764 27.263095 -0.750644 1.368385 0.057603 -0.027974 -590044.000000 0 0 1
-19.022822 19.014377 4.287064 27.235881 -0.785176 1.412734 0.059850 -0.028065 -617415.000000 0 0 1
-17.632522 19.123877 4.173264 26.344727 -0.825950 1.411716 0.053181 -0.035446 -215411.000000 0 0 1
-17.107322 20.094477 3.272764 26.592470 -0.865522 1.447412 0.067670 -0.031124 151135.000000 0 0 1
-17.270122 21.584577 3.669264 27.885742 -0.895986 1.438832 0.069964 -0.029945 -169351.000000 0 0 1
-16.584922 21.947677 4.865464 27.936229 -0.923684 1.395740 0.048590 -0.030195 -2322.350000 0 0 1
-16.841422 23.266677 5.247464 29.197734 -0.944247 1.390093 0.035973 -0.032751 -169761.000000 0 0 1
-16.081522 23.823177 6.453064 29.458465 -0.977021 1.349949 0.027394 -0.019659 28188.700000 0 0 1
-16.606922 23.206077 7.610764 29.533635 -0.949659 1.310157 0.026614 -0.018193 412810.000000 0 0 1
-15.740422 23.463777 8.680064 29.557626 -0.979911 1.272737 0.030128 -0.025859 8747.650000 0 0 1
-16.308922 22.635577 9.818564 29.576249 -0.946444 1.232400 0.016701 -0.019049 -241199.000000 0 0 1
-17.480122 23.215277 10.323064 30.839413 -0.925405 1.229471 0.012899 -0.018018 -382419.000000 0 0 1
-18.302922 22.274377 11.003264 30.858008 -0.882961 1.206195 0.020856 -0.022379 457885.000000 0 0 1
-19.492622 22.974677 11.727364 32.331551 -0.867209 1.199609 0.032315 -0.019111 23834.900000 0 0 1
-20.537122 23.576577 10.991564 33.142765 -0.854190 1.232752 0.048333 -0.016196 114491.000000 0 0 1
-20.202022 24.744777 10.209664 33.535995 -0.886126 1.261447 0.020155 -0.017501 -542638.000000 0 0 1
-21.428122 25.533277 9.722764 34.722396 -0.872592 1.286987 0.046397 -0.013504 175634.000000 0 0 1
-22.073722 26.292077 10.768564 35.978945 -0.872396 1.266835 0.069775 -0.027258 -140423.000000 0 0 1
-23.006322 27.179377 10.229264 37.049254 -0.868360 1.291063 0.069014 -0.022375 -567052.000000 0 0 1
-23.854422 27.895577 11.285164 38.399891 -0.863330 1.272507 0.067118 -0.029054 -111129.000000 0 0 1
-23.110422 28.745877 12.137364 38.829534 -0.893648 1.252888 0.079054 -0.028585 264520.000000 0 0 1
-24.025422 29.379077 12.985464 40.112010 -0.885312 1.241127 0.072876 -0.030846 65873.300000 0 0 1
9.115578 -32.676064 27.821714 43.873303 -1.298745 0.883904 0.063645 -0.035121 584605.000000 0 0 1
10.504278 -32.990264 27.617114 44.287722 -1.262541 0.897477 0.042808 -0.046474 1115550.000000 0 0 1
10.910578 -32.781664 26.253024 43.392390 -1.249503 0.921012 0.058319 -0.039261 -17552.400000 0 0 1
12.410178 -33.027464 25.988474 43.820391 -1.211365 0.935932 0.014911 -0.029952 -53123.700000 0 0 1
12.790678 33.801977 25.978744 44.509216 1.209048 0.947554 0.024593 -0.051192 -556288.000000 0 0 1
14.179578 33.828977 25.850894 44.874591 1.173887 0.956884 0.036303 -0.040241 -646266.000000 0 0 1
14.832578 32.573577 25.251024 43.802483 1.143497 0.956389 0.062712 -0.028384 -353019.000000 0 0 1
14.613678 32.398677 23.880624 42.819599 1.147063 0.979180 0.037960 -0.043503 767065.000000 0 0 1
15.770378 31.719377 23.350404 42.427174 1.109404 0.987996 0.040816 -0.038332 446451.000000 0 0 1
15.609178 31.108077 21.940564 41.143010 1.105732 1.008328 0.037980 -0.049429 -92319.700000 0 0 1
14.598178 30.126577 21.848864 39.976122 1.119576 0.992560 0.030982 -0.026513 -51739.900000 0 0 1
15.039678 28.847277 22.278364 39.429467 1.090211 0.970341 0.032349 -0.025424 225744.000000 0 0 1
14.441278 28.331177 23.652184 39.631199 1.099394 0.931280 0.035877 -0.031325 142825.000000 0 0 1
15.348978 28.680677 24.670004 40.826235 1.079412 0.921949 0.043059 -0.024940 357383.000000 0 0 1
14.828478 28.236377 25.923624 41.100013 1.087228 0.888284 0.036610 -0.022165 47524.600000 0 0 1
15.559378 28.876477 27.136874 42.571764 1.076573 0.879627 0.050225 -0.023113 142291.000000 0 0 1
15.325178 30.286977 27.328024 43.577322 1.102361 0.892952 0.053140 -0.033073 -19405.700000 0 0 1
15.908478 30.693177 28.537074 44.827619 1.092611 0.880720 0.088365 -0.036983 -19426.900000 0 0 1
15.704778 32.186677 29.002984 46.084654 1.116853 0.890091 0.102861 -0.037112 363230.000000 0 0 1
16.529678 33.086777 28.236304 46.532290 1.107480 0.918754 0.093264 -0.036299 254417.000000 0 0 1
16.407678 -33.813764 28.740714 47.313964 -1.119029 0.917954 0.086103 -0.025837 1777.000000 0 0 1
17.424178 -32.881664 28.058394 46.605571 -1.083511 0.924743 0.082873 -0.031120 -642245.000000 0 0 1
17.184578 -32.830664 26.634874 45.635279 -1.088580 0.947584 0.091804 -0.030506 -218546.000000 0 0 1
17.668778 -31.712864 25.990134 44.647268 -1.062481 0.949461 0.089638 -0.038368 932844.000000 0 0 1
19.246578 -31.500364 25.978184 45.139448 -1.022331 0.957569 0.103551 -0.033647 1081040.000000 0 0 1
19.907278 -31.097764 27.163074 45.838883 -1.001376 0.936542 0.094237 -0.034757 981201.000000 0 0 1
20.984378 -30.144764 26.892804 45.522234 -0.962679 0.938793 0.106231 -0.032306 973810.000000 0 0 1
21.343078 -29.361564 28.170824 45.948055 -0.942240 0.910816 0.118195 -0.028784 -655489.000000 0 0 1
20.296878 -28.483564 28.507294 45.121419 -0.951676 0.886935 0.115451 -0.031846 -4170.510000 0 0 1
20.519978 -27.609664 29.570114 45.362481 -0.931650 0.860758 0.132718 -0.018633 -667834.000000 0 0 1
19.218478 -27.193164 30.273364 45.003274 -0.955562 0.832955 0.107609 -0.020862 -131576.000000 0 0 1
18.377678 -26.417164 29.445794 43.619495 -0.962981 0.829750 0.127722 -0.023991 60607.900000 0 0 1
17.058978 -26.434864 29.945934 43.434660 -0.997717 0.810070 0.113082 -0.021664 -421183.000000 0 0 1
15.981678 -25.826164 29.072474 42.042996 -1.016655 0.807241 0.099479 -0.007818 -1061240.000000 0 0 1
15.601378 -26.646564 27.928134 41.634397 -1.041112 0.835516 0.096487 -0.014833 627191.000000 0 0 1
14.835878 -25.887964 26.957214 40.211706 -1.050406 0.836073 0.089948 -0.031433 265391.000000 0 0 1
13.387178 -25.471364 27.359614 39.705861 -1.086897 0.810609 0.047380 -0.010886 -81266.000000 0 0 1
12.403878 -26.453964 27.533274 40.146601 -1.132349 0.815069 0.038359 -0.008592 323031.000000 0 0 1
11.981378 -27.158164 26.380064 39.711800 -1.155309 0.844256 0.032467 -0.008528 -719733.000000 0 0 1
11.070178 -28.381064 26.537864 40.401632 -1.198892 0.854161 0.046213 -0.014170 -25014.300000 0 0 1
9.689778 -28.129164 26.729934 39.995388 -1.239053 0.838841 0.039666 -0.022932 -42888.400000 0 0 1
8.985478 -29.339364 26.657514 40.646773 -1.273606 0.855510 0.040065 -0.028730 -914258.000000 0 0 1
7.517678 -29.143664 27.025094 40.450270 -1.318347 0.839135 0.025087 -0.016379 -672584.000000 0 0 1
6.631878 -28.698264 26.017214 39.299715 -1.343693 0.847285 0.038404 -0.029847 -43131.700000 0 0 1
6.787478 -27.440264 25.413924 38.011912 -1.328309 0.838502 0.057247 -0.031831 -91819.300000 0 0 1
5.651378 -27.071664 24.353224 36.849594 -1.364996 0.848803 0.068732 -0.031091 -69237.700000 0 0 1
5.443978 -27.956564 23.231504 36.754716 -1.378473 0.886576 0.055185 -0.022635 -128364.000000 0 0 1
4.639578 -29.116864 23.429314 37.659663 -1.412781 0.899332 0.057478 -0.023130 -1401360.000000 0 0 1
3.215478 -28.851064 23.801704 37.539903 -1.459803 0.884033 0.063711 -0.028787 -2367900.000000 0 0 1
2.464978 -28.666564 22.623964 36.601800 -1.485019 0.904459 0.070369 -0.022378 1058580.000000 0 0 1
1.150378 -28.060964 22.756464 36.146891 -1.529824 0.889816 0.071560 -0.018395 1200890.000000 0 0 1
1.044778 -26.600764 23.197264 35.310130 -1.531540 0.854020 0.080448 -0.019759 -439217.000000 0 0 1
1.451878 -26.376364 24.535204 36.052694 -1.515807 0.822301 0.073222 -0.025888 -4110.250000 0 0 1
1.365678 -25.007564 24.950004 35.351747 -1.516240 0.787295 0.086828 -0.025541 -298989.000000 0 0 1
2.418278 -24.681464 26.028284 35.951277 -1.473129 0.761230 0.082699 -0.021310 488510.000000 0 0 1
3.776378 -24.807064 25.547674 35.809707 -1.419726 0.776417 0.081107 -0.021126 1089180.000000 0 0 1
4.737878 -24.154364 26.376114 36.077419 -1.377105 0.750867 0.069029 -0.014931 256534.000000 0 0 1
4.607878 -22.581664 26.605444 35.199627 -1.369506 0.713853 0.078963 -0.019868 -736855.000000 0 0 1
4.613678 -21.807864 25.426174 33.813596 -1.362310 0.719779 0.083178 -0.019406 5848.430000 0 0 1
4.130178 -20.497964 25.544714 33.011472 -1.371966 0.685957 0.089078 -0.032263 -241172.000000 0 0 1
4.284278 -19.617364 24.305104 31.526720 -1.355780 0.690486 0.093842 -0.035076 1001630.000000 0 0 1
5.597878 -19.042064 24.148354 31.258270 -1.284877 0.687960 0.084734 -0.021958 735702.000000 0 0 1
5.529978 -18.193764 23.003764 29.845718 -1.275720 0.690770 0.083307 -0.013959 -34345.200000 0 0 1
6.833878 -17.526364 22.559264 29.373384 -1.199010 0.695057 0.073687 -0.014675 -409388.000000 0 0 1
7.833078 -18.402264 22.091664 29.800034 -1.168368 0.735746 0.067396 -0.012354 -383963.000000 0 0 1
9.032878 -17.743564 21.772364 29.503606 -1.099912 0.740760 0.046486 -0.012219 -810.030000 0 0 1
10.102078 -17.991264 22.858264 30.793470 -1.059168 0.734287 0.031546 -0.007396 -535125.000000 0 0 1
10.012178 -17.146264 24.064634 31.198472 -1.042279 0.689852 0.045951 -0.010155 33173.000000 0 0 1
11.135178 -17.292464 24.906384 32.300920 -0.998698 0.690271 0.049523 -0.007690 152660.000000 0 0 1
10.979878 -16.355464 26.113914 32.710785 -0.979574 0.646284 0.062100 -0.013104 -18672.400000 0 0 1
11.076278 -14.993664 25.673204 31.727075 -0.934547 0.628026 0.085497 -0.020763 139377.000000 0 0 1
11.222278 -14.075664 26.759524 32.251139 -0.897715 0.592184 0.080578 -0.019055 -76801.500000 0 0 1
11.322978 -12.613964 26.428964 31.397644 -0.839279 0.570280 0.100746 -0.015607 128397.000000 0 0 1
10.108978 -11.981064 26.055094 30.407322 -0.869944 0.541631 0.107178 -0.014599 327935.000000 0 0 1
10.361578 -10.613664 25.647694 29.627966 -0.797416 0.524333 0.107502 -0.006295 382317.000000 0 0 1
9.134278 -10.019164 24.888714 28.341961 -0.831565 0.498799 0.110188 -0.009354 -553625.000000 0 0 1
8.057278 -9.694464 25.670654 28.598686 -0.877365 0.456464 0.070535 -0.011214 -899248.000000 0 0 1
7.110978 -9.172764 24.734564 27.322230 -0.911344 0.438732 0.063228 -0.009215 179634.000000 0 0 1
5.620578 -9.269464 25.140444 27.378016 -1.025718 0.407104 0.046597 -0.012685 -707431.000000 0 0 1
5.271378 -8.184564 25.951544 27.717452 -0.998606 0.358885 0.041443 -0.009253 -50959.700000 0 0 1
3.977778 -8.178464 26.522384 28.038310 -1.118110 0.330335 0.028875 -0.007151 727327.000000 0 0 1
2.745978 -8.176464 25.573124 26.988509 -1.246792 0.325297 0.025596 -0.003229 -506533.000000 0 0 1
2.698278 -7.035764 24.759044 25.880358 -1.204587 0.295443 0.028063 -0.009914 -207088.000000 0 0 1
1.596278 -7.127664 23.898384 24.989687 -1.350476 0.296620 0.034657 -0.019611 -3152.810000 0 1 0
1.685178 -5.882264 23.007464 23.807231 -1.291785 0.259936 0.024603 -0.032586 -70640.600000 0 1 0
1.660678 -4.761464 23.782994 24.311730 -1.235213 0.208938 0.031831 -0.023856 -67820.400000 0 1 0
1.962178 -3.565364 23.045264 23.401841 -1.067689 0.174791 0.032685 -0.032524 -478509.000000 0 1 0
0.835378 -2.925264 22.179864 22.387528 -1.292627 0.136310 0.016718 -0.029582 955094.000000 0 1 0
-0.200122 -2.138264 22.810464 22.911340 1.477477 0.093873 0.026318 -0.027939 198928.000000 0 1 0
-1.137522 -2.877264 23.532424 23.734944 1.194306 0.130727 0.036235 -0.022286 -508773.000000 0 1 0
-2.162522 -1.931264 24.218464 24.391398 0.728968 0.119150 0.044467 -0.023630 344214.000000 0 1 0
-1.521322 -1.075264 25.173404 25.242244 0.615272 0.073870 0.056852 -0.025853 501410.000000 0 0 1
-2.461922 -0.098264 25.619964 25.738168 0.039892 0.095876 0.054538 -0.025253 -96758.700000 0 0 1
-1.816922 0.999736 26.530754 26.611681 -0.503025 0.078008 0.086789 -0.040021 178377.000000 0 0 1
-1.384322 0.779736 27.822704 27.868032 -0.512968 0.057043 0.078211 -0.026530 176153.000000 0 0 1
-0.685822 -0.443264 28.068534 28.080410 0.573787 0.029085 0.094159 -0.034055 -1210540.000000 0 0 1
0.515578 -0.331264 29.029214 29.035682 -0.571091 0.021108 0.100955 -0.033657 132769.000000 0 0 1
1.614578 0.403736 28.467814 28.516422 0.245032 0.058396 0.096946 -0.027931 606512.000000 0 0 1
2.378778 -0.138264 27.391414 27.494859 -0.058059 0.086772 0.083631 -0.030654 -444515.000000 0 0 1
3.355078 -1.275264 27.704254 27.935793 -0.363234 0.128839 0.068256 -0.036282 -424098.000000 0 0 1
2.689578 -2.509264 28.029084 28.269414 -0.750728 0.130488 0.072950 -0.031076 297357.000000 0 0 1
3.559878 -3.600764 28.333564 28.782444 -0.791108 0.176841 0.060370 -0.023083 54015.200000 0 0 1
4.090978 -4.428664 27.170794 27.831659 -0.825014 0.218356 0.049747 -0.021330 -387736.000000 0 0 1
5.112578 -3.803864 26.460064 27.216591 -0.639663 0.236331 0.048251 -0.018443 -531961.000000 0 0 1
5.561378 -4.534564 25.338324 26.334803 -0.684041 0.275971 0.048832 -0.011047 -339199.000000 0 0 1
6.796378 -3.839164 24.737714 25.940016 -0.514198 0.305653 0.054343 -0.015495 -956022.000000 0 0 1
7.983778 -3.714664 25.461244 26.940943 -0.435485 0.332969 0.051650 -0.011692 -377356.000000 0 0 1
8.759878 -4.868964 25.616114 27.506864 -0.507305 0.372933 0.055515 -0.008417 -555144.000000 0 0 1
9.536978 -5.275964 24.350014 26.677948 -0.505305 0.420856 0.051905 -0.006826 -998487.000000 0 0 1
8.729878 -5.705864 23.302624 25.529981 -0.578903 0.420818 0.056525 -0.009881 -276782.000000 0 0 1
9.379278 -5.467064 22.055864 24.582937 -0.527742 0.457404 0.063250 -0.009245 304144.000000 0 1 0
9.452578 -4.059064 21.406464 23.750030 -0.405603 0.447981 0.066874 -0.016828 1388950.000000 0 1 0
8.075278 -3.713064 21.124364 22.918022 -0.430979 0.398263 0.055578 -0.023112 898566.000000 0 1 0
7.975778 -2.625264 20.251664 21.923388 -0.317985 0.393045 0.039593 -0.026885 578238.000000 0 1 0
6.593878 -1.894264 20.243064 21.374029 -0.279743 0.326761 0.039914 -0.016586 561863.000000 0 1 0
6.182878 -1.211264 21.440564 22.347101 -0.193456 0.285809 0.044105 -0.015460 691800.000000 0 1 0
4.860378 -0.681264 21.370364 21.926693 -0.139260 0.225744 0.031710 -0.004640 311392.000000 0 1 0
4.179078 -0.418264 22.720864 23.105785 -0.099753 0.182787 0.023980 -0.015223 -312587.000000 0 1 0
2.854578 0.008736 22.533164 22.713260 0.003060 0.126013 0.025884 -0.014098 -291696.000000 0 1 0
2.295878 0.422736 23.789204 23.903472 0.182089 0.097818 0.042070 -0.017221 -14125.200000 0 1 0
0.853478 0.907736 23.578774 23.611671 0.816196 0.052793 0.052134 -0.025976 -363448.000000 0 1 0
0.795778 2.272736 23.315974 23.439992 1.233996 0.102913 0.062523 -0.014736 -309860.000000 0 1 0
-0.525122 2.683736 23.165864 23.326711 -1.377569 0.117502 0.050993 -0.015647 -563701.000000 0 1 0
-0.665422 4.109736 22.630164 23.009934 -1.410276 0.181935 0.048263 -0.014263 -150829.000000 0 1 0
-0.711022 5.149736 23.618764 24.184114 -1.433594 0.216650 0.058209 -0.015593 831923.000000 0 1 0
-1.642922 6.241736 23.272554 24.150988 -1.313419 0.270537 0.057193 -0.012746 902416.000000 0 1 0
-1.440722 7.491736 24.165884 25.341502 -1.380808 0.305791 0.067947 -0.014344 1392450.000000 0 0 1
-0.266222 8.300736 23.819464 25.225780 -1.538735 0.335485 0.057959 -0.012158 1274720.000000 0 0 1
-0.335822 9.541736 24.433524 26.232701 -1.535616 0.372516 0.069154 -0.016176 -661229.000000 0 0 1
0.486878 10.649736 23.699424 25.986855 1.525111 0.422718 0.069177 -0.019153 959036.000000 0 0 1
1.918778 10.597736 23.716844 26.047695 1.391681 0.426266 0.063171 -0.013538 476796.000000 0 0 1
2.440578 10.816736 25.042824 27.387976 1.348883 0.416840 0.073185 -0.024076 -1141650.000000 0 0 1
3.661878 11.772736 24.999264 27.874179 1.269235 0.458175 0.066643 -0.023593 794819.000000 0 0 1
4.888778 11.162736 24.553254 27.411113 1.158004 0.460701 0.061032 -0.021082 424279.000000 0 0 1
4.937578 10.700736 23.225474 26.044348 1.138483 0.469562 0.058917 -0.019869 -1385590.000000 0 0 1
6.308278 10.176736 22.787464 25.741578 1.015893 0.483787 0.057292 -0.017938 193225.000000 0 0 1
7.173778 11.200736 22.284164 25.951947 1.001147 0.538127 0.050801 -0.014644 520753.000000 0 0 1
8.439278 10.706736 21.854464 25.757974 0.903279 0.557738 0.052120 -0.014138 301977.000000 0 0 1
9.243578 11.763736 21.119264 25.881510 0.904793 0.616342 0.049472 -0.019200 -623753.000000 0 0 1
8.747278 11.986736 19.827264 24.765240 0.940384 0.642486 0.054265 -0.016253 117291.000000 0 1 0
9.418778 12.988736 19.085464 24.933423 0.943390 0.699045 0.073197 -0.021123 -311610.000000 0 1 0
10.798878 12.670736 18.511564 24.896613 0.864986 0.732451 0.052961 -0.019876 -586747.000000 0 1 0
11.792478 12.636736 19.487464 26.048242 0.819944 0.725557 0.052981 -0.020882 375359.000000 0 0 1
13.075178 12.320736 18.920564 26.091159 0.755700 0.759513 0.048115 -0.024837 1116910.000000 0 0 1
14.318678 12.180736 19.840264 27.331867 0.704894 0.758451 0.041840 -0.016832 228628.000000 0 0 1
14.802778 13.390736 20.290264 28.462763 0.735356 0.777213 0.038952 -0.018167 -124658.000000 0 0 1
16.039778 13.167736 20.946664 29.486039 0.687381 0.780740 0.032473 -0.010195 129791.000000 0 0 1
16.702278 14.467736 21.367464 30.738413 0.713832 0.802183 0.028826 -0.002813 -841743.000000 0 0 1
16.045478 15.120736 22.352664 31.396427 0.755736 0.778526 0.036743 -0.001960 -358634.000000 0 0 1
16.802078 16.135736 22.974564 32.718533 0.765171 0.792330 0.030068 0.000278 -388975.000000 0 0 1
-21.657822 12.690077 -24.437029 35.032380 -0.530013 2.342777 0.058571 0.009180 170252.000000 0 0 1
-21.143222 12.800177 -25.755059 35.695986 -0.544383 2.376779 0.050596 -0.006056 1131270.000000 0 0 1
-22.027322 13.657477 -26.597999 37.137355 -0.555013 2.369147 0.047783 -0.011969 952077.000000 0 0 1
-21.783922 13.462877 -28.126539 38.038014 -0.553564 2.403023 0.045679 -0.008135 639383.000000 0 0 1
-20.477322 13.930977 -28.467939 37.733491 -0.597390 2.425608 0.056346 -0.014747 296782.000000 0 0 1
-20.336922 14.302877 -29.837029 38.838267 -0.612935 2.446880 0.051659 -0.023365 502394.000000 0 0 1
-18.890122 14.834777 -30.111129 38.517365 -0.665725 2.468271 0.049147 -0.027222 1176580.000000 0 0 1
-17.973322 13.731077 -30.317589 37.825110 -0.652382 2.500629 0.047817 -0.035031 1351710.000000 0 0 1
-16.556322 14.018777 -30.369949 37.322536 -0.702594 2.521313 0.054310 -0.027510 1558540.000000 0 0 1
-15.843522 13.561777 -29.067809 35.775362 -0.707957 2.519240 0.083292 -0.025013 -87425.900000 0 0 1
-16.439822 14.199177 -27.961879 35.408347 -0.712398 2.481112 0.082195 -0.017385 -22965.300000 0 0 1
-16.727322 13.273877 -26.889099 34.336901 -0.670792 2.470425 0.093896 -0.011742 -190346.000000 0 0 1
-17.467722 13.878577 -25.714119 34.043386 -0.671395 2.426960 0.086923 -0.006311 -475241.000000 0 0 1
-16.648622 14.485277 -24.753129 33.161985 -0.716024 2.413479 0.124759 -0.019210 -82456.800000 0 0 1
-17.336022 15.116177 -23.655629 32.994321 -0.717101 2.370229 0.110059 -0.021713 -127045.000000 0 0 1
-16.390622 15.598377 -22.532329 31.932236 -0.760637 2.354108 0.106553 -0.014070 215046.000000 0 0 1
-15.645422 16.708877 -23.068629 32.498114 -0.818255 2.360075 0.096113 -0.028983 87351.100000 0 0 1
-15.003822 17.455477 -22.035829 31.865124 -0.860785 2.334407 0.084534 -0.029576 -567034.000000 0 0 1
-14.899722 18.930277 -22.468029 32.941910 -0.903981 2.321358 0.083169 -0.028035 369200.000000 0 0 1
-16.091322 19.694177 -22.362029 33.865197 -0.885739 2.292047 0.072743 -0.031103 1118860.000000 0 0 1
-17.182922 19.295877 -23.233429 34.747315 -0.843256 2.303174 0.058619 -0.025294 166682.000000 0 0 1
-18.439622 20.170677 -23.094929 35.780604 -0.830202 2.272421 0.043138 -0.020015 -22008.800000 0 0 1
-18.206222 21.501777 -23.429929 36.643615 -0.868203 2.264514 0.040749 -0.019391 280580.000000 0 0 1
-19.464822 22.141777 -23.453729 37.672470 -0.849649 2.242818 0.050305 -0.027532 317978.000000 0 0 1
-19.203422 23.626177 -23.848729 38.674663 -0.888297 2.235276 0.046521 -0.029615 39511.000000 0 0 1
-18.629922 24.285977 -22.750029 38.137206 -0.916437 2.209968 0.042389 -0.024305 -97281.500000 0 0 1
-17.711822 25.251177 -23.220829 38.607480 -0.959114 2.216123 0.043492 -0.010279 1663.940000 0 0 1
-16.593322 25.571277 -22.175429 37.695864 -0.995191 2.199717 0.050269 -0.027398 -71720.500000 0 0 1
-15.499422 24.712277 -22.016729 36.546752 -1.010620 2.217334 0.058344 -0.039264 -179968.000000 0 0 1
-15.831822 23.364277 -21.619529 35.551935 -0.975257 2.224475 0.067124 -0.023539 -741910.000000 0 0 1
-14.610122 22.439677 -21.421229 34.290871 -0.993659 2.245533 0.083337 -0.026988 -58982.800000 0 0 1
-13.814522 22.801377 -20.330129 33.526974 -1.026077 2.222298 0.087060 -0.029078 -146086.000000 0 0 1
-12.839222 21.810077 -20.073629 32.302874 -1.038740 2.241349 0.071766 -0.026648 -196593.000000 0 0 1
-12.053522 21.856077 -18.745429 31.214846 -1.066806 2.214959 0.060014 -0.026607 -242161.000000 0 0 1
-12.762522 21.676277 -17.546629 30.669645 -1.038669 2.179881 0.075902 -0.024364 -55202.600000 0 0 1
-13.712122 22.735577 -17.370529 31.727969 -1.028091 2.150150 0.075537 -0.034594 181553.000000 0 0 1
-14.420822 22.718477 -15.969729 31.290918 -1.005208 2.106403 0.090469 -0.032215 -228972.000000 0 0 1
-13.575622 22.929677 -14.892329 30.526203 -1.036239 2.080426 0.078881 -0.038954 -373602.000000 0 0 1
-14.250022 23.124677 -13.663729 30.405778 -1.018531 2.036867 0.087682 -0.036252 96955.800000 0 0 1
-13.252922 23.606677 -12.575329 29.850528 -1.059239 2.005649 0.115565 -0.040459 -142899.000000 0 0 1
-12.849322 24.958077 -12.674329 30.800151 -1.095350 1.994898 0.099713 -0.038755 316450.000000 0 0 1
-12.043422 25.307577 -11.541029 30.310276 -1.126629 1.961418 0.057895 -0.035493 52614.000000 0 0 1
-11.747022 26.805177 -11.592929 31.478660 -1.157767 1.947954 0.072675 -0.036687 89564.100000 0 0 1
-10.895722 27.101677 -12.694029 31.848957 -1.188540 1.980753 0.076710 -0.039291 160510.000000 0 0 1
-10.910422 28.435277 -13.084729 33.148340 -1.204426 1.976573 0.071080 -0.029069 -369912.000000 0 0 1
-10.280822 28.643677 -14.481629 33.702717 -1.226196 2.014943 0.101282 -0.052131 1951690.000000 0 0 1
-8.821022 28.695077 -14.616729 33.389619 -1.272560 2.023905 0.077608 -0.047805 1762510.000000 0 0 1
-8.105822 27.498077 -14.422929 32.091580 -1.284137 2.036924 0.076850 -0.041928 -681593.000000 0 0 1
-6.664722 27.532977 -14.927829 32.020672 -1.333301 2.055780 0.082274 -0.047153 -48128.300000 0 0 1
-5.811522 28.420677 -14.232329 32.312039 -1.369095 2.026913 0.080347 -0.052342 -709271.000000 0 0 1
-4.506622 28.197777 -14.679029 32.107603 -1.412315 2.045621 0.095689 -0.058789 98582.700000 0 0 1
-3.342322 29.102077 -14.184529 32.546933 -1.456449 2.021743 0.070191 -0.048241 142642.000000 0 0 1
-3.163422 30.501277 -14.333929 33.849618 -1.467451 2.008057 0.058872 -0.037059 193985.000000 0 0 1
-4.214822 31.310077 -13.754229 34.456704 -1.436985 1.981412 0.037517 -0.037194 641352.000000 0 0 1
-4.270622 32.817177 -14.113129 35.977573 -1.441390 1.973901 0.041333 -0.033949 142146.000000 0 0 1
-3.355522 33.617277 -13.410929 36.348781 -1.471310 1.948677 0.021701 -0.036202 32226.300000 0 0 1
-3.731922 -33.239964 -13.627529 36.118305 1.458992 1.957678 0.024836 -0.030608 192005.000000 0 0 1
-2.855422 -32.352064 -12.770929 34.898511 1.482764 1.945444 0.020184 -0.031690 -201221.000000 0 0 1
-3.194722 -32.386964 -11.393229 34.480825 1.472472 1.907547 0.016700 -0.040368 -430556.000000 0 0 1
-2.302922 -31.642664 -10.647229 33.465282 1.498145 1.894582 0.000454 -0.033467 -742129.000000 0 0 1
-2.531422 -31.590364 -9.082129 32.967321 1.490834 1.849895 -0.002411 -0.026348 -137066.000000 0 0 1
-1.590422 -30.744664 -8.411129 31.914117 1.519112 1.837502 -0.005574 -0.029768 141288.000000 0 0 1
-1.973222 -30.684364 -7.059729 31.547798 1.506578 1.796486 -0.008908 -0.034897 -1129820.000000 0 0 1
-0.855722 -30.385364 -6.138429 31.011012 1.542641 1.770056 0.012217 -0.034639 -1042340.000000 0 0 1
-1.142222 -30.158164 -4.733429 30.548729 1.532940 1.726370 0.023558 -0.033130 605705.000000 0 0 1
0.087278 -29.732864 -4.113829 30.016235 -1.567861 1.708283 0.028708 -0.034389 352277.000000 0 0 1
0.152078 -29.941864 -2.572929 30.052592 -1.565717 1.656515 0.022497 -0.024874 -665237.000000 0 0 1
0.171978 -31.273964 -2.112129 31.345677 -1.565297 1.638229 0.030674 -0.020811 271298.000000 0 0 1
1.246278 -32.151264 -2.456429 32.269041 -1.532053 1.646993 0.031601 -0.020244 -75106.100000 0 0 1
2.633278 -31.819364 -1.901529 31.984713 -1.488227 1.630283 0.042219 -0.022944 -1347390.000000 0 0 1
2.641278 -32.014664 -0.499929 32.127324 -1.488481 1.586358 0.037136 -0.017651 712010.000000 0 0 1
3.915378 -31.900864 0.155271 32.140619 -1.448671 1.565965 0.043988 -0.015717 856528.000000 0 0 1
4.550278 -30.454464 0.249171 30.793530 -1.422481 1.562705 0.025708 -0.013007 -516766.000000 0 0 1
4.781378 -29.863764 -0.980529 30.259997 -1.412037 1.603205 0.027214 -0.020666 -80654.200000 0 0 1
4.570478 -28.466764 -0.908529 28.845647 -1.411600 1.602298 0.042333 -0.014363 -320869.000000 0 0 1
4.184478 -27.701264 -2.203629 28.102061 -1.420873 1.649292 0.034518 -0.016204 405477.000000 0 0 1
2.937578 -28.189464 -2.736129 28.473876 -1.466963 1.667037 0.042170 -0.019067 507232.000000 0 0 1
2.405578 -27.241764 -3.645529 27.589679 -1.482720 1.703318 0.044654 -0.025807 -354283.000000 0 0 1
2.881778 -27.272964 -5.149029 27.903973 -1.465523 1.756387 0.042312 -0.022000 -331234.000000 0 0 1
2.357878 -28.290164 -5.933129 29.001637 -1.487642 1.776830 0.040470 -0.023211 -186920.000000 0 0 1
2.646778 -28.071664 -7.331129 29.133644 -1.476788 1.825169 0.056587 -0.030643 -250161.000000 0 0 1
1.733078 -28.837264 -8.281729 30.052926 -1.510770 1.849980 0.041446 -0.030076 -358452.000000 0 0 1
0.429378 -28.309864 -8.391729 29.530558 -1.555630 1.858938 0.027579 -0.024251 -364183.000000 0 0 1
-0.056022 -28.490064 -9.695729 30.094751 1.568830 1.898821 0.045723 -0.015585 405758.000000 0 0 1
-1.517722 -27.977464 -9.889029 29.712537 1.516601 1.910092 0.005730 -0.016803 -7968.710000 0 0 1
-1.634722 -26.561664 -9.681529 28.318303 1.509329 1.919716 0.027850 -0.013974 24972.600000 0 0 1
-2.935522 -26.077564 -9.397829 27.874286 1.458699 1.914685 0.028012 -0.021498 340645.000000 0 0 1
-3.675522 -26.482864 -8.079929 27.930929 1.432889 1.864274 0.029528 -0.017147 -432513.000000 0 0 1
-3.094922 -26.072664 -6.902129 27.147776 1.452645 1.827861 0.040119 -0.028735 -383019.000000 0 0 1
-1.996822 -26.857064 -6.495029 27.703331 1.496583 1.807448 0.034851 -0.030343 -189299.000000 0 0 1
-1.474822 -26.507664 -5.136929 27.041068 1.515216 1.761926 0.045451 -0.029578 -624449.000000 0 0 1
-2.405022 -26.752164 -4.117429 27.173804 1.481137 1.722904 0.054984 -0.034470 -199271.000000 0 0 1
-2.027822 -26.535864 -2.779629 26.757998 1.494526 1.674864 0.057790 -0.029919 -400289.000000 0 0 1
-3.196922 -26.892064 -1.813929 27.142103 1.452472 1.637677 0.055008 -0.023989 -9507.940000 0 0 1
-4.207522 -25.924164 -1.983629 26.338191 1.409898 1.646181 0.056088 -0.024167 -987145.000000 0 0 1
-5.126622 -26.010664 -0.982029 26.529253 1.376194 1.607822 0.067523 -0.028643 -375305.000000 0 0 1
-6.401022 -25.128964 -1.103129 25.954861 1.321374 1.613311 0.060932 -0.020945 215731.000000 0 0 1
-6.106622 -23.796864 -0.881529 24.583707 1.319602 1.606662 0.051529 -0.020529 -84001.800000 0 1 0
-6.575522 -23.322864 0.352071 24.234633 1.295995 1.556268 0.053687 -0.009638 -196007.000000 0 1 0
-5.945522 -21.952064 0.698371 22.753682 1.306301 1.540099 0.029317 -0.007347 695760.000000 0 1 0
-4.705122 -21.973064 1.420271 22.516014 1.359851 1.507676 0.029912 -0.014902 480144.000000 0 1 0
-4.339022 -20.623564 1.714971 21.144730 1.363429 1.489601 0.017751 -0.006147 622399.000000 0 1 0
-3.223322 -20.617864 2.834971 21.059990 1.415715 1.435772 0.023960 -0.002379 433755.000000 0 1 0
-3.791922 -20.716664 4.125471 21.461089 1.389763 1.377362 0.018658 0.010053 729578.000000 0 1 0
-2.822722 -20.527664 5.187871 21.360401 1.434145 1.325470 0.024133 0.000944 1310760.000000 0 1 0
-1.740522 -21.633264 5.496671 22.388410 1.490513 1.322746 0.017095 -0.017334 614493.000000 0 1 0
-0.918922 -21.892964 4.368871 22.343530 1.528848 1.373997 0.044223 -0.020488 -333557.000000 0 1 0
-0.151422 -23.077864 4.662671 23.544665 1.564235 1.371443 0.042055 -0.021050 -1321250.000000 0 1 0
0.784678 -23.352764 3.481371 23.623870 -1.537208 1.422891 0.041418 -0.030125 154986.000000 0 1 0
1.875778 -22.460764 3.307671 22.780367 -1.487476 1.425083 0.014242 -0.026084 543026.000000 0 1 0
2.840178 -22.650564 4.362871 23.241112 -1.446056 1.381954 0.037774 -0.026541 -1407800.000000 0 1 0
3.953978 -21.626264 4.509171 22.442412 -1.389961 1.368497 0.050763 -0.028289 -98464.800000 0 1 0
4.748478 -21.668364 3.305571 22.427502 -1.355063 1.422868 0.035770 -0.019676 -1271620.000000 0 1 0
5.850678 -20.871964 3.478071 21.953731 -1.297498 1.411699 0.058034 -0.018965 -572859.000000 0 1 0
6.613878 -20.568964 2.175571 21.715404 -1.259691 1.470442 0.068853 -0.017991 143709.000000 0 1 0
7.425578 -21.629264 1.719071 22.932934 -1.240092 1.495765 0.074494 -0.013907 -239291.000000 0 1 0
7.217578 -21.783464 0.298071 22.949980 -1.250847 1.557808 0.064970 -0.019781 -142877.000000 0 1 0
8.287178 -22.669964 -0.340329 24.139602 -1.220329 1.584895 0.059814 -0.011727 158471.000000 0 1 0
9.581778 -22.067464 -0.314529 24.059974 -1.161156 1.583869 0.059924 -0.010341 -63026.600000 0 1 0
10.233678 -22.710464 -1.414329 24.949823 -1.147431 1.627514 0.056756 -0.015359 -272608.000000 0 1 0
11.542578 -22.074064 -1.890729 24.981398 -1.088995 1.646554 0.059190 -0.009260 -147119.000000 0 1 0
11.419278 -20.982064 -2.782229 24.049692 -1.072386 1.686743 0.057455 -0.009722 597541.000000 0 1 0
12.704878 -20.880364 -3.416629 24.679483 -1.024179 1.709682 0.048084 -0.009343 699087.000000 0 1 0
12.791278 -19.665464 -4.426429 23.873427 -0.994109 1.757288 0.038205 -0.022768 -321034.000000 0 1 0
12.792678 -18.486164 -3.678529 22.779869 -0.965450 1.732988 0.053402 -0.016405 270247.000000 0 1 0
12.989578 -17.346764 -4.520329 22.137586 -0.928052 1.776435 0.055622 -0.025349 -907871.000000 0 1 0
13.592878 -16.105464 -3.804629 21.415590 -0.869801 1.749401 0.079378 -0.018535 1588760.000000 0 1 0
14.997378 -16.052564 -3.440629 22.236099 -0.819369 1.726152 0.066146 -0.011511 1608630.000000 0 1 0
15.909278 -16.232064 -4.514329 23.172488 -0.795441 1.766864 0.062639 -0.009997 -583535.000000 0 1 0
17.397478 -16.078064 -4.155929 24.050948 -0.746004 1.744465 0.063644 -0.001828 -77152.000000 0 1 0
18.005778 -17.001864 -3.274029 24.979805 -0.756729 1.702242 0.067348 -0.010625 -282745.000000 0 1 0
19.360978 -16.696364 -3.190529 25.764229 -0.711633 1.694951 0.050428 -0.000477 -1125690.000000 0 0 1
20.068078 -17.530564 -2.143829 26.732834 -0.718011 1.651077 0.056146 -0.013859 -900045.000000 0 0 1
21.403178 -17.133464 -2.090129 27.495822 -0.675052 1.646886 0.060688 -0.014808 -623931.000000 0 0 1
22.164478 -18.018564 -1.312629 28.594680 -0.682586 1.616717 0.058137 -0.010561 384464.000000 0 0 1
23.692278 -18.012964 -1.619029 29.806244 -0.650053 1.625142 0.065206 -0.011042 342496.000000 0 0 1
24.393478 -16.806364 -1.380629 29.654709 -0.603285 1.617370 0.073072 -0.007226 1428610.000000 0 0 1
25.646578 -17.122864 -0.696229 30.845164 -0.588681 1.593370 0.090405 -0.008897 975230.000000 0 0 1
26.422678 -15.905664 -0.205329 30.841372 -0.541867 1.577454 0.092835 -0.018345 -425372.000000 0 0 1
25.863778 -15.248064 0.900271 30.037459 -0.532702 1.540820 0.095825 -0.018218 262706.000000 0 0 1
26.657178 -14.186864 1.445671 30.231808 -0.489072 1.522959 0.086731 -0.024530 159775.000000 0 0 1
25.816378 -13.306864 2.388371 29.142106 -0.475925 1.488748 0.106691 -0.027221 -20631.800000 0 0 1
25.375378 -13.967864 3.595571 29.187997 -0.503188 1.447296 0.103789 -0.015611 873457.000000 0 0 1
26.403178 -14.285564 4.565671 30.365284 -0.495949 1.419866 0.097181 -0.007747 660970.000000 0 0 1
25.714778 -14.747964 5.855471 30.216532 -0.520722 1.375779 0.089895 -0.005256 374932.000000 0 0 1
25.009678 -15.979064 5.772271 30.234642 -0.568543 1.378701 0.089751 -0.012940 122422.000000 0 0 1
24.337178 -16.342264 6.958071 30.129430 -0.591337 1.337753 0.066479 -0.013848 8957.460000 0 0 1
23.549378 -17.645364 6.765871 30.194521 -0.643048 1.344801 0.061674 -0.017035 -319685.000000 0 0 1
24.427878 -18.716264 6.746971 31.504625 -0.653779 1.354966 0.060000 -0.016013 -173622.000000 0 0 1
23.704678 -19.909864 6.486671 31.628964 -0.698609 1.364244 0.039464 -0.008015 187828.000000 0 0 1
1.564078 23.029177 -3.375329 23.327713 1.502983 1.715998 0.027074 -0.015264 356450.000000 0 1 0
2.568978 23.914277 -2.908429 24.227077 1.463782 1.691135 0.037172 -0.017250 115567.000000 0 1 0
2.948578 24.866877 -3.906029 25.343890 1.452773 1.725534 0.044884 -0.014512 413952.000000 0 0 1
4.049778 25.853677 -3.407429 26.389845 1.415417 1.700277 0.031806 -0.006091 619095.000000 0 0 1
5.259478 25.252277 -2.980729 25.965831 1.365455 1.685844 0.025353 -0.013569 300776.000000 0 0 1
6.039078 26.076777 -2.123229 26.851013 1.343220 1.649953 0.023321 -0.011602 123080.000000 0 0 1
7.202978 25.412077 -1.351429 26.447740 1.294594 1.621917 0.012001 -0.020977 -45600.400000 0 0 1
8.239378 25.106677 -2.270629 26.521470 1.253696 1.656516 0.023850 -0.025018 -216650.000000 0 0 1
9.196178 24.285677 -1.634029 26.019874 1.208815 1.633637 0.015619 -0.016391 -95234.400000 0 0 1
10.461778 23.981977 -2.446929 26.278727 1.159448 1.664046 0.041857 -0.014702 33704.900000 0 0 1
11.603778 24.805477 -2.184729 27.472394 1.133246 1.650405 0.048806 -0.015042 382304.000000 0 0 1
12.604378 24.790277 -3.171229 27.990800 1.100419 1.684336 0.063751 -0.023772 799993.000000 0 0 1
13.619578 23.554577 -3.222329 27.398803 1.046550 1.688678 0.075812 -0.025427 64696.800000 0 0 1
13.013378 22.354577 -3.590029 26.114430 1.043617 1.708706 0.072271 -0.026282 -155002.000000 0 0 1
12.802678 22.132777 -4.993529 26.051943 1.046374 1.763666 0.084702 -0.039818 377122.000000 0 0 1
11.683178 21.062877 -5.264929 24.654836 1.064366 1.785999 0.074560 -0.035499 521132.000000 0 1 0
10.395478 21.409977 -4.827329 24.284897 1.118781 1.770908 0.059989 -0.034752 130736.000000 0 1 0
9.440778 20.340977 -4.827929 22.938887 1.136257 1.782851 0.024230 -0.025296 303732.000000 0 1 0
7.974178 20.771277 -4.763629 22.753585 1.204242 1.781714 0.014154 -0.020152 -233207.000000 0 1 0
7.623978 21.336077 -3.559629 22.935217 1.227608 1.726630 0.008032 -0.010021 958312.000000 0 1 0
6.210578 21.639477 -3.452529 22.776264 1.291306 1.722967 0.019075 -0.007221 1389730.000000 0 1 0
5.778978 22.193977 -2.101929 23.030139 1.316068 1.662192 0.026892 -0.011905 -68876.200000 0 1 0
5.446078 21.301477 -1.116429 22.014975 1.320491 1.621530 0.024110 -0.014155 126651.000000 0 1 0
4.677678 22.025477 -0.140029 22.517148 1.361530 1.577015 0.033543 -0.006789 376701.000000 0 1 0
4.346478 21.228677 1.120171 21.698005 1.368842 1.519148 0.018633 -0.007547 -85715.900000 0 1 0
3.582978 21.877177 2.100371 22.267918 1.408461 1.476333 0.027593 -0.003806 -26991.900000 0 1 0
3.319778 20.965877 3.170771 21.462589 1.413758 1.422519 0.023133 -0.004579 631010.000000 0 1 0
2.177878 21.497177 4.127371 21.997886 1.469831 1.382052 0.016410 -0.008879 423447.000000 0 1 0
0.927078 21.683477 3.518071 21.986575 1.528067 1.410096 0.021016 -0.004005 -693093.000000 0 1 0
0.006178 22.098977 4.480671 22.548642 1.570517 1.370753 0.024471 -0.011982 -808735.000000 0 1 0
-1.379022 22.321377 3.929771 22.706578 -1.509094 1.396853 0.021447 -0.005433 -943880.000000 0 1 0
-2.383022 22.534377 4.877071 23.178930 -1.465437 1.358802 0.036287 -0.015402 -873036.000000 0 1 0
-3.568922 22.786077 4.175771 23.438848 -1.415431 1.391684 0.044300 -0.010668 155630.000000 0 1 0
-4.821222 22.965677 5.100871 24.014275 -1.363870 1.356756 0.060612 -0.025398 378832.000000 0 1 0
-4.977622 24.241477 5.638071 25.381367 -1.368276 1.346793 0.077333 -0.021432 418280.000000 0 0 1
-6.133122 24.284877 6.487571 25.873906 -1.323420 1.317354 0.096829 -0.032077 450687.000000 0 0 1
-6.513222 25.692477 6.931771 27.396622 -1.322520 1.315000 0.103007 -0.039225 162625.000000 0 0 1
-5.527322 26.406577 7.739671 28.067083 -1.364459 1.291420 0.079388 -0.043019 445533.000000 0 0 1
-5.905022 27.622977 8.385271 29.465419 -1.360194 1.282228 0.096329 -0.044812 -267270.000000 0 0 1
-6.111622 28.912177 7.514171 30.491453 -1.362477 1.321796 0.108199 -0.046369 109311.000000 0 0 1
-7.271722 28.745077 6.726071 30.403905 -1.323022 1.347727 0.113312 -0.049100 -396735.000000 0 0 1
-7.547422 29.864877 5.934671 31.370285 -1.323260 1.380468 0.120725 -0.041960 -353173.000000 0 0 1
-9.045822 30.032377 5.619371 31.864524 -1.278237 1.393517 0.107073 -0.037188 62425.100000 0 0 1
-9.917322 30.534277 6.584171 32.772651 -1.256752 1.368515 0.094314 -0.031644 -345826.000000 0 0 1
-10.409022 29.570677 7.448171 32.221855 -1.232337 1.337534 0.069859 -0.032140 -263321.000000 0 0 1
-11.433722 30.084377 8.515871 33.291438 -1.207601 1.312124 0.049095 -0.028332 54242.900000 0 0 1
-10.897922 30.837477 9.573671 34.078878 -1.231097 1.286037 0.064940 -0.034077 -369394.000000 0 0 1
-11.835822 31.066377 10.573971 34.885747 -1.206789 1.262849 0.064579 -0.026141 -204399.000000 0 0 1
-11.133522 31.452777 11.910371 35.427242 -1.230584 1.227925 0.059763 -0.028630 -161619.000000 0 0 1
-10.614522 32.755577 11.803171 36.399324 -1.257422 1.240557 0.055217 -0.026209 256863.000000 0 0 1
-9.685622 33.098777 12.834371 36.797574 -1.286117 1.214524 0.054878 -0.025518 346188.000000 0 0 1
-9.356722 -33.641964 12.958771 37.245936 1.299526 1.215440 0.044600 -0.025779 -72024.200000 0 0 1
-10.356622 -32.808864 13.513671 36.963502 1.265030 1.196524 0.047746 -0.018234 -34969.300000 0 0 1
-10.019222 -31.424664 13.392571 35.598529 1.262152 1.185092 0.044299 -0.012832 -21417.900000 0 0 1
-10.947022 -30.462164 14.166871 35.333850 1.225803 1.158250 0.059334 -0.016090 -259477.000000 0 0 1
-10.972422 -30.551664 15.589671 36.011610 1.225999 1.123081 0.061214 -0.027599 -243571.000000 0 0 1
-9.782622 -30.171164 16.221171 35.624784 1.257254 1.098049 0.070666 -0.019701 -159372.000000 0 0 1
-9.907122 -30.405664 17.735371 36.567730 1.255813 1.064432 0.070155 -0.032049 -147568.000000 0 0 1
-10.690222 -29.511964 18.448871 36.408759 1.223265 1.039426 0.087531 -0.039230 250324.000000 0 0 1
-11.611122 -30.218864 19.309671 37.694314 1.203955 1.032970 0.078131 -0.038821 382302.000000 0 0 1
-11.925522 -29.404064 20.600671 37.831266 1.185494 0.994955 0.090645 -0.042602 -258602.000000 0 0 1
-10.823022 -29.357764 21.458471 37.940507 1.217596 0.969657 0.073390 -0.029076 -214814.000000 0 0 1
-11.037022 -28.499764 22.555971 37.984526 1.201315 0.934998 0.061096 -0.024048 823378.000000 0 0 1
-9.771322 -28.302064 23.496271 38.059957 1.238358 0.905428 0.069853 -0.024649 927591.000000 0 0 1
-9.443022 -29.504164 24.146471 39.277454 1.261041 0.908706 0.064142 -0.010545 -543846.000000 0 0 1
-8.360322 -29.406064 25.005771 39.495571 1.293799 0.885208 0.073162 -0.018882 -347924.000000 0 0 1
-8.329822 -30.642164 25.961871 41.016422 1.305369 0.885422 0.075843 -0.019120 -60436.900000 0 0 1
-7.957322 -31.902064 25.434871 41.569139 1.326354 0.912375 0.101582 -0.019045 268496.000000 0 0 1
-8.065222 -32.942764 26.376571 42.965067 1.330694 0.909795 0.098785 -0.017028 -201010.000000 0 0 1
-7.850322 33.920977 25.653971 43.247965 -1.343370 0.935789 0.086855 -0.021688 63655.700000 0 0 1
-6.498022 33.637477 25.321971 42.601718 -1.379969 0.934291 0.089997 -0.015960 246380.000000 0 0 1
-6.294622 32.371077 24.713871 41.210246 -1.378741 0.927668 0.082929 -0.012986 -586029.000000 0 0 1
-7.087922 32.038277 23.486871 40.352484 -1.353070 0.949558 0.079308 -0.017804 -95216.500000 0 0 1
-8.269822 31.315077 23.828371 40.209642 -1.312606 0.936509 0.059066 -0.017358 255542.000000 0 0 1
-9.109322 31.150977 22.699071 39.605694 -1.286304 0.960480 0.040917 -0.008935 -94000.000000 0 0 1
-10.094622 29.973177 22.850771 39.018592 -1.245939 0.945129 0.035477 -0.019573 9025.030000 0 0 1
-9.548122 28.701677 22.466771 37.679022 -1.249645 0.931953 0.030520 -0.015523 166631.000000 0 0 1
-10.407822 27.626277 22.777971 37.287665 -1.210504 0.913635 0.010174 -0.014828 -248479.000000 0 0 1
-9.712222 26.263777 22.349571 35.827595 -1.216596 0.897190 -0.000165 -0.007653 1099240.000000 0 0 1
-8.558322 25.871677 23.149071 35.755672 -1.251329 0.866597 0.005920 -0.013666 830469.000000 0 0 1
-8.148122 24.553077 22.817271 34.494541 -1.250375 0.848013 0.019322 -0.010504 -311587.000000 0 0 1
-6.790022 24.374777 23.498871 34.531596 -1.299116 0.822347 0.026384 -0.010532 102336.000000 0 0 1
-5.709422 25.087277 22.912671 34.452278 -1.347025 0.843228 0.020175 -0.010546 273533.000000 0 0 1
-4.478522 24.887477 23.597871 34.587617 -1.392751 0.819942 0.066552 -0.012097 137355.000000 0 0 1
-3.291922 25.472277 22.839471 34.370265 -1.442273 0.843955 0.054874 -0.007546 -391889.000000 0 0 1
-2.850422 24.709777 21.724571 33.025066 -1.455948 0.852875 0.051922 -0.005684 44085.200000 0 0 1
-1.989122 25.464477 20.895171 33.000067 -1.492841 0.885134 0.057498 -0.005218 -18018.000000 0 0 1
-1.546222 24.603077 19.702171 31.557531 -1.508032 0.896529 0.041259 -0.005050 -82333.500000 0 0 1
-0.512622 23.696377 20.014971 31.022253 -1.549167 0.869536 0.055247 -0.005562 -21081.300000 0 0 1
-0.243422 22.804777 18.928571 29.637948 -1.560123 0.878041 0.034841 -0.004944 -401821.000000 0 0 1
0.842078 21.776477 19.247071 29.075313 1.532146 0.847348 0.037570 0.002455 -134892.000000 0 0 1
2.118778 22.380877 19.344571 29.658141 1.476409 0.860245 0.041571 -0.007456 -619308.000000 0 0 1
3.034578 21.398977 19.755771 29.281656 1.429926 0.830264 0.053198 -0.007694 -62806.300000 0 0 1
4.460778 21.912977 19.457171 29.642177 1.369972 0.854757 0.041520 -0.008688 687847.000000 0 0 1
5.469978 20.900077 19.164871 28.879512 1.314817 0.845156 0.058907 -0.012028 1556760.000000 0 0 1
6.747478 21.534377 18.896971 29.433882 1.267151 0.873674 0.085738 -0.016615 307887.000000 0 0 1
7.748878 20.540277 18.385771 28.635375 1.210052 0.873608 0.073271 -0.007873 -769367.000000 0 0 1
8.207278 19.638377 19.336871 28.756562 1.174937 0.833305 0.076173 -0.014112 -262647.000000 0 0 1
9.143578 18.737077 18.814571 28.083290 1.116800 0.836647 0.077326 -0.018688 146637.000000 0 0 1
9.973278 17.973077 19.880371 28.595925 1.064198 0.802075 0.090792 -0.022229 -163101.000000 0 0 1
9.169278 17.094477 20.589271 28.288070 1.078464 0.755625 0.093206 -0.023236 -169291.000000 0 0 1
9.852378 16.398977 21.622371 28.870794 1.029795 0.724342 0.091413 -0.031991 46528.000000 0 0 1
8.928078 15.373277 22.298071 28.517577 1.044649 0.673079 0.072562 -0.023288 400885.000000 0 0 1
7.844578 15.941077 23.051871 29.104023 1.113490 0.656635 0.080883 -0.015451 470509.000000 0 0 1
6.924478 14.927477 23.504571 28.692209 1.136464 0.610787 0.070226 -0.015284 146554.000000 0 0 1
7.269278 13.794477 24.538371 29.073384 1.085806 0.566070 0.083335 -0.020408 -568830.000000 0 0 1
7.516778 14.277777 25.829171 30.454933 1.086200 0.558386 0.094423 -0.031881 -125410.000000 0 0 1
7.736778 13.217177 26.790771 30.859309 1.041213 0.519317 0.103101 -0.031572 -566158.000000 0 0 1
8.825478 13.600777 27.857371 32.232024 0.995198 0.527087 0.080341 -0.024282 391952.000000 0 0 1
10.119778 13.694977 27.289971 32.166828 0.934411 0.557862 0.092758 -0.021839 5483.320000 0 0 1
10.390478 14.885277 26.588071 32.194084 0.961389 0.599056 0.078714 -0.019544 -1276740.000000 0 0 1
11.752878 14.906677 25.890071 32.103504 0.903150 0.632662 0.069765 -0.020806 -286976.000000 0 0 1
11.726578 14.120377 24.742471 30.807265 0.877749 0.638253 0.070783 -0.021211 869186.000000 0 0 1
12.989378 13.710277 24.157871 30.664285 0.812392 0.663538 0.063972 -0.017940 358213.000000 0 0 1
12.827178 12.508477 23.217471 29.326600 0.772820 0.657232 0.052875 -0.017135 9472.890000 0 0 1
12.533278 11.272977 23.890071 29.238649 0.732508 0.614483 0.052514 -0.010394 -436741.000000 0 0 1
11.213178 11.179477 24.326671 29.025903 0.783893 0.577001 0.071636 -0.013608 -916251.000000 0 0 1
10.890278 9.721677 24.901671 28.865246 0.728764 0.530238 0.059109 -0.010286 -84706.100000 0 0 1
10.768778 8.814577 23.862071 27.623573 0.685939 0.527973 0.057694 -0.012823 90210.200000 0 0 1
10.339078 7.633377 24.466171 27.636181 0.635973 0.483668 0.060976 -0.017417 -28317.200000 0 0 1
10.611278 6.362177 23.605171 26.651091 0.540101 0.482772 0.060978 -0.015287 661101.000000 0 0 1
12.017778 6.140077 23.413271 27.024226 0.472342 0.522888 0.057075 -0.012925 870626.000000 0 0 1
12.245278 5.033177 22.473471 26.083263 0.389979 0.532373 0.064441 -0.019915 82262.400000 0 0 1
12.030378 3.596677 23.016771 26.219036 0.290508 0.499411 0.060464 -0.019900 -176089.000000 0 0 1
13.135378 3.174877 23.776871 27.348814 0.237156 0.516823 0.053228 -0.015473 -99454.300000 0 0 1
12.815378 1.965677 24.469371 27.692019 0.152198 0.487246 0.056648 -0.008197 -9494.260000 0 0 1
13.919278 1.256277 25.351771 28.948866 0.090011 0.503823 0.033717 0.005038 157284.000000 0 0 1
14.887278 0.545577 24.654071 28.805415 0.036631 0.543540 0.057145 -0.005786 682256.000000 0 0 1
16.128778 1.245677 24.414271 29.287298 0.077080 0.585179 0.056425 -0.015139 453259.000000 0 0 1
17.002478 0.474477 23.425471 28.949302 0.027899 0.628025 0.060546 -0.016037 -274321.000000 0 0 1
17.276778 -0.825223 23.915071 29.514381 -0.047729 0.626157 0.060552 -0.012402 -21250.500000 0 0 1
18.108178 -1.568023 23.066571 29.367184 -0.086377 0.667367 0.085911 -0.009943 -112944.000000 0 0 1
18.264378 -3.006923 23.584771 29.981170 -0.163169 0.665428 0.080389 -0.005406 108907.000000 0 0 1
17.217278 -3.926723 23.266371 29.209208 -0.224233 0.649242 0.066510 0.002795 340716.000000 0 0 1
17.442078 -5.336623 23.550471 29.788090 -0.296918 0.659008 0.080032 0.001461 363768.000000 0 0 1
16.372578 -6.227423 22.816371 28.765064 -0.363459 0.654755 0.074251 -0.000846 178556.000000 0 0 1
16.410678 -6.093723 21.382971 27.634675 -0.355546 0.686020 0.065818 -0.002924 113492.000000 0 0 1
15.959278 -7.258223 20.645571 27.085420 -0.426835 0.704031 0.080428 -0.009586 -323887.000000 0 0 1
16.862878 -8.490823 20.655371 27.983836 -0.466461 0.740520 0.080318 -0.017016 -163486.000000 0 0 1
16.762578 -9.145023 21.935471 29.082303 -0.499429 0.716278 0.070531 -0.015591 -96948.400000 0 0 1
17.451678 -10.350923 21.864671 29.828954 -0.535345 0.748072 0.054367 -0.025043 -439614.000000 0 0 1
17.281178 -11.103023 23.140971 30.942217 -0.571079 0.725938 0.051248 -0.016327 -1010420.000000 0 0 1
16.031178 -11.665523 23.247271 30.553538 -0.629061 0.706144 0.064242 -0.020602 -919518.000000 0 0 1
15.860278 -12.401623 24.454071 31.675705 -0.663625 0.688793 0.065475 -0.014460 325440.000000 0 0 1
14.564578 -13.267623 24.385371 31.349690 -0.738833 0.679558 0.082459 -0.015432 205314.000000 0 0 1
14.697678 -14.251123 23.419371 31.105999 -0.769974 0.718355 0.074821 -0.025750 -496381.000000 0 0 1
13.543778 -14.996723 23.336871 30.869810 -0.836262 0.713651 0.083253 -0.031491 -962909.000000 0 0 1
13.605478 -15.997923 22.139471 30.515549 -0.866039 0.759015 0.063212 -0.031271 -73491.100000 0 0 1
14.509678 -17.060523 22.354471 31.643555 -0.866022 0.786332 0.075767 -0.034122 77010.900000 0 0 1
14.374378 -18.032623 21.359871 31.433141 -0.897807 0.823670 0.056728 -0.011858 -77388.600000 0 0 1
-25.642342 -33.219864 25.864494 49.295650 0.913427 1.018456 0.016214 -0.011561 -217800.000000 0 0 1
-24.947422 33.808077 26.021694 49.421539 -0.935076 1.016288 0.036143 0.001359 -298793.000000 0 0 1
-25.538942 32.897577 26.923034 49.591712 -0.910664 0.996917 0.027045 -0.008996 -270566.000000 0 0 1
-25.751162 33.172577 28.430144 50.713069 -0.910688 0.975677 0.018862 -0.000337 445403.000000 0 0 1
-26.793562 -34.082164 28.648554 51.963723 0.904560 0.986853 0.045070 -0.011911 524826.000000 0 0 1
-26.748062 -33.722764 29.963934 52.445409 0.900231 0.962664 0.028924 -0.015773 314671.000000 0 0 1
-28.003902 -32.922364 30.468444 52.881250 0.865952 0.956765 0.016813 -0.017777 262774.000000 0 0 1
-28.092312 -31.552764 30.121844 51.885262 0.843351 0.951396 -0.007841 -0.007271 45748.700000 0 0 1
-29.020782 -30.979964 31.024284 52.578229 0.818039 0.939664 -0.005179 0.007610 -96692.800000 0 0 1
-29.163382 -29.426764 30.943724 51.710263 0.789893 0.929286 -0.021603 0.006077 61640.800000 0 0 1
-29.887062 -29.067064 29.766994 51.226991 0.771490 0.950741 -0.024206 0.007379 251040.000000 0 0 1
-30.118992 -27.668064 29.819894 50.615230 0.743010 0.940792 -0.012299 0.004155 25693.000000 0 0 1
-30.844212 -27.145264 28.530124 50.021982 0.721698 0.963862 -0.017146 -0.002319 130094.000000 0 0 1
-30.018432 -27.122864 27.366364 48.843361 0.734768 0.976062 -0.017388 0.007070 391913.000000 0 0 1
-29.325532 -25.877664 27.173164 47.623746 0.723021 0.963584 -0.015808 -0.005011 -9425.720000 0 0 1
-28.352092 -25.882264 25.987444 46.358170 0.739890 0.975711 -0.003864 0.009953 -155916.000000 0 0 1
-28.983562 -25.909764 24.750864 46.086527 0.729461 1.003858 -0.017486 0.000513 127493.000000 0 0 1
-27.973282 -25.690864 23.770724 44.805940 0.742892 1.011575 0.010775 0.000281 56061.200000 0 0 1
-28.328662 -25.951264 22.295164 44.419090 0.741627 1.044970 0.004056 0.006034 -256225.000000 0 0 1
-29.117402 -24.914664 21.777064 44.077251 0.707772 1.054036 -0.004983 0.004785 -254226.000000 0 0 1
-29.646182 -25.269064 20.580864 44.056709 0.705860 1.084737 -0.000347 0.005439 -139354.000000 0 0 1
-30.357912 -24.065764 19.869164 43.537886 0.670295 1.096891 0.009245 0.000206 673850.000000 0 0 1
-31.684252 -23.818164 20.337864 44.551380 0.644611 1.096735 0.026917 -0.000623 306662.000000 0 0 1
-32.306622 -22.764164 19.654564 44.138723 0.613826 1.109297 0.039108 0.005848 24319.400000 0 0 1
-33.773812 -22.659264 20.127564 45.378755 0.590936 1.111245 0.048289 0.009020 -178445.000000 0 0 1
-34.661662 -23.670864 19.751464 46.388155 0.599165 1.130965 0.054302 0.009290 418594.000000 0 0 1
-35.950345 -23.173464 19.391464 46.962385 0.572567 1.145144 0.062278 0.003528 891633.000000 0 0 1
36.095096 -24.285764 18.825364 47.403044 -0.592255 1.162404 0.070725 -0.004618 363687.000000 0 0 1
35.698456 -25.325364 19.701064 47.998810 -0.617023 1.147850 0.062254 -0.003328 -248021.000000 0 0 1
34.981886 -26.244464 18.941464 47.657982 -0.643648 1.162065 0.067302 0.001798 -413551.000000 0 0 1
34.601466 -27.559764 19.672464 48.412889 -0.672598 1.152343 0.064453 -0.003385 647070.000000 0 0 1
33.473816 -27.583864 20.587364 48.012555 -0.689230 1.127642 0.052287 -0.006511 700727.000000 0 0 1
33.412676 -26.598564 21.538864 47.831090 -0.672335 1.103683 0.051170 -0.012378 -109723.000000 0 0 1
32.088966 -26.636664 22.379064 47.329020 -0.692820 1.078285 0.048200 -0.020923 421021.000000 0 0 1
30.971306 -26.271564 21.602864 46.001093 -0.703480 1.081940 0.052501 -0.013715 -948459.000000 0 0 1
29.870256 -25.897864 22.341464 45.410049 -0.714288 1.056418 0.052232 -0.014814 -1009390.000000 0 0 1
29.197916 -24.738864 21.569064 43.928968 -0.702914 1.057561 0.037478 -0.006217 -150714.000000 0 0 1
30.084386 -23.703064 21.141764 43.747911 -0.667311 1.066418 0.049042 0.001871 586885.000000 0 0 1
30.904916 -23.049164 22.136464 44.456730 -0.640813 1.049583 0.070996 -0.014342 248557.000000 0 0 1
31.890586 -21.997564 21.644164 44.377608 -0.603836 1.061312 0.072002 -0.013933 34710.700000 0 0 1
31.211116 -20.839664 21.189264 43.097683 -0.588718 1.056805 0.077489 -0.024602 387075.000000 0 0 1
32.102196 -19.720164 21.052264 43.158240 -0.550863 1.061237 0.088957 -0.023510 -771092.000000 0 0 1
31.421586 -18.410964 20.868564 41.973523 -0.530012 1.050446 0.086030 -0.018980 -324439.000000 0 0 1
30.922906 -17.829964 22.086664 41.975641 -0.523031 1.016696 0.077254 -0.022839 -156362.000000 0 0 1
29.720996 -18.348964 22.572864 41.587934 -0.553096 0.997059 0.079246 -0.026134 -987801.000000 0 0 1
29.476426 -18.140564 24.098904 42.174600 -0.551685 0.962576 0.068597 -0.016737 -86411.900000 0 0 1
29.110046 -16.830564 24.475904 41.590053 -0.524214 0.941589 0.068683 -0.018240 107864.000000 0 0 1
29.355056 -16.584064 25.842204 42.480231 -0.514247 0.916835 0.067387 -0.013765 -177650.000000 0 0 1
29.159186 -15.083964 26.126434 41.956819 -0.477389 0.898610 0.059951 -0.015493 -327491.000000 0 0 1
27.809916 -14.733364 25.983034 40.811536 -0.487193 0.880638 0.069504 -0.016075 -51941.600000 0 0 1
27.526916 -13.349964 26.379914 40.396194 -0.451558 0.859218 0.059972 -0.015182 40318.100000 0 0 1
28.110686 -12.279364 25.456214 39.862417 -0.411841 0.878116 0.067918 -0.026741 -598131.000000 0 0 1
27.434216 -12.274064 24.251854 38.619183 -0.420690 0.891849 0.051335 -0.019083 -192027.000000 0 0 1
27.856116 -11.277664 23.370644 38.070144 -0.384684 0.909825 0.049804 -0.014766 -104184.000000 0 0 1
29.111866 -11.575664 22.505864 38.574741 -0.378459 0.947844 0.054764 -0.032337 -310937.000000 0 0 1
28.917326 -12.705964 21.664964 38.301748 -0.413995 0.969588 0.055086 -0.038335 -15464.500000 0 0 1
29.333626 -13.913464 22.250764 39.359149 -0.442892 0.969967 0.066318 -0.038705 -282216.000000 0 0 1
28.828456 -15.148964 21.502364 39.024641 -0.483828 0.987241 0.082886 -0.037836 -153865.000000 0 0 1
29.352976 -15.206564 20.187964 38.734877 -0.477990 1.022560 0.079980 -0.038739 72407.700000 0 0 1
28.689356 -16.225064 19.424864 38.257773 -0.514698 1.038241 0.086982 -0.047089 -112328.000000 0 0 1
29.061896 -16.115764 17.938364 37.763693 -0.506316 1.075814 0.093927 -0.040407 -80565.700000 0 0 1
28.393236 -17.136564 17.203764 37.360503 -0.543021 1.092260 0.091862 -0.039957 579513.000000 0 0 1
27.006116 -16.918164 16.930164 36.085801 -0.559646 1.082452 0.062906 -0.041742 236983.000000 0 0 1
26.620616 -15.725964 15.921064 34.777053 -0.533586 1.095273 0.067385 -0.034273 -372673.000000 0 0 1
26.858316 -15.977464 14.545264 34.470468 -0.536646 1.135187 0.087618 -0.036930 763052.000000 0 0 1
25.796616 -16.818264 14.012764 33.833075 -0.577749 1.143762 0.058669 -0.036846 566589.000000 0 0 1
26.025216 -17.452964 12.565964 33.761239 -0.590733 1.189417 0.067461 -0.020604 -208254.000000 0 0 1
25.730416 -16.599964 11.466764 32.697091 -0.572958 1.212481 0.065665 -0.027304 -47966.800000 0 0 1
25.675116 -17.301164 10.226864 32.605683 -0.592959 1.251759 0.058981 -0.025349 -99196.200000 0 0 1
27.018916 -17.636264 9.554164 33.650285 -0.578297 1.282911 0.070335 -0.019169 52139.800000 0 0 1
27.873716 -18.508964 10.271364 35.000381 -0.586175 1.272948 0.076432 -0.016503 -1004170.000000 0 0 1
29.135116 -18.478864 9.704064 35.839814 -0.565221 1.296612 0.078707 -0.009843 -372766.000000 0 0 1
30.198466 -19.319364 10.483264 37.350823 -0.569133 1.286304 0.081237 -0.024656 215298.000000 0 0 1
30.442196 -18.846564 11.780764 37.692263 -0.554341 1.252919 0.101216 -0.038156 77396.500000 0 0 1
30.458286 -19.922864 12.677664 38.540250 -0.579254 1.235609 0.078299 -0.035572 27272.800000 0 0 1
30.349196 -19.322664 14.085864 38.637425 -0.566953 1.197630 0.103371 -0.028198 77366.800000 0 0 1
30.177936 -20.241564 15.136764 39.364328 -0.590818 1.176098 0.092080 -0.021144 13891.300000 0 0 1
29.833926 -19.600064 16.355764 39.264954 -0.581261 1.141151 0.111158 -0.026138 -17074.400000 0 0 1
29.574796 -20.497564 17.614464 40.063550 -0.606063 1.115573 0.079077 -0.013001 744897.000000 0 0 1
28.329546 -21.205964 17.567864 39.508049 -0.642570 1.109996 0.038029 -0.006389 455718.000000 0 0 1
28.289106 -22.045364 18.704364 40.449040 -0.661984 1.090076 0.039094 -0.008719 -34368.000000 0 0 1
27.071516 -22.986564 18.768664 40.168543 -0.703974 1.084621 0.020186 0.008861 -1082840.000000 0 0 1
25.942016 -22.325064 19.131164 39.209668 -0.710602 1.061092 0.035466 -0.003444 -867219.000000 0 0 1
24.791816 -23.011164 18.609164 38.606331 -0.748166 1.067833 0.038267 -0.001883 418858.000000 0 0 1
23.456416 -22.569064 19.230364 37.807049 -0.766121 1.037186 0.023667 -0.000464 -288623.000000 0 0 1
22.937416 -21.342264 18.703764 36.489013 -0.749389 1.032602 0.021020 -0.006782 684737.000000 0 0 1
21.760416 -20.912064 19.429864 35.893589 -0.765520 0.998792 0.037379 -0.012727 916133.000000 0 0 1
22.060816 -20.281464 20.842464 36.502406 -0.743400 0.963087 0.025338 -0.007489 -280252.000000 0 0 1
22.526616 -21.287164 21.753864 37.865847 -0.757117 0.958805 0.043056 -0.005640 -122427.000000 0 0 1
22.682116 -20.807864 23.085564 38.475822 -0.742329 0.927293 0.032586 -0.005648 309692.000000 0 0 1
23.095816 -21.963964 24.084624 39.948736 -0.760285 0.923680 0.040104 -0.003766 -94879.700000 0 0 1
22.006116 -22.782664 24.421914 39.996860 -0.802734 0.913984 0.056997 -0.003446 -254559.000000 0 0 1
22.328716 -23.770664 25.336984 41.298653 -0.816667 0.910303 0.054651 -0.004331 -628560.000000 0 0 1
21.190916 -24.373264 26.157474 41.561092 -0.855128 0.890049 0.077827 -0.010352 -781103.000000 0 0 1
20.410616 -25.270164 25.430574 41.253951 -0.891380 0.906583 0.084381 -0.011955 286214.000000 0 0 1
19.474916 -25.829264 26.388964 41.746864 -0.924749 0.886512 0.099169 -0.018718 740534.000000 0 0 1
18.630116 -27.055864 25.794074 41.766437 -0.967776 0.905136 0.101159 -0.019408 274540.000000 0 0 1
17.919616 -26.577064 24.672894 40.450027 -0.977561 0.914786 0.096920 -0.028063 171726.000000 0 0 1
17.015916 -27.574064 24.231634 40.460382 -1.017899 0.928672 0.094424 -0.030252 -124536.000000 0 0 1
16.084316 -27.180764 23.055564 39.103173 -1.036462 0.940222 0.084980 -0.036426 -211676.000000 0 0 1
14.855916 -26.617064 23.431544 38.447413 -1.061729 0.915437 0.060066 -0.025590 -389471.000000 0 0 1
14.326016 -26.027564 22.266564 37.127735 -1.067633 0.927634 0.028874 -0.018475 713373.000000 0 0 1
12.863916 -25.477964 22.461664 36.319875 -1.103234 0.904040 0.028603 -0.014240 476595.000000 0 0 1
11.869216 -26.455364 22.399664 36.640272 -1.149065 0.913044 0.025672 -0.020787 506664.000000 0 0 1
10.598816 -25.757864 22.478564 35.792294 -1.180434 0.891780 0.018708 -0.005973 1551510.000000 0 0 1
9.293316 -26.618664 22.497664 36.070263 -1.234899 0.897306 0.023653 -0.008344 532758.000000 0 0 1
9.008816 -27.252764 21.274764 35.727965 -1.251539 0.932952 0.032553 -0.009854 -28458.500000 0 0 1
7.765616 -27.911364 21.280964 35.947579 -1.299435 0.937258 0.031654 -0.008816 -395944.000000 0 0 1
7.434816 -28.778264 20.073464 35.866543 -1.317976 0.976808 0.046394 -0.010882 60256.600000 0 0 1
8.113316 -30.041564 20.025164 37.004441 -1.307020 0.998985 0.050337 -0.018256 396266.000000 0 0 1
7.834116 -30.740664 18.838064 36.894911 -1.321263 1.034929 0.048486 -0.015002 -93178.600000 0 0 1
8.461116 -32.123364 18.893864 38.216215 -1.313251 1.053659 0.048155 -0.017497 146104.000000 0 0 1
7.893316 -33.049164 19.831464 39.342580 -1.336353 1.042490 0.043692 -0.018577 122263.000000 0 0 1
8.865516 -34.041364 19.890664 40.411017 -1.316022 1.056171 0.051198 -0.024859 -118944.000000 0 0 1
8.512616 32.998977 20.726764 39.887290 1.318334 1.024375 0.067562 -0.034845 631887.000000 0 0 1
7.374016 32.177777 20.328264 38.768851 1.345521 1.018850 0.062681 -0.033336 862414.000000 0 0 1
7.325316 31.106177 21.222064 38.361837 1.339516 0.984586 0.068560 -0.047109 -198773.000000 0 0 1
6.383516 29.980377 20.751664 37.016265 1.361006 0.975675 0.060206 -0.035850 -540783.000000 0 0 1
5.056716 30.329877 20.994764 37.232405 1.405592 0.971715 0.067981 -0.036833 -950395.000000 0 0 1
4.242816 29.212677 20.888564 36.162330 1.426566 0.954970 0.079419 -0.037155 45949.100000 0 0 1
2.771916 29.296077 21.366464 36.365773 1.476460 0.942777 0.072759 -0.031454 273130.000000 0 0 1
2.619516 29.223277 22.796464 37.155626 1.481397 0.910261 0.063759 -0.038891 964535.000000 0 0 1
1.298816 28.681777 23.058764 36.824420 1.525544 0.894151 0.059655 -0.030384 1085410.000000 0 0 1
1.187116 27.982477 24.444684 37.174869 1.528398 0.853222 0.066864 -0.028323 -325452.000000 0 0 1
1.260816 28.885677 25.557784 38.589796 1.527176 0.846920 0.067433 -0.030035 58582.500000 0 0 1
1.211516 28.322677 26.871454 39.060426 1.528047 0.812142 0.060302 -0.025246 -414378.000000 0 0 1
2.495016 27.741177 27.477254 39.125408 1.481099 0.792192 0.038142 -0.020563 -548266.000000 0 0 1
2.871416 26.584477 26.759954 37.829547 1.463202 0.785008 0.047493 -0.023826 -171173.000000 0 0 1
3.824516 25.867677 27.497634 37.945797 1.424010 0.760262 0.017204 -0.005883 -248353.000000 0 0 1
4.357816 24.667577 26.719994 36.625647 1.395939 0.753142 0.021150 -0.000896 34551.300000 0 0 1
3.298016 23.792477 26.381064 35.677996 1.433058 0.738586 0.041902 -0.002027 214050.000000 0 0 1
3.823416 22.457877 26.410954 34.878550 1.402165 0.711740 0.043911 0.003441 355429.000000 0 0 1
2.722216 21.371377 26.427264 34.096136 1.444102 0.683953 0.046380 0.007237 -11680.500000 0 0 1
3.152516 20.114377 26.903094 33.738746 1.415332 0.647831 0.058629 0.006102 -5762.640000 0 0 1
3.632416 19.364977 25.801024 32.463666 1.385374 0.652174 0.054768 0.011723 -295829.000000 0 0 1
4.182616 17.940277 26.128904 31.969790 1.341747 0.614087 0.062394 0.005653 -324250.000000 0 0 1
5.467516 17.770877 26.663984 32.506397 1.272320 0.608915 0.054526 0.002290 14133.200000 0 0 1
6.463416 17.755477 25.628404 31.840977 1.221683 0.635310 0.075658 -0.008682 -53638.400000 0 0 1
7.890516 17.523377 26.230184 32.516943 1.147705 0.632314 0.069588 -0.015969 388239.000000 0 0 1
8.474816 18.543877 27.014414 33.844888 1.142125 0.646523 0.043369 -0.002578 280212.000000 0 0 1
8.815216 19.781377 26.325094 34.088436 1.151581 0.688407 0.026267 -0.006915 -374598.000000 0 0 1
9.282716 20.893077 27.272204 35.587394 1.152696 0.697665 0.022737 -0.004111 155229.000000 0 0 1
10.356916 20.512277 28.111784 36.308286 1.103226 0.685263 0.035169 -0.020393 -87422.800000 0 0 1
10.586516 21.493277 29.082394 37.680511 1.113126 0.689105 0.036363 -0.023204 212149.000000 0 0 1
11.741716 21.170977 30.092044 38.621358 1.064418 0.677479 0.054863 -0.023461 -118959.000000 0 0 1
12.967816 21.526077 29.517024 38.765848 1.028597 0.705298 0.043541 -0.020752 -1090200.000000 0 0 1
13.965216 21.130677 30.425394 39.588349 0.986798 0.694234 0.045823 -0.008041 11203.800000 0 0 1
15.343616 20.976077 29.724724 39.483941 0.939253 0.718444 0.035702 -0.016058 171488.000000 0 0 1
15.770416 22.236777 29.178964 39.932346 0.953920 0.751435 0.031133 -0.016735 -475505.000000 0 0 1
17.068216 22.012277 28.713734 40.004286 0.911239 0.770207 0.065301 -0.011138 -552571.000000 0 0 1
-8.819722 16.675577 4.443071 19.380487 -1.084296 1.339484 0.025037 -0.019293 -294619.000000 0 1 0
-8.618922 18.023077 4.861071 20.560816 -1.124727 1.332112 0.032437 -0.015552 -449269.000000 0 1 0
-7.304722 18.317877 5.230171 20.402409 -1.191346 1.311552 0.026092 -0.011183 -479259.000000 0 1 0
-7.186922 19.827777 5.615771 21.824974 -1.223058 1.310559 0.030329 -0.013268 -928.915000 0 1 0
-7.205922 20.769677 4.584971 22.457221 -1.236846 1.365186 0.034836 -0.021318 -196225.000000 0 1 0
-8.511422 21.069777 4.138971 23.097855 -1.186878 1.390630 0.034366 -0.024841 45026.900000 0 1 0
-8.581022 22.323477 3.201671 24.129283 -1.203815 1.437716 0.057863 -0.025374 125198.000000 0 1 0
-7.988522 22.211077 1.895071 23.679944 -1.225538 1.490682 0.031445 -0.020720 -367647.000000 0 1 0
-8.591122 21.279777 1.033571 22.971821 -1.187085 1.525788 0.048428 -0.024579 -1505770.000000 0 1 0
-8.068222 21.309977 -0.392429 22.789588 -1.208862 1.588017 0.028100 -0.004921 1105690.000000 0 1 0
-6.689622 20.957677 -0.681129 22.009980 -1.261822 1.601748 0.010185 0.001733 834389.000000 0 1 0
-5.788222 21.872277 -0.048929 22.625261 -1.312089 1.572959 0.016259 0.001343 -1772820.000000 0 1 0
-4.456022 21.706377 -0.756529 22.171948 -1.368323 1.604924 0.022053 0.005141 -744503.000000 0 1 0
-4.481422 22.015577 -2.174329 22.572029 -1.369983 1.667274 0.014732 0.002224 -200829.000000 0 1 0
-3.188822 21.992477 -2.745129 22.391368 -1.426804 1.693703 0.020771 0.013532 101384.000000 0 1 0
-3.118822 22.249477 -4.256029 22.866571 -1.431529 1.758013 0.013670 0.000975 -665675.000000 0 1 0
-1.815822 22.298377 -4.723929 22.865484 -1.489543 1.778891 0.036874 -0.001805 -838059.000000 0 1 0
-1.747722 22.529977 -6.111729 23.409563 -1.493378 1.834935 0.037684 -0.013303 753422.000000 0 1 0
-0.347722 22.959077 -6.688029 23.915892 -1.555652 1.854224 0.032378 -0.022575 852062.000000 0 1 0
0.703278 22.045677 -6.426129 22.973934 1.538906 1.854292 0.044806 -0.017180 -151883.000000 0 1 0
1.878378 22.568077 -7.007829 23.705613 1.487756 1.870900 0.043366 -0.024806 355613.000000 0 1 0
3.237278 21.885677 -6.726929 23.123893 1.423944 1.865972 0.037518 -0.010596 301688.000000 0 1 0
3.242078 20.761377 -7.492529 22.308829 1.415888 1.913309 0.041509 -0.026381 496080.000000 0 1 0
4.438578 19.971677 -7.354529 21.740698 1.352107 1.915889 0.043166 -0.020087 810436.000000 0 1 0
4.359578 18.743277 -8.276329 20.947887 1.342265 1.976964 0.023259 -0.025039 72736.800000 0 1 0
4.605178 19.037677 -9.646529 21.833377 1.333457 2.028428 0.026303 -0.027244 71367.200000 0 1 0
3.356478 19.138877 -10.327829 22.005150 1.397187 2.059336 0.027107 -0.027408 -258124.000000 0 1 0
3.421678 19.338177 -11.867029 22.945574 1.395670 2.114351 0.036348 -0.032496 -310728.000000 0 1 0
3.936178 20.570377 -12.282829 24.279658 1.381730 2.101209 0.074421 -0.033253 -93343.700000 0 1 0
3.921278 20.688377 -13.702229 25.122429 1.383478 2.147684 0.078215 -0.022897 176276.000000 0 0 1
4.408778 21.975777 -14.384129 26.632222 1.372805 2.141355 0.072458 -0.022336 540474.000000 0 0 1
3.374678 22.967377 -14.368029 27.300717 1.424907 2.125025 0.101182 -0.029214 390143.000000 0 0 1
3.848478 24.103377 -15.079929 28.691250 1.412467 2.124209 0.079583 -0.024913 -47846.600000 0 0 1
2.708178 25.068677 -15.401729 29.546338 1.463183 2.119139 0.095427 -0.026667 -128657.000000 0 0 1
2.035178 25.634477 -14.296629 29.422134 1.491570 2.078205 0.123089 -0.041376 -25606.400000 0 0 1
1.492278 26.920877 -14.660329 30.690158 1.515421 2.068818 0.084479 -0.032156 -675053.000000 0 0 1
0.484478 27.509277 -13.622829 30.701409 1.553187 2.030542 0.096799 -0.028988 16333.700000 0 0 1
-0.847422 27.096877 -13.718129 30.383317 -1.539533 2.039244 0.088451 -0.041762 -716495.000000 0 0 1
-1.100522 25.710277 -13.607229 29.109898 -1.528018 2.057193 0.083776 -0.045129 -943030.000000 0 0 1
-0.952122 25.050177 -12.178029 27.869738 -1.532806 2.023015 0.100717 -0.045885 -406816.000000 0 0 1
-1.840522 25.437277 -11.157629 27.837659 -1.498567 1.983198 0.079060 -0.036043 -364651.000000 0 0 1
-2.305122 24.269677 -10.458129 26.527406 -1.476101 1.976036 0.106355 -0.033279 82845.800000 0 0 1
-3.442122 24.530677 -9.459229 26.515643 -1.431387 1.935574 0.070917 -0.028299 -152490.000000 0 0 1
-3.101722 24.980677 -8.151229 26.459355 -1.447264 1.883956 0.080010 -0.026666 -303734.000000 0 0 1
-2.571922 26.284577 -8.031229 27.604246 -1.473258 1.866007 0.063662 -0.029879 15764.200000 0 0 1
-2.219822 26.719577 -6.603529 27.612860 -1.487908 1.812283 0.049396 -0.026060 570319.000000 0 0 1
-1.157522 25.975677 -5.993729 26.683337 -1.526264 1.797354 0.046280 -0.025875 338839.000000 0 0 1
-0.772822 26.430477 -4.663729 26.849912 -1.541565 1.745378 0.052041 -0.027470 419600.000000 0 0 1
-1.799922 26.046077 -3.530629 26.345838 -1.501801 1.705212 0.046259 -0.020309 417220.000000 0 0 1
-3.029722 26.766977 -3.556029 27.171596 -1.458087 1.702046 0.030100 -0.017569 347326.000000 0 0 1
-3.878122 26.439777 -2.475729 26.837118 -1.425157 1.663178 0.021138 -0.003957 97905.400000 0 0 1
-4.809822 25.189377 -2.608429 25.776792 -1.382121 1.672163 0.020721 -0.015302 -507635.000000 0 0 1
-5.952422 25.499677 -3.387029 26.403349 -1.341472 1.699431 0.008716 -0.017334 -103003.000000 0 0 1
-6.723822 24.266577 -3.500829 25.423067 -1.300496 1.708938 -0.026390 -0.024407 -59282.300000 0 0 1
-8.084222 24.697777 -4.087629 26.306721 -1.254462 1.726812 0.002655 -0.018815 -362396.000000 0 0 1
-8.851922 25.207677 -2.987529 26.883245 -1.233089 1.682156 0.016271 -0.016595 -606911.000000 0 0 1
-10.017522 25.824377 -3.482629 27.917341 -1.200756 1.695870 0.041731 -0.015639 -112902.000000 0 0 1
-10.881122 26.376877 -2.328629 28.627976 -1.179539 1.652227 0.039990 -0.009632 -649144.000000 0 0 1
-11.502022 25.442277 -1.504629 27.961937 -1.146212 1.624632 0.043510 -0.012099 -294129.000000 0 0 1
-10.686222 24.622577 -0.674029 26.849972 -1.161327 1.595902 0.051030 -0.022271 -251311.000000 0 0 1
-11.333122 23.274777 -0.260029 25.888656 -1.117662 1.580841 0.047218 -0.022315 -433618.000000 0 0 1
-12.219522 23.329877 0.813071 26.348833 -1.088313 1.539933 0.064775 -0.026606 -342749.000000 0 0 1
-12.825222 22.040577 0.835171 25.514131 -1.043798 1.538057 0.073951 -0.031810 -316352.000000 0 0 1
-13.656722 21.799177 2.090971 25.808571 -1.011134 1.489689 0.083402 -0.036027 -32839.300000 0 0 1
-12.974322 21.685677 3.370171 25.494307 -1.031635 1.438215 0.079944 -0.035218 84629.800000 0 0 1
-12.785422 22.966477 3.914071 26.575290 -1.062824 1.422976 0.068317 -0.035163 -85810.600000 0 0 1
-12.505022 22.873677 5.420371 26.626324 -1.070491 1.365791 0.062451 -0.037109 -617395.000000 0 0 1
-11.260022 22.416877 5.829071 25.754273 -1.105310 1.342484 0.062339 -0.030025 -651020.000000 0 0 1
-11.319722 22.151377 7.208971 25.899592 -1.098374 1.288728 0.045749 -0.032552 480498.000000 0 0 1
-9.936622 21.846877 7.866971 25.256915 -1.143933 1.254048 0.053187 -0.027893 876400.000000 0 0 1
-9.205822 23.058377 8.256671 26.165025 -1.190945 1.249748 0.064520 -0.035757 450268.000000 0 0 1
-8.129822 22.879477 9.168471 25.954294 -1.229379 1.209749 0.073731 -0.030510 40985.100000 0 0 1
-8.411722 22.623777 10.683171 26.395502 -1.214826 1.154108 0.055866 -0.029456 38001.100000 0 0 1
-9.109922 21.377377 10.950271 25.688351 -1.167954 1.130427 0.057860 -0.026985 257897.000000 0 0 1
-8.951922 20.898177 12.287171 25.842703 -1.166084 1.075309 0.041004 -0.015443 -10226.100000 0 0 1
-9.966622 19.786177 12.702071 25.537599 -1.104180 1.050212 0.038944 -0.015421 52269.900000 0 0 1
-9.887022 18.547277 12.000071 24.202405 -1.081043 1.052016 0.057029 -0.027426 -541331.000000 0 1 0
-10.713522 17.596477 12.553571 24.124836 -1.023899 1.023525 0.053371 -0.024357 -545626.000000 0 1 0
-10.887322 16.431277 11.581571 22.861615 -0.985616 1.039566 0.054252 -0.030227 -264396.000000 0 1 0
-11.337522 15.293277 12.247571 22.636845 -0.932861 0.999116 0.045432 -0.024523 54605.200000 0 1 0
-11.694822 14.220077 11.363771 21.635960 -0.882536 1.017816 0.039041 -0.020794 36289.500000 0 1 0
-11.938222 12.879477 11.985471 21.261552 -0.823307 0.971919 0.023906 -0.024382 -207139.000000 0 1 0
-13.030622 12.873777 12.842771 22.371143 -0.779343 0.959319 0.029631 -0.022847 -449086.000000 0 1 0
-13.338322 11.593177 13.329971 22.135960 -0.715515 0.924560 0.017049 -0.015976 229974.000000 0 1 0
-14.167822 11.586577 14.642771 23.439000 -0.685506 0.896026 0.017469 -0.020041 584774.000000 0 1 0
-15.415022 12.251877 14.484671 24.444572 -0.671563 0.936574 0.037561 -0.027865 -42108.300000 0 1 0
-16.130622 12.332777 15.685771 25.658094 -0.652753 0.913046 0.034546 -0.021635 244685.000000 0 0 1
-17.238422 13.458277 15.739571 26.944805 -0.662870 0.946975 0.048622 -0.023210 459244.000000 0 0 1
-18.405222 13.113277 15.014171 27.131819 -0.619050 0.984381 0.042662 -0.027455 177685.000000 0 0 1
-19.219222 14.298977 14.807271 28.161934 -0.639646 1.017152 0.050851 -0.028259 -198361.000000 0 0 1
-20.315222 13.938777 13.844571 28.260749 -0.601353 1.058836 0.051365 -0.027693 -950722.000000 0 0 1
-21.249222 13.024077 14.312771 28.740415 -0.549866 1.049504 0.052753 -0.022958 810191.000000 0 0 1
-22.447222 12.927677 13.493171 29.207333 -0.522521 1.090571 0.043098 -0.022311 1275190.000000 0 0 1
-23.537222 11.989077 14.066371 29.926603 -0.471113 1.081473 0.065514 -0.029471 -78338.200000 0 0 1
-24.189422 12.381077 15.213871 31.142914 -0.473073 1.060406 0.075807 -0.027539 -19405.800000 0 0 1
-24.938422 11.330177 15.813271 31.628426 -0.426446 1.047232 0.071787 -0.034778 175341.000000 0 0 1
-25.852192 11.763377 16.988671 33.095737 -0.427024 1.031749 0.060086 -0.025619 366023.000000 0 0 1
-26.967972 12.584577 16.649771 34.100704 -0.436613 1.060710 0.059822 -0.014226 779584.000000 0 0 1
-27.704172 13.039177 17.807471 35.421001 -0.439899 1.044033 0.062400 0.008461 681583.000000 0 0 1
-28.849372 14.047277 17.514271 36.556285 -0.453127 1.071162 0.057747 0.008834 438924.000000 0 0 1
-28.346232 15.348177 17.186571 36.530174 -0.496258 1.080966 0.048452 0.008255 65277.400000 0 0 1
-29.384162 16.319177 17.164271 37.740651 -0.506959 1.098654 0.059213 0.004186 -216150.000000 0 0 1
-28.938792 17.692677 16.724071 37.817708 -0.548747 1.112714 0.065319 0.002590 -565182.000000 0 0 1
-28.103292 18.317677 17.671671 37.915963 -0.577638 1.085947 0.057410 0.007646 -474902.000000 0 0 1
-28.627402 18.715077 18.881371 39.067742 -0.579005 1.066378 0.081357 -0.002962 -1462670.000000 0 0 1
-27.629312 18.887177 20.012771 38.995068 -0.599629 1.031872 0.070356 -0.006399 -209419.000000 0 0 1
-27.162602 17.742777 20.696471 38.483204 -0.578626 1.002965 0.071503 -0.002050 -150386.000000 0 0 1
-26.418792 16.841377 19.929271 37.131663 -0.567521 1.004253 0.061465 0.005284 -778471.000000 0 0 1
-26.174602 15.520477 20.707771 36.807700 -0.535227 0.973277 0.055592 0.005608 -333117.000000 0 0 1
-27.327952 14.771277 20.990571 37.491488 -0.495535 0.976561 0.070262 -0.000299 -228664.000000 0 0 1
-27.073052 13.480777 21.459371 37.083502 -0.461999 0.953691 0.055857 0.005925 -93223.300000 0 0 1
-28.407982 12.754177 21.727971 37.970873 -0.421993 0.961577 0.054864 -0.004281 180265.000000 0 0 1
-29.119612 12.358077 20.574071 37.735478 -0.401354 0.994147 0.057904 -0.005266 102072.000000 0 0 1
-30.207762 11.488777 20.869671 38.471341 -0.363431 0.997418 0.103416 -0.007622 333417.000000 0 0 1
-31.246292 11.335677 19.705671 38.641193 -0.348019 1.035652 0.131998 -0.012108 -210236.000000 0 0 1
-30.851552 10.822577 18.436271 37.534551 -0.337383 1.057351 0.131118 -0.027096 215458.000000 0 0 1
-30.152732 9.565677 18.455171 36.623528 -0.307198 1.042670 0.130907 -0.026536 332577.000000 0 0 1
-29.304222 9.262077 17.157171 35.197898 -0.306131 1.061631 0.123446 -0.038438 224225.000000 0 0 1
-30.032342 9.059077 15.943571 35.188150 -0.292964 1.100562 0.132546 -0.038400 78579.100000 0 0 1
-30.468012 10.228177 15.275971 35.584697 -0.323881 1.127096 0.131052 -0.033569 -898351.000000 0 0 1
-29.463522 11.191777 14.692371 34.773852 -0.363018 1.134581 0.120171 -0.024266 -729966.000000 0 0 1
-28.965832 10.669077 13.510671 33.695502 -0.352913 1.158228 0.116046 -0.034516 -84477.300000 0 0 1
-27.730152 11.306677 13.249471 32.746767 -0.387160 1.154251 0.078921 -0.021624 -86927.300000 0 0 1
-27.198662 11.068877 11.839271 31.661579 -0.386495 1.187552 0.108184 -0.015589 -282786.000000 0 0 1
-26.600672 9.847777 11.457671 30.591710 -0.354563 1.186901 0.110095 -0.021196 717270.000000 0 0 1
-27.515092 8.741677 11.342771 31.018634 -0.307620 1.196437 0.129834 -0.018446 361008.000000 0 0 1
-26.925252 7.559877 10.485271 29.867404 -0.273725 1.212093 0.138408 -0.028384 100639.000000 0 0 1
-26.718912 7.860977 9.081871 29.294634 -0.286137 1.255584 0.137121 -0.018987 132027.000000 0 0 1
-26.088762 6.813277 8.419371 28.247656 -0.255452 1.268141 0.152661 -0.039555 -369508.000000 0 0 1
-25.530232 7.171677 7.023671 27.432784 -0.273852 1.311881 0.131172 -0.021997 -303438.000000 0 0 1
-26.453852 7.652377 6.060371 28.197398 -0.281586 1.354180 0.129851 -0.021759 -126772.000000 0 0 1
-25.795652 8.220877 4.970671 27.526461 -0.308516 1.389222 0.121155 -0.018550 -922.378000 0 0 1
-26.733122 8.625677 3.782171 28.343728 -0.312113 1.436958 0.098276 -0.010851 55422.900000 0 0 1
-27.395342 7.679077 2.959971 28.604797 -0.273292 1.467133 0.120951 -0.024625 268139.000000 0 0 1
-26.701332 6.457277 2.595971 27.593416 -0.237278 1.476578 0.132146 -0.027081 112970.000000 0 0 1
-25.683562 6.572977 1.400771 26.548287 -0.250544 1.518009 0.140786 -0.022628 -113009.000000 0 0 1
-24.535522 7.273977 1.777971 25.652754 -0.288213 1.501432 0.121206 -0.014054 62189.800000 0 0 1
-23.697722 7.471077 0.623171 24.855329 -0.305402 1.545722 0.138947 -0.007266 557100.000000 0 1 0
-22.372022 8.235577 0.915171 23.857276 -0.352725 1.532427 0.112148 -0.006940 528888.000000 0 1 0
-22.741622 9.537277 1.273271 24.693364 -0.397097 1.519210 0.099835 -0.006852 456828.000000 0 1 0
-21.575822 10.150677 1.720571 23.906332 -0.439742 1.498763 0.107703 -0.009802 -176642.000000 0 1 0
-21.943422 11.545677 2.397971 24.911176 -0.484353 1.474386 0.101663 -0.014018 -212366.000000 0 1 0
-20.863522 12.201477 2.980471 24.352532 -0.529186 1.448100 0.098388 -0.017207 -92834.800000 0 1 0
-21.315622 13.419177 3.506671 25.430824 -0.561862 1.432465 0.090132 -0.028178 684105.000000 0 0 1
-20.081322 14.235777 4.099271 24.954376 -0.616678 1.405778 0.054038 -0.017326 1115790.000000 0 1 0
-19.485022 13.440577 5.120671 24.218515 -0.603841 1.357752 0.050861 -0.024901 73433.200000 0 1 0
-18.872322 14.187177 6.186171 24.407156 -0.644617 1.314544 0.053060 -0.023007 119367.000000 0 1 0
-18.225422 13.206177 7.199671 23.630582 -0.627047 1.261198 0.039041 -0.030251 -575340.000000 0 1 0
-17.133822 12.495877 6.721771 22.246281 -0.630128 1.263846 0.038810 -0.018208 -187664.000000 0 1 0
-16.455422 12.046077 7.903971 21.871480 -0.631909 1.201046 0.023357 -0.013300 -257404.000000 0 1 0
11.119878 -32.445364 -13.631929 36.907761 -1.240616 1.949107 0.056735 -0.017505 395078.000000 0 0 1
12.400678 -32.512164 -12.997929 37.145171 -1.206412 1.928285 0.029673 -0.016896 458818.000000 0 0 1
13.196578 -31.433464 -13.406829 36.632709 -1.173316 1.945482 0.020792 -0.029060 -376778.000000 0 0 1
14.569978 -31.360364 -12.738329 36.851346 -1.135869 1.923747 0.058176 -0.021672 -339875.000000 0 0 1
15.497878 -32.336264 -13.135329 38.188415 -1.123868 1.921928 0.048415 -0.018661 -23158.100000 0 0 1
16.840678 -31.912164 -12.971529 38.343907 -1.085220 1.915900 0.069432 -0.013870 -2083.230000 0 0 1
17.799178 -32.900064 -13.596929 39.800771 -1.074883 1.919441 0.053608 -0.018258 -387128.000000 0 0 1
17.787978 -34.106164 -12.912629 40.575591 -1.090060 1.894665 0.054238 -0.017230 -326735.000000 0 0 1
18.364478 33.038977 -13.611729 40.175954 1.063478 1.916441 0.037393 -0.000336 -33107.100000 0 0 1
18.424878 31.668577 -12.897129 38.842127 1.043864 1.909261 0.034317 -0.011298 317048.000000 0 0 1
19.413078 31.519777 -11.876429 38.876902 1.018767 1.881247 0.031834 -0.017358 37726.300000 0 0 1
19.141678 30.461977 -11.030529 37.629888 1.009771 1.868298 0.036495 -0.017251 37795.300000 0 0 1
20.193978 30.298677 -9.918529 37.738360 0.982911 1.836744 0.039656 -0.010620 -550167.000000 0 0 1
21.459578 29.933277 -10.330329 38.252193 0.948809 1.844250 0.030756 -0.008954 -1008330.000000 0 0 1
22.266778 29.599277 -9.248229 38.176647 0.925841 1.815479 0.027111 0.000375 -801308.000000 0 0 1
23.519478 28.848877 -9.680529 38.459540 0.886817 1.825240 -0.000522 0.008898 36421.400000 0 0 1
24.472978 29.729677 -10.340129 39.871025 0.882078 1.833134 0.001500 -0.001154 58823.500000 0 0 1
25.743678 29.166977 -10.200329 40.218108 0.847661 1.827223 -0.002209 0.011248 -502297.000000 0 0 1
26.837578 29.760977 -11.097929 41.582874 0.837004 1.840958 0.005063 0.000752 -307446.000000 0 0 1
27.310978 31.002177 -10.652629 42.667353 0.848613 1.823133 0.003027 -0.015985 1048.710000 0 0 1
28.361078 31.442577 -11.488729 43.874563 0.836880 1.835739 0.010437 -0.007885 147298.000000 0 0 1
28.709578 32.920877 -11.156629 45.083194 0.853624 1.820862 0.015682 -0.015964 -445913.000000 0 0 1
27.750178 33.780477 -11.705929 45.257285 0.883091 1.832424 0.027895 -0.010903 123449.000000 0 0 1
28.219478 -33.115064 -11.457529 44.991348 -0.865047 1.828293 0.044494 -0.011122 383308.000000 0 0 1
27.118278 -32.118664 -11.896129 43.686696 -0.869612 1.846585 0.035669 -0.014679 1080410.000000 0 0 1
25.995178 -32.166564 -10.973229 42.788420 -0.891110 1.830147 0.031867 -0.007288 943302.000000 0 0 1
24.889478 -31.307064 -11.287529 41.557510 -0.899105 1.845864 0.039536 -0.011126 555606.000000 0 0 1
25.050178 -29.784564 -10.915529 40.420050 -0.871524 1.844244 0.059295 -0.030234 -712908.000000 0 0 1
26.052078 -29.170564 -11.698529 40.822642 -0.841809 1.861441 0.047273 -0.016924 59831.100000 0 0 1
26.648478 -28.114864 -10.971729 40.261219 -0.812169 1.846801 0.043911 -0.015932 -96113.800000 0 0 1
27.612178 -27.106564 -11.715929 40.428470 -0.776158 1.864808 0.051122 -0.007491 995707.000000 0 0 1
28.866878 -27.706264 -12.072829 41.793383 -0.764886 1.863842 0.036755 0.003262 609792.000000 0 0 1
28.757878 -28.554164 -13.187929 42.617805 -0.781844 1.885407 0.045414 -0.009999 -119418.000000 0 0 1
30.139978 -29.169764 -13.605229 44.095302 -0.769041 1.884456 0.053438 -0.000560 677981.000000 0 0 1
30.485378 -30.240264 -12.749829 44.792745 -0.781362 1.859428 0.054251 -0.010037 740223.000000 0 0 1
31.707278 -30.877864 -13.179929 46.179048 -0.772146 1.860230 0.058754 -0.011552 757369.000000 0 0 1
32.071978 -32.224664 -12.455429 47.139988 -0.787773 1.838194 0.054599 -0.008253 166208.000000 0 0 1
33.292478 -32.767064 -12.937329 48.471064 -0.777445 1.840980 0.046220 -0.013318 298946.000000 0 0 1
34.048378 -33.583164 -12.039829 49.316107 -0.778520 1.817425 0.050778 -0.014481 15522.500000 0 0 1
33.425478 33.368477 -11.524129 48.616082 0.784545 1.810118 0.041843 -0.019323 -96981.600000 0 0 1
32.339678 33.647377 -10.646029 47.867930 0.805213 1.795076 0.037619 -0.023436 110790.000000 0 0 1
31.981178 32.475977 -9.901629 46.642546 0.793074 1.784712 0.039100 -0.022558 -241041.000000 0 0 1
31.356378 32.806277 -8.503029 46.171157 0.807992 1.756017 0.022199 -0.019687 880153.000000 0 0 1
30.096778 33.502277 -8.527729 45.836021 0.838893 1.757935 0.019092 -0.018747 375898.000000 0 0 1
29.624378 33.895777 -7.253329 45.597569 0.852542 1.730548 0.017446 -0.014573 691759.000000 0 0 1
28.413278 -33.341964 -7.317729 44.413400 -0.865039 1.736315 0.022495 -0.019693 -56758.400000 0 0 1
28.817678 -32.019064 -7.538229 43.732184 -0.837972 1.744034 0.010983 -0.029670 -248308.000000 0 0 1
27.832178 -31.107964 -7.915629 42.485206 -0.840919 1.758206 0.006464 -0.014545 -548603.000000 0 0 1
26.980378 -30.450664 -6.851829 41.256894 -0.845750 1.737647 0.020603 -0.015043 140088.000000 0 0 1
26.177178 -29.440864 -7.492229 40.101653 -0.844011 1.758732 0.034817 -0.029252 -136238.000000 0 0 1
25.229978 -28.847864 -6.679129 38.901951 -0.852200 1.743343 0.034579 -0.031195 -715196.000000 0 0 1
24.292078 -27.906564 -7.403329 37.731825 -0.854533 1.768287 0.068879 -0.039838 -906315.000000 0 0 1
23.421278 -28.579564 -8.242329 37.858734 -0.884271 1.790267 0.086722 -0.037125 239615.000000 0 0 1
22.608778 -27.682764 -9.035229 36.866348 -0.885949 1.818399 0.100260 -0.037666 238407.000000 0 0 1
21.531978 -28.368264 -9.928329 36.972370 -0.921550 1.842667 0.087321 -0.028272 -284808.000000 0 0 1
21.983678 -29.181764 -10.992229 38.153460 -0.925163 1.863044 0.094020 -0.027727 -459516.000000 0 0 1
21.009978 -29.843764 -11.751929 38.342890 -0.957392 1.882306 0.077333 -0.017396 -305271.000000 0 0 1
20.378678 -31.085264 -11.111329 38.794919 -0.990513 1.861276 0.071256 -0.018065 -421700.000000 0 0 1
21.261278 -32.158764 -11.102429 40.118474 -0.986633 1.851197 0.056656 -0.013750 -462021.000000 0 0 1
20.857178 -33.358064 -10.450729 40.706265 -1.012016 1.830439 0.052681 -0.019082 172731.000000 0 0 1
22.023878 33.841877 -10.434229 41.703681 0.993868 1.823682 0.025314 -0.014117 -127251.000000 0 0 1
23.113378 -34.068364 -9.636729 42.281771 -0.974686 1.800734 0.018751 -0.005654 -1015610.000000 0 0 1
24.137178 33.247377 -9.915629 42.264774 0.942841 1.807611 0.017296 -0.010350 -328414.000000 0 0 1
25.475278 33.593877 -9.218329 43.156876 0.921985 1.786055 0.015701 -0.011111 -300999.000000 0 0 1
25.597778 33.239477 -7.808229 42.674085 0.914554 1.754807 0.007835 -0.020220 66860.600000 0 0 1
26.027678 31.917677 -7.620829 41.883830 0.886698 1.753767 0.005357 0.002565 -389299.000000 0 0 1
25.883278 31.444877 -6.206129 41.197578 0.882109 1.722015 0.006110 -0.001394 -323923.000000 0 0 1
26.776878 32.036677 -5.264529 42.084025 0.874593 1.696221 0.007924 -0.009247 612237.000000 0 0 1
27.831178 31.115277 -4.890729 42.031586 0.841054 1.687419 0.012711 -0.014296 282823.000000 0 0 1
27.522078 30.018877 -3.817729 40.904435 0.828763 1.664265 0.025225 -0.002897 -541194.000000 0 0 1
27.259478 30.517377 -2.519029 40.996768 0.841726 1.632280 0.034114 -0.003365 -36810.500000 0 0 1
27.164778 29.495977 -1.537929 40.128582 0.826518 1.609131 0.034934 -0.000038 -9896.950000 0 0 1
25.825278 28.718477 -1.532029 38.652853 0.838392 1.610442 0.031742 0.009399 226502.000000 0 0 1
24.693078 29.401077 -1.042329 38.409086 0.872213 1.597937 0.034311 0.009629 216665.000000 0 0 1
23.433378 28.830977 -1.367929 37.178215 0.888308 1.607598 0.040587 0.011840 -101168.000000 0 0 1
22.326778 29.475777 -0.593029 36.981863 0.922537 1.586833 0.042416 0.005195 -687509.000000 0 0 1
22.205278 29.063377 0.725571 36.582520 0.918377 1.550961 0.048714 -0.006470 14004.000000 0 0 1
21.273578 29.873577 1.447771 36.702749 0.951982 1.531340 0.035934 -0.003457 245806.000000 0 0 1
20.503178 29.013177 2.522571 35.616122 0.955598 1.499910 0.055262 -0.020436 -175345.000000 0 0 1
19.714678 28.041977 1.847871 34.328351 0.958032 1.516941 0.079811 -0.017878 225873.000000 0 0 1
18.898278 27.367177 2.815271 33.377134 0.966444 1.486349 0.093262 -0.023289 -83963.500000 0 0 1
18.277578 26.160077 2.087071 31.980860 0.960955 1.505490 0.093828 -0.010574 -187707.000000 0 0 1
19.089078 25.051277 1.661871 31.539201 0.919659 1.518080 0.092406 -0.022485 131409.000000 0 0 1
19.590978 24.300677 2.787171 31.338438 0.892292 1.481741 0.097695 -0.014505 -59906.400000 0 0 1
20.850378 23.484877 2.453271 31.500735 0.844751 1.492838 0.099662 -0.016318 -78171.400000 0 0 1
20.543778 22.484377 1.488971 30.492804 0.830468 1.521947 0.094946 -0.012626 500234.000000 0 0 1
21.741478 21.808577 1.144171 30.815825 0.786939 1.533658 0.062064 -0.010004 216696.000000 0 0 1
21.584578 20.756777 0.007271 29.945582 0.765850 1.570554 0.087164 -0.014469 -160677.000000 0 0 1
21.297278 21.275477 -1.265229 30.130065 0.784886 1.612801 0.072148 -0.007326 300735.000000 0 0 1
21.446478 20.277677 -2.201729 29.597014 0.757393 1.645255 0.101938 -0.014085 83763.700000 0 0 1
21.249578 20.801977 -3.633329 29.957769 0.774754 1.692377 0.082951 -0.010027 -556923.000000 0 0 1
22.256778 21.707377 -3.963129 31.341359 0.772902 1.697586 0.079037 -0.003565 -91366.300000 0 0 1
21.975678 22.568977 -5.060429 31.904500 0.798717 1.730081 0.061843 -0.005265 -147490.000000 0 0 1
23.098378 23.635177 -5.259329 33.463670 0.796884 1.728616 0.049169 0.005293 105352.000000 0 0 1
23.106678 24.818777 -4.464029 34.202600 0.821107 1.701687 0.042418 0.009674 87206.700000 0 0 1
23.441578 24.638277 -3.096429 34.148795 0.810283 1.661596 0.049562 0.004602 -410275.000000 0 0 1
22.240878 24.483377 -2.158629 33.147430 0.833356 1.635964 0.055222 -0.006305 -1908140.000000 0 0 1
21.429878 25.615277 -1.974829 33.455673 0.874130 1.629859 0.060608 -0.001982 263085.000000 0 0 1
20.310978 25.433077 -1.142429 32.568119 0.896907 1.605882 0.059719 0.000432 -18038.800000 0 0 1
19.314878 24.322577 -1.557029 31.097856 0.899655 1.620886 0.084759 -0.016642 -1918680.000000 0 0 1
18.709678 24.548677 -2.802829 30.992668 0.919567 1.661355 0.074208 -0.016149 -90805.300000 0 0 1
18.315678 23.374077 -3.362429 29.885071 0.906142 1.683547 0.086490 -0.026667 -91088.500000 0 0 1
17.602678 23.733577 -4.702729 29.920773 0.932642 1.728623 0.078200 -0.027807 114709.000000 0 0 1
16.943478 22.676477 -5.432529 28.823887 0.929101 1.760404 0.080392 -0.031729 295924.000000 0 0 1
16.612678 23.238777 -6.681629 29.337110 0.950161 1.800566 0.072412 -0.027340 -99594.000000 0 0 1
15.798078 22.329777 -7.602329 28.390027 0.955062 1.841886 0.097986 -0.032730 -161843.000000 0 0 1
16.483578 21.139077 -7.963129 27.963912 0.908514 1.859557 0.072482 -0.027828 406037.000000 0 0 1
15.604578 20.240577 -8.615829 26.970657 0.914018 1.895947 0.089276 -0.031013 -144484.000000 0 0 1
16.277978 18.897277 -8.883429 26.476310 0.859725 1.912957 0.076750 -0.025857 -200299.000000 0 0 1
17.349978 18.948977 -9.790829 27.494469 0.829421 1.934889 0.087908 -0.026126 73989.000000 0 0 1
17.956778 17.683177 -9.947329 27.094095 0.777722 1.946729 0.084850 -0.025088 -981172.000000 0 0 1
19.385178 17.722777 -10.429229 28.260410 0.740629 1.948772 0.068360 -0.017750 -1195000.000000 0 0 1
19.570478 18.042677 -11.744329 29.094176 0.744802 1.986317 0.069116 -0.018152 50457.100000 0 0 1
20.817478 18.640977 -12.031529 30.423858 0.730295 1.977369 0.061613 -0.004371 -7579.760000 0 0 1
20.871078 18.998777 -13.510829 31.290541 0.738472 2.017269 0.060210 -0.012147 -129945.000000 0 0 1
21.122278 17.905277 -14.322229 31.174923 0.703155 2.048133 0.046736 -0.009295 185193.000000 0 0 1
21.282378 18.309777 -15.663429 32.148570 0.710458 2.079700 0.044530 -0.007549 46418.400000 0 0 1
21.188278 17.146377 -16.687929 31.959793 0.680349 2.120171 0.050538 -0.003436 -439661.000000 0 0 1
22.282378 16.282177 -16.570829 32.190154 0.631047 2.111547 0.055072 -0.007495 -165628.000000 0 0 1
22.399278 15.253977 -17.582029 32.303858 0.597862 2.146315 0.071589 -0.015557 -20800.600000 0 0 1
23.145878 15.713877 -18.873829 33.747282 0.596428 2.164301 0.071764 -0.018694 212836.000000 0 0 1
24.553078 15.892177 -18.751829 34.742568 0.574445 2.140920 0.082985 -0.012033 432609.000000 0 0 1
25.175478 16.328777 -19.922729 36.018728 0.575389 2.156903 0.107877 -0.016988 313141.000000 0 0 1
26.688578 16.590777 -19.652029 37.063949 0.556182 2.129656 0.093978 -0.019323 389842.000000 0 0 1
26.890878 17.651577 -18.736529 37.225731 0.580872 2.098235 0.071890 -0.011501 11799.000000 0 0 1
28.261878 17.979277 -18.647529 38.336908 0.566589 2.078775 0.061221 -0.021598 41256.900000 0 0 1
28.506778 19.141777 -17.625729 38.596766 0.591329 2.045037 0.059139 -0.016682 -161332.000000 0 0 1
28.161278 18.891877 -16.311729 37.630215 0.590890 2.019141 0.068664 -0.016240 -163328.000000 0 0 1
26.872778 19.393977 -16.085629 36.837753 0.625139 2.022681 0.063556 -0.008621 -92198.300000 0 0 1
25.966178 18.767277 -14.980129 35.367462 0.625837 2.008164 0.065849 -0.002896 363147.000000 0 0 1
26.423878 18.983477 -13.617829 35.270937 0.622983 1.967188 0.066834 -0.009084 113049.000000 0 0 1
25.412078 18.736877 -12.665729 34.018597 0.635338 1.952301 0.068532 -0.016630 53564.400000 0 0 1
25.728978 19.287877 -11.238629 34.063313 0.643281 1.907029 0.073048 -0.015775 -98361.600000 0 0 1
25.666578 20.696577 -11.212329 34.825822 0.678609 1.898589 0.067222 -0.006916 36123.200000 0 0 1
26.100678 21.351977 -9.982729 35.168270 0.685658 1.858610 0.056613 -0.004526 38045.100000 0 0 1
25.182478 21.214977 -8.773229 34.076414 0.700095 1.831186 0.070354 -0.011111 -745738.000000 0 0 1
25.451178 19.997177 -8.096529 33.364702 0.665965 1.815911 0.087861 -0.021814 401060.000000 0 0 1
24.705678 19.781877 -6.888529 32.390508 0.675169 1.785104 0.084672 -0.019674 778949.000000 0 0 1
23.166178 19.527377 -7.012229 31.099222 0.700373 1.798231 0.088377 -0.020884 278090.000000 0 0 1
22.433778 20.614377 -7.547329 31.387723 0.743159 1.813631 0.072224 -0.016035 300325.000000 0 0 1
21.201778 20.109877 -8.090329 30.321213 0.758974 1.840889 0.062918 -0.016565 454085.000000 0 0 1
20.137378 21.207177 -8.265129 30.390306 0.811268 1.846232 0.058082 -0.016066 -377284.000000 0 0 1
20.556178 22.183977 -9.200729 31.612319 0.823466 1.866119 0.062156 -0.019978 343478.000000 0 0 1
19.863578 22.070377 -10.451929 31.478661 0.837975 1.909253 0.067304 -0.006447 542036.000000 0 0 1
18.367678 22.486077 -10.499429 30.874476 0.885867 1.917786 0.069148 -0.016460 -141329.000000 0 0 1
18.109378 23.838777 -10.268229 31.649224 0.921141 1.901214 0.081857 -0.029073 -915133.000000 0 0 1
16.767778 24.133177 -10.379329 31.165672 0.963568 1.910319 0.093958 -0.026855 -824914.000000 0 0 1
16.471678 25.545377 -9.830629 31.945637 0.998085 1.883603 0.089602 -0.026101 118812.000000 0 0 1
17.237178 26.531677 -10.487929 33.332370 0.994644 1.890881 0.103637 -0.020506 122819.000000 0 0 1
17.185578 27.703677 -9.718129 34.018816 1.015558 1.860501 0.101505 -0.036197 48219.300000 0 0 1
20.628578 28.922377 33.524516 48.846037 0.951240 0.814365 0.057344 -0.006799 89988.100000 0 0 1
19.242478 29.115777 33.685875 48.505048 0.986800 0.803097 0.085168 -0.022565 -447559.000000 0 0 1
18.623478 27.880077 33.431264 47.347461 0.981881 0.786844 0.075320 -0.020056 705194.000000 0 0 1
17.061378 27.944077 33.620305 46.928531 1.022652 0.772146 0.116152 -0.028197 917260.000000 0 0 1
16.420478 28.711677 32.581570 46.427914 1.051288 0.792922 0.104561 -0.023986 -946751.000000 0 0 1
15.176478 29.090677 33.047991 46.569977 1.089943 0.781807 0.137560 -0.034252 -1161680.000000 0 0 1
14.252178 29.591677 31.966484 45.832827 1.121954 0.798952 0.111517 -0.036897 -273736.000000 0 0 1
13.706678 28.506377 31.268104 44.476746 1.122603 0.791159 0.095413 -0.030584 -228518.000000 0 0 1
12.493478 28.759077 30.593434 43.807873 1.160975 0.797700 0.087013 0.001468 140089.000000 0 0 1
11.520378 27.547277 30.448264 42.645848 1.174696 0.775631 0.065558 -0.006354 -86066.500000 0 0 1
11.605678 26.480877 29.524054 41.323098 1.157743 0.774932 0.061911 -0.010300 -335171.000000 0 0 1
12.890278 25.937877 29.420174 41.285341 1.109578 0.777591 0.041767 -0.014509 -480205.000000 0 0 1
12.988478 25.047977 28.158034 39.861970 1.092424 0.786414 0.036239 -0.001409 -108372.000000 0 0 1
12.731878 25.694277 26.912544 39.326602 1.110744 0.817106 0.030203 -0.005849 160394.000000 0 0 1
13.014278 24.856377 25.775414 38.099644 1.088464 0.827761 0.026671 -0.009803 127595.000000 0 0 1
11.970878 23.734577 25.454404 36.804331 1.103663 0.807075 0.031047 -0.010275 -59277.600000 0 0 1
12.128378 23.150877 24.151044 35.585582 1.088224 0.824839 0.049110 -0.021319 370920.000000 0 0 1
11.036978 22.291777 23.823474 34.442650 1.111065 0.806976 0.068931 -0.026414 373861.000000 0 0 1
11.075478 21.851177 22.389064 33.187503 1.101676 0.830342 0.092561 -0.031159 -83156.800000 0 0 1
10.971878 22.912777 21.445364 33.245768 1.124208 0.869700 0.097830 -0.037511 110723.000000 0 0 1
10.830678 22.427077 20.117464 32.015461 1.120899 0.891344 0.104326 -0.027136 -292378.000000 0 0 1
10.390078 23.586977 19.164964 32.118454 1.155870 0.931418 0.088543 -0.025704 2135870.000000 0 0 1
8.986378 24.042977 19.111464 32.001060 1.213110 0.930774 0.089093 -0.026161 1822460.000000 0 0 1
8.481778 24.785077 20.203364 33.081967 1.241075 0.913844 0.079789 -0.028320 -474450.000000 0 0 1
7.103978 25.344477 19.869864 32.979092 1.297512 0.924168 0.085771 -0.030368 -248077.000000 0 0 1
7.206578 26.254177 18.816464 33.094953 1.302902 0.966042 0.083137 -0.035677 1372.930000 0 0 1
5.923578 26.739977 18.507664 33.055239 1.352792 0.976530 0.078224 -0.039054 -98735.100000 0 0 1
6.076478 27.909877 17.540664 33.519543 1.356424 1.020081 0.086337 -0.032244 91049.000000 0 0 1
6.324778 27.470177 16.256764 32.540680 1.344498 1.047679 0.075268 -0.027365 280322.000000 0 0 1
6.981178 28.502777 15.460164 33.168688 1.330595 1.085911 0.068319 -0.027226 420861.000000 0 0 1
7.568378 28.003377 14.104764 32.255447 1.306836 1.118221 0.062965 -0.029669 -136104.000000 0 0 1
6.596878 27.710277 13.141264 31.369907 1.337081 1.138548 0.060877 -0.032127 -390205.000000 0 0 1
6.720578 26.454377 12.429864 29.991695 1.322015 1.143465 0.044162 -0.032788 -276222.000000 0 0 1
6.076078 26.501877 11.038664 29.344852 1.345422 1.185137 0.041320 -0.034140 1578.490000 0 0 1
6.749978 27.279477 10.032364 29.839243 1.328230 1.227903 0.034365 -0.030814 269635.000000 0 0 1
6.746778 28.699677 10.313064 31.233792 1.339907 1.234292 0.037221 -0.022990 -54512.100000 0 0 1
6.832478 29.617477 9.054064 31.715198 1.344072 1.281289 0.043058 -0.009746 -1043830.000000 0 0 1
5.653878 29.581777 8.367264 31.257943 1.381947 1.299807 0.020541 -0.011438 -1276680.000000 0 0 1
5.678878 28.700477 7.282864 30.149746 1.375453 1.326827 0.008120 -0.009584 255489.000000 0 0 1
4.243178 28.371677 6.771564 29.475595 1.422340 1.338991 0.024217 -0.007020 547498.000000 0 0 1
3.545878 29.484477 6.172664 30.331657 1.451109 1.365859 0.046158 -0.014875 -812.611000 0 0 1
2.269978 28.999677 5.789964 29.659025 1.492680 1.374317 0.028984 -0.011034 75433.300000 0 0 1
1.476578 30.109177 5.055864 30.566397 1.521795 1.404627 0.035010 -0.017390 -451556.000000 0 0 1
1.889278 30.242177 3.740564 30.531140 1.508406 1.447971 0.042142 -0.014710 -5013.180000 0 0 1
0.894878 30.755277 2.902364 30.904880 1.541708 1.476745 0.045608 -0.022553 81319.500000 0 0 1
-0.161722 29.796677 2.285164 29.884613 -1.565369 1.494255 0.051458 -0.022815 -223334.000000 0 0 1
0.347978 28.871177 1.368964 28.905709 1.558744 1.523419 0.058436 -0.017698 -299572.000000 0 0 1
-0.582322 27.926377 0.876764 27.946205 -1.549947 1.539418 0.057176 -0.019871 -124873.000000 0 0 1
-1.018222 28.079577 -0.543736 28.103293 -1.534550 1.590145 0.045576 -0.018814 -130395.000000 0 0 1
-1.967322 29.102877 -0.759836 29.179191 -1.503300 1.596840 0.045766 -0.020838 3579.940000 0 0 1
-1.543122 29.918877 -1.811836 30.013384 -1.519265 1.631201 0.049811 -0.017531 -28465.300000 0 0 1
-2.574822 31.034977 -2.217136 31.220430 -1.488021 1.641872 0.054993 -0.019434 1672620.000000 0 0 1
-3.829222 30.636477 -2.881436 31.009021 -1.446452 1.663853 0.028509 -0.022688 1392490.000000 0 0 1
-3.693922 29.805777 -4.052436 30.305967 -1.447492 1.704915 0.015733 -0.021564 -664418.000000 0 0 1
-4.997322 29.459377 -4.801936 30.263621 -1.402762 1.730140 0.024423 -0.015143 163620.000000 0 0 1
-5.634822 30.579277 -5.436336 31.565759 -1.388571 1.743882 0.027838 -0.022098 271250.000000 0 0 1
-6.445222 30.167477 -6.539136 31.533758 -1.360313 1.779681 0.027765 -0.014940 -6018.850000 0 0 1
-7.065222 31.449177 -7.152836 33.017135 -1.349810 1.789168 0.034146 -0.013036 -566464.000000 0 0 1
-7.977922 32.065477 -6.298336 33.637942 -1.326946 1.759147 0.032705 -0.011602 -95751.800000 0 0 1
-8.521422 33.308277 -6.834936 35.053849 -1.320334 1.767037 0.032639 -0.023343 -190386.000000 0 0 1
-9.660722 33.860077 -5.995536 35.718074 -1.292868 1.739452 0.035599 -0.032001 -245241.000000 0 0 1
-10.939222 33.331877 -6.271336 35.637204 -1.253681 1.747695 0.038648 -0.021242 178411.000000 0 0 1
-11.926722 -33.897464 -5.900136 36.415606 1.232477 1.733536 0.052499 -0.016517 221384.000000 0 0 1
-13.372822 33.887077 -6.157136 36.946944 -1.194929 1.738226 0.057789 -0.014397 -249800.000000 0 0 1
-13.646222 33.687977 -7.505736 37.113815 -1.185921 1.774437 0.061763 -0.019191 489655.000000 0 0 1
-15.061722 33.506477 -7.614036 37.516837 -1.148344 1.775166 0.067246 -0.022407 186051.000000 0 0 1
-15.486322 33.690077 -9.092136 38.177407 -1.139930 1.811262 0.097070 -0.030503 777462.000000 0 0 1
-16.857322 33.414877 -9.388836 38.585925 -1.103567 1.816586 0.123481 -0.033235 710920.000000 0 0 1
-17.847622 -33.819164 -9.160736 39.321655 1.085206 1.805926 0.123285 -0.037399 -564890.000000 0 0 1
-19.250022 33.769277 -9.364336 39.982724 -1.052694 1.807202 0.121900 -0.037814 -69300.800000 0 0 1
-19.733622 32.823177 -8.464836 39.222828 -1.029488 1.788322 0.098104 -0.031912 25950.700000 0 0 1
-19.957522 33.415277 -7.209036 39.583502 -1.032396 1.753941 0.070395 -0.015183 -757383.000000 0 0 1
-20.247922 32.333977 -6.094636 38.634298 -1.011326 1.729210 0.058324 -0.019845 -447642.000000 0 0 1
-20.058022 32.823477 -4.753236 38.759491 -1.022264 1.693740 0.069338 -0.024689 623047.000000 0 0 1
-21.224122 33.064377 -3.935936 39.486808 -1.000134 1.670639 0.071758 -0.026250 821766.000000 0 0 1
-21.958522 -33.771064 -4.205036 40.501157 0.994269 1.674809 0.090361 -0.035999 156941.000000 0 0 1
-22.572322 -33.729964 -5.489336 40.955500 0.981037 1.705233 0.093188 -0.029178 -270553.000000 0 0 1
-23.388822 -32.622964 -5.567636 40.525218 0.948789 1.708619 0.090323 -0.029885 -96628.400000 0 0 1
-24.311122 -32.571064 -6.807536 41.209797 0.929602 1.736749 0.095162 -0.025378 233783.000000 0 0 1
-23.504122 -32.288264 -7.938236 40.718439 0.941560 1.767007 0.117589 -0.029010 579566.000000 0 0 1
-24.173622 -32.608864 -9.169236 41.614623 0.932873 1.792956 0.084348 -0.019746 523399.000000 0 0 1
-25.381042 -31.812064 -9.718036 41.840709 0.897372 1.805200 0.059909 -0.013664 -740086.000000 0 0 1
-26.624332 -32.093064 -9.179036 42.697476 0.878267 1.787466 0.067982 -0.013744 -566482.000000 0 0 1
-27.705402 -31.416064 -9.799336 43.018430 0.848079 1.800608 0.014417 -0.009599 182335.000000 0 0 1
-27.852622 -29.835564 -9.782836 41.971815 0.819758 1.806041 -0.002149 -0.002472 -1072050.000000 0 0 1
-26.826372 -29.135064 -10.423436 40.953073 0.826630 1.828149 0.006656 0.006572 -229001.000000 0 0 1
-27.109422 -29.036864 -11.811236 41.443522 0.819714 1.859799 -0.000712 0.001065 302969.000000 0 0 1
-25.960472 -28.361464 -12.634636 40.471629 0.829569 1.888288 0.029511 0.005346 576710.000000 0 0 1
-24.716422 -29.050464 -12.581136 40.163615 0.865832 1.889407 0.044768 -0.000686 -481059.000000 0 0 1
-23.832022 -28.541964 -13.472736 39.549002 0.875086 1.918414 0.050275 -0.002471 -219570.000000 0 0 1
-22.582822 -29.476964 -13.712836 39.584304 0.917059 1.924550 0.069288 -0.016374 350789.000000 0 0 1
-22.728722 -30.771164 -14.328136 40.850395 0.934607 1.929165 0.079876 -0.014935 -312662.000000 0 0 1
-23.389722 -31.722964 -13.551536 41.678167 0.935465 1.901964 0.067550 -0.012029 -132708.000000 0 0 1
-23.604322 -32.988064 -14.417536 43.049294 0.949716 1.912303 0.079978 -0.020599 -193937.000000 0 0 1
-24.193422 -33.995064 -13.650536 43.901289 0.952278 1.886975 0.058025 -0.023865 -164696.000000 0 0 1
-24.294122 33.023877 -14.360436 43.439647 -0.936541 1.907718 0.065709 -0.030356 28794.200000 0 0 1
-24.962322 31.921277 -13.476836 42.704924 -0.907130 1.891865 0.046923 -0.021318 50023.000000 0 0 1
-24.191322 31.369777 -12.388836 41.506219 -0.913886 1.873897 0.067000 -0.018410 329195.000000 0 0 1
-23.788822 32.312477 -11.343336 41.697428 -0.936178 1.846308 0.079576 -0.023494 94965.100000 0 0 1
-22.979222 31.736277 -10.153936 40.476393 -0.944099 1.824366 0.078352 -0.023646 -117189.000000 0 0 1
-23.558322 30.677277 -9.420136 39.809909 -0.915912 1.809690 0.064200 -0.012909 -70859.800000 0 0 1
-22.747622 30.344577 -8.295636 38.820938 -0.927523 1.786147 0.060349 -0.009029 -58304.700000 0 0 1
-23.467922 29.334477 -7.416236 38.291715 -0.896048 1.765705 0.058567 -0.012289 -259156.000000 0 0 1
-23.582822 28.178277 -8.200036 37.648445 -0.873948 1.790362 0.051828 -0.005226 136267.000000 0 0 1
-23.997022 26.991877 -7.536236 36.894625 -0.844066 1.776508 0.048480 -0.014253 286958.000000 0 0 1
-22.897622 26.327877 -6.625736 35.515611 -0.854970 1.758454 0.057445 -0.016624 165091.000000 0 0 1
-22.760422 26.930077 -5.368036 35.666254 -0.869115 1.721878 0.067935 -0.015239 -63483.900000 0 0 1
-21.672522 26.503477 -4.567836 34.539798 -0.885341 1.703433 0.064553 -0.015781 -253986.000000 0 0 1
-20.532522 27.523377 -4.736036 34.663393 -0.929858 1.707854 0.050510 -0.018053 -300245.000000 0 0 1
-19.769122 27.331277 -5.938436 34.250284 -0.944594 1.745061 0.047270 -0.014633 522204.000000 0 0 1
-18.535222 28.056777 -5.827836 34.127714 -0.986983 1.742403 0.055960 -0.016044 590947.000000 0 0 1
-17.578722 27.815677 -7.027536 33.646837 -1.007199 1.781207 0.078909 -0.020730 -414573.000000 0 0 1
-17.769522 28.343177 -8.308836 34.469238 -1.010802 1.814245 0.081124 -0.022697 -134873.000000 0 0 1
-17.972022 29.733477 -8.364336 35.735632 -1.027121 1.807049 0.078106 -0.022302 -67251.800000 0 0 1
-18.271922 30.243977 -9.802636 36.669510 -1.027330 1.841411 0.090132 -0.024879 554936.000000 0 0 1
-17.008422 30.390477 -10.470536 36.366188 -1.060565 1.862850 0.097503 -0.029051 707029.000000 0 0 1
-17.035722 31.083377 -11.682836 37.321319 -1.069440 1.889182 0.109447 -0.036517 69080.700000 0 0 1
-15.604022 31.493277 -12.143936 37.185847 -1.110778 1.903473 0.111405 -0.037273 393410.000000 0 0 1
-15.320622 32.166077 -13.362736 38.051816 -1.126290 1.929619 0.111362 -0.041762 -223670.000000 0 0 1
-15.647622 31.302277 -14.499636 37.880339 -1.107239 1.963594 0.115652 -0.045664 2832.620000 0 0 1
-14.995022 31.761177 -15.846236 38.532146 -1.129702 1.994618 0.140887 -0.049681 -12306.000000 0 0 1
-13.658822 31.314677 -15.929636 37.695169 -1.159495 2.007098 0.131500 -0.061574 -352116.000000 0 0 1
-13.050922 32.019477 -16.988736 38.525195 -1.183761 2.027484 0.132180 -0.062190 119934.000000 0 0 1
-11.517722 31.806977 -17.085336 37.897895 -1.223371 2.038486 0.142715 -0.066237 172221.000000 0 0 1
-11.179122 30.528677 -17.637036 36.986997 -1.219777 2.067857 0.138864 -0.070311 -538827.000000 0 0 1
-9.869522 30.586977 -18.116336 36.894068 -1.258673 2.084076 0.120959 -0.063930 -456576.000000 0 0 1
-9.752922 30.613577 -19.629136 37.651210 -1.262381 2.119218 0.112926 -0.065723 -342994.000000 0 0 1
-10.115022 29.382177 -20.236436 37.082871 -1.239247 2.148031 0.108835 -0.067444 72011.700000 0 0 1
-10.062922 29.391177 -21.681936 37.884166 -1.240927 2.180131 0.079816 -0.065108 -1285250.000000 0 0 1
-11.402522 29.379877 -22.355236 38.638728 -1.200585 2.187772 0.092198 -0.053360 -1025680.000000 0 0 1
-12.130422 30.573377 -22.268936 39.721330 -1.193083 2.165942 0.112772 -0.052377 -523210.000000 0 0 1
-13.182022 30.492077 -21.343536 39.485175 -1.162751 2.141882 0.118036 -0.052652 -378759.000000 0 0 1
-14.096222 31.767877 -21.459736 40.846319 -1.153172 2.123955 0.141027 -0.052259 52718.000000 0 0 1
-14.787322 31.671377 -22.693136 41.673966 -1.133979 2.146637 0.105961 -0.043109 -312116.000000 0 0 1
-15.491722 32.868277 -22.950136 42.977039 -1.130349 2.134132 0.106028 -0.037135 369015.000000 0 0 1
-16.101322 32.913277 -24.393736 44.018073 -1.115822 2.158168 0.086851 -0.028632 883362.000000 0 0 1
-15.095422 33.142377 -25.410036 44.406743 -1.143401 2.179996 0.083448 -0.025503 587994.000000 0 0 1
-15.614222 32.977677 -26.738336 45.235713 -1.128590 2.203205 0.085724 -0.017811 324516.000000 0 0 1
-16.110622 -33.908164 -27.392436 46.472156 1.127246 2.201159 0.069893 -0.012714 384178.000000 0 0 1
-17.391822 -33.492664 -26.953536 46.375932 1.091850 2.190995 0.069661 -0.008245 -117079.000000 0 0 1
-17.771722 -32.303764 -27.633936 46.076042 1.067843 2.213980 0.050906 -0.003801 8915.700000 0 0 1
-19.238422 -31.839364 -27.536836 46.283251 1.027270 2.208016 0.048865 -0.013850 78034.500000 0 0 1
-20.123422 -32.830364 -28.027336 47.626846 1.020908 2.199971 0.045825 -0.014449 177039.000000 0 0 1
-21.470222 -32.412964 -27.736336 47.758507 0.985756 2.190461 0.039290 -0.012665 1415510.000000 0 0 1
-22.563622 -33.538264 -27.719336 49.013200 0.978579 2.171894 0.024063 -0.004357 480547.000000 0 0 1
-22.666622 33.916277 -26.527536 48.660043 -0.981656 2.147377 0.051007 -0.009154 3632.800000 0 0 1
-23.588722 32.792177 -26.635036 48.385740 -0.947208 2.153727 0.033108 -0.010891 522225.000000 0 0 1
-23.179922 31.470577 -27.368536 47.715226 -0.935953 2.181667 0.043567 -0.013630 231928.000000 0 0 1
-22.270022 30.661677 -26.659436 46.333766 -0.942627 2.183863 0.049877 -0.038368 85332.500000 0 0 1
-23.031322 29.803777 -25.824936 45.668745 -0.912884 2.171816 0.046337 -0.031523 235866.000000 0 0 1
31.692546 9.821977 -27.107569 42.845175 0.300528 2.255814 0.081692 -0.028264 -68184.800000 0 0 1
31.149916 8.509077 -26.903459 42.029962 0.266660 2.265427 0.076269 -0.017646 99659.700000 0 0 1
29.753246 8.436477 -26.734459 40.879837 0.276296 2.283625 0.083649 -0.019813 105406.000000 0 0 1
29.271026 7.046477 -26.214489 39.920486 0.236237 2.287188 0.070463 -0.012527 5604.210000 0 0 1
29.704206 6.717677 -24.901029 39.338636 0.222411 2.256208 0.059555 -0.003018 262165.000000 0 0 1
29.069686 5.513577 -24.530629 38.434332 0.187441 2.263016 0.052133 0.004765 58824.100000 0 0 1
29.114446 5.172577 -23.016229 37.472033 0.175829 2.232199 0.047096 0.002348 -475543.000000 0 0 1
30.372916 4.912377 -22.479229 38.104608 0.160347 2.201774 0.048766 -0.002600 -285417.000000 0 0 1
30.277406 4.600877 -21.096629 37.188131 0.150804 2.174013 0.047615 -0.003358 94159.500000 0 0 1
31.615416 4.383877 -20.333429 37.844434 0.137784 2.138017 0.035072 -0.005964 72344.600000 0 0 1
32.180756 3.091577 -20.373729 38.213188 0.095775 2.133127 0.042911 -0.004089 493775.000000 0 0 1
33.146036 2.888277 -19.351529 38.490044 0.086918 2.097593 0.044437 -0.007882 -14348.700000 0 0 1
33.810816 1.471177 -19.250729 38.934897 0.043485 2.087980 0.063635 -0.015127 -509838.000000 0 0 1
32.897396 0.446377 -18.975529 37.980371 0.013568 2.093950 0.060490 -0.014865 -400058.000000 0 0 1
33.387346 -0.869323 -18.806729 38.329670 -0.026032 2.083640 0.064380 -0.016082 -841176.000000 0 0 1
32.329506 -1.825223 -18.324429 37.206358 -0.056397 2.085765 0.041392 -0.011915 -343418.000000 0 0 1
32.144636 -1.852223 -16.922329 36.374078 -0.057558 2.054691 0.050908 -0.009095 491742.000000 0 0 1
30.788836 -1.527523 -16.596229 35.010292 -0.049572 2.064668 0.036746 -0.011727 487942.000000 0 0 1
30.349296 -1.921723 -15.142229 33.971457 -0.063236 2.032790 0.045983 -0.012052 -100546.000000 0 0 1
30.335596 -3.275223 -14.894929 33.953415 -0.107550 2.024934 0.042528 -0.018002 411673.000000 0 0 1
29.466616 -3.534623 -13.816229 32.736267 -0.119383 2.006498 0.044411 -0.015036 -179364.000000 0 0 1
29.342776 -5.045423 -13.474829 32.680664 -0.170283 1.995793 0.047029 -0.012124 -32124.000000 0 0 1
28.672166 -5.821823 -14.466429 32.638386 -0.200324 2.029999 0.038814 -0.017531 671063.000000 0 0 1
28.117046 -7.039923 -14.000429 32.189141 -0.245335 2.020771 0.036813 -0.018094 -318610.000000 0 0 1
27.520216 -7.924923 -15.102429 32.376690 -0.280381 2.056081 0.023459 -0.016788 128141.000000 0 0 1
26.243316 -7.446223 -15.515929 31.383147 -0.276471 2.087944 0.032396 -0.026215 164917.000000 0 0 1
25.679816 -8.384223 -16.390329 31.597326 -0.315580 2.116155 0.030222 -0.021973 -953258.000000 0 0 1
24.252916 -8.032323 -16.729529 30.538488 -0.319820 2.150550 0.039263 -0.025057 -1142430.000000 0 0 1
24.091016 -6.842123 -17.471429 30.535922 -0.276725 2.179933 0.042478 -0.026903 1106110.000000 0 0 1
22.718716 -6.661423 -17.905029 29.683407 -0.285219 2.218303 0.066277 -0.033423 1161400.000000 0 0 1
22.414816 -7.278523 -19.302729 30.463030 -0.313978 2.257051 0.053894 -0.026369 12634.600000 0 0 1
23.139416 -6.539723 -20.297029 31.466965 -0.275439 2.271854 0.047398 -0.025430 598439.000000 0 0 1
22.798916 -6.942923 -21.658129 32.203560 -0.295606 2.308430 0.065514 -0.029721 39844.200000 0 0 1
23.481516 -5.958023 -22.662029 33.172988 -0.248488 2.322860 0.054596 -0.027040 17704.600000 0 0 1
23.277716 -6.348223 -23.987529 34.022838 -0.266242 2.353279 0.065016 -0.028667 167484.000000 0 0 1
23.704316 -5.321223 -24.874129 34.769703 -0.220823 2.367988 0.071911 -0.027048 -157849.000000 0 0 1
23.739216 -5.696723 -26.364749 35.931922 -0.235518 2.394609 0.075511 -0.025137 395810.000000 0 0 1
22.455416 -5.960723 -26.944609 35.577912 -0.259463 2.430028 0.080681 -0.023551 408779.000000 0 0 1
22.559516 -6.372923 -28.313469 36.758651 -0.275320 2.450034 0.070677 -0.023562 121755.000000 0 0 1
21.344016 -7.177623 -28.828279 36.580800 -0.324403 2.478466 0.054414 -0.027476 3928.850000 0 0 1
21.129016 -8.444623 -28.278439 36.296240 -0.380221 2.464027 0.047398 -0.024260 192767.000000 0 0 1
20.279416 -9.220223 -29.104709 36.651757 -0.426722 2.488301 0.044263 -0.022614 -230238.000000 0 0 1
20.204916 -10.690923 -28.747649 36.728215 -0.486675 2.469809 0.061116 -0.018438 -681640.000000 0 0 1
19.285716 -11.019623 -27.745199 35.541060 -0.519115 2.466505 0.069350 -0.018474 -27839.600000 0 0 1
19.284616 -12.329023 -27.227109 35.569884 -0.568830 2.442543 0.071742 -0.020844 -382871.000000 0 0 1
19.088516 -13.518823 -28.191839 36.632087 -0.616220 2.449002 0.053310 -0.014429 28049.200000 0 0 1
17.801316 -13.698523 -28.756179 36.489097 -0.655879 2.478473 0.044568 -0.017420 464537.000000 0 0 1
17.877016 -14.812823 -29.669379 37.673325 -0.691936 2.477609 0.032390 -0.016702 232433.000000 0 0 1
16.630216 -15.063123 -30.590029 37.936942 -0.735993 2.508732 0.038504 -0.022226 67102.900000 0 0 1
15.532616 -15.616323 -29.914009 37.148077 -0.788085 2.506917 0.053047 -0.027660 -362338.000000 0 0 1
14.669316 -16.125623 -30.874139 37.794669 -0.832653 2.526797 0.058855 -0.032656 -360842.000000 0 0 1
13.388816 -16.746923 -30.268009 37.092751 -0.896373 2.525268 0.077551 -0.035858 350480.000000 0 0 1
13.799416 -17.973023 -29.622709 37.295553 -0.916010 2.488600 0.069314 -0.036454 498934.000000 0 0 1
13.010116 -18.113123 -28.453159 36.151495 -0.947913 2.476814 0.069650 -0.039745 -38066.600000 0 0 1
13.242416 -19.448623 -27.667939 36.319765 -0.973010 2.436864 0.074884 -0.035069 624846.000000 0 0 1
14.464716 -19.483523 -26.920949 36.243250 -0.932172 2.408017 0.065083 -0.030076 426551.000000 0 0 1
14.478916 -20.710423 -26.191229 36.394245 -0.960666 2.374099 0.047424 -0.018842 129330.000000 0 0 1
15.510016 -20.573923 -25.041329 35.929306 -0.924824 2.341947 0.049790 -0.010265 49461.400000 0 0 1
16.865616 -20.737123 -25.401739 36.874457 -0.887995 2.330727 0.045240 -0.009376 -86509.600000 0 0 1
17.633116 -20.702223 -24.230729 36.423029 -0.865287 2.298636 0.033866 -0.001364 506328.000000 0 0 1
19.145716 -21.056523 -24.548129 37.583856 -0.832892 2.282541 0.014272 0.000068 818407.000000 0 0 1
19.520816 -22.389623 -24.803429 38.698418 -0.853742 2.266521 0.026275 -0.008789 346072.000000 0 0 1
19.074116 -23.337823 -23.831929 38.424428 -0.885592 2.239830 0.038128 -0.010416 -759660.000000 0 0 1
19.614216 -24.765123 -23.991129 39.668665 -0.900947 2.220296 0.049613 -0.018955 233914.000000 0 0 1
21.028116 -24.797623 -23.751629 40.264669 -0.867471 2.201716 0.059631 -0.014440 744157.000000 0 0 1
21.508716 -26.053503 -23.275229 41.026164 -0.880663 2.174052 0.069247 -0.027811 -90512.400000 0 0 1
21.306316 -26.337683 -21.763329 40.265060 -0.890612 2.141829 0.082546 -0.027385 -395428.000000 0 0 1
19.952116 -26.448853 -21.376029 39.427951 -0.924507 2.143795 0.073820 -0.027466 212827.000000 0 0 1
19.876516 -26.548523 -19.964729 38.710339 -0.928137 2.112675 0.075681 -0.029759 -918465.000000 0 0 1
18.532616 -26.842953 -19.355329 37.929286 -0.966536 2.106330 0.064098 -0.024684 -1407050.000000 0 0 1
18.336316 -28.247463 -19.462629 38.896446 -0.995032 2.094823 0.062439 -0.018003 419669.000000 0 0 1
17.156216 -28.876203 -18.992029 38.585852 -1.034704 2.085414 0.048805 -0.005426 637905.000000 0 0 1
15.752516 -28.434783 -19.501629 37.907679 -1.064897 2.111163 0.051571 -0.010719 4428.340000 0 0 1
15.197116 -27.398403 -18.737029 36.506178 -1.064374 2.109771 0.051859 -0.012428 -629960.000000 0 0 1
13.936116 -27.072053 -19.233529 36.014441 -1.095396 2.134181 0.038485 -0.002309 -503664.000000 0 0 1
13.036716 -26.253353 -18.306329 34.558879 -1.109894 2.129060 0.021193 -0.007941 -521990.000000 0 0 1
12.240616 -27.022583 -17.419629 34.401978 -1.145469 2.101749 0.026642 -0.014137 -106112.000000 0 0 1
11.430116 -26.075253 -16.756229 33.035398 -1.157672 2.102753 0.027379 -0.018087 -494138.000000 0 0 1
9.932416 -26.137323 -17.069929 32.759655 -1.207642 2.118895 0.033000 -0.017818 -921593.000000 0 0 1
9.228116 -27.111223 -16.325329 32.965025 -1.242717 2.088898 0.037492 -0.021319 576535.000000 0 0 1
7.804916 -26.962043 -16.413329 32.515624 -1.289021 2.099927 0.032481 -0.009078 871541.000000 0 0 1
7.198516 -27.767683 -17.585929 33.647106 -1.317140 2.120762 0.042230 -0.002430 -532009.000000 0 0 1
7.304416 -27.044103 -18.797129 33.735293 -1.306998 2.161800 0.045037 -0.004805 49932.600000 0 0 1
6.896116 -27.840193 -19.935829 34.929500 -1.327980 2.178209 0.041285 -0.002585 26784.200000 0 0 1
7.088216 -27.192123 -21.328129 35.278087 -1.315799 2.220024 0.042859 -0.012812 -685866.000000 0 0 1
6.177816 -26.149023 -21.567629 34.454309 -1.338796 2.247181 0.072180 -0.019129 -116699.000000 0 0 1
6.197916 -25.622293 -22.848829 34.885312 -1.333460 2.284939 0.070827 -0.026866 83027.200000 0 0 1
4.868116 -24.877523 -23.162229 34.337713 -1.377555 2.311140 0.056041 -0.029142 -401473.000000 0 0 1
3.768316 -25.699293 -23.359829 34.933300 -1.425203 2.303253 0.049958 -0.019346 -1176610.000000 0 0 1
2.688916 -24.879523 -23.711829 34.474218 -1.463137 2.329269 0.065429 -0.027492 -298097.000000 0 0 1
1.540216 -25.787073 -24.238229 35.423680 -1.511139 2.324355 0.044747 -0.035831 -54530.800000 0 0 1
1.951716 -26.791903 -25.192979 36.827998 -1.498078 2.324126 0.025428 -0.028014 147623.000000 0 0 1
0.879816 -27.617833 -25.564159 37.643658 -1.538950 2.317345 0.032315 -0.039914 -766.969000 0 0 1
1.357116 -28.558183 -26.736109 39.143723 -1.523311 2.322691 0.014482 -0.023432 -185056.000000 0 0 1
1.734716 -27.923743 -27.921089 39.526344 -1.508753 2.355184 0.014262 -0.024024 35719.500000 0 0 1
2.051316 -29.004333 -28.827829 40.945121 -1.500189 2.351895 0.025397 -0.022472 949805.000000 0 0 1
3.561816 -29.428073 -28.967899 41.446799 -1.450348 2.344679 0.025294 -0.015053 632627.000000 0 0 1
4.100916 -30.291243 -28.007029 41.458058 -1.436232 2.312508 0.017398 -0.030225 -354453.000000 0 0 1
5.351516 -30.811723 -28.403329 42.246302 -1.398827 2.308144 0.033942 -0.028359 30252.100000 0 0 1
5.808416 -31.896993 -27.435559 42.471940 -1.390671 2.273088 0.048989 -0.036189 -584359.000000 0 0 1
4.959216 -33.003923 -27.360059 43.155829 -1.421651 2.257489 0.050231 -0.049328 -509823.000000 0 0 1
5.458116 -34.032053 -26.590459 43.531875 -1.411769 2.227901 0.066443 -0.057262 -403257.000000 0 0 1
4.430816 33.071760 -26.275119 42.470640 1.437614 2.237839 0.079990 -0.056175 -237103.000000 0 0 1
3.950716 32.380842 -27.404929 42.604661 1.449389 2.269516 0.076591 -0.054652 -20320.300000 0 0 1
2.669616 31.901069 -27.105829 41.946764 1.487307 2.273386 0.059160 -0.048536 487901.000000 0 0 1
1.429316 32.239205 -28.014979 42.734626 1.526491 2.285716 0.068360 -0.029583 388384.000000 0 0 1
1.252316 31.401219 -29.111829 42.838107 1.530936 2.317983 0.083585 -0.036288 335513.000000 0 0 1
0.258616 31.890499 -30.022739 43.799950 1.562687 2.326020 0.076034 -0.041289 323861.000000 0 0 1
-0.057684 30.822169 -31.034699 43.739706 -1.568925 2.359629 0.078587 -0.038704 -230353.000000 0 0 1
0.922616 30.762129 -32.036059 44.423742 1.540813 2.376253 0.091066 -0.044159 -3693.560000 0 0 1
0.671916 29.686749 -32.930929 44.341860 1.548167 2.407830 0.106090 -0.042075 -511008.000000 0 0 1
1.850116 29.426879 -33.848409 44.889630 1.508007 2.424982 0.099103 -0.037800 -409676.000000 0 0 1
2.052916 30.510489 33.531917 45.381646 1.503612 0.739379 0.092030 -0.034764 64452.300000 0 0 1
3.023716 30.219289 32.519510 44.495694 1.471069 0.751235 0.064687 -0.028231 -175791.000000 0 0 1
2.719816 29.209359 31.417354 42.984115 1.477950 0.751148 0.066607 -0.023462 -435384.000000 0 0 1
2.672416 27.878759 31.846784 42.409723 1.475230 0.721325 0.072201 -0.020054 -948136.000000 0 0 1
3.855816 27.223309 31.586594 41.877067 1.430096 0.716256 0.061666 -0.016105 -1314590.000000 0 0 1
3.907116 25.756979 31.905934 41.190729 1.420252 0.684729 0.065100 -0.009150 -90904.800000 0 0 1
3.234516 24.975699 30.933284 39.888791 1.442007 0.683308 0.061126 -0.003531 275418.000000 0 0 1
3.525216 23.579029 31.021564 39.124611 1.422389 0.655257 0.043242 0.004659 -684067.000000 0 0 1
2.628416 22.913819 29.958464 37.808216 1.456587 0.656096 0.047553 0.012305 248976.000000 0 0 1
1.284316 22.805919 30.391474 38.018431 1.514541 0.644521 0.057742 0.008789 -134036.000000 0 0 1
0.593516 21.999719 29.452964 36.767064 1.543825 0.641717 0.040497 0.007521 340437.000000 0 0 1
-0.775484 21.425719 29.909124 36.799708 -1.534618 0.621932 0.029626 0.004652 61357.400000 0 0 1
-1.849584 22.296319 29.824164 37.283073 -1.488031 0.643604 0.040550 -0.004970 257167.000000 0 0 1
-3.108284 21.677719 30.097734 37.221748 -1.428381 0.629017 0.031355 -0.011955 817993.000000 0 0 1
-4.271384 22.677119 30.381164 38.151167 -1.384621 0.649582 0.030767 -0.022622 74984.400000 0 0 1
-4.218784 23.264549 31.683954 39.533660 -1.391406 0.641093 0.049943 -0.027117 -83640.500000 0 0 1
-5.148584 24.299919 31.812394 40.361149 -1.362007 0.662928 0.043824 -0.026680 -304645.000000 0 0 1
-5.238084 24.940879 33.188360 41.844381 -1.363785 0.654852 0.048748 -0.023806 -119730.000000 0 0 1
-6.481884 25.559679 33.404382 42.557781 -1.322434 0.668232 0.027889 -0.024448 -193654.000000 0 0 1
-6.741884 25.804319 -33.479819 42.804370 -1.315239 2.468920 0.023082 -0.021121 -145976.000000 0 0 1
-8.180084 26.087549 -33.022919 42.871752 -1.266944 2.450064 0.042068 -0.008538 -144087.000000 0 0 1
-8.746784 27.348169 -33.387479 44.035807 -1.261247 2.431328 0.024406 -0.002160 259491.000000 0 0 1
-9.886284 27.791559 -32.652499 44.003352 -1.229026 2.406913 0.024383 0.001169 300817.000000 0 0 1
-9.588984 28.158519 -31.149979 43.071707 -1.242578 2.379238 0.024391 0.003971 111188.000000 0 0 1
-8.800484 29.341569 -30.965529 43.557320 -1.279402 2.361594 0.024794 0.006454 144934.000000 0 0 1
-8.857584 29.649889 -29.572889 42.803369 -1.280497 2.333531 0.035019 0.003255 -252453.000000 0 0 1
-8.207084 30.952799 -29.220119 43.350286 -1.311612 2.310470 0.027231 -0.003561 400445.000000 0 0 1
-6.779484 30.974149 -29.287939 43.164136 -1.355319 2.316549 0.009874 -0.003537 315203.000000 0 0 1
-6.314084 32.264218 -28.971079 43.819753 -1.377539 2.293136 0.020634 -0.007296 1463480.000000 0 0 1
-4.748084 32.546783 -29.076509 43.900805 -1.425933 2.294711 0.039108 -0.013826 1422090.000000 0 0 1
-4.451784 33.886848 -28.648019 44.596477 -1.440172 2.268400 0.048410 -0.016670 -223883.000000 0 0 1
-4.656784 -33.251643 -29.548309 44.726501 1.431655 2.292473 0.045141 -0.020816 115557.000000 0 0 1
-3.639384 -33.186763 -30.736299 45.379802 1.461569 2.314900 0.057533 -0.037394 -24283.000000 0 0 1
-3.756184 34.026512 -31.691989 46.650772 -1.460852 2.317667 0.056380 -0.022305 -244726.000000 0 0 1
-4.661484 -34.002333 -32.749999 47.438913 1.434553 2.332785 0.059930 -0.027515 -104653.000000 0 0 1
-4.182084 -33.056503 -33.919919 47.547693 1.444952 2.365116 0.037932 -0.030095 -52727.000000 0 0 1
-4.164584 -31.756323 -33.403509 46.277448 1.440399 2.377210 0.034071 -0.024095 281807.000000 0 0 1
-3.542384 -30.867613 33.890207 45.977213 1.456536 0.742014 0.024316 -0.030016 324502.000000 0 0 1
32.184216 19.184977 12.805964 39.596462 0.537546 1.241463 0.114812 -0.034945 -229625.000000 0 0 1
33.481096 18.764077 13.156164 40.572885 0.510822 1.240567 0.115842 -0.036677 -52580.500000 0 0 1
33.494256 17.484377 13.767864 40.213464 0.481101 1.221359 0.114298 -0.024906 50321.100000 0 0 1
34.955766 17.047077 14.036364 41.346438 0.453740 1.224430 0.114128 -0.044756 314826.000000 0 0 1
35.706256 16.489977 12.973164 41.414479 0.432642 1.252181 0.119243 -0.018719 -462350.000000 0 0 1
-36.325452 15.621877 13.419964 41.757358 -0.406143 1.243610 0.129364 -0.026490 -493913.000000 0 0 1
-35.708475 14.720777 12.273664 40.527019 -0.391021 1.263113 0.122548 -0.029006 500199.000000 0 0 1
-34.773469 13.762877 12.802364 39.528616 -0.376869 1.240973 0.112096 -0.026235 -58729.700000 0 0 1
-35.339580 12.510677 13.074264 39.703140 -0.340246 1.235234 0.114711 -0.028867 433294.000000 0 0 1
-34.504326 11.731677 14.165064 39.100253 -0.327744 1.200088 0.125847 -0.038058 403324.000000 0 0 1
-34.782158 12.351077 15.424564 40.003310 -0.341209 1.174958 0.121104 -0.033142 253401.000000 0 0 1
-34.169802 11.700377 16.547664 39.727816 -0.329905 1.141176 0.132199 -0.030848 148226.000000 0 0 1
-34.210705 12.545377 17.812464 40.559126 -0.351482 1.116119 0.129890 -0.023263 -322533.000000 0 0 1
-35.459931 12.601177 18.435564 41.905446 -0.341445 1.115273 0.127369 -0.027379 -453507.000000 0 0 1
-35.313861 13.073877 19.776364 42.533512 -0.354573 1.087207 0.140347 -0.028746 -318593.000000 0 0 1
36.456676 13.285477 20.669664 43.963941 0.349461 1.081335 0.137078 -0.039008 -223780.000000 0 0 1
35.914516 12.056577 21.145164 43.385844 0.323881 1.061716 0.130402 -0.027575 12730.100000 0 0 1
34.940116 12.124777 22.137964 43.103496 0.334014 1.031421 0.127802 -0.033961 -341802.000000 0 0 1
34.518616 10.781577 22.593364 42.640794 0.302740 1.012369 0.127810 -0.023265 -146530.000000 0 0 1
35.404146 10.245477 23.584744 43.756868 0.281691 1.001553 0.121273 -0.017546 190610.000000 0 0 1
35.253736 10.639677 24.931394 44.470249 0.293110 0.975649 0.117384 -0.014339 -1431290.000000 0 0 1
-36.464722 10.490977 25.760934 45.862428 -0.280136 0.974357 0.098972 -0.015459 -762808.000000 0 0 1
-35.568687 11.470077 25.494794 45.240233 -0.311948 0.972128 0.101921 -0.021721 -583454.000000 0 0 1
-34.656079 11.198577 24.438154 43.859723 -0.312544 0.979800 0.108450 -0.024710 -455133.000000 0 0 1
-33.783882 12.419277 24.014214 43.269754 -0.352276 0.982447 0.119592 -0.029696 1182120.000000 0 0 1
-32.794712 13.030677 24.907984 43.193742 -0.378212 0.956165 0.119051 -0.024048 988386.000000 0 0 1
-33.365762 13.647277 26.071814 44.488895 -0.388258 0.944646 0.101069 -0.022338 -373184.000000 0 0 1
-32.341372 14.317477 27.045364 44.524221 -0.416765 0.917975 0.112051 -0.021057 -36149.900000 0 0 1
-31.863652 15.490277 26.444794 44.210498 -0.452500 0.929598 0.151536 -0.024386 -239537.000000 0 0 1
-31.238572 16.348877 27.345914 44.619874 -0.482157 0.911116 0.148876 -0.025412 -23900.400000 0 0 1
-30.592742 17.625177 26.781454 44.314885 -0.522678 0.921854 0.147405 -0.017161 -396455.000000 0 0 1
-31.544692 18.557977 26.332824 45.087512 -0.531778 0.947102 0.122581 -0.036588 -67474.200000 0 0 1
-30.972962 19.793177 26.012534 45.030503 -0.568637 0.954931 0.131169 -0.040892 71701.300000 0 0 1
-31.904982 20.899877 25.362274 45.803686 -0.579929 0.983975 0.143661 -0.028289 1219530.000000 0 0 1
-32.997992 21.309377 26.254324 47.246657 -0.573401 0.981608 0.117315 -0.033229 1159190.000000 0 0 1
-33.858952 22.298177 25.734804 48.019970 -0.582370 1.005201 0.108439 -0.026189 -289202.000000 0 0 1
-33.445792 23.786677 25.767364 48.460129 -0.618204 1.010163 0.104996 -0.030057 -233261.000000 0 0 1
-34.200328 24.431077 24.763194 48.782740 -0.620293 1.038374 0.099165 -0.030780 193981.000000 0 0 1
-33.955702 25.829677 24.732134 49.313694 -0.650306 1.045434 0.083697 -0.024241 -216414.000000 0 0 1
-34.793280 26.498677 23.669774 49.729372 -0.650886 1.074728 0.091565 -0.026792 -237433.000000 0 0 1
-34.538394 26.010377 22.332064 48.663759 -0.645473 1.094033 0.107360 -0.039309 -51042.000000 0 0 1
-35.592976 26.375577 21.476064 49.231619 -0.637738 1.119397 0.102068 -0.040494 -26820.100000 0 0 1
-35.481867 25.972777 19.977864 48.297651 -0.631882 1.144347 0.133697 -0.058494 45306.600000 0 0 1
-35.862411 24.616077 19.665364 47.736677 -0.601542 1.146198 0.133935 -0.050237 384835.000000 0 0 1
-35.289844 24.171677 18.399364 46.563716 -0.600552 1.164572 0.135821 -0.036723 104411.000000 0 0 1
-35.981155 22.907777 17.846564 46.237535 -0.566940 1.174531 0.154134 -0.039203 404143.000000 0 0 1
35.831946 23.238377 17.125964 46.013576 0.575347 1.189425 0.130826 -0.051951 -75848.900000 0 0 1
35.606536 22.318277 16.138864 45.015484 0.559895 1.204116 0.137649 -0.048275 179496.000000 0 0 1
34.194866 22.316677 15.488264 43.671607 0.578224 1.208253 0.121250 -0.044550 185278.000000 0 0 1
33.316226 21.429977 16.131264 42.771866 0.571601 1.184083 0.112539 -0.058524 -277415.000000 0 0 1
32.058906 21.490177 15.490364 41.587889 0.590537 1.189124 0.111780 -0.053469 -118984.000000 0 0 1
30.916786 20.715077 16.195164 40.586271 0.590325 1.160337 0.062468 -0.051985 400810.000000 0 0 1
30.280406 21.347877 17.306964 40.892125 0.614078 1.133784 0.063081 -0.046586 535768.000000 0 0 1
29.227096 22.268277 16.986264 40.480026 0.651077 1.137769 0.050851 -0.036785 301737.000000 0 0 1
28.568906 22.907277 18.219464 40.900790 0.675853 1.109114 0.028797 -0.026407 -578942.000000 0 0 1
29.524586 23.621877 18.877964 42.261943 0.674787 1.107735 0.011814 -0.029828 -560144.000000 0 0 1
28.919906 24.494177 19.833664 42.774992 0.702730 1.088659 -0.001491 -0.019806 459379.000000 0 0 1
29.970306 25.285677 20.672364 44.327546 0.700820 1.085631 0.020852 -0.030586 344926.000000 0 0 1
30.885476 26.162477 20.056464 45.173550 0.702797 1.110753 0.051594 -0.044181 385091.000000 0 0 1
31.891656 26.505977 20.990764 46.478562 0.693434 1.102213 0.067903 -0.047162 -610195.000000 0 0 1
33.059656 27.382277 20.540264 47.588154 0.691742 1.124502 0.077705 -0.046499 -355309.000000 0 0 1
34.031406 27.780677 21.459164 48.891700 0.684616 1.116409 0.080028 -0.038606 -197111.000000 0 0 1
33.583336 28.621477 22.460364 49.512598 0.705800 1.099963 0.045346 -0.026925 -1044040.000000 0 0 1
34.536706 28.860077 23.619264 50.828710 0.696095 1.087519 0.055395 -0.034405 -592045.000000 0 0 1
35.689406 29.567777 23.255644 51.853757 0.691864 1.105726 0.073048 -0.032456 -293188.000000 0 0 1
36.336476 30.010277 24.435634 53.085369 0.690335 1.092454 0.064340 -0.014937 -131672.000000 0 0 1
-35.283123 30.658377 24.482814 52.765927 -0.715379 1.088303 0.052793 -0.022321 -293518.000000 0 0 1
-34.158849 29.869477 24.191844 51.422349 -0.718506 1.080991 0.052976 -0.022233 -388340.000000 0 0 1
-33.046582 30.618377 24.620114 51.339182 -0.747276 1.070645 0.052983 -0.008563 256132.000000 0 0 1
-31.634202 30.035077 24.312904 49.939422 -0.759473 1.062319 0.076082 -0.019974 -101555.000000 0 0 1
-31.180332 30.080477 23.006364 49.054470 -0.767446 1.082642 0.057409 -0.014108 -54783.600000 0 0 1
-31.664452 29.035477 22.166964 48.343260 -0.742114 1.094453 0.072904 -0.017978 -300267.000000 0 0 1
-31.257662 27.560877 22.327864 47.277658 -0.722630 1.078931 0.079084 -0.014878 -134818.000000 0 0 1
-29.861992 27.321577 22.346564 46.233928 -0.741002 1.066334 0.046154 -0.015620 342591.000000 0 0 1
-29.352332 26.202477 23.111164 45.631734 -0.728761 1.039709 0.059368 -0.015222 197271.000000 0 0 1
-29.069382 26.435177 24.618164 46.367031 -0.737975 1.011086 0.073574 -0.014507 -158491.000000 0 0 1
-30.259462 26.715577 25.328484 47.653848 -0.723278 1.010414 0.065025 -0.013705 193921.000000 0 0 1
-29.938922 26.887277 26.709994 48.297914 -0.731748 0.984805 0.082093 -0.023525 943473.000000 0 0 1
-31.171522 27.391677 27.620524 49.848381 -0.720945 0.983526 0.081864 -0.032745 1203320.000000 0 0 1
-31.996742 26.314377 28.023784 50.015702 -0.688256 0.976049 0.071060 -0.027874 -613059.000000 0 0 1
-32.947912 26.734577 28.921024 51.349081 -0.681665 0.972514 0.059938 -0.011216 -831714.000000 0 0 1
-33.808762 25.585877 29.446404 51.621316 -0.647828 0.963766 0.052379 -0.014781 -445441.000000 0 0 1
-33.200982 24.681177 30.360074 51.314713 -0.639255 0.937699 0.055350 -0.018856 -64348.000000 0 0 1
-34.000282 23.529277 30.646404 51.466962 -0.605358 0.932961 0.034379 -0.023426 145480.000000 0 0 1
-33.266622 22.457877 31.498724 51.021505 -0.593810 0.905412 0.067977 -0.040042 -595815.000000 0 0 1
-32.156942 21.841577 30.883074 49.647635 -0.596642 0.899444 0.082081 -0.034342 -2998.610000 0 0 1
-31.495512 20.878177 31.706564 49.327191 -0.585386 0.872674 0.075905 -0.034377 434637.000000 0 0 1
-30.511032 21.489177 32.750551 49.651852 -0.613612 0.850505 0.064778 -0.034614 -638608.000000 0 0 1
-31.132022 22.256377 33.759392 51.031810 -0.620658 0.847931 0.091213 -0.037205 -137788.000000 0 0 1
-30.925952 21.885577 -33.104269 50.311883 -0.615860 2.288931 0.073714 -0.029565 -481093.000000 0 0 1
-29.588622 22.303177 -32.479159 49.272853 -0.645913 2.290510 0.078468 -0.020495 -173935.000000 0 0 1
-29.508762 23.692477 -32.164869 49.665675 -0.676505 2.275263 0.059029 -0.017954 -369897.000000 0 0 1
-28.415292 23.933677 -31.329999 48.598545 -0.699996 2.271387 0.090525 -0.006519 -375936.000000 0 0 1
-28.629542 25.138377 -30.380779 48.729667 -0.720559 2.243951 0.066397 0.001343 -2527.490000 0 0 1
-28.292882 26.434677 -30.880089 49.526349 -0.751457 2.244018 0.079278 -0.015132 40870.100000 0 0 1
-29.241932 26.901877 -31.830049 50.911232 -0.743743 2.246193 0.067356 -0.012563 -87827.600000 0 0 1
-29.267102 28.388677 -32.311959 52.024445 -0.770164 2.240931 0.078277 -0.019481 650.540000 0 0 1
-29.547492 29.409077 -31.355759 52.164468 -0.783050 2.215666 0.061807 -0.029937 79455.500000 0 0 1
-29.205392 30.727077 -31.817389 53.004287 -0.810783 2.214647 0.076459 -0.046583 -96000.400000 0 0 1
-29.275802 31.766977 -30.696759 52.995325 -0.826186 2.188587 0.054087 -0.023965 -22236.200000 0 0 1
-28.216192 31.820177 -29.769139 51.912222 -0.845356 2.181509 0.046885 -0.023343 -160333.000000 0 0 1
-28.489012 32.841477 -28.870439 52.188971 -0.856247 2.156986 0.024373 -0.013528 78141.100000 0 0 1
-27.488972 33.014177 -27.665109 51.097336 -0.876467 2.142921 0.033581 -0.015615 283023.000000 0 0 1
-26.354302 33.796077 -27.945849 51.163410 -0.908492 2.148627 0.024091 -0.018583 -218394.000000 0 0 1
-26.556422 -33.001464 -27.994459 50.774303 0.893193 2.154779 0.031181 0.002654 -501055.000000 0 0 1
-26.903902 -32.181864 -26.753939 49.752040 0.874489 2.138557 0.024473 0.007312 92945.000000 0 0 1
-28.304622 -32.030864 -26.637139 50.365316 0.847079 2.128075 0.011142 -0.001558 -232663.000000 0 0 1
-28.599412 -31.245864 -25.522289 49.453186 0.829591 2.113076 0.001977 0.006712 319653.000000 0 0 1
-30.113522 -30.907364 -25.507749 50.127184 0.798407 2.104657 -0.008259 0.006124 270737.000000 0 0 1
-30.516172 -29.959264 -26.462479 50.289731 0.776190 2.124923 -0.002549 0.001654 -409718.000000 0 0 1
-31.911902 -29.993364 -26.568009 51.223339 0.754417 2.116091 0.003142 -0.001593 -612972.000000 0 0 1
-32.438882 -28.882564 -27.410579 51.359745 0.727468 2.133763 0.017582 -0.006723 -225432.000000 0 0 1
-33.848842 -28.886264 -27.437209 52.277727 0.706459 2.123318 0.021996 -0.005901 -203989.000000 0 0 1
-34.375741 -27.974364 -28.379249 52.627354 0.683088 2.140341 0.022399 -0.011831 417437.000000 0 0 1
-35.901173 -28.209164 -28.590849 53.871029 0.665988 2.130255 0.027240 -0.016800 923962.000000 0 0 1
36.258126 -27.819364 -27.501069 53.337393 -0.654456 2.112511 0.019739 -0.006363 -375685.000000 0 0 1
34.901566 -27.936064 -27.820539 52.654775 -0.675000 2.127461 0.026088 -0.007312 -308436.000000 0 0 1
33.947336 -27.472364 -26.714759 51.194050 -0.680364 2.119795 0.025400 -0.003859 -198762.000000 0 0 1
33.830796 -28.198864 -25.540949 50.912069 -0.694852 2.096322 0.021810 0.001182 -459906.000000 0 0 1
33.000316 -27.558764 -24.672029 49.570307 -0.695784 2.091762 0.030213 0.004378 -556033.000000 0 0 1
32.739866 -28.372564 -23.377729 49.228238 -0.714056 2.065629 0.021522 0.010846 371701.000000 0 0 1
31.979746 -29.610564 -23.488629 49.509649 -0.746950 2.065107 0.046022 0.000503 231344.000000 0 0 1
31.559016 -30.088064 -22.235029 48.945475 -0.761542 2.042362 0.053439 -0.003417 -687714.000000 0 0 1
32.535206 -30.294664 -21.056629 49.190323 -0.749753 2.013146 0.040646 -0.000634 -1374570.000000 0 0 1
33.560856 -31.239964 -21.254929 50.537495 -0.749598 2.004878 0.022467 -0.003004 892391.000000 0 0 1
34.682026 -31.138164 -20.358529 50.861556 -0.731609 1.982612 0.007641 -0.000924 905824.000000 0 0 1
35.595566 -29.903264 -20.478529 50.799799 -0.698709 1.985722 0.010712 -0.003399 -727919.000000 0 0 1
34.878976 -28.744964 -20.099429 49.465169 -0.689285 1.989236 0.016449 0.003977 -171818.000000 0 0 1
35.454766 -27.609764 -20.665429 49.461090 -0.661638 2.001832 0.013091 0.002267 -215788.000000 0 0 1
34.679246 -26.316964 -20.348129 48.054958 -0.649152 2.008029 0.022320 0.007455 593073.000000 0 0 1
33.501596 -26.237664 -21.168529 47.527661 -0.664398 2.032410 0.029323 0.003835 392144.000000 0 0 1
32.601266 -25.301264 -20.637229 46.139914 -0.659986 2.034513 0.037058 0.005269 290727.000000 0 0 1
31.192466 -25.142364 -21.294729 45.371509 -0.678413 2.059341 0.040868 -0.000963 887259.000000 0 0 1
30.454586 -26.386664 -21.184829 45.525101 -0.713954 2.054819 0.055947 -0.003378 -258547.000000 0 0 1
29.235196 -26.307064 -21.849329 44.990571 -0.732728 2.077894 0.062547 -0.006995 -509007.000000 0 0 1
28.725676 -27.636264 -22.352429 45.700750 -0.766072 2.081859 0.061923 -0.005719 -258791.000000 0 0 1
28.175336 -28.545264 -21.427729 45.473390 -0.791920 2.061464 0.067877 -0.009461 119372.000000 0 0 1
27.955116 -29.816164 -22.027829 46.429703 -0.817601 2.065117 0.064107 -0.015719 -339784.000000 0 0 1
27.225816 -30.788364 -21.036829 46.170516 -0.846729 2.043880 0.083009 -0.009926 168143.000000 0 0 1
27.918216 -31.083464 -19.821229 46.243806 -0.838994 2.013766 0.090986 -0.012409 -125356.000000 0 0 1
29.027706 -31.915364 -20.072829 47.582734 -0.832746 2.006282 0.089597 -0.006445 -193356.000000 0 0 1
29.827206 -32.337864 -18.804929 47.843756 -0.825763 1.974741 0.078437 -0.009107 156061.000000 0 0 1
29.083376 -32.951164 -17.744229 47.397042 -0.847667 1.954518 0.081419 -0.011103 -59711.100000 0 0 1
28.552086 -31.909864 -16.915529 46.039072 -0.840877 1.947026 0.070376 -0.013190 431976.000000 0 0 1
27.707116 -32.397064 -15.666829 45.416996 -0.863271 1.922987 0.060416 -0.010196 781182.000000 0 0 1
26.368916 -32.804164 -15.932229 45.002986 -0.893725 1.932669 0.073681 -0.008528 375054.000000 0 0 1
25.949616 -33.873164 -15.130529 45.273686 -0.917082 1.911554 0.058879 -0.006403 771193.000000 0 0 1
24.398716 -34.065564 -14.963429 44.493417 -0.949262 1.913789 0.047598 -0.004436 1093400.000000 0 0 1
23.800616 -33.078564 -14.100829 43.121851 -0.947091 1.903923 0.054237 -0.000722 93953.600000 0 0 1
22.402916 -33.204064 -14.009929 42.434403 -0.977250 1.907264 0.053843 -0.008297 -50723.000000 0 0 1
-0.567822 -7.167923 -28.696669 29.583785 1.491744 2.896082 0.059987 -0.019605 152231.000000 0 0 1
-0.465422 -8.590423 -28.667169 29.930228 1.516670 2.850044 0.046247 -0.012019 -159741.000000 0 0 1
-0.461722 -9.098523 -29.976599 31.330381 1.520093 2.846551 0.050880 -0.010520 1150.670000 0 0 1
-0.262122 -10.631923 -29.967869 31.799051 1.546147 2.800572 0.052865 -0.004557 249706.000000 0 0 1
1.022878 -10.936723 -29.456139 31.437594 -1.477541 2.784657 0.030196 -0.006563 19448.000000 0 0 1
1.313178 -12.306223 -29.304689 31.810884 -1.464490 2.741990 0.030316 -0.003878 -583634.000000 0 0 1
2.718978 -12.617723 -28.811119 31.570244 -1.358553 2.720404 0.036535 -0.005659 -1279350.000000 0 0 1
3.632678 -12.574823 -29.912609 32.650983 -1.289568 2.729119 0.050810 -0.006788 462810.000000 0 0 1
4.993278 -12.804023 -29.548839 32.588490 -1.198960 2.706252 0.069651 -0.017002 711908.000000 0 0 1
5.314678 -14.224123 -29.027629 32.759345 -1.213220 2.659630 0.075985 -0.025564 -1340200.000000 0 0 1
4.881678 -14.532423 -27.733849 31.688933 -1.246723 2.636626 0.072728 -0.023455 396489.000000 0 0 1
5.808278 -15.381123 -27.017249 31.626678 -1.209727 2.594912 0.087281 -0.033729 473089.000000 0 0 1
5.446178 -16.917723 -27.143689 32.444569 -1.259351 2.561875 0.076701 -0.032412 19844.600000 0 0 1
5.648978 -17.393723 -28.458979 33.828479 -1.256771 2.570430 0.068286 -0.034587 290807.000000 0 0 1
5.253078 -18.754323 -28.555319 34.564804 -1.297695 2.543016 0.059068 -0.034228 -328270.000000 0 0 1
5.481178 -19.311823 -30.015429 36.109774 -1.294244 2.552108 0.051899 -0.025711 -97401.100000 0 0 1
6.811478 -19.367823 -30.485019 36.753845 -1.232616 2.548896 0.054876 -0.026912 11727.600000 0 0 1
6.989878 -19.953323 -31.791199 38.179494 -1.233844 2.554721 0.049500 -0.027255 -378417.000000 0 0 1
8.394278 -19.888723 -32.378399 38.915111 -1.171417 2.553547 0.055899 -0.023258 -447560.000000 0 0 1
8.869778 -18.638623 -32.810189 38.763123 -1.126629 2.580037 0.063528 -0.027995 -396646.000000 0 0 1
10.070478 -18.668923 -33.507089 39.656881 -1.076109 2.577221 0.050080 -0.024115 -474423.000000 0 0 1
10.430478 -17.310723 34.066956 39.610775 -1.028508 0.535443 0.056150 -0.020342 294975.000000 0 0 1
9.533778 -16.890023 33.031941 38.305025 -1.056918 0.530924 0.064601 -0.021608 203275.000000 0 0 1
9.296378 -15.521023 32.957062 37.596446 -1.031146 0.502045 0.069956 -0.021277 -255670.000000 0 0 1
8.401478 -15.146423 31.760074 36.175976 -1.064364 0.499269 0.065003 -0.031174 -180618.000000 0 0 1
8.781278 -15.812023 30.587784 35.535102 -1.063851 0.534003 0.076906 -0.028493 77885.700000 0 0 1
7.871678 -15.527123 29.514244 34.265806 -1.101594 0.532910 0.069445 -0.026315 80994.000000 0 0 1
8.069378 -16.464823 28.332134 33.747816 -1.115102 0.574388 0.062157 -0.018686 -420333.000000 0 0 1
7.489778 -17.740323 28.405914 34.317806 -1.171309 0.595744 0.065192 -0.022866 163605.000000 0 0 1
7.487678 -18.362723 27.171024 33.638066 -1.183614 0.630477 0.063280 -0.021120 -202424.000000 0 0 1
7.221778 -19.823723 27.372834 34.560181 -1.221439 0.656663 0.054481 -0.020840 -885599.000000 0 0 1
8.109778 -20.467023 28.204984 35.779724 -1.193539 0.662763 0.052732 -0.013564 -292986.000000 0 0 1
7.544678 -21.606123 28.839034 36.816254 -1.234842 0.670802 0.024191 -0.011692 -201831.000000 0 0 1
7.963278 -21.719223 30.385044 38.188864 -1.219369 0.650713 0.015505 -0.013441 60692.500000 0 0 1
7.272578 -20.889423 31.330724 38.351957 -1.235774 0.614735 0.032616 -0.015250 329576.000000 0 0 1
7.219078 -19.485823 31.021234 37.338041 -1.215996 0.590215 0.040178 -0.022146 -252006.000000 0 0 1
6.712978 -18.524723 32.137474 37.696773 -1.223136 0.549997 0.042892 -0.016570 818695.000000 0 0 1
5.307278 -18.787123 32.310268 37.750187 -1.295475 0.543514 0.035262 -0.027272 606874.000000 0 0 1
4.834678 -17.932023 33.360434 38.181803 -1.307447 0.507986 0.034752 -0.025156 1062770.000000 0 0 1
3.357878 -18.070623 33.890721 38.553907 -1.387072 0.496935 0.039554 -0.023013 924284.000000 0 0 1
3.216578 -19.155923 -33.480219 38.706857 -1.404433 2.615884 0.031206 -0.028249 716428.000000 0 0 1
2.206378 -18.824523 -32.483239 37.608397 -1.454121 2.613407 0.042845 -0.034399 458431.000000 0 0 1
1.939478 -19.996423 -31.556339 37.408836 -1.474108 2.574662 0.053033 -0.027539 -1556230.000000 0 0 1
1.258978 -21.050723 -32.168819 38.464930 -1.511061 2.561324 0.061777 -0.033441 -23292.300000 0 0 1
0.641478 -21.827423 -31.149089 38.040946 -1.541416 2.530167 0.066809 -0.031393 559530.000000 0 0 1
-0.403922 -21.171223 -30.192189 36.877528 1.551720 2.529966 0.070633 -0.034899 -1238540.000000 0 0 1
-1.623522 -20.693923 -30.688839 37.049684 1.492503 2.546891 0.074609 -0.043702 -25932.700000 0 0 1
-2.377722 -19.932823 -29.751749 35.890633 1.452071 2.548035 0.091787 -0.023853 6876.730000 0 0 1
-1.947222 -18.479023 -29.738959 35.066674 1.465809 2.583127 0.065716 -0.008275 -330806.000000 0 0 1
-2.848622 -17.526023 -29.182359 34.159716 1.409669 2.594983 0.078274 -0.017754 -194880.000000 0 0 1
-2.481122 -16.178623 -29.629779 33.850075 1.418624 2.636902 0.082398 -0.014944 257619.000000 0 0 1
-3.470422 -15.038323 -29.266399 33.086509 1.343995 2.656307 0.081158 -0.002923 194690.000000 0 0 1
-3.392322 -14.559123 -27.940879 31.688619 1.341878 2.650318 0.065458 -0.013958 131418.000000 0 0 1
-4.441422 -13.614523 -27.729229 31.208838 1.255455 2.664875 0.066475 -0.015102 219363.000000 0 0 1
-4.421322 -12.963923 -26.313329 29.664838 1.242119 2.661649 0.061613 -0.014625 -429333.000000 0 0 1
-4.707922 -13.909023 -25.313029 29.263883 1.244421 2.615931 0.057004 -0.012671 227821.000000 0 0 1
-4.856522 -13.379223 -24.008829 27.910809 1.222596 2.606455 0.058856 -0.012007 1020470.000000 0 0 1
-6.147822 -12.483823 -23.719629 27.500224 1.113196 2.611035 0.070249 -0.015147 1453000.000000 0 0 1
-7.443322 -13.066223 -23.812029 28.162775 1.052983 2.578324 0.070392 -0.017047 1334780.000000 0 0 1
-8.505922 -12.123023 -23.519629 27.793728 0.958975 2.579648 0.071565 -0.020174 1947490.000000 0 0 1
-10.008022 -12.603723 -23.462629 28.451876 0.899692 2.540366 0.072558 -0.026311 1135140.000000 0 0 1
-10.359522 -13.479223 -22.376729 28.102084 0.915525 2.491893 0.069793 -0.016983 73566.500000 0 0 1
-11.608522 -14.085523 -22.661629 29.098267 0.881505 2.463541 0.034167 -0.011367 114092.000000 0 0 1
-12.098822 -15.129423 -21.687129 29.079417 0.896245 2.412516 0.025973 -0.004408 -262600.000000 0 0 1
-11.222822 -16.214923 -21.636229 29.274594 0.965372 2.402498 0.050123 -0.010531 -275537.000000 0 0 1
-11.857622 -17.435023 -21.304029 29.974070 0.973549 2.361358 0.033244 0.000703 214472.000000 0 0 1
-12.413522 -18.240123 -22.532629 31.535963 0.973236 2.366714 0.014739 0.002478 -264325.000000 0 0 1
-13.534322 -17.695923 -23.143729 32.124068 0.917873 2.375245 0.006704 -0.003015 -848655.000000 0 0 1
-13.824922 -18.314223 -24.368729 33.471991 0.924183 2.386245 -0.002893 -0.006922 -434604.000000 0 0 1
-15.029222 -17.770023 -25.124009 34.247146 0.868767 2.394414 -0.002151 -0.009160 -1366300.000000 0 0 1
-16.231922 -18.161323 -24.570229 34.597761 0.841438 2.360533 -0.007107 -0.002361 -588137.000000 0 0 1
-17.361922 -17.653323 -25.268999 35.377937 0.793720 2.366361 -0.003896 -0.012359 300178.000000 0 0 1
-17.889222 -16.236723 -24.928929 34.714650 0.737012 2.371879 -0.006573 -0.006170 -330678.000000 0 0 1
-18.941522 -16.302623 -23.970729 34.628783 0.710663 2.335357 0.005631 -0.010237 252924.000000 0 0 1
-19.405622 -14.983623 -23.706429 34.103986 0.657513 2.339386 0.017039 -0.018009 87045.200000 0 0 1
-20.080922 -14.773823 -22.327629 33.466883 0.634295 2.301181 0.025780 -0.031493 222871.000000 0 0 1
-19.156022 -14.800723 -21.247829 32.210011 0.657834 2.291170 0.019199 -0.019291 586236.000000 0 0 1
-19.840122 -14.823423 -19.965829 31.811926 0.641671 2.249290 0.052623 -0.021830 172371.000000 0 0 1
-20.216722 -13.404223 -19.357629 31.033962 0.585478 2.244336 0.087442 -0.031936 511174.000000 0 0 1
-21.569522 -13.059623 -19.669429 31.979438 0.544429 2.233265 0.084895 -0.035911 641842.000000 0 0 1
-22.004122 -12.040823 -18.779029 31.333923 0.500697 2.213447 0.101719 -0.037432 882892.000000 0 0 1
-23.523222 -11.636423 -18.860829 32.318403 0.459381 2.193944 0.110507 -0.033787 882443.000000 0 0 1
-23.882722 -11.135923 -20.119129 33.153771 0.436306 2.222879 0.105909 -0.041532 -127610.000000 0 0 1
-25.276682 -11.065523 -20.285929 34.247268 0.412642 2.204753 0.113265 -0.037529 -215113.000000 0 0 1
-25.702952 -10.097823 -21.412529 34.944301 0.374342 2.230347 0.112763 -0.029554 -101012.000000 0 0 1
-25.686202 -10.718623 -22.679329 35.902950 0.395323 2.254520 0.095044 -0.031042 386653.000000 0 0 1
-26.535082 -9.940623 -23.489129 36.805784 0.358439 2.262943 0.085276 -0.014489 -362869.000000 0 0 1
-26.569882 -10.305323 -24.980129 37.896769 0.369995 2.290501 0.070918 -0.009069 -73794.500000 0 0 1
-25.406162 -9.940623 -25.692109 37.474971 0.372956 2.326197 0.052608 -0.007035 -93601.500000 0 0 1
-24.599322 -11.092723 -25.823549 37.350111 0.423632 2.334210 0.046287 -0.006527 -601627.000000 0 0 1
-23.605722 -11.040323 -26.988739 37.516807 0.437473 2.373702 0.042289 -0.003605 -533931.000000 0 0 1
-24.178222 -11.036123 -28.248739 38.786256 0.428204 2.386661 0.045582 0.005554 180275.000000 0 0 1
-23.213622 -10.947523 -29.300299 38.951611 0.440670 2.422226 0.034357 0.007052 506693.000000 0 0 1
-23.929722 -11.274623 -30.643789 40.481977 0.440307 2.429466 0.024617 0.002721 148711.000000 0 0 1
-24.746122 -10.215723 -31.061599 41.006761 0.391510 2.430233 0.025523 0.009428 118186.000000 0 0 1
-24.093722 -9.298423 -31.980139 41.105929 0.368316 2.462262 0.020503 0.001200 -283897.000000 0 0 1
-25.110842 -8.298323 -32.566799 41.952508 0.319169 2.459536 0.033564 0.000610 -647815.000000 0 0 1
-25.905982 -8.777623 -33.677249 43.385754 0.326686 2.459457 0.041749 0.002878 1146770.000000 0 0 1
-27.074982 -9.524123 -33.334799 43.988321 0.338249 2.430747 0.037511 0.001531 345662.000000 0 0 1
-28.146082 -8.829523 -32.419929 43.831657 0.303981 2.403341 0.022411 0.011590 -1054480.000000 0 0 1
-29.374562 -9.509123 -32.396049 44.752567 0.313073 2.380224 0.019942 0.007894 -453.808000 0 0 1
-30.153032 -8.992723 -31.318179 44.394850 0.289838 2.353849 0.028684 0.012014 1118360.000000 0 0 1
-31.677332 -9.412123 -31.333539 45.539346 0.288817 2.329601 0.032415 0.005291 1011580.000000 0 0 1
-31.791532 -10.833123 -31.243789 45.871913 0.328415 2.320073 0.024410 0.002604 -174820.000000 0 0 1
-33.143982 -11.209823 -31.195689 46.875950 0.326138 2.298953 0.020722 -0.003418 -305365.000000 0 0 1
-33.329602 -12.773323 -31.459589 47.578628 0.365977 2.293230 0.025900 -0.015993 -614735.000000 0 0 1
-34.672582 -13.198623 -31.500799 48.669209 0.363728 2.274758 0.023210 -0.022869 -199252.000000 0 0 1
-34.763437 -14.573223 -31.311949 49.003199 0.396957 2.263965 0.020807 -0.024181 484345.000000 0 0 1
-36.103332 -15.148323 -30.755609 49.787847 0.397273 2.236653 0.024022 -0.032049 473538.000000 0 0 1
-36.293712 -14.812823 -29.363809 48.978429 0.387502 2.213704 0.035352 -0.030459 238637.000000 0 0 1
36.111546 -15.990823 -28.690549 48.814933 -0.416865 2.199060 0.030134 -0.030408 323880.000000 0 0 1
36.386136 -15.973123 -27.182719 48.145526 -0.413660 2.170739 0.044585 -0.024428 345066.000000 0 0 1
-35.229916 -16.076123 -26.872729 47.135255 0.428097 2.177448 0.042261 -0.032552 266104.000000 0 0 1
-35.001256 -15.806823 -25.473099 46.084947 0.424190 2.156448 0.068917 -0.028905 -437947.000000 0 0 1
-33.584992 -15.395323 -25.069649 44.648123 0.429816 2.166986 0.077711 -0.026888 -226110.000000 0 0 1
-32.636122 -16.446523 -25.230329 44.409166 0.466792 2.175032 0.082622 -0.028082 545603.000000 0 0 1
-31.474522 -16.162023 -24.425429 42.993698 0.474386 2.175012 0.091871 -0.009756 906564.000000 0 0 1
-30.298132 -17.153023 -24.680329 42.676945 0.515151 2.187447 0.082987 -0.016364 294043.000000 0 0 1
-30.489832 -18.390123 -23.954929 42.914625 0.542737 2.163011 0.088204 -0.020641 98010.200000 0 0 1
-31.168222 -19.448523 -24.593229 44.210067 0.557870 2.160700 0.077614 -0.028285 -121254.000000 0 0 1
-30.799292 -20.833623 -24.009029 44.261379 0.594733 2.144132 0.068750 -0.038416 857622.000000 0 0 1
-29.421952 -21.186823 -24.212029 43.597649 0.624091 2.159582 0.069729 -0.025044 648221.000000 0 0 1
-29.193532 -22.499923 -23.647829 43.791878 0.656628 2.141239 0.062854 -0.019020 1297070.000000 0 0 1
-27.665142 -22.952423 -23.673729 43.042063 0.692561 2.153177 0.054490 -0.019569 2026690.000000 0 0 1
-26.587162 -22.216923 -23.069429 41.625321 0.696090 2.158217 0.040238 -0.021719 378450.000000 0 0 1
-26.718902 -21.899823 -21.710829 40.802721 0.686601 2.131867 0.050576 -0.029578 -368485.000000 0 0 1
-26.518082 -23.091823 -20.716629 40.812004 0.716444 2.103206 0.039601 -0.026236 23741.300000 0 0 1
-26.569522 -22.689223 -19.344729 39.936936 0.706787 2.076453 0.037834 -0.020927 -99710.000000 0 0 1
-26.560252 -23.792623 -18.493429 40.168928 0.730489 2.049232 0.024204 0.007220 14358.200000 0 0 1
-26.547822 -23.391123 -16.975729 39.244195 0.722271 2.018134 0.021764 0.008958 533550.000000 0 0 1
-27.848522 -22.976123 -16.561629 39.720649 0.689823 2.000886 0.029977 -0.001528 553440.000000 0 0 1
-27.651462 -21.965023 -15.588229 38.601275 0.671288 1.986492 0.038021 -0.006934 220661.000000 0 0 1
-28.966412 -21.316823 -15.121429 39.014325 0.634426 1.968808 0.052503 -0.004049 422840.000000 0 0 1
-29.778862 -20.566023 -16.043429 39.587037 0.604406 1.988070 0.063388 -0.004257 1143930.000000 0 0 1
-31.029712 -20.221523 -15.410829 40.115416 0.577557 1.965097 0.072057 -0.009249 300029.000000 0 0 1
-32.011302 -19.479723 -16.276729 40.854803 0.546665 1.980573 0.082162 -0.031300 -571866.000000 0 0 1
-32.721722 -20.287723 -17.174729 42.157729 0.555001 1.990393 0.074045 -0.023669 -486842.000000 0 0 1
-33.538992 -19.567223 -18.056529 42.822639 0.528137 2.006070 0.068087 -0.021261 -92850.600000 0 0 1
-34.186713 -20.486923 -19.151629 44.217985 0.539879 2.018746 0.061680 -0.014273 1155140.000000 0 0 1
-35.262479 -21.407423 -18.824629 45.344093 0.545615 1.998905 0.059264 -0.013069 601645.000000 0 0 1
-35.088847 -22.149723 -17.621429 45.081617 0.563079 1.972382 0.065165 -0.012553 -899021.000000 0 0 1
-35.947238 -23.400023 -17.546129 46.342546 0.577046 1.959099 0.058689 -0.001762 367630.000000 0 0 1
35.666396 -23.079523 -17.370129 45.896378 -0.574330 1.958933 0.054307 -0.002188 613394.000000 0 0 1
35.010586 -24.308323 -17.040229 45.902125 -0.606899 1.951129 0.053274 0.000310 239337.000000 0 0 1
33.660136 -24.149223 -16.291029 44.515023 -0.622337 1.945468 0.042271 0.001673 -631765.000000 0 0 1
32.581446 -23.823723 -17.061929 43.820427 -0.631364 1.970733 0.039984 0.003456 -1239350.000000 0 0 1
31.447146 -24.498723 -16.590729 43.178266 -0.661832 1.965179 0.042977 0.000857 -464804.000000 0 0 1
30.307656 -24.455323 -17.607429 42.739190 -0.678936 1.995416 0.040682 -0.016570 -507642.000000 0 0 1
29.768766 -23.164723 -17.710429 41.670650 -0.661278 2.009769 0.017751 -0.009339 489038.000000 0 0 1
28.453746 -23.217123 -18.260729 41.013469 -0.684397 2.032236 0.042600 -0.011007 202203.000000 0 0 1
34.716696 29.549577 -18.161129 49.073955 0.705169 1.949888 0.027992 -0.002569 168978.000000 0 0 1
33.869896 29.414677 -19.286429 48.829903 0.715114 1.976833 0.022697 -0.014781 259894.000000 0 0 1
34.419996 28.376777 -20.062829 48.913134 0.689459 1.993440 0.015620 -0.013914 438961.000000 0 0 1
33.708656 28.377077 -21.453329 49.007931 0.699734 2.023893 0.031678 -0.023268 291033.000000 0 0 1
32.374446 27.894377 -21.480929 47.829189 0.711200 2.036574 0.028477 -0.006276 748379.000000 0 0 1
31.624176 28.135577 -22.688829 48.025849 0.727087 2.062842 0.042263 -0.007937 223461.000000 0 0 1
30.719386 29.351477 -22.702729 48.172646 0.762631 2.061536 0.055326 -0.007822 -695203.000000 0 0 1
31.383266 30.599777 -22.679029 49.351738 0.772758 2.048272 0.052896 -0.012892 367254.000000 0 0 1
30.431526 31.684177 -22.715929 49.456832 0.805562 2.048013 0.067827 -0.005853 113545.000000 0 0 1
30.986986 33.076677 -22.403429 50.558614 0.818006 2.029870 0.065994 -0.003991 -139089.000000 0 0 1
31.416016 33.216277 -21.101729 50.354445 0.813245 2.003210 0.074389 -0.012332 674905.000000 0 0 1
32.835486 33.050977 -20.935229 51.076609 0.788669 1.993118 0.066639 -0.008621 481692.000000 0 0 1
33.129486 32.872177 -19.413629 50.547323 0.781500 1.964995 0.047040 -0.005787 -298721.000000 0 0 1
33.091176 34.092477 -18.650129 51.040672 0.800301 1.944856 0.059554 -0.010363 65299.000000 0 0 1
33.148256 33.910277 -17.257229 50.463112 0.796761 1.919816 0.032585 -0.020770 -16480.800000 0 0 1
33.026726 -32.955964 -16.477629 49.481031 -0.784326 1.910289 0.033862 -0.015235 348679.000000 0 0 1
34.146936 -32.203764 -16.897229 49.885990 -0.756120 1.916349 0.041621 -0.004726 -376956.000000 0 0 1
35.106026 -31.917864 -15.936429 50.051502 -0.737866 1.894838 0.043706 -0.004714 -81569.800000 0 0 1
36.195166 -30.994864 -16.564029 50.449367 -0.708155 1.905331 0.041752 0.000259 163657.000000 0 0 1
-35.964342 -31.703664 -17.456229 51.022310 0.722517 1.919978 0.025745 0.001772 -1503180.000000 0 0 1
-34.804270 -31.015764 -17.650629 49.848365 0.727903 1.932733 0.019232 0.006312 -905817.000000 0 0 1
-33.853622 -31.646464 -18.687429 49.967853 0.751714 1.954103 0.012294 -0.006263 -615495.000000 0 0 1
-33.222862 -32.789364 -18.196729 50.100118 0.778831 1.942504 0.010117 -0.006267 127385.000000 0 0 1
-32.229052 -33.273964 -19.087229 50.101804 0.801349 1.961640 0.013161 -0.007041 1386720.000000 0 0 1
-30.847552 -32.583864 -19.426729 48.894554 0.812764 1.979390 0.011271 -0.006827 11962.600000 0 0 1
-31.024812 -31.779664 -20.577829 48.948269 0.797417 2.004682 0.012650 -0.010955 192071.000000 0 0 1
-29.804202 -31.345564 -21.149529 48.147039 0.810599 2.025582 0.019586 -0.012582 -2038.380000 0 0 1
-28.960702 -32.439564 -21.800229 48.644604 0.841996 2.035495 0.020665 0.003047 -818271.000000 0 0 1
-29.541752 -32.964764 -22.938929 49.855644 0.840106 2.048912 0.012559 0.012020 -326076.000000 0 0 1
-28.854542 -34.106864 -23.473629 50.466563 0.868627 2.054580 0.013356 -0.000548 295253.000000 0 0 1
-29.654132 33.347277 -24.584429 50.949019 -0.843951 2.074337 0.011278 -0.010825 -582129.000000 0 0 1
-30.801432 32.694877 -24.128229 50.988770 -0.815209 2.063724 0.008439 -0.016869 -411549.000000 0 0 1
-31.436022 31.870577 -25.080659 51.312733 -0.792262 2.081488 0.005915 -0.016298 8055.280000 0 0 1
-32.216332 32.502277 -26.223549 52.744332 -0.789816 2.091145 0.010872 -0.025883 -819990.000000 0 0 1
-31.443962 33.191777 -27.146109 53.172625 -0.812433 2.106595 0.009115 -0.018400 -659577.000000 0 0 1
-32.279382 -34.095464 -27.751879 54.540131 0.812752 2.104626 0.010865 -0.019699 236484.000000 0 0 1
-31.598272 -33.260864 -28.885059 54.213305 0.811026 2.132707 0.014994 -0.019448 132276.000000 0 0 1
-31.352032 -33.956764 -30.108149 55.158973 0.825260 2.148191 0.025060 -0.019173 28348.900000 0 0 1
-32.488462 -33.964864 -30.969569 56.286999 0.807612 2.153410 0.043131 -0.020157 173869.000000 0 0 1
-32.460052 33.403377 -32.294899 56.678048 -0.799720 2.177053 0.068844 -0.024668 -399275.000000 0 0 1
-31.589622 33.810377 -33.296869 57.006379 -0.819342 2.194555 0.048620 -0.029851 -513313.000000 0 0 1
-31.724062 33.051877 33.785164 56.923458 -0.805894 0.935372 0.049354 -0.046121 155291.000000 0 0 1
-30.672612 33.437277 32.674191 55.914787 -0.828495 0.946709 0.049826 -0.039676 652085.000000 0 0 1
-29.395942 32.928777 33.010219 55.118965 -0.842022 0.928682 0.061342 -0.036099 -190335.000000 0 0 1
-28.945072 31.719977 32.357477 53.767839 -0.831108 0.925044 0.066437 -0.040364 813457.000000 0 0 1
-27.466782 31.412777 32.794047 53.071991 -0.852316 0.904707 0.053046 -0.038739 131608.000000 0 0 1
-27.185012 31.282577 -34.107454 53.674416 -0.855366 2.259389 0.063365 -0.046668 314575.000000 0 0 1
-25.827982 31.004477 -33.743309 52.602026 -0.876231 2.267226 0.053347 -0.044817 440273.000000 0 0 1
-25.413762 29.535777 -34.024129 51.728742 -0.860272 2.288612 0.081486 -0.042089 -457893.000000 0 0 1
-25.711092 28.617177 -33.046559 50.715660 -0.838838 2.280494 0.083841 -0.039289 -103951.000000 0 0 1
-25.424052 27.305777 -33.420549 50.089130 -0.821069 2.301269 0.076897 -0.028169 -319221.000000 0 0 1
-25.382452 26.336377 -32.190289 48.724617 -0.803841 2.292491 0.095747 -0.030663 118182.000000 0 0 1
-24.243322 26.550677 -31.344249 47.698418 -0.830793 2.287806 0.080748 -0.028540 133087.000000 0 0 1
-24.354422 27.546677 -30.318339 47.656678 -0.846827 2.260336 0.063146 -0.033171 710887.000000 0 0 1
-22.993122 27.682377 -29.541629 46.558624 -0.877670 2.258163 0.094509 -0.031313 1847690.000000 0 0 1
-21.838722 27.997877 -30.396239 46.741226 -0.908362 2.278787 0.085235 -0.026411 2001450.000000 0 0 1
-20.578522 27.976177 -29.665979 45.675074 -0.936593 2.277724 0.044554 -0.020668 1408090.000000 0 0 1
-20.188422 29.236777 -28.792359 45.731405 -0.966465 2.251831 0.028541 -0.013678 -552881.000000 0 0 1
-19.698522 30.263377 -29.587049 46.682944 -0.993787 2.257236 0.025794 -0.004778 -158582.000000 0 0 1
-19.412822 31.371277 -28.774999 46.786913 -1.016662 2.233211 0.040231 -0.008270 -107174.000000 0 0 1
-19.143122 32.594977 -29.636149 48.033249 -1.039765 2.235712 0.036420 -0.002490 52069.200000 0 0 1
-17.919922 32.479877 -30.341829 47.923821 -1.066631 2.256382 0.033100 -0.002592 -150772.000000 0 0 1
-17.757922 33.605277 -31.218339 49.185802 -1.084667 2.258419 0.034832 0.000909 741818.000000 0 0 1
-16.241322 33.831777 -31.558669 49.033858 -1.123227 2.270002 0.025908 0.009260 157044.000000 0 0 1
-15.529122 -33.907564 -30.432239 48.135202 1.141323 2.255217 0.043653 -0.004038 -530425.000000 0 0 1
-14.145522 -33.829164 -30.659959 47.796874 1.174746 2.267201 0.063016 0.000571 323958.000000 0 0 1
-13.386122 33.013877 -30.599939 46.962332 -1.185584 2.280468 0.054815 0.000495 -685463.000000 0 0 1
-13.335122 32.355177 -29.368939 45.686076 -1.179862 2.268999 0.061080 -0.011968 -221235.000000 0 0 1
-12.827722 31.062177 -29.491959 44.712246 -1.179160 2.291076 0.049116 -0.005673 -77621.600000 0 0 1
-12.531222 30.415577 -28.070909 43.244824 -1.179988 2.277218 0.039789 -0.020478 -239020.000000 0 0 1
-11.348422 30.958377 -27.568309 42.979291 -1.219436 2.267160 0.040082 -0.016173 -560149.000000 0 0 1
-11.298622 30.580777 -26.221569 41.837943 -1.216884 2.248161 0.036525 -0.024239 -161103.000000 0 0 1
-9.986322 30.907277 -25.512599 41.302289 -1.258279 2.236616 0.039425 -0.024994 -604440.000000 0 0 1
-8.877422 30.237277 -25.999519 40.854333 -1.285229 2.260613 0.040389 -0.018008 -1264830.000000 0 0 1
-7.697822 30.773777 -25.477419 40.686370 -1.325684 2.247454 0.053705 -0.022427 -86463.400000 0 0 1
-6.486622 29.889777 -25.897929 40.077148 -1.357092 2.273393 0.033280 -0.015143 -67228.600000 0 0 1
-6.246922 28.769977 -25.090059 38.681348 -1.356982 2.276585 0.035166 -0.027742 57859.600000 0 0 1
-5.124722 28.062377 -25.591999 38.323755 -1.390168 2.302024 0.039159 -0.027957 96769.900000 0 0 1
-4.696622 26.931677 -24.651529 36.811294 -1.398142 2.304565 0.050260 -0.028933 62171.500000 0 0 1
-5.513722 25.754277 -24.810829 36.183714 -1.359891 2.326348 0.050933 -0.031816 575093.000000 0 0 1
-5.280522 24.802377 -23.791729 34.771945 -1.361025 2.324333 0.054734 -0.042722 -319641.000000 0 0 1
-6.100422 23.553177 -24.113729 34.255499 -1.317359 2.351722 0.051740 -0.037183 -127252.000000 0 0 1
-5.968322 22.893477 -25.386609 34.701759 -1.315773 2.391412 0.047729 -0.033856 158065.000000 0 0 1
-6.840522 21.766177 -25.442929 34.174579 -1.266297 2.410580 0.050059 -0.040878 -351404.000000 0 0 1
-6.695822 20.877977 -26.719859 34.564068 -1.260447 2.454436 0.057238 -0.037696 -419607.000000 0 0 1
-5.500722 20.149377 -26.741359 33.931631 -1.304293 2.478505 0.064007 -0.042765 -638221.000000 0 0 1
-5.397122 19.060577 -25.935789 32.635865 -1.294863 2.489313 0.064563 -0.043028 -244447.000000 0 0 1
-4.128422 18.163677 -25.988329 31.974306 -1.347303 2.519718 0.058038 -0.045042 200801.000000 0 0 1
-4.044022 17.554677 -27.300629 32.708487 -1.344379 2.558321 0.054525 -0.040821 345108.000000 0 0 1
-2.959322 16.630277 -27.452189 32.232691 -1.394692 2.589994 0.054501 -0.035849 74290.700000 0 0 1
-2.611522 16.293277 -28.931599 33.306581 -1.411866 2.623257 0.062080 -0.032678 -119059.000000 0 0 1
-1.896122 17.361577 -29.513699 34.293994 -1.462014 2.607259 0.057734 -0.039287 75351.200000 0 0 1
-1.609122 17.082577 -30.876269 35.323472 -1.476877 2.634377 0.055038 -0.043958 289034.000000 0 0 1
-0.796122 18.253577 -31.546019 36.455153 -1.527209 2.616620 0.058658 -0.017369 1100250.000000 0 0 1
0.607878 18.307877 -31.213529 36.191605 1.537605 2.610891 0.061364 -0.022959 787601.000000 0 0 1
1.208978 19.518677 -31.588009 37.151618 1.508936 2.587248 0.054094 -0.002235 -149753.000000 0 0 1
0.733278 20.826777 -30.845719 37.225673 1.535602 2.547424 0.068446 -0.012450 -335574.000000 0 0 1
1.234578 21.071377 -29.576519 36.335899 1.512273 2.521759 0.084101 -0.045375 -293112.000000 0 0 1
0.670378 22.280277 -29.108509 36.662862 1.540717 2.488076 0.084714 -0.048839 -274516.000000 0 0 1
1.291278 22.934377 -27.794209 36.057885 1.514553 2.450927 0.088965 -0.050963 1119480.000000 0 0 1
2.537678 23.584877 -28.106989 36.778921 1.463611 2.440619 0.092905 -0.058277 140907.000000 0 0 1
3.690878 22.841377 -27.805909 36.173466 1.410594 2.447575 0.104216 -0.057958 -277693.000000 0 0 1
4.863578 23.777977 -27.467189 36.653691 1.369038 2.417907 0.110559 -0.062460 -138828.000000 0 0 1
5.491278 24.414777 -28.590479 37.995407 1.349562 2.422604 0.104378 -0.063255 111932.000000 0 0 1
5.800678 25.752877 -28.270299 38.679043 1.349250 2.390428 0.110670 -0.069278 12983.600000 0 0 1
6.645778 26.494877 -29.356189 40.099011 1.325034 2.392185 0.103655 -0.053638 892262.000000 0 0 1
8.039478 26.170977 -29.345939 40.133993 1.272756 2.390874 0.102207 -0.050610 700151.000000 0 0 1
8.824378 27.034577 -30.150989 41.446594 1.255289 2.385418 0.105508 -0.047013 -27280.100000 0 0 1
10.335778 26.984577 -29.898579 41.580293 1.205008 2.373240 0.097592 -0.045472 -247435.000000 0 0 1
11.083078 27.945477 -30.582979 42.884763 1.193227 2.364768 0.103837 -0.044114 -509922.000000 0 0 1
12.434478 27.848177 -30.216129 42.931942 1.150849 2.351549 0.095859 -0.049842 -90987.200000 0 0 1
13.347378 28.877777 -30.953169 44.386678 1.137841 2.342494 0.101726 -0.054614 142488.000000 0 0 1
13.087478 30.266977 -30.561219 44.959538 1.162674 2.318217 0.104149 -0.049070 307176.000000 0 0 1
13.957778 31.147177 -31.271019 46.290850 1.149504 2.312484 0.143632 -0.057345 195810.000000 0 0 1
13.489878 32.619877 -31.320379 47.191094 1.178666 2.296541 0.140969 -0.060155 837372.000000 0 0 1
12.296478 32.729477 -32.131259 47.485154 1.211412 2.314012 0.113473 -0.061078 963765.000000 0 0 1
11.517378 33.842477 -31.693439 47.774861 1.242768 2.296139 0.094110 -0.043159 673905.000000 0 0 1
10.271678 -33.987664 -32.579489 48.188087 -1.277306 2.313239 0.064146 -0.035263 652997.000000 0 0 1
10.589278 -33.483264 -33.898009 48.809187 -1.264493 2.338522 0.057426 -0.020283 295390.000000 0 0 1
9.376378 -33.202764 33.671394 48.208949 -1.295566 0.797571 0.069422 -0.023532 392801.000000 0 0 1
9.522778 -32.560064 32.263793 46.816593 -1.286264 0.810477 0.063821 -0.023181 -257901.000000 0 0 1
9.499378 -31.150864 32.245242 45.829795 -1.274807 0.790364 0.053410 -0.025754 -79472.800000 0 0 1
9.564478 -30.719364 30.901554 44.610140 -1.268959 0.805567 0.068332 -0.024408 -773582.000000 0 0 1
8.948978 -29.344464 30.651034 43.366665 -1.274792 0.785849 0.058698 -0.038332 570443.000000 0 0 1
7.522578 -29.284464 30.639874 43.046148 -1.319353 0.778751 0.029650 -0.014577 611814.000000 0 0 1
6.883578 -29.321464 31.937054 43.898830 -1.340210 0.756103 0.024034 -0.001639 97321.900000 0 0 1
5.391478 -28.787164 31.959334 43.349370 -1.385654 0.741805 0.025497 -0.014511 1340360.000000 0 0 1
4.389378 -29.629664 31.406474 43.399887 -1.423725 0.761715 0.051397 -0.023809 260984.000000 0 0 1
4.596878 -29.967864 30.064414 42.697461 -1.418589 0.789604 0.063882 -0.026260 -1421100.000000 0 0 1
4.055878 -29.039264 28.980954 41.226505 -1.432025 0.791233 0.037433 -0.021599 164220.000000 0 0 1
2.645278 -29.132364 28.806744 41.055092 -1.480243 0.793071 0.065371 -0.026025 376342.000000 0 0 1
2.236378 -28.374664 27.674864 39.699131 -1.492143 0.799431 0.072620 -0.037312 153672.000000 0 0 1
0.832078 -28.900064 27.265384 39.740498 -1.542013 0.814701 0.066559 -0.031054 121402.000000 0 0 1
0.878578 -30.244364 26.813644 40.428517 -1.541755 0.845662 0.069720 -0.030934 75326.600000 0 0 1
0.697478 -31.233564 27.833214 41.841484 -1.548469 0.843026 0.097096 -0.040939 -765332.000000 0 0 1
1.045578 -32.667764 27.395704 42.647399 -1.538801 0.873201 0.093426 -0.036542 1881270.000000 0 0 1
2.472378 -32.943164 27.190294 42.786409 -1.495887 0.882155 0.087416 -0.033113 1649930.000000 0 0 1
3.066778 -32.485664 26.034234 41.743321 -1.476671 0.897362 0.081965 -0.041715 940984.000000 0 0 1
4.649278 -32.642164 26.104964 42.054676 -1.429316 0.901112 0.099084 -0.031943 1522840.000000 0 0 1
5.284978 -32.234364 24.905164 41.076178 -1.408287 0.919376 0.081012 -0.044533 854844.000000 0 0 1
6.703378 -32.072664 25.046514 41.242198 -1.364756 0.918135 0.071129 -0.047549 616955.000000 0 0 1
7.457278 -31.712864 23.739234 40.309651 -1.339842 0.941072 0.057921 -0.039101 487739.000000 0 0 1
8.832478 -31.401964 23.922204 40.452044 -1.296609 0.938037 0.052795 -0.032607 507659.000000 0 0 1
9.619878 -31.402064 22.744464 39.949247 -1.273528 0.965101 0.036070 -0.022533 989258.000000 0 0 1
10.850378 -30.406164 22.791464 39.518557 -1.228034 0.956078 0.029028 -0.018728 470378.000000 0 0 1
11.847378 -30.705864 23.721904 40.570176 -1.202561 0.946270 0.045764 -0.029918 -304750.000000 0 0 1
12.830378 -29.686664 23.702504 40.096450 -1.162849 0.938328 0.052307 -0.025173 115377.000000 0 0 1
14.078678 -30.051064 24.545974 41.276876 -1.132671 0.933946 0.076875 -0.029316 -159656.000000 0 0 1
13.828878 -30.051564 25.909694 42.019598 -1.139516 0.906367 0.068467 -0.031789 -164943.000000 0 0 1
14.956678 -29.581964 26.577584 42.487207 -1.102678 0.894969 0.081311 -0.031293 -784777.000000 0 0 1
-10.805522 -13.681423 25.417594 30.821984 0.902309 0.601199 0.056203 -0.025381 -886060.000000 0 0 1
-9.425722 -13.651123 25.360584 30.304399 0.966493 0.579272 0.049789 -0.022485 -1509820.000000 0 0 1
-8.796222 -13.764423 26.615414 31.228402 1.002154 0.550463 0.063839 -0.021353 -381850.000000 0 0 1
-7.274322 -13.823023 26.445904 30.714452 1.086372 0.533515 0.079851 -0.022753 -566539.000000 0 0 1
-6.917222 -15.000323 25.741894 30.585989 1.138719 0.570514 0.073957 -0.027206 -278082.000000 0 0 1
-6.987222 -14.878323 24.304844 29.341288 1.131743 0.594641 0.064969 -0.024379 -921945.000000 0 0 1
-6.281522 -16.022223 23.551034 29.168825 1.197162 0.631057 0.060740 -0.025772 -72846.500000 0 0 1
-6.954722 -17.250823 23.362694 29.862594 1.187575 0.672383 0.066740 -0.029798 -316540.000000 0 0 1
-7.131622 -17.988223 24.529594 31.243194 1.193345 0.667910 0.075648 -0.032995 -322611.000000 0 0 1
-7.695422 -19.412223 24.161844 31.935069 1.193379 0.712710 0.069297 -0.034606 134856.000000 0 0 1
-9.066622 -19.341023 23.792284 31.974233 1.132438 0.731598 0.055434 -0.030271 6024.190000 0 0 1
-9.533022 -20.620923 23.386794 32.604342 1.137762 0.770890 0.056205 -0.030002 -1312520.000000 0 0 1
-11.006922 -20.810723 23.395154 33.189934 1.084292 0.788532 0.056949 -0.029506 -1423780.000000 0 0 1
-11.617422 -20.870923 24.649424 34.324248 1.062876 0.769679 0.062577 -0.028828 -1706490.000000 0 0 1
-12.976122 -20.845923 24.550314 34.722473 1.014013 0.785487 0.075036 -0.023136 -1248270.000000 0 0 1
-13.658222 -20.745023 25.973824 35.938037 0.988549 0.763039 0.076555 -0.032025 -330038.000000 0 0 1
-13.387722 -21.861323 26.803224 37.088561 1.021314 0.763122 0.078126 -0.025162 230225.000000 0 0 1
-12.456322 -21.549223 27.849874 37.351632 1.046680 0.729342 0.068838 -0.024238 356599.000000 0 0 1
-12.034022 -22.851723 28.503154 38.463602 1.086085 0.736175 0.066985 -0.011410 283019.000000 0 0 1
-13.124322 -23.546123 29.119914 39.681697 1.062299 0.746843 0.065716 -0.016593 304211.000000 0 0 1
-12.704622 -24.729223 29.747864 40.717039 1.096210 0.751596 0.070704 -0.013515 -738244.000000 0 0 1
-13.713422 -25.190793 30.752674 42.051884 1.072276 0.750566 0.070546 -0.014593 -506386.000000 0 0 1
-13.639522 -24.599323 32.021944 42.621217 1.064530 0.720744 0.067082 -0.010236 259374.000000 0 0 1
-14.633922 -25.104303 32.930612 43.918139 1.043027 0.723009 0.072848 -0.016080 393823.000000 0 0 1
-14.333622 -24.552923 -33.871359 44.221801 1.042385 2.443302 0.065806 -0.015792 235355.000000 0 0 1
-14.452022 -23.131823 -33.624369 43.295962 1.012364 2.460074 0.060329 -0.018266 -115059.000000 0 0 1
-15.723222 -22.623023 -33.979439 43.744978 0.963427 2.460304 0.069988 -0.018985 -216210.000000 0 0 1
-15.858122 -21.102523 -33.672229 42.785692 0.926349 2.476723 0.046928 -0.019144 87635.100000 0 0 1
-15.917522 -20.825923 -32.293269 41.592569 0.918198 2.459760 0.041110 -0.019617 57963.400000 0 0 1
-16.214022 -19.466023 -32.165699 40.944508 0.876290 2.474449 0.034305 -0.026043 -260942.000000 0 0 1
-16.348122 -19.062223 -30.668169 39.637936 0.861896 2.455469 0.025775 -0.017565 555604.000000 0 0 1
-17.523022 -19.656223 -30.069049 39.969627 0.842711 2.422339 0.032080 -0.018607 748084.000000 0 0 1
-17.654522 -19.362223 -28.679799 38.847248 0.831499 2.401300 0.015424 -0.013040 -216174.000000 0 0 1
-16.793922 -20.227623 -27.737399 38.217219 0.877882 2.382968 0.008087 -0.011445 -776084.000000 0 0 1
-15.442422 -20.021823 -28.004369 37.730444 0.913815 2.407176 0.002132 -0.011494 -1178430.000000 0 0 1
-14.726422 -21.045823 -27.412459 37.566435 0.960251 2.388688 -0.008913 -0.007359 138359.000000 0 0 1
-13.205722 -20.969623 -27.753209 37.206945 1.008785 2.412704 0.020848 -0.009993 259076.000000 0 0 1
-12.489822 -20.058323 -26.921109 35.820079 1.013870 2.421227 0.014078 -0.016975 632192.000000 0 0 1
-11.071422 -20.185023 -26.882579 35.393284 1.069108 2.433400 0.008333 -0.022828 677898.000000 0 0 1
-10.468722 -21.354523 -26.082009 35.297039 1.114992 2.402276 0.036342 -0.018543 -553087.000000 0 0 1
-10.576922 -22.635923 -26.642739 36.525221 1.133680 2.388291 0.033863 -0.022033 207189.000000 0 0 1
-9.985822 -23.470923 -25.667809 36.186147 1.168540 2.359339 0.060780 -0.021521 66395.200000 0 0 1
-10.190222 -24.950423 -25.895719 37.375827 1.183053 2.336226 0.056612 -0.020522 -384176.000000 0 0 1
-9.350822 -25.335923 -26.983169 38.176409 1.217231 2.355764 0.065378 -0.022835 416247.000000 0 0 1
-9.338822 -26.687053 -27.349709 39.337246 1.234176 2.339581 0.057487 -0.023430 -52201.300000 0 0 1
-8.924022 -27.829813 -26.404379 39.386899 1.260491 2.305524 0.072807 -0.029533 -93590.100000 0 0 1
-10.049122 -28.138623 -25.600839 39.346790 1.227785 2.279231 0.068021 -0.028981 298995.000000 0 0 1
-9.772922 -29.179013 -24.757129 39.494812 1.247610 2.248294 0.098169 -0.027402 -394041.000000 0 0 1
-10.747022 -29.353283 -23.569729 39.149020 1.219828 2.216864 0.101397 -0.029360 -119982.000000 0 0 1
-10.876722 -28.311513 -22.654329 37.855824 1.204002 2.212345 0.090109 -0.037705 182737.000000 0 0 1
-11.779222 -27.292623 -23.069629 37.627717 1.163357 2.230778 0.066254 -0.030207 -240315.000000 0 0 1
-11.669922 -26.120803 -22.081729 36.139814 1.150634 2.228130 0.073450 -0.029974 -54029.200000 0 0 1
-12.234322 -26.506413 -20.838629 35.868050 1.138370 2.190729 0.064009 -0.028556 189096.000000 0 0 1
-12.235422 -25.423163 -19.947129 34.553302 1.122244 2.186197 0.056148 -0.020354 -376925.000000 0 0 1
-12.687522 -25.741123 -18.527229 34.158993 1.112854 2.144066 0.071255 -0.022431 262695.000000 0 0 1
-14.102022 -25.781733 -18.410029 34.676994 1.070277 2.130459 0.077401 -0.021848 72248.700000 0 0 1
-14.616222 -26.387863 -17.241529 34.745123 1.064964 2.090046 0.063544 -0.019374 493125.000000 0 0 1
-16.164222 -26.533873 -17.149229 35.488371 1.023645 2.075143 0.068398 -0.024874 -840657.000000 0 0 1
-16.845422 -25.342653 -17.309429 35.009065 0.984152 2.087972 0.048686 -0.012205 -191705.000000 0 0 1
-18.208022 -25.381723 -16.940529 35.535129 0.948509 2.067723 0.058244 -0.014205 478160.000000 0 0 1
-19.192422 -26.155613 -17.885329 37.045244 0.937758 2.074642 0.056991 -0.013499 -1246210.000000 0 0 1
-18.960922 -27.568023 -17.945129 37.967619 0.968314 2.063084 0.072092 -0.023804 -92134.500000 0 0 1
-19.297222 -28.405343 -16.853229 38.252811 0.974063 2.027035 0.076737 -0.026058 -373603.000000 0 0 1
-20.813922 -28.709553 -16.812729 39.244434 0.943500 2.013529 0.074913 -0.017413 56454.900000 0 0 1
-21.114222 -29.661543 -17.829429 40.540178 0.952169 2.026168 0.065875 -0.014234 -241954.000000 0 0 1
-22.450222 -30.100853 -17.748029 41.533918 0.929967 2.012316 0.056811 -0.006160 154211.000000 0 0 1
-22.857522 -31.057933 -18.934829 42.960321 0.936339 2.027232 0.034139 -0.009894 283535.000000 0 0 1
-22.379222 -32.407783 -18.745729 43.617614 0.966440 2.015039 0.037096 -0.014663 -68943.500000 0 0 1
-22.922722 -33.189523 -19.765329 44.918413 0.966365 2.026425 0.022338 0.004318 93732.200000 0 0 1
-22.460222 33.569569 -19.829129 44.995242 -0.981135 2.027168 0.014677 0.005598 477024.000000 0 0 1
-23.218522 32.738091 -18.953029 44.385804 -0.953909 2.011976 0.014357 0.002990 -119456.000000 0 0 1
-22.322622 31.747099 -18.586429 43.030606 -0.957967 2.017434 0.022290 -0.008430 -70225.900000 0 0 1
-22.965022 30.470189 -17.935329 42.160415 -0.924939 2.010208 0.023918 -0.016240 24017.600000 0 0 1
-23.238922 30.554809 -16.544129 41.801340 -0.920568 1.977713 0.016118 -0.018191 -175869.000000 0 0 1
-23.961222 29.437159 -16.040529 41.206614 -0.887590 1.970636 0.003899 -0.012695 77584.400000 0 0 1
-23.267822 28.027849 -15.888929 39.741790 -0.877929 1.982099 0.007505 -0.023019 -155494.000000 0 0 1
-22.831222 27.530719 -17.106929 39.646591 -0.878443 2.016935 0.002099 -0.015070 -86764.700000 0 0 1
-22.170222 26.279359 -17.029029 38.368102 -0.870008 2.030668 0.007725 -0.013618 162556.000000 0 0 1
-21.533422 25.751599 -18.324629 38.244282 -0.874370 2.070479 0.025394 -0.007710 -1023400.000000 0 0 1
-21.214622 24.370899 -18.235629 37.101739 -0.854526 2.084611 0.034089 -0.019231 -148447.000000 0 0 1
-20.392022 23.840749 -19.239829 36.801995 -0.863208 2.120921 0.031514 -0.008389 1512010.000000 0 0 1
-18.924122 24.483889 -19.316529 36.478918 -0.912786 2.128838 0.042818 -0.019478 -46393.300000 0 0 1
-18.084622 24.183039 -18.256629 35.287071 -0.928690 2.114576 0.060434 -0.025903 53397.000000 0 0 1
-16.927022 25.011139 -18.251729 35.287487 -0.975825 2.114407 0.083589 -0.032224 156389.000000 0 0 1
-17.119522 26.307779 -17.408529 35.891978 -0.993901 2.077189 0.081995 -0.042805 -512832.000000 0 0 1
-18.031722 27.227739 -17.964229 37.272057 -0.985854 2.073705 0.067721 -0.036028 -76505.900000 0 0 1
-17.990222 28.436129 -17.198629 37.789606 -1.006712 2.043298 0.084830 -0.044758 -389768.000000 0 0 1
-19.114622 29.431049 -17.516929 39.222419 -0.994793 2.033764 0.071919 -0.035302 -215313.000000 0 0 1
-19.178722 29.921739 -18.846329 40.228322 -1.000800 2.058370 0.082490 -0.033042 -242998.000000 0 0 1
-19.960922 29.122979 -19.673429 40.418190 -0.969936 2.079158 0.046354 -0.027813 -677027.000000 0 0 1
-19.871822 29.718819 -21.110929 41.518295 -0.981414 2.104207 0.042375 -0.029712 385214.000000 0 0 1
-20.652222 30.913259 -21.311829 42.852513 -0.981823 2.091314 0.045907 -0.022034 277847.000000 0 0 1
-20.808422 31.118089 -22.721529 43.790338 -0.981393 2.116326 0.047853 -0.023440 125390.000000 0 0 1
-21.304622 32.429930 -23.338229 45.279799 -0.989556 2.112297 0.043656 -0.019626 -628824.000000 0 0 1
-20.352622 33.419457 -23.192929 45.486275 -1.023782 2.105851 0.032843 -0.012107 -398838.000000 0 0 1
-20.647922 -33.694633 -23.958929 46.213582 1.021021 2.115821 0.036211 -0.002104 -60807.500000 0 0 1
-19.635022 -32.532733 -23.751229 44.811088 1.027773 2.129432 0.052148 -0.006329 22848.000000 0 0 1
-19.608722 -31.721193 -22.622329 43.617723 1.017132 2.116067 0.053602 -0.009816 -86164.100000 0 0 1
-19.107022 -32.376303 -21.495729 43.305538 1.037648 2.090213 0.066987 -0.023086 -300526.000000 0 0 1
-18.841622 -31.422223 -20.278329 41.875690 1.030651 2.076303 0.084096 -0.030244 -431518.000000 0 0 1
-17.647422 -30.765293 -20.557429 40.994422 1.050004 2.096092 0.082360 -0.031557 -518650.000000 0 0 1
-17.420722 -29.802263 -19.578829 39.686105 1.041819 2.086724 0.076354 -0.032150 -186329.000000 0 0 1
-16.133622 -29.002513 -19.878329 38.685752 1.063142 2.110453 0.091155 -0.034708 470599.000000 0 0 1
-14.985822 -29.864773 -19.867729 38.874235 1.105718 2.107234 0.106904 -0.040068 811116.000000 0 0 1
-13.820822 -29.051983 -20.132029 37.951698 1.126755 2.129945 0.095962 -0.043559 -78173.200000 0 0 1
-12.496622 -29.808693 -20.308029 38.172500 1.173825 2.131765 0.118940 -0.048010 -207482.000000 0 0 1
-11.899022 -30.366393 -19.181929 37.837163 1.197337 2.102451 0.113658 -0.042990 138976.000000 0 0 1
-11.271822 -29.428813 -18.298729 36.441082 1.205013 2.096874 0.084728 -0.035808 -191850.000000 0 0 1
-10.535622 -30.179403 -17.093629 36.248970 1.234924 2.061857 0.080681 -0.024710 99411.900000 0 0 1
-11.339822 -30.860923 -16.138929 36.625853 1.218662 2.027111 0.107832 -0.038417 -100454.000000 0 0 1
-11.685622 -32.106053 -16.659529 38.011739 1.221731 2.024473 0.124093 -0.038653 222335.000000 0 0 1
-12.646422 -32.890903 -15.674929 38.567432 1.203726 1.989339 0.125014 -0.045301 337002.000000 0 0 1
-12.061722 -33.408933 -14.481529 38.358266 1.224327 1.957928 0.120245 -0.042468 341825.000000 0 0 1
-13.114222 -33.700903 -13.550429 38.617972 1.199691 1.929311 0.120250 -0.036065 263724.000000 0 0 1
-12.628922 33.964242 -12.186929 38.230624 -1.214808 1.895232 0.091178 -0.027836 46724.800000 0 0 1
-11.902122 -33.173583 -11.584529 37.099170 1.226318 1.888366 0.071136 -0.023589 107635.000000 0 0 1
-11.735722 -33.518963 -10.197429 36.949094 1.234013 1.850412 0.074457 -0.023918 -221297.000000 0 0 1
-10.409822 -32.913093 -9.711229 35.860062 1.264470 1.845030 0.067570 -0.028974 1270410.000000 0 0 1
-9.199922 -33.385453 -10.385829 36.153733 1.301903 1.862170 0.048048 -0.033043 686411.000000 0 0 1
-8.080822 -32.637653 -9.987229 35.075074 1.328085 1.859530 0.039413 -0.035050 535843.000000 0 0 1
-6.764222 -33.214243 -10.648229 35.529219 1.369890 1.875178 0.032052 -0.042287 458658.000000 0 0 1
-6.218922 34.024051 -9.833829 35.958520 -1.390012 1.847802 0.033482 -0.022681 -1103520.000000 0 0 1
-5.093922 33.476205 -10.411929 35.426157 -1.419789 1.869106 0.033835 -0.021739 -833292.000000 0 0 1
-4.529822 32.470052 -9.418229 34.110505 -1.432183 1.850540 0.031020 -0.025972 -375485.000000 0 0 1
-4.014822 33.113120 -8.256729 34.362349 -1.450140 1.813455 0.037118 -0.028320 -154525.000000 0 0 1
-3.289322 32.178727 -7.483929 33.200893 -1.468930 1.798164 0.035285 -0.030181 -317515.000000 0 0 1
-2.820122 32.815608 -6.133229 33.502741 -1.485069 1.754901 0.042124 -0.026390 -228797.000000 0 0 1
-1.830322 33.848328 -6.249229 34.469004 -1.516775 1.753104 0.022778 -0.020961 193583.000000 0 0 1
-1.605122 -33.719723 -4.972629 34.122180 1.523230 1.717047 0.028914 -0.015547 -294766.000000 0 0 1
-0.840822 33.665473 -3.941029 33.905792 -1.545826 1.687294 0.043046 -0.012256 -256635.000000 0 0 1
0.490678 33.499001 -4.431929 33.794464 1.556150 1.702319 0.037216 -0.022268 155469.000000 0 0 1
1.300078 32.620048 -3.706029 32.855629 1.530962 1.683834 0.040559 -0.018736 224518.000000 0 0 1
2.776078 32.646970 -4.189429 33.031539 1.485967 1.697970 0.058983 -0.016571 108245.000000 0 0 1
3.482378 33.743129 -3.699629 34.123495 1.467958 1.679429 0.050858 -0.016461 601053.000000 0 0 1
4.870478 33.656768 -4.098029 34.253371 1.427084 1.690722 0.065521 -0.011718 1348030.000000 0 0 1
5.690478 -33.325043 -3.614329 34.000050 -1.401671 1.677301 0.063064 -0.012054 51335.100000 0 0 1
5.559578 -32.245503 -4.450829 33.022587 -1.400061 1.705989 0.062482 -0.013960 -29400.400000 0 0 1
5.687478 -30.972863 -3.866529 31.727207 -1.389192 1.692968 0.066177 -0.019805 -155944.000000 0 0 1
5.677078 -29.822803 -4.875329 30.747319 -1.382687 1.730029 0.054456 -0.020869 532116.000000 0 0 1
6.819978 -29.711383 -5.759529 31.023387 -1.345164 1.757531 0.064223 -0.021986 623397.000000 0 0 1
6.795478 -28.497883 -6.522029 30.014075 -1.336712 1.789843 0.058541 -0.017664 140523.000000 0 0 1
7.219078 -27.180443 -5.834029 28.721550 -1.311192 1.775343 0.060555 -0.015571 -227543.000000 0 0 1
6.325378 -26.731183 -4.872029 27.898086 -1.338441 1.746333 0.060155 -0.028406 -667875.000000 0 0 1
6.806578 -25.552083 -4.238229 26.780609 -1.310461 1.729722 0.055570 -0.029480 -271839.000000 0 0 1
5.914978 -24.876323 -3.163029 25.764766 -1.337356 1.693872 0.052198 -0.027762 179194.000000 0 0 1
4.814178 -24.219023 -3.796229 24.982969 -1.374577 1.723340 0.051427 -0.034269 152120.000000 0 1 0
3.954078 -23.590123 -2.864929 24.090173 -1.404724 1.690004 0.046246 -0.035736 -356628.000000 0 1 0
2.697278 -23.011023 -3.473529 23.427502 -1.454112 1.719612 0.050663 -0.034551 -83747.200000 0 1 0
1.849478 -23.962923 -4.116629 24.384193 -1.493768 1.740432 0.053190 -0.033524 -401167.000000 0 1 0
0.739178 -23.422423 -4.756829 23.911999 -1.539248 1.771063 0.053579 -0.029605 -41523.200000 0 1 0
-15.217122 23.057077 17.719564 32.820307 -0.987440 1.000482 -0.004612 -0.008184 -121862.000000 0 0 1
-15.155222 22.569777 19.046564 33.194084 -0.979467 0.959666 0.005180 -0.007817 278654.000000 0 0 1
-14.850322 23.506277 19.969664 34.232508 -1.007351 0.947945 0.008289 -0.003778 -1200370.000000 0 0 1
-15.053722 22.993677 21.418464 34.843570 -0.991131 0.908786 0.025822 -0.011454 32855.700000 0 0 1
-14.056722 22.127077 21.992264 34.217812 -1.004844 0.872761 0.025255 -0.002328 627644.000000 0 0 1
-12.744122 22.648477 22.105264 34.117574 -1.058261 0.865953 0.004433 -0.005479 -167693.000000 0 0 1
-12.578022 23.677377 23.257754 35.492928 -1.082482 0.856245 0.021030 -0.008939 -734185.000000 0 0 1
-12.312122 23.154177 24.511794 35.896132 -1.082076 0.819135 0.025227 -0.004104 -13964.200000 0 0 1
-12.057722 24.190977 25.454064 37.128176 -1.108398 0.815406 0.047950 -0.015586 -90240.400000 0 0 1
-11.587422 23.603777 26.786254 37.535451 -1.114444 0.776136 0.050507 -0.016152 821211.000000 0 0 1
-10.185122 23.298277 26.693944 36.866151 -1.158670 0.761101 0.026065 -0.018691 483864.000000 0 0 1
-9.770122 22.586877 27.834584 37.153551 -1.162542 0.723978 0.031720 -0.021636 -224388.000000 0 0 1
-8.241922 22.302577 27.863624 36.629439 -1.216812 0.706422 0.030237 -0.028377 367387.000000 0 0 1
-7.370822 23.336677 28.279144 37.398389 -1.264865 0.713372 0.031267 -0.028090 78595.100000 0 0 1
-7.254422 24.451177 27.386694 37.423492 -1.282379 0.749830 0.031140 -0.019802 -239769.000000 0 0 1
-6.084322 25.466677 27.705294 38.120256 -1.336279 0.757164 0.032360 -0.022898 1094860.000000 0 0 1
-4.794422 24.900277 27.509154 37.413418 -1.380579 0.744724 0.033413 -0.025081 616752.000000 0 0 1
-3.762622 25.610977 28.223634 38.296906 -1.424925 0.742221 0.047706 -0.020659 1159000.000000 0 0 1
-2.314322 25.034777 28.144364 37.738593 -1.478614 0.729104 0.061391 -0.021316 597569.000000 0 0 1
-1.645622 25.352077 26.896004 36.997715 -1.505977 0.756906 0.054720 -0.022201 -616241.000000 0 0 1
-0.404622 24.743477 26.935344 36.577536 -1.554445 0.743077 0.062051 -0.012655 -484132.000000 0 0 1
0.206178 24.526077 25.525084 35.399165 1.562390 0.765459 0.056957 -0.020498 267558.000000 0 0 1
-0.469022 23.452677 24.857844 34.178363 -1.550800 0.756420 0.057199 -0.014297 396435.000000 0 0 1
-0.002922 23.347977 23.495214 33.123302 -1.570671 0.782255 0.055358 -0.012871 243968.000000 0 0 1
-0.583522 22.098577 22.834164 31.781861 -1.544397 0.769203 0.046068 -0.007103 51214.700000 0 0 1
0.052078 20.970577 23.356594 31.389462 1.568313 0.731624 0.047304 -0.008133 -103048.000000 0 0 1
-0.327222 19.771777 22.716664 30.117720 -1.554248 0.716266 0.041572 -0.002559 50689.900000 0 0 1
0.638378 18.603877 23.031064 29.613201 1.536496 0.679750 0.047015 0.001143 1469560.000000 0 0 1
1.960478 18.741477 22.450564 29.310651 1.466569 0.698275 0.053635 -0.006296 1091540.000000 0 0 1
2.820278 17.617977 22.644664 28.829289 1.412063 0.667334 0.044884 -0.006801 561809.000000 0 0 1
4.209378 17.787677 21.959564 28.571713 1.338425 0.694182 0.061823 -0.008976 475941.000000 0 0 1
5.115778 18.552777 22.740364 29.790953 1.301741 0.702342 0.063591 -0.008833 -777464.000000 0 0 1
6.220278 18.896977 21.973064 29.641241 1.252799 0.735791 0.077795 -0.017615 -93340.100000 0 0 1
7.482078 19.335177 22.787364 30.807378 1.201575 0.738213 0.085363 -0.025949 -15847.700000 0 0 1
7.323178 20.446277 23.646994 32.107001 1.226865 0.742906 0.067270 -0.024695 68946.400000 0 0 1
7.082078 21.687677 22.998564 32.395141 1.255165 0.781385 0.069306 -0.028926 -950519.000000 0 0 1
5.735978 22.297977 23.301714 32.757764 1.319013 0.779402 0.048661 -0.017578 -904651.000000 0 0 1
5.506078 23.510677 22.609364 33.079483 1.340748 0.818269 0.047364 -0.023207 450635.000000 0 0 1
4.225378 23.944377 23.053364 33.505889 1.396128 0.812013 0.040229 -0.022047 57705.800000 0 0 1
3.910178 25.393477 22.690064 34.277649 1.418013 0.847380 0.047570 -0.020683 -62837.400000 0 0 1
3.816678 25.730477 21.292164 33.615186 1.423537 0.884845 0.047889 -0.024457 201600.000000 0 0 1
2.683778 25.188277 20.638964 32.674437 1.464648 0.887110 0.055645 -0.022964 -117913.000000 0 0 1
2.397178 25.607477 19.166364 32.075518 1.477456 0.930368 0.056231 -0.020688 -337497.000000 0 0 1
2.000978 26.952077 19.101564 33.095138 1.496690 0.955536 0.068279 -0.030349 242705.000000 0 0 1
1.473978 27.353577 17.840764 32.690728 1.516962 0.993520 0.068670 -0.021755 -97688.700000 0 0 1
0.324678 28.335477 18.065664 33.606144 1.559338 1.003243 0.051157 -0.008362 -125928.000000 0 0 1
0.806078 29.646377 18.250264 34.822832 1.543613 1.019151 0.055291 -0.005517 467450.000000 0 0 1
-0.283722 30.452377 18.697364 35.735406 -1.561480 1.020175 0.042816 -0.005213 280667.000000 0 0 1
0.055678 31.855477 19.266964 37.228893 1.569048 1.026838 0.036916 0.004711 -164423.000000 0 0 1
0.474878 31.741477 20.575564 37.829892 1.555837 0.995722 0.047915 -0.000859 -116895.000000 0 0 1
1.079878 32.922977 21.062864 39.099013 1.538008 1.001896 0.040593 -0.006022 241625.000000 0 0 1
1.769178 32.642877 22.422064 39.641347 1.516651 0.969608 0.044561 -0.018702 368261.000000 0 0 1
0.675378 32.419877 23.302064 39.931075 1.549967 0.947694 0.043241 -0.011851 591430.000000 0 0 1
1.003678 32.397777 24.694614 40.748587 1.539826 0.919744 0.063766 -0.020901 -568977.000000 0 0 1
-0.157922 31.899577 25.556134 40.874490 -1.565846 0.895365 0.066069 -0.025297 29826.700000 0 0 1
-1.153222 32.953977 25.631074 41.764177 -1.535816 0.910046 0.064589 -0.017945 304555.000000 0 0 1
-2.200122 32.654277 26.525344 42.127619 -1.503522 0.889703 0.059824 -0.017448 -128998.000000 0 0 1
-2.079222 33.015677 28.024294 43.355728 -1.507903 0.867965 0.079472 -0.024566 -377100.000000 0 0 1
-1.216022 32.135977 28.736284 43.127413 -1.532974 0.841545 0.085766 -0.027597 328327.000000 0 0 1
-0.718222 32.591077 29.963524 44.277612 -1.548763 0.827499 0.088474 -0.034774 -589321.000000 0 0 1
0.448578 31.720177 30.523234 44.023161 1.556656 0.804676 0.078936 -0.031246 487389.000000 0 0 1
1.776778 31.979677 30.052114 43.920226 1.515294 0.817231 0.069400 -0.028247 664510.000000 0 0 1
1.979878 31.698677 28.667414 42.784889 1.508418 0.836539 0.058218 -0.026531 -1259790.000000 0 0 1
3.467978 31.694177 28.322814 42.646566 1.461810 0.844468 0.051899 -0.023655 -115957.000000 0 0 1
4.203278 30.568577 28.761134 42.181848 1.434150 0.820526 0.045456 -0.025765 -740316.000000 0 0 1
5.569878 30.668977 28.619164 42.316265 1.391142 0.828047 0.053451 -0.034713 -988608.000000 0 0 1
6.433278 29.624677 29.315934 42.171466 1.356957 0.802153 0.042105 -0.016977 -85397.300000 0 0 1
6.382878 29.581877 30.730404 43.129878 1.358284 0.777730 0.061799 -0.027380 96489.400000 0 0 1
7.150878 28.542977 31.346024 42.993137 1.325319 0.753800 0.034662 -0.016288 -67136.300000 0 0 1
7.244478 28.858577 32.797781 44.283116 1.324845 0.736776 0.074644 -0.029495 4986.530000 0 0 1
6.015078 28.623577 33.486160 44.461368 1.363666 0.717956 0.066414 -0.032523 203210.000000 0 0 1
6.202978 28.350077 -33.386719 44.236600 1.355392 2.426040 0.086614 -0.035608 77921.000000 0 0 1
6.383578 26.823477 -32.965979 42.976793 1.337158 2.445050 0.072730 -0.028146 1135040.000000 0 0 1
7.605478 26.226677 -33.494079 43.214988 1.288548 2.457602 0.067038 -0.027870 966778.000000 0 0 1
7.686478 24.800177 -33.239109 42.177827 1.270249 2.478465 0.075188 -0.025328 -26809.100000 0 0 1
9.032178 24.110577 -33.540829 42.283417 1.212363 2.486905 0.075634 -0.024500 -370456.000000 0 0 1
9.224878 23.909577 33.351912 42.060864 1.202570 0.655171 0.047000 -0.011826 385895.000000 0 0 1
10.382978 23.108277 33.067255 41.656237 1.148509 0.653743 0.062455 -0.021343 187407.000000 0 0 1
10.412678 21.618277 33.526445 41.228586 1.121927 0.621193 0.049845 -0.019497 -722232.000000 0 0 1
9.699378 20.714377 32.712331 39.915661 1.132875 0.610195 0.041866 -0.014512 68712.400000 0 0 1
9.430078 19.436777 33.282079 39.678854 1.119086 0.575746 0.045555 -0.018117 -377534.000000 0 0 1
8.089778 19.333277 34.003838 39.943474 1.174497 0.552340 0.054361 -0.026264 -684614.000000 0 0 1
8.081578 19.991577 -33.014239 39.432411 1.186632 2.563006 0.053081 -0.022736 167759.000000 0 0 1
6.909478 20.708577 -32.664349 39.287985 1.248758 2.552433 0.066861 -0.026230 -136986.000000 0 0 1
6.907378 21.382677 -31.260109 38.498379 1.258342 2.518341 0.081571 -0.037505 -891462.000000 0 0 1
7.913778 22.268177 -30.979549 38.964497 1.229332 2.489921 0.095966 -0.034353 -562425.000000 0 0 1
7.920478 22.646577 -29.596039 38.098910 1.234351 2.460398 0.078237 -0.039342 -743510.000000 0 0 1
9.352178 22.965477 -29.183189 38.295364 1.184075 2.437278 0.080854 -0.040380 -63850.200000 0 0 1
10.121278 21.738677 -29.143179 37.740366 1.135055 2.453096 0.073840 -0.037766 -341273.000000 0 0 1
11.491878 21.989277 -29.289919 38.386077 1.089223 2.438792 0.064675 -0.035950 -79685.900000 0 0 1
12.339878 20.689077 -29.143569 37.810820 1.032996 2.450850 0.055250 -0.041043 -630114.000000 0 0 1
12.290478 19.810077 -30.260469 38.199358 1.015501 2.485156 0.033618 -0.030459 -82233.000000 0 0 1
11.009178 19.294477 -30.553719 37.775767 1.052285 2.512936 0.050122 -0.031196 -109928.000000 0 0 1
11.105778 18.231177 -31.670939 38.193749 1.023666 2.548503 0.044419 -0.033252 -178397.000000 0 0 1
11.626878 16.928277 -31.335329 37.465367 0.968963 2.561444 0.030791 -0.024603 330407.000000 0 0 1
11.706678 16.049577 -32.369739 37.979405 0.940605 2.591158 0.032449 -0.018884 350986.000000 0 0 1
12.950978 16.135577 -33.332669 39.232021 0.894451 2.586078 0.025206 -0.013033 178023.000000 0 0 1
13.205878 17.371577 -34.005359 40.404595 0.920799 2.571074 0.038364 -0.026531 72474.400000 0 0 1
13.761278 17.256577 32.946743 39.656653 0.897611 0.590253 0.045275 -0.028524 456029.000000 0 0 1
12.704278 16.952177 31.801364 38.211278 0.927667 0.587641 0.054209 -0.035397 -220569.000000 0 0 1
13.036678 17.520477 30.561174 37.562048 0.931093 0.620447 0.046207 -0.030910 -146801.000000 0 0 1
12.265978 17.183477 29.422684 36.213540 0.950853 0.622407 0.056598 -0.026553 309163.000000 0 0 1
10.735778 17.444777 29.424884 35.852489 1.019119 0.608125 0.058437 -0.028485 254385.000000 0 0 1
9.991378 16.566077 30.279954 35.932411 1.028084 0.568533 0.070139 -0.027175 -189625.000000 0 0 1
8.654278 16.990777 30.356274 35.848102 1.099696 0.560851 0.082723 -0.024124 249696.000000 0 0 1
7.740878 15.988377 31.161594 35.869128 1.119904 0.518107 0.082185 -0.020460 217971.000000 0 0 1
7.980678 16.156377 32.534720 37.191770 1.111989 0.505809 0.080624 -0.021123 245014.000000 0 0 1
7.437078 15.154077 33.384707 37.409823 1.114565 0.468149 0.086549 -0.020154 -242966.000000 0 0 1
7.629178 15.417077 -33.367879 37.540724 1.111275 2.665614 0.082713 -0.026732 -383177.000000 0 0 1
6.740878 16.353677 -32.839859 37.300650 1.179823 2.647522 0.081275 -0.031756 91718.400000 0 0 1
7.040678 16.642277 -31.488659 36.305264 1.170570 2.620610 0.085783 -0.032445 361851.000000 0 0 1
5.898278 17.551277 -30.893519 36.017309 1.246594 2.601655 0.074842 -0.036893 40268.100000 0 0 1
5.961978 17.901477 -29.500109 35.018059 1.249306 2.572566 0.071007 -0.044814 -127028.000000 0 0 1
5.214078 19.054077 -29.124499 35.192057 1.303689 2.545592 0.072145 -0.047119 989383.000000 0 0 1
3.662878 18.818377 -28.959309 34.730240 1.378556 2.556816 0.075818 -0.049432 -230635.000000 0 0 1
3.413978 17.842977 -27.979589 33.359923 1.381747 2.565722 0.098192 -0.045375 221647.000000 0 0 1
2.081678 17.348377 -28.039399 33.037970 1.451375 2.584323 0.072623 -0.043590 1586800.000000 0 0 1
0.891878 18.361377 -27.625549 33.182926 1.522261 2.554443 0.061476 -0.051994 294456.000000 0 0 1
0.732078 18.760877 -26.281819 32.299233 1.531795 2.521282 0.094200 -0.054724 -254940.000000 0 0 1
-0.231022 19.782477 -26.224449 32.849985 -1.559119 2.495279 0.102123 -0.056264 -110576.000000 0 0 1
-0.713122 20.373177 -24.885329 32.169154 -1.535808 2.455263 0.064887 -0.054610 249237.000000 0 0 1
-1.654722 19.513677 -24.226529 31.151989 -1.486201 2.461776 0.056069 -0.049754 144034.000000 0 0 1
-2.205122 20.222677 -23.162229 30.827067 -1.462183 2.420917 0.090492 -0.044612 -98803.100000 0 0 1
-3.171622 19.371977 -22.305729 29.713267 -1.408514 2.419916 0.078378 -0.045687 -14929.400000 0 0 1
-4.468922 19.209277 -22.825129 30.165445 -1.342218 2.428993 0.064706 -0.030057 -61052.000000 0 0 1
-5.249022 18.410277 -21.926429 29.107711 -1.293052 2.423840 0.048510 -0.037059 -91528.200000 0 0 1
-6.788222 18.406877 -22.123729 29.569451 -1.217484 2.416134 0.070969 -0.025774 423702.000000 0 0 1
-7.471822 19.388077 -21.359729 29.798719 -1.202955 2.369999 0.030002 -0.007738 59144.700000 0 0 1
-7.255522 20.681277 -21.804529 30.915939 -1.233386 2.353621 0.036874 -0.015709 -633213.000000 0 0 1
-7.967922 21.644877 -20.813229 31.067330 -1.218071 2.304924 0.042311 -0.026913 75280.000000 0 0 1
-7.448022 21.719377 -19.499929 30.123937 -1.240442 2.274864 0.056410 -0.032124 245880.000000 0 0 1
-7.904022 22.965077 -18.872629 30.757836 -1.239320 2.231392 0.075704 -0.034362 11881.900000 0 0 1
-7.315222 23.197077 -17.455129 29.938243 -1.265316 2.193259 0.109528 -0.044844 257464.000000 0 0 1
-5.897622 23.254177 -17.483029 29.684929 -1.322418 2.200559 0.123377 -0.051099 22962.100000 0 0 1
-5.401122 23.454177 -16.163329 28.991788 -1.344458 2.162185 0.138393 -0.044583 813178.000000 0 0 1
-3.852222 23.686777 -16.081529 28.888036 -1.409576 2.161186 0.126888 -0.042964 804890.000000 0 0 1
-3.561422 25.064577 -16.311529 30.116154 -1.429651 2.143160 0.111768 -0.055880 308267.000000 0 0 1
-2.300422 25.027977 -16.990129 30.337371 -1.479140 2.165230 0.103686 -0.049328 361900.000000 0 0 1
-1.497022 26.284677 -17.244629 31.472251 -1.513904 2.150685 0.092045 -0.066141 -89724.400000 0 0 1
-2.163322 27.309077 -18.007929 32.783398 -1.491745 2.152323 0.087788 -0.064538 -28133.000000 0 0 1
-1.353322 28.437077 -18.315529 33.851993 -1.523242 2.142478 0.085733 -0.058861 -424749.000000 0 0 1
-2.060222 29.448777 -19.292429 35.265746 -1.500951 2.149643 0.108012 -0.052748 722301.000000 0 0 1
-3.056722 30.265277 -18.664329 35.688762 -1.470140 2.121134 0.070679 -0.042630 557114.000000 0 0 1
-4.324822 29.603777 -18.511229 35.181718 -1.425732 2.124875 0.045117 -0.046223 276128.000000 0 0 1
-5.344722 30.434877 -17.675429 35.598716 -1.396957 2.090380 0.072020 -0.041256 266739.000000 0 0 1
-5.833122 31.553477 -18.388629 36.983630 -1.387995 2.091176 0.104666 -0.046664 -29749.300000 0 0 1
-5.885622 32.727577 -17.582429 37.614846 -1.392861 2.057181 0.098345 -0.061036 -91752.100000 0 0 1
-6.556822 34.007077 -18.135929 39.094567 -1.380326 2.053188 0.096985 -0.042412 340635.000000 0 0 1
-7.967522 33.936077 -18.238529 39.341869 -1.340193 2.052840 0.110729 -0.056708 137519.000000 0 0 1
-8.559922 -33.094864 -18.659429 38.945045 1.317695 2.070451 0.143894 -0.054729 -80085.400000 0 0 1
29.457778 -20.332123 -26.135069 44.319270 -0.604127 2.201484 0.051254 -0.001393 163678.000000 0 0 1
29.153578 -21.684523 -25.830749 44.580009 -0.639523 2.188819 0.054676 -0.007146 54407.000000 0 0 1
27.762278 -21.963723 -25.880459 43.851423 -0.669312 2.202084 0.046111 -0.008640 198520.000000 0 0 1
27.347678 -23.371123 -25.429609 44.054170 -0.707154 2.186135 0.034043 -0.001112 10730.000000 0 0 1
27.779478 -24.369523 -26.292599 45.352770 -0.720102 2.189200 0.035788 0.005437 -392619.000000 0 0 1
29.111978 -24.771023 -26.089619 46.279359 -0.705009 2.169706 0.040868 0.005021 -198250.000000 0 0 1
29.469778 -26.159523 -26.664609 47.579300 -0.725963 2.165695 0.040940 0.003156 -161698.000000 0 0 1
28.942078 -27.209023 -25.891679 47.416809 -0.754544 2.148431 0.054414 -0.004241 -13164.100000 0 0 1
29.338078 -28.483323 -26.361969 48.651576 -0.770617 2.143436 0.048605 -0.000610 324552.000000 0 0 1
28.223978 -29.048743 -27.272769 48.828540 -0.799798 2.163423 0.043172 -0.004701 -111614.000000 0 0 1
28.048678 -28.330083 -28.478419 48.993288 -0.790389 2.191087 0.033776 -0.007945 -88123.000000 0 0 1
28.842278 -28.646803 -29.611659 50.292809 -0.781998 2.200351 0.008119 -0.002475 -400251.000000 0 0 1
28.972178 -30.124773 -30.049639 51.476886 -0.804899 2.194136 0.021785 0.000426 -614834.000000 0 0 1
29.648678 -31.071453 -29.207949 51.938267 -0.808826 2.168032 0.027893 0.005176 971334.000000 0 0 1
31.057778 -30.936533 -28.946179 52.531285 -0.783442 2.154391 0.030332 0.006694 1167440.000000 0 0 1
32.051978 -30.728783 -30.110399 53.649077 -0.764325 2.166688 0.025855 -0.001142 -690207.000000 0 0 1
32.106978 -29.352763 -30.352159 53.044286 -0.740615 2.179987 0.028272 -0.006021 -323735.000000 0 0 1
33.088178 -28.927773 -31.268939 53.938762 -0.718412 2.189171 0.033616 -0.012362 -136586.000000 0 0 1
32.885878 -27.515373 -31.972619 53.486681 -0.696718 2.211510 0.024054 -0.007043 -11657.700000 0 0 1
33.047978 -26.346343 -31.243819 52.559251 -0.673040 2.207377 0.020714 0.007251 744821.000000 0 0 1
31.984878 -26.031193 -30.270029 51.155939 -0.683135 2.203988 0.029537 -0.001568 888681.000000 0 0 1
32.144778 -24.759723 -29.442699 50.131857 -0.656340 2.198522 0.022816 0.004320 -218462.000000 0 0 1
32.837478 -24.829823 -28.224299 49.914237 -0.647421 2.171782 0.037683 -0.003417 -76047.800000 0 0 1
32.947778 -23.507823 -27.801949 49.103179 -0.619721 2.172678 0.036343 0.001240 -724354.000000 0 0 1
33.852078 -23.269323 -26.638579 48.959559 -0.602207 2.146105 0.042898 0.001565 -1040430.000000 0 0 1
33.515378 -23.832623 -25.363779 48.317655 -0.618134 2.123439 0.039393 0.002986 133956.000000 0 0 1
32.443478 -23.202923 -24.661629 46.895104 -0.620841 2.124557 0.045943 0.006531 280151.000000 0 0 1
32.772578 -21.843123 -23.931129 46.085386 -0.587891 2.116802 0.057950 0.005484 -42196.700000 0 0 1
32.898978 -20.747223 -24.776329 46.115686 -0.562641 2.137987 0.054874 -0.007525 -34947.500000 0 0 1
33.059478 -19.623423 -23.934729 45.286632 -0.535685 2.127648 0.042343 -0.014570 172995.000000 0 0 1
33.127478 -18.276023 -24.782829 45.228657 -0.504138 2.150702 0.026308 -0.028815 1964490.000000 0 0 1
31.776178 -18.054223 -25.325699 44.464272 -0.516685 2.176784 0.044615 -0.017758 1984720.000000 0 0 1
31.849378 -17.026123 -26.263199 44.654533 -0.490929 2.199556 0.044874 -0.009444 -219426.000000 0 0 1
30.821478 -17.211823 -27.368589 44.668221 -0.509297 2.230279 0.033055 0.001345 718275.000000 0 0 1
29.454878 -16.926723 -26.991069 43.389187 -0.521583 2.242179 0.027182 0.005125 710596.000000 0 0 1
28.589778 -16.939923 -28.107229 43.524162 -0.534899 2.272847 0.012266 -0.009632 -238814.000000 0 0 1
27.168078 -16.778523 -27.539449 42.166865 -0.553247 2.282476 0.001434 -0.004287 -428029.000000 0 0 1
26.675178 -17.795623 -26.734339 41.748942 -0.588318 2.265763 0.031968 0.004234 -45563.900000 0 0 1
26.590178 -17.303723 -25.380549 40.627929 -0.576907 2.245552 0.019688 0.013603 -106223.000000 0 0 1
26.083078 -18.283823 -24.350529 40.094555 -0.611386 2.223489 0.021699 0.016450 -172718.000000 0 0 1
25.807178 -17.648523 -23.104229 38.875264 -0.599812 2.207212 0.014904 0.021923 144960.000000 0 0 1
25.426878 -18.635423 -22.167629 38.538408 -0.632469 2.183656 0.020509 0.020797 -272156.000000 0 0 1
25.362478 -18.156223 -20.690329 37.429847 -0.621297 2.156488 0.017539 0.019294 200209.000000 0 0 1
24.368078 -17.155123 -20.450429 36.143070 -0.613405 2.172222 0.017010 0.015783 507001.000000 0 0 1
24.655678 -15.840723 -21.011829 36.060060 -0.571069 2.192831 0.010526 0.016675 395585.000000 0 0 1
25.934178 -15.045123 -20.554029 36.351140 -0.525679 2.171751 0.003255 0.008779 452064.000000 0 0 1
25.794978 -14.185423 -19.429929 35.272216 -0.502789 2.154186 0.008787 -0.009912 971458.000000 0 0 1
27.020478 -13.487923 -19.144829 35.756884 -0.462987 2.135797 -0.004574 -0.006260 370014.000000 0 0 1
26.826778 -12.491923 -17.955029 34.613685 -0.435793 2.116157 0.010366 -0.013860 -238100.000000 0 0 1
26.640678 -13.131623 -16.747729 34.097678 -0.457965 2.084228 0.000813 -0.004309 190237.000000 0 0 1
26.635678 -12.216823 -15.739829 33.263378 -0.430035 2.063702 0.001310 -0.004946 -271252.000000 0 0 1
27.431778 -12.667923 -14.517229 33.522062 -0.432621 2.018687 0.013329 -0.011276 -291466.000000 0 0 1
26.970578 -13.859023 -13.859029 33.340025 -0.474672 1.999495 0.039353 -0.019522 416649.000000 0 0 1
27.655178 -14.020323 -12.639829 33.483482 -0.469207 1.957885 0.053677 -0.021667 -40854.900000 0 0 1
27.096478 -15.257923 -11.945829 33.312552 -0.512842 1.937562 0.062862 -0.033395 -1584550.000000 0 0 1
25.832778 -15.171923 -11.476029 32.081442 -0.531038 1.936617 0.050184 -0.033493 -1314080.000000 0 0 1
25.355878 -16.383923 -10.922529 32.103818 -0.573670 1.917953 0.036615 -0.028843 -756521.000000 0 0 1
23.888478 -16.261123 -10.559329 30.766588 -0.597662 1.921126 0.055233 -0.032066 -879504.000000 0 0 1
23.647378 -15.501723 -9.367029 29.786627 -0.580258 1.890696 0.062279 -0.034010 307352.000000 0 0 1
22.284978 -15.592823 -9.009629 28.651872 -0.610525 1.890675 0.071279 -0.030319 -206709.000000 0 0 1
21.914878 -15.403823 -7.518129 27.821968 -0.612665 1.844421 0.067704 -0.032691 -352030.000000 0 0 1
22.118878 -14.055923 -7.100629 27.152029 -0.566094 1.835387 0.081379 -0.020949 380924.000000 0 0 1
22.019178 -13.805623 -5.694029 26.605665 -0.560023 1.786480 0.081427 -0.021444 -338868.000000 0 0 1
22.923778 -14.545423 -4.644329 27.543397 -0.565411 1.740224 0.087801 -0.020929 -410479.000000 0 0 1
24.245078 -14.101723 -4.835929 28.461704 -0.526804 1.741535 0.100257 -0.024786 -108054.000000 0 0 1
25.083378 -14.740423 -3.883129 29.351910 -0.531294 1.703481 0.094240 -0.033549 769451.000000 0 0 1
26.620078 -14.616923 -4.207729 30.659223 -0.502147 1.708473 0.105710 -0.031346 761519.000000 0 0 1
27.184078 -13.329923 -4.023929 30.542641 -0.455904 1.702928 0.116005 -0.022310 154015.000000 0 0 1
28.589278 -13.429523 -4.153529 31.858291 -0.439148 1.701544 0.121947 -0.036123 -179370.000000 0 0 1
29.245878 -12.151723 -3.558529 31.869247 -0.393798 1.682690 0.105359 -0.037063 -1187270.000000 0 0 1
29.399978 -12.180623 -2.124129 31.894172 -0.392779 1.637445 0.110083 -0.039263 285762.000000 0 0 1
29.902778 -10.987123 -1.557029 31.895413 -0.352116 1.619632 0.102687 -0.036104 1024490.000000 0 0 1
31.468678 -10.815123 -1.732729 33.320368 -0.331033 1.622822 0.100020 -0.036090 636523.000000 0 0 1
31.668078 -10.423223 -3.071629 33.480526 -0.317972 1.662669 0.108280 -0.036672 242365.000000 0 0 1
32.938678 -10.769023 -3.605329 34.841452 -0.315987 1.674460 0.103742 -0.034268 10219.000000 0 0 1
32.917078 -10.546823 -5.166229 34.949384 -0.310071 1.719160 0.102784 -0.031031 -446930.000000 0 0 1
31.945278 -11.259223 -5.887329 34.379231 -0.338859 1.742891 0.077787 -0.031944 240064.000000 0 0 1
32.086978 -11.121723 -7.252129 34.725499 -0.333653 1.781187 0.071555 -0.025745 -542702.000000 0 0 1
30.788678 -11.660023 -7.820429 33.838705 -0.362021 1.804014 0.099759 -0.024761 -463791.000000 0 0 1
30.621978 -13.035923 -7.756029 34.173042 -0.402467 1.799755 0.079841 -0.028209 -146011.000000 0 0 1
29.320178 -13.452323 -8.065629 33.251950 -0.430154 1.815801 0.078434 -0.029239 -234453.000000 0 0 1
29.105078 -14.959623 -8.028529 33.695002 -0.474774 1.811381 0.085704 -0.034727 -179115.000000 0 0 1
29.675178 -15.605823 -9.138729 34.751608 -0.484143 1.836899 0.086371 -0.036309 238085.000000 0 0 1
29.570078 -16.969723 -9.118429 35.291738 -0.520993 1.832134 0.078627 -0.037074 -204542.000000 0 0 1
29.604678 -17.627723 -10.544429 36.032743 -0.537058 1.867777 0.073165 -0.036724 501076.000000 0 0 1
30.944278 -17.756123 -11.047629 37.348070 -0.520939 1.871091 0.086835 -0.030939 1091510.000000 0 0 1
30.939378 -18.359123 -12.344429 38.035344 -0.535545 1.901334 0.066069 -0.012533 31022.800000 0 0 1
30.403178 -17.503923 -13.559529 37.611187 -0.522380 1.939620 0.056671 -0.024131 -282641.000000 0 0 1
31.160178 -16.374023 -13.812529 37.813374 -0.483823 1.944732 0.054454 -0.020855 30669.300000 0 0 1
30.539178 -15.559023 -14.798629 37.332613 -0.471201 1.978388 0.029527 -0.024180 -739480.000000 0 0 1
31.402778 -14.371323 -15.295829 37.770779 -0.429193 1.987736 0.026093 -0.019837 915101.000000 0 0 1
32.504578 -14.573523 -16.215529 39.139220 -0.421483 1.997974 0.002707 -0.021502 967285.000000 0 0 1
33.596778 -15.278623 -15.679529 40.100217 -0.426809 1.972523 0.023724 -0.021067 -1184290.000000 0 0 1
34.651578 -15.466723 -16.789429 41.495015 -0.419814 1.987352 0.036529 -0.025815 910175.000000 0 0 1
35.990278 -15.726723 -16.261129 42.509460 -0.411967 1.963329 0.047102 -0.029552 1042840.000000 0 0 1
-36.185260 -16.036323 -17.349629 43.215116 0.417162 1.983919 0.062388 -0.034038 -1242660.000000 0 0 1
-34.696960 -15.874923 -17.097229 41.811570 0.429099 1.992057 0.063063 -0.031822 -751564.000000 0 0 1
-34.108960 -16.821623 -16.260429 41.361693 0.458171 1.974827 0.063828 -0.030845 -26049.500000 0 0 1
-34.379160 -16.508623 -14.926929 40.954541 0.447677 1.943866 0.071802 -0.037437 -626798.000000 0 0 1
-33.627360 -17.387423 -13.871129 40.317862 0.477204 1.922017 0.083054 -0.032937 174933.000000 0 0 1
-32.232960 -17.247423 -13.689329 39.036329 0.491321 1.929095 0.067029 -0.027150 86315.100000 0 0 1
-31.873760 -17.856123 -12.452929 38.598615 0.510651 1.899299 0.081712 -0.017699 211792.000000 0 0 1
-30.392060 -17.650523 -12.041829 37.151364 0.526153 1.900887 0.094294 -0.021638 262301.000000 0 0 1
-30.100360 -16.260823 -11.744429 36.171503 0.495304 1.901477 0.089685 -0.033248 332452.000000 0 0 1
-29.002760 -15.902123 -10.905529 34.827692 0.501535 1.889281 0.102913 -0.033528 260821.000000 0 0 1
-29.242260 -15.908123 -9.346829 34.576601 0.498234 1.844524 0.098691 -0.027058 -90274.500000 0 0 1
-29.485160 -17.153923 -8.772829 35.222070 0.526916 1.822518 0.077812 -0.019270 -81565.900000 0 0 1
-29.750560 -17.099323 -7.400829 35.103488 0.521651 1.783219 0.096007 -0.018703 -352235.000000 0 0 1
-30.103160 -18.464323 -6.855829 35.974071 0.550191 1.762546 0.084255 -0.019038 830363.000000 0 0 1
-31.311560 -19.029723 -7.433429 37.387163 0.546101 1.770953 0.067682 -0.015398 746949.000000 0 0 1
-31.239060 -19.468123 -8.831429 37.853412 0.557303 1.806272 0.071600 -0.012199 -423090.000000 0 0 1
-32.457860 -20.206923 -9.443729 39.382945 0.556842 1.812948 0.064033 -0.008601 47403.600000 0 0 1
-33.583460 -19.395523 -9.702829 39.977243 0.523735 1.815954 0.071957 -0.006998 270978.000000 0 0 1
-34.729960 -20.220023 -9.892929 41.387069 0.527234 1.812168 0.078090 -0.014791 653276.000000 0 0 1
-35.985560 -19.461323 -10.415229 42.215880 0.495760 1.820084 0.075072 -0.026989 154468.000000 0 0 1
-36.103360 -19.360123 -11.812529 42.635698 0.492219 1.851526 0.066807 -0.025563 -271536.000000 0 0 1
35.648278 -18.894423 -12.232629 42.159651 -0.487377 1.865180 0.086557 -0.030806 -275755.000000 0 0 1
35.334678 -18.738923 -13.742029 42.291016 -0.487614 1.901744 0.076025 -0.030914 -38181.700000 0 0 1
35.230378 -20.023623 -14.384029 43.000294 -0.516832 1.911882 0.073056 -0.028806 1637.630000 0 0 1
34.677078 -19.834023 -15.644129 42.902529 -0.519549 1.944046 0.063620 -0.024981 -86422.600000 0 0 1
33.330778 -20.548423 -15.849729 42.242068 -0.552464 1.955422 0.072831 -0.018026 -479582.000000 0 0 1
32.314078 -20.080423 -14.983229 40.889120 -0.556017 1.945972 0.069744 -0.024116 111103.000000 0 0 1
31.081078 -20.768623 -15.004429 40.280293 -0.589069 1.952498 0.073770 -0.025167 430872.000000 0 0 1
30.163978 -20.425423 -16.203629 39.870052 -0.595223 1.989319 0.066417 -0.023845 -795218.000000 0 0 1
29.714578 -19.090523 -16.140029 38.831749 -0.571059 1.999443 0.048413 -0.022334 -101656.000000 0 0 1
28.825978 -18.802223 -17.171829 38.462089 -0.577967 2.033603 0.031735 -0.021134 -122703.000000 0 0 1
27.988678 -17.493223 -16.964829 37.110435 -0.558607 2.045578 0.021905 -0.011433 607.942000 0 0 1
26.867578 -17.678323 -16.112629 35.972304 -0.581964 2.035231 0.027574 -0.020713 227170.000000 0 0 1
26.308578 -16.361423 -15.933929 34.838592 -0.556370 2.045825 0.013270 -0.009999 -1125740.000000 0 0 1
24.937078 -16.462423 -15.237529 33.541787 -0.583483 2.042366 0.011872 -0.011458 642676.000000 0 0 1
23.843778 -17.026823 -16.013729 33.389788 -0.620126 2.070995 0.020187 -0.006547 1210440.000000 0 0 1
23.439178 -16.113223 -17.054729 33.164662 -0.602252 2.110922 0.023617 0.001302 -1385460.000000 0 0 1
22.386678 -16.756123 -17.962829 33.235436 -0.642532 2.141795 0.028283 0.002266 -69366.700000 0 0 1
21.133578 -16.896323 -17.311229 32.121527 -0.674437 2.139962 0.037048 0.002740 -240277.000000 0 0 1
20.224878 -17.519223 -18.186329 32.352920 -0.713836 2.167747 0.031839 -0.001471 -255771.000000 0 0 1
18.837778 -17.706823 -17.574629 31.261174 -0.754461 2.167824 0.049279 0.001219 -95240.400000 0 0 1
17.956078 -16.588023 -17.568129 30.103528 -0.745816 2.193939 0.048381 -0.002411 1416810.000000 0 0 1
16.577678 -17.030323 -17.508129 29.519246 -0.798866 2.205711 0.058855 -0.007335 1508610.000000 0 0 1
15.559078 -15.839623 -17.262729 28.124373 -0.794333 2.231661 0.065559 -0.006532 294238.000000 0 0 1
15.305778 -15.054423 -18.443629 28.303179 -0.777119 2.280548 0.065458 -0.003062 690299.000000 0 0 1
14.075878 -14.352623 -18.305129 27.188340 -0.795133 2.309421 0.077566 -0.010817 581832.000000 0 0 1
13.187078 -13.996023 -19.516129 27.398302 -0.815148 2.363583 0.083788 -0.012235 160092.000000 0 0 1
13.498078 -12.742523 -20.000929 27.287491 -0.756613 2.393475 0.098468 -0.018233 161732.000000 0 0 1
12.686278 -12.507523 -21.127129 27.635762 -0.778303 2.441039 0.091350 -0.017608 104252.000000 0 0 1
12.984778 -11.104523 -21.706029 27.623660 -0.707503 2.474747 0.089390 -0.012563 -340072.000000 0 0 1
14.283578 -11.031223 -22.229929 28.633515 -0.657622 2.459667 0.087501 -0.009861 -360429.000000 0 0 1
14.435478 -9.848223 -22.986529 28.874747 -0.598696 2.491582 0.080975 -0.022738 428795.000000 0 0 1
15.893278 -9.612023 -23.494429 29.949548 -0.543931 2.472632 0.062352 -0.011051 511542.000000 0 0 1
16.153978 -10.324723 -24.670229 31.243737 -0.568706 2.480962 0.081972 -0.011762 216507.000000 0 0 1
17.377378 -9.888723 -25.237799 32.197928 -0.517357 2.471611 0.067990 -0.019380 -181337.000000 0 0 1
22.397178 4.532877 -6.798029 23.841010 0.199689 1.859949 0.130969 -0.002399 -217037.000000 0 1 0
22.490878 5.972277 -6.874529 24.264518 0.259552 1.858046 0.111028 0.003189 442246.000000 0 1 0
21.787878 6.481477 -5.781429 23.455193 0.289144 1.819851 0.083257 -0.001361 -379429.000000 0 1 0
21.726378 8.022677 -5.922829 23.905622 0.353729 1.821163 0.085154 -0.005041 -259466.000000 0 1 0
20.788078 8.371277 -6.928129 23.456800 0.382828 1.870625 0.099808 -0.003220 265057.000000 0 1 0
20.544478 9.697277 -7.269229 23.852766 0.441009 1.880477 0.096656 0.004339 -40764.400000 0 1 0
19.787878 10.584777 -6.277629 23.302495 0.491186 1.843563 0.091441 -0.002887 -452368.000000 0 1 0
20.578278 10.964377 -5.188329 23.887274 0.489552 1.789742 0.090058 0.001200 -173509.000000 0 1 0
20.255978 12.173077 -4.605429 24.076927 0.541127 1.763262 0.107442 -0.005699 248607.000000 0 1 0
21.192478 12.487877 -3.390129 24.830650 0.532485 1.707754 0.102870 -0.025924 -561935.000000 0 1 0
22.443978 13.011677 -3.691129 26.204205 0.525389 1.712127 0.096223 -0.029493 65078.700000 0 0 1
23.221478 13.247577 -2.511529 26.852246 0.518437 1.664465 0.096848 -0.034769 27753.500000 0 0 1
24.024578 12.087777 -1.874129 26.959360 0.466158 1.640369 0.068753 -0.031719 -1241980.000000 0 0 1
25.147578 11.814877 -2.662329 27.912005 0.439215 1.666324 0.055980 -0.031523 -431232.000000 0 0 1
25.946278 10.985277 -1.862029 28.237436 0.400502 1.636786 0.053808 -0.028779 -69461.000000 0 0 1
27.402778 10.799077 -2.367129 29.548868 0.375399 1.650991 0.072823 -0.029574 -384221.000000 0 0 1
28.196378 11.900877 -2.198329 30.683860 0.399387 1.642502 0.071333 -0.036518 111617.000000 0 0 1
29.554378 11.488177 -2.314729 31.793041 0.370739 1.643667 0.077947 -0.032899 421956.000000 0 0 1
30.670478 12.422977 -1.795429 33.139586 0.384849 1.625001 0.067358 -0.028423 -335694.000000 0 0 1
30.480178 12.660777 -0.411629 33.007665 0.393692 1.583267 0.099187 -0.035409 611906.000000 0 0 1
31.451378 13.552377 0.104771 34.247147 0.406857 1.567737 0.110758 -0.034495 -494230.000000 0 0 1
32.879978 13.091477 0.311171 35.391758 0.378919 1.562004 0.123815 -0.036491 -504878.000000 0 0 1
33.954578 13.982777 0.564971 36.725340 0.390644 1.555412 0.131173 -0.043356 1087040.000000 0 0 1
34.736378 14.410877 -0.610029 37.611986 0.393254 1.587016 0.118460 -0.028397 120349.000000 0 0 1
34.206678 15.557577 -1.440029 37.605967 0.426848 1.609098 0.090183 -0.009770 190722.000000 0 0 1
32.964978 15.182077 -2.045029 36.350618 0.431594 1.627084 0.082819 -0.005816 278097.000000 0 0 1
32.395378 16.144377 -2.892929 36.310749 0.462330 1.650552 0.068603 0.008121 200833.000000 0 0 1
31.013878 15.827377 -3.496529 34.994174 0.471879 1.670881 0.076629 -0.009919 -480616.000000 0 0 1
31.148978 14.943677 -4.569329 34.848976 0.447316 1.702293 0.051371 -0.011020 899119.000000 0 0 1
29.961578 14.822477 -5.367429 33.855742 0.459412 1.730006 0.049566 -0.022561 971980.000000 0 0 1
28.703178 14.134277 -4.760229 32.346716 0.457572 1.718495 0.056718 -0.033906 -73782.000000 0 0 1
27.591378 14.097577 -5.622529 31.490295 0.472362 1.750307 0.066367 -0.036023 729438.000000 0 0 1
26.482078 13.342577 -5.114229 30.091198 0.466710 1.741583 0.060086 -0.017474 975611.000000 0 0 1
25.304578 13.130577 -6.134729 29.161081 0.478654 1.782754 0.059029 -0.012901 156294.000000 0 0 1
25.633878 12.283377 -7.222429 29.328153 0.446858 1.819619 0.058622 -0.004217 279896.000000 0 0 1
24.726578 12.171877 -8.309229 28.785440 0.457436 1.863624 0.064129 0.004902 -202833.000000 0 0 1
24.369078 13.424777 -9.199529 29.303719 0.503529 1.890133 0.079797 -0.003685 -282206.000000 0 0 1
23.496778 14.290877 -8.518529 28.790503 0.546431 1.871173 0.088119 -0.020107 -64435.400000 0 0 1
23.280478 15.503177 -9.148629 29.428330 0.587493 1.886913 0.095153 -0.028463 75217.200000 0 0 1
22.141178 16.282377 -8.393329 28.736659 0.634084 1.867195 0.096802 -0.011976 381887.000000 0 0 1
20.845178 15.749277 -8.541129 27.486580 0.647035 1.886766 0.091895 -0.019878 169816.000000 0 0 1
20.530578 14.764577 -7.560829 26.394384 0.623463 1.861322 0.089363 -0.019359 -554893.000000 0 0 1
19.235078 13.948377 -7.774729 24.999837 0.627409 1.887032 0.097716 -0.027558 744640.000000 0 1 0
18.099278 14.536477 -7.109529 24.278353 0.676660 1.867986 0.114416 -0.050915 268651.000000 0 1 0
16.890178 14.153377 -7.714429 23.347561 0.697465 1.907542 0.124400 -0.058336 165698.000000 0 1 0
15.672678 14.806177 -6.981729 22.662751 0.756976 1.883961 0.091757 -0.029801 190092.000000 0 1 0
15.411778 14.293377 -5.636229 21.762137 0.747766 1.832775 0.024402 -0.019835 453221.000000 0 1 0
16.165878 14.959077 -4.635829 22.507788 0.746645 1.778247 0.097198 -0.008170 -137700.000000 0 1 0
15.816778 14.340377 -3.262729 21.597738 0.736480 1.722445 0.063577 0.010776 -292751.000000 0 1 0
16.509778 13.120877 -2.983529 21.298630 0.671522 1.711339 0.041570 -0.006276 544390.000000 0 1 0
16.302678 12.555877 -1.705529 20.647910 0.656287 1.653491 0.033191 -0.001863 -84937.700000 0 1 0
16.474978 13.358477 -0.400329 21.214007 0.681312 1.589668 0.041408 -0.003945 -614330.000000 0 1 0
15.514378 14.332877 -0.208329 21.122753 0.745834 1.580659 0.044170 -0.008620 -68598.900000 0 1 0
15.658678 15.024177 1.029571 21.725104 0.764722 1.523388 0.046431 -0.007001 -517889.000000 0 1 0
14.555978 16.045377 1.319371 21.704179 0.834031 1.509970 0.050125 -0.001112 -387738.000000 0 1 0
14.426278 17.106977 0.464571 22.382627 0.870206 1.550039 0.055241 -0.005044 610477.000000 0 1 0
13.442978 18.044877 0.948671 22.521795 0.930519 1.528661 0.042286 -0.014727 389054.000000 0 1 0
13.323878 19.473277 0.305471 23.597194 0.970744 1.557851 0.035583 -0.007480 -339064.000000 0 1 0
12.850778 19.433777 -1.055829 23.322285 0.986546 1.616083 0.036219 -0.014156 237977.000000 0 1 0
12.191278 20.656677 -1.363429 24.024665 1.037624 1.627578 0.040566 -0.015784 512910.000000 0 1 0
10.652278 20.617777 -1.128729 23.234410 1.093914 1.619396 0.027694 -0.016976 101300.000000 0 1 0
10.254878 20.569077 0.232471 22.984854 1.108303 1.560682 0.008739 -0.019407 224179.000000 0 1 0
8.827178 20.465777 0.214571 22.289306 1.163590 1.561170 0.007240 -0.017393 642729.000000 0 1 0
8.307478 20.511677 1.635471 22.190491 1.185977 1.497028 0.010722 -0.017267 -237603.000000 0 1 0
8.042278 21.824377 2.044471 23.348695 1.217737 1.483121 0.000118 -0.009263 -58474.200000 0 1 0
7.489578 21.810477 3.317971 23.298061 1.240019 1.427896 0.010043 -0.007167 -254804.000000 0 1 0
7.154178 23.194277 3.755571 24.561374 1.271609 1.417289 0.010128 0.000860 -302379.000000 0 1 0
7.927078 23.599577 4.839771 25.361428 1.246738 1.378787 0.009457 -0.006434 -86975.300000 0 0 1
7.414178 24.781277 5.494171 26.443670 1.280088 1.361503 0.011811 -0.002591 -182880.000000 0 0 1
7.954978 25.001477 6.885471 27.124993 1.262745 1.314146 0.012099 -0.013460 -111352.000000 0 0 1
7.494278 23.990977 7.747871 26.301344 1.268022 1.271779 0.016397 -0.026761 19889.900000 0 0 1
8.238278 24.041477 8.927971 26.936416 1.240667 1.232960 0.021924 -0.031188 -264917.000000 0 0 1
7.713178 23.120677 10.048871 26.363586 1.248801 1.179740 0.021483 -0.030168 426809.000000 0 0 1
6.433678 23.442377 10.592171 26.516624 1.302945 1.159875 0.024359 -0.029874 518524.000000 0 0 1
5.760378 22.374477 11.223071 25.685726 1.318815 1.118605 0.018712 -0.027375 -31787.100000 0 0 1
4.458878 22.757277 11.923471 26.075744 1.377315 1.095881 0.022284 -0.024175 -1494.610000 0 0 1
3.323278 22.988277 11.117071 25.750618 1.427227 1.124397 0.012936 -0.023893 -442544.000000 0 0 1
2.258978 23.548977 11.817571 26.444514 1.475162 1.107520 0.012097 -0.022025 -585806.000000 0 0 1
1.132678 23.810177 10.826171 26.180403 1.523261 1.144477 0.035107 -0.015042 -881519.000000 0 0 1
1.479578 24.846777 9.908971 26.790655 1.511318 1.191931 0.039306 -0.019676 12944.200000 0 0 1
0.526878 25.022877 8.895871 26.562352 1.549744 1.229292 0.023637 -0.012124 569859.000000 0 0 1
-0.783422 25.828377 9.248871 27.445591 -1.540474 1.227079 0.029383 -0.022037 596332.000000 0 0 1
-1.735622 25.104877 9.986671 27.073989 -1.501771 1.193008 0.030896 -0.018462 -539691.000000 0 0 1
-3.031422 25.544377 9.703571 27.492981 -1.452676 1.210077 0.043713 -0.024505 -113563.000000 0 0 1
-4.179822 24.629877 10.267271 27.009603 -1.402693 1.180855 0.064833 -0.028782 582670.000000 0 0 1
-4.685822 24.746977 11.606171 27.732166 -1.383663 1.138993 0.042363 -0.009301 591662.000000 0 0 1
-5.602422 25.842977 11.782471 28.949495 -1.357313 1.151628 0.056267 -0.012923 105522.000000 0 0 1
-6.128722 25.925477 13.229771 29.744217 -1.338660 1.109863 0.024271 0.005317 221941.000000 0 0 1
-7.145422 24.969577 13.526271 29.283047 -1.292080 1.090643 0.026395 -0.013652 193313.000000 0 0 1
-7.564022 25.084977 14.875371 30.128843 -1.277931 1.054428 -0.002965 0.017490 7097.940000 0 0 1
-8.680522 24.065377 15.200471 29.758162 -1.224616 1.034681 -0.002188 0.003455 234329.000000 0 0 1
-9.949522 24.528077 14.776271 30.314316 -1.185439 1.061646 -0.012293 0.008928 -81835.400000 0 0 1
-10.958322 23.534577 14.965871 29.965621 -1.135024 1.047850 -0.005883 0.001733 450259.000000 0 0 1
-12.361622 24.190877 14.930871 30.999019 -1.098385 1.068253 -0.002162 -0.007597 -147976.000000 0 0 1
-12.667722 25.026377 15.966471 32.275671 -1.102221 1.053318 -0.003218 -0.005273 184694.000000 0 0 1
-13.759922 25.844777 15.547071 33.151160 -1.081561 1.082666 -0.004762 -0.008682 73676.600000 0 0 1
-14.386022 26.827777 16.559771 34.654196 -1.078582 1.072582 0.011610 -0.008940 -713617.000000 0 0 1
-15.259622 26.250677 17.428071 35.009881 -1.044237 1.049731 0.012485 -0.013877 -626974.000000 0 0 1
-15.739522 27.275577 18.294271 36.419363 -1.047419 1.044513 0.035124 -0.011314 465505.000000 0 0 1
-17.109522 26.980477 19.017671 37.180018 -1.005648 1.033864 0.039483 -0.020352 640789.000000 0 0 1
-18.232322 27.250977 18.208771 37.504569 -0.981144 1.063852 0.038503 -0.021693 -467561.000000 0 0 1
-19.359222 26.622177 18.756771 37.885832 -0.942058 1.052862 0.041347 -0.016598 -502407.000000 0 0 1
-20.595722 26.768477 17.884871 38.217846 -0.914993 1.083802 0.045419 -0.024283 -287125.000000 0 0 1
-21.314622 28.013177 17.828071 39.457462 -0.920369 1.101981 0.038328 -0.021169 -91823.000000 0 0 1
-22.097222 28.023277 16.724671 39.412002 -0.903088 1.132547 0.051031 -0.026282 -756660.000000 0 0 1
-23.046222 29.231877 16.496471 40.715655 -0.903173 1.153639 0.045285 -0.028030 -107200.000000 0 0 1
-24.194522 29.205477 17.288271 41.679961 -0.878962 1.143089 0.039100 -0.029042 -514733.000000 0 0 1
-25.086252 30.242777 17.051871 42.833537 -0.878327 1.161356 0.040389 -0.025567 -458052.000000 0 0 1
-26.404882 30.155277 17.807871 43.859763 -0.851609 1.152703 0.029595 -0.015724 5097.920000 0 0 1
-27.504942 29.626377 17.065871 43.880383 -0.822514 1.171339 0.056684 -0.018098 847249.000000 0 0 1
-28.768602 29.529477 17.730571 44.877563 -0.798449 1.164633 0.085042 -0.015909 854438.000000 0 0 1
-29.143242 28.379977 18.713271 44.776536 -0.772130 1.139635 0.068827 -0.021060 -540660.000000 0 0 1
-29.141842 27.088277 18.106571 43.713495 -0.748894 1.143722 0.092631 -0.024733 176731.000000 0 0 1
-29.408392 26.147877 19.088071 43.736935 -0.726777 1.119170 0.088672 -0.025091 -94390.200000 0 0 1
-29.421952 24.710177 18.622271 42.696992 -0.698575 1.119481 0.097675 -0.025950 213616.000000 0 0 1
-30.579862 24.407177 17.856371 43.008002 -0.673609 1.142648 0.119202 -0.030591 221793.000000 0 0 1
-30.300062 23.472277 16.794371 41.846057 -0.659098 1.157820 0.122746 -0.020979 -245650.000000 0 0 1
-30.715132 22.034777 17.036071 41.462977 -0.622303 1.147383 0.113611 -0.012646 -47023.500000 0 0 1
-32.103712 21.795477 16.976871 42.354519 -0.596430 1.158376 0.134734 -0.012985 -78971.800000 0 0 1
-32.326132 20.441377 17.050271 41.875297 -0.563866 1.151445 0.129023 -0.023864 -1175050.000000 0 0 1
-33.684262 20.008477 16.617571 42.557166 -0.535997 1.169647 0.155074 -0.030859 -1145830.000000 0 0 1
-33.858272 20.099077 15.222471 42.214679 -0.535718 1.201889 0.137315 -0.031196 56456.400000 0 0 1
-35.004263 19.391077 14.776771 42.657535 -0.505881 1.217061 0.136265 -0.040878 236271.000000 0 0 1
-35.299376 19.630677 13.242971 42.506302 -0.507529 1.253969 0.137754 -0.027875 148476.000000 0 0 1
-35.782751 20.918477 12.949671 43.424439 -0.529017 1.267978 0.142266 -0.034798 -346009.000000 0 0 1
-36.108772 21.138477 11.609171 43.421786 -0.529623 1.300146 0.111907 -0.026957 398160.000000 0 0 1
-34.949959 21.015777 10.550171 42.124442 -0.541383 1.317649 0.099357 -0.021863 390758.000000 0 0 1
-34.636817 19.692577 10.170271 41.121054 -0.516969 1.320878 0.111622 -0.027120 -599175.000000 0 0 1
-33.457252 19.665977 9.446671 39.942183 -0.531396 1.332025 0.118048 -0.022528 -487638.000000 0 0 1
-32.301902 18.844577 10.024371 38.717167 -0.528116 1.308900 0.103022 -0.017390 -4256.310000 0 0 1
-31.879252 19.238477 11.345171 38.924525 -0.542974 1.275037 0.103573 -0.019501 -110016.000000 0 0 1
-31.117032 18.276477 12.001671 38.030769 -0.531063 1.249731 0.079816 -0.024229 -144886.000000 0 0 1
-30.643372 18.835677 13.388871 38.380475 -0.551139 1.214457 0.076958 -0.003210 400818.000000 0 0 1
-29.536522 19.737677 13.428871 37.977844 -0.589096 1.209382 0.065264 -0.008401 63336.900000 0 0 1
-29.752622 21.082477 13.035871 38.724970 -0.616469 1.227464 0.096809 -0.005695 -691930.000000 0 0 1
-28.571272 21.970977 13.307871 38.420579 -0.655543 1.217094 0.103159 -0.014767 -670149.000000 0 0 1
-28.234852 22.016177 14.721871 38.712432 -0.662272 1.180689 0.094150 -0.002422 -948237.000000 0 0 1
-27.009242 22.648877 14.803071 38.230900 -0.697815 1.173202 0.078354 -0.018077 -1078140.000000 0 0 1
-26.392612 22.470977 16.189871 38.257375 -0.705313 1.133841 0.061653 -0.019193 -588637.000000 0 0 1
-25.651932 21.274577 16.323671 37.109183 -0.692386 1.115329 0.061773 -0.013681 -80916.000000 0 0 1
-25.326762 21.008277 17.644671 37.338010 -0.692465 1.078596 0.045767 -0.005414 -366297.000000 0 0 1
-24.327322 19.883077 17.875471 36.148137 -0.685210 1.053530 0.050261 -0.008453 -308605.000000 0 0 1
-24.097922 19.645477 19.201171 36.542299 -0.683962 1.017552 0.036423 -0.007997 927971.000000 0 0 1
-22.884322 18.863977 19.331471 35.401237 -0.689395 0.993133 0.033010 -0.009435 911177.000000 0 0 1
-22.386322 18.728777 20.782271 35.830396 -0.696673 0.952046 0.028033 -0.018539 -191659.000000 0 0 1
-23.203522 17.894677 21.571371 36.386082 -0.656935 0.936207 0.040015 0.001430 193475.000000 0 0 1
-23.740522 18.561777 22.735871 37.750123 -0.663582 0.924451 0.018078 -0.001328 262716.000000 0 0 1
-24.436422 17.475977 23.644571 38.231064 -0.620829 0.904009 0.048446 -0.008121 -100750.000000 0 0 1
-23.506522 16.532077 24.197771 37.568581 -0.612936 0.870955 0.050062 -0.005688 466835.000000 0 0 1
-24.124322 15.438677 24.881871 37.939995 -0.569287 0.855526 0.073262 -0.009988 -223786.000000 0 0 1
21.041978 24.669877 33.730044 46.787643 0.864597 0.765671 0.085014 -0.025670 240479.000000 0 0 1
21.820478 23.768177 32.918224 46.094132 0.828096 0.775384 0.090945 -0.034341 187720.000000 0 0 1
21.690178 22.415377 33.352772 45.665308 0.801839 0.751926 0.093876 -0.039112 33805.500000 0 0 1
20.469078 21.598177 32.865978 44.335504 0.812232 0.735789 0.093783 -0.041041 46402.100000 0 0 1
20.680478 21.356177 31.498754 43.312123 0.801471 0.756489 0.097982 -0.035986 297343.000000 0 0 1
19.837978 20.258477 31.120344 42.100203 0.795885 0.738919 0.077386 -0.029146 -75161.000000 0 0 1
20.081578 19.646577 29.699004 40.881397 0.774449 0.757629 0.057029 -0.019266 -25598.800000 0 0 1
21.250778 18.852777 29.652884 41.064782 0.725674 0.763963 0.068824 -0.022721 -193001.000000 0 0 1
21.485778 18.278777 28.404884 40.032359 0.704923 0.781940 0.056741 -0.019646 346097.000000 0 0 1
22.742678 17.358077 28.351994 40.278627 0.651920 0.789928 0.066336 -0.018433 153475.000000 0 0 1
23.978578 18.012377 28.462954 41.346798 0.644260 0.811522 0.070739 -0.018139 -379668.000000 0 0 1
24.920378 17.171977 29.109864 41.991502 0.603355 0.804832 0.055902 -0.011362 -83038.200000 0 0 1
26.299678 17.835377 29.142874 43.117060 0.595917 0.828609 0.062394 -0.016710 -447387.000000 0 0 1
27.081478 17.951577 27.986404 42.882449 0.585372 0.859745 0.049228 -0.007856 235758.000000 0 0 1
28.312178 18.607777 28.277884 44.130121 0.581445 0.875277 0.041042 -0.009098 410613.000000 0 0 1
29.350678 18.460177 27.144834 44.035014 0.561436 0.906586 0.027182 -0.000099 16408.500000 0 0 1
29.317678 19.431477 26.100054 43.798646 0.585314 0.932398 0.036066 -0.009881 249377.000000 0 0 1
30.458678 19.190277 25.285694 43.992774 0.562218 0.958474 0.029652 -0.010512 163458.000000 0 0 1
30.631378 20.363777 24.226934 44.044399 0.586710 0.988364 0.041829 -0.020531 286431.000000 0 0 1
29.543578 20.638277 23.331514 42.931586 0.609766 0.996245 0.031848 -0.014706 199073.000000 0 0 1
29.942378 21.385077 22.249964 42.999168 0.620198 1.026927 0.028743 -0.019197 -144420.000000 0 0 1
30.701778 20.598977 21.084964 42.561635 0.590954 1.052503 0.036828 -0.028881 -127931.000000 0 0 1
29.973078 19.554077 20.512464 41.249346 0.578052 1.050336 0.053653 -0.031975 -131627.000000 0 0 1
30.680178 18.887977 19.513164 40.973072 0.551841 1.074419 0.061252 -0.034835 -379575.000000 0 0 1
31.665178 17.795677 19.874464 41.404878 0.512006 1.070138 0.093338 -0.037942 -742412.000000 0 0 1
30.973978 16.679577 20.391764 40.662263 0.493973 1.045475 0.084074 -0.038260 204241.000000 0 0 1
31.672678 15.441577 20.305664 40.668426 0.453627 1.048008 0.079703 -0.036025 -433648.000000 0 0 1
30.937778 14.156477 20.844364 39.900369 0.429139 1.021121 0.074589 -0.027265 190551.000000 0 0 1
30.543678 14.137377 22.234764 40.338151 0.433495 0.986983 0.062686 -0.021322 483092.000000 0 0 1
29.358778 14.865177 22.510464 39.870194 0.468697 0.970855 0.061948 -0.017847 -36429.600000 0 0 1
28.393978 14.167777 23.513764 39.494823 0.462824 0.933079 0.034194 -0.003845 251609.000000 0 0 1
27.769378 12.998177 22.988264 38.321681 0.437784 0.927450 0.046908 -0.008253 92322.300000 0 0 1
27.131778 12.274477 24.030274 38.265523 0.424850 0.891832 0.033310 0.003733 -167540.000000 0 0 1
26.740178 10.881877 23.503804 37.227425 0.386482 0.887494 0.058351 -0.004323 818678.000000 0 0 1
25.603578 11.003477 22.599164 35.879548 0.405898 0.889421 0.038613 -0.001255 807671.000000 0 0 1
25.372178 9.784977 21.977164 34.964109 0.368082 0.891091 0.042213 0.011241 744035.000000 0 0 1
23.960478 9.579377 21.300164 33.459916 0.380333 0.880731 0.038118 0.007979 1006490.000000 0 0 1
22.805778 9.510577 22.118464 33.162947 0.395096 0.840671 0.020218 0.009604 730293.000000 0 0 1
21.684478 9.170177 21.293464 31.744611 0.400083 0.835544 0.011914 0.018887 2221300.000000 0 0 1
20.241278 9.142277 22.032464 31.284502 0.424238 0.789414 0.003904 0.008178 1722760.000000 0 0 1
20.156678 8.292877 23.147364 31.794087 0.390313 0.755338 0.019365 0.013112 1347540.000000 0 0 1
18.820078 8.226277 23.723454 31.379440 0.412076 0.713587 0.002763 0.010010 1215120.000000 0 0 1
18.816578 7.367177 25.019284 32.160589 0.373180 0.679402 0.019282 0.013953 -224954.000000 0 0 1
19.095878 5.991977 24.688744 31.781920 0.304054 0.681201 0.024804 0.006337 179543.000000 0 0 1
18.714878 5.240377 25.798024 32.299323 0.273019 0.645636 0.039996 -0.011150 -471061.000000 0 0 1
19.076278 3.771977 25.616884 32.161420 0.195213 0.649296 0.042056 -0.014447 1438750.000000 0 0 1
20.520578 3.662577 25.433904 32.884526 0.176623 0.686561 0.061628 -0.011494 1543500.000000 0 0 1
20.862878 2.263577 25.368064 32.922973 0.108075 0.691128 0.061840 -0.017401 360737.000000 0 0 1
22.381478 1.982477 25.141534 33.718801 0.088346 0.729326 0.073589 -0.014717 314807.000000 0 0 1
23.088178 2.293577 26.324184 35.089701 0.099015 0.722437 0.079178 -0.020243 270177.000000 0 0 1
24.461478 2.466277 25.987494 35.774241 0.100483 0.757683 0.081748 -0.019628 760754.000000 0 0 1
25.409478 2.831877 27.190104 37.322418 0.110992 0.754638 0.061170 -0.022905 -247552.000000 0 0 1
25.513478 1.725377 28.032334 37.943725 0.067523 0.739527 0.062332 -0.028130 180900.000000 0 0 1
26.284478 2.032177 29.182504 39.327116 0.077161 0.734680 0.054527 -0.011329 -113219.000000 0 0 1
27.809078 2.064077 29.075304 40.286208 0.074087 0.764514 0.058996 -0.015816 -1190710.000000 0 0 1
28.208078 3.318677 28.528524 40.256502 0.117112 0.783187 0.053267 0.002127 8165.870000 0 0 1
29.590478 3.383477 28.240824 41.043738 0.113849 0.811975 0.052832 0.003322 -347710.000000 0 0 1
30.142178 2.519677 27.020854 40.558923 0.083399 0.841678 0.057483 -0.002407 -482532.000000 0 0 1
29.723278 2.943177 25.738534 39.428514 0.098698 0.859535 0.040362 0.006917 27202.500000 0 0 1
30.140178 1.967277 24.854094 39.115553 0.065178 0.882268 0.043880 0.016174 -305875.000000 0 0 1
29.626978 2.140077 23.421584 37.827349 0.072109 0.903110 0.052719 -0.001727 67758.100000 0 0 1
30.233878 3.152177 22.638164 37.901320 0.103884 0.930676 0.051903 0.004325 -726823.000000 0 0 1
31.562078 2.965477 22.272264 38.742904 0.093682 0.958347 0.041191 0.005968 -598154.000000 0 0 1
32.168978 4.213077 21.655564 39.007136 0.130226 0.982230 0.056673 0.005293 -573955.000000 0 0 1
31.651278 4.477077 20.349164 37.893748 0.140518 1.003913 0.048481 -0.003119 156509.000000 0 0 1
32.183378 5.599077 19.604664 38.098062 0.172250 1.030274 0.084402 0.000477 217608.000000 0 0 1
33.715478 5.534677 19.286464 39.234345 0.162707 1.056904 0.076773 -0.009173 -8253.620000 0 0 1
34.633278 5.704777 20.314064 40.554527 0.163254 1.046149 0.089570 -0.002992 -85985.400000 0 0 1
34.629978 6.997677 20.951564 41.075186 0.199385 1.035520 0.097778 -0.004316 -552225.000000 0 0 1
35.386678 6.929677 22.300564 42.397554 0.193380 1.016921 0.093757 -0.004471 361513.000000 0 0 1
34.675378 6.079277 23.187464 42.154454 0.173556 0.988361 0.082545 0.001795 518214.000000 0 0 1
35.307178 6.066177 24.463494 43.380386 0.170150 0.971660 0.088539 -0.000620 254719.000000 0 0 1
34.597778 5.009877 25.333134 43.172593 0.143804 0.943711 0.076610 -0.001754 151353.000000 0 0 1
34.833578 3.646477 25.005824 43.034477 0.104303 0.950760 0.058204 -0.003430 -34236.200000 0 0 1
34.250678 2.826477 25.999664 43.093856 0.082337 0.923131 0.044039 0.002496 4457.670000 0 0 1
34.327078 1.318677 25.741884 42.927052 0.038396 0.927713 0.022575 0.006702 -121198.000000 0 0 1
33.449078 0.888677 24.715474 41.599101 0.026562 0.934607 0.030210 0.000879 -63072.500000 0 0 1
33.602978 -0.493123 24.538114 41.611565 -0.014674 0.940116 0.025404 -0.001405 -413221.000000 0 0 1
32.639778 -1.099923 23.507724 40.239011 -0.033686 0.946899 0.039580 0.004113 168436.000000 0 0 1
31.307278 -1.225023 23.974754 39.451682 -0.039109 0.917636 0.048507 0.006195 -69815.600000 0 0 1
30.569678 -2.023023 23.055164 38.342384 -0.066081 0.925673 0.065097 -0.006013 -328592.000000 0 0 1
29.090678 -2.230523 23.368944 37.381149 -0.076525 0.895469 0.069897 0.004631 -335436.000000 0 0 1
28.419978 -1.027123 23.096464 36.636004 -0.036125 0.888688 0.060897 0.004851 439846.000000 0 0 1
26.993978 -1.170223 23.231954 35.633804 -0.043324 0.860625 0.069910 -0.001067 1325890.000000 0 0 1
26.234378 0.225977 23.295804 35.085441 0.008614 0.844676 0.082459 -0.009078 231212.000000 0 0 1
26.166178 0.902177 22.044364 34.226259 0.034465 0.870980 0.068485 -0.010788 238399.000000 0 0 1
25.044878 1.768777 22.114164 33.457596 0.070507 0.848698 0.078122 -0.007916 139977.000000 0 0 1
25.013578 2.723977 20.957164 32.746021 0.108472 0.876310 0.068424 -0.004293 -98228.200000 0 0 1
24.645178 2.094077 19.706464 31.624590 0.084765 0.898049 0.083075 -0.006081 401879.000000 0 0 1
24.091778 3.162077 18.926464 30.799733 0.130505 0.909043 0.066379 -0.009657 263041.000000 0 0 1
23.780978 2.741577 17.447464 29.622039 0.114778 0.940972 0.062850 -0.007763 -404180.000000 0 0 1
24.966378 2.831077 16.722164 30.182210 0.112913 0.983586 0.054833 -0.015075 -200696.000000 0 0 1
24.857478 3.198077 15.370064 29.400013 0.127954 1.020675 0.049502 -0.009806 -436248.000000 0 0 1
24.159678 2.161077 14.408564 28.212888 0.089212 1.034788 0.047467 0.002737 12039.400000 0 0 1
22.756078 2.096377 14.522964 27.076750 0.091865 1.004675 0.072541 -0.000033 106328.000000 0 0 1
22.295678 0.996277 13.789464 26.234313 0.044655 1.017344 0.078136 -0.010987 -676795.000000 0 0 1
20.814578 0.630677 13.959964 25.070401 0.030291 0.980231 0.096021 -0.021354 -18161.400000 0 0 1
19.835978 1.252077 13.106464 23.807838 0.063038 0.987821 0.104738 -0.024225 897395.000000 0 1 0
19.901978 0.983177 11.688564 23.101470 0.049361 1.040295 0.113811 -0.021103 -1385450.000000 0 1 0
19.805778 -0.495923 11.181164 22.749356 -0.025034 1.056992 0.119866 -0.015313 -866069.000000 0 1 0
20.908378 -1.314623 11.322364 23.813535 -0.062793 1.075310 0.110389 -0.023577 -555093.000000 0 1 0
21.958678 -0.950023 10.450364 24.337136 -0.043237 1.126968 0.100198 -0.021449 -331169.000000 0 1 0
23.186578 -1.910423 10.624364 25.576244 -0.082208 1.142414 0.098798 -0.023381 139915.000000 0 0 1
23.763778 -1.732023 11.895264 26.631079 -0.072756 1.107758 0.090385 -0.025571 74321.700000 0 0 1
24.690678 -2.718123 12.266664 27.703589 -0.109645 1.112097 0.040884 -0.014166 -226239.000000 0 0 1
25.138378 -2.543523 13.695964 28.739989 -0.100838 1.074073 0.036974 -0.008813 -171112.000000 0 0 1
25.841278 -1.333023 13.923664 29.383959 -0.051539 1.077136 0.038317 -0.011656 142145.000000 0 0 1
25.907078 -1.099223 15.324064 30.119959 -0.042404 1.037043 0.045799 -0.013882 -367485.000000 0 0 1
26.999178 -0.066123 15.673764 31.219015 -0.002449 1.044819 0.058923 -0.014556 -261712.000000 0 0 1
28.227178 -0.760823 15.649564 32.284072 -0.026947 1.064724 0.064105 -0.011046 135899.000000 0 0 1
29.326578 0.122477 15.889464 33.354734 0.004176 1.074266 0.050114 -0.008620 -589996.000000 0 0 1
30.649078 -0.509023 16.166364 34.655107 -0.016607 1.085475 0.054698 -0.006893 -1036090.000000 0 0 1
31.155978 -1.310223 15.141564 34.665236 -0.042029 1.118765 0.073153 -0.005549 -296821.000000 0 0 1
32.485478 -1.698723 15.328564 35.960490 -0.052244 1.130441 0.063631 -0.010272 -168749.000000 0 0 1
33.077478 -2.405423 14.045664 36.016473 -0.072593 1.170188 0.066845 -0.019682 55178.600000 0 0 1
33.053278 -1.540523 12.943464 35.530630 -0.046574 1.197926 0.077278 -0.018912 170542.000000 0 0 1
33.690378 -2.112523 11.829964 35.769434 -0.062622 1.233721 0.074157 -0.017304 -125128.000000 0 0 1
33.340878 -1.406223 10.487064 34.979567 -0.042152 1.266308 0.093337 -0.011481 -225746.000000 0 0 1
33.771478 -0.072323 10.313064 35.311149 -0.002142 1.274414 0.091809 -0.016485 510856.000000 0 0 1
32.867478 0.694077 9.513064 34.223548 0.021114 1.289118 0.080934 -0.021486 -152642.000000 0 0 1
33.331578 2.128777 9.249364 34.656551 0.063780 1.300635 0.078278 -0.025918 -245042.000000 0 0 1
34.171078 2.135877 8.127464 35.189206 0.062424 1.337727 0.090287 -0.028236 152088.000000 0 0 1
34.442878 3.464777 7.685164 35.459530 0.100258 1.352332 0.084197 -0.029740 -90452.000000 0 0 1
34.946978 3.487777 6.252664 35.672842 0.099473 1.394608 0.079486 -0.036910 -128419.000000 0 0 1
35.358178 4.797877 5.893164 36.165588 0.134870 1.407117 0.074445 -0.027870 119049.000000 0 0 1
35.638478 4.769577 4.497964 36.236469 0.133042 1.446347 0.100722 -0.026502 -257195.000000 0 0 1
35.933578 6.161177 3.925664 36.668692 0.169809 1.463533 0.126383 -0.041102 -266172.000000 0 0 1
34.923178 7.111077 4.167164 35.882601 0.200874 1.454400 0.117410 -0.040263 -215842.000000 0 0 1
35.203978 8.350777 3.612264 36.360748 0.232906 1.471287 0.128507 -0.048101 -534249.000000 0 0 1
34.009978 9.370577 3.679364 35.468635 0.268854 1.466874 0.132720 -0.051956 813327.000000 0 0 1
32.897478 9.165577 2.821964 34.266826 0.271720 1.488350 0.123867 -0.050528 87724.300000 0 0 1
32.164178 7.986077 2.984664 33.274916 0.243370 1.480978 0.136009 -0.047476 -171279.000000 0 0 1
30.849278 8.041077 2.083064 31.948021 0.254983 1.505548 0.139398 -0.048423 680446.000000 0 0 1
31.008578 8.095677 0.675564 32.055082 0.255378 1.549720 0.134682 -0.046520 367601.000000 0 0 1
29.802478 7.843477 -0.044836 30.817363 0.257346 1.572251 0.105023 -0.041186 79287.700000 0 0 1
30.057478 8.002477 -1.525536 31.141915 0.260203 1.619803 0.093463 -0.030921 76837.100000 0 0 1
29.146778 7.271877 -2.344336 30.131558 0.244500 1.648678 0.092849 -0.035804 559630.000000 0 0 1
29.631778 7.211177 -3.645136 30.713684 0.238719 1.689758 0.107288 -0.034616 -370182.000000 0 0 1
28.794178 6.388277 -4.625636 29.854837 0.218324 1.726361 0.108360 -0.032116 -568528.000000 0 0 1
28.811178 5.015677 -4.246336 29.551182 0.172361 1.714990 0.111283 -0.036811 1143300.000000 0 0 1
27.842478 4.253777 -4.995036 28.605045 0.151608 1.746317 0.098446 -0.021092 3180.420000 0 0 1
27.855078 2.678477 -4.796536 28.391660 0.095863 1.740552 0.113054 -0.019443 -512113.000000 0 0 1
27.470578 2.207977 -3.493636 27.779729 0.080204 1.696892 0.117534 -0.035598 609002.000000 0 0 1
27.387978 0.832977 -3.570636 27.632311 0.030405 1.700378 0.106561 -0.039906 -158988.000000 0 0 1
27.545178 0.278377 -2.157736 27.630964 0.010106 1.648967 0.114568 -0.039562 623434.000000 0 0 1
28.893378 0.512077 -1.731736 28.949757 0.017721 1.630651 0.110435 -0.033181 737659.000000 0 0 1
29.029778 -0.016623 -0.363936 29.032064 -0.000573 1.583332 0.114310 -0.030471 -349793.000000 0 0 1
30.250178 0.498977 0.401664 30.256959 0.016494 1.557521 0.128905 -0.031304 -172988.000000 0 0 1
31.478378 0.033977 -0.121536 31.478631 0.001079 1.574657 0.103230 -0.023751 153719.000000 0 0 1
32.556078 0.862377 0.220664 32.568245 0.026483 1.564021 0.072773 -0.029922 -423785.000000 0 0 1
-2.133422 -21.201523 -8.499929 22.941335 1.470508 1.950351 0.039845 -0.007547 -99018.000000 0 1 0
-2.917122 -21.523023 -7.356929 22.931954 1.436082 1.897387 0.030370 -0.015982 27456.400000 0 1 0
-2.681722 -22.816623 -6.951029 24.002223 1.453799 1.864605 0.032293 -0.010495 -190426.000000 0 1 0
-3.471222 -23.247423 -5.705729 24.187753 1.422575 1.808934 0.023707 -0.013292 -998493.000000 0 1 0
-3.062322 -22.558823 -4.508729 23.207907 1.435873 1.766315 0.034138 -0.019397 -156951.000000 0 1 0
-3.559922 -23.034723 -3.265229 23.535786 1.417464 1.709980 0.033501 -0.031120 -284402.000000 0 1 0
-2.999322 -22.423423 -1.935229 22.705746 1.437827 1.656131 0.036546 -0.037356 366754.000000 0 1 0
-1.643822 -22.818023 -1.747529 22.943804 1.498880 1.647036 0.050547 -0.027302 -70875.500000 0 1 0
-1.318022 -22.506523 -0.410129 22.548813 1.512301 1.588986 0.048014 -0.027029 -49363.500000 0 1 0
0.188978 -22.448623 -0.130929 22.449800 -1.562378 1.576628 0.045210 -0.031146 -133126.000000 0 1 0
0.939678 -21.440323 -0.751229 21.474049 -1.526997 1.605787 0.032980 -0.028009 206034.000000 0 1 0
2.209578 -21.276123 -0.121429 21.390895 -1.467315 1.576473 0.029571 -0.025435 350058.000000 0 1 0
3.127878 -20.210623 -0.688429 20.462816 -1.417250 1.604446 0.038612 -0.023998 -43207.900000 0 1 0
3.658578 -20.616223 -1.952329 21.029156 -1.395164 1.663769 0.043201 -0.022062 -420980.000000 0 1 0
4.598378 -19.645123 -2.311029 20.308047 -1.340864 1.684842 0.046896 -0.020536 -504532.000000 0 1 0
5.655378 -20.119023 -3.307229 21.158831 -1.296772 1.727745 0.047241 -0.019786 -759217.000000 0 1 0
6.655278 -20.960923 -2.788429 22.168183 -1.263355 1.696916 0.057216 -0.028110 2307.140000 0 1 0
7.367978 -21.702023 -3.797029 23.231064 -1.243500 1.734979 0.051686 -0.020021 1261550.000000 0 1 0
8.621478 -20.906123 -4.421729 23.042299 -1.179655 1.763890 0.056904 -0.019581 398390.000000 0 1 0
8.399878 -19.688223 -4.973329 21.975397 -1.167533 1.799088 0.048626 -0.020579 -1153500.000000 0 1 0
9.454578 -19.365623 -5.780929 22.312228 -1.116621 1.832879 0.049631 -0.014337 -1277710.000000 0 1 0
9.284078 -18.041523 -6.618929 21.342466 -1.095541 1.886126 0.037526 -0.006863 -322160.000000 0 1 0
10.201378 -17.911323 -7.655729 21.988492 -1.053068 1.926414 0.034396 0.003857 115500.000000 0 1 0
9.859878 -16.677723 -8.285629 21.071670 -1.036872 1.974918 0.025964 0.003377 279389.000000 0 1 0
10.301278 -16.533323 -9.753529 21.785280 -1.013592 2.035001 0.020208 -0.000196 -310468.000000 0 1 0
9.517278 -17.284023 -10.653229 22.423365 -1.067462 2.065868 0.017625 0.004816 85983.400000 0 1 0
9.116878 -16.517123 -11.761029 22.231838 -1.066446 2.128239 0.005768 0.003082 118729.000000 0 1 0
8.661778 -17.253123 -13.074629 23.316144 -1.105517 2.166093 0.006398 0.006184 -26102.000000 0 1 0
7.490278 -18.014623 -12.956329 23.420020 -1.176753 2.157016 0.010565 0.017721 20826.400000 0 1 0
7.135978 -18.511323 -14.249429 24.426164 -1.202859 2.193665 0.013008 0.021315 -456444.000000 0 1 0
6.010478 -19.509723 -14.195929 24.865227 -1.271947 2.178416 0.023472 0.034012 -521069.000000 0 1 0
6.364378 -20.676323 -13.502129 25.501433 -1.272190 2.128767 0.038107 0.022434 667727.000000 0 0 1
5.169478 -21.393923 -13.164529 25.646213 -1.333708 2.109837 0.061199 0.004318 630860.000000 0 0 1
5.428878 -22.887923 -12.865729 26.811503 -1.337906 2.071290 0.037945 0.004199 -112891.000000 0 0 1
5.698478 -23.515023 -14.106729 28.007655 -1.333046 2.098643 0.040040 -0.001492 -95895.500000 0 0 1
5.237578 -24.854123 -14.189129 29.094519 -1.363102 2.080239 0.041772 -0.000627 714542.000000 0 0 1
3.739278 -25.147443 -14.541029 29.288523 -1.423184 2.090330 0.059508 -0.012966 813260.000000 0 0 1
2.821778 -25.029923 -13.454529 28.556677 -1.458534 2.061392 0.057793 -0.012303 -576056.000000 0 0 1
1.492178 -25.153273 -13.815629 28.736481 -1.511542 2.072329 0.053943 -0.016814 -430075.000000 0 0 1
0.777878 -26.423163 -13.287429 29.586219 -1.541366 2.036564 0.041910 -0.018261 -485672.000000 0 0 1
1.327578 -27.621143 -13.846529 30.925982 -1.522769 2.035023 0.042591 -0.019337 280960.000000 0 0 1
0.681578 -28.829003 -13.496529 31.839162 -1.547159 2.008540 0.027165 -0.012268 431945.000000 0 0 1
-0.780822 -29.105993 -13.987629 32.302047 1.543976 2.018644 0.007615 -0.010248 1028790.000000 0 0 1
-1.775422 -28.297793 -13.341529 31.335500 1.508138 2.010602 0.004335 -0.013905 77256.600000 0 0 1
-3.094722 -28.650573 -13.673529 31.896677 1.463197 2.013830 0.008620 -0.007114 180515.000000 0 0 1
-4.167222 -27.836203 -12.858529 30.944493 1.422195 1.999328 0.005217 -0.012531 340299.000000 0 0 1
-4.406322 -28.181583 -11.497929 30.754181 1.415697 1.953970 0.001982 -0.021206 -7417.820000 0 0 1
-5.075422 -29.429493 -11.316329 31.936096 1.400016 1.933008 -0.002165 -0.020991 -875569.000000 0 0 1
-5.479422 -29.654043 -9.852929 31.724856 1.388079 1.886594 0.004747 -0.022207 -264851.000000 0 0 1
-6.766822 -29.198893 -9.488929 31.438909 1.343067 1.877399 0.016978 -0.019482 -112899.000000 0 0 1
-6.895222 -27.784263 -9.423929 30.138344 1.327541 1.888819 0.025117 -0.013308 -960345.000000 0 0 1
-8.279422 -27.248363 -8.917229 29.841901 1.275811 1.874248 0.027198 -0.014697 621725.000000 0 0 1
-9.365122 -27.347453 -9.803529 30.523726 1.240864 1.897769 0.047136 -0.012155 32539.100000 0 0 1
-9.736722 -28.726893 -10.142429 31.982917 1.244007 1.893488 0.054805 -0.025323 -1080980.000000 0 0 1
-11.050822 -28.983163 -10.909729 32.881097 1.206528 1.909000 0.070129 -0.023518 -289467.000000 0 0 1
-11.001022 -28.427723 -12.232629 32.845016 1.201562 1.952428 0.075952 -0.025565 218578.000000 0 0 1
-11.824022 -29.109693 -13.182029 34.072681 1.184966 1.968042 0.081415 -0.026105 -99176.800000 0 0 1
-12.103122 -28.227543 -14.460829 33.946948 1.165737 2.010845 0.081727 -0.025117 68405.500000 0 0 1
-13.205722 -27.324553 -14.408029 33.594844 1.120605 2.014045 0.072947 -0.032200 294975.000000 0 0 1
-13.054622 -26.240293 -13.508129 32.271437 1.109148 2.002676 0.072811 -0.022291 -204132.000000 0 0 1
-14.082122 -25.129503 -13.780329 31.932672 1.060017 2.016999 0.081762 -0.019218 -189580.000000 0 0 1
-13.734722 -24.207123 -14.797829 31.521471 1.054705 2.059467 0.072819 -0.014709 -120216.000000 0 0 1
-14.784522 -23.313923 -15.076329 31.454996 1.005644 2.070651 0.076792 -0.011632 -444946.000000 0 0 1
-14.623622 -22.403123 -16.331529 31.344362 0.992491 2.118860 0.061602 -0.009574 -82877.900000 0 0 1
-13.678622 -21.358323 -16.271629 30.133844 1.001174 2.141208 0.053785 -0.007922 187211.000000 0 0 1
-13.666522 -20.653523 -17.531329 30.342862 0.986237 2.186796 0.044322 -0.000983 -72313.200000 0 0 1
-13.650622 -19.066323 -17.427429 29.216081 0.949443 2.209931 0.032395 0.001854 -965043.000000 0 0 1
-12.377822 -18.586023 -17.248529 28.216351 0.983273 2.228493 0.041567 0.006540 -890113.000000 0 0 1
-12.390922 -17.217523 -17.660129 27.601778 0.946991 2.265058 0.040670 0.008360 -8150.500000 0 0 1
-10.996322 -16.579523 -17.801029 26.695998 0.985165 2.300710 0.051017 0.005210 -445258.000000 0 0 1
-10.382722 -16.318723 -16.623729 25.503921 1.004151 2.280766 0.069863 0.004805 -1260510.000000 0 0 1
-9.193522 -15.680123 -16.845429 24.782162 1.040499 2.318205 0.073590 0.002213 -1594450.000000 0 1 0
-8.578822 -14.858523 -15.710229 23.263344 1.047185 2.312196 0.075808 0.002684 -27120.400000 0 1 0
-7.959122 -15.562723 -14.610829 22.782060 1.098053 2.267027 0.062576 0.002241 881741.000000 0 1 0
-6.820222 -16.383023 -14.900429 23.172001 1.176319 2.269252 0.060194 0.003825 36179.400000 0 1 0
-6.355822 -17.272623 -13.754729 22.976782 1.218202 2.212594 0.050017 0.001886 -474343.000000 0 1 0
-5.702922 -16.619423 -12.689629 21.673837 1.240239 2.196270 0.042477 -0.002408 184948.000000 0 1 0
-5.470322 -17.411123 -11.520229 21.582106 1.266377 2.133868 0.033476 -0.010985 -231614.000000 0 1 0
-4.288122 -18.382923 -11.618829 22.165672 1.341628 2.122550 0.043222 -0.015059 -277100.000000 0 1 0
-3.020622 -17.761323 -11.602529 21.429125 1.402341 2.142942 0.043949 -0.011892 -380981.000000 0 1 0
-2.009422 -18.745923 -11.554529 22.112316 1.464012 2.120621 0.043371 -0.006221 1516540.000000 0 1 0
-0.548822 -18.333023 -12.023429 21.930886 1.540869 2.151057 0.039524 0.002144 891341.000000 0 1 0
-0.299022 -18.111023 -13.410829 22.537721 1.554287 2.208111 0.048390 0.001242 578608.000000 0 1 0
0.978178 -17.538923 -13.746229 22.305368 -1.515082 2.234800 0.054302 0.000530 833995.000000 0 1 0
2.171878 -18.495723 -13.890829 23.232820 -1.453906 2.211671 0.063144 -0.002325 -421351.000000 0 1 0
2.165378 -19.468523 -14.885629 24.602727 -1.460027 2.220612 0.073580 -0.008142 198630.000000 0 1 0
1.505578 -20.715123 -14.612129 25.394830 -1.498244 2.183887 0.072585 -0.009301 -443608.000000 0 0 1
1.550978 -21.673523 -15.848729 26.894782 -1.499357 2.200972 0.091754 -0.017249 878185.000000 0 0 1
2.785578 -22.405623 -16.049129 27.701009 -1.447106 2.188752 0.068347 -0.019552 567166.000000 0 0 1
3.743478 -21.579123 -16.669829 27.523723 -1.399029 2.221383 0.066520 -0.016245 351129.000000 0 0 1
5.148378 -22.270323 -16.868529 28.408103 -1.343611 2.206561 0.075399 -0.016521 879229.000000 0 0 1
5.054478 -23.242723 -17.872429 29.752237 -1.356665 2.215184 0.076125 -0.026229 -689866.000000 0 0 1
6.313978 -23.661023 -18.236529 30.533282 -1.310021 2.210886 0.055683 -0.022708 -683611.000000 0 0 1
6.754578 -23.466723 -19.695729 31.372490 -1.290536 2.249523 0.069194 -0.017901 -65799.100000 0 0 1
6.920978 -22.138123 -20.116629 30.703015 -1.267796 2.285244 0.086296 -0.034603 -67056.500000 0 0 1
7.445278 -22.071923 -21.381529 31.619167 -1.245463 2.313416 0.075351 -0.027076 -449202.000000 0 0 1
7.397378 -20.604423 -21.919129 30.979213 -1.226110 2.356812 0.089232 -0.038818 690592.000000 0 0 1
6.140478 -20.076323 -22.385129 30.689708 -1.273975 2.388243 0.115784 -0.047140 625151.000000 0 0 1
6.165378 -18.700623 -22.775129 30.107003 -1.252330 2.428699 0.128528 -0.045916 559.681000 0 0 1
4.733578 -18.158623 -22.979229 29.667951 -1.315792 2.456795 0.129078 -0.044519 -951643.000000 0 0 1
4.009678 -18.879323 -23.965429 30.770897 -1.361521 2.463601 0.136239 -0.036309 603670.000000 0 0 1
2.851178 -18.188723 -24.434029 30.593800 -1.415306 2.495861 0.113188 -0.023777 1167770.000000 0 0 1
1.678578 -17.788023 -23.461129 29.489929 -1.476709 2.490734 0.088264 -0.021150 -564590.000000 0 0 1
1.974378 -16.713323 -22.654729 28.221801 -1.453209 2.502670 0.095187 -0.025684 640575.000000 0 0 1
0.794678 -16.177523 -22.003929 27.322456 -1.521713 2.507049 0.063037 -0.009386 909318.000000 0 0 1
1.147578 -15.475123 -20.708829 25.877634 -1.496775 2.498525 0.038736 -0.002673 -76687.600000 0 0 1
2.133978 -14.476123 -20.791429 25.424309 -1.424437 2.528335 0.037102 -0.002509 -46281.200000 0 0 1
2.142678 -13.587223 -19.684929 24.014581 -1.414386 2.531696 0.029737 -0.004099 -492672.000000 0 1 0
3.312978 -12.602023 -19.724029 23.639461 -1.313721 2.557783 0.026898 -0.007183 -333455.000000 0 1 0
4.485278 -13.279923 -19.250429 23.812876 -1.245077 2.512232 0.036769 -0.014948 49130.500000 0 1 0
5.611678 -12.422423 -19.278929 23.611112 -1.146498 2.526152 0.047422 -0.018863 -20.225600 0 1 0
5.822378 -11.243323 -18.291829 22.246424 -1.092969 2.536126 0.043693 -0.012961 -923141.000000 0 1 0
5.020178 -10.068823 -18.288829 21.472416 -1.108280 2.590086 0.012146 -0.000793 33402.700000 0 1 0
5.396478 -9.091023 -19.290029 21.997133 -1.035092 2.640241 0.027175 -0.005000 -372391.000000 0 1 0
4.804278 -9.256823 -20.698129 23.177195 -1.092066 2.674850 0.038567 -0.014866 -560533.000000 0 1 0
3.399478 -9.268123 -20.687829 22.922496 -1.219241 2.696364 0.024631 -0.011191 -529551.000000 0 1 0
2.929078 -9.074523 -21.998529 23.976274 -1.258573 2.732576 0.029925 -0.016879 -387710.000000 0 1 0
1.405778 -8.938023 -21.979629 23.769067 -1.414794 2.751084 0.032698 -0.021437 -562088.000000 0 1 0
1.057078 -7.736023 -21.321729 22.706377 -1.434994 2.790564 0.029810 -0.025082 742163.000000 0 1 0
-0.366722 -7.509523 -21.417829 22.699137 1.522001 2.803993 0.027495 -0.021693 1100360.000000 0 1 0
-0.702522 -6.498823 -22.591129 23.517809 1.463115 2.859937 0.038879 -0.027228 -321856.000000 0 1 0
-0.451922 -7.007223 -23.895329 24.905665 1.506392 2.855782 0.041588 -0.027148 -104829.000000 0 1 0
-1.127122 -6.406123 -25.012629 25.844543 1.396634 2.887178 0.047662 -0.023915 150794.000000 0 0 1
-0.715422 -4.931723 -25.497539 25.979958 1.426736 2.948582 0.061747 -0.028094 16980.000000 0 0 1
-1.216822 -4.488623 -26.762349 27.163426 1.306069 2.969536 0.059476 -0.028362 -203477.000000 0 0 1
-0.789122 -3.185123 -27.124809 27.322572 1.327934 3.021203 0.050741 -0.026744 -692530.000000 0 0 1
-1.289122 -1.948723 -26.341999 26.445420 0.986364 3.053125 0.059876 -0.026344 -828583.000000 0 0 1
-2.665022 -1.955823 -26.187469 26.395286 0.633108 3.016025 0.050134 -0.027114 -857158.000000 0 0 1
-3.372322 -1.293723 -27.215119 27.453760 0.366315 3.009645 0.063614 -0.022365 -1203110.000000 0 0 1
-4.863822 -1.249123 -27.033079 27.495534 0.251386 2.957926 0.056771 -0.022540 -1022760.000000 0 0 1
-5.429722 -0.471823 -25.998109 26.563248 0.086679 2.934948 0.057366 -0.023051 787256.000000 0 0 1
-6.848922 -0.668623 -26.098089 26.990091 0.097316 2.883783 0.063040 -0.028056 179420.000000 0 0 1
-7.760322 0.348477 -25.464949 26.623442 -0.044875 2.845507 0.065190 -0.022842 -1245370.000000 0 0 1
-7.859822 1.593577 -26.104549 27.308675 -0.200038 2.843529 0.076103 -0.023904 701743.000000 0 0 1
-8.842822 1.682577 -27.157099 28.610043 -0.188028 2.821530 0.077730 -0.029767 1618050.000000 0 0 1
-10.347222 1.276677 -26.831559 28.785890 -0.122763 2.770987 0.065451 -0.029983 732636.000000 0 0 1
-11.327122 2.025677 -27.585769 29.889491 -0.176964 2.746408 0.071800 -0.036354 95704.600000 0 0 1
-12.573022 1.448977 -27.326789 30.115341 -0.114739 2.707862 0.040551 -0.023504 452601.000000 0 0 1
-13.796422 2.197277 -28.020449 31.309980 -0.157938 2.679086 0.029481 -0.019165 -149859.000000 0 0 1
-15.009822 1.471477 -28.028009 31.828121 -0.097722 2.647934 0.031819 -0.015946 729132.000000 0 0 1
-16.039622 2.090677 -28.827059 33.055101 -0.129614 2.630256 0.031504 -0.014737 458800.000000 0 0 1
-16.613522 3.401277 -28.233099 32.934566 -0.201939 2.600698 0.032483 -0.004346 -1152870.000000 0 0 1
-15.933922 4.664977 -28.369969 32.871066 -0.284811 2.612109 0.048832 -0.011196 -12553.400000 0 0 1
-15.728422 5.219877 -29.671159 33.985409 -0.320438 2.632231 0.047170 -0.017213 255937.000000 0 0 1
-16.928522 5.833677 -30.504319 35.371176 -0.331862 2.610800 0.037959 -0.010203 228146.000000 0 0 1
-17.531922 6.881777 -29.845719 35.291558 -0.374049 2.578653 0.040154 -0.002455 10320.500000 0 0 1
-18.384322 7.616777 -30.706829 36.591091 -0.392780 2.566586 0.030842 -0.002638 -324049.000000 0 0 1
-19.099922 8.679477 -29.929219 36.549945 -0.426527 2.530215 0.031635 -0.006748 -347361.000000 0 0 1
-18.118322 9.598377 -29.457869 35.891064 -0.487172 2.533532 0.036721 -0.000637 429961.000000 0 0 1
-18.667422 10.672977 -28.743869 35.897006 -0.519384 2.499312 0.056125 -0.004762 -218806.000000 0 0 1
-8.806922 24.569177 30.962944 40.495805 -1.226610 0.700382 0.039966 -0.017760 -459841.000000 0 0 1
-9.641322 25.716377 30.827384 41.286981 -1.212105 0.727768 0.041115 -0.018635 184678.000000 0 0 1
-9.157922 26.804477 31.556344 42.404603 -1.241574 0.731501 0.037135 -0.011334 703683.000000 0 0 1
-7.791522 27.499877 31.198974 42.312257 -1.294703 0.741656 0.040069 -0.014485 774292.000000 0 0 1
-7.929922 28.490377 30.231504 42.291005 -1.299331 0.774394 0.051651 -0.006525 789075.000000 0 0 1
-6.598522 28.765077 29.782914 41.928417 -1.345304 0.780833 0.051790 -0.009001 556273.000000 0 0 1
-6.455022 30.049577 28.929334 42.208421 -1.359199 0.815654 0.063757 -0.011355 -182069.000000 0 0 1
-6.597122 31.266377 29.620614 43.571655 -1.362849 0.823288 0.064114 -0.011877 285078.000000 0 0 1
-6.136922 32.352777 28.861364 43.787468 -1.383336 0.851143 0.075833 -0.011886 -5878.800000 0 0 1
-6.626322 33.680577 29.497654 45.259265 -1.376537 0.860909 0.067086 -0.014670 -20526.700000 0 0 1
-5.988622 33.952777 30.765674 46.208023 -1.396211 0.842220 0.066739 -0.021207 129199.000000 0 0 1
-6.745522 -33.465664 31.654274 46.555835 1.371896 0.823142 0.053623 -0.024183 -101137.000000 0 0 1
-7.889122 34.065577 32.445186 47.701068 -1.343222 0.822792 0.012667 -0.014154 -4677.010000 0 0 1
-7.546322 33.034177 33.329741 47.529733 -1.346210 0.793661 0.021058 -0.011195 -183075.000000 0 0 1
-7.381422 31.748377 32.753388 46.208541 -1.342357 0.782977 0.036404 -0.007190 -126653.000000 0 0 1
-7.212022 30.552977 33.763689 46.102976 -1.338990 0.749024 0.032142 0.003029 1245410.000000 0 0 1
-5.950922 30.602477 -33.755319 45.949392 -1.378734 2.395902 0.041372 -0.011022 1023850.000000 0 0 1
-6.089222 29.799577 -32.588739 44.577117 -1.369232 2.390677 0.030076 -0.005045 -526446.000000 0 0 1
-4.754322 29.671977 -31.807179 43.757587 -1.411917 2.384586 0.040135 -0.014740 543377.000000 0 0 1
-3.918322 28.578477 -32.104049 43.159617 -1.434538 2.409601 0.053534 -0.012002 34146.600000 0 0 1
-3.320922 28.608577 -33.402639 44.104597 -1.455232 2.430042 0.050095 -0.014729 -924483.000000 0 0 1
-2.599922 27.270777 -33.554359 43.316854 -1.475746 2.456920 0.063589 -0.025083 -1199070.000000 0 0 1
-1.528622 27.179477 -32.659799 42.517327 -1.514614 2.446747 0.082602 -0.019921 -138283.000000 0 0 1
-0.698022 26.051077 -32.687889 41.804831 -1.544008 2.468531 0.089445 -0.021458 468653.000000 0 0 1
0.070378 25.725977 -34.035029 42.663967 1.568061 2.494345 0.086435 -0.017022 -374842.000000 0 0 1
-0.808022 25.256877 33.206261 41.727911 -1.538815 0.650501 0.078119 -0.014528 -66880.400000 0 0 1
-0.269922 25.212977 31.927494 40.683313 -1.560091 0.668454 0.060447 -0.008585 -162839.000000 0 0 1
-0.168222 26.521677 31.116394 40.885910 -1.564454 0.705860 0.049973 -0.014439 340419.000000 0 0 1
-1.438922 27.032477 30.705074 40.934422 -1.517617 0.722577 0.067274 -0.024755 449437.000000 0 0 1
-1.394922 28.259477 30.076084 41.293035 -1.521475 0.754875 0.056248 -0.024727 116590.000000 0 0 1
-2.657022 29.120277 30.374624 42.162402 -1.479805 0.766389 0.071017 -0.029986 38172.100000 0 0 1
-2.779722 29.722577 31.691204 43.537236 -1.477545 0.755527 0.069801 -0.023107 228044.000000 0 0 1
-3.597622 30.897877 31.665414 44.388289 -1.454882 0.776496 0.067530 -0.018889 53736.700000 0 0 1
-3.352422 31.722077 32.979891 45.882482 -1.465506 0.768735 0.068267 -0.022527 526717.000000 0 0 1
-2.109922 32.418077 32.858411 46.206695 -1.505803 0.779709 0.121961 -0.036563 313976.000000 0 0 1
-1.415922 32.642277 34.090700 47.219688 -1.527447 0.764166 0.088474 -0.039377 727782.000000 0 0 1
0.064078 33.075177 33.821906 47.306372 1.568859 0.774237 0.096906 -0.046110 530956.000000 0 0 1
0.178678 -33.768764 33.500653 47.567374 -1.565505 0.789391 0.100494 -0.036630 354708.000000 0 0 1
1.514378 -33.374864 33.211399 47.108087 -1.525453 0.788367 0.087973 -0.037568 306256.000000 0 0 1
1.778278 -31.900064 32.819240 45.802608 -1.515109 0.771972 0.085368 -0.038654 -201387.000000 0 0 1
1.411678 -31.001564 33.801624 45.887249 -1.525292 0.742732 0.071949 -0.024310 60553.800000 0 0 1
1.574478 -29.688264 33.340649 44.670694 -1.517812 0.728213 0.065136 -0.023097 -33844.600000 0 0 1
1.443378 -28.605064 -33.835139 44.330008 -1.520380 2.439134 0.064483 -0.020010 1072090.000000 0 0 1
0.042078 -28.507164 -33.494799 43.983653 -1.569320 2.436464 0.044342 -0.020907 1046730.000000 0 0 1
-0.169322 -27.607464 -32.422769 42.584465 1.564663 2.436228 0.047476 -0.022072 -130466.000000 0 0 1
-1.684422 -27.357664 -32.332249 42.386948 1.509304 2.438410 0.073240 -0.019908 90633.000000 0 0 1
-2.141322 -27.003364 -31.001499 41.168675 1.491664 2.423461 0.084476 -0.029257 -192905.000000 0 0 1
-3.399922 -26.400064 -30.963099 40.831805 1.442717 2.431511 0.095544 -0.035720 -328549.000000 0 0 1
-3.832622 -25.992264 -29.513769 39.513913 1.424399 2.414216 0.093017 -0.040110 -169541.000000 0 0 1
-4.128822 -27.111364 -28.686819 39.686355 1.419666 2.378697 0.078227 -0.042800 -112534.000000 0 0 1
-4.313822 -26.675964 -27.333899 38.436417 1.410472 2.361923 0.079450 -0.039047 171846.000000 0 0 1
-3.119222 -26.064164 -26.529929 37.321673 1.451688 2.361495 0.087427 -0.040869 -39999.400000 0 0 1
-2.672122 -24.813564 -26.912179 36.703114 1.463522 2.393871 0.102131 -0.040466 -277479.000000 0 0 1
-1.494622 -24.486064 -26.220179 35.906810 1.509832 2.389453 0.096809 -0.038757 -1045700.000000 0 0 1
-0.797322 -23.350164 -27.005819 35.709664 1.536663 2.428375 0.088750 -0.045346 261791.000000 0 0 1
0.032378 -23.580164 -28.144259 36.716814 -1.569423 2.444205 0.068255 -0.045496 936513.000000 0 0 1
0.983278 -24.667764 -28.035049 37.355446 -1.530957 2.419606 0.066922 -0.037269 369190.000000 0 0 1
1.872378 -25.092964 -29.277239 38.604654 -1.496317 2.431630 0.033940 -0.031536 1281260.000000 0 0 1
2.822478 -24.031264 -29.624279 38.250045 -1.453882 2.456705 0.028693 -0.030726 799407.000000 0 0 1
3.663378 -24.512664 -30.660129 39.425049 -1.422446 2.461766 0.023325 -0.023336 -606320.000000 0 0 1
4.579078 -23.459164 -31.255629 39.347359 -1.378027 2.488735 0.025926 -0.025100 -287295.000000 0 0 1
5.688678 -23.027264 -30.452549 38.600177 -1.328605 2.479850 0.028486 -0.024070 1478560.000000 0 0 1
6.903578 -23.794164 -30.470359 39.271674 -1.288412 2.458915 0.027185 -0.012146 859669.000000 0 0 1
7.705278 -24.001164 -31.799849 40.579028 -1.260152 2.471320 0.025949 -0.002461 -616782.000000 0 0 1
7.001778 -24.938164 -32.629869 41.661076 -1.297078 2.470627 0.008013 -0.004336 99835.200000 0 0 1
7.289278 -25.025464 -34.016479 42.854734 -1.287364 2.487767 0.021242 -0.003416 42443.000000 0 0 1
6.743478 -23.746164 33.496587 41.609808 -1.294099 0.635093 0.010390 0.000971 -360387.000000 0 0 1
5.387378 -23.451064 33.660724 41.376570 -1.344986 0.620614 0.007110 -0.007187 -497932.000000 0 0 1
4.975878 -22.285864 32.921640 40.065615 -1.351124 0.606421 0.011832 -0.013304 -659263.000000 0 0 1
3.565278 -21.837964 33.315015 39.993726 -1.408964 0.586277 0.026537 -0.020914 -367269.000000 0 0 1
2.473578 -22.599964 32.911267 40.000356 -1.461780 0.604521 0.039513 -0.020067 -315853.000000 0 0 1
2.273178 -23.731664 33.750405 41.321290 -1.475301 0.614989 0.032099 -0.011815 185223.000000 0 0 1
0.893478 -24.494564 33.595789 41.586765 -1.534336 0.630304 0.055341 -0.013403 1011410.000000 0 0 1
0.764178 -25.265964 32.425704 41.114221 -1.540560 0.662148 0.048458 -0.013581 104663.000000 0 0 1
-0.587622 -25.651664 32.286840 41.240674 1.547893 0.671502 0.057978 -0.013731 113327.000000 0 0 1
-0.689522 -26.817064 31.227554 41.167833 1.545090 0.709723 0.063663 -0.016071 -897378.000000 0 0 1
-1.945522 -26.870664 30.676754 40.827452 1.498519 0.720652 0.068383 -0.018199 -951927.000000 0 0 1
-2.068222 -28.034064 29.822654 40.982642 1.497154 0.755848 0.077606 -0.022565 1045920.000000 0 0 1
-3.463822 -28.043764 29.067004 40.538148 1.447904 0.771267 0.084204 -0.018568 1170180.000000 0 0 1
-4.564922 -28.440364 29.866804 41.493599 1.411645 0.767292 0.088204 -0.017601 166699.000000 0 0 1
-5.690322 -28.717364 29.043304 41.238092 1.375181 0.789383 0.086271 -0.017128 451363.000000 0 0 1
-6.941322 -29.111164 29.883144 42.292365 1.336725 0.786136 0.065840 -0.010374 645481.000000 0 0 1
-8.132122 -29.360164 29.097404 42.128489 1.300592 0.808364 0.074165 -0.004472 1002260.000000 0 0 1
-9.324822 -29.559164 29.832224 43.019275 1.265214 0.804514 0.068730 -0.004425 95198.700000 0 0 1
-9.432322 -30.788264 30.798764 44.558386 1.273514 0.807648 0.037468 -0.001617 -791089.000000 0 0 1
-9.508422 -32.025164 30.125244 44.983903 1.282182 0.837006 0.048764 0.000024 1117930.000000 0 0 1
-10.887622 -32.425964 29.953544 45.466452 1.246856 0.851567 0.053483 -0.000003 798084.000000 0 0 1
-11.039922 -33.770664 29.223894 46.004061 1.254839 0.882469 0.065208 -0.000415 -299896.000000 0 0 1
-10.717522 33.415477 30.077874 46.218372 -1.260427 0.862188 0.043909 0.005914 182073.000000 0 0 1
-10.471322 32.186777 29.502334 44.900166 -1.256266 0.853877 0.045167 -0.005164 -103771.000000 0 0 1
-10.878822 30.952577 30.300544 44.660204 -1.232815 0.825120 0.038415 0.013419 -290967.000000 0 0 1
-12.249022 30.674777 30.364424 44.866232 -1.190877 0.827421 0.030948 0.022774 -449809.000000 0 0 1
-12.672022 29.394577 30.832254 44.443776 -1.163770 0.804133 0.030164 0.017665 110577.000000 0 0 1
-12.570922 29.127377 32.348850 45.308722 -1.163362 0.775651 0.030304 0.007610 87977.700000 0 0 1
-13.439922 29.921977 33.167379 46.647950 -1.148637 0.779856 0.018240 0.012300 300985.000000 0 0 1
-13.593322 29.413577 -33.769229 46.800617 -1.137889 2.376842 0.022367 0.009083 438111.000000 0 0 1
-14.853422 29.951477 -33.011659 46.983878 -1.110421 2.349865 0.021451 0.008195 527799.000000 0 0 1
-15.121922 29.287477 -31.762579 45.774341 -1.094172 2.337680 0.018684 0.002479 -177293.000000 0 0 1
-16.297522 29.714777 -31.112679 46.006260 -1.069132 2.313484 0.028132 0.002359 138443.000000 0 0 1
-16.304922 29.269177 -29.663519 44.748850 -1.062543 2.295467 0.047303 -0.010231 -86194.800000 0 0 1
-16.272222 27.878177 -29.389259 43.654398 -1.042456 2.309359 0.035732 -0.013181 36387.200000 0 0 1
-16.264522 27.755977 -27.987359 42.640605 -1.040747 2.286773 0.038741 -0.015262 -90116.900000 0 0 1
-16.751922 26.335077 -27.542629 41.626429 -1.004250 2.293830 0.029713 -0.016529 -304943.000000 0 0 1
-18.097022 26.196477 -27.895029 42.330725 -0.966259 2.290256 0.027508 -0.012333 -602018.000000 0 0 1
-18.553622 24.921477 -27.434459 41.448359 -0.930835 2.294140 0.023712 -0.010021 1129790.000000 0 0 1
-20.026222 24.630977 -27.947439 42.294136 -0.888148 2.292664 0.031659 -0.014710 1299270.000000 0 0 1
-21.040322 25.015477 -27.037529 42.420481 -0.871497 2.261876 0.043111 -0.017893 915947.000000 0 0 1
-22.373522 24.746377 -27.504919 43.237463 -0.835713 2.260277 0.070157 -0.021328 1373080.000000 0 0 1
-23.510822 25.090477 -26.490629 43.405578 -0.817889 2.227242 0.089251 -0.031049 56600.500000 0 0 1
-23.937722 26.464777 -26.425139 44.403681 -0.835494 2.208201 0.056570 -0.018174 405121.000000 0 0 1
-25.186062 26.655777 -25.759469 44.815381 -0.813741 2.183145 0.049025 -0.014053 356828.000000 0 0 1
-25.263602 26.304677 -24.253129 43.799542 -0.805584 2.157634 0.038174 0.003108 -818390.000000 0 0 1
-25.178572 24.882377 -23.938729 42.733546 -0.779482 2.165406 0.038488 0.002835 -411787.000000 0 0 1
-26.392982 24.215677 -23.700729 42.950123 -0.742402 2.155341 0.036098 0.016574 -565465.000000 0 0 1
-27.050242 24.344877 -22.307529 42.685062 -0.732808 2.120703 0.019618 0.013545 -223776.000000 0 0 1
-26.506002 23.633777 -21.242429 41.380724 -0.728176 2.109870 0.017113 0.014351 286560.000000 0 0 1
-25.235582 24.140177 -20.823729 40.659691 -0.763217 2.108479 0.021997 0.017451 465865.000000 0 0 1
-24.525922 23.305177 -19.689429 39.144932 -0.759882 2.097849 0.016703 0.013607 -47683.200000 0 0 1
-25.109962 23.379977 -18.399629 38.931733 -0.749736 2.063049 0.016920 0.013251 183458.000000 0 0 1
-24.189522 23.118277 -17.337129 37.685060 -0.762758 2.048851 0.004600 0.004023 220784.000000 0 0 1
-24.776122 23.243877 -15.842529 37.484927 -0.753501 2.007150 -0.001308 -0.000697 -47448.500000 0 0 1
-25.098952 24.568377 -15.442329 38.367018 -0.774716 1.985031 -0.002630 -0.009841 -152572.000000 0 0 1
-25.587992 24.582877 -14.159429 38.204092 -0.765367 1.950479 -0.023120 -0.006947 -164520.000000 0 0 1
-25.896252 25.922277 -13.500529 39.049259 -0.785900 1.923814 -0.019187 -0.004687 1028850.000000 0 0 1
-24.640722 26.632477 -13.310229 38.647331 -0.824225 1.922398 0.001683 -0.007568 1212490.000000 0 0 1
-24.877722 27.683777 -12.365529 39.219879 -0.838734 1.891556 0.017744 -0.010990 68320.700000 0 0 1
-23.508322 28.179277 -11.876729 38.571616 -0.875522 1.883796 0.027449 -0.016881 148157.000000 0 0 1
-22.702522 27.136177 -11.317229 37.146417 -0.874125 1.880383 0.025400 -0.024435 8366.750000 0 0 1
-21.501622 27.650877 -10.799229 36.653978 -0.909857 1.869861 0.036076 -0.023964 -248563.000000 0 0 1
-20.611622 26.599277 -10.116429 35.138336 -0.911552 1.862833 0.081075 -0.025246 -49297.100000 0 0 1
-19.946022 25.812777 -11.075529 34.450118 -0.912913 1.898104 0.068454 -0.027841 -229045.000000 0 0 1
-19.137022 24.872477 -10.407329 33.063246 -0.914991 1.891011 0.071077 -0.016097 -482085.000000 0 0 1
-18.523022 23.900377 -11.369229 32.304640 -0.911480 1.930437 0.070030 -0.021532 -555095.000000 0 0 1
-17.986422 22.857577 -10.630929 30.967674 -0.904100 1.921215 0.052183 -0.018898 -88643.800000 0 0 1
-17.343122 21.990777 -11.548129 30.294182 -0.903012 1.961890 0.067806 -0.019777 -25849.000000 0 0 1
-17.030922 20.624277 -10.851629 28.864701 -0.880538 1.956216 0.057145 -0.017050 -157424.000000 0 0 1
-18.121122 19.778677 -10.594029 28.841023 -0.829106 1.946928 0.050686 -0.011702 -6654.820000 0 0 1
-17.662522 18.415677 -10.494129 27.590371 -0.806271 1.960976 0.080281 -0.021805 -1069870.000000 0 0 1
-18.807822 17.453677 -10.269529 27.637443 -0.748072 1.951507 0.050347 -0.006675 -365875.000000 0 0 1
-19.385422 16.910077 -11.483929 28.171367 -0.717304 1.990670 0.021269 -0.003106 497629.000000 0 0 1
-20.423022 17.815677 -11.903429 29.600503 -0.717318 1.984645 0.024536 -0.001765 -611743.000000 0 0 1
-21.130022 17.224177 -13.109029 30.248913 -0.683912 2.019027 0.039445 -0.009205 131603.000000 0 0 1
-20.269122 17.203077 -14.265929 30.171177 -0.703758 2.063299 0.047582 -0.017323 311633.000000 0 0 1
-20.963622 16.670277 -15.371329 30.881213 -0.671807 2.091807 0.063881 -0.009813 356309.000000 0 0 1
-20.185522 16.496277 -16.754229 30.988492 -0.685161 2.142017 0.085791 -0.019725 -118666.000000 0 0 1
-19.695122 17.703077 -17.305829 31.635241 -0.732183 2.149624 0.059858 -0.024911 -164435.000000 0 0 1
-18.931422 17.325877 -18.393629 31.573887 -0.741145 2.192669 0.063169 -0.020189 -747009.000000 0 0 1
-18.192422 18.538977 -18.962829 32.159707 -0.794833 2.201416 0.047939 -0.009444 -76511.600000 0 0 1
-17.000522 18.971477 -18.335629 31.386780 -0.840135 2.194670 0.048195 -0.009651 518760.000000 0 0 1
-16.279022 19.968377 -19.021829 32.024563 -0.886831 2.206789 0.065757 -0.019734 46395.700000 0 0 1
33.429596 30.503577 1.847771 45.292608 0.739663 1.529989 0.057227 -0.016223 -257181.000000 0 0 1
34.749156 30.535577 1.367771 46.279543 0.720946 1.541237 0.060127 -0.014823 -122346.000000 0 0 1
34.807236 30.935877 0.028371 46.567939 0.726580 1.570187 0.048272 -0.014138 121257.000000 0 0 1
36.259886 30.899277 -0.502129 47.642384 0.705748 1.581336 0.014301 -0.003029 248602.000000 0 0 1
-35.936720 31.947677 0.012571 48.084323 -0.726703 1.570535 -0.001672 0.008938 -327668.000000 0 0 1
-34.738863 32.099677 -0.695629 47.303930 -0.745933 1.585502 0.013655 -0.003169 -18797.100000 0 0 1
-33.806052 33.134277 0.019071 47.336348 -0.775363 1.570393 0.007024 0.005535 306259.000000 0 0 1
-33.241352 32.814577 1.328471 46.728458 -0.778937 1.542363 -0.000017 0.009409 217130.000000 0 0 1
-32.805592 34.026077 1.882971 47.302499 -0.803658 1.530979 -0.007109 0.006702 -380369.000000 0 0 1
-32.009262 33.883977 3.171971 46.720212 -0.813841 1.502851 0.018455 0.014475 -237173.000000 0 0 1
-31.726942 -33.140164 3.869471 46.041743 0.807181 1.486654 0.021513 0.016179 -93880.400000 0 0 1
-31.006452 -33.416564 5.040271 45.863614 0.822791 1.460677 0.045320 -0.002306 -792937.000000 0 0 1
-30.982722 -32.179864 6.026971 45.075460 0.804349 1.436686 0.049258 -0.007855 1212840.000000 0 0 1
-32.255982 -31.688864 6.556471 45.690478 0.776530 1.426802 0.029503 -0.005098 1085420.000000 0 0 1
-32.861412 -32.600764 7.419571 46.879977 0.781417 1.411861 0.019817 -0.010932 -1083900.000000 0 0 1
-33.917662 -32.107064 8.415471 47.456206 0.757982 1.392522 0.036252 -0.005125 710451.000000 0 0 1
-35.227860 -31.786564 7.964071 48.112516 0.734092 1.404501 0.027930 0.000496 747634.000000 0 0 1
-36.037772 -32.906164 7.506571 49.374945 0.740007 1.418172 0.004812 0.000571 -401618.000000 0 0 1
35.497406 -32.561264 7.207571 48.705757 -0.742284 1.422269 0.012043 0.008106 -271263.000000 0 0 1
34.792396 -32.441564 8.419371 48.309954 -0.750447 1.395624 0.012722 0.012634 -190098.000000 0 0 1
33.402456 -32.297564 8.197671 47.181124 -0.768583 1.396161 0.004228 0.022713 -3567.300000 0 0 1
32.657456 -32.415764 9.520771 46.988682 -0.781684 1.366765 0.008203 0.006348 -263885.000000 0 0 1
31.241486 -32.358564 9.443271 45.959574 -0.802960 1.363853 0.028136 -0.002009 136589.000000 0 0 1
30.631236 -32.327964 10.680071 45.797749 -0.812341 1.335428 0.039873 0.000311 -255480.000000 0 0 1
30.621926 -31.048564 11.486971 45.096188 -0.792316 1.313237 0.053502 -0.005471 -404870.000000 0 0 1
29.988306 -29.874364 10.957471 43.724619 -0.783495 1.317494 0.049993 -0.011221 234157.000000 0 0 1
30.681556 -29.262164 9.895871 43.538034 -0.761724 1.341500 0.041462 -0.013374 -57418.800000 0 0 1
30.002126 -27.938964 9.394771 42.059184 -0.749805 1.345526 0.039085 -0.021187 151919.000000 0 0 1
30.669036 -27.450364 8.270071 41.982214 -0.730074 1.372510 0.041545 -0.020728 -155157.000000 0 0 1
29.990276 -26.307064 7.912571 40.670469 -0.720067 1.374994 0.046104 -0.026603 13621.700000 0 0 1
30.056556 -25.946664 6.421671 40.222677 -0.712143 1.410457 0.044695 -0.018445 206972.000000 0 0 1
31.239756 -25.294864 6.005871 40.642625 -0.680628 1.422480 0.058045 -0.018891 -219056.000000 0 0 1
31.189616 -24.890664 4.664371 40.175784 -0.673547 1.454435 0.049167 -0.013588 -879.344000 0 0 1
32.554196 -24.353064 4.196171 40.871203 -0.642270 1.467947 0.054038 -0.021488 475052.000000 0 0 1
33.517356 -25.366264 3.860671 42.210961 -0.647845 1.479207 0.047621 -0.008458 -740278.000000 0 0 1
34.804456 -24.849064 3.808471 42.934026 -0.620035 1.481974 0.048476 -0.011478 -1136910.000000 0 0 1
35.700896 -26.026264 3.592671 44.326376 -0.629931 1.489657 0.042395 -0.010681 -768757.000000 0 0 1
35.838526 -26.724964 4.826271 44.965726 -0.640747 1.463257 0.027357 -0.007141 -16072.900000 0 0 1
-36.396092 -27.937564 4.691671 46.121522 0.654669 1.468896 0.027295 -0.007433 -576075.000000 0 0 1
36.170916 -29.042364 5.685171 46.734518 -0.676519 1.448846 0.020194 -0.004404 622412.000000 0 0 1
34.851326 -29.591364 5.563671 46.056684 -0.703956 1.449700 0.000287 0.003745 721586.000000 0 0 1
33.801276 -28.688064 5.874871 44.721867 -0.703755 1.439051 0.016355 -0.001032 -1399130.000000 0 0 1
32.515346 -29.359764 6.375471 44.270646 -0.734443 1.426283 0.037009 -0.006821 281151.000000 0 0 1
31.805606 -30.185664 5.416371 44.182666 -0.759272 1.447897 0.017262 -0.011528 366650.000000 0 0 1
31.248216 -29.438064 4.307271 43.146300 -0.755579 1.470800 0.035857 -0.015256 414566.000000 0 0 1
29.723506 -29.601664 3.926771 42.132705 -0.783344 1.477461 0.040691 -0.009749 1227060.000000 0 0 1
29.528106 -30.833564 3.286771 42.818460 -0.807022 1.493960 0.048236 -0.006794 -272482.000000 0 0 1
28.165576 -31.191064 3.256771 42.151971 -0.836325 1.493457 0.064708 -0.010485 -100146.000000 0 0 1
28.015286 -32.675064 2.951471 43.141943 -0.862027 1.502330 0.065129 -0.010966 -196470.000000 0 0 1
28.135006 -33.069064 1.583171 43.447071 -0.865841 1.534349 0.065143 -0.004074 219072.000000 0 0 1
28.349996 33.772077 1.445671 44.117632 0.872459 1.538022 0.051280 0.004408 -149432.000000 0 0 1
28.268326 33.359877 -0.051329 43.726220 0.867828 1.571970 0.035167 -0.006421 -201601.000000 0 0 1
29.303366 33.804577 -0.883429 44.746141 0.856603 1.590541 0.028590 -0.002288 -408508.000000 0 0 1
28.861506 33.705577 -2.202129 44.428615 0.862666 1.620382 0.040319 -0.004242 111072.000000 0 0 1
29.765716 -33.841764 -3.292229 45.189618 -0.849392 1.643715 0.026737 -0.003217 231684.000000 0 0 1
29.679836 -32.446964 -3.433029 44.107639 -0.829909 1.648708 0.023392 -0.011312 -53172.700000 0 0 1
30.699456 -32.004864 -4.284829 44.554771 -0.806214 1.667115 0.025695 -0.016972 -256506.000000 0 0 1
30.914466 -30.479364 -4.187829 43.614604 -0.778311 1.666963 0.033682 -0.007233 -304219.000000 0 0 1
29.887746 -29.649164 -4.702229 42.361081 -0.781391 1.682029 0.027170 -0.019206 216818.000000 0 0 1
30.210756 -28.270764 -4.614829 41.631989 -0.752238 1.681873 0.034220 -0.023474 -406530.000000 0 0 1
31.169566 -27.660464 -5.624329 42.050876 -0.725821 1.704949 0.055212 -0.024987 -502229.000000 0 0 1
32.520156 -27.954764 -5.301929 43.210413 -0.710049 1.693807 0.066669 -0.022944 -316587.000000 0 0 1
33.454686 -27.390364 -6.161129 43.673877 -0.686058 1.712340 0.079166 -0.023607 -199623.000000 0 0 1
33.666876 -28.340664 -7.424829 44.629361 -0.699712 1.737940 0.084490 -0.015737 -897712.000000 0 0 1
32.550886 -28.226864 -8.280729 43.873528 -0.714373 1.760676 0.076478 -0.014837 -54304.800000 0 0 1
32.347866 -29.237764 -9.260529 44.575651 -0.734941 1.780069 0.064790 -0.007124 67675.000000 0 0 1
32.281756 -30.737964 -8.782929 45.432081 -0.760906 1.765341 0.055460 0.003397 -22790.700000 0 0 1
33.516456 -31.248864 -8.334729 46.575874 -0.750400 1.750715 0.066888 -0.006039 -511734.000000 0 0 1
33.331136 -32.504164 -7.775829 47.201152 -0.772838 1.736289 0.067288 -0.019510 -106217.000000 0 0 1
34.612726 -33.164864 -7.254829 48.482796 -0.764039 1.720998 0.062056 -0.020801 -206627.000000 0 0 1
34.492686 33.785377 -6.576729 48.728333 0.775039 1.706177 0.052141 -0.025122 -37262.400000 0 0 1
33.786406 33.915177 -5.331329 48.168284 0.787300 1.681705 0.057472 -0.017648 16166.100000 0 0 1
33.535486 32.541177 -4.665729 46.960899 0.770351 1.670314 0.027408 -0.011877 39473.300000 0 0 1
32.624176 31.753177 -5.407329 45.845832 0.771869 1.689017 0.031605 -0.025949 15306.200000 0 0 1
32.524526 30.438977 -4.920629 44.817281 0.752287 1.680811 0.036609 -0.010687 5794.650000 0 0 1
31.307896 29.672677 -5.470729 43.480812 0.758589 1.696950 0.040536 -0.027542 -75877.200000 0 0 1
31.317626 29.529277 -6.871329 43.588841 0.756016 1.729096 0.020428 -0.018034 -1762550.000000 0 0 1
30.067566 29.224477 -7.267129 42.555138 0.771180 1.742407 0.006979 -0.012589 -1645190.000000 0 0 1
29.867046 29.124477 -8.754529 42.625314 0.772811 1.777652 0.011604 -0.010158 -421655.000000 0 0 1
30.343486 27.842577 -9.164429 42.189134 0.742443 1.789764 0.029438 -0.014642 313225.000000 0 0 1
30.887186 27.755777 -10.488729 42.830070 0.732051 1.818204 0.016499 -0.006578 194660.000000 0 0 1
32.205796 28.488277 -10.788229 44.330363 0.724224 1.816625 0.042193 -0.008521 -865657.000000 0 0 1
33.380446 27.864377 -10.278429 44.680239 0.695575 1.802919 0.037382 -0.014265 -459088.000000 0 0 1
34.570146 28.405377 -10.691429 46.002903 0.687818 1.805349 0.056440 -0.015492 -742937.000000 0 0 1
34.918926 29.837977 -10.246029 47.059721 0.707097 1.790278 0.055973 -0.024931 -1065120.000000 0 0 1
35.511946 29.899477 -8.926929 47.273323 0.699805 1.760774 0.051934 -0.020456 259553.000000 0 0 1
35.475606 31.194777 -8.289429 47.961937 0.721277 1.744502 0.052513 -0.022029 -289162.000000 0 0 1
-36.457482 31.489477 -7.167429 48.704283 -0.712412 1.718495 0.049552 -0.015294 2084190.000000 0 0 1
-35.083105 31.682677 -7.637329 47.884707 -0.734511 1.730975 0.063455 -0.013527 1651720.000000 0 0 1
-34.366475 30.513877 -8.043129 46.656653 -0.726088 1.744052 0.071765 -0.016473 124939.000000 0 0 1
-32.916932 30.729377 -8.571829 45.839887 -0.751041 1.758899 0.088903 -0.013739 185386.000000 0 0 1
-31.973462 31.112177 -7.597629 45.254766 -0.771746 1.739481 0.082316 -0.010240 1318510.000000 0 0 1
-30.597252 31.278177 -8.020229 44.484158 -0.796402 1.752082 0.067872 -0.016352 1365930.000000 0 0 1
-30.385042 32.605577 -8.849729 45.438884 -0.820635 1.766810 0.040302 -0.016090 -567590.000000 0 0 1
-30.607012 33.801477 -8.106929 46.314699 -0.834955 1.746743 0.041277 -0.006842 132179.000000 0 0 1
-29.574282 -34.048964 -7.197329 45.670249 0.855613 1.729049 0.058826 -0.018730 120352.000000 0 0 1
-29.746522 -32.633364 -6.469029 44.627798 0.831644 1.716264 0.045068 -0.023006 263925.000000 0 0 1
-30.911302 -32.478564 -5.675129 45.194831 0.810117 1.696699 0.038959 -0.023120 112003.000000 0 0 1
-30.665162 -32.981664 -4.391429 45.248502 0.821778 1.668001 0.058054 -0.016367 358846.000000 0 0 1
-31.884732 -32.913764 -3.409929 45.951927 0.801277 1.645071 0.046496 -0.013490 207452.000000 0 0 1
-32.212712 -31.589764 -2.985829 45.216005 0.775635 1.636879 0.046025 -0.011587 60948.800000 0 0 1
-33.249932 -31.670864 -2.028129 45.964278 0.761080 1.614935 0.042817 -0.009273 -142357.000000 0 0 1
-33.681662 -30.215864 -1.566729 45.275903 0.731211 1.605407 0.055352 -0.004112 -269309.000000 0 0 1
-34.537589 -30.327364 -0.457729 45.965243 0.720582 1.580755 0.036545 -0.000330 -572514.000000 0 0 1
-35.233988 -29.092764 -0.362029 45.694134 0.690217 1.578719 0.049956 -0.008837 -56618.200000 0 0 1
-36.228902 -29.193464 0.809371 46.534361 0.678271 1.553402 0.041736 -0.005723 193708.000000 0 0 1
35.577326 -29.977364 0.527471 46.525978 -0.700181 1.559459 0.021819 -0.001952 991469.000000 0 0 1
34.575926 -29.966464 1.520771 45.779868 -0.714102 1.537571 0.015158 -0.005748 244773.000000 0 0 1
33.782376 -28.634164 1.623171 44.314771 -0.703103 1.534160 0.015548 0.001741 -790142.000000 0 0 1
32.682306 -28.610364 0.713971 43.441867 -0.719061 1.554360 0.015034 -0.005022 10541.300000 0 0 1
31.985996 -27.412864 0.960571 42.136584 -0.708560 1.547998 0.021501 -0.006573 316338.000000 0 0 1
30.664876 -27.299264 0.122671 41.056053 -0.727400 1.567808 0.018867 -0.020561 1085130.000000 0 0 1
29.462676 -27.962364 0.548871 40.623199 -0.759278 1.557285 0.022447 -0.000100 836588.000000 0 0 1
29.394786 -29.348564 0.353671 41.539339 -0.784611 1.562282 0.024960 0.000859 -473152.000000 0 0 1
28.879466 -29.785464 -1.004629 41.499478 -0.800841 1.595007 0.023451 -0.005937 -669206.000000 0 0 1
27.511216 -29.568464 -1.207229 40.405673 -0.821424 1.600678 0.037939 -0.004099 -187038.000000 0 0 1
27.299616 -30.014064 -2.550429 40.652401 -0.832724 1.633575 0.030434 -0.007601 8991.360000 0 0 1
25.837016 -30.467564 -2.775029 40.044033 -0.867455 1.640151 0.034734 -0.012306 365294.000000 0 0 1
24.891216 -29.404964 -2.841429 38.630276 -0.868339 1.644417 0.039077 -0.009260 636373.000000 0 0 1
23.624616 -29.910964 -3.265729 38.255107 -0.902287 1.656267 0.032082 -0.004639 196715.000000 0 0 1
22.468616 -28.925064 -3.382529 36.782326 -0.910371 1.662887 0.031031 -0.003706 -376674.000000 0 0 1
22.419516 -28.092064 -4.542829 36.227559 -0.897232 1.696524 0.033193 -0.011356 68262.600000 0 0 1
21.790916 -26.849164 -4.304829 34.846135 -0.889019 1.694651 0.041735 -0.020804 -342191.000000 0 0 1
21.414816 -26.100564 -5.559829 34.216158 -0.883696 1.734011 0.055227 -0.032968 -290871.000000 0 0 1
20.227016 -26.609464 -6.129829 33.981915 -0.920835 1.752174 0.062781 -0.028949 -265344.000000 0 0 1
19.713916 -25.928364 -7.215429 33.361369 -0.920722 1.788800 0.072589 -0.030335 635802.000000 0 0 1
18.165116 -26.104164 -7.378329 32.647183 -0.962847 1.798768 0.067323 -0.023570 1103110.000000 0 0 1
17.396316 -25.282164 -6.470229 31.363729 -0.968111 1.778585 0.062034 -0.025292 851179.000000 0 0 1
15.997316 -25.350664 -6.708629 30.717682 -1.007864 1.790967 0.056128 -0.022283 -160711.000000 0 0 1
15.094616 -24.614364 -5.806129 29.452088 -1.020695 1.769234 0.036601 -0.015284 -697460.000000 0 0 1
15.242116 -25.070364 -4.455829 29.676584 -1.024535 1.721513 0.027723 -0.011854 319553.000000 0 0 1
14.599916 -24.193764 -3.549629 28.479740 -1.027838 1.695758 0.024847 -0.010409 -72992.800000 0 0 1
14.519216 -24.720964 -2.135029 28.748774 -1.039750 1.645130 0.038566 -0.009018 -314741.000000 0 0 1
13.775316 -25.913764 -1.947429 29.412157 -1.082203 1.637056 0.042849 -0.008895 201634.000000 0 0 1
14.485716 -27.162864 -2.009029 30.849527 -1.080872 1.635966 0.048489 -0.010003 -697077.000000 0 0 1
13.599116 -28.321964 -2.339129 31.504620 -1.123145 1.645112 0.044377 0.000007 -741817.000000 0 0 1
12.829516 -28.694564 -1.216029 31.455575 -1.150352 1.609465 0.066625 -0.014136 -288319.000000 0 0 1
12.227516 -29.951964 -1.425129 32.383071 -1.183209 1.614819 0.066029 -0.014862 -130353.000000 0 0 1
13.019116 -31.239864 -0.972429 33.858117 -1.175937 1.599521 0.071346 -0.011800 -190083.000000 0 0 1
14.159816 -31.445564 -1.747629 34.530828 -1.147696 1.621429 0.073039 -0.014638 -789399.000000 0 0 1
14.835816 -32.590364 -1.352829 35.833830 -1.143609 1.608558 0.071236 -0.012031 452594.000000 0 0 1
16.278616 -32.810764 -1.957629 36.679311 -1.110244 1.624193 0.057717 -0.010466 751405.000000 0 0 1
17.133416 -31.914764 -1.287229 36.245869 -1.078106 1.606318 0.048681 0.005441 -287918.000000 0 0 1
18.387416 -31.734364 -1.904129 36.725912 -1.045649 1.622667 0.043100 0.009471 -45377.800000 0 0 1
19.248916 -30.692264 -1.154529 36.247327 -1.010646 1.602653 0.041565 0.009339 -279777.000000 0 0 1
18.833316 -29.337964 -1.332329 34.888179 -1.000106 1.608994 0.039921 0.003510 249808.000000 0 0 1
19.322316 -28.360164 -0.383929 34.319064 -0.972718 1.581984 0.026813 0.008202 -263077.000000 0 0 1
18.695116 -26.980164 -0.519329 32.828437 -0.964837 1.586616 0.023158 0.005178 -368828.000000 0 0 1
19.207316 -26.258164 -1.594129 32.572279 -0.939254 1.619757 0.033254 -0.006615 226951.000000 0 0 1
18.262016 -26.252264 -2.633729 32.087678 -0.963005 1.652968 0.043488 -0.007354 -179004.000000 0 0 1
31.953666 -28.863164 14.478071 45.428334 -0.734625 1.246437 0.028851 -0.016091 -502068.000000 0 0 1
32.996776 -29.364364 15.236171 46.724661 -0.727216 1.238638 0.055915 -0.007082 -519286.000000 0 0 1
32.503266 -29.895664 16.418571 47.114568 -0.743633 1.214845 0.052295 -0.000003 285114.000000 0 0 1
33.544056 -30.611064 17.330871 48.606584 -0.739713 1.206219 0.047734 0.001107 -101688.000000 0 0 1
32.864376 -31.173564 18.432071 48.903983 -0.759001 1.184346 0.037499 -0.007145 562980.000000 0 0 1
33.668606 -31.485164 19.593171 50.087752 -0.751899 1.168886 0.036772 -0.011948 -58290.100000 0 0 1
34.475186 -32.775764 19.539371 51.425443 -0.760134 1.181048 0.033827 -0.009340 -1068320.000000 0 0 1
35.452376 -32.817864 18.586971 51.762522 -0.746828 1.203513 0.028020 0.003925 -670898.000000 0 0 1
36.210976 -34.024964 18.688771 53.086751 -0.754284 1.211044 0.023952 -0.006010 558989.000000 0 0 1
-35.559474 -33.962664 17.699271 52.260912 0.762434 1.225292 0.013888 0.003697 661273.000000 0 0 1
-34.627629 -32.948664 18.095171 51.108926 0.760558 1.208897 0.028304 0.003174 169453.000000 0 0 1
-33.706992 -32.703464 17.076971 49.973001 0.770288 1.222046 0.033813 0.007327 -277887.000000 0 0 1
-32.546792 -31.728364 17.443371 48.685254 0.772666 1.204362 0.022770 0.005709 226074.000000 0 0 1
-31.467222 -31.641364 16.539771 47.591239 0.788158 1.215852 0.027285 0.002836 -150583.000000 0 0 1
-31.708292 -30.962464 15.310771 46.888268 0.773498 1.238159 0.037559 0.000497 -411011.000000 0 0 1
-30.444112 -31.060664 14.399371 45.814306 0.795422 1.251079 0.027458 -0.013837 965790.000000 0 0 1
-29.262842 -30.541564 15.016871 44.884379 0.806777 1.229650 0.017452 -0.015058 77456.600000 0 0 1
-28.286182 -30.274964 14.028271 43.743273 0.819346 1.244333 0.025560 -0.015424 30859.600000 0 0 1
-26.897232 -29.996164 14.652071 42.870901 0.839813 1.221995 0.039430 -0.018802 411620.000000 0 0 1
-25.880532 -30.155864 13.663371 42.022206 0.861546 1.239630 0.045455 -0.019824 -840682.000000 0 0 1
-24.695522 -29.624364 14.149271 41.081305 0.875888 1.219174 0.038777 -0.019064 -729122.000000 0 0 1
-23.555622 -29.617964 13.117171 40.051857 0.898918 1.237135 0.059870 -0.021199 -87047.700000 0 0 1
-23.089422 -30.891264 12.742671 40.617327 0.928934 1.251683 0.067298 -0.019056 -911889.000000 0 0 1
-21.849722 -30.752164 12.149371 39.632224 0.953051 1.259227 0.072439 -0.022270 -820654.000000 0 0 1
-21.282522 -32.133864 11.849971 40.323104 0.985817 1.272517 0.066841 -0.019007 156387.000000 0 0 1
-22.053722 -32.903564 10.862471 41.073160 0.980315 1.303146 0.059222 -0.020448 606609.000000 0 0 1
-21.750722 33.926877 10.850871 41.735696 -1.000699 1.307784 0.067569 -0.016787 176059.000000 0 0 1
-22.785022 33.172677 9.979771 41.462991 -0.968943 1.327719 0.062974 -0.014928 341995.000000 0 0 1
-22.522022 33.474877 8.643271 41.261544 -0.978557 1.359758 0.063810 -0.022329 183869.000000 0 0 1
-23.539722 32.974477 7.785471 41.255887 -0.950818 1.380946 0.070101 -0.027942 -354380.000000 0 0 1
-23.477522 33.399777 6.325671 41.312871 -0.958110 1.417075 0.070013 -0.017693 197765.000000 0 0 1
-22.591022 32.613077 5.544271 40.058782 -0.964988 1.431947 0.061841 -0.022231 1990860.000000 0 0 1
-21.138822 32.604477 5.760171 39.282074 -0.995588 1.423630 0.052806 -0.024275 1924230.000000 0 0 1
-20.297122 33.874877 5.364771 39.852995 -1.030981 1.435772 0.057683 -0.020768 -137886.000000 0 0 1
-20.347822 -33.310264 6.338271 39.544674 1.022432 1.409821 0.076534 -0.025032 435444.000000 0 0 1
-19.490522 -33.513264 7.497171 39.487047 1.044034 1.379773 0.081790 -0.027091 237144.000000 0 0 1
-19.487522 -32.404764 8.587871 38.776072 1.029364 1.347471 0.089390 -0.027237 -264810.000000 0 0 1
-18.550722 -31.398064 8.224471 37.384617 1.037151 1.348986 0.085826 -0.036885 -89039.800000 0 0 1
-18.552622 -30.220164 9.047471 36.596650 1.020208 1.320985 0.083809 -0.036270 17979.900000 0 0 1
-17.906522 -30.408264 10.439171 36.800575 1.038601 1.283179 0.076753 -0.028925 133273.000000 0 0 1
-16.561222 -30.812564 10.231071 36.446714 1.077614 1.286259 0.074575 -0.033135 -66543.400000 0 0 1
-15.845922 -30.679164 11.440771 36.375755 1.094033 1.250849 0.087316 -0.030318 629995.000000 0 0 1
-14.438322 -31.354664 11.550671 36.400523 1.139258 1.247893 0.085320 -0.029864 475581.000000 0 0 1
-13.427422 -30.661864 10.884371 35.198226 1.158034 1.256412 0.062465 -0.024038 -455839.000000 0 0 1
-12.398522 -31.558364 10.505671 35.496800 1.196446 1.270335 0.058292 -0.019733 -242459.000000 0 0 1
-11.320822 -30.971164 9.600171 34.344392 1.220356 1.287495 0.056396 -0.012860 -446117.000000 0 0 1
-10.484722 -30.150264 10.349471 33.557106 1.236128 1.257271 0.057150 -0.015847 -641356.000000 0 0 1
-9.884922 -29.138264 9.558471 32.219784 1.243737 1.269598 0.063724 -0.010211 182562.000000 0 0 1
-8.757522 -28.389364 10.291871 31.441577 1.271579 1.237316 0.055699 -0.009030 173129.000000 0 0 1
-9.253622 -27.494164 11.226871 31.106289 1.246139 1.201542 0.060165 -0.017253 -493936.000000 0 0 1
-8.249622 -27.215264 12.152471 30.925869 1.276475 1.166954 0.048665 -0.019929 -633875.000000 0 0 1
-8.623822 -26.087464 13.083871 30.432117 1.251532 1.126374 0.077106 -0.022431 -31360.900000 0 0 1
-8.564722 -24.701664 12.612871 29.027766 1.237041 1.121302 0.061758 -0.021610 368399.000000 0 0 1
-9.406222 -24.487864 11.463971 28.627873 1.204056 1.158791 0.054198 -0.023130 341617.000000 0 0 1
-8.916122 -23.148464 10.829471 27.067066 1.203138 1.159173 0.053453 -0.021563 -210705.000000 0 0 1
-7.703022 -23.312364 10.156871 26.570000 1.251664 1.178546 0.039567 -0.024504 -640304.000000 0 0 1
-7.326822 -22.107064 9.469971 25.141300 1.250765 1.184598 0.042893 -0.020790 -900354.000000 0 0 1
-6.093722 -22.287864 8.657671 24.674635 1.303909 1.212293 0.034262 -0.021986 -668217.000000 0 1 0
-4.908022 -22.528464 9.387871 24.894828 1.356289 1.184132 0.012267 -0.028076 -619065.000000 0 1 0
-3.824922 -22.645264 8.531671 24.499539 1.403470 1.215105 0.019301 -0.027123 -36682.100000 0 1 0
-2.522322 -23.228164 9.148071 25.091770 1.462631 1.197610 0.029219 -0.023961 412673.000000 0 0 1
-1.958022 -22.552864 10.238671 24.845440 1.484194 1.146045 0.026901 -0.016994 -680752.000000 0 1 0
-0.808722 -23.202364 10.691371 25.559913 1.535955 1.139238 0.024400 -0.018790 -143987.000000 0 0 1
0.003878 -22.359064 11.714971 25.242193 -1.570623 1.088175 0.025913 -0.018621 307916.000000 0 0 1
-0.769222 -22.177564 12.917871 25.676983 1.536126 1.043624 0.028866 -0.011570 563952.000000 0 0 1
0.016678 -21.819264 14.092071 25.974353 -1.570032 0.997341 0.055322 -0.009823 349930.000000 0 0 1
0.807178 -20.508764 14.140571 24.924219 -1.531459 0.967521 0.058556 -0.017698 218695.000000 0 1 0
1.958178 -20.487964 13.302671 24.506166 -1.475509 0.996994 0.060131 -0.021467 -222969.000000 0 1 0
2.582278 -19.259264 13.339371 23.569604 -1.437511 0.969203 0.061865 -0.020402 -877863.000000 0 1 0
4.003178 -19.314364 12.820671 23.525299 -1.366426 0.994438 0.082666 -0.022311 -834880.000000 0 1 0
4.081178 -19.617764 11.451771 23.079336 -1.365687 1.051590 0.067639 -0.026499 -688025.000000 0 1 0
5.381378 -20.132164 11.322071 23.716082 -1.309600 1.073102 0.081676 -0.018202 -92048.200000 0 1 0
5.667578 -20.926464 10.106671 23.920350 -1.306308 1.134580 0.083648 -0.021630 -329692.000000 0 1 0
5.950678 -20.115164 8.997871 22.825251 -1.283169 1.165592 0.069065 -0.024522 -205737.000000 0 1 0
6.262378 -20.851864 7.800071 23.127013 -1.279040 1.226780 0.069865 -0.029265 -475113.000000 0 1 0
7.619078 -21.571564 7.742471 24.152196 -1.231274 1.244465 0.079672 -0.017068 -46246.100000 0 1 0
8.739078 -20.885764 7.157971 23.744961 -1.174510 1.264581 0.087808 -0.018697 588797.000000 0 1 0
9.254178 -19.699264 7.796271 23.118881 -1.131622 1.226828 0.090149 -0.010873 -535915.000000 0 1 0
10.106278 -19.946764 8.999971 24.104143 -1.101833 1.188148 0.076305 -0.008008 -309501.000000 0 1 0
9.312378 -20.345964 10.145871 24.568625 -1.141556 1.145094 0.091210 -0.013050 95816.400000 0 1 0
9.993178 -20.096464 11.339571 25.145921 -1.109343 1.102966 0.082809 -0.003432 -32753.900000 0 0 1
9.035478 -20.342664 12.522571 25.539746 -1.152806 1.058343 0.087248 -0.006033 22864.700000 0 0 1
9.018178 -21.673664 12.997071 26.832799 -1.176497 1.065150 0.078802 -0.009623 -231710.000000 0 0 1
8.330978 -21.821264 14.201871 27.336165 -1.206093 1.024499 0.097641 -0.013964 1211.750000 0 0 1
8.546878 -23.278864 14.742571 28.849576 -1.218924 1.034431 0.081782 -0.019508 360511.000000 0 0 1
7.961478 -24.305264 13.938671 29.127608 -1.254249 1.071807 0.096524 -0.014524 -59319.300000 0 0 1
8.164078 -25.553664 14.550871 30.518351 -1.261558 1.073796 0.090895 -0.015374 326073.000000 0 0 1
7.996378 -26.687064 13.458271 30.939724 -1.279674 1.120776 0.105914 -0.026384 156711.000000 0 0 1
9.266178 -26.915464 12.887871 31.247423 -1.239236 1.145659 0.104227 -0.023829 -6178.120000 0 0 1
9.262178 -27.865164 11.841471 31.661897 -1.249893 1.187481 0.104650 -0.030888 -236696.000000 0 0 1
10.646978 -28.226964 11.287171 32.210555 -1.210105 1.212779 0.088269 -0.031248 -173191.000000 0 0 1
11.487378 -28.855764 12.230171 33.379515 -1.191932 1.195662 0.072649 -0.028020 1207930.000000 0 0 1
12.799378 -29.129964 11.639871 33.880163 -1.156802 1.220091 0.092944 -0.026253 1020360.000000 0 0 1
13.610278 -29.895564 12.660271 35.203222 -1.143576 1.202921 0.053705 -0.022844 -873753.000000 0 0 1
14.272278 -29.135464 13.642571 35.195070 -1.115294 1.172740 0.047538 -0.020517 647679.000000 0 0 1
15.356678 -29.721764 14.365371 36.408443 -1.093893 1.165206 0.029304 -0.016444 637028.000000 0 0 1
16.700078 -29.941764 13.656571 36.903980 -1.062021 1.191726 0.042396 -0.014034 -656124.000000 0 0 1
17.324378 -28.723964 13.334771 36.097317 -1.028076 1.192420 0.038377 -0.024217 317388.000000 0 0 1
18.687878 -28.909464 12.994671 36.794774 -0.996936 1.209843 0.028594 -0.022277 34664.500000 0 0 1
19.459178 -27.682564 12.403771 36.039388 -0.958100 1.219439 0.014500 -0.021040 896131.000000 0 0 1
20.863078 -27.908764 12.211871 36.922851 -0.928868 1.233709 0.007408 -0.021475 617419.000000 0 0 1
21.558978 -26.712464 11.921471 36.338227 -0.891756 1.236537 0.000138 -0.013208 22084.200000 0 0 1
22.989078 -27.033964 11.431471 37.282857 -0.866083 1.259162 0.009741 -0.016551 -32102.200000 0 0 1
23.706078 -27.698664 12.477071 38.534029 -0.862912 1.241060 0.021974 -0.013692 -603066.000000 0 0 1
24.802878 -28.393364 11.999671 39.564605 -0.852791 1.262650 0.014424 -0.022059 -1924970.000000 0 0 1
25.741078 -28.820564 13.148471 40.818014 -0.841779 1.242824 0.032799 -0.016403 246532.000000 0 0 1
26.691678 -27.830564 13.612071 40.893452 -0.806284 1.231454 0.028572 -0.011524 986869.000000 0 0 1
27.734278 -27.693364 12.617271 41.174119 -0.784660 1.259349 0.011143 -0.010133 -506693.000000 0 0 1
29.045278 -27.016064 13.099071 41.774173 -0.749218 1.251847 0.037153 -0.012469 -178854.000000 0 0 1
29.111078 -25.617564 13.454071 41.045420 -0.721651 1.236838 0.040628 -0.011078 -409015.000000 0 0 1
28.271878 -25.142164 14.477471 40.509563 -0.726872 1.205331 0.037097 -0.006804 -516047.000000 0 0 1
28.849678 -25.151464 15.930971 41.457157 -0.717021 1.176373 0.024777 0.006150 -115705.000000 0 0 1
29.322178 -26.374164 16.541871 42.767045 -0.732517 1.173648 0.029418 0.003035 288378.000000 0 0 1
29.664378 -26.148364 17.877671 43.397274 -0.722485 1.146199 0.025111 0.009555 -47310.200000 0 0 1
30.363778 -27.370764 18.564971 44.897393 -0.733604 1.144504 0.028645 0.008361 124252.000000 0 0 1
29.438078 -28.364764 19.008771 45.083186 -0.766832 1.135546 0.024486 0.002684 7705.630000 0 0 1
30.005678 -29.342764 19.793771 46.401852 -0.774229 1.130096 0.044996 -0.014399 -393060.000000 0 0 1
29.029778 -30.408764 20.341171 46.703150 -0.808594 1.120156 0.056721 -0.012925 -865574.000000 0 0 1
28.170678 -29.894264 21.329871 46.284096 -0.815073 1.091847 0.044508 -0.000844 276120.000000 0 0 1
27.212178 -30.810964 21.856271 46.556575 -0.847342 1.082122 0.025443 -0.004279 740090.000000 0 0 1
26.003078 -31.074364 20.892471 45.588063 -0.874015 1.094728 0.069769 -0.009904 -722268.000000 0 0 1
26.240078 -32.127164 19.994671 46.048705 -0.885921 1.121639 0.087755 -0.017847 -147509.000000 0 0 1
25.425378 -32.268964 18.847871 45.199316 -0.903464 1.140660 0.088370 -0.006781 -269788.000000 0 0 1
25.594978 -31.128164 17.742571 44.032537 -0.882638 1.156067 0.078510 0.000656 -17413.800000 0 0 1
26.939978 -31.098464 17.332971 44.646487 -0.856926 1.172089 0.069967 -0.009933 -88334.500000 0 0 1
27.122078 -30.051564 16.364171 43.663368 -0.836592 1.186637 0.052993 -0.012045 658692.000000 0 0 1
28.389678 -30.272164 15.446271 44.282785 -0.817478 1.214495 0.062162 -0.016261 467633.000000 0 0 1
28.186978 -31.346864 14.552071 44.597022 -0.838426 1.238408 0.082219 -0.016171 263461.000000 0 0 1
28.442778 -32.641864 15.107671 45.855475 -0.854032 1.235062 0.058244 -0.023553 -340617.000000 0 0 1
27.717878 -33.736864 14.336271 45.956343 -0.883029 1.253547 0.079975 -0.024474 60560.700000 0 0 1
28.223378 -33.858964 12.993271 45.954473 -0.875926 1.284145 0.086957 -0.023528 273899.000000 0 0 1
27.790978 33.178177 12.448371 45.034341 0.873529 1.290730 0.090638 -0.029778 -279620.000000 0 0 1
28.288378 32.917677 11.004971 44.776280 0.860889 1.322475 0.097078 -0.035021 917335.000000 0 0 1
29.650978 32.431677 10.925371 45.280878 0.830159 1.327112 0.062803 -0.024653 1245470.000000 0 0 1
29.904478 31.673177 9.756771 44.639249 0.814113 1.350448 0.064330 -0.025994 -157433.000000 0 0 1
31.325078 31.078477 9.720971 45.184395 0.781446 1.353961 0.023005 -0.010015 -80531.500000 0 0 1
31.509478 30.107277 10.718671 44.879676 0.762645 1.329634 0.014458 -0.003044 719389.000000 0 0 1
32.824778 29.565477 10.545171 45.417884 0.733205 1.336477 0.017625 0.002059 639627.000000 0 0 1
33.323378 28.721677 11.769171 45.540045 0.711367 1.309394 0.018069 0.001783 -76935.500000 0 0 1
32.630578 27.499377 11.962171 44.317761 0.700269 1.297488 0.019718 0.002195 230110.000000 0 0 1
32.977778 26.840977 13.157671 44.509507 0.683166 1.270697 0.033334 -0.014187 -85704.600000 0 0 1
32.803078 25.341977 12.991471 43.440029 0.657777 1.267082 0.017246 -0.012339 352289.000000 0 0 1
33.720278 24.763177 12.014971 43.527367 0.633423 1.291132 0.033408 -0.011148 372969.000000 0 0 1
33.706678 23.364777 11.865971 42.694897 0.606134 1.289163 0.042810 -0.022412 -214238.000000 0 0 1
32.477378 22.652477 11.259571 41.166646 0.609036 1.293754 0.045006 -0.020127 550582.000000 0 0 1
31.286578 22.733677 12.053271 40.508658 0.628374 1.268673 0.051591 -0.034824 924033.000000 0 0 1
30.126078 22.670777 11.195071 39.330324 0.645118 1.282163 0.040035 -0.022049 18692.600000 0 0 1
28.895978 22.213577 11.943671 38.354555 0.655389 1.254129 0.026568 -0.015281 -505208.000000 0 0 1
28.709578 23.029377 13.111771 39.070585 0.676050 1.228563 0.032365 -0.012272 763666.000000 0 0 1
27.439078 22.694377 13.719471 38.159686 0.691038 1.203034 0.052352 -0.025470 697688.000000 0 0 1
23.852778 9.162677 25.450204 36.064145 0.366755 0.787396 0.017493 0.009526 8052.380000 0 0 1
23.669078 7.979877 26.214344 36.209053 0.325176 0.761253 0.022876 0.007316 309215.000000 0 0 1
22.287578 7.726777 26.425434 35.422349 0.333719 0.728746 0.014427 0.006037 -34280.200000 0 0 1
22.046578 6.580977 27.430714 35.802304 0.290083 0.697934 0.022049 0.005273 -322604.000000 0 0 1
22.385378 6.856877 28.758094 37.083014 0.297236 0.683280 0.033419 -0.005559 638401.000000 0 0 1
23.721978 6.405277 29.035494 38.037084 0.263725 0.702318 0.027183 -0.007439 351646.000000 0 0 1
24.055478 6.396677 30.534724 39.394833 0.259899 0.683931 0.026938 -0.007195 -414847.000000 0 0 1
24.097978 7.665877 31.211944 40.170433 0.307990 0.680929 0.034268 -0.006077 210163.000000 0 0 1
24.049278 7.526577 32.610139 41.212114 0.303308 0.657904 0.036175 -0.006402 -80061.500000 0 0 1
24.141278 8.846577 33.384408 42.137655 0.351254 0.656276 0.058058 -0.014479 57789.300000 0 0 1
25.377678 9.507277 33.239426 42.886761 0.358448 0.684001 0.052478 -0.008841 -270574.000000 0 0 1
25.653878 10.295177 -33.878159 43.724613 0.381636 2.457207 0.078045 -0.007521 178274.000000 0 0 1
26.829478 11.278477 -34.030379 44.778249 0.397948 2.434072 0.064455 -0.005279 -186431.000000 0 0 1
26.453278 12.442877 33.539618 44.491652 0.439665 0.716908 0.047113 -0.007536 300249.000000 0 0 1
26.022478 13.448577 -33.812599 44.736176 0.477002 2.427705 0.061781 -0.016216 124224.000000 0 0 1
25.431978 14.782977 33.881894 44.869864 0.526537 0.714967 0.058439 -0.014475 402303.000000 0 0 1
26.475278 15.448677 33.127051 45.133175 0.528209 0.746626 0.057732 -0.010786 844611.000000 0 0 1
26.366178 16.862677 33.110512 45.561291 0.568999 0.757255 0.069127 -0.022258 -2934.440000 0 0 1
27.046878 17.707177 -34.029969 46.937368 0.579661 2.381842 0.076515 -0.027524 -257607.000000 0 0 1
26.426678 17.477277 -32.801079 45.604115 0.584313 2.373529 0.080934 -0.032241 410087.000000 0 0 1
27.256578 16.671377 -31.954609 45.187973 0.548939 2.356254 0.079607 -0.027338 314283.000000 0 0 1
26.447978 16.176077 -30.716219 43.642263 0.548919 2.351554 0.085081 -0.026702 83039.800000 0 0 1
25.532278 15.158177 -30.976869 42.909602 0.535765 2.377355 0.091812 -0.017917 170601.000000 0 0 1
24.528878 14.936077 -29.982029 41.517157 0.546951 2.377716 0.100828 -0.030566 401790.000000 0 0 1
23.766078 13.639577 -30.278599 40.836970 0.521014 2.406026 0.080949 -0.028562 -641908.000000 0 0 1
22.950478 13.720377 -31.434859 41.268917 0.538819 2.436741 0.081089 -0.029659 313429.000000 0 0 1
22.271778 12.549577 -31.822009 40.818675 0.513129 2.464814 0.063242 -0.021708 361048.000000 0 0 1
21.308878 11.813977 -30.812469 39.281632 0.506227 2.472523 0.069190 -0.023716 -420332.000000 0 0 1
20.079378 12.483777 -30.631269 38.694971 0.556238 2.484233 0.075379 -0.022506 41318.400000 0 0 1
19.408878 11.783777 -29.595329 37.302084 0.545648 2.487164 0.071812 -0.011907 -203134.000000 0 0 1
18.073578 12.420977 -29.194549 36.513786 0.602114 2.497340 0.035550 -0.006849 -466833.000000 0 0 1
17.110178 12.624877 -30.174419 36.913971 0.635685 2.527724 0.011721 -0.000517 391220.000000 0 0 1
15.870178 13.019577 -29.588949 36.012190 0.687045 2.535073 0.005365 -0.005240 378012.000000 0 0 1
14.659778 13.160077 -30.573839 36.371092 0.731543 2.569201 0.005483 -0.010031 431123.000000 0 0 1
14.159978 11.945177 -31.104939 36.203722 0.700759 2.604430 0.005535 -0.002606 -570470.000000 0 0 1
13.006978 11.498577 -30.457339 35.057784 0.723922 2.623520 0.002339 0.000703 -382399.000000 0 0 1
11.991978 11.021077 -31.527139 35.485661 0.743234 2.664747 0.020105 0.002987 -113885.000000 0 0 1
11.567778 12.057577 -32.376969 36.434417 0.806127 2.665161 0.030113 -0.000012 74928.200000 0 0 1
10.682478 11.576477 -33.384579 36.914228 0.825540 2.700727 0.049678 0.000413 983.611000 0 0 1
10.471278 12.597377 33.737875 37.504477 0.877303 0.452014 0.065454 -0.003146 -167188.000000 0 0 1
11.559578 12.852877 32.886475 37.152935 0.838326 0.483948 0.054881 0.001354 4008.730000 0 0 1
11.097778 13.486277 31.688744 36.183102 0.882251 0.503729 0.084314 -0.013285 153119.000000 0 0 1
11.962278 13.383277 30.374044 35.281592 0.841405 0.533754 0.070691 -0.011549 76165.600000 0 0 1
12.266078 12.014477 30.085134 34.639856 0.775036 0.518604 0.057570 -0.010868 26143.700000 0 0 1
12.044178 11.745077 28.743254 33.304410 0.772826 0.529526 0.080569 -0.005892 -94097.800000 0 0 1
12.494278 10.324277 28.246324 32.566125 0.690585 0.520938 0.080059 -0.003831 448777.000000 0 0 1
11.639178 9.273777 28.688584 32.318853 0.672770 0.478529 0.076527 -0.013000 472286.000000 0 0 1
12.302878 8.088377 28.306194 31.906477 0.581586 0.479639 0.065822 -0.012788 66943.800000 0 0 1
11.459078 6.813977 28.481514 31.447375 0.536466 0.437796 0.059506 -0.012567 351037.000000 0 0 1
10.411878 6.711677 27.503124 30.164145 0.572582 0.423194 0.056076 -0.015372 195943.000000 0 0 1
9.466878 5.695577 27.829654 29.942462 0.541619 0.377910 0.048653 -0.019486 106166.000000 0 0 1
9.703878 4.254077 27.327404 29.309545 0.413157 0.369876 0.050938 -0.010120 -436080.000000 0 0 1
10.838178 3.818277 28.019934 30.284684 0.338721 0.389187 0.045030 -0.011140 -183694.000000 0 0 1
11.132778 2.509477 27.542894 29.813541 0.221708 0.392807 0.029320 -0.010581 -124535.000000 0 0 1
11.758278 1.545077 28.567584 30.931396 0.130655 0.393484 0.024386 -0.016677 97070.700000 0 0 1
10.776678 1.182077 29.520884 31.448636 0.109252 0.351952 0.021552 -0.014075 28988.600000 0 0 1
11.009578 -0.093123 30.115974 32.065423 -0.008458 0.350492 0.013016 -0.014508 -59484.300000 0 0 1
9.999778 -0.514023 31.228364 32.794367 -0.051358 0.310281 0.022484 -0.015050 -25114.700000 0 0 1
10.166178 0.400077 32.270176 33.836009 0.039333 0.305413 0.015535 -0.013591 504676.000000 0 0 1
8.943678 0.794277 32.915153 34.117848 0.088576 0.266309 0.031376 -0.016486 237665.000000 0 0 1
9.019578 2.082577 33.691835 34.940373 0.226918 0.268135 0.031407 -0.014250 -239518.000000 0 0 1
8.957878 3.318077 32.977395 34.333101 0.354739 0.281956 0.033360 -0.012436 42796.100000 0 0 1
10.055178 3.601177 32.132134 33.860731 0.343909 0.320907 0.035837 -0.005333 -85396.900000 0 0 1
9.944978 5.017377 31.488204 33.400354 0.467252 0.340012 0.041961 0.002253 42993.500000 0 0 1
10.108978 6.020977 32.463689 34.530200 0.537183 0.347716 0.046656 0.000337 133373.000000 0 0 1
10.541078 7.249777 31.890284 34.360789 0.602467 0.381517 0.052458 -0.005660 -343872.000000 0 0 1
10.690478 8.414977 32.978215 35.674372 0.666854 0.391276 0.072309 -0.014175 177141.000000 0 0 1
9.568178 9.024077 33.629426 36.109864 0.756142 0.372807 0.065301 -0.010672 220353.000000 0 0 1
8.878078 8.153077 -33.742729 35.831057 0.742855 2.798496 0.056041 -0.007137 1029940.000000 0 0 1
7.456978 8.706077 -33.285859 35.204413 0.862526 2.809931 0.052676 -0.005944 1243530.000000 0 0 1
6.838378 7.930977 -32.274639 33.931049 0.859241 2.827843 0.050861 -0.009248 -590096.000000 0 0 1
5.484078 8.203077 -32.118809 33.600349 0.981499 2.843529 0.051926 -0.010972 -347630.000000 0 0 1
4.772678 7.459077 -30.972839 32.213864 1.001591 2.863116 0.069226 -0.012942 -386354.000000 0 0 1
5.150178 7.954977 -29.689939 31.165662 0.996240 2.832629 0.063326 -0.013286 119048.000000 0 0 1
4.741478 7.181277 -28.567299 29.835263 0.987245 2.849006 0.052346 -0.012799 -392066.000000 0 0 1
3.239678 7.124977 -28.268119 29.331678 1.144046 2.871478 0.052523 -0.006896 -774995.000000 0 0 1
2.491778 6.400377 -29.182699 29.980055 1.199533 2.910444 0.046164 -0.006561 -781783.000000 0 0 1
1.140778 6.492577 -28.828399 29.572479 1.396867 2.916793 0.038884 0.005156 -184668.000000 0 0 1
0.189578 6.179077 -30.036949 30.666516 1.540125 2.938614 0.042531 -0.001275 54129.500000 0 0 1
0.357878 7.078977 -31.137129 31.933693 1.520284 2.917768 0.057915 -0.006988 472820.000000 0 0 1
-0.315922 6.551377 -32.305529 32.964641 -1.522611 2.941285 0.080249 -0.019043 -195051.000000 0 0 1
0.210978 7.255877 -33.556359 34.332513 1.541728 2.928554 0.097251 -0.029020 1162230.000000 0 0 1
1.641678 7.087477 -33.733009 34.508598 1.343180 2.929178 0.087402 -0.025387 1363250.000000 0 0 1
2.093278 5.906077 33.853330 34.428353 1.230182 0.183023 0.079005 -0.022700 -368942.000000 0 0 1
1.824978 5.803677 32.323250 32.890815 1.266134 0.186042 0.081575 -0.027062 502630.000000 0 0 1
0.522378 5.369077 31.878634 32.331829 1.473808 0.167630 0.096423 -0.030319 613403.000000 0 0 1
0.297878 5.401077 30.490454 30.966565 1.515701 0.175582 0.119092 -0.041117 110977.000000 0 0 1
1.094378 4.353177 29.677324 30.014853 1.324503 0.150110 0.125620 -0.052945 -52056.200000 0 0 1
0.824678 4.410177 28.279264 28.632962 1.385937 0.157343 0.111971 -0.046123 81150.200000 0 0 1
1.717678 3.686377 27.454754 27.754339 1.134755 0.147062 0.096760 -0.039457 -138492.000000 0 0 1
1.762478 4.212377 26.010434 26.408202 1.174525 0.173783 0.099012 -0.038851 59399.700000 0 0 1
2.420178 5.462177 25.914974 26.594709 1.153712 0.226577 0.084965 -0.032700 -43160.800000 0 0 1
2.351378 5.901777 24.541974 25.350906 1.191654 0.253300 0.084065 -0.028004 -675363.000000 0 0 1
3.130978 7.210477 24.279594 25.520437 1.161137 0.313116 0.080147 -0.026517 357063.000000 0 0 1
4.540478 7.219077 24.425524 25.871553 1.009358 0.335920 0.059691 -0.018289 -42665.300000 0 0 1
5.121078 6.703477 23.255334 24.738080 0.918431 0.347984 0.053613 -0.021540 -1013460.000000 0 1 0
6.661678 6.576177 23.199464 25.016778 0.778939 0.383512 0.063115 -0.023496 286592.000000 0 0 1
7.313378 5.804777 24.231254 25.967954 0.670900 0.367798 0.060735 -0.018799 148461.000000 0 0 1
6.787378 4.515177 24.483964 25.805422 0.587008 0.321408 0.058385 -0.017438 -908936.000000 0 0 1
6.828178 3.432977 23.415364 24.631050 0.465858 0.315491 0.048860 -0.012322 -76139.500000 0 1 0
6.040578 3.660777 22.268964 23.362291 0.544842 0.307143 0.048988 -0.006577 677722.000000 0 1 0
4.701578 3.141377 22.423064 23.125027 0.589031 0.247022 0.047125 -0.010575 1191860.000000 0 1 0
3.697978 3.553077 21.276664 21.885974 0.765417 0.236518 0.038003 -0.012699 349771.000000 0 1 0
3.307178 4.901677 21.375864 22.178626 0.977250 0.269873 0.039268 -0.015307 229744.000000 0 1 0
2.291978 5.098277 20.386764 21.139199 1.148309 0.267610 0.040213 -0.020129 440587.000000 0 1 0
1.579778 6.500177 20.381864 21.451536 1.332383 0.317126 0.038466 -0.019167 -131175.000000 0 1 0
2.455078 7.527877 20.089964 21.594050 1.255541 0.375438 0.034075 -0.003595 -489830.000000 0 1 0
1.866178 8.826177 20.265864 22.183085 1.362428 0.418812 0.038317 -0.003029 157324.000000 0 1 0
2.751478 9.968277 19.777964 22.318267 1.301479 0.481765 0.043386 -0.009120 -902898.000000 0 1 0
2.880378 9.952677 18.366464 21.087422 1.289086 0.513628 0.020075 -0.003474 -249859.000000 0 1 0
3.657178 10.984377 17.785464 21.221551 1.249397 0.577033 0.019624 -0.009254 841205.000000 0 1 0
5.202678 10.851377 18.058664 21.701051 1.123725 0.587812 0.029524 -0.006526 300547.000000 0 1 0
5.714678 9.734577 17.402364 20.742753 1.039954 0.575425 0.027064 -0.001824 -78937.700000 0 1 0
7.069378 9.454077 17.703764 21.278603 0.928731 0.588096 0.031475 0.003352 221028.000000 0 1 0
7.325678 7.978377 18.021364 21.025928 0.828021 0.541179 0.039191 -0.003600 -299212.000000 0 1 0
6.822378 7.441877 19.220164 21.710391 0.828801 0.483662 0.040667 -0.014504 -210436.000000 0 1 0
7.086878 6.095077 19.556964 21.675993 0.710300 0.445859 0.047711 -0.025106 -74120.900000 0 1 0
8.522778 5.677977 19.981964 22.453420 0.587688 0.473605 0.050222 -0.020418 -115821.000000 0 1 0
9.383978 5.684577 18.853364 21.813363 0.544655 0.527033 0.048234 -0.021816 -534885.000000 0 1 0
10.565078 4.954977 19.056864 22.345844 0.438538 0.549445 0.058457 -0.021404 -280371.000000 0 1 0
10.459678 3.372277 19.111864 22.046326 0.311885 0.521856 0.058955 -0.020800 -660157.000000 0 1 0
9.791878 2.864377 20.229364 22.656405 0.284586 0.467104 0.059275 -0.020549 -30646.400000 0 1 0
9.676078 1.494477 20.141364 22.394966 0.153240 0.452470 0.057145 -0.027936 -227391.000000 0 1 0
8.967778 0.873577 21.355864 23.178807 0.097107 0.399249 0.061458 -0.022921 113137.000000 0 1 0
9.586978 0.949877 22.657464 24.620583 0.098758 0.402039 0.053285 -0.017776 236475.000000 0 1 0
8.897678 0.032277 23.476534 25.106122 0.003628 0.362278 0.058170 -0.025870 -247569.000000 0 0 1
9.320978 0.132277 24.942754 26.627788 0.014190 0.357659 0.049794 -0.021988 -336741.000000 0 0 1
10.575978 -0.354923 25.330734 27.452202 -0.033547 0.395714 0.043861 -0.021151 -330932.000000 0 0 1
10.617978 -1.777423 25.322214 27.515727 -0.165860 0.401997 0.044199 -0.021640 -798871.000000 0 0 1
12.050278 -2.244623 25.538984 28.328206 -0.184161 0.447483 0.032159 -0.015354 -506013.000000 0 0 1
12.177778 -3.635823 25.592164 28.574050 -0.290137 0.460920 0.040214 -0.012647 -585692.000000 0 0 1
13.504878 -4.048223 25.498824 29.136916 -0.291237 0.505075 0.043329 -0.012568 -653331.000000 0 0 1
13.606578 -5.589723 25.515734 29.452278 -0.389791 0.522966 0.049846 -0.014389 -156419.000000 0 0 1
13.474978 -6.252323 24.274754 28.459274 -0.434431 0.549157 0.062232 -0.009672 230610.000000 0 0 1
13.099278 -7.647723 24.470444 28.790300 -0.528443 0.554897 0.075283 -0.020229 76006.100000 0 0 1
12.897278 -8.358123 23.149964 27.787026 -0.575005 0.586069 0.083844 -0.021259 223966.000000 0 0 1
12.332278 -9.633923 23.410654 28.159479 -0.663169 0.589247 0.084241 -0.017859 -229677.000000 0 0 1
12.343778 -10.314323 22.159764 27.382645 -0.696068 0.627900 0.082360 -0.024666 55893.600000 0 0 1
11.955778 -11.783923 22.307164 27.917934 -0.778159 0.645122 0.093100 -0.018559 -4316.170000 0 0 1
10.560378 -11.892323 22.464764 27.524799 -0.844651 0.616055 0.099657 -0.016709 -334839.000000 0 0 1
10.097578 -13.221623 22.467664 27.956543 -0.918574 0.637370 0.090336 -0.014982 538125.000000 0 0 1
8.579078 -13.357723 22.817864 27.797199 -0.999884 0.607865 0.071672 -0.008422 632469.000000 0 0 1
7.769178 -12.581823 21.974664 26.486756 -1.017614 0.592321 0.067130 -0.009953 -618877.000000 0 0 1
6.431978 -12.538023 22.364364 26.433636 -1.096805 0.562251 0.047367 -0.006335 -357153.000000 0 0 1
5.550278 -11.477323 21.718464 25.183848 -1.120366 0.530811 0.042081 0.006294 -226654.000000 0 0 1
5.784978 -10.083523 22.056164 24.932264 -1.049935 0.485068 0.043104 -0.002540 -298694.000000 0 1 0
5.016378 -9.197323 21.295664 23.733101 -1.071478 0.457187 0.037185 -0.001718 -96076.400000 0 1 0
5.384478 -7.792723 21.652864 23.633994 -0.966162 0.412367 0.040953 -0.022157 54935.600000 0 1 0
4.546478 -6.800723 21.060464 22.593438 -0.981506 0.370491 0.029008 -0.026060 86878.600000 0 1 0
5.003378 -5.530723 21.358364 22.623050 -0.835417 0.335950 0.049927 -0.032819 -251394.000000 0 1 0
-8.100422 -15.161323 -20.454229 26.718121 1.080101 2.442702 0.078772 0.000950 54760.300000 0 0 1
-7.379322 -14.642323 -19.379629 25.385468 1.103976 2.439379 0.067700 -0.000920 -150161.000000 0 0 1
-6.680522 -13.424823 -19.647829 24.716238 1.109051 2.489699 0.067989 -0.013018 343769.000000 0 1 0
-5.831822 -13.084023 -18.376629 23.300263 1.151507 2.479468 0.058835 -0.011429 799460.000000 0 1 0
-4.764722 -14.035723 -18.138729 23.424721 1.243532 2.456470 0.052202 -0.000968 467339.000000 0 1 0
-4.073622 -13.701323 -16.987329 22.201125 1.281804 2.442080 0.041604 0.000808 -299836.000000 0 1 0
-3.084222 -14.774023 -16.485029 22.350399 1.364992 2.400264 0.039214 0.009824 -1150270.000000 0 1 0
-1.894222 -14.752823 -17.142729 22.695969 1.443098 2.426939 0.029743 -0.001634 -1477330.000000 0 1 0
-1.025222 -15.651123 -16.506429 22.769956 1.505385 2.381717 0.037483 0.003956 114508.000000 0 1 0
0.227378 -16.033123 -17.354729 23.628359 -1.556616 2.395707 0.028244 0.009959 152998.000000 0 1 0
0.035878 -17.013923 -18.410129 25.068061 -1.568688 2.395587 0.042607 -0.000262 -154709.000000 0 0 1
-0.153422 -18.385723 -18.091329 25.794467 1.562452 2.348107 0.050963 -0.001091 -135718.000000 0 0 1
-0.576922 -19.120223 -19.394529 27.240842 1.540632 2.363089 0.055978 -0.000933 361312.000000 0 0 1
-1.950022 -18.952023 -19.731729 27.428505 1.468265 2.373717 0.068323 -0.005431 312557.000000 0 0 1
-2.312022 -19.309423 -21.051729 28.659632 1.451628 2.395789 0.071295 -0.010346 -266403.000000 0 0 1
-3.318122 -18.382723 -21.732929 28.657540 1.392217 2.431600 0.060023 -0.006711 -360502.000000 0 0 1
-2.974422 -17.045623 -21.887129 27.900660 1.398038 2.472631 0.053581 -0.005460 -93849.000000 0 0 1
-3.651822 -16.163523 -20.973129 26.729523 1.348597 2.472916 0.043660 0.000863 336627.000000 0 0 1
-2.784222 -14.955723 -20.480729 25.512463 1.386739 2.502728 0.054483 0.001200 21990.000000 0 0 1
-2.724222 -13.983223 -21.510429 25.800202 1.378386 2.556627 0.048785 -0.002276 83375.000000 0 0 1
-1.887222 -12.924423 -21.116329 24.829451 1.425801 2.587646 0.030779 0.007846 132850.000000 0 1 0
-1.483922 -11.970023 -22.245529 25.305079 1.447456 2.644753 0.026929 0.002167 798953.000000 0 0 1
-2.623022 -11.111123 -22.445729 25.182296 1.338969 2.671066 0.035232 -0.010535 1006520.000000 0 0 1
-2.430922 -10.221223 -23.480329 25.723697 1.337303 2.720860 0.029442 -0.012959 302961.000000 0 0 1
-3.519122 -9.084223 -23.500029 25.439313 1.201209 2.748603 0.028242 -0.016245 -38615.600000 0 0 1
-4.807722 -9.510123 -23.869229 26.139945 1.102729 2.721699 0.046906 -0.016104 -164807.000000 0 0 1
-5.564522 -8.335723 -24.000729 26.009290 0.982182 2.746018 0.035292 -0.019437 -659977.000000 0 0 1
-7.052922 -8.538423 -23.609029 26.077473 0.880389 2.702980 0.043312 -0.027534 -154331.000000 0 0 1
-7.901222 -8.892723 -24.633429 27.355358 0.844369 2.691708 0.061960 -0.028297 -3709.790000 0 0 1
-8.411822 -7.798523 -25.418659 27.886985 0.747582 2.717684 0.050042 -0.029898 -50546.200000 0 0 1
-9.085422 -8.234623 -26.747979 29.424620 0.736315 2.711756 0.042844 -0.031226 149064.000000 0 0 1
-9.953522 -7.309723 -27.336909 29.996853 0.633433 2.717290 0.057682 -0.038633 -129543.000000 0 0 1
-10.639722 -7.894623 -28.437989 31.372726 0.638358 2.705611 0.060353 -0.034727 -189800.000000 0 0 1
-11.632022 -6.863823 -29.007059 31.997272 0.533093 2.705829 0.062656 -0.036283 -208991.000000 0 0 1
-11.062722 -5.798223 -29.767879 32.282035 0.482759 2.744318 0.034952 -0.025577 -256472.000000 0 0 1
-11.931022 -5.303623 -30.752039 33.409064 0.418291 2.740078 0.035389 -0.020279 -230558.000000 0 0 1
-11.319622 -4.151123 -31.600899 33.822810 0.351491 2.777107 0.028008 -0.014310 1037190.000000 0 0 1
-10.220122 -4.557023 -32.463849 34.338300 0.419429 2.809654 0.043382 -0.018463 791584.000000 0 0 1
-9.565422 -3.491123 -33.095559 34.626597 0.349951 2.843112 0.023322 -0.011493 -405714.000000 0 0 1
-8.558922 -3.938823 34.095254 35.373095 0.431304 0.269608 0.013366 -0.011132 -354520.000000 0 0 1
-7.305822 -4.158023 -33.544169 34.581432 0.517418 2.896049 0.026876 -0.017367 297514.000000 0 0 1
-6.343522 -4.572123 33.696972 34.592347 0.624520 0.228018 0.025085 -0.018259 1580350.000000 0 0 1
-4.831922 -4.254823 33.999501 34.603715 0.721973 0.187147 0.047900 -0.022162 910371.000000 0 0 1
-4.509622 -2.874623 33.916504 34.335541 0.567496 0.156391 0.075110 -0.027905 -838462.000000 0 0 1
-3.176422 -2.607423 -34.054806 34.301867 0.687336 3.021499 0.071866 -0.033640 -485620.000000 0 0 1
-2.956522 -1.124223 -33.644229 33.792588 0.363367 3.047853 0.087026 -0.033681 -333350.000000 0 0 1
-3.375322 -0.956223 -32.330169 32.519947 0.276064 3.033505 0.077711 -0.034895 142442.000000 0 0 1
-3.674422 0.369477 -31.920979 32.133888 -0.100217 3.026414 0.094833 -0.036789 -397927.000000 0 0 1
-4.216822 0.401277 -30.464359 30.757434 -0.094875 3.003435 0.107979 -0.039437 1151060.000000 0 0 1
-5.388922 -0.377923 -30.135969 30.616334 0.070015 2.964217 0.085599 -0.037511 1319730.000000 0 0 1
-6.655122 0.203977 -30.440679 31.160346 -0.030640 2.926255 0.088511 -0.033074 -95153.800000 0 0 1
-7.834422 -0.733523 -30.288949 31.294355 0.093356 2.887424 0.069110 -0.028862 -452527.000000 0 0 1
-8.118622 -1.216523 -28.995639 30.135345 0.148737 2.865693 0.066925 -0.029148 -428587.000000 0 0 1
-9.087622 -2.200523 -29.057929 30.525242 0.237572 2.830276 0.034077 -0.020711 -463848.000000 0 0 1
-9.480322 -2.960123 -27.736809 29.461320 0.302647 2.797747 0.037003 -0.025284 163913.000000 0 0 1
-10.120922 -2.115323 -26.756959 28.685231 0.206039 2.772841 0.036648 -0.024835 354275.000000 0 0 1
-10.511022 -2.769523 -25.566399 27.781155 0.257632 2.739588 0.035780 -0.026266 293559.000000 0 0 1
-11.440322 -1.864823 -24.670329 27.257726 0.161583 2.702356 0.043645 -0.030037 482947.000000 0 0 1
-10.809922 -0.692823 -24.202329 26.515790 0.064004 2.720766 0.042044 -0.027689 -140815.000000 0 0 1
-11.741122 0.052177 -23.471029 26.243968 -0.004444 2.677750 0.048568 -0.028820 151810.000000 0 0 1
-11.091022 1.283877 -22.739829 25.332961 -0.115245 2.685177 0.052496 -0.034485 244664.000000 0 0 1
-10.790422 2.387077 -23.596929 26.056600 -0.217715 2.703595 0.036481 -0.031702 -562439.000000 0 0 1
-9.926922 3.280177 -23.041129 25.302114 -0.319138 2.715628 0.046306 -0.032578 -754018.000000 0 0 1
-9.447122 4.379277 -24.016229 26.176429 -0.434070 2.732483 0.056645 -0.036484 287819.000000 0 0 1
-10.543722 5.223977 -24.394529 27.084184 -0.460008 2.692158 0.068340 -0.027494 437800.000000 0 0 1
-11.248622 4.653777 -25.506329 28.262377 -0.392278 2.696297 0.060403 -0.032761 -783066.000000 0 0 1
-12.658922 5.197877 -25.627649 29.052411 -0.389619 2.651136 0.060900 -0.021920 -696830.000000 0 0 1
-12.884922 6.572977 -25.997329 29.750401 -0.471718 2.633858 0.053604 -0.015510 405923.000000 0 0 1
-14.251822 6.693277 -26.396029 30.735398 -0.439069 2.603749 0.069036 -0.022533 526699.000000 0 0 1
-14.675022 8.151377 -26.623749 31.474199 -0.507025 2.579030 0.084224 -0.009884 -199281.000000 0 0 1
-14.526022 8.920677 -25.458689 30.638679 -0.550735 2.551579 0.107691 -0.011850 246236.000000 0 0 1
-14.911822 10.252077 -25.646579 31.388127 -0.602296 2.527122 0.095282 -0.009890 -205886.000000 0 0 1
-14.447622 11.237877 -24.526129 30.603180 -0.661079 2.500469 0.086312 -0.009075 -143043.000000 0 0 1
-15.019622 11.087677 -23.228029 29.800452 -0.635915 2.464587 0.112552 -0.010421 -99907.700000 0 0 1
-14.591822 11.984777 -22.253529 29.185196 -0.687616 2.437955 0.091047 -0.006503 -321166.000000 0 0 1
-15.340122 11.865977 -20.925429 28.530586 -0.658388 2.394163 0.092814 -0.010015 48463.900000 0 0 1
-16.656022 12.364877 -21.029829 29.539244 -0.638598 2.363037 0.083015 -0.006243 -337779.000000 0 0 1
-17.258622 12.564077 -19.818229 29.128650 -0.629264 2.319062 0.077413 -0.005037 440441.000000 0 0 1
-18.786722 12.883477 -19.991929 30.308450 -0.601116 2.291104 0.087402 -0.016210 606620.000000 0 0 1
-19.140622 14.126877 -20.484729 31.393569 -0.635814 2.281693 0.077163 -0.017094 -921101.000000 0 0 1
-20.507522 14.186077 -20.665329 32.386094 -0.605168 2.262815 0.061449 -0.017135 -849843.000000 0 0 1
-20.996622 15.533977 -21.206329 33.643290 -0.636962 2.252773 0.064109 -0.022842 -200258.000000 0 0 1
-20.553122 15.822277 -22.467129 34.315407 -0.656068 2.284614 0.066241 -0.018657 162819.000000 0 0 1
-21.146522 17.044277 -22.892729 35.521258 -0.678394 2.271139 0.047458 -0.002838 126059.000000 0 0 1
-21.311822 17.119377 -24.411529 36.649551 -0.676738 2.299737 0.051673 -0.007675 -148466.000000 0 0 1
-20.101022 17.358777 -25.072179 36.523860 -0.712324 2.327406 0.062425 -0.013039 -127805.000000 0 0 1
-20.110122 16.815477 -26.389029 37.196211 -0.696410 2.359521 0.063019 -0.023139 563507.000000 0 0 1
-18.996522 17.396477 -27.346939 37.568076 -0.741461 2.386095 0.043861 -0.013404 650182.000000 0 0 1
-19.374522 18.735277 -27.709209 38.654663 -0.768626 2.370056 0.030086 -0.018636 517948.000000 0 0 1
-18.806522 19.781877 -26.892769 38.317476 -0.810669 2.348775 0.021278 -0.027186 -865897.000000 0 0 1
-19.514522 21.153977 -27.049109 39.496349 -0.825689 2.325195 0.049570 -0.014249 -23682.600000 0 0 1
-20.668822 21.357977 -26.293589 39.682694 -0.801795 2.295076 0.057594 -0.006430 -142560.000000 0 0 1
-21.838022 20.688577 -26.738879 40.247783 -0.758376 2.297429 0.073902 -0.012065 -686641.000000 0 0 1
-23.044022 21.000677 -25.852869 40.502175 -0.739039 2.263095 0.055752 0.013238 -271391.000000 0 0 1
-22.978922 20.408777 -24.576629 39.351744 -0.726231 2.245335 0.031394 0.009610 338371.000000 0 0 1
-24.090722 20.732277 -23.727029 39.663107 -0.710611 2.212067 0.031113 -0.000210 314332.000000 0 0 1
-23.895522 20.244077 -22.253329 38.419126 -0.702861 2.188574 0.035552 0.014962 56165.700000 0 0 1
-23.032322 21.122977 -21.534029 37.952370 -0.742184 2.174137 0.032232 0.008603 -378923.000000 0 0 1
-21.850522 20.533477 -21.102529 36.665866 -0.754334 2.184056 0.026037 0.004510 -787555.000000 0 0 1
-21.808322 19.742977 -19.753029 35.434026 -0.735733 2.162119 0.049349 -0.009297 -935634.000000 0 0 1
-22.520222 18.497677 -19.802929 35.234648 -0.687643 2.167634 0.080885 -0.021004 525582.000000 0 0 1
-22.962922 17.925877 -18.540429 34.530861 -0.662827 2.137582 0.052441 -0.017695 343396.000000 0 0 1
-24.051922 18.834677 -17.854929 35.384156 -0.664341 2.099718 0.022030 -0.000756 181798.000000 0 0 1
-25.370462 18.761477 -18.388029 36.520857 -0.636748 2.098434 0.024540 -0.007470 135045.000000 0 0 1
-26.144942 19.853877 -18.021529 37.450099 -0.649476 2.072836 0.022684 -0.005764 -887187.000000 0 0 1
-27.560262 19.769877 -18.658829 38.711342 -0.622264 2.073731 0.013777 0.019444 1097240.000000 0 0 1
-28.488402 18.701377 -18.271029 38.667312 -0.580900 2.062943 0.017971 0.004275 988290.000000 0 0 1
-28.604692 18.536177 -16.871229 38.032310 -0.574976 2.030411 0.015338 -0.010545 -850488.000000 0 0 1
-29.688632 17.449777 -16.538029 38.202303 -0.531371 2.018511 0.021456 -0.010384 244268.000000 0 0 1
-29.460122 16.179577 -17.086729 37.704559 -0.502231 2.041119 0.040467 -0.013789 115017.000000 0 0 1
-30.251092 15.174377 -16.476529 37.641284 -0.464938 2.023863 0.039806 -0.013938 58617.500000 0 0 1
-29.385602 14.408977 -15.484329 36.206307 -0.455891 2.012709 0.070716 -0.020838 6473.370000 0 0 1
-28.937112 15.162677 -14.346929 35.680493 -0.482653 1.984600 0.071185 -0.021979 266873.000000 0 0 1
-29.830092 15.207277 -13.251329 36.009629 -0.471454 1.947647 0.044981 -0.015116 414837.000000 0 0 1
-29.044562 15.812577 -12.011329 35.183749 -0.498553 1.919190 0.052355 -0.017124 210270.000000 0 0 1
-28.532682 17.089477 -12.203629 35.427288 -0.539643 1.922470 0.049278 -0.014980 -202594.000000 0 0 1
-29.411532 18.184277 -12.149929 36.651425 -0.553745 1.908689 0.019318 -0.013473 -181352.000000 0 0 1
-28.580722 19.459077 -12.441929 36.746632 -0.597755 1.916211 0.028296 -0.015552 658843.000000 0 0 1
-27.739202 19.854677 -11.343529 35.949231 -0.621227 1.891825 0.009574 -0.023166 576026.000000 0 0 1
-26.817432 20.881977 -11.764529 35.967148 -0.661600 1.904020 0.002933 -0.023468 603128.000000 0 0 1
-25.982802 21.523177 -10.602329 35.366121 -0.691797 1.875266 0.006986 -0.013625 -205252.000000 0 0 1
-26.628082 22.397377 -9.710929 36.124775 -0.699315 1.842960 0.021010 -0.014124 -239861.000000 0 0 1
-26.396432 23.734477 -9.918229 36.857405 -0.732348 1.843252 0.012745 -0.009998 -304478.000000 0 0 1
-27.186692 24.517177 -8.896429 37.674323 -0.733813 1.809188 0.032429 -0.000286 233305.000000 0 0 1
-26.643322 24.275977 -7.566629 36.829927 -0.738940 1.777718 0.030797 -0.011160 532359.000000 0 0 1
-27.507812 24.948077 -6.676929 37.731521 -0.736639 1.748692 0.053905 -0.014382 310982.000000 0 0 1
-27.506922 24.327477 -5.261329 37.096341 -0.724136 1.713105 0.059134 -0.017640 -113498.000000 0 0 1
-27.827122 22.981877 -5.335629 36.482658 -0.690324 1.717574 0.057005 -0.018591 -203516.000000 0 0 1
-27.566892 22.237077 -4.141629 35.659139 -0.678788 1.687204 0.048941 -0.020818 103186.000000 0 0 1
-27.633392 20.747677 -4.484529 34.845107 -0.644025 1.699853 0.050976 -0.018134 14032.800000 0 0 1
-26.593332 20.335077 -5.361129 33.903722 -0.652823 1.729591 0.044198 -0.029901 35569.900000 0 0 1
-26.763332 20.579477 -6.774029 34.433680 -0.655515 1.768815 0.031539 -0.028030 -541371.000000 0 0 1
-27.902262 19.757277 -7.409529 34.982672 -0.616134 1.784219 0.023432 -0.027385 -164076.000000 0 0 1
-27.622002 18.338077 -7.427529 33.976878 -0.586081 1.791181 0.030544 -0.024486 107655.000000 0 0 1
-27.902072 17.792877 -8.735229 34.225960 -0.567673 1.828874 0.021895 -0.022038 -131276.000000 0 0 1
-27.556002 16.323077 -8.957729 33.256834 -0.534783 1.843514 0.048893 -0.024998 -285999.000000 0 0 1
-28.277602 15.365277 -8.188229 33.207855 -0.497741 1.819941 0.046213 -0.020607 -2401.520000 0 0 1
-27.918102 14.080977 -8.558029 32.418115 -0.467135 1.837952 0.055709 -0.022075 -39286.100000 0 0 1
-28.537882 13.030077 -7.647629 32.290553 -0.428320 1.809906 0.065600 -0.025018 416260.000000 0 0 1
-29.960692 12.946277 -7.720229 33.538800 -0.407876 1.803067 0.084264 -0.018745 263119.000000 0 0 1
-30.433022 12.040577 -6.757229 33.418624 -0.376744 1.774400 0.093529 -0.020978 -83814.500000 0 0 1
-31.056482 10.760277 -7.344629 33.678364 -0.333531 1.790645 0.079387 -0.018902 -275471.000000 0 0 1
-30.061292 9.845277 -7.703929 32.557046 -0.316498 1.809691 0.090792 -0.004634 188186.000000 0 0 1
-30.666242 8.606277 -8.110729 32.867466 -0.273605 1.820143 0.077219 -0.003836 -134624.000000 0 0 1
-29.655822 7.538777 -8.547929 31.770553 -0.248936 1.843205 0.116132 -0.010156 -273234.000000 0 0 1
-29.096762 7.793677 -9.815129 31.681220 -0.261710 1.885789 0.111192 -0.021338 274493.000000 0 0 1
-28.268022 6.672077 -10.153929 30.768489 -0.231787 1.907111 0.126915 -0.029422 -110471.000000 0 0 1
-27.579212 6.815377 -11.509729 30.651854 -0.242266 1.955731 0.108014 -0.026479 -247259.000000 0 0 1
-26.599042 7.828977 -11.448029 29.997655 -0.286250 1.962356 0.129102 -0.033498 531064.000000 0 0 1
-25.837332 7.836277 -12.684529 29.830726 -0.294475 2.009998 0.116182 -0.022291 198595.000000 0 0 1
-30.677422 25.220377 33.331322 51.847359 -0.688081 0.872552 0.031139 0.000161 -124775.000000 0 0 1
-30.782542 26.602077 33.205141 52.514920 -0.712677 0.886279 0.016105 -0.015563 1186820.000000 0 0 1
-31.999862 27.057377 32.536366 53.053821 -0.701903 0.910601 0.041772 -0.029221 905381.000000 0 0 1
-32.099012 28.581577 32.347191 53.792136 -0.727497 0.925623 0.050692 -0.036869 -157768.000000 0 0 1
-33.342072 28.880577 31.763014 54.356882 -0.713819 0.946727 0.081474 -0.031623 -141248.000000 0 0 1
-33.469902 30.278077 31.624554 55.109969 -0.735371 0.959604 0.104649 -0.036534 -125611.000000 0 0 1
-32.867502 30.946277 30.344704 54.394355 -0.755301 0.978985 0.090438 -0.034824 59209.600000 0 0 1
-31.495142 30.771277 30.086424 53.329245 -0.773773 0.971376 0.069558 -0.039070 -180983.000000 0 0 1
-31.124382 31.546177 28.950404 52.934057 -0.792128 0.992122 0.069724 -0.023479 1915090.000000 0 0 1
-29.622802 31.431977 28.370194 51.675405 -0.815022 0.989620 0.065923 -0.017512 1741300.000000 0 0 1
-29.259522 30.161777 27.818604 50.395706 -0.800581 0.986031 0.086599 -0.025120 120982.000000 0 0 1
-28.227542 30.127777 26.848304 49.247421 -0.817950 0.994202 0.050383 -0.012740 -152944.000000 0 0 1
-28.417612 30.822977 25.463454 49.051036 -0.825979 1.024973 0.039057 -0.000152 -619401.000000 0 0 1
-28.457642 32.257377 25.565514 50.039697 -0.847900 1.034559 0.029022 -0.003784 239036.000000 0 0 1
-29.180792 32.843477 24.453444 50.281046 -0.844382 1.062906 0.021682 -0.006339 356958.000000 0 0 1
-29.337942 -33.808964 24.712804 51.132021 0.856084 1.066360 0.020525 0.004162 -307791.000000 0 0 1
-30.129282 -33.662664 25.848324 52.048866 0.840731 1.051100 0.036668 -0.013076 -174726.000000 0 0 1
-30.092152 -32.332364 26.350604 51.432224 0.821270 1.032893 0.016537 -0.010619 -263574.000000 0 0 1
-30.544472 -32.240564 27.808214 52.399575 0.812406 1.011375 0.034259 -0.013816 -389081.000000 0 0 1
-31.902002 -32.449964 28.100734 53.482606 0.793913 1.017590 0.019413 -0.027015 -295088.000000 0 0 1
-32.015682 -32.870864 29.455474 54.526347 0.798577 1.000114 0.031565 -0.024140 -341162.000000 0 0 1
-33.484262 -33.129964 29.795324 55.736448 0.780080 1.006791 0.045432 -0.034480 -229301.000000 0 0 1
-33.616322 -33.410564 31.183104 56.733666 0.782328 0.988863 0.045619 -0.039797 -415528.000000 0 0 1
-34.974168 -33.615864 31.448374 57.811927 0.765598 0.995627 0.050610 -0.042513 -450706.000000 0 0 1
-35.383223 34.000077 32.819591 59.034763 -0.765466 0.981307 0.077134 -0.033994 -332041.000000 0 0 1
-35.131925 32.612177 32.919154 58.150469 -0.748220 0.969026 0.050790 -0.023346 199953.000000 0 0 1
-35.885975 32.076677 34.029592 58.946837 -0.729407 0.955387 0.067098 -0.022290 399542.000000 0 0 1
-35.590867 30.626777 -33.797399 57.853033 -0.710572 2.194683 0.046451 -0.021139 523733.000000 0 0 1
-34.328197 30.551877 -33.127559 56.650485 -0.727259 2.195394 0.053604 -0.017972 113505.000000 0 0 1
-34.055570 29.245877 -32.630689 55.496532 -0.709563 2.199352 0.034077 -0.027983 446658.000000 0 0 1
-33.241892 29.304377 -31.287999 54.246740 -0.722528 2.185568 0.028929 -0.021502 469634.000000 0 0 1
-34.016622 29.478177 -30.091899 54.144398 -0.714042 2.160087 0.037403 -0.022668 -388314.000000 0 0 1
-34.332383 30.807377 -29.812809 54.923680 -0.731336 2.144569 0.038387 -0.020490 -361239.000000 0 0 1
-35.242528 31.001477 -28.637539 54.983961 -0.721464 2.118624 0.034543 -0.007993 -418460.000000 0 0 1
-34.815959 30.555077 -27.375179 53.806730 -0.720310 2.104550 0.010735 -0.018484 -132496.000000 0 0 1
-35.867121 30.696977 -26.435389 54.107158 -0.707882 2.081252 0.021642 -0.017550 4856.140000 0 0 1
-35.372954 30.389577 -25.031529 52.927778 -0.709764 2.063418 0.028487 -0.021683 -30600.000000 0 0 1
-34.927269 31.575277 -24.311129 52.990030 -0.735037 2.047426 0.025577 -0.023270 -18655.900000 0 0 1
-34.639968 31.358477 -22.951329 52.058092 -0.735718 2.027374 0.015142 -0.022733 571924.000000 0 0 1
-35.927973 31.160777 -22.030929 52.413501 -0.714459 2.004604 0.002495 -0.014479 955772.000000 0 0 1
36.231836 32.305377 -21.912129 53.259034 0.728171 1.994814 0.008793 -0.019238 -311310.000000 0 0 1
-36.297662 33.539877 -21.372629 53.844525 -0.745930 1.978968 0.018341 -0.024058 -456394.000000 0 0 1
-36.233402 33.453177 -19.831229 53.153101 -0.745523 1.953140 0.012249 -0.016368 299103.000000 0 0 1
-35.256388 32.535077 -19.314029 51.716302 -0.745277 1.953534 0.008894 -0.013839 137864.000000 0 0 1
-35.109669 32.648377 -17.928229 51.186197 -0.749089 1.928640 0.028470 0.001840 145134.000000 0 0 1
-33.893772 31.729677 -17.670629 49.677070 -0.752433 1.934470 0.026863 -0.001012 83529.000000 0 0 1
-33.776012 31.385577 -16.307629 48.906157 -0.748730 1.910754 0.038179 0.004239 -1168690.000000 0 0 1
-32.592832 30.731577 -16.131029 47.612316 -0.756014 1.916437 0.047640 0.004076 -1020380.000000 0 0 1
-32.184422 30.295677 -14.643229 46.562745 -0.755178 1.890709 0.052411 0.005574 -785067.000000 0 0 1
-33.112842 29.522577 -14.009729 46.522203 -0.728141 1.876685 0.060002 0.008130 -435747.000000 0 0 1
-32.500972 28.749977 -12.972229 45.289658 -0.724235 1.861293 0.078092 0.003830 286386.000000 0 0 1
-33.572632 28.037977 -12.122029 45.389353 -0.695806 1.841145 0.081348 -0.005311 242295.000000 0 0 1
-32.962612 27.581977 -10.928429 44.347828 -0.696760 1.819786 0.092258 -0.001778 217690.000000 0 0 1
-33.883652 26.888477 -10.150129 44.431039 -0.670798 1.801278 0.096406 -0.009234 149591.000000 0 0 1
-33.200082 26.257877 -8.856829 43.245404 -0.669166 1.777060 0.096833 -0.003149 417664.000000 0 0 1
-32.899422 27.162177 -7.822429 43.374488 -0.690164 1.752135 0.089426 -0.010335 710759.000000 0 0 1
-31.835082 26.659677 -6.996329 42.108900 -0.697152 1.737719 0.082910 -0.016479 307939.000000 0 0 1
-31.643032 27.411177 -5.624429 42.240837 -0.713860 1.704344 0.086166 -0.025742 -285431.000000 0 0 1
-30.636612 26.749977 -4.909229 40.966618 -0.717774 1.690920 0.095770 -0.025016 -20969.200000 0 0 1
-30.372532 27.374577 -3.716829 41.056948 -0.733529 1.661449 0.100393 -0.016421 -7798.150000 0 0 1
-29.505802 26.525877 -2.787529 39.774173 -0.732265 1.640938 0.084909 -0.017997 59923.100000 0 0 1
-30.256772 25.381677 -2.419729 39.567119 -0.698000 1.631990 0.071237 -0.014456 464926.000000 0 0 1
-29.418122 24.423677 -1.746229 38.275204 -0.692901 1.616435 0.045886 -0.019192 277840.000000 0 0 1
-30.138282 23.112277 -1.437229 38.007355 -0.654214 1.608620 0.050700 -0.027212 -187816.000000 0 0 1
-30.566282 22.462177 -2.642129 38.024043 -0.633746 1.640338 0.036209 -0.021159 -126605.000000 0 0 1
-31.314182 21.328277 -2.303829 37.957621 -0.597933 1.631528 0.039575 -0.019753 -98441.300000 0 0 1
-31.629972 20.421877 -3.537529 37.815636 -0.573311 1.664480 0.066264 -0.018629 -664827.000000 0 0 1
-30.653102 19.527477 -3.849429 36.547957 -0.567216 1.676317 0.047559 -0.020271 -619167.000000 0 0 1
-31.118792 18.711677 -4.883929 36.638216 -0.541374 1.704496 0.062425 -0.016007 642162.000000 0 0 1
-30.030542 17.618577 -5.183929 35.201148 -0.530574 1.718600 0.070424 -0.013433 595622.000000 0 0 1
-30.181632 16.516777 -4.380529 34.683193 -0.500726 1.697436 0.073794 -0.024795 93132.500000 0 0 1
-29.200172 15.634477 -4.873229 33.478878 -0.491584 1.716877 0.079583 -0.022973 -66997.600000 0 0 1
-29.095792 14.395377 -3.913129 32.697165 -0.459445 1.690762 0.078235 -0.022063 -609972.000000 0 0 1
-30.249252 13.637677 -3.719229 33.389162 -0.423555 1.682418 0.091419 -0.022064 -419623.000000 0 0 1
-30.161272 12.499677 -2.934529 32.780417 -0.392882 1.660437 0.070855 -0.024969 -252382.000000 0 0 1
-31.535462 11.988577 -2.457129 33.826747 -0.363288 1.643499 0.086896 -0.027454 -210542.000000 0 0 1
-32.322872 11.364777 -3.430529 34.433918 -0.338101 1.670588 0.093113 -0.015243 -390035.000000 0 0 1
-33.326142 10.578477 -2.893329 35.084288 -0.307363 1.653358 0.083082 -0.015425 -998327.000000 0 0 1
-34.324816 10.166777 -3.923029 36.013143 -0.287961 1.679946 0.066081 -0.018478 -641976.000000 0 0 1
-33.766102 9.224677 -4.786829 35.329280 -0.266686 1.706706 0.052352 -0.022750 870465.000000 0 0 1
-34.774638 8.749777 -5.707129 36.309852 -0.246497 1.728629 0.057543 -0.016860 713926.000000 0 0 1
-34.143953 7.878477 -6.843529 35.703134 -0.226774 1.763669 0.063395 -0.019046 -146799.000000 0 0 1
-33.495112 6.714777 -6.417729 34.759143 -0.197848 1.756496 0.052012 -0.018139 264659.000000 0 0 1
-33.322062 5.863177 -7.522929 34.660224 -0.174172 1.789586 0.066960 -0.018706 -234519.000000 0 0 1
-32.483272 4.570277 -7.157629 33.575021 -0.139779 1.785628 0.093303 -0.026918 204022.000000 0 0 1
-31.111202 4.920877 -7.056929 32.278819 -0.156871 1.791201 0.097397 -0.019584 314363.000000 0 0 1
-30.360882 3.750477 -6.753929 31.328338 -0.122907 1.788087 0.088206 -0.023265 327315.000000 0 0 1
-28.870162 3.961777 -6.387529 29.832574 -0.136376 1.786580 0.137114 -0.017054 695980.000000 0 0 1
-27.979752 4.457777 -7.368129 29.275034 -0.157994 1.825219 0.137462 -0.015293 2107050.000000 0 0 1
-26.547852 4.361377 -7.080229 27.819772 -0.162829 1.828131 0.163290 -0.025005 2086040.000000 0 0 1
-25.581832 4.724677 -8.242829 27.289136 -0.182631 1.877644 0.163765 -0.026969 -79635.300000 0 0 1
-25.675152 3.940877 -9.413729 27.629011 -0.152301 1.918478 0.149853 -0.041028 -459066.000000 0 0 1
-24.581022 4.074377 -10.251829 26.943036 -0.164260 1.961133 0.139132 -0.040784 -688862.000000 0 0 1
-24.766422 3.442477 -11.626229 27.575270 -0.138113 2.006025 0.121800 -0.047849 -352496.000000 0 0 1
-25.659132 4.088577 -12.480129 28.824662 -0.158014 2.018578 0.127226 -0.027050 -22738.300000 0 0 1
-25.862692 3.413477 -13.692429 29.462065 -0.131226 2.054146 0.118113 -0.029753 -184869.000000 0 0 1
-26.795292 4.074077 -14.710329 30.837956 -0.150889 2.068058 0.090470 -0.022342 -554318.000000 0 0 1
-26.280102 5.286477 -15.229229 30.830504 -0.198510 2.087442 0.083775 -0.021657 500834.000000 0 0 1
-27.247212 6.136177 -15.840429 32.108915 -0.221508 2.086715 0.121520 -0.025784 317925.000000 0 0 1
-28.157912 5.687777 -17.025329 33.392823 -0.199314 2.105807 0.068063 -0.011861 -782564.000000 0 0 1
-29.342752 5.089177 -16.686329 34.136936 -0.171731 2.081517 0.075631 -0.021443 -968884.000000 0 0 1
-29.898402 4.503977 -17.844929 35.108998 -0.149518 2.103974 0.079447 -0.013101 -66360.600000 0 0 1
-31.291132 3.862877 -17.712429 36.163336 -0.122828 2.082645 0.077808 -0.017336 -142351.000000 0 0 1
-31.333522 2.725977 -16.908229 35.708665 -0.086780 2.064062 0.093451 -0.023588 209937.000000 0 0 1
-30.957562 1.526277 -17.538529 35.613202 -0.049262 2.085725 0.119442 -0.027514 -63210.400000 0 0 1
-31.098792 0.450277 -16.496029 35.205917 -0.014478 2.058455 0.114171 -0.027120 28428.600000 0 0 1
-30.582302 -0.873423 -16.767529 34.888251 0.028552 2.072143 0.122813 -0.021291 621882.000000 0 0 1
-31.158602 -1.812223 -15.832929 34.997489 0.058096 2.040253 0.120375 -0.032250 111816.000000 0 0 1
-30.927302 -3.262123 -16.229529 35.079011 0.105089 2.051786 0.111845 -0.020101 -53517.100000 0 0 1
-31.779312 -3.647123 -17.282529 36.358107 0.114264 2.066149 0.120317 -0.028251 -48637.100000 0 0 1
-31.384522 -4.794623 -17.974229 36.483551 0.151598 2.085948 0.118542 -0.022609 -528361.000000 0 0 1
-32.428682 -5.225723 -18.987929 37.940335 0.159772 2.094936 0.124834 -0.020208 -311245.000000 0 0 1
-32.085322 -6.249723 -19.873329 38.255406 0.192376 2.117051 0.117986 -0.014878 -228710.000000 0 0 1
-33.043292 -6.297723 -20.911029 39.607974 0.188331 2.126981 0.109795 -0.014244 -195773.000000 0 0 1
-32.892012 -7.344223 -22.034029 40.265624 0.219679 2.149832 0.106786 -0.008950 -576736.000000 0 0 1
-31.800312 -7.107723 -22.857029 39.802303 0.219897 2.182501 0.105256 -0.015530 -374329.000000 0 0 1
-31.709602 -8.194323 -23.754829 40.459086 0.252885 2.198308 0.095374 0.002236 795979.000000 0 0 1
-30.346442 -8.114523 -24.555129 39.871122 0.261283 2.234277 0.090105 0.004954 667094.000000 0 0 1
-30.233492 -6.939023 -25.380819 40.079920 0.225607 2.256548 0.085699 0.002444 -45665.700000 0 0 1
-30.353162 -7.159923 -26.742159 41.081894 0.231653 2.279628 0.074714 0.005282 473508.000000 0 0 1
-31.762492 -7.276523 -27.421599 42.588117 0.225206 2.270354 0.077255 0.005515 318765.000000 0 0 1
-32.407252 -8.497823 -27.247079 43.183866 0.256446 2.253580 0.067640 0.002676 -25165.200000 0 0 1
-33.655792 -8.532023 -27.943879 44.568690 0.248278 2.248473 0.061743 -0.001586 737954.000000 0 0 1
-34.607226 -9.657223 -27.470139 45.227542 0.272130 2.223550 0.061764 0.001376 -499083.000000 0 0 1
-34.169270 -10.984823 -27.790899 45.393164 0.311047 2.229670 0.056468 0.002815 197656.000000 0 0 1
-35.095693 -12.050823 -27.542019 46.211392 0.330757 2.209308 0.043950 0.002604 779523.000000 0 0 1
-36.442332 -12.017923 -28.354099 47.711937 0.318548 2.207163 0.044205 -0.006575 -39546.200000 0 0 1
35.620546 -11.133823 -27.855029 46.569173 -0.302946 2.211978 0.035092 -0.004224 -525062.000000 0 0 1
34.724766 -10.745623 -28.875599 46.422817 -0.300105 2.242107 0.041267 -0.016037 -283227.000000 0 0 1
33.728876 -9.652923 -28.546409 45.229564 -0.278741 2.253825 0.036924 -0.008187 -546549.000000 0 0 1
32.763716 -9.921223 -27.577109 43.958943 -0.294034 2.248926 0.021150 -0.003749 -215112.000000 0 0 1
32.002886 -8.730423 -27.365789 43.003388 -0.266321 2.260571 0.002145 0.002711 -363599.000000 0 0 1
30.813016 -9.033023 -26.471799 41.614824 -0.285166 2.260249 -0.002383 0.004247 -629273.000000 0 0 1
31.135776 -9.296523 -25.112919 41.067269 -0.290154 2.228760 -0.016995 0.011576 225486.000000 0 0 1
29.963236 -9.607623 -24.386129 39.809361 -0.310290 2.230108 -0.018065 0.015520 -219538.000000 0 0 1
30.234436 -9.830323 -22.936829 39.202735 -0.314355 2.195778 -0.028767 0.013986 216691.000000 0 0 1
30.946956 -11.006223 -22.500629 39.813682 -0.341698 2.171409 -0.053364 0.015720 417527.000000 0 0 1
31.374576 -10.875823 -21.174429 39.382788 -0.333682 2.138452 -0.038367 0.013431 -303999.000000 0 0 1
32.009466 -12.138223 -20.631829 39.970173 -0.362454 2.113182 -0.021819 0.012964 313728.000000 0 0 1
33.355856 -12.259323 -21.095029 41.326799 -0.352207 2.106498 -0.011005 0.010929 880713.000000 0 0 1
34.095106 -13.207523 -20.287229 41.814908 -0.369574 2.077351 0.016779 0.006498 102660.000000 0 0 1
35.608686 -13.307623 -20.547829 43.212088 -0.357647 2.066341 0.038642 -0.006294 -561710.000000 0 0 1
36.352386 -12.111423 -20.439229 43.427463 -0.321601 2.060826 0.056937 -0.007203 255522.000000 0 0 1
36.358826 -11.142323 -21.501029 43.685350 -0.297368 2.085388 0.062467 0.006865 -904447.000000 0 0 1
-35.959567 -11.578223 -22.787829 44.118373 0.311497 2.113573 0.051168 0.004645 -413839.000000 0 0 1
-36.460882 -12.673723 -23.534629 45.209489 0.334533 2.118313 0.044606 0.006069 611310.000000 0 0 1
35.301156 -12.358623 -24.187029 44.541211 -0.336756 2.144833 0.039952 0.007281 223219.000000 0 0 1
34.767016 -13.369023 -25.259659 45.005850 -0.367101 2.166695 0.041520 -0.010406 -108031.000000 0 0 1
34.631936 -14.688723 -24.792829 45.053456 -0.401140 2.153517 0.040751 -0.025794 623574.000000 0 0 1
33.509746 -14.853123 -23.926629 43.772159 -0.417225 2.149116 0.025360 -0.018108 -264934.000000 0 0 1
-29.697812 8.528177 -19.046429 36.296781 -0.279641 2.123208 0.035827 -0.006233 443946.000000 0 0 1
-28.470092 7.829277 -19.252429 35.249110 -0.268366 2.148596 0.045725 -0.009822 378094.000000 0 0 1
-27.814492 8.249877 -20.459629 35.500744 -0.288338 2.185009 0.063335 -0.029984 -456099.000000 0 0 1
-26.658142 7.311877 -20.702129 34.535463 -0.267700 2.213605 0.069960 -0.027680 -518783.000000 0 0 1
-25.542742 7.545577 -19.865029 33.226296 -0.287240 2.211638 0.085053 -0.027206 68214.800000 0 0 1
-24.586522 6.517377 -19.966429 32.336226 -0.259120 2.236310 0.101959 -0.029174 1379760.000000 0 0 1
-23.103222 6.835577 -19.485929 30.986858 -0.287665 2.250863 0.088871 -0.024846 1382840.000000 0 0 1
-22.413922 7.692577 -20.348829 31.235148 -0.330609 2.280320 0.088432 -0.026913 194928.000000 0 0 1
-21.156322 8.120577 -19.825229 30.109358 -0.366496 2.289542 0.086407 -0.017021 489220.000000 0 0 1
-20.411522 9.158577 -20.681329 30.466820 -0.421769 2.316944 0.084213 -0.005124 -89210.300000 0 0 1
-19.874922 8.688577 -21.896629 30.821522 -0.412127 2.360910 0.098495 -0.014133 178150.000000 0 0 1
-19.253622 9.742077 -22.657329 31.288410 -0.468426 2.380589 0.092588 -0.004553 319798.000000 0 0 1
-18.390022 9.177777 -23.817629 31.459560 -0.462898 2.429639 0.111439 -0.007948 399426.000000 0 0 1
-19.178722 8.442277 -24.782329 32.453956 -0.414666 2.439690 0.102355 -0.006112 746001.000000 0 0 1
-18.345722 7.756877 -25.737609 32.544726 -0.400020 2.482973 0.089895 -0.005035 208372.000000 0 0 1
-19.101322 6.706877 -26.622699 33.445639 -0.337673 2.491453 0.053569 -0.000442 10035.200000 0 0 1
-19.589222 5.663477 -25.856589 32.929861 -0.281438 2.473818 0.063337 -0.001542 -157739.000000 0 0 1
-20.290322 4.731377 -26.599639 33.787925 -0.229090 2.477137 0.042491 -0.001115 -965896.000000 0 0 1
-20.415722 3.437477 -25.854479 33.122077 -0.166809 2.466392 0.050810 -0.000221 203046.000000 0 0 1
-19.259622 2.658877 -25.565549 32.118530 -0.137187 2.491413 0.047574 0.004736 40357.500000 0 0 1
-18.280022 3.215377 -24.733529 30.923216 -0.174115 2.497820 0.047778 -0.001116 -477066.000000 0 0 1
-17.268122 2.090477 -24.371429 29.942022 -0.120474 2.521723 0.038783 0.000545 -41698.700000 0 0 1
-17.667822 1.226277 -23.290529 29.259262 -0.069296 2.491463 0.038911 -0.001025 404606.000000 0 0 1
-18.833822 0.417677 -23.418229 30.054962 -0.022173 2.464153 0.031616 -0.000354 122228.000000 0 0 1
-19.206622 -0.331523 -22.136529 29.309216 0.017259 2.426870 0.056751 -0.002003 178076.000000 0 0 1
-18.405122 -1.477823 -21.852929 28.609141 0.080122 2.440045 0.054793 -0.006699 543141.000000 0 0 1
-18.974422 -2.158523 -20.728729 28.184536 0.113273 2.397148 0.057706 -0.005227 -9780.180000 0 0 1
-18.396922 -3.585823 -20.732829 27.949151 0.192501 2.406555 0.048305 -0.021819 -163799.000000 0 0 1
-18.805422 -4.450223 -21.732929 29.082100 0.232371 2.414779 0.050105 -0.029337 152384.000000 0 0 1
-18.895622 -5.761223 -21.118829 28.917834 0.295944 2.389564 0.054371 -0.025627 -377119.000000 0 0 1
-18.958722 -6.960523 -22.057229 29.906577 0.351863 2.400213 0.032688 -0.025820 -488212.000000 0 0 1
-17.713622 -7.018623 -22.678829 29.620309 0.377250 2.442850 0.032279 -0.028181 -114543.000000 0 0 1
-17.825022 -7.886723 -23.767829 30.738274 0.416560 2.454719 0.040170 -0.034547 -492841.000000 0 0 1
-16.491122 -7.884323 -24.464029 30.538637 0.445971 2.499901 0.049577 -0.037622 -1272020.000000 0 0 1
-16.534522 -8.586423 -25.692989 31.737151 0.478970 2.514191 0.044934 -0.052878 -458.108000 0 0 1
-15.390022 -8.511023 -26.538419 31.836739 0.505160 2.556351 0.051558 -0.052213 892107.000000 0 0 1
-14.203122 -9.432923 -26.015819 31.105169 0.586254 2.561446 0.052153 -0.048218 50051.500000 0 0 1
-13.573322 -8.934923 -24.869229 29.707683 0.582168 2.562814 0.059180 -0.040684 -191215.000000 0 0 1
-12.681422 -9.871223 -24.309329 29.141087 0.661431 2.557466 0.037694 -0.031917 45115.800000 0 0 1
-11.726622 -9.241323 -23.253829 27.634331 0.667420 2.570819 0.060691 -0.035321 116120.000000 0 0 1
-12.323622 -8.861823 -21.992429 26.722097 0.623425 2.537478 0.039970 -0.032439 -187011.000000 0 0 1
-11.463822 -8.090323 -21.208429 25.429707 0.614559 2.557118 0.040698 -0.029054 -1332820.000000 0 0 1
-12.025422 -7.603123 -19.875929 24.443216 0.563799 2.520335 0.032968 -0.020104 781393.000000 0 1 0
-13.193022 -6.751223 -19.900329 24.812455 0.472985 2.501482 0.035916 -0.011747 1545010.000000 0 1 0
-14.439022 -7.315223 -20.361329 26.011181 0.468936 2.469935 0.039817 -0.018745 387169.000000 0 0 1
-15.592322 -6.353923 -19.938329 26.096547 0.386958 2.440320 0.039093 -0.007965 -480280.000000 0 0 1
-15.835422 -6.120623 -18.560029 25.153474 0.368827 2.400707 0.050946 -0.012433 243659.000000 0 0 1
-15.156822 -5.003023 -18.086629 24.122305 0.318823 2.418539 0.052892 -0.011423 -644936.000000 0 1 0
-15.187322 -4.910323 -16.480429 22.942767 0.312709 2.372192 0.067120 -0.001230 -322112.000000 0 1 0
-16.332022 -4.432723 -15.820029 23.165864 0.265028 2.322525 0.082761 -0.005859 -50225.300000 0 1 0
-16.423422 -3.008023 -15.912929 23.065088 0.181147 2.332167 0.034773 -0.012066 -105464.000000 0 1 0
-17.442222 -2.404423 -14.919829 23.078424 0.136987 2.273763 0.023978 -0.012925 -154839.000000 0 1 0
-17.311322 -2.648123 -13.563829 22.151114 0.151794 2.229803 0.049661 -0.020003 1221470.000000 0 1 0
-18.386322 -1.966923 -12.855129 22.520656 0.106572 2.178294 0.063938 -0.021462 793018.000000 0 1 0
-17.857722 -0.723623 -12.122029 21.595496 0.040499 2.166779 0.055061 -0.020599 -58054.000000 0 1 0
-17.623622 0.306077 -13.060629 21.937770 -0.017366 2.208496 0.072374 -0.021891 454043.000000 0 1 0
-16.825022 1.320077 -12.464929 20.980906 -0.078299 2.206953 0.068733 -0.015376 -482650.000000 0 1 0
-16.340622 2.280077 -13.583429 21.371107 -0.138639 2.259579 0.072712 -0.010299 335234.000000 0 1 0
-15.482722 1.710177 -14.578229 21.334576 -0.110011 2.323089 0.060081 -0.014130 280424.000000 0 1 0
-14.137222 1.459477 -14.255729 20.130000 -0.102872 2.357718 0.041409 -0.008290 -735027.000000 0 1 0
-13.614022 0.385877 -15.248929 20.445545 -0.028337 2.412578 0.037963 -0.011208 -118076.000000 0 1 0
-13.469122 0.995277 -16.527029 21.343629 -0.073759 2.456453 0.041432 -0.013375 130028.000000 0 1 0
-12.876822 0.049677 -17.394929 21.642517 -0.003858 2.504349 0.021650 -0.012852 -5815.480000 0 1 0
-12.358622 0.678577 -18.679829 22.408302 -0.054852 2.556411 0.035214 -0.016797 100238.000000 0 1 0
-11.052922 1.208977 -18.490929 21.576449 -0.108948 2.600208 0.021918 -0.009427 -153034.000000 0 1 0
-10.756122 2.150177 -19.476029 22.352474 -0.197302 2.628670 0.029423 -0.015985 251092.000000 0 1 0
-9.364122 2.819377 -19.328829 21.661932 -0.292450 2.673199 0.023756 -0.014630 -807362.000000 0 1 0
-8.353622 1.851477 -19.373929 21.179237 -0.218112 2.725711 0.026514 -0.013631 -280151.000000 0 1 0
-7.023422 2.298977 -19.175329 20.550109 -0.316338 2.773738 0.021942 -0.010468 630469.000000 0 1 0
-6.467022 3.342377 -20.173429 21.446703 -0.477024 2.795280 0.021620 -0.005139 -1224970.000000 0 1 0
-6.227422 2.855977 -21.457929 22.525099 -0.429993 2.832543 0.015543 -0.004308 337118.000000 0 1 0
-5.866222 3.852577 -22.405029 23.478506 -0.581098 2.838032 0.012325 -0.001480 -262361.000000 0 1 0
-5.394122 3.327277 -23.773829 24.604111 -0.552706 2.881066 0.031936 -0.011336 264083.000000 0 1 0
-4.116722 2.711377 -23.784829 24.290266 -0.582415 2.937236 0.043267 -0.014262 9571.190000 0 1 0
-3.695422 2.160177 -24.999829 25.363634 -0.528985 2.972017 0.071098 -0.016497 132020.000000 0 0 1
-2.335122 1.411677 -24.989429 25.137963 -0.543752 3.032831 0.049285 -0.019910 275127.000000 0 0 1
-1.269022 2.398177 -24.806729 24.954668 -1.084093 3.032651 0.036859 -0.016705 1948690.000000 0 1 0
0.077578 1.844577 -24.851229 24.919712 1.528764 3.067438 0.039885 -0.019313 1367230.000000 0 1 0
0.441978 0.951677 -23.646029 23.669299 1.136016 3.097246 0.045233 -0.024090 -963949.000000 0 1 0
0.034278 -0.389723 -23.767229 23.770448 -1.483067 3.125133 0.040170 -0.023596 313520.000000 0 1 0
0.734478 -1.098223 -22.743729 22.782071 -0.981327 3.083567 0.043386 -0.025620 -315877.000000 0 1 0
0.295478 -2.585123 -22.781429 22.929537 -1.456991 3.027872 0.057628 -0.028075 519987.000000 0 1 0
-0.934122 -2.835223 -22.100429 22.301121 1.252526 3.007334 0.047095 -0.024433 636345.000000 0 1 0
-2.120622 -2.904823 -22.891529 23.172335 0.940196 2.985755 0.053815 -0.027515 191673.000000 0 1 0
-2.939122 -1.619323 -22.890329 23.134991 0.503576 2.996031 0.062637 -0.025046 -1322030.000000 0 1 0
-3.338922 -1.291923 -21.553129 21.848451 0.369187 2.976988 0.041150 -0.025497 375059.000000 0 1 0
-4.109322 -0.080823 -21.520029 21.909009 0.019666 2.952875 0.032197 -0.022708 2218430.000000 0 1 0
-5.602422 -0.143623 -22.129729 22.828330 0.025630 2.893561 0.030073 -0.022171 1423870.000000 0 1 0
-6.475522 -1.016623 -21.404529 22.385704 0.155724 2.844425 0.037347 -0.023111 614936.000000 0 1 0
-7.824922 -0.811123 -21.851629 23.224577 0.103290 2.796026 0.019882 -0.017135 913475.000000 0 1 0
-8.687722 -2.081623 -21.540029 23.319144 0.235172 2.748440 0.015408 -0.013921 89087.900000 0 1 0
-8.336422 -3.219423 -22.326129 24.048215 0.368543 2.760854 0.026277 -0.021273 135814.000000 0 1 0
-8.941522 -4.327223 -21.696729 23.862601 0.450723 2.712241 0.024807 -0.028280 -633825.000000 0 1 0
-9.902022 -5.181923 -22.533129 25.152420 0.482129 2.681167 0.038299 -0.038668 -139050.000000 0 0 1
-11.185222 -4.630023 -22.745229 25.766096 0.392466 2.652497 0.036285 -0.038517 -152653.000000 0 0 1
-11.928422 -5.425423 -23.653229 27.040667 0.426865 2.635671 0.036424 -0.046848 -129805.000000 0 0 1
-13.441222 -5.231823 -23.464829 27.543359 0.371194 2.590443 0.067134 -0.041956 -193895.000000 0 0 1
-14.000522 -3.993623 -23.924529 28.006191 0.277869 2.594919 0.055497 -0.042120 79298.400000 0 0 1
-15.387022 -4.150723 -24.162429 28.944981 0.263483 2.558513 0.048860 -0.038128 131452.000000 0 0 1
-16.044722 -2.817123 -24.493829 29.416270 0.173808 2.554695 0.038529 -0.029166 -502917.000000 0 0 1
-15.729322 -2.334923 -25.758589 30.271576 0.147368 2.588524 0.041955 -0.025870 148811.000000 0 0 1
-16.416822 -1.140623 -26.121109 30.872729 0.069367 2.579403 0.030744 -0.018509 317441.000000 0 0 1
-17.886022 -1.344023 -26.604989 32.086471 0.075003 2.548409 0.032731 -0.014960 -10087.400000 0 0 1
-18.091322 -1.882723 -27.870389 33.280612 0.103694 2.563372 0.039389 -0.025044 -164805.000000 0 0 1
-17.768722 -1.006823 -28.948109 33.981380 0.056602 2.590364 0.029153 -0.026239 -250590.000000 0 0 1
-17.765722 -1.738323 -30.302409 35.169285 0.097537 2.609241 0.042369 -0.025032 464354.000000 0 0 1
-19.061922 -2.116123 -30.764829 36.253407 0.110560 2.584139 0.041680 -0.028645 344609.000000 0 0 1
-19.190622 -2.815423 -32.019019 37.435600 0.145669 2.596944 0.049370 -0.031452 -684246.000000 0 0 1
-20.609022 -3.290923 -32.441049 38.574390 0.158347 2.569925 0.029032 -0.025908 403265.000000 0 0 1
-21.525422 -2.221423 -32.720279 39.228754 0.102836 2.557276 0.030111 -0.030717 324766.000000 0 0 1
-22.189522 -1.842223 -31.542239 38.609345 0.082832 2.526914 0.024669 -0.012492 -1297960.000000 0 0 1
-23.390322 -0.974423 -31.840969 39.520930 0.041635 2.507608 0.034805 -0.011765 -800326.000000 0 0 1
-23.014722 0.335077 -32.270099 39.637722 -0.014558 2.522019 0.041282 -0.016138 254584.000000 0 0 1
-24.079422 1.217877 -32.588919 40.538123 -0.050534 2.504633 0.042868 -0.016934 -94786.200000 0 0 1
-23.607322 2.439477 -33.357209 40.938491 -0.102970 2.523203 0.045809 -0.014279 -334345.000000 0 0 1
-22.919622 3.447977 -32.603079 40.001979 -0.149318 2.523589 0.040731 -0.014579 617196.000000 0 0 1
-23.702922 4.240577 -31.695379 39.804623 -0.177032 2.491907 0.034722 -0.014768 -279153.000000 0 0 1
-24.868922 5.109577 -32.195279 41.001305 -0.202640 2.473857 0.024637 -0.018174 46547.000000 0 0 1
-26.023452 4.359877 -32.521949 41.879658 -0.165995 2.459979 0.043600 -0.023442 -91297.700000 0 0 1
-27.021582 5.103277 -33.138189 43.062151 -0.186661 2.448922 0.063101 -0.030789 -337992.000000 0 0 1
-28.249502 4.292077 -33.570469 44.084381 -0.150781 2.436428 0.071349 -0.026909 -240831.000000 0 0 1
-27.980672 3.570377 33.516794 43.806861 -0.126916 0.699594 0.071634 -0.024244 289728.000000 0 0 1
-29.202432 3.011777 33.112874 44.252856 -0.102771 0.725353 0.079971 -0.026278 -251435.000000 0 0 1
-29.114872 1.462777 32.844453 43.915528 -0.050199 0.725902 0.077364 -0.005646 -89539.600000 0 0 1
-29.283962 0.619077 33.954538 44.842439 -0.021137 0.711786 0.073060 -0.000065 223001.000000 0 0 1
-29.386132 -0.725823 33.573887 44.623732 0.024694 0.719133 0.057847 0.007795 -824403.000000 0 0 1
-29.549092 -1.636223 -33.422999 44.642165 0.055317 2.416875 0.032129 0.020645 837596.000000 0 0 1
-28.323482 -2.083123 -32.768869 43.363092 0.073415 2.427497 0.047837 0.009487 1429730.000000 0 0 1
-27.521592 -0.972723 -32.340309 42.476815 0.035329 2.436210 0.041402 0.006696 -727597.000000 0 0 1
-27.670052 -0.570423 -30.846749 41.442479 0.020612 2.410323 0.056583 0.003206 90235.500000 0 0 1
-26.728042 -1.234023 -29.987789 40.189283 0.046137 2.413078 0.046945 -0.002395 766821.000000 0 0 1
-26.954022 -0.768623 -28.667539 39.356548 0.028508 2.386789 0.055980 -0.008414 -513456.000000 0 0 1
-25.884352 -1.222823 -27.702939 37.933465 0.047207 2.389562 0.052514 -0.010737 -473404.000000 0 0 1
-25.804712 -2.607023 -27.544609 37.833652 0.100687 2.386262 0.036487 0.004130 33177.100000 0 0 1
-24.772922 -2.878923 -26.635449 36.488806 0.115694 2.389063 0.054309 -0.003947 -258096.000000 0 0 1
-24.870522 -4.233023 -26.018759 36.241373 0.168587 2.371620 0.053419 -0.004641 -257904.000000 0 0 1
-26.000252 -4.367423 -25.212959 36.479868 0.166423 2.333872 0.061668 -0.000717 -389247.000000 0 0 1
-25.923172 -5.496623 -24.382429 36.010089 0.208941 2.314611 0.078037 -0.009668 -93174.300000 0 0 1
-27.169202 -5.557323 -23.491929 36.344464 0.201762 2.273612 0.087785 -0.018149 -172638.000000 0 0 1
-27.248032 -6.501323 -22.481529 35.918541 0.234219 2.247085 0.107721 -0.021581 236739.000000 0 0 1
-28.494072 -6.356623 -21.802029 36.436894 0.219492 2.212237 0.113630 -0.019388 278121.000000 0 0 1
-28.863232 -7.517823 -20.890129 36.414301 0.254802 2.181787 0.129495 -0.024141 247345.000000 0 0 1
-28.070812 -7.652423 -19.681529 35.126808 0.266144 2.165544 0.131380 -0.025893 610728.000000 0 0 1
-28.650812 -8.661823 -18.885429 35.391462 0.293587 2.133666 0.128981 -0.018633 296668.000000 0 0 1
-29.559262 -8.129323 -17.771429 35.435286 0.268383 2.096149 0.118803 -0.026816 335624.000000 0 0 1
-28.716032 -7.696823 -16.714729 34.106212 0.261877 2.082976 0.109064 -0.032727 421649.000000 0 0 1
-29.462662 -7.011423 -15.757629 34.139586 0.233631 2.050555 0.106738 -0.033004 -165625.000000 0 0 1
-28.591722 -6.285723 -14.688629 32.752903 0.216402 2.035847 0.101560 -0.027219 84790.200000 0 0 1
-27.841902 -5.265323 -15.305629 32.204928 0.186908 2.066053 0.105149 -0.020399 287969.000000 0 0 1
-26.874532 -4.711523 -14.438329 30.869147 0.173552 2.057514 0.104699 -0.032913 -9448.440000 0 0 1
-14.070322 21.357877 -5.077929 26.075242 -0.988268 1.766790 0.070445 -0.031949 -84367.900000 0 0 1
-14.241222 20.697177 -6.317229 25.905461 -0.968118 1.817137 0.099691 -0.039093 165469.000000 0 0 1
-14.952022 19.477377 -6.091529 25.298971 -0.916088 1.813967 0.074156 -0.043579 -12241.200000 0 0 1
-15.316022 18.628477 -7.351929 25.212131 -0.882675 1.866698 0.101614 -0.052021 410044.000000 0 0 1
-14.173622 18.018177 -8.016429 24.285992 -0.904262 1.907189 0.087681 -0.046240 570009.000000 0 1 0
-14.466522 17.068977 -9.022029 24.125241 -0.867736 1.954078 0.078368 -0.050295 -477393.000000 0 1 0
-15.017322 15.662477 -8.602629 23.341773 -0.806424 1.948246 0.078214 -0.051602 934695.000000 0 1 0
-16.419622 15.881577 -8.338629 24.317920 -0.768743 1.920799 0.087714 -0.033020 587191.000000 0 1 0
-16.779722 15.161177 -7.196629 23.732084 -0.734768 1.878892 0.094278 -0.016671 93983.000000 0 1 0
-18.260922 15.393577 -6.821229 24.838532 -0.700404 1.848994 0.095087 -0.014116 13802.400000 0 1 0
-19.176122 14.769777 -7.640329 25.381974 -0.656315 1.876552 0.094945 -0.021836 -390272.000000 0 0 1
-20.476022 15.325077 -7.607329 26.683270 -0.642502 1.859904 0.074891 -0.022950 680615.000000 0 0 1
-21.521322 14.609577 -8.533729 27.375748 -0.596384 1.887805 0.075909 -0.015111 263958.000000 0 0 1
-21.708722 13.270177 -8.197129 26.731239 -0.548675 1.882468 0.100449 -0.016958 68807.400000 0 0 1
-22.459122 12.469477 -9.091629 27.249913 -0.506833 1.910957 0.109516 -0.018294 96762.300000 0 0 1
-22.781122 11.065077 -8.666929 26.768099 -0.452152 1.900516 0.112132 -0.023715 152319.000000 0 0 1
-21.622122 10.249677 -8.586829 25.422543 -0.442662 1.915337 0.103701 -0.028473 133036.000000 0 0 1
-21.918422 9.102777 -7.881229 25.007830 -0.393628 1.891412 0.125113 -0.037848 -299425.000000 0 0 1
-20.744122 8.175577 -7.551029 23.540958 -0.375423 1.897329 0.081134 -0.016678 -783893.000000 0 1 0
-20.397822 7.226877 -8.489229 23.245772 -0.340497 1.944638 0.074774 -0.020366 -43705.700000 0 1 0
-19.691522 6.212377 -7.891929 22.105027 -0.305602 1.935872 0.067431 -0.009716 -471155.000000 0 1 0
-19.402822 4.946677 -8.758129 21.855066 -0.249629 1.983117 0.057116 -0.013675 684469.000000 0 1 0
-20.601122 4.109477 -8.809729 22.779494 -0.196894 1.967890 0.085372 -0.013311 1701290.000000 0 1 0
-20.480222 3.184877 -9.897229 22.968197 -0.154274 2.016297 0.084508 -0.009635 -143343.000000 0 1 0
-21.262822 1.877277 -9.776729 23.477994 -0.088061 2.000301 0.080532 -0.013932 -65771.400000 0 1 0
-20.897622 1.209577 -8.558029 22.614454 -0.057817 1.958898 0.077295 -0.021190 253634.000000 0 1 0
-21.751922 0.144677 -8.219429 23.253517 -0.006651 1.932075 0.085659 -0.020841 -373950.000000 0 1 0
-21.742022 -1.118923 -9.126629 23.606416 0.051418 1.967756 0.079355 -0.031504 -307484.000000 0 1 0
-20.559022 -1.847323 -8.953829 22.500156 0.089614 1.980072 0.060996 -0.020027 -32726.700000 0 1 0
-20.539822 -3.206923 -9.328329 22.785661 0.154882 1.992587 0.054352 -0.014673 247875.000000 0 1 0
-21.608822 -4.153223 -8.653829 23.644855 0.189885 1.945495 0.074465 -0.016304 549890.000000 0 1 0
-21.378822 -4.289023 -7.257229 22.980799 0.197992 1.892091 0.066608 -0.016009 929647.000000 0 1 0
-22.455722 -5.021123 -6.650129 23.951938 0.219982 1.852138 0.084187 -0.014581 172686.000000 0 1 0
-22.395022 -6.596323 -6.899429 24.344416 0.286444 1.858143 0.097158 -0.026167 -455719.000000 0 1 0
-21.443522 -7.372423 -6.215729 23.511966 0.331147 1.838341 0.090859 -0.024633 174508.000000 0 1 0
-21.610722 -8.776623 -6.196229 24.133911 0.385774 1.830448 0.095241 -0.024736 -913189.000000 0 1 0
-20.479622 -9.547823 -5.548229 23.267116 0.436253 1.811574 0.089160 -0.024106 -236337.000000 0 1 0
-19.356822 -9.729523 -6.399829 22.589997 0.465758 1.858033 0.083675 -0.016711 794929.000000 0 1 0
-18.597022 -10.898623 -6.036229 22.384487 0.530093 1.843838 0.089365 -0.001043 -253725.000000 0 1 0
-17.715322 -11.522623 -7.094129 22.291930 0.576679 1.894666 0.062547 -0.002071 -75755.600000 0 1 0
-16.617922 -10.624623 -7.312629 21.035980 0.568850 1.925833 0.059215 -0.033470 522919.000000 0 1 0
-16.472922 -10.201523 -8.646229 21.217575 0.554483 1.990515 0.045018 -0.034262 144870.000000 0 1 0
-15.203422 -10.794123 -9.334929 20.851811 0.617392 2.034965 0.028217 -0.030591 353963.000000 0 1 0
-15.416122 -12.100023 -9.772129 21.898901 0.665462 2.033354 0.042933 -0.033034 947242.000000 0 1 0
-14.346122 -12.453923 -10.679329 21.793565 0.714911 2.082911 0.045736 -0.026681 396445.000000 0 1 0
-14.592922 -13.840223 -11.260429 23.049997 0.758932 2.081191 0.046984 -0.021668 470033.000000 0 1 0
-15.484122 -13.789323 -12.397629 24.157911 0.727567 2.109695 0.052954 -0.014450 387780.000000 0 1 0
-15.660122 -15.031023 -13.038429 25.321368 0.764903 2.111708 0.039149 -0.008219 -74236.100000 0 0 1
-16.240022 -14.913823 -14.454429 26.364577 0.742854 2.151069 0.037621 -0.003447 -121934.000000 0 0 1
-16.386422 -16.194623 -15.074529 27.532200 0.779511 2.150198 0.026173 0.005642 344543.000000 0 0 1
-16.824922 -15.915423 -16.437229 28.400020 0.757626 2.188022 0.027691 0.002278 -86754.400000 0 0 1
-17.049222 -17.180523 -17.270729 29.734229 0.789234 2.190552 0.025064 -0.006225 -147711.000000 0 0 1
-18.305922 -17.735323 -16.950829 30.610113 0.769568 2.157676 0.033099 -0.003058 -87253.500000 0 0 1
-19.098222 -17.907723 -18.138529 31.850194 0.753239 2.176688 0.024676 -0.002130 235096.000000 0 0 1
-20.620322 -17.745723 -17.931829 32.583106 0.710612 2.153569 0.020123 -0.012215 149939.000000 0 0 1
-21.030722 -16.439523 -17.450629 31.891591 0.663477 2.149795 0.057727 -0.013320 394002.000000 0 0 1
-20.855622 -16.257523 -16.030029 30.922901 0.662132 2.115760 0.044917 -0.012020 -574667.000000 0 0 1
-21.114422 -14.905023 -15.464129 30.118396 0.614686 2.109990 0.080853 -0.022661 -283734.000000 0 0 1
-22.460122 -14.563823 -15.243729 30.804760 0.575271 2.088458 0.092793 -0.023435 166804.000000 0 0 1
-22.509822 -13.208023 -14.947829 30.076262 0.530633 2.090932 0.106445 -0.025079 1309510.000000 0 0 1
-24.001622 -12.686723 -14.698129 30.871763 0.486248 2.067014 0.114311 -0.033096 1372250.000000 0 0 1
-24.539122 -13.097523 -13.453629 30.898442 0.490274 2.021295 0.120818 -0.031178 149180.000000 0 0 1
-25.401562 -12.205023 -12.833529 30.966133 0.447913 1.998121 0.120358 -0.033942 -279247.000000 0 0 1
-26.026552 -12.699923 -11.502229 31.160403 0.453969 1.948869 0.108913 -0.033647 812369.000000 0 0 1
-27.133482 -11.875523 -11.044129 31.610547 0.412553 1.927707 0.098755 -0.032430 1067760.000000 0 0 1
-27.758092 -12.459023 -9.932429 32.006125 0.421891 1.886335 0.089936 -0.027358 -30673.300000 0 0 1
-28.735262 -11.561323 -9.173629 32.303791 0.382521 1.858739 0.081944 -0.024359 -606830.000000 0 0 1
-28.060762 -10.575423 -8.540329 31.179851 0.360414 1.848248 0.098808 -0.027468 -394831.000000 0 0 1
-28.856742 -9.505523 -8.069229 31.435314 0.318210 1.830395 0.106582 -0.023622 57417.500000 0 0 1
-28.042632 -8.307123 -7.419329 30.173563 0.287996 1.819232 0.109585 -0.018084 139132.000000 0 0 1
-27.525822 -8.727123 -6.180429 29.530175 0.307027 1.781647 0.111486 -0.021198 -183757.000000 0 0 1
-26.793202 -7.730623 -5.515629 28.426402 0.280900 1.766067 0.104407 -0.017831 -11866.300000 0 0 1
-27.597542 -6.527223 -4.852729 28.771130 0.232247 1.740273 0.118448 -0.021201 -140626.000000 0 0 1
-28.487972 -6.809423 -3.794229 29.535215 0.234626 1.699617 0.126316 -0.021340 323996.000000 0 0 1
-27.892262 -7.245123 -2.548929 28.930384 0.254137 1.659016 0.116356 -0.019770 -258692.000000 0 0 1
-27.087562 -6.193923 -1.776929 27.843458 0.224798 1.634658 0.113861 -0.020552 104046.000000 0 0 1
-27.908352 -5.076823 -1.486729 28.405292 0.179943 1.623160 0.129390 -0.023584 698384.000000 0 0 1
-27.147092 -4.128523 -0.739529 27.469186 0.150923 1.597722 0.128862 -0.032199 346022.000000 0 0 1
-28.121432 -2.984123 -0.375929 28.281818 0.105720 1.584089 0.140973 -0.037490 526058.000000 0 0 1
-29.059042 -3.230823 0.686371 29.246149 0.110727 1.547325 0.136941 -0.036173 178692.000000 0 0 1
-28.544882 -3.498423 2.007471 28.828444 0.121951 1.501105 0.129774 -0.034044 108834.000000 0 0 1
-29.572382 -3.818323 3.164071 29.985275 0.128407 1.465079 0.115447 -0.032517 149007.000000 0 0 1
-30.376162 -4.944923 3.035871 30.925394 0.161374 1.472470 0.117196 -0.028722 -54867.900000 0 0 1
-31.057152 -5.133823 4.271771 31.767135 0.163821 1.435916 0.114093 -0.032214 200206.000000 0 0 1
-31.972392 -6.370923 4.346971 32.889492 0.196687 1.438239 0.107530 -0.026645 -62763.800000 0 0 1
-31.183962 -7.547923 4.419071 32.387325 0.237478 1.433925 0.096317 -0.021058 206378.000000 0 0 1
-31.866232 -8.780623 4.248571 33.325762 0.268874 1.442962 0.100284 -0.021753 -437213.000000 0 0 1
-31.019832 -9.986423 4.604471 32.911393 0.311459 1.430431 0.086059 -0.022002 -167413.000000 0 0 1
-30.721632 -10.026423 5.994971 32.867727 0.315465 1.387373 0.076818 -0.026879 647127.000000 0 0 1
-29.612222 -10.875423 6.318871 32.172762 0.351969 1.373107 0.064949 -0.022592 271505.000000 0 0 1
-29.704942 -11.417223 7.754471 32.754669 0.366946 1.331783 0.060756 -0.025428 -123844.000000 0 0 1
-29.549612 -10.348723 8.647771 32.481681 0.336867 1.301311 0.080195 -0.021824 415598.000000 0 0 1
-29.566102 -10.715823 9.992471 32.997465 0.347711 1.263140 0.091363 -0.025750 -326630.000000 0 0 1
-29.666222 -9.478923 10.896671 32.995032 0.309267 1.234226 0.097107 -0.028971 -21276.800000 0 0 1
-28.453102 -8.741623 10.893171 31.696311 0.298076 1.219971 0.096077 -0.025888 376626.000000 0 0 1
-28.564242 -7.614123 11.763171 31.816080 0.260504 1.192084 0.118460 -0.029327 507644.000000 0 0 1
-27.564892 -6.412623 11.491071 30.544880 0.228572 1.185102 0.121390 -0.028675 406631.000000 0 0 1
-27.830472 -5.738623 10.267271 30.213967 0.203349 1.224072 0.122167 -0.030322 314035.000000 0 0 1
-27.306472 -4.413023 10.299571 29.516086 0.160226 1.214348 0.112052 -0.033965 -70518.700000 0 0 1
-27.390692 -3.733623 8.832371 29.020695 0.135475 1.261543 0.126959 -0.033372 -130889.000000 0 0 1
-26.435232 -4.219423 7.945471 27.924103 0.158278 1.282272 0.100749 -0.027669 28847.100000 0 0 1
-26.692122 -3.540123 6.693471 27.745349 0.131858 1.327146 0.114144 -0.038393 -36677.500000 0 0 1
-25.803612 -4.167523 5.597671 26.730667 0.160127 1.359825 0.100586 -0.025185 -268881.000000 0 0 1
-24.445222 -3.879523 5.799471 25.421515 0.157390 1.340637 0.102134 -0.036460 119852.000000 0 0 1
-23.627522 -4.298723 4.738071 24.478320 0.179969 1.376005 0.096764 -0.020037 1494260.000000 0 1 0
-22.153422 -3.672823 4.675071 22.937306 0.164296 1.365539 0.082793 -0.017888 1601880.000000 0 1 0
-22.196422 -2.321523 4.461871 22.759150 0.104211 1.373471 0.079942 -0.019046 1298450.000000 0 1 0
-20.843122 -1.820423 4.524571 21.406107 0.087118 1.357822 0.055937 -0.018211 545164.000000 0 1 0
-20.687922 -0.264623 4.700971 21.216957 0.012790 1.347376 0.055626 -0.025760 -471507.000000 0 1 0
-21.024022 0.663677 3.681171 21.354180 -0.031557 1.397544 0.072572 -0.027403 633487.000000 0 1 0
-22.386622 0.769677 3.327071 22.645588 -0.034368 1.423343 0.082235 -0.036533 -290095.000000 0 1 0
-22.618422 1.807477 2.216571 22.798534 -0.079742 1.473418 0.116620 -0.018745 -292193.000000 0 1 0
-22.326122 3.104277 2.635771 22.694483 -0.138157 1.454392 0.116675 -0.022571 191688.000000 0 1 0
-22.513122 4.046277 1.623371 22.931384 -0.177831 1.499945 0.136567 -0.014962 449911.000000 0 1 0
-21.192122 4.236777 0.806771 21.626539 -0.197321 1.533483 0.106535 -0.005192 187856.000000 0 1 0
-21.216822 4.933477 -0.466429 21.787847 -0.228467 1.592206 0.108477 0.003942 -230895.000000 0 1 0
-22.075822 4.424677 -1.421329 22.559695 -0.197810 1.633841 0.127664 -0.012673 -647070.000000 0 1 0
-21.601522 3.227577 -2.264729 21.958415 -0.148317 1.674117 0.115336 -0.007253 -202038.000000 0 1 0
-21.415322 2.103177 -1.421729 21.565266 -0.097895 1.636771 0.072750 -0.001586 385006.000000 0 1 0
-20.736822 1.107877 -2.147729 20.877162 -0.053375 1.673853 0.050153 -0.001863 -577872.000000 0 1 0
-19.920422 0.202977 -1.223529 19.958994 -0.010189 1.632137 0.047869 -0.000766 -583391.000000 0 1 0
-20.641422 -0.595423 -0.293029 20.652087 0.028838 1.584986 0.055456 -0.006808 571053.000000 0 1 0
-19.881022 -1.314623 0.709171 19.937056 0.066028 1.535218 0.047080 -0.009211 -209615.000000 0 1 0
-19.222022 -2.654323 0.293671 19.406643 0.137220 1.555663 0.028111 -0.005902 -67893.400000 0 1 0
-18.608922 -3.351823 1.390771 18.959455 0.178208 1.497375 0.034513 -0.003100 769037.000000 0 1 0
-17.799022 -4.429523 0.925771 18.365263 0.243909 1.520366 0.019577 -0.000614 27573.000000 0 1 0
-18.579622 -5.719023 0.512371 19.446647 0.298608 1.544446 0.013777 -0.001487 -73572.700000 0 1 0
-19.222422 -6.212223 1.675071 20.270646 0.312581 1.488067 0.034380 -0.002181 740714.000000 0 1 0
-20.255722 -7.158923 1.397971 21.529021 0.339725 1.505816 0.044227 -0.009109 -48233.200000 0 1 0
-20.916022 -7.608623 2.753071 22.426558 0.348889 1.447726 0.051180 -0.007201 198783.000000 0 1 0
-20.075622 -8.402923 3.655771 22.068175 0.396406 1.404371 0.041961 -0.003973 879332.000000 0 1 0
-20.708622 -8.699123 4.847471 22.978680 0.397690 1.358244 0.034135 -0.008974 -502153.000000 0 1 0
-19.886622 -9.630323 5.727371 22.825942 0.450978 1.317171 0.040380 -0.003423 -419602.000000 0 1 0
-19.691922 -10.944023 5.219371 23.125424 0.507256 1.343136 0.057863 -0.000615 -182659.000000 0 1 0
-18.541022 -11.501723 5.758071 22.565782 0.555241 1.312775 0.057996 -0.005558 -532693.000000 0 1 0
-18.124722 -12.863523 5.143071 22.812868 0.617221 1.343395 0.054297 -0.003196 -267967.000000 0 1 0
-19.015022 -13.924423 5.478071 24.196485 0.632067 1.342417 0.068012 -0.002762 232920.000000 0 1 0
-18.725622 -15.124123 4.816371 24.547616 0.679400 1.373310 0.073306 0.000908 -225055.000000 0 1 0
-19.254822 -16.401323 5.453571 25.874563 0.705540 1.358434 0.075049 -0.004688 -79037.300000 0 0 1
-18.586022 -17.509123 4.956471 26.011078 0.755572 1.379072 0.075373 -0.003080 -155769.000000 0 0 1
-19.150122 -18.624323 5.493171 27.272101 0.771480 1.367988 0.071856 -0.004015 -209116.000000 0 0 1
-18.191822 -19.814623 5.405471 27.436851 0.828070 1.372484 0.081273 -0.013614 -467886.000000 0 0 1
-18.099322 -20.252523 4.074571 27.465474 0.841483 1.421894 0.083055 -0.011471 391119.000000 0 0 1
-17.408822 -21.521423 3.843171 27.946532 0.890648 1.432840 0.074248 -0.012512 1172370.000000 0 0 1
-15.846922 -21.371623 3.902671 26.890557 0.932762 1.425150 0.069067 -0.012298 128749.000000 0 0 1
-15.116622 -22.530023 3.927671 27.414244 0.979831 1.427030 0.057585 -0.011931 -1101280.000000 0 0 1
-13.765622 -22.180723 3.998271 26.409524 1.015359 1.418817 0.052510 -0.009617 -570234.000000 0 0 1
-12.851722 -23.398123 4.179171 27.020444 1.068519 1.415506 0.062346 -0.018321 -399834.000000 0 0 1
-12.893122 -24.236923 3.078471 27.624952 1.081907 1.459126 0.060163 -0.016313 147327.000000 0 0 1
-12.246422 -25.469603 3.361471 28.460060 1.122606 1.452408 0.065842 -0.026936 -222146.000000 0 0 1
19.120278 19.482977 -24.998429 37.014766 0.794793 2.312254 0.070833 0.004969 -1510440.000000 0 0 1
18.115778 19.555577 -25.855619 37.136438 0.823600 2.340933 0.044331 -0.003013 -1448110.000000 0 0 1
18.400078 19.161477 -27.185639 38.010315 0.805666 2.367731 0.066247 -0.004012 -227801.000000 0 0 1
17.195178 19.458077 -28.081579 38.247431 0.847058 2.395296 0.042490 -0.006543 -348274.000000 0 0 1
16.949678 20.801177 -28.301639 38.999530 0.887071 2.382836 0.042501 0.001301 -534023.000000 0 0 1
15.848778 20.962777 -29.098559 39.209029 0.923438 2.407053 0.024714 -0.002949 -1473000.000000 0 0 1
15.698378 22.391777 -29.645749 40.332384 0.959347 2.396516 0.039810 -0.009640 -392149.000000 0 0 1
15.398578 23.261077 -28.572679 39.932341 0.986039 2.368175 0.042067 -0.015457 400679.000000 0 0 1
15.188378 24.600677 -29.023729 40.966535 1.017683 2.358130 0.047942 -0.020567 -546101.000000 0 0 1
14.526478 25.504777 -27.975729 40.548164 1.053061 2.332200 0.050713 -0.020643 257394.000000 0 0 1
13.163578 25.087877 -27.856389 39.732352 1.087586 2.347737 0.050039 -0.029142 151603.000000 0 0 1
12.481978 25.889277 -26.943069 39.395221 1.121547 2.323915 0.050785 -0.022572 -160799.000000 0 0 1
11.091478 25.305677 -26.528059 38.303213 1.157715 2.335857 0.079352 -0.036565 918849.000000 0 0 1
10.361478 26.007777 -25.505279 37.871942 1.191671 2.309677 0.073002 -0.039616 234595.000000 0 0 1
9.681678 27.144977 -26.023949 38.830794 1.228196 2.305259 0.090572 -0.053763 -563150.000000 0 0 1
9.153278 28.063877 -24.934529 38.640580 1.255517 2.272204 0.085271 -0.049918 -436496.000000 0 0 1
10.133978 28.759377 -24.202629 38.930278 1.232011 2.241697 0.067873 -0.035156 -4865.390000 0 0 1
9.595978 29.728477 -23.305329 38.974396 1.258567 2.211756 0.069889 -0.028979 -356180.000000 0 0 1
10.546178 30.023077 -22.153929 38.773749 1.232991 2.178963 0.047110 -0.019323 -47010.300000 0 0 1
11.622678 30.875277 -22.489829 39.926956 1.210764 2.169140 0.043449 -0.024754 588863.000000 0 0 1
12.398478 31.281977 -21.326929 39.838703 1.193444 2.135697 0.020511 -0.011143 32125.900000 0 0 1
13.675478 32.045977 -21.645629 41.018247 1.167448 2.126696 0.028672 -0.005761 -274660.000000 0 0 1
14.735578 31.272977 -22.158629 41.062650 1.130460 2.140794 0.033877 -0.011727 -767736.000000 0 0 1
15.644578 32.077977 -22.800929 42.351290 1.117033 2.139305 0.032829 -0.011708 -445283.000000 0 0 1
16.854278 31.295277 -23.389629 42.550391 1.076781 2.152792 0.018870 -0.002160 360368.000000 0 0 1
17.808678 31.023377 -22.368929 42.189666 1.049683 2.129632 0.018844 0.010431 53246.900000 0 0 1
18.938678 30.424977 -22.973629 42.569242 1.014017 2.140849 0.019461 0.006601 -99404.800000 0 0 1
19.991778 29.768177 -22.090229 42.116431 0.979398 2.122929 0.024305 0.009649 -155159.000000 0 0 1
20.779478 30.578977 -21.269329 42.652607 0.973938 2.092853 0.022141 0.009431 29598.500000 0 0 1
21.730578 29.808977 -20.572429 42.237637 0.940875 2.079521 0.038654 0.018932 140751.000000 0 0 1
22.303378 30.544877 -19.319829 42.469824 0.940099 2.043064 0.039520 0.001335 141128.000000 0 0 1
23.301178 31.508277 -19.617929 43.824418 0.934033 2.034930 0.059116 0.000535 310196.000000 0 0 1
23.930778 32.014677 -18.442129 44.019698 0.928901 2.003087 0.057639 -0.001753 -46856.200000 0 0 1
25.191678 32.869077 -18.726829 45.449874 0.916866 1.995480 0.075461 -0.001607 -164934.000000 0 0 1
26.281178 32.048277 -18.971929 45.582085 0.883949 2.000075 0.076787 -0.001759 -1100780.000000 0 0 1
27.516178 32.682477 -18.825929 46.687257 0.871009 1.985845 0.073697 -0.007074 181449.000000 0 0 1
28.733778 31.825077 -19.274229 47.010227 0.836400 1.993251 0.087500 -0.012335 367277.000000 0 0 1
29.047078 30.755177 -18.376829 46.122896 0.813953 1.980603 0.065082 -0.006421 172606.000000 0 0 1
30.276378 30.181177 -18.814029 46.706854 0.783823 1.985382 0.043932 -0.003251 345405.000000 0 0 1
30.869478 29.113677 -17.881829 46.046614 0.756135 1.969628 0.027542 -0.008565 -235611.000000 0 0 1
31.411978 29.565077 -16.665529 46.244416 0.755119 1.939471 0.021595 -0.002173 34605.100000 0 0 1
31.356378 28.572077 -15.687429 45.229210 0.738971 1.924999 0.015961 -0.007590 -449419.000000 0 0 1
31.621278 29.114577 -14.269329 45.289928 0.744149 1.891323 0.024407 -0.013406 810713.000000 0 0 1
32.968378 29.506577 -13.956729 46.393344 0.730044 1.876364 0.040778 -0.010252 537360.000000 0 0 1
33.419278 30.707777 -14.536629 47.656367 0.743140 1.880766 0.033108 -0.004085 306067.000000 0 0 1
34.965378 30.889177 -14.612029 48.889982 0.723580 1.874311 0.048277 -0.007413 803469.000000 0 0 1
35.612478 31.084677 -13.365229 49.123672 0.717616 1.846343 0.052287 -0.012819 2128.260000 0 0 1
-36.005960 31.364577 -13.525629 49.629714 -0.716613 1.846819 0.046445 -0.014687 685808.000000 0 0 1
-35.255060 31.597377 -12.157429 48.878590 -0.730740 1.822162 0.053345 -0.013161 145734.000000 0 0 1
-35.643160 32.904177 -11.633829 49.884523 -0.745462 1.806179 0.068008 -0.018344 99690.900000 0 0 1
-34.835060 33.384577 -10.603729 49.400915 -0.764139 1.787126 0.054268 -0.012091 -522898.000000 0 0 1
-35.416960 -33.657064 -9.854229 49.842399 0.759925 1.769815 0.054912 -0.007582 -226563.000000 0 0 1
-34.507560 -32.848464 -9.135629 48.510339 0.760771 1.760251 0.049706 -0.006376 -71295.700000 0 0 1
-34.283360 -33.337264 -7.772929 48.447294 0.771408 1.731934 0.050346 -0.004409 332647.000000 0 0 1
-33.926060 -32.276064 -6.696629 47.302924 0.760480 1.712843 0.052411 -0.021271 76630.700000 0 0 1
-35.097360 -31.526264 -6.394429 47.609019 0.731848 1.705515 0.058070 -0.009671 131118.000000 0 0 1
-34.907360 -30.568764 -5.398029 46.713079 0.719233 1.686612 0.077558 -0.009239 -798516.000000 0 0 1
-36.213860 -29.873264 -5.107129 47.222222 0.689748 1.679159 0.064642 -0.011258 -833153.000000 0 0 1
36.003678 -30.735964 -4.340829 47.537428 -0.706632 1.662238 0.048672 -0.008177 -408142.000000 0 0 1
34.719478 -30.268764 -4.011929 46.235655 -0.717020 1.657677 0.040849 0.001486 -227075.000000 0 0 1
34.412578 -29.487264 -2.690029 45.397803 -0.708472 1.630086 0.032294 -0.000002 -124242.000000 0 0 1
35.082778 -28.244564 -2.670429 45.118598 -0.677833 1.630018 0.056248 -0.010522 517760.000000 0 0 1
34.148378 -27.355764 -2.102129 43.804891 -0.675402 1.618803 0.056069 -0.007406 86824.100000 0 0 1
34.475978 -25.855164 -2.285529 43.154446 -0.643467 1.623783 0.089963 -0.029651 -287380.000000 0 0 1
34.214678 -25.494664 -3.609929 42.821182 -0.640382 1.655199 0.078579 -0.030779 351855.000000 0 0 1
34.265878 -24.069364 -3.739929 42.041310 -0.612355 1.659873 0.072905 -0.033725 -315085.000000 0 0 1
33.898578 -23.644764 -5.174629 41.652914 -0.609056 1.695350 0.075889 -0.029081 -782728.000000 0 0 1
34.998178 -23.657164 -6.019029 42.670395 -0.594405 1.712327 0.086408 -0.028318 -534921.000000 0 0 1
34.632478 -23.392164 -7.320429 42.428652 -0.594052 1.744199 0.072004 -0.029828 -130327.000000 0 0 1
35.801678 -23.271364 -8.338829 43.506926 -0.576381 1.763656 0.085236 -0.025543 161766.000000 0 0 1
-36.432260 -24.462164 -8.539629 44.706065 0.591302 1.762995 0.076369 -0.016551 884571.000000 0 0 1
-35.330660 -24.199064 -9.443229 43.852306 0.600541 1.787838 0.097775 -0.010045 1063820.000000 0 0 1
-34.742560 -25.420864 -10.252529 44.253589 0.631681 1.804597 0.098395 -0.009507 105984.000000 0 0 1
-33.970060 -26.378964 -9.566729 44.060606 0.660269 1.789666 0.090144 -0.010938 236696.000000 0 0 1
-34.729560 -27.399764 -8.926929 45.128477 0.667965 1.769921 0.083497 -0.010627 -280443.000000 0 0 1
-33.850760 -28.515864 -8.396829 45.050362 0.700065 1.758280 0.073213 -0.008868 -478359.000000 0 0 1
-33.139960 -29.079664 -9.459729 45.092907 0.720233 1.782149 0.063858 -0.009397 15508.700000 0 0 1
-32.376060 -30.197864 -9.032129 45.185170 0.750602 1.772043 0.039365 -0.014773 -103135.000000 0 0 1
-31.939460 -31.137564 -10.189329 45.754774 0.772686 1.795374 0.025477 -0.007757 78021.500000 0 0 1
-30.856960 -30.587464 -10.935229 44.803171 0.781012 1.817360 0.002189 0.005035 246248.000000 0 0 1
-30.734860 -31.366064 -12.115129 45.554779 0.795562 1.839982 -0.011327 0.002590 -262438.000000 0 0 1
-30.895760 -30.615664 -13.408829 45.515530 0.780845 1.869832 -0.008953 0.007144 -184524.000000 0 0 1
-29.879160 -29.656364 -13.688329 44.267758 0.781656 1.885166 -0.014372 0.009406 -22994.500000 0 0 1
-30.202560 -28.831964 -14.784029 44.294969 0.762185 1.911089 -0.012238 0.010563 63850.600000 0 0 1
-29.103960 -27.788764 -15.134129 42.991833 0.762285 1.930528 -0.004275 0.004404 260429.000000 0 0 1
-27.918660 -28.356964 -15.659829 42.764462 0.793187 1.945705 0.002432 0.000284 -198987.000000 0 0 1
-27.065360 -27.338664 -16.131229 41.715138 0.790422 1.967846 0.011195 0.010683 -139091.000000 0 0 1
-25.825160 -27.980964 -16.798829 41.618191 0.825443 1.986290 0.032240 0.003226 -486245.000000 0 0 1
-26.036660 -28.851564 -17.956629 42.810757 0.836638 2.003627 0.027008 0.004818 -76150.800000 0 0 1
-26.157460 -28.151464 -19.213029 42.963450 0.822098 2.034423 0.017746 0.010967 497979.000000 0 0 1
-24.828960 -27.461964 -19.695629 41.935122 0.835709 2.059712 0.027611 0.002834 670338.000000 0 0 1
-24.412660 -26.356764 -18.875329 40.582447 0.823672 2.054556 0.029874 0.006548 -123156.000000 0 0 1
-23.003360 -26.232764 -18.867829 39.664939 0.850894 2.066534 0.033734 -0.008253 -12896.800000 0 0 1
-22.658660 -25.071664 -17.950029 38.264954 0.835910 2.059066 0.039400 -0.004741 -381507.000000 0 0 1
-22.849560 -25.388464 -16.604429 37.978724 0.837982 2.023283 0.050168 -0.005803 76943.900000 0 0 1
-22.280460 -24.399664 -15.834029 36.639854 0.830765 2.017675 0.047651 -0.007128 -187863.000000 0 0 1
-22.776160 -24.459164 -14.374329 36.381664 0.821013 1.976971 0.039167 -0.003243 59261.800000 0 0 1
-24.106460 -24.011064 -14.202029 36.869367 0.783416 1.966219 0.017943 0.011115 119598.000000 0 0 1
-24.368560 -24.008664 -12.811929 36.529278 0.777959 1.929147 0.019289 0.009572 -187203.000000 0 0 1
-25.863160 -23.910364 -12.457029 37.360221 0.746185 1.910736 0.015849 0.016780 -493889.000000 0 0 1
-26.552860 -25.143864 -12.655029 38.696485 0.758150 1.903959 0.017526 0.010097 1144180.000000 0 0 1
-27.880660 -25.286364 -12.110729 39.539867 0.736642 1.882091 0.009063 0.014759 600738.000000 0 0 1
-29.004560 -24.449164 -12.798029 40.035180 0.700382 1.896177 0.028310 0.009844 -1274820.000000 0 0 1
-29.090460 -23.081664 -12.395029 39.149135 0.670731 1.892950 0.037664 0.009466 532354.000000 0 0 1
-29.793160 -22.951964 -11.147329 39.226113 0.656415 1.858949 0.055031 0.007830 -99148.100000 0 0 1
-31.238260 -23.483264 -10.953429 40.586576 0.644618 1.844063 0.047780 0.004491 -321659.000000 0 0 1
-32.290260 -22.637964 -11.370629 41.041801 0.611449 1.851519 0.079287 0.000691 138951.000000 0 0 1
-32.627560 -22.736964 -12.745429 41.760904 0.608618 1.880945 0.077876 0.003061 58909.100000 0 0 1
-34.102360 -22.395864 -13.106129 42.852261 0.581088 1.881622 0.058735 -0.012981 1041300.000000 0 0 1
-35.093260 -23.408364 -12.866529 44.102561 0.588256 1.866843 0.069933 -0.003415 1778370.000000 0 0 1
-36.422560 -23.050064 -13.327129 45.116745 0.564225 1.870662 0.088234 -0.006517 1507180.000000 0 0 1
35.440378 -24.067964 -13.024029 44.776250 -0.596569 1.865931 0.077212 0.004023 171616.000000 0 0 1
35.530278 -25.248964 -13.795029 45.718854 -0.617826 1.877309 0.061862 0.009824 -84905.200000 0 0 1
34.662378 -26.223164 -13.283829 45.448816 -0.647668 1.867408 0.063517 0.000850 18265.600000 0 0 1
34.529278 -27.533164 -14.187229 46.385597 -0.673145 1.881632 0.052278 -0.001267 245537.000000 0 0 1
33.686378 -27.314064 -15.300829 45.988537 -0.681312 1.909972 0.046887 -0.007057 32446.600000 0 0 1
33.726378 -28.415064 -16.205929 46.984216 -0.700134 1.922953 0.038932 -0.001665 -853616.000000 0 0 1
32.876178 -28.164864 -17.386929 46.651987 -0.708368 1.952707 0.040869 -0.004534 -995673.000000 0 0 1
31.519778 -28.332864 -17.087029 45.696982 -0.732202 1.954029 0.056801 -0.003727 -432165.000000 0 0 1
30.739078 -28.084864 -18.242029 45.457916 -0.740307 1.983726 0.053684 -0.005172 682315.000000 0 0 1
29.195678 -28.224164 -18.023829 44.428025 -0.768480 1.988526 0.056976 -0.008369 728020.000000 0 0 1
28.650278 -27.335464 -17.056129 43.115862 -0.761918 1.977505 0.052812 -0.017067 -464567.000000 0 0 1
27.283278 -27.532664 -16.855829 42.267527 -0.789948 1.980992 0.077228 -0.020396 -508451.000000 0 0 1
26.780478 -26.611264 -15.729529 40.899529 -0.782229 1.965559 0.069481 -0.023862 -240335.000000 0 0 1
26.807978 -25.238564 -16.089929 40.181321 -0.755253 1.982786 0.061790 -0.028765 -7425.860000 0 0 1
26.504678 -24.499064 -14.964429 39.072192 -0.746096 1.963832 0.064128 -0.025114 -230358.000000 0 0 1
26.339478 -22.954864 -15.223929 38.111178 -0.716844 1.981725 0.059039 -0.028409 183666.000000 0 0 1
25.018278 -22.596064 -15.602829 37.147606 -0.734570 2.004266 0.073353 -0.030523 347014.000000 0 0 1
24.998478 -21.276464 -16.002329 36.519671 -0.705138 2.024374 0.057922 -0.029891 699469.000000 0 0 1
23.524278 -20.748564 -16.135729 35.274017 -0.722784 2.045910 0.076139 -0.027337 627747.000000 0 0 1
23.081278 -20.249564 -14.898829 34.128658 -0.720140 2.022556 0.090078 -0.034755 -270428.000000 0 0 1
21.749478 -19.843664 -15.036129 33.058977 -0.739610 2.042975 0.076905 -0.034572 -305041.000000 0 0 1
21.203678 -18.700964 -14.155629 31.618093 -0.722763 2.034995 0.066663 -0.022220 -106301.000000 0 0 1
20.865178 -19.017964 -12.842529 31.015627 -0.739116 1.997713 0.059867 -0.035181 50488.200000 0 0 1
20.611878 -17.803164 -12.248429 29.863459 -0.712413 1.993412 0.064729 -0.037391 427700.000000 0 0 1
19.557678 -17.757064 -11.069629 28.641801 -0.737181 1.967614 0.065948 -0.033196 423129.000000 0 0 1
20.098778 -18.315564 -9.891629 28.935533 -0.739011 1.919682 0.069866 -0.044104 272862.000000 0 0 1
19.096478 -18.623364 -8.954629 28.136996 -0.772856 1.894680 0.063121 -0.042399 -310246.000000 0 0 1
19.627678 -19.277964 -7.669229 28.560509 -0.776410 1.842658 0.059076 -0.039672 -21777.300000 0 0 1
20.598778 -18.403964 -7.094629 28.519279 -0.729184 1.822202 0.055636 -0.040981 436863.000000 0 0 1
21.175178 -18.982064 -5.933729 29.050233 -0.730839 1.776502 0.046892 -0.030276 13535.700000 0 0 1
22.547278 -18.407564 -5.526329 29.626989 -0.684660 1.758426 0.061260 -0.033137 -152080.000000 0 0 1
23.606778 -18.508564 -6.427429 30.678311 -0.664931 1.781871 0.052391 -0.045328 612386.000000 0 0 1
24.664878 -17.611264 -6.078429 30.910518 -0.620075 1.768732 0.072094 -0.043579 367467.000000 0 0 1
25.766878 -17.302464 -7.139329 31.847720 -0.591341 1.796888 0.072516 -0.043634 343395.000000 0 0 1
26.729478 -18.326364 -7.414929 33.246079 -0.601012 1.795720 0.078985 -0.049208 642521.000000 0 0 1
26.301778 -19.447364 -8.179229 33.717700 -0.636678 1.815820 0.072767 -0.056760 -519145.000000 0 0 1
27.275578 -20.637664 -7.977029 35.121266 -0.647734 1.799924 0.075768 -0.060556 1234160.000000 0 0 1
28.531378 -20.509564 -8.686829 36.195894 -0.623260 1.813157 0.083398 -0.048676 553142.000000 0 0 1
29.390378 -21.544164 -8.370229 37.389919 -0.632555 1.796573 0.083721 -0.046510 -388893.000000 0 0 1
-30.802482 30.234477 3.977371 43.344388 -0.776093 1.478905 0.061825 -0.005716 820009.000000 0 0 1
-29.754092 30.834677 3.207071 42.969392 -0.803231 1.496091 0.058210 -0.004648 200474.000000 0 0 1
-28.538002 31.025077 3.883771 42.332690 -0.827129 1.478923 0.056117 -0.011300 376023.000000 0 0 1
-27.569362 32.098777 3.276571 42.439806 -0.861163 1.493514 0.062930 -0.015957 -37812.500000 0 0 1
-26.875172 31.584377 2.123771 41.525392 -0.865780 1.519630 0.063261 -0.024056 151931.000000 0 0 1
-26.379252 32.578677 1.233171 41.937523 -0.890163 1.541387 0.076576 -0.023459 274807.000000 0 0 1
-25.306012 33.591277 1.781371 42.094435 -0.925154 1.528465 0.094301 -0.018158 -93621.300000 0 0 1
-23.998822 33.138977 1.462871 40.942341 -0.944021 1.535059 0.082256 -0.017520 -798779.000000 0 0 1
-23.109722 33.844177 2.248871 41.043209 -0.971689 1.515976 0.072780 -0.017776 -183992.000000 0 0 1
-21.629422 33.510477 1.934671 39.931528 -0.997625 1.522328 0.066985 -0.022964 277979.000000 0 0 1
-21.072622 -34.089464 0.786171 40.084473 1.017133 1.551182 0.074885 -0.023276 178251.000000 0 0 1
-19.721622 33.724377 0.613271 39.072396 -1.041637 1.555100 0.061202 -0.017347 -138751.000000 0 0 1
-19.017122 -33.887964 -0.658029 38.864869 1.059413 1.587728 0.061080 -0.015183 257816.000000 0 0 1
-18.593822 -32.547364 -0.594829 37.488864 1.051758 1.586664 0.069540 -0.015291 328984.000000 0 0 1
-17.681622 -32.191364 0.436571 36.730291 1.068517 1.558910 0.068693 -0.013434 -350338.000000 0 0 1
-17.524022 -30.691464 0.429671 35.344616 1.051993 1.558639 0.075551 -0.017515 -32638.500000 0 0 1
-16.745622 -30.156364 -0.633029 34.499607 1.063898 1.589146 0.072448 -0.011471 253725.000000 0 0 1
-16.926622 -28.764664 -0.640929 33.381540 1.038911 1.589998 0.064549 -0.011879 -242146.000000 0 0 1
-15.987322 -28.019164 -1.586829 32.298390 1.052286 1.619946 0.056515 -0.008376 -519839.000000 0 0 1
-16.283622 -28.162864 -2.950629 32.665111 1.046564 1.661249 0.061845 -0.011428 -259383.000000 0 0 1
-15.533622 -27.323264 -3.762829 31.654589 1.053851 1.689950 0.049443 -0.001394 -505926.000000 0 0 1
-15.826322 -27.424764 -5.279529 32.100834 1.047399 1.736014 0.066810 -0.007105 588646.000000 0 0 1
-17.123922 -26.921564 -5.623729 32.397926 1.004278 1.745263 0.062804 -0.001564 396802.000000 0 0 1
-17.275422 -26.709264 -7.064629 32.584259 0.996677 1.789343 0.073407 -0.011996 551843.000000 0 0 1
-18.097822 -25.402064 -7.442229 32.065289 0.951760 1.805028 0.049134 -0.006816 366837.000000 0 0 1
-17.360822 -24.247564 -7.174529 30.672730 0.949424 1.806889 0.050080 -0.002774 461872.000000 0 0 1
-18.116422 -23.044164 -7.458529 30.246783 0.904551 1.819955 0.054136 -0.001969 193029.000000 0 0 1
-17.267522 -21.827064 -7.098629 28.722440 0.901502 1.820530 0.054824 -0.001597 275060.000000 0 0 1
-16.166222 -21.702764 -7.995529 28.218525 0.930572 1.858075 0.058919 -0.008443 -1281110.000000 0 0 1
-15.110122 -21.132864 -7.373029 27.005097 0.950070 1.847331 0.088149 -0.032500 -1193840.000000 0 0 1
-13.935922 -20.915964 -8.337129 26.480090 0.983060 1.891090 0.080259 -0.029993 27324.300000 0 0 1
-14.212922 -19.967664 -9.340829 26.229103 0.952197 1.934914 0.076679 -0.029062 -383017.000000 0 0 1
-13.213722 -20.116264 -10.301329 26.179837 0.989608 1.975214 0.071294 -0.023442 2144.030000 0 0 1
-13.454622 -19.209864 -11.488129 26.115567 0.959801 2.026279 0.071070 -0.020003 -152775.000000 0 0 1
-14.677522 -19.564464 -12.098529 27.286852 0.927159 2.030166 0.057965 -0.011034 -238534.000000 0 0 1
-14.879922 -18.781364 -13.215029 27.364003 0.900786 2.074799 0.050721 -0.006653 -195869.000000 0 0 1
-16.083222 -19.234064 -14.034529 28.733034 0.874378 2.081104 0.056427 -0.004181 -20963.800000 0 0 1
-17.340322 -19.054164 -13.389029 29.034703 0.832454 2.050075 0.061814 -0.010929 594674.000000 0 0 1
-18.353422 -19.432164 -14.369529 30.347000 0.813939 2.064065 0.035819 0.002929 305485.000000 0 0 1
-19.762622 -19.363564 -13.745329 30.894059 0.775199 2.031879 0.029620 -0.003815 104123.000000 0 0 1
-20.742622 -19.853864 -14.647529 32.233249 0.763509 2.042521 0.039685 -0.007189 -1246660.000000 0 0 1
-22.015722 -19.768964 -14.160329 32.802726 0.731680 2.017152 0.043773 -0.010898 -1155960.000000 0 0 1
-23.023622 -20.579164 -15.009429 34.334707 0.729395 2.023224 0.042204 -0.015845 -273305.000000 0 0 1
-23.144022 -20.059564 -16.335329 34.711307 0.714126 2.060773 0.043632 -0.021993 -55803.900000 0 0 1
-23.805822 -20.972064 -17.098729 36.040410 0.722198 2.065115 0.053965 -0.026632 -680038.000000 0 0 1
-24.257022 -20.306664 -18.438529 36.616158 0.696984 2.098514 0.056229 -0.023903 33067.800000 0 0 1
-23.251322 -20.118464 -19.435729 36.374773 0.713287 2.134498 0.036233 -0.024009 324314.000000 0 0 1
-23.700722 -19.521164 -20.673229 37.015975 0.688998 2.163366 0.052553 -0.029063 169581.000000 0 0 1
-22.534522 -18.786864 -21.425929 36.329345 0.694950 2.201569 0.031975 -0.022567 807258.000000 0 0 1
-21.408522 -19.630264 -21.689429 36.250564 0.742094 2.212199 0.017459 -0.018423 57475.400000 0 0 1
-20.526522 -18.902164 -22.509229 35.851015 0.744224 2.249590 0.016573 -0.016709 477455.000000 0 0 1
-19.099222 -19.521664 -22.693229 35.508566 0.796336 2.264113 0.013212 -0.009862 354088.000000 0 0 1
-19.035522 -20.775164 -23.353729 36.597202 0.829068 2.262862 0.000921 -0.006275 50734.100000 0 0 1
-17.722322 -21.316064 -23.381729 36.265142 0.877196 2.271485 0.003257 -0.003590 120224.000000 0 0 1
-17.655322 -22.740264 -24.128529 37.563491 0.910618 2.268344 0.007952 -0.002373 -224867.000000 0 0 1
-17.842722 -22.713464 -25.511539 38.537031 0.904924 2.294281 0.013177 -0.006312 124739.000000 0 0 1
-17.995922 -23.977664 -26.137449 39.773707 0.926957 2.287833 0.027244 -0.015966 -105887.000000 0 0 1
-17.763322 -23.976064 -27.706679 40.719127 0.933159 2.319151 0.047867 -0.005463 145919.000000 0 0 1
-16.410622 -23.910264 -28.117719 40.393258 0.969296 2.340746 0.013311 -0.003956 68305.900000 0 0 1
-16.364622 -23.766564 -29.499439 41.265813 0.967792 2.367226 0.053629 -0.007272 620779.000000 0 0 1
-14.905222 -23.512764 -30.028209 40.947637 1.005808 2.394006 0.010112 -0.008223 783561.000000 0 0 1
-14.199822 -24.737464 -30.018889 41.409066 1.049698 2.381737 0.024515 -0.007779 73840.400000 0 0 1
-12.849222 -24.608464 -30.454329 41.208556 1.089589 2.402425 0.038174 -0.009708 206081.000000 0 0 1
-12.114622 -25.905964 -30.104189 41.522827 1.133372 2.381836 0.036830 -0.008122 -955960.000000 0 0 1
-12.307522 -27.044864 -30.933099 42.892381 1.143728 2.376300 0.039997 -0.000903 310909.000000 0 0 1
-11.527222 -28.173664 -30.496899 43.089361 1.182428 2.357118 0.036606 -0.007608 2033920.000000 0 0 1
-10.017322 -28.210164 -31.051549 43.131876 1.229589 2.374485 0.038562 -0.009780 1459770.000000 0 0 1
-9.297322 -27.078764 -30.657349 41.947261 1.240064 2.390370 0.045693 -0.018100 -683791.000000 0 0 1
-8.083122 -26.837664 -31.297039 42.013113 1.278252 2.411234 0.046059 -0.014680 -577711.000000 0 0 1
-7.398922 -25.532864 -30.946779 40.796744 1.288742 2.431897 0.077218 -0.023950 -224084.000000 0 0 1
-8.137822 -24.333864 -31.151949 40.358456 1.248065 2.452592 0.076351 -0.023664 473416.000000 0 0 1
-9.061522 -24.026364 -30.087889 39.555763 1.210143 2.435102 0.051157 -0.022612 -54893.600000 0 0 1
-9.432422 -22.506064 -29.919349 38.609078 1.173929 2.457401 0.052290 -0.026342 -615772.000000 0 0 1
-10.166722 -21.980364 -30.975989 39.319340 1.137566 2.478034 0.048542 -0.026407 -213220.000000 0 0 1
-10.560922 -20.661764 -30.649389 38.442510 1.098282 2.493569 0.048322 -0.027434 380251.000000 0 0 1
-11.283522 -19.931364 -31.858009 39.236588 1.055662 2.518275 0.050311 -0.025713 269517.000000 0 0 1
-11.639222 -18.620364 -31.651399 38.522727 1.012139 2.535060 0.048963 -0.026780 382066.000000 0 0 1
-12.604822 -18.224464 -32.631989 39.444382 0.965701 2.545065 0.058829 -0.019591 -303119.000000 0 0 1
-13.407422 -16.986464 -32.387479 38.951864 0.902614 2.552553 0.066519 -0.031572 -551250.000000 0 0 1
-12.839322 -15.729964 -32.598409 38.404898 0.886235 2.584524 0.078512 -0.033684 -133980.000000 0 0 1
-11.798822 -15.281164 -31.727939 37.140117 0.913291 2.594954 0.070977 -0.025761 469601.000000 0 0 1
-11.413522 -13.779864 -31.910999 36.585037 0.879051 2.630564 0.080616 -0.032227 -292291.000000 0 0 1
-10.740822 -13.331164 -33.082339 37.249514 0.892594 2.664052 0.088355 -0.032557 -211145.000000 0 0 1
-11.329922 -13.613664 33.898495 38.246659 0.876700 0.481476 0.092785 -0.031023 -389565.000000 0 0 1
-12.011622 -12.395164 33.222545 37.438705 0.801111 0.479155 0.073384 -0.025654 638731.000000 0 0 1
-13.216522 -12.045964 33.931492 38.355285 0.739095 0.485026 0.058496 -0.020396 307211.000000 0 0 1
-14.022322 -11.328964 32.976765 37.582416 0.679554 0.500272 0.042908 -0.025840 750054.000000 0 0 1
-15.140122 -10.470964 33.645774 38.352347 0.605069 0.500629 0.060572 -0.027665 622036.000000 0 0 1
-14.604222 -9.349664 -33.903009 38.080356 0.569457 2.668804 0.064535 -0.029382 364283.000000 0 0 1
-15.606722 -8.865264 -33.035869 37.596958 0.516589 2.643896 0.060755 -0.035904 282951.000000 0 0 1
-14.915922 -8.075464 -31.926569 36.152505 0.496216 2.653242 0.062593 -0.044646 -80519.100000 0 0 1
-14.552522 -6.770164 -32.261039 36.033118 0.435441 2.679937 0.050535 -0.042652 453803.000000 0 0 1
-15.635722 -5.841364 -32.360829 36.411819 0.357535 2.665397 0.054028 -0.038348 267698.000000 0 0 1
-16.163022 -5.109764 -31.076269 35.398975 0.306197 2.642226 0.059148 -0.040956 -221879.000000 0 0 1
-16.840922 -5.833164 -30.105009 34.985054 0.333436 2.607067 0.074264 -0.042190 -236245.000000 0 0 1
-17.126022 -5.181864 -28.909049 33.998315 0.293815 2.587367 0.070469 -0.040313 376411.000000 0 0 1
-15.871222 -4.860464 -28.011449 32.560114 0.297175 2.606653 0.061724 -0.042575 757783.000000 0 0 1
-15.120722 -3.845664 -28.686869 32.655196 0.249050 2.643463 0.053874 -0.035965 253643.000000 0 0 1
-13.838322 -3.652764 -28.079529 31.516690 0.258074 2.670211 0.046181 -0.031786 651360.000000 0 0 1
-13.296122 -2.211264 -28.438159 31.470707 0.164801 2.698988 0.024937 -0.007070 3489.150000 0 0 1
-13.118322 -2.163264 -29.823519 32.652907 0.163433 2.722232 0.023631 -0.013612 82280.400000 0 0 1
-13.374722 -0.842264 -30.322519 33.151889 0.062891 2.725448 0.031693 -0.019379 41526.700000 0 0 1
-13.424022 -0.832264 -31.831049 34.555936 0.061919 2.741810 0.025204 -0.024925 305852.000000 0 0 1
-14.608022 -1.456264 -32.353819 35.528645 0.099361 2.715628 0.028036 -0.021952 576027.000000 0 0 1
-14.687322 -1.543264 -33.783589 36.870448 0.104690 2.729484 0.027738 -0.021950 -207425.000000 0 0 1
-16.094422 -1.694264 33.856370 37.525388 0.104884 0.445893 0.026345 -0.026477 -83632.600000 0 0 1
-16.173522 -1.903264 32.456899 36.313297 0.117139 0.465044 0.033678 -0.024421 871815.000000 0 0 1
-17.516722 -1.637264 32.009214 36.525415 0.093198 0.502555 0.042339 -0.022381 938839.000000 0 0 1
-17.681722 -1.815264 30.440944 35.250384 0.102305 0.528502 0.049869 -0.017923 -121148.000000 0 0 1
-17.099922 -0.677264 29.847094 34.405160 0.039586 0.520606 0.038188 -0.000274 85965.200000 0 0 1
-17.213022 -0.679264 28.430994 33.242607 0.039442 0.544749 0.042405 -0.008987 -369429.000000 0 0 1
-16.619922 0.592736 27.857314 32.443845 -0.035649 0.538202 0.029715 -0.007975 -8.920410 0 0 1
-17.263222 1.786736 28.294314 33.193064 -0.103132 0.550207 0.027119 -0.010295 774246.000000 0 0 1
-18.551822 2.134736 27.759694 33.456357 -0.114565 0.592175 0.035104 -0.013973 568373.000000 0 0 1
-18.519722 2.812736 26.377924 32.352534 -0.150726 0.617501 0.034376 -0.017041 -599070.000000 0 0 1
-18.334822 4.189736 26.395704 32.410689 -0.224655 0.619078 0.039838 -0.012822 38543.800000 0 0 1
-18.688822 4.839736 25.204984 31.748801 -0.253398 0.653620 0.032011 -0.005940 -545432.000000 0 0 1
-18.539622 6.427736 25.292504 32.011625 -0.333734 0.659818 0.030058 -0.008377 977269.000000 0 0 1
-17.222722 7.015736 25.426324 31.501439 -0.386829 0.631491 0.020706 -0.004152 1099910.000000 0 0 1
-16.475222 6.903736 24.191904 30.072292 -0.396810 0.636033 0.011201 0.001703 690628.000000 0 0 1
-15.262422 7.889736 24.019274 29.531593 -0.477107 0.620923 0.006378 0.001156 770543.000000 0 0 1
-14.096922 7.616736 24.772104 29.502458 -0.495375 0.574135 0.010566 0.000199 -394479.000000 0 0 1
-12.994022 8.093736 24.042594 28.502623 -0.557074 0.566989 0.016999 -0.001375 -483730.000000 0 0 1
-11.686722 7.942736 24.839584 28.577464 -0.596929 0.517211 0.018737 0.012705 -156966.000000 0 0 1
-10.706022 8.810736 24.266204 27.948106 -0.688591 0.519113 0.019590 0.005209 -52549.400000 0 0 1
-9.468722 8.839736 24.924634 28.089767 -0.751057 0.479294 0.028552 -0.006152 -216152.000000 0 0 1
-9.341422 10.091736 25.847614 29.278054 -0.823989 0.488938 0.040512 -0.015361 -504293.000000 0 0 1
-10.358522 10.119736 26.824854 30.484108 -0.773738 0.495014 0.027152 -0.013765 29934.200000 0 0 1
-10.477322 11.330736 27.610334 31.630530 -0.824511 0.509678 0.033651 -0.014347 -229737.000000 0 0 1
-10.906122 12.662736 26.922274 31.687493 -0.859792 0.555535 0.033897 -0.013544 423675.000000 0 0 1
-12.271922 12.653736 26.489694 31.818564 -0.800715 0.587149 0.039504 -0.012755 670282.000000 0 0 1
-12.414922 12.169736 25.158404 30.580681 -0.775425 0.604671 0.034235 -0.006738 -450668.000000 0 0 1
-13.867022 11.856736 24.769534 30.763717 -0.707408 0.634861 0.040969 -0.010382 -369093.000000 0 0 1
-14.737022 12.936736 24.763354 31.587381 -0.720436 0.669772 0.035727 -0.013210 724484.000000 0 0 1
-16.092822 12.814736 24.277184 31.821032 -0.672482 0.702965 0.036479 -0.002050 1035280.000000 0 0 1
-16.342222 12.418736 22.825264 30.696676 -0.649818 0.732396 0.031686 0.003706 -564539.000000 0 0 1
-16.264022 11.042736 22.604064 29.956705 -0.596470 0.715816 0.027915 -0.000975 -33243.900000 0 0 1
-16.146822 10.778736 21.201264 28.747080 -0.588611 0.741420 0.020316 0.008637 -53998.400000 0 0 1
-16.240822 9.343736 20.722864 27.937552 -0.522078 0.735111 0.010630 0.005013 15637.500000 0 0 1
-17.558122 8.895736 20.921664 28.725212 -0.468950 0.754903 0.022261 0.007616 -332411.000000 0 0 1
-17.766322 7.542736 20.596764 28.226969 -0.401492 0.752937 0.017653 0.007879 553959.000000 0 0 1
-19.283322 7.230736 20.766064 29.246529 -0.358748 0.781248 0.035188 0.009836 736183.000000 0 0 1
-19.835022 7.447736 22.075664 30.597905 -0.359195 0.764864 0.026630 -0.001155 138368.000000 0 0 1
-21.243122 7.463736 22.177364 31.604004 -0.337876 0.792979 0.016581 -0.003712 -15860.400000 0 0 1
-21.743822 8.243736 23.412424 32.998403 -0.362387 0.782005 0.035621 -0.014850 -693966.000000 0 0 1
-21.609522 9.698736 23.319564 33.239118 -0.421870 0.793198 0.034334 -0.011548 -222842.000000 0 0 1
-20.342322 10.302736 23.314694 32.611829 -0.468809 0.774293 0.033263 -0.006453 -83062.200000 0 0 1
-19.405222 10.041736 24.525934 32.846926 -0.477530 0.727749 0.035375 -0.015700 -321975.000000 0 0 1
-19.795122 10.589736 25.783254 34.187213 -0.491228 0.716394 0.047257 -0.016030 -23294.800000 0 0 1
-19.318322 9.728736 26.784034 34.427175 -0.466525 0.679334 0.051726 -0.021324 27995.700000 0 0 1
-31.266582 -13.694323 20.375564 39.752952 0.412818 1.032639 0.054968 -0.007316 170289.000000 0 0 1
-30.584522 -14.955923 20.280064 39.627940 0.454811 1.033562 0.051889 -0.008706 181338.000000 0 0 1
-31.055392 -15.849623 19.265664 39.834830 0.471906 1.065989 0.036165 0.006129 91886.200000 0 0 1
-30.681432 -15.593023 17.811264 38.752210 0.470205 1.093230 0.040773 0.012239 298128.000000 0 0 1
-31.497682 -14.532623 17.305264 38.765619 0.432283 1.108050 0.047182 0.001291 107563.000000 0 0 1
-31.017722 -14.053323 16.070864 37.654583 0.425407 1.129848 0.050038 -0.003778 -145843.000000 0 0 1
-31.919472 -12.892623 15.445164 37.730962 0.383873 1.149055 0.049041 -0.004591 -102905.000000 0 0 1
-33.182822 -13.218923 14.999364 38.740425 0.379097 1.173230 0.064980 -0.003921 -255882.000000 0 0 1
-34.202686 -13.531623 15.952964 40.092712 0.376734 1.161568 0.073551 -0.004711 -512038.000000 0 0 1
-35.074700 -12.388523 16.425364 40.663284 0.339526 1.154981 0.081053 -0.006306 -606518.000000 0 0 1
-35.894519 -12.808023 17.495164 41.934982 0.342741 1.140437 0.056877 -0.005421 -262910.000000 0 0 1
36.380646 -11.739023 18.012064 42.258614 -0.312125 1.130471 0.071520 -0.011760 770163.000000 0 0 1
35.354136 -12.055323 19.198164 41.997800 -0.328624 1.096038 0.075238 -0.008547 707644.000000 0 0 1
36.088846 -12.296923 20.391564 43.236963 -0.328402 1.079665 0.059858 0.001350 -133550.000000 0 0 1
35.413536 -12.064923 21.568764 43.184401 -0.328354 1.047824 0.044063 -0.001331 -1215800.000000 0 0 1
36.255166 -12.513623 22.807764 44.623110 -0.332351 1.034309 0.041415 -0.007508 982498.000000 0 0 1
-35.604191 -11.698023 23.135964 44.042877 0.317446 1.017722 0.053478 -0.008096 624666.000000 0 0 1
-34.508550 -11.856623 22.260864 42.743018 0.330949 1.023000 0.048201 -0.011684 -476885.000000 0 0 1
-33.345252 -10.849523 22.494864 41.660975 0.314566 1.000418 0.068063 -0.023251 342778.000000 0 0 1
-33.595492 -9.565723 21.918564 41.238133 0.277392 1.010412 0.096704 -0.022285 313882.000000 0 0 1
-32.390612 -8.817223 21.890864 40.076241 0.265776 0.992939 0.112808 -0.020841 236736.000000 0 0 1
-32.538032 -7.666723 20.861364 39.404298 0.231403 1.012881 0.129341 -0.032573 63274.200000 0 0 1
-32.679652 -7.927423 19.461764 38.853107 0.237983 1.046151 0.128458 -0.029280 82616.200000 0 0 1
-33.943562 -8.462123 19.128964 39.870919 0.244320 1.070401 0.118829 -0.026915 -211125.000000 0 0 1
-34.201527 -8.421123 17.608464 39.379154 0.241418 1.107218 0.118707 -0.030056 33525.000000 0 0 1
-35.528583 -8.792423 17.283664 40.476066 0.242600 1.129613 0.054760 -0.024133 142021.000000 0 0 1
-35.848654 -8.527723 15.957064 40.155646 0.233541 1.162136 0.068406 -0.019428 943039.000000 0 0 1
35.610606 -8.528423 15.608164 39.805327 -0.235064 1.167870 0.066277 -0.018536 974615.000000 0 0 1
35.091636 -9.837423 15.757964 39.705305 -0.273320 1.162689 0.057005 0.000639 -237611.000000 0 0 1
33.689816 -9.744823 15.708664 38.428211 -0.281567 1.149680 0.042814 -0.001061 -679755.000000 0 0 1
32.886266 -11.015223 15.648664 38.048946 -0.323204 1.146942 0.034925 0.003470 -269670.000000 0 0 1
32.615766 -11.400723 17.015864 38.513690 -0.336271 1.113177 0.018959 -0.006492 24378.200000 0 0 1
31.561376 -12.336923 17.066864 37.942034 -0.372625 1.104239 0.036766 -0.013999 77886.500000 0 0 1
31.350596 -12.972123 18.448264 38.619610 -0.392325 1.072771 0.032198 -0.015894 114175.000000 0 0 1
32.356586 -13.922323 18.782864 39.919615 -0.406333 1.080920 0.050372 -0.012922 31926.100000 0 0 1
32.384516 -14.202023 20.162764 40.706159 -0.413286 1.052588 0.047046 -0.011949 -447815.000000 0 0 1
33.380776 -15.264223 20.642864 42.111762 -0.428888 1.058486 0.037772 -0.000262 -156964.000000 0 0 1
33.468416 -15.405123 22.035264 42.930240 -0.431377 1.031793 0.041340 -0.009789 -290636.000000 0 0 1
34.310346 -16.456823 22.476064 44.195026 -0.447232 1.037278 0.038679 -0.000699 236681.000000 0 0 1
34.778306 -16.407623 23.979424 45.318356 -0.440816 1.013218 0.058982 -0.013960 -270309.000000 0 0 1
35.845806 -15.571123 24.246404 45.992062 -0.409799 1.015510 0.045621 -0.001248 -540420.000000 0 0 1
35.969746 -15.262723 25.625284 46.727171 -0.401295 0.990344 0.049506 -0.002843 -203124.000000 0 0 1
-35.922250 -14.229123 25.896334 46.513397 0.377147 0.980328 0.040723 -0.002371 -527391.000000 0 0 1
-34.643507 -14.742023 25.643744 45.553281 0.402324 0.972858 0.014601 -0.004240 -919040.000000 0 0 1
-33.740492 -13.710923 25.774164 44.617460 0.385981 0.954925 0.031469 -0.006955 -527454.000000 0 0 1
-32.262272 -14.137223 25.662424 43.580675 0.412995 0.941163 0.021434 -0.005563 -305845.000000 0 0 1
-31.919502 -14.439123 24.347334 42.663047 0.424815 0.963452 0.025781 -0.004114 1580020.000000 0 0 1
-30.533262 -14.900923 24.191644 41.707952 0.454020 0.952037 0.026565 -0.013041 1571990.000000 0 0 1
-30.222512 -16.362523 24.583104 42.254720 0.496218 0.949876 0.022339 -0.007095 -885602.000000 0 0 1
-30.133862 -16.586923 26.018464 43.129295 0.503182 0.923206 0.025582 -0.008415 248205.000000 0 0 1
-29.662232 -17.904123 26.273064 43.481945 0.543062 0.921998 0.022075 -0.017320 -336471.000000 0 0 1
-29.458172 -18.242523 27.758374 44.397082 0.554467 0.895371 0.044420 -0.023562 -295687.000000 0 0 1
-28.511152 -17.330223 28.230804 43.705843 0.546164 0.868559 0.048772 -0.028648 -353953.000000 0 0 1
-27.909882 -17.814523 29.421934 44.294118 0.568097 0.844319 0.069728 -0.032601 140836.000000 0 0 1
-26.685532 -16.972823 29.843354 43.483561 0.566492 0.814388 0.060905 -0.029486 -19503.300000 0 0 1
-27.030042 -15.683223 30.349924 43.562651 0.525744 0.800015 0.075316 -0.034951 -495151.000000 0 0 1
-26.093172 -14.743723 29.943014 42.365258 0.514318 0.785857 0.061272 -0.033945 -400356.000000 0 0 1
-26.087732 -13.415823 30.759554 42.505343 0.474989 0.761701 0.067260 -0.017649 -42400.900000 0 0 1
-25.522422 -13.566523 32.027504 43.141692 0.488570 0.734181 0.066305 -0.019703 -27152.100000 0 0 1
-25.509672 -12.387823 32.773111 43.339108 0.452072 0.713308 0.069804 -0.011173 280281.000000 0 0 1
-24.591822 -12.460323 34.069273 43.826165 0.468982 0.680318 0.063388 -0.011188 320415.000000 0 0 1
-23.219222 -12.722523 33.910595 43.022358 0.501253 0.662904 0.039585 -0.007788 67769.300000 0 0 1
-22.817222 -14.088023 33.950950 43.263900 0.553137 0.668518 0.029406 -0.010443 -215247.000000 0 0 1
-22.662322 -14.757423 -32.899549 42.588058 0.577210 2.453575 0.032063 -0.010819 -857908.000000 0 0 1
-21.740422 -14.301523 -31.969149 41.221426 0.581861 2.458377 0.011227 -0.001201 -244367.000000 0 0 1
-21.690722 -15.191223 -30.913669 40.705228 0.610965 2.433267 0.031233 -0.005601 -465962.000000 0 0 1
-20.338222 -15.161823 -30.212169 39.449959 0.640605 2.443136 0.023299 -0.006689 -496812.000000 0 0 1
-19.996522 -14.014523 -29.394639 38.214036 0.611295 2.448401 0.018464 -0.008278 277641.000000 0 0 1
-20.715722 -13.851923 -28.143219 37.590659 0.589386 2.416859 0.026040 -0.010663 25857.700000 0 0 1
-20.252822 -12.656623 -27.294699 36.267995 0.558550 2.422773 0.033005 -0.012440 -1216140.000000 0 0 1
-19.020922 -12.851323 -26.717729 35.224835 0.594190 2.431791 0.024359 -0.016927 -879568.000000 0 0 1
-18.661722 -11.758823 -25.923469 34.037567 0.562261 2.436596 0.025015 -0.021873 216553.000000 0 0 1
-17.251022 -11.791623 -25.303599 32.816341 0.599588 2.451312 0.022893 -0.022845 -492887.000000 0 0 1
-17.405522 -12.451323 -24.059929 32.200432 0.620965 2.414624 0.025176 -0.023245 1253850.000000 0 0 1
-16.159722 -12.665523 -23.335329 31.081983 0.664767 2.420019 0.013644 -0.028882 1308020.000000 0 0 1
-15.092522 -13.599723 -23.998729 31.443213 0.733417 2.439110 0.005919 -0.021229 -377799.000000 0 0 1
-14.227422 -12.922323 -24.891829 31.448515 0.737365 2.484073 0.032110 -0.029826 71795.100000 0 0 1
-13.619722 -13.798623 -25.812439 32.282825 0.791923 2.497378 0.045902 -0.028346 -151137.000000 0 0 1
-12.672822 -13.160723 -26.857719 32.482951 0.804282 2.544236 0.060412 -0.028803 80603.700000 0 0 1
-13.327822 -12.265823 -27.725239 33.117520 0.743927 2.562898 0.075726 -0.033314 -187923.000000 0 0 1
-12.377322 -11.700923 -28.571109 33.262861 0.757314 2.604010 0.084517 -0.040115 219283.000000 0 0 1
-13.086522 -10.688323 -29.578119 34.064093 0.684867 2.622577 0.066998 -0.040843 127191.000000 0 0 1
-12.238722 -9.842023 -30.309079 34.136373 0.677279 2.663518 0.069575 -0.036064 -292456.000000 0 0 1
-11.947222 -10.358123 -31.587109 35.323820 0.714275 2.677472 0.083669 -0.027531 -186434.000000 0 0 1
-11.140022 -9.303123 -32.344739 35.451802 0.695785 2.719804 0.066561 -0.024645 875894.000000 0 0 1
-9.765422 -9.177923 -31.919039 34.618243 0.754395 2.744087 0.053041 -0.025605 772181.000000 0 0 1
-9.276622 -7.889423 -32.246639 34.469471 0.704763 2.780505 0.043533 -0.020666 -356089.000000 0 0 1
-7.788822 -7.644823 -31.966959 33.778625 0.776068 2.812594 0.048872 -0.017216 -209918.000000 0 0 1
-7.357222 -7.384823 -30.623129 32.348730 0.787270 2.813493 0.037816 -0.014738 -48822.300000 0 0 1
-7.774422 -6.136123 -30.109209 31.696342 0.668164 2.823798 0.040713 -0.020443 -555482.000000 0 0 1
-6.987522 -4.900823 -30.560479 31.729897 0.611643 2.869254 0.035966 -0.022878 -415340.000000 0 0 1
-5.631022 -4.906923 -30.200379 31.110274 0.716792 2.899142 0.052906 -0.026675 -290913.000000 0 0 1
-5.067622 -3.662423 -30.554489 31.187672 0.625806 2.939744 0.058044 -0.028347 770244.000000 0 0 1
-3.542922 -3.518623 -30.179609 30.589897 0.781957 2.977625 0.063218 -0.022830 174838.000000 0 0 1
-2.703722 -4.265023 -31.031999 31.440189 1.005802 2.980278 0.051646 -0.022907 579878.000000 0 0 1
-1.315322 -4.078723 -30.734669 31.032014 1.258842 3.003049 0.074784 -0.024998 1279870.000000 0 0 1
-0.631722 -2.585723 -30.896589 31.011034 1.331179 3.055654 0.076062 -0.025173 587323.000000 0 0 1
0.746178 -2.520323 -30.434509 30.547801 -1.282954 3.055442 0.086514 -0.027940 1237590.000000 0 0 1
1.231778 -1.227423 -30.854669 30.903631 -0.783627 3.085294 0.060431 -0.022714 -230287.000000 0 0 1
1.295878 -0.068723 -29.816729 29.844955 -0.052982 3.098098 0.062921 -0.031046 -395440.000000 0 0 1
0.049178 0.397077 -29.386099 29.388822 1.447574 3.127978 0.063773 -0.024917 -450427.000000 0 0 1
0.296978 1.634277 -28.771539 28.819446 1.391040 3.083925 0.075261 -0.028536 1064140.000000 0 0 1
-0.944422 2.473077 -28.168469 28.292590 -1.206006 3.047888 0.055818 -0.016780 1257440.000000 0 0 1
-1.824722 2.980877 -29.174269 29.382872 -1.021496 3.022362 0.055154 -0.021384 -93643.200000 0 0 1
-2.708622 3.920477 -28.659659 29.053103 -0.966210 2.976833 0.077383 -0.020983 332523.000000 0 0 1
-3.958522 4.196477 -29.574149 30.131555 -0.814569 2.948946 0.095076 -0.024174 623120.000000 0 0 1
-3.527122 4.763577 -30.776509 31.342076 -0.933445 2.951332 0.099618 -0.021867 588227.000000 0 0 1
-4.677022 4.966277 -31.584349 32.312684 -0.815385 2.928870 0.111162 -0.018249 44874.400000 0 0 1
-4.247622 5.619877 -32.946549 33.691251 -0.923580 2.930948 0.117269 -0.015767 67197.300000 0 0 1
-3.911922 4.793477 -34.042209 34.599892 -0.886320 2.961806 0.125265 -0.021911 336833.000000 0 0 1
-2.688622 4.109877 -33.815779 34.170553 -0.991484 2.997367 0.120948 -0.024889 -267415.000000 0 0 1
-2.159522 3.248677 33.230547 33.458731 -0.984130 0.116856 0.108571 -0.027590 20112.800000 0 0 1
-3.111022 2.251677 32.839472 33.063264 -0.626504 0.116415 0.104228 -0.034568 296611.000000 0 0 1
-3.034022 1.680977 31.500184 31.690575 -0.505942 0.109671 0.099010 -0.031969 -75193.000000 0 0 1
-2.865022 2.657577 30.275474 30.526634 -0.747853 0.128366 0.106179 -0.034631 28309.200000 0 0 1
-3.990522 3.495977 30.145424 30.608703 -0.719436 0.174206 0.096288 -0.034882 -60554.900000 0 0 1
-3.820222 4.380777 29.091524 29.666514 -0.853644 0.197204 0.088046 -0.036273 430592.000000 0 0 1
-5.102022 5.225277 28.811344 29.722512 -0.797333 0.248249 0.088364 -0.024171 448421.000000 0 0 1
-5.063322 5.829877 27.496114 28.559779 -0.855652 0.273777 0.082830 -0.020455 -330714.000000 0 0 1
-6.209122 6.621877 27.322114 28.790630 -0.817556 0.320769 0.062923 -0.014160 -340164.000000 0 0 1
-6.201122 7.359877 25.993414 27.717851 -0.870639 0.354598 0.052853 -0.015355 -274198.000000 0 0 1
-5.365922 8.500177 26.017054 27.891455 -1.007700 0.368700 0.066628 -0.021357 -62274.900000 0 0 1
-5.528522 9.362277 24.892924 27.163845 -1.037384 0.411807 0.059085 -0.018227 411473.000000 0 0 1
-4.600922 10.632777 25.052924 27.602055 -1.162412 0.433152 0.055595 -0.019921 -329549.000000 0 0 1
-4.901322 11.604577 24.072134 27.169041 -1.171163 0.482121 0.061270 -0.020158 714526.000000 0 0 1
-4.124922 12.838977 24.129984 27.642548 -1.259932 0.509622 0.046620 -0.013948 985501.000000 0 0 1
-2.545022 12.793177 24.176304 27.470643 -1.374424 0.494770 0.046177 -0.011728 614488.000000 0 0 1
-1.962022 12.289277 25.409004 28.292991 -1.412479 0.455441 0.058414 -0.015109 55724.900000 0 0 1
-2.287322 12.988777 26.626934 29.714202 -1.396484 0.459890 0.059886 -0.014658 -789349.000000 0 0 1
-1.478122 12.474377 27.839534 30.542341 -1.452854 0.423865 0.058079 -0.015156 712216.000000 0 0 1
-0.075322 12.707977 27.681744 30.459437 -1.564869 0.430381 0.057293 -0.008513 -179244.000000 0 0 1
0.572978 12.319877 28.828134 31.355526 1.524321 0.404255 0.054686 -0.021748 -206659.000000 0 0 1
2.113178 12.309277 28.688464 31.289164 1.400780 0.410599 0.051648 -0.016989 105252.000000 0 0 1
2.579978 13.624277 28.653454 31.832337 1.383646 0.450713 0.054440 -0.012257 1002160.000000 0 0 1
4.026378 13.681777 28.551824 31.915661 1.284588 0.463256 0.071893 -0.015616 1167280.000000 0 0 1
4.552478 15.102077 28.672064 32.724380 1.278012 0.502942 0.069380 -0.017603 -401598.000000 0 0 1
4.565978 15.655577 29.939844 34.093101 1.287016 0.498755 0.069012 -0.005995 -17469.300000 0 0 1
3.497678 16.489477 30.301124 34.674122 1.361779 0.507663 0.036675 0.002074 -267395.000000 0 0 1
3.553478 17.980477 29.739354 34.933565 1.375681 0.552316 0.051265 0.006887 -322173.000000 0 0 1
4.566278 18.714877 30.361164 35.956888 1.331480 0.565395 0.059665 0.011899 -198799.000000 0 0 1
5.052978 19.673277 29.480174 35.800155 1.319386 0.603305 0.051534 0.001647 -68185.400000 0 0 1
6.210678 20.524177 30.037994 36.906578 1.276953 0.619975 0.055426 0.003624 -113737.000000 0 0 1
5.785478 21.587577 30.870734 38.111645 1.308949 0.626631 0.034949 0.006252 270551.000000 0 0 1
6.843978 22.299777 31.532994 39.223078 1.273014 0.636906 0.025617 0.004714 63601.400000 0 0 1
7.258778 23.676777 30.910154 39.607036 1.273316 0.675458 0.020388 0.007897 -164382.000000 0 0 1
7.792078 23.551877 29.580674 38.606006 1.251285 0.697859 0.010024 0.008397 340806.000000 0 0 1
8.100678 24.798877 29.021304 39.023601 1.255068 0.732229 0.016297 0.005276 68118.000000 0 0 1
8.628078 24.650777 27.578004 37.982244 1.234110 0.758198 0.021483 -0.002774 621991.000000 0 0 1
7.594078 24.277077 26.643834 36.836672 1.267630 0.762232 0.022092 -0.008095 907080.000000 0 0 1
8.087478 24.562377 25.375544 36.230318 1.252714 0.794845 0.041025 -0.019841 -172876.000000 0 0 1
28.751596 2.181277 6.626671 29.585892 0.075721 1.344899 0.073121 -0.021125 21942.200000 0 0 1
29.085266 3.262377 7.488271 30.210429 0.111699 1.320315 0.061822 -0.018799 85991.800000 0 0 1
28.373696 3.137177 8.691671 29.840470 0.110119 1.275241 0.056146 -0.008936 -154482.000000 0 0 1
28.862596 4.049577 9.894471 30.779036 0.139395 1.243517 0.050493 -0.007654 -51398.100000 0 0 1
28.536726 5.446177 9.808771 30.662967 0.188580 1.245183 0.050851 -0.012471 51931.900000 0 0 1
29.493206 6.208277 9.115371 31.487805 0.207470 1.277103 0.059512 -0.024001 -264399.000000 0 0 1
28.977146 7.645377 8.897471 31.261666 0.257963 1.282194 0.075207 -0.028794 763102.000000 0 0 1
27.819516 7.842677 8.072471 30.009962 0.274782 1.298449 0.072650 -0.022827 766482.000000 0 0 1
28.089986 9.133677 7.574471 30.493343 0.314375 1.319771 0.087197 -0.030517 156241.000000 0 0 1
27.382216 9.344677 6.213471 29.592498 0.328875 1.359254 0.091326 -0.025040 595421.000000 0 0 1
25.984816 9.570077 6.416871 28.424871 0.352879 1.343085 0.068024 -0.020108 483659.000000 0 0 1
25.352816 9.921977 5.191771 27.715797 0.373033 1.382361 0.087988 -0.025137 -712338.000000 0 0 1
23.897216 10.264277 5.387771 26.560504 0.405691 1.366530 0.048010 -0.018123 -907508.000000 0 0 1
23.716016 11.542077 5.953071 27.039009 0.452934 1.348812 0.055529 -0.004830 793324.000000 0 0 1
22.336616 11.900277 6.126071 26.039773 0.489519 1.333312 0.044615 -0.004641 659647.000000 0 0 1
22.134916 13.374077 6.589371 26.687830 0.543507 1.321311 0.032858 0.007506 -145685.000000 0 0 1
22.308416 14.242877 5.495071 27.031848 0.568215 1.366088 0.054635 0.002906 318411.000000 0 0 1
22.311216 15.579177 5.975071 27.860413 0.609562 1.354653 0.074860 -0.006851 -146687.000000 0 0 1
21.960316 16.660877 4.954971 28.007000 0.649034 1.392941 0.085927 -0.013841 478705.000000 0 0 1
20.584116 16.582977 4.564971 26.824241 0.678158 1.399783 0.083384 -0.013398 905854.000000 0 0 1
20.295616 17.532177 3.505571 27.047704 0.712475 1.440824 0.095266 -0.017389 314503.000000 0 0 1
18.815216 17.643477 3.042671 25.972341 0.753270 1.453376 0.079529 -0.009635 671046.000000 0 0 1
17.985016 18.456777 3.904571 26.064518 0.798343 1.420426 0.081341 -0.014813 117487.000000 0 0 1
16.643416 18.282677 3.533071 24.974831 0.832299 1.428855 0.070631 -0.018892 -632677.000000 0 1 0
15.761016 19.373977 4.214571 25.328309 0.887869 1.403621 0.079672 -0.020183 -576647.000000 0 0 1
14.445116 18.914377 4.056671 24.142734 0.918578 1.401967 0.076220 -0.030460 -302794.000000 0 1 0
13.538316 19.929477 4.477571 24.505483 0.974091 1.387047 0.054115 -0.032778 -118779.000000 0 1 0
12.067816 19.678877 4.126171 23.450281 1.020701 1.393921 0.034614 -0.030188 -320819.000000 0 1 0
11.333716 18.927877 5.064171 22.635448 1.031271 1.345159 0.023050 -0.036790 -587878.000000 0 1 0
9.986616 19.017877 4.687471 21.986008 1.087257 1.355945 0.015271 -0.024625 -550303.000000 0 1 0
9.081116 18.467377 5.781671 21.376118 1.113780 1.296912 0.007112 -0.028647 -1253920.000000 0 1 0
9.137416 19.322977 6.881171 22.454851 1.129081 1.259340 0.025725 -0.032606 -168757.000000 0 1 0
8.643116 18.651777 8.048071 22.076315 1.136860 1.197640 0.027461 -0.031191 -191994.000000 0 1 0
7.644716 19.494777 8.905771 22.755237 1.197083 1.168674 0.027216 -0.032430 904604.000000 0 1 0
6.502516 19.918477 8.139171 22.478313 1.255248 1.200287 0.020296 -0.031005 341076.000000 0 1 0
6.649116 21.164877 7.434571 23.397342 1.266402 1.247438 0.017525 -0.021813 200798.000000 0 1 0
5.364016 21.525877 6.578371 23.138951 1.326581 1.282522 0.016962 -0.003177 1413410.000000 0 1 0
4.140516 21.726377 7.304471 23.292373 1.382479 1.251815 0.019881 -0.000596 609437.000000 0 1 0
3.838516 22.932377 7.993371 24.587032 1.404950 1.239673 0.018414 -0.006860 -357095.000000 0 1 0
3.912916 24.199477 7.240571 25.560741 1.410490 1.283595 0.031160 -0.008050 -55314.300000 0 0 1
2.864116 24.219277 6.270171 25.181176 1.453085 1.319146 0.028630 -0.008230 347870.000000 0 0 1
2.828016 25.313977 5.400971 26.037773 1.459540 1.361851 0.034614 -0.003337 -19138.700000 0 0 1
1.473516 25.529477 4.672071 25.995263 1.513142 1.390087 0.037036 -0.004925 20895.100000 0 0 1
0.435116 26.001477 5.498071 26.579973 1.554064 1.362442 0.041372 -0.012874 -582661.000000 0 0 1
-0.633384 26.335277 4.657371 26.751432 -1.546750 1.395807 0.046977 -0.008564 -209855.000000 0 0 1
-1.901784 26.833677 5.446971 27.446904 -1.500042 1.371015 0.056810 -0.020113 451631.000000 0 0 1
-2.769884 27.208277 4.371871 27.696135 -1.469343 1.412282 0.085669 -0.022016 -179399.000000 0 0 1
-3.870984 27.926877 4.878471 28.612838 -1.433063 1.399460 0.079925 -0.030841 125859.000000 0 0 1
-4.920384 28.460077 3.828471 29.134917 -1.399601 1.439010 0.085013 -0.037691 303386.000000 0 0 1
-4.376284 29.311277 2.824871 29.770501 -1.422587 1.475765 0.085365 -0.031031 -434222.000000 0 0 1
-5.310084 29.651077 1.873771 30.181027 -1.393589 1.508672 0.086069 -0.032439 -1029610.000000 0 0 1
-4.661484 30.393577 0.672271 30.756315 -1.418611 1.548937 0.075344 -0.027361 -24010.300000 0 0 1
-4.140884 31.670177 0.931371 31.953318 -1.440784 1.541644 0.073012 -0.026166 243760.000000 0 0 1
-3.085384 31.796877 1.868171 32.000798 -1.474065 1.512384 0.075733 -0.027351 -798307.000000 0 0 1
-2.326384 33.146077 1.805871 33.276654 -1.500725 1.516501 0.067009 -0.030563 44370.700000 0 0 1
-1.436884 33.263677 0.691471 33.301877 -1.527626 1.550031 0.044565 -0.022196 209180.000000 0 0 1
-0.586184 -33.841864 0.661871 33.853411 1.553477 1.551244 0.044393 -0.027990 1370940.000000 0 0 1
0.766616 -33.938264 1.506971 33.980353 -1.548212 1.526433 0.033054 -0.018430 784273.000000 0 0 1
0.578716 -33.941864 2.955771 34.075235 -1.553748 1.483945 0.035122 -0.019017 -35216.900000 0 0 1
1.847816 -33.992264 3.562171 34.228314 -1.516490 1.466537 0.021717 -0.014308 17786.900000 0 0 1
1.792316 -33.861464 5.101871 34.290527 -1.517915 1.421458 0.020431 -0.022288 -350189.000000 0 0 1
0.889016 33.477177 5.704571 33.971369 1.544247 1.402074 0.050019 -0.032628 -193639.000000 0 0 1
0.328316 33.934377 6.879071 34.626166 1.561122 1.370799 0.051300 -0.032869 -6237.420000 0 0 1
1.240416 33.717177 8.105571 34.699956 1.534024 1.335028 0.027137 -0.026266 3262.010000 0 0 1
1.407316 32.340277 8.472171 33.461198 1.527308 1.314816 0.029523 -0.031934 -57692.500000 0 0 1
2.527616 32.123977 9.294671 33.536990 1.492275 1.289973 0.034393 -0.025341 -335374.000000 0 0 1
2.955216 30.652277 9.456171 32.213578 1.474682 1.272862 0.029499 -0.023952 -566978.000000 0 0 1
2.132816 29.789577 10.185271 31.554834 1.499322 1.242131 0.039885 -0.028560 -338527.000000 0 0 1
2.676616 28.542877 10.222471 30.436147 1.477295 1.228272 0.037547 -0.027134 -329911.000000 0 0 1
2.193316 27.713477 11.419671 30.054224 1.491818 1.181034 0.028190 -0.030472 -287701.000000 0 0 1
2.762016 28.060377 12.696071 30.922544 1.472681 1.147710 0.037994 -0.022324 -64906.900000 0 0 1
2.491116 27.140977 13.754571 30.529110 1.479268 1.103427 0.040172 -0.017445 1931380.000000 0 0 1
0.941016 26.911877 14.169271 30.428653 1.535844 1.086421 0.030789 -0.018579 1942830.000000 0 0 1
0.191916 27.982577 14.731571 31.624052 1.563938 1.086219 0.034625 -0.016956 370509.000000 0 0 1
-0.213084 29.062077 13.820471 32.181597 -1.563464 1.126910 0.044688 -0.018123 -518727.000000 0 0 1
-0.957084 30.174477 14.509471 33.495371 -1.539089 1.122780 0.034816 -0.017102 -298382.000000 0 0 1
-2.219184 29.874477 15.039371 33.520022 -1.496649 1.105522 0.025105 -0.010954 -127484.000000 0 0 1
-2.740884 30.984377 15.806271 34.891006 -1.482566 1.100648 0.023061 -0.005420 -467880.000000 0 0 1
-4.060584 30.659677 16.469071 35.039042 -1.439122 1.081482 0.013447 0.004453 -76420.100000 0 0 1
-5.109384 30.263277 15.570571 34.415323 -1.403542 1.101307 0.012781 0.004403 273428.000000 0 0 1
-6.201584 29.657677 16.217271 34.366224 -1.364661 1.079357 0.024192 0.000889 -360641.000000 0 0 1
-7.289884 29.352377 15.165971 33.833580 -1.327364 1.105987 0.014914 -0.010268 -673149.000000 0 0 1
-8.487884 28.954277 15.738971 34.031009 -1.285638 1.089996 0.008741 -0.004624 -944945.000000 0 0 1
-9.406384 28.508177 14.763771 33.453926 -1.252090 1.113731 0.018212 -0.010491 233842.000000 0 0 1
-10.700084 27.951077 15.431271 33.673115 -1.205192 1.094752 0.009287 -0.006943 379172.000000 0 0 1
-11.474184 28.936777 16.142471 35.065273 -1.193288 1.092401 0.016380 -0.016641 273204.000000 0 0 1
-11.025384 29.087277 17.453971 35.668893 -1.208484 1.059471 0.016727 -0.016058 -499022.000000 0 0 1
-11.706784 30.288177 18.154471 37.202249 -1.201970 1.061006 0.025493 -0.020197 508812.000000 0 0 1
-13.079184 30.046377 18.481771 37.622144 -1.160234 1.057275 0.029568 -0.014704 433010.000000 0 0 1
-13.665384 31.299977 18.696971 38.935948 -1.159147 1.069916 0.047873 -0.023586 303623.000000 0 0 1
-14.842884 31.325477 19.715971 39.878770 -1.128305 1.053655 0.055016 -0.018832 564824.000000 0 0 1
-14.423384 31.028577 21.064171 40.180915 -1.135669 1.018982 0.048921 -0.019779 -570613.000000 0 0 1
-15.500684 30.651977 21.842471 40.705141 -1.102600 1.004391 0.033613 -0.016887 -533997.000000 0 0 1
-15.154684 30.537477 23.362771 41.328211 -1.110141 0.970001 0.027470 -0.004338 57462.400000 0 0 1
-14.115684 29.573377 23.586671 40.375342 -1.125465 0.946921 0.013568 -0.007040 663201.000000 0 0 1
-13.669384 29.292677 24.907171 40.807845 -1.134184 0.914291 0.032596 -0.002108 -80458.800000 0 0 1
-13.078284 30.390777 25.755671 41.928457 -1.164414 0.909327 0.033369 0.002299 -166451.000000 0 0 1
-14.118984 31.245177 26.214471 43.160229 -1.146382 0.918043 0.030557 0.006958 313216.000000 0 0 1
-13.603484 32.449577 26.678571 44.156268 -1.173832 0.922053 0.028321 0.005365 -69043.100000 0 0 1
-14.671584 33.459077 27.201771 45.548892 -1.157552 0.930791 0.047107 0.004152 106839.000000 0 0 1
-15.326784 32.954277 28.345571 46.090846 -1.135463 0.908419 0.009420 0.005673 76854.100000 0 0 1
-14.679484 33.240877 29.601371 46.868800 -1.154942 0.887208 0.033604 0.014030 -85239.700000 0 0 1
-15.193584 32.442977 30.828171 47.262754 -1.132815 0.860218 0.010800 0.012316 414121.000000 0 0 1
-16.497984 32.826577 31.253871 48.234553 -1.105087 0.865898 0.015856 0.014965 -18362.200000 0 0 1
-16.811784 32.285777 32.517971 48.810101 -1.090712 0.841676 -0.001114 0.015678 -160125.000000 0 0 1
-18.295484 32.472077 32.847571 49.680212 -1.057707 0.848406 0.003810 0.010718 -214275.000000 0 0 1
-18.623184 33.852377 33.105371 50.879977 -1.067854 0.862348 0.027474 0.005458 -1266520.000000 0 0 1
-19.986784 34.005577 33.159171 51.530394 -1.039433 0.871750 0.028427 -0.000446 -1056750.000000 0 0 1
-20.383284 -32.657164 33.264271 50.877110 1.012802 0.858179 0.044767 0.001785 5292.890000 0 0 1
-20.053784 -31.966764 -33.772821 50.642193 1.010522 2.300825 0.046369 -0.003631 111564.000000 0 0 1
-20.791684 -32.354764 -32.593321 50.412791 0.999630 2.273822 0.033256 -0.009320 254424.000000 0 0 1
-20.428784 -31.540364 -31.341821 48.933011 0.996038 2.265952 0.048019 -0.014281 219379.000000 0 0 1
-20.707984 -30.133264 -31.541221 48.287502 0.968704 2.282594 0.069184 -0.010417 -10930.400000 0 0 1
-19.890384 -29.455264 -30.629921 46.919421 0.976858 2.282097 0.075738 -0.011553 -102028.000000 0 0 1
-20.257084 -27.990064 -30.537921 46.112447 0.944325 2.294613 0.090620 -0.018093 288013.000000 0 0 1
-21.557984 -27.767664 -30.024021 46.230203 0.910631 2.277652 0.082379 -0.019545 -21178.900000 0 0 1
-21.856484 -26.373764 -30.005921 45.537201 0.878786 2.290194 0.083772 -0.021993 823652.000000 0 0 1
-23.130684 -25.944764 -29.176821 45.381122 0.842677 2.269112 0.084341 -0.023249 707140.000000 0 0 1
-23.086284 -26.174064 -27.828121 44.637008 0.847999 2.243920 0.080411 -0.025425 986416.000000 0 0 1
-22.132484 -25.288064 -27.121521 43.184603 0.851845 2.249824 0.080605 -0.034366 883800.000000 0 0 1
-22.200984 -25.530264 -25.602021 42.428075 0.855036 2.218581 0.076778 -0.025627 -514304.000000 0 0 1
-23.418084 -25.121564 -25.076721 42.524600 0.820478 2.201483 0.065472 -0.023901 -570237.000000 0 0 1
-23.503584 -25.491764 -23.757621 42.031810 0.825955 2.171508 0.059974 -0.016997 -502842.000000 0 0 1
-24.913884 -25.394364 -23.130621 42.433489 0.794949 2.147308 0.047087 -0.012375 -197140.000000 0 0 1
-25.891684 -26.299164 -23.539421 43.773619 0.793205 2.138567 0.029846 -0.007739 -658601.000000 0 0 1
-25.583684 -27.664264 -23.296721 44.300944 0.824452 2.124539 0.042014 -0.001748 -2033790.000000 0 0 1
-26.785284 -28.596664 -23.190221 45.530287 0.818094 2.105210 0.022204 0.002784 -26365.600000 0 0 1
-27.623184 -28.321864 -22.083521 45.308390 0.797886 2.079911 0.021629 0.009531 -141034.000000 0 0 1
-28.591284 -27.334064 -22.357521 45.436454 0.762922 2.085252 0.016020 0.006371 -907374.000000 0 0 1
-29.120684 -26.721564 -21.076121 44.791284 0.742462 2.060700 0.014610 0.008975 -416479.000000 0 0 1
-29.711484 -27.723964 -20.320521 45.434723 0.750808 2.034481 0.021915 0.010184 -116907.000000 0 0 1
-30.382884 -27.206764 -19.207021 45.080343 0.730303 2.010932 0.021824 0.006261 -841740.000000 0 0 1
-30.995984 -28.285064 -18.306121 45.781109 0.739700 1.982163 0.018299 0.004478 547899.000000 0 0 1
-32.288084 -28.773764 -18.721621 47.126945 0.727908 1.979325 0.018968 0.005057 1771440.000000 0 0 1
-33.478084 -27.971464 -18.729621 47.476137 0.696025 1.976327 0.026910 0.014311 537969.000000 0 0 1
-33.941484 -27.341064 -17.402421 46.929760 0.678107 1.950686 0.037284 0.010270 -556149.000000 0 0 1
-32.992884 -26.350364 -17.043021 45.533907 0.673928 1.954431 0.036073 0.011891 452529.000000 0 0 1
-33.380184 -25.575864 -15.879121 44.950061 0.653788 1.931851 0.047233 0.004405 -39256.400000 0 0 1
-33.175784 -26.251064 -14.491421 44.718590 0.669396 1.900812 0.038594 0.000833 -517771.000000 0 0 1
-34.012184 -27.303464 -14.243521 45.882303 0.676419 1.886448 0.050710 0.003242 -323608.000000 0 0 1
-33.779484 -27.828364 -12.916521 45.632312 0.689100 1.857776 0.044848 0.001957 -112318.000000 0 0 1
-34.532384 -29.137864 -12.552221 46.894125 0.700874 1.841772 0.059907 -0.004217 16309.400000 0 0 1
-34.240584 -30.312864 -13.392321 47.651250 0.724629 1.855683 0.041991 -0.000263 221320.000000 0 0 1
-34.893584 -31.447564 -12.885121 48.708704 0.733501 1.838517 0.034403 -0.007549 -200868.000000 0 0 1
-34.516884 -32.596664 -13.808221 49.443147 0.756794 1.853835 0.020685 -0.001356 1102480.000000 0 0 1
-33.108684 -32.920564 -13.903521 48.716079 0.782549 1.860219 0.007325 0.000466 1021490.000000 0 0 1
-32.764884 -33.765064 -15.002621 49.383153 0.800431 1.879475 0.009451 -0.010175 -169707.000000 0 0 1
-31.251784 -33.901664 -15.215621 48.554217 0.826047 1.889540 -0.002262 0.001961 -117831.000000 0 0 1
-30.946384 33.576577 -16.333721 48.495935 -0.826139 1.914319 0.015841 0.000686 -1294350.000000 0 0 1
-29.581384 33.316077 -16.305321 47.443470 -0.844706 1.921628 0.020021 0.000567 -777133.000000 0 0 1
9.463278 20.332677 -9.047829 24.183354 1.135192 1.954260 0.036664 -0.021725 -1794740.000000 0 1 0
8.132478 19.989777 -9.017529 23.388977 1.184414 1.966596 0.033039 -0.028901 -1021590.000000 0 1 0
7.499278 20.136477 -10.299329 23.828409 1.214287 2.017759 0.031443 -0.030901 -96355.800000 0 1 0
7.558878 18.965177 -11.277929 23.323942 1.191527 2.075484 0.025778 -0.022037 -642469.000000 0 1 0
8.850078 18.507977 -11.554829 23.545343 1.124760 2.083744 0.041989 -0.023732 -568574.000000 0 1 0
8.798078 17.388877 -12.412029 23.104928 1.102392 2.137913 0.037334 -0.029125 -209654.000000 0 1 0
10.129678 17.180477 -13.122229 23.874088 1.038056 2.152733 0.057145 -0.018046 -205884.000000 0 1 0
10.001378 16.040477 -13.967929 23.503777 1.013270 2.207172 0.067890 -0.024252 438727.000000 0 1 0
11.252378 15.686377 -14.560529 24.180311 0.948531 2.217006 0.095339 -0.032765 246519.000000 0 1 0
11.104478 14.429777 -15.506929 23.916370 0.914898 2.276253 0.089699 -0.029006 -242651.000000 0 1 0
10.978578 13.200277 -14.792729 22.662774 0.877027 2.281982 0.086321 -0.025598 53641.000000 0 1 0
12.194078 12.843077 -14.196829 22.697800 0.811314 2.246532 0.104248 -0.026511 578552.000000 0 1 0
13.225878 12.040077 -15.153629 23.441838 0.738500 2.273699 0.098773 -0.028221 656836.000000 0 1 0
13.769578 12.812477 -16.225929 24.840322 0.749408 2.282612 0.081303 -0.024959 551378.000000 0 1 0
14.717378 11.956077 -16.895529 25.397006 0.682243 2.298634 0.072975 -0.030859 325108.000000 0 0 1
15.446378 12.526277 -18.111129 26.898164 0.681384 2.309489 0.052311 -0.027898 23379.800000 0 0 1
16.281978 13.638777 -17.818029 27.723658 0.697287 2.268815 0.032937 -0.021707 19084.300000 0 0 1
17.016078 14.021277 -18.961029 29.080298 0.689206 2.281046 0.014353 -0.010096 432527.000000 0 0 1
18.292178 14.916277 -18.762629 30.151871 0.684088 2.242437 0.016139 0.003836 125279.000000 0 0 1
18.168178 16.202277 -18.115529 30.344174 0.728263 2.210555 0.028878 -0.002655 90040.000000 0 0 1
17.577678 17.229377 -18.908629 31.038081 0.775392 2.225857 0.024095 0.002249 -79885.200000 0 0 1
17.461978 18.578877 -18.114929 31.276924 0.816378 2.188517 0.032892 0.003401 344617.000000 0 0 1
18.610578 19.419777 -18.197429 32.475033 0.806673 2.165606 0.041898 0.008189 293570.000000 0 0 1
18.428478 20.608777 -17.453629 32.694949 0.841192 2.133923 0.038608 0.010189 141575.000000 0 0 1
19.585778 21.621577 -17.616929 34.080075 0.834762 2.114054 0.061258 -0.000896 138532.000000 0 0 1
20.661178 21.577477 -16.725029 34.237383 0.807088 2.081168 0.050360 -0.002196 -303715.000000 0 0 1
20.606578 22.657077 -15.813829 34.468121 0.832758 2.047436 0.061334 -0.001937 305468.000000 0 0 1
21.948278 22.873577 -15.041729 35.088190 0.806039 2.013831 0.042069 -0.010710 -67969.700000 0 0 1
22.302478 21.992677 -13.945929 34.286547 0.778404 1.989686 0.050697 -0.005276 635966.000000 0 0 1
23.468578 22.407377 -13.224929 35.039456 0.762270 1.957815 0.048612 -0.003736 1735160.000000 0 0 1
24.913878 22.345577 -13.872229 36.227957 0.731107 1.963746 0.048268 -0.003016 677479.000000 0 0 1
25.111078 23.289677 -14.887929 37.344688 0.747784 1.980854 0.053287 -0.007049 -784537.000000 0 0 1
26.312878 22.915277 -15.463629 38.165446 0.716490 1.987965 0.046504 0.006692 -903385.000000 0 0 1
26.562478 23.676377 -16.780229 39.340973 0.728014 2.011453 0.047338 0.000493 -114332.000000 0 0 1
27.512878 22.992277 -17.603629 39.943598 0.696128 2.027188 0.059380 -0.008914 -34305.700000 0 0 1
27.268778 23.094277 -18.973129 40.458763 0.702699 2.058898 0.048129 -0.006444 -701617.000000 0 0 1
27.949178 22.078377 -19.852229 40.776492 0.668581 2.079282 0.049858 -0.009447 -1095880.000000 0 0 1
29.310278 22.287777 -19.961829 41.884508 0.650129 2.067571 0.048557 -0.007577 -1330760.000000 0 0 1
29.822778 21.315877 -20.832229 42.163331 0.620558 2.087577 0.054766 -0.016053 -129065.000000 0 0 1
31.330578 21.606777 -20.967229 43.452073 0.603738 2.074345 0.076328 -0.020318 -418155.000000 0 0 1
31.579378 22.831377 -21.643929 44.575650 0.625985 2.077794 0.053669 -0.009430 511042.000000 0 0 1
32.962378 23.151077 -21.809429 45.805479 0.612300 2.067047 0.058950 -0.006362 424891.000000 0 0 1
33.277878 24.557077 -22.421329 47.044481 0.635738 2.067578 0.038652 0.002031 -266662.000000 0 0 1
33.243778 24.650277 -23.839629 47.760997 0.638039 2.093407 0.047068 -0.006566 709303.000000 0 0 1
31.942978 24.568177 -24.439829 47.130186 0.655630 2.115962 0.051745 -0.017143 279225.000000 0 0 1
32.036478 24.765277 -25.951829 48.095242 0.658080 2.140749 0.057576 -0.022447 -352660.000000 0 0 1
32.016378 26.158777 -26.246179 48.971339 0.685047 2.136429 0.057444 -0.021355 447958.000000 0 0 1
30.699978 26.685877 -26.477219 48.535222 0.715563 2.147813 0.060677 -0.009736 695822.000000 0 0 1
30.192178 26.347577 -27.917819 48.838172 0.717504 2.179299 0.064879 -0.007519 -270889.000000 0 0 1
30.009678 24.933777 -28.218579 48.151451 0.693276 2.196957 0.056077 -0.019301 -27107.700000 0 0 1
29.510478 24.751177 -29.538839 48.538975 0.697912 2.225040 0.066712 -0.023922 -401637.000000 0 0 1
28.734178 23.472177 -29.757869 47.561821 0.684945 2.246783 0.072582 -0.026701 -916162.000000 0 0 1
27.504578 23.559877 -29.129809 46.477042 0.708302 2.248181 0.075387 -0.027018 -989410.000000 0 0 1
26.656078 22.458177 -29.360899 45.573881 0.700133 2.270836 0.091358 -0.034674 90831.300000 0 0 1
25.242478 22.593977 -28.751729 44.433461 0.730089 2.274536 0.085547 -0.026944 54275.700000 0 0 1
25.302778 22.474577 -27.323549 43.496132 0.726272 2.250013 0.063452 -0.016285 909456.000000 0 0 1
23.991478 22.557777 -26.736329 42.417869 0.754608 2.252746 0.072919 -0.028586 748275.000000 0 0 1
24.042578 22.801177 -25.213819 41.637434 0.758903 2.221261 0.075014 -0.020993 -42263.100000 0 0 1
24.567678 21.663177 -24.568229 40.944620 0.722655 2.214342 0.062181 -0.013515 94904.900000 0 0 1
24.809478 21.967677 -23.196129 40.449344 0.724721 2.181521 0.061169 -0.012541 -100941.000000 0 0 1
25.309278 20.641977 -22.581629 39.706180 0.684175 2.175743 0.061554 -0.007728 225444.000000 0 0 1
26.611178 20.277677 -23.001729 40.600721 0.651136 2.173091 0.046833 -0.011763 -16683.100000 0 0 1
26.879178 18.995477 -22.521429 39.881489 0.615208 2.170877 0.076390 -0.016349 445378.000000 0 0 1
27.951278 18.244177 -23.412829 40.771123 0.578280 2.182484 0.085140 -0.019235 -245973.000000 0 0 1
29.210978 18.328977 -22.858429 41.373185 0.560373 2.156150 0.103770 -0.032519 -1115920.000000 0 0 1
30.190178 17.592177 -23.567329 42.146774 0.527611 2.164184 0.086181 -0.018482 -60726.400000 0 0 1
31.367478 17.424177 -22.610029 42.411485 0.507045 2.133070 0.088143 -0.018571 -463524.000000 0 0 1
32.147478 18.540477 -22.275829 43.283047 0.523135 2.111401 0.077272 -0.019945 640095.000000 0 0 1
33.427678 18.132477 -21.773329 43.820934 0.497020 2.090785 0.084388 -0.019295 876507.000000 0 0 1
34.178378 19.149077 -20.892429 44.399800 0.510693 2.060713 0.059256 -0.024736 -88965.100000 0 0 1
33.519978 19.315277 -19.675429 43.402665 0.522760 2.041286 0.062717 -0.018378 166482.000000 0 0 1
34.077878 20.371377 -18.866929 43.957432 0.538792 2.014413 0.039390 -0.004497 -277830.000000 0 0 1
33.424378 20.494077 -17.484529 42.929069 0.550031 1.990280 0.043227 -0.009952 -158022.000000 0 0 1
33.528078 19.280677 -16.685729 42.122323 0.521880 1.978090 0.055059 -0.024455 317918.000000 0 0 1
33.134278 19.433477 -15.325529 41.357131 0.530439 1.950414 0.059652 -0.018313 -355262.000000 0 0 1
33.557578 18.242977 -14.431829 40.831299 0.497941 1.932053 0.056854 -0.004661 -1549040.000000 0 0 1
34.918578 18.091977 -14.412729 41.885003 0.478037 1.922079 0.048737 -0.011468 -1114870.000000 0 0 1
35.510578 17.166477 -13.498929 41.688250 0.450295 1.900546 0.035788 -0.001458 93803.800000 0 0 1
35.411878 17.517777 -11.970229 41.281473 0.459388 1.864988 0.050397 -0.013532 -295368.000000 0 0 1
36.352278 18.467377 -11.496529 42.363927 0.470036 1.845618 0.040685 -0.020591 -21008.000000 0 0 1
36.221978 18.825877 -10.148529 42.064688 0.479312 1.814460 0.051686 -0.019734 426191.000000 0 0 1
35.120778 19.922877 -9.794829 41.549113 0.516004 1.808777 0.057301 -0.018796 545126.000000 0 0 1
33.812378 19.437977 -9.934529 40.246823 0.521742 1.820214 0.076134 -0.024629 -416100.000000 0 0 1
32.823178 20.471977 -9.902429 39.931453 0.557667 1.821397 0.058643 -0.006718 609192.000000 0 0 1
31.425978 19.839077 -10.147029 38.524580 0.563114 1.837332 0.036773 -0.006121 41620.900000 0 0 1
31.192778 19.480677 -11.459729 38.520275 0.558258 1.872868 0.053107 -0.012736 -332726.000000 0 0 1
30.027978 18.704577 -11.520329 37.205627 0.557091 1.885610 0.051935 -0.015545 -178970.000000 0 0 1
29.600678 18.013977 -12.839329 36.953375 0.546695 1.925643 0.083769 -0.016321 74260.500000 0 0 1
30.380178 16.866777 -13.092429 37.132938 0.506819 1.931126 0.091090 -0.020327 378717.000000 0 0 1
29.790778 16.154577 -14.151329 36.724936 0.496887 1.966365 0.086600 -0.021970 -305704.000000 0 0 1
30.923878 15.690977 -15.030029 37.794110 0.469555 1.979785 0.075981 -0.019609 -316572.000000 0 0 1
31.687478 14.641377 -14.481329 37.791204 0.432834 1.964047 0.055961 -0.021189 -236525.000000 0 0 1
32.896478 14.444077 -15.153929 38.992963 0.413733 1.969943 0.052827 -0.017905 -223333.000000 0 0 1
33.875178 13.565677 -14.340229 39.207110 0.380903 1.945241 0.037732 -0.022409 -3063.600000 0 0 1
34.504878 14.161977 -13.173929 39.556297 0.389469 1.910325 0.036043 -0.012909 211218.000000 0 0 1
35.276178 13.155977 -12.560929 39.689613 0.356965 1.892812 0.038908 -0.001449 195133.000000 0 0 1
36.258878 13.666977 -11.446429 40.404372 0.360460 1.858026 0.055665 0.000084 -44759.100000 0 0 1
-35.521560 14.075077 -11.995529 40.047243 -0.377261 1.875001 0.031180 -0.002616 -745951.000000 0 0 1
-34.686360 14.509177 -10.967629 39.165656 -0.396179 1.854624 0.023226 -0.006241 -1292730.000000 0 0 1
-33.283760 14.975877 -11.406729 38.238711 -0.422809 1.873711 0.046333 -0.018507 625016.000000 0 0 1
-32.339960 13.919277 -11.761429 37.120755 -0.406440 1.893195 0.042123 -0.010217 490114.000000 0 0 1
-32.131360 12.905177 -10.784329 36.266646 -0.381918 1.872725 0.063293 -0.006269 -479527.000000 0 0 1
-31.004560 11.856077 -11.217029 35.038137 -0.365241 1.896671 0.076892 -0.007890 633137.000000 0 0 1
-31.258260 11.022677 -12.324329 35.361947 -0.339018 1.926787 0.056907 -0.002018 -111448.000000 0 0 1
-30.498960 9.847077 -12.310429 34.332173 -0.312301 1.937530 0.083472 -0.016836 -354072.000000 0 0 1
-30.437660 9.078977 -13.666929 34.578373 -0.289879 1.977131 0.082633 -0.020503 -116588.000000 0 0 1
-31.671160 8.617277 -14.187629 35.757637 -0.265655 1.978794 0.068782 -0.017794 388928.000000 0 0 1
-31.415460 7.783277 -15.299729 35.799332 -0.242863 2.012383 0.078562 -0.022329 164193.000000 0 0 1
-32.672460 7.127577 -15.925229 37.039234 -0.214787 2.015240 0.072421 -0.023449 460072.000000 0 0 1
-33.442760 6.207277 -15.137729 37.230354 -0.183521 1.989522 0.086838 -0.028880 1074640.000000 0 0 1
-34.440660 5.474777 -15.899029 38.326379 -0.157644 1.998555 0.066627 -0.029735 1196400.000000 0 0 1
-35.622160 4.876677 -15.066529 38.983593 -0.136054 1.967612 0.061581 -0.023529 584319.000000 0 0 1
36.283278 4.323177 -15.780029 39.801701 0.118592 1.978461 0.056200 -0.020586 -127204.000000 0 0 1
35.243178 4.067277 -14.893929 38.476661 0.114898 1.968270 0.067872 -0.018865 -150700.000000 0 0 1
34.290978 2.950977 -15.390929 37.702256 0.085845 1.991303 0.064755 -0.018314 181714.000000 0 0 1
34.981778 1.678977 -15.398729 38.257870 0.047959 1.985041 0.073073 -0.021822 757667.000000 0 0 1
34.103278 0.535177 -15.443829 37.441045 0.015692 1.995975 0.062547 -0.019909 282361.000000 0 0 1
33.585078 0.102977 -14.078929 36.416814 0.003066 1.967744 0.059803 -0.010834 -115533.000000 0 0 1
34.658578 -0.218123 -13.201129 37.088198 -0.006293 1.934715 0.068980 -0.011786 374260.000000 0 0 1
34.384778 -0.093623 -11.839329 36.366075 -0.002723 1.902400 0.069207 -0.009653 -380162.000000 0 0 1
34.457178 1.373677 -11.258529 36.275868 0.039845 1.886367 0.071075 -0.019073 -222479.000000 0 0 1
33.362778 2.190977 -11.553629 35.374591 0.065577 1.903509 0.065894 -0.012342 314803.000000 0 0 1
33.694878 3.444377 -11.013729 35.616159 0.101869 1.885184 0.073460 -0.016361 -34269.900000 0 0 1
32.681678 4.532577 -11.425929 34.916875 0.137810 1.904169 0.065422 -0.010444 -295263.000000 0 0 1
32.713778 4.861077 -12.771529 35.453255 0.147515 1.939317 0.060935 -0.013966 61500.200000 0 0 1
31.675378 5.729577 -13.107829 34.755903 0.178949 1.957502 0.058358 -0.012495 -482348.000000 0 0 1
31.766278 6.382177 -14.461329 35.481807 0.198271 1.990588 0.034999 -0.006837 -309191.000000 0 0 1
31.777678 5.415177 -15.488029 35.763445 0.168787 2.018691 0.022945 -0.003245 218729.000000 0 0 1
32.166078 5.918477 -16.780029 36.759411 0.181962 2.044834 0.024259 -0.005598 -746221.000000 0 0 1
31.287178 6.988777 -17.472829 36.510687 0.219767 2.069819 0.037040 -0.009401 558747.000000 0 0 1
30.014378 6.670577 -18.023329 35.639864 0.218692 2.100998 0.043219 -0.011339 1062600.000000 0 0 1
28.995678 6.260577 -17.086329 34.232832 0.212650 2.093381 0.041386 -0.005377 107051.000000 0 0 1
27.584678 6.271577 -17.749329 33.395895 0.223557 2.131146 0.048165 -0.007454 210280.000000 0 0 1
27.398678 5.218477 -18.699629 33.579699 0.188210 2.161413 0.053885 -0.004588 -171450.000000 0 0 1
26.380578 5.376177 -19.642729 33.326791 0.201040 2.201109 0.049171 -0.005817 -310752.000000 0 0 1
26.096178 4.042377 -20.376129 33.354729 0.153682 2.227983 0.046099 0.010210 106786.000000 0 0 1
25.299278 3.135077 -19.608829 32.161908 0.123291 2.226467 0.049502 -0.001255 365352.000000 0 0 1
24.950878 1.951577 -20.302029 32.226190 0.078058 2.252331 0.043514 -0.002690 -95797.900000 0 0 1
23.931178 1.190977 -19.422229 30.843843 0.049726 2.251957 0.042932 -0.010372 506172.000000 0 0 1
22.643978 1.798277 -19.305229 29.810659 0.079249 2.275220 0.058410 -0.016384 1051730.000000 0 0 1
21.747278 1.016577 -18.474829 28.553403 0.046711 2.274475 0.064781 -0.020813 1008370.000000 0 0 1
20.276978 1.541577 -18.438929 27.450435 0.075880 2.307321 0.066936 -0.026828 -376248.000000 0 0 1
19.575078 1.411777 -19.674429 27.789565 0.071997 2.357429 0.062230 -0.019587 1841410.000000 0 0 1
18.256578 2.035677 -19.703729 26.938514 0.111045 2.391218 0.057421 -0.018847 2206420.000000 0 0 1
17.158478 1.848477 -18.601529 25.374143 0.107316 2.393650 0.066343 -0.025413 -499891.000000 0 0 1
17.463578 2.636377 -17.450629 24.828441 0.149833 2.350190 0.070629 -0.022672 -190250.000000 0 1 0
16.586678 2.327677 -16.401029 23.442050 0.139424 2.345692 0.059629 -0.012533 131735.000000 0 1 0
15.474878 3.424377 -16.325229 22.753270 0.217777 2.370988 0.052767 -0.013186 244975.000000 0 1 0
14.677878 3.454177 -17.515129 23.111711 0.231127 2.430802 0.045303 -0.012950 458208.000000 0 1 0
13.533978 4.283677 -17.387429 22.446406 0.306536 2.456910 0.043745 -0.017595 -38923.400000 0 1 0
-19.616922 -21.571423 -17.262629 33.884336 0.832815 2.105351 0.036465 -0.011128 87514.400000 0 0 1
-19.548022 -22.293923 -18.503229 34.950159 0.850930 2.128710 0.037050 -0.012588 -593133.000000 0 0 1
-20.540122 -21.943923 -19.378229 35.762384 0.818429 2.143446 0.042306 -0.010863 -763491.000000 0 0 1
-20.517022 -22.729323 -20.707529 36.964470 0.836509 2.165425 0.029310 -0.007883 -839.482000 0 0 1
-20.489422 -24.124023 -20.594429 37.761295 0.866687 2.147644 0.026798 -0.007479 217296.000000 0 0 1
-19.988222 -24.694423 -21.776329 38.516906 0.890336 2.171679 0.028065 -0.007762 42510.600000 0 0 1
-19.762922 -26.217043 -21.749629 39.382137 0.924855 2.155883 0.035365 -0.006424 -368630.000000 0 0 1
-20.974422 -26.886623 -21.864029 40.507439 0.908304 2.140940 0.039349 -0.002863 -385569.000000 0 0 1
-20.758622 -28.256663 -21.656029 41.210957 0.937195 2.124090 0.062794 -0.011882 147884.000000 0 0 1
-22.062722 -29.073413 -21.835829 42.530347 0.921647 2.109959 0.060259 -0.007654 363040.000000 0 0 1
-22.722122 -29.029353 -23.110329 43.509602 0.906675 2.130759 0.043794 -0.006311 328524.000000 0 0 1
-22.119022 -29.882853 -24.105329 44.309174 0.933603 2.146024 0.042692 -0.010113 -279122.000000 0 0 1
-22.575622 -29.557963 -25.533059 45.113955 0.918538 2.172403 0.042108 -0.004046 -87228.900000 0 0 1
-23.875322 -29.999793 -25.857829 46.245496 0.898591 2.164148 0.042178 -0.002418 123272.000000 0 0 1
-24.520922 -29.151863 -26.798929 46.575630 0.871466 2.183871 0.040004 -0.002073 -39026.400000 0 0 1
-24.087422 -29.300103 -28.300729 47.324741 0.882728 2.211814 0.055367 -0.020043 -437700.000000 0 0 1
-24.568222 -30.408103 -29.040189 48.698899 0.891227 2.209707 0.037019 -0.011579 142038.000000 0 0 1
-24.050322 -30.502553 -30.401279 49.326073 0.903126 2.234874 0.070452 -0.012805 286773.000000 0 0 1
-24.571322 -31.781133 -31.157919 50.839022 0.912648 2.230489 0.042399 -0.010321 -164855.000000 0 0 1
-23.987622 -32.935973 -30.694599 51.013162 0.941321 2.216424 0.038437 -0.015516 -143675.000000 0 0 1
-24.614122 34.043589 -31.134449 52.289337 -0.944789 2.208593 0.043106 -0.017662 210732.000000 0 0 1
-23.714722 32.804141 -30.878429 50.911463 -0.944854 2.222463 0.055056 -0.022434 761513.000000 0 0 1
-22.582622 32.768403 -31.763229 50.918029 -0.967384 2.244406 0.052260 -0.028970 314786.000000 0 0 1
-21.981922 31.502619 -31.565559 49.719255 -0.961561 2.258644 0.059357 -0.025643 -786132.000000 0 0 1
-20.975822 30.947239 -32.537059 49.561849 -0.975130 2.286958 0.051819 -0.013731 -520379.000000 0 0 1
-21.409422 30.486049 -33.791569 50.295453 -0.958549 2.307515 0.038761 -0.003092 -472120.000000 0 0 1
-20.510722 29.574769 33.904804 49.445853 -0.964432 0.815237 0.026201 0.002849 -263003.000000 0 0 1
-20.730222 29.213219 32.425037 48.317049 -0.953645 0.835120 0.007357 0.003897 -84255.800000 0 0 1
-20.244222 30.256999 31.617434 48.218011 -0.981128 0.855663 0.006464 0.010878 47437.200000 0 0 1
-20.510122 30.083309 30.221904 47.318432 -0.972405 0.877999 0.019767 0.008505 -319703.000000 0 0 1
-20.066222 31.231699 29.325154 47.307895 -0.999715 0.902208 0.015692 -0.003949 -14155.200000 0 0 1
-20.894122 32.374962 29.553304 48.560274 -0.997676 0.916514 0.010006 -0.000789 179487.000000 0 0 1
-20.372822 33.609731 29.088024 48.895593 -1.025861 0.933654 0.014810 -0.009612 -2705.040000 0 0 1
-21.444422 -33.492123 28.985944 49.211487 1.001283 0.940966 0.032497 -0.020759 -5750.330000 0 0 1
-22.018922 -33.214693 30.217274 50.011323 0.985387 0.922024 0.020516 -0.005650 444637.000000 0 0 1
-23.096422 -32.255333 30.295734 49.916758 0.949380 0.918610 0.032929 -0.010510 477960.000000 0 0 1
-22.738222 -30.778483 30.069604 48.667472 0.934521 0.904780 0.050912 -0.006145 -428041.000000 0 0 1
-22.516722 -30.628563 28.681524 47.620809 0.936864 0.924430 0.035371 -0.000820 -52586.600000 0 0 1
-22.551522 -29.278033 28.194804 46.483560 0.914458 0.919077 0.045057 -0.006833 299990.000000 0 0 1
-23.968722 -28.916933 27.701834 46.669907 0.878691 0.935309 0.032136 0.004354 -456590.000000 0 0 1
-25.058062 -28.711593 28.604714 47.649677 0.853242 0.926904 0.037927 0.003809 271525.000000 0 0 1
-26.044642 -29.691993 28.652204 48.794330 0.850744 0.943197 0.018249 -0.000125 -975444.000000 0 0 1
-26.981112 -29.658443 27.491054 48.614418 0.832633 0.969767 0.005576 0.008409 -1410900.000000 0 0 1
-26.362482 -29.864713 26.216134 47.688229 0.847605 0.988743 0.007504 0.006595 513347.000000 0 0 1
-27.382442 -29.824763 25.196564 47.688378 0.828065 1.014130 0.007518 0.003906 462383.000000 0 0 1
-26.741302 -29.959433 23.804154 46.683001 0.842094 1.035716 0.013522 0.000842 -41485.200000 0 0 1
-26.076492 -28.760253 23.340874 45.298256 0.834300 1.029473 0.003791 -0.000736 679550.000000 0 0 1
-25.508372 -28.801163 21.986264 44.312299 0.845954 1.051619 0.028184 0.000234 248760.000000 0 0 1
-24.256322 -29.663333 21.746464 44.058951 0.885343 1.054599 0.035470 -0.005507 -697191.000000 0 0 1
-24.571822 -31.004003 21.511564 45.030767 0.900623 1.072752 0.038377 -0.018176 958650.000000 0 0 1
-23.401922 -31.854053 21.408364 44.951626 0.937185 1.074407 0.051620 -0.009358 753319.000000 0 0 1
-22.840622 -32.352533 22.749964 45.672106 0.956060 1.049373 0.050371 -0.016482 100750.000000 0 0 1
-22.006322 -31.449273 23.469404 44.990531 0.960245 1.022010 0.076889 -0.031029 154179.000000 0 0 1
-21.375222 -32.116153 24.536454 45.720728 0.983560 1.004323 0.066259 -0.033478 -217798.000000 0 0 1
-20.379522 -31.271893 25.334604 45.112064 0.993235 0.974487 0.058641 -0.019574 -438228.000000 0 0 1
-19.216022 -31.067913 24.533184 44.003952 1.016873 0.979398 0.066135 -0.026009 -23839.300000 0 0 1
-18.142622 -30.423833 25.125654 43.428825 1.033080 0.953849 0.088132 -0.031369 89788.100000 0 0 1
-17.338422 -31.136743 26.292534 44.287865 1.062711 0.935180 0.062270 -0.022816 -358527.000000 0 0 1
-18.071922 -31.248903 27.519604 45.391815 1.046469 0.919437 0.060610 -0.015267 578652.000000 0 0 1
-17.420022 -32.011943 28.577874 46.313243 1.072438 0.905800 0.060268 -0.011494 203293.000000 0 0 1
-18.048822 -31.548103 29.930954 47.084018 1.051141 0.881891 0.078899 -0.011962 340762.000000 0 0 1
-17.651922 -30.251843 30.376314 46.362536 1.042598 0.856361 0.083224 -0.011432 576415.000000 0 0 1
-18.547322 -29.829503 31.410044 47.121049 1.014517 0.841182 0.074091 -0.005599 410497.000000 0 0 1
-18.440822 -28.276893 31.417204 46.116020 0.992910 0.821308 0.068815 -0.009228 75206.800000 0 0 1
-19.132422 -27.480523 30.411894 45.233969 0.962613 0.833452 0.082024 -0.012121 281249.000000 0 0 1
-18.790422 -27.694493 29.006504 44.288172 0.974653 0.856681 0.100067 -0.003910 -319547.000000 0 0 1
-17.335022 -27.442473 28.580674 43.248667 1.007404 0.848852 0.088757 -0.010187 -202560.000000 0 0 1
-17.094322 -26.069773 28.304764 42.107108 0.990415 0.833608 0.081603 -0.007567 89932.000000 0 0 1
-15.824422 -25.847953 27.720144 41.072319 1.021446 0.829953 0.075795 -0.015576 94235.300000 0 0 1
-15.540622 -24.528123 26.945264 39.612965 1.006048 0.822743 0.081351 -0.006798 188224.000000 0 0 1
-16.569622 -24.300723 25.985614 39.247033 0.972351 0.847174 0.091021 -0.019614 55318.700000 0 0 1
-16.322122 -23.175123 25.250274 37.961485 0.957194 0.843095 0.081653 -0.023575 -237921.000000 0 0 1
-17.103422 -21.872223 25.522994 37.713981 0.907146 0.827455 0.079927 -0.019886 -498515.000000 0 0 1
-16.713322 -20.761623 24.729124 36.358076 0.893008 0.822822 0.068135 -0.016498 -307695.000000 0 0 1
-17.467122 -19.620123 24.972284 36.244510 0.843385 0.810695 0.067863 -0.007534 -309284.000000 0 0 1
-17.006222 -18.388223 24.165244 34.803697 0.824424 0.803308 0.055624 -0.016033 -408015.000000 0 0 1
-15.699122 -18.005023 24.476484 34.201484 0.853708 0.773234 0.066335 -0.016938 -765978.000000 0 0 1
-15.371922 -16.953423 23.620564 32.888380 0.834284 0.769579 0.061475 -0.012601 376523.000000 0 0 1
-13.902322 -16.467923 23.851054 32.145603 0.869676 0.734793 0.053481 -0.015892 177856.000000 0 0 1
-12.964622 -17.407023 23.352934 31.881741 0.930636 0.748830 0.026851 -0.012859 -6058.900000 0 0 1
-11.635822 -16.962223 23.568134 31.282044 0.969539 0.717567 0.017796 -0.015039 366733.000000 0 0 1
-10.987022 -15.984723 22.494164 29.702078 0.968614 0.711587 0.020836 -0.013657 -180411.000000 0 0 1
-10.726322 -16.675123 21.264164 29.073671 0.999179 0.750440 0.048817 -0.011828 -530065.000000 0 0 1
-9.349222 -16.897923 21.174064 28.658135 1.065441 0.739434 0.047138 -0.014258 -754264.000000 0 0 1
-8.974322 -18.159823 20.450464 28.784355 1.111811 0.780628 0.048320 -0.014784 -132862.000000 0 0 1
-8.907022 -17.957323 19.044464 27.649450 1.110345 0.810988 0.043747 -0.012365 -21467.500000 0 0 1
-8.197422 -19.071723 18.491364 27.800339 1.164850 0.843103 0.050715 -0.015936 381355.000000 0 0 1
-7.948622 -18.901223 16.970164 26.616222 1.172714 0.879434 0.039617 -0.018313 -175141.000000 0 0 1
-6.894422 -18.040023 16.659064 25.504899 1.205751 0.859031 0.044196 -0.014670 -433519.000000 0 0 1
-6.766322 -17.966323 15.275564 24.533950 1.210614 0.898698 0.054711 -0.013084 1057210.000000 0 1 0
-5.784922 -16.749823 14.910064 23.158840 1.238250 0.871320 0.039314 -0.017273 1118810.000000 0 1 0
-6.389722 -15.566423 15.432664 22.832196 1.181287 0.828588 0.035677 -0.019491 -31135.200000 0 1 0
-5.472122 -14.532523 15.457764 21.910746 1.210673 0.787685 0.025158 -0.016687 -475299.000000 0 1 0
-5.746622 -13.640323 16.698364 22.314063 1.172067 0.725250 0.016783 -0.003443 -138711.000000 0 1 0
-5.296022 -14.107123 17.967964 23.450085 1.211662 0.697856 0.020124 -0.001001 328588.000000 0 1 0
-6.185322 -15.026523 18.648164 24.734765 1.180307 0.716780 0.043605 -0.012711 1438650.000000 0 1 0
-7.509722 -14.325423 19.204764 25.108497 1.087958 0.699955 0.044590 -0.019725 610900.000000 0 0 1
-7.279122 -13.321723 20.159564 25.236124 1.070714 0.645436 0.036366 -0.025853 -643104.000000 0 0 1
-8.485822 -12.927923 20.716764 25.851976 0.989939 0.641229 0.046826 -0.015823 -142398.000000 0 0 1
-8.161722 -11.989323 21.878664 26.249448 0.973108 0.585401 0.055312 -0.015208 -49435.900000 0 0 1
-7.756822 -10.627123 21.477064 25.186669 0.940279 0.549634 0.045565 -0.016290 62236.800000 0 0 1
-7.312522 -9.877623 22.561264 25.691459 0.933524 0.498790 0.041863 -0.020670 -461279.000000 0 0 1
-5.853822 -10.091523 22.953164 25.747889 1.045158 0.470243 0.051977 -0.023538 -614892.000000 0 0 1
-5.645022 -11.135423 23.933304 26.993832 1.101610 0.480809 0.061294 -0.019265 277518.000000 0 0 1
-4.283722 -11.358423 24.291504 27.155869 1.210150 0.463437 0.055298 -0.016843 198968.000000 0 0 1
-4.082022 -12.571423 25.207084 28.462267 1.256830 0.482944 0.057766 -0.015855 51069.200000 0 0 1
-2.729122 -12.876623 25.547414 28.738926 1.361943 0.475753 0.048394 -0.016179 551186.000000 0 0 1
-2.658322 -13.866623 26.530384 30.053472 1.381388 0.489065 0.046571 -0.020740 -12516.200000 0 0 1
-2.721222 -15.333723 26.022064 30.326159 1.395158 0.539291 0.055377 -0.033775 216753.000000 0 0 1
-1.476522 -15.846523 25.554674 30.105378 1.477888 0.557008 0.051444 -0.031158 263953.000000 0 0 1
-1.645022 -17.117723 24.979154 30.326237 1.474990 0.602924 0.066353 -0.028127 -1018940.000000 0 0 1
-0.332722 -17.891423 24.931594 30.688729 1.552202 0.622536 0.068866 -0.030603 -211679.000000 0 0 1
0.108778 -18.264523 26.222754 31.956806 -1.564841 0.608391 0.070218 -0.032731 -12388.500000 0 0 1
0.550978 -17.300823 27.149914 32.198445 -1.538960 0.567578 0.073869 -0.035732 -898636.000000 0 0 1
1.335178 -17.891323 28.336824 33.538899 -1.496307 0.564429 0.056686 -0.032906 142869.000000 0 0 1
2.596478 -18.483223 27.974004 33.629096 -1.431232 0.588383 0.063851 -0.034633 1480530.000000 0 0 1
3.542778 -18.582123 29.094474 34.703530 -1.382402 0.576506 0.047589 -0.032032 1070670.000000 0 0 1
4.327378 -17.303723 29.395984 34.384137 -1.325739 0.545383 0.048698 -0.030016 -949755.000000 0 0 1
3.513278 -16.376223 30.061784 34.412711 -1.359464 0.508314 0.032711 -0.031079 -189922.000000 0 0 1
4.255778 -15.329123 30.576534 34.467638 -1.299989 0.479754 0.041518 -0.031735 -469236.000000 0 0 1
3.375878 -14.288623 31.282224 34.556314 -1.338787 0.438820 0.025481 -0.028147 -493376.000000 0 0 1
2.899078 -14.810923 32.458767 35.795805 -1.377501 0.435224 0.017202 -0.029475 -372090.000000 0 0 1
1.938078 -13.930423 32.986368 35.859633 -1.432558 0.403036 0.020618 -0.020668 -222178.000000 0 0 1
1.040078 -14.629223 34.048261 37.072631 -1.499820 0.406727 0.015452 -0.009341 575106.000000 0 0 1
1.764578 -14.895023 -32.989039 36.238820 -1.452878 2.714861 0.031395 -0.009463 193468.000000 0 0 1
0.928878 -15.574923 -32.066689 35.661093 -1.511228 2.688749 0.036035 -0.015287 97031.500000 0 0 1
1.514478 -15.752523 -30.657919 34.501356 -1.474949 2.665081 0.050018 -0.011038 46157.600000 0 0 1
0.949678 -16.838223 -29.910599 34.337611 -1.514456 2.628181 0.038877 -0.017876 -86663.600000 0 0 1
1.372878 -16.843923 -28.570619 33.194620 -1.489470 2.607440 0.047372 -0.013231 -57914.300000 0 0 1
1.118978 -18.148923 -27.813979 33.230301 -1.509219 2.562586 0.064903 -0.026982 -482919.000000 0 0 1
1.996778 -19.205523 -28.077019 34.075771 -1.467200 2.539158 0.067585 -0.023397 -114097.000000 0 0 1
1.747878 -20.291823 -27.208259 33.986799 -1.484871 2.499015 0.106650 -0.043020 -621251.000000 0 0 1
2.690578 -21.514323 -27.489629 35.011212 -1.446382 2.473761 0.098764 -0.043995 -406786.000000 0 0 1
4.031278 -21.479523 -27.138919 34.844540 -1.385274 2.463638 0.081376 -0.044055 -657110.000000 0 0 1
4.307078 -21.327823 -25.743009 33.706519 -1.371530 2.439883 0.091291 -0.047748 -1187240.000000 0 0 1
5.786178 -21.508523 -25.306409 33.712175 -1.308000 2.419858 0.087656 -0.046577 51953.200000 0 0 1
6.215778 -22.858223 -25.427839 34.752111 -1.305289 2.391597 0.080510 -0.042746 -46360.700000 0 0 1
6.468178 -23.230323 -26.802329 36.053433 -1.299238 2.408944 0.069488 -0.034246 -1136650.000000 0 0 1
5.624778 -24.479123 -27.182509 37.010193 -1.344938 2.395667 0.037720 -0.027095 163324.000000 0 0 1
5.964178 -25.685633 -26.405989 37.317548 -1.342640 2.356896 0.054880 -0.021816 352686.000000 0 0 1
5.044578 -26.746463 -26.653319 38.094887 -1.384379 2.345712 0.052819 -0.019401 188167.000000 0 0 1
5.377278 -27.994943 -25.757239 38.419621 -1.381027 2.305569 0.052167 -0.023638 -249999.000000 0 0 1
6.619378 -28.571843 -26.048179 39.225935 -1.343138 2.297026 0.061675 -0.020460 -516200.000000 0 0 1
6.884578 -29.618253 -25.157579 39.465707 -1.342408 2.261986 0.051868 -0.020701 -103278.000000 0 0 1
8.412978 -29.860343 -25.165089 39.946213 -1.296171 2.252316 0.052757 -0.029889 -22031.500000 0 0 1
8.743478 -30.419673 -26.402349 41.217580 -1.290913 2.266024 0.054194 -0.027939 868047.000000 0 0 1
10.188778 -30.434353 -26.498049 41.619798 -1.247745 2.260968 0.110427 -0.033942 1222760.000000 0 0 1
10.640978 -30.515473 -27.947999 42.726047 -1.235273 2.283816 0.115628 -0.044304 -64380.000000 0 0 1
10.278678 -31.683823 -28.683919 43.957741 -1.257094 2.281720 0.115071 -0.051308 -83199.000000 0 0 1
10.337478 -31.488833 -30.041119 44.731184 -1.253591 2.307152 0.108807 -0.026278 -19606.500000 0 0 1
-35.144263 -4.574323 -4.839729 35.769633 0.129431 1.706515 0.110979 -0.024331 -103656.000000 0 0 1
-34.332946 -3.702423 -4.056329 34.769425 0.107424 1.687726 0.108768 -0.036976 336207.000000 0 0 1
-33.849952 -2.532623 -4.700629 34.268489 0.074680 1.708401 0.120463 -0.031928 -73770.400000 0 0 1
-34.893591 -1.494723 -5.235129 35.315768 0.042810 1.719582 0.114763 -0.032489 -304835.000000 0 0 1
-35.411928 -0.646223 -4.245129 35.671324 0.018247 1.690086 0.095971 -0.029952 100921.000000 0 0 1
-36.386582 0.238877 -4.726129 36.693006 -0.006565 1.699957 0.087348 -0.031112 24312.300000 0 0 1
35.903836 1.152677 -3.707429 36.113143 0.032094 1.673639 0.086204 -0.024991 -292804.000000 0 0 1
-36.304032 2.184277 -3.255329 36.515079 -0.060094 1.660065 0.086364 -0.024114 -410180.000000 0 0 1
36.004626 3.087777 -2.417429 36.217557 0.085551 1.637593 0.094276 -0.029080 -354419.000000 0 0 1
-36.162772 4.319977 -2.054229 36.477776 -0.118896 1.627141 0.092632 -0.032078 -120925.000000 0 0 1
-35.839393 5.276077 -3.058729 36.354572 -0.146165 1.655032 0.103630 -0.023683 18633.000000 0 0 1
-34.694348 4.945377 -3.796829 35.250113 -0.141588 1.678717 0.070159 -0.030202 -674598.000000 0 0 1
-33.435482 5.765477 -3.522429 34.111284 -0.170757 1.674244 0.037564 -0.035523 -598014.000000 0 0 1
-32.836282 5.668577 -2.262629 33.398708 -0.170947 1.638594 0.038725 -0.036994 140876.000000 0 0 1
-33.093752 6.746077 -1.445829 33.805272 -0.201092 1.613579 0.070263 -0.043749 -755101.000000 0 0 1
-32.313712 6.830477 -0.159629 33.028123 -0.208314 1.575629 0.067021 -0.037659 328888.000000 0 0 1
-30.910032 7.096777 -0.411029 31.716924 -0.225683 1.583756 0.093291 -0.033638 1189380.000000 0 0 1
-30.227422 7.308377 0.801671 31.108714 -0.237227 1.545023 0.101430 -0.035873 -253946.000000 0 0 1
-30.205272 8.834077 1.126671 31.490773 -0.284533 1.535011 0.107840 -0.033017 -393053.000000 0 0 1
-31.487922 9.431877 1.294571 32.895675 -0.291034 1.531432 0.094200 -0.036967 338667.000000 0 0 1
-31.407662 10.754277 1.688971 33.240763 -0.329897 1.519964 0.105668 -0.024831 150110.000000 0 0 1
-32.782622 11.470377 1.755771 34.775747 -0.336579 1.520286 0.109978 -0.027398 -219900.000000 0 0 1
-33.369512 11.682777 0.466971 35.358587 -0.336767 1.557589 0.093763 -0.019676 623818.000000 0 0 1
-34.668816 12.259477 0.547971 36.776648 -0.339893 1.555896 0.098324 -0.006925 369014.000000 0 0 1
-35.842534 11.284277 0.683271 37.583095 -0.305005 1.552615 0.136805 -0.031128 -526459.000000 0 0 1
-36.052092 10.529577 -0.477929 37.561333 -0.284162 1.583521 0.136064 -0.027110 -260947.000000 0 0 1
35.792486 9.745077 -0.289529 37.096528 0.265823 1.578601 0.154876 -0.033856 142336.000000 0 0 1
35.471526 8.902077 -1.520429 36.603112 0.245886 1.612347 0.145188 -0.049146 22881.300000 0 0 1
34.891316 9.548177 -2.610529 36.268257 0.267115 1.642837 0.127381 -0.044968 -158183.000000 0 0 1
34.664096 8.572477 -3.622229 35.891607 0.242437 1.671890 0.116129 -0.045568 75183.900000 0 0 1
33.906176 9.119977 -4.839429 35.443234 0.262758 1.707764 0.093414 -0.042214 -54959.900000 0 0 1
32.543386 9.412677 -4.685229 34.199734 0.281551 1.708225 0.110062 -0.041298 -10638.900000 0 0 1
31.889756 9.701877 -5.879429 33.847461 0.295335 1.745386 0.088869 -0.031072 214822.000000 0 0 1
30.523216 10.453477 -5.840329 32.787975 0.329957 1.749876 0.095133 -0.026542 892366.000000 0 0 1
29.440826 9.522977 -5.609129 31.446966 0.312840 1.750124 0.080750 -0.023775 1027270.000000 0 0 1
28.217216 10.081777 -6.086529 30.576124 0.343156 1.771196 0.080456 -0.010157 538250.000000 0 0 1
27.034216 9.066877 -6.202829 29.181024 0.323596 1.784994 0.091106 -0.002250 -137502.000000 0 0 1
27.280016 7.996477 -7.116529 29.305083 0.285138 1.816092 0.087552 0.003685 -149998.000000 0 0 1
26.225416 7.085077 -7.217629 28.108093 0.263862 1.830487 0.104039 -0.006429 -358627.000000 0 0 1
26.356616 6.057877 -8.380829 28.312671 0.225919 1.871309 0.104917 -0.010787 145773.000000 0 0 1
27.304716 5.063377 -8.003529 28.900550 0.183357 1.851398 0.097025 -0.016825 538056.000000 0 0 1
27.576216 4.187277 -9.075829 29.331751 0.150693 1.885379 0.090403 -0.012705 -287981.000000 0 0 1
28.667946 3.137677 -8.806929 30.153907 0.109015 1.867183 0.065030 -0.006522 -914444.000000 0 0 1
29.976396 3.628577 -8.680529 31.418187 0.120462 1.850728 0.072677 -0.009573 -30813.400000 0 0 1
30.756896 2.985877 -7.735929 31.855089 0.096777 1.816096 0.069615 -0.011604 -178129.000000 0 0 1
30.973756 1.418077 -7.756129 31.961571 0.045751 1.815914 0.067635 -0.016173 -181317.000000 0 0 1
29.843126 0.763777 -7.111229 30.688191 0.025587 1.804647 0.081559 -0.018434 1249070.000000 0 0 1
30.068436 -0.608623 -6.876929 30.850825 -0.020238 1.795594 0.082469 -0.024235 -450419.000000 0 0 1
29.760226 -1.607323 -7.935829 30.842048 -0.053957 1.831029 0.071440 -0.015125 -313105.000000 0 0 1
30.641036 -1.612823 -9.078229 31.998258 -0.052588 1.858457 0.077836 -0.009956 606259.000000 0 0 1
30.640606 -2.880323 -9.717229 32.273325 -0.093728 1.876634 0.054101 -0.012302 -673284.000000 0 0 1
31.654186 -3.162823 -10.828229 33.604188 -0.099587 1.898879 0.063759 -0.007588 -456444.000000 0 0 1
32.936446 -3.385023 -10.298729 34.674654 -0.102415 1.872356 0.074515 -0.007263 -411930.000000 0 0 1
33.867566 -3.760023 -11.244329 35.882931 -0.110569 1.889527 0.066924 -0.015555 -567963.000000 0 0 1
35.274976 -4.135023 -10.783229 37.117386 -0.116690 1.865563 0.073042 -0.011194 -291076.000000 0 0 1
35.295666 -5.264423 -9.917629 37.038595 -0.148061 1.841869 0.066908 -0.012492 1150570.000000 0 0 1
-36.322952 -5.545023 -9.618329 37.981790 0.151489 1.826819 0.070083 -0.011471 892052.000000 0 0 1
-36.195072 -6.779423 -8.684029 37.834589 0.185157 1.802387 0.073016 -0.012139 8963.250000 0 0 1
36.028986 -6.658023 -7.495329 37.397821 -0.182735 1.772584 0.075629 -0.012800 580284.000000 0 0 1
35.816936 -7.932423 -6.961629 37.339530 -0.217953 1.758335 0.075074 -0.013432 -447225.000000 0 0 1
35.193166 -7.803023 -5.602929 36.480665 -0.218190 1.724993 0.079356 -0.018377 -796466.000000 0 0 1
36.092196 -7.520923 -4.556429 37.147973 -0.205441 1.693762 0.093958 -0.019704 206835.000000 0 0 1
36.406136 -8.619723 -3.671229 37.592343 -0.232485 1.668611 0.093969 -0.023227 34098.300000 0 0 1
-35.799680 -9.841623 -4.174929 37.361807 0.268281 1.682773 0.098070 -0.021369 104110.000000 0 0 1
36.351726 -10.688923 -4.976929 38.216107 -0.285982 1.701398 0.083427 -0.021248 504126.000000 0 0 1
-35.886896 -11.680423 -5.537529 38.144014 0.314665 1.716485 0.076107 -0.018520 -221868.000000 0 0 1
36.451856 -12.179623 -6.841729 39.037037 -0.322466 1.746969 0.068014 -0.019753 99945.800000 0 0 1
-36.430022 -11.310123 -7.940929 38.963107 0.301027 1.776041 0.070024 -0.013159 59207.600000 0 0 1
36.115086 -11.953523 -9.059529 39.105769 -0.319635 1.804588 0.080479 -0.011586 -181099.000000 0 0 1
36.259696 -11.097223 -10.363029 39.310384 -0.296997 1.837570 0.060170 -0.017941 -282577.000000 0 0 1
35.533886 -9.885023 -10.438629 38.331915 -0.271326 1.846602 0.052984 -0.012160 367258.000000 0 0 1
35.519746 -9.427623 -11.750729 38.582535 -0.259437 1.880274 0.045398 -0.014300 -362069.000000 0 0 1
34.473226 -8.340523 -12.043029 37.456670 -0.237380 1.898129 0.049115 -0.009991 -144443.000000 0 0 1
34.668506 -7.909823 -13.363929 37.987698 -0.224316 1.930286 0.052660 -0.006705 825845.000000 0 0 1
33.607996 -7.027823 -13.700429 36.967410 -0.206141 1.950460 0.053586 -0.012373 155642.000000 0 0 1
33.899996 -6.360623 -15.089029 37.647656 -0.185473 1.983182 0.043551 -0.018349 452257.000000 0 0 1
34.901396 -5.327723 -15.120829 38.407441 -0.151481 1.975444 0.052725 -0.019437 652727.000000 0 0 1
34.376996 -4.079923 -15.459429 37.913290 -0.118129 1.990793 0.056328 -0.016837 77459.900000 0 0 1
35.497726 -3.022623 -15.665229 38.918173 -0.084945 1.985061 0.065517 -0.020738 -591996.000000 0 0 1
36.246686 -3.326923 -16.783029 40.081925 -0.091529 2.002830 0.062317 -0.023356 2201960.000000 0 0 1
-35.326597 -2.901823 -16.671629 39.170553 0.081959 2.010439 0.086506 -0.023883 2581990.000000 0 0 1
-34.914273 -1.449523 -16.447729 38.621695 0.041493 2.010717 0.087398 -0.024270 -843782.000000 0 0 1
-35.382113 -0.651123 -17.509629 39.482971 0.018401 2.030266 0.080949 -0.029160 276446.000000 0 0 1
-35.143614 0.671677 -17.090629 39.084707 -0.019110 2.023359 0.087721 -0.025363 -21216.700000 0 0 1
-35.641362 1.794477 -18.028129 39.981749 -0.050306 2.038580 0.061924 -0.022453 -28967.200000 0 0 1
-34.929407 1.883877 -19.269929 39.936733 -0.053882 2.074316 0.073626 -0.020657 431979.000000 0 0 1
-35.048194 3.176277 -19.826729 40.392621 -0.090379 2.083862 0.063385 -0.012905 139064.000000 0 0 1
-34.026702 3.345777 -21.005329 40.127727 -0.098013 2.121705 0.066354 -0.007836 585400.000000 0 0 1
-32.657122 3.518377 -20.665829 38.806482 -0.107323 2.132390 0.065835 -0.009209 425592.000000 0 0 1
-31.960712 4.104477 -21.731429 38.866294 -0.127723 2.164136 0.046370 -0.006723 -261694.000000 0 0 1
-30.533612 4.593577 -21.406429 37.571766 -0.149323 2.176995 0.076677 -0.012764 146535.000000 0 0 1
-29.644592 3.535177 -21.106429 36.562011 -0.118691 2.186187 0.077979 -0.001530 -411878.000000 0 0 1
-28.343062 3.849677 -21.513329 35.790676 -0.134998 2.215658 0.060470 -0.005085 303063.000000 0 0 1
-27.253602 2.869577 -20.887329 34.456840 -0.104905 2.222055 0.089427 -0.003589 519010.000000 0 0 1
-27.028232 3.140177 -19.541329 33.499993 -0.115663 2.193611 0.091554 -0.003259 -53534.100000 0 0 1
-26.181992 2.146077 -19.032829 32.439959 -0.081785 2.197786 0.093993 -0.011095 -159427.000000 0 0 1
-25.359222 2.510277 -17.784229 31.075238 -0.098667 2.180099 0.086241 -0.018730 -293857.000000 0 0 1
-24.305322 3.411677 -17.882829 30.367479 -0.139456 2.200470 0.082142 -0.020521 -530907.000000 0 0 1
-23.628122 3.497077 -16.667229 29.125834 -0.146938 2.180042 0.090621 -0.031425 -545205.000000 0 0 1
-22.500322 4.522577 -16.775429 28.427684 -0.198357 2.201990 0.110010 -0.035009 -626178.000000 0 0 1
-21.365622 4.066777 -17.421829 27.866621 -0.188092 2.246166 0.118076 -0.036567 -231591.000000 0 0 1
-20.261322 4.948177 -17.340629 27.123846 -0.239529 2.264401 0.098347 -0.034612 28727.300000 0 0 1
-18.922922 4.482177 -17.931329 26.451832 -0.232579 2.315680 0.109759 -0.030791 -150195.000000 0 0 1
-18.410522 3.419777 -17.173229 25.407912 -0.183658 2.312983 0.122275 -0.027870 -503752.000000 0 0 1
-17.448922 2.706477 -17.905029 25.147166 -0.153882 2.363153 0.092242 -0.026314 -320722.000000 0 0 1
-17.067222 1.209477 -17.452929 24.440900 -0.070747 2.366115 0.081194 -0.019532 59288.400000 0 1 0
-17.974822 0.175677 -17.690429 25.220554 -0.009773 2.348197 0.067018 -0.020242 286339.000000 0 0 1
-19.233222 0.239777 -17.024029 25.686414 -0.012466 2.295300 0.074584 -0.019792 471379.000000 0 0 1
-20.392722 -0.655123 -17.516729 26.891041 0.032114 2.280220 0.068051 -0.015908 1040.020000 0 0 1
-20.394522 -1.917223 -16.947129 26.586038 0.093731 2.261974 0.056077 -0.019227 447609.000000 0 0 1
-21.605022 -2.586223 -17.242829 27.762937 0.119138 2.240908 0.075126 -0.013371 720.630000 0 0 1
-21.863022 -3.861923 -16.392529 27.597485 0.174838 2.206801 0.090706 -0.024370 -329984.000000 0 0 1
-22.309522 -3.574723 -15.111329 27.181716 0.158882 2.160286 0.094145 -0.021212 171561.000000 0 0 1
-22.674122 -4.705923 -14.402529 27.270760 0.204641 2.127194 0.106442 -0.033589 -258807.000000 0 0 1
-23.091322 -4.355323 -12.940629 26.826067 0.186423 2.074178 0.116841 -0.033861 -39867.400000 0 0 1
-24.200022 -3.473723 -12.903829 27.644468 0.142568 2.056440 0.108332 -0.030588 441472.000000 0 0 1
-24.456822 -3.137523 -11.548029 27.227507 0.127591 2.008798 0.125496 -0.040081 -448183.000000 0 0 1
-25.340552 -1.905323 -11.392329 27.848860 0.075047 1.992239 0.134398 -0.043231 -361422.000000 0 0 1
-25.476372 -1.463923 -10.063929 27.431209 0.057399 1.946448 0.136648 -0.046324 467664.000000 0 0 1
-25.898482 -0.135623 -9.928629 27.736752 0.005237 1.936878 0.136804 -0.044449 -306429.000000 0 0 1
-26.131422 0.218577 -8.414629 27.453688 -0.008364 1.882313 0.156215 -0.039564 -286510.000000 0 0 1
-24.936722 0.371677 -7.693429 26.099178 -0.014904 1.870018 0.133645 -0.034720 186860.000000 0 0 1
-25.233172 0.576977 -6.315429 26.017888 -0.022862 1.815980 0.130315 -0.038188 -224276.000000 0 0 1
-24.086222 1.273377 -5.592129 24.759634 -0.052818 1.798619 0.089663 -0.024082 -313000.000000 0 1 0
-23.932322 2.614177 -5.963429 24.802267 -0.108801 1.813614 0.119917 -0.024164 25845.200000 0 1 0
-22.632822 3.053277 -5.659129 23.528554 -0.134095 1.813700 0.107799 -0.007893 -222191.000000 0 1 0
-22.436822 4.561277 -5.915829 23.647690 -0.200561 1.823647 0.120150 -0.015208 -263388.000000 0 1 0
-22.945622 5.403877 -4.864429 24.070025 -0.231293 1.774293 0.122097 -0.013287 527712.000000 0 1 0
-22.698022 6.797177 -4.927729 24.200916 -0.290962 1.775848 0.136282 -0.017707 -702737.000000 0 1 0
-23.177122 7.638377 -3.707429 24.683371 -0.318356 1.721566 0.130634 -0.013347 44908.500000 0 1 0
-22.348922 7.557677 -2.549829 23.729611 -0.326095 1.678458 0.101091 -0.015291 -343353.000000 0 1 0
-21.013722 7.887877 -2.575829 22.592698 -0.359093 1.685056 0.115484 -0.013444 -1233220.000000 0 1 0
-20.614022 9.362077 -2.642029 22.794006 -0.426309 1.686966 0.104195 -0.010882 -538332.000000 0 1 0
-20.343022 9.801477 -3.973929 22.928140 -0.448990 1.744997 0.075042 -0.009079 463807.000000 0 1 0
-19.885122 11.128777 -4.042529 23.143245 -0.510224 1.746371 0.081541 -0.005376 -381057.000000 0 1 0
-19.703722 11.636477 -5.511629 23.537679 -0.533459 1.807153 0.068938 -0.009340 -199219.000000 0 1 0
-18.600822 11.021877 -6.131529 22.473718 -0.534922 1.847131 0.047639 -0.011780 16080.200000 0 1 0
-18.627222 11.462477 -7.463629 23.109901 -0.551638 1.899654 0.056231 -0.011540 -30375.100000 0 1 0
-17.391122 11.232477 -8.362629 22.328306 -0.573469 1.954687 0.052889 -0.005966 -57700.000000 0 1 0
-17.052022 9.865477 -8.680729 21.527985 -0.524499 1.985840 0.045574 -0.011326 1207220.000000 0 1 0
-18.025122 9.261077 -9.592529 22.420731 -0.474616 2.012900 0.059405 -0.007720 516393.000000 0 1 0
-18.010322 9.842377 -11.033629 23.302040 -0.500141 2.064062 0.061571 -0.012126 72837.800000 0 1 0
-16.786122 9.569877 -11.673429 22.574884 -0.518149 2.114253 0.049666 -0.015839 34912.100000 0 1 0
-16.771822 10.289077 -12.915929 23.536787 -0.550268 2.151671 0.054195 -0.016634 22730.000000 0 1 0
-15.645022 9.839977 -13.853229 23.097701 -0.561437 2.214006 0.043391 -0.008878 -441762.000000 0 1 0
-15.826822 8.602077 -14.474829 23.108542 -0.497849 2.247703 0.057919 -0.019381 146469.000000 0 1 0
-15.285122 7.501577 -13.777929 21.902966 -0.456242 2.251119 0.037062 -0.013576 -350289.000000 0 1 0
-15.358222 6.291477 -14.715429 22.181107 -0.388797 2.296179 0.045208 -0.012397 -619878.000000 0 1 0
-14.384222 6.291177 -15.709429 22.209703 -0.412298 2.356500 0.047145 -0.011905 38396.000000 0 1 0
-14.299422 5.031177 -16.374429 22.313855 -0.338317 2.394729 0.039458 -0.013447 43529.500000 0 1 0
32.716956 -16.184323 28.613454 46.379535 -0.459380 0.905946 0.062899 -0.000753 -216959.000000 0 0 1
31.713196 -15.229623 28.928304 45.546844 -0.447707 0.882616 0.066252 0.001288 287166.000000 0 0 1
30.776796 -15.519923 29.957394 45.667545 -0.467061 0.855304 0.072732 0.003581 281169.000000 0 0 1
31.255106 -15.472423 31.407974 46.933339 -0.459669 0.837659 0.066355 -0.012540 -297437.000000 0 0 1
31.504296 -14.127623 31.831474 46.961187 -0.421552 0.825996 0.068957 -0.016437 92128.200000 0 0 1
31.823026 -14.076423 33.214265 48.104449 -0.416461 0.808670 0.059918 -0.028860 -340698.000000 0 0 1
32.232136 -12.655223 33.591754 48.243872 -0.374135 0.800580 0.062323 -0.029372 -57009.700000 0 0 1
32.019646 -12.354523 -33.309229 47.826736 -0.368242 2.341244 0.053103 -0.033679 87053.100000 0 0 1
32.077116 -10.952723 -33.133579 47.399763 -0.329037 2.344828 0.065182 -0.027720 -47301.900000 0 0 1
31.685376 -10.529523 -31.728799 46.060293 -0.320834 2.330703 0.058973 -0.026545 -102560.000000 0 0 1
30.332416 -10.776923 -31.441579 44.997449 -0.341383 2.344433 0.087008 -0.030697 -40178.000000 0 0 1
29.818766 -10.067623 -30.332699 43.710278 -0.325610 2.337755 0.068125 -0.023922 -443639.000000 0 0 1
28.483506 -10.648523 -29.876369 42.629785 -0.357761 2.347361 0.055342 -0.013093 -382711.000000 0 0 1
28.082596 -10.236123 -28.575359 41.351681 -0.349534 2.333713 0.041310 -0.011773 344548.000000 0 0 1
27.335516 -11.275023 -27.929909 40.674763 -0.391208 2.327687 0.055062 -0.011550 -249088.000000 0 0 1
26.817516 -10.808323 -26.547379 39.252545 -0.383118 2.313555 0.046874 -0.005616 -599937.000000 0 0 1
26.060916 -9.611923 -26.424859 38.338408 -0.353346 2.331254 0.043556 -0.010769 1651980.000000 0 0 1
24.751616 -9.524523 -27.049009 37.881498 -0.367338 2.366052 0.040949 -0.015710 1636790.000000 0 0 1
23.623016 -10.577923 -26.872139 37.310202 -0.421007 2.374938 0.044737 -0.004083 -510467.000000 0 0 1
24.069216 -11.763523 -27.485309 38.381634 -0.454597 2.369003 0.040920 -0.007882 -40849.100000 0 0 1
23.172216 -12.852223 -27.363219 38.090379 -0.506398 2.372262 0.035308 -0.015005 -154530.000000 0 0 1
23.792316 -14.133423 -27.924089 39.313899 -0.536021 2.360700 0.053985 0.000272 109726.000000 0 0 1
23.965716 -14.040523 -29.315909 40.384580 -0.529957 2.383165 0.055873 -0.011290 -388803.000000 0 0 1
24.902016 -14.933323 -29.762439 41.580251 -0.540187 2.368541 0.055596 -0.011154 -862409.000000 0 0 1
25.029216 -15.052823 -31.306039 42.814918 -0.541456 2.390868 0.067652 -0.022806 850250.000000 0 0 1
23.854116 -15.656723 -31.928379 42.820243 -0.580828 2.412287 0.073608 -0.019939 1072630.000000 0 0 1
24.112716 -16.109423 -33.259599 44.126381 -0.588986 2.424523 0.077813 -0.022346 163290.000000 0 0 1
24.286316 -15.039123 33.801962 44.255768 -0.554448 0.701637 0.062883 -0.020078 538619.000000 0 0 1
23.134616 -14.208823 33.673466 43.255097 -0.550781 0.678547 0.056660 -0.018014 245198.000000 0 0 1
23.179516 -13.463823 32.461574 42.098911 -0.526220 0.690263 0.044401 -0.016177 -1111730.000000 0 0 1
22.440416 -12.083923 32.440428 41.254998 -0.493963 0.665935 0.052126 -0.022811 -212959.000000 0 0 1
21.060816 -12.190423 32.252436 40.402772 -0.524700 0.646374 0.036277 -0.011188 -257704.000000 0 0 1
20.625816 -12.726723 30.982664 39.335979 -0.552847 0.663824 0.034306 -0.012625 -271470.000000 0 0 1
19.058116 -12.703823 30.969454 38.518904 -0.587945 0.636793 0.032366 -0.004983 598240.000000 0 0 1
18.319416 -11.553323 31.166384 37.952915 -0.562659 0.607311 0.036601 -0.011750 -324130.000000 0 0 1
17.507816 -11.732223 32.304798 38.571604 -0.590385 0.578053 0.020680 -0.006780 -61633.000000 0 0 1
16.669816 -10.491023 32.709942 38.182255 -0.561716 0.541999 0.028559 -0.010986 -1597300.000000 0 0 1
15.779716 -10.143423 31.729714 36.860049 -0.571307 0.533926 0.060497 -0.018602 -546359.000000 0 0 1
15.132616 -8.891223 32.058454 36.548521 -0.531217 0.500906 0.063680 -0.017199 454406.000000 0 0 1
14.138816 -8.859323 33.255145 37.206161 -0.559746 0.465031 0.064096 -0.023905 -967003.000000 0 0 1
13.094016 -9.771823 33.054969 36.872385 -0.641117 0.459060 0.075458 -0.017081 -582841.000000 0 0 1
12.092416 -9.744323 34.018022 37.395243 -0.678280 0.428263 0.074215 -0.024359 -514166.000000 0 0 1
10.749016 -9.255623 33.478826 36.359864 -0.710884 0.400764 0.096315 -0.024632 -918668.000000 0 0 1
10.895416 -7.858023 33.161689 35.779271 -0.624828 0.384887 0.074403 -0.026014 920216.000000 0 0 1
9.780016 -7.222123 32.488191 34.688475 -0.636073 0.358084 0.081198 -0.016159 652542.000000 0 0 1
10.121916 -5.775723 32.115594 34.164653 -0.518533 0.348096 0.072087 -0.020295 55386.400000 0 0 1
10.180316 -4.931123 33.288456 35.157874 -0.451072 0.327567 0.060685 -0.026944 217209.000000 0 0 1
10.694116 -3.657723 32.969907 34.853376 -0.329558 0.330253 0.033324 -0.024741 -215539.000000 0 0 1
10.760816 -2.699623 -34.073529 35.834180 -0.245802 2.826820 0.035871 -0.024475 -189648.000000 0 0 1
9.450916 -2.572823 -33.554549 34.954928 -0.265789 2.857576 0.036815 -0.016718 200601.000000 0 0 1
9.489916 -1.743123 -32.376329 33.783482 -0.181657 2.851957 0.044437 -0.016897 -857866.000000 0 0 1
8.101416 -1.353823 -31.987809 33.025531 -0.165579 2.890245 0.042971 -0.012308 -966443.000000 0 0 1
7.366716 -0.454523 -32.806359 33.626363 -0.061621 2.920299 0.040978 -0.015748 1294470.000000 0 0 1
6.008116 -0.322223 -32.303499 32.859052 -0.053580 2.957446 0.056467 -0.014066 870248.000000 0 0 1
5.180916 0.688977 -33.062729 33.473282 0.132208 2.984811 0.070663 -0.014762 -302953.000000 0 0 1
5.715116 2.026277 -33.047119 33.598815 0.340720 2.960125 0.053057 -0.019021 304784.000000 0 0 1
5.068016 2.899677 -34.029429 34.526728 0.519692 2.971663 0.070120 -0.020477 205759.000000 0 0 1
5.891616 4.135777 33.734598 34.494042 0.612051 0.210228 0.048660 -0.013064 -119929.000000 0 0 1
5.270216 4.990277 32.838861 33.631367 0.758122 0.217521 0.065969 -0.021786 -18020.800000 0 0 1
6.160916 6.079977 32.708563 33.834496 0.778786 0.258704 0.054719 -0.018809 25902.200000 0 0 1
5.634916 7.204977 31.800904 33.090202 0.907074 0.280067 0.070540 -0.019906 -426853.000000 0 0 1
4.452016 7.793077 32.313605 33.536869 1.051764 0.270921 0.072854 -0.026342 98573.800000 0 0 1
4.159316 9.106077 31.889724 33.424169 1.142333 0.304184 0.082972 -0.029872 -196905.000000 0 0 1
3.864516 9.171377 30.345424 31.935770 1.172007 0.316914 0.083545 -0.036313 4130.270000 0 0 1
2.747816 8.428277 29.824914 31.114496 1.255639 0.288915 0.096522 -0.039057 500332.000000 0 0 1
2.345016 8.681477 28.483144 29.868991 1.306975 0.305813 0.079407 -0.034540 3439.080000 0 0 1
1.022316 8.067677 28.035854 29.191466 1.444751 0.282316 0.076099 -0.034633 -860825.000000 0 0 1
-0.172984 8.504577 28.564384 29.804057 -1.550459 0.289433 0.079189 -0.030772 -585930.000000 0 0 1
-1.205384 8.173877 27.635414 28.844087 -1.424384 0.290515 0.082708 -0.028289 329088.000000 0 0 1
-2.669484 8.258677 28.086694 29.397182 -1.258163 0.299713 0.084414 -0.025439 -107735.000000 0 0 1
-3.075784 9.546877 28.395304 30.114724 -1.259120 0.339551 0.084442 -0.026098 48119.100000 0 0 1
-4.371284 9.525077 28.981834 30.818532 -1.140546 0.346983 0.069385 -0.011165 130161.000000 0 0 1
-4.752984 10.849677 29.698814 31.973832 -1.157902 0.379507 0.047640 0.002642 -7355.860000 0 0 1
-4.785284 12.102977 29.020584 31.805272 -1.194278 0.421575 0.046176 -0.006630 -48331.200000 0 0 1
-5.948084 12.234577 28.245214 31.350546 -1.118274 0.448847 0.052892 -0.009779 -143216.000000 0 0 1
-6.212884 13.749377 27.845084 31.670081 -1.146391 0.496566 0.026384 -0.006587 284018.000000 0 0 1
-5.200184 14.251277 26.991774 30.962828 -1.220916 0.512038 0.024579 -0.005699 -108967.000000 0 0 1
-5.434684 15.642877 26.745164 31.456942 -1.236420 0.554403 0.016883 0.000334 239473.000000 0 0 1
-4.306884 16.338877 25.932674 30.951765 -1.313062 0.577479 0.043562 -0.004004 71191.500000 0 0 1
-4.057984 15.970677 24.625814 29.630398 -1.321972 0.589714 0.028956 0.008621 -54322.000000 0 0 1
-3.369084 16.943777 23.876644 29.470943 -1.374517 0.626344 0.049660 0.011661 -236301.000000 0 0 1
-3.418484 16.710677 22.362364 28.124866 -1.369012 0.651607 0.056532 -0.000432 -44985.300000 0 0 1
-2.647084 15.594477 21.943664 27.050308 -1.402654 0.624566 0.032359 -0.001989 179734.000000 0 0 1
-2.417384 15.448077 20.565464 25.834573 -1.415571 0.650065 0.029796 0.003719 -17301.700000 0 0 1
-1.508584 14.262377 20.212264 24.783601 -1.465414 0.617117 0.026148 0.002532 -96443.700000 0 1 0
-2.082984 12.972277 20.411964 24.274824 -1.411583 0.571908 0.033835 0.003952 636223.000000 0 1 0
-1.245684 12.044477 19.688464 23.113995 -1.467739 0.551388 0.035784 0.009676 282001.000000 0 1 0
-1.961984 10.677077 19.380964 22.214210 -1.389067 0.510587 0.026285 0.001496 -854029.000000 0 1 0
-2.010884 9.714377 20.423664 22.705480 -1.366678 0.452164 0.046132 -0.016757 30695.100000 0 1 0
-2.819784 10.002777 21.559364 23.933510 -1.296027 0.449182 0.053818 -0.017140 -560331.000000 0 1 0
-4.299284 10.186877 21.215164 23.923618 -1.171434 0.480449 0.043468 -0.010017 -1503520.000000 0 1 0
-4.970484 8.959077 20.905564 23.281181 -1.064276 0.455685 0.042415 -0.012835 -1216860.000000 0 1 0
-6.298084 9.327677 20.906864 23.743808 -0.976907 0.493841 0.030387 -0.001043 -787891.000000 0 1 0
-7.305184 8.111077 20.970864 23.641752 -0.837626 0.479931 0.037040 -0.006875 381734.000000 0 1 0
-7.303884 7.387477 22.206464 24.516292 -0.791088 0.437570 0.039212 -0.017488 -139171.000000 0 1 0
-8.136084 6.278477 22.040864 24.319022 -0.657234 0.436299 0.033435 -0.016293 -54512.200000 0 1 0
-8.127784 5.353977 23.300914 25.251902 -0.582485 0.395669 0.028861 -0.017712 171739.000000 0 0 1
-8.974284 5.840777 24.344474 26.595223 -0.576962 0.414370 0.011422 -0.014219 190251.000000 0 0 1
-8.924284 4.999477 25.483574 27.459974 -0.510649 0.381718 0.018312 0.004055 -259316.000000 0 0 1
-9.886084 5.381677 26.633324 28.914202 -0.498510 0.399860 0.023827 0.007024 -140621.000000 0 0 1
-9.527784 6.628077 27.303184 29.667726 -0.607806 0.401952 0.023564 0.005254 -545813.000000 0 0 1
-10.375084 6.932377 28.336694 30.962372 -0.589046 0.414798 0.025837 0.005724 -359451.000000 0 0 1
-9.733384 7.935477 29.358054 31.931269 -0.683992 0.404209 0.040422 -0.000807 1083150.000000 0 0 1
-8.500884 7.480577 29.978534 32.045851 -0.721642 0.361157 0.057900 -0.005315 847039.000000 0 0 1
-8.077684 8.521077 30.836544 32.996215 -0.812104 0.363810 0.060745 -0.007303 40774.200000 0 0 1
-7.083784 7.939477 31.888984 33.617296 -0.842295 0.322050 0.080342 -0.005949 48782.400000 0 0 1
-5.804384 7.771377 31.333574 32.800580 -0.929287 0.300208 0.081177 -0.013604 -513361.000000 0 0 1
-4.962884 7.044677 32.218835 33.351327 -0.957065 0.261344 0.103563 -0.007002 511960.000000 0 0 1
-3.448584 7.106177 31.871624 32.835818 -1.118983 0.242936 0.092089 -0.009622 516507.000000 0 0 1
-2.967684 8.456277 31.821424 33.059323 -1.233280 0.274521 0.078348 -0.011961 417116.000000 0 0 1
-1.552384 8.452277 31.602514 32.750111 -1.389156 0.265509 0.071348 -0.023842 838110.000000 0 0 1
-0.991184 9.895677 31.309464 32.851019 -1.470966 0.307562 0.066358 -0.021781 72078.300000 0 0 1
-1.173984 10.808877 32.379310 34.155963 -1.462607 0.323954 0.062130 -0.027364 159164.000000 0 0 1
-1.585084 12.079877 31.886544 34.134845 -1.440325 0.364969 0.053632 -0.018715 -70139.300000 0 0 1
-1.633584 13.154077 32.958067 35.523690 -1.447240 0.382386 0.045028 -0.024439 1013430.000000 0 0 1
-0.327684 13.612877 33.390057 36.059863 -1.546729 0.387222 0.077751 -0.030830 886026.000000 0 0 1
-0.498384 14.421877 -33.691269 36.651610 -1.536253 2.736917 0.072068 -0.025243 500518.000000 0 0 1
0.862116 14.793977 -33.032549 36.204341 1.512587 2.719887 0.065870 -0.024632 304400.000000 0 0 1
1.593916 15.717677 -33.805069 37.314456 1.469733 2.704417 0.053050 -0.020495 1677280.000000 0 0 1
2.912716 16.024177 -33.239489 37.015156 1.390989 2.685992 0.070245 -0.021205 1774510.000000 0 0 1
3.701716 17.126977 -34.040099 38.285302 1.357937 2.666208 0.081761 -0.014046 177099.000000 0 0 1
3.232216 18.457077 -33.772309 38.622270 1.397434 2.635047 0.057891 0.000019 210443.000000 0 0 1
3.813416 19.355877 33.551301 38.921484 1.376272 0.531545 0.053991 0.014813 -113516.000000 0 0 1
3.225916 20.767177 33.617803 39.646423 1.416691 0.558709 0.055902 0.007006 -208393.000000 0 0 1
3.548016 21.408977 -33.392219 39.824276 1.406563 2.565301 0.056462 -0.016790 280590.000000 0 0 1
3.175216 22.772877 -33.335599 40.496272 1.432260 2.537780 0.064825 -0.017914 -21293.000000 0 0 1
3.419316 23.380877 -31.956299 39.743706 1.425582 2.504888 0.063689 -0.023530 -66745.500000 0 0 1
3.167416 24.781177 -32.043549 40.631617 1.443670 2.479383 0.077941 -0.032821 294917.000000 0 0 1
2.941816 25.273977 -30.749489 39.911894 1.454921 2.450318 0.097440 -0.043194 -126016.000000 0 0 1
2.511716 26.707377 -30.490399 40.611047 1.477026 2.420055 0.104192 -0.051190 -591141.000000 0 0 1
3.585916 27.569977 -30.487699 41.260904 1.441456 2.402233 0.104298 -0.048585 -241341.000000 0 0 1
3.165716 28.868277 -30.120879 41.840967 1.461572 2.374440 0.100180 -0.050062 -216577.000000 0 0 1
4.402216 29.739677 -29.891849 42.395171 1.423838 2.353328 0.111094 -0.059306 156744.000000 0 0 1
5.273616 29.367577 -28.840279 41.497317 1.393117 2.339204 0.111469 -0.070227 39584.000000 0 0 1
6.125916 30.370477 -28.380619 42.016095 1.371761 2.312398 0.102950 -0.062032 -1719920.000000 0 0 1
7.268716 30.006977 -27.472239 41.327676 1.333140 2.297945 0.108360 -0.067320 -485775.000000 0 0 1
8.392716 29.528677 -28.211889 41.692819 1.293876 2.314014 0.111901 -0.062598 522866.000000 0 0 1
9.442416 30.497677 -28.386369 42.720645 1.270546 2.297574 0.119142 -0.062599 -43862.500000 0 0 1
9.235816 31.680477 -29.302929 44.131786 1.287128 2.296934 0.124677 -0.069421 -1267770.000000 0 0 1
8.568816 32.671377 -28.582569 44.247110 1.314300 2.273097 0.113034 -0.065912 -46509.100000 0 0 1
8.194316 33.899177 -29.187949 45.477878 1.333620 2.267647 0.093566 -0.058550 -140761.000000 0 0 1
7.045616 33.962277 -30.210509 45.997302 1.366244 2.287349 0.075605 -0.044678 -2275.500000 0 0 1
7.357616 33.258977 -31.423409 46.343551 1.353081 2.315908 0.069514 -0.040118 744975.000000 0 0 1
6.107716 32.683377 -31.833239 46.031103 1.386052 2.334442 0.079933 -0.036833 664254.000000 0 0 1
6.119516 32.082377 -33.235569 46.597537 1.382317 2.364917 0.085025 -0.047888 4808.520000 0 0 1
6.101316 33.044077 33.971231 47.782650 1.388211 0.779944 0.081821 -0.036549 113075.000000 0 0 1
6.185516 32.366877 32.734579 46.448122 1.381967 0.788718 0.093807 -0.039147 -253025.000000 0 0 1
5.879116 33.260577 31.491144 46.179240 1.395844 0.820394 0.078990 -0.042270 281969.000000 0 0 1
6.836616 -33.948664 31.229324 46.631768 -1.372073 0.836991 0.090669 -0.034285 210890.000000 0 0 1
6.313416 -33.214964 30.162944 45.308898 -1.382960 0.842341 0.056029 -0.030365 9352.800000 0 0 1
17.923878 -22.289523 29.487944 41.080738 -0.893537 0.770152 0.108053 -0.008243 -172951.000000 0 0 1
16.985478 -21.186423 29.568504 40.145578 -0.895010 0.742867 0.100457 -0.005213 1232660.000000 0 0 1
15.640778 -21.704523 29.583384 39.886048 -0.946363 0.735199 0.105993 -0.002079 985253.000000 0 0 1
15.089078 -22.157323 31.009774 40.990649 -0.972938 0.712839 0.106513 -0.005201 -623723.000000 0 0 1
15.550678 -23.400923 31.488364 42.201230 -0.984273 0.728539 0.136157 -0.014648 282373.000000 0 0 1
15.173478 -23.567923 32.869706 43.198368 -0.998778 0.706095 0.108309 -0.016836 471775.000000 0 0 1
16.159278 -24.511923 33.664022 44.667919 -0.987952 0.717197 0.120624 -0.025771 310507.000000 0 0 1
16.027178 -25.916463 33.295495 45.134504 -1.016945 0.741147 0.131110 -0.028968 -168846.000000 0 0 1
16.828578 -26.794863 34.045188 46.478388 -1.010005 0.748817 0.128955 -0.031048 17696.900000 0 0 1
16.481478 -28.311933 33.792447 47.065211 -1.043614 0.769883 0.120880 -0.024479 40027.500000 0 0 1
17.088078 -28.817653 32.628071 46.765912 -1.035560 0.798630 0.114453 -0.036640 38156.900000 0 0 1
16.614578 -30.090193 32.301828 47.168549 -1.066297 0.816444 0.118886 -0.039941 -396053.000000 0 0 1
17.401278 -30.844793 31.225724 47.214951 -1.057150 0.848176 0.129098 -0.040465 -332986.000000 0 0 1
18.609078 -31.356283 31.738424 48.340892 -1.035191 0.854555 0.134313 -0.043393 -143051.000000 0 0 1
19.409978 -31.657273 30.609264 48.123354 -1.020779 0.881417 0.094600 -0.037730 -539036.000000 0 0 1
20.700778 -32.463323 30.833224 49.326233 -1.003140 0.895552 0.072922 -0.031127 649735.000000 0 0 1
21.784378 -31.602353 31.237014 49.487563 -0.967269 0.887685 0.062970 -0.032129 344736.000000 0 0 1
23.064678 -32.134063 31.087234 50.308980 -0.948247 0.904694 0.039992 -0.026451 -625074.000000 0 0 1
24.203578 -31.151103 31.264674 50.335715 -0.910255 0.900621 0.021008 -0.028294 -565094.000000 0 0 1
25.003378 -30.919843 30.146444 49.900037 -0.890802 0.922114 0.009626 -0.022988 -724561.000000 0 0 1
25.697378 -29.775083 30.349704 49.679124 -0.858775 0.913581 0.000696 -0.017967 -469988.000000 0 0 1
26.901978 -29.583803 29.382314 49.620945 -0.832840 0.937090 0.020257 -0.021300 704204.000000 0 0 1
28.066878 -30.273333 29.877944 50.959944 -0.823201 0.944309 0.028834 -0.018608 -52135.000000 0 0 1
29.119478 -30.244443 28.979054 51.014271 -0.804346 0.966652 0.027431 -0.040279 -745823.000000 0 0 1
30.170878 -31.276953 29.355534 52.443084 -0.803396 0.976700 0.041807 -0.026454 -378514.000000 0 0 1
29.754078 -32.594833 29.151404 52.891707 -0.830929 0.987051 0.024661 -0.025712 155212.000000 0 0 1
30.682378 -33.456313 29.773504 54.288072 -0.828620 0.990304 0.047478 -0.020100 -342985.000000 0 0 1
29.989178 33.402503 30.037164 54.012121 0.839191 0.981088 0.036814 -0.013133 392505.000000 0 0 1
29.019478 33.315769 31.123534 54.043917 0.854212 0.957100 0.030844 -0.010604 453200.000000 0 0 1
27.831278 34.041401 31.075294 53.843021 0.885433 0.955567 0.003058 -0.005472 -838677.000000 0 0 1
26.851278 33.718821 29.919964 52.470508 0.898298 0.964017 0.025265 -0.004388 -669195.000000 0 0 1
26.472778 32.363857 29.823564 51.358273 0.885192 0.951212 0.019172 -0.001902 38617.600000 0 0 1
25.242978 32.159296 30.516304 51.016400 0.905309 0.929585 0.030403 -0.006115 154479.000000 0 0 1
24.698278 30.698829 30.385964 49.756706 0.893296 0.913864 0.060239 -0.014001 -190760.000000 0 0 1
24.148878 30.480619 29.116864 48.580121 0.900787 0.928098 0.069451 -0.024308 -120511.000000 0 0 1
23.695878 29.157109 29.098614 47.522215 0.888361 0.911810 0.099187 -0.038774 -398098.000000 0 0 1
23.058178 28.797079 27.752614 46.164477 0.895621 0.925834 0.102897 -0.034661 -1038810.000000 0 0 1
21.884878 29.485249 27.597754 45.934342 0.932286 0.926284 0.120540 -0.032638 -779999.000000 0 0 1
21.119178 29.041009 26.438364 44.591333 0.942035 0.936136 0.126678 -0.027757 271314.000000 0 0 1
19.764978 29.759719 26.394094 44.417828 0.984537 0.934497 0.107017 -0.025104 -305209.000000 0 0 1
19.837678 31.122289 26.037824 45.167451 1.003322 0.956390 0.133437 -0.033402 -305182.000000 0 0 1
18.574778 31.682489 25.765614 44.862783 1.040527 0.959023 0.114830 -0.033265 -363796.000000 0 0 1
18.650578 33.133699 25.235084 45.634368 1.058112 0.984855 0.123743 -0.037024 -215736.000000 0 0 1
19.107878 33.364013 23.875934 45.258464 1.050685 1.015087 0.113905 -0.040973 1486930.000000 0 0 1
20.515478 33.732797 23.845524 46.123697 1.024387 1.027465 0.116012 -0.043421 1338100.000000 0 0 1
21.163378 33.680250 22.428064 45.664711 1.009783 1.057391 0.112677 -0.045295 125521.000000 0 0 1
20.719478 -33.494863 21.572864 44.906470 -1.016822 1.069691 0.101265 -0.028386 -140832.000000 0 0 1
21.608778 -33.368993 20.524864 44.740351 -0.996131 1.094203 0.120615 -0.027539 -345399.000000 0 0 1
21.434778 -32.154953 19.606064 43.333456 -0.982834 1.101290 0.103665 -0.021758 -159925.000000 0 0 1
21.855978 -30.933673 20.214064 42.932322 -0.955692 1.080559 0.100554 -0.019716 114171.000000 0 0 1
21.330778 -29.729803 19.685964 41.549975 -0.948430 1.077207 0.091401 -0.019558 -268109.000000 0 0 1
21.958878 -29.181063 18.373964 40.881895 -0.925694 1.104658 0.063279 -0.014974 28306.800000 0 0 1
21.499178 -29.798823 17.213164 40.576810 -0.945801 1.132705 0.060074 -0.013614 100811.000000 0 0 1
22.203078 -29.147233 16.204164 40.063859 -0.919814 1.154410 0.050406 -0.008409 -18948.100000 0 0 1
21.853878 -29.597473 14.752664 39.638914 -0.934780 1.189444 0.040173 -0.018159 -127201.000000 0 0 1
22.522878 -30.843883 14.477564 40.843910 -0.940074 1.208459 0.045767 -0.012520 271974.000000 0 0 1
22.593478 -31.234083 13.077664 40.706983 -0.944564 1.243733 0.045833 -0.023091 -784498.000000 0 0 1
21.295778 -31.434883 12.304064 39.913056 -0.975361 1.257421 0.037663 -0.022804 -869587.000000 0 0 1
20.501078 -32.442073 12.846664 40.469977 -1.007230 1.247771 0.049533 -0.027022 -473882.000000 0 0 1
19.437278 -32.757323 11.971064 39.926887 -1.035265 1.266288 0.052235 -0.018439 -106175.000000 0 0 1
18.336178 -33.571263 12.673564 40.297200 -1.070885 1.250864 0.046189 -0.013302 -327176.000000 0 0 1
17.859778 -32.881623 13.838464 39.895813 -1.073225 1.216570 0.047921 -0.009462 141301.000000 0 0 1
18.499878 -33.241543 15.061364 40.915649 -1.062954 1.193823 0.033144 -0.009337 -739628.000000 0 0 1
18.543078 -32.108113 16.125364 40.432710 -1.047070 1.160567 0.049394 -0.005565 -149775.000000 0 0 1
17.350478 -31.819943 16.798564 39.946709 -1.071591 1.136773 0.051301 -0.012974 -310262.000000 0 0 1
16.535878 -32.816053 17.411764 40.663228 -1.104037 1.128303 0.044239 -0.007423 -427293.000000 0 0 1
17.054878 -33.579413 18.587264 41.999193 -1.100851 1.112342 0.024777 -0.017932 -115252.000000 0 0 1
17.927078 33.544878 18.293564 42.205372 1.079993 1.122488 0.017294 -0.011483 178443.000000 0 0 1
18.309678 32.920334 19.503464 42.419073 1.063220 1.093048 0.026731 -0.015769 -124090.000000 0 0 1
19.080978 31.627599 19.369964 41.708323 1.027953 1.087823 0.051261 -0.015502 234278.000000 0 0 1
18.246078 30.504529 19.060564 40.332998 1.031743 1.078580 0.037003 -0.015006 284299.000000 0 0 1
19.096278 29.362029 18.976164 39.835805 0.994159 1.074287 0.032119 -0.016216 513496.000000 0 0 1
18.349078 28.010309 18.726364 38.365906 0.990856 1.060886 0.040369 -0.012577 -140516.000000 0 0 1
17.953478 27.301859 19.854864 38.235252 0.989103 1.024786 0.039900 -0.021384 -204638.000000 0 0 1
17.459778 26.088109 19.352264 36.877410 0.980999 1.018348 0.043025 -0.024348 -531341.000000 0 0 1
17.091478 25.069199 20.461364 36.595775 0.972409 0.977474 0.036718 -0.022492 -318717.000000 0 0 1
16.028178 25.344739 21.324064 36.796385 1.006889 0.952663 0.036969 -0.024643 59347.200000 0 0 1
14.910778 24.515419 21.005164 35.560568 1.024354 0.938886 0.048944 -0.029208 151127.000000 0 0 1
13.629178 24.720419 21.838064 35.689699 1.066930 0.912352 0.061445 -0.037233 -337025.000000 0 0 1
13.043178 25.945199 21.431864 36.091587 1.104975 0.934999 0.054917 -0.038273 -155767.000000 0 0 1
11.838078 26.222059 22.102364 36.280173 1.146733 0.915728 0.057991 -0.038200 -228012.000000 0 0 1
10.950078 27.283589 21.416264 36.372445 1.189133 0.941217 0.057047 -0.042351 -316740.000000 0 0 1
11.235278 28.617499 21.743864 37.656186 1.196684 0.955217 0.048391 -0.046422 -123802.000000 0 0 1
10.914378 29.464529 20.652164 37.600452 1.216043 0.989326 0.062564 -0.043526 25002.900000 0 0 1
11.630878 30.860569 20.715364 38.945838 1.210374 1.009951 0.066478 -0.046269 -125994.000000 0 0 1
11.178878 31.810149 21.640664 40.064588 1.232853 1.000188 0.059305 -0.050043 -407859.000000 0 0 1
11.710078 31.560919 22.927364 40.729369 1.215510 0.972882 0.025888 -0.044457 -283424.000000 0 0 1
10.837078 32.235953 23.985664 41.616235 1.246486 0.956537 0.037368 -0.042067 -915316.000000 0 0 1
9.638378 31.657639 24.311424 41.062754 1.275256 0.937189 0.039807 -0.041656 -1376080.000000 0 0 1
9.134578 32.432230 25.322944 42.149039 1.296257 0.926301 0.037660 -0.035938 -287898.000000 0 0 1
7.809778 31.862819 25.937904 41.821128 1.330429 0.901785 0.091952 -0.048567 1162970.000000 0 0 1
6.601278 32.685755 25.709984 42.106279 1.371515 0.913982 0.084023 -0.043254 1724830.000000 0 0 1
5.937878 32.362641 24.459324 40.998261 1.389335 0.931546 0.078570 -0.049373 -339917.000000 0 0 1
5.091878 31.130029 24.484794 39.931329 1.408664 0.910726 0.069776 -0.044508 -845502.000000 0 0 1
5.879578 29.973779 24.807664 39.349931 1.377098 0.888680 0.055639 -0.037663 -250128.000000 0 0 1
5.123078 28.766489 24.884454 38.379589 1.394552 0.865345 0.041631 -0.032348 -176131.000000 0 0 1
6.097478 27.528479 24.999884 37.682762 1.352818 0.845402 0.035284 -0.037050 -89714.500000 0 0 1
6.903878 27.355869 23.849074 36.943002 1.323586 0.869035 0.055467 -0.036531 1102660.000000 0 0 1
8.034078 28.261389 23.675664 37.733136 1.293825 0.892522 0.061582 -0.042356 723373.000000 0 0 1
9.278578 28.039159 24.611124 38.444686 1.251224 0.876077 0.044859 -0.042738 -570746.000000 0 0 1
9.046778 28.096519 25.977044 39.320038 1.259290 0.849103 0.043176 -0.030243 925902.000000 0 0 1
10.259778 28.038899 26.789634 40.113930 1.220017 0.839495 0.053165 -0.017475 1458710.000000 0 0 1
11.257578 29.219789 26.763454 41.192373 1.203050 0.863582 0.047463 -0.027302 -88685.100000 0 0 1
10.755778 30.244049 27.569284 42.313764 1.229112 0.861178 0.049212 -0.033703 127581.000000 0 0 1
11.741478 31.235709 27.716084 43.378717 1.211238 0.877686 0.034434 -0.027096 -305633.000000 0 0 1
11.390778 32.429220 28.613374 44.722805 1.233008 0.876566 0.041276 -0.028033 -325773.000000 0 0 1
11.295678 32.119999 30.000574 45.379743 1.232633 0.848512 0.048403 -0.039693 129961.000000 0 0 1
9.989878 31.991489 30.528404 45.334716 1.268124 0.831998 0.069694 -0.035203 -143253.000000 0 0 1
9.870778 31.835029 32.046934 46.237510 1.270136 0.805024 0.100091 -0.041382 -318087.000000 0 0 1
10.176578 30.508749 32.365933 45.627844 1.248839 0.782226 0.078546 -0.037460 218021.000000 0 0 1
10.512178 30.422249 33.762477 46.646800 1.238098 0.761517 0.110174 -0.037588 -132787.000000 0 0 1
10.563678 29.007109 -33.930409 45.872391 1.221549 2.403375 0.103668 -0.035218 -784790.000000 0 0 1
11.634078 28.298099 33.812379 45.600561 1.180736 0.735507 0.110994 -0.029816 -472583.000000 0 0 1
11.700478 27.007979 -33.849009 44.856298 1.161981 2.425856 0.118813 -0.030313 305309.000000 0 0 1
12.898378 26.253029 33.725322 44.642883 1.114125 0.714461 0.095530 -0.023822 527376.000000 0 0 1
12.976478 24.886489 34.058749 44.133034 1.090155 0.689241 0.076521 -0.025328 -116576.000000 0 0 1
13.319378 24.534449 -32.824909 43.090830 1.073432 2.436823 0.072380 -0.032224 -67121.000000 0 0 1
13.101578 23.036119 -32.523439 41.953405 1.053679 2.457872 0.055050 -0.045486 -130960.000000 0 0 1
14.048378 22.302219 -33.264699 42.441560 1.008674 2.471520 0.053921 -0.033326 106280.000000 0 0 1
14.036078 20.900619 -32.958649 41.474328 0.979412 2.489270 0.047268 -0.032263 -734997.000000 0 0 1
15.342078 20.209219 -33.327279 41.886745 0.921457 2.490880 0.045058 -0.041501 -1010870.000000 0 0 1
16.351678 20.596019 -32.474869 41.787444 0.899771 2.460911 0.052403 -0.041612 -1209470.000000 0 0 1
17.453378 19.768119 -32.634289 41.957070 0.847506 2.461957 0.048316 -0.039750 -445293.000000 0 0 1
18.669778 20.152119 -31.746939 41.982575 0.823563 2.428272 0.034195 -0.036077 -167930.000000 0 0 1
19.322778 21.312419 -32.163089 43.151515 0.834323 2.411860 0.061216 -0.032776 58623.900000 0 0 1
20.448578 21.638219 -31.344249 43.229837 0.813657 2.381919 0.062193 -0.024794 436384.000000 0 0 1
20.242478 22.151019 -29.866889 42.337413 0.830387 2.353853 0.056825 -0.025433 -222442.000000 0 0 1
19.523078 23.382109 -29.825779 42.631569 0.875100 2.345658 0.046761 -0.012946 -89771.500000 0 0 1
19.215378 23.833509 -28.535779 41.851613 0.892266 2.321061 0.053959 -0.008594 -109630.000000 0 0 1
20.400378 24.269809 -27.628199 42.053732 0.871805 2.287594 0.054141 -0.005031 515545.000000 0 0 1
21.240678 25.314119 -28.154149 43.412292 0.872674 2.276447 0.055628 -0.007994 159695.000000 0 0 1
20.646878 26.610809 -28.151949 43.897163 0.910935 2.267008 0.041110 0.001593 -240170.000000 0 0 1
21.558978 27.723349 -28.810119 45.424625 0.909835 2.257822 0.033752 -0.000694 188708.000000 0 0 1
21.740878 27.636449 -30.269619 46.397078 0.904234 2.281548 0.035088 -0.000427 -83325.500000 0 0 1
22.236078 26.476859 -30.873709 46.353566 0.872236 2.299695 0.037904 -0.004554 -439222.000000 0 0 1
23.658878 26.034239 -30.518719 46.571625 0.833162 2.285385 0.060963 -0.015141 720344.000000 0 0 1
24.721878 26.931649 -31.022609 47.946712 0.828153 2.274469 0.056309 -0.007106 248259.000000 0 0 1
25.963178 26.389819 -30.747029 48.123683 0.793547 2.263886 0.076765 -0.016546 -571868.000000 0 0 1
27.165978 27.318629 -31.038519 49.474109 0.788200 2.248966 0.042272 -0.005484 -91808.200000 0 0 1
27.134878 28.353039 -30.085089 49.450065 0.807348 2.224831 0.025061 -0.001218 -413954.000000 0 0 1
28.200678 29.190249 -30.372349 50.693475 0.802639 2.213219 0.022692 -0.001609 -280228.000000 0 0 1
28.280078 30.287699 -29.244709 50.718443 0.819663 2.185368 0.017955 0.006648 -130550.000000 0 0 1
28.612078 29.748209 -27.993229 49.872114 0.804863 2.166752 0.040645 -0.002341 126647.000000 0 0 1
28.048978 30.561459 -27.030459 49.511550 0.828239 2.148310 0.035577 0.010669 -300564.000000 0 0 1
28.664178 30.321949 -25.635509 48.971777 0.813495 2.121721 0.062018 -0.000002 -293246.000000 0 0 1
28.590178 28.986549 -25.145349 47.852971 0.792282 2.124065 0.059646 0.005204 1206950.000000 0 0 1
27.289478 28.549389 -24.648329 46.554520 0.807958 2.128749 0.065942 -0.000995 1098960.000000 0 0 1
26.790378 29.052089 -23.271029 45.861629 0.825878 2.102982 0.076095 0.008716 -129712.000000 0 0 1
26.309878 30.396509 -23.305329 46.468223 0.857340 2.096166 0.102603 0.002493 422494.000000 0 0 1
25.718178 30.759069 -22.040829 45.753067 0.874418 2.073429 0.078720 0.008229 274993.000000 0 0 1
3.476778 -26.205643 -20.070529 33.191110 -1.438894 2.220180 0.065869 -0.019714 -256795.000000 0 0 1
3.016278 -27.243253 -19.167129 33.446548 -1.460529 2.181040 0.055163 -0.011337 408784.000000 0 0 1
3.254278 -26.823693 -17.803829 32.358571 -1.450065 2.153405 0.064095 -0.017380 -226046.000000 0 0 1
3.018978 -27.875403 -16.703529 32.636792 -1.462914 2.108076 0.059459 -0.021746 -437977.000000 0 0 1
4.088678 -28.718773 -16.398529 33.322619 -1.429377 2.085313 0.050685 -0.021798 -305725.000000 0 0 1
3.879778 -29.471393 -15.177129 33.376053 -1.439903 2.042867 0.055988 -0.031347 432737.000000 0 0 1
5.196178 -30.184563 -14.717129 33.980906 -1.400320 2.018726 0.107355 -0.037252 787930.000000 0 0 1
6.189978 -29.356763 -14.099029 33.149931 -1.362987 2.010102 0.070580 -0.024556 -20162.600000 0 0 1
7.457778 -29.971273 -14.185629 33.987170 -1.326918 2.001359 0.078233 -0.024860 60633.200000 0 0 1
7.841478 -30.692683 -12.873129 34.194254 -1.320663 1.956780 0.079222 -0.031712 -751283.000000 0 0 1
8.159178 -29.831793 -11.780929 33.095291 -1.303819 1.934748 0.066852 -0.029039 103.741000 0 0 1
8.385978 -30.408853 -10.517029 33.251028 -1.301710 1.892614 0.081272 -0.030382 1315860.000000 0 0 1
9.711078 -31.290383 -10.366429 34.363584 -1.269868 1.877239 0.076977 -0.026751 1797260.000000 0 0 1
10.972678 -30.631063 -10.165429 34.088086 -1.226817 1.873614 0.077802 -0.030169 150257.000000 0 0 1
11.957278 -31.553183 -9.899729 35.165103 -1.208562 1.856176 0.067954 -0.021233 -716187.000000 0 0 1
13.045678 -31.016273 -8.967229 34.822551 -1.172652 1.831243 0.062546 -0.016437 -96777.600000 0 0 1
13.987778 -30.105863 -9.494829 34.527854 -1.135851 1.849376 0.059921 -0.020676 -207963.000000 0 0 1
15.033878 -29.828753 -8.629529 34.499866 -1.103949 1.823613 0.049412 -0.021228 -345097.000000 0 0 1
16.216778 -29.086163 -9.337629 34.585836 -1.062181 1.844173 0.055551 -0.024358 170931.000000 0 0 1
16.014678 -27.750413 -9.711529 33.479383 -1.047388 1.865101 0.059736 -0.025391 425718.000000 0 0 1
15.102778 -27.478713 -10.795829 33.162079 -1.068247 1.902387 0.050326 -0.024614 -31451.000000 0 0 1
14.880078 -25.968253 -10.917129 31.858289 -1.050459 1.920562 0.048923 -0.021810 -899035.000000 0 0 1
13.989378 -25.548223 -9.895629 30.762605 -1.069823 1.898297 0.038672 -0.020848 398447.000000 0 0 1
13.462378 -24.217423 -10.047229 29.473140 -1.063437 1.918664 0.026200 -0.011321 513711.000000 0 0 1
12.706078 -23.885923 -11.404329 29.360525 -1.081918 1.969717 0.004274 -0.002665 -238890.000000 0 0 1
13.610278 -23.653123 -12.488229 30.011094 -1.048653 1.999971 0.009414 -0.010438 130571.000000 0 0 1
13.084578 -23.666123 -13.827529 30.372555 -1.065743 2.043465 0.008447 -0.008867 -91439.100000 0 0 1
14.070278 -22.981723 -14.807329 30.747183 -1.021427 2.073257 0.030562 -0.009162 283138.000000 0 0 1
15.116578 -23.821023 -15.230029 32.060970 -1.005331 2.065798 0.045479 -0.017578 -61649.700000 0 0 1
15.853878 -23.376823 -16.329529 32.626290 -0.974860 2.094975 0.060175 -0.021356 -671782.000000 0 0 1
16.783678 -24.475223 -16.900429 34.151909 -0.969704 2.088471 0.073813 -0.023577 730436.000000 0 0 1
18.108778 -24.704123 -16.442529 34.764612 -0.938247 2.063452 0.098230 -0.031817 878148.000000 0 0 1
19.046478 -23.632223 -16.643629 34.615902 -0.892436 2.072373 0.100492 -0.035304 1088040.000000 0 0 1
20.556978 -23.936823 -16.271329 35.500943 -0.861215 2.046917 0.090327 -0.034021 1483860.000000 0 0 1
21.187478 -24.868323 -17.185129 36.914379 -0.865150 2.055041 0.101094 -0.032852 326118.000000 0 0 1
22.442578 -25.291063 -16.659129 37.693948 -0.845002 2.028576 0.107792 -0.021988 264104.000000 0 0 1
23.124778 -26.259473 -17.637629 39.184196 -0.848789 2.037697 0.103361 -0.021858 -290188.000000 0 0 1
23.864378 -25.591263 -18.640829 39.647216 -0.820302 2.060277 0.094685 -0.017094 -56768.000000 0 0 1
24.300678 -26.490353 -19.635429 40.961101 -0.828483 2.070730 0.085724 -0.019998 -77100.600000 0 0 1
25.631378 -26.165713 -20.383929 41.917975 -0.795714 2.078625 0.065135 -0.023745 166013.000000 0 0 1
25.584978 -25.080003 -21.238029 41.649148 -0.775432 2.105896 0.063280 -0.019826 52016.400000 0 0 1
25.646478 -23.833323 -20.557529 40.600260 -0.748770 2.101731 0.063427 -0.010444 -769063.000000 0 0 1
24.417778 -22.932423 -20.760029 39.409424 -0.754039 2.125602 0.082622 -0.009465 -545483.000000 0 0 1
24.380678 -22.167923 -22.000429 39.621372 -0.737897 2.159480 0.069020 -0.001565 133298.000000 0 0 1
24.041778 -22.999523 -23.111929 40.511065 -0.763246 2.177922 0.045930 -0.011483 -273948.000000 0 0 1
23.399678 -22.234123 -24.330929 40.421470 -0.759862 2.216713 0.034968 -0.009517 428463.000000 0 0 1
24.252078 -21.451423 -25.157089 41.002511 -0.724196 2.231345 0.022847 -0.002360 -194250.000000 0 0 1
23.425878 -20.849123 -26.092949 40.795829 -0.727265 2.264772 0.011415 0.007162 34030.400000 0 0 1
24.068878 -20.294923 -27.398339 41.735641 -0.700534 2.286931 0.025398 0.003247 293031.000000 0 0 1
23.124778 -19.410823 -27.980019 41.163295 -0.698305 2.318194 0.028835 -0.001191 526449.000000 0 0 1
23.662878 -18.942923 -29.163959 42.063079 -0.675066 2.336908 0.047355 -0.009628 -27001.200000 0 0 1
22.725678 -17.919423 -29.851089 41.577033 -0.667695 2.371679 0.064251 -0.011318 -29726.800000 0 0 1
21.496078 -18.497823 -30.245619 41.461407 -0.710570 2.388370 0.050369 -0.012188 322973.000000 0 0 1
20.557178 -17.495923 -30.611809 40.814063 -0.705124 2.418905 0.042712 -0.012983 -251931.000000 0 0 1
19.319278 -18.113023 -31.256169 40.966623 -0.753184 2.438686 0.038136 -0.006013 -449385.000000 0 0 1
19.485978 -18.504723 -32.615439 42.259850 -0.759575 2.452437 0.053943 -0.007634 -638671.000000 0 0 1
18.306078 -19.065323 -33.021939 42.297133 -0.805712 2.466603 0.060506 -0.014303 -1142000.000000 0 0 1
18.334878 -19.926923 33.916525 43.400238 -0.826983 0.673758 0.100522 -0.006758 -27473.300000 0 0 1
19.140978 -21.093723 34.110356 44.439156 -0.833894 0.695748 0.104644 -0.009824 453483.000000 0 0 1
19.224078 -21.945323 32.958459 44.016161 -0.851401 0.724575 0.091373 -0.011514 -247926.000000 0 0 1
20.039478 -23.232923 33.167498 45.182212 -0.859063 0.746481 0.078905 -0.006677 -291191.000000 0 0 1
19.587578 -24.195523 34.090382 46.165471 -0.890257 0.740044 0.098296 -0.015683 -111620.000000 0 0 1
19.865078 -23.814723 -32.820649 45.154815 -0.875576 2.384516 0.103242 -0.019375 -110750.000000 0 0 1
19.003378 -24.446023 -31.654989 44.280636 -0.910013 2.367237 0.106022 -0.020634 102792.000000 0 0 1
19.169778 -25.828783 -31.456549 44.990231 -0.932315 2.345055 0.113141 -0.026874 1421840.000000 0 0 1
20.349378 -26.095353 -30.598429 45.070261 -0.908489 2.317067 0.099307 -0.036386 1471020.000000 0 0 1
20.755378 -27.652733 -30.591049 46.165697 -0.926929 2.295129 0.087919 -0.033182 -83313.900000 0 0 1
19.729878 -28.512463 -30.154949 45.951600 -0.965477 2.286612 0.099390 -0.036793 -450365.000000 0 0 1
19.983078 -29.876893 -30.354439 47.046191 -0.981286 2.272088 0.096439 -0.032099 -122077.000000 0 0 1
18.826578 -30.830443 -29.971279 46.938617 -1.022583 2.263371 0.112584 -0.035921 1209630.000000 0 0 1
17.525578 -30.812423 -30.586529 46.819729 -1.053647 2.282709 0.128687 -0.037715 894568.000000 0 0 1
17.562678 -31.341223 -31.882129 48.033218 -1.060026 2.296620 0.133207 -0.046745 -314192.000000 0 0 1
16.201478 -31.942903 -32.269299 48.209382 -1.101404 2.304140 0.135525 -0.051433 584823.000000 0 0 1
15.141278 -31.005723 -32.479609 47.387109 -1.116522 2.325963 0.140027 -0.043705 1023880.000000 0 0 1
13.833178 -31.572913 -32.616759 47.455859 -1.157854 2.328572 0.100019 -0.036103 935876.000000 0 0 1
12.837078 -30.807933 -33.495979 47.285303 -1.175993 2.357997 0.096473 -0.026300 368543.000000 0 0 1
11.937178 -29.912903 -32.863879 46.014264 -1.191097 2.366292 0.101718 -0.024129 476417.000000 0 0 1
10.968578 -29.311793 -33.718039 46.004315 -1.212724 2.393418 0.073783 -0.016528 292318.000000 0 0 1
10.029578 -28.282793 -33.073479 44.658300 -1.230014 2.404744 0.078078 -0.025009 683728.000000 0 0 1
9.146778 -28.901683 -32.067659 44.128285 -1.264291 2.384290 0.073125 -0.017927 1156240.000000 0 0 1
8.066378 -27.973673 -31.809469 43.121168 -1.290056 2.400419 0.027213 -0.012865 992493.000000 0 0 1
6.827978 -28.497643 -31.018859 42.672081 -1.335631 2.384611 0.019880 -0.005040 456834.000000 0 0 1
5.826978 -29.286903 -31.578959 43.461557 -1.374399 2.384150 0.020368 -0.006154 32754.100000 0 0 1
6.390178 -30.524733 -32.025409 44.701459 -1.364432 2.369466 0.036820 -0.013343 -288889.000000 0 0 1
5.385778 -31.629723 -32.350699 45.563293 -1.402138 2.360318 0.069329 -0.022938 227377.000000 0 0 1
4.435978 -31.914893 -31.331329 44.943191 -1.432687 2.342185 0.066373 -0.036748 37175.800000 0 0 1
3.503878 -32.911953 -31.698309 45.828556 -1.464734 2.334597 0.094043 -0.060490 -577730.000000 0 0 1
2.570278 -33.134423 -30.459449 45.080753 -1.493380 2.312662 0.077745 -0.069467 412194.000000 0 0 1
1.544478 -32.192723 -30.208929 44.173931 -1.522857 2.323841 0.050882 -0.053542 -317161.000000 0 0 1
0.438078 -32.256853 -31.053739 44.777574 -1.557216 2.337147 0.038992 -0.021908 -850305.000000 0 0 1
-0.532922 -31.075133 -30.826459 43.774632 1.553649 2.352104 0.026772 -0.015245 110810.000000 0 0 1
-1.268322 -31.276863 -29.599949 43.081408 1.530267 2.328245 0.024855 -0.024980 412346.000000 0 0 1
-1.960022 -30.089883 -29.137389 41.931255 1.505749 2.339056 0.046334 -0.023046 679168.000000 0 0 1
-2.698022 -30.241663 -27.774719 41.149392 1.481817 2.311724 0.048160 -0.023860 -329351.000000 0 0 1
-1.722022 -30.294253 -26.795929 40.481217 1.514014 2.294193 0.035159 -0.015498 -277623.000000 0 0 1
-2.274922 -30.071523 -25.526829 39.510641 1.495290 2.273227 0.052389 -0.023132 212702.000000 0 0 1
-1.298622 -30.565313 -24.431529 39.151301 1.528335 2.244684 0.030923 -0.018030 294872.000000 0 0 1
-1.794422 -30.406723 -23.126529 38.244281 1.511851 2.220192 0.057797 -0.025947 -272161.000000 0 0 1
-0.822122 -30.860543 -22.222129 38.037770 1.544163 2.194705 0.049646 -0.015306 -68297.200000 0 0 1
-1.177722 -30.841713 -20.684229 37.154214 1.532629 2.161220 0.014442 -0.001303 79648.700000 0 0 1
-1.394922 -29.537733 -20.172129 35.795785 1.523606 2.169453 0.014866 -0.013003 95083.000000 0 0 1
-0.181622 -28.917513 -19.773029 35.031817 1.564516 2.170540 0.043056 -0.026030 168398.000000 0 0 1
-0.349022 -27.441143 -19.427629 33.623963 1.558078 2.186816 0.045597 -0.033153 146626.000000 0 0 1
-1.163422 -27.283923 -18.241229 32.840652 1.528181 2.159696 0.036053 -0.030937 386217.000000 0 0 1
-0.819822 -26.138263 -17.459429 31.443800 1.539442 2.159470 0.051085 -0.026870 -457254.000000 0 0 1
-1.840422 -26.028623 -16.351829 30.793809 1.500206 2.130589 0.044738 -0.021067 -796266.000000 0 0 1
-1.845222 -24.778123 -15.710229 29.396794 1.496464 2.134617 0.044911 -0.018357 112006.000000 0 0 1
-2.686422 -24.942723 -14.601729 29.027000 1.463506 2.097908 0.041541 -0.008778 -383004.000000 0 0 1
-2.680322 -23.763823 -13.551829 27.487369 1.458481 2.086354 0.043854 -0.007180 148734.000000 0 0 1
-1.477922 -23.676023 -12.792029 26.951332 1.508454 2.065345 0.042755 -0.008127 430082.000000 0 0 1
-1.568322 -22.644123 -11.827729 25.595138 1.501647 2.051168 0.058652 -0.006354 604186.000000 0 0 1
-0.192322 -22.631323 -11.094729 25.205292 1.562298 2.026589 0.054016 -0.007687 425424.000000 0 0 1
0.148678 -21.402623 -10.496329 23.838357 -1.563850 2.026743 0.047486 -0.003096 -1211500.000000 0 1 0
1.443478 -21.474923 -10.038229 23.749147 -1.503680 2.007194 0.039361 -0.004354 -985026.000000 0 1 0
2.076078 -20.238323 -9.444029 22.429656 -1.468572 2.005400 0.042817 0.005356 -950714.000000 0 1 0
2.366278 -19.305523 -10.416829 22.063835 -1.448835 2.062493 0.032048 0.010357 556944.000000 0 1 0
3.382178 -18.320323 -10.119629 21.200949 -1.388238 2.068398 0.023815 0.009795 296240.000000 0 1 0
4.786478 -18.757823 -9.731829 21.667367 -1.320956 2.036607 0.033831 -0.000555 -1122310.000000 0 1 0
4.910078 -19.110923 -8.407329 21.448063 -1.319310 1.973585 0.040541 -0.008367 1153580.000000 0 1 0
6.161878 -19.841323 -8.217529 22.342216 -1.269682 1.947441 0.047303 -0.004282 1101940.000000 0 1 0
5.990478 -20.887523 -7.106229 22.862041 -1.291496 1.886863 0.045165 -0.012289 121185.000000 0 1 0
4.994678 -21.807623 -7.545329 23.610404 -1.345646 1.896079 0.055512 -0.011002 339766.000000 0 1 0
4.798078 -22.944323 -6.694329 24.377808 -1.364649 1.848978 0.070615 -0.017729 515780.000000 0 1 0
3.608078 -23.733223 -7.355529 25.107526 -1.419925 1.868119 0.067833 -0.021928 624095.000000 0 0 1
4.098478 -24.605723 -8.357829 26.307649 -1.405746 1.894095 0.064463 -0.012197 308902.000000 0 0 1
3.057478 -24.991423 -9.235129 26.818035 -1.449060 1.922356 0.054806 -0.007573 139120.000000 0 0 1
3.572778 -25.858583 -10.442729 28.115505 -1.433500 1.951337 0.044897 -0.010482 149637.000000 0 0 1
3.908778 -27.187633 -10.066729 29.253802 -1.428004 1.922094 0.057611 -0.015961 7074.650000 0 0 1
4.421078 -27.943533 -11.162029 30.413448 -1.413882 1.946589 0.068059 -0.011875 292569.000000 0 0 1
4.557678 -29.461343 -10.962029 31.763331 -1.417313 1.923159 0.076341 -0.028185 -9172.460000 0 0 1
3.304778 -30.074193 -11.150229 32.244476 -1.461348 1.923891 0.083618 -0.028231 -115010.000000 0 0 1
3.416478 -31.466463 -11.118729 33.547529 -1.462645 1.908617 0.073637 -0.027916 -217350.000000 0 0 1
2.082378 -32.125623 -11.481829 34.179297 -1.506067 1.913388 0.050325 -0.035881 -284484.000000 0 0 1
1.759978 -31.972443 -12.831429 34.496089 -1.515805 1.951924 0.055954 -0.042030 172098.000000 0 0 1
0.894678 -32.960923 -13.317729 35.561001 -1.543659 1.954658 0.042889 -0.041247 -392991.000000 0 0 1
0.649078 -32.915403 -14.820129 36.103757 -1.551079 1.993785 0.051230 -0.028863 338590.000000 0 0 1
-0.308522 -31.895583 -15.184629 35.326991 1.561124 2.015102 0.044034 -0.025029 451878.000000 0 0 1
-0.710722 -32.192873 -16.498029 36.181088 1.548723 2.044275 0.017431 -0.016012 -356285.000000 0 0 1
-1.822722 -31.263903 -16.985229 35.626562 1.512561 2.067759 0.014551 -0.012550 -315436.000000 0 0 1
-3.087722 -31.470553 -16.430329 35.635452 1.472995 2.049994 0.024719 -0.018582 -801034.000000 0 0 1
-4.107322 -30.739113 -17.016829 35.374222 1.437964 2.072650 0.035278 -0.017074 -235023.000000 0 0 1
-5.473422 -30.964623 -16.352329 35.442416 1.395840 2.050343 0.045793 -0.022480 -308386.000000 0 0 1
-5.737322 -30.350643 -15.091329 34.377705 1.383966 2.025266 0.023010 -0.019406 -175452.000000 0 0 1
-7.124722 -30.168233 -14.938729 34.410021 1.338879 2.019879 0.040222 -0.017185 -28714.800000 0 0 1
-7.783022 -31.187473 -13.985429 35.054616 1.326236 1.981180 0.041522 -0.027575 -97782.400000 0 0 1
-7.996122 -32.425553 -14.629729 36.460710 1.329021 1.983674 0.051363 -0.033064 -231660.000000 0 0 1
-8.748922 -33.204143 -13.741629 36.985012 1.313163 1.951470 0.051747 -0.029217 -1893.360000 0 0 1
-9.027722 33.592986 -14.329529 37.620790 -1.308261 1.961559 0.085492 -0.033423 121614.000000 0 0 1
-7.887622 32.757575 -14.235729 36.577715 -1.334507 1.970550 0.082886 -0.039862 237158.000000 0 0 1
-8.081322 31.555569 -14.877329 35.810565 -1.320087 1.999229 0.099226 -0.050588 -283074.000000 0 0 1
-7.576622 -21.892923 -3.358129 23.409021 1.237621 1.714747 0.057212 -0.024107 197541.000000 0 1 0
-7.499922 -20.829223 -4.334729 22.558706 1.225181 1.764152 0.043716 -0.024350 541914.000000 0 1 0
-6.238622 -20.787923 -5.027929 22.278649 1.279240 1.798441 0.036308 -0.023591 638440.000000 0 1 0
-6.131022 -19.889023 -6.236229 21.726785 1.271777 1.861921 0.033131 -0.017091 -289623.000000 0 1 0
-6.900622 -20.351423 -7.311729 22.699347 1.243889 1.898756 0.035973 -0.019450 -306265.000000 0 1 0
-7.263722 -19.219723 -8.109529 22.088998 1.209459 1.946718 0.034177 -0.021871 -440075.000000 0 1 0
-8.229722 -19.521423 -9.195729 23.094928 1.171831 1.980318 0.047170 -0.023678 -143872.000000 0 1 0
-7.515322 -20.012723 -10.345629 23.749130 1.211564 2.021525 0.046925 -0.018426 -374380.000000 0 1 0
-8.358322 -20.316523 -11.388329 24.745033 1.180497 2.049047 0.063865 -0.017391 -332835.000000 0 1 0
-7.728322 -21.153423 -12.546529 25.780024 1.220516 2.079077 0.055234 -0.009661 -237088.000000 0 0 1
-6.745522 -20.551723 -13.328629 25.407237 1.253653 2.123041 0.058020 -0.005297 -316646.000000 0 0 1
-6.333822 -21.509323 -14.318629 26.604349 1.284422 2.139104 0.053295 -0.002002 214665.000000 0 0 1
-5.095422 -21.120223 -15.166429 26.496182 1.334062 2.180227 0.047822 0.009912 770457.000000 0 0 1
-3.868422 -20.907723 -14.443529 25.704340 1.387842 2.167489 0.050713 -0.001368 334444.000000 0 0 1
-2.890722 -20.158223 -15.090229 25.346108 1.428366 2.208518 0.063642 -0.006089 -276329.000000 0 0 1
-3.066922 -18.587323 -15.234529 24.227782 1.407269 2.250811 0.062376 0.000916 -125002.000000 0 1 0
-4.147622 -18.124623 -16.065429 24.572397 1.345831 2.283392 0.062843 0.005142 505404.000000 0 1 0
-4.043822 -18.384123 -17.462829 25.676426 1.354282 2.318711 0.079441 -0.008377 -990822.000000 0 0 1
-5.389622 -18.322023 -18.164929 26.357336 1.284705 2.331152 0.078163 0.004965 -312296.000000 0 0 1
-6.289322 -19.354123 -17.755329 27.007209 1.256600 2.288198 0.055692 -0.000448 361434.000000 0 0 1
-7.600922 -18.969423 -18.175929 27.349175 1.189692 2.297738 0.051596 0.004410 -296650.000000 0 0 1
-8.640922 -19.931423 -17.697129 28.019913 1.161721 2.254400 0.068903 -0.004868 -691306.000000 0 0 1
-8.530922 -21.241123 -18.220429 29.256554 1.188892 2.243089 0.064252 -0.001730 417728.000000 0 0 1
-9.585222 -22.018423 -17.669429 29.814361 1.160211 2.205139 0.073318 -0.003910 311074.000000 0 0 1
-9.462922 -23.545223 -18.007629 31.115898 1.188650 2.187964 0.068131 -0.016299 -652456.000000 0 0 1
-9.374322 -23.827223 -19.378029 32.111095 1.195967 2.218640 0.050284 -0.018710 605134.000000 0 0 1
-8.422122 -24.878623 -19.659029 32.807856 1.244377 2.213319 0.077395 -0.035461 -329793.000000 0 0 1
-6.940322 -24.616823 -19.609929 32.228952 1.295995 2.224911 0.083720 -0.035623 -1628970.000000 0 0 1
-6.445722 -23.719823 -20.589029 32.063771 1.305460 2.268067 0.090085 -0.032996 195438.000000 0 0 1
-6.137722 -22.371023 -20.205329 30.763446 1.303025 2.287359 0.070496 -0.028546 147444.000000 0 0 1
-5.063022 -22.099023 -19.110029 29.651209 1.345577 2.271158 0.090014 -0.019576 400873.000000 0 0 1
-3.762522 -22.609923 -19.368929 30.008675 1.405897 2.272401 0.094522 -0.036088 392753.000000 0 0 1
-2.874122 -22.281623 -18.299029 28.975606 1.442514 2.254324 0.064157 -0.031551 226339.000000 0 0 1
-1.466222 -22.868823 -18.500629 29.451759 1.506770 2.249992 0.094287 -0.040999 372696.000000 0 0 1
-0.530322 -22.207023 -19.371629 29.473600 1.546920 2.287965 0.104289 -0.039112 843925.000000 0 0 1
0.696978 -22.950823 -19.412429 30.067731 -1.540437 2.272636 0.090445 -0.043397 1192670.000000 0 0 1
1.715778 -22.363823 -20.456029 30.356771 -1.494225 2.310209 0.113421 -0.050263 590227.000000 0 0 1
1.221278 -22.638623 -21.763529 31.426898 -1.516902 2.335763 0.109119 -0.061869 39269.000000 0 0 1
0.798578 -21.490223 -22.393629 31.047415 -1.533653 2.376433 0.120966 -0.048514 -386787.000000 0 0 1
0.439078 -21.680523 -23.852729 32.236478 -1.550547 2.403762 0.121766 -0.052173 -66332.600000 0 0 1
0.132478 -20.589723 -24.704329 32.159883 -1.564362 2.446778 0.111521 -0.050191 572580.000000 0 0 1
-1.256622 -20.245123 -24.564529 31.856870 1.508806 2.451348 0.095916 -0.043750 594391.000000 0 0 1
-1.739622 -19.044023 -25.466639 31.847304 1.479702 2.497505 0.088049 -0.026858 -175308.000000 0 0 1
-1.126522 -17.858923 -25.056259 30.790035 1.507801 2.521420 0.076864 -0.025319 -181322.000000 0 0 1
-1.839722 -16.700123 -25.386109 30.442293 1.461077 2.556950 0.072922 -0.021028 -63072.500000 0 0 1
-1.050422 -15.411023 -25.008229 29.394124 1.502741 2.588283 0.056742 -0.010508 363185.000000 0 0 1
0.100378 -15.151623 -25.793569 29.914711 -1.564172 2.610466 0.055185 -0.017107 -384401.000000 0 0 1
0.842178 -14.058623 -25.336379 28.987691 -1.510963 2.634251 0.052813 -0.014103 -75240.300000 0 0 1
0.298478 -12.633223 -25.708949 28.646770 -1.547174 2.684743 0.038380 -0.009388 -231374.000000 0 0 1
1.110178 -11.487923 -25.491189 27.982237 -1.474457 2.716444 0.031545 -0.004726 -284037.000000 0 0 1
0.662478 -10.369323 -26.120489 28.111237 -1.506995 2.762993 0.031194 -0.003880 -358854.000000 0 0 1
1.531178 -9.096323 -25.795259 27.394944 -1.404030 2.798166 0.041138 -0.012022 1565240.000000 0 0 1
2.915378 -9.108023 -26.231719 27.920576 -1.261013 2.791999 0.057655 -0.018583 916673.000000 0 0 1
3.180778 -9.119723 -27.620809 29.260823 -1.235209 2.805201 0.060856 -0.013680 -1460850.000000 0 0 1
4.632578 -8.948923 -27.957289 29.717907 -1.093114 2.795648 0.062649 -0.024017 -1281170.000000 0 0 1
4.872878 -7.523523 -28.093339 29.488710 -0.996050 2.832734 0.061041 -0.023476 -57161.000000 0 0 1
6.082078 -7.319823 -28.778969 30.311722 -0.877493 2.822223 0.076756 -0.025500 -275090.000000 0 0 1
7.408178 -7.198923 -27.969439 29.816021 -0.771074 2.787806 0.077366 -0.028853 181635.000000 0 0 1
7.980678 -8.420423 -27.522349 29.867615 -0.812204 2.742665 0.066543 -0.029249 237499.000000 0 0 1
8.712778 -9.101523 -28.485779 31.147870 -0.807217 2.725150 0.079906 -0.038349 -795778.000000 0 0 1
9.321278 -10.449323 -28.148719 31.439226 -0.842393 2.679985 0.089641 -0.033085 -165896.000000 0 0 1
8.303078 -11.358823 -27.827509 31.182274 -0.939579 2.673464 0.089228 -0.037205 -893.321000 0 0 1
8.750478 -12.509623 -27.148259 31.146259 -0.960406 2.629330 0.089270 -0.039435 -61983.700000 0 0 1
9.508478 -13.607923 -27.972059 32.527262 -0.960913 2.605982 0.112932 -0.046701 -146477.000000 0 0 1
8.653978 -14.253323 -28.886019 33.353420 -1.025132 2.618060 0.115158 -0.048568 51406.500000 0 0 1
9.288678 -15.267523 -29.609219 34.584427 -1.024227 2.598555 0.114397 -0.046265 -158449.000000 0 0 1
8.208878 -16.019723 -30.417239 35.344386 -1.097260 2.607235 0.092761 -0.037865 -4203.850000 0 0 1
7.688178 -15.046423 -31.325169 35.591700 -1.098416 2.646923 0.091189 -0.033063 279430.000000 0 0 1
6.729978 -15.561323 -32.237449 36.423900 -1.162606 2.657426 0.077928 -0.029844 122958.000000 0 0 1
5.912778 -14.454823 -32.996579 36.505849 -1.182511 2.699530 0.077315 -0.023663 94583.300000 0 0 1
6.560078 -13.670023 -33.973979 37.203970 -1.123367 2.721820 0.086902 -0.027903 -768638.000000 0 0 1
5.700478 -12.743523 33.749431 36.522827 -1.150170 0.392217 0.047999 -0.022043 -1025660.000000 0 0 1
6.297778 -11.692523 32.799633 35.386340 -1.076735 0.384727 0.079016 -0.026643 -589196.000000 0 0 1
6.544678 -12.189223 31.529994 34.431824 -1.078048 0.413494 0.083224 -0.030331 44223.000000 0 0 1
6.847778 -11.093423 30.627684 33.286801 -1.017766 0.402422 0.086509 -0.019755 -266996.000000 0 0 1
7.390678 -11.535323 29.212084 32.265022 -1.000987 0.438524 0.076643 -0.011941 178471.000000 0 0 1
6.430778 -12.214123 28.411334 31.587080 -1.086171 0.452263 0.059879 -0.020874 -18470.500000 0 0 1
6.921478 -12.563523 27.149624 30.705880 -1.067248 0.486054 0.064576 -0.007643 -283660.000000 0 0 1
5.981078 -13.349523 26.236404 30.038841 -1.149576 0.508623 0.050082 -0.029902 -418338.000000 0 0 1
5.936578 -14.742723 26.561744 30.953466 -1.187983 0.539202 0.053527 -0.022813 -78321.500000 0 0 1
5.303778 -15.530823 25.564464 30.378913 -1.241714 0.570706 0.037087 -0.020932 691364.000000 0 0 1
3.740878 -15.589523 25.550574 30.163873 -1.335288 0.560369 0.048705 -0.025517 335963.000000 0 0 1
3.149078 -14.369623 25.181644 29.163641 -1.355059 0.528707 0.039519 -0.026394 -775551.000000 0 0 1
1.788278 -14.554923 24.927064 28.920620 -1.448545 0.531765 0.033964 -0.025366 -415837.000000 0 0 1
1.045078 -13.212123 24.855774 28.168455 -1.491861 0.489863 0.035111 -0.025735 -583902.000000 0 0 1
1.423378 -12.388023 23.749204 26.823754 -1.456398 0.483486 0.018140 -0.016763 -103601.000000 0 0 1
0.637778 -11.237323 23.469434 26.028802 -1.514102 0.447176 0.012623 -0.017347 2004970.000000 0 0 1
-0.835722 -11.581523 22.886464 25.663599 1.498761 0.469517 0.023573 -0.016276 1426610.000000 0 0 1
-0.847622 -12.151523 21.617564 24.813243 1.501155 0.513133 0.033685 -0.018769 -393881.000000 0 1 0
-2.078222 -12.784323 21.400564 25.014837 1.409646 0.544252 0.047692 -0.023583 -112666.000000 0 0 1
-2.151822 -13.514323 20.020264 24.250324 1.412897 0.599590 0.066746 -0.027229 271320.000000 0 1 0
-1.132222 -14.490623 19.804664 24.565927 1.492820 0.633122 0.074852 -0.028794 -85572.300000 0 1 0
-1.353022 -15.304323 18.650364 24.163796 1.482618 0.689081 0.077271 -0.024766 381712.000000 0 1 0
-2.575922 -16.274523 18.663064 24.895892 1.413819 0.723272 0.060587 -0.023553 350281.000000 0 1 0
-2.358922 -17.424323 17.877364 25.075320 1.436233 0.777105 0.047783 -0.012848 271680.000000 0 0 1
-3.413922 -18.400523 18.026364 25.984301 1.387348 0.804127 0.052472 -0.001034 587311.000000 0 0 1
-3.100222 -19.715823 17.333264 26.434203 1.414828 0.855669 0.050947 -0.001482 -132890.000000 0 0 1
-2.137222 -20.489123 18.004964 27.359653 1.466862 0.852524 0.065086 -0.007706 -306670.000000 0 0 1
-2.166022 -21.795923 17.536264 28.058411 1.471744 0.895676 0.060576 -0.020975 -735694.000000 0 0 1
-1.005422 -22.635923 18.024764 28.953203 1.526408 0.898802 0.083859 -0.017448 -392909.000000 0 0 1
0.231978 -22.301223 17.456064 28.321591 -1.560395 0.906695 0.075156 -0.018292 -176684.000000 0 0 1
1.269978 -23.166423 17.952364 29.335701 -1.516031 0.912256 0.096577 -0.016306 1139140.000000 0 0 1
2.618578 -22.944823 17.168864 28.776583 -1.457163 0.931506 0.096959 -0.019961 326291.000000 0 0 1
3.284678 -21.778323 17.502464 28.132200 -1.421101 0.899310 0.114615 -0.028042 -891851.000000 0 0 1
4.314978 -21.597923 16.592664 27.575456 -1.373606 0.925145 0.101633 -0.026878 -197547.000000 0 0 1
5.286078 -20.448623 16.971164 27.094450 -1.317829 0.893908 0.100523 -0.020915 -608332.000000 0 0 1
6.088578 -20.628023 18.109764 28.116715 -1.283785 0.870960 0.094929 -0.011842 275717.000000 0 0 1
6.841278 -19.501023 18.613064 27.812571 -1.233394 0.837622 0.096633 -0.005076 677700.000000 0 0 1
7.949878 -18.964623 17.703064 27.134037 -1.173853 0.860010 0.075894 -0.007252 -798768.000000 0 0 1
7.382478 -18.143223 16.719964 25.753344 -1.184356 0.864219 0.079344 -0.010650 -43060.300000 0 0 1
8.335578 -17.682323 15.797264 25.133642 -1.130283 0.891134 0.078511 -0.012032 -101020.000000 0 0 1
7.732778 -16.716223 14.741964 23.591385 -1.137521 0.895809 0.081923 -0.011515 268331.000000 0 1 0
6.665778 -17.334423 14.036564 23.279603 -1.203688 0.923596 0.065209 -0.009715 300057.000000 0 1 0
5.931378 -16.519223 13.159364 21.937065 -1.226074 0.927459 0.047280 -0.008855 -87222.500000 0 1 0
6.403478 -16.747123 11.689564 21.403658 -1.205586 0.993037 0.044841 -0.008523 1106780.000000 0 1 0
7.767778 -16.313823 11.477264 21.405765 -1.126413 1.004896 0.046963 -0.004972 956959.000000 0 1 0
8.186778 -16.521523 10.120264 21.033397 -1.110738 1.068828 0.051913 -0.008095 647776.000000 0 1 0
9.656478 -16.046323 9.901664 21.184310 -1.029063 1.084443 0.051424 -0.004126 586128.000000 0 1 0
10.193778 -16.517423 8.700464 21.270553 -1.017860 1.149397 0.053680 -0.006521 -380026.000000 0 1 0
11.461378 -16.006223 8.391064 21.400288 -0.949375 1.167882 0.046514 -0.014104 -159184.000000 0 1 0
12.397778 -16.956523 7.642164 22.352432 -0.939468 1.221865 0.055584 -0.018091 -106851.000000 0 1 0
12.795578 -18.092123 8.417364 23.704509 -0.955224 1.207780 0.069416 -0.023241 330081.000000 0 1 0
13.810478 -18.824123 7.724964 24.591705 -0.937836 1.251257 0.073065 -0.020887 294578.000000 0 1 0
14.313378 -20.053623 8.496764 26.061765 -0.950898 1.238701 0.063548 -0.023902 -720409.000000 0 0 1
13.444278 -21.121023 8.528264 26.449527 -1.003945 1.242495 0.073127 -0.022564 -215312.000000 0 0 1
14.012978 -22.248623 9.252464 27.874233 -1.008727 1.232441 0.055290 -0.016075 10158.800000 0 0 1
12.960478 -23.052423 10.020664 28.280769 -1.058621 1.208601 0.075731 -0.018996 -11670.200000 0 0 1
12.644078 -22.542923 11.299164 28.208637 -1.059631 1.158672 0.072633 -0.024983 116476.000000 0 0 1
11.610578 -23.247723 12.013964 28.628613 -1.107606 1.137738 0.084965 -0.020689 266616.000000 0 0 1
11.937978 -24.672423 12.534064 30.138788 -1.120145 1.141888 0.071620 -0.023349 -120626.000000 0 0 1
12.860878 -24.769423 13.598564 31.045892 -1.091888 1.117407 0.050131 -0.022305 -53433.400000 0 0 1
12.859678 -26.058003 14.239064 32.359570 -1.112361 1.115168 0.049682 -0.026839 92322.600000 0 0 1
13.973378 -26.291113 15.302864 33.476194 -1.082278 1.096034 0.042122 -0.026637 -33850.000000 0 0 1
13.990978 -25.495513 16.481164 33.427495 -1.068904 1.055213 0.040649 -0.021078 -64629.500000 0 0 1
14.953678 -26.032853 17.352264 34.675971 -1.049401 1.046722 0.038358 -0.017833 -591707.000000 0 0 1
14.729878 -25.536923 18.767064 34.947195 -1.047605 1.003905 0.041286 -0.014822 -146195.000000 0 0 1
15.269478 -24.267523 19.116064 34.460028 -1.009172 0.982756 0.026643 -0.008940 1171000.000000 0 0 1
16.701278 -24.182523 19.342264 35.183096 -0.966384 0.988719 0.038284 -0.015089 958916.000000 0 0 1
17.132678 -22.790523 19.723264 34.669060 -0.926179 0.965627 0.032016 -0.016050 -292074.000000 0 0 1
17.123878 -21.877123 18.616264 33.442503 -0.906675 0.980431 0.017983 -0.014848 -354017.000000 0 0 1
15.896078 -21.250023 18.390364 32.287060 -0.928544 0.964790 0.024932 -0.009283 -1029060.000000 0 0 1
15.932678 -20.204723 17.213064 30.957562 -0.903069 0.981205 0.014409 -0.011276 -256091.000000 0 0 1
16.679478 -19.048523 17.456564 30.753582 -0.851609 0.967176 0.014905 -0.012000 486465.000000 0 0 1
18.083878 -19.311423 17.271364 31.595217 -0.818213 0.992444 0.008617 -0.016312 285016.000000 0 0 1
18.904978 -18.016923 17.456064 31.412129 -0.761351 0.981578 0.021350 -0.014316 -444969.000000 0 0 1
19.072578 -17.603023 18.829964 32.065514 -0.745351 0.943159 0.019072 -0.009579 79311.000000 0 0 1
19.633878 -16.316123 18.940364 31.787457 -0.693371 0.932480 0.023821 -0.013451 -383086.000000 0 0 1
20.166478 -16.026723 20.389564 32.852352 -0.671514 0.901235 0.029606 -0.013983 -487004.000000 0 0 1
21.250378 -16.857123 20.654964 34.093529 -0.670619 0.919985 0.033203 -0.018802 -496380.000000 0 0 1
21.832278 -16.593623 21.925264 35.110025 -0.649902 0.896340 0.034612 -0.018176 192154.000000 0 0 1
33.803876 -0.851523 -7.582629 34.654341 -0.025185 1.791388 0.090597 -0.020643 -712630.000000 0 0 1
35.048036 -0.656923 -8.188529 35.997894 -0.018741 1.800278 0.078238 -0.021624 383910.000000 0 0 1
35.888356 -1.850123 -7.964329 36.807982 -0.051507 1.788896 0.089274 -0.022148 747947.000000 0 0 1
-35.708886 -1.737923 -8.620829 36.775856 0.048631 1.807414 0.095670 -0.027170 819126.000000 0 0 1
-34.831256 -2.866323 -8.292229 35.919260 0.082107 1.803755 0.110255 -0.017049 1265950.000000 0 0 1
-33.518262 -2.611823 -8.822129 34.758099 0.077765 1.827419 0.161508 -0.024746 -151451.000000 0 0 1
-32.512732 -3.653023 -8.481629 33.798821 0.111887 1.824452 0.142435 -0.018422 -952145.000000 0 0 1
-32.051562 -3.541023 -7.162929 33.032545 0.110033 1.789377 0.140105 -0.022181 245083.000000 0 0 1
-31.172402 -4.605323 -6.818529 32.240037 0.146676 1.783898 0.138817 -0.024639 -39781.700000 0 0 1
-30.673312 -4.403823 -5.386529 31.452510 0.142597 1.742904 0.140355 -0.036466 -318946.000000 0 0 1
-29.776162 -3.322923 -5.261029 30.419403 0.111137 1.744620 0.145808 -0.034809 367177.000000 0 0 1
-29.501682 -3.056523 -3.878329 29.912088 0.103237 1.700820 0.144292 -0.039160 -201980.000000 0 0 1
-29.289792 -1.521623 -3.576529 29.546553 0.051904 1.692141 0.157787 -0.034148 24018.800000 0 0 1
-27.927242 -1.286723 -3.255729 28.145804 0.046042 1.686730 0.145206 -0.032341 477055.000000 0 0 1
-27.617492 0.042577 -2.883429 27.767640 -0.001542 1.674825 0.147729 -0.034491 -173081.000000 0 0 1
-26.171752 0.237777 -2.403429 26.282953 -0.009085 1.662369 0.139040 -0.025615 -167382.000000 0 0 1
-25.767242 -0.387923 -1.192829 25.797753 0.015054 1.617051 0.141257 -0.029573 -304726.000000 0 0 1
-24.442922 -0.139723 -0.859829 24.458439 0.005716 1.605958 0.108685 -0.023775 -739915.000000 0 1 0
-23.823022 -1.061223 0.148171 23.847107 0.044517 1.564583 0.082186 -0.023534 -408849.000000 0 1 0
-23.881022 -2.445123 -0.083729 24.006017 0.102032 1.574284 0.092179 -0.021871 250701.000000 0 1 0
-23.100522 -3.144523 0.854271 23.329207 0.135292 1.534170 0.078741 -0.019972 -430519.000000 0 1 0
-23.380722 -4.670223 0.918371 23.860271 0.197152 1.532297 0.076863 -0.015078 -172810.000000 0 1 0
-24.607622 -5.082523 1.476171 25.170343 0.203679 1.512115 0.094919 -0.019727 236518.000000 0 0 1
-24.892622 -6.468723 1.424871 25.758829 0.254242 1.515452 0.084293 -0.019262 265453.000000 0 0 1
-26.218402 -6.996223 2.053171 27.213365 0.260768 1.495277 0.104726 -0.022876 387451.000000 0 0 1
-26.134162 -6.996023 3.454071 27.273969 0.261564 1.443812 0.098718 -0.021946 381361.000000 0 0 1
-27.380322 -7.447223 3.951271 28.648834 0.265567 1.432434 0.095388 -0.015633 220712.000000 0 0 1
-27.531862 -7.606023 5.463771 29.081056 0.269540 1.381792 0.094796 -0.022255 56604.000000 0 0 1
-26.700252 -8.644923 5.985471 28.696063 0.313125 1.360672 0.081252 -0.012805 187601.000000 0 0 1
-26.679372 -8.741123 7.363571 29.024443 0.316614 1.314290 0.073834 -0.023654 -352291.000000 0 0 1
-26.138352 -7.637423 8.275871 28.461091 0.284278 1.275756 0.096096 -0.018821 -271088.000000 0 0 1
-24.741922 -7.559523 8.093371 27.107411 0.296527 1.267606 0.101866 -0.018845 -116785.000000 0 0 1
-24.199422 -6.279223 8.281671 26.336794 0.253879 1.250916 0.096069 -0.025023 -180868.000000 0 0 1
-22.775522 -6.107623 7.718771 24.811426 0.262002 1.254449 0.087646 -0.019725 174143.000000 0 1 0
-21.708922 -6.503123 8.539871 24.217706 0.291053 1.210417 0.086825 -0.020649 -503369.000000 0 1 0
-20.451622 -6.054023 8.132471 22.826676 0.287798 1.206523 0.077736 -0.013649 -790101.000000 0 1 0
-19.460622 -6.409923 9.190571 22.455946 0.318188 1.149141 0.093714 -0.011314 -759850.000000 0 1 0
-19.391722 -5.348423 10.135771 22.525061 0.269119 1.104056 0.085270 -0.009767 575026.000000 0 1 0
-18.229022 -5.585023 10.928171 21.975319 0.297300 1.050321 0.074682 -0.013057 573728.000000 0 1 0
-17.840922 -4.310523 11.721471 21.777787 0.237066 1.002460 0.059772 -0.012890 -423137.000000 0 1 0
-18.910822 -4.100323 12.571271 23.075283 0.213519 0.994653 0.076142 -0.012397 -329146.000000 0 1 0
-19.075922 -2.789123 13.076671 23.295264 0.145183 0.974787 0.085485 -0.012178 -11619.200000 0 1 0
-20.245922 -2.718723 14.059971 24.798621 0.133486 0.967979 0.080865 -0.012673 -318277.000000 0 1 0
-20.005022 -3.612123 15.133271 25.342933 0.178636 0.930866 0.073367 -0.004465 453376.000000 0 0 1
-21.199822 -3.878623 15.862771 26.760114 0.180954 0.936294 0.061282 -0.000251 233980.000000 0 0 1
-21.020522 -4.830623 17.081171 27.512973 0.225883 0.900982 0.054659 0.009070 -7432.890000 0 0 1
-22.094922 -4.706823 17.988371 28.877695 0.209890 0.898332 0.047360 0.008726 419160.000000 0 0 1
-21.791922 -5.490823 19.121371 29.507013 0.246828 0.865804 0.054443 0.005627 -185652.000000 0 0 1
-22.617722 -5.141823 20.369771 30.869520 0.223537 0.850155 0.052711 0.003482 -488250.000000 0 0 1
-22.313222 -3.902723 20.995971 30.885950 0.173155 0.823320 0.051914 -0.002155 -109900.000000 0 0 1
-23.041722 -3.649523 22.142271 32.163957 0.157083 0.811490 0.049508 -0.008762 -337386.000000 0 0 1
-22.904922 -2.204923 22.617271 32.265122 0.095968 0.794023 0.042156 -0.001103 -29272.100000 0 0 1
-23.822322 -1.427623 21.883971 32.379767 0.059856 0.828675 0.048417 -0.005608 31469.900000 0 0 1
-23.752122 -0.055723 22.229671 32.531903 0.002346 0.818497 0.043932 -0.010067 -78224.900000 0 0 1
-24.971022 0.654977 21.615571 33.033526 -0.026223 0.857470 0.052206 -0.010415 1036540.000000 0 0 1
-26.193192 0.408477 22.342571 34.430229 -0.015594 0.864628 0.064960 -0.011960 475632.000000 0 0 1
-27.346802 1.110077 21.958371 35.089171 -0.040570 0.894655 0.079088 -0.009731 -257571.000000 0 0 1
-28.384072 0.925677 23.036871 36.567880 -0.032601 0.889275 0.084007 -0.014026 -547591.000000 0 0 1
-27.981852 1.756777 24.126471 36.988605 -0.062700 0.860224 0.072285 -0.010115 149092.000000 0 0 1
-28.948652 1.853077 25.160571 38.399384 -0.063925 0.856304 0.070755 -0.014412 -243455.000000 0 0 1
-28.614792 2.707577 26.391171 39.020907 -0.094341 0.828022 0.085890 -0.020375 -168059.000000 0 0 1
-27.515132 2.234177 27.130971 38.706119 -0.081020 0.794071 0.071180 -0.025586 -58679.600000 0 0 1
-27.304262 2.996677 28.316571 39.450361 -0.109314 0.770192 0.061199 -0.027427 -551727.000000 0 0 1
-26.068272 2.629577 29.118471 39.170842 -0.100533 0.732700 0.061933 -0.030640 -404992.000000 0 0 1
-26.271962 1.534377 30.017771 39.920382 -0.058337 0.719795 0.059089 -0.026855 845040.000000 0 0 1
-25.116432 1.363077 30.862871 39.814695 -0.054217 0.683824 0.053096 -0.032327 664913.000000 0 0 1
-25.364322 0.107677 31.713171 40.608936 -0.004245 0.674626 0.053333 -0.033231 -59814.800000 0 0 1
-25.345082 -1.023223 30.898771 39.976921 0.040350 0.687373 0.057919 -0.024568 -165882.000000 0 0 1
-25.898752 -2.135123 31.517671 40.849329 0.082255 0.689508 0.071646 -0.013937 -967311.000000 0 0 1
-27.007522 -2.834023 30.748271 41.023092 0.104552 0.723436 0.060521 -0.005480 -779192.000000 0 0 1
-28.166502 -2.077723 30.598171 41.640327 0.073632 0.745394 0.055955 -0.004718 -443945.000000 0 0 1
-28.192802 -1.174823 29.515371 40.833460 0.041647 0.762917 0.056942 -0.002836 -781100.000000 0 0 1
-29.622122 -1.065323 28.957071 41.438110 0.035948 0.797074 0.068918 -0.018167 -83300.000000 0 0 1
-30.466212 -0.473523 29.887471 42.681088 0.015541 0.795047 0.086768 -0.021683 -507706.000000 0 0 1
-31.826792 -0.653423 29.519071 43.413675 0.020528 0.823104 0.075441 -0.026777 693156.000000 0 0 1
-32.849682 -0.284123 30.629971 44.915225 0.008649 0.820370 0.062369 -0.020692 156341.000000 0 0 1
-32.866722 -1.371523 31.536971 45.570638 0.041706 0.806477 0.065658 -0.019903 516139.000000 0 0 1
-33.885202 -1.111323 32.522071 46.980071 0.032785 0.806191 0.075851 -0.019238 443438.000000 0 0 1
-34.179127 -2.264023 33.505871 47.916406 0.066143 0.796439 0.071835 -0.016605 -282130.000000 0 0 1
-34.980011 -3.216823 32.902571 48.130327 0.091704 0.818093 0.042934 -0.016033 -374947.000000 0 0 1
-34.847784 -4.398723 33.661871 48.650163 0.125563 0.806656 0.044649 -0.009425 365235.000000 0 0 1
-36.136402 -5.231123 33.438571 49.511031 0.143762 0.829322 0.043914 -0.019179 -382130.000000 0 0 1
35.676796 -4.689123 33.897071 49.435140 -0.130684 0.815248 0.056963 -0.030274 -758436.000000 0 0 1
34.599016 -5.463323 33.405471 48.403154 -0.156611 0.809099 0.058689 -0.028982 -823584.000000 0 0 1
33.269736 -5.083423 34.054771 47.879473 -0.151622 0.779507 0.075298 -0.036167 -935206.000000 0 0 1
32.973186 -5.709423 -32.976921 46.981974 -0.171453 2.348866 0.082078 -0.038148 204679.000000 0 0 1
32.556816 -7.064523 -33.076321 46.945679 -0.213678 2.352607 0.086332 -0.030970 421525.000000 0 0 1
31.141216 -7.425723 -33.684221 46.470888 -0.234082 2.381607 0.083094 -0.031044 637554.000000 0 0 1
30.075056 -7.352923 -32.783321 45.092357 -0.239782 2.384777 0.086175 -0.032317 242126.000000 0 0 1
28.792876 -7.621123 -33.344321 44.709674 -0.258754 2.412526 0.085332 -0.028985 331416.000000 0 0 1
27.648216 -7.244523 -32.410921 43.213132 -0.256264 2.418896 0.078924 -0.028015 488704.000000 0 0 1
26.330816 -7.687723 -32.764321 42.730711 -0.284071 2.444579 0.065908 -0.024092 455776.000000 0 0 1
25.356516 -7.376223 -31.832921 41.360566 -0.283088 2.449080 0.068281 -0.025313 -467825.000000 0 0 1
23.944516 -7.812523 -32.289421 40.950972 -0.315386 2.479146 0.062489 -0.030458 20872.700000 0 0 1
23.598816 -9.217923 -32.263021 41.021662 -0.372385 2.475897 0.063994 -0.033401 321721.000000 0 0 1
23.475716 -9.826123 -30.979121 40.091993 -0.396408 2.453882 0.066241 -0.027668 -559992.000000 0 0 1
23.277516 -11.323223 -30.991221 40.379623 -0.452745 2.445723 0.069048 -0.025124 179016.000000 0 0 1
22.032816 -11.587423 -31.632721 40.253477 -0.484165 2.474847 0.074691 -0.031761 373148.000000 0 0 1
21.856916 -12.962823 -31.763221 40.677534 -0.535313 2.466828 0.062244 -0.023501 -692780.000000 0 0 1
20.655616 -13.331323 -32.653321 40.873195 -0.573141 2.496249 0.050756 -0.018154 183491.000000 0 0 1
19.369016 -13.035923 -32.147721 39.731223 -0.592395 2.513466 0.032331 -0.015293 181556.000000 0 0 1
18.948316 -11.672423 -32.204021 39.145665 -0.552111 2.536890 0.032494 -0.024375 -651318.000000 0 0 1
17.511216 -11.333423 -31.775221 38.009918 -0.574411 2.560698 0.041528 -0.026284 11203.900000 0 0 1
16.494916 -12.042123 -32.449021 38.341022 -0.630611 2.579847 0.035472 -0.020414 531431.000000 0 0 1
15.213216 -11.717523 -31.886621 37.222290 -0.656317 2.599545 0.060792 -0.034394 285280.000000 0 0 1
14.024316 -12.172123 -32.709621 37.613313 -0.714812 2.625246 0.072758 -0.034054 -1264830.000000 0 0 1
13.831316 -13.575623 -32.640321 37.960419 -0.776069 2.605775 0.076745 -0.025736 281635.000000 0 0 1
12.703116 -14.001723 -33.392721 38.373053 -0.833988 2.626430 0.075862 -0.033798 478089.000000 0 0 1
11.342316 -13.928623 -32.628521 37.246142 -0.887386 2.638352 0.080322 -0.034172 -46044.800000 0 0 1
10.927916 -12.580323 -32.512521 36.534202 -0.855573 2.667966 0.097766 -0.032637 822712.000000 0 0 1
9.808916 -12.462123 -31.558021 35.318947 -0.903972 2.675910 0.101191 -0.038393 1100970.000000 0 0 1
8.757816 -11.386323 -31.901521 34.986494 -0.915150 2.718501 0.094360 -0.033912 -301337.000000 0 0 1
9.022416 -10.010523 -31.794421 34.532590 -0.837267 2.740686 0.086128 -0.034110 -292051.000000 0 0 1
7.938816 -9.276423 -32.262621 34.495703 -0.862941 2.779803 0.086176 -0.029368 -538261.000000 0 0 1
8.259416 -7.785223 -32.529021 34.452357 -0.755852 2.805875 0.089043 -0.023760 -345968.000000 0 0 1
8.635116 -7.011723 -31.403821 33.315604 -0.682016 2.801177 0.068498 -0.026741 281640.000000 0 0 1
9.057116 -5.745423 -31.786721 33.547532 -0.565298 2.816162 0.059762 -0.026409 -224252.000000 0 0 1
9.522216 -4.848823 -30.655421 32.464420 -0.470990 2.806189 0.059819 -0.028532 -601582.000000 0 0 1
8.428316 -4.586823 -29.834821 31.339943 -0.498392 2.830417 0.071699 -0.026302 -320835.000000 0 0 1
8.592416 -3.438723 -28.971421 30.413775 -0.380683 2.832387 0.058760 -0.022051 -1141990.000000 0 0 1
7.270016 -2.961423 -28.433521 29.497259 -0.386824 2.872219 0.061447 -0.027384 -1041490.000000 0 0 1
6.540616 -2.348823 -29.527621 30.334420 -0.344770 2.910441 0.057649 -0.018984 910583.000000 0 0 1
5.340416 -1.713323 -29.018721 29.555739 -0.310448 2.950674 0.083432 -0.025936 1125240.000000 0 0 1
4.083616 -2.632023 -28.957221 29.361950 -0.572522 2.975364 0.076874 -0.030674 -426971.000000 0 0 1
3.992716 -3.430923 -27.771921 28.266458 -0.709866 2.954260 0.077609 -0.037134 -251796.000000 0 0 1
2.923216 -4.336023 -27.824821 28.311958 -0.977617 2.955821 0.082687 -0.033775 -66033.800000 0 0 1
2.995916 -5.475323 -26.760321 27.478528 -1.070131 2.912457 0.059062 -0.029745 -116454.000000 0 0 1
2.833416 -5.036823 -25.434221 26.082512 -1.058376 2.918169 0.057934 -0.035611 66923.600000 0 0 1
3.200316 -6.074123 -24.548121 25.490140 -1.085879 2.868880 0.055751 -0.036354 -29426.600000 0 0 1
3.039016 -5.583323 -23.114321 23.972504 -1.072338 2.873211 0.053632 -0.034195 -208968.000000 0 1 0
4.128716 -4.777623 -22.762021 23.621634 -0.858129 2.870987 0.054580 -0.036779 -203675.000000 0 1 0
3.905116 -4.026623 -21.574821 22.292073 -0.800716 2.887234 0.053081 -0.033271 -412765.000000 0 1 0
4.894316 -2.913623 -21.323221 22.070870 -0.536962 2.880564 0.063074 -0.034678 -1391860.000000 0 1 0
6.169216 -3.334723 -21.076221 22.212310 -0.495553 2.820380 0.050931 -0.032718 -1310660.000000 0 1 0
7.010616 -2.288723 -20.655221 21.932286 -0.315557 2.798659 0.065205 -0.022010 -291236.000000 0 1 0
8.442916 -2.669123 -20.275821 22.125008 -0.306195 2.729840 0.056996 -0.026549 -1942640.000000 0 1 0
9.205116 -2.876123 -21.442421 23.511352 -0.302838 2.718937 0.061175 -0.034923 232853.000000 0 1 0
10.486116 -3.450423 -21.185021 23.888683 -0.317888 2.661219 0.047198 -0.030846 978682.000000 0 1 0
11.501516 -2.532923 -20.420221 23.572993 -0.216765 2.618453 0.040545 -0.027443 -1145710.000000 0 1 0
11.164816 -2.405423 -19.031221 22.195192 -0.212203 2.601086 0.033265 -0.019653 655748.000000 0 1 0
12.220216 -1.825123 -18.231321 22.023756 -0.148257 2.545976 0.037701 -0.029092 350996.000000 0 1 0
12.475716 -0.275623 -18.382521 22.217933 -0.022089 2.545211 0.026637 -0.020645 -74356.100000 0 1 0
12.861116 0.115277 -19.679521 23.509682 0.008963 2.562723 0.022323 -0.022390 202815.000000 0 1 0
13.246316 1.458977 -19.602821 23.703673 0.109700 2.544538 0.055909 -0.030202 -100128.000000 0 1 0
13.464516 2.260077 -20.914721 24.976523 0.166304 2.563260 0.048798 -0.023381 867042.000000 0 1 0
14.798416 2.175277 -21.477521 26.172674 0.145949 2.533271 0.051275 -0.013747 1179190.000000 0 0 1
14.886016 3.112477 -22.530521 27.182814 0.206118 2.547848 0.057280 -0.014799 -268608.000000 0 0 1
16.322216 3.327077 -23.042321 28.432952 0.201083 2.515646 0.054325 -0.006747 139230.000000 0 0 1
16.960316 2.392777 -23.880921 29.388367 0.140156 2.519392 0.047394 -0.002548 397096.000000 0 0 1
17.438916 1.146177 -23.284521 29.113544 0.065631 2.497730 0.056042 -0.006016 -211988.000000 0 0 1
9.687178 26.740577 3.409771 28.644833 1.223237 1.451477 0.020425 -0.004129 35667.500000 0 0 1
9.723578 27.136777 4.761371 29.216833 1.226731 1.407100 0.019221 -0.004359 -469024.000000 0 0 1
11.018878 27.455877 5.139371 30.027554 1.189144 1.398794 0.027795 -0.001201 -985542.000000 0 0 1
11.038878 28.070977 6.558371 30.868250 1.196123 1.356701 0.025468 -0.012837 -212136.000000 0 0 1
10.780078 27.114777 7.547771 30.139510 1.192385 1.317674 0.022893 -0.021695 80536.100000 0 0 1
10.532578 27.867577 8.753271 31.050875 1.209441 1.285021 0.028678 -0.018092 -429864.000000 0 0 1
10.427078 26.902877 10.018671 30.542799 1.201041 1.236589 0.031630 -0.027478 1248050.000000 0 0 1
11.622978 26.213477 10.522771 30.544537 1.153447 1.219084 0.033655 -0.021700 1093300.000000 0 0 1
12.251378 25.410377 9.542971 29.780058 1.121538 1.244594 0.031824 -0.027510 -754388.000000 0 0 1
13.520778 24.718477 10.043271 29.911233 1.070266 1.228375 0.040563 -0.029825 -701088.000000 0 0 1
14.562878 25.633777 10.194271 31.194409 1.054153 1.237883 0.043869 -0.024954 -173892.000000 0 0 1
15.746178 24.915877 10.566371 31.311200 1.007198 1.226576 0.061303 -0.027655 1039620.000000 0 0 1
16.961278 25.835777 10.965471 32.793504 0.989863 1.229850 0.067662 -0.024767 -194720.000000 0 0 1
17.509378 26.443677 9.810871 33.197885 0.985935 1.270789 0.072139 -0.025576 2149430.000000 0 0 1
18.971878 26.631177 9.917671 34.168874 0.951801 1.276303 0.085948 -0.035639 2405150.000000 0 0 1
19.609978 27.450077 11.092571 35.512014 0.950480 1.253119 0.084571 -0.032540 -859595.000000 0 0 1
19.574078 28.828677 11.000671 36.541099 0.974318 1.265004 0.086597 -0.039026 -532452.000000 0 0 1
18.378578 29.544077 11.115171 36.526315 1.014304 1.261587 0.065431 -0.023316 -613882.000000 0 0 1
18.573678 31.067977 11.298971 37.919223 1.031967 1.268226 0.056222 -0.013348 -830396.000000 0 0 1
18.968078 31.787977 10.167171 38.387952 1.032802 1.302745 0.072129 -0.037704 202105.000000 0 0 1
18.065578 31.910077 9.051871 37.769757 1.055646 1.328781 0.069754 -0.043068 -85834.400000 0 0 1
16.717278 32.590977 9.302071 37.791106 1.096849 1.322096 0.057641 -0.029674 -550863.000000 0 0 1
16.739078 33.924877 9.734671 39.062231 1.112430 1.318933 0.050997 -0.029497 434461.000000 0 0 1
15.406778 -33.865864 10.003371 38.527042 -1.143846 1.308141 0.049790 -0.015318 562161.000000 0 0 1
15.487478 -32.424064 10.322171 37.386215 -1.125185 1.291067 0.045218 -0.011499 -298014.000000 0 0 1
15.915878 -31.693564 9.232571 36.647476 -1.105406 1.316123 0.039765 -0.016362 -95339.300000 0 0 1
16.043078 -30.367064 9.393271 35.605793 -1.084762 1.303823 0.041086 -0.020259 78405.200000 0 0 1
16.892078 -29.719064 8.252671 35.166342 -1.053942 1.333912 0.023185 -0.020090 42679.100000 0 0 1
16.168478 -29.711164 7.066971 34.555969 -1.072426 1.364835 0.024052 -0.020481 573660.000000 0 0 1
17.017778 -29.240464 5.959271 34.352910 -1.043722 1.396442 0.008729 -0.006493 603059.000000 0 0 1
16.526778 -29.537964 4.500871 34.145037 -1.060681 1.438595 0.019418 0.000409 -262772.000000 0 0 1
16.640378 -30.867464 4.067971 35.302279 -1.076367 1.455307 0.032171 -0.007005 -40935.400000 0 0 1
16.702978 -30.819064 2.608471 35.151220 -1.074140 1.496521 0.033853 -0.005165 -136689.000000 0 0 1
16.911478 -32.212664 2.050271 36.439778 -1.087353 1.514502 0.048066 -0.009831 18326.100000 0 0 1
18.240578 -32.648564 2.259171 37.466669 -1.061302 1.510462 0.047732 -0.000115 100625.000000 0 0 1
18.472678 -33.925264 1.671471 38.664676 -1.072177 1.527553 0.075046 -0.003736 -172676.000000 0 0 1
19.874878 33.703677 1.906571 39.173762 1.037989 1.522107 0.069696 -0.008541 -6938.050000 0 0 1
20.170378 33.269877 3.218971 39.039604 1.025783 1.488249 0.065487 -0.029682 -7043.790000 0 0 1
21.524078 32.968777 3.475471 39.526006 0.992411 1.482754 0.054972 -0.017332 24278.500000 0 0 1
21.983978 32.765777 4.951871 39.766977 0.979839 1.445950 0.059694 -0.015397 -148717.000000 0 0 1
21.357678 31.585777 5.415171 38.511503 0.976236 1.429717 0.063782 -0.031564 140600.000000 0 0 1
22.232578 30.507077 5.756171 38.185112 0.941023 1.419476 0.061176 -0.039106 -143055.000000 0 0 1
21.575478 29.469477 6.699371 37.132640 0.938831 1.389386 0.077886 -0.043688 -164752.000000 0 0 1
20.456078 29.045277 5.972871 36.024359 0.957202 1.404226 0.071256 -0.038807 -267430.000000 0 0 1
19.457678 28.483377 6.835771 35.165776 0.971487 1.375164 0.071941 -0.045591 796019.000000 0 0 1
18.011278 28.631877 6.262971 34.400805 1.009280 1.387716 0.079659 -0.040944 422799.000000 0 0 1
17.499478 29.962777 6.249671 35.257030 1.042194 1.392594 0.071106 -0.042512 250240.000000 0 0 1
17.936178 30.720077 5.082671 35.934151 1.042330 1.428876 0.079984 -0.041505 -137124.000000 0 0 1
17.804778 32.213577 5.240671 37.177807 1.065875 1.429363 0.086312 -0.038444 -126076.000000 0 0 1
16.473578 32.656377 5.279271 36.955222 1.103593 1.427450 0.067127 -0.033656 -235327.000000 0 0 1
16.517978 34.083877 5.396771 38.258064 1.119522 1.429262 0.064945 -0.038401 561608.000000 0 0 1
15.072278 -33.561464 5.629471 37.218764 -1.148695 1.418960 0.050827 -0.028944 800583.000000 0 0 1
14.363978 -33.520064 4.398671 36.732368 -1.165949 1.450759 0.056662 -0.017708 -349381.000000 0 0 1
13.238178 -32.691964 4.475971 35.553455 -1.186041 1.444567 0.051340 -0.011683 -203011.000000 0 0 1
12.263878 -32.620964 3.316471 35.007556 -1.211192 1.475918 0.055736 -0.007162 249161.000000 0 0 1
11.343678 -31.531564 3.221871 33.664507 -1.225457 1.474944 0.061782 -0.008677 598627.000000 0 0 1
10.623978 -31.506664 1.958871 33.307296 -1.245572 1.511950 0.063163 -0.004154 -578378.000000 0 0 1
9.720078 -30.286464 1.847271 31.861610 -1.260243 1.512786 0.072987 -0.008461 -14940.300000 0 0 1
9.190978 -30.003764 0.532071 31.384439 -1.273545 1.553842 0.079193 -0.009115 -80180.100000 0 0 1
8.160478 -30.871764 0.143771 31.932427 -1.312372 1.566294 0.060654 -0.010021 -959328.000000 0 0 1
8.463378 -31.542164 -1.194229 32.679704 -1.308651 1.607348 0.075602 -0.014246 -1004260.000000 0 0 1
9.575878 -32.333664 -1.153529 33.741575 -1.282868 1.604990 0.073014 -0.015521 -995940.000000 0 0 1
9.659478 -33.325764 -2.174929 34.765534 -1.288677 1.633397 0.067922 -0.009922 -45132.300000 0 0 1
10.996378 -34.098064 -2.121129 35.890075 -1.258834 1.629931 0.077684 -0.012847 -53052.400000 0 0 1
11.136178 33.165977 -1.028129 35.000765 1.246853 1.600175 0.076798 -0.011591 1198200.000000 0 0 1
12.444078 32.529077 -1.091429 34.845189 1.205421 1.602124 0.085158 -0.014883 990281.000000 0 0 1
12.751078 31.452877 0.002371 33.939262 1.185641 1.570726 0.070003 -0.009862 -197852.000000 0 0 1
12.889478 31.970577 1.307171 34.495872 1.187563 1.532894 0.068696 -0.012568 580027.000000 0 0 1
14.037778 32.791977 1.603471 35.706360 1.166315 1.525874 0.073659 -0.014705 216795.000000 0 0 1
15.333478 32.069577 1.966371 35.601123 1.124796 1.515535 0.087321 -0.020501 -471076.000000 0 0 1
16.216978 31.835977 0.889771 35.739495 1.099664 1.545898 0.096192 -0.027659 -295486.000000 0 0 1
17.017778 30.747177 1.104771 35.159838 1.065289 1.539370 0.094319 -0.023259 -266569.000000 0 0 1
17.741378 30.196177 -0.154529 35.022700 1.039591 1.575209 0.091846 -0.018115 729063.000000 0 0 1
18.817178 30.971777 -0.726829 36.247282 1.024837 1.590850 0.082978 -0.004834 497834.000000 0 0 1
18.462278 32.018977 -1.618429 36.995810 1.047757 1.614557 0.075555 -0.009720 377867.000000 0 0 1
19.748078 32.633077 -2.265529 38.210430 1.026595 1.630122 0.072233 -0.000546 761565.000000 0 0 1
20.533178 33.456777 -1.408929 39.280433 1.020348 1.606672 0.046459 0.002152 -103030.000000 0 0 1
21.543378 -34.083464 -2.104029 40.376064 -1.007124 1.622931 0.035233 0.008926 -1688860.000000 0 0 1
22.730378 -33.699364 -1.265629 40.668403 -0.977387 1.601922 0.030428 0.009987 -281054.000000 0 0 1
23.745978 33.516477 -0.956429 41.086987 0.954397 1.594077 0.033111 0.011548 1506960.000000 0 0 1
24.467478 32.892577 -2.063929 41.046790 0.931236 1.621100 0.043311 0.014369 165980.000000 0 0 1
25.062078 33.796877 -3.200029 42.196882 0.932725 1.646705 0.023709 0.005714 -336111.000000 0 0 1
24.037578 -34.083864 -4.135629 41.912031 -0.956557 1.669631 0.019155 -0.005031 416663.000000 0 0 1
24.599878 -33.224464 -5.101629 41.653879 -0.933458 1.693581 0.016260 -0.006537 -132971.000000 0 0 1
23.699778 -32.734964 -6.251229 40.894195 -0.944151 1.724261 0.016028 -0.013642 -394901.000000 0 0 1
22.747478 -31.771764 -5.890829 39.517017 -0.949436 1.720425 0.031861 -0.009415 629840.000000 0 0 1
21.884378 -31.339764 -6.984629 38.857327 -0.961216 1.751529 0.035869 -0.015313 250346.000000 0 0 1
20.984778 -30.186064 -6.597729 37.350895 -0.963312 1.748370 0.056616 -0.019304 33175.000000 0 0 1
19.803478 -30.598964 -5.898829 36.922493 -0.996396 1.731246 0.059563 -0.010543 -259304.000000 0 0 1
19.192478 -29.439164 -5.489529 35.568954 -0.993061 1.725751 0.081063 -0.025895 305687.000000 0 0 1
17.883278 -29.683564 -4.655629 34.965704 -1.028567 1.704341 0.071742 -0.013577 828835.000000 0 0 1
16.847078 -30.391764 -5.297129 35.150290 -1.064635 1.722072 0.068759 -0.018252 -87217.100000 0 0 1
15.656378 -30.375464 -4.541529 34.473417 -1.094882 1.702920 0.054250 -0.012473 53188.500000 0 0 1
14.526578 -31.257864 -5.108229 34.844935 -1.135758 1.717925 0.051129 -0.008286 -173052.000000 0 0 1
14.808778 -32.657464 -5.275329 36.244157 -1.145071 1.716865 0.057311 0.001599 -618563.000000 0 0 1
13.686078 -33.473264 -5.463929 36.573524 -1.182670 1.720753 0.072063 -0.004364 -440276.000000 0 0 1
13.941578 33.225077 -5.324229 36.422806 1.173500 1.717500 0.067409 -0.002835 -42980.500000 0 0 1
14.229678 32.705877 -3.978629 35.888545 1.160419 1.681885 0.071560 -0.010155 149476.000000 0 0 1
14.579078 31.302377 -3.980829 34.759680 1.134922 1.685572 0.080858 -0.014295 225757.000000 0 0 1
13.453678 30.351777 -4.502029 33.503733 1.153563 1.705578 0.081623 -0.020394 1088150.000000 0 0 1
12.380978 30.017477 -3.588529 32.668258 1.179596 1.680866 0.082021 -0.019250 719773.000000 0 0 1
12.708378 28.875377 -2.882629 31.679644 1.156196 1.661915 0.089425 -0.019474 458508.000000 0 0 1
11.447078 28.215577 -2.188129 30.527730 1.185385 1.642535 0.077484 -0.015092 766165.000000 0 0 1
11.000678 29.018077 -1.119929 31.053470 1.208438 1.606869 0.065867 -0.010561 -748339.000000 0 0 1
9.850778 28.405877 -0.631429 30.072087 1.236987 1.591795 0.042480 -0.006627 -529296.000000 0 0 1
8.991478 29.308577 0.291671 30.658187 1.273125 1.561283 0.035356 0.006430 -162845.000000 0 0 1
8.093978 28.563577 1.050971 29.706817 1.294668 1.535411 0.031062 -0.002151 -568471.000000 0 0 1
6.814878 29.131077 0.953771 29.932790 1.340991 1.538927 0.043528 0.004171 257970.000000 0 0 1
5.608178 28.341377 1.578371 28.934004 1.375441 1.516218 0.035715 -0.001619 666277.000000 0 0 1
5.208878 27.188177 0.836771 27.695299 1.381504 1.540578 0.040747 -0.004823 556664.000000 0 0 1
3.966078 26.756977 1.412071 27.086151 1.423642 1.518640 0.037359 -0.007355 590080.000000 0 0 1
3.146478 25.844477 0.518271 26.040467 1.449646 1.550892 0.039372 -0.008413 -252916.000000 0 0 1
1.896778 25.403377 0.984871 25.493123 1.496268 1.532154 0.046753 -0.006854 58395.700000 0 0 1
1.282878 24.595677 0.002971 24.629111 1.518685 1.570676 0.035866 -0.002430 692002.000000 0 1 0
-0.129322 23.954377 0.232671 23.955856 -1.565398 1.561084 0.029631 -0.000945 964422.000000 0 1 0
-1.170722 24.905577 0.334471 24.935321 -1.523824 1.557382 0.033917 -0.010371 944340.000000 0 1 0
-2.391122 24.286977 0.832971 24.418611 -1.472660 1.536678 0.030004 -0.000512 706863.000000 0 1 0
-3.548222 25.233277 1.171771 25.508454 -1.431096 1.524844 0.046480 -0.018429 -23104.600000 0 0 1
-4.634422 24.485777 1.758771 24.982483 -1.383739 1.500338 0.034879 -0.012663 731323.000000 0 1 0
-5.644422 25.324077 2.325771 26.049522 -1.351493 1.481395 0.032496 -0.015489 1086760.000000 0 0 1
-6.806722 25.762777 1.330771 26.680013 -1.312491 1.520897 0.038868 -0.022292 251656.000000 0 0 1
-6.524122 26.853277 0.451271 27.638132 -1.332460 1.554468 0.044858 -0.023190 359182.000000 0 0 1
-7.527622 26.917877 -0.569829 27.956429 -1.298111 1.591180 0.038972 -0.017265 94389.700000 0 0 1
-7.324422 28.058477 -1.578129 29.041622 -1.315453 1.625163 0.036730 -0.012822 -327457.000000 0 0 1
-7.649022 29.311177 -1.024429 30.310099 -1.315530 1.604601 0.056446 -0.029018 -69032.200000 0 0 1
-7.653522 30.327977 -2.038029 31.345114 -1.323599 1.635861 0.063430 -0.025776 -300006.000000 0 0 1
-7.494622 31.699177 -1.440629 32.604948 -1.338630 1.614995 0.054847 -0.025003 -394702.000000 0 0 1
-7.618322 32.855977 -2.279029 33.804557 -1.342952 1.638265 0.045904 -0.010762 -416532.000000 0 0 1
-6.660322 32.960077 -3.308429 33.788641 -1.371409 1.668869 0.036256 -0.012021 -725748.000000 0 0 1
-5.250922 33.381577 -2.941829 33.919850 -1.414775 1.657634 0.047490 -0.020971 -1307880.000000 0 0 1
-5.116722 -33.458264 -2.664329 33.951950 1.419044 1.649351 0.050251 -0.018567 -195229.000000 0 0 1
-4.005422 -33.153364 -1.874829 33.447031 1.450564 1.626879 0.052986 -0.023307 -339905.000000 0 0 1
-3.863722 -31.634864 -1.823229 31.922047 1.449263 1.627942 0.055051 -0.033300 -100336.000000 0 0 1
-4.910622 -30.950464 -1.184429 31.359979 1.413447 1.608574 0.065375 -0.029335 -290135.000000 0 0 1
-5.196422 -29.762564 -1.900929 30.272538 1.397943 1.633632 0.071896 -0.023452 -443526.000000 0 0 1
-6.653122 -29.318964 -1.737329 30.114514 1.347653 1.628519 0.088040 -0.020728 -389504.000000 0 0 1
-6.964322 -29.035864 -0.415329 29.862278 1.335391 1.584705 0.076949 -0.020135 -459270.000000 0 0 1
-8.221022 -28.407164 -0.380129 29.575271 1.289093 1.583650 0.066573 -0.018280 -29522.200000 0 0 1
-8.587922 -28.003964 1.051171 29.310055 1.273233 1.534925 0.066414 -0.017964 67540.600000 0 0 1
-7.808822 -26.871364 1.360071 28.016025 1.287985 1.522231 0.065196 -0.028480 -105813.000000 0 0 1
-7.758822 -26.665064 2.745671 27.906337 1.287641 1.472248 0.068510 -0.024219 -36017.500000 0 0 1
-8.640322 -25.523964 3.226471 27.139234 1.244387 1.451629 0.061464 -0.023890 -286196.000000 0 0 1
-8.007722 -24.255164 3.148571 25.736163 1.251918 1.448149 0.060916 -0.025148 -617336.000000 0 0 1
-8.906522 -23.201764 3.298771 25.070498 1.204270 1.438834 0.056436 -0.023982 -326334.000000 0 0 1
-8.223522 -21.857664 3.748071 23.652311 1.210947 1.411660 0.034029 -0.001367 434601.000000 0 1 0
-7.656822 -21.842964 5.038771 23.688208 1.233641 1.356446 0.038407 -0.009845 -337464.000000 0 1 0
-7.132722 -20.577964 5.454271 22.451668 1.237136 1.325407 0.020847 -0.008436 -273609.000000 0 1 0
-8.071122 -19.583364 6.101971 22.042804 1.179867 1.290309 0.031627 -0.009072 -458420.000000 0 1 0
-8.490022 -20.059464 7.378471 22.997922 1.170415 1.244188 0.041040 -0.014965 -191325.000000 0 1 0
-9.152322 -18.996464 7.989271 22.549037 1.121822 1.208624 0.026209 -0.015294 -679114.000000 0 1 0
-27.067492 28.992777 -5.394729 40.029156 -0.819728 1.705978 0.104240 -0.004798 -173648.000000 0 0 1
-26.182192 29.645477 -4.549729 39.812831 -0.847354 1.685324 0.104436 -0.028320 -528737.000000 0 0 1
-25.203822 28.788377 -4.033729 38.474333 -0.851691 1.675831 0.081790 -0.025813 443759.000000 0 0 1
-24.111222 29.534677 -3.184429 38.259493 -0.886153 1.654125 0.070078 -0.031965 186275.000000 0 0 1
-24.660222 29.939877 -1.944329 38.836880 -0.881795 1.620881 0.063687 -0.036566 8010.520000 0 0 1
-24.050522 31.088977 -1.448429 39.332557 -0.912360 1.607630 0.068610 -0.034929 -722753.000000 0 0 1
-22.763222 30.886677 -0.691629 38.374855 -0.935673 1.588820 0.064377 -0.026150 -1161310.000000 0 0 1
-21.694522 30.446277 -1.423229 37.411945 -0.951697 1.608848 0.065113 -0.027571 -858807.000000 0 0 1
-20.473022 30.346077 -0.727529 36.613636 -0.977286 1.590668 0.046960 -0.021792 -1284.080000 0 0 1
-19.339422 29.726377 -1.549029 35.497468 -0.994013 1.614448 0.066787 -0.015935 -483848.000000 0 0 1
-18.103722 29.818277 -0.907729 34.895535 -1.025147 1.596812 0.058159 -0.010777 -947666.000000 0 0 1
-17.122222 29.100777 -1.576729 33.801062 -1.038967 1.617461 0.052808 -0.006030 -26984.300000 0 0 1
-15.705622 29.343077 -0.977429 33.296218 -1.079355 1.600156 0.055849 -0.003292 195982.000000 0 0 1
-15.452722 28.841077 0.316371 32.721468 -1.078929 1.561128 0.055841 -0.015492 -144155.000000 0 0 1
-14.274822 29.401277 0.854671 32.694588 -1.118802 1.544652 0.051981 -0.017779 -26451.100000 0 0 1
-13.924422 28.657577 2.144671 31.933460 -1.118501 1.503585 0.036356 -0.021438 -683717.000000 0 0 1
-14.848022 28.827777 3.186371 32.583086 -1.095174 1.472848 0.035515 -0.013569 -515568.000000 0 0 1
-14.621022 28.207477 4.439971 32.080359 -1.092586 1.431949 0.028075 -0.027381 232076.000000 0 0 1
-13.427722 28.687277 5.343371 32.121881 -1.133015 1.403673 0.043724 -0.028294 405350.000000 0 0 1
-13.611122 29.989977 5.949471 33.467261 -1.144741 1.392077 0.038758 -0.032202 -279383.000000 0 0 1
-13.488422 31.127677 5.098371 34.305440 -1.161895 1.421627 0.046569 -0.018576 -322597.000000 0 0 1
-13.248622 32.404577 5.935471 35.507921 -1.182684 1.402849 0.051959 -0.023425 113123.000000 0 0 1
-14.422122 32.881777 6.581971 36.503852 -1.157459 1.389496 0.044902 -0.020440 -29168.800000 0 0 1
-14.214422 33.990177 7.460671 37.590472 -1.174706 1.370997 0.064410 -0.028807 -1064660.000000 0 0 1
-15.366022 -33.730764 8.255771 37.974160 1.143337 1.351641 0.058230 -0.027633 -873688.000000 0 0 1
-15.509322 33.735277 9.395671 38.299956 -1.139875 1.322949 0.045994 -0.029608 -862282.000000 0 0 1
-16.755322 33.881477 9.976871 39.092624 -1.111536 1.312730 0.065928 -0.031206 -1426020.000000 0 0 1
-16.989622 33.147677 11.362471 38.942541 -1.097164 1.274714 0.065700 -0.025049 342546.000000 0 0 1
-16.157122 33.564677 12.441771 39.273882 -1.122161 1.248448 0.067910 -0.027936 -185016.000000 0 0 1
-14.771722 33.368177 12.304671 38.510310 -1.154039 1.245577 0.064113 -0.026297 -622452.000000 0 0 1
-14.209922 33.590177 13.716171 38.966078 -1.170589 1.211086 0.060264 -0.026225 -407850.000000 0 0 1
-14.453122 32.516777 14.623371 38.471763 -1.152541 1.180885 0.053626 -0.023428 403770.000000 0 0 1
-13.420422 31.513777 14.669271 37.261420 -1.168198 1.166159 0.038582 -0.021115 53438.700000 0 0 1
-13.935222 30.084677 14.358371 36.130888 -1.137020 1.162116 0.035372 -0.019706 -101654.000000 0 0 1
-14.046222 29.881577 12.922671 35.457023 -1.131384 1.197743 0.031322 -0.021354 -1221520.000000 0 0 1
-15.342922 29.680677 12.551371 35.691523 -1.093694 1.211450 0.017196 -0.022180 -1356310.000000 0 0 1
-15.503022 29.534177 11.021371 35.129503 -1.087414 1.251672 0.017219 -0.018870 64206.000000 0 0 1
-15.020222 28.279177 10.534671 33.709023 -1.082548 1.252954 0.016361 -0.016297 115815.000000 0 0 1
-15.009822 28.418777 9.126271 33.409736 -1.084871 1.294118 0.009861 -0.016686 -219702.000000 0 0 1
-14.345222 27.240177 8.388071 31.908814 -1.086080 1.304794 0.013171 -0.018578 -567142.000000 0 0 1
-12.948022 27.202977 8.384071 31.272127 -1.126550 1.299376 0.036424 -0.026731 -539674.000000 0 0 1
-12.634222 25.915677 8.032571 29.929385 -1.117188 1.299081 0.030882 -0.029051 -179123.000000 0 0 1
-11.214122 25.760777 7.458071 29.068832 -1.160219 1.311329 0.059260 -0.037184 -218721.000000 0 0 1
-11.133822 26.181677 6.089271 29.095042 -1.168712 1.359949 0.059851 -0.032842 509343.000000 0 0 1
-9.939722 25.857277 5.375571 28.218675 -1.203804 1.379128 0.082662 -0.030081 115875.000000 0 0 1
-9.976522 26.259177 3.878171 28.356932 -1.207715 1.433604 0.063774 -0.022291 -7489.520000 0 0 1
-9.992322 27.617877 3.578871 29.587193 -1.223643 1.449539 0.066017 -0.023160 110569.000000 0 0 1
-10.319922 27.855877 2.225971 29.789354 -1.215998 1.496003 0.064652 -0.022337 -71986.900000 0 0 1
-10.008922 29.342277 1.706271 31.049301 -1.242064 1.515815 0.075888 -0.018689 -174213.000000 0 0 1
-10.947322 30.244877 2.165371 32.237948 -1.223510 1.503577 0.059868 -0.023963 -452141.000000 0 0 1
-10.503122 31.585877 1.952171 33.343578 -1.249773 1.512216 0.067139 -0.021753 438218.000000 0 0 1
-11.367722 32.703577 2.703271 34.728328 -1.236262 1.492877 0.065866 -0.013777 756823.000000 0 0 1
-12.643522 32.987677 2.158671 35.393578 -1.204786 1.509768 0.050723 -0.017356 -71208.700000 0 0 1
-12.546922 33.913577 1.063171 36.175770 -1.216445 1.541403 0.048811 -0.010938 10301.300000 0 0 1
-13.859622 -33.735664 0.463771 36.474638 1.180989 1.558081 0.056208 -0.009984 54091.500000 0 0 1
-14.650222 33.591077 -0.262329 36.647760 -1.159533 1.577954 0.048104 -0.006479 -275220.000000 0 0 1
-14.585822 33.600177 -1.700729 36.668932 -1.161244 1.617194 0.036376 -0.001086 168893.000000 0 0 1
-13.226122 33.239977 -2.363529 35.852652 -1.192103 1.636768 0.042733 -0.003573 92004.800000 0 0 1
-12.927322 31.853277 -2.295629 34.453111 -1.185266 1.637476 0.036894 0.000423 -498619.000000 0 0 1
-11.572822 31.572677 -2.476929 33.717938 -1.219458 1.644323 0.036197 -0.002247 -564517.000000 0 0 1
-11.320722 30.048077 -2.640729 32.218305 -1.210489 1.652852 0.018038 -0.010516 -96425.500000 0 0 1
-11.489522 29.499177 -3.945229 31.902593 -1.199386 1.694779 0.023689 -0.010372 346901.000000 0 0 1
-10.324722 29.714877 -4.746929 31.813632 -1.236386 1.720566 0.016657 -0.010581 401580.000000 0 0 1
-10.398022 29.033177 -6.082929 31.433203 -1.226886 1.765544 0.019915 -0.011871 -133230.000000 0 0 1
-10.460522 27.616977 -6.042329 30.143485 -1.208723 1.772616 0.023566 -0.009601 -79529.100000 0 0 1
-10.595222 27.159477 -7.324029 30.058898 -1.198844 1.816930 0.019763 -0.009792 -57967.900000 0 0 1
-11.260322 25.787077 -7.335929 29.078928 -1.159087 1.825828 0.037126 -0.019580 185046.000000 0 0 1
-10.499622 24.726677 -6.717729 27.690766 -1.169241 1.815839 0.014442 -0.012660 48347.900000 0 0 1
-11.097022 23.440877 -6.821729 26.817058 -1.128650 1.828003 0.060712 -0.034717 -487833.000000 0 0 1
-10.415622 22.326177 -6.032629 25.364069 -1.134289 1.810939 0.046038 -0.033370 -117198.000000 0 0 1
-9.105022 21.877877 -6.362429 24.536166 -1.176424 1.833102 0.037635 -0.031970 317291.000000 0 1 0
-8.670722 20.737177 -5.628529 23.170936 -1.174764 1.816164 0.039649 -0.029138 -211602.000000 0 1 0
-8.498522 20.841877 -4.066529 22.872372 -1.183617 1.749539 0.030544 -0.025882 208931.000000 0 1 0
-9.715422 20.826477 -3.318729 23.219508 -1.134311 1.714216 0.053564 -0.029769 234567.000000 0 1 0
-10.315222 19.557377 -3.136729 22.332351 -1.085443 1.711719 0.055239 -0.030190 -306350.000000 0 1 0
-11.556522 19.671277 -2.258329 22.926238 -1.039632 1.669460 0.050894 -0.026181 -387101.000000 0 1 0
-11.311222 19.683677 -0.854929 22.718314 -1.049225 1.608437 0.041780 -0.027991 72566.300000 0 1 0
-11.071222 18.386177 -0.317329 21.464486 -1.028798 1.585581 0.045518 -0.020485 -229232.000000 0 1 0
-10.968322 18.503377 1.215071 21.544267 -1.035707 1.514368 0.044964 -0.018313 -838547.000000 0 1 0
-12.110022 18.375577 1.979871 22.096026 -0.988101 1.481073 0.068955 -0.031126 -1067960.000000 0 1 0
-11.888622 18.435277 3.347671 22.190216 -0.998026 1.419356 0.065821 -0.027059 -377693.000000 0 1 0
-13.074822 18.276677 4.303971 22.880386 -0.949821 1.381561 0.067481 -0.032782 -130809.000000 0 1 0
-13.665122 16.988477 4.283971 22.219278 -0.893393 1.376777 0.047874 -0.030891 881240.000000 0 1 0
-14.938422 16.979677 4.963771 23.153940 -0.849264 1.354738 0.062902 -0.037677 969098.000000 0 1 0
-15.376922 15.611777 5.566771 22.608986 -0.792977 1.322019 0.042529 -0.034905 198003.000000 0 1 0
-14.633322 15.179777 6.747071 22.137812 -0.803725 1.261093 0.043320 -0.025852 101194.000000 0 1 0
-14.966622 15.900977 7.920471 23.228748 -0.815659 1.222840 0.038241 -0.017371 -1353230.000000 0 1 0
-13.927822 15.797077 9.054271 22.924042 -0.848201 1.164763 0.030403 -0.009392 1119200.000000 0 1 0
-12.689422 16.541677 8.922171 22.677162 -0.916429 1.166423 0.033437 -0.019705 893595.000000 0 1 0
-11.928622 16.082977 7.797671 21.488552 -0.932633 1.199444 0.039345 -0.023496 -1457730.000000 0 1 0
-10.737422 17.023577 7.481371 21.472432 -1.008081 1.214914 0.057246 -0.031335 351867.000000 0 1 0
-9.788222 17.019977 8.547771 21.413858 -1.048885 1.160185 0.058391 -0.031903 -284835.000000 0 1 0
-9.062822 18.216077 8.522971 22.059040 -1.109136 1.174103 0.049797 -0.029046 -707985.000000 0 1 0
-7.851822 18.281077 9.459771 22.030347 -1.165116 1.126971 0.046975 -0.023295 -467736.000000 0 1 0
-6.836622 17.626077 8.712071 20.816296 -1.200791 1.138979 0.038503 -0.020605 631459.000000 0 1 0
-5.527122 17.597177 9.340071 20.674783 -1.266462 1.102057 0.038116 -0.021486 1541170.000000 0 1 0
-4.592822 18.773177 8.943071 21.295650 -1.330861 1.137408 0.031133 -0.018233 -1052110.000000 0 1 0
-4.979222 20.020877 9.382071 22.663880 -1.327040 1.143990 0.040870 -0.023286 196143.000000 0 1 0
-4.373722 21.092077 8.552471 23.176495 -1.366331 1.192847 0.038589 -0.023939 949121.000000 0 1 0
-2.901222 21.521077 8.837971 23.445332 -1.436796 1.184283 0.042620 -0.023286 765636.000000 0 1 0
-1.862022 20.698777 8.294671 22.376507 -1.481080 1.191048 0.029696 -0.009704 -204672.000000 0 1 0
-0.684322 21.448277 8.258371 22.993425 -1.538901 1.203426 0.021904 -0.009496 233067.000000 0 1 0
0.668078 20.709377 8.086471 22.242204 1.538548 1.198705 0.008552 0.000085 637573.000000 0 1 0
1.011578 19.843377 9.137171 21.869404 1.519862 1.139767 0.008237 -0.016628 172455.000000 0 1 0
2.359878 19.361477 9.118771 21.531090 1.449509 1.133473 0.005802 -0.019617 480221.000000 0 1 0
2.720678 18.863477 10.574471 21.795695 1.427554 1.064246 -0.010674 -0.030094 317578.000000 0 1 0
4.104778 18.573277 10.750871 21.849418 1.353288 1.056360 0.015340 -0.012952 320011.000000 0 1 0
4.426078 18.023577 11.993771 22.097286 1.329990 0.997063 0.011646 -0.013293 -634018.000000 0 1 0
5.917778 18.030477 12.264271 22.594923 1.253664 0.997042 0.021359 -0.019759 -460275.000000 0 1 0
6.681578 17.095577 11.477071 21.647758 1.198214 1.011991 0.016567 -0.021388 -752868.000000 0 1 0
7.801678 16.769677 12.190671 22.151766 1.135353 0.988043 0.027570 -0.013352 -848329.000000 0 1 0
8.985778 16.076877 11.466971 21.695659 1.061126 1.013919 0.042225 -0.021738 471053.000000 0 1 0
9.803478 16.935077 10.677871 22.291747 1.046047 1.071275 0.052856 -0.040884 722416.000000 0 1 0
11.011278 16.293477 10.225371 22.164924 0.976491 1.091301 0.052925 -0.038545 619717.000000 0 1 0
11.921178 17.325877 9.522371 23.086275 0.968131 1.145634 0.054825 -0.028660 -1463430.000000 0 1 0
13.036078 16.763377 9.019471 23.071650 0.909831 1.169151 0.059765 -0.026162 -1868810.000000 0 1 0
13.928078 17.758577 8.633271 24.163853 0.905701 1.205442 0.066909 -0.029792 -150311.000000 0 1 0
14.767678 17.376577 7.396271 23.973623 0.866383 1.257163 0.070330 -0.035257 297845.000000 0 1 0
15.683878 16.305077 7.648771 23.881861 0.804815 1.244776 0.078913 -0.043282 454681.000000 0 1 0
16.721278 16.264677 6.658771 24.258609 0.771557 1.292736 0.084239 -0.031359 857522.000000 0 1 0
18.146678 16.378677 7.297371 25.511069 0.734234 1.280697 0.079063 -0.025508 384751.000000 0 0 1
18.345578 15.275577 8.201371 25.242147 0.694339 1.239882 0.076188 -0.023014 284596.000000 0 0 1
19.421878 15.649277 9.059771 26.536554 0.678240 1.222383 0.066172 -0.019961 94388.400000 0 0 1
19.837178 14.541677 10.047471 26.569262 0.632566 1.182987 0.052388 -0.019979 76509.200000 0 0 1
20.540778 13.393477 9.533171 26.309507 0.577810 1.200012 0.052604 -0.018204 478193.000000 0 0 1
20.711578 12.475877 10.583771 26.393810 0.542155 1.158194 0.060596 -0.022607 -510467.000000 0 0 1
21.425578 11.173277 10.171771 26.217598 0.480693 1.172363 0.046717 -0.016905 193027.000000 0 0 1
22.835978 11.442077 10.264371 27.527447 0.464491 1.188688 0.039640 -0.024700 1119940.000000 0 0 1
23.675378 10.641677 9.455771 27.625721 0.422424 1.221452 0.055056 -0.015374 -153964.000000 0 0 1
23.865378 9.123377 9.707071 27.331658 0.365142 1.207713 0.058807 -0.024211 -322234.000000 0 0 1
22.788078 8.250977 9.354171 25.978369 0.347391 1.202448 0.072127 -0.027873 707687.000000 0 0 1
22.879978 6.948377 9.995871 25.916998 0.294837 1.174843 0.072317 -0.026695 -402594.000000 0 0 1
24.013578 6.074877 9.444171 26.509403 0.247778 1.206537 0.070807 -0.027347 109927.000000 0 0 1
23.651978 5.731177 8.093171 25.646869 0.237731 1.249748 0.064791 -0.020510 4577.460000 0 0 1
24.750878 5.588677 7.237571 26.386014 0.222073 1.292939 0.066573 -0.020838 -400378.000000 0 0 1
24.418078 5.348977 5.774971 25.655494 0.215652 1.343754 0.075232 -0.024726 -628534.000000 0 0 1
23.683478 4.166977 5.626271 24.696675 0.174162 1.340963 0.085832 -0.019925 428858.000000 0 1 0
23.560478 3.848377 4.217671 24.242419 0.161911 1.395927 0.102877 -0.027673 -69311.000000 0 1 0
22.524778 2.705177 4.010371 23.038374 0.119525 1.395831 0.098913 -0.022387 -134492.000000 0 1 0
23.020678 1.427977 4.280471 23.458755 0.061951 1.387300 0.101282 -0.022068 405919.000000 0 1 0
22.197078 0.378177 3.729471 22.511380 0.017036 1.404358 0.099498 -0.018366 -181712.000000 0 1 0
22.663278 -1.045323 3.971671 23.032391 -0.046091 1.397492 0.101302 -0.019338 -581572.000000 0 1 0
22.691578 -1.409423 5.347571 23.355743 -0.062032 1.339785 0.098429 -0.022765 667836.000000 0 1 0
22.731178 -2.801023 5.478471 23.549222 -0.122606 1.336006 0.081795 -0.021686 -522866.000000 0 1 0
22.791978 -3.275723 6.982271 24.061520 -0.142745 1.276377 0.118797 -0.021020 -399979.000000 0 1 0
23.066578 -4.616123 7.115971 24.576669 -0.197513 1.277048 0.117837 -0.025360 521451.000000 0 1 0
23.013978 -5.079523 8.486871 25.049386 -0.217232 1.225149 0.133575 -0.026383 -605364.000000 0 0 1
22.822678 -6.608523 8.659771 25.289105 -0.281851 1.221293 0.158246 -0.035395 118293.000000 0 0 1
21.535778 -7.004123 8.216971 24.090789 -0.314442 1.222727 0.179304 -0.044769 531921.000000 0 1 0
21.118778 -8.196023 8.902871 24.340064 -0.370199 1.196336 0.144003 -0.035767 52964.600000 0 1 0
-27.118772 -32.760864 4.862771 42.805940 0.879345 1.456950 0.043272 -0.022703 141595.000000 0 0 1
-27.748782 -33.815564 5.593871 44.099644 0.883625 1.443608 0.053318 -0.023794 183565.000000 0 0 1
-27.523392 -33.664964 7.001771 44.044201 0.885435 1.411148 0.054872 -0.017980 -96994.200000 0 0 1
-28.298362 33.468577 7.751271 44.508709 -0.868909 1.395752 0.068148 -0.014078 562555.000000 0 0 1
-29.724292 33.460077 7.702671 45.414111 -0.844455 1.400363 0.056448 -0.013275 239866.000000 0 0 1
-30.204702 32.207477 8.087971 44.889430 -0.817477 1.389632 0.076160 -0.011153 903148.000000 0 0 1
-31.757212 32.044777 7.912771 45.803932 -0.789905 1.397172 0.052789 -0.007967 938590.000000 0 0 1
-32.240872 32.056677 6.584971 45.939811 -0.782533 1.426962 0.039843 -0.005896 -371700.000000 0 0 1
-33.640822 31.996777 6.557571 46.888169 -0.760356 1.430481 0.018302 0.001022 -368893.000000 0 0 1
-34.330164 32.058677 5.232071 47.261967 -0.751197 1.459865 -0.000429 0.009670 -379381.000000 0 0 1
-34.144580 30.870277 4.527571 46.252841 -0.735078 1.472752 0.005796 0.004389 320462.000000 0 0 1
-34.978895 30.860777 3.376671 46.768714 -0.722932 1.498534 0.006539 0.016207 186640.000000 0 0 1
-34.748066 29.592177 2.549771 45.712431 -0.705434 1.514989 0.018846 0.006778 -100353.000000 0 0 1
-35.109880 28.420877 3.206971 45.285038 -0.680497 1.499920 0.030000 -0.001794 -163018.000000 0 0 1
-34.396669 27.314077 2.786871 44.010866 -0.671127 1.507432 0.038527 -0.007544 -569296.000000 0 0 1
-34.649435 26.070877 3.625271 43.513407 -0.645047 1.487386 0.054346 -0.012301 -257910.000000 0 0 1
-35.931190 25.496777 3.475771 44.195215 -0.617140 1.492069 0.058970 -0.011942 -290982.000000 0 0 1
-36.258292 24.511677 4.430471 43.989944 -0.594457 1.469910 0.068662 -0.012606 -300333.000000 0 0 1
35.269376 24.110477 4.406371 42.949506 0.599641 1.468021 0.074072 -0.019425 -289709.000000 0 0 1
34.689846 23.414477 3.256071 41.978866 0.593727 1.493154 0.086078 -0.024133 348036.000000 0 0 1
35.151466 22.107277 3.115971 41.642125 0.561410 1.495899 0.086706 -0.022630 -784117.000000 0 0 1
34.353976 21.260877 2.082371 40.454380 0.554184 1.519299 0.105007 -0.025408 2344270.000000 0 0 1
32.947116 20.996477 2.501471 39.148715 0.567380 1.506856 0.114156 -0.036885 2491820.000000 0 0 1
32.692906 20.130077 3.631471 38.564669 0.551907 1.476491 0.098090 -0.027454 -320468.000000 0 0 1
33.194576 18.666177 3.452571 38.239068 0.512257 1.480384 0.107968 -0.031680 -297160.000000 0 0 1
32.437056 18.158677 2.362771 37.248931 0.510346 1.507322 0.109242 -0.038969 460666.000000 0 0 1
32.491206 16.738477 2.159971 36.613120 0.475709 1.511768 0.095790 -0.033928 54240.500000 0 0 1
31.705876 15.784177 3.153371 35.557651 0.461911 1.481996 0.112710 -0.036482 339738.000000 0 0 1
30.301886 15.928777 3.161971 34.379184 0.483972 1.478693 0.101280 -0.032922 49464.000000 0 0 1
29.661196 15.050277 4.044971 33.506107 0.469555 1.449778 0.091085 -0.027890 982265.000000 0 0 1
28.097516 15.231277 4.010471 32.210962 0.496747 1.445966 0.079609 -0.015721 631247.000000 0 0 1
27.357916 14.798277 2.919171 31.240457 0.495841 1.477218 0.076648 -0.019219 696990.000000 0 0 1
26.045216 15.413277 2.970771 30.409667 0.534360 1.472949 0.055935 -0.005050 926417.000000 0 0 1
25.135216 14.679477 1.938371 29.172306 0.528587 1.504302 0.055822 -0.013791 -505984.000000 0 0 1
25.358116 14.964877 0.533671 29.449387 0.533139 1.552674 0.062222 -0.016598 412914.000000 0 0 1
26.493916 14.289077 -0.000729 30.101583 0.494618 1.570821 0.060086 -0.020609 -197340.000000 0 0 1
27.180216 15.009877 -1.213029 31.073011 0.504558 1.609844 0.081080 -0.023318 330987.000000 0 0 1
27.759016 16.292677 -0.958929 32.201457 0.530756 1.600580 0.065774 -0.018947 473951.000000 0 0 1
28.783106 16.457677 -0.005029 33.156030 0.519413 1.570948 0.087890 -0.023968 -353966.000000 0 0 1
29.363216 17.898777 0.102571 34.388591 0.547423 1.567814 0.101721 -0.019061 50212.400000 0 0 1
30.118736 18.232677 -1.036529 35.222765 0.544351 1.600228 0.085645 -0.014494 386210.000000 0 0 1
30.967646 19.368377 -0.845229 36.535511 0.558915 1.593933 0.085465 -0.005564 308614.000000 0 0 1
30.793096 20.378377 -2.002629 36.979772 0.584615 1.624978 0.083087 -0.002674 -28196.400000 0 0 1
31.636646 21.507377 -1.909729 38.302633 0.597057 1.620676 0.062215 0.004027 50965.800000 0 0 1
31.495576 22.355177 -3.020129 38.740759 0.617265 1.648833 0.067249 -0.003349 76556.300000 0 0 1
32.681676 23.357177 -3.219529 40.299070 0.620515 1.650772 0.056575 -0.005679 164643.000000 0 0 1
32.861196 24.373977 -2.222829 40.974259 0.638184 1.625072 0.071145 -0.007568 -32725.900000 0 0 1
33.579716 23.917077 -1.108429 41.241393 0.618899 1.597676 0.081770 0.000535 -615532.000000 0 0 1
33.372006 24.818677 0.071071 41.589212 0.639455 1.569087 0.083560 -0.024374 -32719.300000 0 0 1
33.966546 26.102777 -0.018429 42.837852 0.655227 1.571227 0.082180 -0.018176 497259.000000 0 0 1
35.265776 26.130377 0.585571 43.895495 0.637688 1.557456 0.083072 -0.019657 1230680.000000 0 0 1
36.329516 27.150377 0.007371 45.353906 0.641794 1.570634 0.040155 -0.009377 286135.000000 0 0 1
-36.289002 27.050677 -1.366629 45.282430 -0.640566 1.600981 0.041796 -0.019402 103665.000000 0 0 1
35.697876 27.605577 -2.193329 45.179829 0.658254 1.619362 0.037287 -0.018680 63600.900000 0 0 1
35.902066 27.332477 -3.674429 45.271670 0.650698 1.652050 0.051085 -0.015672 737186.000000 0 0 1
-35.936919 27.949777 -4.273229 45.726499 -0.661023 1.664385 0.042769 -0.012625 692610.000000 0 0 1
-35.604114 27.505577 -5.604729 45.338975 -0.657771 1.694732 0.043641 -0.010429 271042.000000 0 0 1
36.321206 27.584777 -6.749529 46.105380 0.649533 1.717718 0.037262 -0.001405 477523.000000 0 0 1
35.163556 26.813777 -6.569929 44.705909 0.651481 1.718289 0.039324 0.000349 -696045.000000 0 0 1
34.071576 27.136877 -7.388929 44.180071 0.672583 1.738832 0.030035 -0.008614 198077.000000 0 0 1
32.921766 26.162977 -6.974929 42.626209 0.671502 1.735166 0.036580 -0.002181 -185856.000000 0 0 1
33.009936 24.786377 -7.276529 41.916205 0.644062 1.745277 0.031089 0.001660 249883.000000 0 0 1
34.090476 24.075877 -6.630829 42.258447 0.614898 1.728359 0.038627 -0.003028 614952.000000 0 0 1
34.132626 22.577277 -6.882729 41.498693 0.584388 1.737420 0.046258 0.002984 309592.000000 0 0 1
33.170386 21.873877 -6.105429 40.199717 0.582983 1.723264 0.047168 0.004968 119590.000000 0 0 1
33.419686 20.471677 -6.121529 39.666587 0.549606 1.725740 0.063561 0.003325 197101.000000 0 0 1
32.218956 19.610777 -5.654429 38.139432 0.546772 1.719602 0.071146 -0.004647 965483.000000 0 0 1
31.066136 19.607477 -6.535129 37.313079 0.563012 1.746847 0.067150 -0.008100 450271.000000 0 0 1
30.011406 18.918177 -5.883729 35.961093 0.562449 1.735149 0.095711 -0.018272 52774.300000 0 0 1
28.848116 18.746377 -6.893829 35.087966 0.576256 1.768556 0.073883 -0.026509 -89.666400 0 0 1
28.943236 17.613677 -7.718529 34.749507 0.546689 1.794784 0.063440 -0.026326 70906.700000 0 0 1
27.751016 17.438977 -8.467529 33.851674 0.561047 1.823617 0.077111 -0.026492 131083.000000 0 0 1
27.648616 16.179777 -9.301529 33.357901 0.529461 1.853383 0.073796 -0.026418 -399477.000000 0 0 1
26.828316 16.282377 -10.449629 33.076715 0.545485 1.892224 0.065065 -0.023838 174523.000000 0 0 1
27.045616 15.082177 -11.153629 32.914144 0.508703 1.916512 0.063464 -0.011243 -230178.000000 0 0 1
26.341916 15.073877 -12.501529 32.823871 0.519757 1.961530 0.069568 -0.013977 -450155.000000 0 0 1
24.935716 14.981877 -12.395229 31.621010 0.541022 1.973594 0.064105 -0.010726 43186.100000 0 0 1
24.274816 15.110077 -13.631229 31.676356 0.556770 2.015653 0.053731 -0.008213 -235035.000000 0 0 1
24.202316 13.883377 -14.565329 31.474578 0.520810 2.051908 0.053678 -0.016832 -617959.000000 0 0 1
25.462516 13.452077 -15.033829 32.485598 0.486038 2.051930 0.071621 -0.024135 222591.000000 0 0 1
25.822016 13.960777 -16.328529 33.590187 0.495640 2.078429 0.080806 -0.026702 -962455.000000 0 0 1
27.186816 13.574277 -16.838229 34.740609 0.463085 2.076799 0.105432 -0.026205 -687909.000000 0 0 1
27.268016 12.208977 -17.231629 34.489605 0.420973 2.093954 0.104733 -0.033012 516811.000000 0 0 1
28.600816 11.978877 -17.690229 35.699361 0.396633 2.089245 0.100286 -0.017078 540047.000000 0 0 1
28.776766 10.622977 -18.382529 35.761254 0.353633 2.110678 0.069889 -0.019730 -44810.700000 0 0 1
28.029926 10.499577 -19.603229 35.779945 0.358406 2.150628 0.082351 -0.020007 -147624.000000 0 0 1
28.131676 9.290477 -20.324829 35.927744 0.318973 2.172095 0.062778 -0.003602 -464199.000000 0 0 1
29.446506 8.854577 -21.004229 37.238124 0.292099 2.170081 0.070946 -0.009519 -815754.000000 0 0 1
29.730316 9.864377 -21.980529 38.266712 0.320366 2.182671 0.079196 -0.012229 143745.000000 0 0 1
30.373196 9.428377 -23.148929 39.335712 0.300987 2.199994 0.071615 -0.012504 -1334680.000000 0 0 1
31.677886 8.710877 -23.124029 40.175721 0.268350 2.184100 0.062023 -0.010551 -2111180.000000 0 0 1
32.765866 9.578777 -22.936929 41.127334 0.284415 2.162415 0.062290 -0.010198 -741175.000000 0 0 1
33.894416 8.779977 -22.791829 41.777828 0.253468 2.147840 0.036367 -0.000808 -1157220.000000 0 0 1
35.177486 9.536177 -22.512129 42.839119 0.264725 2.124104 0.052422 -0.018698 -758675.000000 0 0 1
35.271636 10.324777 -21.299429 42.477700 0.284766 2.096043 0.040749 -0.014357 -414670.000000 0 0 1
36.218686 11.318977 -21.399729 43.564445 0.302901 2.084286 0.012512 -0.006329 -672120.000000 0 0 1
36.268086 12.279177 -20.218529 43.300591 0.326453 2.056617 0.014880 -0.012070 -30253.000000 0 0 1
-36.347622 11.671577 -18.969729 42.628933 -0.310709 2.031967 0.013778 -0.005883 306143.000000 0 0 1
36.297746 12.467877 -17.870529 42.335920 0.330863 2.006571 0.012959 0.001590 -140685.000000 0 0 1
-36.310412 11.825277 -16.566029 41.625911 -0.314839 1.980104 0.004279 0.012279 -426356.000000 0 0 1
35.914166 10.659177 -16.250129 40.835182 0.288515 1.980071 0.006174 0.006923 412910.000000 0 0 1
36.364906 10.066577 -15.040929 40.619846 0.270059 1.950112 -0.003921 -0.012142 88396.900000 0 0 1
35.725176 8.658177 -14.876629 39.655596 0.237771 1.955350 0.054850 -0.012256 927920.000000 0 0 1
34.504406 8.611377 -14.102129 38.256762 0.244577 1.948318 0.056059 -0.007233 1155540.000000 0 0 1
34.759956 8.330377 -12.700029 37.933368 0.235218 1.912188 0.054887 -0.009853 -608720.000000 0 0 1
33.507596 8.683777 -11.920829 36.609741 0.253580 1.902463 0.060405 -0.006552 -634304.000000 0 0 1
33.375466 10.090977 -11.732929 36.788737 0.293609 1.895394 0.069126 -0.012942 185299.000000 0 0 1
32.512086 10.542277 -10.698529 35.813878 0.313560 1.874154 0.052681 -0.008204 -299348.000000 0 0 1
33.079856 10.488277 -9.242429 35.912440 0.307033 1.831086 0.071002 -0.009521 816398.000000 0 0 1
34.249406 11.290377 -8.947029 37.155669 0.318433 1.813985 0.069102 -0.013235 804640.000000 0 0 1
34.020736 12.665877 -8.751929 37.342083 0.356400 1.807369 0.076565 -0.018266 -371031.000000 0 0 1
33.581516 12.983877 -7.304229 36.737597 0.368934 1.770952 0.073118 -0.024889 -170698.000000 0 0 1
34.606396 12.686477 -6.402229 37.410398 0.351380 1.742778 0.090018 -0.027660 273185.000000 0 0 1
34.165326 13.046577 -5.094429 36.924733 0.364777 1.709206 0.094678 -0.029342 276270.000000 0 0 1
35.347186 12.889677 -4.123029 37.849263 0.349674 1.679946 0.117727 -0.025854 726317.000000 0 0 1
36.315166 13.955277 -4.144829 39.124425 0.366884 1.676935 0.109114 -0.019244 41979.700000 0 0 1
-35.552400 13.677677 -3.399529 38.244069 -0.367264 1.659804 0.092831 -0.019540 93744.900000 0 0 1
-34.361662 14.677277 -3.347929 37.514729 -0.403683 1.660158 0.089499 -0.024125 538143.000000 0 0 1
-34.620347 15.715577 -2.480729 38.101205 -0.426126 1.635951 0.116540 -0.021053 580467.000000 0 0 1
-33.498862 16.605077 -2.435329 37.467762 -0.460194 1.635840 0.117111 -0.025354 438034.000000 0 0 1
-33.625192 17.708277 -1.347329 38.026989 -0.484730 1.606235 0.124371 -0.019986 124095.000000 0 0 1
-34.615425 18.690277 -1.641429 39.373194 -0.495087 1.612497 0.105280 -0.013596 345308.000000 0 0 1
-34.955163 19.455977 -0.506429 40.008186 -0.507895 1.583455 0.093779 -0.018272 236734.000000 0 0 1
-36.197592 20.367677 -0.775029 41.541649 -0.512527 1.589454 0.082501 -0.016736 277773.000000 0 0 1
-35.882347 21.558077 -1.477629 41.886476 -0.541007 1.606081 0.082804 -0.006652 -103153.000000 0 0 1
36.374566 21.811277 -2.616229 42.493358 0.540147 1.632403 0.055769 0.001726 -246238.000000 0 0 1
-35.975153 23.048277 -3.273029 42.850291 -0.569790 1.647254 0.064016 -0.017545 854699.000000 0 0 1
-34.636104 22.857777 -3.754629 41.668152 -0.583332 1.661027 0.065432 -0.012210 541308.000000 0 0 1
-34.192177 23.968977 -4.495429 41.997925 -0.611402 1.678041 0.064232 -0.013567 94888.800000 0 0 1
-32.720562 23.932677 -4.943929 40.839327 -0.631508 1.692152 0.063188 -0.019623 31344.400000 0 0 1
-32.442852 23.004077 -5.953729 40.214091 -0.616784 1.719393 0.053810 -0.009781 -251985.000000 0 0 1
-31.097302 23.111577 -6.414629 39.272569 -0.639136 1.734868 0.048538 -0.003754 546500.000000 0 0 1
-30.700512 22.096377 -7.551629 38.571990 -0.623852 1.767849 0.044773 -0.015763 128781.000000 0 0 1
-31.462422 22.355677 -8.706329 39.565900 -0.617773 1.792658 0.057992 -0.022168 35388.300000 0 0 1
-30.608992 22.175777 -9.801029 39.047864 -0.626971 1.824510 0.019888 -0.024927 98863.300000 0 0 1
-31.367342 22.069477 -11.119629 39.932670 -0.613126 1.852986 0.044878 -0.016201 108052.000000 0 0 1
-32.143092 23.227977 -11.453629 41.278359 -0.625761 1.851959 0.059804 -0.010241 354564.000000 0 0 1
-32.753182 23.132677 -12.719329 42.067482 -0.614923 1.877959 0.044333 -0.008474 -358883.000000 0 0 1
-33.089942 24.586377 -13.277829 43.309756 -0.639017 1.882392 0.061260 -0.008012 -148622.000000 0 0 1
-32.099112 25.546777 -13.468229 43.178513 -0.672219 1.888009 0.061037 -0.006538 -394843.000000 0 0 1
-31.080992 25.344977 -14.451129 42.628993 -0.684091 1.916648 0.054902 -0.001797 535057.000000 0 0 1
-29.764432 26.121377 -14.107729 42.038979 -0.720303 1.913024 0.051110 0.001766 110974.000000 0 0 1
-28.935442 25.541777 -13.109429 40.761493 -0.723183 1.898229 0.027217 -0.009954 -324739.000000 0 0 1
-29.427782 25.466577 -11.772729 40.658800 -0.713363 1.864552 0.042705 -0.008085 -604698.000000 0 0 1
-29.390992 26.860877 -11.084329 41.330370 -0.740450 1.842308 0.043684 0.007902 525598.000000 0 0 1
-28.088302 27.388977 -10.872529 40.710203 -0.772793 1.841149 0.024510 0.004782 -112278.000000 0 0 1
-28.213092 28.435277 -9.913229 41.265187 -0.789320 1.813401 0.030293 0.003589 845558.000000 0 0 1
-27.006852 29.423577 -9.650329 41.088268 -0.828199 1.807879 0.050299 0.001505 447128.000000 0 0 1
-27.402852 30.594077 -9.015229 42.049830 -0.840367 1.786868 0.050403 -0.006865 -801698.000000 0 0 1
-26.386502 31.356777 -8.464829 41.846724 -0.871262 1.774484 0.072353 -0.006450 -1160740.000000 0 0 1
34.586706 -25.058723 33.875599 54.513631 -0.626993 0.900249 0.021300 -0.009915 -133955.000000 0 0 1
34.177556 -23.780923 -33.960909 53.730633 -0.607905 2.255003 0.014150 -0.011943 836445.000000 0 0 1
32.982966 -23.819123 -33.145209 52.476962 -0.625447 2.254430 0.002874 -0.003394 1000230.000000 0 0 1
32.371266 -22.424623 -32.748589 51.217503 -0.605832 2.264517 -0.000313 0.000244 113814.000000 0 0 1
31.831326 -21.738123 -33.836699 51.290364 -0.599168 2.291227 0.001048 -0.004810 -2737.850000 0 0 1
31.450836 -20.365223 -33.525629 50.277879 -0.574634 2.300712 0.007827 -0.008643 183578.000000 0 0 1
31.512576 -19.473323 33.507791 49.950223 -0.553516 0.835477 0.014803 -0.008268 -461633.000000 0 0 1
32.738226 -19.366923 32.860549 50.266140 -0.534197 0.858291 0.023408 -0.018837 -518746.000000 0 0 1
32.473676 -18.829223 31.594114 49.063910 -0.525457 0.871162 0.033507 -0.006188 -48107.300000 0 0 1
33.707686 -18.805023 30.664644 49.296626 -0.508877 0.899446 0.028352 -0.006936 89865.500000 0 0 1
34.651516 -17.785223 30.980104 49.767545 -0.474199 0.898868 0.028838 -0.011883 323694.000000 0 0 1
35.570876 -17.595023 29.933234 49.707852 -0.459356 0.924563 0.039588 -0.013923 -102988.000000 0 0 1
-36.396932 -16.443223 30.226734 50.087640 0.424329 0.922942 0.036299 -0.019735 -248533.000000 0 0 1
-35.411692 -16.238623 29.258844 48.721256 0.429955 0.926626 0.038165 -0.016813 360849.000000 0 0 1
-34.256472 -15.539023 29.684014 47.917719 0.425851 0.902718 0.031559 -0.021631 511729.000000 0 0 1
-33.157652 -16.401723 30.372784 47.863895 0.459365 0.883350 0.049943 -0.026901 -308192.000000 0 0 1
-32.092252 -15.594423 30.831754 47.156078 0.452324 0.858170 0.044430 -0.022493 264911.000000 0 0 1
-30.944872 -16.324423 31.231264 46.898441 0.485430 0.842051 0.050771 -0.028872 388239.000000 0 0 1
-29.851942 -15.394623 31.844594 46.284025 0.476128 0.812032 0.054736 -0.028769 28408.800000 0 0 1
-30.300482 -14.593423 32.938254 47.074577 0.448839 0.795814 0.053925 -0.032227 176163.000000 0 0 1
-29.229432 -13.782423 33.361220 46.446592 0.440610 0.769483 0.045844 -0.026909 -87436.400000 0 0 1
-29.500412 -12.986323 -33.608959 46.566952 0.414681 2.377101 0.043617 -0.011103 -178810.000000 0 0 1
-29.375872 -13.762323 -32.491499 45.913406 0.438124 2.356990 0.052885 -0.013627 270864.000000 0 0 1
-29.805152 -13.098623 -31.334729 45.186129 0.414067 2.337075 0.060131 -0.001360 -827135.000000 0 0 1
-29.905462 -14.068223 -30.120949 44.716027 0.439707 2.309872 0.062197 -0.009600 -87263.500000 0 0 1
-31.134882 -14.750223 -30.050639 45.716417 0.442430 2.288063 0.060966 -0.013826 -108413.000000 0 0 1
-31.188722 -15.433023 -28.801639 45.171329 0.459501 2.262187 0.075203 -0.013722 409333.000000 0 0 1
-32.444902 -16.335123 -28.671119 46.276786 0.466422 2.238975 0.059478 -0.021786 248769.000000 0 0 1
-32.350412 -17.337623 -29.622389 47.165965 0.491978 2.249836 0.057161 -0.027658 507414.000000 0 0 1
-33.473302 -18.212323 -29.538869 48.215095 0.498291 2.230203 0.044741 -0.026805 180358.000000 0 0 1
-33.296462 -19.456223 -30.372689 49.088687 0.528820 2.237923 0.039671 -0.025284 -226078.000000 0 0 1
-34.398614 -20.313723 -30.327939 50.156713 0.533434 2.220140 0.022124 -0.021889 -224601.000000 0 0 1
-34.036619 -21.576523 -30.907999 50.787224 0.564989 2.225064 0.016200 -0.020276 15149.000000 0 0 1
-35.285210 -22.437423 -31.206069 52.175691 0.566390 2.211919 0.013170 -0.020352 -197448.000000 0 0 1
-35.983490 -22.792123 -30.021129 52.111041 0.564621 2.184745 0.011828 -0.014146 -101176.000000 0 0 1
35.950656 -23.650323 -30.425199 52.701804 -0.581877 2.186225 0.025070 -0.014127 -30973.700000 0 0 1
36.272706 -25.139683 -30.781409 53.807137 -0.606063 2.179823 0.022930 -0.007837 -212891.000000 0 0 1
-36.073842 -25.384743 -32.027459 54.511149 0.613197 2.198811 0.030247 -0.015229 -335724.000000 0 0 1
-35.423310 -26.636213 -31.907579 54.611283 0.644742 2.194773 0.022395 -0.009695 65811.800000 0 0 1
-35.523438 -27.623703 -33.058519 55.837704 0.660944 2.204392 0.035920 -0.016543 -385791.000000 0 0 1
36.166226 -28.092343 -33.096319 56.502583 -0.660406 2.196600 0.039051 -0.014864 -813764.000000 0 0 1
35.871636 -29.313693 -33.747769 57.314734 -0.685131 2.200388 0.042773 -0.017693 -14838.500000 0 0 1
-36.443582 -30.573293 -33.121299 57.964483 0.698027 2.179015 0.052358 -0.022392 130136.000000 0 0 1
36.016246 -31.165723 -31.968729 57.362635 -0.713323 2.161938 0.058765 -0.019047 23461.800000 0 0 1
-36.069572 -32.129583 -31.477259 57.655372 0.727690 2.148325 0.055928 -0.021801 286891.000000 0 0 1
36.458196 -32.610563 -30.073659 57.420151 -0.729748 2.122040 0.047401 -0.020803 396437.000000 0 0 1
35.435836 -33.586003 -30.216499 57.417374 -0.758604 2.124993 0.066475 -0.018344 233619.000000 0 0 1
34.878266 -33.971133 -28.956279 56.648013 -0.772223 2.107332 0.062693 -0.014452 -194125.000000 0 0 1
33.700136 33.289300 -29.112189 55.600325 0.779265 2.121864 0.059924 -0.021197 139919.000000 0 0 1
32.482636 33.928545 -29.473829 55.452451 0.807167 2.131185 0.065635 -0.012589 -83710.200000 0 0 1
31.346926 33.218880 -29.085439 54.148744 0.814383 2.137839 0.052401 -0.014087 137713.000000 0 0 1
29.998246 33.561440 -29.752579 53.958140 0.841400 2.154839 0.018667 -0.002433 250232.000000 0 0 1
29.952956 33.019978 -31.076479 54.343776 0.834064 2.179555 0.028326 0.012879 562684.000000 0 0 1
28.803016 33.571363 -31.753689 54.451325 0.861697 2.193406 0.022134 0.015331 675168.000000 0 0 1
28.754046 33.008220 -33.245149 54.968879 0.854169 2.220310 0.011278 -0.002687 -124156.000000 0 0 1
28.384786 31.644159 -33.249819 53.968503 0.839642 2.234574 0.006244 -0.000879 50827.700000 0 0 1
28.206386 31.146799 33.663901 53.842191 0.834899 0.895367 0.015605 0.000453 12956.700000 0 0 1
28.213806 29.563099 33.590419 52.899073 0.808747 0.882800 0.024104 -0.008986 445192.000000 0 0 1
29.520886 29.033169 33.814119 53.458416 0.777069 0.885979 0.035528 -0.006354 272811.000000 0 0 1
29.452906 27.643309 34.031523 52.818280 0.753715 0.870671 0.038623 -0.013536 -348170.000000 0 0 1
30.819316 27.020359 -34.000009 53.253456 0.719812 2.263287 0.054362 -0.019688 -545548.000000 0 0 1
31.350696 27.304059 -32.770549 52.936628 0.716517 2.238332 0.052654 -0.013100 -75075.800000 0 0 1
32.651646 26.741589 -32.621519 53.342347 0.686217 2.228815 0.057433 -0.019333 763413.000000 0 0 1
33.321746 26.949429 -31.210909 53.016330 0.680062 2.200251 0.081537 -0.020147 -327327.000000 0 0 1
33.883316 28.229129 -30.905139 53.852487 0.694617 2.182038 0.061936 -0.021473 365937.000000 0 0 1
33.089236 29.428089 -30.687029 53.875817 0.726903 2.176801 0.082929 -0.018379 476803.000000 0 0 1
32.242476 29.580059 -29.396589 52.713533 0.742359 2.162369 0.063432 -0.007681 371847.000000 0 0 1
33.078186 29.959819 -28.330369 52.861772 0.735970 2.136409 0.046447 -0.007279 311375.000000 0 0 1
32.354886 29.869559 -27.123759 51.717767 0.745478 2.122874 0.051565 -0.008167 334271.000000 0 0 1
33.185646 30.398549 -25.889169 51.919244 0.741593 2.092829 0.057758 -0.012769 246014.000000 0 0 1
33.585696 31.703099 -25.899829 52.951738 0.756571 2.081878 0.054001 -0.010131 258906.000000 0 0 1
34.255166 32.197297 -24.715429 53.112472 0.754441 2.054817 0.039659 -0.023063 67044.100000 0 0 1
34.461256 33.735413 -24.755029 54.207635 0.774755 2.045045 0.049152 -0.015704 -534045.000000 0 0 1
33.299996 -33.754773 -24.541529 53.390645 -0.792180 2.048408 0.064128 -0.013744 -503827.000000 0 0 1
33.573806 -32.377033 -24.371829 52.625647 -0.767254 2.052305 0.052132 -0.015933 -538339.000000 0 0 1
33.822616 -31.444803 -25.621979 52.813168 -0.748982 2.077324 0.045059 -0.017298 -317610.000000 0 0 1
35.022996 -31.576493 -26.315979 54.001999 -0.733695 2.079809 0.054803 -0.017954 -511537.000000 0 0 1
36.126966 -30.923283 -25.691579 54.050572 -0.707945 2.066130 0.052359 -0.012755 -47508.600000 0 0 1
-35.572788 -31.363303 -26.429719 54.291896 0.722593 2.079228 0.023150 -0.007004 -73286.200000 0 0 1
-35.052371 -32.699863 -26.288879 54.672250 0.750690 2.072415 0.025023 -0.013661 51735.700000 0 0 1
-34.820684 -33.249523 -24.973629 54.237376 0.762321 2.049299 0.024677 -0.009778 -334964.000000 0 0 1
-33.705662 -32.611623 -24.111129 52.734582 0.768903 2.045659 0.015749 -0.011141 -130007.000000 0 0 1
-33.886182 -31.244653 -23.756529 51.854357 0.744863 2.046697 -0.008081 -0.006839 -322772.000000 0 0 1
-33.458822 -30.932333 -22.429129 50.787477 0.746182 2.028208 0.012150 -0.009496 -227990.000000 0 0 1
-33.161992 -29.403513 -22.332229 49.628749 0.725398 2.037546 0.029038 -0.000539 -404966.000000 0 0 1
-34.264643 -28.567573 -22.470629 49.950987 0.694974 2.037398 0.012966 0.000440 -682954.000000 0 0 1
-34.517348 -28.334933 -23.852329 50.628542 0.687349 2.061361 0.020170 0.004319 -97210.400000 0 0 1
-35.730762 -27.388513 -23.928929 50.984425 0.653993 2.059337 0.020226 0.007125 -21491.400000 0 0 1
-35.465500 -26.087053 -23.501529 49.906491 0.634196 2.061120 0.024120 0.001321 -618601.000000 0 0 1
-36.350692 -25.175723 -24.083929 50.351022 0.605728 2.069538 0.028071 0.000062 -249071.000000 0 0 1
-36.152952 -24.693323 -25.503619 50.667847 0.599241 2.098267 0.024353 0.002776 -282751.000000 0 0 1
-35.178875 -23.664423 -25.578359 49.515761 0.592160 2.113637 0.019594 -0.003621 -124453.000000 0 0 1
-35.065273 -22.973723 -26.884969 49.801273 0.580001 2.141049 0.017246 -0.008334 795500.000000 0 0 1
-33.776672 -22.055223 -26.994999 48.538916 0.578462 2.160544 0.022484 -0.016821 594299.000000 0 0 1
-33.709702 -20.965923 -26.120459 47.520441 0.556407 2.152763 0.050965 -0.013933 205925.000000 0 0 1
-34.572241 -19.848923 -26.403199 47.815776 0.521179 2.155780 0.050723 -0.016253 160752.000000 0 0 1
-35.835303 -19.723223 -25.530239 48.217917 0.503139 2.128779 0.058785 -0.019179 -114570.000000 0 0 1
-35.684382 -19.243423 -24.221929 47.226965 0.494566 2.109337 0.059122 -0.029234 -160105.000000 0 0 1
-34.998912 -20.085923 -23.285029 46.589277 0.521008 2.094157 0.043926 -0.025092 8778.400000 0 0 1
-35.763348 -21.324923 -22.772429 47.458960 0.537679 2.071262 0.054131 -0.010937 406304.000000 0 0 1
36.184816 -21.033823 -21.851929 47.215139 -0.526548 2.051966 0.052930 -0.010037 149552.000000 0 0 1
35.688386 -22.246423 -21.266829 47.125812 -0.557413 2.038993 0.052549 0.003869 349301.000000 0 0 1
34.545956 -21.836623 -20.291929 45.629196 -0.563691 2.031651 0.054206 -0.004310 909662.000000 0 0 1
33.293876 -21.379423 -20.826829 44.713741 -0.570832 2.055314 0.054724 -0.001437 1148230.000000 0 0 1
32.248786 -21.660423 -19.845929 43.623606 -0.591456 2.043096 0.037139 0.002783 -23891.200000 0 0 1
30.916386 -21.066623 -20.215329 42.523935 -0.598138 2.066200 0.040195 0.007377 -1367040.000000 0 0 1
30.285926 -21.751423 -21.290129 42.937527 -0.622838 2.089598 0.034234 0.010198 359938.000000 0 0 1
28.971376 -21.296823 -21.550329 41.920305 -0.633896 2.110729 0.041403 0.010665 187818.000000 0 0 1
28.948446 -19.914523 -22.352629 41.644216 -0.602580 2.137380 0.050572 0.003395 -721887.000000 0 0 1
29.324366 -18.839323 -21.549229 40.978138 -0.571047 2.124536 0.036692 0.003761 42182.100000 0 0 1
29.415246 -17.672123 -22.299429 40.924627 -0.540994 2.147054 0.025431 0.005495 -86676.000000 0 0 1
30.095836 -16.489623 -21.591129 40.544344 -0.501232 2.132385 0.017440 -0.002918 -326440.000000 0 0 1
29.440196 -16.224523 -20.327829 39.283341 -0.503688 2.114684 -0.003747 0.002018 98658.200000 0 0 1
30.095866 -15.379923 -19.418929 38.979455 -0.472433 2.092299 -0.014017 -0.004083 -881845.000000 0 0 1
31.239236 -16.145523 -18.780329 39.865631 -0.477025 2.061323 0.016374 -0.014595 -799544.000000 0 0 1
32.364376 -16.469323 -19.553029 41.243331 -0.470720 2.064726 0.025441 -0.018407 10546.500000 0 0 1
33.028876 -17.632823 -19.086729 42.025305 -0.490368 2.042239 0.031449 -0.018292 282811.000000 0 0 1
34.170136 -18.113423 -20.036729 43.556455 -0.487433 2.048811 0.055193 -0.032518 523623.000000 0 0 1
35.276906 -17.228323 -20.121229 44.115066 -0.454304 2.044413 0.051352 -0.034801 9727.200000 0 0 1
36.141616 -17.691823 -21.136829 45.453080 -0.455224 2.054459 0.065986 -0.034021 85262.800000 0 0 1
-35.880510 -16.547923 -21.542929 45.003805 0.432125 2.069960 0.063159 -0.029006 455409.000000 0 0 1
-34.895441 -16.150623 -20.570929 43.608457 0.433471 2.062035 0.075636 -0.040298 438732.000000 0 0 1
-34.257782 -14.976223 -21.065229 42.914179 0.412127 2.083883 0.082089 -0.033716 -622321.000000 0 0 1
-32.926922 -14.625823 -20.391129 41.399215 0.418012 2.085812 0.092631 -0.031815 -115868.000000 0 0 1
-31.806462 -15.455023 -20.601029 40.925678 0.452311 2.098298 0.098996 -0.043937 209833.000000 0 0 1
-31.780242 -16.660123 -19.888229 41.025420 0.482842 2.076906 0.098031 -0.045190 -370127.000000 0 0 1
-30.568542 -17.565223 -20.212129 40.638688 0.521547 2.091351 0.084417 -0.051648 62027.400000 0 0 1
-30.535402 -18.709423 -19.360229 40.709602 0.549715 2.066407 0.077485 -0.047841 74205.700000 0 0 1
-29.384942 -19.514323 -19.536629 40.323237 0.586218 2.076588 0.080220 -0.053321 56613.700000 0 0 1
-29.572292 -20.959623 -19.069129 40.956781 0.616580 2.055099 0.065248 -0.024635 4489.060000 0 0 1
-30.537222 -21.599423 -19.893429 42.365145 0.615618 2.059601 0.068721 -0.020619 163379.000000 0 0 1
-30.818122 -22.895723 -19.315629 42.977486 0.638961 2.036930 0.054605 -0.002388 -112083.000000 0 0 1
-31.972732 -23.671823 -19.939729 44.499478 0.637313 2.035423 0.043431 -0.005821 -213088.000000 0 0 1
-31.581532 -24.135623 -21.239429 45.067003 0.652548 2.061544 0.030911 -0.007600 106766.000000 0 0 1
-32.475412 -25.064093 -21.791329 46.451298 0.657299 2.059093 0.023283 -0.000161 -300105.000000 0 0 1
-32.443352 -25.074173 -23.363529 47.192581 0.657972 2.088709 0.014400 0.000172 372994.000000 0 0 1
-31.150202 -25.333963 -23.924729 46.739035 0.682789 2.108167 0.024837 -0.000607 232111.000000 0 0 1
-31.085142 -25.505893 -25.321069 47.518345 0.687127 2.132784 0.020703 0.007006 67050.400000 0 0 1
-29.813172 -26.104123 -25.963039 47.374358 0.719164 2.150815 0.028110 -0.004176 243951.000000 0 0 1
-28.666862 -25.277633 -25.893959 46.165407 0.722653 2.166263 0.036104 -0.007835 -1085710.000000 0 0 1
-27.522292 -25.964573 -26.267149 46.060815 0.756283 2.177632 0.039585 -0.014026 -860075.000000 0 0 1
-26.437462 -24.931623 -26.543619 45.000988 0.756092 2.201664 0.051130 -0.022300 -612789.000000 0 0 1
-26.651282 -24.014723 -27.630819 45.282004 0.733407 2.227102 0.058470 -0.020188 -195350.000000 0 0 1
-25.606952 -23.069323 -27.702809 44.219399 0.733313 2.247832 0.072224 -0.020679 129438.000000 0 0 1
-25.530662 -22.252023 -29.014629 44.596142 0.716890 2.279182 0.062272 -0.024978 -28184.700000 0 0 1
-25.166162 -23.031623 -30.133309 45.517114 0.741140 2.294309 0.067831 -0.016447 137357.000000 0 0 1
-25.100012 -22.316423 -31.363689 45.953392 0.726760 2.321989 0.060032 -0.007405 -152092.000000 0 0 1
-24.502522 -23.265223 -32.440949 46.840787 0.759502 2.335855 0.058158 -0.018664 287518.000000 0 0 1
-25.358092 -24.393923 -32.642719 47.996285 0.766021 2.318708 0.029258 -0.013927 -382.360000 0 0 1
-24.644622 -25.484603 -33.141889 48.530476 0.802153 2.322533 0.052830 -0.001307 130369.000000 0 0 1
-19.655422 -14.918323 -12.145329 27.502745 0.649232 2.028182 0.059171 -0.007500 85060.500000 0 0 1
-19.913122 -14.207423 -10.960329 26.805076 0.619709 1.992034 0.065910 -0.013577 149337.000000 0 0 1
-19.322122 -14.937523 -9.879429 26.345343 0.658109 1.955190 0.043498 -0.017877 -203446.000000 0 0 1
-19.581222 -14.491623 -8.458929 25.787300 0.637120 1.905010 0.066247 -0.019626 -781241.000000 0 0 1
-20.885422 -14.685323 -8.026629 26.763526 0.612829 1.875394 0.093868 -0.029023 -316336.000000 0 0 1
-20.971222 -14.141623 -6.717029 26.170520 0.593292 1.830365 0.082496 -0.031546 -552586.000000 0 0 1
-22.157622 -14.600923 -5.908529 27.185619 0.582646 1.789885 0.097642 -0.032246 -695262.000000 0 0 1
-21.870922 -15.866923 -5.303629 27.535884 0.627623 1.764615 0.068915 -0.032989 572197.000000 0 0 1
-21.957222 -15.833323 -3.894829 27.349285 0.624746 1.713693 0.083469 -0.033951 -231581.000000 0 0 1
-21.778422 -17.222823 -3.235029 27.953366 0.669119 1.686786 0.069108 -0.018262 -512137.000000 0 0 1
-22.952022 -17.902423 -2.928029 29.255177 0.662422 1.671050 0.064121 -0.018599 -423594.000000 0 0 1
-22.672922 -19.106223 -2.269429 29.736500 0.700234 1.647189 0.063461 -0.005030 32236.500000 0 0 1
-23.895122 -20.044923 -2.170629 31.264795 0.697997 1.640279 0.047972 -0.014529 -63193.900000 0 0 1
-24.088322 -20.871123 -3.252029 32.037895 0.713962 1.672477 0.028540 -0.017025 573925.000000 0 0 1
-25.098892 -21.875223 -2.957829 33.424968 0.716879 1.659404 0.044895 -0.010449 580300.000000 0 0 1
-25.045592 -23.073923 -3.929429 34.280140 0.744447 1.685676 0.045662 -0.012612 -207611.000000 0 0 1
-23.863122 -23.848223 -3.825029 33.953161 0.785086 1.683692 0.041561 -0.009640 -284265.000000 0 0 1
-23.613322 -24.612223 -4.996029 34.471884 0.806108 1.716239 0.034045 -0.005755 -64864.000000 0 0 1
-22.175622 -24.486423 -5.563929 33.500752 0.834880 1.737653 0.032246 0.000662 391035.000000 0 0 1
-21.807022 -23.228623 -6.177929 32.454305 0.816954 1.762323 0.022525 0.005268 129050.000000 0 0 1
-21.798322 -22.195723 -5.266829 31.552439 0.794431 1.738504 0.024231 0.000946 -1118500.000000 0 0 1
-21.690322 -20.844723 -5.962329 30.667929 0.765521 1.766458 0.039497 0.002602 -65587.700000 0 0 1
-20.453722 -20.535523 -6.555729 29.715989 0.787394 1.793239 0.019903 0.007183 -277630.000000 0 0 1
-20.555822 -19.340423 -7.301329 29.153099 0.754944 1.823939 0.016344 -0.000009 -680040.000000 0 0 1
-19.310922 -18.847223 -7.984829 28.140487 0.773247 1.858498 0.031464 -0.005332 -1190110.000000 0 0 1
-19.151022 -19.628123 -9.125329 28.901496 0.797701 1.892032 0.016355 -0.004543 57887.500000 0 0 1
-17.895922 -19.495923 -9.777329 28.212607 0.828162 1.924696 0.050288 -0.006063 176005.000000 0 0 1
-17.522922 -18.128523 -10.343029 27.252052 0.802383 1.960087 0.044599 -0.003748 -622389.000000 0 0 1
-17.114422 -17.050323 -9.555529 25.979320 0.783522 1.947452 0.059167 -0.021046 49758.000000 0 0 1
-15.730522 -17.044223 -9.253529 24.971637 0.825459 1.950410 0.071208 -0.020577 -65607.000000 0 1 0
-15.410822 -15.845723 -8.335929 23.623464 0.799311 1.931429 0.064649 -0.023812 -103696.000000 0 1 0
-16.110422 -15.990523 -7.125629 23.791114 0.781663 1.874973 0.050141 -0.021712 177702.000000 0 1 0
-16.222022 -14.851323 -6.322429 22.884250 0.741315 1.850716 0.050952 -0.026437 -438038.000000 0 1 0
-16.933422 -15.152323 -5.003829 23.267401 0.729944 1.787547 0.051275 -0.025407 -159155.000000 0 1 0
-17.281022 -14.048123 -4.237429 22.670229 0.682571 1.758818 0.051295 -0.023271 323934.000000 0 1 0
-17.731422 -14.374323 -2.922729 23.012319 0.681213 1.698147 0.047693 -0.020734 -4643.600000 0 1 0
-18.517922 -13.267723 -2.145329 22.881178 0.621701 1.664694 0.043395 -0.018660 487871.000000 0 1 0
-19.841122 -13.156223 -2.680629 23.957088 0.585514 1.682924 0.068029 -0.027648 733253.000000 0 1 0
-20.630922 -12.274123 -1.896329 24.080803 0.536689 1.649627 0.072085 -0.026990 168635.000000 0 1 0
-22.142322 -12.549323 -2.150529 25.541979 0.515618 1.655092 0.082268 -0.023835 208600.000000 0 0 1
-22.539622 -12.027323 -3.425129 25.776395 0.490171 1.704069 0.091489 -0.019445 262362.000000 0 0 1
-23.948022 -11.978923 -3.530229 27.008607 0.463812 1.701879 0.087348 -0.023712 -115182.000000 0 0 1
-24.470522 -11.175623 -4.725429 27.313562 0.428409 1.744678 0.098479 -0.030621 -71650.200000 0 0 1
-24.068822 -11.818323 -5.932529 27.462262 0.456439 1.788538 0.113737 -0.033474 172539.000000 0 0 1
-24.619322 -11.255023 -7.101329 27.985986 0.428794 1.827347 0.116450 -0.033963 -313633.000000 0 0 1
-23.956622 -11.620323 -8.436929 27.930868 0.451622 1.877654 0.127183 -0.033088 -537067.000000 0 0 1
-22.732522 -10.964623 -8.608929 26.666536 0.449414 1.899521 0.130230 -0.035491 -353189.000000 0 0 1
-22.167322 -11.399923 -9.808029 26.787046 0.474996 1.945663 0.107775 -0.027892 268083.000000 0 0 1
-20.761222 -10.722723 -9.975529 25.407013 0.476743 1.974285 0.110797 -0.028390 201070.000000 0 0 1
-20.879422 -9.423523 -10.483329 25.192325 0.423960 1.999984 0.108272 -0.028776 610990.000000 0 0 1
-19.681922 -8.719523 -10.208629 23.824866 0.417036 2.013613 0.108196 -0.025491 63372.000000 0 1 0
-19.745722 -7.245423 -10.753529 23.622618 0.351682 2.043418 0.109399 -0.029027 -83285.400000 0 1 0
-19.703522 -7.227223 -12.136929 24.243897 0.351561 2.095109 0.145282 -0.025914 374007.000000 0 1 0
-19.492922 -5.895423 -12.635829 23.966522 0.293693 2.126132 0.125897 -0.033976 -414356.000000 0 1 0
-18.893222 -5.811623 -14.067529 24.261578 0.298418 2.189313 0.142430 -0.025325 -267770.000000 0 1 0
-19.579622 -6.475723 -15.104429 25.562479 0.319413 2.202949 0.135043 -0.036966 152022.000000 0 0 1
-18.997522 -6.155823 -16.336129 25.800564 0.313357 2.256438 0.117370 -0.041851 -332364.000000 0 0 1
-19.453322 -7.136623 -17.485129 27.112596 0.351614 2.271699 0.093410 -0.030442 -37102.200000 0 0 1
-20.808022 -7.121823 -17.868829 28.337064 0.329766 2.253099 0.089206 -0.038683 178362.000000 0 0 1
-21.031122 -8.015823 -18.909829 29.396311 0.364144 2.269561 0.093837 -0.038444 -849226.000000 0 0 1
-22.430722 -7.888723 -19.471529 30.732876 0.338182 2.256959 0.093456 -0.034792 -1175230.000000 0 0 1
-22.653422 -6.684723 -20.155029 31.049770 0.286943 2.277223 0.081743 -0.030100 425113.000000 0 0 1
-23.939622 -6.556623 -20.730429 32.339534 0.267326 2.266628 0.072150 -0.029500 1117680.000000 0 0 1
-25.164422 -6.138523 -19.822629 32.616962 0.239264 2.224008 0.106058 -0.026512 226512.000000 0 0 1
-25.084802 -4.782323 -19.453229 32.102118 0.188386 2.221793 0.084816 -0.019534 -292403.000000 0 0 1
-25.966442 -4.462423 -18.438529 32.158182 0.170191 2.181409 0.101042 -0.013522 -690029.000000 0 0 1
-25.946842 -2.976423 -18.044729 31.744447 0.114213 2.175402 0.081534 -0.014544 239178.000000 0 0 1
-26.468592 -1.960323 -18.939729 32.605867 0.073927 2.190592 0.101451 -0.012277 732180.000000 0 0 1
-27.807682 -2.086523 -19.420729 33.982134 0.074894 2.179127 0.127921 -0.010365 348355.000000 0 0 1
-28.132702 -0.851523 -20.269429 34.684633 0.030259 2.194927 0.125418 -0.008901 -136330.000000 0 0 1
-27.401122 -0.665223 -21.485029 34.826290 0.024272 2.235619 0.111216 -0.005809 249497.000000 0 0 1
-27.731832 -1.615323 -22.504029 35.750456 0.058182 2.251674 0.123291 -0.005085 121078.000000 0 0 1
-26.982202 -1.326623 -23.851629 36.037471 0.049127 2.294089 0.120276 -0.006378 -699531.000000 0 0 1
-27.231762 -0.051523 -24.515229 36.641069 0.001892 2.303745 0.110404 -0.003669 137346.000000 0 0 1
-26.487892 1.013177 -23.980229 35.744738 -0.038232 2.306184 0.073883 -0.001275 67282.100000 0 0 1
-24.952822 0.877177 -23.873729 34.545154 -0.035139 2.333789 0.064972 0.000623 -482508.000000 0 0 1
-24.277622 0.593277 -25.076889 34.908527 -0.024432 2.372238 0.050157 0.000715 -321078.000000 0 0 1
-22.901322 0.392377 -24.886829 33.822755 -0.017132 2.397646 0.046556 -0.000094 -261009.000000 0 0 1
-22.168122 -0.149723 -26.107839 34.250070 0.006754 2.437611 0.037033 -0.002188 -273854.000000 0 0 1
-22.114522 0.862877 -27.125609 35.008503 -0.038999 2.457241 0.023141 0.002218 85081.700000 0 0 1
-21.727522 0.271777 -28.338599 35.710436 -0.012508 2.487444 0.009516 0.003446 -18907.500000 0 0 1
-21.686522 1.315977 -29.439029 36.588160 -0.060607 2.505807 0.019403 0.010568 -359386.000000 0 0 1
-20.674422 2.271277 -29.174309 35.829188 -0.109421 2.522251 0.028673 0.007214 308973.000000 0 0 1
-20.516422 3.145877 -30.237059 36.675603 -0.152150 2.540019 0.022875 -0.000404 -242995.000000 0 0 1
-19.893222 2.626577 -31.561819 37.400369 -0.131274 2.575290 0.023855 -0.002952 -963654.000000 0 0 1
-18.527322 2.376377 -31.480879 36.605390 -0.127567 2.606079 0.021459 0.002014 -555757.000000 0 0 1
-17.994722 2.023677 -32.762879 37.434095 -0.111989 2.636676 0.021761 0.002934 149455.000000 0 0 1
-16.463322 1.838577 -32.704099 36.660325 -0.111216 2.672733 0.022201 -0.007386 84172.200000 0 0 1
-15.710222 2.989177 -32.302119 36.044044 -0.188022 2.681890 0.031234 -0.005033 459031.000000 0 0 1
-14.403522 2.833777 -32.862519 35.992178 -0.194261 2.721488 0.023032 -0.002213 318093.000000 0 0 1
-13.827122 4.219677 -33.258899 36.264987 -0.296197 2.731560 0.030082 0.000925 -495472.000000 0 0 1
-13.508622 5.014377 -32.163179 35.243395 -0.355434 2.720399 0.036224 -0.009977 275603.000000 0 0 1
-12.927222 6.234977 -32.596989 35.616733 -0.449399 2.726839 0.054814 -0.005563 -17716.200000 0 0 1
-12.528322 7.259777 -31.413959 34.590461 -0.525187 2.709684 0.060221 -0.016758 1012790.000000 0 0 1
-11.357422 6.825177 -30.657079 33.398062 -0.541114 2.733627 0.073831 -0.025304 1281700.000000 0 0 1
-11.698322 5.861577 -29.666169 32.423608 -0.464496 2.726195 0.079049 -0.027948 -266542.000000 0 0 1
-10.428022 5.162477 -29.133579 31.371328 -0.459686 2.761604 0.092757 -0.030435 113349.000000 0 0 1
-9.754122 4.429777 -30.166779 32.012503 -0.426295 2.800362 0.076793 -0.030400 422713.000000 0 0 1
-10.377622 3.174277 -30.425729 32.303189 -0.296840 2.798980 0.078524 -0.024471 -192758.000000 0 0 1
-10.234122 2.642977 -31.880069 33.586625 -0.252730 2.821446 0.062627 -0.018202 -43023.200000 0 0 1
-10.787922 1.336977 -32.081079 33.872738 -0.123304 2.814891 0.063478 -0.018470 236228.000000 0 0 1
-10.248022 0.643377 -33.178239 34.730842 -0.062698 2.841456 0.051636 -0.013713 -327515.000000 0 0 1
-10.575322 1.114777 33.582200 35.225620 -0.105025 0.306664 0.044289 -0.007634 81543.000000 0 0 1
-11.911322 0.858977 33.198745 35.281356 -0.071990 0.345308 0.021803 -0.001439 -28980.800000 0 0 1
-12.229422 1.500077 31.985894 34.276908 -0.122052 0.367686 0.015708 0.001839 41261.800000 0 0 1
-13.660922 1.323077 31.430824 34.296764 -0.096550 0.411712 0.017908 0.003194 81432.000000 0 0 1
-14.665822 2.141477 31.968884 35.237506 -0.144994 0.434121 0.026959 0.014125 -658292.000000 0 0 1
-15.898322 1.783477 31.448524 35.283808 -0.111713 0.470588 0.019715 0.009375 -395452.000000 0 0 1
-16.862422 2.988877 31.200144 35.591061 -0.175429 0.501986 0.032882 0.009216 -12573.100000 0 0 1
-17.279922 3.723877 32.307452 36.827088 -0.212257 0.500643 0.032232 0.000668 86255.600000 0 0 1
-16.470022 4.829077 32.557091 36.804155 -0.285210 0.485153 0.017165 0.007035 -855920.000000 0 0 1
-16.973422 5.761377 33.753251 38.217437 -0.327232 0.488176 0.010543 0.004303 -167239.000000 0 0 1
-18.244022 6.319677 33.568357 38.724892 -0.333462 0.521964 0.016645 -0.002080 122342.000000 0 0 1
-19.314822 5.468777 34.003182 39.486533 -0.275917 0.533301 0.024163 -0.005717 1034170.000000 0 0 1
-20.750422 6.147477 33.956369 40.266692 -0.288020 0.567427 0.025143 -0.004049 918813.000000 0 0 1
-20.984722 7.366577 -33.596699 40.290981 -0.337605 2.556845 0.030355 -0.010353 243326.000000 0 0 1
-20.549322 8.440777 33.831544 40.473383 -0.389745 0.581033 0.012340 -0.009677 -366207.000000 0 0 1
-20.547122 9.822477 -33.730559 40.699089 -0.445931 2.547719 0.019631 -0.005847 -160331.000000 0 0 1
-19.491422 10.121377 -32.815839 39.487176 -0.478947 2.551790 0.025673 -0.012918 304665.000000 0 0 1
-19.382222 11.429277 -32.280549 39.348859 -0.532796 2.532851 0.031247 -0.020050 -576305.000000 0 0 1
-18.639622 12.457277 -33.041359 39.929321 -0.589148 2.545430 0.007846 -0.027901 -827985.000000 0 0 1
-19.171522 12.585477 33.929732 40.953244 -0.580908 0.594374 0.021752 -0.024983 236311.000000 0 0 1
-18.187422 12.821977 32.956488 39.765758 -0.614068 0.593898 0.028717 -0.025682 -348288.000000 0 0 1
-18.793522 12.443077 31.599654 38.814492 -0.584830 0.619584 0.052507 -0.026052 289093.000000 0 0 1
-19.064922 11.053577 31.374034 38.340355 -0.525424 0.612344 0.033275 -0.012311 239937.000000 0 0 1
-17.902722 10.392277 30.905674 37.197682 -0.525947 0.590164 0.041942 -0.010189 286271.000000 0 0 1
-18.037822 8.803677 30.856204 36.809959 -0.454056 0.576718 0.046193 -0.004331 166398.000000 0 0 1
-18.831922 8.352277 29.770394 36.203290 -0.417450 0.605334 0.054062 -0.016427 179826.000000 0 0 1
-18.730822 6.941977 29.771944 35.852523 -0.354923 0.590971 0.036086 -0.014038 -5668.300000 0 0 1
-19.413722 6.176777 28.588204 35.104567 -0.308038 0.619149 0.041983 -0.012451 707801.000000 0 0 1
-20.828922 6.054377 28.729624 35.998483 -0.282877 0.646696 0.063698 -0.023105 559545.000000 0 0 1
-21.426322 5.093077 27.854804 35.509391 -0.233371 0.669012 0.055776 -0.025185 -401202.000000 0 0 1
-22.939122 5.135277 27.699874 36.329842 -0.220234 0.703697 0.053587 -0.014908 -434052.000000 0 0 1
-23.506722 6.030577 26.768934 36.131837 -0.251131 0.736434 0.054637 -0.014395 149866.000000 0 0 1
-24.908522 5.881877 26.745764 37.018466 -0.231891 0.763388 0.054010 -0.017253 -136620.000000 0 0 1
-25.724042 6.659477 25.681204 36.954015 -0.253320 0.802446 0.058574 -0.017461 -79011.800000 0 0 1
-25.615682 6.188177 24.409724 35.920625 -0.237036 0.823652 0.048199 -0.007529 608151.000000 0 0 1
-26.545242 5.140077 24.104444 36.222845 -0.191268 0.842702 0.039504 0.003398 19189.600000 0 0 1
-26.281502 4.496777 22.742464 35.045086 -0.169460 0.864594 0.049550 -0.000923 -176491.000000 0 0 1
-26.681972 5.343577 21.712164 34.812347 -0.197654 0.897340 0.062025 -0.001022 64659.500000 0 0 1
-26.380842 4.776277 20.433964 33.709176 -0.179111 0.919543 0.045152 0.001616 -481052.000000 0 0 1
-27.115422 5.311477 19.177464 33.633808 -0.193435 0.964066 0.105802 -0.013663 -145475.000000 0 0 1
-28.513732 5.085577 19.211264 34.755844 -0.176499 0.985137 0.118168 -0.014411 144117.000000 0 0 1
-29.213602 5.577877 18.086364 34.808962 -0.188663 1.024426 0.117358 -0.017096 -1186390.000000 0 0 1
-30.683782 5.328177 18.198764 36.070472 -0.171934 1.041955 0.121539 -0.018841 -1146050.000000 0 0 1
-31.295162 6.339777 19.016264 37.164475 -0.199875 1.033659 0.142774 -0.007267 472766.000000 0 0 1
-32.696102 6.143177 19.188464 38.405349 -0.185722 1.047625 0.151601 -0.009835 421034.000000 0 0 1
-33.398452 7.222077 19.978464 39.582244 -0.212961 1.041724 0.166035 -0.006999 -89564.400000 0 0 1
-33.054742 7.137277 21.383964 40.010381 -0.212658 1.006927 0.126292 -0.011418 70282.400000 0 0 1
-33.222812 8.362077 22.039564 40.736003 -0.246575 0.999130 0.150843 -0.013116 113875.000000 0 0 1
-0.364422 32.785477 11.571471 34.769517 -1.559681 1.231520 0.046593 -0.021740 -356976.000000 0 0 1
-0.429422 32.859277 12.947771 35.320834 -1.557729 1.195470 0.032005 -0.013873 35399.300000 0 0 1
-0.277522 -34.050564 13.471171 36.619535 1.562646 1.194081 0.026639 -0.017946 -196921.000000 0 0 1
-0.076122 -33.931464 14.980271 37.091219 1.568553 1.155046 0.026065 -0.007026 375315.000000 0 0 1
-1.238622 34.009477 15.765871 37.506552 -1.534393 1.136966 0.030629 0.002780 308611.000000 0 0 1
-0.993722 -33.752564 17.074571 37.838658 1.541363 1.102634 0.020605 -0.004857 745260.000000 0 0 1
-2.291822 -33.472864 17.919871 38.036914 1.502435 1.080239 0.029511 -0.001542 421042.000000 0 0 1
-3.013222 33.619177 18.320171 38.405172 -1.481407 1.073531 0.023284 0.002254 -533361.000000 0 0 1
-3.888722 33.928077 19.344471 39.248505 -1.456678 1.055409 0.025878 0.001299 228051.000000 0 0 1
-4.979222 32.833977 19.660071 38.592501 -1.420295 1.036277 0.021270 -0.004545 447344.000000 0 0 1
-6.001022 32.746377 18.706071 38.187100 -1.389550 1.058875 0.022558 -0.010132 -150590.000000 0 0 1
-7.137122 32.088177 19.257271 38.097666 -1.351937 1.040868 0.025429 -0.024363 -129366.000000 0 0 1
-8.219922 31.927277 18.204171 37.660457 -1.318811 1.066289 0.010607 -0.024750 -511867.000000 0 0 1
-8.968022 33.094377 17.883271 38.671367 -1.306168 1.090049 0.030466 -0.031121 -177579.000000 0 0 1
-9.692622 32.926577 16.704771 38.172710 -1.284512 1.117857 0.048509 -0.026124 -96409.600000 0 0 1
-10.639822 -34.108564 16.390571 39.309678 1.268422 1.140698 0.090158 -0.037939 393468.000000 0 0 1
-11.802422 -34.055464 17.215071 39.942840 1.237185 1.125204 0.081245 -0.040684 146049.000000 0 0 1
-12.706022 -33.065664 16.741771 39.179944 1.203927 1.129287 0.060352 -0.039993 26236.000000 0 0 1
-14.081822 -33.275064 17.403071 40.104794 1.170456 1.121935 0.081728 -0.041278 18265.800000 0 0 1
-14.008822 -32.943764 18.770971 40.421381 1.168727 1.087859 0.070997 -0.031032 553714.000000 0 0 1
-15.277022 -33.202064 19.410271 41.382642 1.139556 1.082589 0.056530 -0.040832 910300.000000 0 0 1
-15.334322 -32.881564 20.919271 41.880241 1.134429 1.047772 0.054306 -0.044183 -187904.000000 0 0 1
-15.272422 -31.497564 21.132071 40.888970 1.119321 1.027669 0.072385 -0.042037 12810.100000 0 0 1
-15.254622 -31.218764 22.529571 41.411306 1.116281 0.995547 0.049692 -0.029723 73716.200000 0 0 1
-15.051622 -29.680564 22.794571 40.337076 1.101469 0.970239 0.073129 -0.039089 -267638.000000 0 0 1
-15.021022 -29.277964 24.131371 40.806290 1.096764 0.938047 0.074402 -0.035133 -216330.000000 0 0 1
-15.174922 -27.831964 24.180471 39.869683 1.071620 0.919161 0.076739 -0.027032 -366152.000000 0 0 1
-16.532522 -27.189264 23.918271 39.807839 1.024476 0.926241 0.086049 -0.026986 -887324.000000 0 0 1
-17.542022 -27.362864 24.857271 40.918612 1.000711 0.917911 0.093433 -0.024213 -10995.800000 0 0 1
-18.584722 -26.435164 24.595871 40.609933 0.958039 0.920199 0.096218 -0.028288 -712769.000000 0 0 1
-19.697822 -26.219164 25.604971 41.606049 0.926479 0.907884 0.094688 -0.017037 50993.200000 0 0 1
-20.483322 -27.394964 25.922671 42.918940 0.928766 0.922297 0.099786 -0.013106 701622.000000 0 0 1
-21.414022 -27.818264 24.929271 43.056761 0.914754 0.953312 0.081462 -0.015780 272523.000000 0 0 1
-22.812522 -27.121564 24.888171 43.306021 0.871480 0.958553 0.058694 -0.002954 239746.000000 0 0 1
-22.841422 -25.819564 24.238771 42.141410 0.846524 0.957976 0.070266 -0.010362 -261052.000000 0 0 1
-23.977322 -25.692764 23.437971 42.241787 0.819921 0.982610 0.043521 -0.011065 -512129.000000 0 0 1
-24.378822 -24.230264 23.280371 41.513953 0.782342 0.975464 0.046958 -0.000286 -23248.300000 0 0 1
-25.117912 -23.709164 24.381971 42.279007 0.756554 0.956122 0.044359 0.002019 366843.000000 0 0 1
-25.788502 -22.495864 24.013271 41.806075 0.717311 0.958929 0.026799 0.004101 248925.000000 0 0 1
-26.198832 -21.719364 25.243671 42.371600 0.692187 0.932574 0.037939 0.005260 -246519.000000 0 0 1
-27.300842 -22.241264 25.924871 43.727666 0.683624 0.936177 0.029855 0.008737 -232403.000000 0 0 1
-27.567742 -21.416864 27.096371 44.191354 0.660484 0.910742 0.021922 -0.000532 -393623.000000 0 0 1
-28.724492 -22.070864 27.942471 45.749330 0.655151 0.913759 0.012849 -0.002631 1505330.000000 0 0 1
-30.064352 -21.834764 27.440271 46.190807 0.628139 0.934695 0.014749 -0.003833 1203030.000000 0 0 1
-30.407822 -22.485464 26.220371 46.018905 0.636723 0.964566 0.012526 -0.002143 126094.000000 0 0 1
-31.953232 -22.833964 26.142371 47.178623 0.620461 0.983497 -0.001795 -0.009750 877411.000000 0 0 1
-32.452352 -23.388464 24.980371 47.161365 0.624485 1.012575 -0.007482 -0.010567 -176647.000000 0 0 1
-32.020812 -24.702464 24.676071 47.375654 0.657089 1.022939 -0.011057 -0.009172 -888037.000000 0 0 1
-32.509822 -25.291564 23.331971 47.338490 0.661161 1.055405 -0.002647 -0.004589 726535.000000 0 0 1
-33.922522 -25.536264 23.347971 48.455815 0.645279 1.068042 0.017333 -0.009680 478801.000000 0 0 1
-34.346804 -25.920264 22.059471 48.354765 0.646479 1.097075 0.032471 -0.005474 77244.400000 0 0 1
-35.523916 -26.928164 22.138471 49.771342 0.648620 1.109841 0.047397 -0.013606 -208834.000000 0 0 1
-35.315594 -28.076164 22.927071 50.607438 0.671689 1.100627 0.033234 -0.012491 740843.000000 0 0 1
-34.264566 -29.024764 22.574971 50.260588 0.702795 1.104973 0.012744 -0.007962 262564.000000 0 0 1
-34.615327 -30.019064 21.524771 50.622928 0.714406 1.131616 0.024933 0.000319 -366607.000000 0 0 1
-34.745821 -29.474964 20.228071 49.851985 0.703508 1.152983 0.027247 0.008315 326997.000000 0 0 1
-35.600158 -30.236364 19.405371 50.578428 0.704106 1.177030 0.033194 0.006961 -486905.000000 0 0 1
-35.852953 -29.526064 18.036371 49.825027 0.688926 1.200390 0.049198 0.010780 -663671.000000 0 0 1
-34.741716 -29.412664 17.183871 48.655699 0.702522 1.209836 0.065143 0.003920 -125776.000000 0 0 1
-35.067423 -28.919364 15.889971 48.151271 0.689609 1.234492 0.069965 0.005749 -151134.000000 0 0 1
-35.628775 -29.961164 14.900271 48.878411 0.699203 1.261022 0.054168 0.008250 318463.000000 0 0 1
-34.697643 -31.037964 14.645171 48.803306 0.729783 1.266014 0.052081 0.003481 103925.000000 0 0 1
-34.897787 -31.756664 13.436771 49.060045 0.738308 1.293367 0.045176 -0.001665 -115967.000000 0 0 1
-34.921326 -30.968364 12.107571 48.219621 0.725476 1.316988 0.053209 -0.005972 1193090.000000 0 0 1
-36.225452 -30.399764 11.816271 48.744777 0.698180 1.325946 0.049259 -0.008026 1063280.000000 0 0 1
-36.289592 -29.740164 10.538771 48.088226 0.686533 1.349848 0.049317 -0.004086 231626.000000 0 0 1
35.487236 -28.785064 10.480871 46.880406 -0.681496 1.345325 0.069120 0.002615 187042.000000 0 0 1
35.554516 -27.792264 9.483971 46.113764 -0.663470 1.363653 0.087185 -0.034355 459252.000000 0 0 1
34.339616 -27.045464 9.380471 44.706371 -0.667127 1.359401 0.078656 -0.031719 474064.000000 0 0 1
34.380136 -25.985064 8.238071 43.875769 -0.647213 1.381916 0.068371 -0.030837 -23740.400000 0 0 1
34.981306 -24.769164 8.522971 43.701765 -0.616121 1.374513 0.087293 -0.044628 -126830.000000 0 0 1
34.943386 -24.000264 7.319771 43.018972 -0.601834 1.399812 0.073532 -0.045562 373.381000 0 0 1
35.529886 -22.598364 7.498571 42.770170 -0.566498 1.394563 0.088632 -0.053815 9345.640000 0 0 1
34.707996 -21.743464 8.284471 41.785831 -0.559655 1.371214 0.070595 -0.051305 -62423.800000 0 0 1
35.066176 -20.427964 8.123971 41.387647 -0.527493 1.373224 0.088242 -0.048302 -251956.000000 0 0 1
34.328866 -19.512064 9.111571 40.524220 -0.516850 1.344015 0.091974 -0.041426 -118595.000000 0 0 1
34.897116 -19.422864 10.409171 41.272354 -0.507877 1.315836 0.081801 -0.050717 -271146.000000 0 0 1
34.117276 -18.729664 11.339571 40.538558 -0.502059 1.287291 0.081448 -0.035621 -255356.000000 0 0 1
34.735076 -18.755964 12.760471 41.486640 -0.495111 1.258147 0.073643 -0.044491 -169055.000000 0 0 1
35.920136 -18.013064 12.854671 42.189681 -0.464827 1.261186 0.035343 -0.027539 -219038.000000 0 0 1
36.411726 -18.172164 14.162471 43.088478 -0.462907 1.235887 0.044786 -0.019588 -491229.000000 0 0 1
-35.291748 -17.397764 14.426371 41.908350 0.458008 1.219371 0.056779 -0.019165 -1390290.000000 0 0 1
-34.156058 -17.845264 13.799871 40.933192 0.481456 1.226928 0.044756 -0.026055 -658713.000000 0 0 1
-33.073782 -17.218364 14.474271 39.998145 0.479995 1.200519 0.031513 -0.020854 542809.000000 0 0 1
-31.675582 -17.243664 13.768371 38.603814 0.498521 1.206108 0.049683 -0.022164 505648.000000 0 0 1
-31.227812 -18.557264 13.665971 38.811172 0.536184 1.210967 0.044953 -0.025531 56914.900000 0 0 1
-30.142212 -18.676864 12.751171 37.682497 0.554725 1.225597 0.015922 -0.011007 228551.000000 0 0 1
-29.548782 -20.071664 12.509771 37.848336 0.596679 1.233938 0.009216 -0.020212 161.374000 0 0 1
-30.296022 -20.900564 11.627771 38.599062 0.603900 1.264798 0.026106 -0.022716 -346862.000000 0 0 1
-29.402222 -21.459664 10.685471 37.936620 0.630490 1.285266 0.017630 -0.019725 -725347.000000 0 0 1
-29.991292 -22.171364 9.462571 38.478399 0.636592 1.322329 0.032261 -0.023452 48199.600000 0 0 1
-30.632642 -23.418464 9.613971 39.739296 0.652713 1.326446 0.037580 -0.033945 102425.000000 0 0 1
-31.778432 -23.356064 10.465071 40.803090 0.633810 1.311420 0.061559 -0.032466 -666263.000000 0 0 1
-32.596892 -24.637564 10.528971 42.195096 0.647219 1.318601 0.079420 -0.035679 -247836.000000 0 0 1
-33.261022 -24.946564 9.342471 42.613477 0.643516 1.349763 0.075822 -0.027199 -559117.000000 0 0 1
-33.947662 -26.122664 9.559571 43.888754 0.655864 1.351223 0.091423 -0.024274 -179359.000000 0 0 1
-34.007562 -26.987564 8.286271 44.198475 0.670811 1.382202 0.073508 -0.024238 136722.000000 0 0 1
-32.734222 -27.354064 7.806271 43.367176 0.696099 1.389806 0.057249 -0.026489 -259959.000000 0 0 1
-32.806492 -28.112764 6.634871 43.710581 0.708502 1.418416 0.047223 -0.019866 194548.000000 0 0 1
-31.450712 -28.413064 5.932071 42.797651 0.734699 1.431741 0.059749 -0.020068 187352.000000 0 0 1
-30.965042 -27.321064 5.214471 41.622891 0.722961 1.445187 0.066048 -0.017243 -652732.000000 0 0 1
-29.747662 -27.754664 4.669271 40.951762 0.750753 1.456529 0.058886 -0.022051 -533552.000000 0 0 1
-28.948302 -26.655264 3.984871 39.552326 0.744182 1.469876 0.059405 -0.014032 -206282.000000 0 0 1
-29.521262 -26.215664 2.763871 39.577834 0.726160 1.500906 0.065537 -0.007867 -264162.000000 0 0 1
-28.934262 -24.985264 2.318671 38.299232 0.712290 1.510218 0.058217 -0.016594 -173410.000000 0 0 1
-29.231192 -24.436364 0.909371 38.110699 0.696292 1.546933 0.063898 -0.016158 -164246.000000 0 0 1
-28.781802 -25.332264 -0.105829 38.342234 0.721739 1.573556 0.066162 -0.016080 -144263.000000 0 0 1
-28.894872 -24.896064 -1.422529 38.167410 0.711195 1.608076 0.075413 -0.023636 1097870.000000 0 0 1
-30.322942 -24.686964 -2.116029 39.158710 0.683301 1.624860 0.092168 -0.020330 1030120.000000 0 0 1
-31.055912 -23.598664 -1.636429 39.039012 0.649792 1.612726 0.080956 -0.011429 -899758.000000 0 0 1
-32.376162 -23.807364 -2.028529 40.238307 0.634050 1.621231 0.088189 -0.018833 -775451.000000 0 0 1
-33.251892 -22.565964 -2.008629 40.236123 0.596244 1.620738 0.079177 -0.015219 -247104.000000 0 0 1
-33.354062 -21.959464 -0.765629 39.941178 0.582240 1.589966 0.088479 -0.023238 -478741.000000 0 0 1
-34.311468 -20.993864 -0.855829 40.233712 0.549096 1.592069 0.086199 -0.015990 -810414.000000 0 0 1
-34.593415 -20.225164 0.470571 40.074718 0.529059 1.559054 0.089428 -0.023550 -211126.000000 0 0 1
-35.300701 -20.990564 1.406571 41.094059 0.536456 1.536562 0.085740 -0.028068 186230.000000 0 0 1
-35.396345 -20.428564 2.690071 40.956854 0.523439 1.505068 0.090685 -0.031038 -1125410.000000 0 0 1
-36.197822 -21.425764 3.621071 42.219164 0.534448 1.484922 0.099923 -0.025057 1221790.000000 0 0 1
35.390756 -21.468564 3.363871 41.529754 -0.545269 1.489708 0.068866 -0.023002 645294.000000 0 0 1
34.745226 -20.271864 3.722971 40.398511 -0.528156 1.478509 0.069122 -0.026879 -2096800.000000 0 0 1
33.423716 -20.085864 3.048671 39.113695 -0.541115 1.492773 0.042852 -0.009708 -829136.000000 0 0 1
32.413426 -21.036764 3.309471 38.783092 -0.575682 1.485360 0.029602 -0.007768 -389066.000000 0 0 1
31.194506 -20.584764 2.773571 37.476958 -0.583292 1.496721 0.027146 -0.011779 -88069.000000 0 0 1
30.027566 -21.561864 3.006071 37.089151 -0.622750 1.489657 0.022460 0.008440 -100380.000000 0 0 1
29.814786 -22.673764 2.109071 37.516252 -0.650179 1.514549 0.024235 -0.003115 -647900.000000 0 0 1
28.659616 -23.300864 2.558471 37.024986 -0.682630 1.501640 0.027555 0.001209 -509243.000000 0 0 1
28.345026 -24.484364 1.597971 37.489706 -0.712450 1.528159 0.030565 0.001130 -24621.000000 0 0 1
27.786216 -24.137264 0.320871 36.807394 -0.715238 1.562079 0.030241 -0.002840 330440.000000 0 0 1
27.279016 -25.289464 -0.369029 37.199971 -0.747569 1.580717 0.021958 -0.007277 -429146.000000 0 0 1
26.365616 -24.766064 -1.467329 36.202992 -0.754125 1.611338 0.037146 -0.014859 -624724.000000 0 0 1
26.978716 -24.393664 -2.692329 36.471229 -0.735121 1.644684 0.022915 -0.027921 94497.800000 0 0 1
27.286416 -25.511464 -3.490629 37.517566 -0.751793 1.663971 0.022376 -0.025616 -389728.000000 0 0 1
26.117016 -26.151664 -4.322429 37.211442 -0.786061 1.687218 0.030572 -0.034472 393916.000000 0 0 1
25.535116 -25.275064 -5.278929 36.314433 -0.780280 1.716680 0.026742 -0.043892 -92343.100000 0 0 1
24.533716 -24.463964 -4.809529 34.978855 -0.783975 1.708731 0.045262 -0.044556 -1683420.000000 0 0 1
24.175316 -23.241264 -5.722429 34.019824 -0.765702 1.739808 0.043230 -0.054073 -373199.000000 0 0 1
23.616616 -23.654464 -6.929329 34.136400 -0.786199 1.775206 0.047023 -0.045184 1323010.000000 0 0 1
22.430116 -22.881564 -7.330629 32.869654 -0.795361 1.795709 0.046042 -0.041773 1045040.000000 0 0 1
22.656116 -21.461764 -7.889629 32.189333 -0.758333 1.818420 0.042627 -0.038207 -699923.000000 0 0 1
23.240516 -21.450564 -9.160229 32.926555 -0.745368 1.852718 0.052161 -0.041379 186728.000000 0 0 1
23.127116 -20.183264 -9.772229 32.213725 -0.717531 1.879009 0.051748 -0.034562 -279397.000000 0 0 1
23.797516 -20.127764 -11.160429 33.105948 -0.702046 1.914644 0.046204 -0.030278 840386.000000 0 0 1
25.228916 -20.223064 -11.266229 34.240304 -0.675705 1.906077 0.055024 -0.033309 870715.000000 0 0 1
25.597816 -19.968064 -12.582229 34.817872 -0.662469 1.940536 0.047700 -0.033940 612049.000000 0 0 1
27.142716 -19.963364 -12.893329 36.076320 -0.634154 1.936269 0.039853 -0.024938 960273.000000 0 0 1
27.770516 -21.217464 -13.037129 37.300791 -0.652419 1.927848 0.024041 -0.023162 273514.000000 0 0 1
28.090476 -21.932864 -11.830729 37.551185 -0.662920 1.891312 0.048430 -0.030601 -221854.000000 0 0 1
28.654006 -23.416664 -11.945129 38.885451 -0.685154 1.883033 0.045743 -0.021761 -183304.000000 0 0 1
29.881536 -23.514264 -12.614929 40.061992 -0.666712 1.891132 0.042110 -0.018860 145957.000000 0 0 1
30.248576 -24.859964 -12.936229 41.235181 -0.687926 1.889903 0.055368 -0.015602 -267667.000000 0 0 1
-4.033722 -9.459523 -27.392399 29.259135 1.167724 2.782454 0.048353 -0.012328 -15473.800000 0 0 1
-3.651322 -8.122523 -27.258569 28.676420 1.148333 2.825821 0.037613 -0.009512 -436882.000000 0 0 1
-4.445122 -7.239423 -27.945919 29.208607 1.020135 2.846482 0.035043 -0.009102 -407707.000000 0 0 1
-4.338022 -5.884923 -27.302719 28.264628 0.935575 2.879955 0.036417 -0.014141 47017.400000 0 0 1
-4.807922 -5.871923 -25.940869 27.028212 0.884697 2.856978 0.016614 -0.019320 290123.000000 0 0 1
-4.938822 -4.579223 -25.417259 26.294453 0.747635 2.882565 0.033340 -0.015063 -338073.000000 0 0 1
-5.595022 -4.527323 -24.048229 25.102156 0.680307 2.850792 0.021747 -0.010083 -368338.000000 0 0 1
-5.027522 -5.292223 -22.996629 24.127340 0.811042 2.834233 0.025749 -0.024795 265297.000000 0 1 0
-5.539922 -4.909023 -21.753529 22.978365 0.725092 2.813616 0.025489 -0.020273 -593842.000000 0 1 0
-4.916022 -5.850623 -20.665229 22.032901 0.871986 2.787397 0.025998 -0.021454 -195647.000000 0 1 0
-5.239222 -7.223223 -20.860429 22.688805 0.943272 2.737387 0.022350 -0.016503 619707.000000 0 1 0
-4.485722 -8.076223 -19.988829 22.020453 1.063799 2.708660 0.038770 -0.025553 -950505.000000 0 1 0
-5.067722 -9.479523 -19.880129 22.600059 1.079856 2.645921 0.055905 -0.028885 1047700.000000 0 1 0
-6.302322 -9.708823 -19.146329 22.373252 0.995030 2.597831 0.059986 -0.022054 1289650.000000 0 1 0
-7.449722 -9.033023 -19.629429 22.856253 0.881162 2.603760 0.044834 -0.018400 -130194.000000 0 1 0
-8.708322 -9.211623 -18.700329 22.591838 0.813477 2.545877 0.042258 -0.008933 368536.000000 0 1 0
-9.548222 -10.307623 -18.996029 23.627626 0.823625 2.504747 0.084101 0.001740 307228.000000 0 1 0
-9.999922 -10.950023 -17.784329 23.155642 0.830718 2.446562 0.051466 0.002462 -351814.000000 0 1 0
-11.012122 -12.091123 -17.989129 24.311948 0.832068 2.403762 0.041875 0.015796 561488.000000 0 1 0
-12.331122 -11.767323 -18.431929 25.105028 0.762007 2.395273 0.048143 -0.002284 600441.000000 0 0 1
-12.388722 -11.420823 -19.801529 26.000311 0.744769 2.436557 0.048828 -0.019763 351977.000000 0 0 1
-13.879822 -11.324523 -20.373929 27.129158 0.684360 2.420368 0.023256 -0.010728 1445960.000000 0 0 1
-14.596322 -12.553123 -20.503029 28.124859 0.710282 2.387657 0.009118 -0.011050 81942.400000 0 0 1
-14.911522 -13.267823 -19.325329 27.782313 0.727134 2.340049 0.010994 -0.003225 -936999.000000 0 0 1
-15.952522 -14.346523 -19.545529 29.022980 0.732443 2.309662 0.000183 0.001065 -87757.600000 0 0 1
-15.363122 -15.548123 -19.990429 29.620717 0.791383 2.311598 0.009198 0.004782 -243864.000000 0 0 1
-16.197822 -15.992323 -20.969629 30.949138 0.779014 2.315224 0.009634 0.000591 -411794.000000 0 0 1
-15.960422 -17.451723 -21.355729 31.864790 0.830002 2.305272 -0.002848 0.004973 -408942.000000 0 0 1
-16.174322 -18.440023 -20.391529 31.897611 0.850760 2.264359 0.002550 0.012765 193557.000000 0 0 1
-15.747522 -19.722623 -20.882829 32.757577 0.897001 2.262040 0.001592 0.009524 96334.000000 0 0 1
-16.510422 -20.932723 -20.186929 33.440768 0.902961 2.218883 0.004354 0.002456 97291.200000 0 0 1
-15.934622 -22.139723 -20.536229 34.144050 0.946951 2.216122 0.006299 0.003589 -445073.000000 0 0 1
-16.639722 -23.194123 -20.037429 34.876155 0.948480 2.182827 0.018756 0.002192 -428887.000000 0 0 1
-16.070522 -24.585223 -20.392829 35.756990 0.991848 2.177688 0.030862 -0.005304 -254598.000000 0 0 1
-16.100022 -24.812423 -21.831529 36.762517 0.995216 2.206636 0.028766 -0.007781 197837.000000 0 0 1
-15.526722 -26.102333 -22.070229 37.543386 1.034179 2.199206 0.039195 -0.009359 -355239.000000 0 0 1
-15.770422 -26.603443 -23.517329 38.852466 1.035691 2.220937 0.041029 -0.013418 247509.000000 0 0 1
-17.121122 -26.997073 -23.782229 39.844311 1.005620 2.210402 0.060756 -0.013051 390398.000000 0 0 1
-17.213822 -28.404913 -23.745029 40.828680 1.025965 2.191462 0.067627 -0.010289 -56012.000000 0 0 1
-18.428122 -29.087323 -24.437429 42.223879 1.006076 2.188002 0.073437 -0.016626 -77043.100000 0 0 1
-18.452722 -29.186143 -25.853529 43.136282 1.007006 2.213479 0.079929 -0.014078 -39311.200000 0 0 1
-18.470022 -27.998833 -26.646639 42.838297 0.987652 2.242127 0.089932 -0.026758 398528.000000 0 0 1
-17.162122 -27.754623 -27.461589 42.649694 1.016992 2.270364 0.092371 -0.025448 391983.000000 0 0 1
-17.241722 -28.243213 -28.792399 43.862949 1.022712 2.286856 0.097470 -0.017698 -522786.000000 0 0 1
-16.013322 -28.082783 -29.431889 43.718477 1.052563 2.309343 0.064441 -0.004297 -478638.000000 0 0 1
-15.985922 -28.319113 -30.951699 44.894649 1.056895 2.331498 0.086271 -0.006986 -40452.800000 0 0 1
-16.259822 -29.670493 -31.376329 46.143190 1.069480 2.318528 0.066564 -0.003742 241086.000000 0 0 1
-16.794922 -29.657773 -32.698339 47.231708 1.055532 2.335463 0.073413 -0.005209 51950.800000 0 0 1
-16.840222 -31.048623 -33.289419 48.536537 1.073820 2.326585 0.061623 -0.007437 348080.000000 0 0 1
-15.557522 -31.435203 -33.740599 48.668639 1.111231 2.336816 0.061828 -0.003695 147731.000000 0 0 1
-15.755522 -32.612473 33.688152 49.464143 1.120749 0.821584 0.046613 -0.002829 241358.000000 0 0 1
-14.446822 -33.058733 32.999848 48.893562 1.158802 0.829923 0.029021 -0.000937 426954.000000 0 0 1
-13.504822 -33.599123 33.931578 49.624926 1.188619 0.817892 0.034793 0.003565 282835.000000 0 0 1
-12.450122 33.955288 33.233537 49.116546 -1.219355 0.827625 0.040588 0.004674 13136.600000 0 0 1
-11.677722 32.999735 34.120675 48.883250 -1.230675 0.798191 0.032569 0.001584 41264.200000 0 0 1
-10.824022 33.695649 -33.225399 48.543623 -1.259979 2.324637 0.034284 0.000719 -183325.000000 0 0 1
-10.003822 32.832098 -32.484029 47.257118 -1.275036 2.328684 0.028593 -0.006748 -212064.000000 0 0 1
-9.207922 33.665468 -31.483329 47.003718 -1.303814 2.304743 0.015767 -0.007794 -117474.000000 0 0 1
-9.987022 -33.942203 -30.469749 46.692819 1.284636 2.281751 0.032192 -0.010450 121310.000000 0 0 1
-9.323422 -32.760163 -29.992119 45.383715 1.293531 2.292756 0.028590 -0.012945 257607.000000 0 0 1
-10.251322 -31.947733 -29.038299 44.373078 1.260297 2.284202 0.044961 -0.014824 349840.000000 0 0 1
-10.345822 -32.253043 -27.650489 43.724642 1.260395 2.255415 0.075634 -0.023170 -103581.000000 0 0 1
-10.746422 -33.623293 -27.344089 44.650986 1.261445 2.229884 0.071640 -0.019997 13664.200000 0 0 1
-11.144822 -33.743543 -25.855719 43.947149 1.251796 2.199797 0.083253 -0.024682 -134091.000000 0 0 1
-10.042322 -33.716613 -24.994529 43.155355 1.281318 2.188513 0.088639 -0.035113 -648685.000000 0 0 1
-10.374322 -33.893673 -23.675829 42.625725 1.273767 2.159683 0.089673 -0.042070 -670346.000000 0 0 1
-9.218522 -33.878443 -22.712829 41.816296 1.305123 2.144989 0.100344 -0.044080 -735168.000000 0 0 1
-8.692322 33.067933 -22.505929 40.933623 -1.313749 2.152939 0.078018 -0.037725 -1037330.000000 0 0 1
-7.620522 33.248656 -21.649029 40.400816 -1.345490 2.136318 0.088800 -0.034228 -729613.000000 0 0 1
-6.765722 31.962269 -21.516029 39.119063 -1.362197 2.153177 0.086226 -0.037549 -173514.000000 0 0 1
-5.953822 31.664789 -22.647929 39.383188 -1.384940 2.183481 0.062826 -0.048656 -307316.000000 0 0 1
-5.317722 30.479819 -22.435029 38.218163 -1.398068 2.198176 0.039150 -0.034480 485767.000000 0 0 1
-3.794122 30.566689 -22.833829 38.341903 -1.447302 2.208724 0.055517 -0.044065 796597.000000 0 0 1
-3.558522 30.521249 -24.235329 39.135161 -1.454729 2.238612 0.069809 -0.033006 106044.000000 0 0 1
-2.522322 31.460919 -24.513129 39.963045 -1.490794 2.231148 0.055865 -0.040015 189386.000000 0 0 1
-2.561822 31.758019 -26.017199 41.134284 -1.490304 2.255566 0.060625 -0.016372 419485.000000 0 0 1
-1.570422 32.672049 -26.548859 42.128030 -1.522767 2.252600 0.075243 -0.031442 356660.000000 0 0 1
-1.680622 34.021234 -26.265889 43.013553 -1.521437 2.227668 0.056596 -0.024468 9926.420000 0 0 1
-0.543022 -33.330943 -26.885849 42.826341 1.554506 2.249504 0.028035 -0.015837 849997.000000 0 0 1
0.567678 -33.162563 -25.951739 42.113781 -1.553680 2.234742 0.038635 -0.024328 464049.000000 0 0 1
1.497378 -32.329533 -26.630269 41.911956 -1.524513 2.259305 0.025368 -0.013851 169333.000000 0 0 1
2.600878 -31.882623 -25.628869 40.989085 -1.489400 2.246262 0.027410 -0.012887 -572225.000000 0 0 1
2.155378 -30.942503 -24.689829 39.644316 -1.501251 2.243092 0.029224 -0.011677 149284.000000 0 0 1
3.238578 -30.388683 -23.974329 38.842359 -1.464625 2.236002 0.016298 -0.007205 -412810.000000 0 0 1
2.915878 -29.776983 -22.586729 37.487749 -1.473184 2.217438 0.030387 -0.009226 -338341.000000 0 0 1
2.827578 -30.794113 -21.589129 37.714229 -1.479231 2.180275 0.037819 -0.009915 775053.000000 0 0 1
3.358978 -30.344783 -20.305129 36.665881 -1.460551 2.157703 0.043450 -0.014849 -132627.000000 0 0 1
3.401378 -31.430943 -19.187629 36.981598 -1.462998 2.116293 0.043202 -0.006140 -390232.000000 0 0 1
2.140978 -31.862933 -18.729829 37.022112 -1.503704 2.101232 0.048694 -0.005185 52161.000000 0 0 1
1.860678 -33.248143 -18.771929 38.226776 -1.514891 2.084111 0.054237 0.011766 -544583.000000 0 0 1
2.705778 33.991703 -17.906829 38.515083 1.491363 2.054352 0.036447 -0.010733 708975.000000 0 0 1
3.980278 33.640176 -18.475129 38.585417 1.453025 2.070096 0.045030 0.004514 602674.000000 0 0 1
4.700978 32.845798 -17.536929 37.529848 1.428639 2.057007 0.051385 -0.025425 574106.000000 0 0 1
5.970878 32.148359 -18.128829 37.387468 1.387160 2.077034 0.056692 -0.022258 504122.000000 0 0 1
7.053078 33.038978 -18.315729 38.428972 1.360476 2.067594 0.092100 -0.022697 217695.000000 0 0 1
8.005178 32.432278 -19.219129 38.539725 1.328806 2.092876 0.061676 -0.018044 13969.200000 0 0 1
9.321978 33.139507 -19.489229 39.559528 1.296587 2.085935 0.045472 -0.027279 -750997.000000 0 0 1
10.078478 33.137439 -18.348429 39.196051 1.275544 2.057958 0.044290 -0.022920 -816042.000000 0 0 1
11.272678 33.852294 -18.441429 40.163881 1.249349 2.047840 0.044335 -0.011655 -597263.000000 0 0 1
12.049778 33.930280 -17.162629 39.887552 1.229556 2.015594 0.029273 -0.009433 -491503.000000 0 0 1
12.734978 32.719943 -16.881929 38.958617 1.199625 2.018981 0.023966 -0.015586 71342.900000 0 0 1
13.393178 32.837429 -15.623429 38.752619 1.183530 1.985761 0.028868 -0.024642 -34140.300000 0 0 1
14.607378 31.914419 -15.393829 38.325912 1.141554 1.984121 0.031659 -0.018816 27627.200000 0 0 1
14.343978 30.698259 -14.776129 36.965751 1.133684 1.982013 0.056507 -0.017909 -268401.000000 0 0 1
15.411178 29.782239 -14.935529 36.709075 1.093277 1.989813 0.043582 -0.010873 -103051.000000 0 0 1
15.285678 28.461189 -14.111729 35.253824 1.077934 1.982629 0.063126 -0.017381 -437226.000000 0 0 1
15.430378 28.761479 -12.738029 35.036789 1.078381 1.942885 0.070309 -0.025824 480384.000000 0 0 1
14.190178 28.993609 -12.052429 34.456516 1.115645 1.928140 0.075013 -0.026627 1246440.000000 0 0 1
13.310078 27.696029 -11.708029 32.883219 1.122807 1.934832 0.078371 -0.029497 -28449.400000 0 0 1
12.508178 27.174299 -12.722529 32.507841 1.139415 1.972914 0.062799 -0.026495 -337849.000000 0 0 1
12.000878 25.877139 -12.616829 31.190251 1.136556 1.987241 0.094914 -0.033602 305079.000000 0 0 1
11.071678 25.543569 -11.402229 30.084328 1.161796 1.959521 0.093739 -0.031335 -15293.000000 0 0 1
9.794678 26.160649 -11.438229 30.185234 1.212547 1.959441 0.072216 -0.027953 56145.300000 0 0 1
9.323778 26.201869 -10.112129 29.592666 1.228925 1.919533 0.051819 -0.013120 623991.000000 0 0 1
8.158978 27.247259 -9.940429 30.129622 1.279851 1.907017 0.051491 -0.010184 698501.000000 0 0 1
8.712378 28.533629 -10.196629 31.528475 1.274450 1.900127 0.059496 -0.025817 -134979.000000 0 0 1
7.779278 29.576079 -10.291129 32.267149 1.313596 1.895402 0.060522 -0.025649 -348425.000000 0 0 1
8.419378 30.863939 -10.789629 33.762179 1.304486 1.896080 0.083290 -0.031820 21055.500000 0 0 1
9.300378 31.344359 -9.749529 34.117725 1.282355 1.860597 0.074187 -0.027128 53608.300000 0 0 1
9.819078 32.643735 -10.032329 35.534143 1.278610 1.857018 0.093223 -0.034269 344156.000000 0 0 1
10.914678 32.754822 -11.124329 36.273395 1.249145 1.882499 0.081465 -0.035190 180564.000000 0 0 1
12.238878 32.328898 -10.822029 36.222425 1.208896 1.874196 0.060899 -0.025457 586186.000000 0 0 1
13.158378 33.029747 -11.669029 37.420226 1.191688 1.887923 0.071162 -0.024579 629790.000000 0 0 1
14.677478 32.827391 -11.424129 37.730315 1.150348 1.878409 0.061247 -0.022460 485494.000000 0 0 1
15.042478 33.371277 -10.164029 37.989811 1.147310 1.841642 0.066078 -0.016082 -868972.000000 0 0 1
16.334778 33.862420 -10.245329 38.967361 1.121338 1.836845 0.048138 -0.019058 -726177.000000 0 0 1
16.650078 -33.471403 -8.996129 38.451141 -1.109197 1.806948 0.051209 -0.018305 -38432.600000 0 0 1
16.992078 34.037564 -7.868829 38.848487 1.107777 1.774759 0.062126 -0.018694 40016.400000 0 0 1
17.460778 -33.288473 -6.887929 38.215766 -1.087718 1.752025 0.058150 -0.016791 -1766090.000000 0 0 1
17.838278 -33.943243 -5.590229 38.750465 -1.086932 1.715564 0.062564 -0.007109 -6056.730000 0 0 1
18.846778 33.298409 -5.750329 38.691748 1.055755 1.719968 0.054280 -0.014765 -1054460.000000 0 0 1
20.090778 33.839331 -5.993229 39.807769 1.035014 1.721925 0.051269 -0.013405 -2449620.000000 0 0 1
21.000578 32.900699 -6.773729 39.615195 1.002689 1.742629 0.038406 -0.008316 -26587.100000 0 0 1
21.418178 31.606449 -6.310229 38.697867 0.975227 1.734592 0.047793 0.004881 -170468.000000 0 0 1
22.258278 31.563429 -5.210129 38.972123 0.956594 1.704886 0.040383 0.007721 -679057.000000 0 0 1
22.562978 30.113799 -4.741629 37.926401 0.927771 1.696146 0.025271 0.006660 -111325.000000 0 0 1
23.416678 29.433349 -5.639729 38.032478 0.898754 1.719632 0.018024 0.006871 26207.800000 0 0 1
23.632778 28.105769 -5.237729 37.092806 0.871637 1.712476 0.012336 0.017216 -229334.000000 0 0 1
24.593978 27.296209 -6.141429 37.251361 0.837427 1.736417 0.012985 0.017104 1069780.000000 0 0 1
25.923478 27.897969 -6.080229 38.565432 0.822068 1.729117 0.016581 0.011426 963177.000000 0 0 1
26.895578 27.145329 -6.765129 38.807318 0.790020 1.746018 0.009648 0.012530 279349.000000 0 0 1
27.748778 26.270579 -5.772729 38.645341 0.758041 1.720735 0.018857 0.013002 -343832.000000 0 0 1
28.658678 26.938789 -4.923529 39.639113 0.754473 1.695327 0.024016 0.004091 -104951.000000 0 0 1
29.315578 25.894729 -4.230029 39.342512 0.723517 1.678523 0.037454 -0.001102 172401.000000 0 0 1
30.644278 26.364359 -3.562129 40.581276 0.710464 1.658687 0.042018 -0.012746 205332.000000 0 0 1
30.494878 27.293889 -2.513729 41.002595 0.730064 1.632141 0.058674 -0.016194 -980460.000000 0 0 1
31.743678 27.506439 -1.986129 42.050089 0.714005 1.618046 0.078842 -0.034367 -882569.000000 0 0 1
31.680078 28.622969 -0.952229 42.706070 0.734746 1.593095 0.070892 -0.023890 133438.000000 0 0 1
31.592278 29.877639 -1.609429 43.512476 0.757511 1.607793 0.044214 -0.011643 100748.000000 0 0 1
30.552678 30.658119 -1.043229 43.295204 0.787121 1.594894 0.062985 -0.017935 -182765.000000 0 0 1
32.924066 22.672677 19.080864 44.295866 0.603058 1.125462 0.099330 -0.049576 -74091.300000 0 0 1
33.271246 22.543777 20.424664 45.081755 0.595517 1.100603 0.088799 -0.050504 -164453.000000 0 0 1
33.972976 23.719377 20.716364 46.324288 0.609506 1.107160 0.114966 -0.048740 -97483.200000 0 0 1
34.271406 23.839277 22.243464 47.303405 0.607769 1.081245 0.065073 -0.035198 -273516.000000 0 0 1
33.063706 24.125877 22.880664 46.891272 0.630368 1.061055 0.042860 -0.023017 -64805.700000 0 0 1
33.165676 24.206277 24.255684 47.689036 0.630486 1.037213 0.031496 -0.016897 176936.000000 0 0 1
31.990116 25.008877 24.901374 47.632866 0.663525 1.020691 0.045834 -0.019824 347411.000000 0 0 1
31.894966 26.396177 24.563724 48.139626 0.691343 1.035309 0.041072 -0.020027 279222.000000 0 0 1
30.560906 26.807577 24.777864 47.608379 0.720066 1.023416 0.034693 -0.024021 51675.000000 0 0 1
30.382276 28.296577 25.076954 48.503944 0.749869 1.027444 0.032989 -0.014740 -233927.000000 0 0 1
30.504536 29.067977 23.926374 48.455602 0.761288 1.054366 0.047724 -0.034598 245140.000000 0 0 1
30.011416 30.349577 24.152494 49.042073 0.791000 1.055853 0.055838 -0.028447 -229577.000000 0 0 1
30.462136 31.280977 22.969064 49.335780 0.798659 1.086522 0.057484 -0.026893 -657502.000000 0 0 1
31.836666 31.461277 23.011164 50.327914 0.779468 1.095924 0.021963 -0.027883 -872963.000000 0 0 1
32.344856 32.015977 21.818964 50.470583 0.780288 1.123743 0.019267 -0.025825 473847.000000 0 0 1
33.861516 32.355477 21.821064 51.668540 0.762658 1.134784 0.008345 -0.037192 334912.000000 0 0 1
34.245316 33.460677 22.606664 52.947331 0.773810 1.129662 0.027860 -0.019079 -1431890.000000 0 0 1
35.554986 33.779877 22.428364 53.928366 0.759802 1.141873 0.025340 -0.013617 -1315910.000000 0 0 1
35.981316 -33.195864 23.255164 54.197999 -0.745154 1.127325 0.027688 -0.008028 -245723.000000 0 0 1
35.379536 -32.057864 22.735164 52.880108 -0.736182 1.126372 0.027121 -0.006543 57606.100000 0 0 1
35.606886 -30.982264 23.645664 52.790799 -0.716059 1.106367 0.044865 -0.012947 -466648.000000 0 0 1
34.636386 -29.721564 23.473304 51.322963 -0.709179 1.095767 0.047999 -0.018387 1319470.000000 0 0 1
33.285246 -30.004764 23.886604 50.781525 -0.733612 1.081075 0.034961 -0.011917 527183.000000 0 0 1
32.521546 -30.450364 22.807364 50.050489 -0.752519 1.097652 0.034393 -0.009180 -901437.000000 0 0 1
31.974586 -31.884764 22.996164 50.673818 -0.783992 1.099763 0.019287 -0.010529 -339810.000000 0 0 1
30.908976 -31.904564 23.927734 50.455945 -0.801247 1.076707 0.036344 -0.019032 25034.500000 0 0 1
30.432476 -33.203164 24.079524 51.072587 -0.828911 1.079832 0.026281 -0.025789 -53714.700000 0 0 1
29.450156 -33.329064 25.275334 51.156433 -0.847106 1.054021 0.037656 -0.023713 105867.000000 0 0 1
29.105296 33.501277 25.459554 51.162904 0.855499 1.049946 0.051251 -0.033542 69118.900000 0 0 1
28.145516 33.351877 26.481484 51.046908 0.869857 1.025388 0.054223 -0.032410 -546795.000000 0 0 1
27.716016 31.886877 26.611154 49.930992 0.855262 1.008703 0.057986 -0.024071 -94382.400000 0 0 1
27.054216 31.294477 25.530434 48.611500 0.857942 1.017854 0.069633 -0.027094 -184013.000000 0 0 1
25.666916 31.560677 25.635354 48.083659 0.888024 1.008488 0.058887 -0.025895 -539146.000000 0 0 1
25.016716 31.687077 24.255564 47.098188 0.902495 1.029789 0.105270 -0.041049 -291668.000000 0 0 1
25.495116 32.736177 23.417134 47.644731 0.909113 1.056991 0.121960 -0.052934 208404.000000 0 0 1
26.723416 32.463577 22.772264 47.818415 0.882079 1.074441 0.100932 -0.040365 -134215.000000 0 0 1
27.043316 33.448177 21.619564 48.140701 0.890886 1.105048 0.112593 -0.045486 -306124.000000 0 0 1
28.380636 33.401477 21.204364 48.690289 0.866487 1.120209 0.097808 -0.043612 -359699.000000 0 0 1
28.493206 33.904577 19.912064 48.557939 0.871906 1.148268 0.087107 -0.037583 -385450.000000 0 0 1
29.863896 -33.979064 19.301664 49.183161 -0.849767 1.167508 0.076443 -0.035890 -300423.000000 0 0 1
30.597376 33.121277 18.861164 48.877008 0.824988 1.174624 0.079870 -0.040446 -202054.000000 0 0 1
31.700156 33.575177 18.104364 49.597988 0.814115 1.197140 0.068293 -0.027005 -92933.200000 0 0 1
32.580226 32.369277 17.639864 49.197622 0.782150 1.204081 0.054464 -0.026964 -374838.000000 0 0 1
33.406976 31.822077 18.601664 49.746282 0.761106 1.187553 0.041502 -0.022721 -127933.000000 0 0 1
34.112506 30.693477 18.074264 49.319688 0.732689 1.195582 0.046283 -0.024062 422361.000000 0 0 1
35.247816 30.139977 18.975164 50.108718 0.707440 1.182427 0.041284 -0.032545 -63893.400000 0 0 1
36.329366 30.981277 19.216164 51.467692 0.706111 1.188164 0.056535 -0.024396 17028.400000 0 0 1
-35.825249 30.500377 20.244964 51.220895 -0.705286 1.164458 0.066669 -0.028925 620879.000000 0 0 1
-34.693582 31.408477 20.821364 51.221736 -0.735742 1.152182 0.046173 -0.025014 909673.000000 0 0 1
-33.612542 31.686577 19.899564 50.297463 -0.755912 1.164034 0.045105 -0.020564 790482.000000 0 0 1
-32.439702 32.227977 20.483764 50.105502 -0.782124 1.149644 0.056616 -0.009828 187957.000000 0 0 1
-32.451172 33.599377 21.267964 51.325656 -0.802780 1.143543 0.030282 0.003919 -581874.000000 0 0 1
-32.861822 33.525477 22.650564 52.123939 -0.795395 1.121255 0.044569 0.001566 255558.000000 0 0 1
-32.905362 -33.459464 23.263044 52.378123 0.793747 1.110586 0.030063 0.003641 -233767.000000 0 0 1
-33.261102 -33.555764 24.765944 53.344561 0.789808 1.087993 0.027481 -0.006561 -341317.000000 0 0 1
-34.502023 34.109077 25.116874 54.632189 -0.779671 1.093088 0.026052 -0.010275 -442832.000000 0 0 1
-34.498637 34.082077 26.495484 55.260787 -0.779324 1.070754 0.033566 -0.001170 1024340.000000 0 0 1
-35.914210 33.703977 27.064404 56.198492 -0.753661 1.068333 0.023098 -0.011178 790774.000000 0 0 1
-35.744358 32.919977 28.276424 56.222239 -0.744288 1.043799 0.042412 -0.023359 326715.000000 0 0 1
35.925396 32.639277 28.724634 56.400896 0.737508 1.036432 0.060436 -0.024206 525050.000000 0 0 1
35.708806 31.486177 29.729204 56.127745 0.722639 1.012584 0.064436 -0.025085 -301102.000000 0 0 1
35.698216 30.172177 29.164764 55.093615 0.701702 1.012942 0.037781 -0.024016 258853.000000 0 0 1
-36.152882 29.668977 28.468854 54.751756 -0.687208 1.023989 0.041369 -0.025087 109005.000000 0 0 1
-36.279502 28.202177 28.030154 53.826152 -0.660782 1.023063 0.052282 -0.025968 -477892.000000 0 0 1
35.789386 28.026477 26.967884 52.854804 0.664347 1.035349 0.032525 -0.017141 290533.000000 0 0 1
35.723146 26.771777 26.407064 51.867179 0.643132 1.036624 0.034689 -0.008751 -117034.000000 0 0 1
35.152596 25.649177 27.311984 51.376354 0.630351 1.010301 0.020658 -0.006999 198114.000000 0 0 1
36.153716 25.132477 28.195184 52.284807 0.607468 1.001236 0.023629 -0.005328 473756.000000 0 0 1
35.632446 23.955277 28.786844 51.693413 0.591884 0.980176 0.027003 -0.010932 212238.000000 0 0 1
35.807336 22.588177 28.002874 50.759748 0.562777 0.986425 0.002667 0.003226 171045.000000 0 0 1
34.968596 22.641277 26.841214 49.556845 0.574598 0.998428 0.022909 -0.008649 297918.000000 0 0 1
35.369076 21.756677 25.819984 48.897813 0.551472 1.014506 0.031766 -0.023672 -302515.000000 0 0 1
35.324516 20.227477 26.175024 48.395291 0.520043 0.999338 0.020404 -0.014418 -330951.000000 0 0 1
34.070336 19.566977 26.064574 47.148875 0.521317 0.985059 0.031536 -0.011598 438408.000000 0 0 1
33.985386 18.439177 26.937854 47.123855 0.497115 0.962294 0.038706 -0.017164 -517263.000000 0 0 1
33.772906 18.758377 28.456344 47.981761 0.507000 0.935935 0.013809 -0.014536 -1084360.000000 0 0 1
32.576866 19.315877 28.839474 47.603262 0.535206 0.919988 0.020204 -0.011046 -503731.000000 0 0 1
32.566416 20.672377 28.543934 47.986194 0.565598 0.933734 0.009374 -0.016132 -1104300.000000 0 0 1
31.660536 21.509177 29.459734 48.300209 0.596745 0.914824 0.031836 -0.020370 -224724.000000 0 0 1
30.263326 21.422677 29.278704 47.244497 0.615992 0.902401 0.051263 -0.031434 96980.600000 0 0 1
29.692356 22.117277 28.191664 46.535791 0.640217 0.920018 0.048822 -0.024606 -422672.000000 0 0 1
29.673206 23.706777 28.265504 47.343945 0.674087 0.931009 0.057254 -0.020785 93697.900000 0 0 1
30.966076 24.299177 28.063344 48.341485 0.665344 0.951425 0.059647 -0.024964 589366.000000 0 0 1
31.203866 25.519477 28.735024 49.503804 0.685519 0.951502 0.048945 -0.013739 90854.900000 0 0 1
31.438956 25.374477 30.283564 50.491250 0.679057 0.927572 0.038571 -0.017298 285010.000000 0 0 1
32.730816 24.801477 30.510794 51.159829 0.648437 0.931810 0.000349 -0.001181 592822.000000 0 0 1
33.229336 24.699177 31.850074 52.236628 0.639196 0.915080 0.016409 -0.008018 206508.000000 0 0 1
32.559866 23.642777 32.725350 51.865926 0.628050 0.888006 0.024799 -0.006786 -329305.000000 0 0 1
33.234056 23.679477 33.944801 53.079842 0.619070 0.876943 0.032402 -0.020930 89460.900000 0 0 1
32.769546 22.676477 -33.440269 52.022277 0.605336 2.268953 0.035794 -0.025415 -97844.100000 0 0 1
33.464136 22.694677 -32.018219 51.575800 0.595930 2.240558 0.030538 -0.028071 283788.000000 0 0 1
32.850136 23.671277 -31.117429 51.066184 0.624407 2.226043 0.025194 -0.026258 447185.000000 0 0 1
33.132956 23.425677 -29.730839 50.303856 0.615422 2.203125 0.043521 -0.024606 -153332.000000 0 0 1
34.495366 23.863377 -29.174339 51.093376 0.605191 2.178520 0.042954 -0.004310 -51556.200000 0 0 1
34.934106 23.198377 -28.022189 50.436093 0.586197 2.159878 0.031911 -0.006460 -33853.300000 0 0 1
36.181636 23.648977 -27.513879 51.238642 0.578915 2.137644 0.047348 0.000831 353625.000000 0 0 1
-36.311522 22.686377 -26.392859 50.296932 -0.558434 2.123207 0.038146 0.005675 24998.700000 0 0 1
-35.725708 21.526577 -27.007289 49.690174 -0.542293 2.145414 0.026082 0.014755 98516.500000 0 0 1
-35.641956 20.453177 -26.117249 48.690781 -0.520970 2.136950 0.002823 0.021250 -450503.000000 0 0 1
-34.572070 19.469677 -26.599909 47.768729 -0.512892 2.161382 0.013387 0.033534 452377.000000 0 0 1
-33.302752 19.809977 -26.024149 46.677241 -0.536620 2.162209 0.022390 0.030900 294607.000000 0 0 1
-32.303412 18.814377 -26.127409 45.608472 -0.527398 2.180791 -0.005867 0.021759 470941.000000 0 0 1
-31.028282 19.248477 -25.353419 44.452829 -0.555250 2.177721 -0.002114 0.028487 -271484.000000 0 0 1
-31.168602 19.227077 -23.943729 43.754593 -0.552734 2.149845 0.001535 0.025348 -236754.000000 0 0 1
-30.009812 19.324777 -23.149229 42.543185 -0.572109 2.146154 0.004649 0.026752 -172099.000000 0 0 1
-30.329322 19.930577 -21.686129 42.277463 -0.581377 2.109412 -0.003621 0.015345 134854.000000 0 0 1
-31.158592 18.960877 -21.069829 42.122564 -0.546667 2.094629 -0.008112 0.008229 -101266.000000 0 0 1
-31.729492 19.484277 -19.932729 42.234008 -0.550704 2.062308 0.006965 0.009097 -762024.000000 0 0 1
-32.581862 18.414777 -19.135929 42.034099 -0.514427 2.043447 -0.003603 -0.004351 652427.000000 0 0 1
-33.355522 18.899477 -18.044629 42.372039 -0.515504 2.010710 0.006861 -0.016584 371291.000000 0 0 1
-34.353984 19.846577 -18.411229 43.738498 -0.523867 2.005276 0.004561 -0.013011 -826043.000000 0 0 1
-35.488577 19.970777 -17.371929 44.272508 -0.512570 1.974021 0.019005 -0.021325 -369746.000000 0 0 1
-35.140655 20.507177 -16.160229 43.778567 -0.528254 1.948875 0.024190 -0.022028 -11938.000000 0 0 1
-36.236022 20.406377 -15.274329 44.303212 -0.512884 1.922788 0.025071 -0.009075 -618728.000000 0 0 1
-36.275442 21.326377 -14.012029 44.351539 -0.531476 1.892234 0.040508 -0.007122 -199718.000000 0 0 1
36.495246 22.721177 -14.179429 45.268213 0.556857 1.889390 0.053141 -0.011151 1144640.000000 0 0 1
35.122306 23.069277 -14.444229 44.434262 0.581160 1.901882 0.060747 -0.002411 845719.000000 0 0 1
34.747686 24.565577 -14.624929 44.997309 0.615389 1.901827 0.066009 -0.008939 -58955.000000 0 0 1
35.128516 25.483877 -13.660329 45.497750 0.627601 1.875743 0.064266 -0.005226 -90579.900000 0 0 1
34.843016 26.788877 -14.001629 46.127273 0.655453 1.879206 0.046746 0.003526 21684.700000 0 0 1
36.072186 27.522277 -14.594829 47.662222 0.651755 1.882010 0.070653 0.009761 364562.000000 0 0 1
36.484896 27.082377 -15.921329 48.146563 0.638548 1.907825 0.061891 0.010143 203529.000000 0 0 1
-35.399245 27.796877 -16.420129 47.910266 -0.665675 1.920614 0.078772 0.001332 -394464.000000 0 0 1
-35.092259 27.480677 -17.909029 48.035274 -0.664350 1.952854 0.061772 -0.002244 130604.000000 0 0 1
-34.610263 26.154277 -18.216829 47.050711 -0.647126 1.968361 0.059909 -0.011258 558003.000000 0 0 1
-33.387162 25.738477 -17.615229 45.688818 -0.656749 1.966598 0.068878 -0.007742 72123.400000 0 0 1
-32.950502 24.318977 -18.097329 44.773447 -0.635806 1.986898 0.063977 -0.000791 -24640.900000 0 0 1
-32.457442 24.427677 -19.445729 45.037022 -0.645167 2.017253 0.042272 0.007259 134283.000000 0 0 1
-32.219282 23.167777 -20.018629 44.447424 -0.623407 2.037997 0.029882 0.018140 -197630.000000 0 0 1
-31.632752 23.250877 -21.456529 44.739434 -0.633848 2.070982 0.022527 0.030346 468718.000000 0 0 1
-32.574412 23.779977 -22.429029 46.148033 -0.630591 2.078330 0.025155 0.025610 567903.000000 0 0 1
-32.144872 23.637377 -23.754929 46.436139 -0.634052 2.107797 0.023510 0.033505 -84778.800000 0 0 1
-33.077812 24.233077 -24.846529 47.945111 -0.632277 2.115575 0.007520 0.023605 -102009.000000 0 0 1
-32.980092 25.673177 -24.934729 48.667640 -0.661459 2.108712 0.006893 0.029182 134785.000000 0 0 1
-33.738382 26.189677 -26.054859 50.030324 -0.660095 2.118562 0.012002 0.019430 -28957.100000 0 0 1
-33.217932 27.499277 -26.576709 50.655332 -0.691490 2.123109 0.010189 0.013103 522011.000000 0 0 1
-31.930602 27.299177 -27.175469 50.033134 -0.707363 2.144980 0.000757 0.011889 35076.900000 0 0 1
-31.476102 28.602377 -27.553629 50.675866 -0.737602 2.145663 0.016321 -0.006590 -92742.400000 0 0 1
-30.109562 28.651377 -28.246259 50.252744 -0.760588 2.167700 0.036302 -0.016019 86180.500000 0 0 1
-29.093082 28.100577 -27.378459 48.842910 -0.768047 2.165835 0.024487 -0.008486 -169518.000000 0 0 1
-27.811122 28.097277 -27.921309 48.399535 -0.790516 2.185715 0.041856 -0.009382 -323792.000000 0 0 1
-26.956712 29.353277 -27.763269 48.570344 -0.827933 2.179262 0.050875 -0.029627 -963487.000000 0 0 1
-26.481372 29.734177 -26.524399 47.842743 -0.843197 2.158448 0.041412 -0.027405 235756.000000 0 0 1
-27.440202 30.047677 -25.488979 48.015785 -0.830724 2.130395 0.023902 -0.017619 99021.200000 0 0 1
-26.793482 30.351177 -24.135629 47.133992 -0.847576 2.108383 -0.002671 -0.013464 -89120.200000 0 0 1
-26.169762 31.620577 -24.097029 47.596052 -0.879440 2.101664 -0.002114 -0.006180 65605.300000 0 0 1
-25.633742 31.869177 -22.808929 46.829269 -0.893413 2.079523 0.023589 0.004353 225119.000000 0 0 1
-24.795422 33.200677 -22.759929 47.276974 -0.929324 2.073067 0.016752 0.015804 208275.000000 0 0 1
-25.573952 -33.795964 -22.731429 48.092744 0.923011 2.063101 -0.008131 0.010815 629578.000000 0 0 1
-24.797322 -32.680764 -23.209729 47.134181 0.921703 2.085662 0.011478 0.010123 401612.000000 0 0 1
16.745378 8.235077 -25.089089 31.267980 0.457052 2.502084 0.045064 -0.019427 -571264.000000 0 0 1
15.450378 7.788177 -24.826529 30.260972 0.466904 2.532931 0.043646 -0.018721 -343578.000000 0 0 1
15.163478 6.502677 -25.318579 30.219965 0.405117 2.564055 0.047192 -0.022037 7078.340000 0 0 1
13.721278 5.961277 -25.211739 29.316242 0.409852 2.606051 0.032472 -0.024458 104143.000000 0 0 1
13.221778 5.712177 -23.879329 27.886676 0.407808 2.598857 0.064866 -0.042280 703485.000000 0 0 1
11.870478 5.252477 -23.959029 27.249437 0.416585 2.645079 0.062025 -0.040945 248937.000000 0 0 1
11.124678 5.491777 -22.620329 25.799173 0.458561 2.639932 0.073273 -0.044025 -400165.000000 0 0 1
11.613278 4.757077 -21.515229 24.907892 0.388775 2.613543 0.063638 -0.040752 -176743.000000 0 1 0
11.140278 5.117677 -20.241829 23.664912 0.430631 2.597026 0.076626 -0.036651 -334769.000000 0 1 0
11.570178 6.487077 -19.705029 23.753723 0.511000 2.549107 0.070457 -0.040765 -162760.000000 0 1 0
11.202478 6.653577 -18.364129 22.516812 0.535950 2.524517 0.067569 -0.027835 -627191.000000 0 1 0
11.516178 7.950277 -17.902229 22.722655 0.604225 2.478120 0.066375 -0.023915 780595.000000 0 1 0
13.004978 8.356077 -17.593129 23.419472 0.571105 2.420702 0.054545 -0.020988 622119.000000 0 1 0
13.500178 7.645177 -16.475529 22.630656 0.515273 2.386223 0.059374 -0.020356 -148245.000000 0 1 0
14.861778 7.958577 -16.327229 23.468911 0.491648 2.340185 0.045553 -0.013468 -274203.000000 0 1 0
15.353378 7.601877 -14.890129 22.698694 0.459742 2.286291 0.055136 -0.024118 74467.900000 0 1 0
16.740078 7.718677 -14.605929 23.518957 0.432038 2.240850 0.052570 -0.029733 703958.000000 0 1 0
16.992878 7.826877 -13.198629 22.895889 0.431632 2.185190 0.035830 -0.031887 -29253.200000 0 1 0
17.657378 9.119877 -12.707929 23.589121 0.476753 2.139713 0.070914 -0.033378 -364313.000000 0 1 0
16.733778 10.183677 -12.753729 23.374863 0.546697 2.147922 0.086956 -0.031967 40990.000000 0 1 0
17.203478 11.458577 -12.331029 24.068920 0.587584 2.108682 0.109608 -0.046602 -222119.000000 0 1 0
16.215578 12.603577 -12.682329 24.137866 0.660715 2.123996 0.122580 -0.024390 178784.000000 0 1 0
15.037378 12.699777 -11.909229 23.005148 0.701320 2.114930 0.101531 -0.009171 157953.000000 0 1 0
15.138878 13.657577 -10.828229 23.086047 0.734003 2.058997 0.070866 -0.013558 -258785.000000 0 1 0
14.778078 15.134277 -11.165329 23.918664 0.797306 2.056470 0.073724 -0.016632 -279268.000000 0 1 0
13.538778 15.476577 -10.604329 23.136005 0.852084 2.046931 0.083356 -0.022610 -132031.000000 0 1 0
13.344278 16.870377 -10.765029 24.053383 0.901574 2.034817 0.086351 -0.018851 104891.000000 0 1 0
12.235678 17.383777 -9.820329 23.416797 0.957487 2.003549 0.076263 -0.016686 73260.000000 0 1 0
12.563578 17.232377 -8.448129 22.938378 0.940827 1.947973 0.066720 -0.016125 874061.000000 0 1 0
11.463978 17.539777 -7.563429 22.277164 0.991895 1.917197 0.047729 -0.010063 722972.000000 0 1 0
11.885778 17.130977 -6.136029 21.734603 0.964232 1.857004 0.043183 -0.015576 270427.000000 0 1 0
12.884278 18.013977 -5.675529 22.863063 0.949917 1.821659 0.055351 -0.019233 -32949.400000 0 1 0
13.360078 17.611577 -4.425729 22.544321 0.921816 1.768392 0.051605 -0.022164 -223501.000000 0 1 0
14.523278 18.539977 -4.028629 23.893225 0.906291 1.740215 0.059932 -0.028565 57075.400000 0 1 0
15.751178 18.390077 -4.718129 24.668914 0.862538 1.763240 0.079436 -0.041736 377122.000000 0 1 0
16.627278 19.458077 -4.466229 25.981346 0.863685 1.743556 0.070052 -0.034698 -32844.300000 0 0 1
17.939878 19.490877 -5.281429 27.011609 0.826811 1.767588 0.075003 -0.027397 322510.000000 0 0 1
19.006178 18.781177 -4.664929 27.124325 0.779444 1.743639 0.080611 -0.037224 96416.300000 0 0 1
19.317878 17.571077 -5.290829 26.644250 0.738081 1.770698 0.095250 -0.043292 304494.000000 0 0 1
20.487678 16.791277 -4.596129 26.885244 0.686566 1.742594 0.096586 -0.043327 440363.000000 0 0 1
21.791878 17.271677 -4.856329 28.227305 0.670197 1.743700 0.088282 -0.043176 286387.000000 0 0 1
22.707978 16.250377 -4.446829 28.275454 0.621135 1.728720 0.099457 -0.043744 752005.000000 0 0 1
24.218778 16.591677 -4.677929 29.727361 0.600639 1.728814 0.095101 -0.040216 641842.000000 0 0 1
24.713378 17.716577 -4.004829 30.670292 0.621967 1.701747 0.094380 -0.041903 335675.000000 0 0 1
26.109378 17.692277 -3.739529 31.760044 0.595548 1.688813 0.083796 -0.029351 307475.000000 0 0 1
26.589578 19.020277 -3.171329 32.845608 0.620939 1.667500 0.099181 -0.024662 -197236.000000 0 0 1
26.681678 20.175077 -4.021929 33.691566 0.647419 1.690457 0.094752 -0.022044 155360.000000 0 0 1
26.757778 21.371777 -3.261629 34.400142 0.673956 1.665753 0.106154 -0.008221 -201857.000000 0 0 1
26.926478 22.705277 -4.038329 35.452404 0.700552 1.684953 0.074723 -0.001641 643720.000000 0 0 1
28.098878 22.908277 -4.857129 36.577696 0.683985 1.703979 0.061278 0.006832 758987.000000 0 0 1
28.251878 22.078177 -5.957529 36.347031 0.663344 1.735446 0.067984 0.008199 -217024.000000 0 0 1
29.241878 22.742077 -6.954629 37.691596 0.661009 1.756374 0.052573 0.007028 -175490.000000 0 0 1
28.697278 23.759277 -7.789129 38.061891 0.691540 1.776896 0.032844 0.010166 474936.000000 0 0 1
29.601578 24.668977 -8.490629 39.457606 0.694758 1.787676 0.011452 0.006140 383089.000000 0 0 1
30.703378 24.093877 -9.410729 40.146907 0.665361 1.807405 0.013791 0.001288 -51567.800000 0 0 1
30.323278 23.834277 -10.741829 40.036994 0.666150 1.842422 0.011905 0.013044 117240.000000 0 0 1
31.462078 23.729977 -11.566129 41.070056 0.646210 1.856278 0.013819 0.012432 104502.000000 0 0 1
31.192378 22.821377 -12.782929 40.708512 0.631642 1.890211 -0.000050 0.012438 112801.000000 0 0 1
30.336378 23.392177 -13.756129 40.702836 0.656865 1.915550 0.014827 0.013468 224970.000000 0 0 1
30.122178 22.546877 -14.869729 40.457584 0.642550 1.947157 0.029484 0.010669 -197856.000000 0 0 1
30.202578 23.194177 -16.250629 41.403484 0.654893 1.974138 0.029537 0.002070 -40691.800000 0 0 1
31.452878 23.843777 -16.525529 42.789045 0.648652 1.967315 0.016766 0.008628 496193.000000 0 0 1
31.528878 24.383377 -17.855629 43.674280 0.658289 1.991975 0.025283 -0.001385 -825253.000000 0 0 1
32.868278 24.964277 -18.231929 45.121415 0.649569 1.986751 0.013117 -0.002283 -280104.000000 0 0 1
33.808678 23.952977 -18.660329 45.442048 0.616399 1.993952 0.015974 0.000311 790960.000000 0 0 1
35.104778 24.551777 -18.870929 46.810759 0.610314 1.985733 0.037899 -0.004408 592679.000000 0 0 1
36.240978 23.511277 -18.755329 47.095127 0.575495 1.980397 0.042235 -0.018040 -215199.000000 0 0 1
36.330178 22.523777 -19.781029 47.100865 0.554977 2.004210 0.028611 -0.010724 -339230.000000 0 0 1
-35.891860 22.993477 -20.806629 47.432493 -0.569761 2.024901 0.028829 -0.002245 -747229.000000 0 0 1
-35.766860 22.009777 -22.029129 47.423423 -0.551643 2.053889 0.033698 -0.002113 99410.700000 0 0 1
-35.330660 20.716277 -21.625629 46.315089 -0.530325 2.056605 0.017674 -0.001971 220124.000000 0 0 1
-34.925360 19.954577 -22.733729 46.203770 -0.519086 2.085219 0.015087 0.006557 180447.000000 0 0 1
-34.525860 18.474077 -22.525029 45.174146 -0.491316 2.092810 0.004947 0.009378 -87464.300000 0 0 1
-35.634160 17.666077 -22.233729 45.565583 -0.460252 2.080536 0.016212 -0.004931 -9581.060000 0 0 1
-35.259560 16.344577 -22.123529 44.719484 -0.434065 2.088307 0.007027 -0.003040 -173824.000000 0 0 1
36.488078 15.438377 -22.022029 45.328723 0.400267 2.078108 0.011651 -0.011455 428316.000000 0 0 1
35.678578 15.353077 -23.178929 45.232076 0.406365 2.108825 0.066852 -0.009298 440631.000000 0 0 1
34.492578 14.592377 -23.040929 43.972262 0.400225 2.122323 0.095538 -0.015433 182946.000000 0 0 1
34.528878 13.282377 -23.855229 44.019733 0.367225 2.143518 0.059402 -0.025778 -306859.000000 0 0 1
34.666478 13.349277 -25.268369 44.927256 0.367576 2.168116 0.070886 -0.020158 221217.000000 0 0 1
34.914778 12.089777 -25.848469 45.092658 0.333344 2.181239 0.055795 -0.016494 -394917.000000 0 0 1
34.856978 12.021777 -27.347529 45.906638 0.332114 2.208959 0.071805 -0.021546 -329592.000000 0 0 1
33.571378 12.067077 -27.925149 45.304147 0.345065 2.234950 0.088746 -0.023070 -16081.300000 0 0 1
33.118778 13.369577 -28.252849 45.539242 0.383680 2.240057 0.088897 -0.016984 -212947.000000 0 0 1
33.391478 13.661177 -29.725409 46.746321 0.388345 2.259954 0.090786 -0.022281 7961.070000 0 0 1
34.783178 13.617577 -30.009299 47.915195 0.373156 2.247595 0.082694 -0.017775 148461.000000 0 0 1
35.107778 13.542277 -31.388769 49.002083 0.368148 2.266023 0.071754 -0.020976 35725.300000 0 0 1
-36.363060 13.753777 -31.572379 50.082468 -0.361604 2.252875 0.061293 -0.018748 532813.000000 0 0 1
-35.440660 12.803577 -31.069659 48.839488 -0.346678 2.260306 0.042459 -0.019633 280005.000000 0 0 1
-35.259860 12.793677 -29.662589 47.820550 -0.348067 2.239908 0.023984 -0.018290 -1518470.000000 0 0 1
-34.124460 11.919477 -29.257709 46.503400 -0.336046 2.251258 0.025598 -0.021288 -717052.000000 0 0 1
-34.463060 10.563977 -29.458849 46.552378 -0.297437 2.255974 0.025817 -0.028582 473858.000000 0 0 1
-33.322160 9.758777 -29.269589 45.412651 -0.284895 2.271198 0.023242 -0.029499 40994.300000 0 0 1
-33.656560 8.344877 -29.799669 45.721125 -0.243041 2.280713 0.032168 -0.020037 -787040.000000 0 0 1
-33.933360 8.365477 -31.147499 46.814750 -0.241707 2.298739 0.030942 -0.021041 332911.000000 0 0 1
-34.468660 7.155277 -31.703659 47.375188 -0.204681 2.303933 0.037818 -0.016012 655856.000000 0 0 1
-35.791760 6.570777 -31.075889 47.853276 -0.181562 2.277591 0.040478 -0.003225 -98388.900000 0 0 1
-35.554060 5.744877 -29.948729 46.840379 -0.160197 2.264486 0.035666 -0.011258 187610.000000 0 0 1
36.282778 5.086377 -29.505899 47.041570 0.139279 2.248788 0.040652 -0.001504 -214374.000000 0 0 1
36.419878 4.290177 -28.220319 46.273097 0.117257 2.226686 0.035574 0.006262 -217940.000000 0 0 1
-35.705660 3.179677 -28.286809 45.663421 -0.088818 2.238855 0.037717 0.010200 74115.300000 0 0 1
-36.061960 2.026377 -27.533879 45.416799 -0.056133 2.222132 0.050709 0.008873 -620236.000000 0 0 1
-35.076360 0.865677 -27.580329 44.629306 -0.024675 2.236976 0.072177 -0.001816 -818263.000000 0 0 1
-33.884460 1.126777 -26.906669 43.282734 -0.033241 2.241642 0.079423 -0.004149 -369094.000000 0 0 1
-33.113060 -0.075023 -26.839169 42.624187 0.002266 2.251925 0.088926 -0.008404 164306.000000 0 0 1
-31.887660 0.056077 -25.919309 41.093023 -0.001759 2.253312 0.087618 -0.009443 77618.400000 0 0 1
-32.320960 -0.036623 -24.540029 40.581508 0.001133 2.220198 0.085639 -0.006782 377159.000000 0 0 1
-31.246160 0.233077 -23.682529 39.207639 -0.007459 2.219343 0.105762 -0.006073 -42094.100000 0 0 1
-31.602360 -0.109123 -22.242829 38.645368 0.003453 2.184088 0.103831 0.004509 -709331.000000 0 0 1
-31.654060 -1.506123 -21.869029 38.503277 0.047545 2.174844 0.128109 -0.013455 413944.000000 0 0 1
-32.369160 -1.727623 -20.658729 38.438656 0.053322 2.138203 0.114381 -0.015475 248746.000000 0 0 1
-33.876560 -1.417723 -20.569329 39.657641 0.041825 2.116094 0.098750 -0.009585 -544154.000000 0 0 1
-34.762860 -2.499223 -20.610429 40.490644 0.071770 2.104839 0.093598 -0.020064 -275120.000000 0 0 1
-36.089960 -2.054323 -20.475729 41.544685 0.056861 2.086170 0.075266 -0.020804 340084.000000 0 0 1
35.838778 -3.171423 -20.205629 41.264311 -0.088261 2.082500 0.054847 -0.022374 -51379.700000 0 0 1
35.549478 -4.067423 -21.274029 41.628039 -0.113920 2.107203 0.053314 -0.014221 -99688.100000 0 0 1
-36.390260 -4.834123 -21.791729 42.690739 0.132068 2.106511 0.046515 -0.010952 -406218.000000 0 0 1
36.173978 -5.710123 -23.010129 43.250760 -0.156560 2.131777 0.048503 -0.009613 -392699.000000 0 0 1
35.546578 -6.926123 -22.576029 42.675607 -0.192435 2.128236 0.043520 -0.001764 556484.000000 0 0 1
34.898678 -7.721623 -23.597529 42.829716 -0.217750 2.154312 0.038595 0.003415 779967.000000 0 0 1
33.511578 -7.128923 -24.008829 41.836243 -0.209606 2.182028 0.023348 0.004166 -180360.000000 0 0 1
33.552378 -5.938823 -24.825229 42.158317 -0.175187 2.200441 0.034991 0.001559 66286.700000 0 0 1
32.216578 -5.574223 -25.110819 41.225394 -0.171327 2.225735 0.029021 -0.002997 161797.000000 0 0 1
32.102478 -4.437123 -26.098109 41.609716 -0.137347 2.248765 0.067770 -0.029574 -85150.600000 0 0 1
32.286678 -4.885223 -27.408149 42.632166 -0.150169 2.269073 0.069342 -0.027888 305849.000000 0 0 1
31.811678 -3.944123 -28.367489 42.804829 -0.123354 2.295237 0.071488 -0.029570 -53502.500000 0 0 1
31.313778 -4.511823 -29.677459 43.378114 -0.143099 2.324244 0.083454 -0.028207 112836.000000 0 0 1
30.698678 -3.532623 -30.514039 43.428042 -0.114570 2.349890 0.073763 -0.039118 172636.000000 0 0 1
30.209978 -4.038023 -31.735269 44.000860 -0.132878 2.376390 0.083427 -0.043512 -208306.000000 0 0 1
29.629378 -2.916223 -32.704289 44.226405 -0.098107 2.403085 0.088943 -0.040832 215688.000000 0 0 1
28.623878 -2.058523 -32.135399 43.084194 -0.071793 2.412643 0.082459 -0.040455 1548590.000000 0 0 1
27.291578 -2.576723 -31.924289 42.078854 -0.094136 2.432077 0.094348 -0.037061 962555.000000 0 0 1
26.434178 -2.938423 -33.176639 42.521635 -0.110705 2.465829 0.084648 -0.041505 -777216.000000 0 0 1
26.836578 -4.119223 -33.862829 43.403469 -0.152304 2.465761 0.098749 -0.042605 -33345.800000 0 0 1
26.213678 -4.205923 33.140654 42.463510 -0.159092 0.675411 0.085170 -0.028142 -525098.000000 0 0 1
26.696478 -5.368523 32.220297 42.186141 -0.198448 0.701670 0.075457 -0.036482 1142060.000000 0 0 1
28.103078 -5.410523 31.855044 42.822898 -0.190197 0.731941 0.083446 -0.029848 1237030.000000 0 0 1
28.516178 -4.560623 30.797104 42.218874 -0.158588 0.753260 0.087792 -0.031609 -282550.000000 0 0 1
29.188578 -3.247423 31.219854 42.862549 -0.110801 0.754854 0.077135 -0.036618 345686.000000 0 0 1
30.546278 -3.334323 31.665074 44.123347 -0.108726 0.770376 0.070850 -0.035970 357440.000000 0 0 1
31.088778 -2.057823 31.856254 44.559709 -0.066095 0.774299 0.063147 -0.033188 -1089670.000000 0 0 1
32.485778 -2.096723 32.417953 45.941764 -0.064453 0.787482 0.048114 -0.032622 -801436.000000 0 0 1
33.405878 -2.450023 31.382704 45.900212 -0.073210 0.817954 0.052880 -0.028826 -304793.000000 0 0 1
34.707178 -2.131123 31.797944 47.119414 -0.061326 0.830052 0.054689 -0.024668 -430576.000000 0 0 1
35.840378 -2.533023 30.850604 47.357245 -0.070558 0.861310 0.047226 -0.017444 -362419.000000 0 0 1
35.874178 -1.895723 29.591544 46.542560 -0.052795 0.881758 0.041888 -0.012061 283848.000000 0 0 1
-35.967660 -2.349823 28.891604 46.194361 0.065239 0.895106 0.044552 -0.008530 417970.000000 0 0 1
-35.715860 -1.594523 27.530284 45.122962 0.044615 0.914588 0.046480 -0.007892 -801179.000000 0 0 1
36.403678 -1.919823 26.569744 45.109476 -0.052688 0.940968 0.030797 -0.019910 -1052310.000000 0 0 1
-36.047860 -1.645023 25.312654 44.078166 0.045603 0.959087 0.048364 -0.020097 -295599.000000 0 0 1
-26.616732 14.958177 12.372971 32.943708 -0.511997 1.185775 0.054243 -0.010574 424995.000000 0 0 1
-27.879302 14.386177 12.739471 33.860179 -0.476378 1.185064 0.047731 -0.012407 371229.000000 0 0 1
-28.651002 15.272077 13.492771 35.159225 -0.489727 1.176930 0.051316 -0.010882 72448.400000 0 0 1
-30.046382 14.614777 13.678671 36.103779 -0.452714 1.182220 0.057074 -0.010155 -359861.000000 0 0 1
-31.019392 15.375277 14.261371 37.443137 -0.460175 1.180048 0.084493 -0.013816 -1036350.000000 0 0 1
-32.266952 14.729877 14.334871 38.257209 -0.428247 1.186726 0.101318 -0.020408 -429570.000000 0 0 1
-33.123012 15.423177 15.378171 39.642105 -0.435778 1.172417 0.105473 -0.022731 -579084.000000 0 0 1
-32.516052 15.440877 16.652271 39.661221 -0.443342 1.137502 0.090576 -0.015879 224456.000000 0 0 1
-33.330852 16.130877 17.635771 41.014282 -0.450735 1.126314 0.115512 -0.026213 157886.000000 0 0 1
-32.714842 16.305877 18.980171 41.187248 -0.462386 1.091870 0.126610 -0.011524 -166923.000000 0 0 1
-32.327582 15.113077 19.707271 40.765846 -0.437310 1.066232 0.118115 -0.011051 -78449.900000 0 0 1
-31.435292 15.385477 20.768271 40.696580 -0.455159 1.035240 0.099944 -0.004242 133793.000000 0 0 1
-32.001072 16.003977 22.060471 42.034037 -0.463734 1.018288 0.110298 -0.017780 -474274.000000 0 0 1
-32.695022 17.225277 21.946471 42.980487 -0.484894 1.034897 0.130258 -0.024812 206236.000000 0 0 1
-33.143172 17.843577 23.142971 44.186652 -0.493877 1.019544 0.144891 -0.031442 -758777.000000 0 0 1
-34.133306 17.134277 24.060271 45.139370 -0.465231 1.008628 0.138296 -0.027841 348958.000000 0 0 1
-35.475346 16.868677 23.633671 45.843242 -0.443860 1.029168 0.109347 -0.027395 475044.000000 0 0 1
-36.328892 17.967077 23.475171 46.836822 -0.459292 1.045798 0.089055 -0.030107 -484121.000000 0 0 1
35.286936 17.471677 22.961671 45.581418 0.459745 1.042861 0.061080 -0.028703 257657.000000 0 0 1
34.763986 16.638277 23.987271 45.395552 0.446387 1.014075 0.057301 -0.029645 -136707.000000 0 0 1
33.611166 15.902677 23.621271 44.051902 0.441927 1.004850 0.062594 -0.031441 247542.000000 0 0 1
33.050456 14.970977 24.714271 43.900547 0.425324 0.972833 0.040336 -0.015109 -185000.000000 0 0 1
32.394166 15.691977 25.750171 44.257106 0.451096 0.949818 0.053064 -0.022066 330898.000000 0 0 1
32.151326 15.012677 26.988471 44.581003 0.436850 0.920552 0.050856 -0.017980 65693.900000 0 0 1
31.483756 13.574877 27.006171 43.644444 0.407086 0.903612 0.048577 -0.016369 -307933.000000 0 0 1
32.270676 12.449277 26.767671 43.736589 0.368185 0.912184 0.052116 -0.008091 223363.000000 0 0 1
31.451246 11.262077 26.972971 42.936656 0.343855 0.891554 0.057385 -0.005185 499376.000000 0 0 1
32.114076 9.923777 26.575071 42.848916 0.299708 0.901794 0.075142 -0.006916 -498009.000000 0 0 1
33.148226 9.614577 27.458671 44.104689 0.282302 0.898762 0.076571 -0.007521 -339877.000000 0 0 1
33.586636 8.294277 27.276971 44.055537 0.242108 0.903137 0.085429 -0.002027 183674.000000 0 0 1
34.608966 7.828977 28.375871 45.434166 0.222468 0.896242 0.071339 -0.000452 486835.000000 0 0 1
35.902966 8.367477 28.188271 46.407071 0.228971 0.917996 0.079575 -0.001613 244292.000000 0 0 1
-36.110792 7.623077 28.907271 46.879963 -0.208048 0.906350 0.074354 -0.000887 557693.000000 0 0 1
-34.689992 8.228577 28.838071 45.855636 -0.232899 0.890674 0.078445 -0.006914 293835.000000 0 0 1
-34.113982 8.462477 27.537671 44.650875 -0.243156 0.906211 0.073765 -0.008316 553643.000000 0 0 1
-32.815812 9.006577 27.754671 43.912615 -0.267863 0.886609 0.076564 -0.007747 356767.000000 0 0 1
-32.073682 9.717377 26.641071 42.812325 -0.294180 0.899150 0.077413 -0.014557 11410.000000 0 0 1
-31.521622 8.905077 25.602071 41.573779 -0.275332 0.907367 0.081835 -0.013944 317567.000000 0 0 1
-30.459942 9.613877 24.963571 40.539050 -0.305728 0.907407 0.085141 -0.007912 212955.000000 0 0 1
-29.670642 8.647277 24.051471 39.161150 -0.283587 0.909467 0.076838 -0.004041 -216454.000000 0 0 1
-28.681442 9.326977 23.324871 38.126988 -0.314406 0.912503 0.071409 -0.012537 -498070.000000 0 0 1
-28.030212 8.424477 22.486071 36.909186 -0.291961 0.915711 0.041592 0.002403 -162788.000000 0 0 1
-26.902062 9.149177 21.727971 35.770562 -0.327821 0.917980 0.032902 0.000361 -778326.000000 0 0 1
-25.713542 9.413977 22.449471 35.408869 -0.350954 0.884073 0.040107 -0.004702 570059.000000 0 0 1
-24.663522 10.096977 21.782771 34.419869 -0.388574 0.885562 0.035781 0.002415 175587.000000 0 0 1
-24.017122 9.379177 20.586971 32.994159 -0.372308 0.896999 0.034622 -0.000780 -1279260.000000 0 0 1
-24.839422 9.262677 19.432371 32.869608 -0.356930 0.938256 0.026708 -0.006385 142805.000000 0 0 1
-24.281722 8.537377 18.335971 31.602162 -0.338097 0.951807 0.038716 -0.012224 -296330.000000 0 0 1
-24.165722 7.072677 18.626971 31.320424 -0.284722 0.933875 0.033791 -0.002033 1012390.000000 0 0 1
-22.856222 6.621977 19.155871 30.548402 -0.282002 0.893015 0.025671 0.004290 2247700.000000 0 0 1
-22.874822 5.268877 19.537671 30.540778 -0.226387 0.876657 0.023449 0.001756 -450312.000000 0 0 1
-22.976322 4.186477 18.455271 29.766340 -0.180231 0.902048 0.027789 -0.003579 -780938.000000 0 0 1
-24.228122 4.104677 17.824471 30.357240 -0.167824 0.943254 0.064125 -0.001023 70832.400000 0 0 1
-24.398922 3.131177 16.788871 29.782174 -0.127635 0.971911 0.054389 -0.005422 -175293.000000 0 0 1
-24.428522 1.626877 17.204571 29.923180 -0.066499 0.958244 0.060226 -0.010340 295340.000000 0 0 1
-23.161322 1.098177 17.642971 29.136356 -0.047379 0.920363 0.034198 0.000014 964033.000000 0 0 1
-23.332122 -0.028723 18.418271 29.725771 0.001231 0.902555 0.052488 -0.008444 151625.000000 0 0 1
-22.068222 -0.931123 18.461371 28.787074 0.042168 0.874595 0.047758 0.000123 417667.000000 0 0 1
-20.972222 -0.543423 19.275071 28.489608 0.025906 0.827708 0.032577 -0.002456 252565.000000 0 0 1
-20.309522 -1.688223 19.782771 28.402197 0.082934 0.800257 0.043064 -0.001050 -425452.000000 0 0 1
-19.264322 -1.312123 20.822171 28.397158 0.068007 0.747709 0.035547 -0.004307 -382025.000000 0 0 1
-19.714022 -0.987923 22.127671 29.652192 0.050071 0.728400 0.030185 -0.007259 -353816.000000 0 0 1
-18.652522 -0.634123 22.994571 29.615351 0.033984 0.681798 0.033155 -0.012338 -270977.000000 0 0 1
-18.961522 -0.607723 24.525371 31.006491 0.032039 0.658395 0.037016 -0.009540 192088.000000 0 0 1
-19.799522 0.414477 25.011771 31.902689 -0.020931 0.669710 0.041858 -0.020435 -647023.000000 0 0 1
-21.167622 0.136977 25.062371 32.805631 -0.006471 0.701360 0.051537 -0.021058 -341089.000000 0 0 1
-21.871322 1.363577 25.842371 33.882772 -0.062265 0.703320 0.048948 -0.029705 -219699.000000 0 0 1
-21.696922 2.578177 25.202271 33.355028 -0.118272 0.714263 0.038307 -0.018670 -483401.000000 0 0 1
-22.734122 2.903077 24.356371 33.443998 -0.127010 0.754997 0.037139 -0.017844 -1547680.000000 0 0 1
-22.332622 3.928377 23.217571 32.453563 -0.174122 0.773587 0.028667 -0.007923 77257.000000 0 0 1
-21.713622 3.368677 22.079071 31.149876 -0.153914 0.782999 0.029119 0.000748 225075.000000 0 0 1
-20.436022 2.827377 22.289171 30.371569 -0.137480 0.746776 0.024503 -0.000047 -812977.000000 0 0 1
-19.686822 2.177877 21.086771 28.930365 -0.110178 0.754111 0.023740 0.002786 -154132.000000 0 0 1
-19.304122 3.170177 20.131571 28.070969 -0.162770 0.771068 0.021839 0.007033 154548.000000 0 0 1
-19.152222 2.559777 18.863571 27.003600 -0.132867 0.797417 0.030413 -0.006192 54659.100000 0 0 1
-18.650822 3.530477 17.718171 25.966344 -0.187080 0.819822 0.022151 0.000134 -304619.000000 0 0 1
-17.280922 3.767777 17.578571 24.936571 -0.214671 0.788470 0.026085 -0.009919 -406290.000000 0 1 0
-17.097322 4.763077 16.543171 24.262767 -0.271697 0.820530 0.033465 -0.004569 -107693.000000 0 1 0
-15.670722 5.047177 16.008371 22.963307 -0.311586 0.799412 0.035507 -0.016207 418051.000000 0 1 0
-14.838822 5.935777 16.820071 23.202131 -0.380521 0.759854 0.015136 -0.018768 426897.000000 0 1 0
-15.241222 7.288777 16.923671 23.913004 -0.446079 0.784533 0.003999 -0.025912 -1063550.000000 0 1 0
-14.896422 8.246077 15.759871 23.200748 -0.505573 0.824011 -0.007239 -0.024709 115401.000000 0 1 0
-15.599722 8.039777 14.499671 22.764661 -0.475875 0.880277 0.009314 -0.018266 1124200.000000 0 1 0
-17.025822 8.247977 14.490171 23.830082 -0.451122 0.917179 0.017582 -0.015301 792634.000000 0 1 0
-17.582322 7.615377 13.224271 23.281181 -0.408734 0.966693 0.029820 -0.021014 -333886.000000 0 1 0
-17.328022 6.253677 13.255371 22.695235 -0.346352 0.947075 0.028246 -0.019302 -15795.200000 0 1 0
-17.902922 5.553477 12.215871 22.373718 -0.300788 0.993224 0.037716 -0.025212 -95346.100000 0 1 0
-17.540222 4.066677 12.304971 21.808475 -0.227823 0.971297 0.032220 -0.017563 134583.000000 0 1 0
-18.083322 3.416377 13.470271 22.806279 -0.186723 0.938946 0.034972 -0.013207 319926.000000 0 1 0
-17.630122 2.110277 13.631071 22.384829 -0.119130 0.916070 0.028500 -0.014893 -427199.000000 0 1 0
-18.585322 1.310577 14.567771 23.650619 -0.070400 0.907196 0.036648 -0.011049 -200709.000000 0 1 0
-19.880522 1.207977 14.068071 24.384524 -0.060687 0.955836 0.048993 -0.010408 -76927.500000 0 1 0
-20.873922 0.939877 15.073071 25.764345 -0.044996 0.945872 0.055939 -0.010354 757986.000000 0 0 1
-22.268922 0.627577 14.450771 26.554162 -0.028174 0.995361 0.065419 -0.019822 87566.000000 0 0 1
-22.278922 -0.474923 13.569271 26.090248 0.021314 1.023840 0.073851 -0.020081 -1175030.000000 0 0 1
-23.568022 -0.765523 13.231771 27.039184 0.032470 1.059446 0.098786 -0.031118 -1330780.000000 0 0 1
-23.736722 -1.850423 12.155971 26.732446 0.077799 1.098730 0.093102 -0.031507 -209679.000000 0 0 1
-23.408522 -3.106823 12.730371 26.826733 0.131951 1.076354 0.084451 -0.021308 -149365.000000 0 0 1
-23.408822 -4.047623 11.696171 26.479362 0.171217 1.113294 0.096917 -0.022015 51482.900000 0 0 1
-23.145122 -5.513623 12.219571 26.747236 0.233861 1.096341 0.092235 -0.025858 -237375.000000 0 0 1
-24.156022 -6.009423 13.035971 28.099165 0.243826 1.088373 0.082728 -0.027221 -114482.000000 0 0 1
-24.084422 -7.425223 13.216871 28.458373 0.299054 1.087807 0.084516 -0.027721 787850.000000 0 0 1
-25.030522 -7.741123 14.477771 29.934226 0.299937 1.065973 0.093352 -0.020231 1256480.000000 0 0 1
-26.444292 -7.637823 14.386371 31.058084 0.281175 1.089184 0.125434 -0.033518 398480.000000 0 0 1
-27.073672 -8.057323 15.555171 32.246977 0.289260 1.067431 0.131288 -0.029234 -369997.000000 0 0 1
-28.417372 -7.356723 15.853071 33.361479 0.253320 1.075615 0.140468 -0.034047 465029.000000 0 0 1
-29.589032 -7.624823 15.061271 34.065975 0.252204 1.112835 0.123203 -0.033332 1372900.000000 0 0 1
-30.180162 -8.975223 15.183271 34.956094 0.289059 1.121477 0.130542 -0.046384 225658.000000 0 0 1
-30.588262 -9.515723 16.616471 36.087364 0.301600 1.092293 0.124726 -0.049430 289551.000000 0 0 1
-29.349542 -9.825823 17.262571 35.439226 0.323058 1.062026 0.129524 -0.019681 691563.000000 0 0 1
-29.612522 -10.502123 18.480171 36.451512 0.340813 1.039119 0.102946 -0.013560 -112076.000000 0 0 1
-28.358162 -10.891423 19.254971 35.966128 0.366696 1.005858 0.114719 -0.014789 -33785.000000 0 0 1
-27.414222 -11.689323 18.562571 35.110524 0.403053 1.013740 0.101978 -0.008770 553913.000000 0 0 1
-26.293792 -12.037423 19.403271 34.824560 0.429325 0.979820 0.102078 -0.017032 599500.000000 0 0 1
-25.315412 -12.971623 18.641671 34.009484 0.473519 0.990668 0.078376 -0.014863 -103203.000000 0 0 1
-24.649222 -12.331023 17.559671 32.679968 0.463856 1.003538 0.076070 -0.016206 -88373.300000 0 0 1
-23.830222 -13.286723 16.930571 32.110134 0.508627 1.015417 0.079647 -0.021681 -181872.000000 0 0 1
-23.402322 -12.796923 15.549771 30.874347 0.500401 1.042981 0.071832 -0.015068 -380651.000000 0 0 1
-22.410122 -11.852123 15.332871 29.627408 0.486479 1.026842 0.070431 -0.018397 -572128.000000 0 0 1
-22.281122 -11.613123 13.938771 28.733297 0.480471 1.064309 0.074184 -0.011309 -584427.000000 0 0 1
-20.969422 -11.021423 13.487971 27.260113 0.483913 1.053206 0.073317 -0.018548 -1162450.000000 0 0 1
-20.853622 -9.657023 13.942071 26.879602 0.433683 1.025483 0.072683 -0.014393 532771.000000 0 0 1
-19.602422 -8.981923 13.754771 25.575840 0.429656 1.002967 0.080546 -0.012421 382246.000000 0 0 1
-18.997822 -8.856823 12.285071 24.295751 0.436246 1.040665 0.064350 -0.001773 -215199.000000 0 1 0
-18.553222 -10.060423 11.710371 24.136424 0.496871 1.064234 0.054841 -0.011738 146241.000000 0 1 0
-18.328522 -9.873023 10.342771 23.246165 0.494103 1.109707 0.060829 -0.009093 -277039.000000 0 1 0
-17.679622 -11.107623 9.648671 23.000982 0.560949 1.137913 0.033910 -0.015426 840606.000000 0 1 0
-16.305322 -11.449523 9.845771 22.223733 0.612198 1.111821 0.035432 -0.015024 1005910.000000 0 1 0
-15.873322 -11.803923 11.163171 22.713682 0.639414 1.057016 0.051763 -0.011971 707912.000000 0 1 0
-14.323822 -12.136923 11.169971 21.845938 0.702939 1.034092 0.044005 -0.011306 997655.000000 0 1 0
-14.075322 -13.459223 10.751571 22.245486 0.763026 1.066359 0.043046 -0.021752 440312.000000 0 1 0
-12.686522 -13.749423 10.798271 21.600859 0.825583 1.047313 0.043326 -0.021978 59926.800000 0 1 0
-12.548722 -15.236323 10.835471 22.517180 0.881826 1.068763 0.053706 -0.020980 -458814.000000 0 1 0
-12.560922 -15.859523 9.586871 22.387705 0.900946 1.128274 0.039315 -0.022241 9772.290000 0 1 0
-12.358322 -17.261423 9.654871 23.321693 0.949445 1.143967 0.042777 -0.018244 69775.500000 0 1 0
-12.982622 -17.980023 8.469571 23.739489 0.945419 1.205987 0.039549 -0.012801 137358.000000 0 1 0
-12.151822 -17.795123 7.280871 22.745203 0.971657 1.244955 0.037898 -0.021435 506692.000000 0 1 0
-12.461722 -18.755323 6.250171 23.369238 0.984339 1.300048 0.028839 -0.007520 -204120.000000 0 1 0
-11.665622 -18.438623 5.015471 22.388043 1.006698 1.344854 0.033786 -0.007522 -284257.000000 0 1 0
-11.829422 -19.416023 3.954171 23.077102 1.023595 1.398601 0.039007 -0.003808 241158.000000 0 1 0
-11.115322 -19.097423 2.749671 22.267075 1.043693 1.446994 0.044133 -0.010471 172858.000000 0 1 0
-11.431922 -19.955123 1.556371 23.050337 1.050556 1.503224 0.054402 -0.007763 -31909.100000 0 1 0
-11.010522 -21.306823 1.855071 24.055219 1.093830 1.493602 0.041037 -0.017945 -11262.400000 0 1 0
-11.327122 -22.343323 0.911471 25.067081 1.101598 1.534427 0.038970 -0.020002 -504671.000000 0 0 1
-10.339122 -22.432723 -0.237329 24.701838 1.138919 1.580404 0.051790 -0.015808 -250371.000000 0 1 0
-10.581122 -21.494623 -1.310829 23.993691 1.113353 1.625456 0.059714 -0.023574 -117409.000000 0 1 0
-11.710022 -21.774023 -2.122929 24.814099 1.077370 1.656454 0.070592 -0.015825 93180.400000 0 1 0
-12.490322 -20.461723 -2.433729 24.095918 1.022748 1.671971 0.058121 -0.018076 61490.400000 0 1 0
-13.108322 -19.974023 -1.246629 23.923707 0.990027 1.622928 0.057113 -0.021333 319264.000000 0 1 0
-14.057522 -18.930623 -1.463629 23.624661 0.932060 1.632789 0.064938 -0.021170 518352.000000 0 1 0
26.577078 -19.971123 -4.022529 33.486827 -0.644423 1.691210 0.068017 -0.031617 -431565.000000 0 0 1
25.303778 -20.247123 -3.529329 32.598824 -0.674840 1.679274 0.060939 -0.025493 -144868.000000 0 0 1
25.429378 -21.345723 -2.668629 33.307878 -0.698315 1.651002 0.054646 -0.022647 -416427.000000 0 0 1
24.145878 -21.660623 -1.898929 32.493260 -0.731196 1.629270 0.050580 -0.018057 -83719.500000 0 0 1
23.143578 -22.144123 -2.772629 32.150814 -0.763333 1.657142 0.045992 -0.024124 96548.500000 0 0 1
21.986278 -22.659823 -2.142029 31.645731 -0.800483 1.638536 0.046727 -0.011121 366171.000000 0 0 1
20.931578 -23.216823 -3.127329 31.415474 -0.837115 1.670509 0.044495 -0.020740 -169789.000000 0 0 1
20.129178 -22.304223 -3.790029 30.282445 -0.836611 1.696281 0.042837 -0.032275 -528733.000000 0 0 1
19.343178 -22.973323 -4.737329 30.403526 -0.870974 1.727249 0.052020 -0.029921 326274.000000 0 0 1
18.253178 -22.066723 -5.446429 29.151026 -0.879700 1.758736 0.043539 -0.015851 1204450.000000 0 0 1
17.154778 -21.541623 -4.641529 27.926183 -0.898282 1.737778 0.041936 -0.012812 1374700.000000 0 0 1
17.537878 -20.471423 -3.775829 27.219721 -0.862425 1.709962 0.039285 -0.018869 -522846.000000 0 0 1
16.480678 -20.100523 -2.726229 26.135724 -0.884031 1.675297 0.049802 -0.005071 -279188.000000 0 0 1
16.161478 -21.106523 -1.808529 26.644877 -0.917316 1.638724 0.050166 -0.011712 96932.400000 0 0 1
15.587978 -20.425723 -0.726129 25.704522 -0.918929 1.599049 0.066400 -0.003876 -335513.000000 0 0 1
15.171978 -21.288723 0.467671 26.146077 -0.951613 1.552909 0.046976 0.001786 -879435.000000 0 0 1
14.214178 -22.274123 0.333971 26.425195 -1.002798 1.558158 0.064959 -0.007234 -577713.000000 0 0 1
13.511678 -22.423423 1.537271 26.224769 -1.028489 1.512144 0.059895 -0.002689 -9550.800000 0 0 1
12.555978 -23.625823 1.531671 26.798845 -1.082305 1.513611 0.067546 -0.010899 254133.000000 0 0 1
13.224378 -24.858623 1.754871 28.211963 -1.081890 1.508553 0.048059 -0.007470 554930.000000 0 0 1
12.316578 -25.883873 1.383671 28.698214 -1.126663 1.522563 0.053701 -0.011760 437129.000000 0 0 1
12.807678 -27.238093 1.937771 30.161321 -1.131262 1.506505 0.054005 -0.002246 113093.000000 0 0 1
12.638778 -27.351843 3.352871 30.316724 -1.137941 1.459975 0.068984 -0.006361 114317.000000 0 0 1
12.835978 -28.648863 3.907771 31.635271 -1.149569 1.446954 0.065447 -0.008589 -99419.800000 0 0 1
12.601178 -28.687473 5.416871 31.797850 -1.156912 1.399608 0.080337 -0.005538 -1565.550000 0 0 1
12.762778 -30.022683 5.953871 33.161703 -1.168837 1.390277 0.060003 -0.011662 -140455.000000 0 0 1
12.661078 -30.073043 7.371271 33.451852 -1.172309 1.348618 0.074013 -0.014422 130318.000000 0 0 1
12.644678 -31.457073 8.067071 34.849863 -1.188596 1.337197 0.047212 -0.012534 -170231.000000 0 0 1
12.413178 -31.418963 9.459171 35.081535 -1.194534 1.297783 0.052517 -0.009334 -156869.000000 0 0 1
11.478978 -32.429893 9.773771 35.762990 -1.230595 1.293982 0.048771 -0.008530 50420.300000 0 0 1
11.166678 -32.681063 11.228171 36.315539 -1.241547 1.256462 0.048977 -0.006488 100052.000000 0 0 1
12.277778 -33.279383 11.901371 37.415288 -1.217357 1.247084 0.042799 -0.006316 355281.000000 0 0 1
12.147078 -33.633233 13.257471 38.137991 -1.224212 1.215766 0.049161 -0.008895 31252.400000 0 0 1
11.092678 33.501013 13.633871 37.831836 1.251044 1.202120 0.049916 -0.009665 65698.400000 0 0 1
11.349178 32.255231 13.084871 36.611714 1.232470 1.205318 0.055712 -0.011673 -313739.000000 0 0 1
10.369678 31.288479 13.329471 35.555223 1.250767 1.186513 0.056680 -0.008995 -341134.000000 0 0 1
10.320278 30.165619 12.300371 34.172676 1.241158 1.202585 0.058287 -0.011900 -680.899000 0 0 1
9.936978 30.380309 10.909871 33.774724 1.254679 1.241879 0.049702 -0.010650 -118855.000000 0 0 1
10.738078 31.290519 10.210271 34.621561 1.240216 1.271434 0.033418 -0.007728 -223313.000000 0 0 1
10.344978 31.603099 8.744671 34.383771 1.254449 1.313646 0.038420 -0.010029 132597.000000 0 0 1
9.077078 32.236951 8.681271 34.597381 1.296329 1.317163 0.036528 -0.007775 69497.500000 0 0 1
8.694878 32.540885 7.339371 34.472836 1.309697 1.356251 0.033274 -0.007854 -10048.000000 0 0 1
9.323678 33.851087 6.752171 35.754984 1.302028 1.380810 0.040277 -0.002571 -51944.100000 0 0 1
8.796278 -33.186173 7.253471 35.090019 -1.311696 1.362585 0.040411 -0.007579 -231795.000000 0 0 1
9.313378 -32.137073 6.546571 34.093812 -1.288722 1.377580 0.051809 -0.011637 -259338.000000 0 0 1
8.438578 -30.851503 6.563271 32.651207 -1.303804 1.368406 0.060604 -0.009295 119791.000000 0 0 1
8.412078 -30.303603 7.880671 32.421850 -1.300021 1.325270 0.072095 -0.011693 253826.000000 0 0 1
7.691878 -29.062603 7.985271 31.105698 -1.312063 1.311175 0.088876 -0.014695 406195.000000 0 0 1
8.520078 -27.780793 7.579871 30.030295 -1.273214 1.315629 0.106913 -0.017770 -215953.000000 0 0 1
9.598278 -27.486863 8.442671 30.313912 -1.234839 1.288556 0.098990 -0.020529 713470.000000 0 0 1
10.585078 -26.585283 7.870071 29.677587 -1.191881 1.302400 0.087785 -0.024533 499279.000000 0 0 1
10.079478 -25.200873 7.324271 28.112716 -1.190320 1.307223 0.105982 -0.017861 -752799.000000 0 0 1
9.620478 -25.382663 6.062171 27.813362 -1.208508 1.351074 0.103737 -0.018037 -208597.000000 0 0 1
8.700378 -24.406823 5.575071 26.504169 -1.228366 1.358866 0.095414 -0.019504 665999.000000 0 0 1
8.080178 -24.759223 4.177171 26.377209 -1.255344 1.411764 0.094725 -0.012440 236853.000000 0 0 1
7.279378 -25.920803 3.991071 27.217752 -1.297017 1.423631 0.072931 -0.010267 5245.660000 0 0 1
7.867078 -27.245963 4.154471 28.661700 -1.289699 1.425335 0.067497 -0.004653 -200527.000000 0 0 1
6.970878 -28.371283 3.626471 29.439329 -1.329867 1.447298 0.072150 -0.008261 55826.800000 0 0 1
5.871578 -28.568553 4.499071 29.510664 -1.368093 1.417744 0.058034 -0.005541 99446.000000 0 0 1
4.854978 -29.471623 4.069371 30.144770 -1.407529 1.435389 0.047839 -0.006936 397329.000000 0 0 1
5.126378 -31.011133 4.178571 31.708525 -1.406970 1.438631 0.038809 -0.003905 -379347.000000 0 0 1
6.130778 -31.562863 3.363171 32.328187 -1.378945 1.466576 0.042666 -0.001543 -104838.000000 0 0 1
6.345378 -32.893813 3.827671 33.718212 -1.380232 1.457032 0.040039 -0.005322 -216431.000000 0 0 1
7.449378 -33.630113 3.065071 34.581388 -1.352807 1.482046 0.050956 -0.007808 -276690.000000 0 0 1
7.133078 -33.796123 1.712571 34.583112 -1.362787 1.521256 0.058903 -0.009280 256259.000000 0 0 1
7.993978 33.439136 1.080971 34.398372 1.336140 1.539366 0.048114 -0.008373 -189446.000000 0 0 1
7.507778 32.792286 -0.213029 33.641434 1.345726 1.577129 0.066916 -0.004909 -157290.000000 0 0 1
6.398278 31.934079 -0.189929 32.569302 1.373056 1.576628 0.051148 -0.004452 -232216.000000 0 0 1
5.156378 32.627456 -0.238729 33.033257 1.414055 1.578023 0.051425 -0.012249 13336.500000 0 0 1
3.956278 31.673579 -0.046429 31.919741 1.446532 1.572251 0.050883 -0.013593 -20469.300000 0 0 1
3.826478 30.761209 -1.114229 31.018307 1.447039 1.606726 0.055529 -0.010306 239815.000000 0 0 1
2.723478 29.868979 -0.954829 30.008081 1.479867 1.602621 0.046724 -0.015642 322587.000000 0 0 1
2.486378 28.989939 -2.168929 29.177095 1.485239 1.645202 0.048401 -0.012131 -97552.400000 0 0 1
2.052878 29.650219 -3.317829 29.905815 1.501670 1.681968 0.053197 -0.026223 -125874.000000 0 0 1
2.144178 28.780289 -4.445829 29.200478 1.496432 1.723643 0.054891 -0.028115 -53215.700000 0 0 1
1.529478 29.345019 -5.773129 29.946593 1.518723 1.764792 0.063181 -0.030871 -662605.000000 0 0 1
0.151178 29.517269 -5.831529 30.088182 1.565675 1.765845 0.063882 -0.031781 -695260.000000 0 0 1
-0.149722 30.481449 -6.816229 31.234630 -1.565884 1.790793 0.054806 -0.024759 -426364.000000 0 0 1
-0.071922 30.062789 -8.284329 31.183434 -1.568404 1.839689 0.055517 -0.029122 -1199830.000000 0 0 1
-1.050722 29.170959 -8.703029 30.459671 -1.534792 1.860557 0.060668 -0.025439 -478641.000000 0 0 1
-1.080122 28.723549 -10.057829 30.452731 -1.533210 1.907393 0.072029 -0.029697 -172000.000000 0 0 1
-1.171622 29.843679 -11.182229 31.891379 -1.531558 1.929045 0.056905 -0.034087 -148209.000000 0 0 1
-0.090422 30.751019 -11.309029 32.764729 -1.567856 1.923204 0.054312 -0.025540 -206719.000000 0 0 1
-0.487422 32.082549 -11.602529 34.119586 -1.555605 1.917771 0.045378 -0.034682 -166133.000000 0 0 1
-0.777322 32.919211 -10.405529 34.533370 -1.547188 1.876871 0.029874 -0.038015 469412.000000 0 0 1
0.415378 33.262823 -9.700429 34.650919 1.558309 1.854535 0.028830 -0.043643 447523.000000 0 0 1
0.088378 -34.028583 -8.703729 35.124167 -1.568199 1.821204 0.021642 -0.033822 -44027.000000 0 0 1
1.260278 -33.793763 -7.716529 34.686474 -1.533520 1.795138 0.040137 -0.036390 -310448.000000 0 0 1
2.306078 -33.049183 -8.214529 34.132755 -1.501132 1.813846 0.053094 -0.030599 -692809.000000 0 0 1
3.047778 -32.483993 -7.159529 33.402958 -1.477246 1.786811 0.059390 -0.029947 -789261.000000 0 0 1
4.316278 -31.733243 -7.572029 32.908427 -1.435608 1.802971 0.052405 -0.031188 514256.000000 0 0 1
5.287278 -32.431263 -8.389029 33.913388 -1.409188 1.820757 0.068123 -0.024218 392564.000000 0 0 1
6.093178 -33.272603 -7.656329 34.681584 -1.389674 1.793391 0.085973 -0.012787 -1150610.000000 0 0 1
6.684878 33.693314 -8.369329 35.354952 1.374936 1.809788 0.086561 -0.019569 373040.000000 0 0 1
5.699378 32.749456 -8.812829 34.390052 1.398492 1.829948 0.074470 -0.022287 99911.200000 0 0 1
4.843378 33.164188 -9.874229 34.940264 1.425779 1.857303 0.079147 -0.021592 -177377.000000 0 0 1
3.755978 32.080819 -9.957129 33.799862 1.454248 1.869824 0.065619 -0.035060 -492764.000000 0 0 1
4.151678 30.793109 -10.313229 32.738580 1.436780 1.891272 0.060211 -0.029000 208358.000000 0 0 1
3.079878 29.860039 -10.167529 31.693630 1.468016 1.897377 0.052483 -0.035002 453563.000000 0 0 1
3.507178 28.610269 -10.982629 30.845841 1.448820 1.934833 0.049837 -0.035266 266313.000000 0 0 1
3.748378 28.902099 -12.332929 31.646213 1.441824 1.971116 0.054922 -0.031618 926940.000000 0 0 1
5.093878 28.649509 -12.799429 31.789421 1.394835 1.985186 0.043835 -0.019081 732850.000000 0 0 1
5.243478 29.110409 -14.265629 32.839277 1.392583 2.020177 0.049152 -0.020502 -662069.000000 0 0 1
4.399078 28.568879 -15.243429 32.678660 1.418015 2.056086 0.059863 -0.019819 -142801.000000 0 0 1
4.513178 29.154899 -16.513129 33.809175 1.417215 2.081076 0.080621 -0.007984 214610.000000 0 0 1
3.549878 28.517229 -17.570629 33.683244 1.446952 2.119572 0.069632 -0.016204 521493.000000 0 0 1
3.944878 27.187249 -17.873429 32.774502 1.426702 2.147598 0.078582 -0.014216 276107.000000 0 0 1
3.150078 26.826449 -18.992629 33.019710 1.453907 2.183634 0.102094 -0.025879 177281.000000 0 0 1
3.671478 25.636299 -19.758329 32.574393 1.428550 2.222523 0.108349 -0.027834 26175.400000 0 0 1
3.670078 24.419839 -19.003329 31.159661 1.421622 2.226692 0.109776 -0.039779 -122352.000000 0 0 1
4.298878 23.415839 -19.753529 30.935154 1.389230 2.263404 0.106212 -0.026691 283957.000000 0 0 1
4.780978 22.107219 -19.024229 29.555171 1.357813 2.270100 0.097021 -0.018084 485880.000000 0 0 1
3.694878 21.228119 -18.794529 28.592297 1.398467 2.288064 0.123863 -0.016898 -177872.000000 0 0 1
4.233078 20.089619 -18.203529 27.438662 1.363124 2.296185 0.094919 -0.010220 -350016.000000 0 0 1
3.326278 18.944219 -17.770529 26.186623 1.396985 2.316666 0.089233 -0.020399 -538310.000000 0 0 1
2.816678 19.213319 -16.477129 25.467255 1.425233 2.274430 0.101887 -0.022891 -544014.000000 0 0 1
2.006278 18.155119 -15.994729 24.278897 1.460735 2.290007 0.079297 -0.017242 101881.000000 0 1 0
2.684778 16.901619 -15.390929 23.016373 1.413265 2.303248 0.045394 -0.011131 -176484.000000 0 1 0
3.485378 16.047319 -16.216529 23.078997 1.356924 2.349916 0.060738 -0.016544 -524056.000000 0 1 0
2.788278 15.206519 -17.060929 23.023640 1.389450 2.405381 0.069525 -0.020788 -327076.000000 0 1 0
2.867578 15.536419 -18.563829 24.376608 1.388279 2.436486 0.066799 -0.020082 -90794.900000 0 1 0
4.182978 15.339519 -19.041429 24.806736 1.304576 2.445871 0.073381 -0.022523 -42005.400000 0 1 0
4.243378 15.853119 -20.369829 26.158317 1.309259 2.463409 0.070957 -0.015139 -348043.000000 0 0 1
4.556178 14.779219 -21.463829 26.455245 1.271758 2.517213 0.071230 -0.031558 -150589.000000 0 0 1
3.550378 13.843819 -21.683729 25.969994 1.319747 2.558844 0.067693 -0.022706 -427817.000000 0 0 1
2.376878 14.328819 -22.297829 26.611234 1.406412 2.564240 0.065013 -0.023135 -67018.700000 0 0 1
1.413278 13.153719 -22.683429 26.259391 1.463764 2.613603 0.068183 -0.018902 -39240.600000 0 0 1
0.897178 12.570019 -21.506929 24.927059 1.499543 2.611568 0.068306 -0.016126 -78207.100000 0 1 0
0.179378 11.385419 -21.838629 24.628959 1.555043 2.660966 0.051035 -0.018477 -149419.000000 0 1 0
-0.551122 10.682719 -20.704429 23.304454 -1.519252 2.664715 0.029177 -0.016654 -901746.000000 0 1 0
-1.790722 11.238919 -20.359429 23.324372 -1.412792 2.631875 0.031697 -0.011597 -277527.000000 0 1 0
-2.488022 10.429919 -19.419429 22.183049 -1.336626 2.637095 0.022816 -0.005454 294170.000000 0 1 0
-3.384022 9.312919 -20.019429 22.337403 -1.222262 2.681990 0.027529 -0.005532 -831464.000000 0 1 0
-2.649622 8.205419 -20.525229 22.262848 -1.258455 2.743881 0.017129 -0.007978 -147398.000000 0 1 0
-3.490622 7.167719 -21.073329 22.530997 -1.117609 2.779913 0.008356 0.001954 416128.000000 0 1 0
-2.733322 6.001219 -21.792929 22.768782 -1.143410 2.847760 0.007135 -0.004565 78532.100000 0 1 0
-2.065322 5.066819 -21.006229 21.707138 -1.183741 2.886780 0.016785 -0.006305 -188409.000000 0 1 0
-1.943622 3.840919 -21.753129 22.174962 -1.102336 2.946229 0.031367 -0.012807 -235732.000000 0 1 0
-1.074422 2.767919 -21.017029 21.225721 -1.200530 3.001249 0.031519 -0.010926 -759100.000000 0 1 0
0.266478 3.130719 -21.080529 21.313402 1.485884 2.993633 0.021962 -0.004616 -938801.000000 0 1 0
0.908878 2.244719 -20.142729 20.287788 1.186076 3.021938 0.025802 -0.010809 -268995.000000 0 1 0
2.437778 2.289719 -20.158929 20.434480 0.754090 2.977184 0.021946 -0.015230 -358165.000000 0 1 0
3.043978 1.561119 -21.217229 21.491247 0.473878 2.981734 0.039261 -0.021255 -281780.000000 0 1 0
4.431378 1.673119 -20.993429 21.521164 0.361015 2.919680 0.058356 -0.023812 360141.000000 0 1 0
5.317178 1.036519 -22.159529 22.812090 0.192523 2.901829 0.065342 -0.022921 -623130.000000 0 1 0
6.679378 1.142019 -22.006429 23.026098 0.169339 2.842882 0.053077 -0.029109 -969696.000000 0 1 0
7.331578 0.347819 -22.997929 24.140790 0.047406 2.832660 0.048136 -0.031404 535256.000000 0 1 0
8.886378 0.400619 -22.865929 24.535258 0.045052 2.770584 0.051825 -0.035062 460782.000000 0 1 0
9.291778 1.715019 -23.209629 25.059236 0.182520 2.754977 0.040414 -0.035657 207139.000000 0 0 1
10.695478 1.767319 -23.408429 25.796728 0.163760 2.707896 0.039601 -0.023863 -162740.000000 0 0 1
14.215278 -21.504823 21.891064 33.819376 -0.986708 0.866768 0.038845 0.010139 290449.000000 0 0 1
13.020578 -22.202623 22.300064 34.055613 -1.040405 0.856861 0.024959 0.021707 2037350.000000 0 0 1
11.726178 -21.541023 22.238564 33.106988 -1.072290 0.834271 0.023324 0.011798 1377130.000000 0 0 1
11.240278 -21.119823 20.867064 31.746262 -1.081710 0.853556 0.030971 -0.005125 -980307.000000 0 0 1
11.887678 -19.967423 20.348264 30.887970 -1.033800 0.851605 0.021291 -0.006698 14039.700000 0 0 1
11.660978 -19.758223 18.978664 29.775081 -1.037626 0.879676 0.038906 -0.008430 -92487.300000 0 0 1
11.952478 -18.300723 18.516264 28.646644 -0.992234 0.867982 0.049491 -0.020253 -280184.000000 0 0 1
11.039378 -17.406823 19.059364 28.073559 -1.005610 0.824522 0.050290 -0.020715 -536657.000000 0 0 1
10.969278 -16.133523 18.391264 26.811457 -0.973684 0.814891 0.062904 -0.014261 567209.000000 0 0 1
9.844078 -15.232023 19.026764 26.285702 -0.997044 0.761438 0.077742 -0.017598 1028560.000000 0 0 1
8.526078 -15.629023 18.689564 25.812016 -1.071393 0.761119 0.070660 -0.012890 278944.000000 0 0 1
7.525678 -14.661923 19.038864 25.181067 -1.096581 0.713496 0.055903 -0.014099 428926.000000 0 0 1
6.136578 -14.955323 18.462864 24.539695 -1.181419 0.719148 0.045194 -0.009831 -361869.000000 0 1 0
6.054678 -14.842923 17.022264 23.382236 -1.183484 0.755396 0.043056 -0.011172 1028250.000000 0 1 0
4.663678 -14.934223 16.630464 22.833161 -1.268111 0.754890 0.026234 -0.015177 977156.000000 0 1 0
4.083378 -16.353623 16.484464 23.576524 -1.326107 0.796533 0.028331 -0.010757 -19176.900000 0 1 0
2.743378 -16.257923 16.023864 22.991529 -1.403630 0.799666 0.030513 -0.014696 -45236.800000 0 1 0
1.928978 -17.249123 16.602964 24.018984 -1.459429 0.807588 0.045217 -0.012104 90211.700000 0 1 0
0.454378 -17.158423 16.174764 23.584760 -1.544321 0.815074 0.049087 -0.010154 -201707.000000 0 1 0
0.111978 -17.388323 14.787564 22.826265 -1.564357 0.866062 0.044688 -0.008860 -59430.600000 0 1 0
-1.294222 -17.502223 14.649864 22.860913 1.496985 0.875223 0.030339 -0.003068 105075.000000 0 1 0
-1.722022 -17.792323 13.206164 22.224646 1.474312 0.934510 0.021867 -0.014941 -210173.000000 0 1 0
-3.076622 -18.155723 13.089564 22.592754 1.402934 0.952841 0.015351 -0.011911 -188293.000000 0 1 0
-3.232022 -19.233923 12.190464 22.999938 1.404314 1.012170 0.026106 -0.022443 759519.000000 0 1 0
-4.677722 -19.824923 12.014564 23.648645 1.339083 1.037883 0.024959 -0.018307 801867.000000 0 1 0
-5.112922 -20.640423 13.065964 24.957733 1.327970 1.019815 0.021937 -0.005030 -456650.000000 0 1 0
-6.419922 -21.103423 12.849764 25.528147 1.275479 1.043317 0.019277 -0.013552 -292537.000000 0 0 1
-6.965222 -21.943823 13.996964 26.943657 1.263443 1.024542 0.029157 -0.008855 129390.000000 0 0 1
-8.363522 -21.798423 14.146264 27.299020 1.204441 1.026055 0.044429 -0.014176 117272.000000 0 0 1
-8.925822 -22.524823 15.266964 28.637705 1.193513 1.008527 0.052325 -0.009994 733566.000000 0 0 1
-10.391722 -22.089823 15.552464 28.945246 1.131083 1.003556 0.077614 -0.016117 351037.000000 0 0 1
-10.533822 -20.920623 16.292064 28.531828 1.104342 0.963056 0.061700 -0.016967 -95058.600000 0 0 1
-11.812822 -20.340623 16.104164 28.506627 1.044651 0.970452 0.059778 -0.020383 227518.000000 0 0 1
-12.120522 -19.150523 17.072264 28.374492 1.006530 0.925198 0.049660 -0.017510 -284776.000000 0 0 1
-12.431022 -19.540523 18.377264 29.564948 1.004208 0.900026 0.057462 -0.019020 -148243.000000 0 0 1
-12.765122 -18.449523 19.208064 29.534437 0.965531 0.862736 0.045754 -0.012569 -101319.000000 0 0 1
-13.282422 -18.987923 20.585264 30.995436 0.960393 0.844455 0.048741 -0.024241 410598.000000 0 0 1
-14.597622 -19.521923 20.473964 31.833618 0.928733 0.872184 0.061714 -0.022890 223691.000000 0 0 1
-14.929722 -20.261423 21.602264 33.167449 0.935762 0.861488 0.070886 -0.013348 -262798.000000 0 0 1
-16.301122 -20.948223 21.498764 34.157744 0.909513 0.890020 0.074352 -0.020869 -577638.000000 0 0 1
-16.458522 -21.889123 20.462764 34.186859 0.926078 0.929098 0.087386 -0.027125 636456.000000 0 0 1
-17.805122 -22.020923 20.001264 34.669785 0.890861 0.955859 0.067518 -0.023421 850874.000000 0 0 1
-18.803722 -22.843923 20.875564 36.210688 0.882105 0.956354 0.079051 -0.023973 -646772.000000 0 0 1
-19.357922 -22.035023 21.844764 36.571370 0.849984 0.930643 0.083480 -0.018732 -125242.000000 0 0 1
-20.252122 -22.692423 22.729764 37.970208 0.842162 0.929018 0.060209 -0.014123 104207.000000 0 0 1
-20.784422 -21.690623 23.759494 38.301291 0.806730 0.901631 0.056517 -0.008501 -257069.000000 0 0 1
-21.649122 -20.713423 23.258444 37.930009 0.763314 0.910699 0.056774 -0.002562 -73333.700000 0 0 1
-21.821022 -19.627523 24.152914 38.009997 0.732526 0.882224 0.062741 -0.008372 -43714.300000 0 0 1
-22.832922 -18.679823 23.496714 37.714370 0.685686 0.898202 0.058676 -0.009113 -113847.000000 0 0 1
-22.349622 -18.023123 22.349264 36.384449 0.678642 0.909357 0.070220 -0.005793 100275.000000 0 0 1
-23.211722 -16.924223 22.097664 36.242518 0.630006 0.915093 0.059508 -0.006325 127973.000000 0 0 1
-22.951722 -16.265523 20.714664 34.934883 0.616531 0.936078 0.061910 -0.008839 -293939.000000 0 0 1
-21.791422 -15.473023 20.719964 33.817117 0.617440 0.911316 0.071374 -0.013631 -335334.000000 0 0 1
-21.453922 -15.209923 19.394664 32.676681 0.616713 0.935356 0.071030 -0.014519 321563.000000 0 0 1
-20.349622 -14.134623 19.135864 31.306165 0.607085 0.913158 0.076577 -0.024164 390244.000000 0 0 1
-20.100222 -14.111523 17.740564 30.296561 0.612106 0.945221 0.078318 -0.024361 -261656.000000 0 0 1
-19.367422 -12.980523 17.421964 29.105254 0.590462 0.929063 0.078464 -0.028161 -767217.000000 0 0 1
-18.983922 -12.890323 15.920264 27.928561 0.596501 0.964248 0.070560 -0.026589 -51881.500000 0 0 1
-18.396322 -11.651323 15.575764 26.772792 0.564582 0.949886 0.062177 -0.017894 925348.000000 0 0 1
-16.987322 -11.592023 15.912664 26.003019 0.598811 0.912267 0.062420 -0.026998 760171.000000 0 0 1
-16.258322 -10.490723 15.103264 24.545812 0.573031 0.908018 0.052117 -0.017506 -27992.700000 0 1 0
-16.754622 -9.204723 15.453464 24.581575 0.502370 0.890967 0.053682 -0.011597 158929.000000 0 1 0
-16.166222 -8.123623 14.731164 23.331249 0.465650 0.887449 0.024869 -0.004916 -700958.000000 0 1 0
-16.528522 -6.791623 15.393664 23.585654 0.389870 0.859692 0.045733 0.000176 435091.000000 0 1 0
-15.802222 -6.324823 16.593764 23.771130 0.380721 0.798107 0.034967 -0.001916 -38274.900000 0 1 0
-14.433722 -6.089623 16.438864 22.707974 0.399244 0.761322 0.033127 -0.007663 -685167.000000 0 1 0
-13.779522 -6.020023 17.832564 23.326299 0.411891 0.700557 0.035512 0.001950 -139635.000000 0 1 0
-13.872722 -7.198123 18.674364 24.351535 0.478628 0.696853 0.033095 -0.010640 137327.000000 0 1 0
-13.172322 -8.353523 18.202964 23.971635 0.565168 0.708476 0.020849 -0.009423 -351493.000000 0 1 0
-13.268122 -9.592123 19.184864 25.221239 0.625960 0.706462 0.031902 -0.012040 46554.300000 0 0 1
-14.549622 -10.173623 19.268464 26.200531 0.610213 0.744506 0.039732 -0.016869 -423084.000000 0 0 1
-15.438322 -9.558423 20.122064 27.103555 0.554371 0.734130 0.048738 -0.015240 -455529.000000 0 0 1
-16.831722 -10.293823 20.224064 28.253892 0.548885 0.773031 0.055891 -0.013561 1255880.000000 0 0 1
-17.783822 -10.309023 19.160964 28.101296 0.525348 0.820503 0.067688 -0.016430 411633.000000 0 0 1
-18.182122 -9.022523 18.697664 27.597067 0.460627 0.826406 0.050536 -0.012284 -777806.000000 0 0 1
-19.368322 -9.194323 17.748464 27.832992 0.443211 0.879317 0.065509 -0.001770 -444615.000000 0 0 1
-20.641622 -9.385023 18.312964 29.146524 0.426727 0.891421 0.068324 -0.006250 -365466.000000 0 0 1
-21.557922 -9.217723 17.235664 29.099459 0.404053 0.936884 0.083859 -0.007231 2976.710000 0 0 1
-22.995322 -9.538623 17.717364 30.556098 0.393206 0.952275 0.080108 -0.012635 111372.000000 0 0 1
-23.597022 -8.455223 18.445764 31.121639 0.344065 0.936391 0.088033 -0.010099 442274.000000 0 0 1
-24.901922 -8.779323 18.901564 32.472317 0.338950 0.949509 0.084976 -0.009328 -29716.200000 0 0 1
-25.502792 -7.567623 19.593664 33.038962 0.288461 0.935958 0.103552 -0.013390 -344460.000000 0 0 1
-25.264752 -7.436023 20.990464 33.677911 0.286241 0.897878 0.105331 -0.021440 285484.000000 0 0 1
-25.997032 -6.345823 21.521064 34.340520 0.239416 0.893490 0.101654 -0.023416 -453355.000000 0 0 1
-26.117202 -6.309823 23.076764 35.418345 0.237054 0.861173 0.103718 -0.025038 243297.000000 0 0 1
-24.955122 -5.988223 23.805794 35.004753 0.235507 0.822934 0.080199 -0.022298 36732.300000 0 0 1
-23.914722 -6.929223 23.926674 34.531345 0.282024 0.805297 0.080115 -0.024343 353490.000000 0 0 1
-22.878922 -6.596523 25.066944 34.573268 0.280710 0.759706 0.071607 -0.017098 265213.000000 0 0 1
-22.057422 -5.488823 24.828704 33.661871 0.243889 0.741300 0.059542 -0.011000 5996.390000 0 0 1
-21.237422 -5.215423 25.950904 33.936384 0.240812 0.700232 0.065236 -0.024139 -106809.000000 0 0 1
-20.607022 -3.855423 25.747214 33.202902 0.184954 0.683368 0.051368 -0.022290 617954.000000 0 0 1
-19.606922 -3.375323 26.719354 33.312881 0.170479 0.640039 0.061477 -0.020307 539866.000000 0 0 1
-20.013422 -3.227123 28.083974 34.636122 0.159872 0.625229 0.065538 -0.028997 -181708.000000 0 0 1
-20.926322 -1.989323 28.330014 35.276877 0.094778 0.638357 0.064548 -0.037774 736293.000000 0 0 1
-22.211922 -2.113223 27.718894 35.583315 0.094854 0.677750 0.055907 -0.039715 -498825.000000 0 0 1
-23.169522 -1.391723 28.389074 36.670194 0.059995 0.685389 0.055080 -0.028645 -1106490.000000 0 0 1
-24.483822 -1.326023 27.672214 36.972521 0.054106 0.725069 0.058590 -0.035144 -1536530.000000 0 0 1
-24.381822 -0.432323 26.512704 36.021988 0.017729 0.743632 0.043864 -0.038225 343901.000000 0 0 1
-25.656382 -0.156523 25.949434 36.491746 0.006101 0.779729 0.073050 -0.030856 324916.000000 0 0 1
-26.580102 -1.290623 25.416254 36.798825 0.048518 0.808366 0.077201 -0.027189 -234218.000000 0 0 1
-27.347862 -1.905023 26.469494 38.107332 0.069547 0.802927 0.076998 -0.026598 426620.000000 0 0 1
-28.009462 -3.086623 25.977564 38.326114 0.109756 0.826026 0.082382 -0.028986 330923.000000 0 0 1
-27.052102 -4.308023 25.971904 37.748047 0.157923 0.812021 0.082476 -0.034697 128130.000000 0 0 1
-26.600732 -4.575123 27.273604 38.371606 0.170326 0.780196 0.065310 -0.029017 -136736.000000 0 0 1
-25.778952 -5.728323 27.273244 37.963112 0.218657 0.769276 0.065986 -0.032553 -117765.000000 0 0 1
-25.292402 -6.342923 28.566214 38.677731 0.245716 0.739849 0.052741 -0.030409 -804511.000000 0 0 1
-26.367172 -6.857423 29.248354 39.971468 0.254438 0.749938 0.062183 -0.019968 -821744.000000 0 0 1
-26.101922 -7.634723 30.416084 40.801195 0.284559 0.729556 0.063218 -0.012883 -1028760.000000 0 0 1
-27.322542 -8.079823 31.186274 42.242023 0.287526 0.740285 0.023709 -0.007303 -551521.000000 0 0 1
-28.183972 -8.856723 30.370874 42.369421 0.304475 0.771578 0.006464 -0.005995 -581079.000000 0 0 1
-29.407462 -9.080423 30.989004 43.675751 0.299492 0.781973 0.022516 -0.000345 -750883.000000 0 0 1
-30.305012 -9.981923 30.157434 43.903341 0.318190 0.813574 0.013941 -0.014447 -386538.000000 0 0 1
-29.826132 -11.336023 30.045444 43.827300 0.363208 0.815449 0.024190 -0.018848 -82262.000000 0 0 1
-30.695832 -12.170323 29.350114 44.178955 0.377469 0.844178 0.010305 -0.009476 -444131.000000 0 0 1
-29.986222 -13.331223 28.635934 43.553550 0.418336 0.853316 0.022783 -0.020100 107500.000000 0 0 1
-29.177822 -12.815723 27.572964 42.140911 0.413860 0.857535 0.041363 -0.021049 34137.600000 0 0 1
-28.227792 -13.755023 27.140164 41.504185 0.453425 0.858050 0.056027 -0.027037 148574.000000 0 0 1
-26.995222 -13.071023 26.445534 39.986997 0.450926 0.848175 0.072850 -0.033277 509265.000000 0 0 1
-26.015982 -12.400323 27.243114 39.658373 0.444788 0.813520 0.069219 -0.038210 210307.000000 0 0 1
-26.440922 -11.270523 27.996134 40.123940 0.402931 0.798557 0.070111 -0.044702 -773355.000000 0 0 1
-26.541432 -9.950023 27.174094 39.266805 0.358671 0.806489 0.073540 -0.041720 502235.000000 0 0 1
-25.343612 -9.453823 26.559054 37.908532 0.357039 0.794546 0.073825 -0.038613 337013.000000 0 0 1
-24.782022 -10.189923 25.502824 36.991582 0.390109 0.810105 0.067438 -0.040287 -297921.000000 0 0 1
-25.540612 -10.079523 24.178094 36.585514 0.375883 0.848825 0.076779 -0.033291 -622108.000000 0 0 1
-26.762762 -10.759923 24.135914 37.610686 0.382271 0.874044 0.077119 -0.036538 -676309.000000 0 0 1
-27.390932 -10.459023 22.910964 37.209765 0.364756 0.907491 0.093906 -0.024077 400065.000000 0 0 1
-28.713022 -11.299323 22.829664 38.383667 0.374913 0.933810 0.090722 -0.031480 1582240.000000 0 0 1
-29.913472 -10.868323 23.531644 39.581239 0.348496 0.934134 0.090692 -0.035785 926278.000000 0 0 1
-29.932292 -10.889723 24.922764 40.443446 0.348926 0.906840 0.091998 -0.039532 -1245800.000000 0 0 1
-31.311902 -10.644223 25.473414 41.744814 0.327686 0.914461 0.041657 -0.023750 -1102680.000000 0 0 1
-31.763452 -9.357523 25.346564 41.700461 0.286496 0.917478 0.060265 -0.031562 511322.000000 0 0 1
-33.099992 -9.071423 25.808524 42.941589 0.267493 0.926026 0.055702 -0.017834 970082.000000 0 0 1
-33.463532 -9.087723 27.300094 44.132639 0.265175 0.903847 0.034502 -0.011919 -220412.000000 0 0 1
-33.809262 -10.389023 27.687934 44.917922 0.298125 0.906619 0.037055 -0.018042 257815.000000 0 0 1
-34.497176 -10.403623 28.950614 46.221516 0.292905 0.893941 0.037223 -0.014243 -578869.000000 0 0 1
-34.815158 -11.867223 29.358354 47.062078 0.328512 0.897173 0.040611 -0.011323 -13595.200000 0 0 1
-35.925607 -12.424223 28.691654 47.625850 0.332957 0.924243 0.033658 -0.009634 1383550.000000 0 0 1
35.788326 -11.980523 29.234414 47.738749 -0.323035 0.911725 0.050767 -0.008918 221748.000000 0 0 1
34.609896 -12.593823 28.534574 46.590462 -0.348985 0.911634 0.058511 -0.009892 -525713.000000 0 0 1
34.229826 -12.030623 27.269144 45.387477 -0.337980 0.926285 0.058012 -0.006560 -295661.000000 0 0 1
33.146506 -12.719223 26.709534 44.428242 -0.366400 0.925815 0.064235 -0.002656 -243719.000000 0 0 1
32.806376 -12.400023 25.280994 43.233639 -0.361377 0.946221 0.064995 -0.006957 -10999.400000 0 0 1
32.340856 -11.105923 25.058204 42.393231 -0.330785 0.938387 0.058877 -0.015761 -46895.300000 0 0 1
32.409146 -10.848823 23.708984 41.595259 -0.323021 0.964300 0.056306 -0.024163 -310267.000000 0 0 1
32.076296 -9.332723 23.506254 40.847674 -0.283137 0.957628 0.038191 0.002416 -456941.000000 0 0 1
30.710846 -9.093323 23.660804 39.820575 -0.287870 0.934544 0.046771 -0.010697 -814292.000000 0 0 1
30.347656 -7.761523 23.261574 39.016949 -0.250386 0.932047 0.038880 -0.001674 298772.000000 0 0 1
28.853296 -7.379223 23.151064 37.721842 -0.250383 0.910019 0.039168 0.008628 196815.000000 0 0 1
28.194896 -8.056323 22.097464 36.717222 -0.278321 0.925008 0.032413 0.009544 274290.000000 0 0 1
26.782116 -7.949623 22.194364 35.680079 -0.288542 0.899453 0.036039 -0.014304 -62604.700000 0 0 1
15.409078 -18.190723 25.650554 35.018467 -0.867997 0.748829 0.059274 0.013125 -155505.000000 0 0 1
14.441978 -19.194823 25.499454 35.031901 -0.925768 0.755553 0.056943 0.014432 113458.000000 0 0 1
15.065678 -20.483623 25.627694 36.101692 -0.936641 0.781475 0.060361 0.004947 -841388.000000 0 0 1
14.037778 -21.599723 25.747094 36.421423 -0.994488 0.785660 0.035617 -0.001023 220677.000000 0 0 1
13.219778 -21.645323 26.919744 36.985878 -1.022513 0.755632 0.036978 -0.007583 762783.000000 0 0 1
12.235078 -20.608823 27.019984 36.117866 -1.035036 0.725593 0.042569 -0.001453 -103962.000000 0 0 1
11.371178 -20.673023 28.328724 36.867251 -1.067915 0.694462 0.039568 -0.000020 244948.000000 0 0 1
12.160778 -20.424923 29.499384 37.885032 -1.033774 0.678276 0.038776 -0.001496 87025.200000 0 0 1
11.572878 -19.659223 30.543784 38.122687 -1.038746 0.641503 0.037588 0.001449 -220415.000000 0 0 1
11.243878 -18.210023 30.274654 37.075388 -1.017641 0.615352 0.056156 -0.002515 -52416.400000 0 0 1
12.334778 -17.330423 30.230654 36.964615 -0.952234 0.613172 0.052764 0.003433 -412945.000000 0 0 1
11.877378 -15.963423 30.106494 36.087449 -0.931122 0.583998 0.060398 -0.005199 -436577.000000 0 0 1
13.013778 -14.959623 30.092664 36.037719 -0.854847 0.582605 0.062409 0.001401 -404456.000000 0 0 1
12.599978 -13.691823 29.761824 35.099738 -0.826902 0.558744 0.090233 -0.003554 -342144.000000 0 0 1
13.423078 -12.667723 30.304994 35.482994 -0.756455 0.547034 0.080793 0.000483 -247785.000000 0 0 1
13.084578 -11.209023 30.080064 34.664948 -0.708347 0.520165 0.084649 -0.011870 -170382.000000 0 0 1
13.232778 -10.679223 28.747304 33.399996 -0.679012 0.534158 0.097636 -0.006614 470924.000000 0 0 1
14.587378 -10.634123 28.286074 33.555598 -0.629922 0.568032 0.078212 -0.007533 175845.000000 0 0 1
14.938378 -9.798923 27.059184 32.424890 -0.580551 0.583537 0.068306 -0.008782 85809.300000 0 0 1
15.133478 -8.370423 27.297724 32.314886 -0.505225 0.564714 0.070949 -0.014322 719300.000000 0 0 1
16.407378 -8.129923 27.918854 33.388024 -0.460044 0.580491 0.066711 -0.017422 135597.000000 0 0 1
16.814878 -6.659023 27.774774 33.143940 -0.377070 0.577180 0.060890 -0.019518 -10441.200000 0 0 1
18.179478 -6.400423 28.029694 34.016505 -0.338516 0.602356 0.047877 -0.019830 76513.900000 0 0 1
18.621478 -5.164323 27.435134 33.557656 -0.270533 0.613649 0.055914 -0.019197 -228537.000000 0 0 1
20.127378 -5.003923 27.203064 34.207562 -0.243673 0.651401 0.060383 -0.019531 -1232780.000000 0 0 1
20.602078 -5.901123 26.274674 33.906155 -0.278964 0.684202 0.062775 -0.014246 1075530.000000 0 0 1
21.959378 -5.724123 25.782364 34.346909 -0.254994 0.721757 0.070197 -0.010696 2089310.000000 0 0 1
23.105478 -5.861123 26.881874 35.928415 -0.248428 0.725442 0.066691 -0.023260 -344150.000000 0 0 1
23.377978 -4.742223 27.738004 36.584360 -0.200134 0.710259 0.081908 -0.026651 202965.000000 0 0 1
24.315178 -5.053823 28.770024 38.006359 -0.204929 0.712119 0.088505 -0.032251 130104.000000 0 0 1
24.957778 -3.731623 29.269214 38.645861 -0.148418 0.711520 0.098409 -0.031637 -415179.000000 0 0 1
25.874978 -3.196023 28.365214 38.526801 -0.122895 0.743290 0.087758 -0.025981 -143582.000000 0 0 1
26.151078 -1.850223 28.598154 38.796348 -0.070634 0.741975 0.075493 -0.030099 -147237.000000 0 0 1
27.122678 -1.295723 27.497794 38.645145 -0.047736 0.779100 0.080703 -0.026604 467925.000000 0 0 1
28.444278 -1.708223 27.796784 39.807740 -0.059983 0.797810 0.089445 -0.030311 -763168.000000 0 0 1
29.371578 -1.179923 26.915334 39.856204 -0.040151 0.829410 0.071050 -0.015752 321204.000000 0 0 1
30.824578 -1.296823 27.483174 41.317808 -0.042046 0.843081 0.042439 -0.011861 576591.000000 0 0 1
31.122078 -0.349123 28.567084 42.246703 -0.011217 0.828208 0.028251 -0.001305 523004.000000 0 0 1
32.529278 -0.133223 28.664524 43.356967 -0.004095 0.848475 0.033560 -0.011701 581632.000000 0 0 1
33.022178 0.954277 29.661364 44.397876 0.028890 0.839170 0.037073 -0.017565 -434690.000000 0 0 1
32.712378 2.203877 29.093064 43.833356 0.067270 0.845015 0.036579 -0.010556 136727.000000 0 0 1
32.947878 3.254077 29.989904 44.671535 0.098445 0.834778 0.039677 -0.007361 -301208.000000 0 0 1
32.671678 4.612177 29.331784 44.148208 0.140241 0.844114 0.046995 -0.006143 -394281.000000 0 0 1
32.832278 5.659477 30.262614 45.009043 0.170698 0.833394 0.049633 0.002367 802497.000000 0 0 1
31.580678 6.063277 30.833294 44.551034 0.189685 0.806417 0.051044 0.004231 322803.000000 0 0 1
31.868678 6.883777 32.091424 45.747771 0.212736 0.793316 0.034513 0.004002 287943.000000 0 0 1
32.553378 6.064377 33.057423 46.789874 0.184179 0.786245 0.032866 0.013247 348344.000000 0 0 1
32.804678 6.743377 -34.016369 47.736081 0.202737 2.363983 0.030409 0.005304 -186397.000000 0 0 1
33.407078 5.932177 -32.879709 47.247210 0.175741 2.340480 0.055245 0.008153 474897.000000 0 0 1
32.491578 4.991177 -32.227649 46.035159 0.152423 2.346286 0.039041 0.017587 816025.000000 0 0 1
32.237878 3.740077 -32.894179 46.209263 0.115499 2.362929 0.058762 0.004677 -40334.500000 0 0 1
32.173978 2.648777 -31.784189 45.303593 0.082141 2.348412 0.060612 -0.005058 -134630.000000 0 0 1
32.245178 1.313277 -32.273859 45.640751 0.040705 2.356225 0.055036 -0.002787 90929.000000 0 0 1
32.440278 0.324577 -31.271799 45.059987 0.010005 2.337832 0.042785 -0.012958 -95337.200000 0 0 1
32.912978 -0.971323 -31.994819 45.911611 -0.029503 2.341832 0.053171 -0.038746 -122472.000000 0 0 1
34.200578 -0.757523 -32.562329 47.228790 -0.022146 2.331539 0.056149 -0.026176 435901.000000 0 0 1
35.162778 -1.782523 -32.345229 47.810168 -0.050650 2.313843 0.069426 -0.022465 424899.000000 0 0 1
35.921978 -1.702923 -31.018729 47.491578 -0.047371 2.282522 0.073469 -0.022047 -943060.000000 0 0 1
35.062478 -1.903023 -29.881819 46.107721 -0.054222 2.275866 0.061123 -0.025258 658183.000000 0 0 1
35.774578 -1.856223 -28.618129 45.850445 -0.051840 2.244855 0.068930 -0.026098 31923.100000 0 0 1
34.863478 -1.585323 -27.401439 44.371322 -0.045441 2.236418 0.074461 -0.027285 -126415.000000 0 0 1
34.410478 -0.235123 -27.406059 43.991230 -0.006833 2.243355 0.066117 -0.022777 781086.000000 0 0 1
33.489478 0.075777 -26.340749 42.607346 0.002263 2.237273 0.070477 -0.020707 214046.000000 0 0 1
32.994678 1.493977 -26.365119 42.261096 0.045248 2.244472 0.061133 -0.013896 21444.200000 0 0 1
32.144678 1.762077 -27.481519 42.327522 0.054762 2.277406 0.072999 -0.024613 209522.000000 0 0 1
31.668378 3.090177 -27.445529 42.020143 0.097271 2.282536 0.057296 -0.003518 111153.000000 0 0 1
30.600978 3.199377 -28.584499 41.996779 0.104173 2.319426 0.068130 -0.004026 89144.900000 0 0 1
29.736978 4.286477 -28.308319 41.279809 0.143160 2.326453 0.064207 -0.001119 456764.000000 0 0 1
28.929878 4.715577 -29.416139 41.526904 0.161579 2.357973 0.063551 -0.003002 425523.000000 0 0 1
27.642378 5.502377 -29.089329 40.503904 0.196488 2.371988 0.058835 -0.013675 -143519.000000 0 0 1
26.717578 4.836377 -28.285119 39.208003 0.179079 2.376635 0.066496 -0.014467 270787.000000 0 0 1
25.854678 5.731777 -27.574229 38.231607 0.218164 2.376390 0.075672 -0.018075 1891010.000000 0 0 1
24.336578 5.239677 -27.358979 36.989687 0.212063 2.403329 0.059776 -0.010360 1651380.000000 0 0 1
23.575178 5.154877 -28.542789 37.377166 0.215269 2.439732 0.064784 -0.016250 938551.000000 0 0 1
22.231778 4.781277 -28.205729 36.230867 0.211838 2.463069 0.064510 -0.014282 619552.000000 0 0 1
21.276578 4.417277 -29.336769 36.508233 0.204704 2.504058 0.059199 -0.013032 -65277.300000 0 0 1
21.659178 3.169677 -29.826559 36.997168 0.145312 2.508472 0.051795 -0.013292 278009.000000 0 0 1
20.789178 2.853477 -30.887859 37.341560 0.136405 2.544851 0.038258 -0.020415 2140.250000 0 0 1
21.009678 3.591877 -32.267489 38.671682 0.169326 2.557832 0.045526 -0.019050 -1009200.000000 0 0 1
22.174578 3.119377 -32.842999 39.750534 0.139757 2.543175 0.045165 -0.018948 -620846.000000 0 0 1
22.455678 3.629877 -34.118662 41.006299 0.160260 2.553562 0.044072 -0.020319 711539.000000 0 0 1
23.828978 3.098477 33.556575 41.273048 0.129304 0.621444 0.043292 -0.009571 714050.000000 0 0 1
23.864278 1.665777 33.232043 40.946884 0.069689 0.623929 0.060035 -0.017722 762865.000000 0 0 1
25.203878 1.173777 33.036203 41.569267 0.046538 0.652239 0.060864 -0.022327 446759.000000 0 0 1
25.367978 -0.367423 32.742397 41.421418 -0.014483 0.659220 0.063333 -0.019545 -425984.000000 0 0 1
24.778878 -0.891323 31.513204 40.098245 -0.035956 0.666646 0.074854 -0.026363 1258460.000000 0 0 1
23.351178 -1.036523 31.443994 39.180054 -0.044359 0.639237 0.069769 -0.028632 762007.000000 0 0 1
22.606478 -1.922423 32.436023 39.583382 -0.084834 0.610371 0.062348 -0.029513 -633898.000000 0 0 1
22.839478 -3.282823 32.050334 39.492311 -0.142757 0.623981 0.079126 -0.037858 482502.000000 0 0 1
22.030878 -4.141023 32.844547 39.765210 -0.185797 0.598890 0.069822 -0.026218 16548.800000 0 0 1
22.182678 -5.640323 32.390840 39.661707 -0.248991 0.615166 0.068509 -0.024799 -197847.000000 0 0 1
23.466078 -6.200123 32.372797 40.461047 -0.258313 0.643338 0.079995 -0.021340 -221752.000000 0 0 1
23.254978 -7.569923 31.976364 40.256498 -0.314701 0.652916 0.067079 -0.026088 7504.060000 0 0 1
24.618778 -8.275723 31.784224 41.046422 -0.324288 0.685112 0.073746 -0.022228 203970.000000 0 0 1
25.215778 -7.916923 30.533464 40.383234 -0.304221 0.713474 0.077831 -0.023623 -460099.000000 0 0 1
26.350078 -8.713023 30.327874 41.109893 -0.319346 0.741099 0.070235 -0.014437 -228136.000000 0 0 1
26.916278 -8.387223 28.919904 40.388023 -0.302068 0.772667 0.069731 -0.017761 348229.000000 0 0 1
26.062378 -8.831023 27.859844 39.158721 -0.326700 0.779223 0.053347 -0.016386 127028.000000 0 0 1
26.681678 -8.622423 26.623384 38.666041 -0.312566 0.811313 0.061890 -0.010823 72659.600000 0 0 1
25.915978 -9.323023 25.484674 37.523663 -0.345326 0.824175 0.031280 -0.017376 182943.000000 0 0 1
24.725678 -8.623123 25.137334 36.298801 -0.335562 0.805832 0.030617 -0.009410 -217793.000000 0 0 1
24.065478 -9.270223 24.118994 35.310199 -0.367690 0.818852 0.031794 -0.016361 -639906.000000 0 0 1
22.641778 -8.737523 23.893264 34.057048 -0.368295 0.793204 0.028391 -0.020118 -141017.000000 0 0 1
21.683978 -9.348523 24.740664 34.200735 -0.407048 0.762088 0.022930 -0.009175 963519.000000 0 0 1
20.356878 -8.956723 24.314944 32.952115 -0.414494 0.740862 0.036186 -0.006957 1729550.000000 0 0 1
19.220578 -8.833923 25.417694 33.068535 -0.430815 0.694089 0.041686 -0.008956 758761.000000 0 0 1
18.637378 -10.013523 26.042664 33.553582 -0.493026 0.682257 0.050454 -0.011511 395719.000000 0 0 1
19.538278 -10.879823 26.732154 34.852875 -0.508084 0.696644 0.034302 -0.011336 -215274.000000 0 0 1
18.812778 -11.952023 27.570264 35.452658 -0.565982 0.679854 0.035181 -0.009749 272411.000000 0 0 1
18.120378 -12.921023 26.787224 34.826087 -0.619441 0.693253 0.057137 -0.013008 422540.000000 0 0 1
17.293378 -13.843723 27.516784 35.325387 -0.675059 0.677803 0.043972 -0.008311 287887.000000 0 0 1
17.953278 -15.158023 28.007324 36.558119 -0.701178 0.698039 0.058208 -0.000370 270431.000000 0 0 1
16.944378 -16.063823 28.511014 36.851544 -0.758728 0.686180 0.051549 -0.000309 625800.000000 0 0 1
17.476378 -17.171023 29.180594 38.102164 -0.776585 0.698432 0.057234 0.003444 -338254.000000 0 0 1
17.985378 -18.240023 28.248804 38.133544 -0.792427 0.736556 0.058442 0.004096 214327.000000 0 0 1
19.214678 -17.847023 27.639634 38.100780 -0.748513 0.759130 0.062606 0.000868 367306.000000 0 0 1
19.603578 -18.681323 26.576704 37.942236 -0.761314 0.794766 0.063571 0.008523 29028.400000 0 0 1
20.843578 -18.127223 25.855074 37.835642 -0.715808 0.818452 0.048994 -0.010972 1562120.000000 0 0 1
22.144878 -18.213323 26.536794 39.068174 -0.688288 0.824065 0.049997 -0.008047 1783880.000000 0 0 1
23.092878 -17.403623 25.804144 38.755915 -0.645824 0.842215 0.036789 -0.007133 -747697.000000 0 0 1
24.465078 -17.602823 26.374834 40.050359 -0.623699 0.851917 0.050648 -0.015554 -1144550.000000 0 0 1
25.013078 -18.910323 26.214434 40.871150 -0.647341 0.874485 0.055812 -0.012166 57264.800000 0 0 1
26.400078 -18.771423 26.422804 41.803050 -0.618095 0.886564 0.046506 -0.013272 -370326.000000 0 0 1
27.183278 -20.021623 26.831464 43.124511 -0.634832 0.899265 0.025823 -0.010664 -193717.000000 0 0 1
26.992578 -20.498623 28.130854 44.046995 -0.649501 0.878047 0.025945 -0.004388 513348.000000 0 0 1
27.831278 -21.660623 28.413314 45.288840 -0.661358 0.892612 0.019876 -0.006969 249559.000000 0 0 1
27.135878 -22.702423 29.273314 45.920396 -0.696675 0.879574 0.023449 -0.002233 -498517.000000 0 0 1
26.933178 -22.330223 30.640384 46.506645 -0.692233 0.851522 0.039132 -0.009342 259888.000000 0 0 1
26.324778 -23.470823 31.327834 47.173156 -0.728147 0.844503 0.052596 -0.006493 49679.100000 0 0 1
25.790678 -23.334123 32.761343 47.780184 -0.735433 0.815275 0.048322 -0.006866 -5214.290000 0 0 1
25.693778 -24.579523 33.411798 48.792125 -0.763238 0.816497 0.044988 -0.010936 -21830.300000 0 0 1
25.195778 -24.483923 -33.539879 48.571732 -0.771070 2.333008 0.073244 -0.014750 -593442.000000 0 0 1
24.880878 -25.873573 -32.874139 48.674520 -0.804954 2.312286 0.063459 -0.012850 1490020.000000 0 0 1
23.615178 -26.555933 -33.176979 48.616932 -0.843946 2.321859 0.080728 -0.017947 1196770.000000 0 0 1
23.455778 -26.946133 33.753360 49.148315 -0.854538 0.813767 0.077267 -0.019423 -686174.000000 0 0 1
22.138678 -27.669563 33.570689 48.813082 -0.895989 0.812426 0.103345 -0.023584 -416942.000000 0 0 1
22.158578 -29.029943 33.945524 49.860192 -0.918837 0.821923 0.093309 -0.024811 516636.000000 0 0 1
20.824878 -29.533063 33.922833 49.564462 -0.956631 0.816991 0.130228 -0.031770 373557.000000 0 0 1
20.813978 -31.042313 34.122008 50.607888 -0.980142 0.830857 0.100238 -0.030942 -163860.000000 0 0 1
21.225878 -31.609973 -32.891099 50.314537 -0.979460 2.283273 0.063963 -0.025216 665757.000000 0 0 1
22.597878 -31.990963 -32.972769 51.198528 -0.955799 2.270535 0.030594 -0.010008 97998.500000 0 0 1
23.258878 -32.680413 -31.770319 51.169697 -0.952256 2.240663 0.013033 -0.010195 325843.000000 0 0 1
24.594078 -33.184113 -31.958699 52.224634 -0.932990 2.229316 0.002718 -0.001028 881330.000000 0 0 1
25.023578 -33.789433 -30.735549 52.082427 -0.933355 2.202020 -0.003599 0.008116 153535.000000 0 0 1
25.951978 -32.980353 -29.793219 51.466928 -0.904099 2.188152 -0.006314 0.008657 -288299.000000 0 0 1
26.212778 -33.652653 -28.555579 51.332561 -0.909041 2.160706 0.014017 0.006693 -92175.200000 0 0 1
26.940478 -32.761153 -27.737029 50.679633 -0.882587 2.149933 0.019382 0.003843 -399205.000000 0 0 1
27.332778 -33.535663 -26.458819 50.712824 -0.886954 2.119684 0.034846 -0.003134 -362754.000000 0 0 1
28.315678 33.726571 -26.641919 51.468933 0.872391 2.114876 0.033807 0.017645 -430414.000000 0 0 1
29.559878 -34.068517 -26.105509 52.114756 -0.856139 2.095462 0.044422 0.000767 232511.000000 0 0 1
-27.263472 -29.652364 9.340571 41.349799 0.827346 1.342938 0.041794 -0.023308 -280914.000000 0 0 1
-27.309622 -30.904764 9.952471 42.426072 0.847077 1.334006 0.046226 -0.021174 -319553.000000 0 0 1
-26.052822 -31.341264 10.396471 42.060801 0.877281 1.321030 0.047432 -0.027593 -325697.000000 0 0 1
-26.109072 -32.675964 11.232571 43.307885 0.896647 1.308431 0.046340 -0.024296 178487.000000 0 0 1
-26.509492 -33.848564 10.575571 44.275514 0.906396 1.329606 0.053849 -0.024039 -143011.000000 0 0 1
-27.078682 33.414577 11.427271 44.501365 -0.889755 1.311102 0.040567 -0.019106 -146449.000000 0 0 1
-26.664462 31.982577 11.134971 43.102974 -0.875831 1.309499 0.056435 -0.014866 95868.000000 0 0 1
-27.017232 31.525477 9.840871 42.668833 -0.862254 1.338067 0.078601 -0.026267 -116617.000000 0 0 1
-26.561402 30.223877 9.712971 41.392423 -0.849806 1.333932 0.092168 -0.023678 -96603.800000 0 0 1
-26.014492 29.942577 8.297971 40.523673 -0.855481 1.364569 0.077226 -0.023779 -100132.000000 0 0 1
-24.674722 29.510377 8.302771 39.352767 -0.874406 1.358216 0.071229 -0.015030 -96417.600000 0 0 1
-24.087322 29.455277 7.001671 38.688963 -0.885320 1.388820 0.062243 -0.018011 517714.000000 0 0 1
-22.588922 28.998077 7.029071 37.423999 -0.909005 1.381852 0.090588 -0.013448 555104.000000 0 0 1
-22.400922 27.588177 7.079571 36.235744 -0.888796 1.374156 0.075352 -0.017316 -44553.500000 0 0 1
-23.067822 26.903277 6.049971 35.951535 -0.862001 1.401710 0.066493 -0.022965 -580634.000000 0 0 1
-23.331022 25.388177 6.396271 35.068624 -0.827598 1.387377 0.068496 -0.021971 -724634.000000 0 0 1
-24.427422 25.180577 7.242871 35.822055 -0.800579 1.367202 0.078864 -0.023235 -25134.000000 0 0 1
-24.577322 23.795877 7.408371 35.002464 -0.769245 1.357531 0.074582 -0.029573 78476.800000 0 0 1
-25.341972 23.054077 6.258071 34.826276 -0.738159 1.390121 0.057356 -0.037368 -1280990.000000 0 0 1
-26.702462 23.244977 6.072671 35.919741 -0.716286 1.400918 0.053458 -0.034829 -649067.000000 0 0 1
-27.187742 22.624277 4.893971 35.706893 -0.694039 1.433304 0.041637 -0.030957 7782.070000 0 0 1
-26.945782 23.382277 3.577371 35.855315 -0.714711 1.470858 0.026529 -0.032007 -568563.000000 0 0 1
-25.569692 23.557177 3.284271 34.921858 -0.744455 1.476611 0.033180 -0.029866 210641.000000 0 0 1
-25.434812 24.444277 2.190771 35.344757 -0.765542 1.508774 0.034966 -0.033896 484851.000000 0 0 1
-23.930822 24.742477 1.904871 34.474671 -0.802072 1.515514 0.053586 -0.029007 391191.000000 0 0 1
-23.695722 25.830277 1.039671 35.068096 -0.828471 1.541145 0.039040 -0.035879 -332309.000000 0 0 1
-22.424522 26.441377 1.126071 34.688235 -0.867415 1.538328 0.059995 -0.032910 73487.600000 0 0 1
-21.856622 26.857777 -0.286629 34.628518 -0.887703 1.579074 0.072792 -0.029871 192405.000000 0 0 1
-21.538622 25.929577 -1.305529 33.733657 -0.877639 1.609507 0.063019 -0.027750 -149116.000000 0 0 1
-20.423322 25.118177 -1.034529 32.389893 -0.888125 1.602742 0.057232 -0.035689 -122200.000000 0 0 1
-19.938222 24.262477 -2.231429 31.483008 -0.882920 1.641733 0.070738 -0.046836 -579266.000000 0 0 1
-20.952622 23.410377 -2.632929 31.527614 -0.840743 1.654406 0.058476 -0.045950 -348956.000000 0 0 1
-20.520822 22.346477 -3.458529 30.535727 -0.827961 1.684302 0.060134 -0.038685 -93152.100000 0 0 1
-21.755622 21.676177 -4.090429 30.982178 -0.783569 1.703208 0.054718 -0.033201 -11699.600000 0 0 1
-22.106222 22.420577 -5.241429 31.919272 -0.792458 1.735752 0.039042 -0.023767 -814973.000000 0 0 1
-23.386922 22.066777 -5.651629 32.647078 -0.756363 1.744786 0.038742 -0.016534 -406348.000000 0 0 1
-23.676622 22.614777 -7.013029 33.484222 -0.762464 1.781801 0.033013 -0.008187 -4374.820000 0 0 1
-22.817622 22.087077 -8.001629 32.749182 -0.769131 1.817626 0.038704 -0.015727 13605.500000 0 0 1
-22.826322 23.001377 -9.059329 33.647820 -0.789218 1.843400 0.029314 -0.019196 55811.100000 0 0 1
-22.068522 22.470777 -10.320629 33.143187 -0.794429 1.887457 0.023188 -0.017187 -338363.000000 0 0 1
-22.767422 21.535377 -11.033629 33.224523 -0.757596 1.909318 0.009771 -0.014178 -637698.000000 0 0 1
-22.024122 21.013377 -12.082429 32.750711 -0.761917 1.948644 0.008296 -0.010095 -386142.000000 0 0 1
-22.854922 20.682977 -13.310929 33.575494 -0.735553 1.978441 -0.009337 -0.011307 -123819.000000 0 0 1
-23.760422 19.622777 -13.250829 33.543934 -0.690311 1.976896 0.002168 -0.004797 86307.800000 0 0 1
-24.694122 19.524977 -14.316629 34.583092 -0.669028 1.997616 0.011450 -0.006464 410639.000000 0 0 1
-25.402462 18.128477 -14.239629 34.302971 -0.619829 1.998864 0.044799 -0.014947 559694.000000 0 0 1
-24.681022 17.097477 -14.988729 33.557988 -0.605835 2.033816 0.036340 -0.019089 537460.000000 0 0 1
-25.504172 15.957277 -15.222829 33.716939 -0.559083 2.039230 0.081667 -0.035077 325512.000000 0 0 1
-24.984022 15.082377 -16.390929 33.471510 -0.543122 2.082540 0.088686 -0.023825 299623.000000 0 0 1
-23.872622 14.296577 -15.999629 32.098011 -0.539588 2.092620 0.092041 -0.024786 99220.900000 0 0 1
-23.418822 13.541577 -17.141229 32.025572 -0.524262 2.135583 0.109352 -0.038735 -399150.000000 0 0 1
-22.375222 12.455377 -16.967729 30.719551 -0.507942 2.155969 0.122368 -0.027319 226449.000000 0 0 1
-21.179622 13.031277 -16.439329 29.810101 -0.551575 2.154920 0.105518 -0.029459 593578.000000 0 0 1
-20.091122 12.125477 -16.290229 28.566623 -0.543007 2.177611 0.093494 -0.033420 518776.000000 0 0 1
-18.854522 12.742877 -15.579229 27.578729 -0.594335 2.171109 0.088259 -0.028985 117503.000000 0 0 1
-18.085822 13.570277 -16.422329 27.945344 -0.643710 2.198959 0.073808 -0.018634 251030.000000 0 0 1
-17.077522 14.292877 -15.740529 27.270723 -0.696864 2.186086 0.077652 -0.000840 88099.600000 0 0 1
-16.383822 15.350177 -16.588429 27.914755 -0.752838 2.207133 0.043179 0.008045 -357674.000000 0 0 1
-15.898522 14.941977 -17.816629 28.168386 -0.754392 2.255579 0.068140 -0.004050 215737.000000 0 0 1
-14.979422 15.931877 -18.313629 28.523618 -0.816201 2.267967 0.039903 -0.003973 184643.000000 0 0 1
-14.064922 15.306077 -19.366729 28.410706 -0.827631 2.320839 0.031272 -0.003728 145279.000000 0 0 1
-13.102922 14.437677 -18.772829 27.065701 -0.833825 2.337274 0.031960 -0.004095 -138885.000000 0 0 1
-11.911922 14.402277 -19.536529 27.036927 -0.879756 2.378334 0.043355 -0.013252 197668.000000 0 0 1
-11.103322 13.130277 -19.373429 25.904009 -0.868846 2.415679 0.030673 -0.014877 -330998.000000 0 0 1
-11.660522 12.095277 -20.100229 26.196998 -0.803697 2.445373 0.048943 -0.002888 -420211.000000 0 0 1
-11.017222 10.871377 -19.949629 25.249826 -0.778735 2.481752 0.021018 0.003283 -413981.000000 0 0 1
-11.410222 9.704077 -20.879429 25.696553 -0.704768 2.519290 0.039651 -0.003905 -47488.800000 0 0 1
-10.887422 9.837877 -22.194229 26.606457 -0.734801 2.557417 0.052172 -0.005889 -220194.000000 0 0 1
-11.299022 8.851877 -23.035129 27.141127 -0.664549 2.584350 0.058365 0.007416 -355042.000000 0 0 1
-11.004922 8.895977 -24.503929 28.296453 -0.679820 2.617887 0.058441 -0.009593 92069.400000 0 0 1
-9.639222 8.645377 -24.805729 27.981803 -0.731097 2.660511 0.052638 -0.008244 1194.570000 0 0 1
-9.507422 8.051077 -26.088609 28.910663 -0.702645 2.696074 0.025989 -0.013608 -524496.000000 0 0 1
-9.276622 9.001977 -27.244339 30.155353 -0.770374 2.698584 0.059309 -0.015938 5794.650000 0 0 1
-8.037122 9.680877 -27.414979 30.164479 -0.877907 2.711314 0.042750 -0.015306 358719.000000 0 0 1
-7.909522 10.814677 -26.496089 29.691084 -0.939326 2.673415 0.022793 -0.006158 -307652.000000 0 0 1
-6.514822 11.460577 -26.547159 29.640165 -1.053895 2.680683 0.022517 -0.003189 -231947.000000 0 0 1
-6.200722 12.131677 -27.772519 30.934436 -1.098294 2.685514 0.027876 -0.017473 -213877.000000 0 0 1
-4.877522 12.571077 -27.686919 30.795903 -1.200681 2.688381 0.041635 -0.008449 -795856.000000 0 0 1
-4.284622 12.981877 -29.049529 32.105486 -1.252007 2.701742 0.050376 -0.012918 -75874.100000 0 0 1
-2.881522 12.801277 -29.017889 31.846723 -1.349390 2.716920 0.064537 -0.021487 58794.700000 0 0 1
-2.322122 12.520377 -30.306409 32.872945 -1.387413 2.743819 0.069191 -0.019055 1028310.000000 0 0 1
-0.767522 12.330377 -30.196849 32.626323 -1.508630 2.753246 0.078248 -0.021440 183787.000000 0 0 1
-0.350122 11.167177 -29.559919 31.600905 -1.539454 2.780224 0.065453 -0.007901 505958.000000 0 0 1
1.071178 11.013277 -29.591479 31.592646 1.473839 2.783757 0.079011 -0.011357 679738.000000 0 0 1
1.703178 10.469577 -30.868809 32.640408 1.409530 2.810611 0.088574 -0.018156 -631600.000000 0 0 1
1.594078 11.334477 -31.969699 33.956930 1.431073 2.797785 0.093177 -0.030339 257997.000000 0 0 1
1.906378 10.576277 -33.137099 34.836177 1.392461 2.827984 0.094613 -0.027778 -84606.600000 0 0 1
1.998478 11.428577 33.823130 35.757662 1.397680 0.330443 0.089895 -0.033942 -372610.000000 0 0 1
3.247778 12.058977 33.782836 36.017315 1.307714 0.354094 0.092022 -0.036197 -249033.000000 0 0 1
3.192378 12.752477 32.599137 35.149974 1.325503 0.383315 0.091274 -0.032624 45687.800000 0 0 1
4.581878 13.147577 32.046284 34.940188 1.235462 0.409863 0.106824 -0.030890 -276009.000000 0 0 1
5.245978 11.968577 31.650294 34.241908 1.157704 0.391561 0.089264 -0.033440 446889.000000 0 0 1
6.591178 12.264777 31.255874 34.216927 1.077673 0.419083 0.096099 -0.023563 356539.000000 0 0 1
7.289678 11.056977 30.657334 33.395633 0.987923 0.407778 0.091109 -0.018420 -277803.000000 0 0 1
6.981278 10.728377 29.317554 31.989925 0.993908 0.411649 0.073758 -0.026004 332.848000 0 0 1
7.862278 9.726477 28.876194 31.468307 0.890992 0.408726 0.081866 -0.027402 134720.000000 0 0 1
7.292178 8.832377 27.745134 30.016316 0.880628 0.391507 0.059107 -0.017787 258981.000000 0 0 1
6.474778 7.775777 28.252294 30.009625 0.876440 0.343917 0.057209 -0.020181 -43975.000000 0 0 1
5.861778 7.016277 27.255584 28.748138 0.874808 0.323648 0.065332 -0.026642 -183719.000000 0 0 1
4.977778 5.907077 27.823124 28.875562 0.870567 0.270817 0.071687 -0.041687 -276174.000000 0 0 1
5.768478 4.878477 28.406724 29.394164 0.702000 0.259934 0.051206 -0.030381 232029.000000 0 0 1
5.051278 3.898477 29.130454 29.821081 0.657295 0.215634 0.057353 -0.030464 301988.000000 0 0 1
6.029678 2.836777 29.806944 30.542728 0.439745 0.219944 0.062322 -0.018171 701458.000000 0 0 1
6.285278 1.708177 28.973124 29.696204 0.265365 0.221128 0.062717 -0.027861 -370908.000000 0 0 1
7.577078 1.196077 29.097014 30.091177 0.156563 0.257767 0.062188 -0.022724 -878547.000000 0 0 1
7.812078 -0.118123 28.322154 29.380043 -0.015119 0.269166 0.054762 -0.028726 -419729.000000 0 0 1
7.567378 -1.238723 29.115364 30.108206 -0.162253 0.257521 0.036110 -0.035652 35792.200000 0 0 1
7.657178 -2.479623 28.458454 29.574728 -0.313173 0.275623 0.048753 -0.035678 -553828.000000 0 0 1
8.227078 -3.579723 29.396564 30.735276 -0.410407 0.296230 0.031436 -0.022637 578241.000000 0 0 1
9.596478 -3.445923 29.751994 31.450722 -0.344743 0.330169 0.026100 -0.027240 444520.000000 0 0 1
10.545678 -3.908923 28.788024 30.906979 -0.354965 0.372444 0.038493 -0.016382 -312451.000000 0 0 1
11.978978 -3.856223 29.362924 31.946012 -0.311440 0.404899 0.027983 -0.017661 -186236.000000 0 0 1
12.811778 -4.792023 28.715974 31.807425 -0.357922 0.444543 0.042486 -0.020425 -178822.000000 0 0 1
12.961178 -6.065023 29.376944 32.676926 -0.437670 0.453288 0.057469 -0.021706 -312810.000000 0 0 1
12.156378 -7.250023 28.788044 32.079461 -0.537766 0.456960 0.071126 -0.020784 -263802.000000 0 0 1
10.773178 -7.153723 28.950504 31.707551 -0.586176 0.420101 0.068035 -0.020534 -521516.000000 0 0 1
10.055878 -8.341523 28.625694 31.466364 -0.692482 0.428178 0.071774 -0.015274 1136420.000000 0 0 1
8.521578 -8.044423 28.426384 30.747184 -0.756603 0.391022 0.069675 -0.014067 928080.000000 0 0 1
7.898078 -7.807723 29.703614 31.711904 -0.779645 0.357797 0.071046 -0.017609 1324240.000000 0 0 1
6.478478 -7.547423 29.522514 31.153059 -0.861463 0.324970 0.056655 -0.016051 1227920.000000 0 0 1
5.813478 -6.907423 30.713134 32.012585 -0.871183 0.285900 0.051945 -0.017547 -93983.200000 0 0 1
6.016278 -7.637523 31.888974 33.338177 -0.903584 0.295934 0.057319 -0.014899 -86215.300000 0 0 1
5.314078 -7.079223 32.973191 34.140682 -0.926874 0.262271 0.059914 -0.017350 -329368.000000 0 0 1
5.874678 -5.853223 33.676731 34.682766 -0.783569 0.241446 0.063561 -0.019670 -68484.500000 0 0 1
5.991578 -4.754423 32.818255 33.697795 -0.670776 0.228977 0.066092 -0.018971 -208665.000000 0 0 1
6.580678 -3.650423 33.497349 34.332249 -0.506458 0.220986 0.056465 -0.015728 53830.700000 0 0 1
6.715278 -2.410823 32.606057 33.377567 -0.344675 0.215426 0.043392 -0.017942 -453478.000000 0 0 1
5.512378 -1.834623 32.189784 32.709851 -0.321287 0.178559 0.066024 -0.023040 -635896.000000 0 0 1
5.666778 -0.634323 31.496674 32.008674 -0.111473 0.179100 0.056765 -0.019592 -1157610.000000 0 0 1
4.383578 0.002877 31.014794 31.323046 0.000656 0.140408 0.076104 -0.023181 -673484.000000 0 0 1
3.546978 0.415677 32.083744 32.281891 0.116660 0.110854 0.079690 -0.024948 -255435.000000 0 0 1
2.377378 1.042577 31.641334 31.747644 0.413284 0.081859 0.092753 -0.025689 -606926.000000 0 0 1
1.254578 1.110477 32.653256 32.696212 0.724544 0.051265 0.090870 -0.034491 -348940.000000 0 0 1
1.667878 1.955777 33.760739 33.858446 0.864682 0.075989 0.076391 -0.025235 879585.000000 0 0 1
0.727178 1.940077 -33.389079 33.453300 1.212184 3.079619 0.065185 -0.021217 258367.000000 0 0 1
1.139478 2.942977 -32.277089 32.431003 1.201386 3.044128 0.059722 -0.012242 -134449.000000 0 0 1
2.221178 2.509877 -31.497539 31.675354 0.846345 3.035584 0.048751 -0.010125 -282340.000000 0 0 1
2.805578 3.598677 -30.849759 31.185403 0.908610 2.994744 0.037346 -0.002899 -572733.000000 0 0 1
3.926678 3.105477 -29.943949 30.359559 0.669147 2.975937 0.040662 -0.006014 -311309.000000 0 0 1
3.409278 2.444977 -28.793359 29.097398 0.622146 2.996905 0.048682 -0.018442 1146650.000000 0 0 1
4.487178 2.237177 -27.830269 28.278324 0.462504 2.963343 0.062296 -0.025988 646674.000000 0 0 1
4.104078 1.595477 -26.514629 26.877770 0.370774 2.977024 0.058844 -0.029939 -238469.000000 0 0 1
3.984278 0.151477 -26.538869 26.836709 0.038000 2.992470 0.071397 -0.032999 99057.200000 0 0 1
3.596178 -0.336223 -25.315639 25.571998 -0.093223 2.999876 0.078622 -0.034715 -363073.000000 0 0 1
3.970678 -1.789223 -25.048599 25.424396 -0.423360 2.969444 0.072960 -0.037772 514501.000000 0 0 1
5.374178 -1.938223 -24.839929 25.488440 -0.346135 2.915531 0.061260 -0.037309 103853.000000 0 0 1
5.771178 -3.269423 -24.987729 25.853089 -0.515429 2.882129 0.059047 -0.037426 -83384.100000 0 0 1
7.240878 -3.550623 -24.606429 25.894277 -0.455904 2.824882 0.059741 -0.035402 -63917.600000 0 0 1
8.174578 -2.853823 -25.344179 26.782372 -0.335881 2.812391 0.045203 -0.031771 169145.000000 0 0 1
9.508678 -3.326123 -25.046129 26.996048 -0.336495 2.759188 0.033340 -0.023553 808223.000000 0 0 1
-29.806112 -4.234023 17.497464 34.820863 0.141108 1.044309 0.142827 -0.031255 -94709.900000 0 0 1
-31.176472 -3.985423 17.638664 36.041344 0.127145 1.059394 0.153303 -0.031395 -472448.000000 0 0 1
-31.810332 -5.041623 18.370064 37.077951 0.157183 1.052450 0.143341 -0.033859 -228596.000000 0 0 1
-33.178912 -4.654423 18.913264 38.473568 0.139373 1.056880 0.126670 -0.030512 -320905.000000 0 0 1
-34.181284 -4.658423 17.927364 38.877390 0.135451 1.091533 0.110408 -0.033974 65268.700000 0 0 1
-35.487285 -4.879623 18.448864 40.292911 0.136647 1.095200 0.082630 -0.019844 470487.000000 0 0 1
36.447946 -4.824823 17.295464 40.630835 -0.131611 1.131090 0.061021 -0.018782 1062890.000000 0 0 1
35.151646 -5.126623 17.878064 39.768651 -0.144822 1.104533 0.039079 -0.006117 977544.000000 0 0 1
34.176836 -5.063823 16.816764 38.425278 -0.147095 1.117815 0.026225 -0.007847 1119480.000000 0 0 1
32.752786 -5.590523 17.213964 37.420843 -0.169059 1.092790 0.023969 0.000778 213977.000000 0 0 1
32.141886 -4.960023 18.260264 37.297988 -0.153109 1.059191 0.030407 -0.001960 -819185.000000 0 0 1
30.916226 -5.555923 18.505664 36.457385 -0.177811 1.038403 0.037924 -0.004889 -791663.000000 0 0 1
30.343276 -5.062423 19.864564 36.618894 -0.165316 0.997425 0.038298 0.006585 -172073.000000 0 0 1
29.431756 -3.975023 19.870564 35.733295 -0.134247 0.981135 0.054986 -0.002220 334883.000000 0 0 1
29.955316 -2.688823 19.456764 35.820614 -0.089521 0.996586 0.059088 -0.005141 -85560.900000 0 0 1
28.933556 -1.538723 19.574864 34.967036 -0.053131 0.976641 0.055818 -0.000778 -288528.000000 0 0 1
29.470326 -0.271023 19.317264 35.238193 -0.009196 0.990596 0.064038 -0.009130 526148.000000 0 0 1
28.514316 0.707377 19.776964 34.708715 0.024803 0.964536 0.064802 -0.008353 658209.000000 0 0 1
28.895566 2.184177 19.396664 34.870545 0.075445 0.980933 0.053906 -0.004408 171276.000000 0 0 1
28.963656 2.290977 17.962564 34.158391 0.078934 1.017069 0.038711 -0.005971 104766.000000 0 0 1
28.683426 3.564277 17.479264 33.778213 0.123629 1.026903 0.034553 0.001050 94740.900000 0 0 1
28.547536 3.555977 15.953664 32.895686 0.123925 1.064459 0.034405 -0.005530 -147867.000000 0 0 1
28.091766 4.757677 15.357064 32.366993 0.167770 1.076438 0.041848 -0.005931 298127.000000 0 0 1
27.844716 4.596177 13.977364 31.493170 0.163590 1.110937 0.041105 -0.007145 -449244.000000 0 0 1
27.464216 5.929577 13.327964 31.097872 0.212638 1.127874 0.040149 -0.005192 251972.000000 0 0 1
26.255916 6.446577 13.879564 30.390357 0.240766 1.096503 0.047164 -0.010653 420563.000000 0 0 1
25.910216 7.668477 13.173264 30.061266 0.287749 1.117186 0.053943 -0.024294 -340554.000000 0 0 1
24.558616 8.202377 13.704164 29.295200 0.322343 1.084001 0.059547 -0.026830 463824.000000 0 0 1
23.348816 7.613077 13.234964 27.897857 0.315189 1.076505 0.059222 -0.015838 824984.000000 0 0 1
23.007516 6.447977 13.994264 27.690461 0.273245 1.040972 0.073328 -0.010838 -809365.000000 0 0 1
21.594816 5.924377 13.697664 26.249958 0.267755 1.021817 0.088587 -0.015838 -450883.000000 0 0 1
21.438916 5.538677 12.376664 25.367023 0.252819 1.061110 0.109445 -0.030261 464536.000000 0 0 1
20.217016 4.872377 12.126064 24.072998 0.236494 1.042896 0.106902 -0.028945 -92076.500000 0 1 0
19.782916 4.708677 10.640064 22.950956 0.233669 1.088742 0.112236 -0.030927 -78939.100000 0 1 0
20.744316 3.954577 9.926664 23.334609 0.188374 1.131387 0.115411 -0.032693 489287.000000 0 1 0
20.376616 3.846577 8.583964 22.442974 0.186578 1.178319 0.127786 -0.034465 -8690.980000 0 1 0
21.447916 3.156177 7.708264 23.008518 0.146107 1.229172 0.110953 -0.026825 -883940.000000 0 1 0
21.631716 1.788677 8.022164 23.140562 0.082500 1.216777 0.100860 -0.030049 1570190.000000 0 1 0
22.636316 0.997877 7.272664 23.796853 0.044055 1.260213 0.087914 -0.019570 1641170.000000 0 1 0
24.144316 1.434177 7.371364 25.285210 0.059330 1.274972 0.074995 -0.020326 590097.000000 0 0 1
24.919716 1.064277 8.518664 26.357021 0.042682 1.241684 0.061691 -0.002442 974996.000000 0 0 1
24.653616 1.919177 9.635064 26.538999 0.077689 1.199254 0.057529 -0.007661 -431239.000000 0 0 1
25.364216 1.314577 10.837064 27.613647 0.051782 1.167499 0.037742 0.001003 958720.000000 0 0 1
26.805716 1.408877 10.879764 28.963781 0.052511 1.185716 0.039045 -0.000644 1162650.000000 0 0 1
27.291216 0.755577 11.986764 29.817174 0.027679 1.157087 0.036546 -0.000420 -492007.000000 0 0 1
28.825816 0.730377 12.030764 31.244206 0.025332 1.175528 0.064973 -0.006604 -387857.000000 0 0 1
29.377406 1.944077 12.485864 31.979809 0.066080 1.169698 0.055343 -0.001487 -44184.300000 0 0 1
30.779466 1.783577 12.398164 33.230575 0.057882 1.188454 0.052356 -0.003337 -46066.100000 0 0 1
31.540216 3.034677 12.901464 34.211727 0.095921 1.184126 0.052778 -0.015571 -389333.000000 0 0 1
31.329476 4.172677 12.029264 33.817902 0.132408 1.207126 0.061071 -0.015263 605586.000000 0 0 1
32.247186 5.261777 12.249864 34.894505 0.161745 1.212100 0.057246 -0.016053 27853.900000 0 0 1
33.622666 5.144277 11.616764 35.942961 0.151823 1.241687 0.067116 -0.015685 -237272.000000 0 0 1
34.503596 4.238677 12.298164 36.874237 0.122235 1.230765 0.057304 -0.020128 1061080.000000 0 0 1
35.826216 4.192277 11.760164 37.939351 0.116487 1.255632 0.079056 -0.017836 1245160.000000 0 0 1
-36.123642 3.273977 12.524664 38.373215 -0.090386 1.238314 0.122412 -0.014439 223936.000000 0 0 1
-36.056872 1.867477 12.131364 38.088784 -0.051746 1.246647 0.103211 -0.012138 1012780.000000 0 0 1
35.832946 1.018177 12.537564 37.976667 0.028407 1.234346 0.082204 -0.011243 587639.000000 0 0 1
35.676116 0.753677 14.072064 38.358523 0.021122 1.195169 0.069338 -0.007310 198997.000000 0 0 1
-36.275862 0.001377 14.695064 39.139278 -0.000038 1.185908 0.080532 -0.013620 444043.000000 0 0 1
36.380666 -0.311723 16.025964 39.755271 -0.008568 1.155878 0.088604 -0.020823 753802.000000 0 0 1
-35.505925 -1.167323 16.787064 39.291715 0.032865 1.129356 0.088144 -0.024244 1178280.000000 0 0 1
-34.309080 -0.488123 17.205964 38.384846 0.014226 1.105991 0.114207 -0.028032 479881.000000 0 0 1
-33.550912 -1.149723 18.191464 38.182652 0.034255 1.074203 0.113751 -0.027276 136561.000000 0 0 1
-34.077447 -1.053523 19.681164 39.366617 0.030906 1.047260 0.122115 -0.029537 -567596.000000 0 0 1
-35.172988 -1.891123 19.931064 40.471752 0.053715 1.055873 0.088337 -0.028255 -347730.000000 0 0 1
-35.573651 -1.768023 21.285864 41.493356 0.049659 1.032127 0.085163 -0.027336 -55394.500000 0 0 1
-35.756938 -3.128123 22.017564 42.108394 0.087261 1.020572 0.052395 -0.024270 -574801.000000 0 0 1
-34.632470 -3.967523 21.963864 41.201463 0.114064 1.008554 0.079313 -0.026169 -167674.000000 0 0 1
-34.814760 -5.190423 22.672264 41.869315 0.147997 0.998575 0.072061 -0.020274 128676.000000 0 0 1
-35.022811 -5.242623 24.191014 42.886916 0.148588 0.971496 0.060528 -0.029051 1323310.000000 0 0 1
-33.735202 -5.063423 24.847254 42.202940 0.148981 0.941277 0.073502 -0.034171 951980.000000 0 0 1
-33.863852 -5.031323 26.273084 43.154949 0.147496 0.916239 0.070984 -0.041786 48390.700000 0 0 1
-32.804962 -4.148623 26.952204 42.659089 0.125795 0.886917 0.079392 -0.031915 -29502.900000 0 0 1
-32.777492 -2.744523 26.715514 42.374698 0.083537 0.888652 0.072751 -0.023811 -299896.000000 0 0 1
-32.268302 -2.354023 25.458404 41.169346 0.072823 0.904113 0.066751 -0.026088 -367208.000000 0 0 1
-32.065232 -0.810123 25.411234 40.921464 0.025259 0.900809 0.079181 -0.027622 -810953.000000 0 0 1
-33.220362 -0.073423 25.512104 41.886338 0.002210 0.915897 0.074908 -0.031190 -1012640.000000 0 0 1
-33.127652 1.046777 24.669924 41.317578 -0.031588 0.930939 0.092463 -0.020390 326624.000000 0 0 1
-34.455647 1.801877 24.348464 42.228972 -0.052248 0.956257 0.090768 -0.016473 40547.100000 0 0 1
-35.239525 1.131077 23.418034 42.326207 -0.032086 0.984506 0.080032 -0.010375 335111.000000 0 0 1
36.489586 1.719577 23.114464 43.228755 0.047090 1.006642 0.075966 -0.001751 549416.000000 0 0 1
-36.342572 2.817577 22.036764 42.595073 -0.077374 1.027039 0.090720 -0.006901 -144670.000000 0 0 1
-35.848278 2.318377 20.833764 41.527336 -0.064582 1.045247 0.121569 -0.026925 180422.000000 0 0 1
-36.395822 3.067177 19.769564 41.531905 -0.084074 1.074685 0.104588 -0.019326 82637.500000 0 0 1
-35.826490 2.548977 18.418064 40.364090 -0.071028 1.096966 0.121132 -0.024454 575386.000000 0 0 1
-34.598466 3.155777 18.000764 39.128510 -0.090960 1.092754 0.143446 -0.024651 400050.000000 0 0 1
-34.165606 2.535177 16.811164 38.161905 -0.074067 1.114616 0.155203 -0.029337 60736.000000 0 0 1
-33.118692 3.391177 16.045264 36.956709 -0.102039 1.121687 0.149219 -0.028457 42101.800000 0 0 1
-33.601552 4.629877 15.576164 37.324482 -0.136925 1.140305 0.157516 -0.036316 -334108.000000 0 0 1
-32.723672 5.226177 14.698264 36.251767 -0.158369 1.153326 0.159762 -0.027700 -488916.000000 0 0 1
-33.343452 6.558177 14.151964 36.811324 -0.194207 1.176189 0.172251 -0.042097 141581.000000 0 0 1
-32.537532 7.090777 13.137264 35.798852 -0.214571 1.195042 0.176360 -0.031526 -124827.000000 0 0 1
-32.986982 8.361477 12.769364 36.347104 -0.248249 1.211819 0.156377 -0.033151 -168460.000000 0 0 1
-31.982322 9.219677 11.961664 35.368811 -0.280665 1.225795 0.165307 -0.033694 183758.000000 0 0 1
-32.421892 10.558577 11.684264 36.044204 -0.314831 1.240668 0.146013 -0.025851 185038.000000 0 0 1
-31.407822 11.175477 10.908064 35.076038 -0.341849 1.254569 0.127423 -0.025642 163268.000000 0 0 1
-31.621232 12.666277 10.630664 35.684001 -0.380991 1.268293 0.121860 -0.021942 -106430.000000 0 0 1
-30.748132 13.262577 9.711464 34.866260 -0.407220 1.288528 0.107922 -0.020002 -213251.000000 0 0 1
-30.933132 14.660777 9.715564 35.583553 -0.442592 1.294250 0.083090 -0.010932 260215.000000 0 0 1
-30.081942 15.478377 8.693564 34.929664 -0.475212 1.319265 0.083073 -0.011366 1382710.000000 0 0 1
-28.651772 15.501977 8.901864 33.770972 -0.495944 1.304049 0.087737 -0.001766 1037710.000000 0 0 1
-27.988142 16.420377 8.071564 33.438227 -0.530576 1.327001 0.057485 -0.011047 1786760.000000 0 0 1
-26.451772 16.630377 8.507864 32.382857 -0.561260 1.304948 0.053793 -0.002720 1590850.000000 0 0 1
-26.225932 17.314377 9.739564 32.900551 -0.583513 1.270262 0.040000 -0.003002 -202191.000000 0 0 1
-26.703962 18.595277 9.931764 34.022432 -0.608271 1.274565 0.051017 -0.014611 -313695.000000 0 0 1
-26.677642 18.937877 11.431564 34.655742 -0.617325 1.234640 0.064363 -0.004368 -355021.000000 0 0 1
-25.401502 19.164477 11.957064 33.992424 -0.646351 1.211349 0.050983 0.000363 -538508.000000 0 0 1
-25.385432 19.585077 13.338864 34.726369 -0.657125 1.176549 0.047834 -0.008349 -90368.000000 0 0 1
-25.828962 18.598077 14.488864 34.970715 -0.624054 1.143607 0.041956 -0.006757 -120570.000000 0 0 1
-25.088312 17.419477 14.560764 33.836038 -0.606908 1.125935 0.048161 -0.012316 -20264.500000 0 0 1
-25.617632 16.579077 15.624864 34.282142 -0.574386 1.097556 0.047505 -0.008452 -205626.000000 0 0 1
-24.679922 15.419377 16.034964 33.226132 -0.558437 1.067174 0.043233 -0.008986 -279867.000000 0 0 1
-23.576822 15.947277 16.734664 33.018649 -0.594708 1.039299 0.038365 -0.010270 -65529.900000 0 0 1
-22.529622 15.020177 16.995864 31.969501 -0.588016 1.010275 0.026195 -0.024633 237315.000000 0 0 1
-22.873822 13.918577 18.004464 32.266070 -0.546642 0.978823 0.042793 -0.018454 -645067.000000 0 0 1
-22.834322 14.478677 19.298964 33.218795 -0.565099 0.950882 0.042592 -0.013393 223875.000000 0 0 1
-23.088522 13.402377 20.172564 33.460961 -0.525941 0.923705 0.042190 -0.011564 -812831.000000 0 0 1
-22.930822 13.662377 21.660964 34.375580 -0.537332 0.889080 0.022404 -0.004678 -231837.000000 0 0 1
-21.620422 13.804877 22.154164 33.894310 -0.568256 0.858432 0.026794 -0.010939 -83291.100000 0 0 1
-20.998022 15.008577 21.815564 33.794869 -0.620564 0.869081 0.037460 0.000424 -498425.000000 0 0 1
-19.525822 15.107277 22.334964 33.291713 -0.658502 0.835393 0.072590 -0.013202 1037230.000000 0 0 1
-18.517822 14.443677 21.573864 31.889828 -0.662419 0.827780 0.053484 -0.018134 147047.000000 0 0 1
-18.122122 15.214477 20.461464 31.281994 -0.698398 0.857808 0.054985 -0.013266 -2107330.000000 0 0 1
-17.041222 14.536177 19.590064 29.756920 -0.706234 0.852190 0.052123 -0.010417 755012.000000 0 0 1
-15.836922 14.333777 20.332864 29.490518 -0.735618 0.810038 0.046870 -0.009645 503695.000000 0 0 1
-15.110022 15.444177 20.832764 30.013987 -0.796334 0.803625 0.041279 -0.008900 -1342960.000000 0 0 1
-13.946322 15.182377 21.766464 29.979717 -0.827807 0.758251 0.025097 -0.004223 -120717.000000 0 0 1
-12.796822 14.522177 21.247564 28.742151 -0.848470 0.738844 0.013008 -0.000964 253142.000000 0 0 1
-11.754022 14.724477 22.202764 29.119238 -0.897115 0.703663 0.029458 0.008821 413072.000000 0 0 1
-10.465022 13.981377 21.767064 27.907000 -0.928258 0.676153 0.029372 0.004124 -1902160.000000 0 0 1
-10.464822 12.581677 22.095064 27.495508 -0.876993 0.637497 0.033479 -0.004293 381597.000000 0 0 1
-9.279622 11.834877 21.836864 26.514606 -0.905831 0.603105 0.037019 -0.003781 378710.000000 0 0 1
-7.922122 12.415477 22.319464 26.740654 -1.002843 0.583274 0.024238 0.002020 -622774.000000 0 0 1
-7.531022 13.502977 21.533364 26.509101 -1.062037 0.622710 0.025423 0.004398 -489922.000000 0 0 1
-6.627322 14.413777 22.138164 27.235578 -1.139830 0.621785 0.019191 0.012169 -75630.100000 0 0 1
-7.346322 15.599977 22.862964 28.636391 -1.130683 0.646182 0.023751 -0.009913 1229280.000000 0 0 1
-8.354322 16.285677 22.019464 28.633456 -1.096814 0.693503 -0.006626 0.001979 1176990.000000 0 0 1
-7.751622 16.981077 20.857564 27.990759 -1.142562 0.730023 0.007223 0.004840 -207673.000000 0 0 1
-8.781122 17.341477 19.763464 27.720560 -1.102069 0.777095 0.012029 0.009616 548166.000000 0 0 1
-9.790622 18.286377 20.036564 28.839414 -1.079227 0.802706 -0.001660 0.019156 34139.200000 0 0 1
-10.935622 17.845577 20.727764 29.456623 -1.021024 0.790246 0.002046 0.011653 -266426.000000 0 0 1
-12.153122 18.774477 20.737064 30.499266 -0.996306 0.823143 0.003851 0.008301 132314.000000 0 0 1
-13.063822 18.598977 19.655264 30.048541 -0.958465 0.857782 0.013351 0.010623 565410.000000 0 0 1
-14.283722 19.272077 19.980364 31.219427 -0.932976 0.876301 0.008258 0.006018 839397.000000 0 0 1
-15.302122 19.359977 18.778064 31.009343 -0.901937 0.920325 0.029363 0.000131 77205.800000 0 0 1
-15.884222 18.158377 18.388164 30.334135 -0.852102 0.919539 0.042168 -0.001738 -284219.000000 0 0 1
-16.407322 18.376277 17.120564 30.000025 -0.841944 0.963457 0.055077 -0.014098 -789919.000000 0 0 1
-17.208322 17.071677 16.705064 29.438541 -0.781412 0.967384 0.053270 -0.023827 889377.000000 0 0 1
-18.381422 16.684277 17.431664 30.333228 -0.737037 0.958593 0.051622 -0.015442 188862.000000 0 0 1
-19.451122 17.583277 17.401564 31.469544 -0.735005 0.984877 0.050169 -0.016958 -702972.000000 0 0 1
34.147086 -9.687723 11.552571 37.327434 -0.276442 1.256137 0.050522 -0.018864 -604537.000000 0 0 1
32.764926 -9.922323 11.475471 36.106499 -0.294054 1.247364 0.042413 -0.009390 -33923.600000 0 0 1
32.417336 -11.094623 12.215271 36.375640 -0.329748 1.228332 0.060439 -0.012282 -867920.000000 0 0 1
30.984176 -11.531523 11.991471 35.168033 -0.356291 1.222841 0.054439 -0.002362 -1161010.000000 0 0 1
30.087466 -10.605523 12.563371 34.286601 -0.338891 1.195635 0.052862 0.001413 1317250.000000 0 0 1
28.690656 -10.977023 12.669071 33.228815 -0.365416 1.179629 0.052573 -0.003643 1363700.000000 0 0 1
28.391136 -12.143523 13.710071 33.785911 -0.404174 1.152950 0.038725 -0.007247 -917094.000000 0 0 1
28.466806 -11.652623 15.103971 34.267661 -0.388533 1.114346 0.036535 -0.008332 447065.000000 0 0 1
27.577316 -12.383323 15.964471 34.186538 -0.422055 1.084923 0.040808 -0.017947 722511.000000 0 0 1
26.116316 -11.854623 16.007171 32.845450 -0.426106 1.061746 0.025629 -0.029981 -50812.700000 0 0 1
26.022416 -10.509923 16.354771 32.482351 -0.383846 1.043155 0.020635 -0.026746 96504.600000 0 0 1
25.462816 -9.668723 15.294271 31.237060 -0.362902 1.059143 0.030383 -0.020984 274237.000000 0 0 1
25.056016 -8.219923 15.732471 30.706379 -0.316999 1.032875 0.047598 -0.026286 -547299.000000 0 0 1
26.141816 -7.369923 15.852171 31.448396 -0.274789 1.042492 0.027539 -0.020477 -671090.000000 0 0 1
25.836016 -6.051423 16.267171 31.124593 -0.230077 1.020844 0.041202 -0.013805 -197229.000000 0 0 1
27.005116 -5.048923 16.204171 31.895816 -0.184828 1.037895 0.044352 -0.008924 37777.500000 0 0 1
27.531116 -4.900923 14.893371 31.682706 -0.176169 1.081416 0.052294 -0.007026 694073.000000 0 0 1
28.744046 -4.141223 14.973671 32.673854 -0.143088 1.094741 0.055455 -0.008398 432075.000000 0 0 1
29.124496 -3.439423 13.639171 32.343359 -0.117549 1.135478 0.060074 -0.007050 -219515.000000 0 0 1
29.558806 -4.325223 12.644171 32.439260 -0.145295 1.170404 0.032140 -0.000629 307387.000000 0 0 1
29.759246 -3.561423 11.491571 32.099107 -0.119108 1.204668 0.042987 -0.001088 -171054.000000 0 0 1
30.278956 -4.354323 10.273871 32.269610 -0.142828 1.246780 0.049731 -0.002208 -1132020.000000 0 0 1
31.613436 -4.706523 10.284971 33.575904 -0.147792 1.259472 0.073067 -0.010829 -684060.000000 0 0 1
31.866106 -5.413623 9.128271 33.586922 -0.168280 1.295554 0.072274 -0.011446 44716.000000 0 0 1
33.255076 -6.095323 9.003271 34.987311 -0.181278 1.310539 0.073329 -0.015192 435322.000000 0 0 1
34.336946 -5.209323 8.726171 35.809342 -0.150564 1.324634 0.080251 -0.021433 424158.000000 0 0 1
35.531086 -5.959723 8.506171 37.017986 -0.166186 1.338940 0.084788 -0.033752 673968.000000 0 0 1
-36.234682 -5.031123 8.310571 37.514397 0.137966 1.347413 0.084682 -0.032681 307715.000000 0 0 1
-36.189902 -4.584023 6.983971 37.141595 0.125995 1.381634 0.088616 -0.029881 -287796.000000 0 0 1
-35.106465 -3.725323 6.818671 35.956031 0.105719 1.380002 0.098495 -0.020592 -473529.000000 0 0 1
-35.050808 -2.946323 5.479071 35.598598 0.083861 1.416270 0.104175 -0.028057 -337252.000000 0 0 1
-34.768817 -3.765723 4.382671 35.245696 0.107887 1.446127 0.099494 -0.031034 109180.000000 0 0 1
-34.816563 -3.040923 3.218471 35.096992 0.087120 1.478965 0.091674 -0.024860 56371.800000 0 0 1
-34.188622 -3.761723 1.992471 34.452610 0.109588 1.512932 0.119824 -0.026093 340664.000000 0 0 1
-34.909508 -4.927423 1.530671 35.288754 0.140222 1.527407 0.102724 -0.020924 160039.000000 0 0 1
-35.716435 -4.670823 0.397771 36.022750 0.130037 1.559754 0.080504 -0.018012 -32025.300000 0 0 1
-34.918720 -4.644523 -0.963329 35.239418 0.132233 1.598136 0.103088 -0.014584 -569979.000000 0 0 1
-34.647759 -6.024723 -1.308029 35.191979 0.172164 1.607973 0.103573 -0.023260 -447012.000000 0 0 1
-33.565222 -6.396923 -2.066129 34.231763 0.188323 1.631190 0.094043 -0.027924 -881642.000000 0 0 1
-32.162512 -6.013223 -1.589929 32.758417 0.184830 1.619350 0.112979 -0.031245 -733774.000000 0 0 1
-31.697802 -6.953123 -0.635829 32.457678 0.215937 1.590387 0.112759 -0.027962 -262610.000000 0 0 1
-30.487082 -6.611623 -0.023729 31.195773 0.213559 1.571557 0.120354 -0.030894 -620452.000000 0 0 1
-29.988582 -7.716923 0.929371 30.979504 0.251864 1.540792 0.108797 -0.027543 -339589.000000 0 0 1
-29.521042 -8.750923 0.108771 30.790947 0.288178 1.567264 0.111622 -0.022794 248803.000000 0 0 1
-28.952352 -9.760323 0.917671 30.567052 0.325152 1.540770 0.101243 -0.024454 -98702.500000 0 0 1
-28.581432 -11.035523 0.082271 30.638012 0.368474 1.568111 0.079616 -0.021160 -14768.800000 0 0 1
-27.437342 -10.833923 -0.745529 29.508260 0.376068 1.596064 0.085611 -0.025606 408264.000000 0 0 1
-26.716152 -11.973223 -1.101129 29.297155 0.421326 1.608390 0.077159 -0.017876 -298330.000000 0 0 1
-27.362882 -13.012723 -2.107629 30.372691 0.443906 1.640244 0.073430 -0.019205 -158189.000000 0 0 1
-28.507042 -13.596123 -1.493829 31.618626 0.445029 1.618059 0.083813 -0.024888 298678.000000 0 0 1
-29.001002 -14.664823 -2.256329 32.576159 0.468170 1.640115 0.070970 -0.023821 -247943.000000 0 0 1
-30.135522 -15.417823 -1.542029 33.885643 0.472897 1.616319 0.079253 -0.018820 -448305.000000 0 0 1
-29.610282 -15.978623 -0.395029 33.648792 0.494847 1.582536 0.056392 -0.009685 -187434.000000 0 0 1
-30.368632 -16.832523 0.411071 34.724006 0.506118 1.558958 0.068277 -0.005945 -311913.000000 0 0 1
-30.736242 -18.279823 -0.157029 35.761615 0.536537 1.575187 0.070835 -0.004618 868094.000000 0 0 1
-29.637222 -19.230623 -0.087129 35.329723 0.575578 1.573262 0.083298 -0.011468 992182.000000 0 0 1
-30.057832 -20.575723 0.082071 36.425820 0.600273 1.568543 0.080232 -0.015570 -210973.000000 0 0 1
-30.871542 -21.031623 1.264171 37.376187 0.598039 1.536967 0.085702 -0.014573 -239565.000000 0 0 1
-30.091202 -21.503223 2.334771 37.058335 0.620459 1.507752 0.078149 -0.012314 227947.000000 0 0 1
-30.939812 -21.782123 3.429271 37.993325 0.613416 1.480413 0.080113 -0.017432 204095.000000 0 0 1
-30.078882 -22.068023 4.668671 37.596985 0.632969 1.446298 0.066691 -0.012294 257854.000000 0 0 1
-29.491012 -20.841023 5.168071 36.479816 0.615202 1.428649 0.055742 -0.008447 -15378.900000 0 0 1
-28.792902 -21.055823 6.358871 36.232777 0.631416 1.394382 0.041740 -0.009810 -82852.100000 0 0 1
-28.527602 -19.696523 7.052471 35.376750 0.604279 1.370098 0.041477 -0.005786 239748.000000 0 0 1
-27.737432 -19.831123 8.238371 35.078616 0.620695 1.333727 0.035738 -0.014676 -53257.500000 0 0 1
-27.413192 -18.519823 8.718871 34.212361 0.594148 1.313108 0.047842 -0.017150 101579.000000 0 0 1
-26.325762 -18.644023 9.799871 33.714727 0.616211 1.275869 0.048741 -0.016123 -40818.000000 0 0 1
-26.827452 -19.340323 10.931871 34.831969 0.624626 1.251555 0.041949 -0.020785 652225.000000 0 0 1
-25.780122 -19.575623 11.900671 34.488341 0.649446 1.218490 0.045397 -0.016057 473324.000000 0 0 1
-25.356332 -18.361823 12.766471 33.809509 0.626752 1.183593 0.048376 -0.019252 -880857.000000 0 0 1
-24.506022 -17.500123 12.067371 32.441037 0.620137 1.189657 0.058744 -0.018778 126327.000000 0 0 1
-23.862522 -16.398723 12.702071 31.617727 0.602095 1.157381 0.064673 -0.012451 501615.000000 0 0 1
-23.048022 -16.708423 14.000371 31.723699 0.627269 1.113725 0.064277 -0.013132 -669781.000000 0 0 1
-23.841522 -17.111523 15.066371 32.988148 0.622519 1.096491 0.057756 -0.020138 -336193.000000 0 0 1
-23.082822 -17.401523 16.206271 33.140200 0.645975 1.059829 0.065859 -0.021534 10869.000000 0 0 1
-23.989122 -17.991923 17.297171 34.617617 0.643503 1.047586 0.047680 -0.002555 173123.000000 0 0 1
-24.864722 -17.071423 17.901371 35.073451 0.601657 1.035150 0.065168 -0.007941 -396765.000000 0 0 1
-25.801322 -17.716623 18.705371 36.462005 0.601714 1.032109 0.042847 0.002828 -170142.000000 0 0 1
-26.785122 -16.713623 19.394671 37.053221 0.557872 1.019928 0.049717 0.000057 188805.000000 0 0 1
-26.271222 -16.029923 20.514171 36.986034 0.547864 0.982858 0.057079 -0.007017 489680.000000 0 0 1
-27.281242 -15.150523 21.034771 37.633311 0.506938 0.977689 0.062545 -0.011674 526581.000000 0 0 1
-26.763642 -14.465023 22.307071 37.724459 0.495499 0.938107 0.066921 -0.016656 526806.000000 0 0 1
-25.689812 -13.563923 22.035271 36.462304 0.485787 0.921871 0.068003 -0.017839 851520.000000 0 0 1
-24.637222 -13.558823 23.009371 36.335458 0.503103 0.885053 0.060408 -0.022734 1111230.000000 0 0 1
-23.307622 -12.883723 22.497571 34.862247 0.504966 0.869344 0.068050 -0.018226 508759.000000 0 0 1
-23.351222 -11.499023 22.290471 34.269114 0.457580 0.862615 0.080193 -0.017739 -336629.000000 0 0 1
-22.312722 -11.030523 21.493671 32.886287 0.459126 0.858497 0.074911 -0.018191 -1055690.000000 0 0 1
-22.088022 -9.534923 21.840471 32.493102 0.407514 0.833678 0.077172 -0.016647 103197.000000 0 0 1
-21.379222 -9.404423 23.073171 32.831167 0.414411 0.791495 0.082025 -0.020026 1815650.000000 0 0 1
-19.942922 -9.667123 23.010971 31.948055 0.451365 0.766616 0.067724 -0.013857 1101350.000000 0 0 1
-19.370522 -9.826523 24.417871 32.680424 0.469465 0.727001 0.060545 -0.017621 22187.800000 0 0 1
-19.714622 -11.003423 25.079671 33.745097 0.509068 0.732942 0.069014 -0.016230 -303755.000000 0 0 1
-18.901522 -11.112823 26.199471 34.163938 0.531499 0.696839 0.066617 -0.017586 -1235660.000000 0 0 1
-19.193422 -12.302823 27.091771 35.407781 0.570016 0.699544 0.069354 -0.033936 -130387.000000 0 0 1
-20.387622 -12.381523 27.838571 36.659832 0.545774 0.708444 0.077911 -0.029293 -491321.000000 0 0 1
-21.433022 -12.775623 26.987171 36.754569 0.537526 0.746230 0.067925 -0.027587 334387.000000 0 0 1
-22.742422 -13.343823 27.715071 38.254418 0.530610 0.760497 0.060558 -0.028429 1004100.000000 0 0 1
-22.757522 -14.540823 28.457771 39.232449 0.568565 0.759235 0.042498 -0.021151 -79745.400000 0 0 1
-21.875922 -14.558723 29.594071 39.576779 0.587204 0.726109 0.039225 -0.017087 340121.000000 0 0 1
-22.336622 -15.573723 30.650971 40.999360 0.608863 0.726361 0.024618 -0.015263 -232731.000000 0 0 1
-22.025122 -16.904623 30.260971 41.068219 0.654617 0.742403 0.028267 -0.009810 -190033.000000 0 0 1
-22.137522 -17.879823 31.290871 42.295113 0.679401 0.737990 0.027517 -0.013170 -356525.000000 0 0 1
-23.500022 -18.169723 31.956271 43.630186 0.658171 0.748905 0.053973 -0.014332 -146619.000000 0 0 1
-23.974522 -17.187923 32.830671 44.136780 0.621995 0.732000 0.055911 -0.011258 -233270.000000 0 0 1
-25.309822 -17.506523 33.168571 45.246210 0.605126 0.747974 0.069149 -0.026133 -155066.000000 0 0 1
-26.041502 -16.501123 34.064271 45.943677 0.564793 0.735589 0.064900 -0.026416 -37397.200000 0 0 1
-25.661182 -16.453723 -32.824121 44.795582 0.570158 2.393156 0.065065 -0.026539 -265145.000000 0 0 1
-26.453822 -15.434123 -32.320721 44.526912 0.528151 2.383094 0.076108 -0.017014 -150780.000000 0 0 1
-25.941382 -14.997323 -30.906821 43.047725 0.524179 2.371673 0.069262 -0.006789 107734.000000 0 0 1
-26.229952 -15.879223 -29.824421 42.774481 0.544370 2.342348 0.074583 -0.000142 262726.000000 0 0 1
-25.675842 -15.298923 -28.646721 41.399765 0.537362 2.334988 0.082450 0.003277 27067.700000 0 0 1
-26.093032 -16.125223 -27.386421 41.120374 0.553542 2.299638 0.070042 0.001789 372409.000000 0 0 1
-27.370792 -15.800123 -26.845021 41.466363 0.523533 2.274955 0.081510 -0.004258 333187.000000 0 0 1
-27.564302 -14.604723 -26.066821 40.651788 0.487235 2.266886 0.089154 -0.008135 -445980.000000 0 0 1
-26.812002 -14.558823 -24.730721 39.274054 0.497450 2.251958 0.099042 -0.021010 -397459.000000 0 0 1
-25.449522 -14.321323 -24.939621 38.402645 0.512568 2.277624 0.090220 -0.029222 21658.500000 0 0 1
-24.552922 -14.370523 -23.845721 37.121103 0.529531 2.268391 0.087673 -0.024288 182029.000000 0 0 1
-23.648522 -15.621123 -23.826921 37.026939 0.583759 2.269861 0.078995 -0.022456 -196435.000000 0 0 1
-22.832422 -15.777923 -25.002021 37.354563 0.604681 2.304085 0.046771 -0.015940 429661.000000 0 0 1
-22.432522 -17.108423 -25.204921 37.831260 0.651555 2.299960 0.046781 -0.015249 -112252.000000 0 0 1
-21.575322 -17.420023 -26.467421 38.333746 0.679240 2.332903 0.036827 -0.009906 -28346.700000 0 0 1
-22.208222 -17.415223 -27.729821 39.565618 0.665019 2.347394 0.041857 -0.008694 -109602.000000 0 0 1
-22.964522 -18.578223 -27.886021 40.622036 0.680203 2.327427 0.056432 -0.015449 -197184.000000 0 0 1
-23.759822 -18.775723 -29.219721 42.081457 0.668755 2.338328 0.056707 -0.010628 -27729.800000 0 0 1
-22.978222 -19.086023 -30.339221 42.576323 0.693131 2.363971 0.057664 -0.010894 -42691.500000 0 0 1
-23.592522 -18.643223 -31.524221 43.565507 0.668747 2.379808 0.052346 -0.010596 -323177.000000 0 0 1
-22.668722 -18.693823 -32.751321 43.999762 0.689593 2.410361 0.054591 -0.013017 -1231890.000000 0 0 1
-21.506422 -17.886223 -32.807321 43.113379 0.693755 2.435579 0.041587 -0.005973 980818.000000 0 0 1
-20.303022 -18.644023 -32.501321 42.616290 0.742828 2.438197 0.036796 -0.013900 716914.000000 0 0 1
-20.001722 -19.929223 -33.365221 43.709047 0.783583 2.439277 0.039462 -0.011087 -1585300.000000 0 0 1
-19.543422 -19.518823 33.622071 43.512911 0.784768 0.687725 0.038384 -0.014034 63386.600000 0 0 1
-19.436222 -20.498523 32.585271 43.124889 0.811993 0.714223 0.046252 -0.013175 978496.000000 0 0 1
-20.823922 -21.098423 32.098371 43.693073 0.791946 0.745671 0.047859 -0.009989 1194360.000000 0 0 1
-21.512222 -22.010323 32.989771 45.117125 0.796842 0.750713 0.043569 -0.007350 210703.000000 0 0 1
-22.783622 -22.465623 32.589571 45.671411 0.778371 0.776221 0.048596 0.001018 13582.000000 0 0 1
-22.732522 -23.609823 31.538471 45.484794 0.804327 0.804620 0.057246 0.009337 -294300.000000 0 0 1
-22.257722 -24.821223 32.125471 46.298436 0.839796 0.803936 0.064346 0.011879 35700.900000 0 0 1
-22.402622 -25.858513 31.213671 46.312346 0.856884 0.831211 0.063979 0.014716 82290.000000 0 0 1
-22.184222 -27.333743 31.709171 47.378737 0.889019 0.837570 0.094744 0.005298 18657.300000 0 0 1
-23.005822 -27.750893 32.775971 48.720059 0.878614 0.832889 0.054802 0.001516 30542.600000 0 0 1
-22.255422 -28.588693 33.654271 49.449238 0.909322 0.822239 0.063489 -0.006220 -420046.000000 0 0 1
-23.135122 -29.406223 -33.660521 50.328824 0.904192 2.303406 0.057308 -0.012787 -449802.000000 0 0 1
-24.034922 -30.262773 33.896371 51.405028 0.899597 0.850779 0.030686 -0.003129 1431290.000000 0 0 1
-25.314632 -29.781063 33.396771 51.410958 0.866288 0.863733 0.020041 0.007512 513559.000000 0 0 1
-26.319132 -29.301833 -33.827821 51.919318 0.838972 2.280417 0.019393 -0.000940 -1311400.000000 0 0 1
-27.452982 -28.779383 33.792471 52.190518 0.808982 0.866519 0.017690 0.007248 -318506.000000 0 0 1
-28.359482 -28.284133 -33.508621 52.221452 0.784068 2.267462 0.020224 0.008078 66960.200000 0 0 1
-29.445742 -27.292303 -33.993721 52.606982 0.747462 2.273368 0.009848 0.002096 257711.000000 0 0 1
-30.513322 -27.919803 33.579371 53.274312 0.741043 0.888843 0.002071 -0.000966 -422652.000000 0 0 1
-31.464742 -26.953613 33.156771 53.065042 0.708330 0.895879 0.009888 -0.010399 80100.200000 0 0 1
