# x y z rho theta phi s1 s2 stress_xx np intf bulk
-0.649174 -10.688946 -14.390432 17.937657 1.510138 2.501846 -0.001498 0.002759 -68443.000000 1 0 0
2.141426 -13.456546 -13.049832 18.866968 -1.412983 2.334604 -0.003606 0.005505 -923737.000000 1 0 0
2.243726 -11.179846 -14.728132 18.626356 -1.372734 2.482772 -0.003859 0.005784 654793.000000 1 0 0
-5.449774 -6.210946 -16.194532 18.180725 0.850582 2.669795 0.015069 -0.010507 -423971.000000 1 0 0
4.524926 -14.061546 -11.545132 18.748123 -1.259467 2.234200 -0.008115 -0.001682 1081880.000000 1 0 0
13.970526 -10.783446 -7.889332 19.331318 -0.657352 1.991181 0.025934 -0.010996 -488292.000000 1 0 0
7.111826 10.864154 -10.711132 16.832595 0.991184 2.260531 0.016005 -0.016157 744679.000000 1 0 0
5.761326 -4.225446 -12.575532 14.463447 -0.632802 2.624925 0.003011 -0.002102 1625570.000000 1 0 0
13.807126 0.510854 -9.932032 17.015962 0.036982 2.194061 0.018978 0.001979 453140.000000 1 0 0
14.201526 5.083754 -10.306232 18.268725 0.343759 2.170195 0.015789 -0.006602 202575.000000 1 0 0
4.210126 4.357054 -13.435132 14.738109 0.802547 2.717935 0.003537 0.002650 1268170.000000 1 0 0
10.564826 -4.997046 -13.644732 17.965655 -0.441806 2.433325 0.033410 -0.006372 -978299.000000 1 0 0
2.631826 -7.530646 -12.080032 14.476337 -1.234583 2.557962 -0.005436 -0.001122 878687.000000 1 0 0
-5.533674 -1.944846 -15.102032 16.201091 0.337972 2.771134 0.009007 -0.007764 1221530.000000 1 0 0
10.793126 0.118654 -9.628432 14.464175 0.010993 2.299194 0.008035 0.004131 1288070.000000 1 0 0
-1.609274 -9.571746 -16.854932 19.449854 1.404227 2.619112 0.014603 -0.009142 1696270.000000 1 0 0
8.719126 1.732454 -17.971732 20.050130 0.196141 2.682241 0.027239 -0.001286 30199.900000 1 0 0
16.408626 -6.039746 -8.777032 19.564198 -0.352693 2.036025 0.053511 -0.003178 -479576.000000 1 0 0
10.272926 7.551054 -9.833732 16.101358 0.633860 2.227790 0.016557 -0.009383 668841.000000 1 0 0
13.987726 -2.339546 -10.577832 17.692385 -0.165723 2.211644 0.037123 -0.002211 -1207750.000000 1 0 0
7.273126 -1.905646 -13.601332 15.541110 -0.256252 2.636613 0.012454 -0.003304 387716.000000 1 0 0
-2.690074 6.673654 -13.749132 15.518144 -1.187630 2.659450 0.003602 0.000105 1605970.000000 1 0 0
11.353626 1.844354 -13.890032 18.034397 0.161040 2.449946 0.022612 -0.002533 1968360.000000 1 0 0
-2.261074 10.738554 -12.779132 16.844442 -1.363271 2.432044 0.009021 -0.000525 -1068330.000000 1 0 0
2.912426 -1.089346 -15.221032 15.535402 -0.357923 2.940077 0.007177 -0.002868 -373281.000000 1 0 0
-8.981374 0.509454 -15.133932 17.605696 -0.056663 2.605291 0.013491 -0.007537 -704263.000000 1 0 0
2.529126 -1.712746 -18.054732 18.311290 -0.595266 2.973999 0.015814 -0.006362 2140620.000000 1 0 0
1.138926 7.951254 -13.165932 15.422755 1.428526 2.593787 0.006705 0.000656 -312109.000000 1 0 0
9.301426 -9.090646 -9.878732 16.332352 -0.773938 2.220382 0.023596 -0.003697 -245999.000000 1 0 0
4.042526 7.309054 -13.493332 15.869288 1.065588 2.587313 0.003458 0.000465 862018.000000 1 0 0
-2.651374 9.202654 -15.388232 18.125019 -1.290283 2.584896 0.007430 0.002267 1780160.000000 1 0 0
5.521726 -7.693646 -15.257932 17.957899 -0.948290 2.586118 0.008799 -0.002382 -318412.000000 1 0 0
4.341526 7.265754 -16.352432 18.413095 1.032193 2.663963 0.010880 0.000647 768092.000000 1 0 0
-0.144474 5.119254 -13.442632 14.385131 -1.542582 2.777595 0.006282 -0.002984 4115800.000000 1 0 0
8.895026 4.283354 -16.594032 19.308820 0.448775 2.604895 0.024307 0.000289 1428100.000000 1 0 0
5.405226 0.261954 -14.402832 15.385924 0.048425 2.782183 0.003894 0.002086 1150620.000000 1 0 0
6.321826 7.993554 -11.488032 15.356994 0.901650 2.415938 0.002662 -0.004764 263465.000000 1 0 0
2.779326 -8.375846 -15.035032 17.433636 -1.250403 2.610818 0.001084 -0.002018 -491505.000000 1 0 0
4.028426 11.486754 -13.750032 18.364017 1.233496 2.416969 0.021470 -0.011564 313810.000000 1 0 0
0.630126 -4.542846 -13.753632 14.498169 -1.432968 2.819725 0.003939 -0.003207 1604900.000000 1 0 0
8.593726 -0.032246 -11.693932 14.512106 -0.003752 2.507830 0.002658 0.002559 1365120.000000 1 0 0
-0.853674 -5.085346 -16.217932 17.017956 1.404478 2.833750 0.006534 -0.011214 -5812.830000 1 0 0
4.525226 0.977254 -11.751232 12.630287 0.212691 2.766302 0.003343 -0.000638 857843.000000 1 0 0
-2.792774 -7.200946 -15.508632 17.325441 1.200821 2.679533 0.006784 -0.006939 1892690.000000 1 0 0
11.534826 -3.767346 -11.345732 16.612367 -0.315684 2.322616 0.026962 -0.003254 -85582.100000 1 0 0
6.562226 -7.015546 -12.619032 15.859403 -0.818773 2.490928 0.009132 -0.002553 -2863780.000000 1 0 0
3.465226 -3.979646 -14.660732 15.581478 -0.854386 2.796097 0.009554 -0.005594 2470250.000000 1 0 0
-0.471874 -1.485346 -18.278932 18.345253 1.263194 3.056536 0.019367 -0.015327 1766680.000000 1 0 0
14.979326 2.930454 -8.396032 17.420136 0.193193 2.073701 0.012001 -0.001510 -1230700.000000 1 0 0
6.958726 4.356754 -14.318332 16.505145 0.559379 2.620965 0.007337 0.003495 2091700.000000 1 0 0
10.228026 -9.569446 -13.972932 19.784581 -0.752145 2.354989 0.040918 -0.011825 -1084790.000000 1 0 0
9.220126 -3.194046 -15.484532 18.302552 -0.333483 2.579293 0.030649 -0.010189 -4090.870000 1 0 0
-5.158074 -2.042046 -18.009232 18.844313 0.376961 2.842775 0.001302 0.000563 584850.000000 1 0 0
5.101426 -9.063946 -11.159532 15.254994 -1.058159 2.391364 -0.004711 0.001406 1772850.000000 1 0 0
-2.316374 3.988954 -17.251832 17.857857 -1.044691 2.880328 0.005998 0.000089 1526410.000000 1 0 0
9.430026 9.479954 -14.348732 19.613287 0.788038 2.391436 0.037394 -0.015208 645070.000000 1 0 0
9.881426 9.998254 -11.433332 18.119844 0.791275 2.253617 0.023167 -0.017260 151116.000000 1 0 0
12.103826 -5.994346 -9.660832 16.606218 -0.459836 2.191687 0.028429 -0.005290 1744250.000000 1 0 0
8.215826 6.971054 -13.576832 17.332795 0.703617 2.470758 0.011107 -0.001275 1363890.000000 1 0 0
4.047826 -4.191546 -17.575232 18.516013 -0.802840 2.821451 0.020052 -0.007403 24012.000000 1 0 0
9.338726 -7.446046 -12.313532 17.154547 -0.673111 2.371434 0.024970 -0.008805 1262220.000000 1 0 0
12.013126 -8.779446 -8.830432 17.302324 -0.631113 2.106401 0.026242 -0.006847 844724.000000 1 0 0
-2.906574 -2.481446 -13.914132 14.429443 0.706659 2.873536 0.005662 -0.006735 -1381350.000000 1 0 0
-0.244774 6.170554 -17.529332 18.585294 -1.531149 2.802879 0.013989 -0.002315 713992.000000 1 0 0
1.142326 -8.469146 -17.503832 19.478591 -1.436725 2.687408 0.013724 -0.007034 1366950.000000 1 0 0
0.158126 8.602254 -15.956932 18.128637 1.552416 2.647092 0.012760 0.000359 -986836.000000 1 0 0
1.857626 3.407154 -15.031232 15.524092 1.071635 2.888937 0.010449 0.001467 1683330.000000 1 0 0
-1.868974 -0.394646 -15.828032 15.942880 0.208100 3.021490 0.010251 -0.007043 1804040.000000 1 0 0
14.138226 -4.400146 -8.385032 17.016448 -0.301721 2.086056 0.032752 -0.002990 108388.000000 1 0 0
0.646726 0.645254 -14.576932 14.605532 0.784259 3.079002 0.005566 -0.003848 921771.000000 1 0 0
8.894126 2.832554 -12.572232 15.658540 0.308319 2.502940 0.005117 0.004332 974026.000000 1 0 0
6.071526 0.880754 -17.144232 18.208895 0.144058 2.797941 0.019147 0.002320 -87058.900000 1 0 0
15.389026 1.579854 -12.349732 19.794796 0.102303 2.244504 0.028895 -0.006502 -203200.000000 1 0 0
8.837926 -11.234846 -11.952732 18.633264 -0.904247 2.267213 0.032070 -0.006265 1072990.000000 1 0 0
-4.557274 0.828354 -15.063532 15.759598 -0.179802 2.843275 0.009720 -0.007450 647510.000000 1 0 0
2.491826 5.167454 -17.278932 18.206408 1.121477 2.821028 0.013024 -0.000246 1587430.000000 1 0 0
5.935626 -11.710946 -12.421832 18.074287 -1.101688 2.328514 0.010542 0.000610 271665.000000 1 0 0
12.916026 7.215554 -8.526432 17.075948 0.509461 2.093615 0.023089 -0.009567 -328855.000000 1 0 0
-4.876974 3.700154 -15.715632 16.865857 -0.649045 2.770142 0.004203 -0.002973 1067480.000000 1 0 0
-0.491974 -4.393746 -19.037232 19.543881 1.459289 2.913398 0.019108 -0.013492 -827333.000000 1 0 0
9.901926 4.432654 -10.181532 14.878177 0.420903 2.324476 0.003297 0.002202 -21162.400000 1 0 0
13.354826 3.639254 -12.748232 18.817890 0.266045 2.315091 0.018008 -0.009236 -353786.000000 1 0 0
-6.092474 5.894354 -17.201132 19.176564 -0.768871 2.683703 0.003814 0.003604 -267301.000000 1 0 0
-10.041874 3.250754 -15.316632 18.601233 -0.313074 2.538209 0.013927 -0.010991 796611.000000 1 0 0
10.808226 13.369054 -8.167232 19.032946 0.890923 2.014304 0.027356 -0.015392 177280.000000 1 0 0
7.597726 13.397454 -12.263132 19.687601 1.054918 2.243223 0.031076 -0.015695 -1003550.000000 1 0 0
5.501426 15.213754 -11.237832 19.698042 1.223817 2.177917 0.027675 -0.015882 842472.000000 1 0 0
14.315626 9.445354 -9.908632 19.807394 0.583229 2.094683 0.061445 -0.023885 -670227.000000 1 0 0
8.262226 -17.153746 -2.147532 19.160566 -1.121930 1.683113 0.037884 -0.004879 370976.000000 1 0 0
0.673826 -15.943446 -0.068632 15.957827 -1.528558 1.575097 0.010839 -0.009268 2453000.000000 1 0 0
-9.169674 -11.693146 7.496868 16.643786 0.905769 1.103549 0.011142 -0.004951 1497390.000000 1 0 0
2.073126 -15.916146 -2.722132 16.279790 -1.441273 1.738795 0.008293 -0.007792 2241860.000000 1 0 0
-1.218374 -11.044446 -9.443032 14.582013 1.460925 2.275202 -0.004292 0.003555 335373.000000 1 0 0
-4.753074 -12.727346 -13.023132 18.819645 1.213382 2.335048 0.022999 -0.002922 -568349.000000 1 0 0
-8.366774 -17.834846 -1.780232 19.780138 1.132152 1.660919 0.023807 -0.007426 -1757720.000000 1 0 0
-11.352974 -7.011846 -8.869732 16.022739 0.553276 2.157443 0.025946 -0.010070 2590490.000000 1 0 0
-13.564374 -11.556146 -4.726932 18.435852 0.705624 1.830091 0.014830 0.000150 276844.000000 1 0 0
-5.689974 -13.501246 9.622968 17.528861 1.171944 0.989655 0.003408 -0.014625 -672564.000000 1 0 0
0.114126 -13.992446 -3.690432 14.471381 -1.562640 1.828660 0.004050 -0.004277 787291.000000 1 0 0
-14.754574 -11.564846 1.889168 18.841764 0.664793 1.470363 0.005701 0.004930 -676031.000000 1 0 0
-3.914774 -16.473146 -7.485232 18.512663 1.337479 1.987043 0.010348 -0.015605 -1055950.000000 1 0 0
0.627326 -15.301446 -9.273732 17.903349 -1.529821 2.115294 -0.004349 0.000598 529485.000000 1 0 0
4.514226 -14.138046 -2.571632 15.062400 -1.261732 1.742369 0.003071 -0.001127 363128.000000 1 0 0
-3.492174 -18.033546 -2.463932 18.533079 1.379515 1.704139 0.008270 -0.017488 467501.000000 1 0 0
-0.974274 -13.522546 0.593768 13.570594 1.498872 1.527028 0.008176 -0.006349 2468620.000000 1 0 0
-8.399174 -11.452946 -10.495732 17.660026 0.938028 2.207218 0.030323 -0.009929 2683500.000000 1 0 0
-3.749074 -14.153346 -0.444932 14.648233 1.311854 1.601175 0.006854 -0.003280 3281090.000000 1 0 0
-1.464374 -14.956946 -7.315132 16.714239 1.473201 2.023789 -0.001609 -0.005149 1001400.000000 1 0 0
-14.197174 -7.928846 -1.888832 16.370524 0.509331 1.686434 0.007141 -0.005972 1166710.000000 1 0 0
-10.634074 -7.482746 -11.682932 17.480444 0.613176 2.302775 0.031947 -0.011447 -621469.000000 1 0 0
-9.508474 -14.657846 6.824968 18.757498 0.995339 1.198395 0.004182 -0.004284 347597.000000 1 0 0
-2.453374 -14.350446 -12.361932 19.098998 1.401472 2.274775 0.010526 -0.002118 -813244.000000 1 0 0
2.357426 -17.795346 -4.951432 18.621184 -1.439089 1.839937 0.012419 -0.007810 -779619.000000 1 0 0
-6.506674 -9.699346 -9.240532 14.893004 0.979913 2.240127 0.017195 -0.005833 859157.000000 1 0 0
-11.051374 -15.396846 0.393868 18.956552 0.948244 1.550017 0.014285 0.004163 -456171.000000 1 0 0
-12.709374 -10.983846 3.963068 17.259171 0.712699 1.339108 0.011422 0.001128 1812740.000000 1 0 0
-17.073874 -8.803746 -1.666432 19.282119 0.476071 1.657328 0.017774 -0.011967 427852.000000 1 0 0
-1.328174 -19.184846 -3.919332 19.626093 1.501676 1.771848 0.018458 -0.017418 -696081.000000 1 0 0
3.360226 -14.223346 -8.849132 17.085135 -1.338803 2.115241 -0.004005 -0.000560 -11948.400000 1 0 0
-4.118374 -8.006046 -12.964032 15.783660 1.095689 2.534584 0.006879 -0.003377 708053.000000 1 0 0
5.507926 -16.684646 1.312568 17.619237 -1.251941 1.496231 0.032534 -0.002975 4256080.000000 1 0 0
-2.817874 -13.804546 -3.229332 14.454567 1.369436 1.796111 0.003135 -0.004480 -1608600.000000 1 0 0
-0.499574 -13.992046 3.576768 14.450612 1.535107 1.320680 0.005016 -0.005469 -3184740.000000 1 0 0
1.111126 -16.201846 7.041968 17.700953 -1.502323 1.161646 0.031471 -0.011391 2690920.000000 1 0 0
-5.376774 -10.326946 -14.480432 18.580593 1.090762 2.464394 0.023528 -0.011823 -566586.000000 1 0 0
-0.333174 -17.361346 -6.002932 18.372875 1.551608 1.903636 0.012485 -0.009659 -106592.000000 1 0 0
-6.555774 -13.412246 -1.409032 14.995062 1.116157 1.664902 0.008876 -0.002629 3910360.000000 1 0 0
-1.721174 -17.767746 -0.149132 17.851540 1.474227 1.579150 0.009381 -0.011235 2207940.000000 1 0 0
-9.457674 -9.796646 -4.897532 14.470926 0.803001 1.916054 0.019667 -0.002217 2763630.000000 1 0 0
-0.849474 -16.707346 4.810168 17.406744 1.519996 1.290813 0.025004 -0.016047 2083290.000000 1 0 0
-6.722574 -9.895646 -6.267032 13.505277 0.974067 2.053351 0.021362 -0.002188 2914490.000000 1 0 0
-5.970774 -14.611746 -8.578032 17.964852 1.182874 2.068592 0.015742 -0.009948 -762357.000000 1 0 0
-5.630174 -12.363246 -10.284932 17.039030 1.143464 2.218818 0.018776 -0.004038 333216.000000 1 0 0
-10.754274 -12.262946 -8.795632 18.530985 0.850850 2.065357 0.044767 -0.020044 786106.000000 1 0 0
3.912526 -17.086046 6.632468 18.741144 -1.345688 1.209060 0.047014 -0.012240 123240.000000 1 0 0
-6.690974 -14.503846 -4.259732 16.531062 1.138565 1.831417 0.017939 -0.010638 11422.400000 1 0 0
-2.825374 -12.270446 -7.175932 14.492777 1.344482 2.088791 0.004012 -0.000148 3374250.000000 1 0 0
-7.125274 -12.801646 4.315268 15.273284 1.062907 1.284359 0.002596 -0.001049 2941040.000000 1 0 0
2.544626 -16.407346 2.342568 16.767938 -1.416932 1.430633 0.021579 -0.010855 3102520.000000 1 0 0
-6.224874 -12.050746 7.152768 15.334002 1.093993 1.085507 0.001388 -0.003694 598427.000000 1 0 0
-11.296674 -12.829246 -1.051532 17.126299 0.848837 1.632234 0.011817 0.005707 3015620.000000 1 0 0
-14.248874 -8.603146 4.518768 17.247139 0.543192 1.305701 0.007992 0.001382 -1058410.000000 1 0 0
-8.101274 -15.521446 4.371768 18.046005 1.089751 1.326105 0.003539 -0.000474 443098.000000 1 0 0
-16.588274 -9.204846 1.097068 19.002726 0.506598 1.513032 0.012282 0.000969 -567946.000000 1 0 0
-6.682174 -16.952146 2.302268 18.366468 1.195318 1.445114 -0.008388 -0.002396 1248230.000000 1 0 0
-11.644774 -14.937146 -4.764632 19.529998 0.908628 1.817248 0.042557 -0.003607 -882517.000000 1 0 0
-10.028974 -10.168946 -12.531432 19.000647 0.792328 2.290985 0.032153 -0.013291 177104.000000 1 0 0
-4.311674 -16.012046 -4.554832 17.196589 1.307759 1.838864 0.006874 -0.013278 673462.000000 1 0 0
-11.739874 -8.214846 -0.089332 14.328863 0.610551 1.577031 0.000681 0.001268 1412260.000000 1 0 0
-9.673174 -11.103346 3.401268 15.113676 0.854126 1.343806 0.006292 0.005583 2254520.000000 1 0 0
-14.229574 -12.971046 -0.591832 19.263413 0.739163 1.601524 0.014632 0.012358 -619214.000000 1 0 0
5.595026 -14.878546 -7.003432 17.370191 -1.211108 1.985793 0.009577 -0.011201 394321.000000 1 0 0
-7.505174 -10.534146 -1.349932 13.004545 0.951756 1.674788 0.008826 0.001641 801384.000000 1 0 0
-11.635174 -8.168746 -6.086832 15.464644 0.612116 1.975337 0.018073 -0.005712 632994.000000 1 0 0
-14.347974 -6.604046 -9.355932 18.357866 0.431368 2.105565 0.036021 -0.012048 1447450.000000 1 0 0
-3.931474 -16.401046 1.369768 16.921202 1.335527 1.489758 0.005662 -0.011138 1335720.000000 1 0 0
-8.041674 -15.485846 0.136268 17.449886 1.091835 1.562987 0.010694 0.000510 1707430.000000 1 0 0
0.960026 -18.603846 3.633768 18.979700 -1.519238 1.378151 0.028410 -0.017380 567379.000000 1 0 0
-14.169274 -8.783246 -4.605432 17.295194 0.554909 1.840332 0.017792 -0.009233 377313.000000 1 0 0
-3.282874 -14.501346 11.026468 18.510789 1.348165 0.932687 -0.010832 -0.014340 -282285.000000 1 0 0
-10.832974 -12.150346 -3.917032 16.742980 0.842654 1.806936 0.020876 -0.004911 2246380.000000 1 0 0
-9.993074 -10.656046 0.455868 14.615768 0.817494 1.539601 0.007950 0.004483 420681.000000 1 0 0
-0.042774 -13.202346 -11.223832 17.328537 1.567556 2.275369 -0.000434 0.001369 119176.000000 1 0 0
-5.845974 -12.624146 -6.378432 15.304538 1.137119 2.000683 0.011848 -0.007576 668539.000000 1 0 0
1.673426 -15.826146 9.872568 18.727916 -1.465450 1.015544 0.029576 -0.009700 31583.100000 1 0 0
-9.084474 -15.792846 -5.568632 19.051282 1.048791 1.867424 0.041152 -0.013186 1188230.000000 1 0 0
-3.417774 -15.511246 5.736268 16.887413 1.353920 1.224223 -0.002307 -0.009715 -1111490.000000 1 0 0
-17.489774 -5.424446 -6.537132 19.443531 0.300742 1.913687 0.034256 -0.012571 -218230.000000 1 0 0
18.802926 5.652654 -2.831132 19.837284 0.292031 1.714003 0.011919 -0.001448 -1515780.000000 1 0 0
12.845226 -12.561346 -5.766832 18.869118 -0.774225 1.881389 0.034353 -0.008276 -1520110.000000 1 0 0
11.039226 -13.507446 -1.637632 17.521343 -0.885613 1.664398 0.037046 -0.009950 2013040.000000 1 0 0
18.927626 -2.734346 4.311768 19.604158 -0.143471 1.349042 0.068857 -0.020816 73631.100000 1 0 0
8.859226 -16.793146 4.907568 19.610708 -1.085352 1.317859 0.048678 -0.020405 138715.000000 1 0 0
18.194026 -1.204246 6.679668 19.418825 -0.066093 1.219645 0.070847 -0.022355 624807.000000 1 0 0
17.988826 -4.135946 -5.010932 19.126248 -0.225990 1.835883 0.050221 -0.014559 -360559.000000 1 0 0
5.556326 -11.662946 14.685668 19.559292 -1.126199 0.721481 0.024315 -0.006889 -18875.700000 1 0 0
15.993526 -8.858446 -0.914032 18.305748 -0.505815 1.620749 0.039441 -0.008797 544289.000000 1 0 0
13.855926 -12.528246 -1.400532 18.732462 -0.735120 1.645631 0.039690 -0.006392 -774879.000000 1 0 0
11.228226 -2.104046 13.854868 17.957099 -0.185241 0.689516 0.029769 -0.004129 -1466380.000000 1 0 0
16.952326 -6.066946 -1.474832 18.065556 -0.343680 1.652525 0.034899 -0.013679 -116782.000000 1 0 0
17.711126 3.698654 -0.951232 18.118192 0.205873 1.623322 0.020021 -0.007759 -30646.400000 1 0 0
9.677226 -11.047146 9.467768 17.473602 -0.851404 0.998180 0.026218 -0.007920 523981.000000 1 0 0
9.006826 -11.105146 4.280468 14.925468 -0.889354 1.279922 0.018966 -0.011303 -838145.000000 1 0 0
13.974326 -10.050646 6.816368 18.513782 -0.623511 1.193748 0.039854 -0.014256 208566.000000 1 0 0
16.294426 -0.446746 -4.596132 16.936125 -0.027410 1.845623 0.014652 -0.005596 -636227.000000 1 0 0
15.729126 -0.377046 -1.651832 15.820117 -0.023967 1.675400 0.011954 -0.008812 1161270.000000 1 0 0
12.917226 -5.221946 -0.319732 13.936487 -0.384175 1.593740 0.016542 -0.008021 486923.000000 1 0 0
14.305026 -7.575246 1.055068 16.221322 -0.487008 1.505708 0.037181 -0.007905 2804000.000000 1 0 0
15.496226 2.373054 3.712368 16.110434 0.151957 1.338274 0.030400 -0.012437 1054510.000000 1 0 0
16.010426 -7.062346 5.005568 18.200719 -0.415436 1.292185 0.052082 -0.013839 -758991.000000 1 0 0
13.745126 -12.073146 3.348868 18.598502 -0.720729 1.389748 0.037188 -0.011046 1431150.000000 1 0 0
13.984726 -0.967246 9.108268 16.717316 -0.069055 0.994598 0.043563 -0.019001 1713370.000000 1 0 0
14.164626 -2.779746 -1.524832 14.515121 -0.193783 1.676042 0.011450 -0.007045 266671.000000 1 0 0
14.921226 1.806654 9.078968 17.559460 0.120493 1.027405 0.041084 -0.011743 -3019120.000000 1 0 0
14.314626 -10.122346 -3.026632 17.791316 -0.615497 1.741746 0.036827 -0.008046 -1256360.000000 1 0 0
7.359726 -12.640946 6.122368 15.856938 -1.043558 1.174396 0.015808 -0.007709 750647.000000 1 0 0
12.463726 -4.626846 6.992368 15.021497 -0.355457 1.086607 0.030394 -0.011683 2863000.000000 1 0 0
14.947426 -9.073646 -5.686532 18.387312 -0.545578 1.885215 0.042197 -0.008692 -478858.000000 1 0 0
14.383626 -4.605546 4.651368 15.803005 -0.309879 1.272037 0.030461 -0.014310 1175130.000000 1 0 0
17.178626 -4.157246 0.818168 17.693425 -0.237436 1.524539 0.034227 -0.018192 -1535550.000000 1 0 0
10.169926 -14.398446 1.082168 17.661080 -0.955841 1.509484 0.033919 -0.012788 -419086.000000 1 0 0
16.423226 -2.591646 8.565768 18.703244 -0.156513 1.095071 0.065701 -0.023489 1472970.000000 1 0 0
16.100926 -2.659646 3.180568 16.626170 -0.163708 1.378311 0.036250 -0.015185 2744400.000000 1 0 0
7.768126 -15.193446 2.661868 17.270499 -1.098164 1.416051 0.024125 -0.010352 3109150.000000 1 0 0
16.754226 -6.951146 7.828068 19.756041 -0.393276 1.163382 0.061337 -0.016940 -1349510.000000 1 0 0
10.151726 -8.541746 5.119268 14.220614 -0.699485 1.202540 0.021726 -0.009167 1746660.000000 1 0 0
10.962526 -11.785646 2.182068 16.243148 -0.821566 1.436051 0.026491 -0.011114 1484140.000000 1 0 0
12.316326 -7.268746 12.027068 18.686276 -0.533161 0.871563 0.049649 -0.018898 1130360.000000 1 0 0
15.298926 -9.850546 4.342268 18.706835 -0.572055 1.336538 0.044553 -0.009766 401151.000000 1 0 0
7.302526 -10.269646 7.822268 14.831736 -0.952674 1.015258 0.015565 -0.005462 663938.000000 1 0 0
15.295626 -3.266146 -4.232232 16.202953 -0.210375 1.835063 0.025281 -0.003881 -459705.000000 1 0 0
11.788226 -9.001346 9.727168 17.737088 -0.652141 0.990337 0.044776 -0.016459 -1865620.000000 1 0 0
16.933626 -6.609046 2.322768 18.325458 -0.372109 1.443704 0.043401 -0.014946 815375.000000 1 0 0
17.463226 3.883454 2.081968 18.010554 0.218818 1.454940 0.025336 -0.010873 1593430.000000 1 0 0
14.745526 -5.026446 8.818068 17.901229 -0.328527 1.055726 0.051207 -0.021847 13627.800000 1 0 0
13.006326 -12.723346 6.155268 19.207690 -0.774400 1.244583 0.039459 -0.008990 608336.000000 1 0 0
18.180426 0.786954 -0.721632 18.211753 0.043259 1.610431 0.022411 -0.016294 468893.000000 1 0 0
11.777126 -2.156646 10.953168 16.227252 -0.181115 0.829851 0.026636 -0.006161 1173260.000000 1 0 0
5.645326 -12.458846 10.522868 17.257558 -1.145353 0.915046 0.011665 -0.002083 -778722.000000 1 0 0
10.721926 -5.012146 10.995868 16.155198 -0.437284 0.822161 0.035947 -0.010980 1465370.000000 1 0 0
17.691426 1.061654 5.131168 18.451085 0.059938 1.288985 0.048969 -0.013487 -1236980.000000 1 0 0
12.234026 -7.727046 7.158368 16.143756 -0.563333 1.111392 0.037251 -0.013269 -736679.000000 1 0 0
10.569226 -7.943146 14.269968 19.453382 -0.644483 0.747270 0.048842 -0.016281 232241.000000 1 0 0
14.145026 -0.373346 3.758068 14.640499 -0.026388 1.311201 0.019947 -0.010468 355822.000000 1 0 0
11.661226 -7.691946 2.589868 14.207661 -0.583106 1.387485 0.020764 -0.005959 1464620.000000 1 0 0
9.170226 6.096754 3.487768 11.551103 0.586738 1.264067 0.001527 -0.002617 2065270.000000 1 0 0
-3.901074 14.829254 -9.881332 18.241872 -1.313558 2.143236 0.009037 -0.003937 891171.000000 1 0 0
8.837826 -6.446546 9.291268 14.352448 -0.630204 0.866675 0.015062 -0.006988 584133.000000 1 0 0
5.770326 -10.557746 -8.468032 14.712928 -1.070606 2.184073 -0.000285 -0.003572 -232661.000000 1 0 0
5.315326 1.062754 0.539068 5.447268 0.197339 1.471673 0.001330 0.000675 3744620.000000 1 0 0
-0.607074 9.953554 11.050168 14.884488 -1.509881 0.734158 -0.003968 0.000756 -428001.000000 1 0 0
-6.307174 -5.134146 0.996968 8.193525 0.683230 1.448817 0.007431 -0.001386 4162210.000000 1 0 0
-0.948274 4.029454 -10.909932 11.668862 -1.339666 2.778946 0.008973 -0.004846 480259.000000 1 0 0
10.830626 5.759854 1.212968 12.326786 0.488772 1.472236 0.001745 -0.000548 1665310.000000 1 0 0
-10.027474 -1.750846 -13.585132 16.975616 0.172862 2.498547 0.013426 -0.004673 707592.000000 1 0 0
7.507226 10.957254 -6.055532 14.597579 0.970115 1.998554 0.008093 -0.004605 -176725.000000 1 0 0
-12.403874 -2.936846 -9.653132 15.989500 0.232487 2.218952 0.014491 -0.005131 568630.000000 1 0 0
-3.928374 -8.597346 2.402268 9.752814 1.142195 1.321920 0.006965 0.000668 -45839.300000 1 0 0
8.056126 -6.600746 -5.943132 11.991324 -0.686426 2.089344 0.003308 -0.004163 1795870.000000 1 0 0
14.315326 3.108254 -4.167132 15.230062 0.213809 1.847943 0.011750 0.000632 929524.000000 1 0 0
-2.484074 -4.986546 9.826768 11.296089 1.108626 0.515743 0.001430 0.000013 2292540.000000 1 0 0
3.541126 -1.964246 -4.554532 6.094391 -0.506441 2.414834 -0.004045 0.002137 -2067070.000000 1 0 0
-3.960274 8.534554 -3.460232 10.024749 -1.136338 1.923215 0.000053 -0.000294 593012.000000 1 0 0
5.816426 0.102454 11.759668 13.119874 0.017613 0.459386 0.004652 0.000679 2381740.000000 1 0 0
7.085326 4.728954 12.409268 15.051736 0.588530 0.601583 0.005600 0.002939 1724490.000000 1 0 0
1.162426 -14.495946 12.434168 19.133536 -1.490778 0.863393 0.012336 -0.005223 -99058.000000 1 0 0
3.122626 8.799054 -9.059732 13.009723 1.229779 2.341140 0.006584 -0.002825 1083970.000000 1 0 0
-4.368274 -8.793446 -4.487532 10.795576 1.109740 1.999489 0.009793 -0.001298 1074580.000000 1 0 0
5.696426 -6.598146 -4.104232 9.634808 -0.858610 2.010841 0.001273 -0.003667 3389380.000000 1 0 0
-3.175074 3.432454 8.674468 9.854401 -0.824331 0.494380 0.000731 -0.000276 1962620.000000 1 0 0
-3.662274 3.173054 -11.132332 12.141225 -0.713948 2.731048 0.005311 -0.007569 28301.600000 1 0 0
2.966226 -6.092846 8.599568 10.948691 -1.117734 0.667386 0.001445 0.000890 -245215.000000 1 0 0
-5.190774 -8.766446 10.459168 14.600990 1.036192 0.772264 0.001041 -0.004992 909593.000000 1 0 0
-13.342174 -2.494046 6.507468 15.052608 0.184797 1.123738 0.008455 -0.004175 582402.000000 1 0 0
3.998326 -5.901946 -8.387132 11.007433 -0.975359 2.437118 -0.004929 -0.002251 4174710.000000 1 0 0
2.939826 -0.509346 12.442068 12.794806 -0.171554 0.235357 0.005987 0.000979 594372.000000 1 0 0
1.569026 -1.430246 -7.652732 7.941773 -0.739160 2.870971 -0.001926 -0.002561 208428.000000 1 0 0
3.566726 -3.537246 3.445068 6.091152 -0.781248 0.969653 0.005462 0.000940 2405490.000000 1 0 0
1.613826 0.462254 -11.886632 12.004588 0.278964 3.001293 0.005241 -0.004075 777459.000000 1 0 0
4.149726 3.629454 -10.597032 11.945303 0.718618 2.661885 0.000616 -0.000006 -88990.800000 1 0 0
2.823026 3.264554 3.419468 5.506319 0.857801 0.900768 -0.007162 0.001440 -360275.000000 1 0 0
-5.280574 0.883754 2.571968 5.939739 -0.165823 1.122967 0.000489 -0.001334 800163.000000 1 0 0
-9.505674 -9.276746 5.654468 14.435680 0.773210 1.168317 0.006283 0.001578 -365066.000000 1 0 0
-3.043174 3.923554 -0.636232 5.005994 -0.911101 1.698235 -0.000978 -0.003416 -266824.000000 1 0 0
-15.832474 -6.357246 4.774968 17.716719 0.381826 1.297904 0.013803 -0.005949 -107872.000000 1 0 0
1.063026 6.840954 -8.093832 10.650765 1.416638 2.434001 0.005592 -0.002604 92633.000000 1 0 0
-1.551574 6.513754 -9.387632 11.531002 -1.336954 2.522010 0.004158 -0.002994 -28371.700000 1 0 0
1.955526 -0.340746 5.276968 5.637958 -0.172516 0.359788 0.002355 0.000929 2821480.000000 1 0 0
-3.346574 -0.448746 -6.315832 7.161751 0.133296 2.650640 0.007975 -0.007662 1114600.000000 1 0 0
1.892326 -1.266146 -2.378232 3.292418 -0.589682 2.377971 0.001595 0.000460 620304.000000 1 0 0
2.499926 -8.577646 -7.658232 11.767505 -1.287205 2.279427 -0.006976 0.001077 1239840.000000 1 0 0
-2.464674 14.118254 -5.497632 15.350038 -1.397964 1.937083 0.004821 -0.000499 2718220.000000 1 0 0
6.936126 -5.191746 -8.273132 11.979516 -0.642546 2.333124 0.004015 -0.003859 1226130.000000 1 0 0
-14.266074 -4.957846 -2.240232 15.268260 0.334470 1.718053 0.009611 -0.005479 -361490.000000 1 0 0
-2.682674 6.911454 -6.744332 10.022522 -1.200548 2.308942 0.003003 -0.004046 -1760460.000000 1 0 0
-5.557274 -1.070346 -8.110832 9.890123 0.190273 2.532372 0.017537 -0.011624 459170.000000 1 0 0
-5.762274 -10.575646 3.425268 12.521204 1.071906 1.293707 0.005301 -0.000067 -2567670.000000 1 0 0
7.967126 -7.566746 6.636168 12.836256 -0.759629 1.027470 0.013487 -0.006237 1031510.000000 1 0 0
8.809326 -5.997346 13.187868 16.955596 -0.597720 0.679657 0.036103 -0.003880 1048310.000000 1 0 0
-4.625474 9.426854 -0.746232 10.526987 -1.114641 1.641743 -0.002720 0.001283 -72139.800000 1 0 0
2.782526 6.635554 12.173468 14.140945 1.173733 0.533826 0.002466 -0.000474 1290490.000000 1 0 0
6.020826 -2.856346 11.020368 12.878570 -0.442968 0.543868 0.009510 -0.000311 837307.000000 1 0 0
-9.695874 -6.409546 -1.216232 11.686380 0.584110 1.675058 0.010567 -0.003458 -1097590.000000 1 0 0
0.804226 -13.436146 6.144068 14.796161 -1.511012 1.142582 0.005348 -0.004934 342044.000000 1 0 0
-0.586574 -3.127046 8.739568 9.300674 1.385370 0.349131 0.001451 0.001336 2023450.000000 1 0 0
4.160526 0.764454 3.371368 5.409296 0.181713 0.897899 -0.002236 0.002611 1819130.000000 1 0 0
-10.282074 5.529454 8.295068 14.321454 -0.493410 0.953042 0.001699 -0.007360 843192.000000 1 0 0
9.371926 7.983854 -0.059632 12.311721 0.705591 1.575640 -0.000993 0.002167 -1486880.000000 1 0 0
4.278426 2.892654 8.259068 9.740871 0.594507 0.558827 -0.001367 -0.000816 3161350.000000 1 0 0
1.418826 2.732854 -9.800232 10.272590 1.091928 2.837162 0.004923 -0.004501 1966250.000000 1 0 0
-1.415974 -10.146946 3.006968 10.677423 1.432145 1.285315 0.005153 -0.001736 -1103910.000000 1 0 0
-9.995274 9.545354 9.053768 16.522409 -0.762377 0.990862 -0.001609 -0.011149 1313670.000000 1 0 0
9.845026 -2.038746 -7.710832 12.670357 -0.204198 2.225057 0.009911 0.000140 639382.000000 1 0 0
-5.313974 -1.925046 6.727568 8.786597 0.347556 0.698726 0.002870 -0.000161 1725190.000000 1 0 0
3.185226 -7.849246 -4.949532 9.810923 -1.185300 2.099590 -0.007018 -0.001572 1209110.000000 1 0 0
-4.997874 4.954954 -13.047532 14.824588 -0.781086 2.646928 0.001131 -0.006431 1540510.000000 1 0 0
-5.720774 9.680654 5.429468 12.486850 -1.037058 1.120964 -0.005671 0.000088 1055390.000000 1 0 0
-0.348774 -1.795546 -9.409732 9.585859 1.378941 2.949602 0.002936 -0.005807 12929.200000 1 0 0
-16.788974 0.144154 6.362868 17.954847 -0.008586 1.208544 0.024226 -0.008515 -820821.000000 1 0 0
-6.069074 -2.906546 4.075968 7.867349 0.446635 1.026184 -0.001566 0.000323 2609280.000000 1 0 0
1.026926 -5.717546 -5.171232 7.777310 -1.393082 2.298173 -0.002118 -0.000598 1249950.000000 1 0 0
-6.929274 1.398254 -8.501932 11.056799 -0.199116 2.447966 0.007810 -0.009212 785136.000000 1 0 0
7.969126 1.991554 4.722268 9.474865 0.244893 1.049045 -0.002638 -0.000423 -624295.000000 1 0 0
0.495626 -8.085546 -0.554932 8.119708 -1.509575 1.639194 -0.000065 -0.000560 1006520.000000 1 0 0
5.437526 5.477354 -3.433232 8.447199 0.789047 1.989345 -0.003517 0.004323 295171.000000 1 0 0
-0.773574 -0.349746 -1.222432 1.488315 0.424613 2.534576 0.001015 0.000384 929035.000000 1 0 0
9.171426 6.409954 -6.276932 12.829748 0.609991 2.082024 0.005969 -0.002281 1938080.000000 1 0 0
-14.986574 -7.090746 2.234568 16.729297 0.441930 1.436824 -0.000271 -0.004445 -743753.000000 1 0 0
-6.436274 6.841254 8.954568 12.977390 -0.815890 0.809289 -0.004925 -0.002042 -1709600.000000 1 0 0
-9.449874 -3.182346 -9.651432 13.877233 0.324832 2.339893 0.011195 -0.005962 278063.000000 1 0 0
14.890026 3.502654 -1.198432 15.343327 0.231035 1.648984 0.004165 -0.003087 978933.000000 1 0 0
12.090626 1.630954 -5.782832 13.501274 0.134085 2.013426 0.010280 0.000704 104753.000000 1 0 0
1.588126 -9.436246 12.726768 15.922798 -1.404058 0.644701 -0.002282 -0.001548 -247636.000000 1 0 0
-3.706874 6.335654 7.941368 10.814192 -1.041419 0.746092 -0.001719 0.000842 508935.000000 1 0 0
-3.967774 13.190254 -12.400032 18.533398 -1.278596 2.303745 0.002187 0.003147 -201833.000000 1 0 0
-10.317174 7.729754 6.529068 14.450671 -0.642997 1.101995 -0.001951 -0.007103 1352050.000000 1 0 0
8.054626 -9.341846 -7.116932 14.240710 -0.859257 2.094118 0.005922 -0.002567 443796.000000 1 0 0
5.844126 -3.854446 -0.302132 7.007271 -0.583054 1.613927 0.005648 -0.000507 -709310.000000 1 0 0
-1.702874 -4.435846 4.226868 6.359475 1.204255 0.843762 -0.000451 0.002302 969354.000000 1 0 0
9.913426 -2.115646 -2.596432 10.463911 -0.210258 1.821548 0.005944 -0.000245 -3284370.000000 1 0 0
13.507426 7.034354 1.406068 15.294107 0.480131 1.478731 0.004778 0.000108 780745.000000 1 0 0
5.413326 -3.770446 -3.243132 7.351073 -0.608381 2.027707 0.003095 -0.001874 -2576650.000000 1 0 0
-12.265174 -5.936146 1.855368 13.751899 0.450753 1.435466 0.002097 -0.003294 1649460.000000 1 0 0
3.741426 -5.738746 -0.179332 6.853002 -0.993045 1.596968 0.002824 -0.002521 -653275.000000 1 0 0
-5.053174 3.732254 -8.715332 10.743431 -0.636162 2.517039 0.006750 -0.008880 1051020.000000 1 0 0
-1.746274 -9.297546 7.244168 11.915192 1.385138 0.917286 -0.002835 -0.000130 1958020.000000 1 0 0
-7.436074 -7.402646 2.487968 10.783522 0.783145 1.337979 0.012228 -0.001248 -3336460.000000 1 0 0
-5.694074 13.070254 -8.478832 16.587484 -1.159939 2.107328 0.008375 -0.006173 1424620.000000 1 0 0
9.232726 -13.925446 -4.144632 17.214507 -0.985329 1.813949 0.023934 -0.004441 743465.000000 1 0 0
-6.444074 -5.075646 -6.743532 10.619016 0.667162 2.258861 0.017311 -0.005825 1214420.000000 1 0 0
3.452126 0.377554 -6.214932 7.119347 0.108936 2.632042 -0.000748 0.000174 1259750.000000 1 0 0
-3.616674 5.752754 5.041368 8.461081 -1.009551 0.932497 -0.003184 0.002107 -205988.000000 1 0 0
-2.648574 -10.809446 -2.882332 11.496387 1.330506 1.824217 0.006301 -0.001113 660913.000000 1 0 0
-12.571374 -0.451746 1.733468 12.698363 0.035919 1.433858 0.002899 -0.004409 304882.000000 1 0 0
8.443226 -11.975246 -6.029332 15.844477 -0.956685 1.961168 0.011695 -0.006827 253336.000000 1 0 0
6.055326 3.952154 1.056568 7.307724 0.578253 1.425706 -0.002664 0.001463 -1207630.000000 1 0 0
3.438526 -4.780746 -10.964532 12.445882 -0.947271 2.648719 -0.000938 -0.002158 970922.000000 1 0 0
-7.661074 4.252454 8.607268 12.282527 -0.506730 0.794315 -0.002894 -0.002367 2236430.000000 1 0 0
8.164226 8.748554 4.172968 12.673020 0.819934 1.235256 0.003524 -0.001053 2824250.000000 1 0 0
0.302026 10.683654 -6.320132 12.416753 1.542534 2.104819 0.003980 0.000199 1347670.000000 1 0 0
5.350926 7.989154 3.282868 10.160522 0.980646 1.241793 -0.001453 -0.001215 3749270.000000 1 0 0
8.083526 6.686654 -3.718532 11.130239 0.691105 1.911439 0.002363 -0.001091 -356949.000000 1 0 0
10.603226 2.534154 -8.192832 13.637186 0.234598 2.215262 0.006333 0.001670 -34476.200000 1 0 0
3.317326 -12.482246 -0.298632 12.918990 -1.311037 1.593914 0.003849 -0.003036 -2404210.000000 1 0 0
0.523826 2.130354 5.221868 5.663983 1.329693 0.397730 0.001733 -0.000168 -515261.000000 1 0 0
-4.934574 13.441454 1.467568 14.393625 -1.218955 1.468659 -0.006060 0.004874 1975460.000000 1 0 0
8.290326 4.135154 -7.932432 12.196413 0.462681 2.278895 -0.000099 0.002431 167900.000000 1 0 0
-13.851674 -0.606446 -3.587632 14.321584 0.043753 1.823998 0.004732 -0.004877 942036.000000 1 0 0
-8.606474 0.110054 -0.445632 8.618706 -0.012787 1.622525 0.002223 -0.002352 -59659.300000 1 0 0
1.755826 -3.957846 -1.147332 4.479268 -1.153251 1.829826 0.001025 0.003084 -2107800.000000 1 0 0
8.074626 -5.632946 -0.252632 9.848527 -0.609121 1.596451 0.007711 -0.004183 2443760.000000 1 0 0
-2.384474 -1.158246 7.386668 7.847937 0.452179 0.344560 0.004925 0.000624 2345170.000000 1 0 0
-5.795674 8.878854 -11.671432 15.768520 -0.992490 2.404124 -0.000816 0.000205 -1711450.000000 1 0 0
-6.126374 9.189454 -8.807532 14.126257 -0.982788 2.243991 0.002601 -0.004255 -504252.000000 1 0 0
-1.564874 14.082454 -8.370132 16.456715 -1.460128 2.104372 0.020188 -0.002870 -321243.000000 1 0 0
-1.569774 7.161254 9.857468 12.284845 -1.355006 0.639476 -0.001617 -0.001356 137805.000000 1 0 0
10.032126 2.286154 -3.990832 11.036158 0.224057 1.940795 0.005521 -0.000383 -1691250.000000 1 0 0
-2.918774 -7.459046 -6.974532 10.620768 1.197807 2.287215 0.006084 -0.000752 -99343.300000 1 0 0
-5.503474 -4.933846 -1.642932 7.571677 0.730876 1.789520 0.010763 -0.001341 575480.000000 1 0 0
5.795626 7.413054 -8.711032 12.822821 0.907243 2.317657 0.002004 -0.000810 470141.000000 1 0 0
-9.484474 5.194554 -7.527532 13.175826 -0.501068 2.178902 -0.000589 -0.005347 7184.120000 1 0 0
-0.367874 6.218654 -5.312732 8.187314 -1.511709 2.276932 0.001584 -0.001883 -1161690.000000 1 0 0
-8.199274 2.828354 -6.432132 10.798148 -0.332170 2.208896 0.006714 -0.006217 1114870.000000 1 0 0
3.539826 1.360054 -1.999132 4.286799 0.366825 2.055952 -0.000706 0.001249 2394420.000000 1 0 0
-6.769374 12.496354 -3.471132 14.629834 -1.074342 1.810345 0.001020 0.000700 1010880.000000 1 0 0
-6.518374 3.238454 -2.411532 7.667612 -0.461100 1.890736 0.005021 -0.003029 -633298.000000 1 0 0
12.102026 4.062854 -0.813332 12.791690 0.323894 1.634422 0.003177 -0.001773 -984308.000000 1 0 0
2.382326 12.452354 -5.524332 13.829492 1.381765 1.981724 0.011051 -0.005171 -971271.000000 1 0 0
-9.147574 -1.323146 -4.257632 10.176260 0.143648 2.002467 0.010736 -0.004314 -831504.000000 1 0 0
-1.173674 5.708554 3.462868 6.779126 -1.368023 1.034666 -0.004999 0.000100 170124.000000 1 0 0
11.523726 2.586654 11.980368 16.823087 0.220804 0.778257 0.025620 0.001457 -120254.000000 1 0 0
-7.030074 -2.239146 -5.744932 9.350934 0.308350 2.232383 0.016527 -0.006359 -9249.690000 1 0 0
7.455826 -7.442946 10.859468 15.129931 -0.784534 0.770235 0.016265 -0.004681 191233.000000 1 0 0
-5.435074 -1.930746 -10.929132 12.357740 0.341334 2.655994 0.013652 -0.008052 936193.000000 1 0 0
0.769826 -6.158946 4.506068 7.670065 -1.446448 0.942846 -0.000327 0.001423 2143640.000000 1 0 0
-4.855874 -9.402746 7.381368 12.902548 1.094090 0.961749 -0.001480 -0.000442 3231510.000000 1 0 0
-8.745574 9.313154 1.635268 12.879984 -0.816817 1.443491 0.001025 -0.001538 929581.000000 1 0 0
-8.087074 7.207654 -9.083932 14.137499 -0.727963 2.268607 0.002138 -0.004574 -506837.000000 1 0 0
-1.211574 -10.675746 -0.103232 10.744772 1.457791 1.580404 0.002871 -0.000917 56809.900000 1 0 0
-4.040774 10.301554 7.790568 13.533027 -1.196990 0.957372 -0.006762 0.000293 2309350.000000 1 0 0
-7.500674 12.041254 2.030768 14.330943 -1.013698 1.428613 -0.000009 -0.001726 1716170.000000 1 0 0
-8.156074 -8.182546 -2.841232 11.897403 0.787018 1.811938 0.018446 -0.001760 168079.000000 1 0 0
5.538426 4.580654 -8.070032 10.806571 0.691029 2.413990 0.000912 0.002999 1201830.000000 1 0 0
-8.900474 -0.151846 -10.190232 13.530792 0.017059 2.423579 0.010718 -0.010839 -2015800.000000 1 0 0
-15.269274 -2.190446 -1.531132 15.501392 0.142482 1.669732 0.008543 -0.007142 -2220.950000 1 0 0
-7.289674 -5.828446 8.694268 12.755408 0.674465 0.820830 0.004335 -0.001984 -970460.000000 1 0 0
8.079426 3.483654 -0.935332 8.848040 0.407090 1.676705 -0.000515 0.002184 1936160.000000 1 0 0
11.964026 7.312354 -5.714432 15.141439 0.548611 1.957787 0.007787 -0.002764 1382150.000000 1 0 0
3.886326 13.450654 -9.489232 16.913579 1.289524 2.166441 0.010897 -0.010326 1648770.000000 1 0 0
-9.705674 5.467354 -0.434032 11.148114 -0.513009 1.609739 0.001854 0.000023 1842650.000000 1 0 0
11.283726 -1.335446 -5.217032 12.502932 -0.117804 2.001230 0.013337 -0.001378 785179.000000 1 0 0
10.586926 1.735054 -1.182332 10.793115 0.162442 1.680562 0.005342 -0.000619 36371.100000 1 0 0
14.510126 5.036154 4.786068 16.087667 0.334070 1.268724 0.021172 -0.009032 1731510.000000 1 0 0
0.850426 -0.764146 10.422568 10.485087 -0.732011 0.109258 0.004714 0.001691 1446380.000000 1 0 0
-7.857974 1.407254 -12.454832 14.793613 -0.177208 2.571602 0.005067 -0.009229 -1046170.000000 1 0 0
3.038926 -11.514246 -7.987832 14.339400 -1.312753 2.161632 -0.010077 0.000595 88333.400000 1 0 0
2.917926 5.051554 -6.857532 9.003235 1.046988 2.436689 0.000354 0.002434 -1928540.000000 1 0 0
6.504626 8.010254 0.601268 10.336143 0.888758 1.512592 -0.000046 -0.001042 103123.000000 1 0 0
-9.127674 -5.371046 6.689568 12.526487 0.531873 1.007432 0.001135 0.001265 -720266.000000 1 0 0
-0.199774 -6.835146 -11.811032 13.647697 1.541577 2.616791 -0.003229 0.000590 2525710.000000 1 0 0
6.457826 -13.352646 -4.578132 15.522757 -1.120325 1.870179 0.010206 -0.006044 3224320.000000 1 0 0
-3.315374 -0.391246 10.114668 10.651351 0.117466 0.318796 0.002526 0.000111 648618.000000 1 0 0
8.539726 8.466454 7.019468 13.924104 0.781090 1.042430 0.001935 -0.001441 -483833.000000 1 0 0
-7.906374 5.837654 -2.724432 10.198602 -0.636002 1.841218 0.006886 -0.004069 1727710.000000 1 0 0
-5.384074 5.859854 -6.530932 10.294621 -0.827687 2.258032 0.004615 -0.005015 -988294.000000 1 0 0
3.267626 -13.644746 2.558568 14.261933 -1.335744 1.390421 0.015598 -0.008900 -1867540.000000 1 0 0
-11.401274 -7.028646 6.520868 14.896732 0.552448 1.117715 0.011608 -0.000896 -22874.700000 1 0 0
-12.931374 -3.693646 -6.826332 15.081852 0.278226 2.040497 0.016354 -0.006527 -597944.000000 1 0 0
6.162826 0.326154 -7.224932 9.501918 0.052873 2.434672 -0.001577 0.003665 489517.000000 1 0 0
-1.370774 2.245654 -2.511032 3.636931 -1.022756 2.332874 -0.000432 -0.002457 1919450.000000 1 0 0
7.598826 0.917454 -4.887432 9.081348 0.120155 2.139077 0.002570 0.003689 -394657.000000 1 0 0
3.619426 -4.433946 10.942068 12.348642 -0.886196 0.481946 0.003942 0.001360 656223.000000 1 0 0
6.065726 -2.609746 2.053268 6.915180 -0.406305 1.269329 0.008537 -0.001729 -1046250.000000 1 0 0
-6.205874 7.726454 1.164268 9.978300 -0.894108 1.453850 -0.000869 -0.000516 1532920.000000 1 0 0
6.020926 -3.440646 7.954968 10.553251 -0.519161 0.716981 0.008948 -0.001976 -20127.700000 1 0 0
6.785126 -2.290946 -7.870632 10.641110 -0.325624 2.403337 0.003361 -0.001402 1641640.000000 1 0 0
12.129826 -8.208246 -5.830432 15.763944 -0.594916 1.949653 0.023622 -0.008794 1190380.000000 1 0 0
5.442426 -9.630246 9.934068 14.867661 -1.056405 0.839055 0.006398 -0.000381 1066210.000000 1 0 0
-6.583374 7.616554 -4.600632 11.068809 -0.858030 1.999442 0.004110 -0.002411 49606.700000 1 0 0
-1.412274 -7.636246 9.795168 12.500083 1.387919 0.670344 -0.005843 0.000242 -1653910.000000 1 0 0
10.045326 -9.241646 0.781068 13.672113 -0.743753 1.513637 0.013858 -0.005741 649862.000000 1 0 0
11.091526 6.117954 9.844768 16.042779 0.504062 0.910112 0.014008 0.002665 1355700.000000 1 0 0
-15.255474 -4.179746 -5.035932 16.600012 0.267421 1.879023 0.015741 -0.010274 1426090.000000 1 0 0
-4.792874 -4.661346 7.887668 10.339975 0.771487 0.703114 0.003329 -0.000999 -66623.200000 1 0 0
3.015326 11.005454 -10.961732 15.823141 1.303374 2.336114 0.007629 -0.004406 -1267670.000000 1 0 0
9.938626 -1.431946 1.512168 10.154477 -0.143094 1.421324 0.006245 -0.001953 -1175510.000000 1 0 0
-1.626974 -2.547146 0.683068 3.098642 1.002375 1.348530 0.001500 -0.001847 -164103.000000 1 0 0
1.599826 2.983054 0.953968 3.516832 1.078528 1.296097 -0.007912 0.001488 -1592290.000000 1 0 0
-9.029774 -2.375246 4.334868 10.294158 0.257219 1.136139 0.001390 -0.002193 2641430.000000 1 0 0
9.869326 4.848554 -2.652032 11.311293 0.456643 1.807458 0.001851 0.000632 503546.000000 1 0 0
2.536426 8.472154 2.601968 9.218518 1.279905 1.284653 -0.004222 0.000088 294890.000000 1 0 0
-8.160574 -0.041746 2.525768 8.542612 0.005116 1.270643 -0.001208 -0.002221 917907.000000 1 0 0
6.860126 2.062554 13.776468 15.527605 0.292061 0.479503 0.010616 0.004543 -3960.830000 1 0 0
6.711526 4.372554 3.794268 8.863423 0.577428 1.128427 -0.004173 0.000570 497535.000000 1 0 0
-0.396174 3.335654 7.802368 8.494732 -1.452581 0.406539 0.001763 -0.000477 979651.000000 1 0 0
2.584726 -10.259646 9.141268 13.982272 -1.324001 0.858233 0.003910 -0.003077 1404010.000000 1 0 0
1.322626 -4.517946 6.884268 8.339923 -1.286005 0.599781 -0.001190 0.001520 498248.000000 1 0 0
-0.070074 10.787754 -1.978932 10.967986 -1.564301 1.752218 0.001976 -0.002635 1991300.000000 1 0 0
8.722526 5.538454 8.052268 13.099463 0.565729 0.908788 -0.002238 -0.000603 -164926.000000 1 0 0
2.663826 11.449854 -2.898532 12.107709 1.342211 1.812540 0.007665 -0.008098 351122.000000 1 0 0
1.585226 2.450654 -6.812832 7.411702 0.996633 2.736839 0.000132 -0.000247 2080770.000000 1 0 0
-13.629874 -2.160646 3.577568 14.256256 0.157215 1.317138 0.004493 -0.005543 690252.000000 1 0 0
-1.013274 -10.674946 -5.365632 11.990463 1.476159 2.034755 -0.001206 -0.000069 254464.000000 1 0 0
-5.660474 2.904254 0.433068 6.376771 -0.474054 1.502831 0.004387 -0.002246 1572880.000000 1 0 0
3.790926 7.287354 -5.085932 9.661436 1.091115 2.125176 -0.001338 0.001166 -1287460.000000 1 0 0
3.004026 9.793654 -6.451632 12.106337 1.273175 2.132837 0.006762 -0.000672 809585.000000 1 0 0
-12.205174 1.697454 -2.590832 12.592062 -0.138190 1.778028 0.004900 -0.002690 438207.000000 1 0 0
-2.381174 9.719254 -5.708132 11.520272 -1.330533 2.089190 -0.000157 -0.002780 696872.000000 1 0 0
-1.322674 3.330954 1.747068 3.987100 -1.192805 1.117223 -0.006619 -0.000696 16553.600000 1 0 0
12.818326 3.731254 9.675068 16.487531 0.283260 0.943681 0.028467 -0.003263 1044290.000000 1 0 0
-2.587874 -9.697546 11.539468 15.293751 1.310015 0.715871 -0.009053 -0.006497 2251490.000000 1 0 0
-0.416374 -8.907146 -7.516232 11.662091 1.524084 2.271167 -0.002232 0.000224 3060240.000000 1 0 0
2.342726 7.611554 -0.465732 7.977532 1.272212 1.629210 -0.007172 0.001688 1113540.000000 1 0 0
-11.787674 -1.372346 -5.520532 13.088502 0.115900 2.006209 0.007446 -0.002037 -1223430.000000 1 0 0
-6.121874 -7.132446 -10.930232 14.415933 0.861496 2.431352 0.012283 -0.003128 2600460.000000 1 0 0
-4.649074 -2.191346 -1.436632 5.336647 0.440467 1.843360 0.007592 -0.003085 -1574880.000000 1 0 0
-10.521974 3.602154 4.580468 12.027807 -0.329840 1.180110 -0.000259 -0.004172 3565350.000000 1 0 0
6.772626 9.399154 -3.613132 12.135373 0.946407 1.873116 0.002769 0.001272 750866.000000 1 0 0
1.344726 -2.639846 -11.556532 11.930235 -1.099661 2.890639 0.002436 -0.004199 -1381710.000000 1 0 0
1.143826 8.781154 7.526168 11.621540 1.441266 0.866359 -0.003700 0.004196 781058.000000 1 0 0
10.383226 0.351554 10.370868 14.679573 0.033845 0.786280 0.012321 -0.001480 1864430.000000 1 0 0
-5.237874 -0.791646 -3.972032 6.621108 0.150004 2.214178 0.010920 -0.005749 194749.000000 1 0 0
11.616826 5.633354 5.374768 13.984758 0.451520 1.176314 0.002149 -0.000828 2837660.000000 1 0 0
9.983226 -3.551746 3.634668 11.202255 -0.341807 1.240357 0.014992 -0.007583 -373395.000000 1 0 0
7.341626 -1.751946 -3.385032 8.272075 -0.234251 1.992387 0.001892 0.002606 -4082120.000000 1 0 0
2.279926 9.220754 10.491668 14.152577 1.328398 0.735753 -0.000223 0.002531 2892020.000000 1 0 0
2.281126 -10.856146 6.297068 12.755881 -1.363686 1.054503 -0.002867 -0.001150 529106.000000 1 0 0
5.905326 -7.532946 -1.274532 9.656220 -0.905929 1.703173 0.003029 -0.004836 -51640.400000 1 0 0
-0.291574 -5.643546 -2.339732 6.116288 1.519177 1.963342 0.000533 0.000971 1043130.000000 1 0 0
7.753326 -5.136946 2.705068 9.686055 -0.585145 1.287758 0.009320 -0.005073 1105310.000000 1 0 0
-2.701974 -12.505746 4.611768 13.600101 1.358009 1.224838 0.004316 -0.003402 -716001.000000 1 0 0
4.841026 -10.279746 -1.099432 11.415668 -1.130675 1.667255 0.003975 -0.005301 1495570.000000 1 0 0
0.984326 0.190354 1.107368 1.493785 0.191027 0.735767 -0.005347 0.001293 -1228660.000000 1 0 0
-1.573274 8.521554 2.468368 9.010267 -1.388229 1.293298 -0.005671 0.001038 213686.000000 1 0 0
-7.526374 0.766254 -3.039132 8.152900 -0.101460 1.952786 0.006058 -0.001922 -639368.000000 1 0 0
4.374526 -6.339046 12.894068 15.019220 -0.966751 0.538450 0.011261 -0.001392 -1140040.000000 1 0 0
-5.229974 13.015854 8.434668 16.367917 -1.188726 1.029419 -0.001036 -0.009471 1014700.000000 1 0 0
0.604826 6.063854 8.312968 10.307355 1.471382 0.632574 -0.002665 0.002995 234074.000000 1 0 0
7.968326 -0.496946 -0.722132 8.016399 -0.062285 1.661001 0.003345 0.000136 3707980.000000 1 0 0
2.488226 -9.195946 -2.441732 9.834569 -1.306545 1.821701 -0.004077 -0.001084 898702.000000 1 0 0
-7.124874 12.173854 4.854168 14.917422 -1.041285 1.239359 -0.006148 0.000411 228789.000000 1 0 0
-14.972074 0.245654 0.138768 14.974732 -0.016406 1.561529 0.012489 -0.004996 1329580.000000 1 0 0
6.762826 -0.508346 3.949668 7.848191 -0.075027 1.043431 0.002431 0.000723 1210500.000000 1 0 0
-4.271174 -5.020246 5.094968 8.330936 0.865844 0.912750 0.003133 0.001460 -359965.000000 1 0 0
2.896226 5.158154 6.895068 9.084967 1.059178 0.709092 -0.003071 0.000400 641342.000000 1 0 0
1.993926 -7.266946 1.833868 7.755470 -1.303004 1.332074 -0.000943 -0.001018 2163940.000000 1 0 0
-2.416474 6.443054 -1.773632 7.106199 -1.211981 1.823053 -0.001372 -0.000204 444088.000000 1 0 0
2.683626 -3.842046 -6.617732 8.109103 -0.961085 2.525404 -0.002442 -0.001457 -1184190.000000 1 0 0
-5.034674 0.927954 -12.149532 13.184088 -0.182267 2.742799 0.007201 -0.005721 33138.600000 1 0 0
-7.358374 6.342054 -11.930632 15.385295 -0.711352 2.458235 0.000938 -0.006013 2130080.000000 1 0 0
-1.048874 11.312754 -8.988732 14.487092 -1.478345 2.240132 0.006302 0.001166 1728770.000000 1 0 0
4.613926 5.909554 -0.622432 7.523201 0.907900 1.653626 -0.005248 0.002383 639259.000000 1 0 0
-2.720774 13.317054 3.567868 14.052623 -1.369262 1.314093 -0.007440 0.004963 320526.000000 1 0 0
1.370526 -7.916446 10.216568 12.997181 -1.399372 0.666387 -0.006228 0.002125 -1334170.000000 1 0 0
12.898926 -0.255746 -1.081232 12.946689 -0.019824 1.654408 0.009802 -0.007347 -1339920.000000 1 0 0
-0.922974 3.166854 -5.400832 6.328494 -1.287203 2.593299 0.001077 -0.004152 1187730.000000 1 0 0
6.627426 1.152454 7.281468 9.913158 0.172170 0.745829 0.000636 0.001014 1446880.000000 1 0 0
5.339626 -6.158846 6.853968 10.649876 -0.856524 0.871640 0.007669 -0.002307 1549280.000000 1 0 0
12.285726 -4.882346 2.631768 13.479709 -0.378263 1.374295 0.018209 -0.007219 -1156340.000000 1 0 0
4.291826 -9.138246 13.823568 17.117778 -1.131718 0.630800 0.011202 -0.001972 -668325.000000 1 0 0
-2.675974 -4.253846 -1.483332 5.239878 1.009274 1.857806 0.007215 -0.002531 1000580.000000 1 0 0
-9.307474 -5.106346 -7.533032 13.017312 0.501790 2.187922 0.016113 -0.006231 1408710.000000 1 0 0
-10.676974 -3.142546 7.823568 13.604469 0.286246 0.958103 0.001288 -0.000481 -1046990.000000 1 0 0
11.985126 -0.616246 1.674468 12.117213 -0.051372 1.432164 0.008883 -0.005281 -382584.000000 1 0 0
-7.642274 4.718554 4.433268 10.016135 -0.553136 1.112286 0.000805 -0.002897 1727980.000000 1 0 0
-1.190774 10.601754 6.959468 12.737712 -1.458947 0.992776 -0.007998 0.004116 1381710.000000 1 0 0
7.333226 -10.043046 1.976868 12.591544 -0.940102 1.413144 0.009043 -0.006300 4725620.000000 1 0 0
-4.345874 -1.706446 1.644568 4.950069 0.374162 1.232128 0.000780 0.001375 2276450.000000 1 0 0
6.667726 -14.977446 -0.931332 16.421018 -1.151954 1.627543 0.024772 -0.007004 -1387200.000000 1 0 0
-10.440674 1.630754 2.399268 10.836213 -0.154940 1.347534 -0.001044 -0.001649 -1297390.000000 1 0 0
-2.946874 8.295654 -11.295832 14.321235 -1.229469 2.479564 -0.000290 0.002473 -582969.000000 1 0 0
-1.205274 -5.116746 -6.922832 8.692490 1.339459 2.492141 -0.001523 -0.000231 -1592610.000000 1 0 0
12.741226 -0.468246 6.373168 14.253959 -0.036734 1.107258 0.019850 -0.010392 2345070.000000 1 0 0
5.915826 -13.268646 3.727668 14.998316 -1.151399 1.319625 0.015013 -0.005989 598889.000000 1 0 0
-5.571674 3.482654 -5.008632 8.261890 -0.558645 2.222112 0.006293 -0.006008 2252070.000000 1 0 0
-4.344674 8.034554 3.442068 9.761049 -1.075084 1.210413 -0.004324 -0.000074 -264327.000000 1 0 0
14.107426 6.139254 -3.928132 15.878921 0.410461 1.820772 0.025022 -0.002451 -974832.000000 1 0 0
-6.767974 -8.465446 5.304168 12.066625 0.896371 1.115673 0.008618 0.000809 1024220.000000 1 0 0
1.615226 11.375454 2.668368 11.795342 1.429747 1.342599 -0.002806 -0.000978 2419990.000000 1 0 0
-7.370774 7.340954 6.048368 12.033315 -0.783371 1.044152 -0.001457 -0.006475 -1098050.000000 1 0 0
-17.465974 -4.026246 5.088168 18.632240 0.226562 1.294199 0.024007 -0.004151 1109190.000000 1 0 0
7.458126 -13.075146 -8.551632 17.312236 -1.052422 2.087440 0.017771 -0.008413 -1442840.000000 1 0 0
-2.300274 12.781754 -2.767632 13.278715 -1.392737 1.780762 -0.002208 -0.000853 2449670.000000 1 0 0
-5.517974 14.023954 -5.720532 16.119671 -1.195934 1.933581 0.010940 0.000745 1249110.000000 1 0 0
-5.729174 2.393454 7.483068 9.723598 -0.395727 0.692616 0.000620 -0.002014 2115330.000000 1 0 0
-7.377874 5.037954 1.478668 9.055411 -0.599120 1.406771 0.005015 0.000119 214602.000000 1 0 0
10.730726 -5.777646 -4.999632 13.172927 -0.493910 1.960094 0.010539 -0.004100 2148910.000000 1 0 0
-9.588174 -0.751446 6.800668 11.779085 0.078212 0.955316 -0.001848 -0.001951 306592.000000 1 0 0
-11.371274 -4.482146 -2.578732 12.491812 0.375465 1.778725 0.006978 -0.004723 -505396.000000 1 0 0
6.465826 -4.399546 13.625068 15.710041 -0.597471 0.521076 0.023660 -0.004995 -213048.000000 1 0 0
0.300826 10.300154 -11.562332 15.487776 1.541599 2.413651 0.009789 -0.000626 277630.000000 1 0 0
-11.803974 -3.243446 1.419768 12.323534 0.268158 1.455332 0.002397 -0.005359 2990210.000000 1 0 0
5.155026 5.905254 5.517668 9.585978 0.853125 0.957461 -0.004742 0.000559 -5159310.000000 1 0 0
-7.299374 -0.016246 8.201568 10.979382 0.002226 0.727262 -0.002494 -0.001172 55720.400000 1 0 0
1.777826 2.133154 9.656568 10.047901 0.876003 0.280008 0.004706 -0.002381 2996180.000000 1 0 0
10.518726 -4.959246 -2.023932 11.803983 -0.440563 1.743110 0.006489 -0.003046 1817560.000000 1 0 0
-9.670774 -2.284846 -1.672932 10.076859 0.232009 1.737586 0.006762 -0.003797 558663.000000 1 0 0
-1.925474 -5.209846 -9.935332 11.382477 1.216783 2.631834 0.007242 -0.004584 1669580.000000 1 0 0
7.695426 -1.528046 6.600968 10.253159 -0.196016 0.871344 0.007899 -0.002143 613991.000000 1 0 0
1.537226 -11.856246 -2.684032 12.253068 -1.441860 1.791637 -0.001974 0.000210 -4594990.000000 1 0 0
-0.885574 -1.425846 4.784368 5.070252 1.015016 0.337409 0.005528 -0.000595 3126650.000000 1 0 0
7.608426 1.477354 9.906168 12.577872 0.191787 0.663913 0.001099 0.000545 1114760.000000 1 0 0
-3.823174 10.738454 -7.877532 13.855922 -1.228763 2.175516 0.005648 -0.001081 2418940.000000 1 0 0
-9.560474 12.597354 6.388768 17.056152 -0.921606 1.186861 -0.002020 -0.004001 896628.000000 1 0 0
-2.465474 -2.466346 -11.129032 11.662624 0.785575 2.837930 0.009467 -0.009038 -527470.000000 1 0 0
1.145726 -11.930846 11.060968 16.309592 -1.475059 0.825502 -0.001955 0.000877 2093840.000000 1 0 0
1.391426 3.449954 -1.914732 4.183832 1.187434 2.046147 -0.003507 0.000748 212019.000000 1 0 0
-1.744174 -9.436746 -12.055132 15.408457 1.388031 2.469260 -0.001200 0.001197 657131.000000 1 0 0
1.283926 -2.706846 1.573168 3.383835 -1.127899 1.087267 0.004773 -0.000767 2448480.000000 1 0 0
-0.947774 -2.190646 -6.649532 7.064948 1.162467 2.796963 -0.000040 -0.005599 -536398.000000 1 0 0
1.749726 5.844154 4.112468 7.357178 1.279892 0.977649 -0.007921 0.002305 -886390.000000 1 0 0
-10.953874 8.527554 3.654368 14.354823 -0.661491 1.313389 -0.006822 -0.004019 1823780.000000 1 0 0
-16.444674 -1.496246 3.920268 16.971581 0.090737 1.337701 0.017837 -0.004214 422149.000000 1 0 0
-12.333774 0.348754 6.738568 14.058873 -0.028269 1.070927 -0.002053 -0.001686 1032060.000000 1 0 0
-5.221374 3.007054 4.718468 7.653042 -0.522520 0.906446 -0.001803 -0.000208 2457310.000000 1 0 0
5.149726 -6.065946 3.983468 8.898505 -0.866908 1.106654 0.004780 -0.002869 1587790.000000 1 0 0
9.795226 3.470754 6.247868 12.125528 0.340528 1.029479 -0.000760 -0.000629 -116699.000000 1 0 0
-12.166974 5.750454 3.199968 13.832670 -0.441511 1.337348 -0.000107 -0.002476 1802290.000000 1 0 0
-4.887674 12.232754 -1.225432 13.229940 -1.190672 1.663555 -0.005883 0.002255 1408970.000000 1 0 0
-1.756174 -12.275146 10.234668 16.078302 1.428693 0.880778 -0.003992 -0.007712 1226310.000000 1 0 0
5.188426 6.371954 13.912268 16.157746 0.887421 0.533509 0.006115 0.001453 1185150.000000 1 0 0
12.998226 -3.757146 -5.810932 14.725385 -0.281382 1.976451 0.009052 -0.003866 2724360.000000 1 0 0
3.505526 -2.520746 6.396868 7.717693 -0.623416 0.593734 0.000527 0.003208 1277250.000000 1 0 0
7.230426 -11.879446 -0.590232 13.919363 -1.024041 1.613213 0.010379 -0.004037 -211823.000000 1 0 0
-6.003174 -6.533546 -4.104132 9.775952 0.827678 2.004042 0.016837 -0.002681 -674133.000000 1 0 0
0.209426 -8.910246 5.076968 10.257287 -1.547297 1.053005 0.001140 -0.002265 525812.000000 1 0 0
-10.325274 2.593354 -0.337832 10.651333 -0.246075 1.602519 0.002938 0.000654 -1182040.000000 1 0 0
-1.728874 8.933254 -0.362932 9.106248 -1.379627 1.610662 0.000286 -0.000868 -121820.000000 1 0 0
-3.434074 2.381054 -6.620232 7.828778 -0.606256 2.578537 0.008764 -0.009530 1165720.000000 1 0 0
-12.733374 3.010654 6.437968 14.582533 -0.232174 1.113543 0.002022 -0.004136 107025.000000 1 0 0
11.298426 1.651254 7.859568 13.861958 0.145122 0.967951 0.011270 -0.007917 -1468080.000000 1 0 0
5.936626 2.607354 -3.183032 7.223124 0.413835 2.027144 -0.004619 0.003338 1071500.000000 1 0 0
10.475426 -2.423646 6.381868 12.503473 -0.227364 1.035138 0.017394 -0.007124 3640160.000000 1 0 0
-1.005074 11.008954 4.096968 11.789503 -1.479753 1.215882 -0.003652 0.002282 1660480.000000 1 0 0
-1.605274 -12.263546 7.341768 14.383081 1.440638 1.035094 -0.000616 -0.002386 -1495150.000000 1 0 0
8.184426 8.688354 -7.748432 14.230619 0.815256 2.146578 0.004901 -0.006227 466548.000000 1 0 0
-4.685774 -5.901146 -8.679532 11.494098 0.899697 2.426648 0.012355 -0.003667 2223700.000000 1 0 0
-8.534274 -5.359346 -11.691332 15.435144 0.560739 2.430193 0.016709 -0.004131 2163070.000000 1 0 0
6.125026 -0.556046 -9.958632 11.704678 -0.090535 2.588350 0.004049 0.001194 105065.000000 1 0 0
-11.220674 -5.458746 -5.396332 13.594920 0.452781 1.978974 0.008481 -0.007321 -2811610.000000 1 0 0
3.880626 8.917754 -2.745732 10.105673 1.160354 1.845958 0.000939 -0.001160 1284450.000000 1 0 0
11.693126 -10.449946 -3.989632 16.181710 -0.729314 1.819917 0.021759 -0.010281 34879.300000 1 0 0
3.886426 -11.270146 3.980168 12.568303 -1.238723 1.248566 0.004118 -0.004073 460013.000000 1 0 0
-1.051774 0.887754 3.199868 3.483316 -0.701032 0.406205 0.001775 0.000195 -866848.000000 1 0 0
-10.687374 -5.081646 4.480168 12.653655 0.443841 1.208886 0.007459 -0.002746 3351520.000000 1 0 0
4.484426 -8.672546 2.821768 10.162948 -1.093576 1.289447 0.000384 -0.003394 4205230.000000 1 0 0
-3.667574 -5.693546 2.547968 7.236001 0.998535 1.210957 0.004069 0.001156 1215580.000000 1 0 0
10.031426 4.979554 12.316268 16.646799 0.460760 0.737937 0.010155 0.002696 143644.000000 1 0 0
1.620226 -12.293746 -5.342032 13.501801 -1.439759 1.977575 -0.003177 -0.001348 1621020.000000 1 0 0
9.850826 -10.753646 -1.711632 14.683643 -0.829187 1.687629 0.016262 -0.009366 1232150.000000 1 0 0
9.647726 -4.531246 -9.305132 14.149074 -0.439090 2.288491 0.016117 -0.003687 3947680.000000 1 0 0
-7.410074 -3.031046 -13.021432 15.285750 0.388279 2.590337 0.010027 -0.004239 1000380.000000 1 0 0
0.471726 6.257054 -2.465532 6.741817 1.495548 1.945189 -0.004786 0.000080 998104.000000 1 0 0
-6.027374 -9.468446 0.871968 11.257932 1.003917 1.493265 0.008966 0.000208 1647520.000000 1 0 0
-9.004774 -4.031446 0.536568 9.880608 0.420940 1.516464 0.003177 -0.002193 3598830.000000 1 0 0
1.862726 3.835254 12.109868 12.838528 1.118666 0.338529 0.004955 -0.002882 2034850.000000 1 0 0
6.624426 4.298854 9.628368 12.452655 0.575630 0.686928 -0.001884 0.001966 1555770.000000 1 0 0
-8.198974 9.885554 -3.738232 13.376163 -0.878390 1.854038 -0.002752 -0.001629 3084640.000000 1 0 0
16.450426 2.141254 -5.903332 17.608260 0.129436 1.912677 0.024063 -0.005334 -855806.000000 1 0 0
-10.956474 2.634354 -5.163632 12.395453 -0.235959 2.000471 0.000699 -0.001282 3497080.000000 1 0 0
-13.752174 3.979454 1.427368 14.387346 -0.281675 1.471423 0.005597 0.003904 440465.000000 1 0 0
-17.392674 10.563654 3.294768 20.614349 -0.545815 1.410279 0.038718 -0.005870 -969382.000000 1 0 0
-14.329974 2.900754 -1.182032 14.668324 -0.199727 1.651468 0.008864 0.001371 482600.000000 1 0 0
-14.389574 5.159354 5.112568 16.118844 -0.344270 1.248042 0.004285 -0.001006 693003.000000 1 0 0
-17.408274 7.625554 3.080968 19.253297 -0.412865 1.410083 0.027506 0.002219 -1932890.000000 1 0 0
-14.584674 12.542254 -3.561232 19.562802 -0.710249 1.753858 0.023658 -0.015173 -81243.500000 1 0 0
-8.455174 12.489854 -9.586632 17.871484 -0.975699 2.136986 0.012685 -0.013581 1756880.000000 1 0 0
-12.330874 8.758554 -9.867332 18.058986 -0.617602 2.148850 0.013573 -0.006061 -1631720.000000 1 0 0
-13.840074 -3.612746 -12.177732 18.785546 0.255337 2.276080 0.027506 -0.002613 -637235.000000 1 0 0
-14.701174 5.587654 -7.688432 17.505953 -0.363219 2.025493 0.021599 0.001577 -159584.000000 1 0 0
-10.957574 13.434754 -8.485032 19.301731 -0.886607 2.025949 0.026144 -0.019392 2143160.000000 1 0 0
-10.898374 13.405554 3.974368 17.727917 -0.888194 1.344688 0.000753 -0.002205 -1378470.000000 1 0 0
-15.208974 3.263654 3.028468 15.847269 -0.211382 1.378510 0.009073 0.004174 53609.900000 1 0 0
-11.036874 9.486354 -12.434332 19.141999 -0.709992 2.277833 0.016373 -0.009413 -1254100.000000 1 0 0
-13.130874 11.497554 -9.073732 19.670949 -0.719177 2.050229 0.035045 -0.023328 43175.200000 1 0 0
-8.828274 14.683554 -3.458932 17.478827 -1.029469 1.770004 -0.001264 -0.005079 2809100.000000 1 0 0
-16.659174 8.271654 -4.374132 19.107103 -0.460862 1.801772 0.036336 -0.002623 -1879100.000000 1 0 0
-16.860274 6.804254 0.306568 18.184078 -0.383578 1.553936 0.030264 0.002341 -536732.000000 1 0 0
-10.334474 2.930954 -12.383732 16.393556 -0.276353 2.427064 0.004848 -0.014622 1215250.000000 1 0 0
-16.904174 0.948554 2.265168 17.081623 -0.056055 1.437796 0.016417 -0.001771 222203.000000 1 0 0
-12.625774 1.170954 -7.011032 14.489164 -0.092479 2.075880 0.007687 -0.006763 2248990.000000 1 0 0
-12.299774 8.926954 -5.506032 16.164509 -0.627821 1.918378 0.011917 -0.003685 -107253.000000 1 0 0
-9.690474 13.891654 1.278968 16.985850 -0.961700 1.495429 0.006693 -0.002163 467086.000000 1 0 0
-12.214274 11.017454 2.731168 16.674293 -0.733927 1.406260 0.001054 0.000039 -387801.000000 1 0 0
-12.551974 6.802054 -3.717732 14.752679 -0.496612 1.825547 -0.000102 0.002559 -535295.000000 1 0 0
-15.574774 3.459554 -9.457732 18.546989 -0.218577 2.105904 0.013452 -0.004909 -2004500.000000 1 0 0
-15.120074 5.797854 -4.849232 16.904047 -0.366162 1.861752 0.016216 0.005452 2013020.000000 1 0 0
-18.031974 5.214554 7.466768 20.201393 -0.281504 1.192200 0.025987 -0.005494 -1123410.000000 1 0 0
-15.657274 10.132754 -2.423432 18.806806 -0.574376 1.700015 0.030563 -0.002558 -1872820.000000 1 0 0
-8.750374 9.905354 -8.407532 15.664344 -0.847229 2.137354 0.001970 -0.007869 268325.000000 1 0 0
-16.962474 4.222354 -1.371632 17.533829 -0.243965 1.649104 0.016922 0.002553 178442.000000 1 0 0
-10.199074 5.386154 -4.593232 12.414892 -0.485876 1.949781 0.000303 -0.001374 -428018.000000 1 0 0
-18.141874 2.734154 6.055168 19.320151 -0.149584 1.252012 0.025008 -0.009636 -462863.000000 1 0 0
-10.326274 10.069954 -5.851732 15.565304 -0.772832 1.956215 -0.000772 -0.005340 2267050.000000 1 0 0
-15.396774 0.433354 -5.861432 16.480438 -0.028138 1.934416 0.012142 -0.002860 1285680.000000 1 0 0
-16.389974 -4.178646 -8.890832 19.108617 0.249633 2.054746 0.034662 -0.017071 -1165650.000000 1 0 0
-9.951274 9.596954 -1.182732 13.875454 -0.767275 1.656139 -0.006054 0.001927 2146890.000000 1 0 0
-17.402174 -2.995646 -3.331132 17.969586 0.170471 1.757251 0.025430 -0.008543 -608855.000000 1 0 0
-11.965874 5.098354 -11.544832 17.391334 -0.402780 2.296720 0.013682 -0.008417 -5425.910000 1 0 0
-16.377774 7.083654 5.831668 18.772799 -0.408220 1.254925 0.020163 -0.000333 -379907.000000 1 0 0
-12.049274 5.987754 -8.836132 16.097063 -0.461196 2.151878 0.009680 -0.003727 -177208.000000 1 0 0
-14.538374 8.489054 -0.267932 16.837462 -0.528502 1.586710 0.021311 0.001204 1699340.000000 1 0 0
-14.860974 11.922054 3.752168 19.418102 -0.676105 1.376343 0.010386 -0.005755 930946.000000 1 0 0
-17.267174 4.109754 -4.173932 18.233680 -0.233662 1.801758 0.019831 0.000750 -499921.000000 1 0 0
-13.768174 13.244154 -0.893132 19.125060 -0.766001 1.617513 0.026298 -0.014612 -165802.000000 1 0 0
-9.970974 6.877154 -13.117532 17.854558 -0.603791 2.396003 0.002308 -0.011564 1828290.000000 1 0 0
-15.861174 -1.156646 -8.402332 17.986491 0.072794 2.056857 0.019252 -0.012362 683387.000000 1 0 0
-11.440174 11.761354 -0.110132 16.407899 -0.799240 1.577509 0.006303 -0.003343 -8121.810000 1 0 0
-11.939574 7.432954 -0.985832 14.098727 -0.556834 1.640777 -0.002028 0.005337 1650280.000000 1 0 0
-11.396374 0.232854 -11.696532 16.332190 -0.020429 2.369087 0.007723 -0.012156 22622.300000 1 0 0
-19.179174 -1.231046 -4.871932 19.826546 0.064099 1.819067 0.032430 -0.007409 487009.000000 1 0 0
-17.940374 1.480154 -5.162832 18.727058 -0.082318 1.850102 0.013467 -0.000185 -1466380.000000 1 0 0
-13.314474 -0.138646 -9.502932 16.358489 0.010413 2.190652 0.015079 -0.011816 -1136020.000000 1 0 0
-6.055474 11.371054 -13.121632 18.388770 -1.081461 2.365374 -0.004512 -0.000757 -1251550.000000 1 0 0
16.348526 5.847554 7.021968 18.729021 0.343501 1.186481 0.046412 -0.010159 794668.000000 1 0 0
14.920426 10.202454 -5.472832 18.885472 0.599764 1.864804 0.048172 -0.012023 224224.000000 1 0 0
2.379826 16.911054 4.353868 17.623946 1.430988 1.321169 0.007017 -0.007757 2754070.000000 1 0 0
-3.912874 18.318754 -5.842232 19.621901 -1.360359 1.873121 0.007857 -0.006731 2389870.000000 1 0 0
5.350126 14.519854 5.667668 16.479456 1.217763 1.219705 0.015203 -0.008903 -1093550.000000 1 0 0
9.773126 5.916854 15.102868 18.937258 0.544396 0.647621 0.021856 0.002656 -788455.000000 1 0 0
4.678226 12.776054 -1.088932 13.649144 1.219788 1.650661 0.005129 -0.006761 2795150.000000 1 0 0
3.378426 13.812754 12.865068 19.175920 1.330918 0.835379 0.007777 -0.003677 -1058990.000000 1 0 0
-0.896074 12.389054 9.302668 15.518738 -1.498594 0.927986 -0.004667 -0.000086 1090260.000000 1 0 0
-7.864574 13.884454 8.337768 18.004109 -1.055426 1.089303 0.007300 -0.012266 1958120.000000 1 0 0
11.449026 12.893854 -4.212432 17.750387 0.844682 1.810397 0.017591 -0.008392 1050550.000000 1 0 0
-5.870574 16.158354 0.866468 17.213564 -1.222309 1.520439 -0.005697 0.002143 -94779.200000 1 0 0
3.129926 10.581554 6.780368 12.951413 1.283206 1.019815 -0.002284 0.003210 2603370.000000 1 0 0
-1.258374 15.510254 2.445168 15.752153 -1.489842 1.414939 -0.002619 -0.001791 -1745570.000000 1 0 0
9.871026 8.875254 9.568568 16.363519 0.732330 0.946225 0.022059 -0.005135 1680220.000000 1 0 0
7.172926 12.273254 6.283368 15.542340 1.041900 1.154611 0.013097 -0.007552 -495.113000 1 0 0
11.807226 13.976554 -1.557632 18.362485 0.869336 1.655725 0.009422 -0.011580 378.522000 1 0 0
9.749026 15.985954 -1.010632 18.751416 1.023166 1.624719 0.010942 -0.007641 1015770.000000 1 0 0
10.110526 13.663254 3.064768 17.271365 0.933739 1.392404 0.018748 -0.007148 2662110.000000 1 0 0
-6.140174 14.524654 6.251368 16.963104 -1.170840 1.193372 -0.006194 -0.001886 -830663.000000 1 0 0
-0.909574 18.295654 -6.141432 19.320338 -1.521122 1.894283 0.031933 -0.007938 1353870.000000 1 0 0
-3.593974 15.668554 5.472068 16.981276 -1.345322 1.242700 -0.007585 0.000768 2296700.000000 1 0 0
6.937226 12.306254 10.624268 17.676087 1.057484 0.925978 0.013298 -0.001889 1861540.000000 1 0 0
1.352826 14.560254 6.171968 15.872124 1.478150 1.171407 0.001476 -0.002360 701450.000000 1 0 0
17.467926 7.784654 -1.289032 19.167443 0.419234 1.638098 0.028570 -0.000637 -749996.000000 1 0 0
2.058226 16.271254 -3.241132 16.718102 1.444970 1.765901 0.017619 -0.013097 1200660.000000 1 0 0
6.726826 11.150254 0.596568 13.035883 1.027962 1.525017 0.007316 -0.003480 1417490.000000 1 0 0
12.614626 9.305354 3.251968 16.009175 0.635559 1.366241 0.016016 0.001696 -1641710.000000 1 0 0
6.106526 14.337854 -3.327732 15.935417 1.168162 1.781171 0.007435 -0.009329 241938.000000 1 0 0
2.969826 16.534754 1.531468 16.869005 1.393080 1.479885 0.014770 -0.016871 -2035230.000000 1 0 0
2.787826 18.959354 -2.377232 19.310109 1.424800 1.694218 0.024961 -0.023753 187674.000000 1 0 0
3.850026 11.922954 10.668068 16.455613 1.258457 0.865455 0.007596 0.000742 3262020.000000 1 0 0
7.994226 11.547554 3.455168 14.463465 0.965265 1.329574 0.007954 -0.000958 479876.000000 1 0 0
0.724426 12.544654 0.175968 12.566785 1.513113 1.556793 0.004335 -0.005249 -1991580.000000 1 0 0
12.035226 9.953354 -4.562732 16.270662 0.691000 1.855035 0.012210 -0.004320 1055290.000000 1 0 0
-1.369174 16.457654 9.942868 19.276660 -1.487794 1.028857 0.000115 -0.003225 -1157950.000000 1 0 0
8.289426 14.762954 -7.927232 18.694930 1.059165 2.008688 0.017957 -0.007953 1678170.000000 1 0 0
14.550226 7.694954 -1.343332 16.514416 0.486464 1.652229 0.015364 0.001036 213986.000000 1 0 0
12.407526 8.271154 6.071068 16.100203 0.587973 1.184155 0.020494 -0.005243 -877646.000000 1 0 0
-3.176874 14.213854 10.276068 17.824807 -1.350905 0.956353 0.000335 -0.007877 1776600.000000 1 0 0
-4.516874 17.134854 -3.107832 17.990664 -1.313052 1.744414 0.004939 -0.009515 -872301.000000 1 0 0
-7.042374 16.510754 -1.793832 18.039342 -1.167628 1.670401 0.000525 0.000109 -410638.000000 1 0 0
8.330926 11.289454 -1.813232 14.147223 0.935059 1.699319 0.008145 -0.004036 -1199750.000000 1 0 0
8.571426 12.974954 -4.111832 16.084960 0.986996 1.829298 0.014303 -0.007938 1637610.000000 1 0 0
2.598726 14.929254 -7.262432 16.804134 1.398454 2.017707 0.010660 -0.007968 -1073970.000000 1 0 0
11.238326 11.389954 9.753468 18.739294 0.792099 1.023381 0.037546 -0.011272 735667.000000 1 0 0
8.496126 15.619754 1.552668 17.848575 1.072622 1.483695 0.013261 -0.012767 1166170.000000 1 0 0
5.954426 9.963954 7.770568 13.968439 1.032146 0.980876 0.007723 0.001409 3154640.000000 1 0 0
14.359526 11.461054 2.625968 18.559295 0.673612 1.428829 0.028112 0.000368 2665240.000000 1 0 0
12.093326 12.600654 1.127268 17.501307 0.805940 1.506341 0.017620 -0.001338 2105690.000000 1 0 0
5.058326 15.898654 8.208668 18.593980 1.262763 1.113561 0.022231 -0.009374 -1376640.000000 1 0 0
11.654226 15.024854 5.124668 19.693385 0.911072 1.307543 0.045131 -0.013319 772007.000000 1 0 0
5.878426 16.701554 1.663668 17.783857 1.232369 1.477110 0.010864 -0.022806 -157563.000000 1 0 0
-0.665674 16.212854 -4.111532 16.739308 -1.529761 1.818957 0.011468 -0.007651 1741630.000000 1 0 0
15.952426 6.342054 2.581668 17.359912 0.378402 1.421528 0.010632 -0.002378 81589.700000 1 0 0
7.828226 16.771954 -3.110632 18.768473 1.134105 1.737302 0.016127 -0.011041 1153880.000000 1 0 0
14.809426 8.148154 7.468968 18.479637 0.502997 1.154722 0.048446 -0.006956 -1536000.000000 1 0 0
1.935326 12.859254 8.552468 15.564402 1.421417 0.989044 0.004051 -0.000496 775027.000000 1 0 0
16.109626 7.447954 -5.688832 18.637459 0.433060 1.880983 0.032520 -0.003061 -604263.000000 1 0 0
-3.057274 17.018554 0.718668 17.305912 -1.393049 1.529257 -0.003408 -0.001990 1874400.000000 1 0 0
-2.991574 18.448654 4.561868 19.238321 -1.410039 1.331392 -0.002763 -0.004987 715900.000000 1 0 0
-1.026574 19.112054 0.762768 19.154798 -1.517134 1.530965 0.004262 -0.010427 -790499.000000 1 0 0
7.115626 16.743354 -5.981932 19.150863 1.168941 1.888471 0.020198 -0.011060 791505.000000 1 0 0
10.926026 10.016254 0.881368 14.848575 0.741984 1.511404 0.006300 0.002610 -1845610.000000 1 0 0
9.096326 8.623154 14.252968 18.980227 0.758701 0.721315 0.023715 -0.002174 -97385.500000 1 0 0
6.433926 12.478254 -8.326732 16.322889 1.094738 2.106128 0.021209 -0.011219 348945.000000 1 0 0
6.346426 9.023554 13.357068 17.323767 0.957847 0.690346 0.008852 0.001117 11816.300000 1 0 0
16.573926 9.352754 2.863168 19.244915 0.513760 1.421467 0.024913 -0.002697 -2032560.000000 1 0 0
2.537126 14.706954 -0.747132 14.942881 1.399966 1.620816 0.008939 -0.011120 -37221.200000 1 0 0
9.020026 12.910354 8.361668 17.831309 0.960966 1.082715 0.028300 -0.013982 99130.700000 1 0 0
7.141226 9.353054 10.571568 15.818810 0.918700 0.838887 0.005065 -0.002354 1397890.000000 1 0 0
4.414626 15.893354 -5.210632 17.298506 1.299861 1.876767 0.021805 -0.012554 1956880.000000 1 0 0
0.287326 16.372954 -7.970832 18.212368 1.553249 2.023791 0.022229 -0.009717 1390780.000000 1 0 0
-2.448174 15.689354 -1.883932 15.990578 -1.416004 1.688886 -0.003383 -0.001475 371615.000000 1 0 0
13.204226 10.434054 7.766368 18.534765 0.668740 1.138435 0.053551 -0.009859 2304930.000000 1 0 0
-1.085474 15.869254 7.040468 17.394817 -1.502502 1.154096 -0.000660 -0.002761 3273510.000000 1 0 0
13.375926 13.223554 6.792768 19.997986 0.779670 1.224228 0.058256 -0.014599 146209.000000 1 0 0
5.342326 17.307354 4.481168 18.659202 1.271401 1.328267 0.018005 -0.018156 179034.000000 1 0 0
10.786426 9.553854 -1.828132 14.524640 0.724875 1.696995 0.004253 0.000440 -561129.000000 1 0 0
3.167926 12.726754 4.710668 13.935437 1.326836 1.225968 0.002235 0.000737 1020200.000000 1 0 0
-0.234474 18.067154 3.459968 18.396967 -1.557819 1.381597 0.002804 -0.006060 2154030.000000 1 0 0
-7.715574 15.988154 -5.789432 18.672672 -1.121181 1.886040 0.024194 -0.014355 143667.000000 1 0 0
-12.497174 -9.173146 8.243668 17.558019 0.633194 1.082060 0.017365 -0.000817 -387503.000000 1 0 0
-13.322874 -11.680746 6.704768 18.944464 0.719817 1.209040 0.022903 -0.002134 -2369240.000000 1 0 0
-6.486474 -12.360146 12.234268 18.561381 1.087514 0.851142 0.009961 -0.014660 218995.000000 1 0 0
-1.907674 -10.806146 14.317168 18.038661 1.396061 0.653940 -0.000973 -0.009687 249685.000000 1 0 0
-8.882374 2.919654 11.008468 14.443244 -0.317577 0.704110 -0.000069 -0.001059 1702730.000000 1 0 0
0.416926 10.040054 15.252468 18.265111 1.529294 0.582554 -0.004250 -0.000585 -312127.000000 1 0 0
0.871626 -6.825646 16.591268 17.961607 -1.443785 0.393149 0.008444 -0.012363 1115370.000000 1 0 0
6.050026 2.223354 17.812668 18.943000 0.352175 0.347198 0.030931 -0.003967 3042990.000000 1 0 0
-5.275674 -3.001446 17.550668 18.570604 0.517254 0.332964 0.012691 -0.010164 -170137.000000 1 0 0
-4.418874 8.186254 13.071068 16.043504 -1.075824 0.618539 0.001008 -0.003506 127511.000000 1 0 0
-0.154874 -4.982346 18.505568 19.165171 1.539722 0.263120 0.004699 -0.017809 600361.000000 1 0 0
-11.640274 2.095954 11.116868 16.231874 -0.178152 0.816359 0.004299 -0.003458 129808.000000 1 0 0
-3.476174 -6.111446 14.387868 16.013878 1.053636 0.454542 0.002881 -0.009047 1256200.000000 1 0 0
-7.535774 -2.344346 14.526868 16.532203 0.301605 0.497662 0.002370 -0.002294 623670.000000 1 0 0
-6.196274 -1.164246 10.631568 12.360401 0.185729 0.535269 0.001980 -0.002156 1322310.000000 1 0 0
-4.005774 2.416354 11.222568 12.158578 -0.542782 0.394948 0.002065 0.001217 248735.000000 1 0 0
-6.518774 6.232754 13.621168 16.336396 -0.762972 0.584854 -0.005466 -0.000187 1503850.000000 1 0 0
-9.042274 5.465754 12.524068 16.385648 -0.543697 0.700792 -0.000806 -0.003031 -536645.000000 1 0 0
-12.301974 -2.375946 15.715268 20.098590 0.190786 0.673074 0.006443 -0.003859 -700846.000000 1 0 0
-3.504474 -7.776646 16.853568 18.889158 1.147410 0.468526 0.013254 -0.012575 -1462150.000000 1 0 0
-0.608474 -5.354846 14.390068 15.366153 1.457651 0.358346 0.000851 -0.004063 1435400.000000 1 0 0
-14.241074 -2.206746 13.614868 19.825300 0.153734 0.813799 0.013996 -0.004568 -1077810.000000 1 0 0
-6.559374 1.461454 12.187368 13.917369 -0.219223 0.503924 0.000563 0.001507 2417350.000000 1 0 0
2.131326 -2.234846 14.623168 14.945706 -0.809103 0.208128 0.006013 -0.001318 152978.000000 1 0 0
-12.600074 3.988554 9.171868 16.087063 -0.306570 0.964121 -0.001505 -0.004317 -1397220.000000 1 0 0
-9.167674 -3.185446 12.497268 15.823243 0.334415 0.660306 -0.001885 0.000232 851293.000000 1 0 0
-7.108274 -7.294546 15.192568 18.290765 0.798330 0.590587 0.011421 -0.013022 -403011.000000 1 0 0
-3.260074 6.006554 19.506668 20.669225 -1.073534 0.336990 0.019345 -0.012572 -961175.000000 1 0 0
0.615326 5.445754 16.135068 17.040401 1.458282 0.327432 0.009898 -0.004774 2166160.000000 1 0 0
3.284226 1.468754 16.847668 17.227515 0.420535 0.210382 0.017241 -0.003946 2038570.000000 1 0 0
-11.758174 11.325354 7.751968 18.072390 -0.766650 1.127478 0.002549 -0.015533 -611699.000000 1 0 0
0.564626 -9.553246 15.401468 18.132527 -1.511762 0.555980 -0.003268 -0.004485 1640310.000000 1 0 0
-2.712774 -3.717246 18.769468 19.325371 0.940362 0.240435 0.017866 -0.019293 801927.000000 1 0 0
-12.874074 2.383654 13.796268 19.020005 -0.183078 0.759245 0.005005 -0.005781 -89515.500000 1 0 0
-5.496574 -0.619246 15.694768 16.640959 0.112187 0.338840 0.008425 0.000153 1031600.000000 1 0 0
-4.497774 -6.056646 11.660268 13.887936 0.932037 0.574256 -0.000495 -0.002508 1751830.000000 1 0 0
2.331126 1.873354 14.021968 14.337335 0.676948 0.210130 0.004780 -0.000470 -1023460.000000 1 0 0
0.053826 3.331254 14.307568 14.690359 1.554640 0.228785 0.009416 -0.004826 210601.000000 1 0 0
-13.100174 7.140254 12.194268 19.269093 -0.499035 0.885580 0.011282 -0.006684 888233.000000 1 0 0
0.758326 1.539554 18.349368 18.429449 1.113117 0.093257 0.013817 -0.004222 2191710.000000 1 0 0
-2.124774 6.389954 12.566268 14.256832 -1.249780 0.491935 -0.000751 -0.001106 1921130.000000 1 0 0
-13.488774 -2.707646 10.826368 17.506816 0.198101 0.904080 0.014233 -0.003613 480698.000000 1 0 0
-2.670574 3.577354 13.594568 14.308798 -0.929525 0.317290 0.004806 0.000513 -120721.000000 1 0 0
3.504426 6.142054 16.333368 17.798447 1.052303 0.408582 0.011565 -0.001464 -42585.400000 1 0 0
-3.832274 12.301654 12.347668 17.846061 -1.268800 0.806681 0.003719 -0.013032 -1194090.000000 1 0 0
3.604126 -1.549246 17.198168 17.639922 -0.405974 0.224268 0.025674 -0.004222 246726.000000 1 0 0
-15.905774 0.270254 9.125168 18.339448 -0.016989 1.050001 0.024788 -0.007276 2177790.000000 1 0 0
-4.798974 4.539354 15.302768 16.667651 -0.757604 0.407507 0.005404 0.000922 1266870.000000 1 0 0
-8.084674 -8.290346 10.440568 15.591576 0.797958 0.837088 0.008695 -0.006650 3649310.000000 1 0 0
-2.719074 -0.463646 14.755168 15.010773 0.168892 0.184806 0.008772 -0.001721 2550990.000000 1 0 0
-1.955174 0.981754 17.246668 17.384881 -0.465351 0.126181 0.009689 -0.006671 1056450.000000 1 0 0
-0.727674 -2.464246 14.451268 14.677914 1.283664 0.175961 0.006929 -0.002361 -763212.000000 1 0 0
4.916826 -8.292146 16.485768 19.097523 -1.035577 0.529141 0.021312 -0.004743 652091.000000 1 0 0
-4.523474 9.891254 10.667868 15.234898 -1.141871 0.795083 -0.005608 -0.008196 -2287780.000000 1 0 0
-6.336674 2.081354 15.239468 16.635109 -0.317360 0.412547 0.006565 0.001654 185219.000000 1 0 0
-4.991174 6.856154 17.310768 19.276445 -0.941535 0.455532 0.012510 -0.000188 784918.000000 1 0 0
-4.200474 9.218854 15.786768 18.757752 -1.143262 0.570534 0.005536 -0.006140 -1615030.000000 1 0 0
-4.774874 -9.930446 18.325668 21.383248 1.122601 0.541356 0.032226 -0.017490 -940094.000000 1 0 0
-6.820474 -4.163846 11.150168 13.717971 0.548099 0.621829 0.002308 -0.000639 982862.000000 1 0 0
-2.475874 -0.922746 19.469868 19.648337 0.356748 0.134885 0.016306 -0.010598 -201054.000000 1 0 0
-5.843374 -4.582446 15.271368 16.981122 0.665040 0.452597 0.009731 -0.005823 -64346.500000 1 0 0
-12.992874 0.016854 9.679868 16.202311 -0.001297 0.930495 0.005590 -0.002655 789623.000000 1 0 0
-14.368774 8.895854 10.315868 19.799369 -0.554353 1.022751 -0.003477 -0.006896 -2843300.000000 1 0 0
-8.335874 10.602054 12.850568 18.628672 -0.904495 0.809546 0.005810 -0.018634 126713.000000 1 0 0
-10.541574 7.185554 10.725168 16.666919 -0.598297 0.871734 0.006659 -0.009204 -119400.000000 1 0 0
-9.850474 -6.730346 14.775968 18.991014 0.599396 0.679240 0.006856 -0.008344 -1331150.000000 1 0 0
-0.695774 -13.461246 14.426068 19.743370 1.519155 0.751480 0.001657 -0.007447 745770.000000 1 0 0
3.619926 -5.702046 17.062568 18.350706 -1.005147 0.376915 0.023318 -0.008466 1544520.000000 1 0 0
-7.351774 9.276754 10.424268 15.772511 -0.900649 0.848761 -0.005535 -0.011249 817099.000000 1 0 0
-10.376874 -6.830646 11.842068 17.163094 0.582158 0.809345 0.013704 -0.007135 2647610.000000 1 0 0
-10.953474 -4.094646 10.624368 15.799427 0.357737 0.833279 0.008995 -0.000790 259362.000000 1 0 0
-10.159274 -10.333146 9.741668 17.460952 0.793883 0.978929 0.017441 -0.009830 1202350.000000 1 0 0
-9.868474 -3.793846 15.226868 18.537463 0.367022 0.606917 0.008481 -0.008306 529168.000000 1 0 0
5.495426 -3.442946 16.208668 17.457792 -0.559685 0.380581 0.028953 -0.001947 784924.000000 1 0 0
-11.290374 0.409654 15.236068 18.967818 -0.036268 0.638050 0.005447 -0.002761 675466.000000 1 0 0
-3.302874 3.132554 18.878268 19.419342 -0.758938 0.236614 0.012661 -0.006126 -446364.000000 1 0 0
0.500226 7.360454 13.967968 15.796538 1.502939 0.485927 0.002067 -0.002410 1153740.000000 1 0 0
-13.161874 -7.425946 12.248768 19.452812 0.513681 0.889674 0.020138 -0.007656 -772009.000000 1 0 0
-1.510874 -1.078946 12.187268 12.327869 0.620140 0.151175 0.005835 -0.001552 1146550.000000 1 0 0
1.945726 -4.868546 13.197268 14.200580 -1.190590 0.378156 0.001995 -0.001780 1373880.000000 1 0 0
-14.751374 -4.106046 8.554968 17.539958 0.271478 1.061295 0.019155 -0.005152 -1310350.000000 1 0 0
8.083926 0.870354 16.081968 18.020462 0.107252 0.468098 0.031678 -0.002735 933400.000000 1 0 0
-1.375374 11.364954 13.435968 17.651602 -1.450363 0.705673 -0.005881 -0.003095 404875.000000 1 0 0
2.921826 -12.343146 -13.850732 18.781190 -1.338358 2.400126 -0.003262 0.007177 -1342210.000000 1 0 0
0.898526 -10.691446 -14.022632 17.656404 -1.486952 2.488478 -0.006217 0.006157 -1675350.000000 1 0 0
3.185926 -14.304846 -12.335132 19.155528 -1.351656 2.270442 -0.005409 -0.001175 -2584200.000000 1 0 0
-5.201074 -10.188946 -16.063932 19.720946 1.098814 2.522770 0.023331 -0.011276 -155465.000000 1 0 0
-1.024174 -12.079646 -15.102832 19.366526 1.486214 2.465210 0.002322 0.004467 -34670.500000 1 0 0
5.711326 -15.049946 -12.147532 20.166375 -1.208094 2.217258 0.010048 0.003525 1416440.000000 1 0 0
1.934826 -11.873146 -16.135032 20.125964 -1.409258 2.500934 0.002083 0.001468 -748430.000000 1 0 0
1.422426 -14.465546 -14.088832 20.242789 -1.472779 2.340598 0.003359 0.010662 -543793.000000 1 0 0
-1.147874 -10.781046 -15.899632 19.244399 1.464724 2.543117 0.009288 -0.002974 -247470.000000 1 0 0
-5.692274 -5.439346 -14.800132 16.764021 0.762681 2.652695 0.012861 -0.010124 -291225.000000 1 0 0
-6.416974 -7.515846 -16.260232 19.027892 0.864105 2.595475 0.019811 -0.012554 969524.000000 1 0 0
5.025026 -12.597246 -11.462232 17.757372 -1.191240 2.272463 0.002283 0.003738 -358820.000000 1 0 0
-1.671974 -15.489346 -13.221332 20.433281 1.463269 2.274504 0.007974 -0.001434 396901.000000 1 0 0
15.746026 -7.529446 -8.845132 19.566969 -0.446040 2.039852 0.029306 0.002833 712001.000000 1 0 0
19.245126 -3.464246 -4.215432 20.003643 -0.178099 1.783121 0.050702 -0.019711 1017470.000000 1 0 0
14.829326 -11.807046 -8.785232 20.892476 -0.672417 2.004790 0.029839 -0.009488 276999.000000 1 0 0
17.826526 -3.438346 -6.454132 19.268188 -0.190538 1.912362 0.054784 -0.008798 547026.000000 1 0 0
9.633026 -8.964046 -15.321932 20.196805 -0.749441 2.432006 0.047777 -0.021127 -53734.200000 1 0 0
1.319126 1.944554 -15.249932 15.429900 0.974735 2.988712 0.008719 -0.002644 -49983.900000 1 0 0
4.861026 -4.359446 -13.943332 15.396456 -0.731053 2.703635 0.003677 -0.002495 734601.000000 1 0 0
13.158026 -5.646646 -8.522832 16.663041 -0.405373 2.107704 0.027636 -0.001794 -938597.000000 1 0 0
3.039326 1.026554 -12.279632 12.691757 0.325727 2.886058 0.004470 -0.003533 -2760930.000000 1 0 0
0.683726 6.428654 -12.912232 14.440250 1.464839 2.677400 0.008662 -0.002804 553397.000000 1 0 0
3.273726 -1.155946 -16.759432 17.115258 -0.339432 2.937326 0.011718 -0.004047 -67998.700000 1 0 0
13.224326 4.285354 -11.300932 17.915304 0.313373 2.253377 0.005481 -0.006681 1041740.000000 1 0 0
-3.826674 9.460654 -16.503632 19.404053 -1.186431 2.587779 0.002124 0.002923 893786.000000 1 0 0
-0.102974 -5.076546 -17.627632 18.344355 1.550515 2.861137 0.011119 -0.012244 564526.000000 1 0 0
-0.436674 -8.717946 -17.513032 19.567820 1.520749 2.679208 0.009137 -0.007933 -999404.000000 1 0 0
5.724726 -10.127046 -12.165232 16.832184 -1.056289 2.378550 0.005236 0.000785 256845.000000 1 0 0
1.869926 -9.807146 -18.031332 20.610815 -1.382388 2.635918 0.018776 -0.005855 -315011.000000 1 0 0
10.970726 8.908054 -14.484432 20.236330 0.682006 2.368514 0.043544 -0.021494 1204580.000000 1 0 0
11.239626 -3.810246 -12.890532 17.521786 -0.326843 2.397475 0.029339 -0.005658 241870.000000 1 0 0
4.968526 7.534054 -12.222832 15.193612 0.987789 2.505582 -0.001226 -0.000964 148769.000000 1 0 0
9.774026 -5.936346 -12.592532 17.010105 -0.545813 2.404309 0.026238 -0.007378 -530844.000000 1 0 0
-3.233474 0.455354 -15.893032 16.225017 -0.139905 2.938953 0.011921 -0.004659 -843511.000000 1 0 0
-0.678974 10.812154 -12.753732 16.733839 -1.508081 2.437427 0.007881 0.000129 -994757.000000 1 0 0
6.715426 -5.451546 -12.477632 15.182477 -0.681891 2.535437 0.010127 -0.001554 -298053.000000 1 0 0
17.866926 -6.160946 -8.084532 20.555874 -0.332056 1.975010 0.044398 -0.009482 685916.000000 1 0 0
13.029226 4.770454 -13.818232 19.582173 0.350976 2.354142 0.014329 -0.014071 242563.000000 1 0 0
14.310626 0.835154 -11.433632 18.336288 0.058293 2.244075 0.017170 0.001493 169418.000000 1 0 0
15.226426 6.138054 -10.953932 19.735967 0.383192 2.159188 0.040496 -0.019946 624266.000000 1 0 0
8.300326 1.578754 -11.752332 14.474294 0.187959 2.518273 -0.003658 0.006202 879422.000000 1 0 0
10.030926 1.242954 -8.846332 13.432126 0.123284 2.289747 0.001891 0.003406 229828.000000 1 0 0
-0.163374 -5.771746 -12.995032 14.220078 1.542498 2.723465 -0.000498 -0.002691 556539.000000 1 0 0
10.572426 -5.835846 -9.097432 15.119410 -0.504368 2.216431 0.018017 -0.006520 1134770.000000 1 0 0
10.413426 8.535854 -11.047032 17.416577 0.686636 2.257877 0.025810 -0.017284 1010460.000000 1 0 0
8.466526 8.241954 -14.579532 18.766316 0.771958 2.460522 0.027453 -0.005901 231989.000000 1 0 0
8.689326 10.602454 -10.537732 17.290466 0.884243 2.226167 0.024755 -0.016944 511519.000000 1 0 0
7.122026 1.840454 -17.842532 19.299391 0.252885 2.750552 0.020260 -0.001108 -946526.000000 1 0 0
12.241226 2.505654 -12.760732 17.859513 0.201901 2.366714 0.016240 -0.005285 -1264990.000000 1 0 0
2.991826 -0.813346 -19.266332 19.514203 -0.265441 2.982037 0.019831 -0.009551 -209701.000000 1 0 0
10.432526 -2.140546 -15.427432 18.746339 -0.202371 2.537393 0.039976 -0.007435 426790.000000 1 0 0
8.344126 -0.834446 -13.052332 15.513998 -0.099673 2.570528 0.007352 -0.000099 625980.000000 1 0 0
0.711026 4.426854 -14.644532 15.315513 1.411540 2.844493 0.008032 -0.000008 -47242.800000 1 0 0
4.010926 -7.679246 -15.681432 17.915515 -1.089463 2.636850 0.011085 -0.005077 -3153180.000000 1 0 0
11.680326 -5.911746 -14.375132 19.442818 -0.468538 2.402907 0.043450 -0.008571 -375428.000000 1 0 0
-5.767074 4.410554 -16.828832 18.328168 -0.652895 2.734296 0.009197 -0.002774 152590.000000 1 0 0
11.509526 7.809854 -8.884932 16.504697 0.596188 2.139248 0.024281 -0.012236 -2173950.000000 1 0 0
9.621926 6.149554 -13.361432 17.576301 0.568688 2.434411 0.019339 -0.002707 723340.000000 1 0 0
12.237926 0.613354 -10.034632 15.837831 0.050077 2.256976 0.011379 0.006644 -2592930.000000 1 0 0
5.581826 -7.292546 -13.790832 16.568798 -0.917502 2.554108 0.006589 -0.001211 -1065210.000000 1 0 0
8.594626 -10.296346 -10.688232 17.149946 -0.875237 2.243653 0.023336 -0.004290 170827.000000 1 0 0
10.215126 4.948554 -15.881432 19.520678 0.451117 2.521061 0.035401 -0.003945 1134270.000000 1 0 0
10.029626 -0.260446 -10.970132 14.866238 -0.025962 2.400783 0.004791 0.004133 515477.000000 1 0 0
-1.660774 5.506754 -13.970632 15.108312 -1.277883 2.751039 0.004372 -0.002487 1224780.000000 1 0 0
1.428926 -0.655946 -14.912832 14.995488 -0.430353 3.036549 0.003954 -0.003689 -1754370.000000 1 0 0
11.617426 -10.320946 -14.132632 21.005185 -0.726370 2.308805 0.053141 -0.019534 -319651.000000 1 0 0
9.289526 -7.774346 -10.787332 16.220428 -0.696836 2.298352 0.026047 -0.005386 -64960.300000 1 0 0
14.247726 -1.046846 -9.669532 17.250897 -0.073343 2.165814 0.026569 0.002467 1052160.000000 1 0 0
3.945926 11.341254 -12.184832 17.107440 1.235970 2.363500 0.016334 -0.007429 -668423.000000 1 0 0
-1.131474 2.928454 -17.232032 17.515679 -1.202093 2.961383 0.008427 -0.000412 -145616.000000 1 0 0
6.224026 -0.622246 -17.654032 18.729403 -0.099644 2.801081 0.018051 0.004240 15606.400000 1 0 0
6.256226 -6.545946 -16.125732 18.494027 -0.808025 2.629953 0.011436 -0.003179 73084.700000 1 0 0
-1.670174 -5.262946 -19.724132 20.482419 1.263503 2.868638 0.024345 -0.018196 96003.000000 1 0 0
-0.014174 -4.252146 -15.145132 15.730734 1.567463 2.867878 0.003361 -0.008375 -398636.000000 1 0 0
0.493526 0.779354 -12.981932 13.014666 1.006286 3.070654 0.006762 -0.005251 952332.000000 1 0 0
15.719726 0.698054 -13.681632 20.851478 0.044377 2.286498 0.036116 -0.008537 607601.000000 1 0 0
-0.148574 7.072454 -16.217032 17.692762 -1.549792 2.730266 0.013864 -0.000864 -411626.000000 1 0 0
-4.622374 -0.517446 -18.223232 18.807453 0.111480 2.891691 0.001364 -0.005600 -184414.000000 1 0 0
10.487726 -8.338046 -12.960732 18.641244 -0.671702 2.339594 0.027546 -0.021132 659242.000000 1 0 0
4.297226 8.581754 -17.230632 19.723269 1.106557 2.633388 0.020603 -0.007462 -323104.000000 1 0 0
9.325826 0.638154 -17.010132 19.409350 0.068322 2.639108 0.026157 0.002441 -337416.000000 1 0 0
3.416126 4.898154 -18.527132 19.465777 0.961796 2.829782 0.019915 0.001540 -863348.000000 1 0 0
1.566826 -8.085946 -16.046632 18.036959 -1.379397 2.667381 0.001671 -0.002965 285593.000000 1 0 0
4.789626 7.724954 -14.864032 17.422827 1.015786 2.592763 0.009535 0.001346 1055030.000000 1 0 0
-5.596474 -0.328946 -15.231832 16.230756 0.058710 2.788926 0.007782 -0.006766 -893356.000000 1 0 0
2.957926 3.422054 -13.851132 14.570987 0.858018 2.825949 0.006144 -0.000181 636750.000000 1 0 0
-2.381774 -10.291746 -18.088732 20.947437 1.343374 2.613024 0.026791 -0.007123 252897.000000 1 0 0
6.262826 -9.111346 -15.506432 19.044397 -0.968600 2.522190 0.010137 0.001029 522921.000000 1 0 0
-1.650074 5.431454 -17.407532 18.309714 -1.275857 2.826368 0.006395 -0.000342 200600.000000 1 0 0
9.985126 -12.307646 -11.709432 19.705119 -0.889206 2.207108 0.038445 -0.008600 -259995.000000 1 0 0
11.013026 3.677854 -9.251332 14.845892 0.322310 2.243570 0.006051 0.000031 -468194.000000 1 0 0
4.907526 -0.370646 -10.959932 12.014213 -0.075383 2.719533 0.005234 -0.001369 207007.000000 1 0 0
6.310926 9.559154 -11.244032 16.050965 0.987286 2.346923 0.010558 -0.013563 612604.000000 1 0 0
10.777926 -9.546746 -9.479232 17.238326 -0.724896 2.153032 0.030113 -0.008815 -1135900.000000 1 0 0
3.231426 -2.426746 -14.401132 14.957400 -0.644130 2.868013 0.009206 -0.004383 -153453.000000 1 0 0
9.563126 -4.512246 -14.712932 18.118613 -0.440865 2.518426 0.039747 -0.008047 -639058.000000 1 0 0
-3.943274 -6.610346 -16.434432 18.147635 1.032932 2.703580 0.009348 -0.008225 -1573190.000000 1 0 0
5.965526 -7.735046 -11.304232 14.940017 -0.913844 2.428957 0.002383 -0.003691 135448.000000 1 0 0
5.603226 6.441454 -16.918732 18.950778 0.854879 2.674259 0.016054 0.000247 -539374.000000 1 0 0
8.970926 1.263754 -19.468132 21.472838 0.139951 2.706047 0.030381 -0.003273 403402.000000 1 0 0
13.178526 5.877954 -9.358632 17.199066 0.419544 2.146155 0.012128 -0.004836 640890.000000 1 0 0
-1.541074 -0.710846 -17.347432 17.430250 0.432184 3.044072 0.013048 -0.007607 659517.000000 1 0 0
-0.360174 -0.493546 -19.561632 19.571172 0.940370 3.110369 0.018201 -0.012929 50314.000000 1 0 0
2.959326 6.454854 -16.472932 17.938234 1.140925 2.734596 0.009686 0.001758 -289022.000000 1 0 0
7.598426 3.921254 -15.711432 17.887465 0.476414 2.643193 0.011254 0.006030 696752.000000 1 0 0
3.156626 -9.920846 -14.944332 18.213197 -1.262744 2.533120 0.000932 0.003090 -279600.000000 1 0 0
9.093026 -10.509546 -13.364932 19.280952 -0.857535 2.336671 0.036710 -0.010209 217305.000000 1 0 0
3.855126 0.095854 -14.783732 15.278414 0.024859 2.886430 0.006351 -0.001752 -1393890.000000 1 0 0
-1.077774 -2.914446 -18.797532 19.052633 1.216589 2.977768 0.021513 -0.010754 638597.000000 1 0 0
9.230826 10.103354 -12.902032 18.808199 0.830496 2.326745 0.035104 -0.021806 134856.000000 1 0 0
4.680526 2.159054 -10.684732 11.863066 0.432198 2.692110 0.000358 0.001341 38599.400000 1 0 0
-0.405574 7.126454 -18.842632 20.149333 -1.513947 2.779476 0.017291 -0.004343 236604.000000 1 0 0
0.966726 -1.680646 -17.640132 17.746363 -1.048804 3.032121 0.016846 -0.008667 -950709.000000 1 0 0
-4.450574 -2.175146 -13.992732 14.843700 0.454594 2.801343 0.010826 -0.011186 -3187360.000000 1 0 0
10.155426 6.029154 -10.360532 15.710633 0.535765 2.290896 0.010535 -0.002160 96724.000000 1 0 0
8.328826 5.419254 -17.560232 20.176705 0.576841 2.626652 0.033703 -0.003967 -28187.900000 1 0 0
11.511126 0.217654 -13.783032 17.958992 0.018906 2.445686 0.020474 0.009004 554927.000000 1 0 0
6.885126 12.046954 -11.743832 18.178329 1.051578 2.273174 0.025058 -0.017547 47914.600000 1 0 0
-0.811274 0.577654 -15.184032 15.216658 -0.618756 3.076097 0.008620 -0.006285 -1304090.000000 1 0 0
-4.191974 -3.004946 -18.826332 19.520070 0.621934 2.874189 0.008061 -0.004200 -211282.000000 1 0 0
5.661426 -12.039146 -13.988632 19.304782 -1.131230 2.381279 0.000780 -0.003634 -842440.000000 1 0 0
2.216226 -4.729846 -14.026732 14.967709 -1.132614 2.785118 0.003611 -0.004021 14907.300000 1 0 0
11.914826 2.211954 -15.345832 19.553782 0.183557 2.473172 0.041332 -0.005513 363483.000000 1 0 0
9.774426 2.307154 -13.856632 17.113405 0.231797 2.514428 0.014310 0.001017 1945860.000000 1 0 0
-2.183474 -4.243846 -16.436732 17.115606 1.095613 2.859001 0.007214 -0.010637 -1585500.000000 1 0 0
-2.845774 10.143754 -14.127532 17.623318 -1.297283 2.500828 0.009023 -0.005093 100983.000000 1 0 0
3.646326 5.829754 -13.558932 15.202841 1.011860 2.672256 0.003009 -0.000242 -122729.000000 1 0 0
-5.071974 -2.530446 -16.493832 17.440602 0.462773 2.810583 0.008922 -0.006907 392356.000000 1 0 0
-4.260374 6.269554 -13.572732 15.545969 -0.973938 2.632262 0.000132 -0.001125 920823.000000 1 0 0
5.959626 -1.198646 -14.082732 15.338750 -0.198480 2.734093 0.008686 -0.000615 -1601640.000000 1 0 0
6.839826 -2.987246 -12.564132 14.613839 -0.411775 2.605561 0.007998 -0.004002 1808590.000000 1 0 0
2.945726 -3.247646 -18.284532 18.802889 -0.834109 2.906240 0.019854 -0.009606 273796.000000 1 0 0
7.459226 -12.046946 -12.116832 18.643674 -1.016393 2.278271 0.022391 -0.002767 -883762.000000 1 0 0
-5.938974 -5.371646 -17.490132 19.236183 0.735281 2.712229 0.023091 -0.007991 516094.000000 1 0 0
0.638126 8.742054 -11.877532 14.761656 1.497931 2.505833 0.006185 -0.000925 345276.000000 1 0 0
0.534926 8.712354 -14.425632 16.860905 1.509475 2.597441 0.008318 0.003829 -87162.100000 1 0 0
7.853426 -2.612246 -14.910032 17.053129 -0.321113 2.634846 0.017440 -0.013207 97035.700000 1 0 0
14.411826 1.504054 -8.841932 16.974766 0.103986 2.118686 0.012680 0.002420 358728.000000 1 0 0
2.792926 10.852454 -14.603932 18.407907 1.318908 2.487090 0.017142 0.000569 122868.000000 1 0 0
6.272826 0.934354 -15.555532 16.798689 0.147865 2.754464 0.012335 0.001365 513112.000000 1 0 0
16.695426 -5.465846 -10.285132 20.356735 -0.316388 2.100462 0.071861 -0.014880 575055.000000 1 0 0
4.942126 -4.251946 -11.250932 13.003351 -0.710471 2.616412 0.002595 -0.002799 -708178.000000 1 0 0
8.990826 -3.616246 -16.998132 19.566520 -0.382415 2.623440 0.031018 -0.011392 489014.000000 1 0 0
13.261926 -9.784746 -8.917732 18.738887 -0.635652 2.066777 0.034060 -0.006376 197927.000000 1 0 0
2.332826 -7.735746 -13.633832 15.848193 -1.277905 2.606609 -0.004107 -0.000115 361685.000000 1 0 0
-6.736674 -2.146346 -18.408732 19.719813 0.308438 2.774890 0.011156 -0.005544 923645.000000 1 0 0
-1.355074 -6.486746 -15.686832 17.029117 1.364859 2.741891 0.002025 -0.008098 725854.000000 1 0 0
1.719626 -7.345246 -18.476832 19.957532 -1.340824 2.753963 0.021669 -0.008204 170830.000000 1 0 0
5.375826 10.694554 -14.236432 18.599704 1.105015 2.442477 0.028964 -0.025168 682745.000000 1 0 0
5.426626 -3.429746 -17.388632 18.535802 -0.563633 2.787930 0.017068 -0.005985 -1023500.000000 1 0 0
4.209326 13.038654 -14.122832 19.676873 1.258524 2.371344 0.028405 -0.011493 52563.700000 1 0 0
9.131426 10.550854 -15.496932 20.853258 0.857391 2.408550 0.044720 -0.020626 175155.000000 1 0 0
2.661426 3.860954 -16.345232 17.004610 0.967275 2.862202 0.010317 0.002100 658570.000000 1 0 0
16.714926 1.755354 -11.441832 20.331885 0.104634 2.168509 0.044643 -0.010624 304887.000000 1 0 0
10.119326 -3.733746 -10.635332 15.147670 -0.353475 2.349153 0.019668 -0.000892 -434550.000000 1 0 0
14.741626 -2.195246 -11.974032 19.118371 -0.147828 2.247608 0.051628 -0.005260 59739.500000 1 0 0
-2.698974 -8.682746 -16.051032 18.447498 1.269421 2.626187 0.013091 -0.002467 443444.000000 1 0 0
14.047126 8.270954 -8.877232 18.561672 0.532144 2.069464 0.043173 -0.014359 207626.000000 1 0 0
-8.126374 0.374154 -16.528232 18.421738 -0.046009 2.684215 0.003593 -0.003244 20188.200000 1 0 0
-3.320674 3.989854 -15.982032 16.803903 -0.876680 2.827543 0.005495 -0.002860 126059.000000 1 0 0
15.152426 4.019954 -9.539732 18.351091 0.259327 2.117466 0.020325 -0.006389 968677.000000 1 0 0
5.525426 1.078254 -13.025732 14.190231 0.192722 2.733644 0.002301 0.001450 627516.000000 1 0 0
7.888826 -7.697546 -12.967232 17.018664 -0.773127 2.437103 0.022192 -0.007559 -3335860.000000 1 0 0
3.388626 -6.129246 -11.859532 13.773124 -1.065759 2.608153 -0.000884 -0.001731 -924466.000000 1 0 0
-3.144274 3.722354 -18.605332 19.232805 -0.869387 2.885452 0.006473 0.000491 -408951.000000 1 0 0
0.955426 5.156154 -17.737732 18.496646 1.387576 2.854144 0.013739 -0.007858 -931495.000000 1 0 0
6.480126 7.126454 -10.097132 13.954586 0.832864 2.379758 0.000480 -0.001797 235521.000000 1 0 0
9.795326 3.733954 -11.628832 15.656327 0.364193 2.407974 0.008426 0.002393 -195156.000000 1 0 0
4.640126 1.462054 -17.614632 18.274125 0.305242 2.872119 0.013587 0.003827 -109145.000000 1 0 0
2.710326 8.128954 -13.280732 15.805177 1.248971 2.568591 0.005720 -0.000371 -1655530.000000 1 0 0
14.466826 -3.544246 -9.681032 17.764378 -0.240259 2.147148 0.040131 -0.002469 28488.200000 1 0 0
-1.196074 9.417154 -16.028232 18.628409 -1.444463 2.606887 0.015454 0.000890 -1056200.000000 1 0 0
-5.136074 2.142954 -15.774932 16.727821 -0.395276 2.802436 0.007107 -0.006339 485925.000000 1 0 0
4.640426 4.352054 -11.905632 13.498815 0.753341 2.650835 0.001376 -0.000716 418861.000000 1 0 0
9.381826 3.113554 -17.539932 20.133606 0.320434 2.628391 0.029220 -0.003746 609160.000000 1 0 0
-4.180474 14.381954 -13.435532 20.120400 -1.287916 2.301987 0.008905 -0.002944 -307181.000000 1 0 0
15.528626 -5.024846 -7.910732 18.137447 -0.312952 2.022117 0.041805 -0.002547 -210520.000000 1 0 0
1.303126 9.190954 -16.874932 19.259676 1.429952 2.638674 0.019855 -0.000068 -740873.000000 1 0 0
0.583726 -3.220246 -12.850532 13.260728 -1.391476 2.892218 0.004243 -0.004237 120835.000000 1 0 0
7.643426 3.654654 -13.041032 15.551430 0.446010 2.565458 0.003547 0.003768 -699669.000000 1 0 0
-2.737074 7.614654 -15.032632 17.072040 -1.225729 2.647799 0.001412 0.003031 -216341.000000 1 0 0
12.307926 -5.139946 -10.997332 17.287146 -0.395597 2.260303 0.037889 -0.007332 -701301.000000 1 0 0
0.839826 -4.400646 -19.929332 20.426681 -1.382222 2.920471 0.034063 -0.016573 -571294.000000 1 0 0
3.433226 -4.552046 -16.149332 17.126269 -0.924602 2.802199 0.015054 -0.006677 641996.000000 1 0 0
-5.463374 4.206854 -14.347632 15.918563 -0.656185 2.693591 0.003120 -0.004892 339582.000000 1 0 0
12.305126 -7.582746 -9.852432 17.492415 -0.552265 2.169098 0.024814 -0.002453 505546.000000 1 0 0
-2.011174 -1.807646 -15.057032 15.297929 0.732153 2.963893 0.008582 -0.005005 696157.000000 1 0 0
7.124826 5.948354 -14.131232 16.906738 0.695649 2.560447 0.012599 0.000034 -301234.000000 1 0 0
4.346326 -5.499846 -18.473532 19.758802 -0.902021 2.778920 0.027702 -0.009784 169452.000000 1 0 0
7.688926 7.573154 -12.176232 16.270614 0.777813 2.416378 0.009708 -0.007019 -330293.000000 1 0 0
12.439926 -2.542246 -10.926432 16.751170 -0.201586 2.281383 0.023981 -0.001368 -796956.000000 1 0 0
7.554226 -0.602646 -10.661832 13.080680 -0.079607 2.523668 0.002698 0.002508 -1008280.000000 1 0 0
5.404726 4.016654 -14.377432 15.876244 0.639118 2.703575 0.000421 0.002854 -1834270.000000 1 0 0
14.781326 2.970354 -12.909932 19.848853 0.198312 2.278923 0.019419 -0.012949 -301917.000000 1 0 0
-6.214574 6.906054 -15.943432 18.452847 -0.838051 2.613976 0.000350 0.008347 524470.000000 1 0 0
-11.184074 3.915254 -16.266432 20.124849 -0.336741 2.512015 0.041588 -0.024943 107840.000000 1 0 0
-4.996274 6.357754 -18.254332 19.965081 -0.904740 2.724605 0.003726 0.021422 -550876.000000 1 0 0
-10.075974 1.630654 -15.414232 18.487370 -0.160445 2.556699 0.028479 -0.014662 -273871.000000 1 0 0
-7.517474 5.905554 -17.986632 20.369264 -0.665884 2.653072 0.006833 -0.003104 526220.000000 1 0 0
-8.574274 3.781154 -15.750732 18.327599 -0.415334 2.604891 0.009132 0.002382 -166712.000000 1 0 0
9.131626 13.389054 -11.937632 20.128597 0.972238 2.205661 0.053335 -0.023224 -2291060.000000 1 0 0
13.891126 8.959754 -11.421032 20.091803 0.572851 2.175408 0.046180 -0.020924 468056.000000 1 0 0
8.559626 15.867154 -9.052232 20.173663 1.076085 2.036124 0.036491 -0.014984 -125850.000000 1 0 0
7.368926 13.549454 -13.872632 20.744606 1.072684 2.303302 0.038656 -0.014038 58865.400000 1 0 0
4.927026 15.941354 -12.544632 20.875108 1.271038 2.215470 0.043324 -0.018212 364219.000000 1 0 0
11.163626 10.936154 -11.493532 19.399157 0.775106 2.204925 0.051801 -0.022292 -41726.200000 1 0 0
15.904726 9.683554 -9.760032 21.023552 0.546900 2.053576 0.068810 -0.013893 551134.000000 1 0 0
13.542226 10.806154 -9.547032 19.781574 0.673496 2.074443 0.085687 -0.021914 249899.000000 1 0 0
10.564626 11.769454 -8.155932 17.794679 0.839292 2.046918 0.019486 -0.010849 39288.200000 1 0 0
5.639726 16.239154 -9.996032 19.885605 1.236536 2.097489 0.028999 -0.018740 -74852.000000 1 0 0
7.003526 14.646354 -11.482632 19.885067 1.124760 2.186398 0.032941 -0.009450 731450.000000 1 0 0
10.842026 13.767954 -9.735932 20.047305 0.903735 2.077901 0.040733 -0.015511 -446104.000000 1 0 0
8.239826 -18.570146 -1.398632 20.364215 -1.153182 1.639531 0.060339 -0.000526 105443.000000 1 0 0
7.223126 -17.258546 -3.375232 19.011133 -1.174423 1.749282 0.036364 -0.010298 10064.400000 1 0 0
4.389526 -18.132346 5.536768 19.460363 -1.333283 1.282296 0.048144 -0.010827 206811.000000 1 0 0
9.810326 -17.099246 -2.632632 19.888627 -1.049918 1.703555 0.047091 -0.006827 540920.000000 1 0 0
-9.661074 -12.287646 -9.997732 18.554710 0.904500 2.139837 0.040595 -0.018259 334243.000000 1 0 0
-4.898574 -6.987146 -11.988232 14.715093 0.959343 2.522990 0.006514 -0.005077 853428.000000 1 0 0
-10.789674 -9.466846 -5.778332 15.473441 0.720187 1.953506 0.016913 -0.003354 455924.000000 1 0 0
-4.476074 -11.509346 -14.011232 18.676588 1.199889 2.419165 0.018119 -0.005541 -335126.000000 1 0 0
-3.023474 -15.488146 7.286668 17.381588 1.378009 1.138213 -0.006169 -0.005888 289801.000000 1 0 0
-4.700774 -12.109446 -11.532732 17.370662 1.200512 2.296845 0.015230 -0.003203 43817.900000 1 0 0
-14.273274 -12.852146 -4.090532 19.637629 0.733055 1.780634 0.021947 -0.002786 -118923.000000 1 0 0
-3.200474 -12.262846 -3.201132 13.071637 1.315502 1.818204 0.006759 -0.004627 490641.000000 1 0 0
-2.430474 -17.333346 -1.505232 17.567522 1.431485 1.656584 0.002940 -0.012554 -870747.000000 1 0 0
-5.844174 -12.111746 3.583068 13.917153 1.121229 1.310407 0.000683 -0.000563 1276280.000000 1 0 0
-8.762874 -10.895546 -11.921332 18.374413 0.893462 2.276804 0.030125 -0.009068 156663.000000 1 0 0
-10.004474 -11.981246 -7.402132 17.275165 0.875069 2.013611 0.034234 -0.013972 346919.000000 1 0 0
-10.977274 -15.074946 6.279368 19.677017 0.941407 1.245994 0.030104 -0.006345 214557.000000 1 0 0
-9.519174 -15.440546 0.758568 18.154905 1.018329 1.529001 0.012093 0.001604 -1631960.000000 1 0 0
-14.625074 -7.723246 -8.291232 18.500969 0.485860 2.035493 0.016919 -0.012561 -157971.000000 1 0 0
-2.434274 -16.569546 5.032268 17.487117 1.424927 1.278899 0.008238 -0.011545 270314.000000 1 0 0
4.461526 -15.711246 6.097868 17.433659 -1.294110 1.213465 0.041005 -0.008585 -158155.000000 1 0 0
4.285926 -14.612746 -10.064332 18.253556 -1.285497 2.154793 0.001007 -0.001748 -229106.000000 1 0 0
-7.632774 -14.014546 -0.343332 15.961974 1.072084 1.592307 0.007817 0.001043 1370750.000000 1 0 0
2.915726 -14.841746 9.570868 17.899173 -1.376812 1.006632 0.032346 -0.009461 127147.000000 1 0 0
2.361426 -17.228446 10.246468 20.183800 -1.434580 1.038332 0.056526 -0.010245 -159313.000000 1 0 0
-8.442174 -17.255446 -5.575432 20.002654 1.115788 1.853273 0.043795 -0.011327 -457235.000000 1 0 0
-6.373674 -9.243446 -7.733132 13.633281 0.967129 2.173928 0.018849 -0.004500 539125.000000 1 0 0
-5.963174 -13.210946 -4.910232 15.303559 1.146794 1.897429 0.012108 -0.008999 17231.600000 1 0 0
2.167626 -19.431746 -5.089132 20.203728 -1.459705 1.825430 0.011299 -0.009480 85332.400000 1 0 0
-5.544074 -13.049646 8.094568 16.326422 1.169057 1.052046 0.001623 -0.005964 593715.000000 1 0 0
2.151526 -17.511546 3.433368 17.974185 -1.448546 1.378599 0.027600 -0.015879 879387.000000 1 0 0
-17.628374 -9.880746 -2.732932 20.392588 0.510871 1.705217 0.035445 -0.017729 824509.000000 1 0 0
-3.479474 -15.408246 2.509368 15.994303 1.348703 1.413254 0.001590 -0.009633 -260996.000000 1 0 0
-10.102274 -10.558046 -14.062332 20.279977 0.807455 2.337007 0.042956 -0.020329 -48511.200000 1 0 0
6.144326 -14.523346 -5.566032 16.723069 -1.170565 1.910105 0.008697 -0.008958 68797.100000 1 0 0
-7.153874 -12.491246 -10.700732 17.936411 1.050684 2.210045 0.028089 -0.012781 -651139.000000 1 0 0
-7.364374 -14.249046 3.797068 16.482932 1.093773 1.338345 0.003288 0.002731 1039440.000000 1 0 0
3.219726 -14.884246 -3.140732 15.549007 -1.357761 1.774185 0.004069 -0.006236 -646853.000000 1 0 0
-7.569074 -11.464746 7.699668 15.748529 0.987281 1.059953 0.002359 -0.008233 -595234.000000 1 0 0
-12.860874 -12.374246 -1.090832 17.880547 0.766117 1.631841 0.012621 0.008043 -415907.000000 1 0 0
-1.993674 -13.669246 3.899268 14.353652 1.425966 1.295682 0.000911 -0.003949 -3413330.000000 1 0 0
-3.221974 -13.984846 5.143268 15.245007 1.344357 1.226670 -0.005094 -0.005178 196617.000000 1 0 0
-14.561274 -10.323646 -4.525032 18.414242 0.616727 1.819075 0.019930 -0.005458 755144.000000 1 0 0
-6.274574 -8.636246 -10.436232 14.928830 0.942480 2.344886 0.017339 -0.003906 490221.000000 1 0 0
0.661026 -19.557246 2.359068 19.710100 -1.537010 1.450820 0.033228 -0.015701 -33376.200000 1 0 0
6.455426 -14.205646 -8.150632 17.604139 -1.144267 2.052168 0.013775 -0.004996 -2468270.000000 1 0 0
-3.848074 -16.741446 -5.876332 18.155302 1.344867 1.900402 0.006085 -0.015317 -60448.900000 1 0 0
-3.635774 -13.831546 -13.261232 19.503610 1.313750 2.318473 0.020227 -0.000190 -1133920.000000 1 0 0
-8.228974 -14.664546 -4.696732 17.459216 1.059435 1.843163 0.020572 -0.010666 529218.000000 1 0 0
-4.455674 -14.427546 9.990968 18.105981 1.271257 0.986270 -0.002659 -0.010689 -1578200.000000 1 0 0
-0.270874 -12.188246 -10.005432 15.771347 1.548576 2.258036 -0.004069 0.004435 217749.000000 1 0 0
2.343926 -17.226946 6.887268 18.700164 -1.435565 1.193617 0.035798 -0.013072 -461178.000000 1 0 0
-2.832974 -19.123046 -3.443732 19.636088 1.423722 1.747086 0.009159 -0.015968 -946383.000000 1 0 0
0.640026 -15.361246 -3.162432 15.696449 -1.529155 1.773659 0.003980 -0.007651 -23614.000000 1 0 0
5.918726 -18.109946 0.711868 19.065892 -1.254918 1.533450 0.034187 -0.002878 -151484.000000 1 0 0
-7.064874 -16.620146 3.866468 18.468657 1.168859 1.359883 -0.000732 -0.002368 281265.000000 1 0 0
-5.056474 -13.655146 -9.490932 17.381276 1.216154 2.148431 0.011024 -0.004829 220093.000000 1 0 0
5.619426 -15.208146 -2.134932 16.353091 -1.216855 1.701722 0.022618 -0.003144 -135106.000000 1 0 0
-8.938274 -10.301046 -0.645132 13.653589 0.856113 1.618064 0.007156 0.002770 -691232.000000 1 0 0
-7.376074 -17.993346 -3.003532 19.677098 1.181756 1.724036 0.021148 -0.021886 -282477.000000 1 0 0
7.893326 -15.969946 -1.110432 17.848721 -1.111750 1.633050 0.027942 -0.005977 -333507.000000 1 0 0
-7.997974 -10.244046 -9.492632 16.094041 0.907908 2.201636 0.028145 -0.008171 -194568.000000 1 0 0
-9.191374 -15.341346 -7.125632 19.251309 1.031021 1.949953 0.046049 -0.013221 120924.000000 1 0 0
-11.434374 -10.662146 -11.878132 19.634569 0.750464 2.220512 0.048730 -0.011394 446640.000000 1 0 0
6.516326 -16.259146 2.477768 17.690723 -1.189618 1.430274 0.036450 -0.008076 1327520.000000 1 0 0
-2.280874 -11.151146 -6.200032 12.961129 1.369038 2.069578 0.000608 -0.000831 -449608.000000 1 0 0
-12.469074 -15.207646 -3.391332 19.956238 0.884026 1.741564 0.029046 -0.006009 -61222.500000 1 0 0
-0.277574 -19.360346 -2.718532 19.552250 1.556460 1.710288 0.027796 -0.026650 -259874.000000 1 0 0
-5.886274 -15.751046 -4.746032 17.471935 1.213160 1.845890 0.011761 -0.010299 -1036950.000000 1 0 0
1.894726 -15.912946 -1.139232 16.065793 -1.452286 1.641766 0.011931 -0.010397 965567.000000 1 0 0
-13.316674 -11.872846 5.147368 18.568621 0.728142 1.289909 0.024458 -0.000542 250946.000000 1 0 0
2.153826 -15.222446 -8.882032 17.755347 -1.430239 2.094679 -0.001688 0.001400 -2200490.000000 1 0 0
-11.619574 -16.831046 -0.058032 20.452432 0.966566 1.573634 0.037132 -0.000854 356146.000000 1 0 0
-7.837274 -16.506446 -1.025432 18.301288 1.127511 1.626856 0.014565 -0.003974 623198.000000 1 0 0
-3.050174 -14.469346 -1.827832 14.899883 1.363036 1.693780 0.004556 -0.005738 102184.000000 1 0 0
-1.675274 -10.548346 -13.162732 16.950861 1.413293 2.459925 0.000549 0.000273 248950.000000 1 0 0
1.443726 -19.591846 4.804268 20.223891 -1.497239 1.330949 0.043181 -0.016040 -24660.400000 1 0 0
-17.457474 -9.499346 2.390968 20.017935 0.498335 1.451069 0.026628 -0.005714 -585662.000000 1 0 0
-2.684974 -15.675746 -8.070432 17.834517 1.401160 2.040383 0.004101 -0.007922 -283122.000000 1 0 0
-10.496374 -12.163046 0.211668 16.067307 0.858819 1.557622 0.008211 0.007141 1064830.000000 1 0 0
-6.823974 -11.424346 -6.496632 14.808394 1.032351 2.024962 0.018217 -0.006091 -144731.000000 1 0 0
-2.157874 -13.634146 -6.747332 15.364663 1.413828 2.025444 -0.004978 0.000199 661766.000000 1 0 0
-14.391174 -14.546746 -0.980632 20.485980 0.790774 1.618683 0.039771 0.011242 148518.000000 1 0 0
-9.560574 -11.333146 -4.495432 15.493666 0.870033 1.865176 0.020021 -0.003920 1367220.000000 1 0 0
9.314226 -15.251246 -5.081532 18.578947 -1.022532 1.847837 0.024805 -0.004382 178878.000000 1 0 0
-5.538874 -10.981846 -9.463932 15.519217 1.103662 2.226630 0.017309 -0.004031 -664867.000000 1 0 0
-10.511174 -16.016046 -4.840932 19.759381 0.990012 1.818310 0.043751 -0.012254 -742204.000000 1 0 0
2.218926 -17.370246 -3.427632 17.843703 -1.443742 1.764090 0.013785 -0.009839 335729.000000 1 0 0
-0.263174 -14.517046 -8.237932 16.693634 1.552670 2.086880 -0.003870 -0.001182 -626195.000000 1 0 0
-0.600774 -18.341846 -7.235632 19.726597 1.538054 1.946359 0.010531 -0.005550 87099.600000 1 0 0
-1.610974 -9.971146 -10.555032 14.609165 1.410617 2.378199 -0.001878 0.002362 196194.000000 1 0 0
-5.131474 -17.274046 2.013568 18.132268 1.282037 1.459518 0.003217 -0.006124 -30503.200000 1 0 0
0.312226 -12.813346 -2.655132 13.089273 -1.546434 1.775062 0.001142 -0.001420 -2125440.000000 1 0 0
2.618426 -15.004846 3.045368 15.533056 -1.398031 1.373461 0.022649 -0.007212 -451379.000000 1 0 0
-9.493574 -13.058546 6.757168 17.501797 0.942178 1.174413 0.005600 -0.004674 -317195.000000 1 0 0
-1.008374 -17.862046 -4.654132 18.485953 1.514403 1.825301 0.012407 -0.014944 -161554.000000 1 0 0
-9.869874 -17.619646 -2.264532 20.322265 1.060184 1.682459 0.039459 -0.010116 -627563.000000 1 0 0
1.246526 -16.183246 1.403568 16.291755 -1.493922 1.484537 0.017441 -0.013184 552250.000000 1 0 0
-0.453874 -18.049146 4.075668 18.509153 1.545655 1.348779 0.031032 -0.018304 -545315.000000 1 0 0
-17.509474 -9.224646 -0.190732 19.791719 0.484886 1.580433 0.023144 -0.006738 796319.000000 1 0 0
-14.811374 -7.105546 -10.794332 19.656633 0.447305 2.152137 0.051607 -0.019265 679551.000000 1 0 0
2.829026 -12.720246 -9.020732 15.848712 -1.351955 2.176302 -0.010159 0.001120 441120.000000 1 0 0
-11.842274 -14.836546 1.656668 19.055370 0.897164 1.483747 0.022097 0.012875 -15901.900000 1 0 0
-2.219774 -15.591246 10.507768 18.932183 1.429374 0.982408 0.002996 -0.006842 -248071.000000 1 0 0
-7.036174 -15.779446 1.335768 17.328674 1.151351 1.493636 0.003470 -0.000623 -1361770.000000 1 0 0
-12.636674 -15.024446 -6.031132 20.537626 0.871507 1.868852 0.039549 -0.012028 525542.000000 1 0 0
0.915726 -13.728646 -5.080032 14.667004 -1.504193 1.924482 -0.000757 -0.002460 1124290.000000 1 0 0
5.924726 -16.390046 -7.316732 18.901602 -1.223928 1.968276 0.022628 -0.014378 -76297.100000 1 0 0
-6.711874 -12.878846 5.862468 15.661496 1.090368 1.187129 0.004226 -0.004082 -272460.000000 1 0 0
-2.607774 -13.554746 0.531768 13.813559 1.380730 1.532291 0.007122 -0.006733 1755420.000000 1 0 0
-4.323474 -15.539946 0.094568 16.130446 1.299442 1.564934 0.005787 -0.008919 203093.000000 1 0 0
-17.782074 -7.384646 -1.937532 19.351723 0.393614 1.671086 0.021156 -0.011635 826033.000000 1 0 0
1.233326 -12.743246 -11.977232 17.531843 -1.474314 2.322891 -0.006635 0.004547 -1727050.000000 1 0 0
1.250126 -17.188846 -5.883932 18.210983 -1.498195 1.899798 0.012678 -0.005585 -1524160.000000 1 0 0
-12.773174 -6.358646 -9.219632 16.987877 0.461896 2.144466 0.028277 -0.005451 56858.400000 1 0 0
-11.455374 -13.700346 -8.680232 19.856272 0.874405 2.023227 0.045422 -0.022036 397125.000000 1 0 0
-4.361774 -9.778246 3.458168 11.251582 1.151216 1.258390 0.005873 0.000977 -2788960.000000 1 0 0
-6.887374 -14.531746 9.618368 18.738211 1.128202 1.031768 0.000238 -0.008625 -1503280.000000 1 0 0
-5.318074 -15.866246 -7.880132 18.496383 1.247383 2.010903 0.013938 -0.021237 -1057820.000000 1 0 0
-0.318974 -13.525746 2.062068 13.685747 1.547218 1.419548 0.006006 -0.007060 695086.000000 1 0 0
-11.017574 -13.462146 -4.822532 18.051957 0.884929 1.841228 0.036897 -0.005423 -863749.000000 1 0 0
-9.838974 -10.512446 6.589168 15.834584 0.818478 1.141617 0.011506 -0.000406 74535.500000 1 0 0
-15.494174 -7.974646 -4.915832 18.106071 0.475328 1.845750 0.027084 -0.011845 -810553.000000 1 0 0
-14.485174 -7.161646 5.207868 16.977377 0.459167 1.259016 0.006311 -0.000882 -80631.000000 1 0 0
-1.689274 -19.375746 -0.007832 19.449248 1.483831 1.571199 0.023086 -0.013294 -499262.000000 1 0 0
-15.403574 -12.162046 -1.338432 19.671728 0.668343 1.638887 0.026899 0.008003 600834.000000 1 0 0
-4.420774 -12.121246 -6.872832 14.618607 1.221075 2.060249 0.008041 -0.002219 21149.300000 1 0 0
-7.455874 -18.267246 1.958768 19.827232 1.183279 1.471843 0.007786 -0.002696 -270538.000000 1 0 0
-2.428374 -11.798646 -8.696732 14.857261 1.367813 2.196111 -0.002039 0.002234 203387.000000 1 0 0
-1.012174 -20.409646 -4.921532 21.019030 1.521244 1.807137 0.024115 -0.010570 -291068.000000 1 0 0
-5.125474 -8.934946 -13.772332 17.198282 1.049982 2.499421 0.010586 -0.006490 -189529.000000 1 0 0
-8.271174 -19.198646 -0.845532 20.921646 1.164006 1.611222 0.018466 0.002535 221986.000000 1 0 0
-17.058574 -7.140346 5.432268 19.274051 0.396419 1.285081 0.027584 -0.007272 -809879.000000 1 0 0
-3.571774 -14.597146 -4.370232 15.650341 1.330822 1.853801 0.004391 -0.008621 -2548840.000000 1 0 0
-2.917074 -15.085846 -11.042832 18.921845 1.379789 2.193954 0.008322 -0.001116 -134165.000000 1 0 0
-0.171674 -16.709846 6.237668 17.836954 1.560523 1.213540 0.034168 -0.016398 -745132.000000 1 0 0
-11.190374 -11.491746 3.711168 16.463823 0.798684 1.343429 0.010589 0.004208 177035.000000 1 0 0
-0.266474 -14.692946 -0.220932 14.697023 1.552662 1.585829 0.003700 -0.004157 63302.100000 1 0 0
-7.262074 -9.454446 -2.499932 12.180884 0.915804 1.777499 0.014088 0.000389 -62607.500000 1 0 0
-11.286274 -14.372546 -0.817732 18.292587 0.905104 1.615514 0.019697 -0.000256 7486.990000 1 0 0
0.328226 -14.618446 -10.675732 18.104639 -1.548347 2.201444 -0.004227 -0.001084 -13842.400000 1 0 0
-1.444074 -14.092446 -3.885532 14.689444 1.468681 1.838494 0.000026 -0.003280 -3726200.000000 1 0 0
-11.432274 -7.999146 -7.652532 15.913657 0.610524 2.072452 0.020940 -0.006655 556714.000000 1 0 0
-0.199174 -17.282646 -0.257932 17.285718 1.559272 1.585719 0.012903 -0.013960 82723.900000 1 0 0
-12.899174 -9.441546 4.420568 16.585322 0.631848 1.301000 0.005963 0.001839 -718802.000000 1 0 0
3.908526 -16.882846 1.614468 17.404413 -1.343296 1.477901 0.030068 -0.010575 2028390.000000 1 0 0
-3.814174 -17.856346 -8.268832 20.044217 1.360356 1.996026 0.022261 -0.017957 168912.000000 1 0 0
-13.428974 -11.089046 2.549268 17.601223 0.690249 1.425450 0.005889 0.002910 -1195470.000000 1 0 0
-8.612574 -12.177646 4.057268 15.457455 0.955225 1.305205 0.006568 0.000186 1684970.000000 1 0 0
-8.208074 -9.463246 -5.854032 13.827335 0.856308 2.007955 0.019663 -0.003764 106737.000000 1 0 0
3.762726 -17.380146 -5.577432 18.636935 -1.357591 1.874721 -0.002480 0.000399 -898200.000000 1 0 0
-2.652974 -13.071546 11.335968 17.504507 1.370558 0.866362 -0.005739 -0.008573 419655.000000 1 0 0
0.052526 -16.771046 -9.588232 19.318513 -1.567664 2.090155 0.000800 -0.003815 -63904.200000 1 0 0
-6.942574 -10.737246 -14.424232 19.275536 0.996823 2.416319 0.028873 -0.009056 -464908.000000 1 0 0
-4.549574 -18.803846 -1.585332 19.411248 1.333409 1.652558 0.014070 -0.017563 -1254730.000000 1 0 0
-2.592874 -17.259546 1.094268 17.487491 1.421683 1.508181 0.016240 -0.016325 912313.000000 1 0 0
4.087726 -14.582946 -7.462432 16.883712 -1.297501 2.028612 0.005306 -0.005592 -89163.700000 1 0 0
-0.893974 -15.914146 -6.231332 17.113993 1.514680 1.943471 0.001761 -0.007355 -384654.000000 1 0 0
-9.437974 -15.164446 8.366368 19.723891 1.014087 1.132746 0.010132 -0.012631 -495612.000000 1 0 0
-7.276274 -12.023746 -1.891732 14.180737 1.026592 1.704597 0.007790 -0.000654 1372160.000000 1 0 0
-7.202074 -15.153946 -9.418832 19.241267 1.127135 2.082326 0.031711 -0.017519 -616061.000000 1 0 0
-5.069674 -13.281446 -0.695332 14.233127 1.206155 1.619669 0.007783 -0.003066 2230670.000000 1 0 0
-6.497974 -13.684046 -7.399532 16.859118 1.127464 2.025175 0.017987 -0.012851 707391.000000 1 0 0
5.669226 -15.553746 0.190668 16.555830 -1.221269 1.559279 0.025262 -0.003988 858034.000000 1 0 0
-14.340074 -12.788646 0.942468 19.237345 0.728273 1.521785 -0.002836 0.008817 876955.000000 1 0 0
0.828226 -15.366846 11.125268 18.989405 -1.516951 0.944847 0.020258 -0.006333 -89182.000000 1 0 0
-9.380974 -10.625546 1.908168 14.301958 0.847526 1.436977 0.007854 0.004911 -136731.000000 1 0 0
-9.405674 -8.871146 -3.581932 13.416191 0.756160 1.841060 0.017236 -0.001605 -115676.000000 1 0 0
-12.071874 -7.509946 -12.396332 18.862622 0.556513 2.287881 0.042283 -0.010064 -655830.000000 1 0 0
-13.268074 -8.261046 -0.609332 15.641546 0.556890 1.609762 0.000998 -0.003559 619039.000000 1 0 0
-11.229574 -9.636546 0.405468 14.803066 0.709201 1.543402 -0.000058 0.004417 433670.000000 1 0 0
-15.774374 -12.185546 2.963668 20.151966 0.657740 1.423195 0.025850 0.006606 151787.000000 1 0 0
-10.469174 -12.416146 -2.389132 16.415610 0.870269 1.716855 0.020620 -0.003531 1188290.000000 1 0 0
-3.280374 -9.064246 -12.121432 15.487109 1.223557 2.469754 0.003887 0.002441 -1258920.000000 1 0 0
-0.355874 -15.537946 3.789368 15.997304 1.547897 1.331648 0.019727 -0.012477 -663284.000000 1 0 0
-15.850474 -7.772646 1.119668 17.689127 0.455916 1.507457 0.008110 -0.003913 -170.113000 1 0 0
-6.127074 -13.396346 -13.421032 19.928052 1.141831 2.309695 0.033851 -0.008620 -1398760.000000 1 0 0
-15.463674 -10.387946 1.029668 18.657300 0.591524 1.515580 0.012733 0.001635 945647.000000 1 0 0
-9.735974 -8.574346 -12.388432 17.938279 0.722042 2.333134 0.023065 -0.012727 374702.000000 1 0 0
-13.423174 -11.737346 -6.329232 18.921049 0.718495 1.911879 0.036743 -0.004909 14890.800000 1 0 0
-12.188674 -11.260746 -3.938032 17.055095 0.745847 1.803800 0.012578 -0.001427 -460315.000000 1 0 0
-11.926874 -11.218346 -9.141232 18.752700 0.754795 2.079977 0.046408 -0.015817 612686.000000 1 0 0
-13.176574 -8.517346 -5.899332 16.762142 0.573841 1.930443 0.019057 -0.007938 -165922.000000 1 0 0
-13.508074 -8.175246 -3.272432 16.124873 0.544243 1.775159 0.012282 -0.007278 194854.000000 1 0 0
-4.282474 -16.864546 -3.225932 17.696303 1.322119 1.754116 0.007384 -0.018280 357667.000000 1 0 0
-15.479974 -8.863546 -1.819732 17.930518 0.520015 1.672459 0.017567 -0.006829 -1206180.000000 1 0 0
-9.503274 -15.775446 3.611568 18.767534 1.028607 1.377151 0.011345 0.003691 -417955.000000 1 0 0
4.766626 -17.346346 7.955268 19.669843 -1.302624 1.154430 0.060712 -0.017912 321934.000000 1 0 0
-8.365574 -15.409346 5.972268 18.522925 1.073429 1.242505 0.006425 -0.000314 69610.700000 1 0 0
0.762126 -15.929946 8.576468 18.108004 -1.522990 1.077390 0.024409 -0.011352 88323.300000 1 0 0
-10.852774 -7.860846 -10.137232 16.802949 0.626860 2.218430 0.032051 -0.011371 1051200.000000 1 0 0
-4.948374 -15.926246 5.723068 17.631938 1.269547 1.240223 -0.000781 -0.009789 -1289710.000000 1 0 0
-1.376174 -13.282546 -12.086332 18.011089 1.467557 2.306420 -0.001002 0.000425 -1247330.000000 1 0 0
-6.533374 -14.440546 -2.657032 16.070911 1.145921 1.736891 0.014246 -0.007311 553881.000000 1 0 0
-17.741374 -6.940046 -7.069332 20.319844 0.372879 1.926130 0.046538 -0.019121 569867.000000 1 0 0
-17.322574 -4.208246 -10.180432 20.528568 0.238318 2.089685 0.051036 -0.018975 704335.000000 1 0 0
-15.274274 -5.344246 -8.941732 18.488348 0.336573 2.075607 0.028490 -0.019531 603846.000000 1 0 0
-16.056974 -5.325846 -5.831432 17.894040 0.320266 1.902746 0.023531 -0.012098 153235.000000 1 0 0
-15.245474 -4.371546 -12.259132 20.045479 0.279251 2.228835 0.050138 -0.012131 -621246.000000 1 0 0
-18.617174 -5.089246 -5.460632 20.057869 0.266844 1.846521 0.033547 -0.017719 -442430.000000 1 0 0
-17.446274 -4.355946 -7.704632 19.562927 0.244675 1.975600 0.037259 -0.015560 989353.000000 1 0 0
12.282926 -7.885146 8.702768 16.993645 -0.570702 1.033146 0.047581 -0.016872 211629.000000 1 0 0
16.114926 -3.342046 1.739168 16.549466 -0.204489 1.465513 0.034006 -0.016411 558755.000000 1 0 0
12.042926 -2.047746 12.549468 17.513265 -0.168426 0.771925 0.041059 -0.006013 -511905.000000 1 0 0
9.647426 -10.050446 5.273468 14.896099 -0.805855 1.208934 0.019549 -0.011554 496422.000000 1 0 0
17.265726 -2.384346 7.257668 18.880258 -0.137229 1.176233 0.071002 -0.020592 502770.000000 1 0 0
5.019126 -12.743046 9.086268 16.435848 -1.195584 0.985037 0.018949 -0.002662 -404490.000000 1 0 0
15.100126 -9.021646 -2.218132 17.729185 -0.538546 1.696237 0.024333 -0.007120 107535.000000 1 0 0
10.973726 -8.425646 6.464068 15.270833 -0.654797 1.133717 0.029173 -0.012103 -2058840.000000 1 0 0
20.228226 -2.688946 3.344268 20.678387 -0.132156 1.408355 0.079357 -0.025340 1102780.000000 1 0 0
13.471526 -8.558646 6.656868 17.292956 -0.565982 1.175646 0.039028 -0.015995 -1670870.000000 1 0 0
8.189726 -10.983546 8.898968 16.337121 -0.930094 0.994755 0.014729 -0.006826 -1684910.000000 1 0 0
16.708926 0.177754 -0.554332 16.719064 0.010638 1.603958 0.016943 -0.012577 -582829.000000 1 0 0
12.467026 -12.309046 2.445568 17.689549 -0.779022 1.432103 0.030117 -0.012743 -424315.000000 1 0 0
10.358026 -11.524546 3.587768 15.905217 -0.838656 1.343266 0.021546 -0.013224 -173723.000000 1 0 0
16.273726 2.886654 2.440668 16.706998 0.175555 1.424185 0.022664 -0.008986 -954473.000000 1 0 0
18.370026 -3.192246 0.417468 18.650002 -0.172057 1.548410 0.038822 -0.020902 -242731.000000 1 0 0
13.462726 -11.522046 -0.222132 17.721509 -0.707879 1.583331 0.040804 -0.008060 -302122.000000 1 0 0
16.958026 -7.566846 -0.943332 18.593592 -0.419698 1.621552 0.038897 -0.010508 621692.000000 1 0 0
10.234226 -5.786646 9.749968 15.273720 -0.514606 0.878445 0.029380 -0.011765 -32131.200000 1 0 0
11.588726 -13.530046 6.119968 18.836526 -0.862530 1.239891 0.038796 -0.006454 586816.000000 1 0 0
13.188226 -1.875246 10.224968 16.792731 -0.141244 0.916133 0.045467 -0.013560 1166730.000000 1 0 0
15.535926 -1.963246 -1.294732 15.712914 -0.125702 1.653289 0.010379 -0.014210 220192.000000 1 0 0
10.439126 -12.281046 8.861268 18.393518 -0.866291 1.068134 0.035343 -0.020760 -157383.000000 1 0 0
14.531826 1.131354 3.398368 14.966724 0.077697 1.341737 0.024997 -0.010897 680183.000000 1 0 0
14.906426 -5.967346 5.290168 16.905521 -0.380783 1.252525 0.038864 -0.014188 -598649.000000 1 0 0
14.326526 -3.343046 -2.981132 15.010412 -0.229245 1.770730 0.012167 -0.006086 958213.000000 1 0 0
13.967326 0.620654 9.567068 16.941080 0.044407 0.970695 0.036893 -0.010575 30600.400000 1 0 0
15.635826 -3.649346 4.370768 16.640324 -0.229292 1.305017 0.038610 -0.016353 -65759.700000 1 0 0
18.418926 4.893754 -4.181432 19.511280 0.259692 1.786780 0.003084 -0.004634 517590.000000 1 0 0
18.263426 -5.731746 -5.125732 19.816124 -0.304103 1.832436 0.062759 -0.011740 729042.000000 1 0 0
17.186726 -0.094646 6.089968 18.234040 -0.005507 1.230264 0.050334 -0.015131 1004430.000000 1 0 0
17.062826 -6.578246 3.905968 18.699463 -0.367971 1.360365 0.053919 -0.017059 379399.000000 1 0 0
9.814626 -6.591646 14.271568 18.532521 -0.591420 0.691826 0.048797 -0.007477 -774880.000000 1 0 0
8.607126 -12.368246 5.130968 15.918007 -0.962824 1.242599 0.020683 -0.009850 -660056.000000 1 0 0
16.908426 -10.170346 -0.768732 19.746437 -0.541519 1.609736 0.048226 -0.005145 85017.700000 1 0 0
14.999426 -8.809246 0.355368 17.398617 -0.531033 1.550370 0.045531 -0.010314 341421.000000 1 0 0
9.997126 -12.875246 1.543168 16.373633 -0.910574 1.476409 0.025420 -0.012814 358590.000000 1 0 0
17.129626 -8.117846 8.856268 20.922643 -0.442556 1.133727 0.064898 -0.018151 14357.900000 1 0 0
19.110726 -0.176346 -1.607832 19.179053 -0.009227 1.654728 0.044321 -0.021554 -49209.000000 1 0 0
13.358426 -1.227246 7.650368 15.442856 -0.091613 1.052503 0.027360 -0.015420 333178.000000 1 0 0
12.795426 -9.771546 -3.093232 16.394332 -0.652196 1.760611 0.021693 -0.006774 -3185330.000000 1 0 0
8.828526 -15.135346 1.454968 17.582335 -1.042743 1.487950 0.034103 -0.005881 -759937.000000 1 0 0
11.506826 -8.322646 11.129868 18.042933 -0.626179 0.906056 0.050495 -0.016968 120917.000000 1 0 0
13.938626 -4.009146 -0.494232 14.512161 -0.280069 1.604859 0.015591 -0.010871 -1108860.000000 1 0 0
7.025026 -13.326546 10.608368 18.425126 -1.085669 0.957268 0.026536 0.000305 604234.000000 1 0 0
15.446026 -6.654546 1.730968 16.907364 -0.406795 1.468237 0.037532 -0.013293 -547637.000000 1 0 0
15.936726 -6.057846 -2.724832 17.265615 -0.363251 1.729277 0.039847 -0.009200 234914.000000 1 0 0
11.146826 -8.501446 3.870968 14.543408 -0.651566 1.301382 0.022232 -0.008444 582194.000000 1 0 0
10.595626 -14.534846 -0.481832 17.993366 -0.940884 1.597578 0.044736 -0.010277 865644.000000 1 0 0
13.633726 -12.921946 4.678068 19.358189 -0.758601 1.326722 0.037355 -0.007321 397410.000000 1 0 0
12.832826 -11.142446 6.607568 18.234459 -0.715010 1.199990 0.032391 -0.012371 50160.100000 1 0 0
10.972826 -10.445046 1.326168 15.207255 -0.760761 1.483479 0.022522 -0.007980 792318.000000 1 0 0
13.924426 -7.591346 11.893668 19.823660 -0.499137 0.927329 0.054938 -0.022321 1299600.000000 1 0 0
15.441126 -1.777046 -4.819232 16.273023 -0.114581 1.871454 0.018710 -0.002166 17573.700000 1 0 0
12.889726 -11.566246 -7.045632 18.696631 -0.731334 1.957178 0.032743 -0.004787 -103745.000000 1 0 0
17.670226 -5.283346 1.827268 18.533471 -0.290536 1.472043 0.055380 -0.014927 294506.000000 1 0 0
10.509626 -9.716046 9.161568 16.993767 -0.746182 1.001412 0.028260 -0.012299 -1714220.000000 1 0 0
16.336426 1.569954 9.737768 19.083178 0.095807 1.035286 0.059808 -0.018131 -983342.000000 1 0 0
18.026526 3.742854 0.596468 18.420650 0.204722 1.538410 0.014032 -0.013787 744007.000000 1 0 0
13.371226 -4.035546 5.771068 15.112264 -0.293115 1.178967 0.030687 -0.014284 -181140.000000 1 0 0
12.078826 -6.199346 6.636768 15.112135 -0.474184 1.116124 0.031820 -0.011536 220422.000000 1 0 0
16.713126 -10.257146 3.726068 19.960491 -0.550445 1.383023 0.043089 -0.004884 -128589.000000 1 0 0
16.247326 -8.162746 -5.438332 18.978448 -0.465570 1.861423 0.042761 -0.010202 210316.000000 1 0 0
14.011626 -0.451646 5.362668 15.009592 -0.032223 1.205439 0.022395 -0.010713 1247670.000000 1 0 0
18.916626 -4.256246 4.779768 19.969991 -0.221315 1.329103 0.108349 -0.023455 397703.000000 1 0 0
13.942626 -13.432946 7.285568 20.686236 -0.766782 1.210882 0.057599 -0.010182 141886.000000 1 0 0
14.977926 -13.553646 -0.873832 20.218882 -0.735520 1.614028 0.039681 -0.004093 511361.000000 1 0 0
17.849626 -5.768046 7.914668 20.359800 -0.312555 1.171533 0.065435 -0.022594 -437994.000000 1 0 0
14.321726 3.279254 9.347268 17.413694 0.225090 1.004184 0.036253 -0.009242 308994.000000 1 0 0
18.807626 3.457254 2.946868 19.348473 0.181792 1.417896 0.047622 -0.016398 1669780.000000 1 0 0
14.764426 -10.168546 8.191768 19.710217 -0.603115 1.142183 0.035367 -0.022141 -937757.000000 1 0 0
14.851626 -4.863446 10.386568 18.764453 -0.316463 0.984207 0.052853 -0.023328 163007.000000 1 0 0
17.814626 -7.884646 1.903268 19.574243 -0.416678 1.473409 0.065283 -0.015783 275907.000000 1 0 0
18.500726 -5.912246 -1.970532 19.522154 -0.309311 1.671907 0.044873 -0.015456 1131960.000000 1 0 0
14.313526 -12.921846 -5.324432 20.005017 -0.734344 1.840198 0.041564 -0.011939 -1887960.000000 1 0 0
15.554926 -1.297546 9.007968 18.021732 -0.083224 1.047383 0.067486 -0.025327 553337.000000 1 0 0
12.947826 -10.070246 10.122268 19.274760 -0.661029 1.017897 0.037027 -0.022086 -1085410.000000 1 0 0
16.457526 1.991954 4.906468 17.288478 0.120450 1.283042 0.040585 -0.011254 -1824670.000000 1 0 0
14.927426 2.444854 0.002468 15.126314 0.162341 1.570633 0.008072 -0.006002 -1260030.000000 1 0 0
15.040626 -9.947846 -7.064632 19.367217 -0.584346 1.944185 0.041655 -0.006278 797745.000000 1 0 0
16.299226 -0.005846 -3.080632 16.587800 -0.000359 1.757598 0.017891 -0.005622 -161603.000000 1 0 0
11.888326 2.449954 13.530468 18.177132 0.203235 0.731209 0.034393 0.000668 -475280.000000 1 0 0
17.561626 -3.013246 9.638368 20.258047 -0.169927 1.074946 0.051548 -0.021753 978347.000000 1 0 0
8.134026 -18.165646 4.404168 20.385038 -1.149799 1.353030 0.065841 -0.016426 -148076.000000 1 0 0
6.800326 -11.243246 6.676668 14.738823 -1.026828 1.100670 0.018558 -0.009452 283744.000000 1 0 0
18.034526 2.205554 -1.410432 18.223554 0.121692 1.648270 0.021186 -0.010182 592061.000000 1 0 0
17.604626 -2.261846 3.575568 18.105896 -0.127780 1.372009 0.039802 -0.016548 -799595.000000 1 0 0
12.623326 -13.387046 -1.896032 18.497467 -0.814752 1.673479 0.039555 -0.006337 -608934.000000 1 0 0
15.189726 -8.269746 4.413668 17.849284 -0.498557 1.320930 0.043628 -0.010755 -302988.000000 1 0 0
11.595626 -3.387046 14.753468 19.068178 -0.284191 0.686101 0.040360 -0.010372 99471.000000 1 0 0
12.129826 -13.959346 -6.190432 19.501730 -0.855409 1.893814 0.032437 -0.012189 543635.000000 1 0 0
10.657226 -12.006446 -1.230432 16.101092 -0.844860 1.647290 0.029604 -0.010723 -1213480.000000 1 0 0
13.177526 -8.017946 2.171368 15.577211 -0.546614 1.430947 0.033791 -0.008452 1016000.000000 1 0 0
8.755826 -7.879146 10.033668 15.473200 -0.732746 0.865244 0.020916 -0.008136 -1308500.000000 1 0 0
15.489726 -3.791446 8.122468 17.896401 -0.240052 1.099703 0.057625 -0.025978 -950914.000000 1 0 0
10.449826 -16.926946 5.157968 20.550547 -1.017718 1.317094 0.051055 -0.021215 256084.000000 1 0 0
15.381226 -6.345646 8.261868 18.577077 -0.391285 1.109918 0.056588 -0.015508 -1618100.000000 1 0 0
16.529126 -4.856846 -0.502632 17.235243 -0.285792 1.599964 0.024135 -0.016639 -807419.000000 1 0 0
14.045126 -10.491446 3.501368 17.877236 -0.641566 1.373666 0.043632 -0.011321 1519300.000000 1 0 0
14.958826 -10.135546 -4.516232 18.625040 -0.595508 1.815719 0.041008 -0.010169 476602.000000 1 0 0
13.656826 -6.617146 -0.039332 15.175542 -0.451195 1.573388 0.026957 -0.009620 57694.500000 1 0 0
17.851426 -0.806346 -4.842932 18.514254 -0.045139 1.835454 0.036241 -0.010551 212441.000000 1 0 0
14.276926 0.275354 -1.578832 14.366598 0.019284 1.680915 0.006474 -0.005814 -2145840.000000 1 0 0
4.728426 -12.925646 11.765368 18.106745 -1.220100 0.863504 0.014271 0.001228 -430540.000000 1 0 0
11.978926 -7.688546 13.531268 19.639338 -0.570617 0.810705 0.048268 -0.016255 733400.000000 1 0 0
12.033826 -5.741246 11.604468 17.675931 -0.445154 0.854610 0.048350 -0.015778 897204.000000 1 0 0
13.267926 -4.780846 8.350168 16.389620 -0.345849 1.036217 0.043700 -0.018223 -2083670.000000 1 0 0
15.216426 -1.310446 3.091168 15.582433 -0.085909 1.371096 0.034622 -0.012800 -97781.800000 1 0 0
15.211026 -10.412346 5.845568 19.338121 -0.600265 1.263710 0.044423 -0.010752 684085.000000 1 0 0
13.730026 -8.050546 -5.685432 16.901155 -0.530319 1.913881 0.032454 -0.008999 -626080.000000 1 0 0
9.675026 -2.177846 13.486068 16.739867 -0.221409 0.634065 0.028022 -0.006242 -787058.000000 1 0 0
9.695226 -9.156946 13.624368 19.064901 -0.756853 0.774700 0.047162 -0.014436 -75205.600000 1 0 0
20.296526 6.209954 -3.059032 21.444584 0.296917 1.713933 0.045998 -0.010188 317027.000000 1 0 0
11.241426 -3.602646 10.565168 15.842079 -0.310138 0.840748 0.028972 -0.006842 953002.000000 1 0 0
10.362926 -13.992546 -3.009032 17.670197 -0.933336 1.741919 0.029897 -0.007559 669533.000000 1 0 0
14.954326 -12.760546 2.465368 19.812659 -0.706408 1.446039 0.039076 -0.002850 1200080.000000 1 0 0
11.473826 -0.749746 14.670968 18.639959 -0.065251 0.664750 0.044604 0.001617 175665.000000 1 0 0
19.197226 -1.830446 5.619968 20.086514 -0.095062 1.287223 0.079211 -0.023888 832254.000000 1 0 0
19.081626 -0.463146 7.828268 20.630190 -0.024267 1.181587 0.078125 -0.020678 806930.000000 1 0 0
18.973126 0.903354 0.679368 19.006764 0.047576 1.535045 0.038929 -0.021770 535281.000000 1 0 0
18.397326 0.643754 3.747368 18.786133 0.034977 1.369974 0.042025 -0.022315 357485.000000 1 0 0
16.743126 -3.846846 -4.103332 17.662611 -0.225837 1.805256 0.029907 -0.011322 -2362080.000000 1 0 0
10.890226 -8.300046 15.778968 20.891711 -0.651235 0.714724 0.065250 -0.016375 514145.000000 1 0 0
16.817226 -7.510746 6.339968 19.478850 -0.420031 1.239277 0.064274 -0.013290 794807.000000 1 0 0
18.751826 1.923554 5.972368 19.773725 0.102222 1.263969 0.053470 -0.013448 226443.000000 1 0 0
15.011426 1.774954 7.466468 16.859463 0.117694 1.112005 0.032915 -0.013953 -408996.000000 1 0 0
8.720026 -15.606246 3.850068 18.287066 -1.061258 1.358674 0.030809 -0.018926 486163.000000 1 0 0
11.347326 -15.125346 1.920768 19.005979 -0.927155 1.469562 0.039905 -0.005356 457577.000000 1 0 0
8.122726 -16.138246 6.130068 19.078768 -1.104495 1.243691 0.040522 -0.011589 -59652.000000 1 0 0
14.515626 -11.602546 -2.520732 18.753042 -0.674323 1.705622 0.036015 -0.007198 478940.000000 1 0 0
13.735126 -4.847346 3.234868 14.920282 -0.339270 1.352251 0.023714 -0.008872 -2370130.000000 1 0 0
-0.986774 10.396254 -5.478632 11.792847 -1.476164 2.053948 0.001412 -0.002837 -2352360.000000 1 0 0
8.327126 -1.793746 -8.053332 11.722402 -0.212168 2.328154 0.003253 -0.000569 -1877580.000000 1 0 0
2.795526 -10.180746 7.599168 13.008071 -1.302812 0.946916 0.002562 -0.001703 790842.000000 1 0 0
-6.430274 1.304654 8.421668 10.675909 -0.200175 0.661864 -0.001137 -0.001698 -20587.200000 1 0 0
7.263626 -6.273446 -7.249632 12.028032 -0.712382 2.217712 0.001508 -0.002889 -368835.000000 1 0 0
-11.461274 -4.465546 -4.178132 12.990716 0.371527 1.898241 0.009347 -0.005425 186795.000000 1 0 0
2.060326 -3.193946 2.907568 4.785414 -0.997893 0.917774 0.003723 0.000701 1605820.000000 1 0 0
-3.646674 -4.311846 8.936068 10.570882 0.868784 0.563581 0.001167 -0.000416 -1138860.000000 1 0 0
-4.907674 -0.974446 -2.463832 5.577211 0.196006 2.028365 0.005469 -0.002360 -358819.000000 1 0 0
4.960126 -5.260146 -3.677332 8.111397 -0.814745 2.041321 0.005278 -0.001855 56785.200000 1 0 0
2.804826 14.449654 -8.812532 17.155765 1.379070 2.110262 0.016203 -0.009902 557454.000000 1 0 0
5.468226 -5.654446 13.756968 15.847032 -0.802139 0.519414 0.021992 -0.004616 -1154560.000000 1 0 0
-4.811574 -0.897046 9.889368 11.034289 0.184319 0.459578 0.005952 -0.000274 -2134810.000000 1 0 0
-0.914274 11.966154 -2.569032 12.272924 -1.494539 1.781681 -0.001254 -0.002348 414548.000000 1 0 0
3.209626 9.484354 -10.498732 14.507862 1.244481 2.379884 0.009311 -0.002132 -410952.000000 1 0 0
-10.689474 2.736954 1.236868 11.103405 -0.250657 1.459169 0.000044 -0.000324 -120534.000000 1 0 0
5.711826 -8.989646 -0.753332 10.677369 -1.004769 1.641409 0.002852 -0.004974 895239.000000 1 0 0
-6.995474 5.443554 9.434468 12.945197 -0.661277 0.754228 -0.001281 -0.002217 -102941.000000 1 0 0
-5.672574 -1.835846 5.187868 7.903316 0.312997 0.854737 0.001923 -0.000704 595237.000000 1 0 0
6.710126 -3.833146 -7.465432 10.744835 -0.519010 2.338928 0.002196 -0.001573 401120.000000 1 0 0
6.175526 4.748454 11.094968 13.556668 0.655497 0.612151 -0.000001 0.001862 374636.000000 1 0 0
3.661326 -9.890246 3.352868 11.066345 -1.216244 1.262980 -0.002793 -0.003043 1107030.000000 1 0 0
-6.642474 6.673354 -5.884732 11.103431 -0.787717 2.129388 0.006194 -0.006005 445951.000000 1 0 0
-10.975874 8.443054 5.263068 14.814009 -0.655700 1.207587 -0.002073 -0.004356 13610.300000 1 0 0
-9.238074 -5.470446 5.058268 11.868187 0.534637 1.130504 0.002610 -0.000171 -558646.000000 1 0 0
3.327526 9.881154 -7.972732 13.125323 1.245970 2.223619 0.009873 -0.003116 943725.000000 1 0 0
-8.177074 -8.502446 6.011768 13.239996 0.804903 1.099478 0.005916 0.000279 -2203910.000000 1 0 0
-7.752974 -5.569046 -7.532932 12.160097 0.622910 2.238876 0.014567 -0.005866 464351.000000 1 0 0
9.237726 -1.555646 7.024868 11.709158 -0.166836 0.927362 0.009888 -0.004371 1130200.000000 1 0 0
-4.036374 -0.331246 -4.908232 6.363394 0.081882 2.451714 0.009119 -0.006512 -557961.000000 1 0 0
9.046626 1.082954 -4.330832 10.088129 0.119141 2.014514 0.003401 0.002363 -3181050.000000 1 0 0
-1.941374 -10.714946 10.507368 15.132210 1.391557 0.803251 -0.009891 -0.006070 287294.000000 1 0 0
-12.840274 0.271554 -2.702732 13.124448 -0.021145 1.778211 0.005324 -0.002755 -337445.000000 1 0 0
-9.900874 -5.025146 -6.036032 12.637764 0.469666 2.068739 0.012342 -0.006123 -2395320.000000 1 0 0
-5.475974 8.212054 -0.150732 9.871517 -0.982687 1.586066 -0.000814 0.000201 391237.000000 1 0 0
6.259426 9.609654 0.556368 11.481960 0.993460 1.522322 0.003949 -0.001088 417477.000000 1 0 0
-0.550574 -12.115646 -0.054932 12.128274 1.525384 1.575326 0.005076 0.000158 -165439.000000 1 0 0
5.988426 4.703654 2.435568 7.994848 0.665810 1.261234 -0.002282 -0.000165 37918.900000 1 0 0
3.503126 -7.488546 -8.309432 11.721642 -1.133241 2.358729 -0.005775 -0.002426 658280.000000 1 0 0
-6.558474 -9.902946 4.625168 12.746533 0.985840 1.199464 0.007526 0.001196 -2086750.000000 1 0 0
-0.000074 6.612854 -9.179532 11.313428 -1.570785 2.517312 0.005575 -0.001933 -3009330.000000 1 0 0
-17.368974 -2.739546 4.212968 18.081357 0.156438 1.335634 0.028400 -0.006229 182892.000000 1 0 0
-8.217574 0.857454 -9.187532 12.356152 -0.103968 2.409174 0.008652 -0.009879 -391803.000000 1 0 0
-9.974374 -6.065946 -11.869332 16.648270 0.546393 2.364488 0.020923 -0.000659 -29689.900000 1 0 0
2.047726 9.455954 6.402768 11.601882 1.357535 0.986188 -0.003834 0.002976 -406059.000000 1 0 0
-11.334874 1.697254 -1.221732 11.526173 -0.148633 1.676992 0.004866 -0.001828 -1120850.000000 1 0 0
-6.033574 -5.308146 -3.097732 8.612571 0.721524 1.938717 0.015713 -0.002513 790540.000000 1 0 0
-7.042374 -8.295646 1.221368 10.950092 0.866927 1.459024 0.010525 0.000359 26294.700000 1 0 0
0.014226 11.139454 -7.832932 13.617726 1.569519 2.183646 0.007411 0.000874 444464.000000 1 0 0
-2.845374 9.380554 -4.186932 10.659331 -1.276290 1.974465 0.000437 -0.000772 -30123.200000 1 0 0
3.392426 -4.759746 9.417268 11.083712 -0.951576 0.555476 0.002873 0.000352 -687644.000000 1 0 0
-8.996274 1.687454 -0.342332 9.159565 -0.185418 1.608179 -0.000297 -0.000562 -1086400.000000 1 0 0
2.598426 3.667054 -10.361332 11.294083 0.954331 2.732325 0.000648 -0.000954 -1284440.000000 1 0 0
-13.704274 0.454954 1.078768 13.754194 -0.033186 1.492284 0.005675 -0.002887 -660975.000000 1 0 0
9.490826 -12.673346 -5.108232 16.636812 -0.928012 1.882882 0.022047 -0.005967 -2469700.000000 1 0 0
-4.711974 9.468654 -8.167632 13.362946 -1.109039 2.228391 0.003713 -0.003593 -1266950.000000 1 0 0
-2.450674 7.132454 8.508968 11.370146 -1.239839 0.725210 -0.001350 0.000023 -673423.000000 1 0 0
-10.693674 -1.270746 -4.451932 11.652861 0.118277 1.962806 0.008160 -0.004664 -4096120.000000 1 0 0
2.620326 -7.088146 9.781468 12.360624 -1.216700 0.657797 -0.001352 0.000770 -1602200.000000 1 0 0
-16.012574 -6.325346 3.174668 17.506886 0.376209 1.388449 0.012164 -0.008099 -217117.000000 1 0 0
-10.861174 -0.039946 6.197068 12.504813 0.003678 1.052300 -0.001916 -0.002274 -745704.000000 1 0 0
-8.460974 9.879454 9.406668 16.052323 -0.862586 0.944682 -0.005703 -0.012177 736218.000000 1 0 0
0.227726 -6.038646 -3.801332 7.139134 -1.533103 2.132305 -0.003960 0.001362 589726.000000 1 0 0
4.831426 1.476854 -2.965732 5.858271 0.296656 2.101624 -0.002350 0.003926 884958.000000 1 0 0
0.285626 5.340654 3.877668 6.606093 1.517366 0.943469 -0.004716 0.001518 -3372220.000000 1 0 0
5.987426 -11.354746 -1.471632 12.920729 -1.085543 1.684941 0.001406 -0.004739 -1387270.000000 1 0 0
6.284926 -13.488646 5.246568 15.778794 -1.134764 1.231835 0.021497 -0.008306 293354.000000 1 0 0
8.245526 -8.216646 -5.990632 13.091587 -0.783644 2.046084 0.005051 -0.004362 869164.000000 1 0 0
-13.124174 -1.436846 -4.708732 14.017155 0.109047 1.913385 0.004638 -0.003354 -2700380.000000 1 0 0
-6.703474 -1.407346 -7.071532 9.844987 0.206937 2.372134 0.017092 -0.009664 -344047.000000 1 0 0
-5.621274 13.096354 -4.435532 14.926056 -1.165353 1.872521 0.002639 -0.000555 805342.000000 1 0 0
-4.243474 6.883654 -6.690632 10.495538 -1.018364 2.262012 0.004180 -0.004247 -3685190.000000 1 0 0
-9.485174 -3.625446 -8.116732 12.999759 0.365088 2.245128 0.009981 -0.005382 519214.000000 1 0 0
-2.185374 -6.441346 9.204168 11.444802 1.243710 0.636430 -0.001998 0.001050 -807761.000000 1 0 0
7.508926 -6.028346 10.135168 13.980220 -0.676461 0.759813 0.013928 -0.003317 549975.000000 1 0 0
9.597426 -5.042946 12.147468 16.281980 -0.483798 0.728659 0.029187 -0.004310 -47661.300000 1 0 0
-6.297174 2.758054 -9.117232 11.418633 -0.412816 2.495516 0.007532 -0.010423 759872.000000 1 0 0
7.391926 5.543754 8.933168 12.852053 0.643485 0.802269 -0.002211 -0.000673 -287259.000000 1 0 0
12.660126 3.342254 11.198268 17.229354 0.258110 0.863274 0.030687 -0.001074 -978084.000000 1 0 0
-7.408174 -7.255746 -3.913932 11.083581 0.775004 1.931710 0.018449 -0.004170 -487050.000000 1 0 0
2.366526 1.496854 -5.782732 6.425030 0.563982 2.690639 -0.003012 0.002447 594612.000000 1 0 0
12.846226 6.857754 -6.968432 16.143524 0.490347 2.017123 0.016393 -0.003834 419423.000000 1 0 0
0.720926 -7.721546 0.983568 7.817251 -1.477701 1.444642 0.002429 -0.000373 741845.000000 1 0 0
-10.098274 -6.051946 -8.520132 14.532510 0.539908 2.197257 0.019482 -0.005068 439710.000000 1 0 0
-6.689574 0.255454 3.046568 7.355082 -0.038168 1.143719 0.001120 -0.002831 -542334.000000 1 0 0
10.724726 -7.896246 1.333568 13.384650 -0.634653 1.470997 0.013455 -0.005779 28226.100000 1 0 0
6.225326 1.003954 10.511968 12.258224 0.159893 0.540320 0.004048 0.001342 -686455.000000 1 0 0
-13.047974 5.323654 1.890868 14.218520 -0.387389 1.437415 0.002470 0.000674 216788.000000 1 0 0
2.021626 7.393154 3.706568 8.513773 1.303876 1.120357 -0.007048 0.001727 27231.800000 1 0 0
10.036526 -9.464046 -0.826732 13.819678 -0.756050 1.630655 0.011504 -0.006070 814791.000000 1 0 0
6.689526 -11.766346 -9.031332 16.271497 -1.053838 2.159207 0.002493 -0.005778 -57731.500000 1 0 0
10.184226 3.436954 11.858768 16.005045 0.325476 0.736328 0.011624 0.002380 -1090160.000000 1 0 0
-11.091274 -3.026346 -1.948232 11.660649 0.266374 1.738661 0.006450 -0.002928 676529.000000 1 0 0
12.293326 1.018154 6.782568 14.077135 0.082633 1.068072 0.014156 -0.007354 -546355.000000 1 0 0
-9.563574 9.023854 2.977868 13.481824 -0.756369 1.348079 -0.003617 -0.003642 506772.000000 1 0 0
-6.586774 7.678654 -8.790832 13.402464 -0.861789 2.286186 0.003040 -0.005163 -832508.000000 1 0 0
8.528826 5.375154 12.098268 15.748055 0.562354 0.694711 0.007883 0.002558 -2141750.000000 1 0 0
1.304526 4.877254 -2.630532 5.692898 1.309443 2.051127 -0.004200 0.001259 539704.000000 1 0 0
1.362026 0.553154 9.687968 9.798868 0.385776 0.150593 0.005683 -0.000450 636264.000000 1 0 0
2.664026 12.633754 -3.954232 13.503508 1.362975 1.867982 0.011311 -0.006251 526565.000000 1 0 0
2.051926 0.650154 13.026668 13.203301 0.306843 0.163756 0.004974 -0.002683 -446462.000000 1 0 0
-12.284674 -1.796846 0.839768 12.443757 0.145237 1.503260 0.001534 -0.004955 46870.300000 1 0 0
3.235626 8.698554 -1.278132 9.368444 1.214682 1.707653 -0.000744 -0.000337 248306.000000 1 0 0
3.626726 -2.899846 -5.839232 7.460488 -0.674483 2.469769 -0.004352 0.001710 -1428160.000000 1 0 0
-7.854674 -7.262446 9.208968 14.115386 0.746242 0.860041 0.003578 -0.002061 248721.000000 1 0 0
-6.960674 10.934954 -3.605332 13.454465 -1.003933 1.842077 0.000585 0.000491 1222730.000000 1 0 0
0.319126 0.497954 2.503968 2.572869 1.000863 0.231949 -0.000553 0.001494 -2299440.000000 1 0 0
-6.950974 4.720954 -2.008732 8.639355 -0.596615 1.805453 0.006745 -0.003748 183531.000000 1 0 0
-6.875274 -3.789046 -5.934132 9.840742 0.503697 2.218074 0.013706 -0.005784 314228.000000 1 0 0
2.922326 -6.113946 13.486068 15.092857 -1.124922 0.465628 0.005372 -0.002015 -1039100.000000 1 0 0
-5.476374 -0.534346 -11.698732 12.928130 0.097265 2.701953 0.011026 -0.010074 -1445410.000000 1 0 0
11.835726 2.531154 -0.582932 12.117382 0.210683 1.618922 0.002288 -0.002244 -572647.000000 1 0 0
5.875326 -10.919046 10.765668 16.420859 -1.077150 0.855807 0.013660 -0.001350 314190.000000 1 0 0
-7.984174 6.331054 -10.427232 14.579316 -0.670428 2.367717 -0.000771 -0.006573 1121320.000000 1 0 0
2.839426 7.796254 11.043968 13.813513 1.221524 0.644326 0.003149 0.001246 917078.000000 1 0 0
-6.306374 -10.330246 -0.377732 12.108965 1.022709 1.601996 0.014307 -0.001352 -532779.000000 1 0 0
11.182926 4.224354 6.015768 13.382543 0.361180 1.104564 0.003071 -0.002980 56576.300000 1 0 0
-7.948974 10.646654 1.422268 13.362645 -0.929464 1.464158 -0.001204 0.001190 570050.000000 1 0 0
4.389026 -2.664746 -3.474732 6.199854 -0.545652 2.165730 0.000866 -0.000526 -5765300.000000 1 0 0
6.361226 6.431554 6.300468 11.023882 0.790896 0.962428 -0.002480 0.000023 -5854490.000000 1 0 0
-0.354374 10.387354 -10.123132 14.508636 -1.536694 2.343022 0.005299 -0.000780 82477.000000 1 0 0
14.237326 6.475254 -2.373232 15.819690 0.426845 1.721382 0.018745 0.001070 750955.000000 1 0 0
1.438126 9.544954 -6.205432 11.475266 1.421252 2.142144 0.004964 -0.000997 56283.600000 1 0 0
0.569726 7.312954 7.287568 10.339851 1.493047 0.788650 -0.004966 0.002941 -49346.600000 1 0 0
12.161726 6.254654 1.886968 13.805394 0.475014 1.433684 0.001268 -0.001894 -334169.000000 1 0 0
-6.885874 6.874154 -3.249832 10.258200 -0.784546 1.893154 0.004249 -0.003856 -300339.000000 1 0 0
0.962726 9.816054 11.182868 14.911012 1.473032 0.722774 -0.000674 -0.000302 -964573.000000 1 0 0
-3.461674 13.826154 -11.040632 18.028901 -1.325468 2.229871 0.009701 0.004019 -190666.000000 1 0 0
-10.141874 -5.422746 -2.347832 11.737807 0.491012 1.772178 0.006476 -0.004781 -783693.000000 1 0 0
-3.925274 3.876354 -12.520332 13.681835 -0.779128 2.726568 0.003757 -0.007726 -243848.000000 1 0 0
-3.154874 8.454154 2.527268 9.370861 -1.213627 1.297721 -0.005563 0.002222 -2776890.000000 1 0 0
7.009626 8.959754 7.124968 13.423010 0.906913 1.011249 0.006812 -0.000111 -219274.000000 1 0 0
-1.296374 -2.222446 -8.196332 8.590676 1.042740 2.837424 0.003975 -0.006155 -808937.000000 1 0 0
0.745926 -1.284446 4.806468 5.030739 -1.044661 0.299718 0.003130 0.000169 697732.000000 1 0 0
2.722426 -8.809346 -6.112232 11.062349 -1.271068 2.156188 -0.007424 -0.000746 231308.000000 1 0 0
5.302726 4.035854 8.810968 11.047179 0.650561 0.647530 -0.000684 -0.001028 -315923.000000 1 0 0
6.091026 -7.472946 -2.874932 10.060356 -0.886930 1.860605 0.003177 -0.004929 701192.000000 1 0 0
1.839226 2.226554 -8.387632 8.870889 0.880377 2.809995 0.000895 -0.002375 44423.400000 1 0 0
-5.338274 10.815654 -0.603432 12.076410 -1.112307 1.620785 -0.004509 0.002050 608829.000000 1 0 0
-5.330774 3.365354 -3.467332 7.194800 -0.563122 2.073643 0.004391 -0.001955 268891.000000 1 0 0
2.144926 13.741054 -6.373832 15.298464 1.415950 2.000534 0.008332 -0.008422 499190.000000 1 0 0
-5.389574 -2.566046 2.565968 6.497407 0.444356 1.164814 -0.002234 0.000264 1139560.000000 1 0 0
10.481826 -3.383446 -1.874732 11.172780 -0.312233 1.739388 0.005424 -0.001970 -143170.000000 1 0 0
2.387426 -3.362646 7.089968 8.202124 -0.953401 0.526828 0.000531 0.001653 -1509720.000000 1 0 0
-2.869874 9.856554 -11.631232 15.513652 -1.287465 2.418468 0.002409 0.003220 -2561460.000000 1 0 0
0.384026 -1.912846 9.383668 9.584345 -1.372669 0.204995 0.004577 0.000477 1179280.000000 1 0 0
9.388526 2.685254 4.919068 10.933994 0.278577 1.104157 -0.002225 -0.002520 -860408.000000 1 0 0
13.438526 1.995854 -4.947432 14.458717 0.147440 1.920029 0.010466 -0.001398 -554313.000000 1 0 0
-6.493174 3.753454 7.591568 10.671533 -0.524132 0.779330 -0.003361 -0.002066 291549.000000 1 0 0
10.531926 0.019154 1.848868 10.692995 0.001819 1.397018 0.001299 -0.000472 233450.000000 1 0 0
15.465926 6.564754 -4.534332 17.402616 0.401418 1.834393 0.028377 -0.004394 -1458200.000000 1 0 0
8.047126 -4.894946 -9.347632 13.270078 -0.546489 2.352394 0.008911 -0.003978 985789.000000 1 0 0
4.482026 5.666054 -2.206332 7.553848 0.901548 1.867198 -0.004127 0.001703 -249949.000000 1 0 0
-1.680874 -10.489946 1.435368 10.720289 1.411910 1.436500 0.006107 -0.001520 -653805.000000 1 0 0
-2.771674 12.272954 -12.841232 17.977898 -1.348686 2.366389 0.008305 -0.000843 -577726.000000 1 0 0
8.490726 4.294554 -9.497232 13.443699 0.468272 2.355259 0.002902 0.001124 -2129040.000000 1 0 0
4.248826 7.738154 -8.925232 12.553538 1.068664 2.361678 0.005365 -0.002683 -1649120.000000 1 0 0
-1.714674 -4.944546 -2.543732 5.818868 1.236992 2.023227 0.004089 -0.000743 -863034.000000 1 0 0
-3.308674 -9.001246 7.128068 11.949021 1.218547 0.931613 0.000200 0.002300 -324254.000000 1 0 0
1.023326 7.203454 -1.345332 7.399112 1.429680 1.753637 -0.005552 0.000372 545198.000000 1 0 0
0.328726 -1.017946 -2.210932 2.456114 -1.258437 2.690967 0.002365 0.003349 -211239.000000 1 0 0
4.032126 -6.658146 7.622268 10.894398 -1.026275 0.795889 0.005976 -0.000405 -1367510.000000 1 0 0
-13.946174 3.905954 5.977868 15.668029 -0.273077 1.179342 -0.000160 0.001288 -426524.000000 1 0 0
4.285726 6.386254 12.606768 14.767609 0.979740 0.547791 0.004862 -0.001069 -1934990.000000 1 0 0
8.332926 10.202254 -7.241832 15.032225 0.885911 2.073451 0.012909 -0.008956 -180164.000000 1 0 0
12.419626 5.301954 9.479668 16.499149 0.403480 0.958736 0.023546 0.001142 -172794.000000 1 0 0
7.489826 4.088454 0.426768 8.543716 0.499665 1.520824 0.000515 0.001263 -1473580.000000 1 0 0
-10.849474 -7.498546 -1.133532 13.237227 0.604757 1.656533 0.009390 -0.004427 -1768660.000000 1 0 0
10.349826 6.799154 0.155968 12.384333 0.581234 1.558202 0.004417 0.001280 -1071370.000000 1 0 0
14.550326 3.601054 4.104268 15.541061 0.242615 1.303534 0.022411 -0.010335 480543.000000 1 0 0
2.092226 5.540754 8.288968 10.187460 1.209742 0.620403 -0.002319 0.001086 -802153.000000 1 0 0
4.211126 0.153554 11.827768 12.556004 0.036448 0.342253 0.007292 0.000348 -1588390.000000 1 0 0
-1.620674 -1.368946 -0.392032 2.157380 0.701396 1.753529 0.005069 -0.003463 -1237110.000000 1 0 0
3.126126 -5.240046 -9.507832 11.297328 -1.032893 2.571035 -0.005537 -0.001615 44920.500000 1 0 0
-3.940274 -5.253046 -1.422932 6.719002 0.927236 1.784190 0.007506 -0.002332 -144651.000000 1 0 0
-1.281174 -8.704046 8.640668 12.331381 1.424653 0.794410 -0.005292 -0.000397 -560055.000000 1 0 0
3.999026 8.592754 -5.998232 11.216346 1.135214 2.135039 0.003965 0.000468 433477.000000 1 0 0
-14.211874 -1.807646 -2.629432 14.565674 0.126513 1.752314 0.004855 -0.007755 -574639.000000 1 0 0
8.917026 -10.545146 -6.578632 15.296793 -0.868859 2.015362 0.002831 -0.005355 128969.000000 1 0 0
14.693026 6.018954 1.652068 15.963776 0.388795 1.467122 0.004483 -0.001025 -831340.000000 1 0 0
-5.585774 0.503054 -8.447432 10.139677 -0.089818 2.555497 0.012809 -0.011253 392395.000000 1 0 0
-8.059974 -4.513346 -13.017832 15.962376 0.510466 2.524445 0.012656 -0.003091 961597.000000 1 0 0
0.807726 -10.593546 11.962268 15.999109 -1.494697 0.726230 -0.004160 -0.001806 -271156.000000 1 0 0
0.162626 11.766054 3.283668 12.216748 1.556976 1.298666 -0.002434 0.001208 214640.000000 1 0 0
5.124626 -13.133446 -3.671332 14.568043 -1.198770 1.825556 0.004673 -0.004490 1171530.000000 1 0 0
-7.368474 1.635454 -6.990732 10.287831 -0.218412 2.317897 0.008490 -0.007037 104825.000000 1 0 0
1.422626 2.794154 4.090268 5.153780 1.099861 0.654021 -0.003513 0.000579 -611095.000000 1 0 0
17.192826 5.389954 2.448268 18.183478 0.303796 1.435744 0.018081 -0.008987 -417412.000000 1 0 0
2.469326 -8.185046 -3.603032 9.277629 -1.277792 1.969644 -0.004592 0.001360 449629.000000 1 0 0
-0.240574 -9.470346 -0.518332 9.487571 1.545399 1.625456 0.004446 0.001270 -949916.000000 1 0 0
0.894726 12.004154 -5.663432 13.303184 1.496399 2.010554 0.008977 -0.000920 -1927280.000000 1 0 0
6.004526 -5.047946 7.788968 11.054597 -0.699064 0.788950 0.010156 -0.002070 -497607.000000 1 0 0
-5.994374 -1.830546 -9.457132 11.345518 0.296383 2.556311 0.013917 -0.010146 -681500.000000 1 0 0
2.126426 -1.185646 11.234668 11.495443 -0.508642 0.213407 0.000445 -0.000157 -801470.000000 1 0 0
18.035626 2.120654 -5.698232 19.032888 0.117044 1.874848 0.025941 -0.006252 -563751.000000 1 0 0
-8.901074 4.892454 7.813668 12.814781 -0.502573 0.915066 0.000784 -0.008347 -895734.000000 1 0 0
11.483326 -7.144946 -4.823632 14.359125 -0.556585 1.913387 0.013921 -0.007170 235688.000000 1 0 0
10.774326 0.554554 8.841268 13.948535 0.051425 0.884277 0.008215 -0.005596 -75064.800000 1 0 0
-8.455774 -7.260946 -1.620832 11.262706 0.709521 1.715209 0.014861 -0.003484 -1717080.000000 1 0 0
10.285226 -10.465146 -3.176632 15.013199 -0.794069 1.783997 0.019956 -0.008702 1120340.000000 1 0 0
7.718626 -13.751946 -3.654532 16.187922 -1.059338 1.798516 0.020485 -0.010721 -692348.000000 1 0 0
1.826126 -1.110446 -11.699932 11.893538 -0.546346 2.960913 0.004226 -0.005239 194719.000000 1 0 0
-11.816874 -2.680346 -6.366532 13.687787 0.223050 2.054572 0.011516 -0.005802 -207237.000000 1 0 0
2.658626 -12.131746 -6.533832 14.033479 -1.355061 2.055096 -0.003961 -0.000374 581029.000000 1 0 0
-5.372974 1.502654 1.069168 5.680664 -0.272702 1.381455 -0.001064 0.000371 859488.000000 1 0 0
0.228326 6.905854 -3.970732 7.969295 1.537746 2.092380 0.001430 -0.002038 1068900.000000 1 0 0
5.417526 -11.726146 3.733468 13.445850 -1.138005 1.289432 0.003726 -0.008739 -1583770.000000 1 0 0
-4.422774 -9.213446 1.007368 10.269533 1.123248 1.472546 0.007989 0.000888 1128270.000000 1 0 0
7.179926 -6.188346 -4.673732 10.568384 -0.711360 2.028888 0.005010 -0.004290 1640820.000000 1 0 0
-6.931174 -5.989846 2.146268 9.408820 0.712674 1.340658 0.007601 -0.000266 -42368.600000 1 0 0
-6.334074 -0.825346 7.232568 9.649442 0.129573 0.723441 0.000131 -0.001122 -458686.000000 1 0 0
4.073626 -5.068746 3.319268 7.300969 -0.893818 1.098835 0.001077 0.001092 -238172.000000 1 0 0
-2.470374 10.598554 -8.722432 13.946789 -1.341799 2.246451 0.001901 -0.000888 113049.000000 1 0 0
-2.339074 -4.853746 2.770368 6.058470 1.121724 1.095871 0.001100 0.001670 -447665.000000 1 0 0
15.088826 5.086254 6.312668 17.128702 0.325125 1.193355 0.033793 -0.010908 1084380.000000 1 0 0
6.760426 0.320954 0.112168 6.768970 0.047440 1.554225 0.001176 0.000811 5330100.000000 1 0 0
-9.613974 9.056954 0.309468 13.211839 -0.755573 1.547371 -0.003211 -0.001829 -1423580.000000 1 0 0
7.147626 10.491854 -2.549532 12.948655 0.972762 1.768987 0.003565 -0.002032 280792.000000 1 0 0
1.639026 -4.297946 -5.446432 7.128981 -1.206469 2.440263 -0.001169 -0.000817 -798879.000000 1 0 0
0.975326 -8.112446 -7.852232 11.332281 -1.451145 2.336311 -0.006190 0.000688 1090390.000000 1 0 0
-10.370574 0.244954 -10.458132 14.730287 -0.023616 2.360259 0.007695 -0.011598 -4006610.000000 1 0 0
5.901626 -2.516146 0.492368 6.434486 -0.403012 1.494201 0.006180 0.000781 215494.000000 1 0 0
-3.373874 5.323454 -1.254532 6.426199 -1.005911 1.767280 0.000620 -0.003269 652974.000000 1 0 0
-0.290074 4.616054 -5.123732 6.902516 -1.508039 2.407292 0.000755 -0.002789 -470106.000000 1 0 0
3.871826 -9.618846 9.880568 14.322669 -1.188115 0.809507 0.003426 -0.000991 -2656720.000000 1 0 0
7.279226 -13.502046 -0.646532 15.352862 -1.076344 1.612920 0.020528 -0.009045 662739.000000 1 0 0
12.935526 -0.042746 0.539168 12.946828 -0.003305 1.529140 0.005958 -0.008673 398373.000000 1 0 0
9.216926 2.416154 -0.661532 9.551290 0.256374 1.640113 0.002414 0.000319 266932.000000 1 0 0
-0.831474 -5.763546 4.550368 7.390241 1.427521 0.907489 -0.002545 0.003672 1788840.000000 1 0 0
11.536726 -3.760846 3.388868 12.598588 -0.315126 1.298454 0.017025 -0.007699 -1641430.000000 1 0 0
1.603326 -8.193446 11.771068 14.431259 -1.377554 0.616919 -0.002113 -0.000044 264743.000000 1 0 0
9.509726 -5.942846 -5.998132 12.717307 -0.558544 2.061959 0.005045 -0.005256 -889328.000000 1 0 0
3.164826 6.321254 -0.146732 7.070778 1.106617 1.591550 -0.008999 0.003342 -1508190.000000 1 0 0
6.349926 -1.364246 11.464268 13.176197 -0.211627 0.515444 0.007661 0.001282 316079.000000 1 0 0
-4.815974 -7.463046 -3.732532 9.634442 0.997726 1.968623 0.015047 -0.003043 -915035.000000 1 0 0
-3.419674 -8.343346 -5.709032 10.672331 1.181812 2.135230 0.009454 0.001877 66435.600000 1 0 0
9.646326 5.308154 2.208968 11.229766 0.503056 1.372799 0.001025 -0.001886 496373.000000 1 0 0
8.849226 -1.398546 0.285468 8.963605 -0.156745 1.538944 0.004488 -0.000051 985608.000000 1 0 0
-3.948274 9.594554 9.223068 13.881978 -1.180405 0.844117 -0.006670 -0.002203 -76428.300000 1 0 0
-14.395874 -3.522346 -6.199532 16.064941 0.239963 1.966984 0.015901 -0.005554 -856776.000000 1 0 0
10.702426 6.309054 -5.787432 13.705490 0.532661 2.006746 0.006157 -0.001726 -133282.000000 1 0 0
-1.797174 4.446154 2.749668 5.528000 -1.186667 1.050189 -0.004769 -0.001067 326753.000000 1 0 0
6.850826 -3.829346 2.665568 8.288725 -0.509697 1.243389 0.006926 -0.002801 -1308280.000000 1 0 0
8.304026 -11.181546 -1.574332 14.016503 -0.932013 1.683354 0.016149 -0.009231 -442544.000000 1 0 0
4.446826 0.505954 1.798868 4.823502 0.113291 1.188623 0.001491 0.000907 -52750.300000 1 0 0
-10.799974 2.210754 3.820368 11.667137 -0.201911 1.237196 -0.001673 -0.003329 -126034.000000 1 0 0
-0.956574 -3.016646 4.430368 5.444570 1.263728 0.620269 0.000672 0.001616 445416.000000 1 0 0
8.570726 -8.769746 -8.533132 14.939215 -0.796875 2.178751 0.014483 -0.004211 -604615.000000 1 0 0
12.087426 -4.817046 0.987468 13.049325 -0.379227 1.495052 0.013613 -0.006529 170115.000000 1 0 0
2.891326 4.864854 3.488768 6.648163 1.034557 1.018349 -0.008258 0.000618 67720.600000 1 0 0
6.154626 7.444254 2.012468 9.866426 0.879949 1.365384 -0.003286 -0.000504 -95449.400000 1 0 0
-1.536274 -1.347846 -10.387132 10.586281 0.720158 2.947318 0.008786 -0.008242 1563000.000000 1 0 0
-1.041374 -8.563946 6.001168 10.509027 1.449791 0.963013 -0.004861 -0.000033 -303371.000000 1 0 0
-4.255574 -0.299446 2.374068 4.882190 0.070250 1.062979 0.000728 -0.001002 -104012.000000 1 0 0
-8.353274 6.129554 -7.982932 13.079596 -0.633046 2.227279 0.000002 -0.005646 -1874790.000000 1 0 0
6.402326 11.261354 -9.312932 15.954265 1.053844 2.194107 0.013395 -0.010894 383718.000000 1 0 0
-11.198274 -5.748446 3.100968 12.963872 0.474257 1.329254 0.003397 -0.000810 1002170.000000 1 0 0
1.494226 -6.322046 3.081168 7.189894 -1.338704 1.127918 -0.001082 -0.000503 498099.000000 1 0 0
9.961526 2.236454 7.222768 12.506082 0.220847 0.955084 0.006397 -0.001743 -1356570.000000 1 0 0
-3.965674 -2.527146 -10.626532 11.620509 0.567364 2.724977 0.010359 -0.009589 -851790.000000 1 0 0
-8.259174 11.796854 5.958268 15.584629 -0.959992 1.178494 -0.003758 -0.002739 95480.700000 1 0 0
6.880726 5.995354 -2.944432 9.589491 0.716745 1.882886 0.002274 0.001764 -2239200.000000 1 0 0
3.911426 -9.894446 -2.311732 10.887765 -1.194335 1.784749 -0.002231 -0.003271 -1966580.000000 1 0 0
8.401726 -12.904746 -7.310032 17.045763 -0.993678 2.014013 0.012717 -0.007559 -84598.300000 1 0 0
-1.161074 9.452954 3.696568 10.216215 -1.448582 1.200563 -0.005097 0.001713 -85530.800000 1 0 0
0.481226 -13.188046 4.599068 13.975248 -1.534323 1.235460 0.006322 -0.005374 -983530.000000 1 0 0
-11.272874 -6.981546 -5.042232 14.186042 0.554506 1.934177 0.010990 -0.005998 242225.000000 1 0 0
3.598126 10.354554 -3.395432 11.475725 1.236357 1.871173 0.006087 -0.004219 -1137280.000000 1 0 0
11.673826 -8.148046 -7.357832 16.025185 -0.609366 2.047825 0.028470 -0.007630 323127.000000 1 0 0
11.778726 -4.809846 -5.742932 13.959021 -0.387684 1.994801 0.011124 -0.005031 593230.000000 1 0 0
1.337026 -10.276646 -2.678932 10.703914 -1.441420 1.823762 -0.005728 0.002485 -676986.000000 1 0 0
2.416426 -11.960146 -4.012632 12.844666 -1.371440 1.888511 -0.002617 0.001012 -932932.000000 1 0 0
-7.697474 -5.680146 7.190768 11.967552 0.635727 0.926226 0.002825 0.001416 -2933670.000000 1 0 0
-7.332574 -0.897246 9.528768 12.056911 0.121759 0.659472 -0.000201 -0.001196 96843.400000 1 0 0
16.249626 2.658354 -7.429132 18.064030 0.162158 1.994640 0.022107 -0.003366 413418.000000 1 0 0
-1.949474 6.410654 -5.441732 8.631882 -1.275583 2.252894 0.000983 -0.002884 -332292.000000 1 0 0
7.716626 1.239554 8.386268 11.463520 0.159274 0.750187 0.003287 -0.000399 -1571920.000000 1 0 0
7.911426 8.277854 -3.708632 12.036091 0.808028 1.884019 0.004899 0.000237 114095.000000 1 0 0
7.944926 0.591354 3.934168 8.885337 0.074295 1.112110 -0.000265 -0.001821 707393.000000 1 0 0
-7.029474 5.915954 5.379868 10.646830 -0.699593 1.041064 0.002456 -0.006798 26727.600000 1 0 0
-5.980674 -2.065746 -4.606632 7.826674 0.332574 2.200099 0.013506 -0.005668 -932870.000000 1 0 0
-15.146174 -2.061646 3.132868 15.603584 0.135285 1.368644 0.005766 -0.005911 -1038890.000000 1 0 0
1.189326 1.303854 -10.587932 10.734004 0.831302 2.976430 0.005087 -0.005617 605323.000000 1 0 0
1.394826 -9.252446 9.360868 13.235526 -1.421171 0.785191 -0.003155 -0.001266 -1589940.000000 1 0 0
-0.334174 -6.867746 -1.283732 6.994682 1.522176 1.755372 0.001327 0.000645 927018.000000 1 0 0
-0.348374 -10.159846 -8.409932 13.193590 1.536520 2.261949 -0.004391 0.001791 -143341.000000 1 0 0
-4.319374 6.489054 3.834768 8.687362 -0.983505 1.113617 -0.004124 0.001090 -325277.000000 1 0 0
10.803926 -1.198746 -8.706532 13.927150 -0.110503 2.246118 0.011935 0.003871 613979.000000 1 0 0
2.832526 -1.083346 6.404968 7.086639 -0.365301 0.442208 0.001628 0.003755 767842.000000 1 0 0
1.812626 -12.339246 6.651668 14.134613 -1.424940 1.080832 0.003514 -0.004195 -218661.000000 1 0 0
2.894026 -5.026446 -1.313032 5.946814 -1.048391 1.793427 0.005158 0.001147 -1398490.000000 1 0 0
-0.967374 9.497654 -1.645632 9.687587 -1.469292 1.741494 0.000249 -0.002185 73838.200000 1 0 0
4.566626 -2.656546 2.560168 5.870755 -0.526878 1.119549 0.005889 0.001032 -1175840.000000 1 0 0
17.753426 6.745354 -2.477232 19.152561 0.363100 1.700502 0.019445 -0.000628 -344586.000000 1 0 0
-7.138674 3.549254 -5.512332 9.692455 -0.461394 2.175750 0.004846 -0.007305 798553.000000 1 0 0
-13.872774 -6.034346 1.978168 15.257141 0.410291 1.440775 -0.008701 -0.002750 -99043.300000 1 0 0
6.674926 -6.075446 3.424968 9.653812 -0.738416 1.208119 0.007376 -0.004928 1376380.000000 1 0 0
-4.702274 1.975454 3.590168 6.237235 -0.397718 0.957456 0.000611 -0.001263 607663.000000 1 0 0
6.959026 -12.023346 -5.325832 14.877950 -1.046116 1.936887 0.010059 -0.006507 1169070.000000 1 0 0
2.870126 -12.304946 3.330468 13.066803 -1.341644 1.313073 0.006443 -0.006331 -631344.000000 1 0 0
3.344726 11.306754 -6.132732 13.290609 1.283182 2.050407 0.008362 -0.000491 -602416.000000 1 0 0
-5.603574 -8.287846 6.445768 11.901107 0.976278 0.998444 0.005791 0.001155 774960.000000 1 0 0
-4.027274 6.536054 6.376368 9.979830 -1.018577 0.877696 -0.002619 0.001263 183501.000000 1 0 0
4.276426 4.287054 -7.139332 9.361448 0.786639 2.438168 0.000852 0.002396 -1504340.000000 1 0 0
-0.312974 -2.677646 1.628168 3.149392 1.454440 1.027479 -0.000214 0.000209 -335194.000000 1 0 0
-13.273574 -0.889246 6.545068 14.826208 0.066894 1.113579 0.002570 -0.003219 -763701.000000 1 0 0
-0.499074 -9.312546 -5.952732 11.063798 1.517256 2.138903 -0.002969 0.001995 387987.000000 1 0 0
2.097826 -1.772746 -3.910132 4.778351 -0.701607 2.529246 -0.002267 0.001630 -798167.000000 1 0 0
11.371226 -1.998246 1.112268 11.598918 -0.173952 1.474755 0.007647 -0.005547 -331851.000000 1 0 0
0.440026 -4.319446 -1.893232 4.736620 -1.469276 1.981987 0.000611 -0.000589 -3005200.000000 1 0 0
1.220726 -7.453646 -11.354032 13.636754 -1.408462 2.554591 -0.006526 -0.001249 -550164.000000 1 0 0
-4.302874 4.120254 -10.031832 11.667428 -0.763721 2.605704 0.004309 -0.006505 -289372.000000 1 0 0
-1.020774 5.822554 -2.179532 6.300355 -1.397246 1.924035 -0.002910 -0.000795 -2364980.000000 1 0 0
-11.335074 1.709354 -3.930332 12.118305 -0.149674 1.901100 0.003989 -0.001315 -85936.900000 1 0 0
-1.799274 -11.237846 4.152968 12.115020 1.412035 1.220906 0.007041 -0.002082 -173186.000000 1 0 0
-3.515074 -5.396846 -9.695932 11.640138 0.993494 2.555257 0.006230 -0.001115 952586.000000 1 0 0
-12.793274 -3.762546 -8.379332 15.749217 0.286038 2.131813 0.022687 -0.005436 166325.000000 1 0 0
11.352326 4.508754 0.480268 12.224354 0.378061 1.531498 0.004275 -0.000554 82453.400000 1 0 0
-8.813674 -2.292946 -3.052632 9.605052 0.254516 1.894221 0.010377 -0.004325 663518.000000 1 0 0
-2.392074 -6.057246 -6.445532 9.162813 1.194685 2.351029 0.002527 -0.000785 -565912.000000 1 0 0
-0.025974 2.783754 -1.863032 3.349754 -1.561466 2.160566 -0.003943 -0.001395 -2175130.000000 1 0 0
8.125326 6.031554 -5.136932 11.348508 0.638565 2.040534 0.004658 0.000143 -244254.000000 1 0 0
-9.811574 -0.866146 -0.938032 9.894296 0.088050 1.665744 0.003421 -0.003143 260570.000000 1 0 0
6.162026 0.556854 -8.834632 10.785703 0.090124 2.530647 0.002686 0.002187 517630.000000 1 0 0
-4.187574 2.460154 7.938068 9.305968 -0.531169 0.549074 -0.001234 0.001301 -168992.000000 1 0 0
-10.187974 -3.402346 1.518068 10.847825 0.322312 1.430393 0.003311 -0.003952 1875090.000000 1 0 0
-1.787574 -8.141246 -7.856032 11.453932 1.354656 2.326610 0.000148 -0.000350 -117686.000000 1 0 0
-9.439674 -9.738246 4.155168 14.184721 0.800965 1.273504 0.004543 0.001062 -250303.000000 1 0 0
-1.164474 -10.795646 7.321768 13.096192 1.463347 0.977525 -0.001588 -0.002869 10810.900000 1 0 0
9.468726 3.720254 -3.708832 10.828319 0.374370 1.920386 0.003481 0.001872 -807535.000000 1 0 0
12.729426 -0.662846 3.113168 13.121336 -0.052025 1.331252 0.011842 -0.007954 -716076.000000 1 0 0
6.638026 12.002954 -6.824432 15.320156 1.065628 2.032478 0.013186 -0.004747 -318859.000000 1 0 0
-11.778574 -0.098846 -6.528932 13.467425 0.008392 2.076924 0.006975 -0.005488 663314.000000 1 0 0
-7.484674 -6.587946 -11.611232 15.304970 0.721763 2.432047 0.017565 -0.002487 89760.200000 1 0 0
4.149626 6.074954 6.721768 9.965271 0.971523 0.830483 -0.004196 0.001437 -2507100.000000 1 0 0
-4.155974 -1.373646 -7.394232 8.592654 0.319219 2.607105 0.009923 -0.009971 -267093.000000 1 0 0
9.527426 9.277154 0.880568 13.327146 0.772090 1.504675 0.002651 0.000954 -2115070.000000 1 0 0
-8.977674 3.994754 4.943568 10.999798 -0.418659 1.104676 0.002149 -0.004978 784559.000000 1 0 0
-6.935374 7.879454 -12.101932 16.020049 -0.849037 2.427098 0.001752 -0.005675 -1034840.000000 1 0 0
11.196726 -3.600146 7.212968 13.796906 -0.311095 1.020669 0.022722 -0.008888 1057700.000000 1 0 0
11.734426 6.905154 6.401768 15.045283 0.531886 1.131282 0.012879 -0.003441 -234993.000000 1 0 0
-9.781474 -0.803946 -14.825632 17.779847 0.082006 2.556833 0.007433 -0.000884 69985.100000 1 0 0
1.763626 -13.027146 12.053468 17.835442 -1.436234 0.828726 0.007601 -0.000757 111462.000000 1 0 0
2.859626 3.047554 13.108068 13.758142 0.817201 0.308633 0.002943 -0.001753 -1358750.000000 1 0 0
-2.583274 -1.427546 11.056268 11.443437 0.504846 0.260867 0.006418 -0.002343 -83546.700000 1 0 0
2.583626 -10.012446 -8.396832 13.320323 -1.318264 2.252836 -0.008809 0.002058 -1221690.000000 1 0 0
13.946726 3.617154 -7.444632 16.217815 0.253764 2.047711 0.012351 -0.002350 -3634020.000000 1 0 0
7.257326 -1.557246 5.056468 8.981184 -0.211371 0.972777 0.004271 -0.000734 771124.000000 1 0 0
-1.256074 8.723654 10.198568 13.479267 -1.427794 0.712681 -0.001386 0.000454 346345.000000 1 0 0
-12.262974 -4.650646 0.839468 13.142060 0.362485 1.506876 0.001207 -0.005755 20041.400000 1 0 0
-4.892674 4.861754 -5.352332 8.730543 -0.782228 2.230722 0.006060 -0.006415 12786.700000 1 0 0
-11.255574 0.389754 1.914268 11.423847 -0.034614 1.402434 -0.000347 -0.001623 -2570760.000000 1 0 0
-1.242474 2.236454 -4.131532 4.859530 -1.063698 2.587146 -0.000512 -0.002714 883854.000000 1 0 0
3.058726 -9.858446 13.147268 16.715125 -1.269949 0.665596 0.005558 0.000585 -2239650.000000 1 0 0
8.896126 4.689554 -1.478432 10.164582 0.485128 1.716764 0.001486 -0.000014 -2017520.000000 1 0 0
4.004126 2.298554 3.822168 5.993775 0.521117 0.879301 -0.005561 0.003373 -401690.000000 1 0 0
-5.572474 -3.306646 7.521868 9.927984 0.535544 0.711102 0.003960 -0.001172 -22700.200000 1 0 0
1.651326 -5.779846 7.772968 9.826114 -1.292506 0.658270 -0.003700 0.001306 -465895.000000 1 0 0
-5.894874 -6.239746 -9.690732 12.945821 0.813811 2.416685 0.013388 -0.004947 270064.000000 1 0 0
-11.816274 -5.798046 5.486568 14.259877 0.456166 1.175853 0.007268 -0.000418 -346498.000000 1 0 0
10.427926 6.213654 4.481968 12.939829 0.537375 1.217098 0.003191 -0.002393 -237715.000000 1 0 0
1.415126 -3.728646 0.377768 4.006007 -1.208062 1.476356 0.006875 -0.000519 -459806.000000 1 0 0
8.677826 4.395554 6.941468 11.950294 0.468856 0.951009 -0.002841 0.001837 18733.000000 1 0 0
-7.926974 11.999954 3.524468 14.807352 -0.987017 1.330468 -0.000646 0.000563 -142154.000000 1 0 0
-6.131974 13.218054 -6.958332 16.147335 -1.136436 2.016317 0.010196 -0.007444 665217.000000 1 0 0
4.497926 -6.928746 -0.925832 8.312402 -0.995006 1.682408 0.004811 -0.004068 -1087270.000000 1 0 0
-1.959174 -8.319446 11.147268 14.046819 1.339517 0.654127 -0.007429 -0.002531 -563461.000000 1 0 0
11.606826 8.901354 -5.697732 15.697664 0.654234 1.942246 0.011448 -0.005875 505084.000000 1 0 0
-3.273874 -2.847846 -2.013432 4.783554 0.715917 2.005242 0.007659 -0.002044 -726822.000000 1 0 0
-2.056374 5.882354 4.793568 7.861873 -1.234493 0.915085 -0.005246 0.001011 -735325.000000 1 0 0
0.273326 -11.548746 -5.699532 12.881495 -1.547134 2.029135 -0.005957 -0.003204 -188484.000000 1 0 0
-8.828474 6.301154 -1.482032 10.947279 -0.619882 1.706592 0.002602 -0.000673 -254573.000000 1 0 0
2.840726 -0.001046 3.950568 4.865872 -0.000368 0.623409 0.000154 0.001972 630041.000000 1 0 0
-10.016474 3.992954 -1.027032 10.831816 -0.379332 1.665755 0.007161 -0.000784 267789.000000 1 0 0
6.459526 5.435754 13.644368 16.044989 0.699544 0.554086 0.011315 0.002756 -770631.000000 1 0 0
-8.810174 -1.568246 5.695268 10.607292 0.176159 1.004014 -0.000335 -0.002394 -519353.000000 1 0 0
12.906326 -1.781446 -1.438232 13.107834 -0.137162 1.680741 0.009311 -0.005660 -1375410.000000 1 0 0
5.074926 -5.503146 5.459168 9.265096 -0.825858 0.940705 0.005278 -0.002996 192591.000000 1 0 0
-9.037174 -1.223346 3.225768 9.673297 0.134550 1.230813 -0.002020 -0.001180 622168.000000 1 0 0
1.886326 5.433454 5.667368 8.074633 1.236646 0.792773 -0.002014 0.000520 -721206.000000 1 0 0
9.331126 3.054854 -7.382632 12.284352 0.316386 2.215521 0.004340 0.001454 -904392.000000 1 0 0
2.341226 -2.497546 -1.493532 3.734932 -0.817693 1.982185 0.000212 0.002304 215879.000000 1 0 0
-6.282274 0.371154 -3.964832 7.438052 -0.059011 2.132994 0.005173 -0.002788 -1920610.000000 1 0 0
-4.126774 4.177454 5.067268 7.756197 -0.791501 0.858837 -0.000304 0.000433 1269460.000000 1 0 0
-6.353674 1.815554 -12.240932 13.910638 -0.278331 2.646594 0.006559 -0.007140 -2588840.000000 1 0 0
-0.081974 3.100654 6.276268 7.000879 -1.544365 0.458998 0.000296 -0.000311 953726.000000 1 0 0
-8.773174 9.303454 -2.295432 12.991992 -0.814725 1.748409 -0.001270 -0.000427 1341470.000000 1 0 0
-1.167174 -3.661746 -6.151032 7.252991 1.262230 2.583126 -0.003606 -0.001185 29251.400000 1 0 0
-3.275174 7.152454 -2.896832 8.383078 -1.141385 1.923629 0.000468 -0.000115 1001450.000000 1 0 0
7.074726 -0.482946 -4.273932 8.279582 -0.068158 2.113206 0.001299 0.003467 29820.000000 1 0 0
-5.127574 -10.898946 6.853668 13.858276 1.131055 1.053475 -0.000632 -0.000542 886736.000000 1 0 0
9.762726 8.432454 -1.501132 12.987320 0.712417 1.686640 0.003333 0.000012 -643753.000000 1 0 0
13.734926 4.630454 -4.275032 15.111757 0.325164 1.857607 0.007720 -0.001412 683277.000000 1 0 0
4.818126 1.018254 -6.658132 8.281419 0.208273 2.504762 -0.005211 0.003262 -959306.000000 1 0 0
8.973426 -4.786946 3.593268 10.786510 -0.490054 1.231179 0.009687 -0.005274 -950088.000000 1 0 0
-8.811074 -3.269246 -0.849332 9.436332 0.355293 1.660925 0.002833 -0.001824 -51986.800000 1 0 0
-8.652774 -4.330846 -10.443232 14.236848 0.464060 2.394306 0.010990 -0.006778 -58064.700000 1 0 0
10.551026 -1.250346 10.521368 14.952815 -0.117955 0.790292 0.017923 -0.001733 495108.000000 1 0 0
2.149426 -11.608646 9.834668 15.365591 -1.387712 0.876240 0.005510 -0.004199 412155.000000 1 0 0
-6.448774 -10.476046 2.024268 12.467233 1.019005 1.407707 0.009820 0.001337 -884385.000000 1 0 0
-3.801674 -1.397446 6.682168 7.813894 0.352256 0.544928 0.005204 0.000585 -557719.000000 1 0 0
4.640126 -7.588846 3.997568 9.752020 -1.022007 1.148428 -0.000296 -0.002742 514479.000000 1 0 0
11.553426 -9.583746 -5.269132 15.908916 -0.692481 1.908378 0.022417 -0.008448 502076.000000 1 0 0
11.376926 1.095854 11.372768 16.123746 0.096026 0.787890 0.023094 -0.001327 -252472.000000 1 0 0
-10.302374 -3.438446 4.383868 11.712392 0.322128 1.187162 0.004699 -0.002697 1360890.000000 1 0 0
1.871126 8.709254 9.032168 12.685908 1.359170 0.778476 -0.001621 0.002572 -90798.600000 1 0 0
6.521526 8.666754 4.184968 11.625699 0.925712 1.202555 0.001661 -0.000853 2213520.000000 1 0 0
-4.226174 3.632154 0.374368 5.585091 -0.709950 1.503716 0.003134 -0.003522 -662718.000000 1 0 0
4.815426 6.911254 4.296668 9.455956 0.962254 1.099112 -0.003761 -0.000339 -1558590.000000 1 0 0
-8.269674 13.179754 1.189468 15.604751 -1.010435 1.494498 -0.002114 0.002530 -18612.300000 1 0 0
9.005226 8.151754 -9.037132 15.139846 0.735694 2.210441 0.005579 -0.009639 -580563.000000 1 0 0
7.081626 1.976454 6.006168 9.493674 0.272170 0.885827 -0.001664 0.000764 -1890710.000000 1 0 0
11.652626 -6.213146 3.153068 13.576771 -0.489851 1.336416 0.017055 -0.005332 -21289.900000 1 0 0
11.388826 4.705354 -2.132132 12.505667 0.391795 1.742127 0.004035 0.001355 561209.000000 1 0 0
-4.002874 14.467254 -5.866832 16.116580 -1.300864 1.943382 0.003265 0.001593 -512492.000000 1 0 0
7.227426 -2.973846 7.088268 10.550971 -0.390352 0.834144 0.007640 -0.003021 -1232190.000000 1 0 0
-8.013874 -0.432846 0.962368 8.083049 0.053960 1.451453 0.001743 -0.001787 582435.000000 1 0 0
-3.337874 1.030954 10.845868 11.394609 -0.299570 0.311607 0.004497 -0.000028 -455989.000000 1 0 0
7.162826 -1.274946 -1.868732 7.511573 -0.176150 1.822217 0.004577 0.001145 -1902920.000000 1 0 0
-7.765774 5.322254 2.988268 9.877417 -0.600824 1.263445 0.004768 -0.002796 940496.000000 1 0 0
9.493126 -2.273546 2.808468 10.157556 -0.235066 1.290656 0.007068 -0.004478 -934229.000000 1 0 0
0.242826 3.457054 1.578368 3.808074 1.500671 1.143426 -0.006589 0.001292 -3631680.000000 1 0 0
-7.660774 -3.076446 3.955368 9.154065 0.381871 1.123989 0.001605 -0.000634 -731757.000000 1 0 0
-2.186774 8.421754 -6.684032 10.971974 -1.316749 2.225837 0.000169 -0.002515 -452834.000000 1 0 0
4.424026 9.711554 7.325268 12.943949 1.143343 0.969245 0.001469 0.001877 1679260.000000 1 0 0
-11.926274 -3.113846 6.881768 14.117039 0.255390 1.061596 0.007419 -0.004249 -1721190.000000 1 0 0
-4.776974 2.339954 -5.703132 7.798755 -0.455487 2.391004 0.008166 -0.008293 -227349.000000 1 0 0
-2.684274 2.932254 -1.870432 4.393399 -0.829521 2.010573 0.001634 -0.001610 1047670.000000 1 0 0
2.420826 5.230754 11.564068 12.920868 1.137344 0.462384 0.002596 -0.003552 134619.000000 1 0 0
-0.803574 1.713954 4.535068 4.914286 -1.132384 0.395424 0.003832 -0.000830 -1027880.000000 1 0 0
5.126426 1.676154 7.602368 9.321251 0.316007 0.617039 0.000875 0.000636 1141190.000000 1 0 0
3.265326 -8.286846 1.883268 9.103893 -1.195441 1.362428 -0.000909 -0.002290 2001330.000000 1 0 0
5.077226 6.405354 -4.693432 9.425237 0.900551 2.092046 0.001569 0.001798 -1706590.000000 1 0 0
-3.864974 2.944554 -8.023432 9.379973 -0.651046 2.597079 0.012686 -0.013441 235896.000000 1 0 0
-8.677474 -2.125946 -12.780832 15.593841 0.240263 2.531522 0.011070 -0.005800 -426406.000000 1 0 0
-7.738874 8.127054 1.279568 11.294975 -0.809860 1.457266 0.000763 -0.000150 -1053040.000000 1 0 0
7.453426 0.862654 -6.473932 9.910072 0.115227 2.282689 0.000133 0.003379 -57518.600000 1 0 0
8.981926 8.817554 5.555568 13.758219 0.776164 1.155130 0.005606 0.000413 376722.000000 1 0 0
9.387026 -1.119946 -1.385132 9.554534 -0.118747 1.716280 0.005223 -0.000906 1197400.000000 1 0 0
5.338526 0.140254 4.267168 6.835806 0.026266 0.896641 -0.003678 0.002326 -1125970.000000 1 0 0
-4.117274 -7.201646 -7.933532 11.478527 1.051436 2.333893 0.013305 -0.004635 -1028660.000000 1 0 0
-2.132074 7.426054 -0.595032 7.748940 -1.291209 1.647661 -0.000205 -0.000686 -73784.000000 1 0 0
13.459726 -3.479046 -7.275732 15.690898 -0.252942 2.052953 0.020183 -0.001568 990958.000000 1 0 0
-4.759174 -5.005046 1.524768 7.072845 0.810574 1.353510 0.006260 -0.000225 2247480.000000 1 0 0
-8.915974 1.329054 2.532368 9.363432 -0.147975 1.296933 -0.000666 -0.002282 -2451820.000000 1 0 0
-1.172374 11.134954 10.201668 15.147134 -1.465895 0.831856 -0.006673 -0.003820 -24401.000000 1 0 0
-8.644774 0.340454 7.470868 11.430743 -0.039362 0.858496 -0.003599 -0.002700 -1238760.000000 1 0 0
-6.175874 12.688154 -2.011132 14.253958 -1.117810 1.712362 0.001070 0.000280 66841.100000 1 0 0
-12.915174 -0.784546 3.277668 13.347672 0.060672 1.322698 0.005081 -0.006552 370179.000000 1 0 0
-6.783274 12.735154 8.753368 16.876563 -1.081378 1.025502 0.000889 -0.010955 570919.000000 1 0 0
-8.049974 0.947654 -13.937032 16.122686 -0.117182 2.614824 0.006362 -0.009114 -513082.000000 1 0 0
7.294026 2.935454 3.698968 8.689192 0.382613 1.131064 -0.002306 0.000437 -955172.000000 1 0 0
-1.627974 0.720854 -2.051832 2.716606 -0.416844 2.426897 -0.000234 -0.001492 990251.000000 1 0 0
-6.178574 9.680854 -10.351132 15.460907 -1.002743 2.304337 0.001338 -0.001740 -384231.000000 1 0 0
-9.997474 13.661354 5.307168 17.741141 -0.939041 1.267000 -0.006698 0.001326 402554.000000 1 0 0
-5.631274 8.241954 2.545168 10.301404 -0.971404 1.321141 -0.002832 -0.000578 -1078490.000000 1 0 0
-2.360174 -10.695546 -1.302832 11.030073 1.353608 1.689189 0.004666 -0.000174 1044170.000000 1 0 0
-2.251174 -12.527746 8.732668 15.436052 1.392999 0.969476 -0.003210 -0.003155 220880.000000 1 0 0
-14.670874 -6.391946 -1.753232 16.098613 0.410890 1.679919 0.011966 -0.007966 531543.000000 1 0 0
-2.765374 -9.338046 3.218568 10.256977 1.282884 1.251611 0.004417 -0.000093 -207892.000000 1 0 0
4.723226 -2.645646 7.431868 9.194616 -0.510591 0.629563 0.004636 0.003035 -993945.000000 1 0 0
-15.083974 -1.308146 -0.239632 15.142488 0.086508 1.586622 0.007829 -0.008841 87264.300000 1 0 0
5.491526 8.835954 -2.832232 10.782044 1.014719 1.836596 -0.000249 0.002157 -222041.000000 1 0 0
-5.724574 -5.813546 8.549768 11.818062 0.793109 0.762011 0.003746 -0.000608 -2286590.000000 1 0 0
3.465726 3.637254 7.100068 8.697806 0.809542 0.615810 -0.003049 0.000261 -115202.000000 1 0 0
3.359126 2.304854 9.405768 10.250100 0.601368 0.408728 0.003363 -0.002500 -38636.600000 1 0 0
9.858626 -3.188646 5.140868 11.566697 -0.312818 1.110231 0.015465 -0.006253 -212438.000000 1 0 0
6.599926 10.017154 -5.117732 13.041993 0.988216 1.974040 0.008049 -0.003699 124265.000000 1 0 0
-4.472374 12.046654 -8.568332 15.444751 -1.215313 2.158887 0.005590 -0.002088 -375901.000000 1 0 0
-3.278074 -7.158846 2.071368 8.141585 1.141388 1.313550 0.007654 0.000579 1257560.000000 1 0 0
-7.477874 -3.984646 1.099868 8.544338 0.489587 1.441713 0.003804 -0.001117 2873320.000000 1 0 0
-1.863074 -3.992546 -11.037532 11.884384 1.134193 2.761803 0.007424 -0.006680 -393175.000000 1 0 0
-5.175474 8.341454 -4.488432 10.794045 -1.015474 1.999646 0.004432 -0.002494 -820375.000000 1 0 0
-10.932874 -3.278946 -10.202632 15.309243 0.291380 2.300215 0.020170 -0.003723 -883971.000000 1 0 0
4.583426 -11.300046 -7.750832 14.449022 -1.185462 2.136993 -0.000259 -0.003352 -2861410.000000 1 0 0
-9.472074 -3.939346 7.263368 12.569612 0.394130 0.954703 0.001141 0.000866 -1237250.000000 1 0 0
-5.612974 -9.628946 -5.096632 12.255519 1.043025 1.999689 0.016345 -0.002826 961688.000000 1 0 0
5.068026 4.340354 -9.547032 11.647720 0.708209 2.531593 -0.001543 0.004934 319129.000000 1 0 0
-3.180874 -7.159746 -13.962932 16.010728 1.152716 2.630271 0.002935 -0.002499 -191405.000000 1 0 0
0.722126 -0.773946 -8.820232 8.883522 -0.820022 3.022154 0.002465 -0.006231 -188886.000000 1 0 0
-7.703374 2.329054 -2.978732 8.581335 -0.293604 1.925292 0.005629 -0.003257 -421911.000000 1 0 0
-2.260374 7.472954 -12.472932 14.714903 -1.277071 2.582317 0.001564 -0.000466 -90503.000000 1 0 0
-9.890474 8.772554 7.662468 15.280464 -0.725569 1.045516 -0.001391 -0.009958 -337611.000000 1 0 0
-10.633574 -3.140046 -14.137032 17.966315 0.287135 2.476506 0.017152 0.000505 -138850.000000 1 0 0
-3.268874 4.838754 7.984368 9.891875 -0.976661 0.631464 -0.000527 -0.000491 -404776.000000 1 0 0
8.734626 -2.428346 -3.547132 9.735127 -0.271166 1.943746 0.004314 0.002465 -5188560.000000 1 0 0
1.946726 -8.333946 -1.209032 8.643273 -1.341321 1.711138 -0.001922 0.000525 38844.800000 1 0 0
-13.641774 -2.808246 4.992568 14.795607 0.203020 1.226605 0.014498 -0.006368 285584.000000 1 0 0
6.939426 2.758154 -1.917132 7.709633 0.378316 1.822100 0.001064 0.001708 1976020.000000 1 0 0
-11.126874 4.305754 8.788768 14.818545 -0.369222 0.935902 -0.002640 -0.004913 -3402370.000000 1 0 0
-1.896774 -2.502146 8.111868 8.698326 0.922157 0.369306 0.002089 0.000123 -1261150.000000 1 0 0
3.072326 12.088154 -9.795632 15.859290 1.321906 2.236559 0.009346 -0.009839 1260250.000000 1 0 0
3.698526 -4.993546 -7.104232 9.438470 -0.933299 2.422933 -0.004982 -0.003006 424034.000000 1 0 0
8.266526 -13.826446 -9.674032 18.790768 -1.031939 2.111605 0.017382 -0.003039 -188828.000000 1 0 0
-6.223574 -5.788046 -0.490232 8.513206 0.749155 1.628413 0.012686 -0.001875 -12930.000000 1 0 0
-1.135274 -4.118346 9.882068 10.765913 1.301814 0.408032 -0.000744 0.001041 869978.000000 1 0 0
2.788426 3.350454 1.872968 4.744351 0.876696 1.164970 -0.008254 0.003043 -1074860.000000 1 0 0
-9.266774 13.314054 7.755868 17.980284 -0.962750 1.124803 -0.000912 -0.012870 581207.000000 1 0 0
3.981826 -11.061446 0.007068 11.756300 -1.225264 1.570195 0.003299 -0.004910 -122540.000000 1 0 0
-12.482074 -1.408846 -9.065132 15.490760 0.112394 2.195918 0.015157 -0.009773 120338.000000 1 0 0
-4.225174 1.027554 -13.521832 14.203799 -0.238567 2.830459 0.005659 -0.006491 416260.000000 1 0 0
3.909426 -3.053946 4.928668 6.992994 -0.663156 0.788654 0.002985 0.002362 188764.000000 1 0 0
1.803626 -1.230346 1.136168 2.461238 -0.598646 1.090971 -0.002224 0.000761 1158570.000000 1 0 0
8.098426 -9.012946 7.342568 14.167957 -0.838793 1.025991 0.021165 -0.006922 -1581600.000000 1 0 0
0.001226 2.402954 -6.478832 6.910098 1.570286 2.786427 0.000584 -0.004028 543971.000000 1 0 0
-3.655474 -9.692646 -3.371232 10.893810 1.210152 1.885425 0.012848 -0.000825 -209510.000000 1 0 0
-9.426474 2.247654 -5.618232 11.201558 -0.234070 2.096195 0.003903 -0.004181 858612.000000 1 0 0
8.814726 -7.596746 5.244668 12.763874 -0.711319 1.147356 0.015898 -0.008040 1930140.000000 1 0 0
-5.592574 -4.314146 4.623668 8.441981 0.657061 0.991184 0.001728 0.000852 -884386.000000 1 0 0
-0.198174 -12.541046 10.408968 16.299194 1.554996 0.878095 -0.000086 -0.001403 -931579.000000 1 0 0
-14.291174 -8.287246 2.974068 16.785743 0.525498 1.392678 0.000029 -0.001313 -1203270.000000 1 0 0
10.872226 -1.341146 -3.625932 11.539123 -0.122735 1.890441 0.011315 -0.002014 -209553.000000 1 0 0
-13.666974 2.970954 2.684068 14.241382 -0.214052 1.381193 0.002858 0.000123 -1262880.000000 1 0 0
-6.304274 6.135854 1.077668 8.863066 -0.771861 1.448904 0.001201 -0.000627 403925.000000 1 0 0
7.117526 -6.914146 -0.465632 9.933852 -0.770905 1.617687 0.005692 -0.006192 -237405.000000 1 0 0
-6.912274 7.789654 10.135268 14.532098 -0.845005 0.798977 -0.002957 -0.005482 226955.000000 1 0 0
-12.702674 -5.043446 -1.997732 13.812502 0.377950 1.715938 0.004046 -0.007414 -2836570.000000 1 0 0
-9.431974 -5.498646 0.054468 10.917885 0.527810 1.565807 0.006797 -0.003925 -679823.000000 1 0 0
-1.813174 1.813954 2.093468 3.310685 -0.785613 0.886231 -0.000791 -0.001074 372099.000000 1 0 0
-7.019974 7.411954 7.614268 12.735547 -0.812552 0.929949 -0.003308 -0.006844 -352272.000000 1 0 0
5.580926 7.200454 -0.424232 9.119936 0.911436 1.617330 -0.001480 0.000615 -1134000.000000 1 0 0
-0.048874 -3.887246 7.409368 8.367305 1.558224 0.483197 -0.000466 0.001913 -377449.000000 1 0 0
6.453426 0.673954 13.094468 14.613897 0.104056 0.460054 0.008979 0.001978 105959.000000 1 0 0
5.767226 6.102854 -7.832632 11.482850 0.813666 2.321448 -0.001479 -0.000206 -528724.000000 1 0 0
9.963626 5.333554 9.047268 14.476660 0.491489 0.895722 0.001568 0.001429 -1579050.000000 1 0 0
-1.173574 -4.968346 -8.567532 9.973182 1.338838 2.604221 0.004351 -0.003780 517085.000000 1 0 0
10.012826 -3.558546 -8.083932 13.351775 -0.341476 2.221137 0.013812 -0.005421 807684.000000 1 0 0
8.362426 -5.673246 1.311668 10.190013 -0.596096 1.441717 0.008994 -0.005090 1367340.000000 1 0 0
15.731726 3.186754 -4.911432 16.785850 0.199864 1.867734 0.015528 -0.000714 -169421.000000 1 0 0
-6.874774 3.553654 1.250968 7.839381 -0.477086 1.410536 0.003577 -0.001276 332162.000000 1 0 0
-1.819074 3.882554 0.363768 4.302974 -1.132644 1.486157 -0.002161 -0.001773 -904129.000000 1 0 0
-2.698474 10.090054 6.907568 12.522198 -1.309473 0.986484 -0.007350 0.002981 -183879.000000 1 0 0
5.578826 -5.743346 -8.851732 11.935765 -0.799928 2.406270 -0.000433 -0.003997 547203.000000 1 0 0
-1.328074 -0.898746 6.230168 6.433235 0.594937 0.251924 0.005552 -0.000638 -339766.000000 1 0 0
-5.567674 5.031854 -7.911532 10.904627 -0.734890 2.382587 0.004412 -0.009156 -135665.000000 1 0 0
6.708326 -1.269546 2.562568 7.292471 -0.187037 1.211731 0.001849 0.000794 -788769.000000 1 0 0
8.770026 7.595954 3.232568 12.044142 0.713782 1.299072 0.000978 -0.000914 -119330.000000 1 0 0
-5.181274 -4.746946 -7.650232 10.387741 0.741679 2.398630 0.015094 -0.006245 687146.000000 1 0 0
-2.238474 7.820854 -9.932032 12.838294 -1.292030 2.455339 0.003225 -0.000541 395080.000000 1 0 0
-2.848774 -2.313946 1.652568 4.025027 0.682172 1.147714 -0.002159 0.003447 -134639.000000 1 0 0
6.044726 -2.014646 -9.264332 11.243904 -0.321711 2.539130 0.000861 0.000731 1081730.000000 1 0 0
1.039026 -7.585146 5.148668 9.226202 -1.434662 0.978764 -0.003141 -0.000339 43452.100000 1 0 0
1.759226 11.938654 1.201968 12.127286 1.424494 1.471521 0.001981 -0.004759 185219.000000 1 0 0
-1.038474 7.035654 2.576768 7.564297 -1.424253 1.223190 -0.004981 0.001473 495315.000000 1 0 0
8.768126 7.896454 -6.526432 13.484374 0.733139 2.076016 0.009134 -0.005035 12328.900000 1 0 0
3.603026 -11.045246 5.477968 12.844742 -1.255474 1.130204 0.006080 -0.002173 -273684.000000 1 0 0
7.942226 -7.116046 12.376468 16.336891 -0.730588 0.711202 0.026976 -0.005915 505978.000000 1 0 0
-8.666674 0.109754 -3.895132 9.502386 -0.012663 1.993153 0.009396 -0.004565 -1365080.000000 1 0 0
-3.187374 -5.176846 11.227868 12.768089 1.018914 0.496260 0.003067 -0.003672 1272060.000000 1 0 0
-8.086174 0.184154 -11.505032 14.063637 -0.022770 2.528843 0.007738 -0.010616 -2166180.000000 1 0 0
1.464326 -5.056146 5.371468 7.520740 -1.288896 0.775286 0.000457 0.002363 -566637.000000 1 0 0
6.801326 3.752354 -7.614032 10.877117 0.504154 2.346200 -0.000962 0.002431 -1837130.000000 1 0 0
16.247126 4.325554 -1.164032 16.853323 0.260199 1.639920 0.010761 -0.001069 -970947.000000 1 0 0
7.897426 7.497454 0.072768 10.889740 0.759423 1.564114 0.001449 -0.001634 -3123420.000000 1 0 0
5.353926 -10.290946 13.854468 18.069709 -1.091076 0.697075 0.016111 -0.007005 -629942.000000 1 0 0
-5.178974 -9.374646 8.974368 13.973011 1.066078 0.873347 -0.002790 -0.002753 621513.000000 1 0 0
-12.707774 -3.194346 2.770468 13.392791 0.246267 1.362429 0.002822 -0.005019 625608.000000 1 0 0
-1.987874 -1.242946 -5.991732 6.434082 0.558789 2.768622 0.004274 -0.006063 -503748.000000 1 0 0
-2.486674 13.050854 -4.326332 13.972311 -1.382516 1.885607 0.003392 -0.000824 535943.000000 1 0 0
3.852426 -0.495946 -4.983732 6.318602 -0.128032 2.479552 0.000833 0.002933 -73139.800000 1 0 0
-8.854974 3.774854 -7.577532 12.250677 -0.402969 2.237679 0.002901 -0.006991 424420.000000 1 0 0
-4.501474 8.041454 -11.316832 14.594483 -1.060473 2.458174 0.001136 0.000569 -2646590.000000 1 0 0
-10.180674 -6.436446 7.348768 14.109513 0.563776 1.022964 0.001297 0.001685 -880314.000000 1 0 0
7.923326 5.367054 4.106568 10.413849 0.595379 1.165450 -0.002806 -0.000256 -1796760.000000 1 0 0
-6.737674 -7.555546 3.980768 10.877915 0.842557 1.196143 0.009560 0.001013 -238245.000000 1 0 0
-4.201274 11.885854 8.173768 15.024470 -1.231035 0.995563 -0.006819 -0.004492 -760269.000000 1 0 0
-7.217574 9.925754 -7.906032 14.598607 -0.942076 2.143089 0.001323 -0.005991 -363065.000000 1 0 0
13.001226 5.504854 4.599268 14.848857 0.400523 1.255878 0.006307 -0.004560 -733924.000000 1 0 0
5.282026 3.963254 -3.760132 7.599064 0.643711 2.088419 0.000244 0.004052 737865.000000 1 0 0
-2.941074 -4.159046 5.164068 7.253632 0.955287 0.778556 0.001690 0.002805 -1622580.000000 1 0 0
12.507126 -2.390346 -5.228732 13.765231 -0.188841 1.960431 0.009167 -0.004388 -1198820.000000 1 0 0
-5.300074 9.673954 6.984368 13.055940 -1.069590 1.006339 -0.006698 -0.000903 188227.000000 1 0 0
1.655826 3.812654 -0.420732 4.177931 1.161077 1.671671 -0.004587 0.000790 579013.000000 1 0 0
-0.173174 9.625054 7.701868 12.328439 -1.552806 0.896019 -0.005192 0.003735 -939315.000000 1 0 0
-5.560774 2.052854 5.956668 8.403470 -0.353647 0.782952 0.000718 -0.001765 961726.000000 1 0 0
8.876526 0.867354 10.676368 13.911500 0.097404 0.695944 0.006858 0.001817 170242.000000 1 0 0
0.523326 -2.849346 -10.192332 10.596050 -1.389155 2.864662 0.000976 -0.003576 -2103440.000000 1 0 0
1.265926 10.652754 -2.839032 11.097019 1.452515 1.829510 0.005048 -0.003703 -771410.000000 1 0 0
2.252126 -4.227746 11.768668 12.706197 -1.081331 0.386551 -0.000229 0.000574 94961.900000 1 0 0
6.465626 -3.116346 9.491068 11.899424 -0.449133 0.647478 0.009382 -0.001370 470907.000000 1 0 0
-10.743274 -8.220846 5.676568 14.670503 0.653164 1.173488 0.005800 0.001608 -33369.300000 1 0 0
-2.920174 0.945354 -6.904032 7.555579 -0.313085 2.723257 0.008245 -0.008554 272716.000000 1 0 0
11.042926 2.572254 -5.142532 12.450235 0.228852 1.996594 0.007322 0.000214 -2742760.000000 1 0 0
-2.002374 -3.956946 -0.043732 4.434956 1.102328 1.580657 0.002109 -0.001084 980166.000000 1 0 0
-1.216074 -6.496846 -10.578032 12.473276 1.385758 2.583102 0.002805 -0.001168 1543910.000000 1 0 0
0.418326 6.852354 -6.578132 9.507974 1.509824 2.334850 0.003488 -0.000735 -2584740.000000 1 0 0
2.080726 3.832154 -6.345932 7.699720 1.073370 2.539544 -0.001585 0.001697 -1827210.000000 1 0 0
1.580126 -14.803246 6.390868 16.201114 -1.464457 1.165304 0.020897 -0.007565 -61278.900000 1 0 0
-1.621674 5.407454 -10.537732 11.954672 -1.279435 2.649771 0.006101 -0.002156 -403848.000000 1 0 0
13.622226 4.387554 -0.818732 14.334783 0.311596 1.627943 0.006255 -0.002349 -2154050.000000 1 0 0
-2.363074 3.402154 -6.029632 7.315411 -0.963716 2.539650 0.004967 -0.005833 -1096400.000000 1 0 0
5.661926 7.815554 14.193468 17.163764 0.943853 0.597146 0.010853 0.001468 548384.000000 1 0 0
15.968526 0.638454 -5.711632 16.971275 0.039961 1.914044 0.010373 -0.003834 57379.700000 1 0 0
6.099326 -8.265346 10.547368 14.722931 -0.935059 0.772181 0.009559 -0.001146 1009070.000000 1 0 0
0.091126 -5.887946 -6.461732 8.742437 -1.555321 2.402563 -0.002320 -0.000791 -1306690.000000 1 0 0
8.730526 5.553054 -7.539132 12.802227 0.566506 2.200484 0.003373 0.000736 -493764.000000 1 0 0
-16.104074 -0.799346 5.302468 16.973400 0.049596 1.253079 0.021332 -0.009376 -420021.000000 1 0 0
-0.151674 4.029654 -12.284832 12.929742 -1.533175 2.824423 0.005611 -0.002949 556479.000000 1 0 0
-11.333874 3.590354 5.934068 13.287607 -0.306780 1.107850 0.002709 -0.004483 -859612.000000 1 0 0
5.333426 -9.559746 -9.627732 14.578320 -1.061905 2.292167 -0.001003 0.000772 89157.600000 1 0 0
1.579226 11.251654 -11.552832 16.203753 1.431352 2.364525 0.011511 -0.002292 -2464030.000000 1 0 0
5.919526 2.366954 1.239868 6.494654 0.380382 1.378711 -0.000480 0.001568 -18012.100000 1 0 0
5.595826 4.459254 4.982568 8.719185 0.672841 0.962526 -0.006022 0.000831 324220.000000 1 0 0
0.498726 -1.533246 -6.419532 6.618910 -1.256316 2.895524 -0.000810 -0.001168 -169833.000000 1 0 0
12.856626 6.977454 -4.413832 15.279385 0.497231 1.863848 0.014354 -0.003537 -41634.100000 1 0 0
7.309426 3.156854 12.701968 14.991111 0.407690 0.559916 0.004893 0.003596 -223969.000000 1 0 0
-2.510274 -0.249646 8.721268 9.078783 0.099124 0.281569 0.002141 -0.000543 653946.000000 1 0 0
2.243026 -15.283746 13.343768 20.412746 -1.425078 0.858336 0.023085 -0.001964 229854.000000 1 0 0
18.809026 4.543954 -1.701232 19.424756 0.237042 1.658489 0.013511 -0.009437 411283.000000 1 0 0
-0.418374 -13.281746 7.167368 15.098045 1.539307 1.076149 -0.000767 -0.004073 -1872450.000000 1 0 0
4.294226 1.571354 -0.582632 4.609663 0.350789 1.697529 -0.000734 0.001226 485727.000000 1 0 0
2.852026 -0.514246 -7.394132 7.941769 -0.178392 2.768058 -0.004321 0.000443 100535.000000 1 0 0
7.184326 -11.303546 0.926468 13.425462 -1.004624 1.501733 0.005726 -0.004809 507479.000000 1 0 0
-11.747674 -7.270546 1.224568 13.869688 0.554195 1.482390 0.003596 -0.002225 233543.000000 1 0 0
0.055226 -7.058046 9.996368 12.237092 -1.562972 0.614797 -0.005886 0.000349 -2074560.000000 1 0 0
-4.705074 -7.256446 10.617068 13.693643 0.995547 0.683562 0.000529 -0.000721 -855622.000000 1 0 0
11.804026 0.766254 -1.587532 11.934925 0.064824 1.704207 0.007885 -0.004150 -671506.000000 1 0 0
6.510726 -9.715746 -7.327432 13.801324 -0.980406 2.130485 -0.001617 -0.002747 -341097.000000 1 0 0
-11.013374 4.705154 3.535368 12.487262 -0.403751 1.283753 -0.001517 -0.003169 237146.000000 1 0 0
5.933226 -9.066046 2.128468 11.042044 -0.991303 1.376822 0.002527 -0.005844 5522810.000000 1 0 0
11.543626 -1.368546 5.803068 12.992452 -0.118003 1.107780 0.018149 -0.010705 -218445.000000 1 0 0
-6.680074 3.472254 4.220268 8.630793 -0.479356 1.059879 -0.003075 -0.002821 -396043.000000 1 0 0
9.494826 6.290054 -3.173732 11.823243 0.585093 1.842561 0.005984 0.000055 -945442.000000 1 0 0
-2.426174 6.545354 10.990368 13.019837 -1.215826 0.565866 -0.003188 -0.002239 -375543.000000 1 0 0
1.731926 9.790754 2.908268 10.359365 1.395714 1.286233 -0.005229 0.001220 -421963.000000 1 0 0
2.907826 6.099954 -5.659232 8.814295 1.125965 2.267968 -0.002207 0.002638 -2295870.000000 1 0 0
11.832726 0.018854 -5.823332 13.188061 0.001593 2.028134 0.009583 -0.000010 343817.000000 1 0 0
-2.675074 -12.551446 6.200368 14.252697 1.360809 1.120723 0.002120 -0.003004 -44674.300000 1 0 0
10.835826 1.835854 -2.753432 11.329911 0.167831 1.816278 0.006520 -0.001025 -45336.000000 1 0 0
-8.823774 5.241154 0.906968 10.302974 -0.535982 1.482653 0.001430 -0.000113 -602940.000000 1 0 0
1.063526 -10.178346 5.472068 11.604884 -1.466685 1.079770 -0.002762 -0.001392 -142149.000000 1 0 0
9.426226 -5.740046 -1.143232 11.095443 -0.546970 1.674016 0.008201 -0.004565 975629.000000 1 0 0
-7.637074 8.749554 -4.733932 12.541519 -0.853184 1.957849 -0.001513 -0.003399 -1047750.000000 1 0 0
-7.529574 0.079654 -1.599232 7.697946 -0.010578 1.780068 0.002564 -0.002454 -1546760.000000 1 0 0
4.092326 8.842654 2.703968 10.111928 1.137354 1.300099 -0.001584 -0.001620 294537.000000 1 0 0
-1.314374 -10.621546 -3.790432 11.353951 1.447676 1.911173 0.004007 -0.000278 -253364.000000 1 0 0
3.216826 7.868454 -3.703132 9.272202 1.182705 1.981637 0.001419 -0.001126 -290382.000000 1 0 0
-4.224174 1.655554 -11.003232 11.901917 -0.373525 2.750498 0.006664 -0.007164 -368556.000000 1 0 0
1.224826 2.930254 10.940168 11.391833 1.174876 0.282535 0.006282 -0.003228 863739.000000 1 0 0
2.139326 5.645554 -8.120132 10.118574 1.208576 2.502266 0.001174 0.000609 253489.000000 1 0 0
15.413226 6.122554 4.060768 17.074631 0.378114 1.330671 0.016544 -0.008810 -167917.000000 1 0 0
-4.463374 9.014354 4.713568 11.108465 -1.111044 1.132583 -0.003434 0.000630 112395.000000 1 0 0
-0.863974 -8.146946 -12.453432 14.906615 1.465142 2.559711 -0.002161 -0.000585 -328697.000000 1 0 0
14.404026 -4.235246 -5.147832 15.871782 -0.285973 1.901109 0.024796 -0.004662 1763560.000000 1 0 0
-5.943474 -6.171246 -5.662932 10.270247 0.804197 2.154828 0.016943 -0.003175 676959.000000 1 0 0
-8.806274 2.604354 -12.015432 15.122954 -0.287543 2.489007 0.005051 -0.012568 -294573.000000 1 0 0
10.431926 5.133154 13.848768 18.082110 0.457277 0.698384 0.013804 0.002984 518575.000000 1 0 0
-0.532174 10.974954 5.587068 12.326725 -1.522344 1.100390 -0.008369 0.004998 445450.000000 1 0 0
0.494826 11.200854 -0.568232 11.226169 1.526648 1.621435 0.001503 -0.002445 -259493.000000 1 0 0
-1.630374 -0.553646 3.643768 4.030097 0.327364 0.441437 0.002089 0.000951 288725.000000 1 0 0
-4.899974 6.663954 8.909668 12.157311 -0.936773 0.748273 -0.002809 -0.001355 -3725520.000000 1 0 0
3.547326 -8.700646 -11.490732 14.843237 -1.183663 2.456151 -0.010874 0.003091 1099680.000000 1 0 0
6.602926 -3.832946 12.132968 14.335237 -0.525952 0.561657 0.016774 -0.000569 -615213.000000 1 0 0
-2.399474 -1.823146 -12.575132 12.931175 0.649750 2.906387 0.004737 -0.009929 1015920.000000 1 0 0
-16.073374 -4.879646 5.283668 17.609130 0.294743 1.266048 0.009181 -0.004377 1838020.000000 1 0 0
-8.920874 7.248454 5.895168 12.918014 -0.682333 1.096905 -0.007361 -0.004949 -2947710.000000 1 0 0
-12.961074 1.558554 5.920568 14.334282 -0.119674 1.145012 0.003508 -0.004522 346656.000000 1 0 0
-3.552974 3.561054 10.200368 11.373312 -0.786534 0.458158 0.002049 -0.000599 475875.000000 1 0 0
2.084626 -12.259246 -1.281532 12.501084 -1.402362 1.673490 0.000121 -0.000707 -2450480.000000 1 0 0
10.249026 -5.199746 -3.614032 12.047453 -0.469503 1.875471 0.010624 -0.002284 511552.000000 1 0 0
3.011026 -13.349346 1.002268 13.721365 -1.348953 1.497687 0.007057 -0.003494 558177.000000 1 0 0
10.124726 -1.967246 -6.164332 12.015787 -0.191910 2.109495 0.009969 0.003159 330224.000000 1 0 0
11.989526 -5.455946 -1.608132 13.270349 -0.427053 1.692277 0.012409 -0.005428 -60574.800000 1 0 0
1.284326 0.946154 5.895468 6.107474 0.634930 0.264255 0.003558 -0.000651 -226054.000000 1 0 0
-10.752874 11.537554 6.539168 17.073376 -0.820586 1.177750 -0.004916 -0.008156 -79266.900000 1 0 0
4.761826 -14.012046 2.927268 15.085799 -1.243203 1.375516 0.016660 -0.008356 -3285900.000000 1 0 0
5.282626 -3.504846 -1.709232 6.565939 -0.585784 1.834148 0.004764 0.000541 -1291890.000000 1 0 0
2.100026 -2.942446 -7.840632 8.633865 -0.950934 2.709581 -0.003085 -0.002643 -662792.000000 1 0 0
-2.832874 14.966154 -8.729132 17.555873 -1.383724 2.091188 0.014803 -0.004759 -1688180.000000 1 0 0
-2.243874 6.075154 -8.044132 10.327174 -1.216986 2.463752 0.006558 -0.006505 -287600.000000 1 0 0
2.682226 -3.459346 -11.492532 12.297956 -0.911264 2.777669 0.001430 -0.002984 -1915610.000000 1 0 0
14.677826 2.771754 -2.623332 15.165852 0.186642 1.744647 0.009119 -0.001870 842272.000000 1 0 0
-3.531274 13.238054 2.231468 13.881477 -1.310114 1.409344 -0.010024 0.002831 -689974.000000 1 0 0
7.894926 -4.949246 13.988668 16.807966 -0.559957 0.587617 0.035818 -0.005192 -1320970.000000 1 0 0
-11.366374 7.107954 2.951868 13.727017 -0.558850 1.354063 -0.006555 0.000790 1062790.000000 1 0 0
-2.398274 11.817554 4.046168 12.719189 -1.370574 1.247056 -0.007294 0.003063 420325.000000 1 0 0
1.890626 1.438754 0.854968 2.524965 0.650500 1.225362 -0.009325 0.002501 -1932000.000000 1 0 0
-6.953774 8.687454 5.286268 12.319556 -0.895788 1.127305 -0.003629 -0.004606 -912742.000000 1 0 0
-0.965574 9.052054 1.027368 9.161195 -1.464529 1.458417 -0.004516 -0.000347 707750.000000 1 0 0
5.070926 13.219754 -8.460332 16.494041 1.204519 2.109394 0.016088 -0.014620 -2389650.000000 1 0 0
8.852126 6.915454 7.240468 13.364431 0.663184 0.998253 -0.002235 -0.000201 -1429180.000000 1 0 0
7.175626 -13.731246 2.857368 15.754405 -1.089251 1.388418 0.025501 -0.009887 -222559.000000 1 0 0
4.152026 -13.415646 -1.210732 14.095558 -1.270655 1.656797 0.001307 0.001261 -3715040.000000 1 0 0
12.111926 -11.904346 -4.500932 17.569024 -0.776755 1.829870 0.024779 -0.008420 -1270550.000000 1 0 0
2.775226 -0.037546 -1.913132 3.370959 -0.013528 2.174304 -0.000001 0.000979 406723.000000 1 0 0
-13.587974 -3.141946 -10.696732 17.576261 0.227236 2.225078 0.025387 -0.008096 64658.500000 1 0 0
-6.534974 13.631554 4.991268 15.919733 -1.123764 1.251891 -0.002504 -0.002074 18596.800000 1 0 0
7.349026 -4.304046 -0.579932 8.536353 -0.529810 1.638785 0.005791 0.000062 -943185.000000 1 0 0
11.830626 2.141954 -7.254232 14.041922 0.179111 2.113686 0.013034 0.000511 -1714190.000000 1 0 0
-7.498574 -4.635946 9.757568 13.150313 0.553726 0.734744 0.004538 -0.000722 532483.000000 1 0 0
0.974026 2.861754 8.484968 9.007388 1.242735 0.342253 0.003745 -0.001176 -621126.000000 1 0 0
1.663226 8.127954 -8.823232 12.111126 1.368953 2.386959 0.005393 -0.002364 708417.000000 1 0 0
-8.579574 -1.871946 -5.600632 10.415390 0.214820 2.138535 0.016420 -0.005100 -614635.000000 1 0 0
6.690826 -0.433146 7.094968 9.761830 -0.064647 0.757135 0.004982 0.000887 -113023.000000 1 0 0
-11.001574 6.456554 7.182168 14.639168 -0.530713 1.058003 0.003776 -0.006453 240663.000000 1 0 0
-5.889774 11.177454 4.964768 13.574750 -1.085835 1.196373 -0.008435 0.002325 21402.700000 1 0 0
6.104026 -1.288546 -6.876532 9.284728 -0.208043 2.404801 0.000113 0.002997 -423043.000000 1 0 0
4.452826 -5.750146 11.447168 13.562060 -0.911871 0.565990 0.007184 -0.002069 -1056440.000000 1 0 0
-9.003274 -7.231646 2.597468 11.836490 0.676704 1.349550 0.007843 -0.000732 -2514960.000000 1 0 0
-1.335374 12.857054 -9.383232 15.972855 -1.467304 2.198699 0.019581 0.000789 175163.000000 1 0 0
-4.618274 9.252854 -2.293732 10.592685 -1.107854 1.789065 -0.001903 -0.001485 245804.000000 1 0 0
-3.127374 9.667754 -0.298432 10.165382 -1.257935 1.600158 -0.002806 -0.002736 -1990380.000000 1 0 0
-3.413574 10.780154 -6.337732 12.962679 -1.264132 2.081649 0.003875 -0.000829 719049.000000 1 0 0
4.875526 -4.860146 0.433168 6.897783 -0.783818 1.507957 0.004484 -0.002322 -1704360.000000 1 0 0
-2.102274 3.007454 -10.922932 11.522794 -0.960728 2.817504 0.008239 -0.006049 -2385820.000000 1 0 0
-3.615674 12.038054 -2.239632 12.767294 -1.279015 1.747128 -0.004390 0.001011 704702.000000 1 0 0
-0.065474 0.410454 -0.070932 0.421652 -1.412613 1.739825 -0.007045 0.000969 -1514720.000000 1 0 0
-4.769774 -1.626346 0.068968 5.039891 0.328607 1.557112 0.002716 -0.000471 98458.200000 1 0 0
2.558826 2.515154 -2.401532 4.317516 0.776791 2.160639 -0.007550 0.001671 -618314.000000 1 0 0
5.942426 -9.688146 8.420668 14.144972 -1.020603 0.933143 0.007541 -0.001796 -89142.600000 1 0 0
-4.371874 -5.434446 6.621068 9.616913 0.893333 0.811403 0.002219 0.000717 -22756.800000 1 0 0
-6.180974 5.288654 -12.048032 14.537173 -0.707756 2.547710 0.001151 -0.004806 -818420.000000 1 0 0
-13.048074 3.106154 7.978768 15.606446 -0.233705 1.034160 0.000094 -0.005146 484866.000000 1 0 0
4.739226 -7.491146 -5.023932 10.189084 -1.006719 2.086411 -0.003173 -0.003077 -10658.800000 1 0 0
-6.014474 2.581054 -1.059832 6.630157 -0.405372 1.731335 0.005045 -0.002886 -716555.000000 1 0 0
-6.925074 -2.526346 -14.484532 16.252408 0.349808 2.670833 0.009437 -0.005183 613884.000000 1 0 0
2.754726 -6.195746 0.964568 6.848808 -1.152429 1.429489 -0.000074 -0.000104 67309.900000 1 0 0
4.615026 -7.905446 12.923768 15.837244 -1.042390 0.616276 0.013140 0.000751 -197236.000000 1 0 0
-10.064074 -1.665746 8.000368 12.964034 0.164027 0.905719 0.003401 -0.001792 -123303.000000 1 0 0
-4.539774 13.308854 -0.110932 14.062270 -1.242064 1.578685 -0.008623 0.003620 566424.000000 1 0 0
6.831326 2.205454 -4.380532 8.409525 0.312281 2.118703 -0.000439 0.004723 -1771010.000000 1 0 0
5.061026 4.537454 0.015368 6.797257 0.730905 1.568535 -0.005926 0.002239 -1369550.000000 1 0 0
-5.907374 12.219554 1.872068 13.701066 -1.120487 1.433731 -0.006887 0.003114 236777.000000 1 0 0
6.398126 -7.310746 6.570768 11.728513 -0.851872 0.976122 0.008505 -0.003777 -894827.000000 1 0 0
-0.355774 4.917354 7.747368 9.183063 -1.498571 0.566735 -0.001175 0.000411 -543884.000000 1 0 0
-5.705574 -3.348446 -1.638332 6.815409 0.530711 1.813560 0.010172 -0.003375 -1048010.000000 1 0 0
2.373126 -6.551146 -5.199632 8.693988 -1.223254 2.211890 -0.004508 -0.000315 -694534.000000 1 0 0
-14.451374 -4.828746 -3.831132 15.711034 0.322474 1.817130 0.013610 -0.010603 -625094.000000 1 0 0
-12.399274 -5.141646 -6.369632 14.857683 0.393091 2.013860 0.017754 -0.010879 -1514260.000000 1 0 0
-14.835574 -3.732646 -1.282732 15.351622 0.246485 1.654451 0.006445 -0.007875 744772.000000 1 0 0
11.842126 2.887254 8.718168 14.985948 0.239146 0.949910 0.012080 -0.003466 -1059690.000000 1 0 0
8.738526 -6.639446 7.715268 13.415269 -0.649737 0.958057 0.017686 -0.007627 327334.000000 1 0 0
-8.734374 -1.753546 -9.863332 13.290957 0.198130 2.407007 0.007142 -0.008527 -384958.000000 1 0 0
-8.805874 5.162454 -3.891332 10.924139 -0.530249 1.935009 0.005847 -0.004058 -874471.000000 1 0 0
-4.167674 -6.243146 4.030568 8.520085 0.982176 1.078028 0.006114 0.002258 -1040250.000000 1 0 0
-0.237874 -9.195746 3.564968 9.865461 1.544934 1.201072 0.000258 -0.001702 385972.000000 1 0 0
7.841426 -10.493246 3.407268 13.535348 -0.929036 1.316328 0.012326 -0.008527 -783116.000000 1 0 0
-0.165074 6.412754 9.695268 11.625355 -1.545060 0.584522 -0.001539 -0.000430 215438.000000 1 0 0
0.011426 3.502154 -9.731132 10.342154 1.567534 2.796131 0.006417 -0.004035 217328.000000 1 0 0
4.423726 -3.077946 11.095568 12.335101 -0.607889 0.452146 0.007677 -0.000206 -1179790.000000 1 0 0
8.589226 -9.256146 1.385468 12.703171 -0.822753 1.461514 0.008563 -0.005939 -987826.000000 1 0 0
-0.296974 -0.319746 11.468868 11.477167 0.822306 0.038031 0.008897 -0.001652 -1002160.000000 1 0 0
10.859326 6.031454 11.431868 16.881676 0.506993 0.826878 0.020815 0.001795 58712.300000 1 0 0
-6.304074 -2.935846 -11.839632 13.730894 0.435838 2.610516 0.010668 -0.006649 436867.000000 1 0 0
-1.708674 2.816854 8.527368 9.141675 -1.025546 0.368687 0.002803 -0.001555 -795936.000000 1 0 0
-1.767674 13.600054 -6.846332 15.328353 -1.441545 2.033808 0.011393 -0.002055 699560.000000 1 0 0
7.634426 3.074354 9.851768 12.837189 0.382828 0.695958 0.002026 0.000679 353031.000000 1 0 0
6.634626 8.477354 -7.891032 13.347366 0.906737 2.203349 0.007567 -0.005281 -1417510.000000 1 0 0
6.650826 -3.097446 -3.910932 8.314027 -0.435852 2.060542 0.004589 0.000590 -2484180.000000 1 0 0
2.085526 8.071254 1.075568 8.405439 1.317938 1.442484 -0.005363 0.000084 769619.000000 1 0 0
-17.725574 6.323254 6.316868 19.851507 -0.342658 1.246960 0.031591 -0.001301 976566.000000 1 0 0
-14.402274 2.878154 -10.408732 18.001416 -0.197242 2.187338 0.017844 -0.008407 -779919.000000 1 0 0
-18.435974 0.140054 -4.506432 18.979270 -0.007597 1.810526 0.034591 -0.006315 359603.000000 1 0 0
-13.025174 8.009754 0.035968 15.290932 -0.551335 1.568444 0.001444 0.004423 139720.000000 1 0 0
-12.691474 -4.668946 -12.603532 18.485714 0.352514 2.321015 0.033335 -0.000323 108693.000000 1 0 0
-17.395674 -0.746846 -8.710432 19.468921 0.042907 2.034654 0.029036 -0.016981 422858.000000 1 0 0
-16.732674 -2.143546 -2.167132 17.008046 0.127411 1.698562 0.022574 -0.010233 -92558.200000 1 0 0
-15.360474 4.062654 1.683668 15.977611 -0.258567 1.465224 0.014208 0.002779 104647.000000 1 0 0
-13.198574 5.922754 4.413868 15.124933 -0.421807 1.274660 0.001409 -0.000636 -372971.000000 1 0 0
-10.080474 14.146254 2.807668 17.595893 -0.951671 1.410548 0.010934 -0.000439 405934.000000 1 0 0
-11.843474 2.452254 -6.525632 13.742827 -0.204170 2.065578 0.004649 -0.000769 291206.000000 1 0 0
-15.865274 10.671254 3.688268 19.472696 -0.592111 1.380238 0.016077 -0.002532 -812089.000000 1 0 0
-12.824274 1.097554 -8.609332 15.485065 -0.085376 2.160334 0.010686 -0.009255 569659.000000 1 0 0
-12.176474 14.335954 4.242868 19.281805 -0.866670 1.348936 0.013564 -0.002915 -534295.000000 1 0 0
-10.297274 11.123754 -1.026132 15.192916 -0.823962 1.638388 -0.002752 0.000469 242798.000000 1 0 0
-17.254774 5.715754 8.777868 20.185342 -0.319880 1.120910 0.024402 -0.010521 300714.000000 1 0 0
-11.786674 12.331654 -9.286932 19.422731 -0.807990 2.069341 0.024985 -0.018797 -502603.000000 1 0 0
-17.218774 -0.448446 2.980368 17.480557 0.026038 1.399463 0.019940 -0.003649 943085.000000 1 0 0
-13.051674 14.694954 -0.624832 19.664137 -0.844554 1.602577 0.022465 -0.017196 244939.000000 1 0 0
-16.278274 4.523954 -10.408532 19.844040 -0.271073 2.122944 0.042728 -0.012196 344842.000000 1 0 0
-11.678274 7.499754 -9.158332 16.628393 -0.570870 2.154077 0.002616 -0.005156 -608242.000000 1 0 0
-14.653574 13.350154 -2.183132 19.942916 -0.738887 1.680485 0.037135 -0.021553 691606.000000 1 0 0
-11.903474 10.503954 -5.581932 16.828063 -0.723021 1.908905 0.018641 -0.011054 2742440.000000 1 0 0
-17.730474 2.896654 -0.898632 17.987992 -0.161941 1.620774 0.027637 -0.000120 -32990.100000 1 0 0
-9.395974 15.309454 0.493068 17.969608 -1.020337 1.543354 0.007113 -0.005739 183015.000000 1 0 0
-8.147474 13.234154 -3.680132 15.970834 -1.018956 1.803314 -0.000765 -0.004221 -843807.000000 1 0 0
-17.832374 11.694654 2.242268 21.442627 -0.580449 1.466034 0.069199 0.004718 -92053.100000 1 0 0
-8.099674 15.650954 -7.297932 19.073985 -1.093232 1.963418 0.044711 -0.029760 158293.000000 1 0 0
-6.238474 15.430554 -5.538232 17.541168 -1.186594 1.892020 0.006439 -0.003173 -502885.000000 1 0 0
-17.329374 5.360054 -0.276532 18.141495 -0.299971 1.586040 0.032849 0.003732 992721.000000 1 0 0
-5.313174 12.385654 -12.172532 18.160528 -1.165561 2.305374 -0.006258 0.000601 -969543.000000 1 0 0
-11.023674 3.822954 -11.283132 16.231003 -0.333817 2.339438 0.006266 -0.013076 21747.900000 1 0 0
-11.765174 10.894154 1.212768 16.080196 -0.746977 1.495305 0.001712 -0.001771 72860.600000 1 0 0
-12.837374 0.079254 -11.025732 16.922507 -0.006174 2.280412 0.009769 -0.013378 240791.000000 1 0 0
-13.836274 -2.342346 -13.173632 19.247692 0.167700 2.324613 0.015198 -0.001301 195431.000000 1 0 0
-18.764374 -2.287846 -3.753132 19.272311 0.121326 1.766791 0.025886 -0.006332 540120.000000 1 0 0
-18.198674 4.813254 -5.281232 19.551229 -0.258563 1.844317 0.038452 -0.001950 -478573.000000 1 0 0
-8.228274 15.581154 -2.276532 17.766807 -1.084929 1.699284 0.007437 -0.001407 -71336.100000 1 0 0
-16.127774 9.025454 -5.682332 19.335274 -0.510200 1.869084 0.035698 -0.003644 88113.100000 1 0 0
-18.331974 1.652954 2.020568 18.516917 -0.089925 1.461459 0.039573 -0.003869 355980.000000 1 0 0
-15.706974 -2.730046 -8.803132 18.211461 0.172092 2.075313 0.020120 -0.008758 -111732.000000 1 0 0
-9.793774 10.447754 -7.311532 16.078933 -0.817696 2.042863 0.005905 -0.009966 274336.000000 1 0 0
-13.986174 12.050554 -7.813332 20.046872 -0.711193 1.971160 0.042769 -0.015995 117220.000000 1 0 0
-11.022974 6.489454 -3.879132 13.366624 -0.532085 1.865243 -0.002399 -0.000276 -2138710.000000 1 0 0
-13.218674 4.812154 -12.515232 18.828734 -0.349129 2.297872 0.033894 -0.018201 599880.000000 1 0 0
-17.657674 9.127554 2.625868 20.049959 -0.477090 1.439453 0.037683 -0.001754 1136650.000000 1 0 0
-13.395074 8.594754 -6.621532 17.237822 -0.570473 1.965060 0.010057 -0.003810 -444557.000000 1 0 0
-15.757774 7.004954 -4.021232 17.707262 -0.418304 1.799890 0.018259 0.004623 -904002.000000 1 0 0
-14.859474 -0.381046 -9.411932 17.593568 0.025638 2.135262 0.019791 -0.013875 -1143630.000000 1 0 0
-9.897874 5.760454 -6.098532 12.974700 -0.527071 2.060124 0.000855 -0.004438 628767.000000 1 0 0
-12.766074 11.996254 -0.910432 17.541711 -0.754320 1.622721 0.016700 -0.008899 -1182480.000000 1 0 0
-10.351574 3.649954 -13.807032 17.638350 -0.338988 2.469925 -0.000636 -0.016221 121156.000000 1 0 0
-11.247274 6.286054 -12.281532 17.800328 -0.509647 2.332232 0.018950 -0.004145 391602.000000 1 0 0
-5.730474 11.735354 -14.660532 19.633850 -1.116546 2.413878 -0.004866 -0.004250 -371028.000000 1 0 0
-15.529374 13.280754 3.320668 20.701853 -0.707506 1.409696 0.016277 -0.005818 -194528.000000 1 0 0
-14.832674 11.004554 -3.401432 18.779728 -0.638305 1.752924 0.027129 -0.006718 -25691.700000 1 0 0
-18.139674 7.828554 -4.676632 20.302830 -0.407423 1.803227 0.045705 -0.002294 -1187820.000000 1 0 0
-4.019874 16.295254 -10.527732 19.812315 -1.328935 2.131017 0.022347 -0.010146 241261.000000 1 0 0
-15.752474 4.395454 -4.619632 16.994160 -0.272111 1.846097 0.015127 0.006020 -597237.000000 1 0 0
-18.800274 -1.725946 -6.351632 19.919147 0.091548 1.895334 0.037389 -0.007730 477391.000000 1 0 0
-10.768274 8.525054 -5.873632 14.937598 -0.669649 1.974918 -0.001689 -0.001871 1046670.000000 1 0 0
-11.433274 13.435254 -6.960432 18.965058 -0.865727 1.946593 0.023854 -0.014931 203356.000000 1 0 0
-9.360374 10.496654 -4.672132 14.819756 -0.842559 1.891531 -0.007199 -0.001338 -377494.000000 1 0 0
-11.000274 6.360554 -0.219632 12.708694 -0.524249 1.588079 0.000962 0.003287 -741502.000000 1 0 0
-14.620674 9.261254 -1.588832 17.379854 -0.564642 1.662342 0.025634 0.001723 252206.000000 1 0 0
-18.576274 3.417054 4.676668 19.458300 -0.181914 1.328077 0.027705 -0.006126 426874.000000 1 0 0
-14.916074 12.960254 0.210068 19.761113 -0.715352 1.560166 0.024531 -0.013019 648125.000000 1 0 0
-16.704774 2.381054 -9.242832 19.239253 -0.141584 2.071925 0.023552 -0.008973 -244531.000000 1 0 0
-9.072974 8.471254 -9.067232 15.371913 -0.751114 2.201678 0.005024 -0.001962 -2804380.000000 1 0 0
-17.595174 4.707754 -2.758032 18.421722 -0.261436 1.721078 0.023011 0.005536 917494.000000 1 0 0
-13.536574 5.793854 -4.465532 15.386636 -0.404421 1.865255 0.002758 0.006619 478103.000000 1 0 0
-12.170374 9.514854 3.309868 15.798914 -0.663547 1.359733 -0.005297 -0.001104 783794.000000 1 0 0
-17.467174 2.543354 -4.074532 18.115536 -0.144591 1.797656 0.019664 -0.000937 925125.000000 1 0 0
-11.196374 1.605154 -12.485032 16.846701 -0.142393 2.405498 0.011797 -0.012295 -151157.000000 1 0 0
-11.143174 11.889754 3.552168 16.677964 -0.817800 1.356167 -0.000401 -0.002165 -11292.300000 1 0 0
-15.704874 13.211454 -4.522732 21.015249 -0.699382 1.787705 0.021850 -0.008270 904362.000000 1 0 0
-11.089474 4.098054 -4.615032 12.691296 -0.353979 1.942966 -0.000632 -0.001164 -294552.000000 1 0 0
-11.353974 14.881754 -9.085832 20.807010 -0.919061 2.022692 0.048467 -0.029397 501154.000000 1 0 0
-15.471274 7.195854 -0.404732 17.067643 -0.435349 1.594512 0.026194 0.004113 -302874.000000 1 0 0
-12.771374 8.335954 -4.102332 15.793203 -0.578275 1.833563 0.003813 -0.000506 722187.000000 1 0 0
-19.087374 2.097854 -6.055232 20.134415 -0.109469 1.876265 0.042306 -0.005049 -323684.000000 1 0 0
-12.754974 9.960054 -8.916132 18.476727 -0.662971 2.074372 0.024362 -0.016208 714188.000000 1 0 0
-16.516174 11.018454 -1.380932 19.902193 -0.588324 1.640238 0.032447 -0.003339 370957.000000 1 0 0
-10.412174 6.902854 -14.657432 19.258844 -0.585432 2.435766 0.014081 -0.015176 121259.000000 1 0 0
-13.092874 12.791854 -4.148432 18.768707 -0.773769 1.793666 0.013560 -0.019909 773219.000000 1 0 0
-17.925474 7.878454 -0.146932 19.580966 -0.414098 1.578300 0.048543 0.000376 -512479.000000 1 0 0
-12.722274 6.599054 -2.125932 14.488732 -0.478496 1.718058 -0.001847 0.004458 668674.000000 1 0 0
-13.643374 8.381754 -10.700532 19.258682 -0.550901 2.159906 0.021970 -0.008257 -606322.000000 1 0 0
-14.867174 1.402154 -0.989232 14.965877 -0.094034 1.636944 0.007690 0.000007 -1307010.000000 1 0 0
-13.396174 2.753054 -2.502032 13.903127 -0.202688 1.751744 0.002075 0.001568 283574.000000 1 0 0
-11.260374 9.326154 -10.876332 18.222727 -0.691718 2.210372 0.019722 -0.010830 -823988.000000 1 0 0
-15.165274 4.133054 -8.100132 17.682755 -0.266072 2.046631 0.013059 -0.002544 211855.000000 1 0 0
-18.305474 10.668354 4.629468 21.687234 -0.527673 1.355676 0.053771 -0.017555 658352.000000 1 0 0
-15.366574 6.096654 -6.386532 17.722545 -0.377700 1.939452 0.018659 0.006241 334574.000000 1 0 0
-7.640174 11.412654 -12.964232 18.886298 -0.980871 2.327373 -0.003698 -0.000084 -1000370.000000 1 0 0
-16.734274 9.298454 -3.191732 19.408357 -0.507173 1.735998 0.037549 -0.000488 497457.000000 1 0 0
-20.788174 -0.938846 -4.963132 21.393043 0.045132 1.804927 0.057097 -0.011989 1756000.000000 1 0 0
-15.428674 4.369054 4.157368 16.565516 -0.275953 1.317119 0.011088 0.004425 363152.000000 1 0 0
-6.862974 12.524754 -9.411232 17.103835 -1.069526 2.153449 0.007102 -0.008891 -419817.000000 1 0 0
-17.076274 1.576854 5.784668 18.098287 -0.092081 1.245462 0.015988 -0.008796 114134.000000 1 0 0
-10.413474 14.322354 -3.155032 17.986787 -0.942127 1.747117 0.018386 -0.014822 1955210.000000 1 0 0
-9.891974 8.421454 -12.696732 18.165326 -0.705273 2.344731 0.000899 -0.013646 -607402.000000 1 0 0
-13.606774 11.755054 2.800968 18.198105 -0.712515 1.416267 0.007885 -0.000652 -1512370.000000 1 0 0
-16.762074 6.822454 1.898168 18.196594 -0.386541 1.466292 0.023104 0.002580 553455.000000 1 0 0
-9.337674 13.301954 -8.544932 18.361645 -0.958744 2.054847 0.027839 -0.017619 836218.000000 1 0 0
-5.567674 9.848854 -12.884232 17.146497 -1.056273 2.421009 0.000649 0.000549 -497580.000000 1 0 0
-15.925774 1.839454 3.116168 16.331698 -0.114992 1.378814 0.009602 0.001550 -854956.000000 1 0 0
-18.666174 -4.929646 4.411668 19.803795 0.258200 1.346143 0.042415 -0.006684 1045920.000000 1 0 0
-5.273974 14.482454 -9.081932 17.889599 -1.221560 2.103269 0.009593 -0.006747 744891.000000 1 0 0
-15.565974 -0.837146 -6.835432 17.021266 0.053729 1.984040 0.020341 -0.007242 828612.000000 1 0 0
-8.875574 10.931354 -9.640132 17.064655 -0.888819 2.171130 0.004528 -0.010916 211791.000000 1 0 0
-16.697974 1.261654 -6.095432 17.820449 -0.075414 1.919891 0.010610 -0.003823 -2008380.000000 1 0 0
-11.179374 8.673154 -1.595632 14.238962 -0.659821 1.683093 -0.002971 -0.000432 -1447510.000000 1 0 0
-10.728274 10.949554 -12.948632 20.066282 -0.795605 2.272203 0.016336 -0.003622 -322660.000000 1 0 0
-14.017874 11.654754 -10.402932 20.989404 -0.693609 2.089354 0.050288 -0.019550 13965.800000 1 0 0
-13.101374 5.661354 -7.700932 16.217315 -0.407885 2.065600 0.007847 0.002900 -833467.000000 1 0 0
-8.890774 15.388854 -4.870932 18.427932 -1.046904 1.838299 0.018828 -0.017249 1227270.000000 1 0 0
-8.638674 6.051354 -12.848532 16.623187 -0.611059 2.454240 0.003880 -0.010903 -82266.000000 1 0 0
-16.431574 7.560854 4.325268 18.597609 -0.431256 1.336076 0.027256 0.005829 45780.500000 1 0 0
-12.663874 5.448254 -10.187632 17.141909 -0.406284 2.207206 0.011537 -0.007079 156554.000000 1 0 0
-12.299874 9.040454 -13.281532 20.234026 -0.633834 2.286828 0.029071 -0.014448 -1557770.000000 1 0 0
-10.822874 5.130254 -8.410132 14.635041 -0.442648 2.182982 0.003875 -0.006201 -1396130.000000 1 0 0
-17.712674 -4.390846 -2.636032 18.438195 0.242995 1.714254 0.020174 -0.011518 319581.000000 1 0 0
-8.786974 13.249154 -10.969832 19.315492 -0.985190 2.174784 0.028676 -0.016170 167544.000000 1 0 0
-15.146474 6.164954 6.079868 17.446694 -0.386545 1.214845 0.008052 -0.003558 -1452330.000000 1 0 0
-16.357374 -3.129546 -4.525932 17.258094 0.189039 1.836149 0.014971 -0.007741 -236557.000000 1 0 0
-11.102174 -0.995046 -12.686532 16.887762 0.089387 2.420715 0.011855 -0.001140 8134.680000 1 0 0
-15.204274 6.714354 -8.747532 18.782221 -0.415855 2.055261 0.015751 -0.000557 -207353.000000 1 0 0
-14.840274 9.438654 1.004568 17.616216 -0.566482 1.513740 0.019165 -0.000007 -4398.470000 1 0 0
-19.572274 5.246054 7.876668 21.740214 -0.261879 1.200053 0.054904 -0.022067 -824710.000000 1 0 0
-16.368574 0.606454 0.827868 16.400712 -0.037033 1.520297 0.019602 -0.001957 75381.000000 1 0 0
-17.498174 3.807954 7.048168 19.244825 -0.214279 1.195834 0.015785 -0.003728 637931.000000 1 0 0
-15.374074 4.056854 -1.440532 15.965442 -0.257995 1.661147 0.013253 0.002390 -1351110.000000 1 0 0
-10.834274 13.121754 0.458568 17.022697 -0.880596 1.543854 0.005893 -0.010842 -379224.000000 1 0 0
-13.389274 3.332554 0.024668 13.797796 -0.243941 1.569009 0.006156 0.001562 -1311170.000000 1 0 0
-15.132474 0.023954 -4.316432 15.736071 -0.001583 1.848660 0.010600 -0.002311 236138.000000 1 0 0
-18.831474 6.940154 3.408368 20.356992 -0.353095 1.402574 0.033961 0.001963 615158.000000 1 0 0
-14.094674 1.314954 -6.327532 15.505696 -0.093025 1.991144 0.009032 -0.003844 1655570.000000 1 0 0
-14.217274 12.077754 5.225568 19.372908 -0.704211 1.297678 0.009483 -0.007523 292762.000000 1 0 0
17.611726 5.530554 6.049068 19.425528 0.304275 1.254133 0.041951 -0.016009 148779.000000 1 0 0
18.495626 7.494854 -0.066432 19.956588 0.385001 1.574125 0.033693 -0.005725 620617.000000 1 0 0
16.632826 5.146954 8.438968 19.348339 0.300100 1.119470 0.054223 -0.009056 374234.000000 1 0 0
11.529226 12.457054 10.920768 20.183270 0.824060 0.999075 0.044434 -0.011953 538532.000000 1 0 0
-2.362674 16.286154 -0.433532 16.462350 -1.426729 1.597134 -0.004565 -0.001733 -507265.000000 1 0 0
15.132226 12.660154 3.339768 20.010442 0.696684 1.403110 0.042365 -0.005409 505773.000000 1 0 0
13.442026 11.649554 6.768868 19.032019 0.714082 1.207180 0.052128 -0.009579 758756.000000 1 0 0
-0.684774 15.857954 8.601668 18.053595 -1.527641 1.074182 -0.002749 -0.001814 291738.000000 1 0 0
0.629726 12.788154 9.436068 15.905119 1.521593 0.935678 -0.002502 -0.002249 -1810220.000000 1 0 0
0.774126 15.535054 -3.847932 16.023225 1.521007 1.813314 0.012554 -0.007647 320048.000000 1 0 0
5.332426 10.257654 13.531268 17.797456 1.091396 0.707033 0.009433 -0.005508 622662.000000 1 0 0
-1.315174 16.494154 -2.701732 16.765624 -1.491229 1.732649 0.000793 -0.005037 -230845.000000 1 0 0
8.522826 10.043654 3.397068 13.603441 0.867128 1.318404 0.005669 -0.000272 432426.000000 1 0 0
12.632126 13.783354 -4.800332 19.302711 0.828952 1.822121 0.035596 -0.013544 -141668.000000 1 0 0
2.404626 11.520554 7.833068 14.137267 1.365026 0.983548 0.002763 0.003208 217419.000000 1 0 0
-0.275474 15.004754 -8.432032 17.213881 -1.552439 2.082702 0.020261 -0.007747 -1818680.000000 1 0 0
2.290226 15.965854 0.210768 16.130655 1.428323 1.557730 0.013087 -0.013560 -593349.000000 1 0 0
1.793526 13.382954 5.232568 14.481020 1.437574 1.201092 0.002763 0.001804 422366.000000 1 0 0
17.665826 9.270754 -1.827332 20.034156 0.483278 1.662134 0.024972 0.000270 571314.000000 1 0 0
-7.279974 14.963654 7.301068 18.171806 -1.117998 1.157337 0.005352 -0.007651 -1028860.000000 1 0 0
8.504426 15.840354 -0.022732 17.978948 1.078079 1.572061 0.012690 -0.016221 -268959.000000 1 0 0
15.522726 10.388054 2.155868 18.801980 0.589765 1.455882 0.023287 0.001603 1263230.000000 1 0 0
14.141026 7.411654 8.737568 18.200173 0.482760 1.070049 0.041193 -0.006472 -1002080.000000 1 0 0
4.137626 18.357454 -1.701632 18.894751 1.349109 1.660977 0.026577 -0.028224 -284303.000000 1 0 0
-0.414174 17.645554 -4.738532 18.275415 -1.547329 1.833078 0.020033 -0.009412 470348.000000 1 0 0
1.303726 13.718954 -0.731132 13.800143 1.476050 1.623801 0.004351 -0.009023 -666422.000000 1 0 0
10.342126 14.643254 4.316768 18.439602 0.955873 1.334500 0.029382 -0.015932 122402.000000 1 0 0
-1.716974 15.428554 -5.051032 16.324864 -1.459967 1.885366 0.009197 -0.005340 196422.000000 1 0 0
15.194526 8.745854 -6.024032 18.537868 0.522279 1.901764 0.042281 -0.010894 590943.000000 1 0 0
-2.459574 18.501654 0.874468 18.684897 -1.438633 1.523978 0.003524 -0.005709 -1793550.000000 1 0 0
-3.890274 19.311254 3.574068 20.020807 -1.372006 1.391317 0.012699 -0.010488 -134852.000000 1 0 0
1.776926 17.717654 -2.590732 17.994016 1.470839 1.715276 0.017305 -0.015920 -214938.000000 1 0 0
2.894326 12.024954 3.363268 12.817496 1.334596 1.305291 0.001205 0.000423 490230.000000 1 0 0
-2.618774 16.081254 1.905968 16.404189 -1.409367 1.454345 -0.004314 -0.003593 -1531670.000000 1 0 0
11.877526 12.794154 -2.684932 17.662810 0.822534 1.723398 0.009775 -0.003260 631780.000000 1 0 0
7.183826 11.656154 4.803468 14.510223 1.018469 1.233391 0.005025 -0.000951 -411165.000000 1 0 0
6.938926 15.552954 1.918368 17.138355 1.151150 1.458627 0.011324 -0.017040 -714309.000000 1 0 0
5.397726 12.209854 10.222968 16.814429 1.154549 0.917273 0.008289 0.001798 550224.000000 1 0 0
-1.431274 14.107254 3.155768 14.526597 -1.469686 1.351810 -0.007980 0.000148 -1469880.000000 1 0 0
4.455726 16.065554 1.480868 16.737637 1.300250 1.482205 0.007838 -0.018361 -3731790.000000 1 0 0
6.934326 13.064854 12.018668 19.058427 1.082843 0.888442 0.011173 -0.002066 221413.000000 1 0 0
0.756526 17.218354 -9.258332 19.564272 1.526887 2.063746 0.031981 -0.009618 -18925.400000 1 0 0
9.559826 9.273554 15.631968 20.536491 0.770199 0.705666 0.023066 -0.001859 -282402.000000 1 0 0
13.510226 7.615554 -0.108532 15.509179 0.513292 1.577794 0.000941 0.002495 402412.000000 1 0 0
12.195926 13.659854 -0.049332 18.312145 0.841957 1.573490 0.010212 -0.005061 493344.000000 1 0 0
9.359026 12.380054 3.561468 15.922975 0.923481 1.345220 0.012321 -0.001585 281425.000000 1 0 0
-0.734674 12.816054 0.741468 12.858490 -1.513534 1.513101 -0.000643 -0.004667 -857730.000000 1 0 0
16.016126 7.565854 -0.772532 17.730066 0.441316 1.614382 0.023006 -0.000113 -3064220.000000 1 0 0
-4.161874 18.511754 -2.352632 19.119129 -1.349650 1.694160 -0.001241 -0.006862 41979.100000 1 0 0
11.624426 9.341054 -3.147732 15.241089 0.676915 1.778823 0.007624 -0.000595 5677.020000 1 0 0
14.665626 9.664454 7.859968 19.242176 0.582667 1.150013 0.051594 -0.010137 1474420.000000 1 0 0
4.413926 13.679954 4.670168 15.114045 1.258686 1.256660 0.011135 -0.001370 -614259.000000 1 0 0
2.022526 15.969654 5.640668 17.056893 1.444819 1.233754 -0.000316 -0.000028 410079.000000 1 0 0
6.133226 18.374554 5.415668 20.113929 1.248636 1.298183 0.026475 -0.024306 147103.000000 1 0 0
10.863726 16.956054 -0.394232 20.141592 1.000987 1.590371 0.011942 -0.014197 -1050390.000000 1 0 0
9.996326 13.624454 -4.346932 17.448441 0.937806 1.822578 0.016423 -0.011845 345695.000000 1 0 0
16.491126 7.845254 2.325768 18.409629 0.444040 1.444124 0.012658 -0.001038 9657.720000 1 0 0
3.966626 14.046254 -0.447232 14.602444 1.295566 1.601428 0.007570 -0.010250 616796.000000 1 0 0
5.697326 13.254954 -2.248232 14.601639 1.164845 1.725383 0.007320 -0.006159 -112579.000000 1 0 0
-6.076074 16.975154 -2.930132 18.266368 -1.227066 1.731904 0.003303 -0.002716 -2186600.000000 1 0 0
18.009826 9.868354 2.487768 20.686402 0.501262 1.450244 0.031126 -0.002232 -1177920.000000 1 0 0
7.876326 12.982854 9.494168 17.908942 1.025486 1.012036 0.024096 -0.006718 692147.000000 1 0 0
-2.692974 15.691054 6.788168 17.307238 -1.400827 1.167757 -0.004171 -0.000123 1041870.000000 1 0 0
11.268526 15.947654 6.392768 20.546893 0.955658 1.254414 0.048153 -0.020715 -66388.100000 1 0 0
13.526626 11.865354 1.285368 18.039080 0.720066 1.499481 0.029334 -0.001265 616272.000000 1 0 0
17.595926 7.926554 -5.328532 20.020992 0.423250 1.840190 0.030035 0.009634 -133850.000000 1 0 0
9.437826 9.259554 8.061468 15.485450 0.775864 1.023262 0.016362 -0.005047 -357362.000000 1 0 0
-2.095074 14.101954 -1.871832 14.379089 -1.423309 1.701344 -0.003631 -0.001332 654237.000000 1 0 0
10.910826 11.575454 0.888368 15.931932 0.814947 1.515007 0.011514 0.002865 -266597.000000 1 0 0
11.692726 9.748354 -0.526732 15.232455 0.694961 1.605383 0.002554 0.003156 -1893180.000000 1 0 0
-0.377474 16.191454 11.137068 19.655532 -1.547487 0.968408 0.005503 -0.003857 -645234.000000 1 0 0
2.156026 20.010454 -1.365432 20.172534 1.463465 1.638536 0.031706 -0.025604 -845250.000000 1 0 0
9.208726 14.281554 1.914668 17.100566 0.998086 1.458596 0.012757 -0.008296 -509304.000000 1 0 0
8.525726 11.675854 -5.075232 15.322257 0.940087 1.908406 0.015015 -0.006653 -943779.000000 1 0 0
10.403726 10.163354 10.329068 17.838747 0.773711 0.953265 0.018236 -0.006899 -267093.000000 1 0 0
-5.179974 15.705454 5.845668 17.540389 -1.252211 1.231028 -0.010530 0.000043 833313.000000 1 0 0
14.475926 9.126454 -2.080832 17.238749 0.562514 1.691798 0.029346 0.001022 -276629.000000 1 0 0
12.115526 9.470654 7.083568 16.930924 0.663480 1.139135 0.027986 -0.005202 -1873920.000000 1 0 0
3.029826 12.913354 9.691968 16.427683 1.340338 0.939765 0.004601 -0.003681 -576492.000000 1 0 0
8.570926 12.632454 -2.560032 15.478806 0.974657 1.736949 0.014470 -0.006467 -780519.000000 1 0 0
9.141826 16.896954 2.293768 19.347904 1.074863 1.451963 0.010004 -0.016666 -417036.000000 1 0 0
9.693126 14.222654 -7.382432 18.728077 0.972576 1.975983 0.020394 -0.017757 -203688.000000 1 0 0
6.266526 11.504654 7.382468 15.037527 1.072035 1.057632 0.008691 -0.002332 -359328.000000 1 0 0
5.573326 16.904554 -5.524532 18.637230 1.252325 1.871743 0.023831 -0.012189 -605167.000000 1 0 0
-4.106274 17.279554 -4.623632 18.352723 -1.337486 1.825472 0.003941 -0.004956 204676.000000 1 0 0
-0.352174 18.767754 -0.684232 18.783524 -1.552034 1.607232 0.001812 -0.003114 -497545.000000 1 0 0
6.721026 15.660454 -2.656532 17.247584 1.165397 1.725435 0.011094 -0.011311 1242540.000000 1 0 0
-1.187574 20.693654 0.981168 20.750911 -1.513471 1.523496 0.006126 -0.009906 -132519.000000 1 0 0
-1.444974 18.746754 4.205568 19.266954 -1.493870 1.350746 0.004860 -0.008591 -591562.000000 1 0 0
7.233726 13.822054 -4.347632 16.194995 1.088646 1.842585 0.014671 -0.006390 -217987.000000 1 0 0
-1.164674 11.963454 7.763768 14.309325 -1.473749 0.997306 -0.006932 0.005576 382664.000000 1 0 0
7.532726 10.885454 10.941868 17.174386 0.965460 0.880061 0.010748 -0.000523 128677.000000 1 0 0
1.572326 16.137254 -7.006032 17.662606 1.473668 1.978671 0.020390 -0.012743 452131.000000 1 0 0
8.863326 7.113454 14.623468 18.520410 0.676307 0.660661 0.021257 -0.004056 -144366.000000 1 0 0
11.471826 11.414054 -4.874232 16.900934 0.782874 1.863352 0.017651 -0.009413 -166181.000000 1 0 0
-3.334074 16.884454 4.511268 17.791918 -1.375840 1.314441 -0.007876 -0.001880 -642628.000000 1 0 0
4.001626 15.312854 -6.636832 17.162286 1.315188 1.967858 0.023932 -0.016644 -830465.000000 1 0 0
-4.547974 14.061654 9.450068 17.541891 -1.257984 1.001886 0.003261 -0.009281 294468.000000 1 0 0
6.218426 17.714654 0.455868 18.779925 1.233202 1.546520 0.012646 -0.021304 -258475.000000 1 0 0
9.778826 10.751854 -2.034432 14.675378 0.832757 1.709873 0.006483 -0.000636 -1470700.000000 1 0 0
7.139726 18.189754 -2.773132 19.736593 1.196760 1.711770 0.017380 -0.015323 247912.000000 1 0 0
3.460026 10.356554 10.480668 15.135203 1.248365 0.805890 0.004341 0.001830 1254120.000000 1 0 0
-0.092874 18.582254 1.939368 18.683413 -1.565798 1.466807 0.004250 -0.012416 23434.900000 1 0 0
-0.894474 17.268154 -7.342332 18.785608 -1.519044 1.972350 0.029588 -0.005546 353500.000000 1 0 0
10.294526 8.688554 13.211868 18.868537 0.700999 0.795110 0.033721 -0.001005 -519577.000000 1 0 0
3.571626 11.458854 5.538668 13.218876 1.268648 1.138456 -0.000485 0.001818 668632.000000 1 0 0
12.892826 13.808154 8.204068 20.596038 0.819665 1.161098 0.053831 -0.022765 -439838.000000 1 0 0
-0.641374 17.312954 6.602468 18.540289 -1.533767 1.206690 0.002701 -0.006485 -859623.000000 1 0 0
12.466426 13.719454 5.578268 19.358519 0.833213 1.278496 0.048836 -0.013322 -64024.500000 1 0 0
4.967826 14.659154 -4.370232 16.083190 1.244054 1.845983 0.016355 -0.011714 -968847.000000 1 0 0
3.800826 17.638054 4.632168 18.628049 1.358552 1.319493 0.016058 -0.008439 -840493.000000 1 0 0
7.110726 11.661254 2.131368 13.823530 1.023221 1.415995 0.009135 -0.001370 370840.000000 1 0 0
6.473326 8.627154 11.825968 16.005788 0.927076 0.739426 0.007478 0.000430 433492.000000 1 0 0
-5.546374 14.878154 1.755068 15.975043 -1.213968 1.460711 -0.002147 0.007033 -263372.000000 1 0 0
6.658126 13.769054 6.100068 16.465974 1.120389 1.191287 0.015406 -0.007202 -812800.000000 1 0 0
5.842626 15.893754 4.979368 17.650546 1.218525 1.284805 0.014784 -0.014404 870903.000000 1 0 0
1.227726 18.020354 4.146268 18.531918 1.502771 1.345150 0.007123 -0.007974 731846.000000 1 0 0
7.600826 17.957454 -6.907132 20.686981 1.170393 1.911221 0.026742 -0.008959 426593.000000 1 0 0
-2.386474 18.858054 -5.891632 19.900572 -1.444916 1.871355 0.022051 -0.003603 -47421.800000 1 0 0
13.618726 10.178154 -4.580632 17.608143 0.641812 1.833966 0.027607 -0.004772 -1318260.000000 1 0 0
-1.603074 18.026654 9.722368 20.543966 -1.482102 1.077823 0.009008 -0.007302 -504039.000000 1 0 0
3.400826 11.853354 -1.537232 12.427015 1.291393 1.694815 0.006829 -0.007363 1022830.000000 1 0 0
4.456226 14.112254 -10.816832 18.330781 1.264935 2.201968 0.017044 -0.020218 -69428.800000 1 0 0
11.575726 13.343354 2.466768 17.836128 0.856214 1.432050 0.025915 -0.004655 647350.000000 1 0 0
16.113526 6.488154 -6.972532 18.717854 0.382791 1.952505 0.027981 -0.002290 11475.200000 1 0 0
2.499826 16.070354 2.991768 16.536507 1.416478 1.388876 0.006452 -0.010770 -143517.000000 1 0 0
13.321426 10.693554 3.550668 17.447628 0.676405 1.365861 0.024072 0.001896 -529138.000000 1 0 0
-5.055674 19.490154 -5.748832 20.939795 -1.316994 1.848909 0.008435 -0.014481 890083.000000 1 0 0
5.459326 12.059454 0.140668 13.238370 1.145699 1.560170 0.007814 -0.005721 1079870.000000 1 0 0
4.423726 15.326954 9.598768 18.617766 1.289809 1.029123 0.013219 -0.006031 -138912.000000 1 0 0
7.793826 9.399754 13.799568 18.426263 0.878531 0.724384 0.014677 -0.003678 -2138600.000000 1 0 0
-5.145974 13.553654 6.929568 16.068649 -1.207934 1.124921 -0.008701 -0.001237 -2365970.000000 1 0 0
-4.653074 17.135454 0.570368 17.765140 -1.305644 1.538685 0.002983 -0.003243 -938297.000000 1 0 0
-0.620474 16.532754 3.447868 16.899844 -1.533284 1.365336 0.000678 -0.003861 -1366910.000000 1 0 0
8.032526 16.676854 -4.702532 19.098501 1.121930 1.819580 0.018894 -0.014927 37361.700000 1 0 0
3.153126 16.507354 -4.419732 17.377254 1.382056 1.827962 0.021208 -0.014160 1018480.000000 1 0 0
9.324726 14.433054 8.090868 18.992780 0.997191 1.130733 0.028089 -0.014338 109010.000000 1 0 0
12.655626 10.827054 9.219068 19.036312 0.707686 1.065247 0.050288 -0.013790 788164.000000 1 0 0
3.552826 12.411554 12.145068 17.724895 1.292000 0.815920 0.009305 -0.002157 616270.000000 1 0 0
-3.384074 18.974054 6.024168 20.193000 -1.394299 1.267854 0.011383 -0.007235 -1976.410000 1 0 0
-2.728374 15.751854 10.301768 19.018184 -1.399288 0.998362 0.004397 -0.007764 -856619.000000 1 0 0
1.857126 14.168954 7.635768 16.202256 1.440469 1.080057 0.003813 -0.002807 -101526.000000 1 0 0
4.493726 17.400254 7.960368 19.655275 1.318062 1.153819 0.027794 -0.011808 -83870.400000 1 0 0
-2.012874 13.528654 9.454168 16.627009 -1.423094 0.965990 -0.001789 -0.002996 -726284.000000 1 0 0
5.882226 17.613854 2.983768 18.808277 1.248487 1.411482 0.014826 -0.024030 714131.000000 1 0 0
7.312026 15.444854 -6.829232 18.402382 1.128631 1.950996 0.019660 -0.009125 170181.000000 1 0 0
10.980526 7.709654 9.502568 16.441092 0.612148 0.954549 0.020725 -0.003898 335311.000000 1 0 0
9.254226 16.719854 -2.361732 19.255440 1.065280 1.693759 0.024188 -0.003359 739518.000000 1 0 0
14.746526 11.250354 -6.663932 19.708843 0.651716 1.915714 0.064272 -0.017421 553301.000000 1 0 0
10.908326 6.379354 16.148268 20.504982 0.529179 0.664007 0.035268 -0.008108 -82110.600000 1 0 0
8.462626 8.474054 10.236868 15.754970 0.786073 0.863534 0.008446 -0.001281 305013.000000 1 0 0
16.425726 9.403854 4.472668 19.448437 0.519959 1.338744 0.047945 -0.005285 237271.000000 1 0 0
-3.418474 14.281254 4.658468 15.405892 -1.335849 1.263605 -0.011147 0.005290 -843520.000000 1 0 0
4.589326 14.809254 12.583668 19.968089 1.270286 0.889000 0.010329 0.002529 -803899.000000 1 0 0
16.205026 10.769954 -4.685932 20.013814 0.586574 1.807125 0.049931 -0.010533 768926.000000 1 0 0
14.852226 13.823154 6.490168 21.302358 0.749527 1.261205 0.063367 -0.009060 236918.000000 1 0 0
6.123626 9.462254 9.311768 14.619920 0.996418 0.880296 0.002500 -0.000494 763924.000000 1 0 0
10.389926 12.236554 8.715168 18.265759 0.866831 1.073409 0.037895 -0.012476 -1037180.000000 1 0 0
7.993226 11.557154 -0.272632 14.054672 0.965713 1.590196 0.008249 -0.003293 -223077.000000 1 0 0
7.593626 13.518654 -8.699532 17.779174 1.059004 2.082095 0.021414 -0.012255 -777140.000000 1 0 0
2.726226 15.308054 -2.211432 15.705389 1.394553 1.712073 0.014040 -0.013116 579921.000000 1 0 0
12.271626 13.570354 -7.546732 19.791424 0.835612 1.962013 0.035312 -0.026452 26730.900000 1 0 0
-8.153174 14.547354 9.779468 19.332298 -1.059960 1.040416 0.018991 -0.022649 355280.000000 1 0 0
11.421226 9.537654 2.270368 15.052103 0.695769 1.419385 0.013911 0.003166 -2203070.000000 1 0 0
12.003226 8.754154 4.586568 15.548287 0.630132 1.271353 0.018525 -0.001000 274004.000000 1 0 0
13.984326 7.970554 6.099968 17.213387 0.518041 1.208552 0.025356 -0.004935 -1481570.000000 1 0 0
16.174826 7.439554 7.246768 19.222060 0.431095 1.184238 0.055846 -0.009522 -1355520.000000 1 0 0
13.508626 8.249154 2.459768 16.018176 0.548220 1.416625 0.010683 0.004367 -1994570.000000 1 0 0
-4.227274 17.445154 -7.116732 19.309353 -1.333061 1.948260 0.011989 -0.012872 261949.000000 1 0 0
3.008626 19.642854 -3.846132 20.240708 1.418811 1.761978 0.025274 -0.018431 274106.000000 1 0 0
-0.223874 14.793154 6.244668 16.058748 -1.555664 1.171398 -0.001252 0.001762 -622359.000000 1 0 0
6.626326 16.064954 8.373468 19.290046 1.179586 1.121777 0.031269 -0.011381 -1454410.000000 1 0 0
12.869326 15.107154 -1.988832 19.944952 0.865218 1.670678 0.029269 -0.017606 -34875.200000 1 0 0
12.687926 15.951554 4.250268 20.820670 0.898864 1.365214 0.040312 -0.010611 850219.000000 1 0 0
2.839426 18.098654 1.305868 18.366516 1.415179 1.499636 0.014989 -0.019550 -346993.000000 1 0 0
10.325326 14.563754 -1.406132 17.907889 0.954073 1.649398 0.008773 -0.006207 -588956.000000 1 0 0
-6.360274 15.673654 -0.584432 16.925072 -1.185305 1.605334 -0.002659 -0.000990 -147282.000000 1 0 0
-3.930474 15.828054 -2.426532 16.488298 -1.327396 1.718500 0.002986 -0.006300 -1464640.000000 1 0 0
-6.989974 17.024954 1.552468 18.469406 -1.181209 1.486641 0.006245 0.001945 -580144.000000 1 0 0
0.122726 19.459954 -6.412832 20.489736 1.564490 1.889123 0.037414 -0.014959 -140398.000000 1 0 0
4.661726 14.901954 7.032068 17.124541 1.267614 1.147638 0.019450 -0.006229 -671921.000000 1 0 0
8.598726 12.353254 6.943368 16.575624 0.962713 1.138573 0.023995 -0.010645 -1308010.000000 1 0 0
-7.667174 17.595854 -5.629132 20.002169 -1.159866 1.856076 0.033850 -0.018982 371112.000000 1 0 0
-7.770074 17.853954 -1.231032 19.510335 -1.160316 1.633935 0.019166 -0.007934 467869.000000 1 0 0
-13.753574 -9.247246 9.242668 18.976282 0.591928 1.062071 0.028688 -0.005031 -58669.700000 1 0 0
-12.777974 -12.970446 7.449468 19.672409 0.792873 1.182431 0.033914 -0.003410 -165062.000000 1 0 0
-4.021574 -15.084946 12.293068 19.870787 1.310261 0.903773 0.004287 -0.015106 93297.100000 1 0 0
-2.014974 -14.214146 14.953468 20.729406 1.429976 0.765025 0.015569 -0.005492 -529800.000000 1 0 0
-7.196374 -13.751846 12.675568 20.039239 1.088681 0.885971 0.016884 -0.019349 -40305.300000 1 0 0
-9.891074 -11.654946 8.908168 17.692557 0.867081 1.043154 0.012086 -0.004952 601014.000000 1 0 0
-10.593974 -10.764146 11.249068 18.831905 0.793366 0.930615 0.024825 -0.012043 338057.000000 1 0 0
-6.029274 -12.359046 10.720268 17.436235 1.116922 0.908630 0.008244 -0.011871 627120.000000 1 0 0
-12.617474 -10.352246 7.208268 17.841771 0.687098 1.154899 0.017134 -0.000419 -572617.000000 1 0 0
-7.569574 -11.199346 12.544068 18.441189 0.976433 0.822733 0.006356 -0.015665 204595.000000 1 0 0
-14.788074 -11.561946 7.306268 20.143170 0.663571 1.199615 0.022317 0.003344 -1078660.000000 1 0 0
-11.145574 -9.324946 9.066668 17.128424 0.696693 1.012980 0.015378 -0.005459 -1408680.000000 1 0 0
-5.226474 -12.076446 13.223568 18.655276 1.162352 0.782947 0.005768 -0.014464 -334898.000000 1 0 0
4.216226 -12.540746 14.684768 19.765861 -1.246466 0.733351 0.018511 -0.003807 -450092.000000 1 0 0
6.708526 -12.572846 14.021168 19.991846 -1.080653 0.793515 0.039533 -0.010481 143211.000000 1 0 0
6.486726 -8.464446 16.084468 19.298564 -0.916913 0.585467 0.020416 -0.007895 618607.000000 1 0 0
0.643426 -1.699446 14.506868 14.620237 -1.208865 0.124614 0.007964 -0.002814 -2609340.000000 1 0 0
-0.235774 -6.396946 15.539268 16.806110 1.533956 0.390759 0.002111 -0.008069 -399153.000000 1 0 0
-1.683974 -4.763146 18.122368 18.813387 1.230969 0.271872 0.012945 -0.024461 -1421340.000000 1 0 0
-5.267174 12.453454 12.982368 18.744959 -1.170664 0.805738 0.007294 -0.018485 -1499190.000000 1 0 0
-4.084174 8.784654 11.677968 15.173185 -1.135603 0.692511 -0.005437 -0.003851 -522412.000000 1 0 0
-0.595574 -3.926546 15.101868 15.615341 1.420265 0.257155 0.002853 -0.004450 -607294.000000 1 0 0
-4.564274 9.244654 14.225968 17.569131 -1.112185 0.627132 0.006331 -0.009468 417696.000000 1 0 0
-13.442274 -2.600746 16.762468 21.643450 0.191114 0.684900 0.013400 -0.003219 -1267800.000000 1 0 0
-0.369474 0.878654 17.356468 17.382621 -1.172743 0.054862 0.014690 -0.006063 -107946.000000 1 0 0
-3.284774 -7.415146 15.306468 17.322300 1.153794 0.487241 0.006598 -0.011653 43707.900000 1 0 0
-7.476974 5.449854 12.595768 15.628801 -0.629850 0.633546 -0.005819 -0.001774 -2085680.000000 1 0 0
-9.891574 10.186354 13.204068 19.389493 -0.800079 0.821681 0.013557 -0.023782 1571460.000000 1 0 0
-5.585374 2.285454 11.191368 12.714811 -0.388400 0.494547 0.001047 0.000078 -1399180.000000 1 0 0
-7.117974 -7.402446 16.774168 19.668108 0.804987 0.549355 0.010742 -0.017989 -329348.000000 1 0 0
-4.859474 3.196954 18.469368 19.363691 -0.581895 0.305108 0.009224 -0.008245 -533590.000000 1 0 0
0.887026 -8.412046 16.487968 18.531120 -1.465737 0.474011 0.009679 -0.010792 471516.000000 1 0 0
-15.039674 -3.580246 13.860768 20.763690 0.233704 0.839885 0.026954 -0.012189 206813.000000 1 0 0
-14.307974 2.105754 13.140768 19.540524 -0.146124 0.833231 0.009699 -0.003062 -642182.000000 1 0 0
-5.659574 0.922454 16.096468 17.087363 -0.161569 0.342226 0.008552 -0.001305 249896.000000 1 0 0
4.484726 5.681154 15.177468 16.814987 0.902550 0.444989 0.011331 0.001707 -431099.000000 1 0 0
-1.222574 -12.129646 13.775468 18.395285 1.470343 0.724458 -0.005062 -0.006835 -174441.000000 1 0 0
-6.102074 -4.131546 16.795368 18.340920 0.595172 0.413470 0.016790 -0.007497 93317.000000 1 0 0
-12.933274 -1.572646 9.803468 16.304931 0.121003 0.925722 0.004278 -0.001262 -550757.000000 1 0 0
-14.418874 10.460354 10.032768 20.444543 -0.627611 1.057868 -0.002321 -0.008505 295100.000000 1 0 0
-3.745574 -3.407146 17.638268 18.350653 0.738119 0.279551 0.011722 -0.013139 -2270150.000000 1 0 0
-7.856774 9.365454 11.935368 17.084895 -0.872776 0.797369 -0.008844 -0.010933 198435.000000 1 0 0
-4.345174 10.714054 16.266268 19.956526 -1.185507 0.617920 0.006619 -0.012498 187206.000000 1 0 0
-12.533574 12.648254 8.138368 19.578096 -0.789952 1.142098 0.006844 -0.013637 -470883.000000 1 0 0
-12.631974 3.224554 10.555268 16.774331 -0.249932 0.890207 0.000663 -0.001717 528153.000000 1 0 0
-10.171174 -3.636146 13.654668 17.410465 0.343336 0.669263 0.005145 -0.002585 -1352920.000000 1 0 0
-4.220774 -6.559346 17.615268 19.264932 0.999022 0.416848 0.021380 -0.016076 -428078.000000 1 0 0
0.706026 -3.781046 17.830168 18.240331 -1.386195 0.212468 0.011491 -0.015173 -607338.000000 1 0 0
-6.020874 1.862754 13.669468 15.052412 -0.300042 0.432013 0.002366 0.003560 -945487.000000 1 0 0
-10.607074 8.712954 10.254868 17.134407 -0.687671 0.929174 0.004064 -0.015038 -306741.000000 1 0 0
4.524326 2.377054 17.269668 18.010034 0.483756 0.287727 0.023613 -0.004811 234356.000000 1 0 0
0.446726 -5.409846 13.217868 14.289088 -1.488407 0.389676 0.000937 -0.002386 -996353.000000 1 0 0
-4.250074 5.746254 20.717068 21.915279 -0.933968 0.332206 0.038361 -0.017534 -878688.000000 1 0 0
-10.835774 10.877854 8.950368 17.772191 -0.787336 1.043017 0.002741 -0.013687 -94165.800000 1 0 0
0.600126 4.194154 13.075968 13.745254 1.428675 0.313345 0.010019 -0.002285 -1358940.000000 1 0 0
-3.250474 7.145554 13.390968 15.522324 -1.143879 0.530230 0.000417 0.000307 -741719.000000 1 0 0
0.691426 8.918954 14.171968 16.759191 1.493428 0.563064 -0.001370 0.000796 282817.000000 1 0 0
-4.201874 -6.599546 13.093068 15.252481 1.003834 0.538611 0.001846 -0.006637 -259791.000000 1 0 0
-5.200774 8.289854 16.565768 19.240436 -1.010497 0.533589 0.014435 -0.001024 -166711.000000 1 0 0
1.540826 -10.808746 15.595768 19.037623 -1.429197 0.610768 0.000968 -0.002995 -206221.000000 1 0 0
-15.035174 -0.974846 14.276468 20.756308 0.064747 0.812324 0.013676 -0.002265 213288.000000 1 0 0
-13.717374 -5.293146 8.294068 16.881212 0.368268 1.057192 0.020319 -0.007020 -636376.000000 1 0 0
-14.168474 -2.010046 12.065168 18.717751 0.140927 0.870317 0.015826 -0.005818 363091.000000 1 0 0
9.378026 1.283354 16.989368 19.448213 0.136002 0.508307 0.040284 -0.000827 480926.000000 1 0 0
4.784226 -6.810246 17.014968 18.941420 -0.958392 0.454925 0.024050 -0.005920 689696.000000 1 0 0
-6.144374 -2.712146 11.027868 12.912123 0.415682 0.547035 0.003917 -0.001124 308261.000000 1 0 0
0.413026 -6.409846 18.040868 19.150186 -1.506449 0.342039 0.014111 -0.017766 -228258.000000 1 0 0
-8.374374 11.952454 11.988968 18.887208 -0.959641 0.883090 0.005054 -0.020677 270575.000000 1 0 0
-6.778974 -5.798846 14.781568 17.264873 0.707630 0.542996 0.013847 -0.009127 -1200280.000000 1 0 0
-4.499074 -9.022246 17.020168 19.782030 1.108218 0.534771 0.021066 -0.016159 120573.000000 1 0 0
2.298526 -6.164646 16.318168 17.594564 -1.213907 0.383248 0.011204 -0.007787 -1308680.000000 1 0 0
2.233026 5.250954 16.013768 16.999990 1.168705 0.342295 0.012816 -0.004613 -582918.000000 1 0 0
0.744526 -8.925046 13.952868 16.579906 -1.487569 0.570645 -0.002367 -0.004507 -540481.000000 1 0 0
-9.951574 -2.924846 11.177768 15.248968 0.285858 0.748048 -0.004626 -0.001743 -11472.900000 1 0 0
-1.356974 10.062554 12.468468 16.079771 -1.436751 0.683427 -0.004461 -0.002078 -207360.000000 1 0 0
-12.404074 -3.854246 11.234068 17.173251 0.301266 0.857724 0.014772 -0.002460 -706434.000000 1 0 0
-2.040374 6.752754 20.215868 21.411308 -1.277364 0.335737 0.019796 -0.008065 -838019.000000 1 0 0
0.383126 -13.445546 15.638768 20.627665 -1.542309 0.710332 0.001640 -0.010348 43342.400000 1 0 0
3.916426 -8.635646 15.305068 18.004385 -1.145020 0.554670 0.015773 -0.006122 -441791.000000 1 0 0
4.282026 -4.480546 16.290868 17.429957 -0.808050 0.363530 0.023611 -0.001534 -532324.000000 1 0 0
8.053026 1.842254 14.811968 16.959938 0.224896 0.508758 0.015024 0.005135 129888.000000 1 0 0
-6.359074 -0.138446 11.906768 13.499189 0.021768 0.490631 0.001856 0.000563 114242.000000 1 0 0
-3.730274 -11.112346 18.397468 21.814353 1.246929 0.567281 0.037565 -0.013502 -663115.000000 1 0 0
3.234026 -1.527246 13.700168 14.159308 -0.441197 0.255357 0.009212 -0.000036 736582.000000 1 0 0
-2.684774 8.769754 15.965668 18.412472 -1.273716 0.521422 -0.001031 0.000446 -1447300.000000 1 0 0
-3.383574 3.891454 14.946768 15.811320 -0.855096 0.332220 0.006178 0.000569 -427319.000000 1 0 0
-4.566374 -9.140546 19.706568 22.197977 1.107490 0.478332 0.040531 -0.020354 -21123.600000 1 0 0
-5.811974 -2.999946 19.053468 20.144809 0.476497 0.330670 0.018521 -0.012431 -1386700.000000 1 0 0
-6.662474 -8.798646 11.026768 15.601101 0.922693 0.785840 0.005390 -0.008789 -954617.000000 1 0 0
-11.729874 2.463554 12.678968 17.447500 -0.207015 0.757301 0.008277 -0.004679 -117072.000000 1 0 0
-11.716174 -7.676546 11.643868 18.214767 0.580029 0.877268 0.017402 -0.005765 -1123250.000000 1 0 0
-10.945674 -7.531946 15.604668 20.494966 0.602709 0.705341 0.011195 -0.018339 -877202.000000 1 0 0
0.286926 5.703954 17.629468 18.531474 1.520536 0.313287 0.009816 -0.007251 -76575.200000 1 0 0
-2.323174 -0.092646 13.219868 13.422765 0.039858 0.174093 0.005274 -0.000147 621358.000000 1 0 0
-6.275174 -10.523146 18.265368 21.994046 1.033086 0.590848 0.045061 -0.016203 -102041.000000 1 0 0
0.121426 2.709454 19.294168 19.483860 1.526011 0.139655 0.024656 -0.010648 -378820.000000 1 0 0
-0.834574 10.946454 14.888268 18.498159 -1.494702 0.635371 -0.003723 -0.000444 -396962.000000 1 0 0
-12.796774 -2.408346 14.226268 19.285856 0.186024 0.741209 0.011471 -0.006105 -1566160.000000 1 0 0
-13.570374 8.585254 11.649168 19.838466 -0.564079 0.943200 -0.000800 -0.011893 20527.000000 1 0 0
-18.139774 -0.604746 6.846668 19.398298 0.033326 1.210072 0.046375 -0.015528 -76834.400000 1 0 0
-2.162974 -8.137146 17.618268 19.526775 1.310989 0.445809 0.012061 -0.011854 -2064420.000000 1 0 0
5.627126 2.686454 14.579968 15.857397 0.445414 0.404135 0.012910 0.003361 -1831820.000000 1 0 0
-14.150574 -6.829246 11.127968 19.253805 0.449641 0.954567 0.029670 -0.006061 830598.000000 1 0 0
3.253226 7.730854 16.310568 18.340779 1.172479 0.474971 0.007043 -0.004443 -191920.000000 1 0 0
0.955526 2.104154 14.681168 14.861937 1.144526 0.156128 0.010877 -0.006049 -3758590.000000 1 0 0
-14.453274 0.611654 9.774168 17.458683 -0.042294 0.976597 0.013681 -0.004383 -648860.000000 1 0 0
-9.531174 -5.344246 15.494168 18.959786 0.511030 0.614239 0.003457 -0.004756 -1101190.000000 1 0 0
-2.679674 -0.154046 18.074868 18.273074 0.057424 0.147422 0.013407 -0.007745 96558.100000 1 0 0
6.695426 3.701354 17.690568 19.273944 0.505004 0.408170 0.032322 0.001227 -497797.000000 1 0 0
-4.276174 -0.844946 14.716068 15.348037 0.195081 0.287964 0.011788 -0.001572 -892614.000000 1 0 0
4.648126 -9.316746 17.720268 20.552730 -1.108029 0.531228 0.028596 -0.009351 -278793.000000 1 0 0
1.932526 6.876154 13.505168 15.277621 1.296817 0.486481 0.006513 0.000182 -1510660.000000 1 0 0
-3.809174 -0.758446 20.386168 20.752852 0.196540 0.188263 0.022876 -0.008628 -215375.000000 1 0 0
-10.677174 1.467754 16.251268 19.500258 -0.136610 0.585588 0.012099 -0.002934 -684777.000000 1 0 0
-3.840374 6.978754 18.417368 20.066163 -1.067727 0.408212 0.012430 -0.007662 -97884.900000 1 0 0
-12.641574 1.107454 14.687368 19.410168 -0.087381 0.712570 0.011753 -0.003586 490222.000000 1 0 0
-16.222374 -4.699846 8.462268 18.890843 0.281993 1.106318 0.027099 -0.005267 -1146470.000000 1 0 0
-2.355374 0.737954 15.729768 15.922247 -0.303619 0.155648 0.012935 -0.002711 215007.000000 1 0 0
-13.717574 -8.827246 12.786268 20.726330 0.571792 0.905987 0.028990 -0.015277 279824.000000 1 0 0
6.075826 -3.330246 14.764768 16.309646 -0.501394 0.438762 0.023654 -0.002477 655877.000000 1 0 0
-15.770274 0.180354 7.553568 17.486865 -0.011436 1.124135 0.021263 -0.012112 -447118.000000 1 0 0
-14.330974 6.081954 12.289768 19.834449 -0.401356 0.902541 0.022453 -0.014808 -90632.800000 1 0 0
0.325826 9.424854 16.755468 19.227057 1.536239 0.512640 -0.000142 -0.003211 -106874.000000 1 0 0
-10.403874 -5.558446 10.886468 16.051545 0.490684 0.825460 0.008629 -0.003967 -20092.400000 1 0 0
-3.296874 -11.183846 14.995368 18.994969 1.284127 0.660902 0.012305 -0.011438 -1430680.000000 1 0 0
-3.600974 2.666254 12.731768 13.497179 -0.637345 0.338388 0.006352 0.001739 -2210580.000000 1 0 0
-12.530574 -7.765746 7.428868 16.507882 0.554811 1.104009 0.018141 -0.001165 528659.000000 1 0 0
-8.252974 -2.003946 13.116668 15.626079 0.238205 0.574602 -0.000338 -0.001011 -24694.300000 1 0 0
-9.897274 6.387054 9.543268 15.159962 -0.573089 0.889881 0.001937 -0.008400 -483815.000000 1 0 0
-18.118674 -3.613246 6.448568 19.568493 0.196839 1.234982 0.037893 -0.008179 464158.000000 1 0 0
-1.344974 -0.125446 20.261668 20.306646 0.093001 0.066570 0.019166 -0.016222 -1844990.000000 1 0 0
-3.059074 2.373154 20.275368 20.641713 -0.659794 0.188683 0.025829 -0.007501 -352082.000000 1 0 0
-3.869874 11.260554 11.145868 16.309701 -1.239775 0.818402 -0.002629 -0.010439 -650282.000000 1 0 0
-4.327774 -4.900946 14.998768 16.361905 0.847426 0.411084 0.006064 -0.008115 -1165820.000000 1 0 0
-0.209074 -14.371846 13.223068 19.530571 1.556250 0.827057 0.008060 -0.008727 -677826.000000 1 0 0
-12.293474 0.447654 8.323768 14.853114 -0.036398 0.975921 0.002329 -0.002714 -388318.000000 1 0 0
-7.938174 2.004354 15.387068 17.429684 -0.247326 0.488989 0.002585 0.001209 -692141.000000 1 0 0
3.256826 -2.232346 18.612868 19.027063 -0.600885 0.209037 0.025045 -0.004041 -106636.000000 1 0 0
-2.300874 4.850854 12.705168 13.792972 -1.127900 0.399814 -0.000364 0.000384 -216397.000000 1 0 0
-10.312474 -6.354146 13.340668 18.019315 0.552218 0.737200 0.002356 -0.007247 -926949.000000 1 0 0
2.254426 -3.811546 14.359968 15.027275 -1.036670 0.299129 0.004902 0.000769 -858400.000000 1 0 0
6.795626 1.049654 16.957868 18.298950 0.153249 0.385228 0.026681 -0.001744 -1240150.000000 1 0 0
-2.076974 -5.540146 13.852468 15.063130 1.212118 0.403665 -0.001868 -0.005709 -1766640.000000 1 0 0
-12.928974 3.769054 14.582068 19.849454 -0.283659 0.745670 0.003485 0.003909 60477.300000 1 0 0
-13.195574 -6.333146 13.446668 19.875734 0.447475 0.827747 0.011658 -0.018343 -859054.000000 1 0 0
-9.529874 6.887254 11.924068 16.746228 -0.625800 0.778390 -0.002923 -0.006033 -297613.000000 1 0 0
-1.013174 -2.403546 12.882168 13.143584 1.171866 0.199778 0.003406 -0.000094 291207.000000 1 0 0
0.127626 6.706454 15.338468 16.741009 1.551768 0.412251 0.004865 -0.002088 382235.000000 1 0 0
-16.480974 -1.070346 9.691268 19.149120 0.064853 1.040146 0.032353 -0.005186 -371922.000000 1 0 0
-1.328574 2.758254 13.806068 14.141449 -1.121918 0.218222 0.006716 -0.001959 -1928170.000000 1 0 0
-11.207274 -3.466646 15.997468 19.837832 0.299986 0.632737 0.005331 -0.007894 -1286370.000000 1 0 0
-5.358074 -1.507046 16.986568 17.875224 0.274183 0.316645 0.017127 -0.003049 289987.000000 1 0 0
-11.903674 6.594854 11.330368 17.707817 -0.505923 0.876492 0.009435 -0.004514 -1841020.000000 1 0 0
-2.756474 4.605154 18.993468 19.737208 -1.031434 0.275395 0.012150 0.000442 66563.300000 1 0 0
5.040626 -1.976846 16.682868 17.539495 -0.373749 0.313824 0.025675 0.000275 -552074.000000 1 0 0
-8.055774 -4.278846 12.163268 15.203588 0.488258 0.643458 0.006065 -0.001810 -1191710.000000 1 0 0
-11.725174 -0.912146 16.003768 19.860320 0.077637 0.633744 0.018085 -0.005768 275945.000000 1 0 0
1.941926 2.099754 17.452568 17.685366 0.824428 0.162433 0.013412 -0.006791 -903426.000000 1 0 0
-8.978274 -7.643646 11.606168 16.545025 0.705277 0.793310 0.010135 -0.007772 1451950.000000 1 0 0
-7.260874 6.837854 14.901668 17.931431 -0.755403 0.589828 0.004495 -0.002524 -843758.000000 1 0 0
-5.913474 3.504154 15.769668 17.202636 -0.534939 0.411053 0.004300 -0.000283 122851.000000 1 0 0
-9.454974 4.246154 11.664468 15.604043 -0.422099 0.726463 -0.001225 -0.001355 -431815.000000 1 0 0
-10.274774 0.088354 14.001168 17.366965 -0.008599 0.633103 0.001485 -0.001868 29329.100000 1 0 0
8.154926 -0.685446 15.636468 17.648563 -0.083856 0.482170 0.030034 -0.005315 -58005.800000 1 0 0
-8.603674 -7.688846 14.715168 18.699672 0.729307 0.664993 0.011731 -0.007632 -1385440.000000 1 0 0
-0.087474 4.170454 15.609768 16.157512 -1.549825 0.261127 0.007960 -0.007386 -411156.000000 1 0 0
-8.023374 3.198854 9.707868 12.994225 -0.379378 0.727121 -0.005967 -0.001605 -1082920.000000 1 0 0
-2.174774 -9.864746 13.076168 16.523590 1.353808 0.657760 -0.005420 -0.005964 285932.000000 1 0 0
-6.049474 10.159054 10.447268 15.778083 -1.033710 0.847128 -0.000054 -0.014634 -3262670.000000 1 0 0
-8.662074 -2.805846 15.553668 18.022788 0.313258 0.529618 0.007930 -0.005706 -643060.000000 1 0 0
4.008126 5.700154 17.813468 19.127897 0.957952 0.372880 0.016228 -0.001657 107468.000000 1 0 0
-6.882874 -0.978346 15.018968 16.549940 0.141196 0.433517 0.004169 -0.001693 -330438.000000 1 0 0
-0.992274 -10.069746 15.417668 18.441499 1.472573 0.580787 -0.006597 -0.006633 1052220.000000 1 0 0
-4.457974 5.773254 16.282868 17.841966 -0.913252 0.421158 0.007200 -0.001550 365528.000000 1 0 0
3.530026 0.031054 17.489568 17.842282 0.008797 0.199168 0.021082 -0.004945 -330057.000000 1 0 0
1.309226 0.440954 19.407868 19.456974 0.324872 0.071062 0.017393 -0.001868 -631479.000000 1 0 0
-6.406974 6.373254 17.981568 20.124722 -0.782760 0.465702 0.019099 0.001866 607064.000000 1 0 0
-12.160574 0.599654 10.890668 16.335415 -0.049271 0.841037 0.007233 -0.004278 -310054.000000 1 0 0
-5.409874 5.133754 13.975168 15.840690 -0.759216 0.490214 -0.000466 0.002927 -904599.000000 1 0 0
-8.741374 -9.587446 9.824568 16.274301 0.831526 0.922680 0.013162 -0.007646 -328052.000000 1 0 0
6.716426 -3.943546 17.160468 18.845253 -0.530917 0.426065 0.029142 0.001519 252292.000000 1 0 0
-16.953674 1.506754 9.415768 19.451325 -0.088642 1.065498 0.036314 -0.015140 402445.000000 1 0 0
-4.228174 -9.640546 11.425968 15.536097 1.157478 0.744471 -0.004584 -0.007901 2044600.000000 1 0 0
-11.155674 -3.948146 9.067268 14.908127 0.340157 0.916993 0.006490 0.000043 -233492.000000 1 0 0
3.387426 -5.336246 18.602068 19.646554 -1.005184 0.327542 0.014074 -0.010436 -345800.000000 1 0 0
2.427726 -1.959846 16.184468 16.482471 -0.679162 0.190446 0.014569 -0.004151 121312.000000 1 0 0
-3.404874 -4.439546 19.995168 20.763176 0.916540 0.272834 0.023311 -0.022457 -1200720.000000 1 0 0
-6.338774 -3.380746 14.332968 16.032575 0.489966 0.464623 0.005617 -0.002203 107851.000000 1 0 0
-9.740774 5.283554 13.995468 17.851379 -0.497002 0.669714 0.010446 -0.002442 384808.000000 1 0 0
-5.839474 -5.186246 11.914968 14.246510 0.726222 0.580219 0.001413 -0.000081 379367.000000 1 0 0
6.017026 1.820554 19.371568 20.366066 0.293810 0.313796 0.042870 -0.013160 199156.000000 1 0 0
-2.863774 11.901754 13.550068 18.260813 -1.334667 0.734703 0.003475 -0.011652 -1231520.000000 1 0 0
3.231026 1.351354 15.258468 15.655239 0.396133 0.225620 0.009219 -0.001192 -526603.000000 1 0 0
-5.762674 7.386454 12.837068 15.892087 -0.908266 0.630446 -0.006754 -0.007309 -994711.000000 1 0 0
-1.866074 -1.735346 15.239468 15.451053 0.749115 0.165682 0.008334 -0.002641 -490298.000000 1 0 0
-7.485374 10.774354 14.173868 19.313623 -0.963609 0.746781 0.026318 -0.018699 -201177.000000 1 0 0
-10.190874 2.145954 10.504368 14.791916 -0.207544 0.781096 -0.000976 -0.001457 -1608270.000000 1 0 0
-13.603174 5.222554 9.237068 17.252386 -0.366569 1.005805 0.003496 -0.007162 -81133.100000 1 0 0
-0.003074 -4.953546 20.113068 20.714080 1.570176 0.241479 0.009345 -0.019742 -655451.000000 1 0 0
-14.570574 -2.932846 7.452168 16.626425 0.198631 1.106032 0.016432 -0.003957 904936.000000 1 0 0
-2.535274 2.369454 17.733668 18.070000 -0.751603 0.193240 0.007468 -0.004078 -412706.000000 1 0 0
-6.146974 -8.306646 14.439268 17.756072 0.933722 0.621164 0.004641 -0.014479 -767029.000000 1 0 0
-8.095174 1.917454 12.008868 14.608948 -0.232577 0.605845 -0.004427 0.002275 606245.000000 1 0 0
-14.619274 -3.503446 10.046568 18.081229 0.235210 0.981670 0.016182 -0.006051 67330.500000 1 0 0
-0.651174 6.950254 12.945068 14.707305 -1.477378 0.494556 0.002541 -0.001597 413590.000000 1 0 0
-1.968074 -2.360346 19.203568 19.447919 0.875778 0.158687 0.017243 -0.016048 -54390.400000 1 0 0
-12.713974 10.136854 7.226968 17.794100 -0.673093 1.152566 -0.001900 -0.015333 -505077.000000 1 0 0
-19.480974 2.105154 6.707368 20.710596 -0.107644 1.240988 0.043188 -0.014991 606906.000000 1 0 0
-16.226474 8.407354 6.692768 19.462148 -0.478043 1.219744 0.018580 -0.002836 289205.000000 1 0 0
-12.565174 7.425354 13.718468 20.030373 -0.533736 0.816353 0.025711 -0.006528 275362.000000 1 0 0
-15.843374 8.439054 10.540168 20.816466 -0.489429 1.039863 0.008183 -0.003359 -2131100.000000 1 0 0
1.769026 10.910854 15.320468 18.891609 1.410061 0.624994 -0.000316 -0.000495 -29270.300000 1 0 0
1.988926 14.535054 12.531968 19.294399 1.434804 0.863852 0.005102 -0.001294 -284178.000000 1 0 0
-3.324074 13.685054 11.770968 18.354450 -1.332513 0.874587 -0.004454 -0.009751 357490.000000 1 0 0
8.780926 4.862854 15.855268 18.765434 0.505754 0.564383 0.021758 0.006814 448760.000000 1 0 0
-0.455674 12.493954 12.779768 17.878170 -1.534341 0.774422 -0.004027 -0.005822 -388463.000000 1 0 0
3.408726 13.438654 14.434468 20.014262 1.322385 0.765250 0.004219 -0.002486 -12039.600000 1 0 0
-2.843974 -4.069346 -13.830232 14.694322 0.960824 2.796948 0.003086 -0.007175 -507590.000000 1 0 0
6.023726 -11.415246 16.210368 20.721224 -1.085242 0.672435 0.036978 -0.013902 60986.500000 1 0 0
7.825926 -13.560546 7.361568 17.301046 -1.047378 1.131284 0.013984 -0.006784 -127462.000000 1 0 0
-0.151674 15.438454 1.289268 15.492936 -1.560972 1.487484 -0.000162 -0.008778 -1952010.000000 1 0 0
-13.736274 8.123154 9.044168 18.343059 -0.534046 1.055197 -0.002349 -0.004364 574365.000000 1 0 0
-15.429374 -9.622446 4.946668 18.844802 0.557624 1.305189 0.012742 -0.000421 -898741.000000 1 0 0
9.607326 -11.255746 11.046568 18.466705 -0.864246 0.929558 0.034054 -0.008798 121255.000000 1 0 0
-5.934574 -10.407846 -16.626532 20.493512 1.052575 2.517181 0.035813 -0.008555 -2227.360000 1 0 0
-1.432874 -12.731846 -14.546032 19.384017 1.458725 2.419484 0.010289 -0.001114 -59744.600000 1 0 0
5.449226 -15.961246 -12.089932 20.751432 -1.241800 2.192729 0.009152 -0.002732 345111.000000 1 0 0
2.648626 -11.736646 -16.746832 20.620875 -1.348843 2.518590 0.009452 -0.001984 353192.000000 1 0 0
0.678026 -14.069546 -14.526532 20.234426 -1.522643 2.371594 0.012891 0.009688 351079.000000 1 0 0
-6.293274 -5.854846 -14.192932 16.592886 0.749324 2.597047 0.008467 -0.010049 -88075.100000 1 0 0
-6.069774 -8.002446 -16.998632 19.744235 0.921884 2.607914 0.014881 -0.012174 139913.000000 1 0 0
-2.158574 -16.304946 -13.197232 21.087382 1.439174 2.246999 0.012510 -0.007428 428867.000000 1 0 0
16.461426 -8.151046 -8.778732 20.358886 -0.459768 2.016618 0.053938 -0.009502 125629.000000 1 0 0
19.002726 -3.023446 -3.409532 19.541487 -0.157783 1.746171 0.045498 -0.025040 42811.300000 1 0 0
15.506926 -11.452646 -9.348832 21.424951 -0.636133 2.022337 0.025984 -0.012681 223636.000000 1 0 0
18.300426 -2.622346 -6.563932 19.618040 -0.142325 1.911963 0.125525 -0.005799 -227118.000000 1 0 0
8.879126 -9.452346 -15.631232 20.310617 -0.816658 2.449025 0.044633 -0.010351 184234.000000 1 0 0
-4.679074 9.743254 -16.193732 19.469507 -1.123083 2.553046 -0.000678 0.001087 656319.000000 1 0 0
2.791926 -9.692546 -18.229932 20.834364 -1.290340 2.636219 0.019660 -0.002710 297903.000000 1 0 0
11.027426 8.022554 -14.823832 20.142281 0.628951 2.397874 0.043773 -0.043674 442912.000000 1 0 0
18.358026 -5.396146 -8.361032 20.881628 -0.285887 1.982751 0.042664 -0.015066 82995.400000 1 0 0
12.380826 5.426254 -13.590232 19.168294 0.413064 2.358869 0.019818 -0.015760 70913.600000 1 0 0
16.129626 6.102554 -10.661632 20.275019 0.361700 2.124511 0.041925 -0.022506 219395.000000 1 0 0
3.874926 -0.487846 -19.137632 19.532077 -0.125239 2.940282 0.027548 -0.007473 160789.000000 1 0 0
10.287726 -1.517546 -14.725032 18.026836 -0.146454 2.526707 0.027679 -0.004226 12707.000000 1 0 0
12.467826 -6.022846 -13.855632 19.588260 -0.450013 2.356530 0.049698 -0.006879 283882.000000 1 0 0
10.312226 6.574754 -12.866232 17.751319 0.567587 2.381547 0.027202 -0.009484 495792.000000 1 0 0
10.720626 5.674254 -16.228232 20.260417 0.486799 2.499730 0.040432 -0.015495 589437.000000 1 0 0
11.855226 -10.175446 -15.040832 21.686695 -0.709298 2.337203 0.054497 -0.022796 312602.000000 1 0 0
-1.325274 2.191854 -17.799832 17.983176 -1.026975 2.998676 0.006376 -0.003678 365712.000000 1 0 0
6.548326 -1.196046 -16.969832 18.228722 -0.180658 2.767773 0.019443 0.004317 67532.700000 1 0 0
7.157826 -6.405246 -15.861432 18.543104 -0.729968 2.597084 0.014640 -0.003293 254631.000000 1 0 0
-1.906674 -4.819746 -20.530532 21.174705 1.194092 2.894298 0.030091 -0.016464 232320.000000 1 0 0
15.845826 -0.199046 -13.395632 20.750248 -0.012561 2.272559 0.029832 -0.001196 46141.800000 1 0 0
-3.782374 -0.372446 -18.642632 19.026109 0.098152 2.940479 0.005730 -0.006802 171847.000000 1 0 0
3.540626 8.645554 -17.801632 20.104222 1.182100 2.658295 0.018154 -0.012393 28992.500000 1 0 0
9.885626 0.067654 -17.523532 20.119751 0.006844 2.627953 0.038289 0.003782 -133030.000000 1 0 0
4.284026 4.586454 -18.298832 19.345173 0.819479 2.811191 0.019536 0.000895 467454.000000 1 0 0
-2.675874 -11.180946 -17.929632 21.298957 1.335890 2.571420 0.031218 -0.015155 276767.000000 1 0 0
5.713926 -9.593046 -16.114032 19.604528 -1.033595 2.535631 0.008499 0.001201 159039.000000 1 0 0
10.135026 -12.483946 -10.788032 19.363608 -0.888875 2.161721 0.022380 -0.002311 238319.000000 1 0 0
6.422626 6.921454 -16.892732 19.352547 0.822763 2.631900 0.027941 -0.009604 423879.000000 1 0 0
8.434626 1.743954 -20.088132 21.856746 0.203888 2.736540 0.035309 -0.006871 79306.600000 1 0 0
-1.004474 -0.664446 -20.238532 20.274335 0.584408 3.082155 0.023938 -0.012357 201017.000000 1 0 0
-0.912974 6.716454 -19.533332 20.675961 -1.435693 2.807586 0.011572 -0.009788 -28048.500000 1 0 0
8.983926 5.901354 -18.051032 21.008967 0.581196 2.604512 0.052212 -0.013186 230033.000000 1 0 0
12.045126 -0.114546 -13.071132 17.775058 -0.009509 2.397000 0.005431 0.000596 -38791.200000 1 0 0
-3.663974 -2.629346 -19.520932 20.035094 0.622455 2.914553 -0.016116 -0.012224 380826.000000 1 0 0
6.276926 -11.650646 -14.599132 19.704619 -1.076622 2.405204 0.012600 -0.001455 93318.700000 1 0 0
11.211326 2.150054 -15.981232 19.639663 0.189475 2.521324 0.032383 -0.001871 -154833.000000 1 0 0
-2.790674 -4.471546 -17.131032 17.923584 1.012847 2.843103 0.009968 -0.009288 298369.000000 1 0 0
-6.717174 -4.832246 -17.412432 19.278585 0.623619 2.697965 0.018254 -0.007628 38363.400000 1 0 0
2.975226 10.688254 -15.521632 19.079094 1.299305 2.521013 0.010744 -0.003027 314875.000000 1 0 0
16.917526 -6.094046 -10.962232 21.059692 -0.345751 2.118270 0.063216 -0.016731 -27542.700000 1 0 0
9.687226 -3.259646 -17.537032 20.298156 -0.324588 2.613901 0.027035 -0.013330 49414.900000 1 0 0
-7.154174 -1.294346 -18.457632 19.837886 0.178986 2.766363 0.007252 -0.005595 620222.000000 1 0 0
1.927626 -7.616646 -19.363132 20.896410 -1.322920 2.756131 0.024438 -0.011947 229817.000000 1 0 0
5.879426 10.272854 -13.550032 17.991736 1.050974 2.423596 0.026124 -0.019390 373128.000000 1 0 0
6.196026 -3.942546 -17.606532 19.076803 -0.566686 2.746417 0.028383 -0.017617 503428.000000 1 0 0
4.933526 13.027954 -14.737532 20.279599 1.208797 2.384327 0.034304 -0.017177 139547.000000 1 0 0
9.233126 11.438954 -15.175432 21.128039 0.891702 2.372095 0.054920 -0.029471 207268.000000 1 0 0
17.275726 0.988754 -11.457532 20.753395 0.057171 2.155653 0.062089 -0.006357 42555.600000 1 0 0
14.942526 -3.018246 -12.404032 19.653216 -0.199309 2.253825 0.057909 -0.005302 -11497.900000 1 0 0
-8.709474 0.492754 -17.268832 19.347101 -0.056517 2.673831 0.022856 -0.011002 522053.000000 1 0 0
-3.229774 4.518054 -19.117232 19.907607 -0.950167 2.858864 0.009233 -0.002435 160255.000000 1 0 0
4.231626 2.211454 -17.197532 17.848034 0.481565 2.870778 0.011421 0.004821 514025.000000 1 0 0
-5.082074 14.628654 -13.605332 20.613832 -1.236435 2.291628 0.013358 -0.011166 252425.000000 1 0 0
0.957726 9.641654 -17.636532 20.122773 1.471789 2.639228 0.024174 -0.000986 385272.000000 1 0 0
1.089026 -5.312346 -20.025532 20.746782 -1.368599 2.877140 0.022317 0.002946 407828.000000 1 0 0
4.072526 -6.302546 -18.045632 19.543603 -0.997117 2.747518 0.030231 -0.016769 210259.000000 1 0 0
-6.491174 7.800654 -16.104132 19.034932 -0.876767 2.579291 -0.002806 0.007055 26719.800000 1 0 0
-11.858674 3.270954 -16.445932 20.537672 -0.269136 2.499374 0.058536 -0.030716 201514.000000 1 0 0
-4.270974 6.891654 -17.952132 19.698101 -1.015995 2.717381 0.000422 0.034093 472755.000000 1 0 0
-8.312474 5.705254 -17.506832 20.202384 -0.601505 2.619089 0.021540 -0.012639 520174.000000 1 0 0
-8.398174 4.529754 -15.193032 17.940909 -0.494648 2.580807 -0.000638 -0.013543 510497.000000 1 0 0
9.643626 14.150554 -12.183532 21.016093 0.972594 2.189186 0.054755 -0.025742 387286.000000 1 0 0
13.509826 9.629954 -11.975832 20.461475 0.619272 2.196030 0.035290 -0.029369 196983.000000 1 0 0
8.876726 15.480154 -9.859732 20.387392 1.050146 2.075581 0.028161 -0.019521 58558.700000 1 0 0
7.886426 14.260654 -14.231932 21.635847 1.065637 2.288683 0.055218 -0.021908 220883.000000 1 0 0
4.405226 15.462554 -13.177832 20.788262 1.293253 2.257391 0.040765 -0.016754 146714.000000 1 0 0
10.916826 11.849954 -11.412732 19.744593 0.826362 2.187094 0.047518 -0.019671 146011.000000 1 0 0
16.080626 10.264754 -9.029432 21.106453 0.568128 2.012859 0.068817 -0.052605 379245.000000 1 0 0
13.537726 11.310754 -10.351832 20.453939 0.696015 2.101459 0.089936 -0.026894 -54729.600000 1 0 0
11.258726 11.312754 -7.695432 17.718831 0.787792 2.020066 0.030966 -0.015967 217852.000000 1 0 0
6.078226 17.044454 -10.244132 20.794242 1.228245 2.085920 0.063514 -0.010704 135278.000000 1 0 0
11.513826 13.239954 -10.151232 20.270967 0.855017 2.095292 0.058608 -0.046288 63737.300000 1 0 0
8.297926 -19.271646 -2.036632 21.080792 -1.164211 1.667558 0.053126 -0.004065 161144.000000 1 0 0
7.612226 -16.767846 -4.089532 18.863481 -1.144640 1.789328 0.040377 -0.014184 385538.000000 1 0 0
3.748926 -18.763346 5.230068 19.836109 -1.373593 1.303978 0.064282 -0.021401 -86564.900000 1 0 0
10.361526 -17.684646 -2.126732 20.606575 -1.040805 1.674187 0.049483 -0.016578 369590.000000 1 0 0
-3.616674 -14.889446 7.725168 17.159666 1.332509 1.103814 0.014373 -0.032021 52551.700000 1 0 0
-15.018274 -13.255846 -4.519932 20.535233 0.723145 1.792720 0.014810 0.006892 75149.800000 1 0 0
-9.294574 -12.570246 -7.174632 17.201033 0.934107 2.001054 0.033701 -0.013159 175263.000000 1 0 0
-11.421174 -15.522846 6.989968 20.500283 0.936468 1.222849 0.028824 -0.000876 127912.000000 1 0 0
-15.044274 -7.303546 -7.549232 18.348375 0.451956 1.994828 0.065714 -0.029573 -43142.300000 1 0 0
5.261626 -15.801046 5.593568 17.568317 -1.249353 1.246766 0.049451 -0.011605 157207.000000 1 0 0
2.639326 -14.229346 8.899268 16.989329 -1.387396 1.019473 0.021880 -0.005271 457360.000000 1 0 0
3.299826 -17.229646 10.098568 20.241804 -1.381568 1.048471 0.053797 -0.014701 280956.000000 1 0 0
-7.556974 -17.158346 -5.906432 19.657127 1.155933 1.875985 -0.003278 -0.012747 -177447.000000 1 0 0
1.953026 -19.826846 -4.252232 20.371540 -1.472609 1.781077 0.028616 -0.012044 125510.000000 1 0 0
-17.169774 -10.702446 -2.602832 20.398976 0.557398 1.698741 -0.050163 -0.016957 -31345.700000 1 0 0
-4.145474 -14.788846 2.783468 15.609056 1.297499 1.391514 0.001163 -0.004959 59679.600000 1 0 0
-10.886274 -10.297146 -14.531232 20.873402 0.757595 2.340831 0.049348 -0.014981 238982.000000 1 0 0
-0.105074 -20.067146 2.594668 20.234468 1.565560 1.442212 0.027694 -0.023912 328798.000000 1 0 0
5.975726 -18.167746 -0.234632 19.126718 -1.253023 1.583064 0.037492 -0.009057 95996.400000 1 0 0
-7.548374 -18.649246 -3.668732 20.450720 1.186198 1.751167 0.018152 -0.025448 -88324.200000 1 0 0
-9.593274 -16.017446 -7.658432 20.180215 1.031166 1.960054 0.057646 -0.012830 -33123.300000 1 0 0
-11.788474 -11.415546 -12.335932 20.529443 0.769328 2.215410 0.043490 -0.007937 279189.000000 1 0 0
-13.401274 -15.282046 -3.558532 20.634879 0.850875 1.744115 0.032737 0.005958 58782.400000 1 0 0
-0.387974 -20.184946 -2.259732 20.314748 1.551578 1.682263 0.032718 -0.023255 500523.000000 1 0 0
-12.039374 -16.748046 -0.906232 20.646182 0.947529 1.614704 0.037695 0.000270 17500.800000 1 0 0
0.810226 -20.183946 5.192368 20.856865 -1.530676 1.319198 0.047539 -0.020455 -31158.200000 1 0 0
-18.389274 -9.418746 2.224668 20.780455 0.473350 1.463535 0.050404 0.000464 -284188.000000 1 0 0
-15.082474 -14.993346 -0.506132 21.272932 0.782435 1.594591 0.051732 0.006173 -9459.530000 1 0 0
10.140826 -15.320746 -5.544432 19.191205 -0.986100 1.863879 0.029111 -0.003698 -178050.000000 1 0 0
-0.226374 -19.191346 -7.033932 20.441018 1.559001 1.922086 0.018384 -0.008308 244839.000000 1 0 0
-9.999874 -17.833346 -3.180932 20.691642 1.059745 1.725139 0.031372 0.023174 446011.000000 1 0 0
-14.109574 -6.878746 -11.393132 19.395894 0.453617 2.198638 0.024762 -0.015948 -233897.000000 1 0 0
-12.053774 -15.461346 2.340368 19.743962 0.908614 1.451981 0.031530 0.005016 249065.000000 1 0 0
-2.518874 -16.177046 9.822368 19.092419 1.416330 1.030414 0.001487 -0.023001 326332.000000 1 0 0
-12.508874 -14.380646 -6.717832 20.209013 0.854896 1.909662 0.037848 -0.012683 -68780.000000 1 0 0
6.076226 -16.867946 -6.509832 19.074225 -1.225043 1.919085 0.031575 -0.019465 -89354.800000 1 0 0
-17.267774 -6.815846 -2.498332 18.731616 0.375942 1.704570 -0.009049 -0.017688 -243082.000000 1 0 0
-12.347074 -13.772846 -8.999732 20.570287 0.839930 2.023625 0.071135 -0.034967 149340.000000 1 0 0
-7.688774 -14.300746 10.073168 19.107519 1.077485 1.015514 0.019524 -0.005032 539183.000000 1 0 0
-16.085174 -8.514946 -5.427032 18.991836 0.486864 1.860592 0.050535 -0.004543 267401.000000 1 0 0
-0.842274 -19.630046 0.339368 19.651038 1.527915 1.553526 0.024037 -0.012573 265935.000000 1 0 0
-14.947074 -11.471246 -1.804232 18.927751 0.654581 1.666263 0.014457 0.003636 43349.200000 1 0 0
-6.993274 -18.743646 1.279368 20.046619 1.213692 1.506933 0.000949 -0.014980 121439.000000 1 0 0
-1.249874 -21.262646 -4.577332 21.785644 1.512081 1.782481 0.015004 -0.009402 -156626.000000 1 0 0
-8.953874 -19.801746 -1.115232 21.760624 1.146134 1.622069 0.019107 0.003042 140878.000000 1 0 0
-17.779074 -7.240946 4.821468 19.793265 0.386761 1.324729 0.037215 -0.007330 66729.700000 1 0 0
-2.329174 -15.794546 -10.809332 19.280415 1.424385 2.165952 0.010325 -0.002849 141925.000000 1 0 0
-2.936874 -18.211346 -8.351732 20.249193 1.410907 1.995936 0.010942 -0.011123 36699.900000 1 0 0
3.958026 -17.819346 -6.396832 19.342041 -1.352225 1.907865 0.006964 0.032820 353711.000000 1 0 0
0.503926 -17.506846 -9.191632 19.779528 -1.542020 2.054097 -0.000517 -0.000276 33551.800000 1 0 0
-7.489174 -9.992546 -14.646332 19.247175 0.927631 2.435588 0.020805 -0.016012 550520.000000 1 0 0
-5.432774 -18.782246 -1.934632 19.647662 1.289230 1.669422 0.020437 -0.027976 -213144.000000 1 0 0
-8.904574 -15.943246 8.473268 20.131438 1.061438 1.136362 -0.005838 -0.010820 248281.000000 1 0 0
-6.974874 -15.583146 -10.235332 19.905912 1.149948 2.110854 0.023941 -0.009002 290295.000000 1 0 0
-12.489274 -8.359646 -12.475832 19.532333 0.589855 2.263639 0.045135 -0.013731 235896.000000 1 0 0
-15.611174 -13.111846 3.097368 20.620935 0.698602 1.420021 0.033629 0.007558 150232.000000 1 0 0
-6.189474 -14.337346 -13.306232 20.516455 1.163262 2.276493 0.021097 -0.004712 392602.000000 1 0 0
-13.951474 -11.125546 -6.828432 19.106253 0.673182 1.936271 0.037090 -0.023118 274579.000000 1 0 0
-11.653774 -10.322046 -9.298432 18.133283 0.724872 2.109219 0.036024 -0.006408 205813.000000 1 0 0
-10.129174 -15.082346 3.785968 18.558310 0.979392 1.365350 0.010430 0.010019 446747.000000 1 0 0
5.197926 -18.187446 7.859868 20.483631 -1.292420 1.176981 0.072767 -0.026574 193371.000000 1 0 0
-5.057074 -16.813746 5.402168 18.370070 1.278633 1.272309 0.000038 0.005637 481216.000000 1 0 0
-18.146874 -7.541146 -6.455432 20.684548 0.393849 1.888188 0.035700 -0.026129 109353.000000 1 0 0
-17.018174 -4.891446 -10.766232 20.723326 0.279880 2.117088 0.058538 -0.006777 -222770.000000 1 0 0
-15.702974 -4.188446 -13.071232 20.856260 0.260661 2.248145 0.047334 -0.010312 357617.000000 1 0 0
-19.432374 -5.564246 -5.571532 20.967116 0.278877 1.839754 0.061360 -0.012015 93041.000000 1 0 0
5.468426 -13.369246 8.530768 16.775411 -1.182530 1.037322 0.038259 -0.008486 95976.500000 1 0 0
20.290526 -3.397946 2.715068 20.751460 -0.165925 1.439583 0.084684 -0.020783 -17329.000000 1 0 0
18.126226 -2.799146 -0.412332 18.345716 -0.153215 1.593274 0.034672 -0.017754 348095.000000 1 0 0
14.200826 -11.356546 0.352768 18.186782 -0.674564 1.551398 0.043810 -0.003592 61867.900000 1 0 0
11.141426 -13.488746 5.282868 18.275293 -0.880414 1.277539 0.031509 -0.010432 371585.000000 1 0 0
9.979726 -13.104246 8.978968 18.760012 -0.919935 1.071711 0.032923 -0.012622 245546.000000 1 0 0
18.391226 3.947054 -4.106232 19.252989 0.211409 1.785725 0.038386 -0.004448 -83887.000000 1 0 0
18.859926 -6.167946 -4.528732 20.353127 -0.316076 1.795182 0.050117 -0.016375 -65427.700000 1 0 0
17.687326 -9.999446 -0.252432 20.319797 -0.514548 1.583220 0.054937 -0.006828 316195.000000 1 0 0
17.888826 -8.653546 8.658668 21.676404 -0.450555 1.159878 0.097324 -0.021278 -210459.000000 1 0 0
20.009026 0.132654 -1.600632 20.073384 0.006630 1.650620 0.066533 -0.024893 19917.100000 1 0 0
7.216026 -13.734846 11.444668 19.279457 -1.087051 0.935247 0.023152 0.004944 285351.000000 1 0 0
16.196226 -6.625846 -3.440732 17.834187 -0.388325 1.764943 0.042618 -0.009471 254037.000000 1 0 0
14.401026 -6.842746 12.232768 20.096102 -0.443576 0.916358 0.055042 -0.027942 314426.000000 1 0 0
16.827326 0.972754 9.185568 19.195828 0.057744 1.071829 0.095413 -0.041252 302003.000000 1 0 0
16.710526 -10.087446 2.791268 19.717744 -0.543105 1.428758 0.036968 -0.008826 278069.000000 1 0 0
16.292726 -7.402546 -6.006232 18.876584 -0.426463 1.894610 0.043339 -0.003504 284253.000000 1 0 0
18.334926 -4.463246 5.501668 19.656002 -0.238784 1.287109 0.112495 -0.029615 -104214.000000 1 0 0
13.481026 -13.621246 8.094268 20.803691 -0.790572 1.171165 0.048635 -0.009052 134382.000000 1 0 0
15.369326 -14.049746 -1.583232 20.883443 -0.740574 1.646682 0.048204 -0.008112 181369.000000 1 0 0
18.749926 -6.065446 7.974168 21.258803 -0.312867 1.186292 0.081436 -0.027285 146783.000000 1 0 0
19.563326 3.134854 2.469868 19.966253 0.158891 1.446777 0.047795 -0.020521 352313.000000 1 0 0
15.635026 -9.788246 8.191568 20.183299 -0.559351 1.152878 0.057327 -0.042167 -34437.600000 1 0 0
14.160326 -4.353546 10.792268 18.328700 -0.298275 0.941201 0.050652 -0.019155 -112481.000000 1 0 0
18.751626 -7.731746 1.938568 20.375510 -0.391085 1.475510 0.069232 -0.016724 34644.600000 1 0 0
18.954626 -5.320946 -1.381632 19.735735 -0.273676 1.640860 0.047708 -0.020598 58397.600000 1 0 0
14.822226 -13.360146 -5.996432 20.836245 -0.733565 1.862713 0.054372 -0.019299 58212.800000 1 0 0
13.791026 -9.639846 10.201468 19.677118 -0.610051 1.025767 0.040947 -0.021753 268124.000000 1 0 0
14.190126 2.406354 0.600368 14.405230 0.167981 1.529107 0.004628 -0.008183 -161344.000000 1 0 0
12.798726 2.316454 13.766768 18.939304 0.179053 0.757016 0.027434 -0.003116 89562.600000 1 0 0
18.438726 -3.141446 9.296768 20.887441 -0.168752 1.109523 0.071810 -0.023378 173423.000000 1 0 0
7.603626 -18.467746 5.132068 20.620642 -1.180224 1.319273 0.067177 -0.022760 285638.000000 1 0 0
12.521526 -3.593146 14.701568 19.642693 -0.279449 0.725075 0.044957 -0.004111 276235.000000 1 0 0
12.886426 -14.414546 -6.540932 20.411343 -0.841313 1.897007 0.063548 -0.000668 219864.000000 1 0 0
10.882626 -16.109246 4.942168 20.059022 -0.976668 1.321852 0.047787 -0.026221 365567.000000 1 0 0
18.408526 -0.508846 -4.133232 18.873695 -0.027635 1.791580 0.057765 -0.021590 34487.300000 1 0 0
4.090926 -13.584446 11.516368 18.272919 -1.278287 0.888931 0.017172 -0.006119 -177633.000000 1 0 0
9.129426 -2.565946 14.160068 17.042242 -0.273994 0.590108 0.028951 -0.006453 450565.000000 1 0 0
8.897926 -9.316146 14.115768 19.110692 -0.808356 0.739758 0.039633 -0.011904 378110.000000 1 0 0
20.900326 5.550854 -3.380832 21.887568 0.259594 1.725881 0.051681 -0.012367 462092.000000 1 0 0
14.652126 -13.519946 1.981068 20.034929 -0.745232 1.471754 0.034881 -0.005961 165286.000000 1 0 0
11.396226 0.038654 14.146568 18.165925 0.003392 0.678138 0.048268 -0.022019 146500.000000 1 0 0
19.793526 0.127754 7.612468 21.207302 0.006454 1.203648 0.109851 -0.023855 71498.300000 1 0 0
19.718526 1.490754 0.635668 19.785012 0.075458 1.538662 0.042703 -0.019855 220993.000000 1 0 0
17.897126 0.253254 3.040468 18.155321 0.014150 1.402534 0.040255 -0.016923 -40231.000000 1 0 0
10.138626 -8.667646 16.229068 21.007200 -0.707340 0.687952 0.047418 -0.006957 145821.000000 1 0 0
19.099926 2.615054 5.421668 20.025987 0.136068 1.296643 0.057257 -0.019508 161446.000000 1 0 0
15.354326 2.565954 7.067368 17.096407 0.165586 1.144630 0.043021 -0.013264 -23777.200000 1 0 0
11.333026 -16.059446 1.748368 19.733223 -0.956260 1.482080 0.020343 -0.001806 255753.000000 1 0 0
8.816726 -16.033346 6.770268 19.509981 -1.068030 1.216409 0.041199 -0.008487 432077.000000 1 0 0
6.262126 6.715254 7.201668 11.669313 0.820301 0.905686 -0.001160 0.000133 -1385870.000000 1 0 0
18.546526 2.093654 -6.498632 19.763331 0.112411 1.905853 0.032119 -0.006334 277120.000000 1 0 0
14.241226 4.502954 -7.268132 16.610685 0.306244 2.023677 0.019255 -0.001680 360677.000000 1 0 0
-10.510874 -3.800146 -13.465032 17.499334 0.346922 2.448791 0.015789 -0.009820 -492553.000000 1 0 0
7.721526 -14.143446 -10.384632 19.170280 -1.071073 2.143260 0.009310 -0.000938 42018.500000 1 0 0
2.262726 -15.137546 14.282268 20.934383 -1.422417 0.819975 0.029414 -0.012334 262393.000000 1 0 0
-9.576974 -7.948646 2.354068 12.666532 0.692753 1.383860 0.005412 0.001391 450205.000000 1 0 0
-13.600574 2.963354 -9.906232 17.084804 -0.214532 2.189313 0.012792 -0.007447 160655.000000 1 0 0
-12.581774 -4.817146 -13.535432 19.097483 0.365650 2.358528 0.025471 0.000462 158133.000000 1 0 0
-17.975174 -1.440146 -9.003832 20.155642 0.079948 2.033887 0.057693 -0.027697 431462.000000 1 0 0
-12.122774 15.229054 3.923568 19.856488 -0.898481 1.371891 0.014898 -0.007750 393547.000000 1 0 0
-17.822074 6.224554 9.345268 21.064316 -0.336016 1.111125 0.047935 -0.018901 192632.000000 1 0 0
-13.698474 15.292354 -0.268232 20.532321 -0.840322 1.583861 0.033007 -0.027660 292682.000000 1 0 0
-15.677774 4.901354 -11.040532 19.791645 -0.303004 2.162575 0.026915 -0.003938 61797.300000 1 0 0
-18.499274 3.106554 -0.381632 18.762182 -0.166376 1.591138 0.063940 -0.000930 -29533.200000 1 0 0
-9.853674 15.367354 -0.337432 18.258267 -1.000626 1.589278 0.008824 -0.007587 17806.300000 1 0 0
-18.735374 11.985954 2.289468 22.358868 -0.569136 1.468220 0.098425 -0.023392 -106499.000000 1 0 0
-8.787574 16.210254 -7.639132 19.958711 -1.074039 1.963564 0.064532 -0.041447 21679.200000 1 0 0
-14.631174 -1.822546 -13.193932 19.785671 0.123928 2.300760 0.015684 -0.014096 100612.000000 1 0 0
-19.000074 5.164654 -4.911532 20.292846 -0.265410 1.815257 0.068764 -0.002615 -25257.600000 1 0 0
-16.868174 9.385654 -6.156332 20.261447 -0.507753 1.879522 0.050037 0.004401 -20454.500000 1 0 0
-19.080074 1.286254 2.476968 19.283128 -0.067312 1.441988 0.046037 -0.012704 308754.000000 1 0 0
-13.643974 11.805154 -6.961832 19.338738 -0.713269 1.939058 0.035611 -0.014661 97353.800000 1 0 0
-13.241974 5.326954 -13.313332 19.518482 -0.382469 2.321411 0.051665 -0.026003 -229443.000000 1 0 0
-14.034474 9.219354 -6.943132 18.170582 -0.581216 1.962873 0.022066 -0.010328 247801.000000 1 0 0
-6.437774 12.168054 -15.124232 20.451134 -1.084163 2.403169 -0.001769 -0.002984 -318982.000000 1 0 0
-15.054074 13.709354 2.618568 20.528722 -0.738681 1.442892 0.026755 -0.022717 -114361.000000 1 0 0
-18.690074 8.537054 -4.988932 21.144493 -0.428469 1.808987 0.074038 -0.010541 200779.000000 1 0 0
-3.801874 16.960254 -9.885332 19.995606 -1.350278 2.087912 0.016553 -0.009807 115480.000000 1 0 0
-19.415274 -2.353146 -6.713432 20.677532 0.120612 1.901462 0.040979 -0.012102 -180516.000000 1 0 0
-10.706674 13.614054 -6.375132 18.455830 -0.904377 1.923490 0.024798 -0.025586 85876.200000 1 0 0
-19.497474 3.313154 4.468768 20.275561 -0.168320 1.348570 0.055733 -0.004639 61055.100000 1 0 0
-15.134274 12.043154 0.327868 19.344025 -0.672146 1.553846 0.019693 -0.013038 107003.000000 1 0 0
-16.907674 2.107854 -8.355832 18.977155 -0.124029 2.026740 -0.002402 -0.015538 211826.000000 1 0 0
-16.031974 14.071254 -4.285632 21.757551 -0.720357 1.769065 0.015742 0.034534 -24630.700000 1 0 0
-10.687674 15.522854 -8.867932 20.828480 -0.967822 2.010598 0.045112 -0.028013 170896.000000 1 0 0
-19.131474 1.636554 -6.884632 20.398279 -0.085335 1.915067 0.052063 -0.020189 100699.000000 1 0 0
-16.981574 10.494154 -0.739732 19.976194 -0.553530 1.607835 0.037230 -0.000775 -84323.200000 1 0 0
-11.348174 6.757554 -14.729832 19.784174 -0.537086 2.410621 0.021191 -0.019904 239779.000000 1 0 0
-13.062874 12.944854 -5.085532 19.080633 -0.780860 1.840586 0.032600 -0.012743 287828.000000 1 0 0
-18.768574 7.443354 -0.098232 20.190902 -0.377560 1.575662 0.049637 -0.002039 -15349.700000 1 0 0
-14.209474 9.055454 -11.058332 20.154332 -0.567383 2.151584 0.026422 0.007533 513451.000000 1 0 0
-18.564074 11.573554 4.757068 22.387534 -0.557475 1.356677 0.051046 -0.019846 93706.600000 1 0 0
-8.114874 12.154854 -13.319432 19.773693 -0.982131 2.309856 -0.007967 -0.001245 503382.000000 1 0 0
-21.354074 -1.618146 -5.310732 22.063970 0.075632 1.813880 0.065903 -0.017979 375883.000000 1 0 0
-10.636274 13.448354 -3.453432 17.490419 -0.901630 1.769549 0.009179 -0.003526 342736.000000 1 0 0
-18.495774 -4.978746 3.478368 19.467424 0.262950 1.391155 0.024051 -0.010236 13048.600000 1 0 0
-11.298674 11.252254 -13.645432 20.987403 -0.783340 2.278608 0.026001 -0.008975 104718.000000 1 0 0
-14.909274 11.341554 -10.303232 21.379287 -0.650317 2.073648 0.052968 -0.016969 237766.000000 1 0 0
-12.436474 9.548254 -14.072732 21.068385 -0.654772 2.302254 0.039336 -0.014963 205804.000000 1 0 0
-18.334774 -4.964746 -3.067432 19.241148 0.264442 1.730900 0.015633 -0.012654 -357845.000000 1 0 0
-9.400374 12.806354 -11.544432 19.637812 -0.937588 2.199217 0.029022 -0.007100 135479.000000 1 0 0
-15.448974 7.556254 -8.381632 19.131637 -0.454898 2.024284 0.016418 -0.001178 -44959.600000 1 0 0
-14.963674 8.929754 1.797268 17.518054 -0.538035 1.468020 0.025055 0.001693 -153879.000000 1 0 0
-20.011074 6.075154 7.726568 22.294628 -0.294747 1.216888 0.066042 -0.023529 271264.000000 1 0 0
-18.741674 6.169454 3.956568 20.123790 -0.318011 1.372896 0.022041 0.005749 78343.100000 1 0 0
-14.071074 12.984354 5.468868 19.912234 -0.745253 1.292572 0.002895 -0.009319 111612.000000 1 0 0
18.033626 6.141654 5.456668 19.816831 0.328246 1.291837 0.041023 -0.017617 217649.000000 1 0 0
18.468826 8.193354 0.576968 20.212903 0.417545 1.542248 0.045070 0.002599 -45878.900000 1 0 0
17.194426 4.381754 8.398468 19.631156 0.249525 1.128724 0.066403 -0.011092 -36634.000000 1 0 0
11.754826 13.359254 10.726768 20.777611 0.849197 1.028311 0.051128 -0.013520 83103.300000 1 0 0
15.325626 12.501454 4.256268 20.230595 0.684254 1.358825 0.045489 -0.006452 280979.000000 1 0 0
5.054326 10.478654 14.412268 18.521929 1.121372 0.679131 0.012183 0.002401 155114.000000 1 0 0
13.531026 13.552454 -4.597432 19.695026 0.786189 1.806401 0.059990 -0.003538 314705.000000 1 0 0
17.388726 9.496154 -2.707632 19.996900 0.499852 1.706616 -0.000657 -0.004389 -104596.000000 1 0 0
14.591726 7.569054 9.558868 19.015283 0.478513 1.044084 0.051068 -0.005850 106495.000000 1 0 0
4.949026 18.768254 -1.976132 19.510133 1.312974 1.672258 0.027600 -0.026904 129147.000000 1 0 0
-3.470174 19.614954 2.777968 20.112325 -1.395693 1.432231 -0.027019 0.008377 97033.400000 1 0 0
6.585726 12.661754 12.804968 19.174436 1.091177 0.839528 0.017984 0.001949 -60167.000000 1 0 0
0.205626 17.174254 -10.031032 19.890171 1.558824 2.099392 0.029330 -0.001056 -29398.400000 1 0 0
10.450526 9.596754 15.700568 21.161734 0.742836 0.734849 0.035724 0.001948 178651.000000 1 0 0
-1.212174 12.003254 0.859268 12.094867 -1.470150 1.499692 -0.004175 0.000462 338083.000000 1 0 0
-4.668874 19.276454 -2.599032 20.003375 -1.333166 1.701094 0.008604 0.003243 42633.100000 1 0 0
5.740926 18.591054 6.253368 20.437468 1.271285 1.259833 0.032781 -0.017746 153494.000000 1 0 0
11.394426 17.286954 -1.109432 20.734092 0.988027 1.624330 0.013453 -0.013010 235957.000000 1 0 0
18.376826 10.512554 3.081768 21.394364 0.519618 1.426248 0.036528 -0.000462 340010.000000 1 0 0
11.989026 16.542354 6.565268 21.459006 0.943654 1.259866 0.065164 -0.011854 93666.500000 1 0 0
18.201026 7.202954 -5.214932 20.257231 0.376832 1.831164 0.023888 0.012085 343153.000000 1 0 0
-0.374374 15.260654 11.327068 19.008687 -1.546269 0.932424 0.003106 0.005274 253899.000000 1 0 0
1.395326 20.523254 -1.612132 20.633707 1.502913 1.649007 0.023701 -0.008640 282510.000000 1 0 0
13.933126 9.783154 -1.660632 17.105549 0.612168 1.668031 0.016012 -0.002846 -320233.000000 1 0 0
9.724726 17.491554 1.836368 20.097189 1.063384 1.479294 0.024130 -0.017411 256178.000000 1 0 0
-0.090874 17.856854 -0.751332 17.872884 -1.565707 1.612846 0.002747 -0.006409 65842.700000 1 0 0
-0.430074 21.082154 1.402668 21.133141 -1.550399 1.504375 0.014319 -0.008192 308619.000000 1 0 0
6.091126 17.371254 -0.420732 18.413020 1.233548 1.593648 0.014088 -0.026726 -98821.800000 1 0 0
7.312626 18.532054 -1.904032 20.013417 1.194959 1.666078 0.014309 -0.022898 73168.700000 1 0 0
10.400326 9.544654 12.813968 19.064757 0.742523 0.833717 0.035628 -0.003437 236418.000000 1 0 0
12.610526 14.715154 8.192768 21.040023 0.862267 1.170827 0.055736 -0.022474 253252.000000 1 0 0
0.202626 17.571054 6.953968 18.898165 1.559265 1.193971 0.001935 -0.004006 248418.000000 1 0 0
7.243026 18.000454 -7.786132 20.906975 1.188240 1.952409 0.026720 -0.013047 92146.200000 1 0 0
-0.851574 18.400154 9.276968 20.624087 -1.524549 1.104241 0.015319 -0.015257 -39689.300000 1 0 0
16.205626 6.971254 -7.785332 19.282948 0.406246 1.986399 0.051091 -0.002034 -152373.000000 1 0 0
-5.596474 19.496854 -6.529832 21.309306 -1.291267 1.882238 0.027181 -0.021725 315135.000000 1 0 0
3.531126 15.617654 9.744368 18.743870 1.348437 1.024098 0.015567 -0.007205 280932.000000 1 0 0
8.893626 14.856054 7.357568 18.813100 1.031368 1.168983 0.029875 -0.014402 73965.500000 1 0 0
-2.650674 19.302954 6.530668 20.549446 -1.434330 1.247385 0.012665 -0.005888 177052.000000 1 0 0
4.676226 17.989854 8.682568 20.515577 1.316487 1.133802 0.022466 -0.011126 -100374.000000 1 0 0
14.288126 12.022054 -6.352632 19.724002 0.699481 1.898718 0.003732 -0.014076 -177080.000000 1 0 0
11.404326 7.063854 15.714568 20.661663 0.554563 0.706611 0.036673 -0.006173 111443.000000 1 0 0
17.158026 9.099554 4.995868 20.053888 0.487622 1.319023 0.058906 -0.009982 103254.000000 1 0 0
5.040226 14.676054 11.758268 19.469137 1.239985 0.922356 0.006111 -0.027041 168463.000000 1 0 0
16.171826 11.716854 -4.754732 20.528519 0.626995 1.804535 0.057763 0.025715 66781.300000 1 0 0
15.516326 13.762254 7.166768 21.943531 0.725560 1.238092 0.066931 0.002783 524976.000000 1 0 0
12.986226 13.922454 -8.064332 20.676321 0.820177 1.971458 0.077339 -0.037034 342087.000000 1 0 0
-8.297874 15.486054 9.797868 20.116431 -1.078898 1.062078 0.023876 -0.013313 209682.000000 1 0 0
-4.341774 16.514654 -6.963332 18.441063 -1.313710 1.957999 0.005697 -0.016367 -12963.800000 1 0 0
2.334826 19.411454 -4.474532 20.056854 1.451091 1.795782 0.025629 -0.030273 157335.000000 1 0 0
6.901126 15.885454 9.264968 19.642118 1.160965 1.079591 0.026883 -0.029114 445518.000000 1 0 0
13.420326 15.364754 -1.259032 20.439324 0.852846 1.632434 0.042822 -0.019723 129664.000000 1 0 0
12.724726 16.890454 4.390168 21.598140 0.925143 1.366104 0.049149 -0.022509 264011.000000 1 0 0
2.279326 18.245354 0.552668 18.395480 1.446514 1.540748 0.008237 -0.027222 31736.100000 1 0 0
-6.893374 17.948754 1.353368 19.274542 -1.204108 1.500523 -0.018671 0.023029 225253.000000 1 0 0
-0.200874 20.350554 -6.344732 21.317622 -1.560926 1.873004 0.036356 0.005021 164001.000000 1 0 0
-7.995274 17.888754 -6.471132 20.635103 -1.150487 1.889776 0.066278 -0.030193 130896.000000 1 0 0
-7.367174 18.652054 -1.552432 20.114284 -1.194626 1.648054 0.020492 -0.012227 69824.100000 1 0 0
-14.535374 -9.604846 8.838368 19.535785 0.583924 1.101320 0.026035 0.003801 305168.000000 1 0 0
-13.415974 -13.568346 7.820868 20.621696 0.791045 1.181806 0.032315 0.000744 -173231.000000 1 0 0
-3.951874 -16.030746 12.348468 20.617633 1.329097 0.928635 0.023311 -0.013031 213137.000000 1 0 0
-2.401374 -14.698546 14.233368 20.601034 1.408852 0.808056 0.022366 -0.044522 225885.000000 1 0 0
-7.547274 -13.773046 13.558068 20.747996 1.069510 0.858645 0.004915 -0.012704 75888.900000 1 0 0
-9.849974 -10.730546 11.838868 18.770333 0.828159 0.888313 0.018078 -0.017061 -98533.200000 1 0 0
-7.195674 -10.556446 13.135268 18.323524 0.972500 0.771519 0.005014 -0.010906 392543.000000 1 0 0
-15.340674 -12.325946 7.189768 20.951324 0.676860 1.220512 0.031457 -0.002036 162311.000000 1 0 0
-4.585574 -12.776946 13.254768 18.972789 1.226220 0.797330 0.009634 -0.012742 373005.000000 1 0 0
3.520526 -12.326046 14.074568 19.037305 -1.292587 0.738744 0.015249 -0.001652 570966.000000 1 0 0
6.534126 -13.454646 14.328868 20.713251 -1.118702 0.806855 0.031354 -0.015381 337039.000000 1 0 0
6.911226 -9.047846 16.702468 20.213881 -0.918488 0.598313 0.037258 -0.009115 471274.000000 1 0 0
-5.350174 13.169254 13.601468 19.673676 -1.184903 0.807435 0.005756 -0.015841 432568.000000 1 0 0
-13.667774 -1.837346 17.280968 22.109177 0.133628 0.673538 0.026610 -0.012086 388986.000000 1 0 0
-10.445474 9.835854 12.516468 19.039798 -0.755349 0.853454 0.014060 -0.016215 504044.000000 1 0 0
-7.160774 -8.319946 17.016768 20.250150 0.860137 0.572908 0.014981 -0.015307 86388.100000 1 0 0
-5.311074 2.394154 18.701768 19.588149 -0.423507 0.301981 0.017179 0.007271 652176.000000 1 0 0
-15.255774 -3.687546 14.779568 21.558577 0.237166 0.815432 0.024290 -0.009342 -26384.300000 1 0 0
-14.482674 2.796554 12.512468 19.342451 -0.190749 0.867295 0.011683 -0.002795 311803.000000 1 0 0
-13.592074 10.902354 10.185568 20.182953 -0.676027 1.041806 -0.059936 0.031939 -107830.000000 1 0 0
-4.958974 11.193054 15.721968 19.926268 -1.153745 0.661605 0.030240 -0.012482 258267.000000 1 0 0
-13.441274 12.795454 7.899668 20.169190 -0.760788 1.168350 0.014479 -0.028083 209998.000000 1 0 0
-4.022174 -6.454246 18.538368 20.037621 1.013505 0.389292 0.025172 -0.016535 280548.000000 1 0 0
0.200226 -3.092746 17.414368 17.688001 -1.506146 0.176125 0.005715 -0.025407 201504.000000 1 0 0
-4.211974 6.417854 21.387868 22.723786 -0.990012 0.344600 0.035190 -0.006823 260910.000000 1 0 0
1.514526 -11.141646 16.485168 19.954719 -1.435691 0.598594 0.001459 0.000201 335807.000000 1 0 0
-14.956274 -0.154646 13.803668 20.353262 0.010340 0.825480 0.004418 -0.004088 12721.700000 1 0 0
-14.081474 -6.110246 7.974168 17.297698 0.409402 1.091679 0.017435 -0.001537 -227778.000000 1 0 0
10.074526 0.642554 17.071668 19.833073 0.063694 0.534020 0.035955 0.019924 627879.000000 1 0 0
-7.520374 12.302354 11.763668 18.608810 -1.022113 0.886464 0.009125 -0.020049 7830.840000 1 0 0
-1.837374 7.612654 19.866868 21.354645 -1.333968 0.375485 0.025213 -0.028735 353177.000000 1 0 0
0.425326 -14.288846 16.074168 21.511181 -1.541039 0.726886 -0.005300 0.019171 529329.000000 1 0 0
-3.784574 -11.659146 17.622468 21.466487 1.256925 0.607760 0.035502 -0.024163 276930.000000 1 0 0
-2.348074 8.975554 16.829768 19.217572 -1.314923 0.503811 0.002841 -0.002779 497307.000000 1 0 0
-3.862474 -9.407546 20.285968 22.692314 1.181210 0.464696 0.027723 -0.028327 234010.000000 1 0 0
-6.740974 -2.822046 19.141568 20.489126 0.396472 0.364701 0.018065 -0.010747 153561.000000 1 0 0
-10.556774 -8.240346 16.104068 20.944922 0.662783 0.693713 0.017869 -0.018312 169296.000000 1 0 0
-0.313074 6.438254 17.687168 18.825117 -1.522207 0.349478 0.010586 -0.012529 144851.000000 1 0 0
-6.314974 -11.325546 18.772368 22.815536 1.062147 0.604496 0.054918 -0.023569 464751.000000 1 0 0
0.175226 3.584054 18.927068 19.264216 1.521945 0.187364 0.018440 -0.007392 97927.900000 1 0 0
-18.151674 -1.075646 7.671668 19.735622 0.059190 1.171552 0.021304 -0.007215 6036.300000 1 0 0
-1.819974 -8.995646 17.399468 19.671691 1.371174 0.485391 0.009976 -0.012166 269909.000000 1 0 0
5.874726 3.446154 15.093868 16.559385 0.530513 0.423882 0.013417 0.002183 533189.000000 1 0 0
-13.671174 -6.782146 10.309268 18.416827 0.460516 0.976683 0.016524 -0.004001 153138.000000 1 0 0
3.556226 8.178554 17.091768 19.278589 1.160635 0.480925 0.012253 0.006203 116368.000000 1 0 0
6.086726 4.418554 17.557868 19.101062 0.627919 0.404729 0.035693 -0.020950 85223.200000 1 0 0
4.336226 -10.207446 17.611168 20.812209 -1.169087 0.561994 0.008264 -0.014796 327812.000000 1 0 0
-4.573574 -0.747746 19.822268 20.356792 0.162059 0.229667 0.015810 -0.007164 632020.000000 1 0 0
-11.209274 1.548554 17.034068 20.450068 -0.137280 0.586362 0.030750 -0.004352 177790.000000 1 0 0
-16.927974 -4.078546 8.598768 19.419826 0.236429 1.112096 0.031620 -0.011894 465130.000000 1 0 0
-13.355674 -9.522846 12.249868 20.472369 0.619410 0.929342 0.039808 -0.023762 98107.600000 1 0 0
-14.949574 6.383254 12.944768 20.779863 -0.403551 0.898291 0.024562 -0.015172 -90466.600000 1 0 0
1.167026 9.153554 17.103768 19.434206 1.443986 0.494754 0.002677 -0.008680 201466.000000 1 0 0
-3.845774 -10.410346 15.049568 18.699058 1.216928 0.635407 0.013941 -0.012598 527529.000000 1 0 0
-18.661174 -4.287946 6.839768 20.332445 0.225858 1.227708 0.096569 -0.003778 -74262.300000 1 0 0
-0.720474 -0.634146 20.765368 20.787537 0.721756 0.046189 0.026574 -0.018156 467201.000000 1 0 0
-2.130674 2.266554 20.446468 20.681757 -0.816290 0.150985 0.012738 -0.008305 141427.000000 1 0 0
-8.292174 2.405054 16.172368 18.332755 -0.282293 0.490374 0.006955 0.010740 552088.000000 1 0 0
2.418226 -2.019446 19.005168 19.264537 -0.695777 0.164279 0.012032 -0.005110 151252.000000 1 0 0
-12.656274 4.546254 14.108568 19.491059 -0.344856 0.761433 0.011962 -0.003710 276848.000000 1 0 0
-13.266774 -5.419546 13.196268 19.481280 0.387817 0.826598 0.012695 -0.015108 59923.300000 1 0 0
-17.357474 -0.879846 10.004268 20.053464 0.050646 1.048491 0.037420 -0.013793 164838.000000 1 0 0
-7.346874 7.783454 14.870468 18.321832 -0.814245 0.623867 0.009732 -0.007537 -30468.800000 1 0 0
-9.582974 0.739254 13.983268 16.967960 -0.076990 0.602188 0.003236 -0.002021 184913.000000 1 0 0
7.470926 -0.829146 14.993068 16.771830 -0.110531 0.464728 0.028776 -0.002427 240904.000000 1 0 0
3.416326 5.993254 18.496268 19.740879 1.052706 0.356991 0.010535 -0.005891 47457.000000 1 0 0
1.085526 0.747954 20.278568 20.321371 0.603322 0.064916 0.013950 0.003701 98080.500000 1 0 0
-7.148374 6.911554 17.730368 20.328176 -0.768556 0.511101 0.024289 -0.004382 567577.000000 1 0 0
7.551026 -3.990846 16.709268 18.765513 -0.486200 0.472520 0.034833 0.006323 399314.000000 1 0 0
-16.668674 2.361754 9.115168 19.144421 -0.140751 1.074552 0.030818 -0.012006 290214.000000 1 0 0
3.913326 -5.817346 19.229968 20.468202 -0.978629 0.349615 0.032526 -0.015566 74770.600000 1 0 0
-3.912474 -3.843046 20.532768 21.252553 0.776446 0.261002 0.023336 -0.014819 381838.000000 1 0 0
-9.835974 6.087654 14.492468 18.542857 -0.554213 0.673624 0.011452 -0.002916 -30834.800000 1 0 0
6.608026 2.255954 19.974568 21.159837 0.328989 0.336291 0.051310 -0.006271 30960.700000 1 0 0
-7.196174 11.653054 14.389968 19.865793 -1.017583 0.760692 0.020770 -0.025959 90379.100000 1 0 0
-14.527274 5.035554 9.353568 17.996881 -0.333667 1.024258 0.005968 -0.009327 371099.000000 1 0 0
0.570526 -5.608046 20.493968 21.255079 -1.469412 0.268418 0.014181 -0.018065 106584.000000 1 0 0
-6.408274 -8.246546 13.527868 17.090193 0.910184 0.657443 0.012912 -0.009394 379109.000000 1 0 0
-13.117774 10.290354 6.380968 17.851726 -0.665193 1.205268 -0.003293 -0.011393 193619.000000 1 0 0
-19.604174 2.442454 7.586868 21.162462 -0.123950 1.204129 0.033149 -0.017275 -84925.500000 1 0 0
-15.628474 9.020254 6.281168 19.106733 -0.523462 1.235826 0.000648 -0.006453 134607.000000 1 0 0
-12.989874 8.126554 14.198568 20.889639 -0.559036 0.823451 0.017935 -0.005764 239618.000000 1 0 0
-16.485574 9.136454 10.479368 21.565391 -0.506069 1.063364 0.017322 -0.017123 64885.800000 1 0 0
2.501626 10.522754 14.856568 18.376727 1.337394 0.629291 0.003187 -0.028984 329242.000000 1 0 0
1.902626 15.231854 13.171868 20.226899 1.446529 0.861625 0.002488 0.000490 622648.000000 1 0 0
8.830826 4.702554 16.790268 19.545091 0.489321 0.537380 0.031146 0.002475 120829.000000 1 0 0
-0.654074 13.387054 13.035968 18.696991 -1.521976 0.799280 -0.004434 -0.000330 256447.000000 1 0 0
3.825626 12.614454 14.656668 19.712376 1.276339 0.732468 0.012150 -0.002137 88176.300000 1 0 0
-3.679474 -4.512946 -13.917532 15.086515 0.886786 2.745342 0.004063 -0.008147 -298422.000000 1 0 0
6.152226 -12.214546 16.707568 21.591383 -1.104209 0.685967 0.023075 0.000485 170651.000000 1 0 0
8.690626 -13.927846 7.220168 17.934400 -1.012935 1.156454 0.021200 -0.005264 254022.000000 1 0 0
-0.523874 15.152554 0.463268 15.168683 -1.536237 1.540251 -0.000718 -0.005990 -342080.000000 1 0 0
-14.388974 7.897754 8.391768 18.434719 -0.501979 1.098182 0.008392 -0.003262 44240.900000 1 0 0
-16.036374 -9.856146 4.254268 19.297868 0.551094 1.348518 0.023015 -0.001340 98179.400000 1 0 0
9.733126 -10.464346 11.556668 18.379142 -0.821586 0.890797 0.053063 -0.000950 89899.700000 1 0 0
-25.794134 5.701754 30.855281 40.618908 -0.217550 0.708055 0.085894 -0.021682 362299.000000 0 0 1
-24.560174 4.992454 30.701681 39.632310 -0.200542 0.684614 0.078475 -0.018306 421246.000000 0 0 1
-23.693874 5.203854 31.789431 39.988094 -0.216196 0.651834 0.077434 -0.012736 -1041960.000000 0 0 1
-22.424674 4.449054 31.506301 38.926946 -0.195857 0.627718 0.067192 -0.015211 -1238590.000000 0 0 1
-22.458474 3.055954 31.491021 38.799566 -0.135241 0.623854 0.062566 -0.021877 71246.300000 0 0 1
-21.366474 2.567754 30.730651 37.516563 -0.119603 0.610917 0.046992 -0.019293 -85920.600000 0 0 1
-20.820474 1.321254 31.413441 37.709974 -0.063374 0.586239 0.043557 -0.017263 -88157.500000 0 0 1
-21.571174 0.131854 31.205101 37.935357 -0.006112 0.604852 0.051342 -0.001848 261887.000000 0 0 1
-21.514074 -0.608646 32.413515 38.908377 0.028283 0.586156 0.046601 -0.008032 -177347.000000 0 0 1
-22.098374 -2.013646 32.317834 39.202491 0.090871 0.601687 0.039973 -0.026991 -239906.000000 0 0 1
-21.235674 -2.990246 31.738991 38.304817 0.139893 0.594212 0.076323 -0.035300 191780.000000 0 0 1
-21.391874 -4.314246 32.204237 38.901644 0.199007 0.595555 0.083340 -0.043880 -754128.000000 0 0 1
-22.695374 -5.030646 31.812791 39.401029 0.218133 0.631047 0.054725 -0.031955 559433.000000 0 0 1
-23.860774 -4.619246 32.560673 40.630917 0.191226 0.641203 0.038729 -0.021695 725017.000000 0 0 1
-23.985974 -5.049146 33.948711 41.872853 0.207475 0.625352 0.027782 -0.019427 10373.000000 0 0 1
-25.188074 -4.496246 -33.424912 42.093706 0.176646 2.488255 0.025181 -0.007408 440544.000000 0 0 1
-25.205204 -5.006146 -32.112102 41.128469 0.196064 2.466702 0.032423 -0.008338 231295.000000 0 0 1
-26.337834 -4.634046 -31.349352 41.206041 0.174164 2.435334 0.036261 -0.003104 -195133.000000 0 0 1
-26.255484 -5.278846 -29.952642 40.179316 0.198412 2.412042 0.024121 -0.002700 -650757.000000 0 0 1
-26.454174 -6.688946 -29.963642 40.526352 0.247660 2.402919 0.022135 0.001683 485842.000000 0 0 1
-26.423424 -7.167446 -28.628432 39.612584 0.264880 2.378512 0.005721 0.000806 -128785.000000 0 0 1
-26.600694 -8.651246 -28.575552 39.987538 0.314437 2.366865 0.011035 -0.002809 451885.000000 0 0 1
-27.956764 -9.079346 -28.747832 41.115120 0.314018 2.345079 0.029803 -0.004092 398815.000000 0 0 1
-28.070174 -10.472746 -28.616432 41.430825 0.357097 2.333258 0.032851 -0.000676 90107.800000 0 0 1
-29.491154 -10.871446 -28.193272 42.222945 0.353178 2.301943 0.063696 -0.007177 115571.000000 0 0 1
-29.629894 -11.294846 -26.846492 41.548024 0.364193 2.273333 0.072979 -0.013959 196094.000000 0 0 1
-31.008194 -11.575746 -26.602672 42.464199 0.357290 2.247816 0.074224 -0.013629 575103.000000 0 0 1
-31.178554 -12.301846 -25.239092 41.957710 0.375809 2.216219 0.080304 -0.015180 -67908.400000 0 0 1
-30.851484 -11.482946 -24.138332 40.820720 0.356314 2.203498 0.093910 -0.016445 195229.000000 0 0 1
-30.852554 -12.145846 -22.940632 40.319651 0.375041 2.176048 0.102858 -0.018272 -237354.000000 0 0 1
-30.397024 -11.245546 -21.718732 39.014673 0.354341 2.161182 0.108971 -0.024033 101467.000000 0 0 1
-30.239814 -11.673146 -20.373232 38.285471 0.368396 2.131923 0.105958 -0.024663 281111.000000 0 0 1
-29.275024 -12.717246 -20.306532 37.830023 0.409811 2.137417 0.090632 -0.035954 -74300.700000 0 0 1
-28.876714 -13.083146 -18.846032 36.880974 0.425403 2.107139 0.109164 -0.041289 88434.800000 0 0 1
-28.284634 -12.004246 -18.152632 35.688101 0.401370 2.104408 0.104668 -0.039018 27732.800000 0 0 1
-27.716544 -12.478546 -16.966132 34.810495 0.423037 2.079889 0.101277 -0.031001 55985.400000 0 0 1
-27.276894 -11.365146 -15.945632 33.577652 0.394784 2.065633 0.091941 -0.026733 235314.000000 0 0 1
-26.079494 -10.716246 -16.343032 32.589456 0.389873 2.096107 0.089224 -0.029556 326480.000000 0 0 1
-25.997334 -9.445246 -15.657432 31.784104 0.348488 2.085892 0.087026 -0.024933 53181.400000 0 0 1
-24.630774 -8.794446 -16.044332 30.682860 0.342943 2.121056 0.084455 -0.022989 856574.000000 0 0 1
-23.603474 -9.376146 -15.207932 29.602657 0.378121 2.110329 0.066225 -0.027764 95825.500000 0 0 1
-22.407774 -8.634446 -15.302032 28.474799 0.367798 2.138134 0.096691 -0.052075 -366596.000000 0 0 1
-21.527174 -9.046946 -14.105132 27.280418 0.397846 2.114188 0.082784 -0.018337 -299372.000000 0 0 1
-20.752674 -10.234346 -14.363732 27.234760 0.458159 2.126339 0.072380 -0.016826 -62850.000000 0 0 1
-19.789274 -10.326846 -13.376132 26.022683 0.480967 2.110659 0.086302 -0.021132 -302438.000000 0 0 1
-18.634074 -11.331546 -13.673932 25.741194 0.546361 2.130822 0.078431 -0.019813 739592.000000 0 0 1
-17.790174 -10.986146 -14.813532 25.624723 0.553217 2.187189 0.098707 -0.030894 853993.000000 0 0 1
-18.341974 -11.363346 -16.072632 26.905077 0.554654 2.211030 0.078424 -0.036848 -207287.000000 0 0 1
-17.533874 -10.721646 -17.221832 26.813839 0.548819 2.268258 0.080198 -0.042519 -203170.000000 0 0 1
-17.942674 -11.067746 -18.536832 28.072205 0.552709 2.292050 0.055789 -0.030574 467489.000000 0 0 1
-17.378674 -10.096546 -19.434732 27.958315 0.526312 2.339400 0.057074 -0.037658 -23693.800000 0 0 1
-17.973074 -10.389346 -20.845232 29.419273 0.524124 2.358248 0.053540 -0.028526 157505.000000 0 0 1
-19.360874 -10.104646 -20.916332 30.239714 0.481022 2.334615 0.064697 -0.043818 18.055100 0 0 1
-19.890174 -11.062546 -21.775532 31.498774 0.507577 2.334102 0.055697 -0.030071 -1025820.000000 0 0 1
-21.252374 -10.616746 -22.235532 32.539170 0.463292 2.323133 0.053574 -0.028614 -834499.000000 0 0 1
-21.128774 -9.457646 -23.064632 32.677966 0.420872 2.354371 0.054570 -0.022912 248318.000000 0 0 1
-22.382774 -9.112046 -23.607132 33.783349 0.386613 2.344487 0.041921 -0.030356 -160444.000000 0 0 1
-22.192774 -8.141346 -24.760232 34.232585 0.351603 2.379357 0.039156 -0.033177 211047.000000 0 0 1
-21.580374 -8.797246 -25.906412 34.846037 0.387084 2.409016 0.049447 -0.026652 479555.000000 0 0 1
-21.148274 -7.821246 -26.898502 35.099157 0.354230 2.443948 0.037964 -0.026451 391634.000000 0 0 1
-19.768074 -8.230246 -27.496652 34.850819 0.394513 2.479946 0.075838 -0.030770 221749.000000 0 0 1
-19.849374 -9.405046 -28.331122 35.848362 0.442486 2.482102 0.071495 -0.030679 -639239.000000 0 0 1
-18.667474 -9.799846 -28.932542 35.799491 0.483423 2.511857 0.044556 -0.025517 -857696.000000 0 0 1
-18.715874 -10.953946 -29.962352 36.986693 0.529522 2.515093 0.049113 -0.023620 -280372.000000 0 0 1
-19.007574 -10.580646 -31.315062 38.129662 0.507938 2.534444 0.040441 -0.023605 332429.000000 0 0 1
-19.010174 -11.769346 -32.106562 39.124616 0.554351 2.533297 0.033981 -0.014989 -444004.000000 0 0 1
-19.724874 -11.577846 -33.435552 40.509917 0.530781 2.541648 0.035565 -0.018360 -499441.000000 0 0 1
-19.041174 -10.888846 33.790814 40.285883 0.519470 0.575766 0.043880 -0.020435 -339635.000000 0 0 1
-19.686074 -10.842446 32.547429 39.552943 0.503432 0.604331 0.043550 -0.028410 -556480.000000 0 0 1
-19.236474 -11.993746 31.566661 38.863170 0.557513 0.622795 0.050841 -0.018027 119453.000000 0 0 1
-17.849374 -11.765746 31.322841 37.922992 0.582794 0.598895 0.054426 -0.025814 583111.000000 0 0 1
-17.188574 -12.619646 30.394641 37.128651 0.633304 0.611774 0.050700 -0.022007 162739.000000 0 0 1
-17.119874 -14.104246 30.705281 37.879205 0.689117 0.625602 0.052969 -0.015734 -1225680.000000 0 0 1
-18.306874 -14.745346 30.339671 38.380497 0.678058 0.659176 0.049367 -0.015828 -257482.000000 0 0 1
-18.434374 -16.054246 30.825601 39.341869 0.716495 0.670467 0.057449 -0.015896 -53314.000000 0 0 1
-18.838974 -16.213746 32.287108 40.746164 0.710644 0.656069 0.029852 -0.019436 302057.000000 0 0 1
-17.757974 -16.000846 33.217347 40.923891 0.733396 0.623764 0.052479 -0.018491 743321.000000 0 0 1
-18.309174 -15.730946 -33.759672 41.501856 0.709802 2.520855 0.038714 -0.013789 -388244.000000 0 0 1
-17.240874 -15.197846 -32.859902 40.099819 0.722500 2.531252 0.042895 -0.013107 -670257.000000 0 0 1
-16.726174 -13.933646 -33.312472 39.794877 0.694568 2.562765 0.039436 -0.014205 405388.000000 0 0 1
-15.503674 -13.590146 -32.651562 38.615807 0.719722 2.578389 0.041869 -0.014835 510828.000000 0 0 1
-15.714674 -13.112246 -31.171002 37.289588 0.695365 2.560598 0.050618 -0.015565 -444406.000000 0 0 1
-16.007374 -14.224046 -30.353602 37.147015 0.726477 2.527195 0.036667 -0.019514 -184489.000000 0 0 1
-16.450974 -13.871146 -29.047822 36.149955 0.700522 2.504010 0.041612 -0.026049 82737.900000 0 0 1
-16.594974 -15.136146 -28.138492 36.003762 0.739456 2.467932 0.024499 -0.006708 1469080.000000 0 0 1
-15.310674 -15.647546 -27.678822 35.289937 0.796279 2.472406 0.041080 -0.021486 1358330.000000 0 0 1
-14.602174 -16.512246 -28.603112 36.111159 0.846710 2.485014 0.048002 -0.025260 128817.000000 0 0 1
-13.266274 -17.086546 -28.080132 35.446268 0.910602 2.485183 0.053394 -0.022939 417809.000000 0 0 1
-12.246774 -16.078446 -28.080322 34.597752 0.919856 2.517721 0.043419 -0.030283 852201.000000 0 0 1
-10.987074 -16.576746 -27.579522 34.001976 0.985475 2.516853 0.060878 -0.038486 1695760.000000 0 0 1
-9.723474 -15.725046 -27.951792 33.513068 1.016998 2.557217 0.054918 -0.041368 487308.000000 0 0 1
-9.746474 -14.425846 -27.352502 32.423112 0.976617 2.574770 0.060620 -0.040137 -293262.000000 0 0 1
-8.432974 -13.988246 -27.082382 31.626595 1.028275 2.598891 0.076935 -0.044498 -31121.100000 0 0 1
-8.145974 -12.502246 -27.245312 31.063968 0.993325 2.640527 0.067576 -0.043758 -215565.000000 0 0 1
-7.894474 -12.175146 -28.620482 32.088766 0.995540 2.672361 0.082749 -0.046096 205703.000000 0 0 1
-7.459474 -10.844946 -28.786752 31.653337 0.968285 2.712727 0.065836 -0.036975 -510935.000000 0 0 1
-6.680174 -10.659246 -30.068922 32.594238 1.010974 2.745363 0.068024 -0.028200 37144.200000 0 0 1
-5.279174 -10.902446 -29.837902 32.203004 1.119853 2.755949 0.075680 -0.027937 1127170.000000 0 0 1
-4.477274 -10.487546 -30.951032 32.984860 1.167306 2.788595 0.063831 -0.023480 46498.600000 0 0 1
-4.216474 -8.990946 -31.120352 32.666376 1.132280 2.832705 0.041991 -0.025598 -1301790.000000 0 0 1
-3.096174 -8.696046 -31.898612 33.207364 1.228747 2.859908 0.040067 -0.023058 -589627.000000 0 0 1
-3.012974 -7.348946 -32.287492 33.250071 1.181710 2.900386 0.022369 -0.018804 -459119.000000 0 0 1
-1.734174 -6.679346 -32.796632 33.514775 1.316773 2.934206 0.047889 -0.026405 -302593.000000 0 0 1
-1.406474 -7.041046 34.093307 34.841184 1.373638 0.207569 0.050635 -0.027892 -1010280.000000 0 0 1
-0.210974 -6.506546 33.665536 34.289182 1.538383 0.191014 0.065404 -0.023021 -832467.000000 0 0 1
0.352826 -7.224246 32.434732 33.231402 -1.521996 0.219407 0.052240 -0.017907 -270885.000000 0 0 1
-0.328874 -7.037646 31.197331 31.982966 1.524100 0.222105 0.049820 -0.012169 -65815.700000 0 0 1
0.399126 -7.655146 30.140511 31.100016 -1.518705 0.249047 0.046872 -0.020836 -11310.500000 0 0 1
0.115826 -7.240046 28.693061 29.592625 -1.554800 0.247198 0.049716 -0.015020 -183194.000000 0 0 1
0.644426 -5.956346 28.422531 29.047093 -1.463024 0.207746 0.061501 -0.011689 23086.900000 0 0 1
0.396726 -5.509446 27.121321 27.678104 -1.498912 0.200919 0.061676 -0.013412 -499111.000000 0 0 1
-0.839374 -4.628646 26.933381 27.341103 1.391403 0.172914 0.055894 -0.007370 152380.000000 0 0 1
-2.102474 -5.212146 27.109791 27.686236 1.187380 0.204418 0.037778 -0.006603 -180596.000000 0 0 1
-3.193274 -4.351146 26.851751 27.388794 0.937684 0.198356 0.030941 -0.005794 1541160.000000 0 0 1
-4.625974 -4.859446 27.326411 28.137992 0.810007 0.240760 0.029652 0.001061 1435720.000000 0 0 1
-5.075474 -5.934246 26.487341 27.614398 0.863242 0.286687 0.029978 -0.001101 -147846.000000 0 0 1
-6.369474 -6.417246 26.784371 28.269308 0.789134 0.325560 0.031301 -0.003263 406136.000000 0 0 1
-6.589174 -7.916146 26.600201 28.524608 0.876626 0.369425 0.045114 -0.012344 134228.000000 0 0 1
-5.711674 -8.716346 27.366741 29.283723 0.990716 0.363839 0.046970 -0.020704 -28010.900000 0 0 1
-6.062874 -10.099046 27.450751 29.871272 1.030126 0.405340 0.052105 -0.021709 210031.000000 0 0 1
-5.189574 -10.730246 28.573741 30.960112 1.120322 0.395196 0.047023 -0.020688 227440.000000 0 0 1
-5.307574 -12.141546 28.654251 31.569821 1.158687 0.433153 0.066710 -0.023153 435665.000000 0 0 1
-4.648274 -12.598646 29.870621 32.750364 1.217340 0.422492 0.068104 -0.024414 250892.000000 0 0 1
-4.773074 -14.161346 29.793641 33.331472 1.245705 0.464916 0.074446 -0.029847 614341.000000 0 0 1
-6.127274 -14.623846 29.719531 33.684580 1.174026 0.490093 0.092325 -0.030925 478311.000000 0 0 1
-6.228374 -16.009446 30.053791 34.616837 1.199771 0.519265 0.090551 -0.032139 205124.000000 0 0 1
-6.328174 -16.374146 31.554061 36.108409 1.202005 0.507689 0.105900 -0.032980 -855148.000000 0 0 1
-7.617574 -16.099446 31.963881 36.591110 1.128852 0.508363 0.104564 -0.028655 -909255.000000 0 0 1
-7.815074 -16.400346 33.317575 37.948749 1.126109 0.499207 0.109072 -0.022556 -345751.000000 0 0 1
-9.272874 -16.655246 33.755084 38.765824 1.062783 0.514084 0.111930 -0.022738 -68429.500000 0 0 1
-9.765974 -17.888246 33.235867 38.987004 1.071073 0.550074 0.108745 -0.021346 253269.000000 0 0 1
-10.257074 -17.910746 31.892251 37.988394 1.050710 0.574386 0.103078 -0.025476 -495172.000000 0 0 1
-10.841074 -19.300746 31.520821 38.517656 1.059021 0.612267 0.106952 -0.024798 521519.000000 0 0 1
-12.032674 -19.583746 32.272223 39.620762 1.019840 0.618881 0.098653 -0.022405 761443.000000 0 0 1
-12.646274 -20.851346 32.021471 40.250236 1.025613 0.650865 0.087363 -0.017656 -97016.700000 0 0 1
-12.175674 -21.950546 33.013588 41.472527 1.064362 0.650080 0.090234 -0.017407 186755.000000 0 0 1
-10.783774 -22.215346 32.808406 41.063401 1.118881 0.645217 0.078050 -0.020082 575445.000000 0 0 1
-10.199274 -22.838446 33.968769 42.184086 1.150787 0.634698 0.057700 -0.025402 79805.200000 0 0 1
-10.497174 -24.343946 -33.953052 43.077003 1.163684 2.478666 0.076796 -0.017149 -240483.000000 0 0 1
-10.031674 -25.214786 33.286593 42.946678 1.192146 0.683974 0.080053 -0.015395 -158438.000000 0 0 1
-10.025974 -26.542126 33.661801 44.024101 1.209627 0.700342 0.078255 -0.017654 -686822.000000 0 0 1
-9.238674 -27.397946 32.670446 43.627498 1.245567 0.724471 0.065007 -0.019498 1222530.000000 0 0 1
-7.805474 -27.195606 32.696300 43.238576 1.291297 0.713335 0.052158 -0.026184 984627.000000 0 0 1
-7.074474 -27.909786 33.664880 44.298177 1.322548 0.707543 0.052678 -0.028393 89943.000000 0 0 1
-5.537074 -27.671516 33.535509 43.829241 1.373304 0.699537 0.058014 -0.036843 669911.000000 0 0 1
-5.034074 -26.467976 -34.065293 43.432015 1.382846 2.472421 0.075485 -0.028132 205355.000000 0 0 1
-4.925574 -25.382916 33.282129 42.145626 1.379128 0.660487 0.103737 -0.030203 -194998.000000 0 0 1
-4.540174 -24.109846 33.970321 41.903229 1.384664 0.625475 0.106955 -0.034405 12561.900000 0 0 1
-3.177774 -24.151746 -33.885822 41.733129 1.439972 2.518306 0.100277 -0.040254 -45565.100000 0 0 1
-2.902174 -23.077246 -33.046732 40.411241 1.445694 2.528306 0.093709 -0.035400 -94349.100000 0 0 1
34.275070 -15.047546 2.528668 37.518039 -0.413688 1.503346 0.116399 -0.029298 591468.000000 0 0 1
35.314760 -15.661346 3.339568 38.775801 -0.417418 1.484564 0.110153 -0.033645 837325.000000 0 0 1
34.784190 -16.215346 4.526968 38.644156 -0.436219 1.453382 0.097095 -0.033522 -375267.000000 0 0 1
35.664500 -16.209646 5.784968 39.600190 -0.426593 1.424187 0.095883 -0.017156 -366123.000000 0 0 1
-36.406314 -17.090446 5.587668 40.604496 0.438899 1.432746 0.103364 -0.017386 -244903.000000 0 0 1
-35.619902 -17.195646 6.767768 40.128174 0.449756 1.401333 0.095513 -0.016096 52524.500000 0 0 1
-34.488209 -18.233846 6.798268 39.599573 0.486342 1.398266 0.080606 -0.023119 -360798.000000 0 0 1
-34.813811 -19.568446 6.885968 40.525820 0.512077 1.400052 0.083579 -0.025465 251262.000000 0 0 1
-33.666194 -20.358846 7.224368 40.001084 0.543888 1.389196 0.054604 -0.014247 333130.000000 0 0 1
-33.821804 -21.901046 7.330068 40.954855 0.574645 1.390848 0.065770 -0.015710 -621678.000000 0 0 1
-33.578744 -22.548546 6.108468 40.905774 0.591350 1.420905 0.084398 -0.014024 197848.000000 0 0 1
-33.702264 -23.957946 6.225768 41.816097 0.617984 1.421356 0.092262 -0.019715 -96377.200000 0 0 1
-33.199684 -24.828646 5.062168 41.764892 0.642129 1.449291 0.093480 -0.021979 161857.000000 0 0 1
-33.923434 -24.669146 3.857368 42.121793 0.628749 1.479091 0.099125 -0.016278 562399.000000 0 0 1
-33.202694 -25.326816 2.762068 41.850873 0.651639 1.504750 0.093770 -0.019472 672011.000000 0 0 1
-33.764174 -24.837446 1.410168 41.939322 0.634231 1.537166 0.087876 -0.021243 -74775.600000 0 0 1
-35.030681 -25.395836 1.137168 43.282679 0.627282 1.544520 0.092506 -0.021479 -160552.000000 0 0 1
-35.473193 -25.015246 -0.138132 43.406555 0.614199 1.573979 0.084796 -0.019479 117289.000000 0 0 1
-36.515114 -23.836746 -0.155332 43.606974 0.578335 1.574358 0.096106 -0.027145 721043.000000 0 0 1
35.268170 -24.271946 0.021668 42.813218 -0.602770 1.570290 0.073460 -0.015592 526777.000000 0 0 1
34.451970 -23.218546 0.548268 41.549245 -0.593021 1.557600 0.081270 -0.014796 1501330.000000 0 0 1
32.925800 -23.563446 0.276368 40.489760 -0.621154 1.563971 0.049642 -0.007932 1120830.000000 0 0 1
32.530650 -23.290246 -1.032632 40.021808 -0.621349 1.596601 0.055447 -0.018421 54073.700000 0 0 1
31.115260 -23.285946 -1.103132 38.879450 -0.642462 1.599173 0.053489 -0.008799 346683.000000 0 0 1
30.601020 -23.267346 -2.543632 38.526120 -0.650089 1.636868 0.043457 -0.000382 -152557.000000 0 0 1
30.928670 -22.009746 -3.084432 38.085762 -0.618488 1.651872 0.069281 -0.018562 150951.000000 0 0 1
30.806540 -21.881446 -4.520932 38.056267 -0.617596 1.689874 0.068779 -0.037914 22135.400000 0 0 1
30.963480 -20.406046 -4.974132 37.415048 -0.582701 1.704136 0.075639 -0.040805 749560.000000 0 0 1
29.786190 -19.779346 -4.447132 36.030773 -0.586185 1.694538 0.085025 -0.029270 708841.000000 0 0 1
29.938520 -18.365846 -4.482632 35.407814 -0.550252 1.697737 0.087563 -0.034093 188651.000000 0 0 1
29.146570 -17.634246 -3.353932 34.230659 -0.544102 1.668934 0.102493 -0.029870 -14544.100000 0 0 1
29.817560 -17.487646 -2.131032 34.633018 -0.530425 1.632367 0.100065 -0.027585 17027.800000 0 0 1
30.289770 -18.642646 -1.383032 35.593977 -0.551722 1.609662 0.080300 -0.014598 25415.600000 0 0 1
29.339300 -19.856846 -1.079332 35.443671 -0.594985 1.601253 0.069238 -0.009690 -50247.500000 0 0 1
28.414390 -19.465846 -0.088032 34.442771 -0.600635 1.573352 0.061121 0.003757 459581.000000 0 0 1
27.445780 -20.504946 0.163768 34.260042 -0.641647 1.566016 0.050879 -0.000694 -241554.000000 0 0 1
26.489980 -20.190746 1.281268 33.332070 -0.651265 1.532347 0.038991 0.004932 -729122.000000 0 0 1
25.714680 -21.337746 1.642468 33.455073 -0.692643 1.521682 0.027652 0.010549 319501.000000 0 0 1
24.851180 -21.156046 2.759568 32.753239 -0.705254 1.486443 0.034898 0.002720 1236770.000000 0 0 1
23.403180 -20.567646 2.495968 31.256467 -0.721001 1.490857 0.030447 0.001959 588618.000000 0 0 1
23.353180 -19.254546 2.026968 30.335081 -0.689499 1.503927 0.052212 -0.008317 183437.000000 0 0 1
23.434380 -18.294246 3.027968 29.883410 -0.662836 1.469296 0.062382 -0.007049 -308029.000000 0 0 1
23.247880 -16.866046 2.521168 28.831991 -0.627628 1.483241 0.067236 -0.000939 -50269.900000 0 0 1
21.925080 -16.542146 2.174568 27.551415 -0.646365 1.491787 0.067220 0.000216 -365140.000000 0 0 1
21.851480 -15.184546 1.709168 26.664187 -0.607293 1.506653 0.079287 -0.013136 -334245.000000 0 0 1
20.528780 -14.691346 1.141568 25.269935 -0.621150 1.525606 0.073582 -0.011944 -420893.000000 0 0 1
19.446780 -14.668246 2.066668 24.445977 -0.646232 1.486155 0.068280 -0.005847 559169.000000 0 1 0
18.584380 -13.531846 1.873868 23.065156 -0.629357 1.489464 0.081892 -0.015188 16174.600000 0 1 0
19.052580 -12.069746 2.240068 22.664895 -0.564686 1.471800 0.091622 -0.014151 -653001.000000 0 1 0
19.856780 -11.468246 1.242868 22.964257 -0.523747 1.516648 0.089010 -0.017137 210615.000000 0 1 0
20.342280 -10.318146 1.845868 22.884050 -0.469412 1.490047 0.097330 -0.018771 -458779.000000 0 1 0
21.244180 -9.528746 0.875968 23.299775 -0.421634 1.533192 0.106044 -0.019154 -50709.100000 0 1 0
20.513880 -9.002546 -0.222732 22.403453 -0.413544 1.580738 0.103888 -0.018691 769546.000000 0 1 0
21.395580 -8.468146 -1.190332 23.041207 -0.376871 1.622480 0.100745 -0.011704 -222800.000000 0 1 0
20.760280 -8.220246 -2.577832 22.476808 -0.377019 1.685738 0.106909 -0.012344 38383.500000 0 1 0
21.645080 -7.715846 -3.594732 23.258673 -0.342428 1.725973 0.114149 -0.016119 1291450.000000 0 1 0
22.650880 -8.587246 -4.191932 24.584049 -0.362372 1.742148 0.107793 -0.013003 142776.000000 0 1 0
22.177080 -9.776846 -5.107932 24.768944 -0.415222 1.778510 0.091444 -0.014385 -52541.900000 0 1 0
21.434080 -9.431546 -6.298732 24.249699 -0.414528 1.833554 0.078335 -0.018388 1517750.000000 0 1 0
20.065680 -9.017346 -6.047532 22.814835 -0.422348 1.839073 0.075073 -0.013671 653152.000000 0 1 0
19.343780 -8.950546 -7.426632 22.570976 -0.433373 1.906077 0.072624 -0.014751 -415999.000000 0 1 0
19.156380 -10.162446 -8.159132 23.169239 -0.487748 1.930668 0.064108 -0.012980 743137.000000 0 1 0
20.290380 -10.548546 -8.936632 24.552693 -0.479424 1.943331 0.055063 -0.011772 -45808.800000 0 1 0
20.249380 -11.892246 -9.606332 25.372121 -0.531021 1.959099 0.044556 -0.014107 198649.000000 0 0 1
19.133780 -12.091746 -10.482832 24.943970 -0.563587 2.004523 0.071637 -0.021118 632314.000000 0 1 0
19.175680 -13.392546 -11.070532 25.877088 -0.609660 2.012867 0.079340 -0.019074 -16711.600000 0 0 1
17.995880 -13.719846 -12.021132 25.624081 -0.651383 2.059106 0.075316 -0.023847 82649.300000 0 0 1
17.985680 -15.124446 -12.424832 26.582137 -0.699197 2.057158 0.073439 -0.019465 -313919.000000 0 0 1
16.837180 -15.473046 -13.116532 26.361889 -0.743203 2.091576 0.079592 -0.026821 -937591.000000 0 0 1
16.759980 -16.927246 -13.443332 27.352363 -0.790363 2.084593 0.072362 -0.019241 -230086.000000 0 0 1
16.178180 -17.661946 -12.361332 26.953300 -0.829216 2.047238 0.058580 -0.008203 239778.000000 0 0 1
16.228880 -19.050246 -12.697332 28.062621 -0.865201 2.040323 0.064127 -0.006204 -147183.000000 0 0 1
15.205980 -19.874046 -11.878332 27.700078 -0.917690 2.013982 0.059964 -0.006708 -280250.000000 0 0 1
13.884480 -19.669246 -12.287532 27.030381 -0.956123 2.042700 0.058875 -0.006562 -876319.000000 0 0 1
13.022580 -20.384046 -11.469132 26.770094 -1.002291 2.013552 0.048106 -0.003535 -1036790.000000 0 0 1
11.555380 -20.159146 -11.745532 26.036043 -1.050310 2.038823 0.033150 -0.012395 -967078.000000 0 0 1
10.749080 -21.010046 -11.003132 26.039080 -1.097899 2.007067 0.031121 -0.009228 823162.000000 0 0 1
9.350980 -20.846746 -11.328032 25.501999 -1.149142 2.031079 0.011475 -0.005695 1689580.000000 0 0 1
8.278080 -21.631946 -10.487832 25.425624 -1.205311 1.995983 0.012297 0.002056 328755.000000 0 0 1
8.331080 -23.020846 -10.655132 26.700152 -1.223566 1.981295 0.012872 -0.005045 69898.900000 0 0 1
7.508280 -23.704046 -9.719832 26.697026 -1.264043 1.943440 0.023441 -0.011850 278859.000000 0 0 1
7.892280 -25.191316 -9.866332 28.182175 -1.267189 1.928465 0.030960 -0.012548 723895.000000 0 0 1
9.228880 -25.492836 -9.482532 28.722384 -1.223455 1.907253 0.008106 -0.004070 -11775.800000 0 0 1
9.499580 -26.880036 -9.539332 30.062888 -1.231090 1.893691 0.020879 -0.007201 67208.100000 0 0 1
10.968580 -27.230016 -9.247532 30.778245 -1.187868 1.875968 0.022583 -0.002151 -12753.300000 0 0 1
11.256180 -27.132116 -7.852232 30.405770 -1.177541 1.832005 0.027870 -0.010309 668926.000000 0 0 1
12.553080 -27.656126 -7.498732 31.283736 -1.144705 1.812854 0.042618 -0.005700 313563.000000 0 0 1
12.658380 -27.940926 -5.955532 31.247373 -1.145417 1.762563 0.043317 -0.007912 -145958.000000 0 0 1
12.126680 -29.110036 -5.383432 31.991123 -1.176078 1.739880 0.043824 -0.009738 -394510.000000 0 0 1
10.731580 -29.198436 -5.486232 31.588198 -1.218582 1.745361 0.042002 -0.010807 -555178.000000 0 0 1
10.151580 -30.333296 -4.552132 32.309215 -1.247845 1.712159 0.054397 -0.019904 -98707.100000 0 0 1
10.424280 -31.686846 -4.872232 33.711430 -1.252971 1.715832 0.073023 -0.022155 -23380.900000 0 0 1
9.598780 -32.208666 -5.900632 34.122606 -1.281158 1.744594 0.077622 -0.022130 91011.600000 0 0 1
9.881880 -33.680216 -6.195232 35.642523 -1.285403 1.745499 0.084758 -0.026835 -155212.000000 0 0 1
9.452380 33.685979 -5.148632 35.363839 1.297229 1.716906 0.081788 -0.027432 -231758.000000 0 0 1
10.059080 32.425860 -5.114132 34.333305 1.269992 1.720308 0.089229 -0.023899 -421535.000000 0 0 1
9.650680 31.465743 -4.040432 33.159519 1.273200 1.692948 0.102821 -0.022882 516509.000000 0 0 1
8.247780 31.207883 -4.184032 32.549408 1.312419 1.699697 0.098740 -0.023124 182463.000000 0 0 1
7.888980 30.128343 -3.398932 31.328993 1.314700 1.679502 0.079991 -0.023371 161540.000000 0 0 1
6.371080 29.833383 -3.533332 30.710029 1.360401 1.686106 0.064061 -0.024827 418173.000000 0 0 1
6.021380 29.212303 -4.786932 30.208118 1.367519 1.729932 0.071596 -0.032434 7958.570000 0 0 1
5.505980 30.130593 -5.704532 31.156222 1.390053 1.754930 0.064372 -0.035566 -321241.000000 0 0 1
5.408580 29.535693 -7.142932 30.864728 1.389683 1.804341 0.061842 -0.040789 322243.000000 0 0 1
4.349580 28.598433 -7.324032 29.840085 1.419861 1.818773 0.055997 -0.046565 195706.000000 0 0 1
4.789380 27.317373 -6.925432 28.585637 1.397237 1.815501 0.070460 -0.041331 -21911.600000 0 0 1
3.919080 26.064723 -7.365232 27.367419 1.421555 1.843280 0.067217 -0.041616 1293430.000000 0 0 1
2.541780 26.165173 -6.888132 27.175785 1.473957 1.827058 0.058788 -0.036665 854781.000000 0 0 1
1.654180 26.583473 -7.897332 27.781023 1.508651 1.859042 0.056814 -0.040319 -139071.000000 0 0 1
1.282180 25.710183 -9.120832 27.310201 1.520967 1.911310 0.081663 -0.045137 -662835.000000 0 0 1
2.415780 25.487913 -9.926432 27.459129 1.476297 1.940671 0.071132 -0.044861 -183910.000000 0 0 1
2.146680 24.882183 -11.155632 27.352869 1.484736 1.990885 0.088857 -0.045504 -608082.000000 0 0 1
2.096580 23.286543 -11.117732 25.889433 1.481004 2.014659 0.094627 -0.038263 397579.000000 0 0 1
0.906780 22.845853 -10.457632 25.141944 1.531126 1.999777 0.094428 -0.038349 392587.000000 0 0 1
0.967480 21.467553 -10.284732 23.823677 1.525760 2.017175 0.059069 -0.030795 244858.000000 0 1 0
-0.214120 20.899753 -9.452932 22.939125 -1.560552 1.995541 0.067702 -0.021881 468586.000000 0 1 0
-1.532920 21.072853 -9.903132 23.334246 -1.498180 2.009099 0.081208 -0.023800 65677.600000 0 1 0
-2.492220 20.185653 -9.303432 22.365724 -1.447953 1.999804 0.060463 -0.019858 273193.000000 0 1 0
-3.886820 20.835553 -9.321732 23.154316 -1.386369 1.985143 0.058032 -0.018554 -80920.600000 0 1 0
-4.927620 20.027253 -8.839432 22.438981 -1.329543 1.975702 0.050552 -0.028026 364612.000000 0 1 0
-5.764720 19.542453 -9.906932 22.655834 -1.283947 2.023368 0.045459 -0.021779 65033.100000 0 1 0
-6.762820 18.410053 -9.545132 21.812275 -1.218755 2.023728 0.048345 -0.025138 292055.000000 0 1 0
-7.863920 18.750453 -8.722332 22.124643 -1.173679 1.976033 0.070676 -0.028215 -778196.000000 0 1 0
-9.056320 18.644353 -9.423032 22.768891 -1.118621 1.997482 0.084814 -0.039567 -190742.000000 0 1 0
-10.232720 18.967753 -8.425432 23.140271 -1.076066 1.943465 0.100186 -0.047504 298978.000000 0 1 0
-10.338120 17.928753 -7.442232 21.993266 -1.047744 1.915998 0.075513 -0.040849 6283.270000 0 1 0
-11.428220 18.271953 -6.586632 22.535577 -1.011872 1.867403 0.077774 -0.034242 21145.500000 0 1 0
-11.926720 17.006853 -5.869032 21.585302 -0.959206 1.846163 0.059438 -0.036832 -289818.000000 0 1 0
-12.895120 17.308253 -4.893432 22.131548 -0.930485 1.793745 0.057374 -0.028812 122201.000000 0 1 0
-13.290320 16.190453 -4.091832 21.342598 -0.883456 1.763712 0.056714 -0.027660 -1024970.000000 0 1 0
-14.346020 16.589553 -3.118632 22.152820 -0.857794 1.712044 0.037534 -0.027056 -1719300.000000 0 1 0
-15.524620 16.716353 -3.811132 23.129527 -0.822345 1.736325 0.077889 -0.038287 -589385.000000 0 1 0
-16.620020 17.097053 -2.988732 24.030539 -0.799545 1.695491 0.079485 -0.034171 350172.000000 0 1 0
-18.003420 17.275553 -3.641232 25.215599 -0.764769 1.715707 0.087182 -0.038897 -20213.800000 0 0 1
-18.101220 18.399653 -4.522532 26.204097 -0.793574 1.744254 0.080744 -0.039014 -334.769000 0 0 1
-19.375220 18.632553 -5.089132 27.358188 -0.765861 1.757905 0.057733 -0.034343 -27088.300000 0 0 1
-19.326420 19.482253 -6.374132 28.172651 -0.789414 1.799025 0.037957 -0.016499 -113705.000000 0 0 1
-18.985820 20.847153 -6.135132 28.856629 -0.832093 1.785039 0.040262 -0.029080 278519.000000 0 0 1
-18.924820 21.594853 -7.356532 29.641273 -0.851198 1.821603 0.028880 -0.012996 -189733.000000 0 0 1
-18.816220 23.065953 -7.029932 30.586080 -0.886521 1.802711 0.045487 -0.016519 340649.000000 0 0 1
-17.508520 23.519853 -6.698832 30.076671 -0.930880 1.795405 0.042295 -0.024029 474505.000000 0 0 1
-17.576820 24.247803 -5.515932 30.452029 -0.943565 1.752937 0.050796 -0.027507 -181919.000000 0 0 1
-16.153420 24.528603 -5.027232 29.796953 -0.988431 1.740324 0.046996 -0.026187 -454041.000000 0 0 1
-16.212620 25.291123 -3.827032 30.284256 -1.000746 1.697505 0.039278 -0.028989 411399.000000 0 0 1
-14.954520 25.828483 -3.425932 30.041392 -1.045966 1.685085 0.038880 -0.024036 172806.000000 0 0 1
-14.408520 26.999303 -4.211532 30.891825 -1.080583 1.707554 0.041206 -0.020739 -290311.000000 0 0 1
-15.146420 28.208163 -4.124432 32.281968 -1.078026 1.698909 0.043889 -0.017385 -80721.500000 0 0 1
-14.453320 29.189613 -4.840932 32.929722 -1.111034 1.718339 0.035083 -0.013723 -251728.000000 0 0 1
-14.975220 30.678193 -4.600932 34.446732 -1.116683 1.704763 0.027498 -0.018655 156195.000000 0 0 1
-16.297220 30.743933 -5.110732 35.169709 -1.083363 1.716629 0.047889 -0.013895 -10103.000000 0 0 1
-16.939820 31.848853 -4.511832 36.354692 -1.081970 1.695223 0.046849 -0.014041 -180455.000000 0 0 1
12.922426 -8.621246 18.508971 24.163961 -0.588340 0.698241 0.092860 -0.021704 95177.300000 0 1 0
13.638326 -9.682946 19.141371 25.419588 -0.617393 0.718162 0.076841 -0.015013 -50441.400000 0 0 1
14.174126 -10.527346 18.201371 25.357854 -0.638823 0.770187 0.082689 -0.017742 -268184.000000 0 0 1
14.333226 -11.966146 18.595071 26.351598 -0.695635 0.787453 0.095215 -0.022787 45671.400000 0 0 1
15.371426 -12.091746 19.562171 27.661699 -0.666540 0.785276 0.073819 -0.016267 384779.000000 0 0 1
15.438026 -13.352246 20.230871 28.738533 -0.713077 0.789834 0.064446 -0.011108 111169.000000 0 0 1
16.210926 -14.551446 19.569871 29.283418 -0.731505 0.838886 0.055199 -0.009970 8174.840000 0 0 1
15.533026 -14.866246 18.382171 28.287531 -0.763468 0.863432 0.066581 -0.017467 280277.000000 0 0 1
15.832726 -16.120846 17.887771 28.818904 -0.794415 0.901167 0.068286 -0.021943 -247346.000000 0 0 1
15.221026 -16.223246 16.488871 27.690363 -0.817260 0.932942 0.055499 -0.021971 -351799.000000 0 0 1
13.827426 -16.058846 16.395371 26.793515 -0.859924 0.912316 0.079556 -0.023101 -142013.000000 0 0 1
13.372826 -15.921346 15.048871 25.666910 -0.872177 0.944295 0.099963 -0.034380 -14984.200000 0 0 1
12.777226 -17.221546 14.501271 25.886792 -0.932478 0.976193 0.066332 -0.021126 -428022.000000 0 0 1
13.763326 -18.199746 14.311771 26.934860 -0.923315 1.010606 0.059384 -0.016545 120400.000000 0 0 1
13.200726 -19.366346 13.724471 27.160185 -0.972504 1.041048 0.053395 -0.018525 -1128800.000000 0 0 1
14.216426 -20.183346 13.023471 27.912095 -0.957147 1.085366 0.055775 -0.020660 -699156.000000 0 0 1
14.959526 -20.899046 14.028471 29.280634 -0.949545 1.071163 0.036036 -0.018394 -107727.000000 0 0 1
15.614526 -21.952446 13.367671 30.073542 -0.952534 1.110181 0.026971 -0.018480 -305471.000000 0 0 1
16.277726 -22.884246 14.382071 31.551498 -0.952522 1.097494 0.024922 -0.018786 109982.000000 0 0 1
17.573626 -22.449546 14.760571 32.104344 -0.906628 1.093062 0.012835 -0.019378 103954.000000 0 0 1
18.129426 -23.432446 15.660671 33.511375 -0.912306 1.084535 0.014964 -0.020104 -1281010.000000 0 0 1
19.482826 -23.050646 16.151971 34.231549 -0.869085 1.079415 0.008389 -0.008690 -1717630.000000 0 0 1
20.415926 -23.374746 15.162271 34.541037 -0.852863 1.116351 0.000678 -0.020888 -984766.000000 0 0 1
21.656226 -22.911546 15.649871 35.197294 -0.813557 1.110032 0.002744 -0.015390 -752635.000000 0 0 1
22.828626 -23.466546 14.860071 35.953396 -0.799177 1.144705 -0.004664 -0.023328 -600741.000000 0 0 1
23.057426 -24.736046 15.389771 37.153222 -0.820506 1.143706 -0.003187 -0.020707 53117.200000 0 0 1
24.262926 -25.297576 14.907171 38.090428 -0.806272 1.168684 0.002483 -0.026428 -31807.200000 0 0 1
24.739026 -26.442386 15.833671 39.521188 -0.818667 1.158584 0.011635 -0.021169 -204504.000000 0 0 1
25.024626 -26.008676 17.132571 39.952574 -0.804678 1.127607 0.009815 -0.010601 303304.000000 0 0 1
25.771926 -27.016436 17.837471 41.379408 -0.808969 1.125117 0.022092 -0.005196 116995.000000 0 0 1
26.191226 -26.528896 19.226971 41.945668 -0.791803 1.094627 0.014373 -0.006532 -893158.000000 0 0 1
25.173826 -26.203116 20.104371 41.527227 -0.805430 1.065433 0.013182 0.001603 -914144.000000 0 0 1
25.468526 -26.008746 21.441571 42.247387 -0.795892 1.038487 0.013116 0.008939 147854.000000 0 0 1
24.193026 -26.031086 22.355771 41.984526 -0.821979 1.009273 0.006790 0.011487 500285.000000 0 0 1
23.754926 -27.361426 22.517071 42.661020 -0.855836 1.014772 0.010227 0.011395 -59714.500000 0 0 1
22.585626 -27.324246 23.320831 42.433314 -0.880058 0.988926 0.023651 0.004271 71372.700000 0 0 1
21.945426 -28.702536 23.473191 43.086286 -0.918028 0.994652 0.060420 -0.008609 -527100.000000 0 0 1
22.829326 -29.590486 24.088241 44.463675 -0.913671 0.998277 0.065053 -0.017823 118218.000000 0 0 1
22.595026 -30.858756 23.556251 44.918760 -0.938780 1.018764 0.081189 -0.023067 -503841.000000 0 0 1
23.662626 -31.887896 23.891841 46.341967 -0.932398 1.029141 0.073582 -0.009151 -479539.000000 0 0 1
23.784426 -32.123116 25.301721 47.305080 -0.933458 1.006451 0.070932 -0.022070 1949300.000000 0 0 1
25.105026 -32.622396 25.740011 48.549266 -0.914891 1.011980 0.086936 -0.027438 1185870.000000 0 0 1
24.956826 -32.924996 27.299661 49.519391 -0.922201 0.986884 0.079773 -0.038258 748673.000000 0 0 1
24.131426 -34.069494 27.675711 50.089931 -0.954522 0.985411 0.068307 -0.026327 948207.000000 0 0 1
22.772826 -34.026736 27.244111 49.179894 -0.980999 0.983673 0.072106 -0.025202 -490716.000000 0 0 1
22.021226 32.963081 27.778831 48.406225 0.981832 0.959574 0.106207 -0.041281 -448180.000000 0 0 1
21.670026 33.164624 29.104531 49.158479 0.992029 0.937190 0.083158 -0.031743 -74239.100000 0 0 1
20.984526 32.058113 29.639861 48.441659 0.991210 0.912377 0.090115 -0.039242 9459.170000 0 0 1
20.652726 32.226553 31.111311 49.325445 1.000873 0.888296 0.075747 -0.040809 228928.000000 0 0 1
21.844926 32.249284 31.897221 50.345306 0.975415 0.884639 0.061681 -0.025807 440618.000000 0 0 1
21.776926 32.769572 33.230495 51.500924 0.984263 0.869458 0.038603 -0.022774 -212414.000000 0 0 1
23.112126 32.579992 33.970919 52.437102 0.953792 0.866049 0.007810 -0.010201 13240.700000 0 0 1
23.365526 31.185943 -33.896052 51.647393 0.927787 2.286697 0.012840 -0.011238 446831.000000 0 0 1
24.551326 30.976593 -33.126442 51.572067 0.900598 2.268335 0.009137 0.000113 324265.000000 0 0 1
24.786826 29.475113 -33.076422 50.766315 0.871585 2.280413 0.023062 -0.000880 -229270.000000 0 0 1
24.984726 28.879123 33.908383 51.068765 0.857573 0.844674 0.031642 -0.010952 294356.000000 0 0 1
24.494126 27.509103 33.838073 50.017279 0.843310 0.827759 0.050385 -0.025793 11388.200000 0 0 1
24.906826 26.788043 32.499631 48.930310 0.821773 0.844370 0.081193 -0.032103 258420.000000 0 0 1
26.232226 26.282033 32.569939 49.393075 0.786347 0.850772 0.070174 -0.032726 432047.000000 0 0 1
26.487226 25.629623 31.357211 48.391378 0.768944 0.865852 0.104623 -0.049817 3154.070000 0 0 1
27.884626 24.967643 31.314981 48.801267 0.730263 0.874105 0.085342 -0.036697 -192678.000000 0 0 1
27.940426 23.815663 32.185331 48.823650 0.705870 0.851021 0.109977 -0.044238 -460391.000000 0 0 1
28.909026 23.850933 33.154193 50.037979 0.689820 0.846537 0.117250 -0.050938 -1600740.000000 0 0 1
28.541926 23.096953 -33.798462 49.904377 0.680343 2.314835 0.094904 -0.049288 -195974.000000 0 0 1
27.655126 23.802043 -32.883092 49.118642 0.710658 2.304281 0.098633 -0.040694 2359670.000000 0 0 1
26.217726 23.812503 -33.151682 48.512251 0.737360 2.323161 0.099453 -0.038461 1456450.000000 0 0 1
25.491826 22.482353 -33.319752 47.597220 0.722749 2.346244 0.094116 -0.044098 -982310.000000 0 0 1
25.340426 21.702353 -32.136082 46.323397 0.708216 2.337456 0.087180 -0.050385 121411.000000 0 0 1
24.686426 20.507953 -32.486592 45.665900 0.693205 2.362281 0.076404 -0.031756 -99726.400000 0 0 1
24.620326 19.610553 -31.261322 44.362197 0.672615 2.352774 0.071981 -0.035216 11475.100000 0 0 1
23.582426 19.889453 -30.325212 43.258984 0.700651 2.347617 0.057964 -0.023355 287618.000000 0 0 1
23.711826 19.008353 -29.251372 42.180694 0.675740 2.337101 0.073277 -0.015874 321385.000000 0 0 1
22.596526 19.122253 -28.152752 40.851451 0.702312 2.331111 0.087142 -0.018332 294832.000000 0 0 1
22.641326 18.179553 -27.018512 39.662650 0.676529 2.320208 0.090492 -0.006760 -121083.000000 0 0 1
23.196926 18.777853 -25.897952 39.514669 0.680505 2.285510 0.071630 -0.001638 -263643.000000 0 0 1
23.233326 17.838853 -24.624732 38.267343 0.654804 2.269848 0.075928 0.006477 -4968.560000 0 0 1
24.013826 16.679953 -24.866732 38.382796 0.607091 2.275570 0.064055 -0.010993 213305.000000 0 0 1
23.902626 15.802253 -23.779332 37.235781 0.584145 2.263494 0.062066 -0.002842 88090.500000 0 0 1
24.905526 14.591653 -23.711132 37.355313 0.529973 2.258476 0.090040 -0.018741 -425791.000000 0 0 1
26.198526 14.996653 -23.395032 38.191490 0.519896 2.230107 0.124492 -0.030257 -272252.000000 0 0 1
27.190726 14.004653 -23.183632 38.378988 0.475617 2.219396 0.124634 -0.039483 249005.000000 0 0 1
27.044726 13.204253 -21.861632 37.198125 0.454194 2.199019 0.119064 -0.026521 54920.800000 0 0 1
25.866526 12.384053 -21.770932 36.005770 0.446518 2.220124 0.102203 -0.019039 430849.000000 0 0 1
25.556126 12.096753 -20.453932 34.897140 0.442094 2.197059 0.083501 -0.037808 -787330.000000 0 0 1
24.098726 11.683053 -20.333332 33.625686 0.451414 2.220181 0.073232 -0.025943 -470156.000000 0 0 1
23.203026 12.774553 -20.241132 33.335763 0.503270 2.223315 0.096457 -0.024918 476507.000000 0 0 1
21.934726 12.411253 -20.828532 32.695553 0.514913 2.261455 0.081537 -0.028463 691796.000000 0 0 1
20.902226 13.533953 -20.772732 32.428034 0.574608 2.266049 0.076844 -0.025905 -754515.000000 0 0 1
21.184626 14.608853 -21.612132 33.604929 0.603710 2.269367 0.062750 -0.012708 -21380.300000 0 0 1
20.244226 15.644053 -21.578532 33.469361 0.657913 2.271460 0.054337 -0.006849 520363.000000 0 0 1
18.906626 15.454553 -22.381332 33.124429 0.685270 2.312676 0.049454 0.009859 90309.800000 0 0 1
17.941426 14.619853 -21.831832 31.816093 0.683740 2.327032 0.050256 0.001136 -411402.000000 0 0 1
16.928426 14.407753 -22.779132 31.828350 0.705131 2.368403 0.063627 -0.008424 -410914.000000 0 0 1
15.774726 13.532053 -22.278732 30.468022 0.709023 2.390901 0.042439 -0.004821 62428.600000 0 0 1
14.565626 13.939153 -22.869232 30.487034 0.763424 2.419055 0.047175 -0.004838 314148.000000 0 0 1
13.343726 13.488453 -22.271832 29.257955 0.790792 2.435994 0.064086 -0.012877 877321.000000 0 0 1
12.124026 13.670853 -23.220932 29.548197 0.845293 2.474892 0.055096 -0.008978 -57456.300000 0 0 1
11.740926 15.014553 -23.163632 29.997334 0.907147 2.453077 0.059025 -0.004566 -3999.600000 0 0 1
11.251626 15.374653 -24.454832 31.000288 0.939026 2.479745 0.052365 -0.002918 -444738.000000 0 0 1
11.078026 16.906853 -24.659132 31.884748 0.990747 2.454957 0.051020 0.000322 1179000.000000 0 0 1
12.255926 17.809753 -24.587332 32.740372 0.968062 2.420340 0.058508 0.005894 1995850.000000 0 0 1
13.378126 17.609553 -25.466382 33.728434 0.921111 2.426514 0.052594 0.000735 524057.000000 0 0 1
13.009226 17.684453 -26.942412 34.754474 0.936555 2.457862 0.053231 -0.010658 -468179.000000 0 0 1
14.080026 17.411753 -27.821322 35.713335 0.890803 2.463894 0.046654 -0.012563 83523.900000 0 0 1
13.567526 16.975353 -29.076842 36.300181 0.896514 2.499778 0.043618 -0.023720 -453300.000000 0 0 1
14.485926 17.287053 -30.231382 37.717645 0.873331 2.500626 0.056868 -0.032364 270319.000000 0 0 1
15.750326 16.615053 -30.173542 37.875790 0.812109 2.492520 0.040759 -0.027515 329213.000000 0 0 1
16.293226 16.493853 -31.436352 39.060987 0.791517 2.506138 0.047215 -0.025841 -779830.000000 0 0 1
17.666626 15.841053 -31.478472 39.420082 0.730970 2.495660 0.041845 -0.017501 -486780.000000 0 0 1
18.705926 16.695453 -31.006102 39.875158 0.728668 2.461603 0.051175 -0.022169 697029.000000 0 0 1
19.954326 15.979153 -30.993172 40.175679 0.675220 2.451899 0.057991 -0.020488 97172.200000 0 0 1
21.088526 16.806753 -31.526072 41.485975 0.672886 2.433988 0.059543 -0.017829 -761627.000000 0 0 1
21.109526 16.986553 -32.933012 42.646669 0.677592 2.453139 0.060752 -0.021373 261717.000000 0 0 1
22.398726 17.398353 -33.353462 43.781949 0.660406 2.436897 0.079983 -0.023153 113866.000000 0 0 1
22.418826 17.923453 33.402058 44.040339 0.674425 0.709877 0.056966 -0.011585 -174930.000000 0 0 1
23.493826 18.805353 33.114531 44.745651 0.675008 0.737635 0.075539 -0.015248 96126.400000 0 0 1
23.449826 19.346153 31.811811 44.001810 0.689801 0.762711 0.095809 -0.018086 -610776.000000 0 0 1
24.413926 20.506553 31.632641 44.913055 0.698632 0.789348 0.097889 -0.021365 -516801.000000 0 0 1
25.682126 19.979553 31.354751 45.187106 0.661154 0.803923 0.069761 -0.026244 -692952.000000 0 0 1
26.642926 21.031253 31.286531 46.162822 0.668228 0.826108 0.072281 -0.037896 452642.000000 0 0 1
28.075626 20.446253 31.135521 46.644514 0.629439 0.839941 0.066572 -0.035859 -54587.700000 0 0 1
28.586226 19.827553 32.272396 47.453258 0.606421 0.822914 0.060478 -0.036099 -1373600.000000 0 0 1
29.923426 19.582253 32.108251 48.060544 0.579471 0.839172 0.039295 -0.026810 -1243670.000000 0 0 1
30.551626 18.841553 33.318748 48.974942 0.552617 0.822594 0.043633 -0.022834 -142866.000000 0 0 1
30.615126 19.610053 -33.727482 49.592169 0.569692 2.318691 0.044950 -0.026728 382417.000000 0 0 1
29.665826 19.219453 -32.732382 48.175279 0.574873 2.317800 0.055839 -0.035548 -172192.000000 0 0 1
30.100926 19.861553 -31.412602 47.825711 0.583256 2.287382 0.064876 -0.029735 360715.000000 0 0 1
31.331126 19.358353 -30.911932 48.082563 0.553451 2.269065 0.060043 -0.029962 14534.200000 0 0 1
31.704626 19.809453 -29.630852 47.703094 0.558465 2.241008 0.056214 -0.025858 -882916.000000 0 0 1
33.113526 19.396953 -29.366532 48.323293 0.529892 2.223970 0.057470 -0.012252 -370085.000000 0 0 1
34.199926 20.026653 -30.025052 49.721279 0.529746 2.219140 0.028201 -0.014675 856762.000000 0 0 1
35.509426 19.952553 -29.460112 50.268499 0.511929 2.196978 0.010485 0.003875 1176820.000000 0 0 1
-36.561128 20.809753 -30.209852 51.791863 -0.517447 2.193574 0.008085 0.002360 498461.000000 0 0 1
-35.967228 20.153153 -31.329792 51.781724 -0.510732 2.220607 0.007729 -0.002249 299888.000000 0 0 1
-34.838328 20.854653 -31.849512 51.604429 -0.539399 2.235957 0.009004 -0.003652 362135.000000 0 0 1
-34.154328 20.114553 -32.995622 51.573486 -0.532241 2.265007 0.004982 -0.007700 -177460.000000 0 0 1
-33.516628 18.904453 -32.545902 50.398199 -0.513553 2.272834 0.021516 -0.008335 216797.000000 0 0 1
-32.790228 18.354953 -33.646352 50.439869 -0.510312 2.301050 0.034943 -0.012038 -24520.300000 0 0 1
-31.818228 17.254953 -33.118612 49.060937 -0.496911 2.311830 0.023710 -0.003908 93352.500000 0 0 1
-32.505828 16.051053 -32.742452 48.850111 -0.458667 2.305360 0.027332 -0.001133 17790.900000 0 0 1
-31.938528 14.840453 -33.143982 48.361474 -0.434975 2.325865 0.023387 0.007781 -643669.000000 0 0 1
-32.840428 13.653153 -32.892892 48.444243 -0.394003 2.317175 0.033020 0.003819 -689233.000000 0 0 1
-32.394728 12.423453 -33.412932 48.168295 -0.366204 2.337369 0.037383 -0.002476 711085.000000 0 0 1
-33.457828 11.434153 -33.419612 48.652201 -0.329305 2.328023 0.044736 -0.007925 567619.000000 0 0 1
-32.924228 10.012353 -33.677032 48.149710 -0.295217 2.345387 0.043583 -0.000289 38773.300000 0 0 1
-32.407728 9.808053 33.219614 47.434181 -0.293882 0.794936 0.037727 -0.007308 143411.000000 0 0 1
-32.601328 8.437053 33.019560 47.162716 -0.253239 0.795231 0.055680 -0.018198 628654.000000 0 0 1
-31.465328 7.808153 32.105911 45.627006 -0.243238 0.790260 0.073078 -0.014617 1374690.000000 0 0 1
-30.171728 7.761753 32.727184 45.184583 -0.251793 0.760778 0.049168 -0.004149 -202751.000000 0 0 1
-29.325928 7.135053 31.858101 43.884595 -0.238665 0.758379 0.062719 -0.013777 -618268.000000 0 0 1
20.593726 -4.500846 -31.593862 37.980670 -0.215171 2.553212 0.037334 -0.038398 -175306.000000 0 0 1
21.840126 -4.652946 -32.273792 39.245875 -0.209908 2.536323 0.037245 -0.036537 785041.000000 0 0 1
22.858226 -3.795846 -31.735442 39.294341 -0.164559 2.510925 0.040507 -0.030963 353446.000000 0 0 1
22.725126 -2.317846 -32.091112 39.390903 -0.101643 2.522979 0.041830 -0.031445 -1413850.000000 0 0 1
23.728126 -1.498046 -31.650482 39.585618 -0.063050 2.497334 0.044235 -0.025578 -520262.000000 0 0 1
23.582226 -0.226646 -32.170082 39.888431 -0.009611 2.509007 0.047033 -0.025334 -175837.000000 0 0 1
24.567626 0.714154 -31.462112 39.924213 0.029061 2.478425 0.044482 -0.020498 -520845.000000 0 0 1
25.892726 0.527554 -31.831952 41.036383 0.020372 2.458621 0.044800 -0.025739 -615017.000000 0 0 1
26.697526 1.689854 -31.568442 41.378498 0.063212 2.438613 0.048728 -0.016839 1306420.000000 0 0 1
28.244626 1.586054 -31.839782 42.591621 0.056095 2.415177 0.049896 -0.021109 1028490.000000 0 0 1
28.645326 2.178054 -33.085502 43.817224 0.075889 2.426572 0.056383 -0.021650 -13464.000000 0 0 1
28.942326 1.144754 -33.997902 44.663476 0.039532 2.435960 0.048963 -0.023217 -218475.000000 0 0 1
29.485326 1.702354 32.914633 44.222794 0.057672 0.731324 0.050244 -0.027858 -699708.000000 0 0 1
28.630726 2.604454 32.319039 43.255311 0.090717 0.727004 0.035795 -0.016188 -396081.000000 0 0 1
29.048126 3.944854 32.320590 43.634574 0.134978 0.736669 0.045835 -0.008714 -296733.000000 0 0 1
28.046426 4.867754 31.622331 42.547254 0.171849 0.732913 0.039085 -0.006695 -48391.800000 0 0 1
28.438426 6.253054 31.696961 43.041167 0.216436 0.743013 0.055140 -0.013806 880851.000000 0 0 1
27.626026 7.060954 30.768141 41.949170 0.250233 0.747394 0.042644 -0.010809 306555.000000 0 0 1
27.894926 8.583154 31.027411 42.596921 0.298502 0.754819 0.040618 -0.009959 -821483.000000 0 0 1
29.141526 9.020354 30.675051 43.261462 0.300182 0.782629 0.041649 -0.013329 -1184290.000000 0 0 1
29.360126 10.393854 30.969801 43.922406 0.340245 0.788229 0.044633 -0.009580 -166330.000000 0 0 1
30.761926 10.839754 30.524071 44.671191 0.338790 0.818516 0.038222 -0.002843 -170665.000000 0 0 1
31.826926 10.175254 31.246091 45.747210 0.309436 0.818912 0.053234 -0.011125 1319900.000000 0 0 1
33.126526 10.415654 30.672431 46.331961 0.304633 0.847293 0.063308 -0.017262 1082600.000000 0 0 1
33.696426 11.880554 30.703351 47.109367 0.338968 0.860912 0.073147 -0.020796 -869800.000000 0 0 1
34.112626 12.352054 32.002311 48.377602 0.347410 0.847965 0.070954 -0.016163 163887.000000 0 0 1
34.627026 13.673554 31.985561 49.082310 0.376086 0.861010 0.083540 -0.016322 119680.000000 0 0 1
33.525626 14.755654 31.950271 48.605727 0.414616 0.853519 0.073783 -0.023891 -801200.000000 0 0 1
32.993626 14.917054 30.694121 47.468167 0.424615 0.867644 0.062362 -0.030054 38779.800000 0 0 1
32.012726 15.948954 30.632831 47.090913 0.462212 0.862548 0.049881 -0.031483 -66825.500000 0 0 1
30.607926 15.534554 31.070371 46.298331 0.469656 0.835118 0.041956 -0.022091 -840366.000000 0 0 1
29.859326 14.875054 30.029231 44.884310 0.462183 0.837885 0.035494 -0.023879 882272.000000 0 0 1
28.519726 14.584254 30.452561 44.197666 0.472706 0.810676 0.019498 -0.027317 701299.000000 0 0 1
27.620026 13.877154 29.408181 42.664767 0.465590 0.810295 0.012574 -0.015251 129338.000000 0 0 1
28.030026 12.532954 29.041051 42.262749 0.420461 0.813231 0.026654 -0.019905 -264008.000000 0 0 1
27.202626 12.078254 28.014021 40.873616 0.417862 0.815669 0.020412 -0.023354 -329310.000000 0 0 1
27.114226 10.569054 27.679431 40.162633 0.371680 0.810434 0.021287 -0.007934 717374.000000 0 0 1
28.260726 9.865054 27.137731 40.403519 0.335849 0.834339 0.032338 -0.005297 503791.000000 0 0 1
27.863526 8.482854 27.099801 39.783591 0.295528 0.821423 0.042484 -0.001635 304930.000000 0 0 1
28.951026 7.516054 26.596911 40.025600 0.254005 0.843975 0.051522 -0.004916 -37674.400000 0 0 1
29.478426 7.855254 25.321501 39.646703 0.260423 0.878017 0.061663 -0.003800 469864.000000 0 0 1
30.546026 6.959454 24.977421 40.067010 0.224011 0.897724 0.071574 -0.000236 470678.000000 0 0 1
31.091926 7.341654 23.561141 39.695530 0.231880 0.935338 0.083560 0.004075 239759.000000 0 0 1
31.660726 8.668454 23.351061 40.284187 0.267243 0.952487 0.093714 -0.009427 456682.000000 0 0 1
30.740126 9.646554 22.883971 39.518192 0.304078 0.953203 0.097006 -0.011691 8285.470000 0 0 1
30.206726 9.494654 21.435771 38.237247 0.304544 0.975687 0.089767 -0.005316 -38256.600000 0 0 1
31.033926 10.114254 20.463771 38.524909 0.315054 1.010800 0.120513 -0.018061 281911.000000 0 0 1
30.547826 10.005654 19.117871 37.400211 0.316528 1.034251 0.105536 -0.024699 -1055360.000000 0 0 1
31.401226 10.879454 18.182071 37.881225 0.333523 1.070169 0.111173 -0.053199 1698430.000000 0 0 1
32.718826 10.323554 17.846671 38.673001 0.305637 1.091138 0.100238 -0.042591 1385360.000000 0 0 1
33.695926 10.508354 18.830471 40.005344 0.302300 1.080714 0.119924 -0.031020 -277679.000000 0 0 1
35.118226 10.034254 18.363871 40.880409 0.278312 1.104916 0.159418 -0.041845 451506.000000 0 0 1
35.368726 8.656954 18.230971 40.721713 0.240044 1.106609 0.141477 -0.021428 27368.400000 0 0 1
36.483526 8.300154 17.458671 41.288563 0.223697 1.134214 0.153373 -0.026147 -464308.000000 0 0 1
36.524226 6.744354 17.255371 40.954282 0.182597 1.135882 0.147178 -0.030905 -441005.000000 0 0 1
35.486926 6.165854 16.503371 39.619451 0.172033 1.141152 0.104087 -0.030898 -31323.100000 0 0 1
35.820026 4.906654 15.986971 39.531415 0.136134 1.154461 0.113475 -0.029308 115565.000000 0 0 1
34.639026 3.877554 15.938671 38.326737 0.111478 1.141905 0.082335 -0.020908 186925.000000 0 0 1
34.331426 3.293554 17.170271 38.526777 0.095641 1.108873 0.088701 -0.016620 157674.000000 0 0 1
33.219926 2.420354 17.082471 37.433039 0.072730 1.096910 0.050543 -0.005559 97075.500000 0 0 1
32.921126 1.585554 18.305271 37.701425 0.048125 1.063824 0.038517 -0.011951 -214873.000000 0 0 1
33.669426 0.418454 18.407471 38.374996 0.012428 1.070514 0.042875 -0.012693 -351164.000000 0 0 1
33.406726 -0.325246 19.578871 38.722698 -0.009736 1.040699 0.031303 -0.010500 129430.000000 0 0 1
34.116426 -1.693646 19.603471 39.383944 -0.049602 1.049790 0.036552 -0.004408 241386.000000 0 0 1
33.711826 -2.438646 20.747771 39.659856 -0.072212 1.020262 0.031799 0.006661 75864.400000 0 0 1
34.292126 -3.711846 20.711771 40.233135 -0.107822 1.030029 0.028609 0.006286 -145147.000000 0 0 1
33.789626 -4.614646 21.871871 40.514350 -0.135730 1.000532 0.021706 0.016632 53639.600000 0 0 1
34.332226 -4.224946 23.124971 41.609088 -0.122445 0.981511 0.030680 0.004965 287586.000000 0 0 1
33.633026 -4.815946 24.211381 41.720076 -0.142224 0.951663 0.036965 -0.001556 262683.000000 0 0 1
34.067426 -4.284346 25.612571 42.836304 -0.125104 0.929896 0.029514 -0.008044 67534.400000 0 0 1
33.108626 -4.665846 26.555461 42.698287 -0.140003 0.899588 0.036046 -0.007411 -89892.300000 0 0 1
33.476026 -4.158246 27.817881 43.723790 -0.123583 0.881210 0.049583 -0.006875 -64123.300000 0 0 1
32.536026 -4.549646 28.960561 43.795050 -0.138933 0.848279 0.056069 -0.016316 -278020.000000 0 0 1
32.716326 -5.892246 29.348631 44.344320 -0.178191 0.847532 0.061405 -0.022198 452991.000000 0 0 1
31.858726 -6.214046 30.486191 44.530895 -0.192631 0.816731 0.073277 -0.031711 564802.000000 0 0 1
32.004626 -7.702946 30.871291 45.129459 -0.236190 0.817481 0.081221 -0.028213 -21981.900000 0 0 1
33.276226 -7.852946 31.450441 46.455422 -0.231752 0.827114 0.094458 -0.026631 -382359.000000 0 0 1
33.650926 -9.211546 31.377931 46.923469 -0.267193 0.838331 0.088304 -0.021960 -38909.500000 0 0 1
34.996526 -9.522846 32.048501 48.399875 -0.265676 0.847098 0.092091 -0.021134 -79833.200000 0 0 1
34.897826 -9.656146 33.454615 49.298181 -0.269944 0.824917 0.079826 -0.026168 173024.000000 0 0 1
36.017326 -10.275946 34.044966 50.615240 -0.277922 0.833049 0.048029 -0.024893 61698.400000 0 0 1
35.721926 -10.457446 -32.649612 49.511730 -0.284788 2.290859 0.053271 -0.017842 -228512.000000 0 0 1
35.369126 -9.268946 -31.964682 48.565722 -0.256300 2.289187 0.050176 -0.026239 564961.000000 0 0 1
36.367726 -8.242246 -31.898862 49.072228 -0.222871 2.278432 0.053378 -0.018684 90947.400000 0 0 1
35.886526 -6.929846 -31.285562 48.110830 -0.190756 2.278751 0.056584 -0.033497 -289948.000000 0 0 1
36.069426 -6.820046 -29.912762 47.352823 -0.186875 2.254540 0.040759 -0.028005 20613.500000 0 0 1
35.226226 -5.862946 -29.335502 46.215072 -0.164925 2.258495 0.049616 -0.034191 -336029.000000 0 0 1
35.375626 -5.572146 -27.838762 45.359458 -0.156230 2.231581 0.055657 -0.027259 -608669.000000 0 0 1
-36.440628 -5.164846 -27.652282 46.035245 0.140795 2.215143 0.056316 -0.024051 -543427.000000 0 0 1
-36.034828 -5.145746 -26.285062 44.898687 0.141840 2.196207 0.058842 -0.020219 917898.000000 0 0 1
-34.500628 -4.845346 -26.161122 43.568051 0.139530 2.214880 0.076716 -0.015344 173732.000000 0 0 1
-34.231628 -4.575646 -24.805732 42.521351 0.132880 2.193670 0.085785 -0.015603 1467810.000000 0 0 1
-32.830728 -4.454946 -24.408032 41.151614 0.134871 2.205731 0.107123 -0.016380 1737980.000000 0 0 1
-31.911928 -3.392946 -25.066462 40.721134 0.105924 2.233898 0.107515 -0.012951 -480343.000000 0 0 1
-31.383528 -3.883846 -26.271682 41.112181 0.123128 2.264025 0.099497 -0.005810 212511.000000 0 0 1
-30.377728 -2.985546 -26.739922 40.580085 0.097966 2.290208 0.099353 -0.003366 222712.000000 0 0 1
-29.651228 -3.444046 -27.974712 40.910162 0.115634 2.323766 0.090598 -0.001543 105523.000000 0 0 1
-30.557528 -3.512346 -29.091902 42.337193 0.114440 2.328352 0.102667 -0.003089 446794.000000 0 0 1
-30.119428 -4.448946 -30.055102 42.781798 0.146650 2.349730 0.082954 -0.005938 -16780.900000 0 0 1
-31.269528 -4.758846 -31.112562 44.366897 0.151029 2.347954 0.065971 -0.008235 488713.000000 0 0 1
-32.313128 -5.674746 -30.694812 44.927859 0.173845 2.322935 0.068972 -0.014056 634573.000000 0 0 1
-33.266728 -5.126446 -29.817582 44.967142 0.152899 2.295745 0.078790 -0.019233 -300220.000000 0 0 1
-34.281228 -4.117546 -30.510072 46.076255 0.119538 2.294500 0.101386 -0.023668 -660399.000000 0 0 1
-33.871628 -2.839046 -31.106882 46.075867 0.083622 2.311928 0.120171 -0.011531 -117834.000000 0 0 1
-33.193828 -1.905446 -30.277402 44.968679 0.057341 2.309459 0.117875 -0.008151 -42017.700000 0 0 1
-32.900728 -0.583846 -30.990402 45.201812 0.017744 2.326225 0.124168 -0.006468 226236.000000 0 0 1
-34.083328 0.112754 -31.357552 46.313951 -0.003308 2.314563 0.134470 -0.009288 177335.000000 0 0 1
-33.841228 1.316754 -32.039882 46.620989 -0.038890 2.328481 0.132772 -0.003079 42127.700000 0 0 1
-35.190028 2.015954 -32.290822 47.802713 -0.057225 2.312441 0.117649 -0.011808 71060.600000 0 0 1
-35.760428 1.674254 -33.549612 49.063101 -0.046784 2.323762 0.110640 -0.015361 625691.000000 0 0 1
36.117726 2.343954 -33.679332 49.439677 0.064807 2.320225 0.084863 -0.014093 440501.000000 0 0 1
35.245726 1.992454 33.314996 48.539881 0.056470 0.814348 0.070312 -0.010015 34155.600000 0 0 1
35.863126 2.356054 32.088381 48.180691 0.065601 0.841962 0.066601 -0.012062 84174.000000 0 0 1
36.471926 1.264554 31.493381 48.204082 0.034658 0.858816 0.064109 -0.014461 -423624.000000 0 0 1
-36.329528 1.429954 30.004401 47.139617 -0.039340 0.880844 0.067965 -0.016757 22799.400000 0 0 1
-35.404828 2.468354 29.731171 46.298349 -0.069605 0.873477 0.066566 -0.021389 332282.000000 0 0 1
-35.305928 2.690554 28.358731 45.364802 -0.076060 0.895503 0.045948 -0.018071 146196.000000 0 0 1
-34.802528 4.125254 27.967551 44.837681 -0.117983 0.897264 0.047980 -0.011185 -113240.000000 0 0 1
-34.483328 4.351854 26.577741 43.754027 -0.125538 0.917968 0.054367 -0.005550 339826.000000 0 0 1
-33.916628 5.667554 26.410981 43.358952 -0.165573 0.915841 0.063243 -0.007025 180064.000000 0 0 1
-33.064228 5.772254 25.077851 41.898218 -0.172835 0.929116 0.076813 -0.004594 530754.000000 0 0 1
-31.812628 5.095754 25.129051 40.859261 -0.158831 0.908392 0.054632 -0.002633 725809.000000 0 0 1
-30.949228 5.273454 23.994111 39.514319 -0.168770 0.918232 0.053086 0.003051 518359.000000 0 0 1
-31.442028 4.711554 22.578571 38.994766 -0.148742 0.953276 0.067366 -0.002845 -24062.800000 0 0 1
-31.377128 3.308654 22.498671 38.751278 -0.105060 0.951341 0.066277 -0.003270 -191638.000000 0 0 1
-32.087228 2.807454 21.379471 38.659459 -0.087272 0.984811 0.099818 -0.009266 24181.200000 0 0 1
-31.852028 1.320954 20.961171 38.153208 -0.041448 0.989157 0.101629 -0.017687 381098.000000 0 0 1
-30.620528 1.069454 20.276671 36.741038 -0.034912 0.986178 0.109093 -0.015431 466590.000000 0 0 1
-30.668428 1.426554 18.905071 36.055364 -0.046482 1.018863 0.120735 -0.022379 -62179.700000 0 0 1
-29.345928 1.093654 18.185771 34.541306 -0.037250 1.016326 0.115975 -0.026702 -45767.000000 0 0 1
-28.985128 -0.290846 18.043171 34.143495 0.010034 1.014021 0.138914 -0.027887 1032170.000000 0 0 1
-27.696628 -0.601946 17.463571 32.748158 0.021730 1.008336 0.145094 -0.031394 833175.000000 0 0 1
-27.572928 -0.500546 15.959871 31.862743 0.018152 1.046164 0.162158 -0.026523 -314142.000000 0 0 1
-27.429228 0.818354 15.595671 31.563543 -0.029826 1.053992 0.146758 -0.022539 248062.000000 0 0 1
-27.670828 0.979554 14.219871 31.126179 -0.035385 1.096350 0.142606 -0.023389 -130833.000000 0 0 1
-27.196528 2.337354 13.711871 30.547173 -0.085732 1.105290 0.137695 -0.017181 86521.900000 0 0 1
-25.784928 2.436454 13.675471 29.288519 -0.094212 1.084989 0.114034 -0.028101 202190.000000 0 0 1
-25.296828 3.568454 13.002571 28.665837 -0.140139 1.100006 0.109941 -0.028075 132268.000000 0 0 1
-23.779528 3.573454 12.718471 27.202850 -0.149158 1.084288 0.087854 -0.030838 -158298.000000 0 0 1
-22.976328 3.972354 13.784971 27.087205 -0.171197 1.036877 0.059102 -0.020756 93267.000000 0 0 1
-21.682728 4.363954 13.360271 25.839536 -0.198611 1.027398 0.055293 -0.026202 186445.000000 0 0 1
-20.743328 4.907354 14.460371 25.757914 -0.232304 0.974725 0.029878 -0.021450 -274573.000000 0 0 1
-21.107028 6.127754 15.014471 26.617482 -0.282551 0.971474 0.031793 -0.017967 387804.000000 0 0 1
-20.496828 6.329654 16.284971 26.932968 -0.299521 0.921472 0.020782 -0.007321 -224258.000000 0 0 1
-20.815228 7.734754 16.710771 27.791186 -0.355779 0.925672 0.032804 -0.008493 -402512.000000 0 0 1
-20.118928 8.694054 15.923471 27.090861 -0.407897 0.942484 0.034629 -0.019770 375363.000000 0 0 1
-20.558328 10.012454 16.037171 27.930001 -0.453215 0.959180 0.039258 -0.011715 -288535.000000 0 0 1
-20.165028 10.839554 17.321271 28.708025 -0.493228 0.923089 0.046606 -0.013993 -36176.300000 0 0 1
-20.865928 10.441354 18.494471 29.773382 -0.463969 0.900556 0.057059 -0.022025 575807.000000 0 0 1
-20.211628 10.854254 19.704671 30.242335 -0.492831 0.861158 0.050013 -0.020996 48401.500000 0 0 1
-12.338174 -33.804046 -20.430732 41.380658 1.220829 2.087166 0.082873 -0.038251 -19123.100000 0 0 1
-13.330774 -34.018746 -19.437832 41.386156 1.197322 2.059713 0.109437 -0.038663 -594492.000000 0 0 1
-14.390074 -33.145546 -19.615932 41.115523 1.161203 2.068140 0.105389 -0.056533 -129939.000000 0 0 1
-15.698874 -33.754946 -18.990132 41.790862 1.135470 2.042505 0.098544 -0.048415 -625470.000000 0 0 1
-16.180774 33.222154 -19.646832 41.851248 -1.117564 2.059458 0.095030 -0.055827 700635.000000 0 0 1
-17.023874 32.433454 -18.736732 41.143728 -1.087438 2.043614 0.106064 -0.049540 845744.000000 0 0 1
-18.376474 33.023854 -18.246832 41.966851 -1.063006 2.020603 0.113612 -0.048724 -692524.000000 0 0 1
-18.290974 -33.935946 -17.498832 42.336950 1.076449 1.996897 0.113178 -0.039257 939454.000000 0 0 1
-19.598474 -33.673046 -16.916732 42.475287 1.043700 1.980429 0.088238 -0.031798 1171700.000000 0 0 1
-19.955374 33.848454 -15.567032 42.264255 -1.038096 1.948004 0.092607 -0.031686 -494161.000000 0 0 1
-19.982174 32.429054 -15.597432 41.160791 -1.018564 1.959446 0.098928 -0.036761 70140.800000 0 0 1
-20.442874 31.985054 -14.329432 40.574467 -1.002095 1.931747 0.095345 -0.031642 290481.000000 0 0 1
-20.597074 30.430254 -14.229332 39.404488 -0.975769 1.940254 0.091001 -0.030075 1708450.000000 0 0 1
-19.276274 29.876554 -13.937832 38.189611 -0.997805 1.944390 0.104004 -0.040782 1371860.000000 0 0 1
-19.376874 28.516654 -13.825432 37.145732 -0.973966 1.952168 0.092762 -0.036727 -426355.000000 0 0 1
-18.227074 27.745554 -13.180132 35.717753 -0.989560 1.948738 0.093619 -0.033820 -384074.000000 0 0 1
-17.014274 27.967254 -13.873232 35.554457 -1.024249 1.971642 0.117295 -0.035747 -106884.000000 0 0 1
-16.076074 26.914154 -13.616732 34.179339 -1.032358 1.980558 0.112619 -0.036795 320085.000000 0 0 1
-14.691774 27.253954 -14.206832 34.065530 -1.076384 2.000987 0.098712 -0.039513 -181375.000000 0 0 1
-14.682774 27.523554 -15.616332 34.885523 -1.080739 2.034926 0.098240 -0.042451 649003.000000 0 0 1
-13.400674 27.995954 -16.078932 34.955451 -1.124362 2.048773 0.113777 -0.045664 752872.000000 0 0 1
-13.397074 28.187554 -17.598632 35.829201 -1.127117 2.084242 0.132336 -0.057471 105043.000000 0 0 1
-13.134274 26.996354 -18.375332 35.198936 -1.117991 2.120040 0.101927 -0.047519 112052.000000 0 0 1
-13.285274 27.111454 -19.759032 36.082528 -1.115161 2.150298 0.098059 -0.046924 -169854.000000 0 0 1
-12.765674 25.975554 -20.648332 35.553417 -1.114012 2.190470 0.073405 -0.028569 -902542.000000 0 0 1
-11.474874 26.169454 -21.077432 35.507340 -1.157561 2.206331 0.053740 -0.027539 -1010000.000000 0 0 1
-10.811774 25.036254 -21.603932 34.791355 -1.163142 2.240759 0.061766 -0.027499 324123.000000 0 0 1
-9.487574 25.392454 -22.294932 35.097789 -1.213221 2.259094 0.062449 -0.023819 13419.100000 0 0 1
-9.842874 26.082154 -23.470532 36.442102 -1.209941 2.270577 0.059561 -0.022705 519336.000000 0 0 1
-8.697674 26.329554 -24.280132 36.856747 -1.251743 2.289980 0.042659 -0.026059 -44043.000000 0 0 1
-9.040874 26.986854 -25.595852 38.277609 -1.247537 2.303242 0.034513 -0.021483 378067.000000 0 0 1
-10.150174 26.342154 -26.244562 38.544937 -1.203008 2.319763 0.029968 -0.018316 314258.000000 0 0 1
-10.415374 27.042254 -27.458662 39.921694 -1.203155 2.329268 0.039085 -0.013880 -330622.000000 0 0 1
-11.774774 26.628754 -28.020802 40.409172 -1.154462 2.337031 0.044264 -0.008229 -387193.000000 0 0 1
-11.908674 26.915254 -29.379522 41.586100 -1.154238 2.355301 0.042149 -0.004777 -708181.000000 0 0 1
-12.988374 26.272654 -29.957242 41.909266 -1.111664 2.367151 0.036443 -0.003742 -566515.000000 0 0 1
-13.238474 26.552054 -31.451932 43.237632 -1.108281 2.385351 0.020773 0.001225 140082.000000 0 0 1
-12.295574 25.929054 -32.336952 43.233962 -1.128000 2.415768 0.027526 -0.003934 357001.000000 0 0 1
-12.330774 24.491554 -32.428122 42.467250 -1.104376 2.439671 0.046058 -0.005695 306872.000000 0 0 1
-11.743474 23.987054 -33.803712 43.081074 -1.115523 2.472933 0.039788 -0.009679 821193.000000 0 0 1
-12.703174 24.103554 33.370985 43.081023 -1.085763 0.684698 0.047823 -0.007936 671767.000000 0 0 1
-11.979774 23.633154 32.224892 41.719116 -1.101640 0.688146 0.046894 -0.013721 -128258.000000 0 0 1
-12.625574 23.802354 30.876961 40.979799 -1.083099 0.717476 0.054884 -0.010359 -953373.000000 0 0 1
-13.644774 22.903854 30.659811 40.629920 -1.033514 0.715734 0.060179 -0.010628 -866538.000000 0 0 1
-14.203674 22.874654 29.378191 39.850624 -1.015125 0.741868 0.070309 -0.017573 286211.000000 0 0 1
-15.505974 22.012754 29.441191 39.897121 -0.957118 0.740802 0.055238 -0.011673 534039.000000 0 0 1
-15.231974 20.659554 29.751711 39.293696 -0.935483 0.711838 0.054652 -0.015424 47112.600000 0 0 1
-16.490574 20.021354 29.861951 39.554137 -0.881801 0.715197 0.048688 -0.012820 290247.000000 0 0 1
-16.379674 18.516854 30.122371 38.968254 -0.846565 0.687243 0.054369 -0.022245 -52273.800000 0 0 1
-16.190074 17.832154 28.896701 37.618128 -0.833626 0.694836 0.064011 -0.022795 -49285.000000 0 0 1
-15.638574 16.551654 29.084341 36.938072 -0.813756 0.664247 0.059262 -0.034854 17429.700000 0 0 1
-15.052474 15.950654 27.788421 35.400518 -0.814361 0.668145 0.054766 -0.030799 -66899.600000 0 0 1
-13.978074 16.662254 27.238491 34.856171 -0.872778 0.673804 0.059028 -0.028025 -228589.000000 0 0 1
-13.278674 15.934254 26.240291 33.448117 -0.876053 0.668895 0.051496 -0.022039 -400646.000000 0 0 1
-12.016974 16.565054 25.703921 32.855749 -0.943199 0.672404 0.051414 -0.010438 -629422.000000 0 0 1
-12.153374 17.540754 24.642381 32.597998 -0.964875 0.713696 0.050686 -0.011395 -149394.000000 0 0 1
-12.761974 18.759954 25.012361 33.770136 -0.973430 0.736737 0.035691 -0.008306 -180216.000000 0 0 1
-11.814274 19.675454 25.775981 34.512342 -1.030040 0.727465 0.022765 -0.005059 -148248.000000 0 0 1
-11.548074 19.311354 27.133151 35.249032 -1.031853 0.692338 0.046052 -0.010834 135625.000000 0 0 1
-12.525074 19.748654 28.076601 36.540147 -1.005591 0.694495 0.059362 -0.018041 198214.000000 0 0 1
-12.019574 19.486254 29.490871 37.334913 -1.018099 0.660149 0.066781 -0.024103 51691.700000 0 0 1
-10.880674 20.228454 29.873331 37.682825 -1.077298 0.655477 0.052951 -0.025901 -225685.000000 0 0 1
-10.714774 20.142454 31.267001 38.705945 -1.081917 0.630371 0.058632 -0.023298 -59899.400000 0 0 1
-9.554274 20.903954 31.958971 39.365407 -1.142090 0.623475 0.042226 -0.020681 653236.000000 0 0 1
-8.294074 20.248054 31.841631 38.635021 -1.182022 0.602070 0.045138 -0.024680 594727.000000 0 0 1
-7.199974 21.022654 32.317289 39.219877 -1.240831 0.602356 0.037329 -0.025732 570429.000000 0 0 1
-5.934174 20.261254 32.758082 38.972102 -1.285882 0.572495 0.059534 -0.023813 -331227.000000 0 0 1
-6.178874 19.544254 33.937244 39.647104 -1.264592 0.543347 0.054941 -0.024476 -216251.000000 0 0 1
-5.166974 19.238654 -33.348452 38.845112 -1.308415 2.603130 0.046988 -0.020353 -91253.900000 0 0 1
-4.154074 18.143054 -33.773172 38.562338 -1.345714 2.637902 0.042924 -0.021428 49302.500000 0 0 1
-4.689974 16.815454 -33.853292 38.089378 -1.298800 2.665485 0.046820 -0.026161 9540.880000 0 0 1
-4.805874 16.447554 32.997231 37.181120 -1.286516 0.478964 0.027647 -0.013839 28843.600000 0 0 1
-5.562774 15.091454 32.787733 36.520294 -1.217645 0.456060 0.037790 -0.011960 -15250.500000 0 0 1
-4.860074 14.005254 33.310646 36.460480 -1.236781 0.418721 0.043948 -0.013549 235966.000000 0 0 1
-5.647374 12.798254 33.175155 36.003875 -1.155233 0.399044 0.051358 -0.018834 50678.000000 0 0 1
-5.023274 11.493354 33.648937 35.910743 -1.158756 0.356810 0.072119 -0.011977 -162670.000000 0 0 1
-4.762874 11.311654 -33.198342 35.394469 -1.172268 2.787475 0.064754 -0.017052 -273474.000000 0 0 1
-3.992274 10.158654 -33.023472 34.780544 -1.196346 2.822375 0.084073 -0.020405 12167.700000 0 0 1
-4.072274 9.616454 -31.599272 33.280229 -1.170223 2.822406 0.071053 -0.019536 -432307.000000 0 0 1
-5.202574 8.878854 -31.308722 32.956592 -1.040771 2.824028 0.073191 -0.021158 -723394.000000 0 0 1
-5.024874 8.447454 -29.972312 31.542802 -1.034180 2.824708 0.085565 -0.013314 993474.000000 0 0 1
-6.243274 7.660454 -29.314172 30.935121 -0.886975 2.816439 0.072816 -0.015404 956726.000000 0 0 1
-5.789174 6.632154 -28.416692 29.749091 -0.853160 2.841172 0.069495 -0.015381 219709.000000 0 0 1
-6.927274 5.948354 -27.953162 29.406621 -0.709515 2.825875 0.079527 -0.033711 -455204.000000 0 0 1
-6.622074 5.077254 -26.648672 27.924579 -0.654114 2.838135 0.068525 -0.036043 -231222.000000 0 0 1
-6.490574 5.792754 -25.453912 26.899539 -0.728649 2.812260 0.050684 -0.027052 303436.000000 0 0 1
-5.388174 6.650554 -25.248022 26.659425 -0.889876 2.814742 0.039674 -0.024454 -316520.000000 0 0 1
-5.906174 7.764254 -24.299032 26.184146 -0.920490 2.759820 0.014779 -0.010600 235359.000000 0 0 1
-6.082974 7.279754 -22.943332 24.827281 -0.874721 2.749517 0.012060 -0.011134 302428.000000 0 1 0
-7.413674 7.507954 -22.469832 24.823886 -0.791716 2.702575 0.018033 -0.008942 496591.000000 0 1 0
-7.486874 7.630354 -20.961132 23.529655 -0.794889 2.669985 0.016716 -0.005932 -150364.000000 0 1 0
-7.132674 8.976754 -20.602732 23.578162 -0.899374 2.633771 0.003098 0.002007 162194.000000 0 1 0
-6.828774 9.220654 -19.241632 22.402969 -0.933341 2.603890 0.000810 0.005342 -148895.000000 0 1 0
-8.068674 9.338754 -18.310632 22.081555 -0.858231 2.548520 0.002216 0.001309 -424434.000000 0 1 0
-7.786474 9.545454 -16.934132 20.940623 -0.886540 2.512690 -0.006869 0.004419 -375496.000000 0 1 0
-8.870874 9.874354 -16.113332 20.876656 -0.838880 2.452518 -0.000936 -0.001201 -90847.100000 0 1 0
-9.417474 11.353954 -16.281932 21.970490 -0.878358 2.405477 0.003387 -0.005248 379054.000000 0 1 0
-8.451274 12.352754 -15.912432 21.845367 -0.970780 2.386798 -0.015027 -0.005893 213194.000000 0 1 0
-8.962374 13.670754 -16.120432 22.958267 -0.990503 2.349226 0.004300 -0.013600 -79456.900000 0 1 0
-7.980874 14.803354 -15.798932 23.074659 -1.076340 2.324971 0.016607 -0.012199 -355575.000000 0 1 0
-7.445474 14.859854 -14.488232 22.049019 -1.106312 2.287751 0.021293 -0.010737 475693.000000 0 1 0
-8.338874 15.324154 -13.460832 22.035438 -1.072444 2.227958 0.019453 -0.023931 -350331.000000 0 1 0
-7.579774 16.112354 -12.351532 21.670747 -1.131081 2.177258 0.030318 -0.029483 220764.000000 0 1 0
-7.124074 17.378354 -12.743232 22.696907 -1.181751 2.166936 0.039209 -0.025396 338051.000000 0 1 0
-6.013174 17.390854 -13.648332 22.910195 -1.237898 2.208973 0.042380 -0.022226 -112456.000000 0 1 0
-5.787774 18.874254 -14.164432 24.297468 -1.273251 2.193162 0.058764 -0.011920 149278.000000 0 1 0
-5.249474 19.766254 -13.190432 24.336172 -1.311211 2.143623 0.068953 -0.019998 -48547.900000 0 1 0
-5.455374 21.104454 -13.566932 25.675294 -1.317839 2.127516 0.076149 -0.017167 -121166.000000 0 0 1
-4.993274 22.198754 -12.568332 25.993854 -1.349544 2.075458 0.088311 -0.015733 -242932.000000 0 0 1
-5.446474 23.525654 -12.897132 27.376203 -1.343292 2.061342 0.088900 -0.023837 1867250.000000 0 0 1
-6.879974 23.831854 -12.804432 27.914956 -1.289749 2.047322 0.088088 -0.023723 1811640.000000 0 0 1
-7.531974 23.781154 -11.381832 27.419337 -1.264071 1.998852 0.047932 -0.023136 -322063.000000 0 0 1
-7.656774 22.500254 -10.806432 26.108746 -1.242791 1.997531 0.057424 -0.020918 399787.000000 0 0 1
-8.363174 22.465354 -9.529932 25.796403 -1.214421 1.949191 0.062682 -0.025141 350342.000000 0 0 1
-7.608274 23.089254 -8.332932 25.698973 -1.252485 1.901017 0.067457 -0.029334 -8398.770000 0 0 1
-7.468274 24.513254 -8.469332 26.988967 -1.275067 1.889996 0.060597 -0.025721 -188633.000000 0 0 1
-6.965774 25.148754 -7.278932 27.091783 -1.300588 1.842815 0.058613 -0.024315 84239.100000 0 0 1
-7.017674 26.697454 -7.211732 28.530876 -1.313752 1.826338 0.049179 -0.030898 464635.000000 0 0 1
-6.171274 27.485854 -8.087632 29.308132 -1.349934 1.850376 0.044517 -0.032998 189893.000000 0 0 1
-6.513374 27.502254 -9.433932 29.795924 -1.338250 1.892958 0.048227 -0.030034 -114464.000000 0 0 1
-5.816174 28.696954 -10.114032 30.978003 -1.370829 1.903385 0.044909 -0.029703 286297.000000 0 0 1
-6.551374 29.914854 -10.154032 32.263344 -1.355199 1.890962 0.049404 -0.025168 449156.000000 0 0 1
-7.527374 30.006754 -11.229632 32.911568 -1.325012 1.918996 0.060012 -0.025389 973691.000000 0 0 1
-8.650574 31.059954 -10.905332 34.036443 -1.299168 1.896950 0.058279 -0.027971 286521.000000 0 0 1
-9.408074 30.686454 -9.775432 33.551891 -1.273307 1.866437 0.053550 -0.023540 9410.950000 0 0 1
-10.501674 31.600554 -9.654132 34.671060 -1.249953 1.852976 0.043844 -0.023624 187202.000000 0 0 1
-11.716174 31.056654 -8.902932 34.366360 -1.210053 1.832845 0.048140 -0.022024 -12781.200000 0 0 1
-12.383874 30.036954 -9.627032 33.885966 -1.179742 1.858865 0.055614 -0.030887 146818.000000 0 0 1
-13.579874 29.598054 -9.007032 33.787341 -1.140640 1.840639 0.061464 -0.021380 526007.000000 0 0 1
-14.482774 28.507054 -9.599032 33.384791 -1.100736 1.862440 0.066015 -0.022158 -100660.000000 0 0 1
-14.077474 27.187054 -9.372732 32.018109 -1.093010 1.867879 0.052118 -0.023391 -313657.000000 0 0 1
-15.132474 26.311454 -9.666832 31.854859 -1.048865 1.879123 0.073215 -0.026521 -343579.000000 0 0 1
-15.284974 24.952154 -8.931532 30.594324 -1.021184 1.867045 0.069684 -0.030158 -426051.000000 0 0 1
-14.384774 23.927754 -9.256432 29.413274 -1.029513 1.890940 0.067300 -0.027168 -55899.300000 0 0 1
-14.776374 22.698054 -8.630532 28.425850 -0.993720 1.879281 0.080405 -0.030166 -389000.000000 0 0 1
-13.808674 21.597154 -8.944032 27.149811 -1.001927 1.906499 0.083630 -0.034065 -584127.000000 0 0 1
-13.730274 21.296554 -10.297832 27.351581 -0.998143 1.956810 0.075953 -0.030668 90018.400000 0 0 1
-13.051974 20.081954 -10.496832 26.149998 -0.994466 1.983851 0.081362 -0.035582 -380210.000000 0 0 1
-13.171574 19.469654 -11.945832 26.367797 -0.976004 2.040976 0.082677 -0.032553 -279009.000000 0 0 1
-14.424374 18.942954 -12.296332 26.797348 -0.919999 2.047512 0.091785 -0.027729 -290164.000000 0 0 1
-14.501374 18.488654 -13.631432 27.164980 -0.905678 2.096477 0.091188 -0.026889 -438580.000000 0 0 1
-15.934774 18.346954 -14.110332 28.100342 -0.855646 2.096869 0.083204 -0.012380 -411154.000000 0 0 1
-16.600574 19.529454 -14.481932 29.439854 -0.866286 2.085085 0.058839 -0.007473 335408.000000 0 0 1
-17.978474 19.283554 -14.752032 30.210982 -0.820408 2.080937 0.045392 -0.002561 115753.000000 0 0 1
-18.665274 20.378654 -15.525532 31.697384 -0.829253 2.082662 0.047513 -0.009821 -249978.000000 0 0 1
-19.059874 21.550054 -14.836132 32.369653 -0.846641 2.046917 0.049339 -0.012449 436562.000000 0 0 1
-19.770574 22.439754 -15.678532 33.767359 -0.848549 2.053652 0.055502 -0.011676 126077.000000 0 0 1
-20.181674 23.854954 -15.025932 34.671854 -0.868620 2.019031 0.047544 -0.005146 561188.000000 0 0 1
-21.324574 23.713954 -14.172432 34.899096 -0.838400 1.988976 0.050215 -0.002548 624171.000000 0 0 1
-21.762674 24.882454 -13.486432 35.702022 -0.852182 1.958161 0.058771 -0.014625 127342.000000 0 0 1
-26.027014 -0.765146 3.082168 26.220043 0.029390 1.452974 0.152208 -0.049859 -254254.000000 0 0 1
-26.580724 -0.102946 4.157068 26.904028 0.003873 1.415660 0.160811 -0.048738 76687.700000 0 0 1
-27.517864 -0.844646 4.922068 27.967356 0.030685 1.393882 0.146928 -0.047359 183600.000000 0 0 1
-27.894314 0.058854 6.094668 28.552429 -0.002110 1.355686 0.151796 -0.038073 -142597.000000 0 0 1
-28.545694 1.255854 5.713268 29.138896 -0.043966 1.373448 0.167163 -0.042898 -7352.420000 0 0 1
-28.976694 2.092254 6.785468 29.834022 -0.072080 1.341348 0.175964 -0.023011 -256053.000000 0 0 1
-27.936754 2.826054 7.679468 29.110531 -0.100816 1.303833 0.183120 -0.034243 21836.700000 0 0 1
-27.210154 1.897954 8.499968 28.569987 -0.069639 1.268709 0.165701 -0.044655 382361.000000 0 0 1
-26.277124 2.549154 9.347568 28.006472 -0.096708 1.230502 0.165951 -0.049110 362852.000000 0 0 1
-25.312344 1.473454 10.016168 27.261868 -0.058145 1.194578 0.139873 -0.039155 127103.000000 0 0 1
-24.476774 0.747154 9.092868 26.121848 -0.030516 1.215259 0.140552 -0.044227 447385.000000 0 0 1
-24.961274 -0.439646 8.549668 26.388545 0.017611 1.240851 0.125415 -0.034754 -447977.000000 0 0 1
-23.802674 -1.192446 7.838868 25.088584 0.050055 1.253028 0.114093 -0.039839 851257.000000 0 0 1
-22.795674 -1.482046 8.845768 24.496670 0.064923 1.201348 0.107619 -0.053477 205865.000000 0 1 0
-21.583574 -1.871646 8.272968 23.190423 0.086500 1.206020 0.110472 -0.036161 -848361.000000 0 1 0
-20.455874 -2.095846 9.261468 22.552387 0.102101 1.147613 0.084121 -0.022673 -491319.000000 0 1 0
-19.812074 -0.837446 9.575268 22.020566 0.042244 1.120944 0.069110 -0.025131 749544.000000 0 1 0
-20.407374 -0.063146 10.622368 23.006512 0.003094 1.090873 0.085520 -0.033435 -516889.000000 0 1 0
-19.858674 1.404254 10.660968 22.583071 -0.070595 1.079150 0.046556 -0.022150 -816793.000000 0 1 0
-20.345774 2.247754 9.656868 22.633118 -0.110031 1.129989 0.060342 -0.022982 608291.000000 0 1 0
-21.738174 2.504154 9.741068 23.952190 -0.114691 1.151971 0.095432 -0.028221 -560332.000000 0 1 0
-22.206774 3.817054 9.178668 24.330200 -0.170223 1.183967 0.088935 -0.033166 -585886.000000 0 1 0
-21.925174 4.877954 10.050768 24.607430 -0.218916 1.150047 0.068020 -0.033514 562387.000000 0 1 0
-22.475274 6.019354 9.471268 25.121216 -0.261680 1.184217 0.069687 -0.030347 -437915.000000 0 0 1
-22.629274 7.182954 10.479768 25.951963 -0.307360 1.155114 0.074268 -0.029787 526960.000000 0 0 1
-23.622774 6.900354 11.487568 27.159060 -0.284199 1.134072 0.079192 -0.027263 719714.000000 0 0 1
-23.557974 7.880154 12.548368 27.830496 -0.322801 1.103039 0.075114 -0.025045 -181286.000000 0 0 1
-24.300474 7.301154 13.757668 28.863356 -0.291872 1.073958 0.082159 -0.020669 659589.000000 0 0 1
-25.712064 7.245154 13.500068 29.930826 -0.274659 1.102864 0.088263 -0.018890 403977.000000 0 0 1
-26.380814 6.980154 14.698668 30.995495 -0.258665 1.076719 0.085306 -0.016843 -409803.000000 0 0 1
-27.892684 6.842254 14.480068 32.163498 -0.240556 1.103805 0.114114 -0.017943 -375364.000000 0 0 1
-28.239414 5.650754 13.841468 31.952805 -0.197493 1.122773 0.125955 -0.022274 701210.000000 0 0 1
-29.523664 5.878654 13.230668 32.882455 -0.196546 1.156700 0.147690 -0.025781 543842.000000 0 0 1
-30.086124 4.783354 12.247668 32.833835 -0.157669 1.188535 0.166901 -0.026731 63663.900000 0 0 1
-30.486234 3.504954 12.836468 33.263645 -0.114466 1.174612 0.159621 -0.030872 259213.000000 0 0 1
-30.864764 2.557154 11.921168 33.185643 -0.082661 1.203357 0.153270 -0.021015 291078.000000 0 0 1
-32.047454 1.617054 12.368468 34.389434 -0.050415 1.202894 0.131398 -0.010591 414192.000000 0 0 1
-31.682364 0.688754 13.351068 34.387463 -0.021736 1.172060 0.135579 -0.020837 173799.000000 0 0 1
-32.844404 0.098354 13.943068 35.681559 -0.002995 1.169335 0.118300 -0.015720 466480.000000 0 0 1
-32.710094 -1.233446 14.782368 35.916431 0.037691 1.146613 0.125065 -0.023666 -216114.000000 0 0 1
-32.652274 -2.419046 14.037068 35.623897 0.073950 1.165778 0.136003 -0.030568 44284.200000 0 0 1
-32.974924 -3.539746 14.817368 36.323956 0.106937 1.150619 0.150711 -0.027297 -209363.000000 0 0 1
-33.052864 -4.930346 14.158668 36.294187 0.148074 1.170047 0.158564 -0.030817 80351.800000 0 0 1
-34.246195 -5.240146 13.468568 37.170732 0.151836 1.200015 0.111476 -0.034208 126949.000000 0 0 1
-34.208629 -6.545046 12.942568 37.156130 0.189043 1.215008 0.125330 -0.033374 -276785.000000 0 0 1
-35.399212 -6.802146 11.958368 37.978625 0.189841 1.250476 0.126698 -0.022634 353439.000000 0 0 1
36.497840 -6.937646 12.601568 39.230381 -0.187843 1.243779 0.088228 -0.021805 43648.200000 0 0 1
35.808910 -5.710246 12.827968 38.463511 -0.158133 1.230772 0.088049 -0.025801 219875.000000 0 0 1
34.291900 -5.634546 12.474268 36.922755 -0.162856 1.226167 0.067400 -0.025050 745455.000000 0 0 1
33.417700 -6.430346 13.252068 36.519985 -0.190100 1.199449 0.060747 -0.017476 -466.997000 0 0 1
32.062350 -6.144346 12.970268 35.127982 -0.189342 1.192617 0.057371 -0.016129 175067.000000 0 0 1
31.049770 -7.199646 13.458568 34.598499 -0.227848 1.171258 0.030839 -0.016726 19140.000000 0 0 1
30.787400 -7.195546 14.854368 34.932680 -0.229596 1.131582 0.060784 -0.007953 122815.000000 0 0 1
29.918880 -8.302146 15.090668 34.522359 -0.270678 1.118394 0.066321 -0.003182 75308.300000 0 0 1
29.520470 -8.542646 16.556268 34.907663 -0.281686 1.076642 0.040478 0.003092 99035.300000 0 0 1
30.550280 -8.946546 17.470768 36.312367 -0.284881 1.068859 0.024048 0.007453 69612.600000 0 0 1
30.090680 -9.202746 18.759568 36.634150 -0.296800 1.033193 0.019663 0.006246 -131574.000000 0 0 1
31.225780 -9.632046 19.712368 38.162849 -0.299204 1.027999 0.015660 0.016524 183358.000000 0 0 1
32.130500 -8.625746 20.109868 38.873890 -0.262276 1.027091 0.017449 0.009814 80780.700000 0 0 1
33.466310 -9.053946 19.916268 39.982816 -0.264214 1.049366 0.002091 0.021038 474966.000000 0 0 1
34.633350 -8.228646 20.512068 41.084358 -0.233268 1.048044 0.006583 0.005708 342813.000000 0 0 1
34.762380 -8.408546 21.906368 41.940620 -0.237328 1.021229 0.018450 -0.004108 686532.000000 0 0 1
36.133240 -8.219046 22.315968 43.256978 -0.223659 1.028747 0.004823 -0.003064 730761.000000 0 0 1
36.402280 -8.807446 23.725368 44.334977 -0.237386 1.006124 0.020729 -0.004531 -258596.000000 0 0 1
35.867860 -8.078046 24.820568 44.360103 -0.221521 0.976984 0.026593 -0.003435 113707.000000 0 0 1
35.709530 -9.018346 25.903868 45.027896 -0.247375 0.957844 0.034237 -0.015273 117011.000000 0 0 1
35.337630 -8.346246 27.247468 45.396392 -0.231935 0.927030 0.048358 -0.012943 -736693.000000 0 0 1
36.504560 -7.806046 27.708568 46.489590 -0.210665 0.932265 0.043687 -0.025299 -1173210.000000 0 0 1
36.393170 -6.849646 28.682368 46.840780 -0.186036 0.911782 0.036324 -0.029295 -721979.000000 0 0 1
-35.429477 -6.402946 29.272568 46.401819 0.178794 0.888149 0.062615 -0.018654 -466834.000000 0 0 1
-34.995907 -7.294846 30.276968 46.846804 0.205506 0.868074 0.063818 -0.019364 -553783.000000 0 0 1
-33.674534 -7.040146 30.663868 46.084820 0.206096 0.842795 0.070414 -0.025730 -380773.000000 0 0 1
-33.309624 -7.814746 31.922068 46.793373 0.230442 0.820040 0.052359 -0.014446 -74332.400000 0 0 1
-33.236514 -9.231646 31.813768 46.925526 0.270927 0.825808 0.043791 -0.012552 209778.000000 0 0 1
-32.640974 -9.752446 32.972968 47.410547 0.290336 0.801712 0.036120 -0.004691 -149796.000000 0 0 1
-32.731674 -11.299546 32.996068 47.830772 0.332408 0.809514 0.035503 -0.003034 -436743.000000 0 0 1
-34.043856 -11.765046 33.145168 48.948979 0.332736 0.826931 0.032845 -0.009912 -175663.000000 0 0 1
-34.293050 -13.134046 33.004168 49.373996 0.365761 0.838670 0.036168 -0.008340 161718.000000 0 0 1
-35.721997 -13.626346 33.358468 50.739785 0.364418 0.853377 0.028757 -0.011269 150524.000000 0 0 1
-35.951420 -14.968146 33.503068 51.371252 0.394516 0.860346 0.029278 -0.018829 -917484.000000 0 0 1
35.852270 -15.133946 33.815368 51.554832 -0.399428 0.855408 0.012850 -0.016505 -819061.000000 0 0 1
35.311940 -16.591246 33.773468 51.602807 -0.439236 0.857290 0.016232 -0.013395 -355546.000000 0 0 1
35.836620 -17.328646 -33.419036 51.974775 -0.450398 2.269187 0.016236 -0.014353 -220852.000000 0 0 1
35.331540 -18.589146 -33.365336 52.029989 -0.484336 2.266950 0.015686 -0.027904 -325402.000000 0 0 1
35.929070 -19.329046 -32.139536 51.937076 -0.493566 2.238032 0.018853 -0.019359 95208.700000 0 0 1
35.278670 -19.011846 -30.935136 50.626253 -0.494285 2.228182 0.021502 -0.019812 -499731.000000 0 0 1
35.677820 -19.782746 -29.872936 50.563388 -0.506279 2.202848 0.023348 -0.022170 -1842050.000000 0 0 1
34.782310 -19.829746 -28.623136 49.216987 -0.518152 2.191454 0.044454 -0.019193 239343.000000 0 0 1
33.586100 -20.576246 -28.862036 48.830576 -0.549663 2.203175 0.032445 -0.019437 -46717.600000 0 0 1
32.611440 -19.809646 -29.509236 48.236118 -0.545876 2.229088 0.033598 -0.017769 -2495880.000000 0 0 1
31.314670 -20.531346 -29.639636 47.756180 -0.580334 2.240361 0.035670 -0.017842 -841235.000000 0 0 1
30.319710 -19.917846 -30.457536 47.367361 -0.581230 2.269214 0.046620 -0.013357 237001.000000 0 0 1
29.122120 -20.659846 -30.323036 46.844569 -0.617021 2.274849 0.042695 -0.010269 417164.000000 0 0 1
27.916480 -20.169646 -31.179236 46.457392 -0.625667 2.306537 0.039201 -0.005743 341343.000000 0 0 1
28.042680 -20.375246 -32.588236 47.576630 -0.628343 2.325349 0.040243 -0.007631 -143174.000000 0 0 1
26.864480 -20.017746 -33.282936 47.224615 -0.640382 2.352908 0.052688 0.000427 201823.000000 0 0 1
27.056780 -20.076246 33.380868 47.427917 -0.638364 0.790031 0.036421 -0.007531 -265810.000000 0 0 1
28.035280 -19.250146 32.813968 47.257820 -0.601703 0.803265 0.037107 -0.003697 -168145.000000 0 0 1
28.216490 -19.265246 31.409268 46.409720 -0.599065 0.827414 0.029693 -0.008359 -190657.000000 0 0 1
27.219280 -18.490846 30.500868 44.867622 -0.596718 0.823311 0.025258 0.000275 -139525.000000 0 0 1
27.159480 -17.085246 30.770068 44.456046 -0.561522 0.806338 0.033604 -0.004322 482393.000000 0 0 1
26.330280 -16.495546 29.770268 43.030867 -0.559667 0.806769 0.030853 -0.001277 3424.380000 0 0 1
25.998280 -15.042346 30.027568 42.471609 -0.524528 0.785544 0.043315 -0.006405 269107.000000 0 0 1
27.113580 -14.149946 30.089168 42.903673 -0.480995 0.793550 0.052730 -0.012995 438239.000000 0 0 1
26.760080 -12.936546 30.765168 42.777934 -0.450302 0.768170 0.074622 -0.013461 -691017.000000 0 0 1
27.956280 -12.097246 31.130368 43.554526 -0.408391 0.774537 0.080864 -0.017776 -480271.000000 0 0 1
28.610740 -11.659546 29.933768 43.018018 -0.386975 0.801204 0.082678 -0.020388 -38611.600000 0 0 1
29.983180 -11.414646 30.152368 44.027838 -0.363760 0.816402 0.088544 -0.018635 69954.200000 0 0 1
30.685360 -10.847146 28.894968 43.522075 -0.339786 0.844754 0.085560 -0.018502 -54718.200000 0 0 1
30.477240 -9.427746 28.712968 42.920613 -0.300001 0.837963 0.077134 -0.022949 -55211.000000 0 0 1
30.863080 -8.975346 27.405268 42.239025 -0.283006 0.864772 0.073183 -0.018008 139366.000000 0 0 1
30.954400 -7.496246 27.244768 41.912360 -0.237596 0.863157 0.071809 -0.011076 85339.200000 0 0 1
29.698460 -6.850846 27.173668 40.833085 -0.226714 0.842657 0.083944 -0.013244 -349947.000000 0 0 1
29.817730 -5.487746 26.881268 40.519315 -0.182006 0.845418 0.075911 -0.010645 50283.800000 0 0 1
28.434420 -4.806946 26.725768 39.317803 -0.167470 0.823392 0.079689 -0.015383 386833.000000 0 0 1
27.707080 -5.176546 25.562468 38.051526 -0.184702 0.834180 0.074016 -0.007481 205486.000000 0 0 1
26.488980 -4.439746 25.477768 37.020184 -0.166064 0.811773 0.082681 -0.015778 372248.000000 0 0 1
25.622380 -4.923546 24.299968 35.654398 -0.189844 0.820929 0.080800 -0.000286 -25943.700000 0 0 1
26.095480 -4.345446 23.089568 35.113888 -0.165007 0.853218 0.082977 0.006005 323111.000000 0 0 1
25.403080 -4.919646 21.994868 33.960176 -0.191295 0.866279 0.087466 0.000688 113814.000000 0 0 1
25.681680 -4.148246 20.716968 33.255817 -0.160142 0.898278 0.086408 -0.004475 179362.000000 0 0 1
24.999180 -2.896246 20.571968 32.504663 -0.115339 0.885512 0.090516 -0.002984 70551.900000 0 0 1
25.439580 -2.028746 19.498768 32.116818 -0.079579 0.918365 0.086988 -0.007881 -671257.000000 0 0 1
24.394380 -1.019746 19.116068 31.008865 -0.041778 0.906543 0.068136 -0.012657 -322293.000000 0 0 1
23.294280 -1.557046 18.402868 29.727317 -0.066743 0.903256 0.072071 -0.016149 -487188.000000 0 0 1
22.360680 -0.589746 18.083968 28.764174 -0.026368 0.890919 0.072598 -0.016888 -42597.300000 0 0 1
21.090480 -1.090746 17.368568 27.343467 -0.051671 0.882529 0.075130 -0.022564 33955.800000 0 0 1
21.516980 -1.706746 16.162268 26.965020 -0.079155 0.928071 0.074326 -0.020164 103618.000000 0 0 1
20.513580 -2.488046 15.553468 25.863250 -0.120698 0.925578 0.091778 -0.025990 -153386.000000 0 0 1
20.974880 -3.031946 14.199068 25.509837 -0.143557 0.980495 0.089833 -0.037299 -504392.000000 0 0 1
20.001080 -3.828246 13.582868 24.478418 -0.189115 0.982564 0.106963 -0.040983 487400.000000 0 1 0
20.435780 -4.259146 12.287968 24.223038 -0.205475 1.038766 0.098632 -0.034234 -34635.900000 0 1 0
19.378580 -5.170346 11.609968 23.174408 -0.260734 1.046063 0.113313 -0.041830 -250788.000000 0 1 0
19.462480 -6.481046 12.030568 23.780804 -0.321452 1.040378 0.094414 -0.043655 229557.000000 0 1 0
18.254680 -7.176846 11.827268 22.904688 -0.374588 1.028191 0.104840 -0.039320 -477415.000000 0 1 0
18.135780 -8.645546 12.356968 23.587001 -0.444844 1.019386 0.095954 -0.041154 -333060.000000 0 1 0
18.863980 -9.593746 11.592368 24.130327 -0.470484 1.069678 0.084952 -0.043114 194622.000000 0 1 0
18.196580 -10.849046 11.497468 24.104130 -0.537631 1.073568 0.078124 -0.047239 2890.310000 0 1 0
18.719680 -11.769046 10.371168 24.423308 -0.561255 1.132230 0.058804 -0.037906 -65020.200000 0 1 0
18.460380 -11.153746 9.117168 23.416115 -0.543501 1.170866 0.083722 -0.034725 416611.000000 0 1 0
19.115580 -11.803346 8.017068 23.853674 -0.553168 1.228030 0.094838 -0.042935 133738.000000 0 1 0
18.872280 -11.059046 6.679268 22.870900 -0.530057 1.274435 0.096874 -0.030342 66202.300000 0 1 0
19.517980 -9.785046 6.717268 22.843388 -0.464715 1.272327 0.110170 -0.022566 753223.000000 0 1 0
19.494880 -9.207246 5.402268 22.226296 -0.441235 1.325280 0.059396 -0.027132 -493668.000000 0 1 0
20.117580 -7.797146 5.370368 22.234059 -0.369753 1.326846 0.087487 -0.025073 -446196.000000 0 1 0
20.637480 -7.447346 4.123868 22.324310 -0.346321 1.385004 0.084292 -0.023998 641682.000000 0 1 0
21.266380 -6.199446 4.091368 22.526237 -0.283653 1.388156 0.112714 -0.026288 -676392.000000 0 1 0
21.752480 -5.909246 2.637668 22.694644 -0.265257 1.454309 0.107678 -0.030339 618122.000000 0 1 0
20.689880 -5.528246 1.739668 21.486253 -0.261096 1.489741 0.067509 -0.040106 1192910.000000 0 1 0
21.298780 -5.223446 0.535568 21.936482 -0.240500 1.546379 0.082069 -0.029170 -9049.550000 0 1 0
-26.497364 -15.543346 0.601268 30.725680 0.530508 1.551226 0.075052 -0.004959 -923131.000000 0 0 1
-25.681434 -14.721446 -0.154832 29.602044 0.520505 1.576027 0.079659 -0.004226 -957631.000000 0 0 1
-24.350674 -15.129846 -0.191732 28.668874 0.555957 1.577484 0.078864 -0.001045 -108940.000000 0 0 1
-23.449674 -14.648146 0.980468 27.666166 0.558357 1.535350 0.109799 -0.019894 -375677.000000 0 0 1
-23.791874 -15.201046 2.308068 28.327588 0.568545 1.489228 0.084440 -0.003451 -111952.000000 0 0 1
-22.894574 -14.750246 3.285668 27.432224 0.572335 1.450734 0.103445 -0.001758 129402.000000 0 0 1
-23.066174 -15.437146 4.675668 28.146327 0.589792 1.403903 0.083671 0.004437 -183402.000000 0 0 1
-22.856374 -16.835646 4.572368 28.753424 0.634860 1.411098 0.100285 -0.009830 169345.000000 0 0 1
-23.376974 -17.551546 5.660468 29.775503 0.644016 1.379527 0.096981 -0.016985 -188470.000000 0 0 1
-23.567774 -19.083546 5.508068 30.821430 0.680646 1.391122 0.073440 -0.012334 -245223.000000 0 0 1
-24.167674 -19.754346 6.536168 31.890942 0.685253 1.364380 0.067609 -0.021317 -167088.000000 0 0 1
-24.271274 -21.087846 6.180568 32.741280 0.715330 1.380887 0.068697 -0.026911 -279279.000000 0 0 1
-24.939774 -21.944346 7.275768 34.007109 0.721595 1.355181 0.060370 -0.023007 -342255.000000 0 0 1
-24.307574 -22.047846 8.504268 33.901154 0.736689 1.317233 0.066866 -0.022108 -443981.000000 0 0 1
-25.052324 -22.831846 9.381468 35.169931 0.739060 1.300780 0.077160 -0.024665 230220.000000 0 0 1
-24.157774 -23.290446 10.578468 35.184470 0.767121 1.265415 0.059086 -0.029097 411043.000000 0 0 1
-23.983874 -22.285046 11.509268 34.703209 0.748698 1.232746 0.084065 -0.027631 132510.000000 0 0 1
-23.083474 -22.634346 12.546468 34.678152 0.775575 1.200601 0.092030 -0.030123 56213.600000 0 0 1
-23.269774 -21.714746 13.787568 34.685870 0.750844 1.162008 0.073034 -0.020760 -402501.000000 0 0 1
-24.456474 -22.045446 14.446268 35.955743 0.733597 1.157337 0.069187 -0.018091 -572926.000000 0 0 1
-24.688974 -21.148746 15.482268 36.007159 0.708317 1.126328 0.064748 -0.006433 158199.000000 0 0 1
-26.133694 -21.358546 16.016368 37.358821 0.685189 1.127724 0.036762 -0.002895 670270.000000 0 0 1
-27.282454 -21.238646 15.174668 37.758217 0.661476 1.157216 0.032218 -0.001369 548742.000000 0 0 1
-27.499854 -22.322646 14.268368 38.185453 0.681857 1.187845 0.033076 -0.009192 -250293.000000 0 0 1
-28.662344 -23.244446 14.763268 39.746551 0.681397 1.190242 0.028982 -0.011441 139048.000000 0 0 1
-28.380774 -23.843846 16.027768 40.384238 0.698742 1.162679 0.031675 -0.006065 -81117.700000 0 0 1
-29.309024 -24.852346 16.408568 41.783957 0.703298 1.167231 0.008859 -0.004914 39874.700000 0 0 1
-29.139124 -26.247536 15.766968 42.268416 0.733238 1.188534 0.021480 -0.007987 -157611.000000 0 0 1
-29.642624 -26.357566 14.477368 42.225592 0.726804 1.220839 0.018046 -0.016342 -247971.000000 0 0 1
-30.905084 -26.978416 14.446968 43.493379 0.717665 1.232199 0.036885 -0.021515 -203528.000000 0 0 1
-31.475194 -27.247726 13.020668 43.619539 0.713532 1.267670 0.052406 -0.028934 31669.200000 0 0 1
-30.779384 -28.262436 12.302268 43.560092 0.742794 1.284480 0.048943 -0.033554 255594.000000 0 0 1
-31.409194 -28.571386 11.071068 43.879723 0.738121 1.315735 0.055610 -0.022233 84786.800000 0 0 1
-30.698014 -29.755166 10.355068 43.988242 0.769803 1.333161 0.046339 -0.018369 59574.200000 0 0 1
-30.994334 -30.919276 11.054868 45.153743 0.784186 1.323455 0.042089 -0.008945 65205.900000 0 0 1
-30.533834 -32.046056 10.322468 45.451271 0.809558 1.341687 0.060450 -0.016050 -2807.220000 0 0 1
-30.691274 -33.323396 11.188168 46.664528 0.826492 1.328680 0.054832 -0.010764 134562.000000 0 0 1
-32.016364 -33.801216 11.250368 47.897187 0.812510 1.333695 0.041231 -0.002647 -164349.000000 0 0 1
-31.981624 33.033654 11.718068 47.448495 -0.801578 1.321250 0.064025 -0.008339 59546.700000 0 0 1
-33.339544 32.586652 12.349868 48.227941 -0.773978 1.311839 0.065944 -0.000980 1769240.000000 0 0 1
-34.564024 32.398168 11.599568 48.773590 -0.753065 1.330671 0.033733 0.003425 1084450.000000 0 0 1
-34.914783 33.444017 10.693468 49.516610 -0.763886 1.353124 0.053171 0.005163 -770986.000000 0 0 1
-36.311134 33.193666 10.068868 50.216531 -0.740576 1.368919 0.032606 0.012379 189630.000000 0 0 1
-36.363164 32.259397 8.994768 49.435354 -0.725667 1.387827 0.009526 0.014569 432011.000000 0 0 1
35.399920 32.072823 8.669568 48.548756 0.736128 1.391259 -0.001091 0.017140 449061.000000 0 0 1
35.189720 31.392363 7.303368 47.719347 0.728427 1.417144 0.001569 0.012996 -60924.300000 0 0 1
35.580990 30.034763 7.167268 47.111183 0.701073 1.418068 0.024731 0.005883 -22936.900000 0 0 1
35.260420 29.545103 5.863968 46.374524 0.697434 1.444009 0.043401 0.000030 71201.000000 0 0 1
35.412720 28.028403 5.672468 45.517349 0.669523 1.445849 0.048634 -0.002993 250211.000000 0 0 1
34.506160 27.217823 6.429868 44.416530 0.667863 1.425523 0.051335 -0.000476 188364.000000 0 0 1
34.926820 26.861013 7.745568 44.736904 0.655592 1.396783 0.031878 0.007213 18574.900000 0 0 1
34.077180 25.660933 8.195368 43.438482 0.645434 1.380993 0.034995 0.002534 222506.000000 0 0 1
34.168780 24.518993 7.373268 42.697209 0.622431 1.397239 0.041265 -0.002167 -493566.000000 0 0 1
32.995020 23.787273 7.494068 41.360207 0.624639 1.388600 0.034611 -0.001008 -669755.000000 0 0 1
33.055550 22.421153 6.618668 40.486841 0.596004 1.406582 0.050502 -0.005874 250399.000000 0 0 1
33.940650 21.395053 7.061568 40.737965 0.562449 1.396575 0.075733 -0.008941 -99205.100000 0 0 1
35.296270 21.570353 6.749168 41.912505 0.548558 1.409062 0.083882 -0.009611 -402308.000000 0 0 1
36.092950 20.270053 6.852168 41.958650 0.511711 1.406754 0.070960 -0.011484 -134541.000000 0 0 1
35.887180 19.363853 5.814268 41.190463 0.494805 1.429168 0.095066 -0.020596 -348376.000000 0 0 1
-36.289014 18.382253 5.921568 41.107964 -0.468875 1.426244 0.096384 -0.019125 -438323.000000 0 0 1
-36.466994 17.206453 4.942168 40.624238 -0.440864 1.448839 0.094807 -0.027317 -197677.000000 0 0 1
-35.982046 17.464953 3.647968 40.162668 -0.451883 1.479841 0.099919 -0.022364 186228.000000 0 0 1
-36.419734 16.377453 2.806468 40.031166 -0.422593 1.500632 0.110505 -0.027134 -476491.000000 0 0 1
-35.389884 15.855153 1.799168 38.820958 -0.421201 1.524434 0.123999 -0.016525 362893.000000 0 0 1
-34.217633 15.173853 2.225468 37.497266 -0.417395 1.511411 0.119796 -0.027155 77141.100000 0 0 1
-33.159734 15.982153 2.616668 36.903173 -0.449124 1.499830 0.119589 -0.025270 -589384.000000 0 0 1
-31.879504 15.143253 2.897368 35.412083 -0.443461 1.488886 0.087946 -0.021993 127401.000000 0 0 1
-31.925834 14.434453 4.139068 35.280933 -0.424619 1.453208 0.109732 -0.029031 -158910.000000 0 0 1
-30.635374 13.957653 4.373768 33.948079 -0.427506 1.441600 0.086532 -0.024624 -431453.000000 0 0 1
-30.488474 13.212253 5.746468 33.721396 -0.408924 1.399550 0.095809 -0.022671 -150147.000000 0 0 1
-30.695024 11.816853 5.612168 33.366435 -0.367488 1.401795 0.111187 -0.021829 377407.000000 0 0 1
-30.434504 11.142253 6.848168 33.125613 -0.350950 1.362561 0.108499 -0.016211 -100455.000000 0 0 1
-30.830684 9.666953 6.813768 33.021334 -0.303841 1.362959 0.131684 -0.029437 -341249.000000 0 0 1
-32.203974 9.442453 6.935968 34.268988 -0.285214 1.366991 0.130289 -0.026087 -603041.000000 0 0 1
-32.474624 8.109053 6.720468 34.139752 -0.244700 1.372651 0.146239 -0.026498 345620.000000 0 0 1
-33.991444 7.791453 6.511968 35.475777 -0.225326 1.386189 0.140217 -0.020472 489142.000000 0 0 1
-34.632328 7.726053 7.787268 36.328110 -0.219494 1.354761 0.127444 -0.014711 -94109.600000 0 0 1
-35.983874 7.373653 7.590268 37.507627 -0.202117 1.367023 0.095993 -0.011830 -3620.300000 0 0 1
36.466120 6.690653 8.778868 38.100017 0.181458 1.338291 0.094257 -0.014508 -249334.000000 0 0 1
35.903540 7.475453 9.807068 37.962154 0.205277 1.309495 0.088916 -0.013208 23887.000000 0 0 1
-36.310374 8.102753 10.657268 38.699809 -0.219555 1.291808 0.107365 -0.020503 -455856.000000 0 0 1
36.146850 8.977453 11.674168 39.031726 0.243435 1.267053 0.097561 -0.029910 -395810.000000 0 0 1
35.378860 8.269453 12.631968 38.465754 0.229618 1.236192 0.075156 -0.029484 357586.000000 0 0 1
34.853880 9.170353 13.543368 38.500794 0.257278 1.211337 0.108541 -0.038250 -595592.000000 0 0 1
34.137550 8.598253 14.781368 38.181031 0.246739 1.173270 0.098449 -0.041728 -869660.000000 0 0 1
32.804140 8.248553 14.605068 36.843700 0.246342 1.163197 0.074086 -0.038262 -348822.000000 0 0 1
32.223270 7.742853 15.797768 36.713218 0.235817 1.125969 0.078160 -0.028772 1261750.000000 0 0 1
30.681010 7.366953 15.738968 35.260622 0.235653 1.108102 0.055009 -0.016842 288727.000000 0 0 1
29.898170 8.496753 16.023168 34.969090 0.276890 1.094817 0.058731 -0.024325 -1081750.000000 0 0 1
28.566230 8.144953 16.149468 33.810872 0.277755 1.072828 0.061257 -0.017183 -789792.000000 0 0 1
28.053980 7.390953 17.413868 33.836294 0.257601 1.030196 0.053813 -0.021152 -773866.000000 0 0 1
27.851980 8.300953 18.478568 34.439746 0.289656 1.004456 0.073291 -0.025795 62809.600000 0 0 1
27.258580 7.819153 19.684368 34.520192 0.279350 0.964013 0.070027 -0.017031 -155155.000000 0 0 1
27.837580 6.596353 20.394368 35.133644 0.232667 0.951479 0.072403 -0.009397 -125388.000000 0 0 1
27.166680 6.457353 21.634068 35.323629 0.233363 0.911636 0.052990 0.005860 -50368.100000 0 0 1
27.443880 5.306253 22.436168 35.842774 0.190992 0.894434 0.067867 0.003923 -892373.000000 0 0 1
26.747480 5.391653 23.796968 36.204879 0.198911 0.853584 0.081795 0.010378 81399.300000 0 0 1
25.363680 5.135753 23.780868 35.145724 0.199783 0.827612 0.037494 0.013506 125425.000000 0 0 1
24.575780 6.271053 23.354968 34.478248 0.249841 0.826597 0.049334 0.011043 -382087.000000 0 0 1
23.065380 6.017353 23.204468 33.266614 0.255194 0.798851 0.060446 -0.005121 -11100.800000 0 0 1
22.695080 5.301753 22.048768 32.083070 0.229492 0.813114 0.058492 0.002428 -282419.000000 0 0 1
21.308480 5.296553 21.875568 30.994278 0.243628 0.787253 0.042091 0.001434 -1489570.000000 0 0 1
20.673280 3.897153 21.957468 30.408924 0.186325 0.764002 0.058990 -0.001721 501783.000000 0 0 1
19.394180 3.790153 21.344968 29.087920 0.192995 0.746885 0.053617 -0.006620 930499.000000 0 0 1
18.258480 4.475353 21.834968 28.812613 0.240372 0.710821 0.052296 -0.008913 -622615.000000 0 0 1
17.015380 4.378253 20.953568 27.344913 0.251848 0.697782 0.076852 -0.018741 -399057.000000 0 0 1
16.472280 3.051153 20.993568 26.858433 0.183154 0.673509 0.080284 -0.023040 437783.000000 0 0 1
15.410480 2.849453 20.064968 25.459874 0.182839 0.663078 0.095713 -0.031837 -487873.000000 0 0 1
14.293880 1.914953 20.492168 25.058152 0.133177 0.613245 0.101234 -0.030101 -588809.000000 0 0 1
14.728280 0.605753 20.673068 25.390252 0.041105 0.619424 0.075500 -0.023393 61759.000000 0 0 1
13.831880 -0.047747 21.518268 25.580442 -0.003452 0.571298 0.077198 -0.025123 -295254.000000 0 0 1
14.118180 -1.538047 21.735468 25.963804 -0.108513 0.578754 0.049824 -0.012921 6090.950000 0 0 1
13.791580 -2.273847 20.583568 24.880943 -0.163402 0.596543 0.063610 -0.009514 101897.000000 0 1 0
13.987280 -3.668747 20.677868 25.232477 -0.256513 0.610269 0.066492 -0.002211 -206580.000000 0 0 1
13.735980 -4.291547 19.307668 24.080709 -0.302822 0.640512 0.071827 -0.008066 421107.000000 0 1 0
12.345980 -4.467347 19.026868 23.117139 -0.347189 0.604013 0.067120 -0.012395 516220.000000 0 1 0
12.264580 -5.259747 17.865768 22.299563 -0.405133 0.641547 0.076770 -0.012020 91496.300000 0 1 0
10.782180 -5.480547 17.484568 21.260336 -0.470263 0.605174 0.078915 -0.011897 161686.000000 0 1 0
10.163380 -6.386547 18.406268 21.974370 -0.561032 0.577877 0.073341 -0.006520 340369.000000 0 1 0
8.759880 -6.342447 18.110468 21.093865 -0.626674 0.538331 0.066608 -0.016456 975474.000000 0 1 0
7.874280 -7.095947 19.162068 21.898438 -0.733453 0.505272 0.055236 -0.017630 -17362.500000 0 1 0
7.960680 -8.533347 19.064068 22.352385 -0.820104 0.549305 0.052671 -0.018310 -362103.000000 0 1 0
9.074580 -9.119147 19.684668 23.515803 -0.787848 0.578868 0.075625 -0.020722 9451.800000 0 1 0
9.316580 -10.548747 19.111968 23.734827 -0.847345 0.634735 0.087116 -0.026678 216560.000000 0 1 0
9.635380 -10.573247 17.697068 22.755665 -0.831774 0.679798 0.084537 -0.020269 -5088.520000 0 1 0
10.161080 -11.812147 17.351168 23.320321 -0.860397 0.731705 0.078522 -0.018441 185787.000000 0 1 0
9.852280 -12.062047 15.858368 22.227195 -0.885895 0.776363 0.067002 -0.021563 571896.000000 0 1 0
10.592280 -13.161047 15.314768 22.802448 -0.893123 0.834392 0.063295 -0.018840 293544.000000 0 1 0
10.249880 -13.021947 13.944268 21.658110 -0.903956 0.871295 0.059502 -0.016938 155976.000000 0 1 0
10.873780 -14.127847 13.015068 22.073222 -0.914825 0.940194 0.061017 -0.025902 308502.000000 0 1 0
12.237180 -13.951847 12.688368 22.481042 -0.850778 0.971086 0.040340 -0.025139 34875.600000 0 1 0
12.330480 -13.281547 11.434768 21.428815 -0.822515 1.007925 0.019536 -0.020809 -1067170.000000 0 1 0
13.763780 -13.090047 10.992368 21.945913 -0.760315 1.046176 0.045806 -0.025537 -789097.000000 0 1 0
14.406480 -14.190547 10.438768 22.757112 -0.777847 1.094261 0.049594 -0.023593 436069.000000 0 1 0
15.725580 -13.854947 10.002568 23.222936 -0.722244 1.125507 0.049200 -0.030852 344237.000000 0 1 0
16.701680 -15.051447 9.840868 24.542511 -0.733474 1.158218 0.055865 -0.032372 -22428.500000 0 1 0
17.014880 -15.834247 10.987968 25.709238 -0.749473 1.129188 0.053291 -0.021574 -31849.100000 0 0 1
16.022280 -16.692447 11.472068 25.825560 -0.805880 1.110500 0.060654 -0.012777 -173148.000000 0 0 1
16.563680 -17.344447 12.773068 27.172349 -0.808420 1.081420 0.046712 -0.010602 146963.000000 0 0 1
17.710880 -18.137447 12.513368 28.270596 -0.797297 1.112269 0.065181 -0.024287 114543.000000 0 0 1
18.152180 -18.878547 13.624968 29.521872 -0.805011 1.091087 0.053700 -0.019761 16356.100000 0 0 1
19.334280 -19.825447 13.290568 30.716476 -0.797940 1.123327 0.022864 -0.024232 669455.000000 0 0 1
20.453280 -19.037547 12.868868 30.763169 -0.749564 1.139201 0.028115 -0.030391 -51900.700000 0 0 1
21.676980 -19.751347 12.866068 32.024098 -0.738951 1.157356 0.019247 -0.034649 504064.000000 0 0 1
22.744680 -19.066347 11.997568 32.012305 -0.697649 1.186637 0.034188 -0.029762 -422353.000000 0 0 1
22.556380 -19.250047 10.595468 31.489975 -0.706476 1.227629 0.030871 -0.029123 771254.000000 0 0 1
21.356280 -18.778147 9.924168 30.119737 -0.721249 1.235032 0.046563 -0.031369 651562.000000 0 0 1
21.049380 -17.182547 9.999968 28.953681 -0.684599 1.218155 0.089455 -0.028392 -75696.300000 0 0 1
21.982880 -16.309747 9.398568 28.941111 -0.638316 1.240051 0.086145 -0.021180 34359.300000 0 0 1
21.428180 -15.010147 9.102768 27.700754 -0.611052 1.235964 0.100343 -0.034858 188639.000000 0 0 1
-34.990339 24.456954 8.727168 43.573270 -0.610030 1.369145 0.085139 0.006596 733862.000000 0 0 1
-33.946244 23.818554 9.526868 42.549174 -0.611836 1.344979 0.096926 -0.016205 937471.000000 0 0 1
-32.966064 24.817454 9.810668 42.413637 -0.645302 1.337373 0.102465 -0.005678 161235.000000 0 0 1
-31.657844 24.161654 10.373568 41.153560 -0.651903 1.315978 0.118381 -0.031090 65910.900000 0 0 1
-30.871754 23.644854 9.360968 39.997150 -0.653603 1.334564 0.104754 -0.027011 -464002.000000 0 0 1
-30.181024 22.501154 9.760068 38.890295 -0.640640 1.317120 0.102479 -0.031735 116618.000000 0 0 1
-29.419904 21.778654 8.612368 37.603369 -0.637244 1.339713 0.086770 -0.039546 -81802.200000 0 0 1
-30.248434 20.952154 7.865768 37.627527 -0.605789 1.360200 0.087429 -0.041291 -495439.000000 0 0 1
-29.545754 20.161654 7.012868 36.450297 -0.598807 1.377194 0.083976 -0.040060 -250101.000000 0 0 1
-30.451704 19.264254 6.095168 36.545435 -0.564058 1.403230 0.078760 -0.028334 -142683.000000 0 0 1
-31.045614 18.200654 6.732368 36.611729 -0.530252 1.385858 0.089957 -0.031802 -455611.000000 0 0 1
-31.954934 17.642554 5.868368 36.970465 -0.504460 1.411391 0.076546 -0.025943 -669755.000000 0 0 1
-32.723454 16.394554 6.369668 37.150754 -0.464450 1.398490 0.079993 -0.019532 -487037.000000 0 0 1
-33.550444 16.716254 7.441968 38.215812 -0.462241 1.374809 0.083316 -0.024761 76798.600000 0 0 1
-34.366032 15.579254 7.723268 38.514753 -0.425622 1.368900 0.092367 -0.027811 395384.000000 0 0 1
-35.321998 15.627354 8.968868 39.652217 -0.416537 1.342634 0.103658 -0.029399 293321.000000 0 0 1
-36.277774 16.650354 8.859468 40.887667 -0.430287 1.352386 0.108883 -0.031529 110474.000000 0 0 1
35.971250 16.634554 9.982568 40.869192 0.433151 1.324043 0.128302 -0.026323 279852.000000 0 0 1
35.073910 17.899654 10.060768 40.642291 0.471886 1.320651 0.111993 -0.028138 296933.000000 0 0 1
34.000050 17.827554 9.130068 39.461161 0.482929 1.337312 0.106265 -0.029189 147909.000000 0 0 1
33.153790 18.945854 9.193368 39.276420 0.519165 1.334536 0.086318 -0.019386 -262338.000000 0 0 1
31.719570 18.796454 8.670668 37.876355 0.534947 1.339828 0.054985 -0.017373 -729558.000000 0 0 1
30.995650 19.926854 9.016768 37.935629 0.571362 1.330813 0.041083 -0.006944 191824.000000 0 0 1
29.665810 19.989154 8.484368 36.764263 0.592932 1.337920 0.018712 -0.007740 759700.000000 0 0 1
29.402390 19.983054 6.934968 36.220391 0.596931 1.378141 0.010633 -0.004325 -889448.000000 0 0 1
29.478940 18.763054 6.243868 35.497126 0.566819 1.393979 0.039323 -0.005675 170876.000000 0 0 1
29.102340 18.813954 4.835568 34.989909 0.573894 1.432154 0.046148 -0.013431 -86524.500000 0 0 1
27.652180 19.211554 4.443168 33.962753 0.607199 1.439596 0.073090 -0.010046 -1876370.000000 0 0 1
26.802080 18.261754 4.981068 32.812409 0.598103 1.418403 0.067458 -0.010372 -684128.000000 0 0 1
25.446380 18.510054 4.706268 31.816494 0.628889 1.422332 0.080752 -0.009188 223781.000000 0 0 1
24.763580 19.890954 5.109868 32.171349 0.676710 1.411288 0.095372 -0.008326 -1283180.000000 0 0 1
25.177180 20.980654 4.362268 33.062178 0.694731 1.438469 0.080671 -0.010642 -169661.000000 0 0 1
24.735280 22.240354 4.817368 33.610630 0.732337 1.426972 0.080800 -0.010310 -628311.000000 0 0 1
25.650680 23.414854 4.495168 35.020270 0.739862 1.442082 0.042542 -0.002631 -672997.000000 0 0 1
26.848380 23.300554 5.231968 35.932225 0.714770 1.424670 0.049130 -0.005442 -687689.000000 0 0 1
27.658980 24.357354 4.935868 37.184172 0.722010 1.437662 0.045091 -0.000014 -1202630.000000 0 0 1
29.027240 24.359154 5.672868 38.316191 0.698180 1.422196 0.022778 -0.000813 688085.000000 0 0 1
30.016490 23.374854 5.264168 38.406834 0.661639 1.433300 0.016168 -0.005385 754946.000000 0 0 1
30.357420 23.278654 3.892868 38.452868 0.654179 1.469385 0.023992 -0.011627 -1101070.000000 0 0 1
31.180380 24.372954 3.255068 39.709601 0.663467 1.488732 0.054181 -0.018884 -745016.000000 0 0 1
30.516710 25.622554 3.250868 39.979407 0.698439 1.489393 0.027101 -0.020726 5829.620000 0 0 1
31.273740 26.640554 2.594468 41.164271 0.705567 1.507727 0.075523 -0.016477 -460220.000000 0 0 1
30.811870 28.120154 2.811068 41.809287 0.739755 1.503510 0.063588 -0.013159 1241010.000000 0 0 1
29.539760 28.573454 2.297668 41.162106 0.768772 1.514947 0.089613 -0.023765 1078310.000000 0 0 1
28.344990 28.019654 2.825868 39.956539 0.779626 1.500014 0.059074 -0.008563 197599.000000 0 0 1
27.088480 28.663354 2.184068 39.498655 0.813639 1.515473 0.028240 -0.007334 140513.000000 0 0 1
27.010180 29.975354 2.655768 40.436676 0.837385 1.505072 0.026372 -0.018621 -33153.400000 0 0 1
25.806980 30.569854 2.219568 40.067975 0.869681 1.515373 0.031820 -0.003990 89081.700000 0 0 1
25.541880 31.998954 2.759468 41.035781 0.897148 1.503500 0.040802 -0.016626 -533482.000000 0 0 1
25.313080 31.996854 4.117368 41.006138 0.901499 1.470218 0.036250 -0.039940 276989.000000 0 0 1
26.476480 32.058754 4.942468 41.871179 0.880477 1.452481 0.028361 -0.034615 116870.000000 0 0 1
26.238480 31.643654 6.401068 41.602311 0.878511 1.416319 0.044832 -0.044307 -206742.000000 0 0 1
25.965880 30.266654 6.731168 40.442624 0.861732 1.403581 0.055040 -0.045928 534487.000000 0 0 1
26.893780 29.211054 6.344768 40.209665 0.826677 1.412342 0.042965 -0.042158 449420.000000 0 0 1
26.456080 27.831454 6.878268 39.010570 0.810728 1.393552 0.058191 -0.035962 109834.000000 0 0 1
25.216580 27.442554 6.323868 37.801600 0.827644 1.402715 0.048369 -0.039958 51718.800000 0 0 1
24.777280 26.154454 6.685868 36.642460 0.812431 1.387306 0.068563 -0.035663 -383493.000000 0 0 1
23.395980 25.721054 6.150868 35.309739 0.832700 1.395706 0.078703 -0.021578 -152139.000000 0 0 1
23.258080 25.537754 4.729068 34.863724 0.832083 1.434733 0.048173 -0.018062 79748.900000 0 0 1
23.440280 26.725154 3.979168 35.770300 0.850786 1.459323 0.044353 -0.016726 -486843.000000 0 0 1
23.425880 26.495254 2.487768 35.453622 0.846805 1.500569 0.048428 -0.001749 -667182.000000 0 0 1
24.474080 25.727554 2.027068 35.566791 0.810362 1.513772 0.037128 0.011978 -471114.000000 0 0 1
24.572980 25.850054 0.622868 35.671341 0.810720 1.553334 0.049175 0.002511 -169352.000000 0 0 1
25.810380 25.166054 0.002468 36.048661 0.772759 1.570728 0.050762 -0.004242 -520971.000000 0 0 1
26.990580 26.034954 0.056568 37.500846 0.767378 1.569288 0.057607 0.000628 957056.000000 0 0 1
28.064180 25.420554 -0.610732 37.870513 0.736011 1.586924 0.061074 0.006252 -144180.000000 0 0 1
28.698610 24.159254 0.007168 37.513728 0.699730 1.570605 0.058031 -0.003043 -901227.000000 0 0 1
27.861680 22.984754 -0.144832 36.119151 0.689776 1.574806 0.055716 -0.000515 554088.000000 0 0 1
28.282420 21.966954 0.767168 35.819420 0.660371 1.549377 0.061996 -0.007689 583178.000000 0 0 1
27.117480 20.991454 1.222768 34.314633 0.658743 1.535155 0.059318 -0.011905 735253.000000 0 0 1
26.528780 20.216554 0.161168 33.354328 0.651176 1.565964 0.084305 -0.029840 238947.000000 0 0 1
25.497380 19.425954 0.660068 32.061188 0.651061 1.550207 0.083332 -0.018756 -526738.000000 0 0 1
24.596780 18.652854 -0.307132 30.871101 0.648821 1.580745 0.094509 -0.023959 -424785.000000 0 0 1
23.474480 18.093354 0.332668 29.640029 0.656660 1.559573 0.084141 -0.017029 61898.800000 0 0 1
22.980180 17.009854 -0.465332 28.594411 0.637197 1.587071 0.102633 -0.037809 595488.000000 0 0 1
21.464580 16.685854 -0.259532 27.188477 0.660787 1.580342 0.087213 -0.017496 -592671.000000 0 0 1
20.944580 15.713954 -1.131632 26.208479 0.643670 1.613988 0.087884 -0.021993 933692.000000 0 0 1
19.566280 15.476454 -0.807032 24.960193 0.669214 1.603135 0.086161 -0.019729 586886.000000 0 1 0
18.529280 16.503654 -1.267332 24.845743 0.727642 1.621827 0.082620 -0.023347 -1242720.000000 0 1 0
18.469480 17.718854 -0.527732 25.599960 0.764659 1.591412 0.080258 -0.020623 -513368.000000 0 0 1
17.425880 18.572654 -0.847432 25.481815 0.817244 1.604059 0.053332 -0.020535 -508746.000000 0 0 1
17.439280 19.972654 -0.235032 26.515856 0.853011 1.579660 0.055764 -0.018952 -222660.000000 0 0 1
17.069680 20.057454 1.142068 26.362468 0.865699 1.527461 0.061598 -0.012245 68342.700000 0 0 1
17.109580 21.373454 1.667968 27.428897 0.895747 1.509948 0.077906 -0.012783 413090.000000 0 0 1
15.956880 22.377854 1.280968 27.514201 0.951355 1.524223 0.061364 -0.017868 464656.000000 0 0 1
14.725980 22.167754 1.955068 26.684941 0.984436 1.497466 0.049703 -0.013431 56099.800000 0 0 1
13.844680 23.194054 1.466968 27.051641 1.032655 1.516541 0.050322 -0.015219 617505.000000 0 0 1
12.440480 23.005554 2.136268 26.240897 1.075075 1.489296 0.055477 -0.016483 507288.000000 0 0 1
12.407280 23.441554 3.505968 26.753296 1.083996 1.439370 0.056828 -0.008735 -3795.010000 0 0 1
11.078580 23.454754 3.989268 26.244517 1.129522 1.418201 0.052773 -0.006373 222055.000000 0 0 1
10.977480 23.610554 5.515368 26.615458 1.135588 1.362060 0.055424 -0.013358 -249191.000000 0 0 1
11.629680 22.613454 6.256468 26.187041 1.095789 1.329548 0.060689 -0.040453 94545.100000 0 0 1
10.942280 22.207954 7.435868 25.849929 1.112990 1.279019 0.049433 -0.036378 -877055.000000 0 0 1
11.784280 21.177254 8.146768 25.567854 1.063007 1.246509 0.056105 -0.034243 354540.000000 0 0 1
12.999480 21.648754 8.738868 26.721205 1.030030 1.237628 0.063653 -0.030017 -89689.100000 0 0 1
14.041880 21.491754 7.829768 26.839805 0.992062 1.274769 0.074600 -0.037524 -994726.000000 0 0 1
15.433280 21.490954 8.512268 27.793991 0.948006 1.259532 0.080293 -0.040395 -176413.000000 0 0 1
15.618480 20.320154 9.316268 27.269734 0.915484 1.222141 0.086783 -0.037313 1040870.000000 0 0 1
16.952780 20.341454 9.898668 28.269332 0.876013 1.213059 0.075645 -0.037068 1239930.000000 0 0 1
17.207980 21.252354 11.103568 29.513833 0.890170 1.185088 0.054689 -0.027386 -422774.000000 0 0 1
16.468980 20.867054 12.226568 29.260044 0.902655 1.139709 0.055193 -0.028759 -28994.500000 0 0 1
16.587080 21.776854 13.286968 30.428705 0.919859 1.118915 0.048402 -0.015046 877294.000000 0 0 1
17.710880 21.474854 14.426768 31.352452 0.881159 1.092634 0.050346 -0.013165 2505720.000000 0 0 1
19.077780 21.628454 13.965868 32.043676 0.847977 1.119827 0.054156 -0.016431 673851.000000 0 0 1
20.005180 21.107854 14.877968 32.666537 0.812212 1.097919 0.043062 -0.016825 1361150.000000 0 0 1
21.493080 21.586754 14.557568 33.761860 0.787573 1.124992 0.047254 -0.018839 1354100.000000 0 0 1
22.000580 21.039554 13.336268 33.234686 0.763073 1.157887 0.039061 -0.017570 -663981.000000 0 0 1
23.310480 21.506854 13.239468 34.368688 0.745176 1.175351 0.055090 -0.020977 -317062.000000 0 0 1
24.256180 20.928854 12.160568 34.267457 0.711893 1.208019 0.062373 -0.018466 43158.400000 0 0 1
24.097680 21.585954 10.939468 34.151479 0.730473 1.244727 0.084499 -0.025101 498499.000000 0 0 1
24.916080 21.000854 9.915468 34.061171 0.700336 1.275412 0.086004 -0.032352 -126939.000000 0 0 1
24.897480 21.810254 8.566368 34.189974 0.719397 1.317546 0.077453 -0.030973 -33150.200000 0 0 1
25.387780 23.105554 8.643368 35.399347 0.738370 1.324135 0.068425 -0.024304 -247934.000000 0 0 1
26.775380 23.288254 8.564368 36.504960 0.715857 1.333981 0.054746 -0.027492 -473507.000000 0 0 1
27.279980 24.522654 9.367568 37.859070 0.732221 1.320767 0.059438 -0.030313 -484300.000000 0 0 1
28.518720 25.043554 8.998268 39.005971 0.720608 1.338010 0.047468 -0.018584 -410536.000000 0 0 1
28.717390 26.311454 9.621668 40.119292 0.741705 1.328609 0.059017 -0.020576 481537.000000 0 0 1
30.037430 26.998254 9.139268 41.408684 0.732163 1.348255 0.047512 -0.016303 461638.000000 0 0 1
30.044700 27.592054 7.877768 41.545934 0.742870 1.380025 0.053128 -0.016228 203474.000000 0 0 1
31.321210 28.125654 7.557968 42.769071 0.731695 1.393148 0.044152 -0.004008 76506.500000 0 0 1
31.359960 29.054854 6.285868 43.210459 0.747262 1.424807 0.046548 -0.009050 -102500.000000 0 0 1
31.027990 30.350754 6.562768 43.897316 0.774365 1.420731 0.051893 -0.013916 40961.900000 0 0 1
30.858910 31.164954 5.436168 44.193649 0.790332 1.447476 0.062915 -0.019676 39509.500000 0 0 1
30.811460 32.662854 5.810468 45.276590 0.814558 1.442109 0.033716 -0.012287 471748.000000 0 0 1
29.604440 33.124654 6.423068 44.887875 0.841457 1.427212 0.037389 -0.020202 349968.000000 0 0 1
29.538960 -33.693246 6.714768 45.308642 -0.851003 1.422048 0.035044 -0.009924 -548457.000000 0 0 1
28.175180 -33.193046 7.175868 44.126094 -0.866983 1.407449 0.063850 -0.025006 -423892.000000 0 0 1
27.201380 -33.327846 6.180668 43.461029 -0.886270 1.428101 0.066366 -0.032740 -695192.000000 0 0 1
25.973280 -32.761046 6.566268 42.320365 -0.900455 1.415011 0.064332 -0.038138 53579.100000 0 0 1
24.860480 -32.934946 5.510068 41.630697 -0.924207 1.438051 0.071705 -0.037568 -109407.000000 0 0 1
25.203380 -32.286146 4.289068 41.182541 -0.907981 1.466459 0.040354 -0.022145 588038.000000 0 0 1
24.188180 -32.488646 3.275768 40.636324 -0.930817 1.490097 0.041673 -0.026451 567366.000000 0 0 1
24.615280 -31.801946 1.960668 40.263134 -0.912100 1.522081 0.039861 -0.012060 193164.000000 0 0 1
24.544780 -30.396746 2.017668 39.121342 -0.891511 1.519199 0.042119 -0.001056 -22286.500000 0 0 1
25.256880 -29.918946 0.893768 39.164424 -0.869693 1.547973 0.031463 0.000413 -417204.000000 0 0 1
25.539380 -28.373846 1.073068 38.190137 -0.837924 1.542695 0.031088 0.000660 97702.400000 0 0 1
24.429580 -27.513246 1.328568 36.817770 -0.844695 1.534704 0.027697 0.004469 220509.000000 0 0 1
23.612380 -27.295446 0.172568 36.091767 -0.857620 1.566015 0.029642 0.004359 360174.000000 0 0 1
22.521380 -26.204546 0.346968 34.554467 -0.860844 1.560755 0.024293 0.007604 226826.000000 0 0 1
23.042780 -24.842846 0.354168 33.886017 -0.822971 1.560344 0.018680 -0.000878 12380.300000 0 0 1
23.237480 -24.248046 1.625268 33.624243 -0.806677 1.522441 0.013993 0.001395 910565.000000 0 0 1
21.908980 -24.033546 2.456368 32.613624 -0.831609 1.495408 0.017039 -0.000554 772542.000000 0 0 1
22.104580 -23.294446 3.593568 32.313424 -0.811601 1.459356 0.018308 -0.005376 -126348.000000 0 0 1
20.891980 -23.097646 4.300068 31.439889 -0.835497 1.433595 0.015300 -0.004323 173123.000000 0 0 1
21.087680 -22.260846 5.584068 31.167568 -0.812455 1.390661 0.016890 -0.010911 12832.100000 0 0 1
21.231180 -20.865146 5.429868 30.258896 -0.776703 1.390372 0.043926 -0.011675 340769.000000 0 0 1
20.092180 -20.210046 4.862868 28.910018 -0.788323 1.401786 0.035391 -0.003892 -255668.000000 0 0 1
19.945580 -18.707346 5.138968 27.824449 -0.753374 1.385037 0.049806 -0.004625 135724.000000 0 0 1
19.223780 -18.202146 6.243868 27.200326 -0.758107 1.339180 0.078415 -0.020139 123313.000000 0 0 1
17.828780 -18.441646 6.208168 26.391306 -0.802294 1.333336 0.045943 -0.019298 -70081.400000 0 0 1
18.853126 -26.033306 -11.961232 34.296421 -0.944018 1.927044 0.111632 -0.029236 239898.000000 0 0 1
19.049426 -24.678646 -12.077532 33.433262 -0.913426 1.940397 0.125832 -0.028638 -320024.000000 0 0 1
18.016126 -24.130346 -12.852232 32.741935 -0.929464 1.974178 0.099150 -0.025018 136138.000000 0 0 1
18.318126 -22.633046 -13.134832 31.942641 -0.890378 1.994567 0.089033 -0.026569 141108.000000 0 0 1
18.195126 -21.757546 -12.019832 30.804704 -0.874329 1.971639 0.093189 -0.025506 -41854.200000 0 0 1
19.390326 -21.575546 -11.270232 31.120846 -0.838690 1.941363 0.087455 -0.030166 -328748.000000 0 0 1
19.441026 -22.282146 -9.884132 31.179218 -0.853388 1.893372 0.084823 -0.018926 56777.800000 0 0 1
18.461426 -21.883746 -8.942532 29.994858 -0.870022 1.873535 0.088999 -0.019804 78757.400000 0 0 1
17.190326 -22.502046 -9.137432 29.754698 -0.918430 1.882932 0.083976 -0.004392 76314.200000 0 0 1
16.230126 -21.959446 -8.056432 28.469991 -0.934311 1.857696 0.065616 -0.004480 -983730.000000 0 0 1
16.105426 -20.600446 -8.302832 27.435381 -0.907252 1.878250 0.056472 -0.007817 179489.000000 0 0 1
15.265726 -19.926546 -7.376632 26.163416 -0.917071 1.856617 0.052676 -0.015402 -778366.000000 0 0 1
13.791926 -19.951346 -7.710232 25.450366 -0.965948 1.878585 0.039901 -0.000535 -1270810.000000 0 0 1
13.241826 -21.246546 -7.571632 26.155139 -1.013459 1.864490 0.039734 0.000420 419498.000000 0 0 1
11.823326 -21.118446 -7.796232 25.427565 -1.060416 1.882421 0.033279 -0.008237 906206.000000 0 0 1
11.060826 -22.476446 -7.576332 26.171231 -1.113483 1.864491 0.026457 -0.001011 35550.600000 0 0 1
10.962626 -22.823046 -6.212732 26.070456 -1.123007 1.811417 0.038810 -0.003064 360604.000000 0 0 1
10.474326 -24.155546 -5.924832 26.987137 -1.161647 1.792142 0.031399 0.001044 97037.400000 0 0 1
10.928626 -24.615946 -4.560132 27.316195 -1.152972 1.738520 0.046306 -0.007827 -396470.000000 0 0 1
10.345726 -25.798226 -4.159032 28.104805 -1.189407 1.719325 0.056267 -0.008126 -455526.000000 0 0 1
10.867926 -26.318076 -2.961432 28.627313 -1.179180 1.674430 0.048157 -0.010195 211059.000000 0 0 1
9.820426 -27.086786 -2.087432 28.887577 -1.222982 1.643120 0.052162 -0.012286 410338.000000 0 0 1
8.895626 -26.281356 -1.411332 27.781895 -1.244424 1.621619 0.051973 -0.009269 -582626.000000 0 0 1
8.244926 -27.052266 -0.457932 28.284512 -1.274962 1.586987 0.057943 -0.018256 -206925.000000 0 0 1
7.489526 -26.256886 0.615668 27.311099 -1.292935 1.548252 0.056070 -0.013412 239805.000000 0 0 1
6.179826 -25.852516 0.253568 26.582083 -1.336158 1.561257 0.061985 -0.020103 -139439.000000 0 0 1
5.536726 -25.270996 1.378968 25.907145 -1.355110 1.517544 0.067955 -0.017709 -427984.000000 0 0 1
4.122126 -24.827946 1.035668 25.189114 -1.406269 1.529669 0.048695 -0.023880 -209627.000000 0 0 1
3.240926 -25.894156 0.684868 26.105171 -1.446283 1.544558 0.046635 -0.027672 -1215730.000000 0 0 1
1.965926 -25.406276 0.586868 25.488981 -1.493571 1.547770 0.043499 -0.024509 -947230.000000 0 0 1
0.894026 -26.423726 0.126168 26.439147 -1.536975 1.566024 0.054718 -0.023668 152222.000000 0 0 1
0.602126 -27.488976 0.985868 27.513239 -1.548896 1.534956 0.051126 -0.018218 -99061.900000 0 0 1
1.432826 -28.628526 0.839968 28.676664 -1.520789 1.541501 0.033394 -0.022940 -75765.000000 0 0 1
0.803526 -29.846046 1.613368 29.900419 -1.543880 1.516812 0.056825 -0.019708 206978.000000 0 0 1
0.847726 -29.530536 2.992368 29.693863 -1.542097 1.469851 0.046756 -0.017633 -261681.000000 0 0 1
0.421226 -30.538936 3.801968 30.777573 -1.557004 1.446950 0.063292 -0.018599 -210915.000000 0 0 1
0.542526 -30.420266 5.328568 30.888195 -1.552964 1.397418 0.062829 -0.014224 -17438.500000 0 0 1
1.857526 -30.644096 5.807768 31.244859 -1.510254 1.383830 0.033206 -0.004270 79347.000000 0 0 1
1.978826 -30.431086 7.233668 31.341549 -1.505861 1.337895 0.040879 0.001703 1120060.000000 0 0 1
3.444626 -30.824046 7.682268 31.953161 -1.459507 1.327995 0.038404 -0.006484 1218920.000000 0 0 1
3.603826 -32.213506 7.415768 33.251935 -1.459386 1.345887 0.030107 -0.007936 -1318360.000000 0 0 1
4.954326 -32.465586 7.442768 33.674240 -1.419362 1.347933 0.020538 -0.013230 -927567.000000 0 0 1
5.226226 -33.969016 7.385068 35.153189 -1.418141 1.359137 0.007259 -0.000199 -270806.000000 0 0 1
5.255726 33.693755 6.102968 34.643008 1.416058 1.393705 0.004017 0.001546 -77095.800000 0 0 1
5.377326 32.267002 6.083368 33.272848 1.405663 1.386929 -0.008487 -0.001287 -348652.000000 0 0 1
5.445026 31.675343 4.706668 32.482740 1.400559 1.425387 0.011490 -0.003795 699776.000000 0 0 1
6.782226 31.764173 4.186068 32.748809 1.360437 1.442622 0.027506 -0.007392 514261.000000 0 0 1
7.414126 30.510013 4.148268 31.670780 1.332411 1.439438 0.023912 -0.005966 370707.000000 0 0 1
8.859726 30.607453 3.539868 32.059969 1.289034 1.460157 0.026216 -0.010875 89072.700000 0 0 1
9.708926 31.101393 4.508068 32.891984 1.268212 1.433307 0.025857 -0.011794 -578119.000000 0 0 1
10.956626 31.447943 3.915068 33.531307 1.235543 1.453771 0.033106 -0.020457 260448.000000 0 0 1
12.026326 31.823343 4.946668 34.377714 1.209478 1.426403 0.029181 -0.022870 -286425.000000 0 0 1
12.531626 30.811323 5.774268 33.759761 1.184509 1.398911 0.042815 -0.024996 -320203.000000 0 0 1
13.696226 31.292253 6.382268 34.749461 1.158229 1.386083 0.067672 -0.029997 -31049.600000 0 0 1
14.531926 30.243363 7.221868 34.321907 1.122870 1.358796 0.064211 -0.039266 -378025.000000 0 0 1
13.898926 29.888643 8.407168 34.017519 1.135519 1.321066 0.052370 -0.032140 7518.510000 0 0 1
14.490526 28.788853 9.135168 33.499622 1.104482 1.294604 0.050361 -0.031045 124868.000000 0 0 1
14.309026 28.891363 10.672968 33.961321 1.110940 1.251110 0.038962 -0.025650 177372.000000 0 0 1
15.049926 29.954343 11.269168 35.366044 1.105208 1.246498 0.042704 -0.027343 71356.700000 0 0 1
14.622326 30.145363 12.611168 35.799398 1.119172 1.210797 0.037797 -0.023584 -396937.000000 0 0 1
15.397126 31.070743 13.528568 37.222100 1.110715 1.198822 0.038842 -0.022186 -180081.000000 0 0 1
16.661626 30.560553 13.895968 37.478729 1.071645 1.190959 0.024823 -0.025304 119106.000000 0 0 1
17.354426 31.459343 14.721368 38.827633 1.066690 1.181922 0.036454 -0.021412 330030.000000 0 0 1
18.727126 31.102843 15.355268 39.419238 1.028832 1.170667 0.034471 -0.015378 1575480.000000 0 0 1
19.912826 30.731983 14.614368 39.427848 0.995863 1.191076 0.026722 -0.013806 1137040.000000 0 0 1
19.999926 29.372743 14.603668 38.419034 0.973004 1.180875 0.021266 -0.006757 -25090.300000 0 0 1
21.410026 28.935093 14.122568 38.666209 0.933769 1.196902 0.053861 -0.011146 236788.000000 0 0 1
22.378626 29.148213 15.115668 39.735433 0.916030 1.180559 0.057405 -0.013531 178444.000000 0 0 1
23.717926 28.973943 14.648768 40.207161 0.884819 1.197881 0.066205 -0.017015 146092.000000 0 0 1
24.756026 29.123723 15.719768 41.329931 0.866285 1.180623 0.088696 -0.024694 -780780.000000 0 0 1
24.933926 27.944073 16.449468 40.904240 0.842263 1.156937 0.066673 -0.015369 -111853.000000 0 0 1
25.709926 28.080693 17.623068 41.953524 0.829444 1.137283 0.065146 -0.018682 -196230.000000 0 0 1
26.596526 26.787283 17.743468 41.710483 0.788971 1.131397 0.038787 -0.017174 122034.000000 0 0 1
25.962626 25.611463 18.277768 40.793159 0.778589 1.106203 0.029315 -0.021344 32068.400000 0 0 1
25.790226 25.728343 19.672968 41.401800 0.784197 1.075637 0.058504 -0.017294 -139370.000000 0 0 1
25.234026 24.447223 20.300768 40.577629 0.769562 1.046857 0.062833 -0.018664 -210711.000000 0 0 1
26.176226 23.441893 20.537768 40.700332 0.730346 1.041867 0.030315 -0.014624 -312511.000000 0 0 1
25.544226 22.175853 20.517468 39.563145 0.714929 1.025583 0.030337 -0.018678 134203.000000 0 0 1
26.493326 20.914053 20.386568 39.432297 0.668249 1.027452 0.006151 -0.012913 52367.100000 0 0 1
25.817726 19.715153 20.423268 38.371241 0.652166 1.009535 -0.005179 -0.002876 2853.000000 0 0 1
26.724726 18.606953 20.564868 38.514198 0.608201 1.007524 -0.000596 -0.006667 239963.000000 0 0 1
27.267526 18.330453 22.028068 39.557038 0.591854 0.980186 0.006534 -0.001048 -417360.000000 0 0 1
26.325326 17.741753 22.873968 39.128135 0.593023 0.946420 0.002128 0.006559 -326379.000000 0 0 1
26.770526 17.578453 24.178968 40.128363 0.581025 0.924116 0.018369 0.008392 -768317.000000 0 0 1
25.749326 16.931153 25.099568 39.745189 0.581656 0.887294 0.006346 0.005537 -339372.000000 0 0 1
25.484926 15.613653 24.802768 38.838704 0.549678 0.878106 0.011931 0.000690 67237.800000 0 0 1
24.251326 15.155653 25.301668 38.183701 0.558557 0.846471 0.019064 -0.002818 -62284.800000 0 0 1
23.835126 13.815353 24.524668 36.884096 0.525301 0.843421 0.019985 -0.002175 343673.000000 0 0 1
22.602926 13.212253 24.923968 36.147753 0.528972 0.809994 0.009488 -0.000684 419913.000000 0 0 1
22.151726 12.162353 24.147468 34.953140 0.502112 0.808129 0.012755 -0.000137 -527486.000000 0 0 1
20.898726 11.546953 24.749368 34.389244 0.504776 0.767450 0.009964 -0.003593 344308.000000 0 0 1
19.711126 12.367253 24.683668 33.922867 0.560341 0.755920 0.013874 -0.005990 325628.000000 0 0 1
18.573026 11.589953 24.915568 33.167300 0.557895 0.720905 0.017098 -0.005021 -738953.000000 0 0 1
17.318226 12.431253 25.081468 32.917124 0.622581 0.704465 0.011594 -0.009718 -516953.000000 0 0 1
17.283926 13.020253 26.337368 34.086919 0.645620 0.687786 0.033821 -0.009066 -142392.000000 0 0 1
16.129226 13.798953 26.420268 33.890907 0.707693 0.676821 0.049985 -0.012736 -726148.000000 0 0 1
15.745126 14.295253 27.835668 35.029811 0.737171 0.652402 0.046258 -0.006500 -82031.900000 0 0 1
15.381726 13.172253 28.683268 35.111759 0.708173 0.614757 0.061670 -0.007604 -19930.700000 0 0 1
15.627426 13.242153 30.050268 36.367426 0.702963 0.598297 0.054273 -0.011357 -1071420.000000 0 0 1
17.021526 12.824053 30.474868 37.187447 0.645675 0.610270 0.051037 -0.007794 -616881.000000 0 0 1
17.940726 13.849453 30.157768 37.724898 0.657406 0.644479 0.058541 -0.012754 508686.000000 0 0 1
19.258926 13.431853 29.812968 37.949097 0.609003 0.667124 0.050755 -0.003580 346620.000000 0 0 1
20.202926 14.618453 29.481968 38.614036 0.626377 0.702075 0.052215 -0.008203 -272572.000000 0 0 1
20.030726 15.346053 28.266268 37.890806 0.653742 0.728772 0.065417 -0.013471 215614.000000 0 0 1
20.098726 14.555453 27.073668 36.726060 0.626782 0.741911 0.057929 -0.007750 -333684.000000 0 0 1
19.769726 15.526053 25.949568 36.128665 0.665741 0.769506 0.040562 -0.007042 103648.000000 0 0 1
20.895226 16.330653 25.601468 36.861034 0.663389 0.803016 0.052049 -0.003806 584147.000000 0 0 1
20.800026 16.776253 24.219868 36.065021 0.678722 0.834483 0.045184 -0.007441 -116756.000000 0 0 1
21.962626 17.732453 23.887468 36.978479 0.679232 0.868486 0.040974 -0.008067 -454708.000000 0 0 1
22.153226 18.133253 22.543668 36.438952 0.685943 0.903748 0.055579 -0.011019 137156.000000 0 0 1
23.372026 18.812053 22.281168 37.371050 0.677719 0.932019 0.029986 -0.010572 -240195.000000 0 0 1
23.555726 20.163553 23.018968 38.617535 0.707963 0.932192 0.053614 -0.025053 -619826.000000 0 0 1
22.855526 21.213353 22.377668 38.381525 0.748152 0.948340 0.048467 -0.019787 106779.000000 0 0 1
22.778226 22.445553 23.086268 39.441427 0.778042 0.945509 0.070017 -0.025874 -662484.000000 0 0 1
21.587626 23.292143 22.697168 39.034740 0.823360 0.950273 0.065734 -0.033475 -833829.000000 0 0 1
21.831926 24.165433 21.644868 39.103727 0.836086 0.984206 0.069453 -0.032686 -161636.000000 0 0 1
20.997726 25.296193 21.650568 39.364311 0.877984 0.988426 0.061253 -0.028220 -385132.000000 0 0 1
21.430726 26.392283 20.658568 39.781969 0.888777 1.024771 0.056833 -0.024295 -130547.000000 0 0 1
21.470526 25.831983 19.353168 38.766222 0.877342 1.048089 0.046886 -0.028700 140346.000000 0 0 1
21.589626 26.861123 18.343068 39.039724 0.893773 1.081668 0.040738 -0.014275 -496742.000000 0 0 1
21.705126 26.230373 16.979668 38.045421 0.879522 1.108170 0.037838 -0.012471 -440334.000000 0 0 1
20.475726 25.802623 16.455368 36.821323 0.899999 1.107502 0.039890 -0.011305 -531475.000000 0 0 1
20.597826 25.441523 15.085468 36.043208 0.890220 1.138961 0.046103 -0.014303 -15269.600000 0 0 1
19.255426 25.079973 14.385368 34.737808 0.916025 1.143829 0.037171 -0.014492 976435.000000 0 0 1
18.283526 26.103543 14.124068 34.859311 0.959786 1.153628 0.025913 -0.009926 693290.000000 0 0 1
17.335726 26.350973 15.175268 35.002713 0.988903 1.122373 0.029329 -0.003794 -782001.000000 0 0 1
15.921826 26.211853 14.644668 33.985763 1.024933 1.125300 0.043722 -0.010263 -1582790.000000 0 0 1
15.417426 24.899323 14.501768 32.679880 1.016386 1.111015 0.041492 -0.009663 76735.700000 0 0 1
15.042026 24.143313 15.659368 32.471186 1.013614 1.067570 0.051321 -0.012238 -58128.600000 0 0 1
13.951926 24.728733 16.575568 32.877286 1.057117 1.042382 0.069603 -0.028235 -237986.000000 0 0 1
14.565026 25.688243 17.374068 34.261991 1.055001 1.038986 0.055065 -0.021179 1019200.000000 0 0 1
13.548626 26.379323 18.139768 34.763273 1.096322 1.021827 0.065008 -0.028202 602799.000000 0 0 1
14.113626 27.674943 18.761268 36.291626 1.099198 1.027502 0.067756 -0.031862 -711159.000000 0 0 1
14.485226 28.602933 17.803268 36.672959 1.102022 1.063907 0.059943 -0.029926 364140.000000 0 0 1
15.042226 29.766433 18.459068 38.118844 1.102884 1.065290 0.044723 -0.031192 -176835.000000 0 0 1
15.048426 30.971853 17.469568 38.612130 1.118513 1.101300 0.052771 -0.029161 -689188.000000 0 0 1
13.749626 31.443713 17.343168 38.451850 1.158573 1.102871 0.057195 -0.024385 -673311.000000 0 0 1
13.715726 32.747046 16.872868 39.308827 1.174156 1.127147 0.050333 -0.021710 280955.000000 0 0 1
12.311526 33.416210 17.040768 39.479166 1.217798 1.124487 0.061294 -0.024483 365728.000000 0 0 1
12.169426 -33.486146 16.484568 39.257584 -1.222219 1.137453 0.060308 -0.019349 -59887.000000 0 0 1
12.657626 -32.329846 17.223668 38.756795 -1.197626 1.110288 0.052041 -0.022260 207700.000000 0 0 1
12.248526 -32.169946 18.744868 39.195687 -1.206999 1.072149 0.056641 -0.033763 390032.000000 0 0 1
13.104926 -33.120646 19.423368 40.570722 -1.194026 1.071562 0.067818 -0.032808 713778.000000 0 0 1
13.018726 -32.941036 20.805468 41.078785 -1.194423 1.039702 0.065647 -0.032461 -770646.000000 0 0 1
14.192526 -33.368046 21.660568 42.237832 -1.168644 1.032325 0.072257 -0.037976 -1255310.000000 0 0 1
15.297526 -32.546746 21.507568 41.903227 -1.131421 1.031809 0.071483 -0.034237 -1109760.000000 0 0 1
16.312126 -33.000656 22.343068 43.062065 -1.111722 1.025283 0.075446 -0.033042 -819164.000000 0 0 1
17.580326 -32.157196 22.206168 42.851686 -1.070491 1.026040 0.092490 -0.038639 -348835.000000 0 0 1
17.460026 -30.799976 22.376968 41.883406 -1.055083 1.007155 0.102762 -0.043055 110829.000000 0 0 1
18.697726 -30.246476 21.991768 41.810192 -1.017117 1.016917 0.091096 -0.036494 -337550.000000 0 0 1
-4.883974 12.843954 18.538671 23.076020 -1.207427 0.637857 0.011706 -0.008702 -422437.000000 0 1 0
-4.518374 14.141054 18.285471 23.552995 -1.261527 0.681935 0.011369 -0.008458 322827.000000 0 1 0
-5.566774 14.783754 17.554871 23.616135 -1.210670 0.732743 0.015455 -0.015568 318927.000000 0 1 0
-5.267574 16.255854 17.217471 24.257812 -1.257431 0.781624 0.018279 -0.019131 -266341.000000 0 1 0
-5.247474 17.098354 18.323171 25.605239 -1.273022 0.773310 0.014013 -0.004957 364057.000000 0 0 1
-4.591474 18.352654 18.113671 26.191728 -1.325648 0.807122 0.001490 0.002028 -725483.000000 0 0 1
-4.011674 18.856554 19.464471 27.395780 -1.361175 0.780600 -0.000833 -0.003313 -414221.000000 0 0 1
-4.915174 19.221454 20.495071 28.524922 -1.320448 0.769157 -0.014046 -0.005257 298820.000000 0 0 1
-4.266074 20.100254 21.427771 29.687859 -1.361660 0.764442 -0.014859 0.004732 296908.000000 0 0 1
-5.263374 20.423554 22.563171 30.885617 -1.318574 0.751684 -0.005847 0.014089 215729.000000 0 0 1
-5.545074 19.279554 23.355191 30.788212 -1.290741 0.709672 -0.003539 0.004666 229182.000000 0 0 1
-6.501774 19.522054 24.397791 31.916075 -1.249303 0.700631 -0.001873 0.006887 597677.000000 0 0 1
-5.921774 20.216454 25.710161 33.238303 -1.285849 0.686436 -0.005439 0.001189 -287498.000000 0 0 1
-5.417574 21.492154 25.452371 33.750348 -1.323868 0.716458 0.004605 0.002090 -337041.000000 0 0 1
-4.483074 21.853854 26.422081 34.580562 -1.368464 0.701193 0.024942 0.004071 411743.000000 0 0 1
-2.996274 21.495754 26.124151 33.963456 -1.432300 0.693233 0.031251 0.004333 -129580.000000 0 0 1
-2.539774 20.264554 26.646191 33.572639 -1.446116 0.653949 0.034566 0.005476 278951.000000 0 0 1
-1.236474 19.992154 26.144701 32.935702 -1.509027 0.653747 0.037011 0.003865 343180.000000 0 0 1
-0.539674 18.704854 26.648881 32.562642 -1.541952 0.612196 0.037595 0.006989 -625852.000000 0 0 1
-1.112874 17.478154 26.362981 31.650136 -1.507210 0.586379 0.029763 0.004968 -415823.000000 0 0 1
-0.400974 16.338354 26.904351 31.479306 -1.546259 0.545886 0.026439 0.003421 514100.000000 0 0 1
1.073126 16.109054 26.444601 30.983385 1.504278 0.548113 0.031073 -0.002607 109589.000000 0 0 1
1.276226 15.838454 25.062841 29.675434 1.490392 0.565044 0.021265 -0.003664 -216874.000000 0 0 1
0.739326 14.616754 24.636651 28.655901 1.520259 0.536034 0.024152 -0.006320 -461252.000000 0 0 1
0.831426 14.427754 23.130371 27.273896 1.513233 0.558450 0.026300 -0.022540 1258200.000000 0 0 1
2.204326 14.258854 22.669771 26.871779 1.417417 0.566793 0.026945 -0.023146 1100860.000000 0 0 1
2.395526 13.502654 21.532771 25.528816 1.395212 0.567087 0.018046 -0.021150 750094.000000 0 0 1
3.884926 13.552354 21.031671 25.319758 1.291622 0.590535 0.019356 -0.016775 938344.000000 0 0 1
4.218726 14.717354 20.250671 25.386765 1.291632 0.647348 0.021819 -0.014883 -140290.000000 0 0 1
5.576126 14.648254 19.888271 25.322082 1.207065 0.667435 0.045011 -0.020443 -210159.000000 0 0 1
6.044526 15.775254 18.971071 25.402686 1.204887 0.727539 0.045790 -0.025769 7058.300000 0 0 1
5.849926 15.427354 17.607371 24.129741 1.208356 0.752919 0.043530 -0.025759 261996.000000 0 1 0
6.537126 16.386654 16.809271 24.368177 1.191213 0.809578 0.052337 -0.018174 139835.000000 0 1 0
6.704226 15.945854 15.361371 23.134144 1.172797 0.844623 0.043214 -0.014382 -494700.000000 0 1 0
7.662926 14.965054 15.135771 22.622220 1.097552 0.837844 0.034332 -0.008805 -362766.000000 0 1 0
7.533326 13.650654 15.701471 22.127529 1.066522 0.781880 0.028894 -0.010386 -171595.000000 0 1 0
8.727626 12.811154 15.204171 21.713220 0.972764 0.795082 0.030895 -0.008586 77268.900000 0 1 0
10.006426 13.382354 15.334271 22.679414 0.928748 0.828297 0.043537 -0.012359 34549.400000 0 1 0
10.837726 12.849954 14.281771 22.057801 0.870143 0.866536 0.041142 -0.010899 -166838.000000 0 1 0
12.218526 13.504554 14.208171 23.098430 0.835352 0.908266 0.047825 -0.007845 -296947.000000 0 1 0
13.049826 12.966454 15.287171 23.919124 0.782194 0.877444 0.057605 -0.018459 746005.000000 0 1 0
14.278726 13.640054 15.503971 25.105900 0.762526 0.905181 0.052909 -0.013008 353142.000000 0 0 1
15.423526 13.192554 14.573471 24.986290 0.707593 0.948062 0.052309 -0.018999 13848.500000 0 1 0
16.720526 13.702654 14.900171 26.255548 0.686525 0.967323 0.055396 -0.021781 818257.000000 0 0 1
17.676926 13.308254 13.970671 26.167976 0.645329 1.007609 0.056609 -0.016850 538134.000000 0 0 1
19.113126 13.963454 13.984771 27.492971 0.630949 1.037160 0.047322 -0.015887 1021490.000000 0 0 1
19.780126 13.645554 15.203371 28.435840 0.603889 1.006697 0.020858 -0.010442 -686649.000000 0 0 1
21.142926 13.775554 14.959271 29.335456 0.577460 1.035683 0.024032 -0.016884 -672738.000000 0 0 1
22.067526 13.347654 16.132171 30.420100 0.543982 1.011827 0.032834 -0.018694 -40443.800000 0 0 1
22.295526 11.933454 16.257671 30.063427 0.491440 0.999433 0.046860 -0.021250 392390.000000 0 0 1
23.018726 11.684354 17.442671 31.154978 0.469711 0.976570 0.027213 -0.017431 -208717.000000 0 0 1
23.420026 10.228154 17.626671 31.045326 0.411761 0.966999 0.049417 -0.020167 -298982.000000 0 0 1
22.357826 9.451454 18.115871 30.288400 0.399951 0.929652 0.029885 -0.016693 381174.000000 0 0 1
22.393026 8.212454 17.471071 29.565695 0.351511 0.938593 0.042475 -0.005836 -139425.000000 0 0 1
21.176226 7.377854 17.913671 28.701305 0.335251 0.896764 0.049910 -0.009202 -156804.000000 0 0 1
21.281926 5.997654 17.644871 28.288402 0.274695 0.897266 0.073963 -0.020597 74985.900000 0 0 1
20.175826 5.356054 18.204071 27.697283 0.259484 0.853631 0.067387 -0.019784 -466365.000000 0 0 1
19.847526 3.971254 17.636471 26.846606 0.197480 0.854050 0.098428 -0.016543 -740916.000000 0 0 1
19.412926 4.058054 16.284971 25.661835 0.206071 0.883307 0.102976 -0.022113 466467.000000 0 0 1
18.993926 2.828754 15.666871 24.783501 0.147843 0.886472 0.080119 -0.028660 533471.000000 0 1 0
17.909926 1.931854 16.347571 24.325719 0.107450 0.833852 0.085122 -0.017945 -52528.000000 0 1 0
18.525426 1.274954 17.382071 25.435277 0.068713 0.818408 0.095478 -0.026949 511898.000000 0 0 1
17.550926 0.752854 18.314571 25.377654 0.042869 0.764569 0.086178 -0.025698 280902.000000 0 0 1
18.185126 0.020954 19.512471 26.672753 0.001152 0.750203 0.093544 -0.026857 -91957.200000 0 0 1
18.631626 -1.324146 19.393571 26.925851 -0.070951 0.766622 0.097842 -0.024078 43689.300000 0 0 1
17.560226 -2.230146 19.574471 26.391192 -0.126324 0.735188 0.081973 -0.010750 -41106.600000 0 0 1
17.705126 -3.627046 18.994971 26.218998 -0.202063 0.760526 0.058220 -0.009708 -234475.000000 0 0 1
17.549626 -3.605746 17.596971 25.112630 -0.202640 0.794387 0.074228 -0.025103 281910.000000 0 0 1
17.631226 -4.874646 17.106871 25.045306 -0.269740 0.818884 0.092536 -0.021020 -116548.000000 0 0 1
17.435126 -4.923546 15.555171 23.878615 -0.275226 0.861333 0.076593 -0.025342 -141869.000000 0 1 0
16.116826 -4.644846 15.134371 22.591500 -0.280595 0.836703 0.082603 -0.034866 153088.000000 0 1 0
16.062526 -4.546546 13.733571 21.616817 -0.275838 0.882375 0.081846 -0.031289 98050.700000 0 1 0
16.438926 -3.148446 13.097671 21.253235 -0.189232 0.906802 0.077090 -0.028364 82044.800000 0 1 0
15.415726 -2.174646 13.266471 20.454167 -0.140142 0.865059 0.073312 -0.023062 399632.000000 0 1 0
15.715826 -0.949246 12.685871 20.219287 -0.060327 0.892568 0.064747 -0.023058 47542.200000 0 1 0
14.579726 0.024054 13.058971 19.573086 0.001650 0.840366 0.070499 -0.014951 -358460.000000 0 1 0
14.717726 1.341054 12.608471 19.426359 0.090867 0.864475 0.059641 -0.016352 500277.000000 0 1 0
15.777026 2.028354 13.295971 20.731898 0.127862 0.874567 0.076623 -0.023221 366154.000000 0 1 0
16.034226 3.444154 12.661971 20.719172 0.211585 0.913317 0.068605 -0.020685 -110340.000000 0 1 0
15.063826 4.362454 13.097771 20.432853 0.281887 0.874976 0.061096 -0.009326 249990.000000 0 1 0
15.249926 5.628754 12.505771 20.509447 0.353588 0.915043 0.077349 -0.016325 543213.000000 0 1 0
14.135026 6.695354 12.872271 20.256408 0.442364 0.882184 0.062123 -0.007479 344336.000000 0 1 0
14.356126 7.920154 12.170871 20.419532 0.504141 0.932235 0.055237 -0.013449 229064.000000 0 1 0
13.469526 9.014854 12.342671 20.372463 0.589808 0.919962 0.048168 -0.004705 -387292.000000 0 1 0
13.574326 9.792654 13.664971 21.607634 0.624951 0.886131 0.054389 -0.012089 -92824.000000 0 1 0
13.118326 9.056554 14.816671 21.763396 0.604236 0.821933 0.052291 -0.012006 682671.000000 0 1 0
13.636926 9.620754 16.034371 23.143589 0.614403 0.805402 0.065749 -0.014251 133847.000000 0 1 0
13.135126 8.894954 17.373371 23.526278 0.595251 0.740003 0.055917 -0.017841 195361.000000 0 1 0
11.799526 9.273954 17.666071 23.180274 0.666121 0.704220 0.036570 -0.021373 19839.800000 0 1 0
11.181626 8.606954 18.743271 23.461002 0.656016 0.645313 0.048867 -0.012782 201340.000000 0 1 0
11.807826 8.862254 20.183471 25.006735 0.643847 0.631536 0.054806 -0.011760 856307.000000 0 0 1
13.090526 8.237054 20.406671 25.605530 0.561641 0.648545 0.070237 -0.016853 930140.000000 0 0 1
13.761726 8.663554 21.593271 27.031678 0.561857 0.645476 0.056575 -0.006401 -617210.000000 0 0 1
15.240626 8.378654 21.402371 27.577890 0.502657 0.682386 0.046925 -0.005401 -716421.000000 0 0 1
15.848526 9.165454 20.378471 27.394587 0.524323 0.731929 0.050174 -0.009736 -463482.000000 0 0 1
16.986326 8.586854 19.845971 27.497853 0.468050 0.764501 0.037383 -0.008484 -747139.000000 0 0 1
17.762326 9.535454 18.925671 27.651512 0.492680 0.816967 0.051985 -0.021073 -188489.000000 0 0 1
18.349326 10.622954 19.635671 28.898174 0.524782 0.823746 0.036907 -0.017974 66885.200000 0 0 1
18.940226 11.594154 18.818771 29.108465 0.549301 0.867802 0.040912 -0.019933 -188704.000000 0 0 1
20.008626 12.360254 19.618771 30.627066 0.553366 0.875556 0.031167 -0.014220 -911191.000000 0 0 1
19.517926 13.261854 20.541871 31.285694 0.596814 0.854508 0.019934 -0.011718 465986.000000 0 0 1
20.473026 13.852254 21.456471 32.732398 0.594855 0.855936 0.022988 -0.010256 422334.000000 0 0 1
21.719626 14.678454 21.019371 33.600790 0.594310 0.894945 0.004127 -0.006888 -570598.000000 0 0 1
22.844926 13.873054 20.935771 33.950829 0.545748 0.906316 -0.011932 0.004703 -471999.000000 0 0 1
23.963426 14.745254 20.829771 35.007823 0.551610 0.933527 -0.015098 -0.004729 -219894.000000 0 0 1
25.341226 14.089754 20.718771 35.636588 0.507439 0.950360 -0.007056 -0.006404 -339075.000000 0 0 1
25.554926 13.401554 19.547971 34.853681 0.482993 0.975374 0.001920 -0.019142 584720.000000 0 0 1
26.831226 12.764654 19.535171 35.559443 0.444051 0.989190 0.044777 -0.024002 500697.000000 0 0 1
27.317626 11.957854 18.277671 34.975938 0.412607 1.020924 0.077354 -0.034204 -152106.000000 0 0 1
27.537826 12.745654 17.179871 34.870210 0.433482 1.055629 0.079621 -0.042733 214866.000000 0 0 1
27.900426 11.980754 16.049871 34.344877 0.405601 1.084545 0.095857 -0.043911 -31925.200000 0 0 1
26.714926 11.634254 15.112671 32.824320 0.410727 1.092338 0.086211 -0.045805 146658.000000 0 0 1
26.222026 12.793054 14.485471 32.574311 0.453900 1.109968 0.099473 -0.042746 -311284.000000 0 0 1
25.154026 12.465154 13.648871 31.215329 0.460084 1.118259 0.084947 -0.035994 -401282.000000 0 0 1
24.695326 13.615154 12.717971 30.935066 0.503860 1.147116 0.070980 -0.029998 -127295.000000 0 0 1
23.923326 14.567054 13.428971 31.062225 0.546942 1.123727 0.040394 -0.029658 237207.000000 0 0 1
23.873026 15.772754 12.682171 31.297581 0.583856 1.153585 0.017782 -0.022361 -582319.000000 0 0 1
23.027726 16.904254 13.241671 31.486057 0.633236 1.136738 0.018460 -0.022464 -12857.000000 0 0 1
21.681726 16.800154 12.802471 30.269550 0.659218 1.134099 0.038312 -0.034281 -29895.400000 0 0 1
20.943426 17.917754 13.147871 30.537510 0.707696 1.125696 0.031029 -0.030779 -867586.000000 0 0 1
20.175026 18.560554 11.922171 29.894213 0.743743 1.160575 0.048745 -0.016885 442720.000000 0 0 1
19.145826 17.782154 11.326871 28.479214 0.748487 1.161761 0.058048 -0.022618 -249720.000000 0 0 1
18.001526 17.638854 12.084471 27.950287 0.775223 1.123692 0.057432 -0.013504 -2047470.000000 0 0 1
16.828526 16.930154 11.492271 26.493427 0.788409 1.122115 0.063208 -0.020735 -915813.000000 0 0 1
16.820326 15.521054 11.407171 25.572447 0.745246 1.108424 0.067524 -0.021150 473311.000000 0 0 1
15.651726 14.996954 10.765171 24.202770 0.764038 1.109856 0.075053 -0.026223 340564.000000 0 1 0
15.743026 13.677954 9.962371 23.112294 0.715323 1.125149 0.081220 -0.029937 -230371.000000 0 1 0
16.033726 12.485054 10.706271 22.969135 0.661602 1.085901 0.092381 -0.020815 552719.000000 0 1 0
16.451026 11.407654 9.812171 22.294607 0.606304 1.115071 0.083795 -0.026179 -316718.000000 0 1 0
17.043026 10.270254 10.678671 22.582667 0.542335 1.078251 0.094586 -0.029716 -1009030.000000 0 1 0
17.904626 9.445654 9.954971 22.558756 0.485447 1.113760 0.111967 -0.021683 256460.000000 0 1 0
18.622626 8.507254 10.746671 23.122857 0.428514 1.087428 0.141682 -0.017583 867245.000000 0 1 0
19.662326 9.012054 11.830971 24.653520 0.429769 1.070267 0.088961 -0.016943 -263643.000000 0 1 0
19.044226 9.690854 12.906671 24.963520 0.470711 1.027429 0.066241 -0.018838 506011.000000 0 1 0
19.991226 9.976254 13.953671 26.341596 0.462873 1.012526 0.064097 -0.010196 194290.000000 0 0 1
19.195726 10.177654 15.310571 26.579581 0.487518 0.956936 0.040005 -0.020891 685910.000000 0 0 1
18.506926 9.056654 15.825871 25.980521 0.455104 0.915816 0.056240 -0.017706 824121.000000 0 0 1
17.472026 8.437054 15.045271 24.552306 0.449866 0.911217 0.067070 -0.021302 -131972.000000 0 1 0
16.938226 7.088854 15.639871 24.119720 0.396363 0.865280 0.075044 -0.020407 -310963.000000 0 1 0
16.193126 7.238654 16.861171 24.472730 0.420373 0.810718 0.081211 -0.019165 259009.000000 0 1 0
15.778126 6.051054 17.447771 24.289694 0.366210 0.769412 0.079786 -0.000950 27286.700000 0 1 0
14.611326 5.351854 16.708471 22.832131 0.351105 0.749842 0.089899 -0.029177 -488816.000000 0 1 0
14.268926 4.054754 17.200371 22.713345 0.276868 0.711658 0.106715 -0.014135 289436.000000 0 1 0
13.316226 3.378454 16.394371 21.389512 0.248467 0.697473 0.066042 -0.011472 175137.000000 0 1 0
13.146826 1.931654 16.883771 21.485624 0.145885 0.666780 0.065074 -0.003650 344207.000000 0 1 0
14.309226 1.128754 16.613271 21.955155 0.078720 0.712559 0.072295 -0.016507 451027.000000 0 1 0
14.190026 -0.276346 16.653071 21.880539 -0.019472 0.705804 0.071348 -0.003216 -273795.000000 0 1 0
13.441026 -0.980746 17.825071 22.346279 -0.072838 0.647366 0.074712 -0.009871 752127.000000 0 1 0
12.030026 -0.795046 17.757871 21.463821 -0.065993 0.596441 0.062829 0.004466 727874.000000 0 1 0
11.221926 -1.593146 18.641571 21.816918 -0.141025 0.546296 0.059526 -0.008552 372639.000000 0 1 0
-25.709804 13.751054 28.438871 40.729042 -0.491142 0.797853 0.063748 -0.008815 145983.000000 0 0 1
-24.678474 13.837854 29.425271 40.821071 -0.511041 0.765790 0.065902 -0.005857 520316.000000 0 0 1
-24.069874 12.558954 29.608591 40.171567 -0.480912 0.742096 0.049112 -0.004497 349321.000000 0 0 1
-22.884674 12.599954 30.613461 40.244890 -0.503292 0.706437 0.058872 -0.010179 -1970.120000 0 0 1
-23.386974 12.815054 31.926401 41.598933 -0.501273 0.695893 0.051219 -0.014001 -72566.400000 0 0 1
-22.455174 12.926154 32.981214 41.941397 -0.522317 0.665895 0.055921 -0.016296 -272565.000000 0 0 1
-23.084674 13.130054 -33.809422 42.992761 -0.517146 2.475752 0.066911 -0.015629 142654.000000 0 0 1
-23.671374 11.985754 -33.222072 42.517036 -0.468706 2.467675 0.058781 -0.014166 -77965.800000 0 0 1
-24.492974 12.377354 -32.137482 42.260176 -0.467913 2.434829 0.044239 -0.013994 1334.770000 0 0 1
-25.204964 11.215754 -31.371812 41.776476 -0.418673 2.420287 0.035726 -0.015993 -232045.000000 0 0 1
-24.409474 10.293854 -30.661952 40.520873 -0.399085 2.429040 0.046965 -0.022245 -97572.300000 0 0 1
-24.018074 9.197554 -31.402582 40.590455 -0.365716 2.455369 0.049284 -0.020816 -176878.000000 0 0 1
-23.137974 8.189554 -30.675632 39.286500 -0.340184 2.466771 0.046250 -0.012953 58424.000000 0 0 1
-23.897874 7.414954 -29.758772 38.880258 -0.300858 2.442452 0.040870 -0.016050 819716.000000 0 0 1
-23.028174 6.484654 -29.045472 37.629603 -0.274489 2.452587 0.035279 -0.007194 374328.000000 0 0 1
-23.645774 5.719754 -27.872382 36.996053 -0.237334 2.423996 0.030883 0.001561 7518.780000 0 0 1
-24.517274 4.653754 -28.244722 37.689767 -0.187584 2.417952 0.039944 -0.000435 212343.000000 0 0 1
-24.854474 3.837754 -27.132482 36.995200 -0.153199 2.394114 0.051648 -0.002319 221596.000000 0 0 1
-25.744824 2.578554 -27.526642 37.777784 -0.099825 2.387140 0.056608 -0.001829 1618820.000000 0 0 1
-27.076614 2.803954 -28.050662 39.087656 -0.103188 2.371196 0.054221 -0.002020 1160470.000000 0 0 1
-27.154594 3.417154 -29.349262 40.130140 -0.125183 2.391099 0.050255 -0.000981 -375377.000000 0 0 1
-28.591574 3.434754 -29.941422 41.542321 -0.119559 2.375673 0.078914 -0.011546 762302.000000 0 0 1
-29.514824 4.409654 -29.406502 41.896447 -0.148308 2.348837 0.065272 0.004774 389456.000000 0 0 1
-30.823254 4.148154 -29.871282 43.122775 -0.133775 2.336027 0.079321 -0.016700 87595.800000 0 0 1
-31.409254 5.437254 -30.424562 44.065394 -0.171411 2.332895 0.081564 -0.033629 -365510.000000 0 0 1
-30.635224 5.875954 -31.555222 44.370890 -0.189502 2.361957 0.080560 -0.025566 327406.000000 0 0 1
-30.780074 7.240654 -31.954882 44.955028 -0.231038 2.361458 0.076721 -0.028191 -673537.000000 0 0 1
-30.090964 8.395154 -31.155472 44.120383 -0.272074 2.354838 0.050424 -0.033891 651854.000000 0 0 1
-28.657034 8.238754 -31.069902 43.063227 -0.279945 2.376755 0.037082 -0.035875 1115940.000000 0 0 1
-28.178724 7.509054 -29.974492 41.819811 -0.260428 2.369932 0.025905 -0.032832 -653328.000000 0 0 1
-28.239144 8.297654 -28.625962 41.057838 -0.285791 2.342295 0.005071 -0.026497 498394.000000 0 0 1
-29.556964 8.493554 -28.077672 41.642650 -0.279823 2.310749 0.014548 -0.030525 1015980.000000 0 0 1
-30.123044 7.358354 -27.406682 41.384410 -0.239585 2.294609 0.019339 -0.024820 -575147.000000 0 0 1
-31.473514 7.575554 -26.722272 41.976791 -0.236203 2.260873 0.017231 -0.025809 -292454.000000 0 0 1
-31.533294 8.478354 -25.575942 41.477222 -0.262658 2.235246 -0.008342 -0.020242 -101220.000000 0 0 1
-31.190234 7.837354 -24.358332 40.343316 -0.246179 2.219026 0.001537 -0.015195 16512.700000 0 0 1
-30.507674 8.767754 -23.361032 39.412302 -0.279853 2.205246 -0.004964 -0.004252 -448663.000000 0 0 1
-31.444934 9.494354 -22.592932 39.866869 -0.293232 2.173303 0.004312 -0.000263 307775.000000 0 0 1
-30.763794 10.518554 -21.923332 39.213308 -0.329453 2.164071 0.011681 -0.007803 -431749.000000 0 0 1
-31.648984 11.424554 -21.088732 39.710367 -0.346420 2.130652 0.003841 0.006219 -346080.000000 0 0 1
-32.303354 10.649054 -20.097332 39.507111 -0.318439 2.104472 0.003664 -0.005363 100647.000000 0 0 1
-33.032894 11.377654 -19.118832 39.826535 -0.331708 2.071511 -0.000239 0.006233 150957.000000 0 0 1
-32.219384 12.296854 -18.152632 38.972033 -0.364597 2.055319 0.012671 -0.000558 307661.000000 0 0 1
-31.558684 11.704454 -17.014032 37.715011 -0.355153 2.038817 0.047982 -0.005746 1033670.000000 0 0 1
-32.476864 11.458254 -15.926932 37.943451 -0.339178 2.003971 0.039747 -0.004328 457387.000000 0 0 1
-33.032524 12.637254 -15.055232 38.438364 -0.365391 1.973244 0.017402 -0.001711 -284715.000000 0 0 1
-33.829734 13.558454 -15.736632 39.697912 -0.381183 1.978399 0.008372 -0.002698 -42815.300000 0 0 1
-34.353824 14.539854 -14.855032 40.153014 -0.400378 1.949763 -0.003970 -0.000842 129906.000000 0 0 1
-34.961622 15.762854 -15.625632 41.411870 -0.423570 1.957700 -0.004126 -0.003332 281225.000000 0 0 1
-36.016038 15.386054 -16.510532 42.502745 -0.403733 1.969754 -0.009743 -0.001296 99550.900000 0 0 1
36.404960 16.500054 -16.901132 43.396096 0.425542 1.970844 -0.004383 -0.003961 -742745.000000 0 0 1
35.992590 16.452554 -18.376532 43.633130 0.428750 2.005520 0.000784 -0.001519 644210.000000 0 0 1
34.970000 15.493454 -18.728432 42.587583 0.417059 2.026131 0.030597 -0.007839 622571.000000 0 0 1
33.664670 15.989954 -18.560632 41.635150 0.443430 2.032856 0.068911 -0.019516 -344807.000000 0 0 1
32.523100 15.006754 -18.914632 40.505777 0.432309 2.056648 0.088904 -0.030133 23875.600000 0 0 1
32.523060 14.776854 -20.300432 41.087862 0.426466 2.087565 0.096790 -0.027984 149527.000000 0 0 1
31.609180 13.787454 -20.740832 40.241971 0.411306 2.112274 0.072347 -0.023722 -91357.600000 0 0 1
32.010920 12.328254 -20.492332 39.957734 0.367619 2.109298 0.070879 -0.003255 -115135.000000 0 0 1
32.046950 11.962354 -19.146932 39.200892 0.357258 2.081087 0.072811 -0.002790 -23504.700000 0 0 1
32.570750 10.663254 -18.994732 39.183652 0.316390 2.076887 0.049644 0.005606 -94512.800000 0 0 1
32.809520 10.356254 -17.478232 38.590222 0.305750 2.040833 0.031704 0.013889 -106793.000000 0 0 1
31.615680 10.322754 -16.740032 37.233576 0.315595 2.037108 0.047907 0.005209 -94478.500000 0 0 1
31.936640 9.932054 -15.402832 36.821759 0.301511 2.002378 0.021064 0.005660 64821.200000 0 0 1
31.392150 10.913854 -14.391832 36.217456 0.334590 1.979448 0.045676 -0.003077 -1008560.000000 0 0 1
30.009320 10.960254 -14.288632 34.997878 0.350176 1.991356 0.060926 -0.002508 -551516.000000 0 0 1
29.611100 11.945354 -13.323532 34.598052 0.383441 1.966107 0.069501 -0.001371 -872112.000000 0 0 1
28.101080 11.988154 -13.231632 33.293582 0.403232 1.979503 0.092769 -0.005494 -1170560.000000 0 0 1
27.590980 10.784454 -12.640732 32.207992 0.372610 1.974114 0.070486 -0.006911 277830.000000 0 0 1
26.178380 10.703154 -12.711932 31.007391 0.388116 1.993212 0.068149 -0.003508 75539.300000 0 0 1
25.632880 10.066654 -14.009232 30.897260 0.374218 2.041388 0.071738 -0.020267 -890299.000000 0 0 1
25.871980 8.673454 -14.440432 30.872548 0.323470 2.057532 0.073377 -0.014287 1653260.000000 0 0 1
27.227580 8.389154 -14.908732 32.155704 0.298883 2.052898 0.079360 -0.016974 1279900.000000 0 0 1
28.081680 7.602954 -13.906832 32.245707 0.264405 2.016704 0.086981 -0.015401 -356783.000000 0 0 1
27.759080 6.217154 -13.884732 31.654468 0.220332 2.024875 0.071864 -0.031066 578980.000000 0 0 1
26.926880 5.799554 -12.816132 30.380009 0.212141 2.006293 0.078636 -0.032861 -41278.300000 0 0 1
26.394380 4.381754 -12.824932 29.670557 0.164511 2.017777 0.078275 -0.035139 -223086.000000 0 0 1
25.458780 4.096454 -11.818232 28.365490 0.159538 2.000544 0.084236 -0.037889 301604.000000 0 0 1
25.112880 2.735354 -11.931032 27.937223 0.108495 2.012042 0.085465 -0.035391 -630417.000000 0 0 1
24.237880 2.241754 -10.810732 26.634043 0.092227 1.988759 0.097164 -0.032662 -635506.000000 0 0 1
24.956280 2.074054 -9.615832 26.825023 0.082917 1.937419 0.101813 -0.022587 850446.000000 0 0 1
24.103780 1.631054 -8.533532 25.621743 0.067565 1.910341 0.101591 -0.019152 -263788.000000 0 0 1
24.894480 1.353754 -7.236832 25.960345 0.054326 1.853304 0.115724 -0.015085 -67531.700000 0 0 1
25.298780 0.017654 -6.931032 26.231046 0.000698 1.838202 0.104065 -0.019975 495560.000000 0 0 1
26.103980 -0.653246 -7.858332 27.268991 -0.025020 1.863120 0.093315 -0.017263 -738133.000000 0 0 1
26.239380 -2.104246 -7.469232 27.362791 -0.080023 1.847276 0.090512 -0.024768 -174092.000000 0 0 1
27.151480 -2.307446 -6.409232 27.992953 -0.084780 1.801804 0.100022 -0.029378 505672.000000 0 0 1
27.095980 -3.661646 -6.045732 28.002690 -0.134322 1.788408 0.106374 -0.037198 299269.000000 0 0 1
28.440300 -4.020246 -5.331432 29.213648 -0.140427 1.754323 0.101351 -0.031222 810211.000000 0 0 1
29.543890 -4.208146 -6.223032 30.484030 -0.141485 1.776382 0.073964 -0.021676 188361.000000 0 0 1
30.715270 -4.540546 -5.530132 31.537703 -0.146764 1.747057 0.071968 -0.018672 -648913.000000 0 0 1
31.848410 -4.807346 -6.515432 32.861568 -0.149814 1.770388 0.056469 -0.015503 -572480.000000 0 0 1
31.714170 -6.020446 -7.212132 33.076415 -0.187602 1.790607 0.060624 -0.026216 -51867.800000 0 0 1
32.361030 -6.003546 -8.451332 33.980934 -0.183432 1.822143 0.055741 -0.024715 -1355300.000000 0 0 1
31.718720 -6.947346 -9.430632 33.812418 -0.215625 1.853456 0.060098 -0.030233 151222.000000 0 0 1
30.471290 -6.498546 -9.921732 32.698186 -0.210120 1.879091 0.049026 -0.030824 68410.000000 0 0 1
29.377050 -6.754846 -9.046632 31.471901 -0.226008 1.862361 0.056678 -0.024435 -815099.000000 0 0 1
28.271120 -5.698446 -9.254632 30.288228 -0.198899 1.881315 0.057078 -0.021536 -713157.000000 0 0 1
27.496680 -5.861346 -10.416432 29.982076 -0.210022 1.925617 0.041890 -0.023032 164313.000000 0 0 1
26.385180 -4.982346 -10.405432 28.797127 -0.186634 1.940496 0.073425 -0.021144 274560.000000 0 0 1
25.068280 -5.703346 -10.024232 27.594058 -0.223705 1.942577 0.103077 -0.019353 -716150.000000 0 0 1
25.087880 -6.228146 -8.694432 27.272416 -0.243334 1.895259 0.098685 -0.026685 1864920.000000 0 0 1
23.788380 -6.659246 -8.196732 26.027274 -0.272950 1.891178 0.092524 -0.029391 1353980.000000 0 0 1
22.681580 -5.707246 -7.632032 24.602330 -0.246507 1.886216 0.102508 -0.016880 215682.000000 0 1 0
22.271080 -4.787546 -8.597432 24.348253 -0.211745 1.931682 0.105097 -0.015183 300878.000000 0 1 0
21.946280 -3.600946 -7.983132 23.629143 -0.162631 1.915429 0.098368 -0.019424 -205330.000000 0 1 0
21.951180 -2.484446 -9.061532 23.877566 -0.112701 1.960052 0.112351 -0.011933 146307.000000 0 1 0
23.254280 -2.281146 -9.586732 25.256100 -0.097783 1.960140 0.103961 -0.015369 805878.000000 0 0 1
23.150080 -1.622646 -10.867132 25.625256 -0.069978 2.008741 0.112132 -0.021828 -35178.200000 0 0 1
24.484480 -1.568146 -11.641732 27.156560 -0.063959 2.013838 0.086125 -0.021829 -104199.000000 0 0 1
25.455380 -0.666946 -11.156632 27.800929 -0.026195 1.983737 0.075597 -0.026650 385116.000000 0 0 1
26.685880 -0.895746 -11.787832 29.187181 -0.033554 1.986540 0.055300 -0.022229 -449365.000000 0 0 1
27.873080 -0.037246 -11.353332 30.096647 -0.001336 1.957599 0.033604 -0.011184 -173744.000000 0 0 1
29.132770 -0.424446 -11.913932 31.477615 -0.014568 1.958960 0.026711 -0.015566 1314850.000000 0 0 1
30.114010 0.641154 -11.766032 32.337350 0.021288 1.943197 0.041887 -0.010730 422326.000000 0 0 1
29.952740 1.831454 -12.747032 32.603799 0.061069 1.972479 0.040527 -0.014753 -599342.000000 0 0 1
30.280490 1.458754 -14.082632 33.426884 0.048137 2.005671 0.038925 -0.017206 437636.000000 0 0 1
30.383810 2.627254 -14.905132 33.944681 0.086254 2.025394 0.045042 -0.015065 -340755.000000 0 0 1
30.591180 2.258054 -16.398032 34.782389 0.073680 2.061727 0.039244 -0.021539 -1119850.000000 0 0 1
29.429580 1.707354 -16.872932 33.966323 0.057950 2.090652 0.038568 -0.017533 -751333.000000 0 0 1
29.483470 1.715854 -18.280232 34.733069 0.058132 2.125047 0.031643 -0.017761 -821847.000000 0 0 1
28.382820 1.026254 -19.009632 34.176070 0.036142 2.160634 0.022721 -0.012469 -748854.000000 0 0 1
28.624020 -0.363446 -18.930232 34.319387 -0.012697 2.155066 0.037433 -0.014091 453393.000000 0 0 1
28.041580 -1.027846 -20.085632 34.508250 -0.036638 2.192048 0.043195 -0.013815 158626.000000 0 0 1
27.909480 -2.566946 -20.036932 34.452967 -0.091716 2.191458 0.047588 -0.016560 369652.000000 0 0 1
26.779580 -2.982446 -19.255432 33.118161 -0.110913 2.191264 0.044638 -0.014721 499629.000000 0 0 1
26.640180 -4.391946 -19.029932 33.032207 -0.163392 2.184748 0.041133 -0.017473 23730.700000 0 0 1
27.509980 -5.137746 -17.952532 33.248893 -0.184632 2.141167 0.039019 -0.014621 150507.000000 0 0 1
28.869510 -5.181646 -18.334932 34.589996 -0.177594 2.129473 0.034161 -0.012565 -106531.000000 0 0 1
29.729220 -5.290646 -17.227132 34.764803 -0.176117 2.089246 0.031405 -0.013127 92567.200000 0 0 1
31.212910 -5.015146 -17.561732 36.163682 -0.159314 2.077866 0.037515 -0.012000 41400.400000 0 0 1
31.818390 -6.077146 -18.290932 37.200805 -0.188722 2.084816 0.033006 -0.010753 8111.890000 0 0 1
33.166590 -5.787946 -18.606632 38.467256 -0.172771 2.075674 0.046575 -0.012267 136807.000000 0 0 1
33.836180 -7.028746 -19.280932 39.573283 -0.204816 2.079701 0.041518 0.000035 -166935.000000 0 0 1
34.045940 -8.087746 -18.377432 39.525532 -0.233231 2.054375 0.049641 -0.003507 76186.800000 0 0 1
34.320400 -9.285346 -19.001932 40.313533 -0.264223 2.061621 0.045382 0.003707 -187673.000000 0 0 1
35.054690 -10.169846 -17.953732 40.676696 -0.282362 2.027928 0.053083 -0.010112 53800.200000 0 0 1
34.190150 -10.486746 -16.845432 39.531086 -0.297609 2.011008 0.039999 -0.013862 516275.000000 0 0 1
34.729070 -11.281146 -15.795132 39.785158 -0.314081 1.979054 0.050798 -0.020065 -373892.000000 0 0 1
35.960490 -10.755046 -15.032132 40.432572 -0.290612 1.951725 0.072494 -0.029618 -332710.000000 0 0 1
-36.566874 -11.510346 -14.027932 40.821652 0.304956 1.921586 0.068459 -0.027923 553997.000000 0 0 1
-35.908394 -12.778946 -14.258432 40.694190 0.341900 1.928773 0.055283 -0.018844 630086.000000 0 0 1
-34.492528 -12.704446 -14.945032 39.679862 0.352905 1.956963 0.062682 -0.023428 253568.000000 0 0 1
-34.474942 -12.158946 -16.269132 40.013076 0.339069 1.989521 0.070678 -0.019001 -733377.000000 0 0 1
-33.183174 -12.347446 -16.728932 39.159158 0.356225 2.012194 0.093775 -0.020948 -742330.000000 0 0 1
-32.874474 -11.405546 -17.854132 39.109942 0.333948 2.044866 0.113092 -0.021723 38549.500000 0 0 1
-32.973524 -10.059146 -17.404632 38.618143 0.296099 2.038329 0.101164 -0.016787 -231361.000000 0 0 1
-33.737864 -9.332246 -18.281432 39.491076 0.269863 2.052089 0.095071 -0.015504 -70777.700000 0 0 1
-34.290731 -7.975946 -17.637632 39.377100 0.228534 2.035229 0.093173 -0.017055 117713.000000 0 0 1
-35.144455 -7.269146 -18.490432 40.371640 0.203960 2.046547 0.096908 -0.016426 -264775.000000 0 0 1
-35.808598 -6.227846 -17.859432 40.496927 0.172198 2.027517 0.090722 -0.019451 -280646.000000 0 0 1
25.106226 27.049454 -26.720212 45.562762 0.822639 2.197464 0.065305 0.002504 -105086.000000 0 0 1
25.503826 25.920754 -26.000412 44.702931 0.793506 2.191523 0.070447 -0.010799 320174.000000 0 0 1
26.803026 25.474454 -26.384162 45.425478 0.759990 2.190536 0.055114 -0.010042 205908.000000 0 0 1
27.443326 24.597054 -25.278862 44.689731 0.730759 2.172021 0.056190 -0.021733 -223373.000000 0 0 1
27.866426 25.370554 -24.143932 44.756365 0.738550 2.140583 0.066540 -0.013005 230871.000000 0 0 1
28.451826 24.611854 -23.099332 44.145542 0.713159 2.121461 0.063822 -0.016682 179384.000000 0 0 1
29.225526 25.390854 -22.033532 44.545520 0.715302 2.088205 0.036900 0.000568 -90720.800000 0 0 1
28.340726 26.243354 -21.334832 44.125791 0.746992 2.075445 0.061286 -0.009761 145997.000000 0 0 1
28.895426 26.689754 -20.129032 44.186724 0.745738 2.043780 0.043511 -0.006571 24484.800000 0 0 1
28.038026 27.859054 -19.565132 44.102746 0.782196 2.030437 0.055869 -0.001510 -65227.500000 0 0 1
26.896926 27.371554 -18.894532 42.774407 0.794144 2.028317 0.062995 -0.003405 -37002.400000 0 0 1
26.073426 28.380454 -18.360932 42.689548 0.827739 2.015404 0.067459 -0.001097 29847.500000 0 0 1
24.929226 27.904054 -17.456232 41.289497 0.841645 2.007303 0.054969 0.006686 113088.000000 0 0 1
23.873726 27.281254 -18.165632 40.548882 0.851912 2.035316 0.067388 0.002899 463287.000000 0 0 1
22.697226 27.166654 -17.371232 39.432865 0.874792 2.026982 0.059565 0.004696 365331.000000 0 0 1
21.631126 26.157154 -17.819232 38.335719 0.879826 2.054228 0.066599 -0.007998 -245685.000000 0 0 1
21.073226 26.547254 -19.068432 38.890136 0.899847 2.083248 0.065410 -0.004825 -7652.260000 0 0 1
20.341226 25.443154 -19.606632 38.020252 0.896374 2.112608 0.066898 -0.003415 -114185.000000 0 0 1
19.470626 25.698554 -20.862632 38.402739 0.922414 2.145110 0.048444 0.004256 249114.000000 0 0 1
18.439626 26.597754 -20.533132 38.328447 0.964596 2.136151 0.030015 0.004464 -773668.000000 0 0 1
17.378326 26.551254 -21.435432 38.294295 0.991250 2.164887 0.014405 -0.000261 -177415.000000 0 0 1
16.343326 27.673454 -21.121332 38.458224 1.037334 2.152205 0.023536 0.002464 -47885.200000 0 0 1
15.657126 27.393054 -19.905332 37.306129 1.051541 2.133609 0.032188 0.002887 -70741.900000 0 0 1
14.733426 28.434554 -19.648532 37.572098 1.092733 2.121111 0.025318 -0.003613 -42768.700000 0 0 1
14.105026 28.416754 -18.283332 36.616170 1.110063 2.093615 0.030574 -0.001989 125661.000000 0 0 1
13.193826 27.369154 -18.001132 35.315555 1.121596 2.105659 0.037386 0.001608 -49014.000000 0 0 1
12.656926 27.400254 -16.703532 34.496082 1.138068 2.076262 0.045493 -0.000992 -243442.000000 0 0 1
11.785926 26.208754 -16.378832 33.076774 1.148197 2.088834 0.057824 -0.000273 -339089.000000 0 0 1
12.512726 25.028254 -16.181332 32.323634 1.107193 2.095092 0.056313 -0.002624 -317581.000000 0 0 1
11.671926 23.916054 -16.224732 31.168148 1.116765 2.118297 0.060760 -0.003965 -158660.000000 0 0 1
12.543426 22.659354 -16.228532 30.563853 1.065220 2.130543 0.060826 -0.009030 229439.000000 0 0 1
13.263826 22.472554 -17.456332 31.395355 1.037597 2.160382 0.060886 -0.008296 -185805.000000 0 0 1
14.116126 21.348854 -17.503132 31.006422 0.986579 2.170624 0.063617 -0.002391 -111230.000000 0 0 1
13.441426 19.984554 -17.750232 29.918641 0.978704 2.205928 0.070682 -0.006062 179411.000000 0 0 1
12.710126 19.439254 -16.636932 28.569554 0.991728 2.192389 0.070298 -0.013735 125896.000000 0 0 1
12.221526 18.099254 -16.741632 27.517829 0.976875 2.224829 0.069013 -0.012726 -4000.410000 0 0 1
13.294226 17.000154 -16.787632 27.341658 0.907124 2.231908 0.068676 -0.015180 -532163.000000 0 0 1
14.079626 16.930454 -15.660732 27.021004 0.877073 2.189005 0.068517 -0.024082 -332631.000000 0 0 1
15.157026 16.072654 -15.976332 27.263691 0.814709 2.196901 0.073782 -0.026673 -755186.000000 0 0 1
15.741626 15.227954 -14.826732 26.448466 0.768813 2.165894 0.117349 -0.020219 -140679.000000 0 0 1
16.557626 15.953854 -13.834732 26.834311 0.766829 2.112459 0.083293 -0.019588 1526370.000000 0 0 1
17.924326 16.188354 -14.187532 28.011254 0.734553 2.101910 0.068101 -0.016563 371279.000000 0 0 1
18.871826 15.023254 -14.624032 28.208266 0.672339 2.115811 0.059742 -0.020915 -768899.000000 0 0 1
19.216726 14.101654 -13.643632 27.464302 0.633066 2.090677 0.086316 -0.029851 -169506.000000 0 0 1
20.268426 14.514854 -12.838732 28.041454 0.621470 2.046370 0.092548 -0.021979 -796757.000000 0 0 1
21.007026 13.273554 -12.228832 27.695247 0.563519 2.028122 0.107712 -0.034207 322369.000000 0 0 1
20.228126 12.546454 -11.240832 26.323884 0.555175 2.011991 0.149438 -0.038754 935488.000000 0 0 1
21.011626 11.514254 -10.642532 26.216978 0.501302 1.988804 0.159367 -0.020835 33971.000000 0 0 1
21.199826 10.298154 -11.560932 26.251471 0.452196 2.026831 0.134300 -0.027008 -369463.000000 0 0 1
22.029626 10.473754 -12.717032 27.508669 0.443807 2.051374 0.105270 -0.014614 548303.000000 0 0 1
22.014626 9.369354 -13.579132 27.510387 0.402376 2.087021 0.090933 -0.016274 -83531.200000 0 0 1
22.624826 8.022954 -13.031332 27.314212 0.340774 2.068137 0.082614 -0.001840 -287070.000000 0 0 1
21.822526 7.538154 -11.958632 26.001063 0.332598 2.048711 0.087800 -0.017954 485283.000000 0 0 1
22.389326 6.498454 -11.199932 25.864074 0.282486 2.018648 0.074487 0.001999 -959525.000000 0 0 1
22.095126 5.124854 -11.824232 25.578725 0.227915 2.051348 0.067095 -0.013587 729668.000000 0 0 1
20.746826 4.650454 -11.632432 24.235738 0.220508 2.071417 0.050899 -0.031022 1778600.000000 0 1 0
19.812626 5.251454 -12.571132 24.044777 0.259098 2.120954 0.015678 -0.039837 489016.000000 0 1 0
18.664626 4.354854 -13.155832 23.246697 0.229220 2.172348 0.008629 -0.043282 387895.000000 0 1 0
19.223226 3.376054 -13.973132 24.003720 0.173851 2.192134 0.022982 -0.046577 375418.000000 0 1 0
19.298226 2.054554 -13.453432 23.614351 0.106064 2.176954 0.070439 -0.050921 -726234.000000 0 1 0
20.303726 1.174854 -14.196232 24.802310 0.057799 2.180196 0.098524 -0.031072 -281101.000000 0 1 0
21.626526 1.259954 -13.688632 25.625627 0.058194 2.134331 0.128746 -0.019997 571350.000000 0 0 1
22.672126 0.841554 -14.546432 26.950551 0.037101 2.140931 0.086996 -0.019322 203369.000000 0 0 1
22.807126 -0.677646 -14.867432 27.233522 -0.029703 2.148288 0.079822 -0.022345 -556650.000000 0 0 1
21.799326 -1.173246 -15.730032 26.907639 -0.053768 2.195175 0.078268 -0.016707 -132328.000000 0 0 1
22.288726 -2.259946 -16.517532 27.833856 -0.101049 2.206114 0.071771 -0.017538 -12782.100000 0 0 1
21.234526 -3.026246 -17.361032 27.594722 -0.141562 2.251247 0.068134 -0.009141 128855.000000 0 0 1
20.283926 -3.801046 -16.636332 26.507606 -0.185244 2.249271 0.084534 -0.021034 443422.000000 0 0 1
19.553226 -4.622746 -17.541232 26.671956 -0.232156 2.288512 0.084919 -0.018692 -326251.000000 0 0 1
18.763326 -5.772746 -16.878732 25.889739 -0.298470 2.280945 0.077286 -0.027710 -614744.000000 0 0 1
19.482526 -6.807846 -16.297232 26.296680 -0.336170 2.239214 0.082517 -0.024025 -118970.000000 0 0 1
18.703426 -7.911046 -15.932832 25.811973 -0.400153 2.236058 0.083925 -0.020417 5140.110000 0 0 1
19.605726 -9.005746 -15.281332 26.438742 -0.430596 2.187060 0.089595 -0.021304 295400.000000 0 0 1
20.224026 -9.828246 -16.237632 27.735651 -0.452360 2.196222 0.086529 -0.026631 171738.000000 0 0 1
21.300526 -10.565446 -15.706732 28.496359 -0.460457 2.154579 0.085732 -0.029912 -332393.000000 0 0 1
22.035526 -11.367946 -16.769032 29.933176 -0.476280 2.165442 0.072579 -0.024374 226056.000000 0 0 1
22.838426 -10.580846 -17.702532 30.772190 -0.433852 2.183739 0.063145 -0.019651 428843.000000 0 0 1
23.298926 -11.300846 -18.806032 32.003374 -0.451606 2.198919 0.060892 -0.015294 -469712.000000 0 0 1
22.351626 -11.283146 -20.035532 32.067540 -0.467482 2.245661 0.069150 -0.017126 606266.000000 0 0 1
21.109126 -11.980646 -19.937732 31.410894 -0.516223 2.258468 0.069584 -0.024651 706683.000000 0 0 1
21.251726 -13.390046 -19.820132 31.996357 -0.562236 2.238838 0.061809 -0.009891 -553293.000000 0 0 1
19.814226 -13.927946 -19.788632 31.275889 -0.612687 2.255847 0.054159 -0.009286 33428.200000 0 0 1
19.092726 -13.605846 -20.947132 31.439364 -0.619145 2.299993 0.047222 -0.002717 370138.000000 0 0 1
17.678826 -13.770846 -20.817432 30.586641 -0.661770 2.319385 0.062312 -0.002267 693376.000000 0 0 1
16.933526 -13.088046 -21.978532 30.677307 -0.658001 2.369486 0.059935 -0.011972 -285165.000000 0 0 1
16.967826 -13.768846 -23.204232 31.873573 -0.681695 2.386209 0.046445 -0.005051 458032.000000 0 0 1
16.113126 -13.177446 -24.176732 31.902857 -0.685506 2.430767 0.062709 -0.019935 6510.850000 0 0 1
16.133726 -13.903246 -25.552602 33.264589 -0.711276 2.446762 0.051742 -0.017830 -181288.000000 0 0 1
15.515926 -15.183946 -25.486592 33.479286 -0.774585 2.436057 0.072665 -0.018611 308607.000000 0 0 1
15.455226 -15.861946 -26.719952 34.704772 -0.798385 2.449515 0.072772 -0.019142 -227680.000000 0 0 1
16.428726 -17.045046 -26.820512 35.773964 -0.803808 2.418438 0.053919 -0.007893 748849.000000 0 0 1
17.827326 -16.746046 -26.990022 36.423961 -0.754133 2.405349 0.039585 -0.005172 667774.000000 0 0 1
18.534426 -17.922846 -27.227792 37.498081 -0.768624 2.383446 0.045159 -0.000606 -177572.000000 0 0 1
20.056826 -17.698046 -27.170762 38.128040 -0.723003 2.364021 0.026989 0.003760 -266778.000000 0 0 1
20.463126 -17.193446 -25.929852 37.238574 -0.698786 2.341050 0.022717 0.007387 -121115.000000 0 0 1
21.845826 -16.897746 -25.999152 37.930593 -0.658372 2.326004 0.026868 0.010563 155338.000000 0 0 1
22.441026 -16.266646 -24.699132 37.124797 -0.627218 2.298692 0.029826 0.017173 113530.000000 0 0 1
22.228926 -14.888846 -24.552532 36.312942 -0.590166 2.313303 0.030941 0.006661 -685338.000000 0 0 1
20.927326 -14.519246 -24.226732 35.152469 -0.606548 2.331167 0.051760 -0.000518 -427367.000000 0 0 1
20.825126 -13.083346 -23.700932 34.155439 -0.560932 2.337707 0.062794 0.000494 155587.000000 0 0 1
21.329526 -12.071346 -24.586132 34.715184 -0.515003 2.357776 0.068461 -0.015981 259085.000000 0 0 1
21.145626 -10.847746 -23.960432 33.747791 -0.473995 2.360274 0.067018 -0.022665 -171226.000000 0 0 1
21.053126 -9.600346 -24.727632 33.865271 -0.427837 2.389377 0.078461 -0.029856 -498843.000000 0 0 1
20.768726 -8.529346 -23.843232 32.750412 -0.389681 2.386238 0.086223 -0.027993 70957.100000 0 0 1
20.405026 -7.422646 -24.605332 32.815898 -0.348885 2.418555 0.065429 -0.027253 -240794.000000 0 0 1
19.733326 -6.267446 -23.843332 31.578308 -0.307531 2.426533 0.073504 -0.028455 491144.000000 0 0 1
18.449226 -6.537646 -23.275232 30.411366 -0.340553 2.442376 0.078546 -0.024154 458355.000000 0 0 1
18.052326 -5.717346 -22.205132 29.182913 -0.306715 2.435488 0.071971 -0.013116 -159631.000000 0 0 1
18.659126 -6.072946 -20.775732 28.577521 -0.314655 2.384733 0.076085 -0.025071 -297861.000000 0 0 1
18.087326 -7.125046 -20.052632 27.928940 -0.375258 2.371703 0.079204 -0.030734 186198.000000 0 0 1
18.161226 -8.447146 -20.677832 28.788143 -0.435356 2.372118 0.085195 -0.021200 -114789.000000 0 0 1
17.559626 -9.535846 -19.732432 28.082765 -0.497496 2.349915 0.070850 -0.024534 -142197.000000 0 0 1
16.177326 -9.455646 -19.545332 27.076468 -0.528944 2.377278 0.050198 -0.027892 -628708.000000 0 0 1
15.656626 -10.617446 -19.001632 26.812723 -0.595906 2.358421 0.062179 -0.023985 -1074260.000000 0 0 1
14.236526 -10.494546 -18.509732 25.601257 -0.635230 2.378933 0.061460 -0.025048 -970654.000000 0 0 1
14.081726 -9.876046 -17.214232 24.334360 -0.611623 2.356615 0.075543 -0.027142 32365.300000 0 1 0
14.204126 -8.429446 -17.258032 23.888333 -0.535590 2.378130 0.073285 -0.037221 -988058.000000 0 1 0
12.977826 -7.631746 -16.928832 22.655085 -0.531594 2.414699 0.067114 -0.022096 -583657.000000 0 1 0
11.823426 -7.841846 -17.733332 22.710329 -0.585631 2.466820 0.057975 -0.021852 161282.000000 0 1 0
11.016126 -6.682046 -17.589532 21.803587 -0.545236 2.509388 0.046627 -0.013205 -362323.000000 0 1 0
9.579026 -6.841646 -18.104632 21.594990 -0.620214 2.565086 0.042045 -0.008656 -169515.000000 0 1 0
9.380326 -6.904846 -19.501432 22.715045 -0.634545 2.603182 0.039433 -0.013081 -221214.000000 0 1 0
8.076826 -6.561446 -19.900432 22.456957 -0.682244 2.659785 0.042783 -0.009545 -143404.000000 0 1 0
7.879626 -6.310446 -21.465532 23.720863 -0.675263 2.701993 0.050294 -0.015038 -52887.800000 0 1 0
7.724726 -7.403546 -22.372732 24.799658 -0.764171 2.695498 0.050418 -0.016292 85171.900000 0 1 0
6.870526 -7.075046 -23.448832 25.438321 -0.800063 2.743473 0.054321 -0.016590 -272584.000000 0 0 1
6.795026 -8.225846 -24.458432 26.684300 -0.880367 2.730251 0.052860 -0.019840 -10273.900000 0 0 1
5.997926 -9.319846 -23.989432 26.425887 -0.998958 2.708806 0.049734 -0.024014 266802.000000 0 0 1
5.903426 -10.296646 -24.957532 27.636023 -1.050214 2.697684 0.055743 -0.015094 157550.000000 0 0 1
4.900226 -11.431746 -24.616232 27.579992 -1.165838 2.673742 0.050412 -0.021197 207901.000000 0 0 1
5.452826 -12.179446 -23.602632 27.113769 -1.149851 2.627021 0.051079 -0.026023 168060.000000 0 0 1
4.619126 -13.330546 -23.383732 27.310048 -1.237237 2.598727 0.056905 -0.027564 -411475.000000 0 0 1
5.231126 -14.520146 -22.567732 27.340481 -1.225005 2.541765 0.069431 -0.028646 173412.000000 0 0 1
6.285326 -15.164446 -23.292332 28.495587 -1.177872 2.527682 0.108335 -0.028731 1910490.000000 0 0 1
7.574526 -14.494346 -23.540932 28.664177 -1.089245 2.534424 0.099900 -0.033941 2004170.000000 0 0 1
8.465326 -14.018346 -22.324132 27.686507 -1.027533 2.508697 0.087709 -0.016748 -151920.000000 0 0 1
8.906326 -14.958246 -21.361232 27.556742 -1.033757 2.457785 0.092489 -0.014938 512606.000000 0 0 1
7.989926 -15.478946 -20.363532 26.797577 -1.094288 2.433959 0.103903 -0.025077 196706.000000 0 0 1
8.709926 -15.562646 -19.013432 26.068552 -1.060560 2.388186 0.083170 -0.023258 385487.000000 0 0 1
9.781426 -16.500146 -19.016032 27.010009 -1.035682 2.351862 0.090316 -0.029024 -260146.000000 0 0 1
10.320126 -16.651446 -17.757432 26.440538 -1.015964 2.307161 0.071638 -0.024142 -371977.000000 0 0 1
9.520426 -17.563746 -16.778032 26.088811 -1.074077 2.269352 0.055545 -0.018950 -445699.000000 0 0 1
9.501026 -18.967146 -16.983832 27.174854 -1.106413 2.245907 0.046452 -0.021617 152973.000000 0 0 1
8.734426 -19.384846 -18.130732 27.942547 -1.147460 2.276878 0.071829 -0.020856 1244690.000000 0 0 1
7.158526 -19.410146 -17.935632 27.380380 -1.217469 2.285051 0.080487 -0.020137 995641.000000 0 0 1
6.597726 -18.114646 -17.782732 26.227771 -1.221509 2.315850 0.077448 -0.020898 -715052.000000 0 0 1
5.198626 -18.188346 -17.773232 25.956299 -1.292397 2.325039 0.061005 -0.015610 -127244.000000 0 0 1
4.565226 -16.889246 -17.241632 24.563424 -1.306801 2.348890 0.030481 -0.001735 283182.000000 0 1 0
5.123626 -16.549746 -15.977532 23.567503 -1.270565 2.315763 0.016490 0.006032 363942.000000 0 1 0
4.506426 -15.316246 -15.589032 22.313969 -1.284646 2.344266 0.004518 0.012868 380862.000000 0 1 0
10.459126 29.826654 -17.956632 36.351936 1.233530 2.087442 0.050094 -0.014412 202501.000000 0 0 1
9.572626 29.487854 -19.044332 36.384822 1.256900 2.121649 0.077548 -0.019335 1041620.000000 0 0 1
8.562326 28.515554 -18.618632 35.115576 1.279093 2.129645 0.067766 -0.016885 651211.000000 0 0 1
7.707526 28.019954 -19.762032 35.143445 1.302362 2.167991 0.078199 -0.010271 -155312.000000 0 0 1
6.766226 28.957054 -20.265232 35.985725 1.341251 2.168985 0.083947 -0.013337 -203928.000000 0 0 1
6.087826 28.401954 -21.344032 36.045809 1.359646 2.204504 0.088908 -0.018132 -657593.000000 0 0 1
4.989826 29.240054 -21.948832 36.900276 1.401774 2.207832 0.085060 -0.029761 -664114.000000 0 0 1
3.886126 29.255954 -21.093132 36.275791 1.438737 2.191326 0.083120 -0.019673 -381354.000000 0 0 1
2.873226 30.191554 -21.388032 37.111094 1.475916 2.185020 0.084096 -0.034660 -1143680.000000 0 0 1
1.602026 30.015954 -20.570032 36.423210 1.517474 2.170927 0.102990 -0.030227 -275142.000000 0 0 1
0.820426 28.887154 -20.931132 35.682672 1.542403 2.197639 0.098023 -0.044354 60982.000000 0 0 1
0.326526 28.728554 -22.234632 36.329262 1.559431 2.229422 0.118373 -0.060748 -1081600.000000 0 0 1
-0.412474 27.418554 -22.470032 35.452074 -1.555754 2.257271 0.111071 -0.051782 297760.000000 0 0 1
-1.636274 27.305654 -21.763232 34.955892 -1.510944 2.242846 0.124038 -0.056410 -185755.000000 0 0 1
-2.377074 26.203054 -22.139732 34.386309 -1.480327 2.270320 0.117756 -0.061403 -579767.000000 0 0 1
-3.211874 25.739454 -20.954032 33.345271 -1.446654 2.250286 0.084778 -0.055247 -178420.000000 0 0 1
-4.460574 26.405554 -20.855832 33.942830 -1.403451 2.232472 0.071999 -0.051135 296640.000000 0 0 1
-5.266974 25.807854 -19.842532 32.977453 -1.369477 2.216424 0.058391 -0.045761 208537.000000 0 0 1
-6.529074 26.671954 -19.598432 33.736041 -1.330726 2.190673 0.045435 -0.050926 757903.000000 0 0 1
-7.665474 25.897354 -19.185532 33.128795 -1.283018 2.188445 0.053285 -0.040318 189683.000000 0 0 1
-8.722474 26.647154 -18.652232 33.675780 -1.254456 2.157810 0.054519 -0.046320 380630.000000 0 0 1
-9.794374 25.844954 -17.839132 32.895684 -1.208553 2.143961 0.072629 -0.043168 353453.000000 0 0 1
-9.438674 25.213654 -16.648732 31.654339 -1.212598 2.124633 0.071408 -0.031810 -252856.000000 0 0 1
-10.656974 24.631054 -16.244032 31.370822 -1.162452 2.115082 0.048388 -0.019639 253581.000000 0 0 1
-10.574474 24.009854 -14.846832 30.145000 -1.155936 2.085772 0.048444 -0.012379 -179496.000000 0 0 1
-9.876274 22.776254 -14.728232 28.865539 -1.161646 2.106255 0.061927 -0.008579 -180439.000000 0 0 1
-10.336974 21.999254 -13.614332 27.859832 -1.131535 2.081364 0.078651 -0.016512 -52835.600000 0 0 1
-9.643974 20.631654 -13.493832 26.471775 -1.133538 2.105684 0.098318 -0.015176 159954.000000 0 0 1
-10.216974 19.575954 -14.283532 26.298742 -1.089771 2.144952 0.064538 -0.013967 -201376.000000 0 0 1
-10.492574 19.749654 -15.653032 27.297626 -1.082440 2.181472 0.068501 -0.007642 201192.000000 0 0 1
-9.275674 19.850154 -16.614832 27.497625 -1.133662 2.219593 0.054902 -0.010615 393985.000000 0 0 1
-8.583474 18.599354 -16.794232 26.488832 -1.138426 2.257526 0.051026 -0.015042 107738.000000 0 0 1
-7.808074 18.606054 -17.973232 27.021997 -1.173464 2.298469 0.057917 -0.021435 148213.000000 0 0 1
-7.163574 17.243054 -18.285732 26.134416 -1.177045 2.345746 0.038448 -0.023881 17534.200000 0 0 1
-8.186774 16.368254 -18.689932 26.158298 -1.107019 2.366696 0.039971 -0.023593 -270072.000000 0 0 1
-8.022674 15.610754 -19.848032 26.495345 -1.096075 2.417520 0.044974 -0.025804 -271434.000000 0 0 1
-6.811374 14.677454 -20.008632 25.732622 -1.136303 2.461571 0.038318 -0.015409 -106325.000000 0 0 1
-7.031774 13.550054 -19.123032 24.469168 -1.092105 2.467887 0.011897 -0.012860 587093.000000 0 1 0
-5.883074 12.704454 -18.983032 23.587480 -1.137125 2.506122 0.010426 -0.005084 672182.000000 0 1 0
-5.061174 13.029554 -17.688932 22.545134 -1.200297 2.472848 0.039683 -0.000983 93864.600000 0 1 0
-4.355574 14.257254 -17.778132 23.201343 -1.274302 2.443788 0.033287 -0.012052 -257445.000000 0 1 0
-4.141374 14.781954 -16.498432 22.535648 -1.297635 2.392202 0.049673 0.004001 -6083.200000 0 1 0
-3.203174 15.996454 -16.397232 23.130415 -1.373167 2.358739 0.073773 -0.005828 -84845.700000 0 1 0
-3.749574 17.208254 -16.807832 24.345154 -1.356256 2.332835 0.051079 -0.012272 -263547.000000 0 1 0
-2.768074 18.235954 -16.752132 24.916785 -1.420154 2.308139 0.068384 -0.018528 81096.400000 0 1 0
-3.183474 19.641054 -17.150932 26.268993 -1.410111 2.282198 0.083810 -0.025933 19440.200000 0 0 1
-3.536074 19.605654 -18.510032 27.193874 -1.392355 2.319472 0.085062 -0.031421 -80214.200000 0 0 1
-4.004174 20.902154 -19.042932 28.558129 -1.381522 2.300720 0.098595 -0.028962 372328.000000 0 0 1
-2.975574 22.062454 -19.217532 29.409513 -1.436735 2.282924 0.086507 -0.037083 -245839.000000 0 0 1
-2.017174 21.820954 -20.247532 29.835978 -1.478616 2.316689 0.101531 -0.029176 172341.000000 0 0 1
-0.954874 22.748954 -20.286332 30.495278 -1.528847 2.298596 0.098922 -0.031470 558650.000000 0 0 1
0.234226 22.543254 -19.306932 29.681826 1.560407 2.278990 0.119956 -0.034419 -183216.000000 0 0 1
-0.242374 22.510054 -17.991932 28.817892 -1.560029 2.245072 0.118409 -0.033451 -620073.000000 0 0 1
0.759826 22.045254 -17.138532 27.933848 1.536343 2.231332 0.126110 -0.030015 -283250.000000 0 0 1
0.344326 22.169354 -15.681332 27.157006 1.555266 2.186376 0.132887 -0.030066 302589.000000 0 0 1
-0.693174 21.299554 -15.221132 26.188439 -1.538264 2.191018 0.115961 -0.016392 229202.000000 0 0 1
-0.764674 21.259954 -13.809132 25.362620 -1.534844 2.146551 0.125674 -0.025811 -172071.000000 0 0 1
-1.682974 20.151454 -13.415732 24.267166 -1.487473 2.156559 0.085961 -0.016100 179298.000000 0 1 0
-0.997474 18.879554 -13.536232 23.252142 -1.518012 2.192167 0.080441 -0.010813 235270.000000 0 1 0
-1.866874 17.938654 -12.988932 22.225951 -1.467100 2.194942 0.058624 -0.007755 118958.000000 0 1 0
-1.331374 16.475354 -12.920532 20.979752 -1.490161 2.234270 0.036536 -0.002271 -222374.000000 0 1 0
-0.231774 16.278854 -12.041332 20.249654 -1.556560 2.207619 0.035120 -0.003428 222168.000000 0 1 0
0.187926 14.908954 -11.880732 19.064732 1.558192 2.243597 0.031986 -0.005143 459958.000000 0 1 0
0.873126 14.230054 -13.123332 19.377271 1.509515 2.314820 0.029330 -0.002550 25147.800000 0 1 0
-0.052874 13.854854 -14.157132 19.808689 -1.566980 2.366981 0.035970 -0.013736 1928.390000 0 1 0
0.440826 12.966254 -15.095732 19.904753 1.536811 2.431649 0.036124 -0.013458 -738021.000000 0 1 0
-0.380574 12.809254 -16.381832 20.798708 -1.541094 2.477761 0.037594 -0.011331 -84714.500000 0 1 0
-0.447074 13.979454 -17.111732 22.100597 -1.538826 2.456350 0.047311 -0.019635 82859.900000 0 1 0
-0.773374 13.733454 -18.464932 23.025195 -1.514543 2.501340 0.052644 -0.019377 -182670.000000 0 1 0
-1.239374 14.975454 -19.200632 24.381644 -1.488224 2.477544 0.056351 -0.019334 -558005.000000 0 1 0
-0.241174 15.884254 -19.504232 25.155174 -1.555614 2.458076 0.062321 -0.023062 -322630.000000 0 0 1
-0.815074 17.197854 -19.658932 26.132435 -1.523438 2.422314 0.085364 -0.029887 70431.000000 0 0 1
0.189726 18.339654 -19.947032 27.097288 1.560452 2.398126 0.104317 -0.032904 -310767.000000 0 0 1
0.800626 18.037854 -21.140432 27.801494 1.526440 2.434735 0.091677 -0.034161 -120733.000000 0 0 1
1.514426 19.226254 -21.583332 28.944474 1.492190 2.412352 0.084150 -0.029024 211594.000000 0 0 1
2.181526 18.932454 -22.942032 29.825052 1.456075 2.448416 0.086252 -0.030540 19237.000000 0 0 1
3.269626 18.032354 -22.972132 29.386648 1.391425 2.468216 0.079155 -0.028628 -103937.000000 0 0 1
3.533526 17.808854 -24.338532 30.364539 1.374926 2.500670 0.077524 -0.039163 380191.000000 0 0 1
4.419626 16.516154 -24.523532 29.895151 1.309328 2.532763 0.060653 -0.027367 -201445.000000 0 0 1
5.745726 16.700154 -24.032432 29.823922 1.239430 2.507839 0.054038 -0.023471 -260299.000000 0 0 1
6.613926 15.885954 -24.741032 30.136792 1.176285 2.533883 0.054778 -0.020715 -451450.000000 0 0 1
6.978726 16.256354 -26.163742 31.583430 1.165296 2.547043 0.045545 -0.013911 -448367.000000 0 0 1
8.231026 16.979954 -26.279172 32.352180 1.119423 2.518855 0.035152 -0.008074 1262250.000000 0 0 1
8.715126 17.235954 -27.625932 33.707917 1.102650 2.531453 0.036407 -0.011655 13332.400000 0 0 1
9.240626 16.087954 -28.452042 33.966603 1.049427 2.563758 0.018183 -0.015529 365485.000000 0 0 1
10.570026 15.680754 -28.065252 33.841836 0.977681 2.548662 0.033455 -0.013857 965466.000000 0 0 1
10.959826 14.406754 -28.596682 33.844388 0.920456 2.577261 0.020947 -0.012338 -69036.000000 0 0 1
10.505626 13.216754 -27.664232 32.409266 0.899190 2.593635 0.026628 -0.015288 571916.000000 0 0 1
9.102626 12.949954 -27.741352 31.939658 0.958121 2.623076 0.033511 -0.011836 407044.000000 0 0 1
8.703826 12.350854 -26.539882 30.539573 0.956913 2.624040 0.037224 -0.009646 675595.000000 0 0 1
7.227926 11.813454 -26.470922 29.874912 1.021717 2.659569 0.049541 -0.018313 967757.000000 0 0 1
6.288926 12.885854 -26.538472 30.164322 1.116755 2.646231 0.047431 -0.015165 -356075.000000 0 0 1
5.003626 12.387754 -26.266882 29.469337 1.186918 2.671065 0.066755 -0.024139 -98241.300000 0 0 1
3.849426 13.321654 -26.654792 30.046006 1.289498 2.661891 0.072894 -0.023296 -275796.000000 0 0 1
3.547526 13.429554 -28.041612 31.293288 1.312537 2.681678 0.072625 -0.026985 557602.000000 0 0 1
4.241726 14.552754 -28.644892 32.408405 1.287181 2.654874 0.072588 -0.027635 274595.000000 0 0 1
4.146926 14.399954 -30.167802 33.684595 1.290401 2.680566 0.070034 -0.025170 -197788.000000 0 0 1
5.039326 13.429354 -30.637652 33.829101 1.211809 2.703729 0.071225 -0.027766 -157189.000000 0 0 1
5.106826 13.272954 -32.014492 35.031110 1.203501 2.723555 0.069194 -0.027211 -815054.000000 0 0 1
6.146026 12.251054 -32.561452 35.328602 1.105811 2.743170 0.071707 -0.017126 209026.000000 0 0 1
7.519526 12.563554 -32.415642 35.569088 1.031466 2.717331 0.074939 -0.013938 218001.000000 0 0 1
8.027526 12.642254 -31.076602 34.496710 1.005056 2.692536 0.067089 -0.015667 -1038100.000000 0 0 1
8.068726 11.330954 -30.237662 33.283796 0.951998 2.710429 0.070003 -0.014141 -695087.000000 0 0 1
9.074226 10.422254 -30.538182 33.519331 0.854430 2.716649 0.057659 -0.012110 -547451.000000 0 0 1
9.014826 9.343154 -29.664292 32.381042 0.803281 2.729041 0.053409 -0.015758 -223249.000000 0 0 1
9.991326 8.226254 -29.998182 32.670917 0.688811 2.734289 0.037726 -0.013344 827417.000000 0 0 1
11.382726 8.526654 -29.775462 32.997704 0.642917 2.695986 0.038952 -0.018725 981953.000000 0 0 1
12.126526 7.324454 -29.557902 32.777582 0.543357 2.694648 0.011200 -0.007262 669851.000000 0 0 1
13.527426 7.542954 -28.868482 32.760902 0.508663 2.649164 0.030720 -0.007178 701955.000000 0 0 1
14.212826 6.403754 -28.484142 32.470892 0.423321 2.640839 0.035195 -0.000723 398268.000000 0 0 1
15.136326 5.925054 -29.491842 33.674670 0.373111 2.637860 0.030506 -0.005424 126803.000000 0 0 1
15.991626 4.727954 -28.931662 33.393513 0.287463 2.618715 0.049805 -0.005465 302800.000000 0 0 1
16.805326 5.031154 -27.815242 32.884939 0.290887 2.578925 0.035937 -0.008927 340106.000000 0 0 1
17.575826 3.902754 -27.411832 32.795574 0.218507 2.560456 0.036435 -0.002622 -283119.000000 0 0 1
18.357926 4.167554 -26.162592 32.231401 0.223233 2.517873 0.040685 -0.003151 252249.000000 0 0 1
19.431026 5.110754 -26.387052 33.165662 0.257195 2.490816 0.055728 -0.007624 367225.000000 0 0 1
20.101526 5.475754 -25.246782 32.733091 0.265952 2.451665 0.053298 -0.009631 -258780.000000 0 0 1
21.162226 6.555854 -25.505942 33.784199 0.300414 2.426400 0.042713 -0.008400 -412222.000000 0 0 1
20.566826 7.792454 -25.866612 33.952884 0.362172 2.436943 0.059249 -0.010179 199727.000000 0 0 1
21.309526 8.696154 -26.667752 35.226240 0.387459 2.429571 0.070134 -0.013956 -797051.000000 0 0 1
21.352926 8.320354 -28.152352 36.300560 0.371560 2.458358 0.069105 -0.022594 653399.000000 0 0 1
20.161926 8.541954 -28.922662 36.276558 0.400742 2.493576 0.074959 -0.023765 1015740.000000 0 0 1
19.004726 7.747354 -28.671212 35.259602 0.387087 2.520334 0.066766 -0.015643 375678.000000 0 0 1
17.726826 8.308654 -29.364942 35.292689 0.438300 2.553572 0.055287 -0.015369 -143524.000000 0 0 1
17.655826 8.146054 -30.767972 36.397177 0.432278 2.577997 0.056978 -0.011604 -80718.300000 0 0 1
16.607726 8.888954 -31.311842 36.541231 0.491433 2.600004 0.042291 -0.008657 -575787.000000 0 0 1
16.133126 8.361254 -32.717092 37.424544 0.478154 2.634613 0.020593 0.000612 181026.000000 0 0 1
15.302326 7.201754 -32.626602 36.749444 0.439878 2.663365 0.020510 0.004885 46901.900000 0 0 1
13.938226 7.531354 -32.778352 36.406261 0.495395 2.691368 0.013974 0.003747 -300377.000000 0 0 1
13.204526 6.297254 -33.325892 36.395467 0.444998 2.727944 0.014359 -0.005943 -215179.000000 0 0 1
13.182226 5.194754 -32.348602 35.315558 0.375386 2.728758 0.017329 0.001838 -811175.000000 0 0 1
12.089126 4.384454 -32.439362 34.895310 0.347924 2.764175 0.007683 -0.009721 -810270.000000 0 0 1
12.119126 3.319154 -31.291582 33.720218 0.267322 2.759743 0.019387 -0.006921 -280117.000000 0 0 1
13.206426 2.465254 -31.397592 34.151076 0.184547 2.737281 0.015951 -0.012482 -329921.000000 0 0 1
13.124426 1.503054 -30.338232 33.089546 0.114027 2.730920 0.026565 -0.012155 -23216.000000 0 0 1
12.471526 0.142654 -30.769822 33.201525 0.011438 2.756488 0.034376 -0.007347 288188.000000 0 0 1
13.232926 -0.847846 -31.501792 34.178825 -0.063984 2.743174 0.035563 -0.007735 183848.000000 0 0 1
14.168926 -1.586846 -30.748082 33.892789 -0.111530 2.707414 0.037018 -0.011347 152975.000000 0 0 1
14.608726 -2.952346 -31.375552 34.735522 -0.199409 2.698127 0.039256 -0.012888 678310.000000 0 0 1
13.592726 -3.986946 -31.380222 34.429294 -0.285312 2.717566 0.047427 -0.019116 772495.000000 0 0 1
14.049826 -5.119146 -32.092312 35.405081 -0.349407 2.705555 0.047441 -0.019381 -275967.000000 0 0 1
13.092326 -6.285946 -31.968672 35.112934 -0.447621 2.715174 0.065484 -0.023315 -209965.000000 0 0 1
13.388326 -6.936546 -30.736922 34.236258 -0.478026 2.685519 0.070353 -0.018206 400447.000000 0 0 1
13.030426 -8.342546 -30.823972 34.489235 -0.569481 2.676383 0.085552 -0.027318 47543.900000 0 0 1
13.233426 -9.034546 -29.464512 33.539590 -0.599025 2.643509 0.079664 -0.030676 397919.000000 0 0 1
14.636326 -9.084446 -29.184432 33.889236 -0.555485 2.608366 0.093262 -0.029843 633947.000000 0 0 1
15.044226 -9.745346 -28.056842 33.293947 -0.574813 2.573077 0.106794 -0.036045 -111035.000000 0 0 1
15.017526 -11.321946 -28.175822 33.876091 -0.646002 2.553016 0.094762 -0.031484 664322.000000 0 0 1
13.669026 -11.834346 -28.143892 33.451049 -0.713583 2.570564 0.086959 -0.035306 955050.000000 0 0 1
13.582726 -13.229246 -28.484382 34.217882 -0.772215 2.554296 0.096202 -0.036900 56799.800000 0 0 1
-10.060074 -3.252746 -17.396032 20.356999 0.312723 2.595476 0.015059 0.001763 -556085.000000 0 1 0
-10.932074 -2.609146 -18.204632 21.394544 0.234286 2.588494 0.026889 -0.011391 -806706.000000 0 1 0
-11.766274 -3.595146 -18.798732 22.466923 0.296538 2.562079 0.021842 -0.004801 -232293.000000 0 1 0
-12.488474 -3.033146 -20.074632 23.835957 0.238262 2.572146 0.027822 -0.015083 300379.000000 0 1 0
-13.451174 -1.987846 -19.865332 24.073160 0.146720 2.541364 0.015591 -0.010593 235555.000000 0 1 0
-14.009574 -1.682946 -21.119432 25.399427 0.119555 2.552585 0.016306 -0.004837 -83499.200000 0 0 1
-14.995874 -0.527346 -21.155432 25.936589 0.035152 2.524665 0.027063 -0.007993 -275755.000000 0 0 1
-14.358174 0.678254 -21.166132 25.585589 -0.047203 2.545023 0.028998 -0.010067 -128704.000000 0 0 1
-15.245374 1.715254 -20.754932 25.809509 -0.112039 2.505055 0.033012 -0.006804 233117.000000 0 0 1
-14.854974 3.131054 -21.324632 26.176587 -0.207734 2.522914 0.063743 -0.020638 -59669.100000 0 0 1
-13.608374 3.553954 -20.833032 25.136302 -0.255454 2.547761 0.070660 -0.024436 -11688.900000 0 0 1
-13.469274 4.789354 -21.475232 25.798156 -0.341634 2.554280 0.091050 -0.030996 466233.000000 0 0 1
-12.188474 5.558054 -20.993432 24.903314 -0.427840 2.573628 0.073440 -0.029238 379781.000000 0 1 0
-12.357574 6.148854 -19.721232 24.071665 -0.461708 2.530936 0.081071 -0.036591 177632.000000 0 1 0
-11.103674 6.359054 -19.116832 23.003965 -0.520103 2.551741 0.054579 -0.027980 -218901.000000 0 1 0
-11.135574 6.961554 -17.647232 21.997478 -0.558717 2.501832 0.056168 -0.027331 -237564.000000 0 1 0
-11.619874 8.284254 -17.692632 22.730587 -0.619357 2.462849 0.044897 -0.027635 675317.000000 0 1 0
-12.949674 8.418754 -17.187232 23.107800 -0.576455 2.409511 0.069419 -0.012093 232308.000000 0 1 0
-13.599374 9.784554 -17.119032 23.952907 -0.623684 2.366985 0.081380 -0.016885 -416957.000000 0 1 0
-12.910074 10.729454 -16.345232 23.429849 -0.693414 2.342873 0.045493 -0.006120 49228.600000 0 1 0
-13.597374 11.949354 -16.317132 24.370565 -0.720977 2.304389 0.055593 -0.022558 -372365.000000 0 1 0
-12.942774 13.118554 -15.556932 24.117006 -0.792143 2.271899 0.059435 -0.020217 -338202.000000 0 1 0
-12.988674 13.020954 -14.155132 23.208159 -0.786639 2.226757 0.080704 -0.024588 255538.000000 0 1 0
-12.650474 14.228854 -13.483932 23.330478 -0.844052 2.187015 0.076766 -0.028072 -938686.000000 0 1 0
-13.312374 14.376854 -12.129132 23.044068 -0.823823 2.125093 0.068336 -0.029878 1285750.000000 0 1 0
-14.689474 14.818854 -12.009632 24.075098 -0.789783 2.093057 0.074460 -0.026330 907009.000000 0 1 0
-15.642574 13.886454 -12.380632 24.306456 -0.725997 2.105232 0.069298 -0.024937 -347515.000000 0 1 0
-17.097974 14.312454 -11.992032 25.317897 -0.696948 2.064236 0.047800 -0.013000 1438830.000000 0 0 1
-18.160174 13.470954 -12.542732 25.856888 -0.638223 2.077254 0.048958 -0.022605 663485.000000 0 0 1
-19.405274 13.948654 -12.096032 26.785138 -0.623237 2.039348 0.076199 -0.029021 -675580.000000 0 0 1
-20.551874 13.203654 -12.760632 27.559930 -0.571053 2.052189 0.069830 -0.032720 -744424.000000 0 0 1
-20.804374 11.915154 -12.285532 26.939324 -0.520122 2.044342 0.088224 -0.030469 427117.000000 0 0 1
-21.967574 11.343854 -12.858432 27.867483 -0.476674 2.050384 0.108248 -0.032297 -69895.600000 0 0 1
-22.495374 10.139854 -12.077732 27.472352 -0.423480 2.025986 0.108246 -0.032245 -633457.000000 0 0 1
-21.681874 9.033754 -12.161632 26.450287 -0.394777 2.048557 0.115400 -0.034280 -191973.000000 0 0 1
-22.158074 7.961154 -11.478132 26.193658 -0.344926 2.024395 0.114917 -0.025636 -111635.000000 0 0 1
-21.123474 6.793554 -11.528432 25.005165 -0.311164 2.049965 0.129568 -0.025531 199241.000000 0 0 1
-20.913974 6.203754 -12.794832 25.290089 -0.288364 2.101248 0.132048 -0.026897 112352.000000 0 0 1
-19.631174 5.636554 -12.864932 24.138356 -0.279601 2.132899 0.118069 -0.037515 -163506.000000 0 1 0
-19.570374 4.381454 -13.652532 24.260839 -0.220250 2.168492 0.127969 -0.049464 -93883.800000 0 1 0
-20.337474 3.370554 -13.011132 24.377511 -0.164238 2.133808 0.116256 -0.049365 335271.000000 0 1 0
-20.348074 2.172054 -13.749832 24.654002 -0.106342 2.162423 0.109737 -0.052581 -419952.000000 0 1 0
-21.221674 1.027254 -13.243832 25.036250 -0.048368 2.128202 0.119603 -0.054048 -432582.000000 0 0 1
-22.569174 1.034054 -13.624532 26.383039 -0.045785 2.113453 0.099568 -0.048092 -187105.000000 0 0 1
-23.098474 -0.237146 -13.671032 26.841998 0.010266 2.105185 0.090888 -0.045393 -222077.000000 0 0 1
-24.285174 -0.409846 -14.644532 28.361946 0.016875 2.113373 0.106343 -0.037133 61216.100000 0 0 1
-25.518694 0.067754 -14.145232 29.176976 -0.002655 2.076940 0.128494 -0.047216 141155.000000 0 0 1
-26.572904 -0.259546 -15.055532 30.542686 0.009767 2.086255 0.118018 -0.034802 643024.000000 0 0 1
-27.943704 0.070954 -14.384832 31.428952 -0.002539 2.046196 0.119671 -0.033126 132165.000000 0 0 1
-28.325224 -0.752146 -13.298532 31.300719 0.026548 2.009607 0.130929 -0.035522 162372.000000 0 0 1
-29.549444 -0.306246 -12.740132 32.180342 0.010363 1.977842 0.150297 -0.034571 274284.000000 0 0 1
-29.706384 -0.807846 -11.289932 31.789691 0.027188 1.933865 0.145013 -0.033826 -42444.100000 0 0 1
-30.176254 -2.142446 -11.029332 32.200040 0.070879 1.920400 0.147919 -0.026273 566166.000000 0 0 1
-29.217644 -3.148246 -11.327332 31.494295 0.107337 1.938703 0.139164 -0.029086 -70092.800000 0 0 1
-29.529814 -4.534246 -10.703432 31.735355 0.152358 1.914813 0.137973 -0.027605 916770.000000 0 0 1
-30.792074 -5.094646 -11.169132 33.149009 0.163968 1.914458 0.126990 -0.022112 1307490.000000 0 0 1
-31.149664 -6.396746 -10.672232 33.542756 0.202539 1.894593 0.128331 -0.023393 -64924.100000 0 0 1
-30.315944 -7.529746 -11.272232 33.208685 0.243449 1.917114 0.119110 -0.022408 398709.000000 0 0 1
-28.916804 -7.492346 -11.022932 31.840569 0.253525 1.924305 0.110635 -0.015187 89673.300000 0 0 1
-28.248684 -8.525046 -11.688032 31.737591 0.293094 1.947945 0.109821 -0.015746 360016.000000 0 0 1
-26.724804 -8.652746 -11.403132 30.316936 0.313121 1.956413 0.097890 -0.022430 3382.240000 0 0 1
-25.979134 -7.522246 -11.868232 29.535649 0.281842 1.984308 0.081227 -0.015371 927346.000000 0 0 1
-24.578974 -7.648146 -11.588732 28.229751 0.301669 1.993815 0.095919 -0.023201 658949.000000 0 0 1
-24.118374 -7.331646 -10.138032 27.170365 0.295110 1.953175 0.097262 -0.027583 -616826.000000 0 0 1
-24.441774 -6.062446 -9.658832 26.971218 0.243130 1.937046 0.097763 -0.014608 439659.000000 0 0 1
-25.800514 -5.891246 -9.304532 28.052587 0.224490 1.908882 0.104407 -0.019267 -191400.000000 0 0 1
-26.146184 -4.576146 -8.627732 27.910604 0.173267 1.885064 0.118665 -0.031989 -302746.000000 0 0 1
-26.002084 -4.683746 -7.235832 27.393487 0.178219 1.838113 0.120225 -0.025488 364494.000000 0 0 1
-26.231904 -3.427346 -6.680532 27.285326 0.129920 1.818151 0.149774 -0.035102 -65183.100000 0 0 1
-25.883904 -3.376446 -5.176732 26.611566 0.129713 1.766574 0.147362 -0.031404 20640.500000 0 0 1
-24.513274 -3.501446 -4.867532 25.235959 0.141879 1.764894 0.103332 -0.020131 65061.700000 0 0 1
-24.372474 -3.342046 -3.446232 24.840759 0.136274 1.709978 0.073928 -0.019120 29037.700000 0 1 0
-22.944274 -3.594646 -2.915332 23.406417 0.155405 1.695673 0.067785 -0.011921 -45575.400000 0 1 0
-22.638274 -4.945846 -3.014132 23.367453 0.215093 1.700145 0.070986 -0.005727 -154571.000000 0 1 0
-21.426374 -5.307746 -2.442532 22.208729 0.242832 1.681000 0.059808 -0.008258 -637843.000000 0 1 0
-21.469574 -6.884446 -2.468232 22.681058 0.310302 1.679836 0.079860 -0.016396 40605.700000 0 1 0
-22.253674 -7.441146 -1.422032 23.507846 0.322691 1.631325 0.083775 -0.008691 528176.000000 0 1 0
-22.893474 -8.625846 -1.848032 24.534294 0.360332 1.646192 0.093555 -0.020556 -37274.200000 0 1 0
-23.495674 -9.380946 -0.692732 25.308669 0.379871 1.598171 0.100413 -0.023076 -8476.250000 0 0 1
-22.448874 -9.922146 0.099368 24.544059 0.416172 1.566748 0.094545 -0.016094 600966.000000 0 1 0
-22.863474 -10.701346 1.247368 25.274754 0.437766 1.521424 0.088056 -0.013563 794752.000000 0 0 1
-21.567574 -11.236546 1.962568 24.398195 0.480300 1.490270 0.078860 -0.008210 1043130.000000 0 1 0
-20.686974 -12.007346 1.147468 23.946690 0.525906 1.522860 0.080864 -0.005758 1320160.000000 0 1 0
-19.513774 -12.399946 1.900368 23.198221 0.566076 1.488786 0.066272 -0.007087 970634.000000 0 1 0
-18.646674 -13.540946 1.325368 23.082727 0.628085 1.513347 0.056941 -0.001894 143467.000000 0 1 0
-19.360774 -14.778046 1.393068 24.396124 0.651958 1.513663 0.066332 -0.000865 491935.000000 0 1 0
-18.822274 -15.822946 0.615268 24.597199 0.699041 1.545780 0.067779 -0.004520 -517582.000000 0 1 0
-17.706974 -16.647746 1.243268 24.335778 0.754576 1.519686 0.082472 -0.000719 200421.000000 0 1 0
-16.387874 -16.103346 1.148968 23.004354 0.776641 1.520830 0.067866 0.006866 807648.000000 0 1 0
-15.365374 -16.713146 1.918268 22.783848 0.827388 1.486502 0.075011 0.001332 354243.000000 0 1 0
-15.342774 -16.530146 3.455168 22.816324 0.822634 1.418777 0.079284 -0.005237 -536870.000000 0 1 0
-14.940674 -15.246546 3.801268 21.682494 0.795530 1.394571 0.051206 -0.006155 373869.000000 0 1 0
-14.174174 -15.162646 5.031768 21.357241 0.819079 1.332960 0.034337 -0.005287 198056.000000 0 1 0
-14.818874 -15.624946 6.375168 22.458422 0.811869 1.282973 0.051539 -0.006289 -589296.000000 0 1 0
-15.810774 -14.773546 6.942868 22.725353 0.751497 1.260320 0.049045 -0.002716 127573.000000 0 1 0
-15.994674 -15.074146 8.343868 23.509139 0.755778 1.207968 0.056281 -0.002991 -176976.000000 0 1 0
-16.899674 -16.296946 8.709868 25.040991 0.767244 1.215547 0.056138 0.000650 -441784.000000 0 0 1
-16.393874 -17.583946 8.441568 25.479685 0.820409 1.233109 0.057924 0.000263 443063.000000 0 0 1
-17.183774 -18.598346 9.128668 26.916782 0.824911 1.224789 0.080723 -0.013606 408598.000000 0 0 1
-16.720874 -18.833646 10.593168 27.322318 0.844752 1.172649 0.078263 -0.009971 1651620.000000 0 0 1
-15.333574 -19.283346 10.706468 26.862509 0.899006 1.160844 0.067914 -0.007536 1455000.000000 0 0 1
-15.073474 -19.714546 12.020168 27.574579 0.918025 1.119742 0.068596 -0.016891 775512.000000 0 0 1
-13.658074 -20.346746 12.243768 27.394213 0.979616 1.107447 0.069946 -0.019555 966435.000000 0 0 1
-12.515274 -19.582046 11.903368 26.110894 1.002108 1.097439 0.067410 -0.021305 -212300.000000 0 0 1
-11.334874 -20.317646 12.145468 26.244971 1.061921 1.089675 0.063759 -0.024280 292236.000000 0 0 1
-10.208874 -19.365346 12.633468 25.275329 1.085648 1.047389 0.054375 -0.022471 -95733.700000 0 0 1
-9.569174 -18.688646 11.594968 23.984951 1.097570 1.066231 0.045918 -0.023143 325020.000000 0 1 0
-8.372974 -18.066846 12.104468 23.303128 1.136819 1.024606 0.032574 -0.013788 385807.000000 0 1 0
-7.476074 -17.433846 11.066468 21.961270 1.165690 1.042679 0.020653 -0.017041 -596222.000000 0 1 0
-6.590674 -18.259346 10.424068 22.034108 1.224402 1.078004 0.014147 -0.017577 -531218.000000 0 1 0
-6.030974 -17.618546 9.295068 20.813075 1.240990 1.107837 0.014021 -0.011822 -679582.000000 0 1 0
-4.964074 -18.353246 8.492168 20.823078 1.306643 1.150726 0.011266 -0.012263 -345077.000000 0 1 0
-3.704674 -18.152046 9.103868 20.642233 1.369470 1.114049 0.019012 -0.020191 -832180.000000 0 1 0
-2.718174 -18.588546 8.241968 20.514691 1.425597 1.157359 0.033746 -0.025477 -751502.000000 0 1 0
-1.483474 -19.139846 8.919668 21.168252 1.493444 1.135841 0.032670 -0.021099 -195866.000000 0 1 0
-0.410574 -19.570646 8.088768 21.180343 1.549820 1.178945 0.050412 -0.013166 -161131.000000 0 1 0
0.675526 -19.897346 8.909568 21.811490 -1.536859 1.150008 0.060432 -0.016215 -374488.000000 0 1 0
1.960426 -20.268446 8.149468 21.933240 -1.474373 1.190110 0.070665 -0.027019 -29414.600000 0 1 0
2.064826 -21.551646 7.562768 22.933216 -1.475280 1.234733 0.067017 -0.024884 -214621.000000 0 1 0
2.345226 -22.535146 8.505268 24.200671 -1.467100 1.211679 0.072880 -0.026768 -176572.000000 0 1 0
1.881326 -23.965946 8.153068 25.384611 -1.492457 1.243819 0.057224 -0.020974 61531.300000 0 0 1
2.140226 -24.880546 9.149468 26.595769 -1.484988 1.219602 0.070157 -0.019207 -365022.000000 0 0 1
1.514726 -26.060986 8.820968 27.555015 -1.512739 1.244938 0.075542 -0.015758 -773041.000000 0 0 1
1.649326 -27.168406 9.910168 28.966429 -1.510163 1.221618 0.080113 -0.018858 132924.000000 0 0 1
0.778726 -26.981656 10.996568 29.146881 -1.541943 1.183938 0.071717 -0.019015 -337092.000000 0 0 1
-0.541574 -27.408926 10.753768 29.448023 1.551040 1.196972 0.058870 -0.010339 74474.600000 0 0 1
-1.343574 -27.656666 12.083268 30.210954 1.522254 1.159320 0.059711 -0.015614 520294.000000 0 0 1
-0.739174 -28.702466 12.896668 31.475419 1.545049 1.148630 0.057525 -0.014989 218932.000000 0 0 1
-1.166574 -28.508446 14.250568 31.893120 1.529899 1.107586 0.052466 -0.017971 -102046.000000 0 0 1
-0.606274 -29.581166 15.193568 33.260449 1.550304 1.096395 0.042993 -0.003611 138071.000000 0 0 1
-0.810374 -29.230686 16.531068 33.591158 1.543080 1.056267 0.048813 -0.006845 -167684.000000 0 0 1
-0.234474 -30.175406 17.418668 34.842791 1.563026 1.047288 0.043420 -0.001889 -4741.840000 0 0 1
-0.689474 -29.944786 18.860668 35.396192 1.547776 1.008838 0.047564 -0.010749 -34375.600000 0 0 1
-2.023974 -30.298536 19.135368 35.892340 1.504094 1.008498 0.034549 -0.007428 -82258.400000 0 0 1
-2.379174 -29.871566 20.458668 36.283991 1.491317 0.971758 0.050202 -0.016542 1460590.000000 0 0 1
-3.945574 -29.939756 20.759468 36.645764 1.439768 0.968556 0.071680 -0.028465 1270350.000000 0 0 1
-4.710274 -29.058026 19.940268 35.555166 1.410095 0.975413 0.051154 -0.025417 1162390.000000 0 0 1
-6.053774 -28.812926 20.425768 35.833572 1.363702 0.964269 0.059850 -0.033393 1270590.000000 0 0 1
-6.314874 -27.866396 21.638468 35.841832 1.347948 0.922636 0.065280 -0.036261 -506673.000000 0 0 1
-5.645274 -28.312156 22.776868 36.772721 1.373984 0.902824 0.060528 -0.035821 -140649.000000 0 0 1
-5.517174 -27.266066 23.710268 36.552077 1.371146 0.864960 0.054397 -0.030433 -335260.000000 0 0 1
-4.595274 -27.584716 24.907068 37.448566 1.405724 0.843168 0.058497 -0.032034 -154791.000000 0 0 1
-4.918574 -28.647976 25.779168 38.851826 1.400764 0.845275 0.065387 -0.028190 -90683.300000 0 0 1
-4.272274 -29.824256 25.392968 39.402302 1.428516 0.870487 0.062491 -0.031503 -173406.000000 0 0 1
-4.582974 -31.009886 26.298168 40.917115 1.424068 0.872755 0.073297 -0.026776 -115566.000000 0 0 1
-4.000874 -30.913666 27.588868 41.627003 1.442091 0.846293 0.058573 -0.026706 198421.000000 0 0 1
-4.549274 -31.857376 28.481768 42.974404 1.428954 0.846296 0.048236 -0.024974 -229793.000000 0 0 1
-3.870574 -31.812006 29.875868 43.812698 1.449721 0.820440 0.064561 -0.030776 -592648.000000 0 0 1
-2.506874 -32.097166 29.849568 43.903407 1.492852 0.823181 0.065489 -0.033900 -321750.000000 0 0 1
-1.924374 -31.938386 31.142068 44.649660 1.510616 0.798927 0.079244 -0.045953 -50121.700000 0 0 1
-28.617424 2.611354 -10.202332 30.493667 -0.090998 1.911948 0.142700 -0.032644 186637.000000 0 0 1
-29.248274 2.664254 -11.500432 31.540763 -0.090840 1.944022 0.140896 -0.051267 -35673.300000 0 0 1
-30.078754 3.794854 -11.548032 32.442093 -0.125501 1.934736 0.119865 -0.037762 -448878.000000 0 0 1
-31.094594 3.754154 -12.688432 33.792954 -0.120152 1.955706 0.118382 -0.029291 -417613.000000 0 0 1
-32.147634 2.859654 -12.480832 34.603745 -0.088720 1.939792 0.129138 -0.031615 -355920.000000 0 0 1
-33.054864 2.778054 -13.534332 35.826244 -0.083847 1.958191 0.133277 -0.027002 -319707.000000 0 0 1
-34.164816 1.754554 -13.297132 36.703227 -0.051310 1.941518 0.112881 -0.027314 -34544.000000 0 0 1
-33.650154 0.445854 -13.324432 36.194919 -0.013249 1.947793 0.128628 -0.022495 144662.000000 0 0 1
-34.607324 -0.428446 -12.746932 36.882716 0.012380 1.923682 0.109732 -0.020412 358619.000000 0 0 1
-34.065984 -1.860746 -12.579532 36.362045 0.054568 1.924050 0.105227 -0.026350 110956.000000 0 0 1
-34.147233 -2.760946 -13.702232 36.897256 0.080679 1.951272 0.117251 -0.024280 2967.260000 0 0 1
-33.524294 -3.976646 -13.328032 36.295020 0.118068 1.946808 0.124081 -0.021863 -27364.000000 0 0 1
-34.309577 -5.193346 -13.817632 37.350300 0.150227 1.949748 0.109100 -0.020401 -10599.400000 0 0 1
-33.992864 -6.373746 -13.116232 36.988850 0.185350 1.933282 0.106436 -0.023173 204688.000000 0 0 1
-34.602300 -7.426546 -13.848532 38.003350 0.211418 1.943788 0.101046 -0.019843 -222855.000000 0 0 1
-34.202446 -8.792946 -13.194832 37.699162 0.251636 1.928371 0.099811 -0.021942 976963.000000 0 0 1
-32.795444 -9.102746 -13.137132 36.482672 0.270746 1.939163 0.096625 -0.023311 1195640.000000 0 0 1
-32.270974 -9.638346 -14.323032 36.598671 0.290235 1.972899 0.089708 -0.021991 -497933.000000 0 0 1
-31.107084 -10.607746 -14.167032 35.789381 0.328641 1.977784 0.087240 -0.022443 -96794.400000 0 0 1
-31.601024 -11.800446 -13.598532 36.370254 0.357385 1.953998 0.077504 -0.022902 72285.000000 0 0 1
-30.517334 -12.645046 -13.386032 35.642541 0.392821 1.955801 0.104251 -0.025060 -360554.000000 0 0 1
-30.698194 -14.049046 -14.013432 36.553127 0.429198 1.964240 0.113953 -0.027266 -161244.000000 0 0 1
-30.598214 -14.035646 -15.462532 37.045107 0.430072 2.001376 0.112367 -0.029553 74442.800000 0 0 1
-30.762274 -15.289146 -16.232432 37.994307 0.461252 2.012227 0.112593 -0.036003 -473176.000000 0 0 1
-29.665434 -16.335246 -16.046632 37.474960 0.503341 2.013292 0.101535 -0.032802 -1048850.000000 0 0 1
-28.465084 -15.904246 -16.556132 36.569271 0.509520 2.040625 0.104880 -0.037979 -1806810.000000 0 0 1
-27.427884 -16.793646 -16.383032 36.093201 0.549403 2.041944 0.104596 -0.040744 -1650880.000000 0 0 1
-26.115974 -16.171346 -16.681932 34.954877 0.554427 2.068310 0.106569 -0.045482 -1253880.000000 0 0 1
-25.944504 -15.919046 -18.046732 35.386691 0.550345 2.105965 0.100167 -0.046870 -1173880.000000 0 0 1
-24.637474 -16.003846 -18.477832 34.706750 0.576075 2.132228 0.090649 -0.040128 -1317200.000000 0 0 1
-24.383474 -15.612346 -19.963932 35.168989 0.569515 2.174454 0.095977 -0.042723 89659.300000 0 0 1
-24.955074 -16.564946 -20.860532 36.500890 0.586009 2.179138 0.084902 -0.047011 355873.000000 0 0 1
-26.357584 -16.422946 -21.025032 37.503165 0.557219 2.165931 0.088799 -0.049201 -256034.000000 0 0 1
-26.909814 -17.649446 -21.735232 38.833766 0.580493 2.164819 0.084607 -0.041391 -421503.000000 0 0 1
-26.447934 -17.802146 -23.077132 39.356876 0.592444 2.197349 0.080185 -0.028027 261452.000000 0 0 1
-27.048314 -18.908446 -23.740432 40.654013 0.610096 2.194398 0.067734 -0.024408 -531482.000000 0 0 1
-26.395334 -19.068846 -25.118052 41.124824 0.625623 2.227837 0.062574 -0.024133 475352.000000 0 0 1
-25.044444 -19.506546 -25.130632 40.488001 0.661728 2.240423 0.071658 -0.024525 83233.500000 0 0 1
-24.872374 -20.892146 -24.683432 40.796919 0.698645 2.220602 0.072248 -0.017654 -145039.000000 0 0 1
-23.366774 -21.237446 -24.484732 39.956694 0.737696 2.230372 0.067863 -0.007529 922766.000000 0 0 1
-22.698274 -21.240646 -25.801162 40.398969 0.752236 2.263551 0.062419 -0.009482 157146.000000 0 0 1
-21.324074 -21.521646 -25.626622 39.681497 0.790009 2.272877 0.053154 -0.008348 290127.000000 0 0 1
-20.487274 -21.466946 -26.937542 40.077293 0.808745 2.307891 0.042613 -0.004583 28399.100000 0 0 1
-20.593374 -22.600746 -27.828812 41.343967 0.831838 2.309195 0.063714 -0.009492 -493889.000000 0 0 1
-21.079574 -22.203346 -29.117542 42.251252 0.811356 2.331115 0.080633 -0.003479 324617.000000 0 0 1
-20.174774 -22.363946 -30.407612 42.799422 0.836816 2.360959 0.069091 -0.012007 284342.000000 0 0 1
-20.043474 -23.724946 -30.814252 43.750795 0.869313 2.352251 0.074047 -0.026330 -77478.100000 0 0 1
-19.464374 -23.718346 -32.095842 44.402308 0.883592 2.378702 0.071265 -0.022313 -69858.400000 0 0 1
-18.916674 -25.087856 -32.508552 45.211139 0.924729 2.373214 0.074896 -0.020839 171492.000000 0 0 1
-18.175174 -25.106366 -33.718112 45.799320 0.944192 2.398256 0.063985 -0.023514 92360.600000 0 0 1
-19.046574 -25.147956 33.393045 45.937862 0.922588 0.756974 0.070765 -0.017675 -304687.000000 0 0 1
-18.352974 -24.819646 32.056041 44.502093 0.934079 0.766523 0.075702 -0.018381 -330400.000000 0 0 1
-17.988874 -23.469246 31.843211 43.455669 0.916827 0.748406 0.060949 -0.010368 235345.000000 0 0 1
-17.239974 -23.281746 30.626621 42.157400 0.933407 0.757607 0.067417 -0.007095 373340.000000 0 0 1
-16.405974 -21.973546 30.559651 41.059530 0.929459 0.731345 0.071186 -0.004278 266265.000000 0 0 1
-17.222074 -20.806146 30.431071 40.688397 0.879368 0.725895 0.064391 -0.012198 190128.000000 0 0 1
-16.495674 -19.636846 30.119711 39.558943 0.872115 0.705345 0.067870 -0.013089 -146627.000000 0 0 1
-15.735474 -18.954246 31.259921 39.800142 0.877921 0.667418 0.075999 -0.014764 -337986.000000 0 0 1
-15.182274 -17.760946 30.854921 38.703731 0.863515 0.648140 0.080333 -0.019750 -119966.000000 0 0 1
-14.366074 -17.186646 31.879411 38.962312 0.874554 0.612503 0.074634 -0.021925 488907.000000 0 0 1
-13.753274 -15.787446 31.471771 37.800375 0.854150 0.587050 0.072891 -0.023631 242846.000000 0 0 1
-12.737974 -15.830446 30.471361 36.624621 0.893226 0.588109 0.081324 -0.024755 -31895.800000 0 0 1
-12.376274 -14.524646 30.174091 35.701727 0.865091 0.563910 0.072692 -0.020686 -909699.000000 0 0 1
-10.874274 -14.398746 30.058081 35.057980 0.923960 0.540635 0.091807 -0.024982 -801295.000000 0 0 1
-10.537674 -13.025446 29.962841 34.328948 0.890588 0.509854 0.093792 -0.027792 543867.000000 0 0 1
-9.183374 -12.838246 30.413911 34.266032 0.949866 0.478727 0.088793 -0.027190 872124.000000 0 0 1
-8.876574 -11.331746 30.573181 33.792328 0.906299 0.440034 0.086919 -0.029495 -190587.000000 0 0 1
-9.666474 -10.726946 31.543001 34.691051 0.837352 0.429306 0.090106 -0.026510 -39284.100000 0 0 1
-9.416574 -9.330646 31.477241 34.154788 0.780815 0.398599 0.065590 -0.018440 58414.800000 0 0 1
-10.348074 -8.559146 32.437215 35.107187 0.691063 0.392520 0.061253 -0.018831 780340.000000 0 0 1
-11.650074 -8.244146 31.918751 34.964222 0.615840 0.420469 0.058668 -0.023651 918992.000000 0 0 1
-12.574274 -7.520146 32.743934 35.872415 0.538990 0.420736 0.045434 -0.027287 320085.000000 0 0 1
-12.208074 -6.129346 33.370418 36.058158 0.465305 0.388546 0.034867 -0.018867 -614985.000000 0 0 1
-12.101274 -5.119346 32.363735 34.929356 0.400211 0.385665 0.030493 -0.013651 93724.300000 0 0 1
-12.202874 -3.851346 32.928131 35.327112 0.305715 0.370649 0.021910 -0.016118 -621936.000000 0 0 1
-11.816174 -2.693546 32.000501 34.218551 0.224124 0.362030 0.012620 -0.011689 -97319.300000 0 0 1
-10.406074 -2.727046 31.903961 33.668767 0.256299 0.325211 0.016080 -0.006583 10984.000000 0 0 1
-9.947274 -1.588646 31.206691 32.792219 0.158369 0.312235 0.008760 -0.000348 -605035.000000 0 0 1
-8.450774 -1.336446 31.309321 32.457284 0.156846 0.266754 0.027131 0.000035 -623391.000000 0 0 1
-8.120074 -0.736846 32.558660 33.564042 0.090496 0.245377 0.032999 -0.016567 -1313040.000000 0 0 1
-6.816874 -0.371546 32.692108 33.397332 0.054450 0.205868 0.054367 -0.015804 -1446980.000000 0 0 1
-6.620974 0.342154 34.021650 34.661608 -0.051631 0.192458 0.074057 -0.026100 -320245.000000 0 0 1
-7.199174 1.653254 34.076304 34.867691 -0.225731 0.213463 0.068013 -0.023132 230105.000000 0 0 1
-6.444874 2.625154 33.397557 34.114874 -0.386804 0.205429 0.084693 -0.023920 -189545.000000 0 0 1
-7.114074 4.010254 33.567906 34.547019 -0.513306 0.238648 0.071980 -0.019950 -137239.000000 0 0 1
-8.409874 3.995054 33.032541 34.319604 -0.443484 0.274733 0.042205 -0.005562 -242430.000000 0 0 1
-9.083674 5.230654 33.203134 34.818400 -0.522458 0.305792 0.034838 0.010235 -454844.000000 0 0 1
-10.523974 5.194754 32.687927 34.730967 -0.458524 0.344705 0.017301 0.013199 -669125.000000 0 0 1
-11.233874 6.342254 32.912461 35.350448 -0.513957 0.373561 0.022226 0.007066 454947.000000 0 0 1
-12.348674 6.455854 31.997161 34.899658 -0.481719 0.410721 -0.008342 0.008003 778587.000000 0 0 1
-13.019774 7.893054 31.980581 35.419943 -0.544992 0.444333 0.007710 -0.004088 15985.300000 0 0 1
-13.698874 8.072854 33.178846 36.792199 -0.532521 0.446902 0.002889 0.001250 -870620.000000 0 0 1
-14.528274 9.142754 33.157270 37.337183 -0.561691 0.477711 0.008832 0.002811 -1086900.000000 0 0 1
-15.399274 9.339354 -33.855932 38.348212 -0.545171 2.652704 0.002285 0.000788 -299125.000000 0 0 1
-14.735774 9.601054 -32.609722 37.050199 -0.577462 2.646974 0.019409 -0.003506 455374.000000 0 0 1
-15.636574 10.021054 -31.544822 36.606008 -0.569932 2.609484 0.030749 -0.009046 -235061.000000 0 0 1
-14.898674 10.032254 -30.182692 35.122806 -0.592626 2.604789 0.046272 -0.016990 740802.000000 0 0 1
-13.968674 11.109154 -30.014282 34.919827 -0.671863 2.605126 0.057424 -0.019775 2350790.000000 0 0 1
-12.677474 10.958154 -30.742072 35.012491 -0.712783 2.642530 0.050419 -0.023731 1598890.000000 0 0 1
-11.748474 12.187254 -30.826212 35.168326 -0.803728 2.639409 0.047939 -0.021141 -248577.000000 0 0 1
-12.245774 13.181354 -31.687732 36.439257 -0.822176 2.625197 0.049287 -0.024792 -32398.000000 0 0 1
-11.445674 14.351254 -31.786002 36.705747 -0.897558 2.617879 0.046439 -0.028065 26281.300000 0 0 1
-11.687974 15.421154 -30.633252 36.232815 -0.922247 2.578215 0.066713 -0.030719 709057.000000 0 0 1
-12.991174 16.021354 -30.718892 37.001415 -0.889465 2.550278 0.064832 -0.027642 638781.000000 0 0 1
-13.159774 17.114854 -29.860912 36.847957 -0.915303 2.515600 0.058464 -0.025081 688611.000000 0 0 1
-14.697874 17.412954 -29.691562 37.427628 -0.869751 2.487016 0.051333 -0.030137 731401.000000 0 0 1
-15.249274 17.873454 -30.904862 38.821531 -0.864459 2.491579 0.058004 -0.028934 253486.000000 0 0 1
-16.608674 18.268154 -30.998392 39.629204 -0.832943 2.469003 0.055830 -0.030089 538945.000000 0 0 1
-16.975274 19.691554 -30.396692 39.998452 -0.859343 2.434027 0.029380 -0.018286 -587520.000000 0 0 1
-16.422874 20.724454 -31.111312 40.830473 -0.900683 2.437135 0.026110 -0.014868 -2712.970000 0 0 1
-16.761174 21.986554 -30.560052 41.209978 -0.919446 2.406203 0.008990 -0.008278 181941.000000 0 0 1
-18.155974 22.557954 -30.899482 42.347121 -0.893100 2.388638 0.014599 -0.009724 187724.000000 0 0 1
-19.292074 22.026454 -30.263642 42.109819 -0.851480 2.372704 0.025548 -0.018840 757657.000000 0 0 1
-20.354474 21.725954 -31.198912 43.124167 -0.817978 2.379608 0.049579 -0.018405 42226.600000 0 0 1
-21.656674 21.188954 -30.551142 43.027382 -0.774482 2.360351 0.064942 -0.028033 -634685.000000 0 0 1
-22.355574 22.138354 -29.787522 43.326376 -0.780516 2.328857 0.100843 -0.030312 473877.000000 0 0 1
-23.093374 23.119654 -30.567782 44.746080 -0.785967 2.322848 0.105760 -0.019752 -549753.000000 0 0 1
-24.406874 22.648154 -31.202162 45.631232 -0.748040 2.323740 0.113537 -0.037505 -850074.000000 0 0 1
-24.251474 21.683054 -32.242862 45.802740 -0.729542 2.351741 0.102785 -0.031363 -307595.000000 0 0 1
-25.470974 21.520954 -32.908092 46.849381 -0.701538 2.349593 0.115715 -0.030797 -368864.000000 0 0 1
-25.437564 20.664154 34.009459 47.230501 -0.682225 0.766887 0.108958 -0.016554 -59194.300000 0 0 1
-25.080924 19.299254 -33.994492 46.445016 -0.655852 2.391946 0.105807 -0.019475 198076.000000 0 0 1
-25.090414 18.665154 32.963341 45.436755 -0.639596 0.759068 0.084656 -0.033665 -28015.800000 0 0 1
-24.544774 17.182154 33.047231 44.607083 -0.610748 0.736459 0.075303 -0.011481 13596.500000 0 0 1
-25.470714 16.228954 33.564052 45.151764 -0.567297 0.732715 0.082645 -0.008376 427156.000000 0 0 1
-25.817024 15.343354 32.505511 44.255457 -0.536226 0.745871 0.084174 -0.015195 -170102.000000 0 0 1
-26.763334 14.185554 32.893972 44.715986 -0.487387 0.744215 0.061650 -0.004475 -997262.000000 0 0 1
-28.096654 14.531854 33.049481 45.747841 -0.477320 0.763490 0.060131 0.002255 -767293.000000 0 0 1
-28.972174 13.424554 32.871889 45.827575 -0.433909 0.770884 0.060304 0.008410 38260.600000 0 0 1
-29.048374 12.184954 33.794920 46.199326 -0.397178 0.750273 0.042228 0.003943 -594590.000000 0 0 1
-27.885204 11.400854 33.945429 45.385639 -0.388112 0.725853 0.052953 -0.010038 -534682.000000 0 0 1
-28.184504 10.085254 -33.825072 45.168730 -0.343633 2.417137 0.060946 -0.005667 -725181.000000 0 0 1
-27.043824 9.046854 -33.672512 44.125413 -0.322823 2.438907 0.064689 -0.013045 281911.000000 0 0 1
-26.117574 8.756554 33.492533 43.365363 -0.323496 0.688289 0.077392 -0.010582 372276.000000 0 0 1
-25.324184 9.846354 33.104277 42.827072 -0.370825 0.687279 0.072055 -0.018909 -1125560.000000 0 0 1
-24.000074 9.470554 32.438034 41.447811 -0.375847 0.671927 0.070010 -0.012140 -312768.000000 0 0 1
-24.191574 9.013654 31.100081 40.418972 -0.356660 0.692828 0.059911 -0.011095 683701.000000 0 0 1
-22.946774 8.786554 30.425831 39.108684 -0.365688 0.679350 0.056383 -0.011661 722140.000000 0 0 1
-23.119074 8.647454 28.885331 37.995163 -0.357929 0.707118 0.067496 -0.013436 103873.000000 0 0 1
-23.662074 9.804054 28.285751 38.158838 -0.392804 0.735846 0.041925 -0.010339 288880.000000 0 0 1
-23.329274 9.778154 26.919691 36.939641 -0.396894 0.754304 0.043307 -0.012182 -525993.000000 0 0 1
-23.489474 11.161254 26.217951 36.928444 -0.443579 0.781346 0.041857 -0.015784 -122176.000000 0 0 1
-24.797874 11.658054 26.191201 37.905459 -0.439462 0.807978 0.057128 -0.016525 -377265.000000 0 0 1
-25.653454 11.188254 25.170731 37.640968 -0.411260 0.838330 0.055931 -0.010088 5917.920000 0 0 1
-27.066634 11.784054 25.370041 38.924357 -0.410623 0.860870 0.078448 -0.015541 -60296.400000 0 0 1
-27.102014 13.197054 25.128101 39.244144 -0.453145 0.875905 0.082207 -0.015340 180741.000000 0 0 1
-28.351184 13.791154 25.460291 40.524215 -0.452741 0.891464 0.099202 -0.022317 431295.000000 0 0 1
-28.368134 15.301354 25.355801 41.009744 -0.494657 0.904235 0.104367 -0.023090 -195530.000000 0 0 1
-27.673414 15.875254 26.411071 41.417221 -0.520830 0.879309 0.125715 -0.025896 -142943.000000 0 0 1
-27.627954 17.290154 26.131761 41.774660 -0.559189 0.894972 0.113133 -0.007359 -1106200.000000 0 0 1
-22.665274 -9.103346 31.850221 40.137540 0.381922 0.654213 0.046424 -0.020259 -496825.000000 0 0 1
-21.871474 -8.640446 30.785381 38.739623 0.376237 0.652326 0.050109 -0.030809 -306520.000000 0 0 1
-22.398974 -8.882446 29.547591 38.127051 0.377534 0.684117 0.047700 -0.025588 -546015.000000 0 0 1
-21.414874 -8.606646 28.400111 36.595594 0.382144 0.682414 0.062555 -0.030845 -604433.000000 0 0 1
-20.983574 -7.263446 28.184451 35.880793 0.333240 0.667289 0.065978 -0.030404 373201.000000 0 0 1
-19.798274 -6.851846 28.857041 35.660178 0.333181 0.627968 0.057413 -0.029558 -67378.600000 0 0 1
-18.460074 -7.345846 28.258451 34.543825 0.378722 0.612790 0.059741 -0.022751 -949817.000000 0 0 1
-18.175374 -8.654846 28.378381 34.793435 0.444415 0.616988 0.057261 -0.026696 67169.700000 0 0 1
-17.678974 -9.059746 29.671421 35.707399 0.473565 0.589965 0.061996 -0.032230 -842625.000000 0 0 1
-16.234974 -8.733546 30.041921 35.247216 0.493542 0.550390 0.055855 -0.029864 -981863.000000 0 0 1
-15.259574 -9.429846 29.305551 34.359743 0.553523 0.549274 0.049190 -0.023912 -1319940.000000 0 0 1
-14.043574 -8.957846 29.736301 34.083905 0.567794 0.510615 0.049619 -0.023118 -503160.000000 0 0 1
-12.775574 -9.791146 29.355181 33.478478 0.653912 0.501552 0.058936 -0.021262 512287.000000 0 0 1
-12.423574 -9.716846 27.963851 32.105128 0.663749 0.513544 0.061844 -0.020992 340625.000000 0 0 1
-11.235374 -10.477646 27.704251 31.678703 0.750515 0.506313 0.072465 -0.024718 433484.000000 0 0 1
-10.735374 -10.158946 26.268291 30.140928 0.757817 0.512512 0.057798 -0.023208 155987.000000 0 0 1
-11.683274 -10.605646 25.329361 29.842171 0.737088 0.557128 0.050755 -0.021260 76248.500000 0 0 1
-11.187174 -10.323946 24.025811 28.442509 0.745290 0.564764 0.044566 -0.022377 -55525.600000 0 0 1
-12.135974 -10.770646 22.934271 28.093940 0.725865 0.615747 0.050681 -0.028037 -494461.000000 0 0 1
-12.240174 -12.170246 22.712571 28.527139 0.782533 0.649851 0.046555 -0.025480 182100.000000 0 0 1
-13.475774 -12.631646 22.214471 28.890097 0.753077 0.693630 0.044121 -0.021089 819299.000000 0 0 1
-14.712674 -12.727746 23.189471 30.268959 0.713188 0.698024 0.053821 -0.018654 300521.000000 0 0 1
-15.956374 -12.891446 22.566571 30.496646 0.679551 0.737772 0.041837 -0.012519 -112855.000000 0 0 1
-16.985174 -12.902146 23.531591 31.759995 0.649625 0.736358 0.051491 -0.011149 506006.000000 0 0 1
-18.323074 -13.600446 23.119771 32.484319 0.638528 0.778851 0.070849 -0.017570 -57005.100000 0 0 1
-18.210474 -15.001546 23.031971 32.971798 0.689078 0.797447 0.064875 -0.016552 624667.000000 0 0 1
-19.432174 -15.743646 22.924371 33.926370 0.680920 0.828870 0.064267 -0.012639 552430.000000 0 0 1
-20.339274 -15.723546 24.180331 35.293121 0.658099 0.816016 0.061708 -0.015500 -368259.000000 0 0 1
-19.825074 -16.705546 25.051821 36.051388 0.700210 0.802527 0.062035 -0.013215 674452.000000 0 0 1
-20.407874 -16.469146 26.366561 37.187493 0.678994 0.782693 0.046789 -0.016765 173894.000000 0 0 1
-19.727074 -17.295846 27.485851 37.997049 0.719824 0.762128 0.046167 -0.014422 66358.900000 0 0 1
-20.098174 -18.704446 27.386541 38.779061 0.749495 0.786652 0.054947 -0.008976 373544.000000 0 0 1
-19.953474 -19.436046 28.586021 39.913176 0.772263 0.772447 0.048960 -0.010926 -563164.000000 0 0 1
-20.039274 -20.942746 28.317891 40.522513 0.807440 0.797052 0.059374 -0.004196 -410167.000000 0 0 1
-21.267474 -21.421546 27.827921 41.055831 0.789007 0.826021 0.037196 0.000797 -392964.000000 0 0 1
-21.279274 -22.752146 27.355331 41.458193 0.818836 0.850205 0.041309 0.006738 -106301.000000 0 0 1
-22.648374 -23.373946 27.000541 42.288526 0.801163 0.878270 0.037518 0.003756 -62309.700000 0 0 1
-23.320174 -23.922846 28.130901 43.674715 0.798154 0.870950 0.030817 0.008410 502829.000000 0 0 1
-24.521274 -24.569046 27.688921 44.402784 0.786371 0.897476 0.017995 0.007899 247278.000000 0 0 1
-25.244154 -25.268996 28.816571 45.893183 0.785890 0.891938 0.002007 0.006404 -441065.000000 0 0 1
-25.899344 -24.496846 29.808481 46.469528 0.757576 0.874393 -0.001545 0.008210 90709.000000 0 0 1
-26.500064 -25.450476 30.672181 47.861914 0.765197 0.875195 -0.001043 0.012253 -410362.000000 0 0 1
-27.650914 -24.882646 31.522031 48.758154 0.732752 0.867812 0.015513 0.003138 -13970.700000 0 0 1
-28.783524 -24.748046 30.674101 48.804278 0.710155 0.891157 0.020525 -0.002515 -48307.600000 0 0 1
-29.685564 -23.746346 31.089321 49.108732 0.674698 0.885282 0.032683 -0.015666 20224.900000 0 0 1
-30.879344 -23.671346 30.097601 49.190773 0.654025 0.912393 0.039725 -0.021935 -261620.000000 0 0 1
-31.952444 -24.515246 30.406491 50.462964 0.654445 0.924103 0.042584 -0.021594 -505024.000000 0 0 1
-33.055144 -24.238446 29.592521 50.555535 0.632710 0.945489 0.043284 -0.021310 239398.000000 0 0 1
-34.342307 -25.038946 29.980091 52.011045 0.629990 0.956458 0.053108 -0.027835 425643.000000 0 0 1
-34.132334 -26.418166 30.063561 52.599938 0.658680 0.962401 0.059950 -0.025045 -364000.000000 0 0 1
-35.151453 -26.984206 30.823991 53.980464 0.654705 0.963047 0.064829 -0.022169 -174781.000000 0 0 1
-34.966025 -28.502296 31.058331 54.768821 0.683906 0.967839 0.071722 -0.021587 -211745.000000 0 0 1
-33.995364 -28.785776 32.028061 54.864400 0.702608 0.947435 0.066551 -0.014768 -203303.000000 0 0 1
-33.806274 -30.203456 32.148841 55.575722 0.729172 0.953946 0.064588 -0.020389 763907.000000 0 0 1
-32.764184 -30.580166 33.293770 55.831115 0.750933 0.931875 0.051580 -0.018205 866068.000000 0 0 1
-33.300214 -30.380686 -33.621622 56.234365 0.739584 2.211655 0.057113 -0.012267 51589.500000 0 0 1
-32.269404 -30.523986 -32.663662 55.135678 0.757609 2.204860 0.044774 -0.013273 232384.000000 0 0 1
-32.651604 -30.004806 -31.241782 54.244489 0.743180 2.184555 0.049390 -0.015164 99268.400000 0 0 1
-32.747424 -28.591726 -31.092492 53.447392 0.717752 2.191663 0.038780 -0.011624 460170.000000 0 0 1
-31.459934 -27.980456 -30.956992 52.258672 0.726928 2.204806 0.037893 -0.005369 124223.000000 0 0 1
-31.583134 -26.478346 -30.707192 51.395806 0.697703 2.211132 0.030848 -0.000843 -102700.000000 0 0 1
-32.202354 -26.080106 -29.518992 50.877642 0.680738 2.189765 0.028280 -0.008579 -177020.000000 0 0 1
-32.253384 -24.681946 -29.245022 50.047483 0.653191 2.194870 0.028241 -0.006506 421616.000000 0 0 1
-30.925284 -24.022146 -28.716932 48.560261 0.660421 2.203549 0.037638 -0.009821 475504.000000 0 0 1
-30.961384 -22.612446 -28.685142 47.882851 0.630802 2.213134 0.034766 -0.002119 -753912.000000 0 0 1
-29.940934 -22.086146 -27.928322 46.521485 0.635555 2.214712 0.053446 -0.004757 -775373.000000 0 0 1
-29.695004 -20.591646 -28.239322 45.861405 0.606308 2.234138 0.059193 -0.013687 -74896.900000 0 0 1
-29.073664 -20.329146 -29.509342 46.144918 0.610208 2.264635 0.069774 -0.004812 413917.000000 0 0 1
-28.946204 -18.936046 -29.648162 45.557328 0.579309 2.279418 0.056128 -0.009070 -316449.000000 0 0 1
-28.511224 -18.441446 -31.048042 46.010409 0.574132 2.311496 0.072508 -0.003193 628723.000000 0 0 1
-29.505284 -18.403546 -32.101872 47.326341 0.557691 2.316255 0.070147 -0.008803 155606.000000 0 0 1
-30.417884 -17.387546 -31.874362 47.366121 0.519292 2.308967 0.047397 -0.008870 -217925.000000 0 0 1
-31.408904 -17.035946 -33.045862 48.670029 0.496984 2.317166 0.038370 -0.011275 720463.000000 0 0 1
-32.377114 -17.995846 -33.445822 49.907425 0.507301 2.305217 0.057227 -0.015385 -148925.000000 0 0 1
-33.606064 -17.383746 -33.710462 50.675018 0.477376 2.298596 0.062936 -0.016568 -206643.000000 0 0 1
-34.275783 -18.181546 33.374750 51.178823 0.487709 0.860418 0.065345 -0.022362 -443415.000000 0 0 1
-34.650518 -19.513346 33.668833 52.105848 0.512881 0.868251 0.043952 -0.023891 288899.000000 0 0 1
-35.446665 -20.149946 32.678645 52.253041 0.516904 0.895162 0.049066 -0.028148 -170515.000000 0 0 1
-35.750382 -21.615346 33.113944 53.308970 0.543809 0.900561 0.031785 -0.026198 -439656.000000 0 0 1
-34.716847 -22.535546 32.938554 52.896679 0.575759 0.898613 0.059047 -0.030112 -501282.000000 0 0 1
-34.890507 -23.689946 33.717316 53.994615 0.596479 0.896360 0.056282 -0.033241 -902653.000000 0 0 1
-33.655244 -24.610046 33.802802 53.674568 0.631386 0.889535 0.063191 -0.028435 407720.000000 0 0 1
-32.573964 -24.277746 -33.559422 52.694468 0.640494 2.261225 0.043675 -0.025246 372392.000000 0 0 1
-31.978874 -23.000446 -33.702532 51.841389 0.623522 2.278524 0.045759 -0.028720 -793858.000000 0 0 1
-30.544244 -22.892846 -33.126002 50.540729 0.643180 2.285551 0.051026 -0.016807 138949.000000 0 0 1
-29.614404 -23.858246 -33.634232 50.768991 0.678164 2.294942 0.049297 -0.017925 1037110.000000 0 0 1
-28.281224 -23.752246 -33.113372 49.603349 0.698577 2.301728 0.055450 -0.010093 821289.000000 0 0 1
-28.062164 -24.197946 -31.641982 48.726181 0.711590 2.277570 0.054251 0.000683 -791972.000000 0 0 1
-28.040704 -25.646426 -31.496182 49.356152 0.740831 2.262878 0.045607 -0.004391 -283681.000000 0 0 1
-27.666754 -25.970206 -30.164592 48.474772 0.753779 2.242441 0.044919 -0.006109 -54615.100000 0 0 1
-27.470194 -27.427316 -29.792782 48.933415 0.784617 2.225398 0.042725 -0.013786 155101.000000 0 0 1
-28.645124 -28.219746 -29.836042 50.070816 0.777918 2.209153 0.037748 -0.001780 -45437.100000 0 0 1
-28.361164 -29.448836 -29.212122 50.248758 0.804211 2.191183 0.045342 -0.002962 -208239.000000 0 0 1
-29.017764 -30.696706 -29.763032 51.673557 0.813507 2.184601 0.035769 0.011671 -498176.000000 0 0 1
-28.715664 -31.002176 -31.097402 52.466873 0.823668 2.205210 0.044139 -0.010381 310189.000000 0 0 1
-28.938214 -32.381976 -31.379332 53.578682 0.841500 2.196501 0.060395 -0.003703 -346795.000000 0 0 1
-28.469414 -32.837806 -32.784672 54.439543 0.856532 2.217077 0.036496 -0.019590 -640285.000000 0 0 1
-27.076474 -32.747706 -32.840142 53.703097 0.879914 2.228768 0.044634 -0.025080 -820773.000000 0 0 1
-26.767894 -33.181646 34.068459 54.572903 0.891979 0.896594 0.052200 -0.031259 -875358.000000 0 0 1
-25.308214 -33.545796 33.904770 53.994070 0.924461 0.891899 0.067858 -0.033845 -724401.000000 0 0 1
-25.022974 33.897843 32.745307 53.361673 -0.934898 0.910123 0.050615 -0.018531 1213.470000 0 0 1
-23.826974 33.143557 32.857639 52.400806 -0.947497 0.893043 0.057821 -0.013899 122239.000000 0 0 1
-23.581374 32.348714 31.583301 50.990445 -0.940888 0.902823 0.061414 -0.018714 -302856.000000 0 0 1
-24.520274 31.307893 31.495921 50.728898 -0.906385 0.900948 0.075490 -0.040256 -143263.000000 0 0 1
-24.331974 30.394633 30.432911 49.417009 -0.895729 0.907346 0.074372 -0.022227 -231670.000000 0 0 1
-25.627734 29.694403 29.947831 49.349883 -0.858775 0.918709 0.062776 -0.020699 -29668.900000 0 0 1
-26.210494 28.735963 30.794421 49.608890 -0.831328 0.901105 0.059940 -0.026018 621843.000000 0 0 1
-27.440974 28.241273 30.253571 49.657378 -0.799770 0.915687 0.055617 -0.030108 476444.000000 0 0 1
-27.991014 27.036453 31.015711 49.763853 -0.768053 0.897895 0.049263 -0.046689 -391289.000000 0 0 1
-27.359174 25.794183 30.781081 48.593613 -0.755964 0.884807 0.063787 -0.036286 -353903.000000 0 0 1
-28.049444 24.620453 31.144451 48.609823 -0.720386 0.875383 0.069623 -0.036435 -437559.000000 0 0 1
-29.149714 24.205263 30.199051 48.451866 -0.692991 0.897867 0.065873 -0.035362 -356925.000000 0 0 1
-28.667104 24.002583 28.892181 47.251296 -0.697067 0.912895 0.071382 -0.031119 -172096.000000 0 0 1
-29.604144 23.304513 28.081461 46.990150 -0.666890 0.930288 0.075132 -0.023561 252737.000000 0 0 1
-29.036724 22.966353 26.684061 45.635774 -0.669193 0.946264 0.090995 -0.034596 -260404.000000 0 0 1
-27.856994 22.215453 26.777981 44.571277 -0.673204 0.926307 0.084857 -0.031180 -142344.000000 0 0 1
-27.227274 21.995753 25.483871 43.296251 -0.679514 0.941479 0.074913 -0.021406 198373.000000 0 0 1
-25.837564 21.384753 25.784081 42.304920 -0.691382 0.915389 0.072957 -0.027569 -108566.000000 0 0 1
-25.917284 20.114853 26.377021 42.095845 -0.660008 0.893621 0.101169 -0.031260 -583858.000000 0 0 1
-24.652974 19.631053 26.647091 41.270024 -0.672478 0.868887 0.070519 -0.015843 -938146.000000 0 0 1
-24.682674 18.346253 27.534551 41.279183 -0.639189 0.840578 0.092664 -0.019734 -827080.000000 0 0 1
-23.438674 17.879853 27.973501 40.639603 -0.651665 0.811611 0.055028 -0.010604 31895.600000 0 0 1
-23.676474 16.938353 29.006771 41.095937 -0.620993 0.787201 0.064966 -0.013700 433345.000000 0 0 1
-22.432674 16.051553 29.299111 40.240715 -0.621082 0.755256 0.047443 -0.017033 318720.000000 0 0 1
-21.336374 16.593053 30.028821 40.401737 -0.660988 0.732873 0.059889 -0.007740 551883.000000 0 0 1
-20.330374 15.552953 29.981501 39.422188 -0.653039 0.706677 0.043995 -0.005808 478438.000000 0 0 1
-19.046474 15.983453 30.745131 39.541144 -0.698180 0.680040 0.037640 -0.013998 -174034.000000 0 0 1
-19.234974 15.921053 32.156541 40.712496 -0.691413 0.660241 0.032550 -0.009052 109722.000000 0 0 1
-18.286674 16.671453 32.883343 41.154029 -0.739227 0.645114 0.042940 -0.017221 -1034700.000000 0 0 1
-18.333774 16.650053 -33.788482 41.892876 -0.737307 2.509080 0.044115 -0.025035 92941.700000 0 0 1
-19.473874 17.268053 -33.218352 42.200431 -0.725435 2.476982 0.056057 -0.024832 947672.000000 0 0 1
-20.693474 16.528153 -33.399192 42.625178 -0.673956 2.471164 0.059751 -0.014542 -203107.000000 0 0 1
-21.956674 17.078453 -32.736062 42.958339 -0.661073 2.437257 0.069857 -0.029995 -288287.000000 0 0 1
-21.952774 16.860153 -31.372622 41.838147 -0.654934 2.418642 0.069659 -0.032387 169343.000000 0 0 1
-23.033374 17.540753 -30.776002 42.253718 -0.650844 2.386725 0.068787 -0.032600 -366160.000000 0 0 1
-23.112174 17.270153 -29.236112 41.075310 -0.641727 2.362809 0.064205 -0.027916 363676.000000 0 0 1
-23.765274 16.108853 -28.660642 40.567423 -0.595692 2.355328 0.056468 -0.029787 -300041.000000 0 0 1
-25.139434 16.013953 -28.884642 41.506149 -0.567186 2.340486 0.064516 -0.027841 -620991.000000 0 0 1
-25.813694 15.017253 -27.939762 40.896149 -0.526896 2.322916 0.063727 -0.017812 -27025.800000 0 0 1
-25.407154 13.674553 -28.179072 40.330844 -0.493752 2.344372 0.044888 -0.014469 300148.000000 0 0 1
-26.284154 12.842153 -27.439912 40.108932 -0.454477 2.324213 0.017383 -0.010669 227829.000000 0 0 1
-25.971534 11.319253 -27.520722 39.497294 -0.411010 2.341688 0.033043 -0.017350 120055.000000 0 0 1
-25.001074 10.794553 -26.645252 38.099154 -0.407585 2.345306 0.031466 -0.011792 18715.900000 0 0 1
-24.056874 9.959253 -27.292852 37.720283 -0.392506 2.379741 0.026678 -0.004643 -486832.000000 0 0 1
-23.062074 9.336053 -26.357582 36.245597 -0.384657 2.385022 0.064728 -0.003534 -550983.000000 0 0 1
-23.575374 8.394753 -25.417002 35.669233 -0.342082 2.363958 0.034582 -0.005655 -52701.500000 0 0 1
-22.527174 7.982653 -24.578332 34.282514 -0.340551 2.370192 0.076641 0.002300 -302628.000000 0 0 1
-23.061774 7.044453 -23.526232 33.689069 -0.296459 2.343864 0.053940 0.009666 169742.000000 0 0 1
-23.692574 5.902153 -24.110032 34.314241 -0.244145 2.349876 0.051091 -0.010124 277648.000000 0 0 1
-24.064674 4.936453 -23.088832 33.713073 -0.202326 2.325212 0.045255 -0.002634 -111079.000000 0 0 1
35.809100 24.573754 -10.443032 44.667862 0.601433 1.806773 0.010035 -0.005159 129707.000000 0 0 1
36.524240 23.922154 -9.429432 44.667704 0.579859 1.783498 0.030405 -0.009583 -553408.000000 0 0 1
-35.609547 23.067354 -9.835332 43.553145 -0.574817 1.798585 0.056404 -0.007009 -398787.000000 0 0 1
-34.772313 22.510154 -8.674932 42.321097 -0.574516 1.777238 0.051437 -0.003151 -4623.880000 0 0 1
-35.509715 21.536154 -7.895532 42.273931 -0.545175 1.758670 0.056823 -0.016133 444026.000000 0 0 1
-34.720231 20.964054 -6.856532 41.133904 -0.543208 1.738266 0.068434 -0.011190 -184668.000000 0 0 1
-35.511470 20.265754 -5.741032 41.288312 -0.518583 1.710296 0.073325 -0.004581 -139252.000000 0 0 1
-36.083764 19.023454 -6.099932 41.244866 -0.485172 1.719236 0.059250 -0.003373 31956.000000 0 0 1
36.553810 18.311154 -5.046932 41.194064 0.464397 1.693621 0.064598 -0.008572 -157763.000000 0 0 1
35.764580 16.990854 -5.394332 39.961145 0.443509 1.706199 0.060953 0.005289 289077.000000 0 0 1
34.652590 17.336054 -6.194432 39.239161 0.463873 1.729323 0.072283 -0.007460 -226153.000000 0 0 1
34.189600 16.307854 -6.986032 38.518560 0.445065 1.753174 0.086065 -0.010516 269761.000000 0 0 1
33.378070 16.703554 -8.264032 38.228242 0.463996 1.788693 0.057231 -0.016356 283462.000000 0 0 1
32.940080 15.542654 -8.947732 37.505798 0.440872 1.811689 0.062268 -0.015543 -215353.000000 0 0 1
32.323230 15.915254 -10.114232 37.421708 0.457532 1.844477 0.063506 -0.012253 -615346.000000 0 0 1
31.565740 14.809954 -10.880732 36.525621 0.438687 1.873281 0.060610 -0.013404 -151729.000000 0 0 1
30.339970 14.388754 -10.342832 35.135796 0.442837 1.869590 0.067481 0.000523 18039.800000 0 0 1
30.430060 13.606654 -9.167732 34.571331 0.420477 1.839190 0.065851 -0.002277 -841730.000000 0 0 1
29.351010 12.513054 -9.007932 33.154203 0.402992 1.845953 0.060248 0.010024 -93467.900000 0 0 1
29.530830 11.361954 -9.811032 33.127334 0.367290 1.871467 0.066806 0.005242 83435.200000 0 0 1
28.521030 10.449654 -9.522132 31.832616 0.351196 1.874578 0.071525 0.003657 -649917.000000 0 0 1
28.877550 9.013654 -9.870232 31.821067 0.302551 1.886178 0.091045 0.005209 285061.000000 0 0 1
30.050740 8.558454 -9.178832 32.566011 0.277454 1.856521 0.086561 0.000615 842132.000000 0 0 1
30.193560 7.125054 -9.288032 32.383406 0.231740 1.861696 0.081271 -0.002753 -742020.000000 0 0 1
31.314500 6.767654 -8.332832 33.103401 0.212845 1.825255 0.097854 -0.006176 -1014330.000000 0 0 1
32.549360 6.956154 -8.942332 34.464681 0.210544 1.833263 0.090400 -0.009578 -981505.000000 0 0 1
33.576870 6.704354 -8.032432 35.169227 0.197080 1.801224 0.098576 -0.015044 -396478.000000 0 0 1
34.975000 7.124954 -8.510832 36.694003 0.200966 1.804869 0.093306 -0.011153 -33537.000000 0 0 1
35.330110 6.372354 -9.676932 37.181536 0.178448 1.834090 0.090308 -0.016013 600295.000000 0 0 1
-36.401854 6.345554 -9.912632 38.257304 -0.172585 1.832891 0.087269 -0.020294 -401516.000000 0 0 1
-35.933138 5.455654 -11.078632 37.995930 -0.150677 1.866668 0.081068 -0.017572 -207469.000000 0 0 1
-34.539243 5.287654 -11.120732 36.668642 -0.151912 1.878925 0.090522 -0.017884 282675.000000 0 0 1
-33.743064 6.317854 -11.678632 36.261551 -0.185091 1.898708 0.075401 -0.019311 -378008.000000 0 0 1
-32.994764 7.372854 -10.768432 35.482003 -0.219844 1.879150 0.061840 -0.015026 -491366.000000 0 0 1
-33.745674 8.303154 -9.956332 36.150262 -0.241258 1.849818 0.067025 -0.014325 127762.000000 0 0 1
-34.147463 9.446954 -10.653132 36.997073 -0.269901 1.862877 0.063234 -0.014980 -52444.900000 0 0 1
-35.120765 10.338954 -9.834632 37.908866 -0.286296 1.833227 0.066940 -0.014176 347259.000000 0 0 1
-34.450302 10.944454 -8.730732 37.186423 -0.307604 1.807791 0.052850 -0.013210 428629.000000 0 0 1
-35.341495 11.793954 -8.007532 38.108256 -0.322093 1.782500 0.063419 -0.010009 -146585.000000 0 0 1
-34.649176 12.806254 -7.130332 37.621898 -0.354026 1.761476 0.078963 -0.007509 -217190.000000 0 0 1
-33.958474 13.790554 -7.882832 37.489950 -0.385754 1.782643 0.070697 -0.010580 -82368.500000 0 0 1
-33.346934 14.774154 -7.020832 37.142775 -0.417054 1.760963 0.085509 -0.010551 13990.700000 0 0 1
-32.310254 15.715154 -7.637332 36.732103 -0.452695 1.780244 0.059860 -0.010023 -307154.000000 0 0 1
-32.836054 16.631954 -8.597132 37.798664 -0.468846 1.800250 0.048395 -0.009444 -121206.000000 0 0 1
-32.081794 17.804154 -8.835832 37.739917 -0.506644 1.807114 0.049169 -0.005324 288535.000000 0 0 1
-32.860364 18.743754 -9.810732 39.081739 -0.518375 1.824542 0.023620 -0.004118 334458.000000 0 0 1
-32.548124 18.349954 -11.141132 38.990076 -0.513361 1.860578 0.012454 -0.008244 -102000.000000 0 0 1
-33.474304 18.803854 -12.093032 40.253638 -0.511812 1.875930 0.017608 -0.012515 -295324.000000 0 0 1
-32.914774 18.782554 -13.543232 40.244078 -0.518553 1.914023 0.001514 -0.009401 -130646.000000 0 0 1
-32.040974 19.840854 -13.880232 40.161478 -0.554442 1.923686 0.000889 -0.011475 124720.000000 0 0 1
-31.991634 20.138854 -15.234532 40.756951 -0.561831 1.953888 0.001257 -0.009972 -624609.000000 0 0 1
-31.036854 21.254454 -15.615632 40.729425 -0.600461 1.964270 0.019218 -0.018854 292322.000000 0 0 1
-29.635244 21.056054 -15.365332 39.467690 -0.617743 1.970683 0.007464 -0.015122 1120650.000000 0 0 1
-28.888694 22.250554 -15.219332 39.512933 -0.656315 1.966192 0.035944 -0.013739 -96638.100000 0 0 1
-28.565074 23.028754 -16.544132 40.249165 -0.678501 1.994394 0.015784 -0.009403 -540385.000000 0 0 1
-29.595444 23.798354 -17.171232 41.678570 -0.677249 1.995435 0.033731 -0.004023 395864.000000 0 0 1
-29.073794 24.526554 -18.303932 42.212217 -0.700765 2.019299 0.016616 -0.002382 63630.700000 0 0 1
-28.233034 25.733054 -17.966232 42.214687 -0.739106 2.010412 0.026954 -0.000164 -239523.000000 0 0 1
-28.986224 26.803254 -17.436632 43.158449 -0.746289 1.986697 0.042347 0.003635 -126291.000000 0 0 1
-28.229704 28.006554 -17.268432 43.352993 -0.781430 1.980483 0.037796 0.002973 -156287.000000 0 0 1
-28.903164 29.334254 -16.859332 44.498634 -0.792800 1.959375 0.030398 0.002630 -251662.000000 0 0 1
-29.373674 29.616754 -15.536332 44.512273 -0.789519 1.927337 0.025595 -0.001548 331588.000000 0 0 1
-28.338674 29.598854 -14.568832 43.490499 -0.807145 1.912390 0.024008 0.005285 -24309.200000 0 0 1
-28.633144 30.419454 -13.323632 43.848823 -0.815638 1.879531 0.016230 0.004814 -235189.000000 0 0 1
-28.549044 31.761254 -13.556732 44.806363 -0.838609 1.878177 0.012873 0.005418 37674.600000 0 0 1
-28.941524 32.574654 -12.435732 45.314096 -0.844389 1.848797 0.000597 0.001035 69796.800000 0 0 1
-28.103274 33.842654 -12.420832 45.709915 -0.877786 1.845988 0.003356 -0.003082 114748.000000 0 0 1
-28.460634 -33.547146 -13.571632 46.039200 0.867245 1.870026 -0.005929 -0.021442 -91479.700000 0 0 1
-27.664224 -32.385646 -13.653432 44.727571 0.863862 1.881005 0.023072 -0.023772 -220622.000000 0 0 1
-27.781114 -31.553446 -14.969632 44.626227 0.848890 1.912874 0.002586 -0.019409 58052.000000 0 0 1
-27.047034 -32.105246 -16.052332 44.944035 0.870702 1.936025 0.006990 -0.027478 29384.800000 0 0 1
-27.618054 -31.638446 -17.232232 45.394912 0.853142 1.960168 0.017993 -0.007456 -12299.500000 0 0 1
-26.854564 -32.105646 -18.498532 45.761729 0.874225 1.986940 0.003905 0.003487 -159861.000000 0 0 1
-27.032774 -33.442746 -18.951432 46.993031 0.890997 1.985897 0.002428 0.006971 47040.800000 0 0 1
-26.339784 33.691054 -18.267932 46.503642 -0.907250 1.974501 0.008304 -0.006431 -652775.000000 0 0 1
-26.491424 32.273354 -18.882932 45.824994 -0.883474 1.995517 0.017967 -0.018688 -352100.000000 0 0 1
-27.739464 31.650354 -18.952632 46.156528 -0.851154 1.993926 0.018490 -0.016829 -669429.000000 0 0 1
-28.559784 32.082354 -20.000032 47.380798 -0.843421 2.006571 0.024086 -0.002794 -714516.000000 0 0 1
-30.013754 31.633554 -19.956332 47.955838 -0.811667 1.999992 0.030624 -0.008654 -439295.000000 0 0 1
-30.246354 30.251654 -20.137932 47.281506 -0.785486 2.010770 0.031193 -0.005227 -86894.200000 0 0 1
-31.619724 30.055254 -20.355032 48.139927 -0.760037 2.007363 0.038690 -0.006921 -361949.000000 0 0 1
-32.019074 28.615254 -20.642932 47.646453 -0.729320 2.018894 0.045880 -0.005880 -1085970.000000 0 0 1
-33.249184 28.496054 -21.251732 48.674115 -0.708570 2.022626 0.040183 -0.012198 -625598.000000 0 0 1
-33.577024 27.098354 -21.466332 48.192746 -0.679025 2.032447 0.037536 0.003601 89656.900000 0 0 1
-35.044191 26.896754 -21.915032 49.313278 -0.654613 2.031306 0.031060 0.003345 54170.600000 0 0 1
-35.523782 27.358154 -23.165132 50.468119 -0.656264 2.047672 0.018910 0.005063 -95679.800000 0 0 1
36.530430 26.517854 -23.534032 50.906970 0.627905 2.051378 0.011910 0.011710 350687.000000 0 0 1
35.696000 27.061454 -24.757732 51.180778 0.648671 2.075709 0.030488 0.001747 285107.000000 0 0 1
36.317330 27.021754 -26.030102 52.217716 0.639679 2.092654 0.043706 -0.005920 83858.700000 0 0 1
35.372410 27.494654 -27.022402 52.319916 0.660740 2.113536 0.069732 -0.009915 626905.000000 0 0 1
36.040520 27.891754 -28.347212 53.669670 0.658622 2.127251 0.074875 -0.010015 174792.000000 0 0 1
36.441590 26.710054 -29.071432 53.726759 0.632503 2.142538 0.048221 0.005112 -158694.000000 0 0 1
-35.940443 27.073754 -30.204192 54.194066 -0.645607 2.161968 0.015023 0.008466 -499035.000000 0 0 1
-35.640516 25.813754 -31.016242 53.838681 -0.626837 2.184741 -0.002939 0.008199 367927.000000 0 0 1
-34.827077 24.730954 -30.540462 52.509668 -0.617477 2.191510 -0.004563 0.012145 -1090670.000000 0 0 1
-33.484844 25.014854 -30.485392 51.733324 -0.641610 2.200963 -0.028103 0.016644 -1348220.000000 0 0 1
-32.812574 24.143754 -29.422872 50.252276 -0.634356 2.196297 -0.038168 0.022931 -161763.000000 0 0 1
-32.469334 22.829154 -29.915832 49.702967 -0.612803 2.216665 -0.017226 0.008434 83590.800000 0 0 1
-32.429384 21.934654 -28.802042 48.604029 -0.594699 2.205061 -0.006126 0.016176 -116920.000000 0 0 1
-32.018434 20.502054 -29.127852 47.895158 -0.569540 2.224535 -0.002036 0.005054 246307.000000 0 0 1
-30.644674 20.415654 -29.485482 47.172965 -0.587683 2.245992 0.043737 -0.004210 75327.100000 0 0 1
-30.276494 19.064754 -29.644122 46.464018 -0.561964 2.262697 0.040823 -0.014087 -1316760.000000 0 0 1
-28.821644 18.821554 -29.903222 45.597596 -0.578506 2.286047 0.073385 -0.023291 -1479780.000000 0 0 1
-28.319684 19.194054 -31.134822 46.257901 -0.595646 2.309149 0.083717 -0.026154 -99151.700000 0 0 1
-27.147934 18.459454 -31.468402 45.475511 -0.597148 2.335032 0.091043 -0.032273 -17458.200000 0 0 1
-27.331234 17.000654 -31.984342 45.376390 -0.556456 2.353033 0.082395 -0.030330 -399070.000000 0 0 1
-27.784414 16.068054 -31.066542 44.668625 -0.524320 2.339897 0.045678 -0.017845 -51357.000000 0 0 1
-27.766164 14.733054 -31.593292 44.566342 -0.487836 2.358740 0.029836 -0.007946 -64765.300000 0 0 1
-28.457354 13.624654 -30.789122 44.084263 -0.446523 2.343977 0.029798 -0.002706 207347.000000 0 0 1
-29.866734 13.656254 -30.614432 44.897200 -0.428858 2.321124 0.011748 -0.006022 615292.000000 0 0 1
-30.581984 12.463254 -30.295062 44.814967 -0.386986 2.313122 0.004148 0.002620 106264.000000 0 0 1
-30.115744 11.661554 -29.041282 43.432085 -0.369445 2.303201 0.001355 -0.020030 -451015.000000 0 0 1
-30.318824 12.426854 -27.871592 43.017246 -0.388988 2.275643 -0.007470 -0.014133 273653.000000 0 0 1
-30.472224 11.617354 -26.726102 42.164012 -0.364234 2.257331 -0.005933 -0.009795 -7332.090000 0 0 1
-30.251794 12.445254 -25.425412 41.430749 -0.390286 2.231515 -0.007449 -0.016555 -869493.000000 0 0 1
-28.918644 12.693354 -25.158722 40.377847 -0.413613 2.243474 0.001529 -0.018508 -841414.000000 0 0 1
-28.760544 13.422354 -23.932632 39.750464 -0.436649 2.216890 0.003308 -0.004509 -1131520.000000 0 0 1
-27.304694 13.477654 -23.552432 38.495591 -0.458516 2.229158 0.021586 0.000538 -1579470.000000 0 0 1
-26.596904 14.390554 -24.356132 38.829171 -0.495955 2.248831 0.031601 -0.003934 1073250.000000 0 0 1
-25.165084 14.455054 -24.206132 37.791095 -0.521390 2.265978 0.047130 -0.015079 1175810.000000 0 0 1
-24.647574 15.013854 -22.889432 36.835375 -0.547114 2.241322 0.047090 -0.008969 -1051270.000000 0 0 1
-25.112934 16.342654 -22.788932 37.644086 -0.576914 2.221038 0.062565 -0.006793 332265.000000 0 0 1
-25.177074 16.654554 -21.454132 37.034295 -0.584415 2.188671 0.055429 -0.000625 -155677.000000 0 0 1
-26.613984 16.921654 -20.940832 37.857166 -0.566341 2.156941 0.045583 -0.003923 250924.000000 0 0 1
-27.370334 15.708354 -20.799332 37.795500 -0.521021 2.153535 0.046415 -0.002153 -351869.000000 0 0 1
-28.573224 15.937254 -20.164732 38.432299 -0.508788 2.123138 0.039225 0.000648 -629032.000000 0 0 1
-29.681244 14.814254 -20.329232 38.906504 -0.462937 2.120594 0.019607 -0.004879 824212.000000 0 0 1
-30.348434 14.607154 -21.578832 40.000530 -0.448588 2.140596 0.008413 0.001687 485454.000000 0 0 1
-31.178884 15.720754 -21.929532 41.233109 -0.467011 2.131571 0.003422 0.002522 -237578.000000 0 0 1
-31.721684 15.745554 -23.426732 42.461742 -0.460736 2.155214 -0.010928 0.005622 -358846.000000 0 0 1
-32.781824 14.860754 -23.645132 43.064861 -0.425614 2.152034 0.000680 0.000854 -181043.000000 0 0 1
-33.110464 14.954754 -25.003932 44.103788 -0.424236 2.173575 0.000028 0.000474 -796166.000000 0 0 1
-34.350091 14.197454 -25.412212 45.025293 -0.391933 2.170501 -0.008150 -0.004866 -734517.000000 0 0 1
-34.160816 12.826554 -25.571812 44.557821 -0.359188 2.182059 -0.001047 -0.005311 152851.000000 0 0 1
-34.083959 12.076554 -24.409032 43.627518 -0.340516 2.164563 -0.000771 0.000093 -278446.000000 0 0 1
-34.129108 10.578954 -24.679232 43.425509 -0.300577 2.175249 0.011048 -0.006663 159696.000000 0 0 1
-35.422120 10.220054 -25.126892 44.615432 -0.280893 2.169036 0.027198 -0.005970 101696.000000 0 0 1
-35.304377 9.000854 -25.862552 44.679817 -0.249632 2.188104 0.029044 -0.007242 -219529.000000 0 0 1
36.479180 8.518754 -26.385212 45.820074 0.229412 2.184432 0.052580 -0.006927 -92948.300000 0 0 1
35.727230 7.735254 -25.458992 44.546935 0.213218 2.179140 0.057321 -0.006708 -56687.400000 0 0 1
34.628670 7.176554 -26.147932 43.981383 0.204350 2.207468 0.066719 -0.007872 -162044.000000 0 0 1
33.705160 6.248054 -25.346632 42.632473 0.183293 2.207487 0.074156 -0.016872 -257452.000000 0 0 1
34.352240 5.083454 -24.833432 42.692122 0.146914 2.191597 0.069187 -0.022475 -311488.000000 0 0 1
33.679360 4.220254 -23.943032 41.537677 0.124657 2.185134 0.079552 -0.027675 -562124.000000 0 0 1
34.621300 3.439254 -23.044332 41.731333 0.099014 2.155805 0.069681 -0.024759 -174614.000000 0 0 1
35.142650 2.328554 -23.791832 42.502698 0.066163 2.164907 0.071405 -0.028257 91995.500000 0 0 1
36.112720 1.678454 -22.995732 42.845647 0.046445 2.137331 0.080311 -0.022739 26116.900000 0 0 1
-36.488154 0.364654 -23.611932 43.463108 -0.009993 2.145116 0.103161 -0.023361 415050.000000 0 0 1
35.629880 -0.614646 -23.753932 42.826574 -0.017249 2.158743 0.063709 -0.028939 239352.000000 0 0 1
36.225000 -1.865246 -24.039632 43.515902 -0.051445 2.156077 0.073838 -0.030875 176489.000000 0 0 1
-23.089174 29.338254 27.044161 46.100214 -0.904033 0.943895 0.036722 -0.018684 -840562.000000 0 0 1
-24.467474 29.357554 26.799991 46.677219 -0.876001 0.959224 0.021135 -0.018281 63271.300000 0 0 1
-24.899574 29.022754 25.486821 45.955273 -0.861715 0.982913 0.011275 -0.014557 -566821.000000 0 0 1
-25.011574 27.500854 25.221541 44.922176 -0.832766 0.974660 0.022192 -0.017347 26386.700000 0 0 1
-26.215174 26.889354 25.689001 45.499423 -0.798093 0.970847 0.038059 -0.025696 223262.000000 0 0 1
-26.269184 26.522554 27.048411 46.099159 -0.790198 0.943764 0.047670 -0.025884 -260000.000000 0 0 1
-25.290704 25.365254 27.523441 45.172510 -0.786870 0.915624 0.043252 -0.020855 980580.000000 0 0 1
-23.944674 25.720954 27.790801 44.802271 -0.821148 0.901673 0.036134 -0.017223 160852.000000 0 0 1
-23.873874 26.039554 29.139881 45.794682 -0.828760 0.881083 0.036717 -0.008441 -549924.000000 0 0 1
-22.543874 25.707954 29.808171 45.361352 -0.850879 0.853795 0.044312 -0.000847 -1509650.000000 0 0 1
-21.467174 26.506454 29.454331 45.066498 -0.890057 0.858498 0.052076 -0.001126 -338230.000000 0 0 1
-20.272474 26.087554 30.083381 44.682698 -0.910180 0.832178 0.062253 -0.011937 630976.000000 0 0 1
-19.579374 24.679554 29.763591 43.339400 -0.900127 0.813780 0.059770 -0.005728 -479015.000000 0 0 1
-18.912574 24.521454 28.535211 42.109921 -0.913823 0.826253 0.062492 -0.015648 288581.000000 0 0 1
-19.738074 23.985554 27.489681 41.479886 -0.882238 0.846347 0.066368 -0.015118 306787.000000 0 0 1
-19.765974 22.435854 27.414181 40.565978 -0.848579 0.828757 0.057953 -0.000486 495406.000000 0 0 1
-20.514474 21.931454 28.539011 41.428341 -0.818769 0.810858 0.046545 0.000574 365572.000000 0 0 1
-20.262774 20.521154 28.648291 40.649998 -0.791733 0.788719 0.049205 -0.004664 167890.000000 0 0 1
-20.631474 19.848254 30.018731 41.481744 -0.766052 0.761704 0.051523 -0.003961 -140949.000000 0 0 1
-19.882674 20.371454 31.069551 42.138271 -0.797540 0.741696 0.045220 -0.015674 -133574.000000 0 0 1
-20.258974 19.818554 32.286076 42.960352 -0.774409 0.720415 0.044948 -0.010159 -359657.000000 0 0 1
-19.348974 20.346354 33.394397 43.629608 -0.810519 0.699123 0.055359 -0.016466 -366357.000000 0 0 1
-19.472274 21.794954 33.644432 44.566100 -0.841623 0.715244 0.036395 -0.007405 301014.000000 0 0 1
-18.673474 22.602854 32.771764 43.972448 -0.880309 0.729842 0.056878 -0.005263 671678.000000 0 0 1
-17.170874 22.787454 33.175306 43.757375 -0.925044 0.710302 0.050818 -0.004312 765462.000000 0 0 1
-16.436574 21.565754 33.088459 42.779538 -0.919558 0.686507 0.067686 -0.019931 -266679.000000 0 0 1
-15.070074 21.661554 33.411193 42.575085 -0.962958 0.668489 0.054955 -0.023132 -574404.000000 0 0 1
-14.278874 20.382854 33.151852 41.453495 -0.959712 0.643941 0.061485 -0.028230 237055.000000 0 0 1
-12.952974 20.295254 33.670402 41.392908 -1.002742 0.620764 0.050126 -0.024448 429311.000000 0 0 1
-12.787974 20.305554 -33.122872 40.901986 -1.008769 2.514626 0.058383 -0.025281 -900629.000000 0 0 1
-11.318374 20.083954 -32.791922 40.084673 -1.057607 2.528837 0.051367 -0.024102 -277910.000000 0 0 1
-10.460774 21.173354 -33.095092 40.657396 -1.111917 2.521801 0.046688 -0.018856 -1561550.000000 0 0 1
-9.219874 20.929254 -32.595152 39.818133 -1.155849 2.529767 0.049246 -0.013895 -947038.000000 0 0 1
-8.245274 22.167654 -32.593382 40.270560 -1.214702 2.513858 0.044967 -0.021003 346753.000000 0 0 1
-8.495574 23.098954 -31.538582 40.005233 -1.218361 2.478937 0.039187 -0.020903 127575.000000 0 0 1
-7.882074 22.803054 -30.283122 38.719167 -1.237994 2.468861 0.040417 -0.019080 -18620.000000 0 0 1
-7.637074 24.100954 -29.485492 38.840380 -1.263927 2.432795 0.029847 -0.018938 32236.300000 0 0 1
-6.624174 24.886154 -30.074872 39.594170 -1.310649 2.433461 0.026674 -0.020809 -106792.000000 0 0 1
-6.231574 25.887054 -29.166092 39.492189 -1.334569 2.401681 0.034147 -0.007565 61013.900000 0 0 1
-4.873774 26.566454 -29.443782 39.955806 -1.389358 2.399282 0.041910 -0.012509 -593058.000000 0 0 1
-3.740874 25.896854 -28.971942 39.038630 -1.427336 2.407047 0.041646 -0.014438 229791.000000 0 0 1
-2.535574 26.263454 -29.650142 39.690416 -1.474551 2.414388 0.051255 -0.016746 702735.000000 0 0 1
-1.820474 27.579354 -29.237972 40.234238 -1.504883 2.384293 0.057759 -0.028420 -65685.400000 0 0 1
-1.107074 27.511354 -27.964142 39.244025 -1.530577 2.363952 0.072763 -0.039738 757224.000000 0 0 1
-0.414374 28.743154 -27.685092 39.909960 -1.556381 2.337394 0.080244 -0.035762 -733342.000000 0 0 1
0.162726 28.741654 -26.252792 38.927089 1.565135 2.310961 0.094029 -0.054325 165735.000000 0 0 1
1.286226 27.952254 -25.921112 38.142980 1.524814 2.317983 0.128470 -0.064112 521830.000000 0 0 1
2.477626 28.199854 -26.653502 38.881610 1.483162 2.326092 0.135804 -0.063142 -153223.000000 0 0 1
3.773326 28.191854 -25.800482 38.401608 1.437743 2.307513 0.131089 -0.065931 163797.000000 0 0 1
4.236626 26.920854 -25.436392 37.278565 1.414703 2.321745 0.139068 -0.053418 -279729.000000 0 0 1
5.528026 26.965554 -24.903332 37.119754 1.368595 2.306207 0.106977 -0.048676 -233264.000000 0 0 1
5.973726 25.802954 -23.991232 35.735935 1.343291 2.306822 0.110188 -0.043498 -454225.000000 0 0 1
7.278526 25.941554 -23.536432 35.775757 1.297255 2.288807 0.091400 -0.041449 -942687.000000 0 0 1
7.852926 24.821654 -22.931032 34.693158 1.264386 2.292903 0.081052 -0.024802 -470559.000000 0 0 1
9.263726 25.002754 -22.426932 34.841378 1.215969 2.270102 0.073483 -0.006906 -1364240.000000 0 0 1
9.464726 25.774654 -21.242532 34.715400 1.218872 2.229263 0.072802 -0.016726 314473.000000 0 0 1
10.766626 26.367254 -21.165432 35.484191 1.183127 2.209898 0.072949 -0.013507 342188.000000 0 0 1
11.789626 25.436754 -20.486032 34.723209 1.136783 2.201832 0.051262 -0.003169 -514655.000000 0 0 1
12.043226 24.291054 -21.304232 34.481370 1.110524 2.236799 0.048415 -0.007788 -367348.000000 0 0 1
12.261226 23.170354 -20.545732 33.306607 1.084080 2.235552 0.041123 0.001586 -395068.000000 0 0 1
12.426526 22.035154 -21.532132 33.220465 1.057313 2.275960 0.048575 -0.002913 -276624.000000 0 0 1
11.274626 21.849754 -22.308532 33.199391 1.094425 2.307643 0.061308 -0.014734 -135774.000000 0 0 1
11.497726 21.043254 -23.414932 33.515299 1.070733 2.344283 0.061764 -0.007485 -107975.000000 0 0 1
10.655626 21.511454 -24.602332 34.373824 1.110878 2.368463 0.079303 -0.013648 672427.000000 0 0 1
9.274826 21.143554 -24.592732 33.732399 1.157413 2.387735 0.068054 -0.019842 775365.000000 0 0 1
8.646526 21.184454 -25.891152 34.552790 1.183280 2.417833 0.059664 -0.022710 1026560.000000 0 0 1
7.199326 20.522154 -25.912252 33.829483 1.233402 2.443340 0.064705 -0.028509 2255320.000000 0 0 1
6.076926 21.314454 -25.419412 33.725087 1.293057 2.424507 0.086083 -0.026474 889965.000000 0 0 1
6.096226 21.437554 -24.026532 32.772045 1.293739 2.393726 0.082066 -0.024792 -903550.000000 0 0 1
4.786426 21.848054 -23.354532 32.336999 1.355126 2.377808 0.099590 -0.032447 -368893.000000 0 0 1
4.297226 23.127854 -23.637332 33.347972 1.387088 2.358604 0.101595 -0.035146 -745293.000000 0 0 1
2.919426 23.169754 -23.420932 33.074168 1.445455 2.357648 0.119590 -0.034651 -667962.000000 0 0 1
2.243226 24.220354 -24.323332 34.398868 1.478442 2.356181 0.111813 -0.036768 -513749.000000 0 0 1
0.850926 24.323654 -24.183932 34.310739 1.535827 2.353008 0.109190 -0.048385 -491901.000000 0 0 1
0.478126 24.882254 -25.371152 35.539422 1.551583 2.365831 0.103839 -0.036479 -402533.000000 0 0 1
-1.000974 24.775554 -25.748712 35.746695 -1.530417 2.375046 0.101049 -0.033813 -274791.000000 0 0 1
-1.506074 23.492454 -26.150312 35.185259 -1.506775 2.408663 0.112792 -0.035751 55822.400000 0 0 1
-2.674974 23.731654 -26.935062 35.997840 -1.458553 2.416203 0.107121 -0.025900 250040.000000 0 0 1
-3.249574 22.379454 -27.361972 35.497566 -1.426601 2.450912 0.095255 -0.024331 -110841.000000 0 0 1
-2.431274 21.715854 -28.351942 35.795559 -1.459302 2.484959 0.105833 -0.033038 418460.000000 0 0 1
-2.976974 20.488254 -28.877302 35.532091 -1.426505 2.519585 0.083808 -0.028277 1387850.000000 0 0 1
-4.317174 20.671854 -29.749972 36.483207 -1.364912 2.524290 0.078161 -0.027509 1240970.000000 0 0 1
-4.044074 21.024254 -31.082082 37.742147 -1.380765 2.538416 0.069129 -0.028099 -58306.800000 0 0 1
-3.667074 22.332254 -31.315502 38.637258 -1.408043 2.515802 0.077237 -0.029998 -204702.000000 0 0 1
-3.286474 22.595154 -32.735012 39.911439 -1.426359 2.532542 0.063182 -0.021295 500397.000000 0 0 1
-2.074074 21.930154 -33.124492 39.780214 -1.476500 2.554740 0.058060 -0.020188 801592.000000 0 0 1
-1.790074 21.989754 33.735274 40.309085 -1.489571 0.579174 0.050467 -0.012481 -196651.000000 0 0 1
-0.661274 21.045354 33.285082 39.385796 -1.539385 0.564037 0.045645 -0.001256 -146303.000000 0 0 1
-0.966674 19.660154 33.259657 38.647909 -1.521667 0.534387 0.038088 0.007301 271525.000000 0 0 1
0.089426 18.883554 32.700038 37.760947 1.566061 0.523699 0.035499 0.003868 -89800.600000 0 0 1
-0.350774 17.459754 32.291615 36.711231 -1.550709 0.495752 0.028140 0.014465 78198.900000 0 0 1
-1.174874 17.447254 31.133611 35.708385 -1.503559 0.511758 0.024420 0.009194 471436.000000 0 0 1
-1.772574 16.129854 31.002781 34.992666 -1.461342 0.482195 0.022362 0.009477 -112380.000000 0 0 1
-2.779574 15.804254 29.870141 33.907607 -1.396702 0.492978 0.030072 0.011843 505993.000000 0 0 1
-4.037774 16.463654 29.909101 34.378916 -1.330290 0.515627 0.022982 0.003761 299324.000000 0 0 1
-4.002174 17.862354 29.586391 34.791315 -1.350380 0.554059 0.017609 0.005326 399545.000000 0 0 1
-5.451574 18.482854 29.675611 35.383293 -1.283976 0.575923 0.023655 -0.007033 881165.000000 0 0 1
-6.314074 17.873554 28.769561 34.453144 -1.231217 0.582601 0.013033 0.000929 -140503.000000 0 0 1
-7.673074 18.181654 29.089991 35.152186 -1.171450 0.596077 0.041524 -0.018130 25443.500000 0 0 1
-8.716474 17.498854 28.184751 34.301122 -1.108656 0.606433 0.040025 -0.016291 37502.700000 0 0 1
-9.087374 16.187454 28.572391 34.073385 -1.059255 0.576172 0.055769 -0.021209 -129856.000000 0 0 1
-9.767074 16.092854 29.802411 35.249956 -1.025304 0.563371 0.066655 -0.030685 -1164130.000000 0 0 1
-10.560574 14.795354 29.938681 35.025032 -0.950884 0.545670 0.068239 -0.036568 -281246.000000 0 0 1
-9.838574 13.544054 29.910051 34.276086 -0.942563 0.510252 0.055718 -0.020516 1085190.000000 0 0 1
-8.750074 13.465054 30.878361 34.804377 -0.994537 0.479561 0.034506 -0.018462 832442.000000 0 0 1
-9.319174 13.296254 32.360024 36.205090 -0.959475 0.465053 0.045057 -0.034587 25523.100000 0 0 1
-10.033074 12.092054 32.545850 36.140181 -0.878192 0.449775 0.042985 -0.020873 109669.000000 0 0 1
-10.345974 11.838254 33.827699 37.302770 -0.852565 0.435068 0.034732 -0.009098 -1591.660000 0 0 1
-11.061074 10.452054 33.929652 37.186208 -0.757096 0.421624 0.039326 -0.013241 -648937.000000 0 0 1
-10.173874 9.394154 33.854264 36.576892 -0.745573 0.388273 0.036043 -0.008012 -298535.000000 0 0 1
-9.978774 8.657154 -33.185332 35.718182 -0.714599 2.762736 0.066839 -0.015487 504594.000000 0 0 1
-8.863874 9.122854 -32.167122 34.590728 -0.799796 2.765032 0.045330 -0.021195 455748.000000 0 0 1
-9.331074 10.267954 -31.439252 34.364610 -0.833164 2.725989 0.041018 -0.017720 632785.000000 0 0 1
-8.355274 10.881854 -30.552352 33.491366 -0.915989 2.719529 0.048070 -0.015363 547258.000000 0 0 1
-7.369774 11.901354 -31.192202 34.189315 -1.016351 2.719754 0.045249 -0.016644 74259.900000 0 0 1
-7.961374 13.145254 -31.524132 35.070673 -1.026235 2.687991 0.051313 -0.017745 385537.000000 0 0 1
-6.980974 14.076854 -32.014072 35.662202 -1.110419 2.685325 0.042511 -0.020377 524600.000000 0 0 1
-7.536674 15.526954 -32.295722 36.618321 -1.118902 2.650791 0.041851 -0.023231 6226.190000 0 0 1
-8.274174 15.633654 -33.472762 37.858934 -1.084020 2.655456 0.042152 -0.026624 -340626.000000 0 0 1
-8.887274 16.864054 -33.605952 38.635993 -1.085787 2.625612 0.067579 -0.031868 -1007700.000000 0 0 1
-9.374674 17.271954 33.231207 38.607228 -1.073522 0.534053 0.068239 -0.038586 1413110.000000 0 0 1
-10.587974 16.633254 32.734937 38.214479 -1.003931 0.542132 0.070839 -0.038865 1547400.000000 0 0 1
-11.795974 16.845854 33.456140 39.271378 -0.959916 0.551152 0.063936 -0.044764 -279335.000000 0 0 1
-13.076274 16.270854 32.811135 38.888304 -0.893826 0.566606 0.073541 -0.047610 40865.200000 0 0 1
-13.074574 14.856454 32.760059 38.273753 -0.849108 0.543429 0.060467 -0.044017 833815.000000 0 0 1
-14.140074 14.329154 33.589273 39.160000 -0.792040 0.539930 0.051940 -0.035063 619821.000000 0 0 1
-14.414574 12.848454 33.331211 38.520544 -0.728016 0.525080 0.041295 -0.029815 -65458.100000 0 0 1
-14.656374 12.587954 31.972911 37.356832 -0.709622 0.543549 0.028385 -0.030613 1158500.000000 0 0 1
-13.449574 12.172954 31.263761 36.145465 -0.735615 0.525760 0.033540 -0.017249 1092980.000000 0 0 1
-13.785474 11.973554 29.779611 34.931798 -0.715173 0.550033 0.029138 -0.008726 -182773.000000 0 0 1
-14.412474 10.734654 29.607501 34.634612 -0.640176 0.545529 0.022384 -0.001815 -103777.000000 0 0 1
-14.351374 10.160554 28.318951 33.334093 -0.616065 0.555666 0.017840 -0.000550 -296066.000000 0 0 1
-15.123574 8.871754 28.057961 33.085944 -0.530521 0.558534 0.023354 -0.000024 -329693.000000 0 0 1
-14.579074 7.666454 28.503451 32.920672 -0.484116 0.524005 0.005842 0.001985 -242637.000000 0 0 1
-15.386974 6.536254 28.259821 32.834419 -0.401694 0.534199 0.013014 0.011253 419494.000000 0 0 1
-14.553174 5.171254 28.336881 32.272520 -0.341420 0.499024 0.008059 0.010768 1025520.000000 0 0 1
-13.599674 4.932954 27.283031 30.881207 -0.347967 0.487550 0.012965 0.002849 496304.000000 0 0 1
-14.209274 4.488354 26.051811 30.012425 -0.305957 0.519567 0.008262 0.012199 15796.900000 0 0 1
-13.285274 4.306254 24.796361 28.458775 -0.313451 0.512935 0.024220 0.015547 -89531.600000 0 0 1
-12.462674 3.153554 24.997071 28.109015 -0.247838 0.475006 0.018169 0.006052 186324.000000 0 0 1
-11.939674 2.734554 23.746081 26.719094 -0.225148 0.476227 0.019124 0.000104 -317429.000000 0 0 1
-10.919174 1.572454 23.791201 26.224459 -0.143025 0.434183 0.014919 -0.004868 62147.400000 0 0 1
-9.642274 2.066654 24.135771 26.072590 -0.211138 0.387876 0.017707 -0.010511 196503.000000 0 0 1
-8.704574 1.092754 24.568001 26.087361 -0.124885 0.342974 0.015328 -0.001196 741889.000000 0 0 1
-7.201574 1.485454 24.458621 25.540035 -0.203415 0.292042 0.040494 -0.013207 -423806.000000 0 0 1
-6.751674 1.516754 23.097271 24.111607 -0.220980 0.291090 0.043248 -0.012177 1343530.000000 0 1 0
-5.315174 1.460354 22.873171 23.527976 -0.268135 0.236478 0.033855 -0.013791 1177900.000000 0 1 0
-4.650374 2.771254 23.258661 23.880351 -0.537415 0.228680 0.051435 -0.021416 -1176530.000000 0 1 0
-4.448674 2.798654 24.684231 25.237560 -0.561541 0.209788 0.058967 -0.022558 -89909.400000 0 0 1
-4.168774 4.110954 25.081761 25.756035 -0.778415 0.229322 0.058859 -0.026819 -15162.100000 0 0 1
4.677626 -23.392246 13.343768 27.333743 -1.373435 1.060794 0.094780 -0.007929 123539.000000 0 0 1
4.120126 -24.545446 13.881268 28.498140 -1.404490 1.062037 0.095353 -0.018363 253327.000000 0 0 1
2.731126 -24.589946 13.530568 28.199304 -1.460183 1.070348 0.077939 -0.012180 798984.000000 0 0 1
1.996826 -25.868066 14.129368 29.542904 -1.493756 1.072117 0.057587 -0.013544 279413.000000 0 0 1
1.860326 -25.790856 15.537168 30.166747 -1.498790 1.029739 0.077060 -0.013863 -14782.500000 0 0 1
2.131626 -27.017776 16.140268 31.543816 -1.492062 1.033660 0.064665 -0.011137 -115262.000000 0 0 1
2.073526 -27.170466 17.621868 32.450947 -1.494629 0.996754 0.051484 -0.008673 -183281.000000 0 0 1
3.134826 -26.564746 18.308768 32.414871 -1.453333 0.970574 0.065904 -0.017602 153650.000000 0 0 1
3.203326 -27.119646 19.613968 33.622080 -1.453223 0.947930 0.051311 -0.014688 213700.000000 0 0 1
4.009226 -26.119796 20.543768 33.471839 -1.418491 0.909978 0.052863 -0.009981 97242.200000 0 0 1
3.324226 -24.982946 20.997168 32.803645 -1.438514 0.876186 0.065663 -0.018186 -364631.000000 0 0 1
4.111426 -24.254246 21.869768 32.915939 -1.402879 0.844089 0.077361 -0.031050 -397973.000000 0 0 1
3.429726 -23.114646 22.744468 32.609212 -1.423492 0.798913 0.079897 -0.039094 -140001.000000 0 0 1
2.814326 -22.013446 22.094168 31.315563 -1.443640 0.787621 0.094794 -0.031672 348582.000000 0 0 1
3.585026 -21.366746 21.088568 30.234383 -1.404559 0.798890 0.090193 -0.021182 559711.000000 0 0 1
2.607226 -20.400546 20.289568 28.890249 -1.443684 0.792176 0.065664 -0.019870 596822.000000 0 0 1
2.215826 -19.300146 21.080868 28.667203 -1.456488 0.744591 0.059591 -0.024860 218452.000000 0 0 1
1.383226 -18.504246 20.207568 27.434763 -1.496183 0.742814 0.053579 -0.022921 203850.000000 0 0 1
0.989126 -17.224046 20.972668 27.156931 -1.513432 0.688379 0.060920 -0.025370 -157314.000000 0 0 1
2.072526 -16.332046 21.139268 26.793651 -1.444572 0.661673 0.035604 -0.002925 -357089.000000 0 0 1
1.720626 -15.035046 21.373468 26.188514 -1.456851 0.616099 0.031469 -0.005344 -133884.000000 0 0 1
2.851126 -13.997746 21.156668 25.527836 -1.369860 0.593893 0.017971 0.007299 -285836.000000 0 0 1
3.207526 -13.722646 19.798768 24.302067 -1.341179 0.618594 0.006605 0.007578 312760.000000 0 1 0
2.196426 -13.160846 18.944468 23.171642 -1.405429 0.613616 0.003717 0.008649 179337.000000 0 1 0
1.522526 -11.848046 19.395668 22.779074 -1.442992 0.552017 0.002577 0.002856 -203228.000000 0 1 0
2.078026 -10.623846 18.886668 21.769026 -1.377635 0.520454 0.010212 -0.009686 -346275.000000 0 1 0
1.829226 -9.546346 19.806268 22.062797 -1.381476 0.456224 0.014981 -0.016605 269896.000000 0 1 0
0.367826 -9.052146 20.004268 21.960131 -1.530185 0.425250 0.021182 -0.016421 302611.000000 0 1 0
0.033326 -8.390446 21.185268 22.786317 -1.566824 0.377100 0.025218 -0.019495 364720.000000 0 1 0
-1.319774 -7.920046 21.037968 22.518104 1.405676 0.364593 0.028825 -0.021951 785220.000000 0 1 0
-1.760174 -7.269546 22.388668 23.605020 1.333238 0.322422 0.033172 -0.019056 -118066.000000 0 1 0
-1.965174 -8.101146 23.528168 24.961273 1.332814 0.340503 0.033812 -0.014357 2423.350000 0 1 0
-2.065374 -7.308846 24.699268 25.840643 1.295392 0.298325 0.032613 -0.012700 -31131.600000 0 0 1
-2.187674 -8.238046 25.921968 27.287355 1.311230 0.317680 0.030417 -0.019495 179268.000000 0 0 1
-1.015774 -9.003146 26.147468 27.672703 1.458447 0.333559 0.021557 -0.019450 -100754.000000 0 0 1
-1.261174 -10.155446 26.921468 28.800852 1.447242 0.363254 0.025526 -0.021770 49478.400000 0 0 1
-0.061974 -11.117646 27.132768 29.322227 1.565222 0.388888 0.026987 -0.017144 806863.000000 0 0 1
1.035126 -10.542446 27.869068 29.814419 -1.472924 0.363238 0.026808 -0.018795 1351400.000000 0 0 1
2.094626 -11.522446 28.150068 30.489023 -1.390973 0.394249 0.035229 -0.021791 1547200.000000 0 0 1
3.174226 -10.934946 29.138868 31.284539 -1.288278 0.372517 0.046002 -0.023409 409005.000000 0 0 1
2.633626 -10.783846 30.432468 32.393864 -1.331265 0.349770 0.037819 -0.024037 94174.500000 0 0 1
3.501526 -10.109846 31.344868 33.120543 -1.237379 0.328933 0.060299 -0.021648 -110035.000000 0 0 1
2.938326 -9.828246 32.742168 34.311481 -1.280287 0.303612 0.050785 -0.025387 -408011.000000 0 0 1
2.840226 -11.030046 33.438468 35.325061 -1.318772 0.328295 0.042082 -0.019893 299687.000000 0 0 1
2.368526 -10.965746 -33.428836 35.261092 -1.358071 2.817806 0.034540 -0.019504 -327306.000000 0 0 1
3.016926 -9.979546 -32.400436 34.036472 -1.277221 2.830282 0.033283 -0.012291 -147387.000000 0 0 1
2.613926 -8.628446 -32.489136 33.716860 -1.276642 2.870905 0.051152 -0.015350 230701.000000 0 0 1
3.362126 -7.820546 -31.613036 32.739103 -1.164775 2.878556 0.059748 -0.014688 -18034.200000 0 0 1
2.780526 -6.379146 -31.438936 32.199869 -1.159749 2.923762 0.049370 -0.025640 247374.000000 0 0 1
3.161726 -5.547046 -32.561436 33.181521 -1.052740 2.947963 0.090524 -0.024379 84466.600000 0 0 1
2.819926 -4.237646 -32.263836 32.662896 -0.983639 2.985116 0.075562 -0.020995 22891.400000 0 0 1
3.094226 -3.260846 -33.423236 33.724176 -0.811611 3.007900 0.083371 -0.011752 441900.000000 0 0 1
2.169326 -3.464946 33.711268 33.958230 -1.011422 0.120676 0.084549 -0.021404 58208.700000 0 0 1
2.402726 -2.655746 32.596468 32.792618 -0.835376 0.109430 0.105253 -0.030215 -146850.000000 0 0 1
1.629726 -3.152446 31.332668 31.532998 -1.093664 0.112781 0.113510 -0.021578 -995313.000000 0 0 1
0.282126 -3.071246 31.593568 31.743750 -1.479193 0.097312 0.095857 -0.023534 -1507330.000000 0 0 1
-0.416874 -3.815446 30.604668 30.844401 1.461968 0.124759 0.097013 -0.025570 885968.000000 0 0 1
-1.973474 -3.914846 30.747768 31.058748 1.103874 0.141629 0.070708 -0.020398 656616.000000 0 0 1
-2.663374 -2.783646 30.295268 30.539245 0.807475 0.126488 0.057249 -0.016674 45825.400000 0 0 1
-4.056374 -2.939146 30.507368 30.915890 0.627029 0.162746 0.054558 -0.013632 250442.000000 0 0 1
-5.012174 -1.973146 29.827168 30.309654 0.375038 0.178667 0.040918 -0.009351 -407280.000000 0 0 1
-4.915874 -2.057146 28.406868 28.902384 0.396327 0.185438 0.030313 -0.006645 249140.000000 0 0 1
-5.832674 -1.256446 27.613868 28.251096 0.212173 0.212797 0.015512 -0.007795 587421.000000 0 0 1
-5.959274 0.257454 27.908568 28.538875 -0.043175 0.210560 0.038881 -0.008108 179787.000000 0 0 1
-6.847774 0.529554 28.989468 29.791973 -0.077179 0.232632 0.030762 -0.004718 -158512.000000 0 0 1
-6.944174 1.937454 29.212468 30.088927 -0.272085 0.241957 0.036582 -0.005317 112983.000000 0 0 1
-8.347974 2.397054 29.704268 30.947989 -0.279619 0.284463 0.029015 -0.006033 761288.000000 0 0 1
-9.312274 2.123754 28.652568 30.202622 -0.224225 0.321767 0.017945 0.005954 1041260.000000 0 0 1
-10.595974 2.700054 28.985568 30.979478 -0.249509 0.360735 0.005651 0.010800 153039.000000 0 0 1
-11.674874 2.198054 28.077668 30.487531 -0.186094 0.400270 0.004315 0.018191 -854978.000000 0 0 1
-11.919474 0.836154 28.366968 30.780803 -0.070035 0.398666 0.003129 0.014651 -31861.600000 0 0 1
-12.398174 0.077954 27.255768 29.943241 -0.006287 0.426914 0.005227 0.018869 -692450.000000 0 0 1
-12.283874 -1.440946 27.544568 30.193925 0.116770 0.422040 0.008242 0.008393 255251.000000 0 0 1
-11.017674 -1.982946 27.913368 30.074529 0.178072 0.381412 0.010894 0.004745 172177.000000 0 0 1
-9.932574 -1.889246 27.030968 28.859981 0.187962 0.357928 0.007211 0.003388 -466552.000000 0 0 1
-10.023374 -2.755146 25.788868 27.805117 0.268247 0.383164 0.003255 0.007072 -696425.000000 0 0 1
-10.687874 -2.225946 24.662768 26.971051 0.205333 0.416733 -0.004651 0.007393 141438.000000 0 0 1
-10.635074 -3.093946 23.532768 26.009007 0.283105 0.439903 -0.000326 0.006810 -370259.000000 0 0 1
-9.559374 -2.712246 22.510868 24.606444 0.276461 0.415694 0.010343 0.000016 851898.000000 0 1 0
-8.235374 -2.855746 23.046668 24.639918 0.333791 0.361581 0.016568 -0.002156 626386.000000 0 1 0
-7.223674 -2.341846 22.199668 23.462544 0.313500 0.329591 0.014329 -0.005164 350684.000000 0 1 0
-5.757574 -2.576346 22.634968 23.497425 0.420749 0.271776 0.019148 -0.007065 431947.000000 0 1 0
-5.242274 -3.935946 22.543268 23.477053 0.644019 0.282987 0.027423 -0.010913 51418.200000 0 1 0
-5.703574 -4.755246 23.582468 24.723994 0.694973 0.305059 0.032023 -0.006222 -191393.000000 0 1 0
-5.484174 -6.253646 23.253868 24.696692 0.850859 0.343510 0.034026 -0.008663 191296.000000 0 1 0
-6.388774 -6.775846 22.262768 24.132123 0.814792 0.396193 0.033143 -0.012128 298862.000000 0 1 0
-6.146074 -6.323746 20.900768 22.684931 0.799645 0.399256 0.033302 -0.018320 340889.000000 0 1 0
-7.399274 -6.338646 19.948268 22.200475 0.708347 0.454339 0.032889 -0.012320 347059.000000 0 1 0
-8.303374 -5.295446 20.152068 22.429748 0.567713 0.454564 0.031834 -0.009659 -533439.000000 0 1 0
-9.171874 -5.218546 19.044268 21.772474 0.517293 0.505991 0.023398 -0.012676 366461.000000 0 1 0
-9.971074 -3.898046 19.125068 21.917694 0.372668 0.510325 0.015134 -0.009447 220492.000000 0 1 0
-9.060374 -2.877446 18.793768 21.061239 0.307511 0.468295 0.015097 -0.007683 308884.000000 0 1 0
-9.674474 -1.607146 18.699768 21.115389 0.164619 0.483014 0.011080 -0.012687 -213298.000000 0 1 0
-8.609674 -0.574746 18.328068 20.257712 0.066657 0.440015 0.007534 -0.002994 -328248.000000 0 1 0
-7.706274 -0.270946 19.359168 20.838365 0.035145 0.379052 0.014874 0.010030 193915.000000 0 1 0
-8.216174 0.516554 20.482168 22.074681 -0.062788 0.382169 0.040610 0.008279 -282902.000000 0 1 0
-8.087274 2.046254 20.339768 21.984024 -0.247820 0.389216 0.037382 0.001195 -274615.000000 0 1 0
-8.664974 2.597354 19.208068 21.231530 -0.291230 0.440132 0.021879 -0.010276 26896.700000 0 1 0
-8.547074 4.017654 19.203068 21.399809 -0.439412 0.457074 0.025443 -0.004029 -126921.000000 0 1 0
-9.308074 4.605154 18.016968 20.795644 -0.459437 0.522886 0.022878 0.002042 -143510.000000 0 1 0
-10.716374 4.568354 18.209868 21.617350 -0.402968 0.569125 0.022181 0.007228 144499.000000 0 1 0
-11.434474 4.942354 17.074068 21.135227 -0.407981 0.630303 0.016774 0.012649 -171768.000000 0 1 0
-11.579974 6.480554 16.783868 21.396065 -0.510210 0.669008 0.022504 0.003163 -490384.000000 0 1 0
-10.345974 7.077054 16.478668 20.704356 -0.599934 0.650298 0.019068 -0.005581 104114.000000 0 1 0
-10.568574 8.494554 16.589468 21.425747 -0.677027 0.685224 0.022562 -0.010437 411894.000000 0 1 0
-9.246874 9.299254 16.681168 21.218910 -0.788222 0.666248 0.026126 -0.014364 299198.000000 0 1 0
-8.589274 9.443554 17.935268 22.014317 -0.832736 0.618569 0.037010 -0.003804 47102.900000 0 1 0
-7.746974 10.568054 18.080768 22.329656 -0.938228 0.627122 0.042260 -0.010279 -310939.000000 0 1 0
-8.334174 11.997154 17.972768 23.160538 -0.963650 0.682484 0.042500 -0.009516 -463868.000000 0 1 0
-8.417274 12.395554 16.667368 22.412081 -0.974266 0.732241 0.039488 -0.020256 -67009.200000 0 1 0
-9.240574 13.522354 16.524068 23.265577 -0.971329 0.780962 0.052466 -0.025424 -156101.000000 0 1 0
-9.158774 14.054154 15.044668 22.533184 -0.993243 0.839726 0.047151 -0.026243 766058.000000 0 1 0
-7.880474 14.641854 14.771868 22.241714 -1.077046 0.844438 0.043928 -0.021633 541113.000000 0 1 0
-7.740474 15.064554 13.442768 21.623222 -1.096154 0.899908 0.028358 -0.026627 331004.000000 0 1 0
-6.628774 16.168454 13.346868 21.988597 -1.181715 0.918528 0.000303 -0.018876 706665.000000 0 1 0
-5.278474 15.757654 13.437468 21.371277 -1.247566 0.890835 -0.003951 -0.025812 236766.000000 0 1 0
-4.460674 16.944554 13.573468 22.164263 -1.313385 0.911699 -0.005349 -0.021838 1137450.000000 0 1 0
-2.895974 16.785754 13.545068 21.762745 -1.399952 0.898995 0.004125 -0.026542 956185.000000 0 1 0
-2.320074 16.273554 14.749768 22.085446 -1.429183 0.839480 0.008443 -0.020930 -58826.400000 0 1 0
-2.636174 14.947654 15.116368 21.421632 -1.396231 0.787444 0.003739 -0.020025 -850360.000000 0 1 0
-1.568274 14.349454 16.024068 21.567036 -1.461937 0.733271 0.003646 -0.008206 -70265.400000 0 1 0
-0.291374 14.084554 15.449468 20.908027 -1.550112 0.739323 -0.005363 -0.015651 -352461.000000 0 1 0
0.657626 13.684454 16.376268 21.351320 1.522777 0.696658 -0.003708 -0.002440 4296.470000 0 1 0
1.502626 14.873154 16.965868 22.612148 1.470109 0.722282 -0.003065 -0.005409 188526.000000 0 1 0
0.689026 15.733154 17.771168 23.744921 1.527030 0.725120 -0.016517 -0.006180 -413603.000000 0 1 0
1.490926 16.639354 18.425768 24.871668 1.481433 0.736486 0.005006 -0.006622 -1177390.000000 0 1 0
0.807126 17.831854 19.163568 26.189097 1.525564 0.749927 0.010541 -0.009848 -212441.000000 0 0 1
0.237626 18.783654 18.300568 26.225806 1.558146 0.798464 0.000241 -0.006239 294250.000000 0 0 1
-0.926474 18.324454 17.615368 25.435116 -1.520280 0.805763 -0.003301 -0.004655 -1211330.000000 0 0 1
-1.475974 19.354454 16.675768 25.590127 -1.494683 0.861041 -0.003517 -0.003021 -681100.000000 0 0 1
-2.061074 20.416154 17.403768 26.906477 -1.470184 0.867383 -0.011505 -0.000490 -185474.000000 0 0 1
-2.632374 21.335254 16.524668 27.114334 -1.448035 0.915437 0.001033 -0.003126 -147988.000000 0 0 1
-3.562474 22.405054 17.208368 28.474648 -1.413113 0.921859 0.001727 0.008042 -35255.300000 0 0 1
-4.700174 21.906554 17.856268 28.650219 -1.359445 0.897904 0.008040 0.003416 -460184.000000 0 0 1
-5.305074 22.874654 18.638168 29.979574 -1.342906 0.899891 0.014233 -0.000494 241200.000000 0 0 1
-6.525574 22.303554 19.425368 30.288224 -1.286161 0.874539 0.011170 -0.003861 -254316.000000 0 0 1
-7.763974 22.375454 18.792368 30.233976 -1.236809 0.900058 0.007946 -0.003720 -595826.000000 0 0 1
-8.720974 21.718554 19.625568 30.543639 -1.188959 0.872985 -0.025927 -0.000016 -922345.000000 0 0 1
-10.084774 22.247954 19.305768 31.134977 -1.145210 0.901968 -0.005314 -0.004292 -1361750.000000 0 0 1
-10.302574 23.562554 19.778768 32.442821 -1.158601 0.915177 0.001542 0.003287 841557.000000 0 0 1
-11.250074 24.184254 18.839968 32.655576 -1.135389 0.955832 -0.010452 0.001361 656473.000000 0 0 1
-11.712674 25.589354 19.223768 34.081593 -1.141544 0.971512 -0.000492 0.000547 -179002.000000 0 0 1
-12.647174 25.626154 20.270468 35.036304 -1.112341 0.953839 -0.003294 0.011571 39671.500000 0 0 1
-13.088874 26.966454 20.467268 36.296244 -1.118916 0.971702 0.021831 -0.006226 -245510.000000 0 0 1
-14.002474 27.103754 21.692168 37.433045 -1.093937 0.952691 0.049904 -0.011198 197640.000000 0 0 1
-15.356974 26.709254 21.533568 37.588767 -1.048986 0.960790 0.040077 -0.012448 431543.000000 0 0 1
-16.154174 26.906654 22.667368 38.713498 -1.030099 0.945280 0.027281 -0.003832 -786673.000000 0 0 1
-17.539074 26.338954 22.644568 38.911901 -0.983326 0.949679 0.044267 -0.001809 -920600.000000 0 0 1
-17.509274 24.955254 22.876468 38.113936 -0.958979 0.927029 0.057582 -0.013758 -850809.000000 0 0 1
-18.754074 24.456454 23.193368 38.571566 -0.916607 0.925660 0.070333 -0.007701 -1019480.000000 0 0 1
27.165526 24.584954 23.598411 43.580624 0.735574 0.998590 0.060480 -0.029364 -150968.000000 0 0 1
27.235726 23.716154 24.703501 43.755042 0.716431 0.970864 0.058998 -0.029148 184557.000000 0 0 1
27.074726 22.384854 24.209181 42.663883 0.690859 0.967403 0.059007 -0.027410 -379505.000000 0 0 1
26.795626 21.502254 25.402451 42.727474 0.676235 0.934124 0.077901 -0.035957 -369463.000000 0 0 1
25.519826 21.625054 25.952921 42.337437 0.702973 0.910942 0.091725 -0.035862 -308684.000000 0 0 1
25.546026 20.869154 27.128161 42.708994 0.684975 0.882547 0.104635 -0.035596 360984.000000 0 0 1
24.265326 21.043654 27.987841 42.602355 0.714413 0.854023 0.108189 -0.037246 324690.000000 0 0 1
23.923626 22.400454 28.374591 43.350174 0.752529 0.857217 0.119891 -0.048468 -55231.400000 0 0 1
22.699726 22.499654 29.064061 43.199903 0.780972 0.832835 0.135896 -0.043860 -155115.000000 0 0 1
22.285926 23.881354 29.625431 44.098160 0.819942 0.834151 0.129793 -0.045736 -219456.000000 0 0 1
21.643226 24.684954 28.676281 43.590197 0.850960 0.852821 0.109148 -0.043970 -132818.000000 0 0 1
21.378326 26.012454 29.206531 44.572436 0.882874 0.856270 0.111111 -0.042247 -370018.000000 0 0 1
20.135726 26.307454 30.049761 44.727148 0.917512 0.834098 0.095778 -0.036400 546868.000000 0 0 1
18.887326 26.021954 29.351351 43.535904 0.942949 0.830933 0.091014 -0.035723 2176960.000000 0 0 1
17.728326 26.607454 30.024351 43.860139 0.983053 0.816813 0.086578 -0.029387 968871.000000 0 0 1
16.824926 25.589054 30.711411 43.371287 0.989163 0.783986 0.047405 -0.018537 -699096.000000 0 0 1
17.380326 24.966854 31.831331 44.030139 0.962668 0.762742 0.062792 -0.022609 175035.000000 0 0 1
16.441226 24.243954 32.616070 43.839380 0.974880 0.731774 0.032737 -0.016014 292609.000000 0 0 1
16.995526 24.037954 34.069126 45.026398 0.955369 0.712626 0.058166 -0.023919 -1996.220000 0 0 1
17.172626 25.267554 -33.384302 45.253287 0.973872 2.400485 0.056770 -0.032014 239411.000000 0 0 1
17.728626 24.917954 -32.132852 44.359089 0.952407 2.380931 0.048326 -0.024003 -142474.000000 0 0 1
17.947926 26.100854 -31.210672 44.468963 0.968416 2.348792 0.050548 -0.015935 613323.000000 0 0 1
16.755226 26.768454 -30.772212 44.093274 1.011527 2.343242 0.046109 -0.028434 878542.000000 0 0 1
17.219626 27.953754 -30.272672 44.658287 1.018692 2.315663 0.061555 -0.028355 144957.000000 0 0 1
16.655726 28.319254 -28.868602 43.735450 1.039142 2.291713 0.070102 -0.024960 -43463.400000 0 0 1
17.131126 27.380654 -27.925142 42.696478 1.011719 2.283707 0.059760 -0.017423 366445.000000 0 0 1
16.882326 28.016554 -26.706592 42.227743 1.028479 2.255498 0.037337 -0.010007 -130399.000000 0 0 1
17.591326 27.325054 -25.542842 41.334612 0.998806 2.236933 0.026298 -0.002125 222086.000000 0 0 1
18.996726 27.446854 -25.476652 41.991251 0.965373 2.222716 0.042767 -0.001037 14900.900000 0 0 1
19.640526 26.569054 -24.559932 41.168619 0.934227 2.210016 0.044447 -0.000185 423446.000000 0 0 1
21.181826 26.644554 -24.471232 41.921870 0.899125 2.194117 0.057374 -0.004391 252042.000000 0 0 1
21.655326 25.820054 -23.429032 41.043244 0.872898 2.178322 0.069242 -0.004453 -696993.000000 0 0 1
23.054526 25.760854 -23.449132 41.773132 0.840782 2.166806 0.066651 -0.003209 -236958.000000 0 0 1
23.673126 25.670454 -22.054332 41.301122 0.825854 2.134108 0.071110 -0.006426 -69247.700000 0 0 1
23.285026 24.518954 -21.457832 40.047598 0.811205 2.136261 0.068312 -0.008276 70536.500000 0 0 1
23.807226 24.571554 -20.149332 39.705678 0.801196 2.103039 0.055058 -0.004843 -401991.000000 0 0 1
23.543626 23.354054 -19.276332 38.357413 0.781356 2.097337 0.062339 -0.005187 -425378.000000 0 0 1
24.074526 22.154154 -19.768932 38.225646 0.743881 2.114331 0.063791 0.006461 170493.000000 0 0 1
23.939526 21.084154 -18.848232 37.052642 0.722064 2.104456 0.076038 0.004984 -992264.000000 0 0 1
24.077426 19.675854 -19.462732 36.683233 0.685136 2.130060 0.081192 -0.009320 935380.000000 0 0 1
23.019326 19.279854 -20.366832 36.282365 0.697222 2.166803 0.054789 -0.005009 72586.500000 0 0 1
21.700326 19.419354 -19.980332 35.316131 0.729983 2.172147 0.062565 -0.004538 -1223630.000000 0 0 1
20.678426 19.293854 -21.158932 35.320681 0.750774 2.213113 0.046884 0.004091 188667.000000 0 0 1
20.647526 20.253754 -22.257332 36.495530 0.775771 2.226686 0.048725 0.009067 -86559.200000 0 0 1
20.627226 21.610554 -21.878332 37.029177 0.808675 2.202896 0.048385 0.013083 -328011.000000 0 0 1
20.304826 22.591954 -22.958232 38.075750 0.838665 2.218005 0.057097 0.002698 358734.000000 0 0 1
18.910526 22.685354 -23.197732 37.554867 0.875900 2.236614 0.052874 0.006985 -51989.500000 0 0 1
18.520226 23.003554 -24.524232 38.387501 0.892952 2.263812 0.053408 -0.002056 -57711.800000 0 0 1
17.004726 23.008454 -24.781832 37.850877 0.934331 2.284612 0.045516 -0.000132 66657.700000 0 0 1
16.363626 24.110454 -24.163032 37.854120 0.974513 2.263110 0.038240 -0.010256 464664.000000 0 0 1
14.941726 24.069554 -24.095532 37.191306 1.015243 2.275595 0.038188 -0.009324 707026.000000 0 0 1
14.311226 25.193054 -23.264332 37.158180 1.054191 2.247324 0.038753 -0.006746 -265242.000000 0 0 1
14.579626 26.455654 -23.875232 38.503167 1.067111 2.239647 0.034319 -0.008095 386832.000000 0 0 1
13.660626 27.511354 -23.513132 38.682744 1.109917 2.224141 0.050761 -0.017764 379573.000000 0 0 1
13.895126 28.790554 -24.320532 40.167883 1.121143 2.221155 0.049795 -0.016158 137964.000000 0 0 1
13.424526 28.714254 -25.656482 40.779668 1.133468 2.251254 0.054833 -0.023043 -239906.000000 0 0 1
13.037526 29.931654 -26.263122 41.900269 1.160001 2.248237 0.076219 -0.033258 -112717.000000 0 0 1
13.977826 31.194454 -26.314602 43.138520 1.149534 2.226860 0.084480 -0.033877 695833.000000 0 0 1
15.187926 30.870454 -27.027672 43.751035 1.113578 2.236688 0.059744 -0.019860 563106.000000 0 0 1
15.990926 32.041654 -27.084122 44.899075 1.107896 2.218331 0.066847 -0.026695 1468840.000000 0 0 1
17.518926 31.961754 -27.503522 45.660817 1.069396 2.217231 0.061074 -0.009761 1422920.000000 0 0 1
18.388526 31.259654 -26.656322 45.009592 1.039061 2.204628 0.030621 -0.001463 73566.600000 0 0 1
19.681626 31.047554 -27.170892 45.711863 1.005809 2.207309 0.044577 -0.001670 -651429.000000 0 0 1
20.619426 30.333354 -26.238882 45.097140 0.973783 2.191774 0.028948 0.004927 -1222980.000000 0 0 1
20.981726 31.038154 -25.038932 45.061602 0.976361 2.159953 0.034321 0.003784 883522.000000 0 0 1
22.008526 32.061354 -25.149702 46.312127 0.969222 2.144859 0.031965 0.000007 1007430.000000 0 0 1
23.421026 31.842654 -25.767032 47.185157 0.936625 2.148478 0.029109 0.005763 122681.000000 0 0 1
23.330026 31.277354 -27.058522 47.483962 0.929919 2.177114 0.019450 0.011393 550971.000000 0 0 1
24.608226 31.442054 -27.701472 48.595670 0.906723 2.177351 0.006353 0.022261 -10462.900000 0 0 1
24.486026 30.973854 -29.183312 49.097972 0.901851 2.207302 0.006283 0.018863 536117.000000 0 0 1
23.488526 31.639954 -30.001292 49.526509 0.932197 2.221520 0.021470 0.002742 1004560.000000 0 0 1
22.250626 30.912154 -29.952772 48.454310 0.946904 2.237203 0.021460 -0.002970 -27697.000000 0 0 1
21.195226 31.533854 -30.877922 48.959857 0.979013 2.253223 0.017200 -0.001921 -332894.000000 0 0 1
20.633026 32.771054 -30.334962 49.192211 1.008888 2.235292 0.035933 -0.011877 614950.000000 0 0 1
19.679326 33.393254 -31.184662 49.748050 1.038266 2.248303 0.052823 -0.018635 -251755.000000 0 0 1
18.193126 33.132454 -30.918592 48.833479 1.068642 2.256404 0.075875 -0.025450 -577111.000000 0 0 1
17.671626 31.859154 -31.192252 47.960908 1.064367 2.278865 0.095318 -0.036740 61308.900000 0 0 1
17.869726 31.196954 -32.444382 48.427420 1.050614 2.304950 0.094435 -0.037046 -916325.000000 0 0 1
17.305226 31.822054 -33.717682 49.487332 1.072716 2.320388 0.112754 -0.041608 -483018.000000 0 0 1
17.658926 33.154554 -34.017802 50.678131 1.081391 2.306693 0.094662 -0.031455 -80201.200000 0 0 1
17.399926 33.582054 32.850684 50.096699 1.092749 0.855627 0.091495 -0.031354 521524.000000 0 0 1
15.934026 -34.088046 32.661653 49.826415 -1.133536 0.855940 0.113514 -0.035307 -211712.000000 0 0 1
14.987426 33.058854 32.356803 48.625852 1.145155 0.842735 0.118833 -0.037551 639708.000000 0 0 1
13.638226 33.509454 32.511872 48.640585 1.184273 0.838727 0.093670 -0.035797 526521.000000 0 0 1
13.151226 -33.752046 31.374501 47.921964 -1.199251 0.857011 0.088939 -0.031965 -1401110.000000 0 0 1
13.728526 -32.465646 31.180241 47.060578 -1.170737 0.846571 0.112617 -0.029274 128240.000000 0 0 1
13.159826 -31.771546 30.104821 45.704621 -1.178107 0.851730 0.108653 -0.035228 -267388.000000 0 0 1
13.435926 -30.261946 30.080561 44.734211 -1.152954 0.833311 0.107782 -0.038317 -116953.000000 0 0 1
13.162426 -29.533746 31.246441 44.964783 -1.151546 0.802503 0.101558 -0.022713 245183.000000 0 0 1
13.484226 -28.203546 30.961641 43.998722 -1.124819 0.790213 0.112438 -0.028621 -241327.000000 0 0 1
12.776426 -27.191746 31.974191 43.874560 -1.131547 0.754281 0.083378 -0.022856 1805520.000000 0 0 1
11.321226 -27.096046 31.891061 43.352112 -1.175024 0.744202 0.051822 -0.017979 1602600.000000 0 0 1
10.868426 -26.348846 30.760671 41.935704 -1.179576 0.747310 0.037819 -0.023168 -487458.000000 0 0 1
11.221526 -24.822546 30.758281 41.087143 -1.146222 0.724832 0.020452 -0.013578 -300991.000000 0 0 1
10.624326 -24.232046 31.894791 41.440874 -1.157596 0.692510 0.042364 -0.015797 296001.000000 0 0 1
11.263626 -23.040746 32.273403 41.222782 -1.116103 0.671479 0.033638 -0.012607 151084.000000 0 0 1
10.501626 -22.540546 33.542498 41.754755 -1.134799 0.637944 0.032565 -0.009637 -27463.700000 0 0 1
10.748726 -23.254446 -33.456302 42.138208 -1.137825 2.488101 0.030981 -0.003864 868359.000000 0 0 1
12.079326 -23.225046 -32.921522 42.061140 -1.091199 2.469799 0.036802 -0.004895 801998.000000 0 0 1
12.632626 -21.928746 -32.244622 40.989862 -1.048154 2.476158 0.043383 -0.011229 -135771.000000 0 0 1
12.734626 -20.813746 -33.111092 41.130611 -1.021718 2.506511 0.037319 -0.013692 -91937.500000 0 0 1
13.560326 -19.816346 -32.616652 40.502050 -0.970685 2.506992 0.055630 -0.023536 -506545.000000 0 0 1
13.957626 -18.761146 -33.658852 40.984317 -0.931169 2.534415 0.048198 -0.019445 -772058.000000 0 0 1
14.741526 -19.343046 33.543232 41.432046 -0.919590 0.627332 0.059622 0.002333 287901.000000 0 0 1
14.894526 -18.528746 32.402403 40.188021 -0.893706 0.632977 0.042118 -0.000069 -275053.000000 0 0 1
15.865926 -17.329446 32.489965 40.095326 -0.829458 0.626102 0.050525 -0.001962 -1294990.000000 0 0 1
15.469526 -16.331446 33.424007 40.288790 -0.812495 0.592386 0.049713 -0.012116 401940.000000 0 0 1
16.301026 -15.189446 33.348051 40.106548 -0.750114 0.589018 0.040543 -0.020082 952903.000000 0 0 1
17.840626 -15.310146 33.623553 41.027208 -0.709213 0.610184 0.042729 -0.011597 316058.000000 0 0 1
18.627626 -16.071646 32.730962 40.946332 -0.711870 0.644563 0.049651 -0.002380 426089.000000 0 0 1
20.017126 -15.882246 33.074723 41.795554 -0.670724 0.657790 0.051291 -0.001543 897138.000000 0 0 1
20.851226 -16.587646 31.934321 41.589957 -0.672006 0.695338 0.058932 -0.004335 -402739.000000 0 0 1
20.867226 -15.846546 30.724151 40.379792 -0.649489 0.706129 0.047360 0.004374 -70632.100000 0 0 1
21.599326 -16.459546 29.747861 40.278813 -0.651162 0.739881 0.050003 0.000578 -724656.000000 0 0 1
21.666126 -15.696946 28.478921 39.075108 -0.626975 0.754192 0.040682 0.002651 -99335.800000 0 0 1
22.614226 -14.648946 28.607721 39.298811 -0.574810 0.755463 0.024595 -0.001613 417272.000000 0 0 1
22.780226 -13.987546 27.360101 38.251343 -0.550666 0.773784 0.020911 0.001087 177573.000000 0 0 1
23.542626 -12.643146 27.564691 38.391621 -0.492833 0.769890 0.024547 -0.002148 -75029.600000 0 0 1
22.745726 -11.667046 28.155151 38.028943 -0.473941 0.737189 0.022979 -0.007298 -92818.600000 0 0 1
23.455126 -10.530546 28.568521 38.434304 -0.421993 0.732795 0.040974 -0.017140 -65416.600000 0 0 1
22.556826 -9.289746 28.560311 37.560633 -0.390669 0.706900 0.038584 -0.016728 705670.000000 0 0 1
21.623626 -9.140446 29.644051 37.814002 -0.399926 0.669803 0.029994 -0.020561 367279.000000 0 0 1
20.589726 -8.200246 29.408901 36.824779 -0.379013 0.645802 0.041904 -0.023928 1102060.000000 0 0 1
19.328426 -8.266546 30.365581 36.932267 -0.404146 0.605537 0.026903 -0.017747 611522.000000 0 0 1
19.562826 -7.871746 31.686391 38.061738 -0.382559 0.587192 0.031652 -0.025140 80023.300000 0 0 1
19.842226 -8.987746 32.539377 39.157433 -0.425313 0.589914 0.035117 -0.031054 -694058.000000 0 0 1
19.992326 -8.466946 33.977742 40.322069 -0.400608 0.568594 0.030031 -0.029558 13816.600000 0 0 1
18.796126 -8.426446 -33.473492 39.303614 -0.421446 2.589949 0.026418 -0.035912 223712.000000 0 0 1
18.915026 -7.598046 -32.346572 38.233614 -0.381966 2.579280 0.029347 -0.035235 737388.000000 0 0 1
17.553826 -7.310246 -31.604192 36.883621 -0.394604 2.599949 0.031525 -0.035148 756409.000000 0 0 1
17.824926 -6.456346 -30.517002 35.926311 -0.347510 2.585707 0.038489 -0.031929 209228.000000 0 0 1
16.672226 -6.193146 -29.754892 34.665138 -0.355668 2.602845 0.047812 -0.023977 -107759.000000 0 0 1
16.988726 -5.179446 -28.586372 33.654482 -0.295924 2.585658 0.042961 -0.023109 -101908.000000 0 0 1
17.648326 -5.522146 -27.374662 33.035279 -0.303248 2.547487 0.041221 -0.022272 265936.000000 0 0 1
17.055526 -6.519546 -26.506072 32.186446 -0.365115 2.538379 0.054392 -0.028793 -402256.000000 0 0 1
15.646826 -6.325746 -25.952262 30.957360 -0.384193 2.564996 0.062293 -0.024620 -415642.000000 0 0 1
15.577626 -5.166846 -25.153922 30.034622 -0.320265 2.563484 0.047910 -0.020926 -450052.000000 0 0 1
14.258226 -4.945446 -24.728332 28.969723 -0.333865 2.593639 0.040206 -0.021923 -208635.000000 0 0 1
14.025226 -3.799846 -23.732832 27.827920 -0.264578 2.592201 0.049736 -0.020408 -27519.600000 0 0 1
14.064526 -2.502946 -24.280732 28.171432 -0.176118 2.609785 0.035458 -0.018034 71703.900000 0 0 1
13.712326 -1.487946 -23.396932 27.159866 -0.108089 2.608919 0.045070 -0.015327 -115614.000000 0 0 1
14.181026 -0.096946 -23.879332 27.772890 -0.006836 2.605688 0.042059 -0.016291 -390526.000000 0 0 1
13.482726 0.440054 -24.960932 28.372975 0.032627 2.646118 0.048970 -0.017448 -116745.000000 0 0 1
13.918226 1.776054 -25.179382 28.824862 0.126920 2.633204 0.044135 -0.001089 -113589.000000 0 0 1
13.380526 2.539054 -26.423742 29.727083 0.187528 2.665686 0.032742 0.000981 98783.800000 0 0 1
12.075026 3.060054 -26.322382 29.121092 0.248195 2.699584 0.044405 -0.015547 207221.000000 0 0 1
11.494326 3.559054 -27.526182 30.041257 0.300273 2.729487 0.048408 -0.013966 253147.000000 0 0 1
10.109826 4.211054 -27.310212 29.424297 0.394675 2.760212 0.057778 -0.023792 -90697.300000 0 0 1
10.140926 5.514054 -26.682652 29.072446 0.498026 2.733297 0.060085 -0.028891 363965.000000 0 0 1
8.845726 6.088054 -26.760422 28.834554 0.602795 2.759987 0.068631 -0.031365 279297.000000 0 0 1
8.050026 4.907454 -30.990292 32.392657 0.547463 2.846267 0.058411 -0.018109 -104606.000000 0 0 1
8.389726 3.955554 -30.013842 31.414402 0.440569 2.841864 0.048987 -0.012793 481365.000000 0 0 1
7.876626 2.702454 -30.440062 31.558547 0.330513 2.874561 0.041884 -0.013834 -218537.000000 0 0 1
7.816726 1.717654 -29.283282 30.357242 0.216303 2.874804 0.051090 -0.013691 -168766.000000 0 0 1
9.073726 1.325854 -28.763552 30.189938 0.145093 2.832970 0.056489 -0.016454 303398.000000 0 0 1
8.914126 0.377254 -27.739032 29.138598 0.042296 2.830399 0.053681 -0.016613 -54601.200000 0 0 1
10.215226 -0.030046 -27.001292 28.869041 -0.002941 2.779910 0.051667 -0.021483 -109868.000000 0 0 1
10.957226 -0.894346 -27.811202 29.905244 -0.081441 2.765148 0.039004 -0.014277 -95011.400000 0 0 1
12.067226 -1.356646 -27.046302 29.647275 -0.111954 2.719587 0.040584 -0.014007 358026.000000 0 0 1
12.690526 -2.658346 -27.658852 30.547150 -0.206489 2.703230 0.040297 -0.013801 -435649.000000 0 0 1
11.869426 -3.709646 -27.402982 30.092660 -0.302919 2.715579 0.051964 -0.012325 -510728.000000 0 0 1
12.457726 -4.916446 -27.774002 30.834422 -0.375886 2.692282 0.057220 -0.014380 -17262.100000 0 0 1
11.546226 -6.116346 -27.385692 30.343058 -0.487145 2.696418 0.051060 -0.026093 183372.000000 0 0 1
11.399426 -6.230446 -25.982062 29.048803 -0.500197 2.677947 0.059458 -0.025642 87094.500000 0 0 1
10.805526 -7.430846 -25.466032 28.644296 -0.602416 2.666049 0.071305 -0.028565 5031.760000 0 0 1
10.724026 -7.246746 -23.959832 27.232217 -0.594264 2.646309 0.069122 -0.024835 601312.000000 0 0 1
11.959026 -7.038246 -23.235032 27.063295 -0.531943 2.603220 0.051915 -0.024107 883332.000000 0 0 1
11.677826 -6.960646 -21.855932 25.739153 -0.537515 2.585136 0.057450 -0.024936 -507509.000000 0 0 1
12.993126 -6.936446 -21.104032 25.735497 -0.490363 2.532270 0.062798 -0.024794 -184907.000000 0 0 1
13.584626 -5.635246 -20.966832 25.610664 -0.393221 2.529898 0.050806 -0.024266 -327233.000000 0 0 1
14.803526 -5.778846 -20.292732 25.774686 -0.372177 2.477234 0.058510 -0.016659 -230110.000000 0 0 1
15.373426 -4.446346 -19.630032 25.326871 -0.281540 2.457618 0.063181 -0.015094 -68703.600000 0 0 1
16.085726 -3.591546 -20.477032 26.286092 -0.219672 2.463876 0.057691 -0.013281 167373.000000 0 0 1
16.437026 -2.372846 -19.832132 25.867348 -0.143369 2.444460 0.060642 -0.005749 144377.000000 0 0 1
17.525026 -1.597746 -20.633432 27.118589 -0.090918 2.435433 0.035110 -0.001188 705642.000000 0 0 1
18.775126 -2.256046 -20.797632 28.109369 -0.119588 2.403692 0.051582 -0.010285 598728.000000 0 0 1
19.746426 -1.465046 -21.476932 29.211750 -0.074057 2.396781 0.052866 -0.001628 310883.000000 0 0 1
21.100726 -2.187646 -21.647932 30.309395 -0.103307 2.366322 0.040702 -0.000450 -913553.000000 0 0 1
21.978926 -2.039546 -20.539232 30.151169 -0.092531 2.320208 0.043290 -0.004474 1408370.000000 0 0 1
23.280026 -2.640946 -20.783432 31.319088 -0.112960 2.296421 0.045526 -0.010394 1366380.000000 0 0 1
24.224326 -1.955346 -21.790232 32.641317 -0.080544 2.301731 0.047047 -0.008714 -1250340.000000 0 0 1
23.903126 -2.308646 -23.123132 33.337194 -0.096285 2.337290 0.050191 -0.012495 410003.000000 0 0 1
24.628526 -1.479446 -24.023732 34.436794 -0.059998 2.342864 0.057543 -0.016068 -577854.000000 0 0 1
25.989626 -1.971046 -24.436232 35.727792 -0.075695 2.323968 0.062406 -0.024964 -545085.000000 0 0 1
27.007426 -2.052346 -23.378232 35.779253 -0.075846 2.282866 0.060314 -0.023242 1183880.000000 0 0 1
28.199526 -2.693946 -23.793532 36.994632 -0.095243 2.269417 0.053499 -0.023613 552268.000000 0 0 1
29.210926 -2.011646 -24.772332 38.353531 -0.068758 2.272991 0.049742 -0.024046 -734289.000000 0 0 1
28.836626 -1.810446 -26.101662 38.937456 -0.062701 2.305475 0.058450 -0.026454 -116134.000000 0 0 1
29.411826 -0.677946 -26.730182 39.749437 -0.023046 2.308333 0.052381 -0.033387 -667991.000000 0 0 1
28.818626 -0.284746 -28.087162 40.242800 -0.009880 2.343317 0.054398 -0.037587 1027480.000000 0 0 1
27.423126 0.087954 -28.081272 39.250394 0.003207 2.368049 0.044329 -0.029535 923281.000000 0 0 1
27.079326 1.404754 -27.648832 38.726234 0.051829 2.365928 0.033298 -0.022711 -327919.000000 0 0 1
25.578226 1.642354 -27.936042 37.912603 0.064121 2.399201 0.029246 -0.022392 195158.000000 0 0 1
24.700826 1.057854 -26.990692 36.602559 0.042801 2.400008 0.034018 -0.019722 -107259.000000 0 0 1
23.361326 1.284454 -27.360162 35.999720 0.054927 2.434125 0.033722 -0.012897 389222.000000 0 0 1
22.279226 0.972354 -26.253802 34.446647 0.043616 2.437437 0.035655 -0.009763 508333.000000 0 0 1
22.388326 1.860254 -25.138022 33.713764 0.082900 2.412277 0.038699 -0.011903 444477.000000 0 0 1
21.335826 1.680454 -24.193732 32.301363 0.078600 2.417348 0.041715 -0.005962 98442.900000 0 0 1
21.655726 2.364054 -22.824032 31.551477 0.108735 2.379496 0.035173 0.000433 -283540.000000 0 0 1
21.227726 3.735354 -22.661432 31.274746 0.174183 2.381239 0.034454 -0.005640 574993.000000 0 0 1
21.623026 4.125254 -21.367232 30.677868 0.188515 2.341309 0.031855 -0.005602 -300592.000000 0 0 1
21.199926 5.563854 -20.965432 30.330557 0.256659 2.333988 0.036810 -0.002888 -481026.000000 0 0 1
21.924426 6.554054 -21.608132 31.472964 0.290483 2.327546 0.037275 -0.004329 195899.000000 0 0 1
21.701426 7.841454 -21.013932 31.209384 0.346736 2.309488 0.032326 -0.001252 -311167.000000 0 0 1
22.088626 8.050754 -19.478332 30.530763 0.349512 2.262682 0.049482 -0.013119 -340256.000000 0 0 1
23.460226 8.111254 -19.136632 31.343027 0.332879 2.227557 0.044391 -0.012692 324717.000000 0 0 1
23.783726 8.345154 -17.769332 30.839202 0.337456 2.184859 0.064199 -0.031486 -54351.700000 0 0 1
23.656026 9.801254 -17.345232 30.927807 0.392793 2.166184 0.075264 -0.047865 -325209.000000 0 0 1
22.345826 10.093554 -16.929232 29.796219 0.424265 2.175073 0.063926 -0.051836 -68621.500000 0 0 1
22.179226 11.515054 -16.862332 30.147185 0.478875 2.164378 0.055164 -0.046971 1317040.000000 0 0 1
20.628026 11.897154 -16.758032 29.118540 0.523146 2.184025 0.054963 -0.050074 1321200.000000 0 0 1
19.837726 11.749954 -17.866132 29.168399 0.534741 2.230037 0.054629 -0.048911 -428252.000000 0 0 1
19.238426 10.513054 -17.924032 28.318056 0.500122 2.256159 0.057728 -0.050414 -450176.000000 0 0 1
18.434226 10.269954 -19.262332 28.571491 0.508288 2.310650 0.052460 -0.022309 203440.000000 0 0 1
19.237026 10.336954 -20.427232 29.902970 0.493077 2.322819 0.058718 -0.013751 103607.000000 0 0 1
18.547326 9.854754 -21.540032 30.084755 0.488396 2.368821 0.050353 -0.016875 -396297.000000 0 0 1
19.345426 9.958054 -22.850032 31.552057 0.475378 2.380671 0.062995 -0.017731 -268331.000000 0 0 1
19.522426 11.338654 -23.247732 32.405975 0.526183 2.370845 0.064649 -0.021604 -46945.000000 0 0 1
20.149026 11.436854 -24.453432 33.686128 0.516265 2.383167 0.073840 -0.022331 -518284.000000 0 0 1
20.356326 12.884154 -24.896532 34.644173 0.564282 2.372634 0.081210 -0.022436 -174052.000000 0 0 1
20.949026 13.160054 -26.134172 35.986715 0.560893 2.383600 0.075720 -0.018990 53216.300000 0 0 1
20.954126 14.550154 -26.395302 36.708233 0.606945 2.373240 0.085917 -0.014973 156973.000000 0 0 1
19.660926 15.061054 -27.094222 36.708095 0.653688 2.401045 0.079365 -0.016584 361297.000000 0 0 1
18.548226 15.004654 -26.217062 35.447294 0.680177 2.403282 0.064002 -0.005846 -135065.000000 0 0 1
17.397326 15.458854 -26.901282 35.571366 0.726468 2.428378 0.052291 -0.015085 -99096.400000 0 0 1
16.046026 14.998454 -26.342472 34.298024 0.751667 2.446581 0.066341 -0.019359 -228090.000000 0 0 1
15.888426 13.612154 -26.507392 33.769434 0.708390 2.473415 0.053083 -0.013805 40994.300000 0 0 1
14.595626 13.154454 -26.194442 32.744782 0.733511 2.498021 0.038506 -0.012209 -241927.000000 0 0 1
14.378626 11.598454 -26.247402 32.096653 0.678780 2.528307 0.036546 -0.016085 -635040.000000 0 0 1
13.047726 11.254654 -26.036992 31.222354 0.711750 2.556972 0.037888 -0.013185 -510289.000000 0 0 1
12.933726 9.906354 -25.761802 30.480938 0.653620 2.577693 0.060730 -0.018880 -577209.000000 0 0 1
11.496526 9.483254 -25.517892 29.551058 0.689729 2.613002 0.053051 -0.023752 -558315.000000 0 0 1
10.909926 9.951754 -24.325632 28.456990 0.739501 2.596002 0.066047 -0.029855 200740.000000 0 0 1
9.673626 9.312454 -24.049532 27.544162 0.766377 2.632375 0.067370 -0.028503 -135940.000000 0 0 1
8.855026 9.986254 -22.984132 26.578320 0.845366 2.615488 0.062603 -0.028030 -516730.000000 0 0 1
8.029426 11.044654 -23.423232 27.112799 0.942181 2.613794 0.059649 -0.029759 83638.000000 0 0 1
7.453626 11.737254 -22.325632 26.301208 1.005010 2.584592 0.060993 -0.017481 778038.000000 0 0 1
8.517326 12.633954 -21.549732 26.392283 0.977623 2.526147 0.067406 -0.019817 1273390.000000 0 0 1
9.525026 11.907154 -20.824532 25.810222 0.896091 2.509567 0.074221 -0.022991 171979.000000 0 0 1
10.300026 12.709954 -19.962732 25.809768 0.889752 2.455073 0.084958 -0.022236 -604038.000000 0 0 1
11.223726 11.867854 -19.088632 25.123572 0.813285 2.433786 0.088473 -0.028964 420889.000000 0 0 1
12.355926 11.228654 -19.719632 25.838256 0.737638 2.439040 0.091544 -0.030221 762856.000000 0 0 1
12.035526 10.293254 -20.716932 26.076738 0.707528 2.488915 0.087623 -0.034318 -683491.000000 0 0 1
13.312326 9.730354 -21.394332 27.011391 0.631183 2.484954 0.086226 -0.032576 496449.000000 0 0 1
14.056026 8.784154 -20.594332 26.435956 0.558555 2.463909 0.106798 -0.041108 192961.000000 0 0 1
14.908226 8.059054 -21.441832 27.330491 0.495580 2.472748 0.094911 -0.038646 -415249.000000 0 0 1
15.557426 6.869554 -20.709232 26.797324 0.415814 2.454053 0.114883 -0.036473 22358.200000 0 0 1
16.460126 7.286754 -19.696432 26.682990 0.416759 2.401142 0.085567 -0.028610 276816.000000 0 0 1
16.898626 6.134854 -18.924532 26.102450 0.348243 2.381845 0.064423 -0.031968 712775.000000 0 0 1
17.829426 6.536954 -17.687532 25.951281 0.351420 2.320698 0.081834 -0.027470 -57768.400000 0 0 1
19.097326 7.062854 -18.015732 27.187467 0.354235 2.295146 0.053883 -0.033050 517355.000000 0 0 1
19.871526 7.283954 -16.795832 27.019132 0.351344 2.241615 0.058622 -0.054881 508261.000000 0 0 1
20.522926 6.010754 -16.104332 26.770677 0.284912 2.216257 0.058710 -0.052114 -238694.000000 0 0 1
21.775226 5.616854 -16.640232 27.975111 0.252444 2.207841 0.046873 -0.048040 349918.000000 0 0 1
22.395026 4.572054 -15.941432 27.867008 0.201387 2.179804 0.071318 -0.052140 780489.000000 0 0 1
23.797126 4.184754 -16.541832 29.282206 0.174071 2.171121 0.042213 -0.005526 565204.000000 0 0 1
24.494026 3.218254 -15.840632 29.346893 0.130641 2.140963 0.048722 -0.015952 40283.800000 0 0 1
25.765826 2.895754 -16.361932 30.659028 0.111918 2.133736 0.044663 -0.019214 -125888.000000 0 0 1
26.500426 1.836154 -15.584732 30.798180 0.069177 2.101369 0.051349 -0.024273 -742317.000000 0 0 1
26.068926 0.495854 -15.750932 30.461888 0.019019 2.114221 0.068729 -0.016695 37639.700000 0 0 1
27.071826 -0.507546 -15.683232 31.290656 -0.018746 2.095794 0.052519 -0.014278 -235565.000000 0 0 1
26.506026 -1.940946 -15.964932 31.003480 -0.073096 2.111734 0.043302 -0.020294 144321.000000 0 0 1
25.813026 -2.552646 -14.873032 29.900425 -0.098569 2.091417 0.057288 -0.020852 517276.000000 0 0 1
25.697626 -3.968846 -15.038832 30.038079 -0.153233 2.095156 0.048321 -0.017910 -1016860.000000 0 0 1
25.212126 -4.731146 -13.777332 29.117863 -0.185496 2.063668 0.059200 -0.021241 -537770.000000 0 0 1
23.839026 -4.706746 -13.495032 27.795117 -0.194932 2.077752 0.079248 -0.016943 -47958.400000 0 0 1
23.048826 -5.491346 -14.381532 27.716994 -0.233888 2.116326 0.084770 -0.014095 -496706.000000 0 0 1
21.542626 -5.468146 -14.054632 26.296731 -0.248579 2.134669 0.102267 -0.014670 -165928.000000 0 0 1
21.143126 -6.287346 -12.983732 25.595699 -0.289043 2.102801 0.103714 -0.018030 330236.000000 0 0 1
21.010526 -5.666846 -11.733532 24.723089 -0.263446 2.065304 0.122034 -0.021898 -586735.000000 0 1 0
20.647326 -6.629246 -10.624432 24.148241 -0.310674 2.026358 0.118222 -0.023435 -755804.000000 0 1 0
19.387726 -7.205946 -10.761432 23.315617 -0.355853 2.050543 0.109736 -0.015523 58625.000000 0 1 0
19.372826 -8.338946 -11.580032 24.061204 -0.406474 2.072904 0.106939 -0.027475 250403.000000 0 1 0
18.011426 -9.141246 -11.459232 23.222572 -0.469649 2.086851 0.127222 -0.030862 186112.000000 0 1 0
16.966326 -8.356046 -11.898432 22.343957 -0.457636 2.132362 0.102521 -0.021281 -120831.000000 0 1 0
15.730426 -9.070546 -12.106432 21.823996 -0.523054 2.158835 0.088848 -0.021365 698244.000000 0 1 0
14.567426 -8.115546 -12.405532 20.783869 -0.508280 2.210407 0.060068 -0.016188 -362568.000000 0 1 0
14.649726 -7.334046 -13.593932 21.288441 -0.464149 2.263421 0.072357 -0.017661 159258.000000 0 1 0
15.550726 -6.242946 -13.514932 21.527955 -0.381762 2.249501 0.069685 -0.018773 -112209.000000 0 1 0
15.351426 -5.189046 -14.604132 21.814517 -0.325960 2.304289 0.055891 -0.012593 -146757.000000 0 1 0
14.240726 -4.346746 -14.402632 20.715412 -0.296251 2.339580 0.062931 -0.013161 12590.200000 0 1 0
14.035626 -3.324546 -15.401032 21.100787 -0.232578 2.388942 0.061379 -0.014413 25671.400000 0 1 0
15.098626 -2.186046 -15.382932 21.665224 -0.143785 2.360335 0.066509 -0.018293 256611.000000 0 1 0
16.242426 -2.533746 -16.180232 23.065910 -0.154748 2.348266 0.065121 -0.014878 474024.000000 0 1 0
17.248426 -1.530446 -16.208132 23.718221 -0.088498 2.323154 0.068796 -0.007171 -70300.800000 0 1 0
18.365926 -1.841346 -15.223632 23.926069 -0.099925 2.260460 0.083546 -0.009634 -1328370.000000 0 1 0
17.925126 -1.760546 -13.887932 22.743886 -0.097903 2.227643 0.076888 -0.007065 54883.400000 0 1 0
18.807626 -2.359546 -12.984432 22.975851 -0.124805 2.171392 0.074562 -0.007535 -344704.000000 0 1 0
18.177626 -2.505346 -11.601632 21.709462 -0.136963 2.134599 0.067185 -0.003195 -328157.000000 0 1 0
18.178026 -1.358446 -10.768932 21.172055 -0.074591 2.104400 0.071749 -0.008718 698658.000000 0 1 0
17.691026 -1.711446 -9.501032 20.153686 -0.096441 2.061707 0.065127 -0.004133 -1054960.000000 0 1 0
17.633326 -0.424346 -8.630232 19.636577 -0.024060 2.025836 0.055438 -0.005375 -325387.000000 0 1 0
18.854926 -0.046446 -8.009532 20.485678 -0.002463 1.972495 0.064072 -0.010177 2014610.000000 0 1 0
19.907626 0.497054 -8.901132 21.812629 0.024963 1.991138 0.066632 -0.003613 683164.000000 0 1 0
19.587926 1.851354 -9.539632 21.865931 0.094235 2.022255 0.066536 -0.012646 -667961.000000 0 1 0
19.475226 2.849454 -8.545032 21.457432 0.145281 1.980385 0.057479 -0.013737 803676.000000 0 1 0
18.924026 4.062454 -9.117232 21.395004 0.211462 2.011016 0.055953 -0.026044 -42555.400000 0 1 0
18.816926 5.300254 -8.293032 21.235437 0.274561 1.972001 0.058431 -0.018408 -302676.000000 0 1 0
18.124426 6.353454 -8.915132 21.174059 0.337162 2.005388 0.054691 -0.028975 260208.000000 0 1 0
19.019726 7.230854 -9.570832 22.486353 0.363301 2.010453 0.106406 -0.008801 101746.000000 0 1 0
-26.088764 -29.083406 5.570668 39.465180 0.839623 1.429169 0.058178 -0.009789 255887.000000 0 0 1
-26.626124 -27.981476 6.353168 39.144300 0.810213 1.407774 0.052635 -0.017127 364820.000000 0 0 1
-25.565974 -27.061116 6.542968 37.798591 0.813801 1.396819 0.060554 -0.013388 98790.500000 0 0 1
-26.018394 -25.862866 7.432768 37.431146 0.782400 1.370896 0.047069 -0.016736 -45030.500000 0 0 1
-27.131974 -25.053846 6.991468 37.586166 0.745597 1.383695 0.039613 -0.020690 1397650.000000 0 0 1
-28.421954 -25.561176 7.391168 38.933412 0.732454 1.379796 0.051355 -0.019997 781572.000000 0 0 1
-28.782124 -25.454416 8.895468 39.439413 0.724120 1.343291 0.042286 -0.015680 -521193.000000 0 0 1
-27.848304 -26.207386 9.645068 39.438337 0.755051 1.323730 0.030775 -0.018480 -275520.000000 0 0 1
-28.254234 -26.284506 10.935768 40.109451 0.749298 1.294652 0.030375 -0.022039 -142178.000000 0 0 1
-27.331284 -27.148546 11.831568 40.299239 0.782044 1.272813 0.021966 -0.013248 183904.000000 0 0 1
-26.118874 -26.541976 12.200568 39.185787 0.793432 1.254181 0.032286 -0.010036 -402091.000000 0 0 1
-26.122204 -26.119356 13.547868 39.346347 0.785344 1.219278 0.036006 -0.015948 -928505.000000 0 0 1
-24.866174 -25.528286 14.141668 38.340667 0.798536 1.193033 0.055834 -0.020384 -487089.000000 0 0 1
-23.845974 -26.498196 14.379668 38.439039 0.838031 1.187381 0.073904 -0.016893 -155339.000000 0 0 1
-22.916774 -25.970386 15.283368 37.857903 0.847780 1.155235 0.079621 -0.026114 -148404.000000 0 0 1
-21.988174 -27.039956 15.882768 38.300148 0.888074 1.143192 0.074115 -0.030879 -167302.000000 0 0 1
-22.712774 -27.767826 16.881568 39.647315 0.885204 1.130958 0.066302 -0.021218 870191.000000 0 0 1
-22.058174 -29.018446 17.209968 40.309010 0.920835 1.129678 0.080583 -0.019358 154189.000000 0 0 1
-22.956574 -29.865556 18.161168 41.818462 0.915457 1.121551 0.072729 -0.023888 978301.000000 0 0 1
-24.238374 -30.205136 17.592768 42.536508 0.894558 1.144400 0.035180 -0.016560 983272.000000 0 0 1
-24.754474 -31.330116 18.281268 43.915429 0.902110 1.141442 0.040378 -0.019032 369510.000000 0 0 1
-25.847434 -32.086256 17.467968 44.752068 0.892674 1.169809 0.038457 -0.027327 352271.000000 0 0 1
-25.127004 -32.773716 16.501368 44.472215 0.916704 1.190658 0.033246 -0.022606 618502.000000 0 0 1
-25.880594 -33.818256 15.882868 45.450468 0.917585 1.213808 0.034462 -0.021050 -63146.500000 0 0 1
-25.008574 33.680645 14.823768 44.492232 -0.932099 1.231126 0.037096 -0.025357 154031.000000 0 0 1
-23.941374 32.863820 15.274668 43.434267 -0.941196 1.211438 0.026259 -0.028761 255429.000000 0 0 1
-22.727174 33.458624 14.863768 43.092175 -0.974124 1.218633 0.031190 -0.024652 -155157.000000 0 0 1
-21.499474 32.529009 14.787768 41.701821 -0.986774 1.208302 0.055723 -0.032213 139893.000000 0 0 1
-21.622574 31.661223 13.678768 40.707216 -0.971615 1.228100 0.051907 -0.021636 -574883.000000 0 0 1
-20.542374 30.816313 13.509868 39.422720 -0.982835 1.221015 0.047400 -0.028802 -450401.000000 0 0 1
-20.591274 30.036213 12.143868 38.388126 -0.969836 1.248923 0.041994 -0.021351 158385.000000 0 0 1
-20.000374 30.795883 11.086468 38.357674 -0.994808 1.277584 0.037303 -0.014041 71541.700000 0 0 1
-20.287374 30.172413 9.862868 37.672646 -0.978848 1.305905 0.040393 -0.008234 157976.000000 0 0 1
-19.590574 30.992773 8.755568 37.696188 -1.007107 1.336389 0.041027 -0.014107 -77234.400000 0 0 1
-18.198674 30.750023 8.684268 36.771894 -1.036409 1.332378 0.038986 -0.017580 -386793.000000 0 0 1
-17.681974 31.413413 7.565568 36.833308 -1.058118 1.363924 0.057147 -0.022725 -7148.890000 0 0 1
-17.237974 30.373603 6.512968 35.526360 -1.054593 1.386426 0.045580 -0.024250 83156.800000 0 0 1
-18.297274 29.466913 6.185868 35.232857 -1.015120 1.394311 0.032569 -0.015815 285201.000000 0 0 1
-18.200674 28.223753 6.904268 34.285765 -0.998035 1.368036 0.020437 -0.009884 -898292.000000 0 0 1
-19.141274 27.208053 6.401968 33.877009 -0.957715 1.380676 0.016341 -0.003851 -760835.000000 0 0 1
-18.716174 26.580923 5.200568 32.922433 -0.957310 1.412168 0.015830 -0.011115 162028.000000 0 0 1
-19.759874 25.933253 4.498168 32.912304 -0.919690 1.433696 0.029729 -0.016331 -332031.000000 0 0 1
-19.307674 25.274813 3.138868 31.960209 -0.918452 1.472426 0.041115 -0.021661 -1333550.000000 0 0 1
-19.029974 26.172343 2.029668 32.423001 -0.942111 1.508156 0.045870 -0.023466 1058850.000000 0 0 1
-17.682274 26.661513 1.908168 32.049028 -0.985188 1.511222 0.034514 -0.020591 1217960.000000 0 0 1
-16.440874 25.704623 2.124768 30.586674 -1.001762 1.501273 0.024081 -0.018797 -378509.000000 0 0 1
-16.355874 24.558213 1.269568 29.533579 -0.983252 1.527796 0.044964 -0.020790 58564.900000 0 0 1
-16.072974 24.797773 -0.074732 29.551238 -0.995714 1.573325 0.052707 -0.025667 -362789.000000 0 0 1
-15.835474 23.476103 -0.920332 28.332608 -0.977366 1.603285 0.056653 -0.034620 -970029.000000 0 0 1
-16.862174 22.555553 -1.002632 28.179623 -0.928843 1.606384 0.069509 -0.042226 -616830.000000 0 0 1
-16.731574 21.417153 -1.807532 27.237974 -0.907610 1.637206 0.064321 -0.043135 -1221600.000000 0 0 1
-15.617774 20.474553 -1.487032 25.794059 -0.919160 1.628479 0.066487 -0.040561 -873593.000000 0 0 1
-15.901074 19.757353 -0.330032 25.363479 -0.893124 1.583809 0.074173 -0.045192 -49780.400000 0 0 1
-14.882674 18.863853 0.030668 24.027898 -0.902828 1.569520 0.075073 -0.043547 -357421.000000 0 1 0
-15.452474 17.771153 0.980968 23.570217 -0.855075 1.529165 0.063668 -0.038332 127745.000000 0 1 0
-16.005674 16.690253 0.268568 23.126139 -0.806333 1.559183 0.058781 -0.040959 523797.000000 0 1 0
-16.916474 16.004553 1.132268 23.315121 -0.757705 1.522214 0.071030 -0.046671 283404.000000 0 1 0
-17.633774 14.785853 0.470368 23.017226 -0.697778 1.550359 0.082764 -0.043623 272594.000000 0 1 0
-18.760974 15.079953 -0.368932 24.073123 -0.677050 1.586122 0.109173 -0.045798 597903.000000 0 1 0
-19.278074 13.916453 -0.903032 23.793429 -0.625260 1.608758 0.098295 -0.037574 170251.000000 0 1 0
-20.618874 14.172753 -1.680332 25.076452 -0.602198 1.637855 0.118729 -0.027971 89569.200000 0 0 1
-21.375074 13.020853 -2.114332 25.117859 -0.547128 1.655073 0.107166 -0.034794 1218990.000000 0 0 1
-22.345974 12.626253 -1.131032 25.691323 -0.514313 1.614834 0.112988 -0.031914 394796.000000 0 0 1
-23.636274 13.457053 -0.834732 27.211441 -0.517570 1.601477 0.115378 -0.031635 -362513.000000 0 0 1
-23.471574 14.648353 -0.056932 27.667531 -0.557944 1.572854 0.107841 -0.040397 378322.000000 0 0 1
-24.681674 15.333553 0.236468 29.057853 -0.555900 1.562658 0.085557 -0.034730 -145827.000000 0 0 1
-24.414074 16.620053 1.001368 29.551242 -0.597694 1.536904 0.071964 -0.033622 -130081.000000 0 0 1
-23.937474 16.341053 2.250468 29.070557 -0.598990 1.493305 0.075640 -0.038742 -167427.000000 0 0 1
-23.467974 17.432653 3.017268 29.389575 -0.638895 1.467951 0.064517 -0.040346 -309137.000000 0 0 1
-24.408774 18.590053 3.445168 30.874707 -0.650892 1.458978 0.061887 -0.038389 -686602.000000 0 0 1
-25.315214 18.132853 4.464168 31.457737 -0.621571 1.428406 0.067109 -0.036503 1051920.000000 0 0 1
-26.580694 18.809053 4.451768 32.865362 -0.615822 1.434924 0.059732 -0.036078 460820.000000 0 0 1
-27.535264 18.420653 3.337168 33.296365 -0.589605 1.470402 0.075919 -0.026710 -1409970.000000 0 0 1
-28.746504 19.134553 3.353668 34.694952 -0.587285 1.473984 0.076043 -0.019823 319627.000000 0 0 1
-29.655874 18.526353 2.436768 35.051883 -0.558392 1.501221 0.073444 -0.012772 16816.300000 0 0 1
-30.959084 19.249653 2.078968 36.514876 -0.556278 1.513831 0.082425 -0.024684 -106164.000000 0 0 1
-31.810554 19.467053 3.175168 37.429390 -0.549173 1.485863 0.130481 -0.022683 -689252.000000 0 0 1
-33.031814 19.952253 2.736568 38.686974 -0.543379 1.500001 0.108482 -0.023337 -371199.000000 0 0 1
-33.870524 20.578253 3.880868 39.821327 -0.545957 1.473184 0.087300 -0.025743 -204080.000000 0 0 1
-33.118154 21.599953 4.445168 39.788562 -0.577926 1.458843 0.089413 -0.027282 33881.500000 0 0 1
-33.427184 21.867953 5.770968 40.359486 -0.579320 1.427315 0.072486 -0.024048 3640.240000 0 0 1
-32.474734 22.916453 6.423668 40.262088 -0.614521 1.410565 0.091772 -0.030228 -48199.900000 0 0 1
-32.558024 24.162603 5.790368 40.955887 -0.638452 1.428940 0.076360 -0.020652 42292.600000 0 0 1
-31.585754 25.034383 6.297168 40.792579 -0.670203 1.415806 0.067755 -0.019207 -194101.000000 0 0 1
-31.865504 26.579353 6.050568 41.934255 -0.695197 1.426004 0.058289 -0.013513 -252377.000000 0 0 1
-32.822444 27.074923 6.942468 43.111045 -0.689735 1.409055 0.071946 -0.003877 -250295.000000 0 0 1
-33.178504 28.408583 6.654068 44.182999 -0.708102 1.419619 0.047519 0.004934 -75267.600000 0 0 1
-34.255471 28.794633 7.693268 45.406548 -0.699003 1.400544 0.043216 0.008430 -531222.000000 0 0 1
-33.776814 29.023473 8.982068 45.430306 -0.709852 1.371774 0.059294 -0.000095 355686.000000 0 0 1
-34.768620 29.447653 9.934268 46.633796 -0.702727 1.356124 0.057928 0.004520 484589.000000 0 0 1
-35.883541 28.491443 10.418568 46.988695 -0.671070 1.347213 0.051463 0.007853 -36725.300000 0 0 1
-35.351079 27.294643 10.866268 45.964901 -0.657497 1.332133 0.070336 0.001008 206443.000000 0 0 1
-36.333874 26.507643 11.542368 46.433090 -0.630289 1.319582 0.072155 -0.000433 628151.000000 0 0 1
-35.632914 25.286103 12.271068 45.383595 -0.617158 1.297003 0.105703 -0.012872 93079.700000 0 0 1
-34.805163 25.633903 13.334068 45.235978 -0.634803 1.271585 0.129889 -0.025414 -380500.000000 0 0 1
-34.459817 24.468223 14.064168 44.541820 -0.617440 1.249547 0.154797 -0.029735 -528008.000000 0 0 1
-33.370154 24.806203 15.056568 44.222338 -0.639241 1.223375 0.149922 -0.034367 -634713.000000 0 0 1
-33.686754 25.845403 15.955968 45.358298 -0.654436 1.211328 0.133112 -0.036249 -601579.000000 0 0 1
-32.506414 26.350033 16.508968 44.983744 -0.681177 1.195016 0.135376 -0.026925 -431198.000000 0 0 1
-32.715404 27.587063 17.378568 46.188292 -0.700559 1.185046 0.122991 -0.028626 -43975.900000 0 0 1
-32.595964 28.825503 16.666268 46.595826 -0.724088 1.205017 0.126969 -0.021562 -14913.700000 0 0 1
-32.762704 29.940303 17.506968 47.710695 -0.740416 1.195079 0.099211 -0.017591 6635.000000 0 0 1
-32.653824 31.276123 16.778468 48.228468 -0.763851 1.215471 0.083173 -0.011993 806384.000000 0 0 1
-31.294984 31.543613 16.405868 47.365896 -0.789355 1.217103 0.066811 -0.010976 456209.000000 0 0 1
-31.070904 32.804129 15.847268 47.881603 -0.812526 1.233467 0.047093 0.003715 -1046310.000000 0 0 1
-29.618214 33.083422 15.487468 47.027791 -0.840607 1.235207 0.065284 -0.005336 -536009.000000 0 0 1
-29.221324 32.509011 14.270768 45.982349 -0.838607 1.255232 0.058883 -0.009233 32452.600000 0 0 1
-28.686034 31.209913 14.421368 44.776367 -0.827511 1.242875 0.067628 -0.015192 -109153.000000 0 0 1
-29.630374 30.009393 14.015068 44.440352 -0.791753 1.249952 0.098911 -0.017412 377443.000000 0 0 1
-29.926184 29.834373 12.672868 44.116526 -0.783862 1.279432 0.109041 -0.019700 -582004.000000 0 0 1
-30.823594 28.826403 12.432668 43.995758 -0.751929 1.284305 0.107472 -0.023007 -365353.000000 0 0 1
-30.948654 28.449803 10.931668 43.436297 -0.743354 1.316390 0.103298 -0.009988 47064.600000 0 0 1
-29.783844 27.854013 10.411668 42.087127 -0.751929 1.320817 0.090207 -0.007161 -340365.000000 0 0 1
-29.748694 27.720303 9.008668 41.648002 -0.750117 1.352768 0.086842 -0.008641 674348.000000 0 0 1
-28.486374 26.933793 8.498168 40.113858 -0.757391 1.357328 0.098968 -0.014184 830435.000000 0 0 1
-28.354124 27.176353 7.087468 39.909181 -0.764192 1.392259 0.091421 -0.023877 364501.000000 0 0 1
-27.230544 26.438113 6.556468 38.515758 -0.770634 1.399735 0.070503 -0.019822 568310.000000 0 0 1
-26.969794 26.892893 5.095768 38.426090 -0.783970 1.437792 0.068550 -0.024852 -104424.000000 0 0 1
-26.231934 28.101703 4.970968 38.762490 -0.819797 1.442200 0.062696 -0.023301 103165.000000 0 0 1
-26.153354 28.416293 3.636868 38.790598 -0.826843 1.476902 0.062895 -0.025279 444111.000000 0 0 1
-25.071834 29.551093 3.417968 38.904325 -0.867218 1.482827 0.054285 -0.026370 873388.000000 0 0 1
-23.738774 29.076983 3.355968 37.686375 -0.886128 1.481628 0.052336 -0.022998 -25996.800000 0 0 1
-22.800374 29.994853 2.822068 37.782434 -0.920835 1.496034 0.058894 -0.024240 22520.300000 0 0 1
-21.379474 29.534413 3.183468 36.599152 -0.944220 1.483704 0.046011 -0.028793 -151525.000000 0 0 1
-20.415874 30.372533 2.611868 36.689516 -0.978985 1.499548 0.045030 -0.027185 -459218.000000 0 0 1
-19.087474 29.947163 2.794568 35.622659 -1.003350 1.492266 0.047723 -0.024029 338191.000000 0 0 1
-17.939074 30.822883 2.256068 35.734442 -1.043713 1.507620 0.048254 -0.030527 41461.300000 0 0 1
-17.765974 31.966543 3.120768 36.704617 -1.063536 1.485670 0.062645 -0.030311 -171002.000000 0 0 1
-16.594874 32.689905 2.836868 36.770472 -1.101051 1.493569 0.069261 -0.019983 -272981.000000 0 0 1
-16.409874 33.845489 3.851068 37.810473 -1.119345 1.468768 0.073463 -0.026521 105141.000000 0 0 1
-17.384974 -33.310446 3.747468 37.760650 1.089777 1.471390 0.078058 -0.033052 210316.000000 0 0 1
-17.084874 -32.257326 4.670568 36.800030 1.083716 1.443536 0.084652 -0.023655 64921.800000 0 0 1
-18.144974 -31.132526 4.712068 36.341132 1.043097 1.440768 0.094831 -0.011557 13824.600000 0 0 1
-18.321774 -30.351456 3.568468 35.631900 1.027694 1.470480 0.084067 -0.006121 634247.000000 0 0 1
-19.447674 -29.503386 3.819868 35.542274 0.988003 1.463114 0.089989 -0.008652 -239751.000000 0 0 1
-19.972574 -28.495286 2.813868 34.911358 0.959461 1.490108 0.065524 -0.012880 -34196.600000 0 0 1
-19.193874 -27.295136 2.695768 33.476804 0.957928 1.490183 0.067252 -0.013285 216461.000000 0 0 1
-19.673474 -26.435176 1.674168 32.994954 0.931007 1.520034 0.047068 -0.006641 847055.000000 0 0 1
-18.730974 -25.141306 1.566568 31.390903 0.930485 1.520870 0.064062 -0.009799 912274.000000 0 0 1
-17.444874 -25.373556 1.049668 30.809784 0.968494 1.536720 0.094578 -0.013898 -705595.000000 0 0 1
-16.565274 -24.285846 1.259168 29.424414 0.972188 1.527990 0.093891 -0.019469 366360.000000 0 0 1
-15.172174 -24.641246 0.673368 28.945454 1.018896 1.547531 0.086440 -0.026641 -65393.600000 0 0 1
-15.101674 -24.709946 -0.739232 28.968750 1.022213 1.596317 0.073893 -0.018782 19447.800000 0 0 1
-15.075974 -23.472246 -1.419632 27.932896 0.999861 1.621641 0.084405 -0.028747 -392368.000000 0 0 1
-15.371174 -23.627746 -2.912132 28.337676 0.994030 1.673743 0.056192 -0.018460 252532.000000 0 0 1
-14.291374 -24.246546 -3.608232 28.375301 1.038193 1.698303 0.078236 -0.022936 318551.000000 0 0 1
-14.639374 -24.418346 -4.962932 28.899786 1.030727 1.743381 0.055917 -0.015068 358676.000000 0 0 1
-13.437974 -24.863846 -5.836732 28.859270 1.075305 1.774449 0.077959 -0.022085 439313.000000 0 0 1
-12.849074 -26.151996 -5.672332 29.685029 1.114114 1.763063 0.049501 -0.021171 116427.000000 0 0 1
-12.028274 -26.455276 -6.810832 29.848760 1.144070 1.801002 0.057141 -0.019442 292953.000000 0 0 1
23.066326 12.320954 28.075601 38.367964 0.490595 0.749916 0.010242 -0.001979 -338214.000000 0 0 1
24.006626 11.353554 28.457561 38.923695 0.441761 0.750847 0.010743 -0.004938 -70881.800000 0 0 1
23.477326 10.380854 29.312121 38.963411 0.416319 0.719252 0.021857 -0.004597 -270186.000000 0 0 1
23.471426 10.797154 30.826091 40.221067 0.431149 0.697553 0.035321 -0.011929 322469.000000 0 0 1
22.562426 11.858354 31.107041 40.216062 0.483901 0.686455 0.030924 -0.004097 228681.000000 0 0 1
22.897726 12.420754 32.359654 41.541885 0.497024 0.677784 0.038498 -0.006858 -517453.000000 0 0 1
21.936626 13.468854 32.906048 41.778387 0.550642 0.663838 0.036314 -0.005686 -200931.000000 0 0 1
20.732726 12.867154 33.355385 41.327851 0.555444 0.631586 0.054761 -0.006717 288719.000000 0 0 1
19.867126 13.846254 33.945696 41.698102 0.608671 0.619649 0.057304 -0.000662 77783.100000 0 0 1
18.732026 13.164454 -33.486142 40.564928 0.612588 2.541875 0.058507 0.002520 124682.000000 0 0 1
17.613426 12.698154 33.996859 40.339340 0.624639 0.568384 0.045641 0.000308 -163739.000000 0 0 1
16.522326 12.358454 -33.439762 39.292955 0.642210 2.588753 0.032018 -0.000826 -326105.000000 0 0 1
15.248526 12.133754 33.946914 39.142541 0.672134 0.521116 0.022024 -0.002099 188387.000000 0 0 1
15.401926 10.940154 33.206025 38.204010 0.617612 0.517262 0.020836 0.001015 -540936.000000 0 0 1
14.182626 10.595854 32.636458 37.128929 0.641643 0.497028 0.032337 0.002328 -363501.000000 0 0 1
14.301826 9.495954 31.493781 35.868839 0.586132 0.499074 0.038545 0.004368 -95433.800000 0 0 1
14.397026 8.230754 32.021721 36.061202 0.519349 0.477857 0.023166 -0.003404 -1499.200000 0 0 1
14.976926 7.396054 31.016311 35.228135 0.458699 0.494004 0.024484 -0.015856 44806.600000 0 0 1
15.326926 5.984254 31.464601 35.507000 0.372238 0.481822 0.048821 -0.021732 -900886.000000 0 0 1
14.289326 5.115954 31.627251 35.080491 0.343807 0.447429 0.036181 -0.019156 -962326.000000 0 0 1
14.786626 3.932054 32.180641 35.632836 0.259905 0.443821 0.038704 -0.025783 -158970.000000 0 0 1
13.703126 2.949254 32.622242 35.506118 0.211991 0.405822 0.026893 -0.020779 -1071600.000000 0 0 1
14.291726 1.738754 33.017376 36.019770 0.121067 0.411190 0.027433 -0.023142 -179701.000000 0 0 1
13.324226 0.772354 33.447411 36.011954 0.057901 0.379672 0.025957 -0.019616 -213431.000000 0 0 1
13.864726 -0.648946 33.805348 36.543855 -0.046771 0.389596 0.013426 -0.021251 -319811.000000 0 0 1
14.104526 -1.491246 32.707122 35.649927 -0.105337 0.409167 0.000755 -0.021236 -41463.100000 0 0 1
14.721726 -2.689646 33.135942 36.358686 -0.180706 0.424214 0.028769 -0.024162 -159853.000000 0 0 1
14.871526 -3.714646 31.963501 35.448925 -0.244774 0.447163 0.034686 -0.027475 -723349.000000 0 0 1
15.198726 -5.051346 32.191441 35.955615 -0.320868 0.461668 0.043036 -0.026846 1240350.000000 0 0 1
16.477826 -5.332046 32.828984 37.117269 -0.312955 0.485447 0.033499 -0.030134 1632050.000000 0 0 1
17.844226 -4.890846 32.227771 37.161351 -0.267516 0.521167 0.042184 -0.028496 -126223.000000 0 0 1
18.014026 -3.507646 32.161561 37.029377 -0.192311 0.518544 0.041942 -0.032727 115587.000000 0 0 1
18.974826 -3.091546 31.198551 36.646300 -0.161510 0.552257 0.062186 -0.039729 48635.000000 0 0 1
19.018826 -1.544446 31.066341 36.458450 -0.081028 0.550807 0.068122 -0.042094 -308398.000000 0 0 1
19.307326 -0.896046 32.291321 37.633830 -0.046376 0.539356 0.055434 -0.038726 73407.900000 0 0 1
19.320826 0.534454 32.433956 37.756343 0.027655 0.537418 0.044548 -0.030045 54230.000000 0 0 1
20.485726 1.270554 31.719351 37.780901 0.061942 0.574323 0.074814 -0.032290 -309705.000000 0 0 1
20.438826 1.101254 30.297091 36.563262 0.053828 0.594156 0.080019 -0.031514 359219.000000 0 0 1
21.397126 1.951454 29.636471 36.605540 0.090950 0.627297 0.074845 -0.023458 277514.000000 0 0 1
21.178626 3.506154 29.545231 36.520515 0.164063 0.628341 0.072709 -0.015390 -183912.000000 0 0 1
20.971326 4.134454 30.828341 37.513689 0.194652 0.606252 0.072594 -0.019590 327226.000000 0 0 1
20.247526 5.332954 30.778761 37.225460 0.257539 0.597366 0.071553 -0.022743 -179111.000000 0 0 1
19.794026 5.901654 32.166351 38.227047 0.289762 0.570825 0.074698 -0.016449 233644.000000 0 0 1
18.842526 5.061054 32.807225 38.170264 0.262404 0.536512 0.076879 -0.012481 230414.000000 0 0 1
18.520426 5.440054 34.104603 39.188319 0.285697 0.515037 0.062832 -0.010558 713504.000000 0 0 1
17.272226 4.700054 -33.482642 37.967192 0.265683 2.650639 0.071555 -0.017775 708617.000000 0 0 1
17.516526 3.341154 -33.202782 37.688417 0.188479 2.648728 0.055348 -0.013626 75935.200000 0 0 1
16.286526 2.713154 -32.947302 36.852909 0.165073 2.677039 0.050011 -0.016155 -82295.800000 0 0 1
16.548626 1.228254 -33.153142 37.074202 0.074085 2.677521 0.026651 -0.019667 -928373.000000 0 0 1
17.507726 0.690754 -32.319102 36.763052 0.039434 2.644807 0.029985 -0.019113 -500608.000000 0 0 1
17.675226 -0.652746 -32.572942 37.065297 -0.036913 2.644136 0.028991 -0.014689 424107.000000 0 0 1
18.886826 -1.217846 -31.732152 36.947596 -0.064392 2.603801 0.037395 -0.020065 422078.000000 0 0 1
18.704226 -1.288446 -30.286712 35.620122 -0.068777 2.587294 0.039916 -0.022497 204131.000000 0 0 1
18.269626 -0.123046 -29.608962 34.792025 -0.006735 2.588735 0.022322 -0.014993 -228702.000000 0 0 1
17.988026 -0.372046 -28.147502 33.406427 -0.020680 2.572847 0.030801 -0.004964 545761.000000 0 0 1
16.776926 -1.134746 -28.016942 32.675709 -0.067534 2.601040 0.044710 -0.010718 529160.000000 0 0 1
16.390826 -1.420246 -26.671372 31.337492 -0.086433 2.588875 0.043708 -0.004465 46546.400000 0 0 1
17.418526 -2.146046 -25.757112 31.167923 -0.122587 2.543477 0.050485 -0.007442 -150527.000000 0 0 1
18.606426 -1.400546 -25.480362 31.581790 -0.075130 2.509521 0.046234 -0.008477 371184.000000 0 0 1
19.670626 -2.293046 -25.179832 32.034599 -0.116048 2.475141 0.042101 -0.008606 389928.000000 0 0 1
20.447226 -2.956746 -26.357132 33.489249 -0.143608 2.476780 0.053867 -0.016706 -433722.000000 0 0 1
21.340526 -2.079446 -27.023812 34.496791 -0.097135 2.470869 0.057252 -0.016286 -413324.000000 0 0 1
21.833626 -2.734046 -28.121672 35.707292 -0.124573 2.477637 0.056434 -0.017675 -302637.000000 0 0 1
23.271826 -2.265946 -28.401222 36.787795 -0.097063 2.452823 0.048402 -0.024875 -651789.000000 0 0 1
24.217826 -3.134046 -27.903152 37.079796 -0.128695 2.422671 0.054203 -0.028538 -751495.000000 0 0 1
25.492226 -2.773746 -28.392022 38.257734 -0.108381 2.407032 0.047152 -0.028381 515627.000000 0 0 1
26.663826 -3.730246 -27.977412 38.827953 -0.138997 2.375389 0.059432 -0.028731 236096.000000 0 0 1
26.810526 -4.898446 -28.760352 39.622682 -0.180713 2.383074 0.069377 -0.031658 1057190.000000 0 0 1
27.912226 -5.793646 -28.424512 40.256821 -0.204660 2.354743 0.068395 -0.031810 845288.000000 0 0 1
27.663426 -6.649846 -27.169872 39.340660 -0.235908 2.333157 0.053958 -0.025838 -306881.000000 0 0 1
27.639026 -5.935346 -25.922412 38.355124 -0.211533 2.312917 0.043977 -0.018458 201578.000000 0 0 1
27.389126 -6.826946 -24.833732 37.596352 -0.244280 2.292328 0.030697 -0.019839 -352035.000000 0 0 1
27.637326 -6.301346 -23.447532 36.787437 -0.224169 2.261888 0.028806 -0.012151 342851.000000 0 0 1
29.006126 -6.231746 -23.061232 37.576727 -0.211626 2.231548 0.023443 -0.008086 390151.000000 0 0 1
29.205426 -5.603346 -21.805732 36.876068 -0.189556 2.203497 0.036737 -0.020358 272547.000000 0 0 1
30.685326 -5.292146 -21.417632 37.793002 -0.170785 2.173302 0.032694 -0.015615 255964.000000 0 0 1
31.105726 -4.235546 -22.211132 38.455695 -0.135334 2.186554 0.039495 -0.020489 11633.500000 0 0 1
32.388826 -3.724146 -21.901632 39.275779 -0.114480 2.162333 0.038847 -0.018460 199719.000000 0 0 1
32.741826 -2.457946 -22.668632 39.899067 -0.074930 2.175052 0.043078 -0.024774 -295117.000000 0 0 1
31.982726 -1.338146 -22.293832 39.008978 -0.041815 2.179135 0.044301 -0.026442 70957.400000 0 0 1
32.357426 -0.150346 -22.960632 39.676394 -0.004646 2.187927 0.053902 -0.027774 295712.000000 0 0 1
31.296026 0.986354 -22.707332 38.678639 0.031506 2.198239 0.053624 -0.026184 489500.000000 0 0 1
30.138626 0.856654 -23.517932 38.238250 0.028416 2.233229 0.042828 -0.022968 -230680.000000 0 0 1
29.080526 1.520754 -22.908932 37.051435 0.052247 2.237375 0.032319 -0.014721 -14831.900000 0 0 1
27.740826 1.394454 -23.710232 36.519489 0.050225 2.277393 0.034120 -0.014028 589905.000000 0 0 1
26.772226 2.384654 -23.353632 35.606612 0.088837 2.286143 0.026877 -0.005113 577666.000000 0 0 1
25.741426 2.524654 -24.325032 35.506367 0.097765 2.325523 0.020679 -0.010687 579099.000000 0 0 1
24.750226 3.706154 -24.044732 34.705308 0.148638 2.336197 0.028258 -0.004137 49403.300000 0 0 1
25.431326 4.947054 -24.056932 35.354797 0.192127 2.319164 0.027558 0.001120 187557.000000 0 0 1
24.578226 5.930554 -23.497232 34.516381 0.236767 2.319590 0.032809 -0.005273 -179579.000000 0 0 1
25.199226 7.219354 -22.917732 34.818709 0.279018 2.289224 0.046665 -0.004125 8132.740000 0 0 1
25.879026 8.022654 -23.901732 36.130040 0.300611 2.293677 0.044418 -0.005575 334265.000000 0 0 1
26.009226 9.372154 -23.508532 36.290056 0.345856 2.275483 0.057041 -0.010964 -346063.000000 0 0 1
26.707926 10.261954 -24.575932 37.717336 0.366837 2.280464 0.083636 -0.009265 149290.000000 0 0 1
26.016126 10.495354 -25.807012 38.118147 0.383449 2.314512 0.083822 -0.017292 1983550.000000 0 0 1
24.645026 11.015954 -25.722412 37.287680 0.420344 2.332060 0.082328 -0.022205 1736230.000000 0 0 1
24.052426 11.485254 -27.102152 38.012589 0.445494 2.364533 0.076577 -0.020962 -183727.000000 0 0 1
23.840226 10.563454 -28.143552 38.366684 0.417096 2.394314 0.076914 -0.021103 276286.000000 0 0 1
24.908726 9.753854 -28.667282 39.209634 0.373230 2.390771 0.068093 -0.024184 70579.600000 0 0 1
25.735326 10.390854 -29.793052 40.717353 0.383742 2.391615 0.076937 -0.023032 -947024.000000 0 0 1
26.635126 11.358954 -29.293472 41.189359 0.403111 2.361986 0.079112 -0.011914 486386.000000 0 0 1
27.703726 11.770954 -30.117202 42.580485 0.401775 2.356469 0.073715 -0.001916 655737.000000 0 0 1
28.828726 10.717154 -30.392172 43.239299 0.355921 2.350239 0.069071 -0.005608 -374778.000000 0 0 1
28.385426 9.711654 -31.321902 43.371767 0.329651 2.377734 0.061593 -0.016375 52877.200000 0 0 1
29.334826 8.706054 -31.518802 43.929060 0.288502 2.370993 0.054881 -0.012765 -226824.000000 0 0 1
28.844226 7.571954 -32.485672 44.098104 0.256720 2.398927 0.062402 -0.015213 -265761.000000 0 0 1
27.694926 6.901254 -32.074322 42.934816 0.244215 2.414405 0.059717 -0.012058 -406607.000000 0 0 1
27.133226 6.172354 -33.095372 43.239028 0.223677 2.442467 0.063721 -0.005840 -699809.000000 0 0 1
25.970826 5.219354 -32.727722 42.104979 0.198328 2.461141 0.052220 -0.009577 190119.000000 0 0 1
24.677226 5.775654 -32.677882 41.354173 0.229910 2.481924 0.074795 -0.008227 -97811.100000 0 0 1
24.402726 6.596754 -31.603802 40.469872 0.264018 2.466936 0.072251 -0.011950 -650753.000000 0 0 1
22.888926 6.841154 -31.395322 39.450863 0.290433 2.491137 0.063023 -0.011903 298204.000000 0 0 1
22.395926 7.742554 -32.409922 40.148820 0.332850 2.510265 0.071989 -0.009405 751450.000000 0 0 1
20.961626 7.868454 -32.426502 39.405335 0.359099 2.537286 0.074624 -0.012681 881908.000000 0 0 1
20.511726 9.001754 -33.306252 40.138123 0.413550 2.549529 0.069587 -0.007846 -175666.000000 0 0 1
20.180726 8.675754 33.538647 40.092035 0.406016 0.579856 0.072901 -0.010363 67898.800000 0 0 1
19.931626 9.800554 32.724599 39.550221 0.456993 0.596300 0.065338 -0.008510 44113.600000 0 0 1
18.720926 9.757354 31.762401 38.138290 0.480464 0.586610 0.043997 -0.008561 -15432.400000 0 0 1
18.762526 8.760154 30.723491 37.050042 0.436816 0.593044 0.037162 -0.016365 -474495.000000 0 0 1
19.710626 8.851754 29.713511 36.739013 0.422093 0.628734 0.047772 -0.009791 -897827.000000 0 0 1
19.568126 9.945854 28.599241 36.052020 0.470240 0.654624 0.029108 -0.004910 264576.000000 0 0 1
18.616826 9.638754 27.545041 34.615330 0.477742 0.650557 0.022410 0.001137 713644.000000 0 0 1
17.342526 10.138954 27.907331 34.385763 0.529041 0.623918 0.026966 -0.015328 -45573.800000 0 0 1
16.103326 9.383054 27.358601 33.103653 0.527585 0.598019 0.039407 -0.014244 -210879.000000 0 0 1
16.122326 9.203654 25.893171 31.860523 0.518720 0.622019 0.029893 -0.010061 729.825000 0 0 1
14.923826 8.739954 25.321041 30.663700 0.529792 0.599237 0.050567 -0.009326 -104662.000000 0 0 1
14.859726 7.181354 25.233721 30.151683 0.450179 0.579215 0.044698 -0.006341 -86154.100000 0 0 1
15.042526 6.583154 26.488361 31.164864 0.412525 0.554919 0.028556 -0.009367 60617.300000 0 0 1
14.714326 5.227254 26.419671 30.689324 0.341344 0.533809 0.044758 -0.016729 -39853.300000 0 0 1
15.097326 4.582354 27.798281 31.963599 0.294684 0.516231 0.036589 -0.018207 417820.000000 0 0 1
16.511626 4.487154 27.950601 32.772007 0.265349 0.549319 0.039066 -0.015744 489199.000000 0 0 1
17.004826 3.826754 29.108311 33.927893 0.221352 0.539538 0.049779 -0.018770 -496534.000000 0 0 1
17.259126 2.328954 28.927241 33.765170 0.134130 0.541923 0.063614 -0.017401 -652005.000000 0 0 1
16.177126 1.514254 28.553701 32.852796 0.093333 0.517334 0.051579 -0.029501 -350212.000000 0 0 1
15.412426 1.180154 29.680601 33.464514 0.076422 0.480146 0.037832 -0.030201 -356564.000000 0 0 1
15.222926 -0.371546 29.724351 33.397793 -0.024402 0.473430 0.039954 -0.029995 -447054.000000 0 0 1
14.577026 -0.988546 28.638961 32.150537 -0.067712 0.471744 0.042215 -0.026282 67858.600000 0 0 1
15.309526 -1.115546 27.436171 31.438345 -0.072738 0.510096 0.061796 -0.017689 -1083500.000000 0 0 1
16.419326 -2.174746 27.352551 31.976332 -0.131684 0.544474 0.063315 -0.013438 1414230.000000 0 0 1
17.789626 -1.907646 27.757821 33.024333 -0.106825 0.572542 0.063211 -0.024342 1587280.000000 0 0 1
18.404426 -0.719946 27.223721 32.869016 -0.039098 0.594821 0.067777 -0.021263 -251537.000000 0 0 1
19.928426 -0.532546 27.472451 33.943502 -0.026717 0.627738 0.088632 -0.024498 669996.000000 0 0 1
20.763126 -1.450546 26.783521 33.920031 -0.069748 0.660627 0.086607 -0.022998 -293364.000000 0 0 1
22.101926 -1.349046 27.171251 35.051276 -0.060962 0.683787 0.085860 -0.026384 -12031.000000 0 0 1
23.178826 -1.992646 26.270701 35.091001 -0.085758 0.724780 0.087124 -0.021291 -73428.900000 0 0 1
23.391226 -1.462546 24.983801 34.256077 -0.062444 0.753462 0.093251 -0.007538 169475.000000 0 0 1
22.563926 -2.023146 23.977051 32.986707 -0.089424 0.757043 0.098868 0.005044 -67101.900000 0 0 1
22.479126 -1.370146 22.611871 31.913714 -0.060877 0.783381 0.090860 -0.012153 -85892.800000 0 0 1
21.625926 -0.246546 22.553871 31.247697 -0.011400 0.764430 0.080294 -0.008203 -22205.500000 0 0 1
21.347726 0.310854 21.369871 30.207506 0.014560 0.784933 0.075943 -0.008964 -131158.000000 0 0 1
-30.499204 -27.202546 -10.573632 42.213525 0.728327 1.823972 0.021347 0.003577 46723.300000 0 0 1
-30.399114 -26.079746 -9.739932 41.220451 0.709069 1.809341 0.035238 0.003473 -235757.000000 0 0 1
-31.042134 -26.483346 -8.562232 41.692847 0.706315 1.777633 0.062967 -0.006785 -516912.000000 0 0 1
-31.468674 -25.389846 -7.573132 41.137259 0.678891 1.755947 0.084716 -0.012465 824514.000000 0 0 1
-30.336574 -24.741246 -6.945332 39.757699 0.684156 1.746389 0.068574 -0.008038 66032.800000 0 0 1
-29.646994 -25.478246 -5.997932 39.548204 0.709919 1.723045 0.066029 -0.013794 699334.000000 0 0 1
-28.348294 -24.763246 -5.448632 38.033298 0.718000 1.714550 0.069393 0.001138 763805.000000 0 0 1
-28.574964 -23.618746 -4.593732 37.356072 0.690724 1.694080 0.072774 -0.002470 -53471.800000 0 0 1
-29.072934 -22.429846 -5.221632 37.089068 0.657121 1.712052 0.074618 -0.005722 177356.000000 0 0 1
-29.357514 -21.124546 -4.383432 36.432466 0.623734 1.691405 0.072241 -0.015200 -358024.000000 0 0 1
-28.164544 -20.425846 -4.243932 35.049503 0.627461 1.692178 0.070488 -0.011673 -332417.000000 0 0 1
-28.282384 -19.343346 -3.358732 34.428758 0.599863 1.668508 0.075988 -0.009226 -43007.600000 0 0 1
-27.102824 -18.348346 -3.309932 32.896512 0.595116 1.671583 0.072323 -0.013043 17878.600000 0 0 1
-27.163784 -17.539046 -4.471432 32.641737 0.573331 1.708214 0.083929 -0.023462 87624.500000 0 0 1
-26.212164 -16.503246 -4.387232 31.283901 0.561902 1.711499 0.087621 -0.027841 73900.800000 0 0 1
-26.506754 -15.371046 -5.427132 31.118015 0.525503 1.746098 0.086121 -0.043966 -65160.100000 0 0 1
-27.706664 -14.713446 -5.116732 31.785621 0.488173 1.732476 0.080409 -0.036871 -236914.000000 0 0 1
-27.981314 -13.597846 -5.986232 31.681072 0.452354 1.760892 0.106885 -0.050212 -43881.700000 0 0 1
-29.365684 -12.916546 -5.921832 32.622824 0.414383 1.753333 0.085830 -0.035527 383906.000000 0 0 1
-30.394014 -13.681546 -6.556732 33.970156 0.422970 1.765030 0.086925 -0.037168 -587032.000000 0 0 1
-31.618634 -13.053846 -6.454332 34.810908 0.391537 1.757287 0.075307 -0.032572 -960464.000000 0 0 1
-32.687534 -13.878646 -7.192932 36.232996 0.401519 1.770643 0.053515 -0.029813 -304693.000000 0 0 1
-33.100394 -15.137746 -6.595432 36.990366 0.428931 1.750056 0.044508 -0.032977 392343.000000 0 0 1
-33.522584 -16.047546 -7.614332 37.937652 0.446470 1.772875 0.049616 -0.025883 197761.000000 0 0 1
-34.486823 -17.227146 -7.118932 39.201973 0.463270 1.753406 0.037207 -0.024906 1406000.000000 0 0 1
-35.877045 -16.949646 -6.904732 40.275653 0.441355 1.743084 0.035339 -0.026769 798601.000000 0 0 1
-36.149444 -16.235246 -5.706732 40.036637 0.422117 1.713821 0.041555 -0.025900 -180358.000000 0 0 1
35.465890 -16.130346 -5.443632 39.340190 -0.426849 1.709615 0.071213 -0.026474 -83727.600000 0 0 1
34.850370 -15.072646 -6.209032 38.474472 -0.408203 1.732886 0.070437 -0.038413 852995.000000 0 0 1
33.427910 -15.225246 -6.164732 37.245633 -0.427389 1.737077 0.091338 -0.037193 791900.000000 0 0 1
32.662730 -14.483346 -5.027532 36.081814 -0.417370 1.710588 0.102687 -0.029075 -394863.000000 0 0 1
32.724750 -15.174846 -3.790932 36.270599 -0.434198 1.675506 0.094598 -0.022982 418377.000000 0 0 1
31.967610 -14.577946 -2.749032 35.242045 -0.427851 1.648880 0.111626 -0.025522 -739662.000000 0 0 1
32.118700 -15.310646 -1.318632 35.605696 -0.444826 1.607839 0.112581 -0.023591 38913.500000 0 0 1
33.433480 -15.184346 -0.763332 36.727981 -0.426313 1.591581 0.122020 -0.019674 985852.000000 0 0 1
34.457030 -15.954446 -1.408332 37.997561 -0.433632 1.607869 0.105028 -0.017728 -642989.000000 0 0 1
34.248730 -17.486846 -1.673132 38.491098 -0.472079 1.614278 0.094164 -0.023904 -1328080.000000 0 0 1
34.763150 -18.323746 -0.677332 39.302609 -0.485094 1.588031 0.080396 -0.015840 242907.000000 0 0 1
34.602770 -19.679446 -1.073932 39.821924 -0.517105 1.597768 0.058417 -0.022996 305201.000000 0 0 1
35.517530 -20.279246 -2.221632 40.959473 -0.518796 1.625063 0.061298 -0.034026 60896.600000 0 0 1
35.326990 -19.703946 -3.461232 40.598298 -0.508781 1.656156 0.041676 -0.033031 54295.600000 0 0 1
36.137250 -20.231246 -4.516432 41.660561 -0.510370 1.679420 0.069982 -0.034149 -339744.000000 0 0 1
35.892110 -19.618346 -5.946132 41.333758 -0.500223 1.715154 0.086927 -0.040156 6377.740000 0 0 1
34.637820 -19.862446 -6.561132 40.464105 -0.520655 1.733662 0.081377 -0.043459 369117.000000 0 0 1
34.450010 -18.955546 -7.664132 40.060639 -0.503022 1.763296 0.085602 -0.043910 299403.000000 0 0 1
33.287930 -19.378846 -8.612832 39.469062 -0.527197 1.790784 0.103994 -0.049622 279126.000000 0 0 1
33.575080 -20.580346 -9.323332 40.469262 -0.549898 1.803265 0.113508 -0.049636 -18052.600000 0 0 1
32.553380 -20.738946 -10.244932 39.934760 -0.567235 1.830239 0.111808 -0.054714 -677190.000000 0 0 1
32.424940 -22.168646 -10.702832 40.710886 -0.599696 1.836822 0.106941 -0.039384 -192521.000000 0 0 1
32.026720 -23.051346 -9.676832 40.629010 -0.623861 1.811283 0.102192 -0.037042 184680.000000 0 0 1
31.890530 -24.385346 -10.085732 41.392910 -0.652816 1.816933 0.073551 -0.023212 -336086.000000 0 0 1
31.287420 -25.192546 -8.930532 41.149987 -0.677902 1.789561 0.059425 -0.022884 468518.000000 0 0 1
29.978070 -24.770746 -8.573532 39.821853 -0.690570 1.787792 0.053580 -0.022128 324958.000000 0 0 1
29.007980 -25.765546 -8.320132 39.680611 -0.726270 1.782041 0.022738 -0.018897 -1085880.000000 0 0 1
27.657880 -25.191246 -8.074032 38.272016 -0.738759 1.783358 0.012847 -0.034154 -1322620.000000 0 0 1
27.071280 -25.016846 -9.356432 38.029457 -0.745977 1.819380 0.015628 -0.030996 -645628.000000 0 0 1
25.911580 -24.256146 -9.244332 36.677354 -0.752412 1.825589 0.032891 -0.038013 -693793.000000 0 0 1
25.348480 -23.668446 -10.498132 36.234673 -0.751137 1.864737 0.079369 -0.044042 -265437.000000 0 0 1
24.551880 -24.579646 -11.261832 36.520989 -0.785963 1.884271 0.072534 -0.040683 235261.000000 0 0 1
23.916780 -23.979746 -12.371732 36.056904 -0.786713 1.921030 0.089329 -0.020811 -130349.000000 0 0 1
22.966280 -25.037646 -12.987132 36.373058 -0.828521 1.935908 0.097654 -0.038261 -209290.000000 0 0 1
23.634080 -26.154446 -13.501332 37.747990 -0.835976 1.936568 0.097387 -0.034133 62529.900000 0 0 1
22.771780 -27.254746 -13.599032 38.030367 -0.874771 1.936475 0.101149 -0.014222 109134.000000 0 0 1
23.564480 -28.520046 -14.064732 39.578965 -0.880257 1.934094 0.091171 -0.026685 69762.600000 0 0 1
23.743880 -28.659846 -15.452032 40.297939 -0.878934 1.964320 0.105977 -0.019551 386759.000000 0 0 1
24.135580 -30.024246 -15.801732 41.637439 -0.893700 1.960061 0.087718 -0.008161 -215911.000000 0 0 1
24.192280 -30.239846 -17.313332 42.420115 -0.896047 1.991212 0.083401 -0.012954 -180718.000000 0 0 1
22.927380 -30.003446 -17.874832 41.777759 -0.918295 2.012915 0.089518 -0.014915 -164695.000000 0 0 1
22.972380 -30.312746 -19.258532 42.631958 -0.922293 2.039510 0.076851 -0.013489 652666.000000 0 0 1
21.573580 -30.084646 -19.933732 42.045915 -0.948688 2.064732 0.059463 -0.006846 642137.000000 0 0 1
21.493380 -30.396646 -21.296932 42.889169 -0.955323 2.090424 0.046189 -0.005406 66502.500000 0 0 1
20.209080 -30.068646 -21.790032 42.276895 -0.979043 2.112285 0.048993 -0.013930 -180759.000000 0 0 1
19.976180 -30.230946 -23.304232 43.081842 -0.986876 2.142338 0.046606 -0.012786 -148224.000000 0 0 1
20.795580 -29.332246 -24.033732 43.248781 -0.954078 2.160012 0.055563 -0.012621 496111.000000 0 0 1
20.571680 -29.528946 -25.424492 44.063108 -0.962314 2.185849 0.055465 -0.014703 -399129.000000 0 0 1
21.017380 -28.341646 -26.303102 44.009458 -0.932711 2.211387 0.060204 -0.020398 107353.000000 0 0 1
20.099880 -27.258446 -26.353492 42.913105 -0.935420 2.232058 0.073653 -0.025728 -181235.000000 0 0 1
19.024380 -27.542146 -27.213452 43.140107 -0.966314 2.253400 0.093602 -0.024966 -570374.000000 0 0 1
18.270080 -26.252346 -27.511942 42.188724 -0.962800 2.281169 0.086040 -0.029538 -249411.000000 0 0 1
17.483380 -25.772946 -26.427382 40.845071 -0.974741 2.274460 0.068101 -0.020620 -209703.000000 0 0 1
17.011480 -24.526546 -26.750092 40.081284 -0.964382 2.301503 0.042357 -0.004673 -176887.000000 0 0 1
15.830580 -24.057346 -25.876082 38.716079 -0.988793 2.302791 0.044588 -0.007160 -285981.000000 0 0 1
14.689280 -24.876646 -25.973592 38.849066 -1.037403 2.303090 0.084250 -0.014844 -308546.000000 0 0 1
13.534380 -24.391746 -25.315822 37.669982 -1.064218 2.307760 0.078917 -0.021516 218608.000000 0 0 1
13.502280 -24.555946 -23.764732 36.743279 -1.068062 2.274148 0.066330 -0.019679 -17202.100000 0 0 1
14.446480 -23.686146 -23.089032 36.094843 -1.023120 2.264874 0.028591 -0.018777 308493.000000 0 0 1
14.582980 -24.141946 -21.753232 35.618815 -1.027403 2.227770 0.042697 -0.024831 -145683.000000 0 0 1
15.845580 -23.624646 -21.055932 35.391504 -0.979991 2.207991 0.025094 -0.029671 -173120.000000 0 0 1
15.812280 -22.275846 -20.631032 34.232748 -0.953497 2.217638 0.021208 -0.032507 100350.000000 0 0 1
17.063680 -21.836646 -20.126732 34.250455 -0.907485 2.198928 0.045020 -0.026383 -465263.000000 0 0 1
16.942080 -20.337846 -19.648932 32.965779 -0.876236 2.209357 0.040424 -0.005565 333222.000000 0 0 1
16.199980 -20.090946 -18.445032 31.722306 -0.892206 2.191310 0.045216 -0.018480 708714.000000 0 0 1
14.791280 -20.213446 -18.659332 31.233572 -0.939075 2.211067 0.046978 -0.019112 -236829.000000 0 0 1
13.986480 -20.178946 -17.369332 30.074993 -0.964701 2.186501 0.051151 -0.020150 -446930.000000 0 0 1
13.914880 -18.906746 -16.784132 28.858206 -0.936332 2.191499 0.067377 -0.018858 -307061.000000 0 0 1
13.099180 -18.940146 -15.683432 27.861940 -0.965724 2.168684 0.072143 -0.019215 -453651.000000 0 0 1
13.172280 -17.686246 -14.799832 26.558375 -0.930647 2.161875 0.068050 -0.015966 -273290.000000 0 0 1
12.557780 -16.567646 -15.400332 25.871895 -0.922214 2.208377 0.063487 -0.029590 249622.000000 0 0 1
12.728080 -15.400246 -14.621832 24.758222 -0.880113 2.202580 0.062791 -0.027613 404211.000000 0 1 0
11.345380 -14.908546 -14.057232 23.421959 -0.920293 2.214514 0.056204 -0.020691 297370.000000 0 1 0
10.611580 -14.377046 -15.123932 23.410220 -0.934960 2.273181 0.063919 -0.015662 414692.000000 0 1 0
9.338680 -13.813846 -14.735432 22.252331 -0.976334 2.294544 0.065788 -0.018149 1108860.000000 0 1 0
8.546380 -13.344946 -16.021232 22.534597 -1.001185 2.361661 0.055307 -0.012190 110330.000000 0 1 0
8.886480 -12.123346 -16.681632 22.454886 -0.938261 2.408182 0.049602 -0.008138 -135281.000000 0 1 0
10.130680 -12.177946 -17.346832 23.491395 -0.876912 2.401541 0.069147 -0.014292 60483.200000 0 1 0
10.404280 -10.947746 -18.261732 23.697955 -0.810845 2.450584 0.076324 -0.014878 14380.700000 0 1 0
9.552880 -10.984846 -19.398632 24.253480 -0.855009 2.497806 0.069537 -0.017251 282862.000000 0 1 0
9.647480 -9.891346 -20.261432 24.524238 -0.797879 2.543090 0.058582 -0.016744 -155498.000000 0 1 0
9.184280 -10.231546 -21.679532 25.671729 -0.839285 2.576410 0.051163 -0.015599 -270989.000000 0 0 1
10.123080 -10.916246 -22.461032 26.946969 -0.823080 2.556258 0.071694 -0.023512 -417723.000000 0 0 1
9.758380 -11.017546 -23.817532 27.997985 -0.845931 2.588088 0.077219 -0.024794 315440.000000 0 0 1
10.943580 -11.612846 -24.635032 29.351405 -0.815060 2.566816 0.102248 -0.027661 216561.000000 0 0 1
10.999280 -13.025546 -24.501132 29.848861 -0.869540 2.533676 0.106626 -0.030087 538194.000000 0 0 1
12.160680 -13.609946 -25.105782 31.038896 -0.841576 2.512988 0.105248 -0.037559 449249.000000 0 0 1
12.130480 -15.047646 -24.484232 31.193875 -0.892324 2.473339 0.095135 -0.032269 52207.000000 0 0 1
11.073480 -15.861146 -24.939132 31.561975 -0.961312 2.481873 0.102073 -0.037941 -156155.000000 0 0 1
11.071880 -17.156546 -24.374032 31.796652 -0.997701 2.444263 0.100469 -0.035680 -228321.000000 0 0 1
9.895180 -17.957446 -24.905732 32.259572 -1.067159 2.452844 0.101707 -0.037445 -208081.000000 0 0 1
9.913480 -18.236246 -26.294932 33.500167 -1.072869 2.473362 0.102872 -0.041178 735352.000000 0 0 1
8.741980 -19.023746 -26.613722 33.861709 -1.140046 2.475033 0.109959 -0.043148 779817.000000 0 0 1
8.972580 -19.847446 -27.925492 35.415553 -1.146216 2.479178 0.088151 -0.037360 87737.300000 0 0 1
9.975180 -20.857746 -27.823162 36.175657 -1.124701 2.448248 0.080616 -0.038362 333316.000000 0 0 1
9.942680 -21.742546 -28.920522 37.523217 -1.141895 2.450793 0.076801 -0.030720 167366.000000 0 0 1
10.619180 -23.090646 -28.549992 38.223644 -1.139748 2.414214 0.055776 -0.023398 33870.400000 0 0 1
10.395580 -24.055446 -29.547022 39.493786 -1.162885 2.416056 0.061786 -0.018820 -85300.600000 0 0 1
10.912380 -25.340946 -29.448322 40.354024 -1.164173 2.388752 0.077160 -0.015927 -352678.000000 0 0 1
10.280980 -26.270246 -28.408692 40.035961 -1.197765 2.359697 0.087580 -0.022242 44005.300000 0 0 1
10.907480 -26.042446 -27.144702 39.166529 -1.174159 2.336520 0.088758 -0.027860 -493760.000000 0 0 1
10.228980 -26.407046 -25.986902 38.435442 -1.201236 2.313278 0.071695 -0.026665 212632.000000 0 0 1
9.319180 -25.283246 -25.438852 37.057049 -1.217656 2.327431 0.070481 -0.026058 136752.000000 0 0 1
10.165980 -24.330846 -24.900932 36.268356 -1.175021 2.327564 0.066502 -0.024482 -561821.000000 0 0 1
9.567380 -23.082346 -24.782832 35.192588 -1.177862 2.352101 0.071249 -0.024169 -205404.000000 0 0 1
10.551180 -21.929346 -24.504932 34.535711 -1.122347 2.359661 0.101749 -0.030471 132108.000000 0 0 1
11.137380 -21.909146 -23.209432 33.804285 -1.100496 2.327574 0.099678 -0.026801 805938.000000 0 0 1
12.172080 -20.896746 -23.072932 33.424448 -1.043354 2.332701 0.099261 -0.028381 710778.000000 0 0 1
12.867080 -20.663046 -21.676932 32.594672 -1.013846 2.298351 0.075665 -0.025659 173613.000000 0 0 1
12.135580 -20.030746 -20.610332 31.197578 -1.026088 2.292466 0.053995 -0.025006 -83134.300000 0 0 1
11.684180 -18.687146 -20.734932 30.259989 -1.012016 2.325710 0.052885 -0.021257 41357.400000 0 0 1
12.815880 -17.638246 -20.690832 30.057695 -0.942443 2.330037 0.062545 -0.022667 -268327.000000 0 0 1
13.671380 -17.748846 -21.753532 31.227301 -0.914449 2.341470 0.061745 -0.020008 -593816.000000 0 0 1
14.575080 -16.652546 -21.831332 31.086127 -0.851827 2.349399 0.063420 -0.017864 223788.000000 0 0 1
15.799980 -16.843446 -22.783332 32.441043 -0.817353 2.349419 0.039796 -0.008015 -342201.000000 0 0 1
16.824080 -17.479246 -22.094732 32.813883 -0.804495 2.309507 0.032284 0.001318 -639426.000000 0 0 1
17.984780 -17.393146 -22.884632 33.906935 -0.768676 2.311659 0.019725 0.006572 572769.000000 0 0 1
19.327580 -17.801346 -22.165032 34.376328 -0.744315 2.271527 0.017296 0.011046 754562.000000 0 0 1
19.435480 -19.161846 -21.907832 34.998105 -0.778309 2.247174 0.024962 0.005123 288831.000000 0 0 1
20.757480 -19.443846 -21.469132 35.635092 -0.752733 2.217391 0.013723 0.009343 362475.000000 0 0 1
21.068280 -20.920746 -21.301632 36.541888 -0.781885 2.193136 0.027016 -0.003262 -193272.000000 0 0 1
20.424980 -21.440746 -20.162932 35.824981 -0.809656 2.168587 0.032791 0.001650 232033.000000 0 0 1
20.576480 -22.853446 -20.154732 36.767985 -0.837779 2.150959 0.050908 -0.006397 -197199.000000 0 0 1
-17.404174 12.842554 28.203111 35.542256 -0.635713 0.654242 0.036614 -0.032548 -170705.000000 0 0 1
-18.564774 13.618254 28.078891 36.311593 -0.632892 0.686804 0.024250 -0.028966 -283226.000000 0 0 1
-19.022574 13.520954 26.754321 35.503073 -0.617927 0.717309 0.040570 -0.025214 -362864.000000 0 0 1
-20.135674 14.487754 26.390311 36.218626 -0.623698 0.754463 0.050460 -0.026847 -418768.000000 0 0 1
-19.731474 15.857754 26.402351 36.577091 -0.676980 0.764357 0.047433 -0.019604 -681705.000000 0 0 1
-20.659074 16.755554 25.926261 37.144541 -0.681443 0.798219 0.038119 -0.015334 -1248730.000000 0 0 1
-20.366474 18.225254 26.319841 37.943210 -0.729971 0.804233 0.037131 -0.004839 595421.000000 0 0 1
-19.263674 18.990854 25.833181 37.404477 -0.778267 0.808417 0.038719 -0.019150 666125.000000 0 0 1
-17.969974 18.562254 26.270841 36.846090 -0.801609 0.777045 0.047846 -0.017325 483669.000000 0 0 1
-16.813274 19.425154 25.683761 36.327378 -0.857349 0.785537 0.054338 -0.013873 132581.000000 0 0 1
-16.848074 20.796054 25.939121 37.271591 -0.889893 0.801056 0.058187 -0.010883 -320699.000000 0 0 1
-15.775174 21.474754 25.358161 36.783930 -0.937230 0.810161 0.065862 -0.015276 -132934.000000 0 0 1
-16.013474 22.951954 25.273861 37.709304 -0.961619 0.836279 0.056224 -0.013552 -20737.100000 0 0 1
-15.549074 23.622254 26.406181 38.692002 -0.988651 0.819658 0.053734 -0.009784 19155.800000 0 0 1
-15.870374 24.976454 26.222271 39.538583 -1.004744 0.845701 0.049735 -0.006778 -23416.700000 0 0 1
-15.307274 25.831954 27.390321 40.642738 -1.035857 0.831282 0.030125 -0.002500 238219.000000 0 0 1
-13.893574 25.915554 27.336161 40.148637 -1.078680 0.821841 0.035500 -0.009439 -166314.000000 0 0 1
-13.432574 26.804954 28.323971 41.245447 -1.106251 0.813833 0.048368 -0.007035 558104.000000 0 0 1
-11.878074 26.778054 28.417441 40.813034 -1.153298 0.800590 0.059389 -0.009080 572592.000000 0 0 1
-11.233774 27.563354 27.452831 40.491902 -1.183788 0.825781 0.054970 -0.007652 481831.000000 0 0 1
-9.817274 27.660854 27.644531 40.320241 -1.229749 0.815336 0.048111 -0.013565 1003190.000000 0 0 1
-9.016374 28.148454 26.371871 39.611943 -1.260808 0.842290 0.051955 -0.014369 2170180.000000 0 0 1
-7.587974 27.774554 26.415151 39.073820 -1.304105 0.828432 0.038091 -0.015642 2320390.000000 0 0 1
-6.868174 28.373554 25.312721 38.638895 -1.333302 0.856468 0.052743 -0.015659 456299.000000 0 0 1
-5.346374 28.104754 25.289031 38.183714 -1.382812 0.846913 0.039502 -0.020172 -525610.000000 0 0 1
-4.642674 28.873954 26.244031 39.293877 -1.411370 0.839425 0.051868 -0.022642 -10666.800000 0 0 1
-3.250374 28.687854 26.116251 38.930919 -1.457976 0.835461 0.041758 -0.015332 366835.000000 0 0 1
-2.476974 29.477654 24.987511 38.722644 -1.486964 0.869388 0.034163 -0.012374 -625514.000000 0 0 1
-2.850774 29.060254 23.703701 37.609716 -1.473010 0.888915 0.020055 -0.009715 -118805.000000 0 0 1
-2.645874 30.035254 22.712071 37.748580 -1.482931 0.925210 0.018377 -0.011971 -288507.000000 0 0 1
-3.211174 29.700454 21.301271 36.690227 -1.463096 0.951367 0.024336 -0.010530 -294237.000000 0 0 1
-4.595474 29.668454 21.164771 36.732589 -1.417123 0.956743 0.018955 0.001445 -534794.000000 0 0 1
-5.195574 28.414054 21.579271 36.055754 -1.389942 0.929172 0.029149 0.003811 1079230.000000 0 0 1
-6.737074 28.396054 21.202171 36.072927 -1.337850 0.942511 0.030029 -0.001700 905014.000000 0 0 1
-6.830874 28.459454 19.792671 35.332014 -1.335231 0.976180 0.028382 -0.005920 -139961.000000 0 0 1
-7.811474 27.645154 19.215671 34.561766 -1.295413 0.981254 0.012269 -0.004444 -924277.000000 0 0 1
-7.254474 26.292854 18.739571 33.092493 -1.301584 0.968813 0.003223 -0.005894 482084.000000 0 0 1
-6.145274 26.357154 17.856771 32.424192 -1.341735 0.987565 -0.001350 -0.001311 846100.000000 0 0 1
-4.849274 26.530854 18.447471 32.675845 -1.390013 0.970896 0.012993 -0.001738 -122260.000000 0 0 1
-3.779074 26.875354 17.425471 32.252335 -1.431097 1.000020 0.017656 0.001672 -405042.000000 0 0 1
-3.234774 25.716154 16.806371 30.890750 -1.445666 0.995530 0.023177 -0.005428 40102.600000 0 0 1
-2.543174 26.142754 15.627371 30.563476 -1.473821 1.034089 0.034001 -0.014453 130957.000000 0 0 1
-1.902874 25.029654 14.749571 29.114504 -1.494918 1.039553 0.032319 -0.008328 265755.000000 0 0 1
-0.752474 24.466054 15.368871 28.902529 -1.540050 1.010133 0.018786 -0.007107 32387.500000 0 0 1
-0.292874 23.361654 14.667071 27.585787 -1.558260 1.010202 0.022230 -0.018398 64754.400000 0 0 1
1.059926 22.846654 15.240171 27.483738 1.524437 0.983015 0.012940 -0.019325 324912.000000 0 0 1
2.128926 23.754454 15.174171 28.267682 1.481413 1.004153 0.028988 -0.026644 -1045090.000000 0 0 1
3.329326 23.134054 15.404571 27.992314 1.427863 0.988056 0.045211 -0.027522 -990780.000000 0 0 1
4.516126 24.089854 15.599171 29.052549 1.385477 1.004003 0.066450 -0.026292 -110862.000000 0 0 1
5.722326 23.405254 15.835571 28.832555 1.331011 0.989359 0.067845 -0.023852 -650059.000000 0 0 1
6.745026 24.290454 16.129171 29.927774 1.299938 1.001622 0.081895 -0.029188 826315.000000 0 0 1
8.214326 23.651354 16.147571 29.792713 1.236521 0.997984 0.090614 -0.028418 1324950.000000 0 0 1
8.711826 23.163654 14.912971 28.893727 1.211063 1.028468 0.071102 -0.017364 -69666.700000 0 0 1
9.419626 24.148154 14.202571 29.556314 1.198874 1.069542 0.069296 -0.017746 -247717.000000 0 0 1
9.991726 23.614054 12.838771 28.675637 1.170514 1.106578 0.060776 -0.014764 -27321.100000 0 0 1
10.966426 22.638354 13.093971 28.358590 1.119692 1.090853 0.061696 -0.016879 -274173.000000 0 0 1
11.318426 21.863854 12.008971 27.392522 1.093107 1.116975 0.065104 -0.020491 -29578.800000 0 0 1
12.471426 20.856054 12.115371 27.153152 1.031866 1.108297 0.067364 -0.021330 -271989.000000 0 0 1
12.128226 19.639054 12.767871 26.378113 1.017568 1.065539 0.060193 -0.013724 -140370.000000 0 0 1
13.163526 18.761554 13.153671 26.425241 0.958982 1.049772 0.067032 -0.019401 -212324.000000 0 0 1
14.142326 19.107054 14.285871 27.733932 0.933621 1.029667 0.065805 -0.013813 2570.110000 0 0 1
15.078826 18.044654 14.450471 27.600664 0.874699 1.019778 0.070948 -0.010368 468896.000000 0 0 1
15.749526 18.081154 15.734671 28.680229 0.854210 0.990078 0.057063 -0.011063 352473.000000 0 0 1
16.929326 17.065854 15.785871 28.758289 0.789414 0.989730 0.042832 -0.009788 -72952.700000 0 0 1
17.394026 16.938454 17.084271 29.687298 0.772130 0.957613 0.045294 -0.015263 -557798.000000 0 0 1
18.416126 15.992854 17.042771 29.755354 0.715089 0.960924 0.040208 -0.015408 -496176.000000 0 0 1
18.970526 15.760254 18.421771 30.783569 0.693227 0.929258 0.044142 -0.017914 231698.000000 0 0 1
19.625826 16.851054 19.169271 32.196149 0.709475 0.933045 0.054924 -0.010797 519613.000000 0 0 1
18.678826 17.703954 19.729371 32.428022 0.758610 0.916747 0.041003 -0.009142 -335767.000000 0 0 1
19.288126 18.719954 20.668571 33.906611 0.770451 0.915274 0.037776 -0.011186 723191.000000 0 0 1
18.280826 19.676954 21.160271 34.192516 0.822163 0.903510 0.061219 -0.024742 954641.000000 0 0 1
18.900826 20.793554 21.803671 35.567024 0.833045 0.910906 0.066053 -0.011229 -208690.000000 0 0 1
18.016826 21.945254 22.339271 36.128150 0.883387 0.904175 0.071624 -0.019787 -47366.500000 0 0 1
17.132026 21.391854 23.317751 35.983819 0.895527 0.865832 0.065839 -0.023319 133205.000000 0 0 1
16.305726 22.362154 23.898151 36.565889 0.940763 0.858512 0.060819 -0.025203 -63432.200000 0 0 1
15.698226 21.800154 25.222951 36.849400 0.946709 0.816896 0.071685 -0.020413 47222.300000 0 0 1
14.590326 20.950854 25.006931 35.737410 0.962486 0.795761 0.064529 -0.027464 -211586.000000 0 0 1
13.784826 20.790754 26.138741 36.131851 0.985318 0.762044 0.055053 -0.021396 -382491.000000 0 0 1
12.547726 19.925954 25.932401 35.028253 1.008812 0.737238 0.063104 -0.020220 -613724.000000 0 0 1
12.763826 18.521054 25.985481 34.368444 0.967388 0.713485 0.067056 -0.026196 -725.934000 0 0 1
13.223726 17.859754 24.826261 33.319378 0.933454 0.730112 0.076489 -0.028001 -160917.000000 0 0 1
12.422426 18.008354 23.471941 32.086594 0.966939 0.750250 0.077043 -0.028214 -434818.000000 0 0 1
12.787726 19.128854 22.647371 32.285328 0.981522 0.793330 0.094910 -0.021470 61165.200000 0 0 1
14.058126 19.213754 22.024671 32.432782 0.939130 0.824279 0.086671 -0.026069 207626.000000 0 0 1
14.483726 18.006954 21.153671 31.329004 0.893414 0.829546 0.097370 -0.020695 -714792.000000 0 0 1
13.636726 17.787254 20.056571 30.076781 0.916720 0.840828 0.106495 -0.023153 -26807.800000 0 0 1
13.922326 16.551954 19.396371 29.051980 0.871475 0.839757 0.066799 -0.016809 165509.000000 0 0 1
12.745026 16.014654 18.539871 27.615786 0.898600 0.834767 0.074511 -0.007345 221594.000000 0 0 1
12.319526 16.828654 17.459671 27.199530 0.938878 0.873809 0.088577 -0.010352 289801.000000 0 0 1
11.174026 16.300954 16.798371 25.937718 0.969880 0.866310 0.082049 -0.013066 280286.000000 0 0 1
10.674026 16.995554 15.555071 25.391808 1.010008 0.911448 0.071067 -0.008727 -592759.000000 0 0 1
10.054026 18.154754 15.849971 26.113217 1.065044 0.918552 0.076801 -0.016794 -549672.000000 0 0 1
9.585526 18.689154 14.665871 25.617466 1.096888 0.961251 0.059250 -0.007556 -1066810.000000 0 0 1
8.599826 19.785154 14.911671 26.225317 1.160772 0.965995 0.063329 -0.007165 394565.000000 0 0 1
7.251326 19.282154 15.088471 25.535175 1.211093 0.938635 0.037412 -0.016033 547110.000000 0 0 1
6.398026 20.340854 15.435471 26.323731 1.266053 0.944225 0.052334 -0.021253 -249951.000000 0 0 1
5.073526 19.794054 15.996771 25.950759 1.319882 0.906598 0.042730 -0.031323 12970.800000 0 0 1
4.131826 19.415354 14.996271 24.878024 1.361112 0.923801 0.033139 -0.021088 -256679.000000 0 1 0
2.946126 18.972454 15.591371 24.733065 1.416742 0.888746 0.015552 -0.017807 -46117.300000 0 1 0
1.818026 18.579254 14.618671 23.710745 1.473254 0.906453 0.010214 -0.017485 -56011.300000 0 1 0
1.227026 19.643854 13.940671 24.119057 1.508414 0.954528 0.010687 -0.018970 -176201.000000 0 1 0
0.235026 19.097854 13.093071 23.156247 1.558491 0.969850 0.010825 -0.023564 -149536.000000 0 1 0
-0.658274 20.026554 12.271371 23.496441 -1.537938 1.021291 0.011345 -0.023371 447692.000000 0 1 0
-1.811274 20.517654 12.971571 24.341662 -1.482746 1.008777 0.011705 -0.015172 -399867.000000 0 1 0
-2.715874 21.022354 12.054771 24.385095 -1.442318 1.053709 0.022721 -0.014823 -20300.200000 0 1 0
-3.923774 21.509854 12.914771 25.394116 -1.390363 1.037269 0.023677 -0.013460 230781.000000 0 0 1
-4.700274 20.598854 13.671071 25.165523 -1.346456 0.996498 0.026402 -0.016679 638768.000000 0 0 1
-5.752974 21.293654 14.377871 26.329443 -1.306923 0.993124 0.020622 -0.005899 312626.000000 0 0 1
-6.411374 20.421554 15.452271 26.399209 -1.266590 0.945508 0.009618 -0.004286 -839525.000000 0 0 1
-7.321674 19.456454 14.976371 25.621323 -1.210877 0.946499 0.021072 -0.009558 108217.000000 0 0 1
-7.934874 18.704954 16.026471 25.878279 -1.169593 0.902943 0.021868 -0.004358 199749.000000 0 0 1
-9.071674 19.436054 16.772071 27.227887 -1.134105 0.907156 0.016864 0.001095 747043.000000 0 0 1
-10.308974 19.727754 16.061671 27.448798 -1.089262 0.945731 0.010544 -0.006515 1120120.000000 0 0 1
-11.446374 19.214054 16.714571 27.920892 -1.033523 0.928994 0.008625 -0.001349 -112004.000000 0 0 1
-12.697174 19.172254 15.828971 27.916838 -0.985845 0.967932 0.017020 -0.007243 -440466.000000 0 0 1
-13.151074 20.404654 15.378771 28.736862 -0.998288 1.006101 0.011002 -0.000988 590015.000000 0 0 1
-14.173674 20.122554 14.375171 28.503609 -0.957145 1.042193 0.021030 -0.011023 96262.600000 0 0 1
-15.092574 21.326754 14.180371 29.727078 -0.954933 1.073537 0.011521 -0.022696 -565677.000000 0 0 1
-16.145874 21.338154 15.111271 30.730385 -0.923042 1.056713 0.001382 -0.023661 -304769.000000 0 0 1
-17.035674 22.398354 14.842371 31.815035 -0.920560 1.085443 0.021537 -0.034270 533199.000000 0 0 1
-18.314474 22.364254 15.755771 32.921484 -0.884626 1.071752 0.077171 -0.039562 285957.000000 0 0 1
-19.215474 21.284054 15.419271 32.557631 -0.836430 1.077423 0.064926 -0.036905 687224.000000 0 0 1
-20.414774 21.219054 16.166571 33.591208 -0.804714 1.068689 0.065822 -0.029699 173534.000000 0 0 1
-21.481874 22.283854 15.880971 34.788594 -0.803720 1.096740 0.061824 -0.031895 -1204160.000000 0 0 1
-21.976074 22.096254 14.590271 34.410293 -0.788125 1.132929 0.066453 -0.026374 209970.000000 0 0 1
-22.950374 23.109354 14.308671 35.573866 -0.788850 1.156851 0.080600 -0.037468 99414.500000 0 0 1
-22.441674 24.451554 13.730371 35.916992 -0.828233 1.178533 0.063047 -0.032011 -791392.000000 0 0 1
-21.446074 25.044154 14.493071 36.016563 -0.862639 1.156659 0.054498 -0.039012 -403292.000000 0 0 1
-20.917774 26.215154 13.882471 36.297528 -0.897321 1.178336 0.033159 -0.023392 271342.000000 0 0 1
-19.480674 26.539054 14.402771 35.934077 -0.937589 1.158394 0.034688 -0.024592 332364.000000 0 0 1
-18.518074 25.898354 13.579671 34.612877 -0.950055 1.167633 0.034649 -0.013262 -733471.000000 0 0 1
-17.252574 26.441254 13.795471 34.454408 -0.992675 1.158845 0.010402 -0.016040 -1431640.000000 0 0 1
-16.264574 25.696254 12.946571 33.052194 -1.006497 1.168317 0.024363 -0.022774 -84160.600000 0 0 1
-14.987074 26.365554 12.963071 32.981753 -1.053911 1.166864 0.023880 -0.021769 1130840.000000 0 0 1
-14.047074 25.761754 12.036571 31.715411 -1.071593 1.181521 0.021639 -0.015933 1337020.000000 0 0 1
-12.598774 26.384054 12.109471 31.646275 -1.125298 1.178133 0.026373 -0.013210 317198.000000 0 0 1
-11.665174 25.541554 11.485171 30.337376 -1.142373 1.182533 0.026187 -0.015659 962084.000000 0 0 1
-10.290674 25.915454 11.775471 30.268307 -1.192804 1.171211 0.041685 -0.017296 1529940.000000 0 0 1
-9.654474 27.103654 10.946871 30.783939 -1.228604 1.207237 0.044346 -0.021357 -149356.000000 0 0 1
-8.630874 27.851854 11.586171 31.376059 -1.270295 1.192575 0.058254 -0.026037 257491.000000 0 0 1
-8.411874 29.111254 10.939971 32.216575 -1.289502 1.224330 0.063122 -0.032788 -27613.200000 0 0 1
-7.155374 29.793754 11.594171 32.761135 -1.335097 1.209058 0.061653 -0.030484 591143.000000 0 0 1
-5.922174 29.197854 11.275271 31.854647 -1.370682 1.208994 0.080228 -0.032776 -630204.000000 0 0 1
-4.920174 29.571554 12.169471 32.353994 -1.405925 1.185175 0.088269 -0.034123 -175418.000000 0 0 1
-3.498674 29.290154 11.635271 31.710146 -1.451911 1.195094 0.076625 -0.038320 8013.620000 0 0 1
-3.128074 30.131654 10.543771 32.076043 -1.467353 1.235857 0.097737 -0.043133 943965.000000 0 0 1
-1.834474 29.823154 9.977071 31.501234 -1.509362 1.248527 0.084607 -0.036141 1040570.000000 0 0 1
-1.575974 30.524954 8.635271 31.761996 -1.519213 1.295456 0.086601 -0.036853 397775.000000 0 0 1
-2.415674 30.101554 7.545071 31.126630 -1.490717 1.325958 0.105750 -0.032074 429523.000000 0 0 1
-2.012174 30.739154 6.343171 31.451236 -1.505430 1.367721 0.101746 -0.025344 172058.000000 0 0 1
11.515226 -33.848046 -26.835082 44.703605 -1.242875 2.214659 0.128469 -0.041694 -128139.000000 0 0 1
11.897426 -33.536446 -25.516752 43.787517 -1.229886 2.192893 0.110355 -0.038963 739207.000000 0 0 1
13.137626 -32.811546 -25.435412 43.544862 -1.189948 2.194591 0.110228 -0.034331 480671.000000 0 0 1
13.799226 -32.892946 -24.029932 43.009327 -1.173577 2.163631 0.088656 -0.033906 -751981.000000 0 0 1
13.076026 -32.441346 -22.894032 41.803829 -1.187649 2.150354 0.085774 -0.032995 -148676.000000 0 0 1
13.615626 -32.523646 -21.569832 41.333164 -1.174327 2.119818 0.059480 -0.028659 -1332080.000000 0 0 1
14.974026 -31.932346 -21.301832 41.202721 -1.132312 2.114140 0.029231 -0.021068 -662783.000000 0 0 1
15.966726 -32.855246 -21.713732 42.495761 -1.118434 2.107100 0.049031 -0.013756 -586908.000000 0 0 1
17.290626 -32.445946 -21.567032 42.624430 -1.081172 2.101312 0.029688 -0.013095 56122.200000 0 0 1
18.335926 -33.590346 -21.837632 44.061318 -1.071130 2.089344 0.016475 -0.004122 72176.900000 0 0 1
19.683926 -33.253846 -21.603332 44.271652 -1.036332 2.080561 0.021952 0.008685 25893.700000 0 0 1
20.394126 33.690554 -21.652132 44.942059 1.026462 2.073480 0.022681 0.015760 29447.700000 0 0 1
21.904426 33.740154 -21.316532 45.525777 0.994977 2.058083 0.050311 0.018057 338430.000000 0 0 1
22.676926 -33.882446 -22.370332 46.504783 -0.980985 2.072629 0.040124 0.017436 161119.000000 0 0 1
24.063526 34.079354 -22.221132 47.267688 0.955986 2.060215 0.037158 0.020205 501496.000000 0 0 1
25.013326 -33.326446 -23.193432 47.689137 -0.926940 2.078700 0.048984 0.013945 447996.000000 0 0 1
25.183426 -31.895246 -23.063032 46.727028 -0.902450 2.086986 0.046438 0.012819 -571433.000000 0 0 1
24.042526 -31.190746 -23.460132 45.839759 -0.914102 2.108058 0.031500 0.012658 -178066.000000 0 0 1
24.120826 -29.695546 -23.333432 44.811703 -0.888618 2.118466 0.035850 -0.008713 -211509.000000 0 0 1
24.926026 -29.048946 -24.268232 45.322126 -0.861636 2.135850 0.037710 -0.011853 -411227.000000 0 0 1
25.061726 -27.675646 -24.073032 44.424569 -0.834922 2.143475 0.058565 -0.010718 341634.000000 0 0 1
25.537326 -26.979846 -25.379852 44.991155 -0.812859 2.170148 0.048442 -0.007087 385934.000000 0 0 1
24.470326 -26.853546 -26.278192 44.838077 -0.831800 2.196995 0.033453 -0.008563 -419023.000000 0 0 1
25.023226 -26.380746 -27.482992 45.578728 -0.811801 2.218026 0.028358 -0.006748 -365834.000000 0 0 1
24.049126 -25.978346 -28.595592 45.507613 -0.823942 2.250252 0.035544 -0.011069 152338.000000 0 0 1
23.357526 -24.701646 -28.520542 44.375293 -0.813359 2.268830 0.060175 -0.022625 23950.800000 0 0 1
22.207726 -24.853146 -27.719032 43.349818 -0.841552 2.264549 0.066649 -0.020894 -499357.000000 0 0 1
21.415626 -23.564446 -27.397442 42.006333 -0.833135 2.281308 0.067970 -0.018921 -121721.000000 0 0 1
20.926526 -22.967046 -28.532042 42.183908 -0.831853 2.313623 0.075985 -0.016759 -65428.200000 0 0 1
20.206826 -21.792846 -28.249302 41.003256 -0.823143 2.330839 0.062093 -0.001792 -84975.800000 0 0 1
19.197126 -21.385246 -29.346382 41.073940 -0.839264 2.366673 0.067657 -0.010107 438043.000000 0 0 1
18.030426 -22.222146 -29.387652 41.018949 -0.889160 2.369484 0.070330 -0.015849 222984.000000 0 0 1
17.016726 -21.500846 -30.053292 40.682376 -0.901294 2.401980 0.058804 -0.017190 -268516.000000 0 0 1
15.665426 -22.206246 -29.794582 40.326667 -0.956421 2.402130 0.055100 -0.014939 -342203.000000 0 0 1
15.557026 -23.428046 -30.497292 41.484687 -0.984618 2.396678 0.066875 -0.012582 -508843.000000 0 0 1
14.515326 -24.230246 -30.102992 41.279410 -1.031070 2.388021 0.077318 -0.015031 -778995.000000 0 0 1
14.729326 -25.609746 -30.808992 42.684964 -1.048853 2.377162 0.098056 -0.018855 361795.000000 0 0 1
13.985526 -26.642146 -30.126802 42.579609 -1.087396 2.356808 0.099950 -0.021588 243856.000000 0 0 1
14.381126 -27.954546 -30.506362 43.805383 -1.095658 2.341175 0.158650 -0.024563 250039.000000 0 0 1
13.778226 -29.084346 -29.592812 43.720398 -1.128382 2.314292 0.139637 -0.035730 -149119.000000 0 0 1
14.268226 -29.237646 -28.290842 43.113733 -1.116788 2.286556 0.159056 -0.044017 -312157.000000 0 0 1
13.938126 -28.227546 -27.387992 41.727303 -1.112139 2.286776 0.142470 -0.035304 -283642.000000 0 0 1
14.972726 -27.999246 -26.285672 41.219860 -1.079733 2.262298 0.120396 -0.030632 -340063.000000 0 0 1
15.154626 -29.056446 -25.382072 41.451047 -1.090051 2.229811 0.112153 -0.041175 338510.000000 0 0 1
16.182126 -28.824846 -24.413332 41.094327 -1.059247 2.206918 0.112351 -0.041217 -355396.000000 0 0 1
15.704526 -27.903846 -23.255032 39.573391 -1.058172 2.198939 0.094469 -0.035989 1129990.000000 0 0 1
14.649526 -28.395546 -22.368632 39.003479 -1.094502 2.181573 0.083509 -0.037645 747666.000000 0 0 1
13.393726 -28.472946 -23.009832 38.981443 -1.131106 2.202198 0.085372 -0.032435 -490636.000000 0 0 1
12.181726 -28.258446 -22.049232 37.856345 -1.163785 2.192529 0.054981 -0.021578 275159.000000 0 0 1
11.990426 -26.895246 -21.817932 36.648966 -1.151424 2.208463 0.038993 -0.023303 -248655.000000 0 0 1
10.684026 -26.604146 -21.401732 35.776573 -1.188918 2.212056 0.036243 -0.021054 -307414.000000 0 0 1
10.291426 -25.097246 -21.296832 34.486813 -1.181646 2.236402 0.056940 -0.025411 -160676.000000 0 0 1
10.870826 -24.461546 -20.197832 33.533484 -1.152605 2.217199 0.038583 -0.025847 -116808.000000 0 0 1
10.420926 -23.129046 -20.030232 32.322727 -1.147480 2.239150 0.052557 -0.027056 -604106.000000 0 0 1
10.892226 -22.359446 -18.783432 31.167335 -1.117488 2.217632 0.035472 -0.022109 -561272.000000 0 0 1
10.249026 -22.777646 -17.663432 30.591838 -1.147976 2.186325 0.045556 -0.030579 -160785.000000 0 0 1
10.432526 -21.885246 -16.543932 29.351376 -1.125968 2.169596 0.041086 -0.027905 -67305.100000 0 0 1
9.544226 -22.302546 -15.325632 28.694439 -1.166435 2.134236 0.024760 -0.016376 437741.000000 0 0 1
9.998926 -23.529246 -14.766932 29.523994 -1.168962 2.094588 0.022562 -0.012686 269144.000000 0 0 1
9.139726 -23.895846 -13.696032 29.019430 -1.205482 2.062310 0.012279 -0.007844 74744.700000 0 0 1
9.206026 -25.409946 -13.411432 30.170893 -1.223206 2.031430 0.028679 -0.011823 -499990.000000 0 0 1
10.468926 -25.891446 -13.078832 30.838632 -1.186555 2.008770 0.035782 -0.014299 -764573.000000 0 0 1
10.541826 -27.303446 -13.363132 32.174238 -1.202331 1.999109 0.034128 -0.028121 -297489.000000 0 0 1
11.799226 -28.056246 -12.850932 33.038177 -1.172696 1.970312 0.061592 -0.029374 269648.000000 0 0 1
13.075926 -27.617546 -13.238932 33.301321 -1.128602 1.979641 0.062903 -0.019068 -37991.700000 0 0 1
13.396626 -27.895646 -14.593032 34.213933 -1.123081 2.011441 0.062767 -0.022819 231068.000000 0 0 1
14.851326 -27.498746 -15.029832 34.679083 -1.075607 2.019056 0.043294 -0.016796 1045390.000000 0 0 1
15.963026 -28.277846 -14.623932 35.613399 -1.056884 1.993941 0.074571 -0.020886 917191.000000 0 0 1
17.171626 -27.696346 -15.148232 35.936350 -1.015803 2.005928 0.085760 -0.026827 2017540.000000 0 0 1
18.541826 -28.470246 -14.922132 37.108277 -0.993529 1.984632 0.077781 -0.024012 1392010.000000 0 0 1
18.624026 -29.702246 -15.631932 38.385350 -1.010743 1.990223 0.047789 -0.012239 -3550.660000 0 0 1
19.961326 -30.178346 -15.579032 39.394078 -0.986417 1.977372 0.058712 -0.002359 404393.000000 0 0 1
20.352826 -31.271046 -16.575432 40.827207 -0.993822 1.988858 0.049758 -0.006590 -203772.000000 0 0 1
19.887826 -32.567946 -16.254232 41.477666 -1.022578 1.973470 0.028454 0.012878 -123047.000000 0 0 1
20.451426 -33.445846 -17.215632 42.816626 -1.021979 1.984582 0.033447 0.008481 199749.000000 0 0 1
20.078626 33.247754 -17.070332 42.425943 1.027507 1.984885 0.013590 0.015111 125620.000000 0 0 1
20.914726 32.630754 -16.087332 41.964200 1.000809 1.964226 0.031762 0.012160 232683.000000 0 0 1
20.657026 31.252854 -15.834332 40.671608 0.986752 1.970691 0.027619 0.006435 254629.000000 0 0 1
21.684026 30.634854 -14.803232 40.346337 0.954840 1.946475 0.041115 0.002683 257807.000000 0 0 1
23.042926 30.599054 -15.141832 41.189242 0.925340 1.947241 0.042555 0.008726 -149436.000000 0 0 1
23.966426 30.129654 -14.185032 41.029267 0.898840 1.923813 0.043853 -0.002786 126184.000000 0 0 1
23.818926 28.723954 -13.433432 39.659348 0.878481 1.916353 0.033813 0.013822 -938780.000000 0 0 1
23.878126 27.548254 -14.268632 39.149266 0.856644 1.943857 0.042027 0.022452 192301.000000 0 0 1
23.683626 26.288454 -13.556132 37.891499 0.837477 1.936666 0.024367 0.015236 951351.000000 0 0 1
22.182426 26.051854 -13.122432 36.646382 0.865448 1.937010 0.038449 0.009686 91389.000000 0 0 1
21.330926 25.794154 -14.203432 36.360477 0.879827 1.972110 0.049279 -0.004419 -15875.100000 0 0 1
19.964826 25.986354 -13.838232 35.572202 0.915698 1.970362 0.064991 -0.008270 522265.000000 0 0 1
19.469026 27.515554 -13.743532 36.401008 0.955012 1.957955 0.063531 -0.010896 -484968.000000 0 0 1
19.361126 28.168954 -15.010332 37.331665 0.968630 1.984584 0.061263 -0.004710 -154206.000000 0 0 1
18.493626 27.678954 -16.001232 36.934782 0.981769 2.018869 0.044024 0.000670 -420548.000000 0 0 1
18.554526 28.515754 -17.296532 38.165281 0.993946 2.041149 0.026171 0.006219 -48894.900000 0 0 1
17.855526 29.755554 -17.338532 38.792235 1.030323 2.034159 0.030685 0.003900 167255.000000 0 0 1
18.021826 30.435354 -18.576332 39.952185 1.036180 2.054390 0.021877 0.004136 270584.000000 0 0 1
16.857426 31.446654 -18.874432 40.364700 1.078715 2.057367 0.013557 0.000327 509945.000000 0 0 1
17.059226 32.704054 -18.254132 41.155627 1.089999 2.030340 0.007378 -0.000005 1010890.000000 0 0 1
15.836726 33.467154 -18.409232 41.349149 1.128816 2.032210 0.012674 -0.003126 951113.000000 0 0 1
15.995226 -33.363946 -17.734032 41.030428 -1.123751 2.017746 0.007975 -0.003644 41437.500000 0 0 1
14.936526 -32.462446 -17.964432 39.995388 -1.139561 2.036624 0.007012 -0.006183 -126598.000000 0 0 1
14.897726 -31.548646 -16.925732 38.778083 -1.129623 2.022475 0.026326 -0.011833 -40585.200000 0 0 1
13.809326 -30.473746 -17.100832 37.573729 -1.145322 2.043312 0.045261 -0.022384 537751.000000 0 0 1
12.528226 -31.032346 -17.405232 37.721414 -1.187091 2.050386 0.033920 -0.014898 256449.000000 0 0 1
11.526126 -30.047646 -17.576532 36.669430 -1.204512 2.070680 0.015790 -0.007639 866859.000000 0 0 1
10.129926 -30.639846 -17.958032 36.931105 -1.251496 2.078598 0.038761 -0.021450 265335.000000 0 0 1
9.395726 -31.296646 -16.866232 36.772673 -1.279142 2.047285 0.044519 -0.022338 1118170.000000 0 0 1
8.320926 -32.216846 -17.162232 37.439353 -1.318041 2.046991 0.076181 -0.015633 1016240.000000 0 0 1
7.062926 -31.565346 -17.812032 36.925932 -1.350667 2.074157 0.071835 -0.011867 -411037.000000 0 0 1
7.274626 -30.992746 -19.090132 37.120124 -1.340249 2.110964 0.054707 -0.006193 -197302.000000 0 0 1
7.180826 -31.959846 -20.099232 38.431434 -1.349784 2.121151 0.063401 -0.016591 -795680.000000 0 0 1
7.418226 -31.375246 -21.509332 38.756774 -1.338624 2.159138 0.068374 -0.007368 48058.900000 0 0 1
8.717826 -31.030346 -21.958432 39.000713 -1.296911 2.168840 0.050855 -0.012804 168971.000000 0 0 1
9.705926 -32.023846 -22.084432 40.093065 -1.276512 2.154154 0.055532 -0.018241 -313714.000000 0 0 1
9.466326 -33.190046 -23.075032 41.516835 -1.292958 2.160121 0.082514 -0.031052 -501516.000000 0 0 1
8.527726 34.034754 -22.639632 41.756910 1.325291 2.143822 0.088497 -0.041390 -170765.000000 0 0 1
8.133726 33.154354 -23.670732 41.541211 1.330219 2.177075 0.090059 -0.049994 113589.000000 0 0 1
6.890326 32.280854 -23.329132 40.420026 1.360503 2.186052 0.095295 -0.051990 39252.800000 0 0 1
5.618126 32.821954 -23.500832 40.757001 1.401269 2.185368 0.102571 -0.048056 -146745.000000 0 0 1
5.095926 33.707854 -22.488032 40.839925 1.420753 2.153925 0.078815 -0.034913 -153737.000000 0 0 1
3.687626 -33.930046 -22.822132 41.057232 -1.462538 2.160195 0.068364 -0.034939 157685.000000 0 0 1
2.682526 33.318454 -22.475632 40.279888 1.490458 2.162754 0.077151 -0.042341 -279939.000000 0 0 1
1.422626 33.730854 -22.910732 40.800687 1.528646 2.167028 0.065879 -0.029188 65956.300000 0 0 1
0.146326 33.097454 -22.292532 39.905136 1.566375 2.163539 0.063563 -0.042145 167150.000000 0 0 1
-0.129874 33.511954 -20.975332 39.535206 -1.566921 2.130043 0.060812 -0.042271 97924.300000 0 0 1
-1.369274 33.021754 -20.487332 38.884983 -1.529354 2.125710 0.057108 -0.045307 379104.000000 0 0 1
-1.486774 33.140254 -18.975632 38.217294 -1.525963 2.090381 0.062942 -0.035803 124442.000000 0 0 1
-0.619374 32.243954 -18.319832 37.090059 -1.551590 2.087398 0.076881 -0.048460 -84846.000000 0 0 1
-1.017774 32.099654 -16.946032 36.312417 -1.539100 2.056322 0.050842 -0.038050 440983.000000 0 0 1
-0.014974 31.309754 -16.027432 35.173562 -1.570318 2.043918 0.011794 -0.027311 212375.000000 0 0 1
0.969326 32.113354 -15.438032 35.644634 1.540621 2.018736 0.032785 -0.015412 54669.600000 0 0 1
1.931626 31.186654 -14.883832 34.610216 1.508938 2.015335 0.047516 -0.006879 399357.000000 0 0 1
2.870726 31.663654 -13.768132 34.646638 1.480380 1.979464 0.059499 -0.019076 570519.000000 0 0 1
3.826126 32.630854 -14.245432 35.809834 1.454074 1.979923 0.056594 -0.018417 673696.000000 0 0 1
4.696926 33.291254 -13.314832 36.161491 1.430636 1.947874 0.054335 -0.030871 457929.000000 0 0 1
6.029526 33.715954 -13.970832 36.990605 1.393834 1.958092 0.071290 -0.038272 -38237.900000 0 0 1
6.783626 32.604954 -14.351532 36.263854 1.365668 1.977684 0.068408 -0.025238 -623287.000000 0 0 1
7.923826 32.926554 -15.132332 37.093563 1.334635 1.991004 0.064719 -0.005581 327146.000000 0 0 1
8.769026 31.628154 -15.211332 36.174861 1.300336 2.004787 0.052818 -0.014033 51972.700000 0 0 1
9.416026 31.317154 -13.971832 35.561746 1.278728 1.974568 0.046006 -0.015481 211453.000000 0 0 1
10.317026 30.189754 -14.042532 34.857639 1.241500 1.985429 0.051294 -0.013802 547843.000000 0 0 1
9.683026 28.801854 -13.842632 33.390511 1.246473 1.998264 0.052407 -0.013553 -163953.000000 0 0 1
9.085226 28.273254 -14.991132 33.266383 1.259882 2.038277 0.052365 -0.020023 5812.420000 0 0 1
8.432226 27.061154 -14.686132 31.923204 1.268733 2.048843 0.048728 -0.012597 -115655.000000 0 0 1
7.681926 26.309954 -15.843032 31.657974 1.286715 2.094907 0.048874 -0.004433 670460.000000 0 0 1
8.539626 25.685554 -16.833532 31.875393 1.249825 2.127163 0.056925 -0.001871 91482.400000 0 0 1
7.818426 24.737154 -17.563132 31.329191 1.264671 2.165906 0.049097 -0.003434 176695.000000 0 0 1
8.703126 23.925554 -18.573232 31.514147 1.221917 2.201065 0.057089 -0.005708 -4493.980000 0 0 1
8.062626 22.796554 -19.179532 30.863300 1.230849 2.241369 0.070918 -0.010120 176666.000000 0 0 1
8.907426 21.971954 -20.009932 31.024287 1.185644 2.271789 0.067336 -0.006715 -120501.000000 0 0 1
8.137326 20.882154 -20.792432 30.571321 1.199219 2.318734 0.069992 -0.020516 122628.000000 0 0 1
7.578126 19.785554 -20.142332 29.233708 1.205019 2.330919 0.066271 -0.013652 -458513.000000 0 0 1
6.682526 19.075354 -20.901332 29.075608 1.233834 2.372959 0.063031 -0.018953 -404199.000000 0 0 1
25.567426 -13.166246 -9.069132 30.154477 -0.475545 1.876281 0.072439 -0.005195 -206727.000000 0 0 1
25.898926 -12.095046 -8.220332 29.742535 -0.436909 1.850825 0.089678 -0.018253 688433.000000 0 0 1
24.929026 -12.026446 -7.176932 28.593707 -0.449491 1.824506 0.089218 -0.009119 -40604.500000 0 0 1
25.471326 -11.172646 -5.996332 28.452987 -0.413364 1.783134 0.076819 -0.014103 -338191.000000 0 0 1
25.415726 -9.766846 -6.026332 27.886683 -0.366885 1.788615 0.080412 -0.023921 116283.000000 0 0 1
26.358526 -9.095246 -6.814432 28.704214 -0.332266 1.810487 0.063448 -0.022448 -1344900.000000 0 0 1
26.577826 -7.692846 -6.140032 28.341854 -0.281746 1.789170 0.100611 -0.027878 -205980.000000 0 0 1
27.380126 -7.649946 -4.955632 28.857430 -0.272450 1.743380 0.112808 -0.028551 -155494.000000 0 0 1
28.722926 -7.865346 -5.278232 30.244502 -0.267283 1.746213 0.095158 -0.027040 -952146.000000 0 0 1
29.583226 -7.905746 -3.957232 30.876006 -0.261135 1.699315 0.112144 -0.037723 -134965.000000 0 0 1
29.660526 -6.657246 -3.278332 30.574715 -0.220789 1.678227 0.115147 -0.030848 343815.000000 0 0 1
30.303526 -6.816246 -2.007732 31.125486 -0.221250 1.635346 0.124696 -0.028331 161496.000000 0 0 1
30.812226 -5.408246 -1.593232 31.323805 -0.173753 1.621682 0.111467 -0.035212 136131.000000 0 0 1
29.691526 -4.570546 -1.311432 30.069860 -0.152736 1.614423 0.136240 -0.027692 552150.000000 0 0 1
30.065226 -3.252046 -0.907032 30.254195 -0.107747 1.600781 0.117978 -0.014953 -194425.000000 0 0 1
30.697226 -3.196846 0.463268 30.866715 -0.103767 1.555787 0.109202 -0.027742 363591.000000 0 0 1
29.757626 -3.533146 1.488668 30.003592 -0.118178 1.521160 0.121746 -0.040507 933551.000000 0 0 1
30.416026 -3.170146 2.706668 30.700334 -0.103851 1.482518 0.091508 -0.030301 204164.000000 0 0 1
29.930026 -3.864046 3.991568 30.441254 -0.128392 1.439294 0.099315 -0.032629 -281888.000000 0 0 1
30.145026 -5.268046 3.989968 30.860893 -0.173010 1.441145 0.093774 -0.037769 191349.000000 0 0 1
29.992026 -5.751846 5.286868 30.992843 -0.189479 1.399375 0.096543 -0.041596 -324847.000000 0 0 1
30.682926 -7.086046 5.436668 31.956398 -0.226965 1.399837 0.071571 -0.030038 -394729.000000 0 0 1
32.077626 -6.980346 5.464368 33.280003 -0.214268 1.405856 0.069192 -0.040700 -237315.000000 0 0 1
32.746126 -8.249946 5.651668 34.239038 -0.246800 1.404972 0.077651 -0.036934 -502502.000000 0 0 1
34.243726 -8.125146 5.773868 35.664945 -0.232966 1.408189 0.095005 -0.032533 -897223.000000 0 0 1
34.943926 -7.735046 4.602268 36.084481 -0.217843 1.442907 0.097069 -0.030911 53172.300000 0 0 1
36.308926 -7.588846 4.959768 37.423629 -0.206042 1.437875 0.115838 -0.034867 210141.000000 0 0 1
-35.935328 -7.170446 3.779468 36.838125 0.196951 1.468019 0.109277 -0.032414 -109245.000000 0 0 1
-35.811428 -8.277846 2.889368 36.869087 0.227161 1.492348 0.132561 -0.031505 35014.500000 0 0 1
-34.718828 -8.062346 2.027268 35.700256 0.228174 1.513980 0.137344 -0.030643 -333692.000000 0 0 1
-34.241328 -9.215146 1.156868 35.478526 0.262895 1.538183 0.128450 -0.026895 -149123.000000 0 0 1
-33.625728 -10.266546 1.881068 35.208379 0.296329 1.517344 0.124656 -0.023452 148250.000000 0 0 1
-33.474028 -11.457946 1.114068 35.398252 0.329793 1.539319 0.121896 -0.027830 -371555.000000 0 0 1
-33.126828 -12.628346 2.006868 35.509004 0.364206 1.514249 0.081432 -0.030035 -224178.000000 0 0 1
-31.813128 -12.711046 2.461168 34.346807 0.380121 1.499078 0.080042 -0.022721 -510992.000000 0 0 1
-30.920228 -13.432446 1.642768 33.751886 0.409825 1.522105 0.071631 -0.006266 -336081.000000 0 0 1
-29.624828 -13.695146 2.436168 32.728006 0.433024 1.496291 0.072634 -0.009424 -526802.000000 0 0 1
-28.829328 -12.574746 2.674568 31.565926 0.411301 1.485965 0.063994 -0.018579 -901084.000000 0 0 1
-27.712628 -13.005046 3.348868 30.795063 0.438773 1.461834 0.064287 -0.010248 -728481.000000 0 0 1
-26.718228 -11.838246 3.643268 29.449638 0.417082 1.446767 0.086254 -0.015836 259782.000000 0 0 1
-25.591328 -12.215946 4.429468 28.701317 0.445362 1.415847 0.076658 -0.005986 614994.000000 0 0 1
-24.929028 -11.061646 4.960368 27.720420 0.417624 1.390885 0.074090 -0.008054 -289822.000000 0 0 1
-23.548728 -11.383546 5.539468 26.735995 0.450283 1.362093 0.083704 0.003792 -313208.000000 0 0 1
-23.410328 -12.055246 6.778568 27.190465 0.475539 1.318840 0.079764 0.003744 107197.000000 0 0 1
-22.032628 -12.367746 6.924568 26.198234 0.511506 1.303303 0.079031 0.003337 221188.000000 0 0 1
-21.434328 -12.087646 8.326768 25.978389 0.513482 1.244511 0.077626 0.000297 -428411.000000 0 0 1
-21.192928 -10.664746 8.586168 25.230919 0.466222 1.223557 0.067952 0.003144 1305510.000000 0 0 1
-22.352328 -9.796046 8.836468 25.955197 0.413045 1.223400 0.080939 -0.007573 614434.000000 0 0 1
-22.874028 -9.854746 10.283968 26.946190 0.406796 1.179217 0.093386 -0.010569 324543.000000 0 0 1
-23.561628 -11.094146 10.713668 28.160488 0.440062 1.180513 0.075447 -0.013683 1137540.000000 0 0 1
-24.937028 -11.229946 10.364668 29.247109 0.423130 1.208543 0.075208 -0.010913 556426.000000 0 0 1
-25.960728 -10.914746 11.484368 30.413513 0.397996 1.183585 0.087102 -0.018329 -210871.000000 0 0 1
-26.088328 -11.890046 12.493968 31.274163 0.427635 1.159827 0.082292 -0.018430 31441.100000 0 0 1
-27.112628 -11.601546 13.417768 32.399490 0.404326 1.143804 0.078475 -0.028056 -43424.000000 0 0 1
-27.001328 -12.465446 14.737068 33.190966 0.432508 1.110729 0.070391 -0.029206 -1019240.000000 0 0 1
-27.286028 -13.816446 14.642168 33.908916 0.468720 1.124299 0.063186 -0.018221 311694.000000 0 0 1
-27.198328 -14.399946 15.929168 34.653223 0.486923 1.093169 0.047973 -0.013324 -901041.000000 0 0 1
-27.135528 -15.941046 15.847268 35.236199 0.531148 1.104318 0.048668 -0.011026 335425.000000 0 0 1
-28.388428 -16.625346 15.734568 36.467542 0.529792 1.124677 0.022667 -0.008838 280377.000000 0 0 1
-28.236128 -18.033946 15.681268 36.991949 0.568379 1.133038 0.023590 -0.004825 219754.000000 0 0 1
-29.343228 -18.952746 16.315768 38.554324 0.573486 1.133834 0.014519 0.000004 127219.000000 0 0 1
-29.382928 -18.661346 17.740168 39.068093 0.565835 1.099453 0.025601 0.001218 7683.080000 0 0 1
-29.797428 -19.741246 18.593568 40.290499 0.585123 1.091125 0.025630 0.001549 95254.800000 0 0 1
-28.820528 -20.954146 18.721968 40.251847 0.628655 1.087025 0.015543 0.005398 205481.000000 0 0 1
-27.648128 -20.725546 19.483568 39.668333 0.643257 1.057373 0.028283 0.004278 -61058.100000 0 0 1
-26.934928 -21.920246 19.574168 39.863963 0.683113 1.057531 0.035752 0.003333 -180815.000000 0 0 1
-25.492628 -21.791146 20.110968 39.104720 0.707275 1.030623 0.047183 0.005123 34624.500000 0 0 1
-24.507228 -21.499746 19.162968 37.816169 0.720121 1.039397 0.056718 -0.001382 -495437.000000 0 0 1
-23.234528 -21.450246 19.727968 37.271290 0.745489 1.013012 0.066765 -0.002316 -312227.000000 0 0 1
-22.041928 -21.029546 18.859868 35.829918 0.761898 1.016468 0.070245 -0.010983 14890.800000 0 0 1
-21.594828 -22.124046 18.088068 35.818825 0.797503 1.041429 0.076715 -0.010610 290835.000000 0 0 1
-20.376728 -21.888946 17.408968 34.603600 0.821162 1.043618 0.077689 -0.018809 -91908.700000 0 0 1
-20.195728 -22.948446 16.250568 34.620508 0.849115 1.082195 0.072241 -0.016409 -500057.000000 0 0 1
-20.137828 -24.303246 16.678368 35.698009 0.878854 1.084667 0.079895 -0.020522 230318.000000 0 0 1
-19.115228 -24.763146 17.563768 35.876055 0.913412 1.059202 0.093468 -0.027986 -333049.000000 0 0 1
-17.723028 -24.878846 16.961668 34.939389 0.951814 1.063907 0.097083 -0.030459 -596533.000000 0 0 1
-17.045428 -23.649646 16.761668 33.627457 0.946281 1.048984 0.099472 -0.040601 262144.000000 0 0 1
-15.870928 -23.835846 15.966568 32.786662 0.983364 1.062163 0.100260 -0.035326 633646.000000 0 0 1
-14.949628 -22.575446 15.806268 31.352516 0.985887 1.042403 0.098472 -0.033020 -106023.000000 0 0 1
-15.509528 -21.579746 15.029068 30.530375 0.947625 1.056105 0.098463 -0.024946 189145.000000 0 0 1
-16.531928 -20.734946 15.583768 30.758681 0.897705 1.039506 0.080233 -0.017902 342073.000000 0 0 1
-16.085528 -19.550846 16.516568 30.228741 0.882334 0.992753 0.085683 -0.025466 -372675.000000 0 0 1
-15.411228 -18.622546 15.719568 28.834181 0.879476 0.994203 0.079866 -0.024220 -143174.000000 0 0 1
-15.244228 -17.474346 16.551368 28.490122 0.853454 0.950900 0.067765 -0.026083 -584958.000000 0 0 1
-14.775428 -16.170646 15.863168 27.045206 0.830453 0.944013 0.067777 -0.025061 37043.100000 0 0 1
-15.658028 -15.636246 14.903468 26.679194 0.784702 0.978078 0.050346 -0.018511 42028.400000 0 0 1
-15.493428 -16.208246 13.629968 26.239847 0.807943 1.024603 0.064770 -0.019544 -338257.000000 0 0 1
-16.196128 -15.442346 12.526668 25.645624 0.761578 1.060481 0.056121 -0.017978 -331530.000000 0 0 1
-17.596128 -15.602346 12.575368 26.668273 0.725414 1.079751 0.044539 -0.015446 -296992.000000 0 0 1
-18.185528 -14.390646 12.049568 26.134196 0.669428 1.091601 0.053992 -0.019012 431078.000000 0 0 1
-19.739628 -14.555346 11.992368 27.300694 0.635367 1.116011 0.059371 -0.020661 580111.000000 0 0 1
-20.347928 -15.665546 11.326768 28.066763 0.656106 1.155386 0.077736 -0.022611 140253.000000 0 0 1
-20.291328 -15.675246 9.929168 27.496176 0.657752 1.201337 0.082208 -0.021075 -693127.000000 0 0 1
-21.155328 -16.733846 9.264068 28.520036 0.669228 1.239968 0.070648 -0.007561 -127917.000000 0 0 1
-20.668428 -18.022846 9.522668 29.029091 0.717128 1.236570 0.072911 0.002623 145850.000000 0 0 1
-21.541128 -19.037346 8.999968 30.123748 0.723774 1.267396 0.063117 -0.012562 330570.000000 0 0 1
-21.093928 -20.498246 9.171468 30.809864 0.771077 1.268535 0.070754 -0.014679 -177045.000000 0 0 1
-19.962428 -20.883646 8.460068 30.103122 0.807948 1.285923 0.090030 -0.008705 -636235.000000 0 0 1
-19.511428 -22.191446 8.554368 30.762531 0.849575 1.289004 0.092614 -0.020049 -332329.000000 0 0 1
-18.192828 -22.465446 7.854268 29.956048 0.890100 1.305502 0.099243 -0.020328 51387.000000 0 0 1
-16.985828 -22.040746 8.474368 29.088275 0.914206 1.275177 0.084779 -0.023606 -1493.580000 0 0 1
-15.850428 -22.243846 7.684968 28.373993 0.951680 1.296525 0.106655 -0.017065 -432499.000000 0 0 1
-14.618528 -21.617346 8.327868 27.392780 0.976195 1.261890 0.058749 -0.016876 423545.000000 0 0 1
-13.405328 -21.759846 7.577368 26.657273 1.018653 1.282571 0.081686 -0.019200 1084610.000000 0 0 1
-12.174228 -21.613546 8.274468 26.150029 1.057823 1.248840 0.071344 -0.012768 -34265.600000 0 0 1
-11.013328 -22.293046 7.629668 26.009328 1.111940 1.273074 0.054082 -0.009501 -680148.000000 0 0 1
-11.015128 -23.706546 7.686368 27.247268 1.135831 1.284817 0.045572 -0.005712 245506.000000 0 0 1
-9.688828 -24.214946 7.514868 27.142407 1.190189 1.290263 0.041253 -0.010607 704968.000000 0 0 1
-9.614328 -25.727126 7.410068 28.446958 1.213162 1.307270 0.037298 -0.009459 -153422.000000 0 0 1
-10.220028 -26.265036 6.242068 28.866321 1.199712 1.352834 0.045517 -0.015059 -198475.000000 0 0 1
-10.300128 -27.682706 6.316768 30.204742 1.214590 1.360109 0.055260 -0.010041 -134235.000000 0 0 1
-9.172228 -28.471146 5.633968 30.438093 1.259136 1.384627 0.053743 -0.012300 294164.000000 0 0 1
-7.872828 -28.157386 6.173168 29.881898 1.298158 1.362712 0.051396 -0.014242 1294370.000000 0 0 1
-6.773828 -29.022546 5.782568 30.358377 1.341502 1.379148 0.053440 -0.007437 1143740.000000 0 0 1
-6.936828 -30.444516 6.362068 31.866347 1.346769 1.369797 0.061327 -0.011219 -661837.000000 0 0 1
-6.889828 -30.481526 7.779968 32.204364 1.348499 1.326801 0.052327 -0.012468 -32448.400000 0 0 1
-6.593828 -31.786946 8.150768 33.471234 1.366259 1.324807 0.080413 -0.019544 -60711.300000 0 0 1
-6.691828 -31.952136 9.669968 34.047435 1.364347 1.282818 0.066372 -0.012528 -513461.000000 0 0 1
-5.789828 -31.190296 10.410468 33.387640 1.387256 1.253703 0.063237 -0.006248 -22403.000000 0 0 1
-6.154828 -31.333516 11.766068 34.031037 1.376836 1.217763 0.054702 -0.006017 -231521.000000 0 0 1
-5.307828 -30.544846 12.760968 33.526153 1.398743 1.180322 0.052346 -0.008955 -91172.800000 0 0 1
-5.608828 -29.175036 12.631768 32.283173 1.380866 1.168774 0.045251 -0.010108 658412.000000 0 0 1
-4.766828 -28.447986 13.514568 31.853636 1.404776 1.132640 0.029047 -0.010884 270608.000000 0 0 1
-5.689828 -28.032346 14.691568 32.156317 1.370543 1.096312 0.044639 -0.013054 442807.000000 0 0 1
-6.203828 -29.077676 15.580868 33.567278 1.360594 1.088101 0.038833 -0.019080 37596.400000 0 0 1
-5.353828 -29.530476 16.572168 34.283367 1.391446 1.066276 0.020003 -0.016212 -383954.000000 0 0 1
-5.966828 -30.800746 17.131768 35.746139 1.379443 1.070983 0.028200 -0.014871 21588.900000 0 0 1
-6.054828 -31.764626 16.063368 36.106567 1.382440 1.109747 0.029970 -0.009953 148744.000000 0 0 1
-6.386828 -33.005426 16.613468 37.498760 1.379650 1.111809 0.034431 -0.010870 -131670.000000 0 0 1
-5.729828 34.081634 15.783268 37.993424 -1.404233 1.142391 0.027048 -0.015883 37376.500000 0 0 1
-6.367828 34.002647 14.512268 37.514466 -1.385666 1.173589 0.033265 -0.019339 748544.000000 0 0 1
-5.725828 32.947959 13.741268 36.154883 -1.398731 1.180928 0.040985 -0.021441 991643.000000 0 0 1
-4.373828 33.291330 13.034868 36.018757 -1.440164 1.200501 0.073595 -0.026982 829632.000000 0 0 1
-4.738828 33.623759 11.703468 35.916359 -1.430782 1.238882 0.075487 -0.027145 958787.000000 0 0 1
-3.542828 33.749497 10.923868 35.649840 -1.466205 1.259365 0.092844 -0.032611 77166.300000 0 0 1
-3.857828 -34.009276 9.481468 35.516362 1.457845 1.300559 0.084887 -0.030091 -661952.000000 0 0 1
-4.222828 33.172368 8.531268 34.511169 -1.444178 1.321004 0.087966 -0.042825 937046.000000 0 0 1
-5.152828 32.094943 8.887068 33.698917 -1.411605 1.303920 0.110549 -0.041513 1865850.000000 0 0 1
-6.635828 32.498944 9.332468 34.457373 -1.369379 1.296530 0.094467 -0.030868 1004790.000000 0 0 1
-7.401828 32.958253 8.265968 34.775850 -1.349880 1.330806 0.084547 -0.027685 -583072.000000 0 0 1
-8.770628 33.146414 8.586768 35.346022 -1.312122 1.325407 0.065257 -0.027406 278168.000000 0 0 1
-9.582328 33.366143 7.296268 35.473315 -1.291135 1.363634 0.078995 -0.038713 -384862.000000 0 0 1
-9.357728 -33.545156 6.713668 35.467139 1.298753 1.380355 0.077552 -0.027382 -99081.900000 0 0 1
-9.886828 -33.568216 5.454168 35.416415 1.284366 1.416180 0.068735 -0.016945 -727507.000000 0 0 1
-9.785028 -32.215286 4.712768 33.996788 1.275913 1.431725 0.054868 -0.015862 216608.000000 0 0 1
-10.675628 -31.193076 5.182768 33.374213 1.241048 1.414873 0.063623 -0.019256 175180.000000 0 0 1
-11.982428 -31.241836 4.655168 33.783154 1.204561 1.432561 0.064831 -0.018245 -359752.000000 0 0 1
-12.930728 -30.280896 5.344068 33.357090 1.167211 1.409895 0.080254 -0.021511 -457578.000000 0 0 1
-13.278728 -30.666606 6.629168 34.069212 1.162167 1.374968 0.074601 -0.015727 689795.000000 0 0 1
-14.378128 -29.810626 7.042668 33.837895 1.121396 1.361134 0.082497 -0.015332 833940.000000 0 0 1
33.806900 -12.677446 -12.462132 38.195927 -0.358767 1.903150 0.045256 -0.032031 -219460.000000 0 0 1
32.693420 -12.829946 -11.586932 36.982756 -0.373965 1.889469 0.056938 -0.033779 368795.000000 0 0 1
32.393070 -14.216846 -11.380532 37.161085 -0.413573 1.882046 0.060621 -0.037407 -594988.000000 0 0 1
33.271540 -14.988646 -10.441232 37.956215 -0.423265 1.849476 0.067002 -0.040939 416981.000000 0 0 1
34.557540 -15.279646 -11.020432 39.359130 -0.416307 1.854587 0.063646 -0.045428 174028.000000 0 0 1
35.467180 -15.771246 -10.091832 40.106086 -0.418414 1.825159 0.048406 -0.046484 -129972.000000 0 0 1
-36.237884 -15.876746 -10.665932 40.975815 0.412935 1.834127 0.028239 -0.048111 -73855.600000 0 0 1
-35.637308 -14.599646 -10.780032 39.992205 0.388817 1.843725 0.034231 -0.044874 189457.000000 0 0 1
-34.231390 -14.757646 -10.743632 38.794353 0.407038 1.851402 0.045648 -0.038367 215131.000000 0 0 1
-33.367464 -13.495146 -10.969232 37.627526 0.384328 1.866613 0.053284 -0.038864 -112397.000000 0 0 1
-33.569084 -12.531546 -9.991932 37.198949 0.357285 1.842744 0.064647 -0.035203 310293.000000 0 0 1
-32.968854 -11.324746 -10.426432 36.385515 0.330871 1.861425 0.071899 -0.031198 -132773.000000 0 0 1
-33.296494 -10.240246 -9.385132 36.077692 0.298366 1.833960 0.076985 -0.034158 -96069.200000 0 0 1
-32.808944 -10.396346 -8.078532 35.352136 0.306866 1.801350 0.085771 -0.025376 51406.900000 0 0 1
-33.343384 -9.371446 -7.283332 35.392827 0.273990 1.778063 0.099693 -0.023500 -309084.000000 0 0 1
-32.831474 -9.168946 -5.841132 34.584593 0.272334 1.740504 0.095709 -0.014841 -536820.000000 0 0 1
-31.555134 -8.534746 -5.772432 33.194719 0.264151 1.745581 0.109273 -0.028272 454393.000000 0 0 1
-31.011754 -8.500646 -4.486632 32.467210 0.267539 1.709430 0.113365 -0.027168 -177544.000000 0 0 1
-30.161574 -9.743346 -4.108332 31.961410 0.312457 1.699693 0.107566 -0.023278 -490548.000000 0 0 1
-30.890124 -10.907546 -3.756932 32.974064 0.339441 1.684980 0.111306 -0.020243 -129803.000000 0 0 1
-31.535164 -10.867546 -2.558432 33.453187 0.331871 1.647349 0.085586 -0.020266 -313355.000000 0 0 1
-32.285124 -12.202546 -2.275232 34.589132 0.361365 1.636623 0.087335 -0.014283 195488.000000 0 0 1
-33.534984 -12.321146 -2.933632 35.847064 0.352101 1.652725 0.092301 -0.023206 109658.000000 0 0 1
-34.218905 -13.487046 -2.566532 36.870326 0.375445 1.640462 0.088390 -0.022504 -228579.000000 0 0 1
-35.738545 -13.258546 -2.483532 38.199484 0.355248 1.635857 0.084141 -0.020950 -246401.000000 0 0 1
-36.047714 -12.290246 -1.524632 38.115776 0.328584 1.610807 0.108786 -0.030097 210616.000000 0 0 1
35.717370 -12.365046 -1.195232 37.816048 -0.333278 1.602408 0.124326 -0.024193 47080.000000 0 0 1
35.324200 -11.403846 -0.051132 37.119394 -0.312271 1.572174 0.125009 -0.030970 -11908.500000 0 0 1
35.753030 -11.792646 1.278568 37.669356 -0.318600 1.536848 0.134972 -0.030196 300496.000000 0 0 1
35.602700 -10.812646 2.286368 37.278587 -0.294851 1.509426 0.116584 -0.026682 -179842.000000 0 0 1
35.999680 -11.473946 3.641768 37.959068 -0.308545 1.474709 0.125286 -0.036987 382487.000000 0 0 1
34.882440 -11.790846 4.453268 37.089625 -0.325960 1.450438 0.117885 -0.038534 174310.000000 0 0 1
35.384950 -12.303246 5.632068 37.883832 -0.334622 1.421576 0.112985 -0.036645 366059.000000 0 0 1
34.329370 -12.389446 6.805468 37.125711 -0.346351 1.386445 0.100090 -0.039177 521230.000000 0 0 1
33.980920 -11.107346 7.325268 36.492953 -0.315922 1.368692 0.091104 -0.038973 81716.900000 0 0 1
33.221140 -11.133546 8.514568 36.056870 -0.323371 1.332402 0.070871 -0.026505 -380914.000000 0 0 1
32.521150 -9.752646 8.845468 35.085347 -0.291352 1.315933 0.060331 -0.040049 -575156.000000 0 0 1
31.183950 -9.786546 8.464068 33.761748 -0.304099 1.317393 0.073274 -0.036226 -839532.000000 0 0 1
30.381510 -8.939446 9.235868 32.988651 -0.286164 1.287032 0.070267 -0.021411 426516.000000 0 0 1
28.861640 -9.164346 8.940268 31.573848 -0.307458 1.283715 0.070912 -0.023060 546377.000000 0 0 1
28.394720 -8.575746 7.731668 30.652606 -0.293308 1.315807 0.085075 -0.025858 -56967.300000 0 0 1
27.517080 -9.444446 7.062068 29.937603 -0.330623 1.332659 0.105586 -0.035897 -510304.000000 0 0 1
26.726480 -8.928946 5.895768 28.788728 -0.322428 1.364543 0.119320 -0.035287 -468948.000000 0 0 1
25.551280 -8.291346 6.335868 27.599956 -0.313778 1.339170 0.112233 -0.032768 139889.000000 0 0 1
24.657680 -7.790846 5.362668 26.409405 -0.306034 1.366315 0.127222 -0.038657 34650.600000 0 0 1
25.103680 -6.507946 4.583368 26.335439 -0.253659 1.395868 0.128729 -0.033978 -336614.000000 0 0 1
26.125380 -6.756346 3.629868 27.227920 -0.253068 1.437084 0.130043 -0.030507 410590.000000 0 0 1
26.682780 -5.591046 3.075668 27.435201 -0.206549 1.458454 0.133735 -0.033429 -24529.300000 0 0 1
27.143880 -5.767346 1.592568 27.795481 -0.209360 1.513469 0.126902 -0.042273 -90010.600000 0 0 1
26.084880 -5.714046 0.678368 26.712010 -0.215650 1.545398 0.135063 -0.045377 10658.000000 0 0 1
26.573180 -5.494146 -0.670132 27.143482 -0.203883 1.595487 0.128139 -0.046792 163348.000000 0 0 1
25.551080 -5.858546 -1.777532 26.274320 -0.225392 1.638501 0.129294 -0.042795 153740.000000 0 0 1
24.458480 -4.979346 -1.890232 25.031662 -0.200839 1.646382 0.136075 -0.037789 37650.400000 0 0 1
23.701080 -5.230646 -3.069232 24.464690 -0.217211 1.696583 0.116940 -0.035269 -403850.000000 0 1 0
22.437180 -4.372146 -3.161232 23.076744 -0.192450 1.708216 0.088978 -0.032124 -688730.000000 0 1 0
22.494280 -2.975046 -3.079032 22.898122 -0.131495 1.705671 0.088340 -0.036060 264452.000000 0 1 0
23.033480 -2.329446 -4.233832 23.534928 -0.100790 1.751677 0.098676 -0.032703 -13848.500000 0 1 0
22.068780 -1.267546 -4.793932 22.619008 -0.057373 1.784359 0.071367 -0.025536 58158.200000 0 1 0
21.987880 -0.088146 -4.034932 22.355208 -0.004009 1.752283 0.064904 -0.022456 117207.000000 0 1 0
21.063280 0.746354 -4.650232 21.583407 0.035419 1.787953 0.064842 -0.018631 -954066.000000 0 1 0
20.838380 2.123454 -3.997832 21.324394 0.101551 1.759389 0.059408 -0.012019 151327.000000 0 1 0
21.966580 2.992454 -4.170332 22.558304 0.135394 1.756735 0.081699 -0.011201 1250500.000000 0 1 0
23.027980 2.769654 -3.244532 23.419774 0.119698 1.709782 0.108774 -0.013413 28112.000000 0 1 0
24.212280 3.744054 -3.347132 24.727631 0.153419 1.706573 0.114332 -0.018630 -30377.100000 0 1 0
23.770880 5.101454 -3.114432 24.510799 0.211403 1.698204 0.084789 -0.013217 230114.000000 0 1 0
24.804180 5.852354 -2.578232 25.615321 0.231705 1.671619 0.090492 -0.018265 -599270.000000 0 0 1
24.555380 7.336254 -2.612432 25.760670 0.290322 1.672383 0.070651 -0.016686 -269905.000000 0 0 1
23.638280 7.656254 -1.603232 24.898933 0.313230 1.635231 0.079484 -0.020732 171068.000000 0 1 0
22.669480 8.571954 -2.071332 24.324353 0.361510 1.656054 0.078439 -0.017403 -819539.000000 0 1 0
21.560780 8.861054 -1.103032 23.336713 0.389936 1.618080 0.066840 -0.014296 -745119.000000 0 1 0
22.058080 9.574054 0.058668 24.046306 0.409501 1.568357 0.048521 -0.019159 635760.000000 0 1 0
21.029880 9.892054 0.954068 23.259811 0.439673 1.529767 0.040536 -0.017320 -149803.000000 0 1 0
21.681280 10.333254 2.360468 24.133500 0.444751 1.472831 0.072063 -0.011902 -11709.300000 0 1 0
22.520180 11.471354 2.344068 25.381984 0.471124 1.478313 0.079603 -0.027525 273032.000000 0 0 1
22.122580 12.691854 1.661868 25.558824 0.520861 1.505729 0.079013 -0.017129 -626679.000000 0 0 1
20.971880 13.526654 2.267368 25.058553 0.572845 1.480190 0.061649 -0.003397 642259.000000 0 0 1
19.676980 12.872054 2.260468 23.621664 0.579300 1.474955 0.097142 -0.002854 1349950.000000 0 1 0
18.681180 13.623454 2.941668 23.307475 0.630095 1.444247 0.088104 -0.011692 25419.700000 0 1 0
18.675080 13.530854 4.458668 23.488770 0.627007 1.379816 0.075400 -0.008434 -650794.000000 0 1 0
18.333880 12.325754 4.992268 22.649020 0.591888 1.348553 0.076135 -0.005564 266875.000000 0 1 0
18.596880 12.299954 6.388768 23.193731 0.584347 1.291736 0.081700 -0.020194 -105615.000000 0 1 0
18.613580 10.894854 7.076968 22.699045 0.529554 1.253737 0.058248 -0.022217 -964285.000000 0 1 0
19.678180 10.176954 6.614768 23.120474 0.477289 1.280642 0.045268 -0.021719 -468307.000000 0 1 0
19.574580 8.829154 7.073868 22.608798 0.423728 1.252571 0.047977 -0.020521 83905.800000 0 1 0
20.419380 7.786654 6.311568 22.746845 0.364314 1.289637 0.041422 -0.022828 99115.000000 0 1 0
19.999680 7.715154 4.930468 21.995916 0.368174 1.344722 0.029714 -0.022800 900811.000000 0 1 0
20.755480 6.716554 4.251868 22.225670 0.312969 1.378305 0.029325 -0.031120 -145612.000000 0 1 0
20.452280 6.590554 2.820868 21.672297 0.311734 1.440266 0.042577 -0.023301 -149298.000000 0 1 0
21.208880 5.541454 2.192268 22.030214 0.255567 1.471119 0.030240 -0.029581 605479.000000 0 1 0
21.131680 5.597154 0.841068 21.876550 0.258925 1.532341 0.045451 -0.023101 -314355.000000 0 1 0
22.203280 4.664754 0.255368 22.689442 0.207081 1.559541 0.078273 -0.031867 41719.300000 0 1 0
21.991880 3.279154 0.579668 22.242564 0.148017 1.544732 0.064424 -0.021609 892796.000000 0 1 0
23.237380 2.616154 0.425768 23.388060 0.112112 1.552591 0.087396 -0.021799 332806.000000 0 1 0
23.126980 1.129354 0.416068 23.158276 0.048794 1.552829 0.113835 -0.026473 -124487.000000 0 1 0
22.271080 0.565054 -0.562032 22.285335 0.025366 1.596019 0.088622 -0.033384 707419.000000 0 1 0
22.571780 -0.808746 -0.957732 22.606560 -0.035815 1.613174 0.114342 -0.035388 -1072700.000000 0 1 0
22.420980 -1.978346 0.080668 22.508236 -0.088008 1.567212 0.130364 -0.031334 -340896.000000 0 1 0
23.341180 -2.029646 1.124768 23.456241 -0.086737 1.522826 0.134581 -0.031531 -98916.800000 0 1 0
24.658080 -2.371346 0.713968 24.782129 -0.095874 1.541983 0.144658 -0.036040 -489954.000000 0 1 0
25.608680 -2.097246 1.877468 25.762915 -0.081714 1.497857 0.132250 -0.030833 -629047.000000 0 0 1
25.646480 -0.734446 2.196368 25.750833 -0.028629 1.485400 0.124332 -0.030443 450598.000000 0 0 1
26.735180 -0.280646 3.001068 26.904554 -0.010497 1.459019 0.124980 -0.024584 114880.000000 0 0 1
26.492280 1.042554 3.767368 26.779113 0.039333 1.429645 0.122462 -0.018062 -150771.000000 0 0 1
26.632880 2.226954 3.006468 26.894395 0.083423 1.458774 0.123789 -0.019337 394086.000000 0 0 1
27.957380 2.692754 2.782868 28.224287 0.096020 1.472038 0.129655 -0.024147 225415.000000 0 0 1
28.039280 3.771954 1.683968 28.341923 0.133721 1.511345 0.132903 -0.035164 -548761.000000 0 0 1
27.728080 3.239854 0.398468 27.919560 0.116316 1.556524 0.165412 -0.036788 250773.000000 0 0 1
28.200010 3.948154 -0.773032 28.485541 0.139101 1.597937 0.160646 -0.028481 -180032.000000 0 0 1
29.714240 4.039154 -1.025132 30.005028 0.135105 1.604968 0.155202 -0.029227 -599167.000000 0 0 1
30.452400 4.558054 0.061268 30.791692 0.148575 1.568807 0.137351 -0.033965 -86977.400000 0 0 1
31.802880 4.420954 -0.356632 32.110671 0.138126 1.581903 0.116161 -0.029760 -68210.600000 0 0 1
32.939170 4.759254 0.602568 33.286672 0.143493 1.552693 0.085923 -0.026901 -218046.000000 0 0 1
32.992490 3.865854 1.736668 33.263572 0.116642 1.518563 0.087646 -0.019786 359012.000000 0 0 1
32.027310 4.086054 2.775368 32.405973 0.126895 1.485048 0.082954 -0.014185 75111.100000 0 0 1
32.029780 3.038354 3.851568 32.403286 0.094577 1.451651 0.095630 -0.019816 90677.200000 0 0 1
31.400720 1.827154 3.342168 31.630899 0.058123 1.464937 0.102904 -0.019826 426037.000000 0 0 1
31.638380 0.745854 4.237368 31.929589 0.023570 1.437694 0.097041 -0.018293 461152.000000 0 0 1
32.958670 -0.051546 4.015368 33.202406 -0.001564 1.449564 0.090858 -0.020268 1141800.000000 0 0 1
34.187550 0.540454 4.484668 34.484676 0.015807 1.440379 0.083054 -0.016417 1085050.000000 0 0 1
35.295160 -0.277346 4.119668 35.535854 -0.007858 1.454605 0.072456 -0.023085 -547028.000000 0 0 1
-36.500564 0.366354 4.449168 36.772551 -0.010037 1.449508 0.091079 -0.034144 -360617.000000 0 0 1
-36.182944 1.553054 3.709568 36.405746 -0.042896 1.468724 0.087718 -0.032195 170448.000000 0 0 1
-35.611712 1.236454 2.443168 35.716830 -0.034706 1.502339 0.107637 -0.029501 -549759.000000 0 0 1
-35.596744 2.516554 1.547568 35.719129 -0.070579 1.527457 0.098730 -0.026667 268426.000000 0 0 1
-34.517978 3.418854 1.720768 34.729532 -0.098724 1.521228 0.127313 -0.035948 301425.000000 0 0 1
-33.330744 3.108554 1.013768 33.490735 -0.092995 1.540522 0.149296 -0.029023 -524794.000000 0 0 1
-32.165514 3.939454 1.543668 32.442603 -0.121868 1.523197 0.148930 -0.025963 -571539.000000 0 0 1
-31.713234 3.431054 2.789668 32.020050 -0.107771 1.483563 0.151162 -0.039333 -71605.600000 0 0 1
-30.910704 4.346154 3.488868 31.409121 -0.139688 1.459488 0.161353 -0.031655 -390103.000000 0 0 1
-31.184974 4.412454 4.993568 31.888996 -0.140560 1.413557 0.162150 -0.034706 558924.000000 0 0 1
-32.481984 4.929754 5.328068 33.283180 -0.150619 1.410022 0.157610 -0.022660 1552300.000000 0 0 1
-33.598824 4.017254 5.434568 34.271764 -0.119000 1.411551 0.157315 -0.021790 607422.000000 0 0 1
-33.667954 3.207954 6.777568 34.492862 -0.094995 1.373018 0.131400 -0.018573 -606457.000000 0 0 1
-33.921314 3.843654 8.009568 35.065402 -0.112830 1.340344 0.122794 -0.016592 294470.000000 0 0 1
-33.944124 3.013854 9.181568 35.292890 -0.088556 1.307615 0.107662 -0.015019 -705197.000000 0 0 1
-34.894920 1.865254 9.366268 36.178192 -0.053403 1.308921 0.093511 -0.009133 -870470.000000 0 0 1
-34.602505 0.724954 8.588968 35.659911 -0.020948 1.327547 0.097958 -0.016178 915353.000000 0 0 1
-35.676484 -0.245946 8.641768 36.709020 0.006894 1.333153 0.099361 -0.019925 712169.000000 0 0 1
-35.538854 -1.150646 9.864468 36.900432 0.032366 1.300179 0.101654 -0.022703 -253025.000000 0 0 1
-34.374363 -1.916746 9.768768 35.786863 0.055703 1.294317 0.109181 -0.032449 -270235.000000 0 0 1
-34.152694 -2.733646 10.877068 35.947043 0.079872 1.263392 0.104415 -0.024002 -461002.000000 0 0 1
-32.879564 -3.563246 10.817368 34.796234 0.107951 1.254680 0.133741 -0.025240 -431717.000000 0 0 1
-32.933084 -4.550146 9.764868 34.650317 0.137294 1.285114 0.131009 -0.034924 173810.000000 0 0 1
-31.751744 -5.324646 9.791468 33.651121 0.166150 1.275556 0.134467 -0.046469 243450.000000 0 0 1
-31.758714 -6.394646 8.675468 33.537608 0.198694 1.309142 0.124462 -0.031899 604503.000000 0 0 1
-32.812434 -7.329146 8.940668 34.789478 0.219758 1.310886 0.124863 -0.033931 428324.000000 0 0 1
-33.160334 -8.236746 7.873768 35.063485 0.243464 1.344307 0.101419 -0.036252 155859.000000 0 0 1
-34.216601 -9.265046 8.290368 36.405316 0.264435 1.341057 0.107034 -0.032938 847971.000000 0 0 1
-35.513083 -8.719046 8.571268 37.558853 0.240754 1.340559 0.108231 -0.044591 -185081.000000 0 0 1
-36.477964 -9.688646 8.613868 38.713182 0.259609 1.346413 0.101752 -0.050057 -764030.000000 0 0 1
8.273726 -23.871146 10.495868 27.357803 -1.237154 1.177049 0.105994 -0.029707 -195585.000000 0 0 1
7.548126 -24.669746 9.574668 27.518082 -1.273874 1.215422 0.105349 -0.032955 66487.900000 0 0 1
6.148826 -24.647146 9.854568 27.247062 -1.326313 1.200733 0.105645 -0.034475 904871.000000 0 0 1
5.422626 -25.704926 8.942268 27.750896 -1.362888 1.242708 0.084753 -0.021594 30643.500000 0 0 1
5.093726 -25.226386 7.649368 26.848267 -1.371555 1.281883 0.092471 -0.022473 -488937.000000 0 0 1
4.717026 -26.251796 6.746068 27.512117 -1.393010 1.323067 0.076344 -0.013746 -212194.000000 0 0 1
4.183226 -25.878386 5.321968 26.749086 -1.410533 1.370501 0.070812 -0.011493 -376825.000000 0 0 1
2.805126 -25.734246 5.225468 26.408818 -1.462221 1.371614 0.052997 -0.018192 -899823.000000 0 0 1
2.186926 -26.940976 4.743568 27.442673 -1.489799 1.397070 0.044314 -0.015977 172384.000000 0 0 1
0.639426 -26.846166 4.769568 27.274059 -1.546983 1.395017 0.057993 -0.017921 311267.000000 0 0 1
0.095926 -26.667936 6.089168 27.354451 -1.567199 1.346313 0.053081 -0.009643 372902.000000 0 0 1
-1.324574 -26.638466 6.223968 27.387956 1.521113 1.341541 0.042864 -0.008158 1305680.000000 0 0 1
-2.075374 -28.043176 6.380268 28.834610 1.496925 1.347679 0.051309 -0.004865 327595.000000 0 0 1
-1.646874 -28.680896 7.571868 29.709244 1.513439 1.313088 0.044949 -0.006580 97475.600000 0 0 1
-2.352474 -29.897026 7.730368 30.969742 1.492272 1.318518 0.063182 -0.008439 184226.000000 0 0 1
-2.040674 -30.496126 9.132968 31.899673 1.503980 1.280430 0.068437 -0.007715 -309378.000000 0 0 1
-0.711774 -30.791886 9.413868 32.206642 1.547685 1.274170 0.072592 -0.007710 -784403.000000 0 0 1
-0.499274 -31.366126 10.686768 33.140461 1.554880 1.242460 0.068817 -0.001227 654536.000000 0 0 1
0.999026 -31.471006 11.117268 33.391854 -1.539063 1.231383 0.045527 -0.006478 818343.000000 0 0 1
1.630626 -32.720476 10.727368 34.472669 -1.521002 1.254357 0.054245 -0.012259 530524.000000 0 0 1
3.025726 -32.799176 10.987768 34.722788 -1.478807 1.248819 0.054598 -0.008470 578225.000000 0 0 1
3.501626 -33.344126 12.401168 35.747463 -1.466165 1.216521 0.055932 -0.007167 -596516.000000 0 0 1
3.166526 -32.454746 13.464368 35.279266 -1.473537 1.179214 0.043355 -0.003190 -104719.000000 0 0 1
3.765126 -32.731596 14.657068 36.060549 -1.456269 1.152223 0.038696 0.000251 -884229.000000 0 0 1
3.382326 -31.722756 15.727368 35.568574 -1.464576 1.112779 0.036799 -0.000049 -95811.900000 0 0 1
3.802226 -30.359986 15.572868 34.332199 -1.446207 1.100003 0.039691 -0.006083 571100.000000 0 0 1
5.209426 -30.217866 15.769768 34.481055 -1.400079 1.095788 0.043156 0.002312 406517.000000 0 0 1
5.749626 -28.901216 15.140368 33.129582 -1.374420 1.096172 0.064128 -0.004043 -35869.900000 0 0 1
5.985926 -28.940566 13.727568 32.585791 -1.366837 1.135946 0.061179 -0.003900 637968.000000 0 0 1
4.801626 -28.953296 12.888068 32.053881 -1.406452 1.157014 0.047314 0.004874 417720.000000 0 0 1
5.128926 -29.045996 11.353868 31.605159 -1.396019 1.203342 0.045274 -0.008461 184631.000000 0 0 1
5.503326 -30.364156 10.935368 32.739133 -1.391499 1.230236 0.044327 -0.009264 -748526.000000 0 0 1
6.764626 -30.786696 11.315668 33.490673 -1.354508 1.226138 0.047673 -0.006091 -1223790.000000 0 0 1
7.099526 -32.147536 10.724468 34.624869 -1.353443 1.255884 0.027515 -0.006756 -184677.000000 0 0 1
6.597326 -33.253656 11.430868 35.777019 -1.374945 1.245591 0.010273 -0.009799 -85169.200000 0 0 1
6.810626 33.715064 10.708168 36.024367 1.371473 1.268987 0.016051 -0.006639 -67350.100000 0 0 1
6.609926 32.467723 11.584368 35.100452 1.369957 1.234456 0.017746 -0.004529 499476.000000 0 0 1
5.331926 32.465747 12.221268 35.097202 1.408017 1.215133 0.025211 -0.002523 205452.000000 0 0 1
4.982026 31.217713 12.830668 34.117330 1.412541 1.185240 0.045118 -0.003660 -234989.000000 0 0 1
3.724726 31.242353 13.680068 34.308927 1.452136 1.160663 0.048883 -0.008513 -387610.000000 0 0 1
3.940626 31.799893 14.985268 35.374002 1.447505 1.133354 0.068402 -0.005392 298771.000000 0 0 1
2.931326 31.452523 15.916968 35.372359 1.477866 1.104050 0.050894 -0.003107 354156.000000 0 0 1
3.553226 31.676973 17.327468 36.280810 1.459093 1.072883 0.043818 -0.002612 367191.000000 0 0 1
3.882426 32.995602 17.625468 37.609043 1.453670 1.083035 0.050413 0.000805 -121173.000000 0 0 1
4.456226 33.102507 18.875668 38.365671 1.436982 1.056418 0.055983 0.000051 -89157.800000 0 0 1
4.632026 -33.657986 19.378868 39.113376 -1.434035 1.052439 0.045553 -0.004669 135895.000000 0 0 1
3.423026 -33.046596 19.778468 38.665002 -1.467583 1.033827 0.033157 -0.006813 -40123.200000 0 0 1
3.681926 -32.078596 20.739368 38.375960 -1.456518 0.999853 0.037896 -0.007791 -458187.000000 0 0 1
2.439226 -31.318986 21.173368 37.883245 -1.493070 0.977724 0.033778 -0.008993 -196373.000000 0 0 1
1.562126 -32.187566 21.907368 38.966812 -1.522302 0.973746 0.044145 -0.010007 754754.000000 0 0 1
0.435526 -31.459416 22.445768 38.648377 -1.556953 0.951124 0.052930 -0.016431 646080.000000 0 0 1
-0.736974 -32.268336 23.045968 39.659870 1.547961 0.950729 0.041100 -0.009795 -558616.000000 0 0 1
-1.515374 -32.852616 22.021568 39.579543 1.524703 0.980764 0.044305 -0.014968 133432.000000 0 0 1
-2.425774 -33.841706 22.480568 40.700385 1.499239 0.985624 0.048249 -0.012514 -158113.000000 0 0 1
-3.711874 -33.398946 23.174068 40.820400 1.460113 0.967077 0.068896 -0.012996 -88789.400000 0 0 1
-4.714774 -32.929536 22.248568 40.019773 1.428585 0.981304 0.052903 -0.016263 739016.000000 0 0 1
-5.925674 -32.493716 22.873268 40.176381 1.390415 0.965116 0.053896 -0.009717 890096.000000 0 0 1
-7.098074 -32.146016 21.917868 39.549234 1.353476 0.983404 0.022001 -0.006868 135865.000000 0 0 1
-7.740974 -33.221126 21.335768 40.234076 1.341868 1.011853 0.004748 -0.001217 116844.000000 0 0 1
-8.890674 -32.782446 20.627168 39.739312 1.305964 1.025043 0.023262 -0.016818 -35575.100000 0 0 1
-10.138674 -33.640136 20.583368 40.720099 1.278068 1.040853 0.051547 -0.017980 -274451.000000 0 0 1
-10.866574 -33.660796 21.773968 41.535976 1.258532 1.018998 0.074250 -0.027995 -535782.000000 0 0 1
-12.091474 33.843736 21.674768 41.969010 -1.227656 1.028100 0.059211 -0.019640 -189858.000000 0 0 1
-12.531274 33.602202 23.146368 42.683664 -1.213842 0.997652 0.051181 -0.014200 -184556.000000 0 0 1
-12.836174 -33.515126 24.009068 43.179467 1.205034 0.981195 0.049488 -0.011821 -331849.000000 0 0 1
-11.722174 -32.796946 24.446268 42.551957 1.227530 0.958798 0.029012 -0.011264 -505011.000000 0 0 1
-12.052274 -31.414246 25.028768 41.935085 1.204458 0.931233 0.026906 -0.010555 249399.000000 0 0 1
-12.886574 -31.336766 26.201468 42.831923 1.180648 0.912554 0.030920 -0.004224 632337.000000 0 0 1
-13.290374 -29.963376 26.460168 42.125745 1.153316 0.891657 0.059944 -0.013806 -137625.000000 0 0 1
-13.973174 -29.801166 27.829068 43.102391 1.132353 0.868922 0.062323 -0.016921 173126.000000 0 0 1
-13.113874 -29.740726 28.989368 43.553047 1.155502 0.842485 0.044281 -0.007731 823298.000000 0 0 1
-13.906174 -29.498806 30.165568 44.424348 1.130277 0.824353 0.056794 -0.010433 304975.000000 0 0 1
-13.063774 -29.310916 31.443368 44.927468 1.151527 0.795581 0.045276 -0.009037 -480024.000000 0 0 1
-13.893174 -28.974516 32.506468 45.707913 1.123686 0.779624 0.049218 -0.012305 18772.900000 0 0 1
-13.280074 -28.692126 33.729568 46.230750 1.137310 0.753072 0.044859 -0.009999 -636681.000000 0 0 1
-12.633274 -29.832286 -33.695536 46.743492 1.170217 2.375839 0.040454 -0.004938 266998.000000 0 0 1
-11.301174 -30.080806 34.082268 46.841994 1.211417 0.755978 0.026305 -0.004932 76195.800000 0 0 1
-10.675374 -31.028116 -33.329236 46.771205 1.239428 2.363996 0.019677 -0.002928 -245486.000000 0 0 1
-9.197174 -31.312816 -33.668736 46.889916 1.285112 2.371775 0.026692 -0.012334 -272218.000000 0 0 1
-8.363674 -30.330326 -33.094336 45.663057 1.301730 2.381469 0.048361 -0.024035 -1475860.000000 0 0 1
-7.188274 -30.985466 -32.840636 45.719556 1.342840 2.372161 0.050468 -0.029893 -1618180.000000 0 0 1
-6.406374 -30.372136 -31.653436 44.333377 1.362914 2.365972 0.066360 -0.023418 6358.780000 0 0 1
-7.053374 -30.569326 -30.385236 43.674894 1.344031 2.340210 0.067096 -0.033203 -133423.000000 0 0 1
-6.420974 -29.928126 -29.315436 42.382974 1.359454 2.334608 0.059692 -0.021145 -195568.000000 0 0 1
-6.876674 -30.292146 -27.896236 41.750482 1.347568 2.302537 0.066131 -0.028850 -141218.000000 0 0 1
-6.394474 -31.457196 -27.337636 42.163857 1.370253 2.276233 0.054327 -0.019273 -217497.000000 0 0 1
-7.249874 -31.783386 -26.275636 41.870674 1.346531 2.249189 0.065598 -0.020610 258977.000000 0 0 1
-6.690974 -33.051406 -25.578936 42.325484 1.371054 2.219732 0.063848 -0.018922 317248.000000 0 0 1
-5.630174 -32.721046 -24.705336 41.385014 1.400399 2.210507 0.040866 -0.024408 -198850.000000 0 0 1
-5.289774 -33.867256 -23.943636 41.812324 1.415857 2.180525 0.048240 -0.031901 405873.000000 0 0 1
-4.279774 -33.634246 -22.746736 40.828825 1.444232 2.161715 0.070744 -0.045166 615810.000000 0 0 1
-4.866374 -32.996486 -21.601336 39.737481 1.424370 2.145518 0.074410 -0.037825 281906.000000 0 0 1
-5.092374 -31.599826 -21.747536 38.696726 1.411018 2.167597 0.053935 -0.029028 -77358.100000 0 0 1
-5.619174 -30.871526 -20.479536 37.470490 1.390749 2.149036 0.077356 -0.035283 -35811.400000 0 0 1
-7.014374 -30.970346 -20.223436 37.647724 1.348067 2.137881 0.084813 -0.049074 320919.000000 0 0 1
-7.593174 -29.781486 -19.752836 36.534473 1.321152 2.142021 0.081677 -0.040841 -62262.000000 0 0 1
-7.911274 -28.733216 -20.856336 36.375441 1.302118 2.181401 0.092385 -0.042293 149501.000000 0 0 1
-6.737274 -28.103306 -21.397536 35.958883 1.335504 2.208131 0.091995 -0.027988 415256.000000 0 0 1
-7.102574 -27.435976 -22.585536 36.239285 1.317479 2.243667 0.104088 -0.037790 -1063030.000000 0 0 1
-6.246474 -27.881916 -23.764136 37.163878 1.350402 2.264568 0.097662 -0.033860 628329.000000 0 0 1
-4.906774 -27.396256 -23.754536 36.591109 1.393572 2.277314 0.106262 -0.022589 820182.000000 0 0 1
-4.011874 -27.808876 -22.707536 36.125627 1.427519 2.250511 0.079255 -0.028812 -502908.000000 0 0 1
-2.544674 -27.307086 -22.862336 35.704884 1.477877 2.265703 0.088848 -0.030778 298725.000000 0 0 1
-2.287774 -25.921916 -23.079836 34.783020 1.482768 2.296334 0.094750 -0.031697 -8064.630000 0 0 1
-2.645174 -25.117806 -21.977336 33.479911 1.465872 2.286878 0.116498 -0.037417 -975912.000000 0 0 1
-2.519774 -23.621546 -22.337436 32.608093 1.464525 2.325438 0.118619 -0.028680 -234036.000000 0 0 1
-3.252274 -23.282346 -23.451136 33.205432 1.432006 2.354975 0.107726 -0.029328 -100032.000000 0 0 1
-4.658274 -23.302946 -23.263836 33.255569 1.373496 2.345560 0.097000 -0.023796 -228298.000000 0 0 1
-5.421274 -23.537346 -24.615836 34.486755 1.344418 2.365672 0.092266 -0.022809 268586.000000 0 0 1
-5.807574 -22.338246 -25.342436 34.277751 1.316444 2.402865 0.115359 -0.028208 83093.700000 0 0 1
-6.086974 -22.572246 -26.668036 35.464654 1.307396 2.421828 0.121695 -0.026389 155825.000000 0 0 1
-6.307174 -21.171446 -27.306436 35.123383 1.281259 2.461387 0.130472 -0.030605 95496.300000 0 0 1
-6.643674 -21.084446 -28.684636 36.214647 1.265546 2.484994 0.136025 -0.036306 503046.000000 0 0 1
-5.551274 -21.454646 -29.532036 36.922346 1.317605 2.497828 0.122560 -0.040008 -104292.000000 0 0 1
-5.867774 -21.523046 -31.039536 38.224666 1.304637 2.518417 0.127175 -0.044531 -59935.900000 0 0 1
-6.457774 -20.392846 -31.674536 38.221032 1.264118 2.547613 0.111089 -0.042808 315444.000000 0 0 1
-7.272774 -20.750246 -32.790136 39.479855 1.233684 2.550897 0.116088 -0.034668 33567.700000 0 0 1
-6.873574 -20.087046 -34.099036 40.168143 1.241097 2.584711 0.114774 -0.037514 1496.710000 0 0 1
-5.654974 -20.615846 33.657868 39.872847 1.303079 0.565856 0.106595 -0.030759 -365193.000000 0 0 1
-5.313274 -20.073446 32.360568 38.449713 1.312039 0.570495 0.116744 -0.023305 -43697.900000 0 0 1
-3.915774 -20.453546 31.865968 38.067318 1.381638 0.578845 0.075243 -0.032005 -1235290.000000 0 0 1
-3.894974 -21.826346 31.542168 38.554747 1.394202 0.612673 0.098488 -0.033445 1195290.000000 0 0 1
-2.703574 -22.227046 30.806568 38.084058 1.449756 0.628501 0.082092 -0.024885 1436330.000000 0 0 1
-1.277774 -22.026046 31.385668 38.364561 1.512849 0.612714 0.058505 -0.035476 -339355.000000 0 0 1
-0.710574 -20.747646 31.091168 37.384896 1.536561 0.588723 0.033601 -0.028862 134637.000000 0 0 1
0.240926 -20.159346 31.966368 37.792935 -1.558846 0.562679 0.049688 -0.032550 -116738.000000 0 0 1
-0.239974 -19.817646 33.409568 38.845796 1.558688 0.535417 0.050136 -0.034222 276498.000000 0 0 1
-1.303574 -18.837146 33.390568 38.359710 1.501704 0.514662 0.053655 -0.029082 514506.000000 0 0 1
-1.671774 -18.522746 -33.465936 38.286497 1.480785 2.634361 0.063868 -0.035209 -26850.300000 0 0 1
-2.725074 -17.403546 -33.346436 37.713317 1.415476 2.655593 0.059725 -0.036767 -20610.800000 0 0 1
-2.355274 -16.103146 -33.709536 37.432492 1.425564 2.691811 0.070935 -0.036882 867583.000000 0 0 1
-3.392374 -15.103646 -33.350636 36.768101 1.349857 2.707028 0.067249 -0.033833 1202880.000000 0 0 1
-2.996374 -13.619146 -33.632836 36.409162 1.354235 2.748546 0.051630 -0.029565 -592033.000000 0 0 1
-1.953174 -13.035846 -32.928136 35.468441 1.422072 2.760822 0.048593 -0.021214 -509142.000000 0 0 1
-1.779274 -11.649246 -33.192136 35.221991 1.419230 2.800440 0.036443 -0.016033 -59252.900000 0 0 1
-1.131874 -11.233346 33.669768 35.512286 1.470375 0.323540 0.030204 -0.017614 -553398.000000 0 0 1
-1.997274 -11.292546 32.554668 34.515461 1.395740 0.338690 0.036735 -0.024999 -29621.500000 0 0 1
-1.393774 -10.913946 31.324668 33.200777 1.443778 0.337782 0.047163 -0.022932 -5267.480000 0 0 1
-0.493874 -12.018746 30.723968 32.994793 1.529727 0.373170 0.034234 -0.024473 238360.000000 0 0 1
-1.272374 -13.042046 30.116868 32.844172 1.473545 0.410397 0.042354 -0.027846 48529.000000 0 0 1
-0.430174 -14.088846 29.727968 32.900345 1.540273 0.442752 0.029749 -0.024559 -225066.000000 0 0 1
-0.724374 -15.492846 30.310868 34.048520 1.524075 0.472956 0.037369 -0.025067 -382007.000000 0 0 1
-1.745774 -16.172646 29.656568 33.824757 1.463267 0.501690 0.052214 -0.024638 -225746.000000 0 0 1
-2.075774 -17.340846 30.435768 35.090593 1.451659 0.520947 0.057971 -0.022627 -157855.000000 0 0 1
-2.478774 -18.407746 29.477268 34.841050 1.436942 0.562265 0.053435 -0.014379 -488208.000000 0 0 1
-3.611674 -18.163446 28.696768 34.153469 1.374514 0.573089 0.065585 -0.016549 -310523.000000 0 0 1
-3.965974 -19.347046 27.996968 34.261747 1.368606 0.614348 0.073306 -0.019775 296762.000000 0 0 1
-4.810674 -18.988646 26.742468 33.149221 1.322672 0.632199 0.044525 -0.026492 -71018.200000 0 0 1
-5.413074 -20.056546 26.001868 33.281579 1.307186 0.674100 0.048891 -0.022251 -359179.000000 0 0 1
-4.510274 -20.990446 25.518268 33.348514 1.359142 0.699445 0.051615 -0.024258 -590349.000000 0 0 1
-29.548504 -33.532546 -0.627032 44.698310 0.848472 1.584825 0.050288 -0.035591 -144092.000000 0 0 1
-28.486374 -32.747846 -0.126932 43.404044 0.854879 1.573721 0.061924 -0.025482 -9642.650000 0 0 1
-28.923654 -31.958846 0.956468 43.114504 0.835210 1.548610 0.055863 -0.020618 -135173.000000 0 0 1
-28.043984 -30.728346 1.189868 41.618650 0.831040 1.542203 0.075804 -0.020518 76599.400000 0 0 1
-26.793514 -31.107846 1.735768 41.092619 0.859772 1.528543 0.082808 -0.024596 -579816.000000 0 0 1
-26.087164 -29.971946 2.088768 39.789705 0.854586 1.518277 0.086932 -0.019033 -116843.000000 0 0 1
-24.569374 -30.218546 2.242568 39.010816 0.888145 1.513279 0.061202 -0.011407 -19023.300000 0 0 1
-24.193574 -30.755446 3.489368 39.286157 0.904253 1.481860 0.063703 -0.006076 -52169.800000 0 0 1
-22.837974 -30.488146 3.778668 38.280262 0.927886 1.471925 0.059728 0.000421 -608036.000000 0 0 1
-22.545174 -30.983246 5.193868 38.668109 0.941749 1.436070 0.078256 0.000274 -305889.000000 0 0 1
-23.049174 -30.178846 6.255268 38.485784 0.918551 1.407538 0.077182 0.001194 -122818.000000 0 0 1
-22.710374 -30.585346 7.544568 38.834842 0.932097 1.375280 0.077740 -0.004782 -778864.000000 0 0 1
-23.416674 -29.839746 8.628468 38.899891 0.905425 1.347124 0.067382 -0.012253 -687746.000000 0 0 1
-22.907674 -28.570546 8.966168 37.701854 0.894963 1.330678 0.080922 -0.014739 -25206.900000 0 0 1
-23.543774 -27.977446 10.101468 37.935293 0.871242 1.301263 0.060833 -0.008527 105505.000000 0 0 1
-22.760474 -26.810546 10.764968 36.779465 0.866920 1.273758 0.068908 -0.021898 71150.700000 0 0 1
-21.521674 -27.192946 11.300068 36.473693 0.901295 1.255799 0.091831 -0.021678 -394465.000000 0 0 1
-20.892474 -26.214046 12.117768 35.644242 0.897890 1.223917 0.099844 -0.027828 524971.000000 0 0 1
-19.613674 -26.748346 12.848768 35.570508 0.938091 1.201221 0.103323 -0.029531 157047.000000 0 0 1
-19.794074 -27.823446 13.726268 36.801629 0.952449 1.188578 0.093403 -0.026070 30322.800000 0 0 1
-18.615174 -27.972146 14.524168 36.604878 0.983609 1.162788 0.107110 -0.029714 586204.000000 0 0 1
-18.620874 -29.236046 15.387768 37.924487 1.003675 1.153000 0.127756 -0.040191 19587.900000 0 0 1
-18.200574 -30.373146 14.692868 38.336265 1.030941 1.177470 0.124973 -0.033619 -114671.000000 0 0 1
-18.277974 -31.482546 15.589468 39.601345 1.044782 1.166187 0.127418 -0.029106 55528.200000 0 0 1
-17.669374 -32.832846 15.172268 40.254195 1.077088 1.184337 0.130700 -0.033300 -42491.400000 0 0 1
-17.942474 -33.809146 16.135768 41.537377 1.082892 1.171832 0.131229 -0.030948 195148.000000 0 0 1
-17.167774 33.202254 15.933068 40.632312 -1.093589 1.167853 0.116379 -0.033989 -428410.000000 0 0 1
-17.507474 32.100154 16.947068 40.300554 -1.071490 1.136781 0.108251 -0.037969 66463.600000 0 0 1
-18.712974 31.404554 16.611168 40.154107 -1.033420 1.144298 0.115875 -0.033958 620114.000000 0 0 1
-18.949774 30.288654 17.511068 39.788616 -1.011737 1.115084 0.085537 -0.023155 -247153.000000 0 0 1
-19.705174 30.677954 18.771868 41.009922 -0.999836 1.095345 0.074541 -0.019607 -942455.000000 0 0 1
-18.996974 31.486854 19.647168 41.693143 -1.027932 1.080109 0.082707 -0.013629 -358140.000000 0 0 1
-19.728974 31.819554 20.804468 42.831557 -1.015781 1.063601 0.072729 -0.014221 -341953.000000 0 0 1
-19.118174 32.984054 21.611668 43.823699 -1.045498 1.055089 0.066957 -0.007980 398504.000000 0 0 1
-17.883974 32.730654 22.268168 43.439654 -1.070723 1.032559 0.044769 -0.005625 38620.700000 0 0 1
-17.585674 33.644854 23.328268 44.558278 -1.089166 1.019790 0.046559 -0.009303 148207.000000 0 0 1
-18.262074 33.300354 24.700768 45.305020 -1.069179 0.994156 0.031436 -0.016182 -462872.000000 0 0 1
-19.652474 33.411654 24.652568 45.938083 -1.039104 1.004337 0.018254 -0.015520 -539368.000000 0 0 1
-20.228274 32.462554 25.582068 46.015678 -1.013545 0.981300 0.013273 -0.006358 -469813.000000 0 0 1
-21.747474 32.419154 25.487368 46.621455 -0.979923 0.992393 0.052946 -0.016112 -658448.000000 0 0 1
-22.060474 31.763054 24.250368 45.646867 -0.963749 1.010709 0.032746 -0.006879 162866.000000 0 0 1
-23.429374 31.800654 23.888168 46.161258 -0.935824 1.026877 0.005463 -0.007952 76827.100000 0 0 1
-23.606674 31.349554 22.440868 45.206881 -0.925369 1.051345 -0.006472 -0.007991 -178916.000000 0 0 1
-23.311974 32.375154 21.546968 45.341708 -0.946735 1.075590 -0.006632 -0.009888 111316.000000 0 0 1
-23.463474 31.955254 20.195868 44.492088 -0.937445 1.099636 -0.017790 -0.007768 -219972.000000 0 0 1
-23.273074 33.011154 19.123368 44.688650 -0.956718 1.128601 0.016586 -0.012913 -115430.000000 0 0 1
-21.931274 33.436754 19.182968 44.350688 -0.990282 1.123500 0.053751 -0.013378 -166759.000000 0 0 1
-21.721074 -33.849946 18.078568 44.096015 1.000287 1.148362 0.075791 -0.009773 -1242640.000000 0 0 1
-20.464374 -33.094146 18.201768 42.957158 1.016980 1.133249 0.077248 -0.016216 -1413880.000000 0 0 1
-20.583774 -32.292546 19.320768 42.892800 1.003319 1.103535 0.079899 -0.031553 843738.000000 0 0 1
-19.323274 -31.710446 19.655668 42.015313 1.023518 1.083972 0.082156 -0.034654 459830.000000 0 0 1
-19.489574 -30.818146 20.886468 42.021972 1.006889 1.050616 0.080711 -0.032694 110194.000000 0 0 1
-20.240574 -29.645746 20.600168 41.387413 0.971743 1.049805 0.105624 -0.038714 405551.000000 0 0 1
-20.398274 -28.930546 21.813168 41.579807 0.956671 1.018540 0.103550 -0.032088 -243695.000000 0 0 1
-21.130774 -27.579246 21.690768 40.958684 0.917018 1.012695 0.076157 -0.031783 -420890.000000 0 0 1
-20.477874 -26.592946 20.882568 39.529859 0.914587 1.014231 0.074170 -0.032358 317537.000000 0 0 1
-21.159374 -25.367046 20.781268 39.026494 0.875589 1.009255 0.057959 -0.016990 -262455.000000 0 0 1
-22.340274 -25.258446 19.804468 39.106187 0.846629 1.039759 0.060337 -0.010763 1023390.000000 0 0 1
-23.658974 -25.762846 20.151968 40.367971 0.827942 1.048113 0.054303 -0.010035 1416760.000000 0 0 1
-24.436374 -25.767046 18.970268 40.261000 0.811898 1.080166 0.053343 -0.010137 121265.000000 0 0 1
-25.987454 -25.727046 19.157368 41.282362 0.780363 1.088227 0.036670 -0.006402 597304.000000 0 0 1
-26.601054 -26.892546 19.633068 42.617865 0.790847 1.092039 0.021298 -0.006257 -141257.000000 0 0 1
-26.761564 -27.867146 18.564968 42.865104 0.805634 1.122865 0.025417 -0.011177 -284375.000000 0 0 1
-27.931754 -28.856446 18.789568 44.338755 0.801680 1.133190 0.035905 -0.015845 401716.000000 0 0 1
-29.224304 -28.279446 18.831768 44.815427 0.768968 1.137123 -0.002000 -0.015638 351490.000000 0 0 1
-30.217724 -29.085546 18.170668 45.708347 0.766309 1.161967 0.014631 -0.009273 1722750.000000 0 0 1
-31.670914 -28.425446 18.324968 46.334190 0.731446 1.164189 0.025459 -0.010949 1371430.000000 0 0 1
-31.819644 -27.162646 17.721268 45.435035 0.706606 1.170126 0.035669 -0.001766 -269029.000000 0 0 1
-33.136754 -26.724946 17.915968 46.187110 0.678695 1.172445 0.045137 0.009928 -608149.000000 0 0 1
-33.604424 -25.502646 17.107168 45.522494 0.649178 1.185541 0.042999 -0.003418 -273310.000000 0 0 1
-33.663244 -25.740646 15.733968 45.203458 0.652812 1.215285 0.057846 -0.013351 10511.800000 0 0 1
-34.106273 -24.570346 15.049968 44.647971 0.624290 1.226982 0.043334 -0.014719 619825.000000 0 0 1
-33.038344 -23.433146 14.701668 43.090411 0.616921 1.222622 0.027201 -0.007272 820095.000000 0 0 1
-32.373204 -22.734146 15.766968 42.584774 0.612236 1.191519 0.021585 0.000617 247621.000000 0 0 1
-32.060294 -21.405246 15.558168 41.570465 0.588687 1.187198 0.015855 -0.003449 -141967.000000 0 0 1
-33.131024 -20.419346 16.088268 42.112312 0.552334 1.178802 0.023404 -0.016329 120063.000000 0 0 1
-33.067694 -20.271146 17.455068 42.533177 0.549938 1.147918 0.021137 -0.005067 250855.000000 0 0 1
-33.971094 -19.226346 17.791168 42.897707 0.515015 1.143145 0.024250 -0.006355 141616.000000 0 0 1
-34.411566 -19.076746 19.261268 43.807243 0.506192 1.115551 0.021947 -0.007187 -91861.200000 0 0 1
-35.483333 -19.927746 19.632468 45.184242 0.511712 1.121315 0.029107 -0.004614 118429.000000 0 0 1
-35.839656 -19.565346 20.935468 45.886572 0.499700 1.097027 0.028730 0.002096 152574.000000 0 0 1
35.813990 -19.872546 21.367068 46.196445 -0.506584 1.089954 0.050403 -0.000560 764586.000000 0 0 1
35.331550 -21.169646 21.633768 46.524104 -0.539810 1.087160 0.073556 -0.012548 474950.000000 0 0 1
36.141620 -21.817346 22.658568 47.912670 -0.543108 1.078201 0.056614 -0.003115 180986.000000 0 0 1
35.594390 -23.199646 23.147768 48.383916 -0.577624 1.071943 0.061143 -0.001551 619851.000000 0 0 1
34.482480 -22.979146 24.043768 47.908092 -0.587818 1.045034 0.076736 -0.021210 655606.000000 0 0 1
34.138820 -24.148446 24.755568 48.594697 -0.615649 1.036275 0.076592 -0.037576 206183.000000 0 0 1
33.026120 -23.910146 25.842868 48.272906 -0.626637 1.005875 0.082697 -0.039908 469770.000000 0 0 1
31.721200 -24.076146 25.326868 47.194762 -0.649231 1.004339 0.085380 -0.035696 209272.000000 0 0 1
30.858700 -24.210346 26.479368 47.323959 -0.665252 0.976973 0.059394 -0.034464 619787.000000 0 0 1
29.418160 -24.757046 26.258668 46.560252 -0.699572 0.971609 0.048310 -0.029238 477187.000000 0 0 1
28.582650 -23.878846 25.508468 45.142542 -0.695975 0.970284 0.051789 -0.019364 215369.000000 0 0 1
27.362580 -24.556946 25.190668 44.568196 -0.731413 0.970101 0.035808 -0.008963 186004.000000 0 0 1
26.260680 -23.596446 24.738968 43.109536 -0.732012 0.959581 0.033316 -0.007154 -542391.000000 0 0 1
26.375080 -22.946346 23.446268 42.094027 -0.715992 0.980030 0.036896 -0.003665 118946.000000 0 0 1
27.485080 -22.062146 23.372268 42.289843 -0.676382 0.985233 0.047178 0.002388 210765.000000 0 0 1
27.412280 -21.346846 22.032868 41.140833 -0.661638 1.005640 0.050957 -0.005351 216331.000000 0 0 1
26.553880 -20.223946 22.026068 39.990801 -0.650896 0.987500 0.057419 -0.006178 -24815.200000 0 0 1
26.533580 -19.627946 20.726668 38.972835 -0.636902 1.010044 0.046006 -0.008808 319651.000000 0 0 1
25.593080 -18.374946 20.527168 37.603311 -0.622682 0.993349 0.046999 -0.000294 138863.000000 0 0 1
25.959780 -17.200446 21.183768 37.663212 -0.585168 0.973447 0.052328 -0.014836 -84816.000000 0 0 1
25.909080 -17.268546 22.615568 38.483074 -0.587891 0.942613 0.053774 -0.011725 -217024.000000 0 0 1
25.871280 -15.881346 23.283368 38.257751 -0.550548 0.916511 0.068816 -0.006355 74942.200000 0 0 1
24.662680 -15.183546 23.044468 37.011287 -0.551846 0.898693 0.031651 -0.003024 -95463.700000 0 0 1
24.727480 -13.925546 23.687768 36.965922 -0.512891 0.875256 0.029917 0.002062 840885.000000 0 0 1
23.339880 -13.238046 23.488268 35.660827 -0.515942 0.851763 0.011117 0.001017 2240640.000000 0 0 1
22.174980 -13.757146 24.218868 35.602561 -0.555278 0.822684 0.027904 -0.002514 989140.000000 0 0 1
20.955480 -13.098346 24.016968 34.460318 -0.558639 0.799667 0.037140 0.000662 140567.000000 0 0 1
19.788880 -13.984346 24.541468 34.488336 -0.615193 0.779041 0.051373 -0.000997 -144768.000000 0 0 1
19.544180 -15.026946 23.693268 34.192909 -0.655469 0.805252 0.056859 -0.007336 -399333.000000 0 0 1
18.660080 -15.890946 24.348868 34.548344 -0.705423 0.788688 0.050915 0.007617 -38645.400000 0 0 1
18.040180 -17.035846 23.468268 34.153005 -0.756773 0.813236 0.060805 -0.007029 385986.000000 0 0 1
18.882880 -18.182346 23.287168 35.063557 -0.766500 0.844451 0.047263 -0.008532 497212.000000 0 0 1
18.287780 -19.022346 22.339768 34.573946 -0.805084 0.868274 0.064028 -0.011156 87986.800000 0 0 1
18.618480 -20.451746 22.745968 35.809227 -0.832286 0.882531 0.052670 -0.007715 -363443.000000 0 0 1
17.850580 -20.829446 23.874068 36.365920 -0.862259 0.854633 0.061121 -0.015488 229770.000000 0 0 1
18.055180 -22.141946 24.420368 37.584700 -0.886718 0.863551 0.074806 -0.021513 -470107.000000 0 0 1
17.792880 -23.397746 23.587668 37.688448 -0.920639 0.894563 0.066954 -0.023665 121450.000000 0 0 1
18.534380 -23.477646 22.383868 37.359880 -0.902523 0.928367 0.057989 -0.016352 -1200330.000000 0 0 1
19.793380 -23.990846 22.505568 38.390613 -0.880973 0.944404 0.052658 -0.014930 -1280050.000000 0 0 1
20.548580 -24.152346 21.148468 38.116107 -0.865844 0.982622 0.035024 -0.005206 -206421.000000 0 0 1
19.998880 -25.153346 20.324768 38.022917 -0.899064 1.006833 0.027251 -0.009733 -109571.000000 0 0 1
20.875080 -25.560146 19.314668 38.238023 -0.885953 1.041279 0.030484 -0.001018 -180905.000000 0 0 1
20.172780 -26.166946 18.089468 37.668010 -0.914037 1.069875 0.022083 -0.009251 137166.000000 0 0 1
19.559880 -27.409446 18.459268 38.400666 -0.950989 1.069342 0.040284 -0.019596 -384541.000000 0 0 1
18.800580 -27.977346 17.453068 37.957914 -0.979115 1.093026 0.044372 -0.024471 -26645.100000 0 0 1
17.941880 -29.208846 17.941668 38.690712 -1.019956 1.088607 0.049019 -0.022668 -207290.000000 0 0 1
16.870080 -28.788546 18.707868 38.253945 -1.040735 1.059803 0.073155 -0.030161 -723381.000000 0 0 1
16.247380 -29.846546 19.383068 39.121566 -1.072291 1.052435 0.084809 -0.038506 -967895.000000 0 0 1
15.066380 -29.390946 20.180568 38.705023 -1.097104 1.022313 0.078993 -0.033463 -418102.000000 0 0 1
14.063080 -28.725846 19.396468 37.405446 -1.115534 1.025646 0.076737 -0.022664 -200095.000000 0 0 1
12.810480 -28.809146 20.002468 37.338639 -1.152386 1.005455 0.050802 -0.020105 7757.140000 0 0 1
11.684380 -28.058146 19.227568 35.965034 -1.176203 1.006740 0.046977 -0.017437 56410.200000 0 0 1
11.571780 -28.622846 17.974968 35.724961 -1.186602 1.043558 0.038061 -0.014384 -77657.200000 0 0 1
10.663780 -27.908346 17.179868 34.463601 -1.205816 1.048937 0.057518 -0.009243 -84823.000000 0 0 1
10.427480 -28.666046 15.821568 34.362720 -1.221919 1.092319 0.061105 -0.014432 -278146.000000 0 0 1
9.524080 -29.710246 15.904968 35.019634 -1.260580 1.099353 0.064996 -0.009848 -493026.000000 0 0 1
9.774280 -30.582446 14.829568 35.365783 -1.261452 1.138101 0.055362 -0.006853 -589854.000000 0 0 1
8.712580 -31.561546 14.408868 35.772275 -1.301454 1.156229 0.053123 -0.003446 -729166.000000 0 0 1
8.477680 -32.652246 15.227168 37.012253 -1.316770 1.146797 0.057819 -0.009120 114486.000000 0 0 1
7.626780 -33.690346 14.712068 37.545334 -1.348170 1.168157 0.028675 -0.011092 150675.000000 0 0 1
7.403180 33.325454 15.713068 37.580493 1.352198 1.139424 0.063118 -0.012021 -60187.100000 0 0 1
8.577980 32.635554 16.048568 37.365996 1.313768 1.126861 0.074307 -0.015675 -426942.000000 0 0 1
8.339980 31.567354 16.931768 36.779585 1.312502 1.092398 0.087133 -0.024925 460960.000000 0 0 1
9.661880 30.813054 17.298368 36.633724 1.266942 1.079014 0.086921 -0.028070 623621.000000 0 0 1
10.231280 30.178554 16.145168 35.722411 1.243932 1.101833 0.093928 -0.030771 -466513.000000 0 0 1
11.379980 29.435954 16.434168 35.581753 1.201894 1.090693 0.086293 -0.030583 -574978.000000 0 0 1
12.133780 28.942054 15.229968 34.882990 1.173811 1.118979 0.070128 -0.024056 -36453.900000 0 0 1
11.528380 27.835654 14.529668 33.449042 1.178144 1.121444 0.073146 -0.026982 1158540.000000 0 0 1
12.572980 27.276554 13.693768 33.009233 1.138878 1.143022 0.075321 -0.016045 678205.000000 0 0 1
-9.555174 -9.494646 19.408471 23.624953 0.782221 0.606717 0.033939 -0.014184 -141193.000000 0 1 0
-9.658274 -9.572146 17.994071 22.554264 0.780919 0.647138 0.027430 -0.018184 34028.100000 0 1 0
-9.446774 -10.948046 17.561771 22.749001 0.858876 0.688846 0.031574 -0.022464 -162855.000000 0 1 0
-9.797474 -11.139846 16.055771 21.860340 0.849424 0.745910 0.035347 -0.023609 -380107.000000 0 1 0
-11.160874 -11.125546 15.736471 22.270595 0.783813 0.786110 0.027805 -0.021937 -306829.000000 0 1 0
-11.488574 -11.351146 14.363871 21.613807 0.779381 0.843879 0.033852 -0.029948 7909.770000 0 1 0
-11.383274 -12.828146 13.849071 22.043980 0.845005 0.891498 0.023850 -0.035902 210987.000000 0 1 0
-10.052974 -13.347046 13.798071 21.670088 0.925251 0.880542 0.021478 -0.028537 502976.000000 0 1 0
-10.143074 -14.755946 13.726571 22.561885 0.968584 0.916758 0.041866 -0.031218 -354781.000000 0 1 0
-10.055074 -15.441246 15.122771 23.837676 0.993590 0.883556 0.061301 -0.038716 29245.700000 0 1 0
-11.142674 -15.228346 15.982871 24.728807 0.939106 0.868037 0.055501 -0.029985 -159694.000000 0 1 0
-10.667374 -15.393846 17.294371 25.492325 0.964808 0.825194 0.073077 -0.033717 3192.820000 0 0 1
-11.632574 -14.848746 18.384771 26.340119 0.906257 0.798229 0.051610 -0.030943 -570124.000000 0 0 1
-11.740174 -13.489246 18.365971 25.633969 0.854614 0.772067 0.048534 -0.030001 669423.000000 0 0 1
-12.932074 -13.114246 17.655471 25.513480 0.792392 0.806533 0.049661 -0.037574 1134500.000000 0 0 1
-14.284974 -13.159446 18.465871 26.799625 0.744410 0.810640 0.033486 -0.026576 86955.800000 0 0 1
-14.804874 -14.434546 18.711671 27.886682 0.772733 0.835254 0.050242 -0.025948 142897.000000 0 0 1
-15.816874 -14.268346 19.725971 29.032278 0.733972 0.823784 0.058377 -0.019746 211444.000000 0 0 1
-16.478074 -15.573546 20.129871 30.319531 0.757185 0.844742 0.069259 -0.011225 -381028.000000 0 0 1
-17.559474 -15.966746 19.326471 30.606937 0.737927 0.887386 0.063023 -0.013163 -185836.000000 0 0 1
-17.898074 -17.339346 19.588471 31.697038 0.769543 0.904612 0.062799 -0.020970 109091.000000 0 0 1
-19.224174 -17.828346 18.950971 32.350550 0.747744 0.944929 0.069905 -0.013930 26023.900000 0 0 1
-19.144174 -18.229946 17.567071 31.740075 0.760942 0.984276 0.074229 -0.016226 95750.900000 0 0 1
-19.148874 -17.128046 16.670871 30.626252 0.729750 0.995203 0.073430 -0.007283 -389250.000000 0 0 1
-18.924674 -17.443946 15.208371 29.895302 0.744706 1.037098 0.076588 -0.022479 158071.000000 0 0 1
-19.922774 -18.296246 14.636671 30.755515 0.742866 1.074805 0.078296 -0.023277 377171.000000 0 0 1
-19.714374 -18.321046 13.241671 29.994318 0.748782 1.113557 0.094647 -0.021529 17601.700000 0 0 1
-19.987874 -19.798146 12.711171 30.871598 0.780629 1.146430 0.089164 -0.024483 636446.000000 0 0 1
-19.019474 -20.766046 13.191971 31.096578 0.829270 1.132690 0.090587 -0.024918 631656.000000 0 0 1
-19.044374 -21.918246 12.368971 31.560880 0.855442 1.168091 0.082942 -0.018895 -186808.000000 0 0 1
-18.213474 -23.000646 13.092971 32.127656 0.901034 1.151049 0.087233 -0.028537 -68635.300000 0 0 1
-18.187774 -24.211146 12.364371 32.708598 0.926518 1.183144 0.106670 -0.039848 479603.000000 0 0 1
-17.210074 -24.259946 11.279371 31.811254 0.953788 1.208340 0.102680 -0.033559 299020.000000 0 0 1
-17.505274 -25.356076 10.236071 32.467559 0.966557 1.250054 0.113854 -0.023593 -549570.000000 0 0 1
-18.780174 -25.232186 9.702671 32.916561 0.930957 1.271586 0.104620 -0.014731 -908869.000000 0 0 1
-19.023974 -26.250996 8.740971 33.577239 0.943688 1.307438 0.105154 -0.012843 320587.000000 0 0 1
-20.281574 -26.012646 7.867171 33.910063 0.908568 1.336662 0.096638 -0.011662 6808.670000 0 0 1
-20.250974 -24.903146 7.026871 32.857960 0.888065 1.355276 0.095929 -0.021336 141211.000000 0 0 1
-21.286474 -24.747246 6.052871 33.199058 0.860436 1.387450 0.086485 -0.020139 202637.000000 0 0 1
-21.051174 -23.493346 5.167671 31.965514 0.840169 1.408420 0.083742 -0.016517 447709.000000 0 0 1
-22.019274 -23.396446 4.097771 32.388792 0.815713 1.443938 0.066138 -0.010012 466341.000000 0 0 1
-21.806274 -22.307646 3.241571 31.363234 0.796763 1.467256 0.069801 -0.010136 147709.000000 0 0 1
-22.456874 -22.536546 1.848971 31.868885 0.787169 1.512746 0.047273 -0.008799 39103.200000 0 0 1
-21.817674 -23.539546 1.086871 32.113898 0.823342 1.536946 0.038333 -0.012688 58220.500000 0 0 1
-22.222174 -23.369046 -0.309729 32.249547 0.810548 1.580401 0.040660 0.002137 -156411.000000 0 0 1
-21.478074 -24.178546 -1.378429 32.369891 0.844477 1.613393 0.042673 -0.001638 96901.200000 0 0 1
-20.071974 -23.973246 -1.334629 31.295078 0.873742 1.613456 0.050554 -0.008084 444131.000000 0 0 1
-19.260974 -24.396646 -2.441229 31.179177 0.902495 1.649173 0.059907 -0.005838 440367.000000 0 0 1
-19.067874 -25.899946 -2.809429 32.284422 0.936178 1.657928 0.065707 -0.002666 -303048.000000 0 0 1
-20.100874 -26.550296 -3.525629 33.487213 0.922775 1.676275 0.065622 -0.001209 -332224.000000 0 0 1
-19.732474 -27.865246 -3.943029 34.371354 0.954629 1.685768 0.066434 -0.003358 202986.000000 0 0 1
-20.900774 -28.687696 -4.582629 35.788640 0.941157 1.699196 0.067221 -0.007236 548808.000000 0 0 1
-21.433174 -28.171196 -5.810329 35.871398 0.920407 1.733490 0.064146 -0.002047 -282834.000000 0 0 1
-22.263974 -29.050036 -6.487429 37.170901 0.916881 1.746225 0.078742 -0.023052 -444964.000000 0 0 1
-22.688074 -28.381716 -7.808929 37.165170 0.896427 1.782488 0.057448 -0.000314 -51391.800000 0 0 1
-21.626474 -28.164266 -8.706629 36.561396 0.915957 1.811244 0.073289 -0.002255 393338.000000 0 0 1
-22.180974 -27.957166 -10.025729 37.069044 0.900098 1.844668 0.068878 0.000940 443278.000000 0 0 1
-22.864974 -26.582796 -10.296429 36.544063 0.860444 1.856418 0.049367 0.008338 -89499.500000 0 0 1
-21.970674 -25.489416 -10.360829 35.210334 0.859404 1.869473 0.038530 0.005125 156260.000000 0 0 1
-21.906674 -24.683846 -9.195929 34.260177 0.844936 1.842543 0.038898 0.011191 -7945.900000 0 0 1
-21.567974 -23.193546 -9.458529 33.054226 0.821698 1.861005 0.022716 -0.000253 341404.000000 0 0 1
-22.658874 -22.464846 -10.022829 33.444745 0.781098 1.875157 0.027998 0.001934 407372.000000 0 0 1
-22.373474 -21.062446 -10.191729 32.373914 0.755224 1.891056 0.042484 -0.005538 791460.000000 0 0 1
-23.714274 -20.271246 -10.409429 32.888394 0.707281 1.892842 0.062927 -0.004626 590682.000000 0 0 1
-24.412974 -20.609146 -11.655029 34.008380 0.701110 1.920597 0.059788 -0.003422 1863670.000000 0 0 1
-25.730674 -19.991846 -11.780629 34.648589 0.660537 1.917717 0.060786 -0.006266 1277570.000000 0 0 1
-25.667994 -18.454846 -12.020529 33.821892 0.623353 1.934146 0.065537 -0.022772 -909905.000000 0 0 1
-24.964274 -18.043746 -13.198329 33.511008 0.625853 1.975613 0.080607 -0.019023 589846.000000 0 0 1
-24.568474 -16.684946 -13.183229 32.492997 0.596575 1.988568 0.078759 -0.028699 310182.000000 0 0 1
-23.564374 -16.133846 -12.098029 31.015206 0.600364 1.971501 0.062270 -0.025011 -401453.000000 0 0 1
-24.153774 -16.060546 -10.852429 30.969681 0.586799 1.928817 0.090949 -0.031646 523077.000000 0 0 1
-23.196774 -16.062246 -9.790129 29.865242 0.605630 1.904781 0.071327 -0.031441 607889.000000 0 0 1
-23.993074 -16.492346 -8.491929 30.327841 0.602205 1.854595 0.062361 -0.037288 576270.000000 0 0 1
-24.363574 -17.844146 -8.516429 31.377171 0.632149 1.845666 0.064347 -0.026673 -252304.000000 0 0 1
-25.358954 -18.107046 -7.581729 32.069055 0.620080 1.809475 0.068281 -0.027942 -185503.000000 0 0 1
-25.462504 -19.571346 -7.164029 32.904407 0.655321 1.790277 0.069691 -0.014192 30210.200000 0 0 1
-25.883084 -20.453246 -8.184029 33.988934 0.668747 1.813971 0.057434 -0.018875 -25640.000000 0 0 1
-26.014834 -21.747646 -7.631729 34.755935 0.696293 1.792181 0.075231 -0.004944 135077.000000 0 0 1
-26.124224 -22.926346 -8.602329 35.806319 0.720295 1.813416 0.055087 0.003577 257683.000000 0 0 1
-26.337644 -24.190946 -7.932329 36.630523 0.742939 1.789075 0.054426 0.005959 -117601.000000 0 0 1
-25.839154 -25.283436 -8.706129 37.184818 0.774528 1.807121 0.045455 0.010999 -175763.000000 0 0 1
-26.415624 -26.625496 -8.245829 38.401770 0.789355 1.787207 0.047017 0.000701 -120371.000000 0 0 1
-26.020144 -27.057436 -7.004629 38.186615 0.804939 1.755272 0.060175 -0.013668 72341.300000 0 0 1
-26.634244 -28.313086 -6.753729 39.454108 0.815942 1.742823 0.069561 -0.016399 3201.520000 0 0 1
-26.316694 -28.879356 -5.342229 39.435073 0.831793 1.706683 0.082169 -0.024444 -474028.000000 0 0 1
-27.109944 -28.428796 -4.268229 39.514090 0.809140 1.679025 0.061454 -0.023360 -199210.000000 0 0 1
-26.887474 -28.989656 -3.006029 39.653154 0.823002 1.646677 0.049454 -0.007869 -411310.000000 0 0 1
-27.205654 -30.450346 -2.824629 40.931036 0.841616 1.639861 0.048670 0.002638 -408783.000000 0 0 1
-26.415374 -31.390626 -3.539629 41.178543 0.871255 1.656861 0.077848 -0.021595 58179.600000 0 0 1
-26.167014 -32.645886 -2.866029 41.936626 0.895116 1.639192 0.074198 -0.029996 -113205.000000 0 0 1
-25.195294 -32.574516 -1.684429 41.215765 0.912445 1.611676 0.080440 -0.028394 -318907.000000 0 0 1
-23.902974 -32.074046 -1.950229 40.048720 0.930346 1.619512 0.082593 -0.036900 153361.000000 0 0 1
-23.095074 -32.152956 -0.778529 39.595469 0.947902 1.590460 0.087387 -0.027314 520497.000000 0 0 1
-21.944474 -31.125236 -0.553229 38.087351 0.956697 1.585322 0.081868 -0.022414 222661.000000 0 0 1
-22.283474 -29.767626 -0.305229 37.185454 0.928204 1.579005 0.070570 -0.014927 -250874.000000 0 0 1
-22.839174 -29.034796 -1.418629 36.968362 0.904271 1.609180 0.072676 -0.011548 194209.000000 0 0 1
-23.518074 -27.704136 -0.977329 36.353461 0.866941 1.597684 0.043271 -0.008894 -79621.100000 0 0 1
-24.805674 -27.899216 -0.448529 37.334822 0.844026 1.582810 0.057397 -0.014430 307498.000000 0 0 1
-25.674604 -26.776026 -0.234829 37.097116 0.806394 1.577126 0.058704 -0.011396 498114.000000 0 0 1
-25.106004 -25.842306 0.866471 36.040075 0.799849 1.546752 0.050996 -0.008453 -201074.000000 0 0 1
-25.061954 -26.456956 2.159271 36.506637 0.812469 1.511614 0.047167 -0.011811 -368150.000000 0 0 1
-24.460774 -25.665906 3.152771 35.595058 0.809435 1.482107 0.055150 -0.011385 -293466.000000 0 0 1
-25.182274 -24.478146 3.779971 35.321590 0.771220 1.463575 0.062210 -0.018908 -369504.000000 0 0 1
-25.514284 -23.448846 2.895171 34.773684 0.743240 1.487442 0.055213 -0.016032 -182202.000000 0 0 1
-26.441344 -22.548646 3.461871 34.922352 0.706106 1.471503 0.053541 -0.011757 -80237.800000 0 0 1
-26.443874 -21.305146 2.555871 34.054665 0.678191 1.495674 0.056744 -0.008226 519287.000000 0 0 1
-25.368274 -20.400646 2.805471 32.674246 0.677284 1.484829 0.033622 -0.008003 284041.000000 0 0 1
-25.393784 -19.443546 1.746271 32.030380 0.653462 1.516250 0.026101 -0.002796 1399700.000000 0 0 1
-24.119374 -18.436346 1.786271 30.411081 0.652640 1.512025 0.053229 -0.002415 1690590.000000 0 0 1
-22.929874 -19.162246 1.479471 29.919219 0.696127 1.521327 0.060659 -0.005523 -721266.000000 0 0 1
-21.818474 -18.368046 1.681871 28.570258 0.699748 1.511894 0.072875 -0.001788 -175356.000000 0 0 1
-20.510074 -19.161346 1.334371 28.099838 0.751414 1.523292 0.071126 -0.006263 194045.000000 0 0 1
-20.305374 -19.372446 -0.058129 28.064270 0.761890 1.572868 0.046978 -0.006472 -36237.600000 0 0 1
-19.411174 -20.418946 -0.359629 28.175457 0.810695 1.583561 0.083657 -0.007296 -45618.400000 0 0 1
-19.135474 -20.757946 -1.803529 28.289776 0.826046 1.634592 0.089483 -0.008287 144888.000000 0 0 1
-18.396874 -19.790446 -2.550929 27.140633 0.821875 1.664925 0.085758 -0.011800 196789.000000 0 0 1
-18.208874 -20.244046 -3.873229 27.502480 0.838275 1.712098 0.075629 -0.011487 48786.000000 0 0 1
-17.372474 -19.268646 -4.768229 26.378392 0.837102 1.752558 0.082964 -0.008429 955165.000000 0 0 1
-15.982674 -19.324846 -4.412629 25.463049 0.879776 1.744971 0.107797 -0.012356 945392.000000 0 0 1
-15.223674 -18.300846 -5.093129 24.343812 0.876930 1.781570 0.104036 -0.017700 390.448000 0 1 0
-13.707874 -18.282746 -4.861229 23.362281 0.927442 1.780408 0.118403 -0.024799 -664184.000000 0 1 0
-13.075474 -19.410746 -5.272229 23.990446 0.977995 1.792369 0.100838 -0.027134 -329964.000000 0 1 0
-11.849274 -19.042046 -5.877129 23.185027 1.014163 1.827081 0.092369 -0.032249 -160491.000000 0 1 0
-10.795974 -20.148846 -6.005129 23.634522 1.078912 1.827696 0.083510 -0.037355 -89984.900000 0 1 0
-11.088474 -21.251446 -6.855729 24.931491 1.089881 1.849368 0.074038 -0.032515 -353209.000000 0 1 0
-9.946374 -22.036646 -7.131429 25.207170 1.146815 1.857626 0.080215 -0.031086 286708.000000 0 0 1
-10.323474 -23.237846 -8.030429 26.665697 1.152732 1.876697 0.065582 -0.019415 67095.400000 0 0 1
-10.628674 -22.811446 -9.339929 26.843343 1.134769 1.926171 0.068670 -0.020208 -187765.000000 0 0 1
-10.578974 -23.916946 -10.239129 28.085134 1.154346 1.943972 0.075645 -0.017937 89379.600000 0 0 1
-11.410374 -23.686446 -11.521429 28.705186 1.121875 1.983810 0.094031 -0.029145 124819.000000 0 0 1
-10.847674 -22.633146 -12.284429 27.943488 1.123860 2.025968 0.090492 -0.027606 667165.000000 0 0 1
-11.898474 -22.061946 -13.089329 28.277795 1.076189 2.052042 0.091493 -0.037567 287350.000000 0 0 1
-11.538074 -20.805246 -13.904029 27.555534 1.064447 2.099694 0.074863 -0.024954 -458182.000000 0 0 1
-11.079074 -19.721246 -13.144829 26.162186 1.058951 2.097210 0.086119 -0.038333 48934.900000 0 0 1
-10.588874 -18.631646 -13.926129 25.557769 1.053991 2.147052 0.083812 -0.022752 223206.000000 0 0 1
-10.078674 -17.425846 -13.007229 23.967223 1.046429 2.144455 0.092325 -0.030642 847712.000000 0 1 0
-11.174274 -16.763246 -12.323429 23.616471 0.982844 2.119774 0.096393 -0.040382 1043810.000000 0 1 0
-10.690574 -15.668146 -11.550829 22.208125 0.972040 2.117785 0.090390 -0.037475 168956.000000 0 1 0
-10.428274 -14.365446 -12.392429 21.649186 0.942880 2.180251 0.088375 -0.024135 709025.000000 0 1 0
-11.648374 -13.771446 -12.863629 22.154239 0.868725 2.190310 0.083656 -0.018623 611468.000000 0 1 0
-11.802374 -13.956846 -14.257229 23.180987 0.868843 2.233233 0.106359 -0.026547 -1279470.000000 0 1 0
-13.083274 -13.400446 -14.738329 23.831961 0.797374 2.237536 0.102263 -0.028540 -1564700.000000 0 1 0
-13.105474 -12.017046 -14.397829 22.879255 0.742100 2.251444 0.083214 -0.009980 249869.000000 0 1 0
-14.306674 -11.401746 -14.846729 23.560690 0.672880 2.252541 0.089525 -0.020970 79242.000000 0 1 0
-14.477674 -9.916746 -14.382129 22.688996 0.600566 2.257357 0.077839 -0.026533 -722849.000000 0 1 0
-13.420074 -9.077746 -14.610529 21.816769 0.594732 2.304591 0.064703 -0.019592 -648872.000000 0 1 0
-13.191974 -8.666746 -15.968129 22.452657 0.581260 2.361987 0.056571 -0.018520 66983.600000 0 1 0
-12.056174 -7.614646 -16.042729 21.464001 0.563329 2.414974 0.039235 0.000857 -338832.000000 0 1 0
-10.772174 -8.061646 -15.749929 20.714491 0.642462 2.434623 0.029151 -0.008683 -206179.000000 0 1 0
-9.935374 -6.916746 -15.469929 19.643618 0.608153 2.477586 0.020760 0.000147 469792.000000 0 1 0
11.698226 21.710854 16.024071 29.410551 1.076578 0.994597 0.083044 -0.017585 -422278.000000 0 0 1
12.549626 21.770554 17.123571 30.408335 1.047873 0.972639 0.104312 -0.029705 -243123.000000 0 0 1
13.011726 20.483554 17.462371 29.896746 1.004876 0.947039 0.096079 -0.025829 -119813.000000 0 0 1
14.235326 20.519654 18.389371 31.014024 0.964283 0.936095 0.105068 -0.031171 176160.000000 0 0 1
15.434926 21.043054 17.852171 31.618777 0.937944 0.970840 0.081249 -0.025097 -416704.000000 0 0 1
16.513726 20.900054 18.710371 32.551396 0.902104 0.958443 0.084100 -0.025837 -817956.000000 0 0 1
17.777326 21.488354 18.097271 33.245960 0.879629 0.995188 0.050890 -0.017696 -1570940.000000 0 0 1
17.901226 22.888554 18.202071 34.287828 0.907063 1.011180 0.053545 -0.016171 63713.900000 0 0 1
19.177826 23.442154 17.953271 35.208572 0.885121 1.035714 0.043618 -0.014899 1225880.000000 0 0 1
20.465826 22.883454 18.698971 35.946544 0.841111 1.023725 0.040019 -0.023920 282547.000000 0 0 1
20.888726 21.597054 18.279671 35.169845 0.802069 1.024233 0.039674 -0.015941 792920.000000 0 0 1
22.047726 21.115754 19.014671 35.965748 0.763810 1.013742 0.043183 -0.022843 641607.000000 0 0 1
22.333226 19.648954 18.808271 35.193827 0.721547 1.006975 0.033755 -0.015704 -247862.000000 0 0 1
22.640526 19.408154 17.462971 34.557564 0.708677 1.041032 0.019986 -0.014270 151503.000000 0 0 1
22.190126 18.146354 16.924471 33.288580 0.685481 1.037451 0.014811 -0.008733 -3735.750000 0 0 1
23.067326 16.951354 17.375571 33.486720 0.633744 1.025257 0.011489 -0.009446 335580.000000 0 0 1
24.346126 16.996354 16.763871 34.097467 0.609459 1.056818 0.017058 -0.016746 469192.000000 0 0 1
25.138426 15.804854 17.031071 34.231436 0.561265 1.050051 0.006131 -0.008543 -418659.000000 0 0 1
26.327626 15.829654 16.039071 34.655066 0.541343 1.089622 0.096487 -0.031722 -421962.000000 0 0 1
27.314526 16.821554 16.358971 36.009220 0.551990 1.099211 0.073357 -0.027315 819012.000000 0 0 1
28.269926 16.414654 17.356971 37.012079 0.526063 1.082690 0.088712 -0.038172 40621.100000 0 0 1
29.367726 15.408754 16.909171 37.226511 0.483199 1.099295 0.090497 -0.048154 -327446.000000 0 0 1
30.187226 15.921254 15.852671 37.630601 0.485340 1.135950 0.137262 -0.041939 50264.400000 0 0 1
30.384126 14.923554 14.852371 36.966207 0.456553 1.157334 0.143894 -0.052080 129562.000000 0 0 1
29.399926 14.759754 13.645871 35.614825 0.465273 1.177591 0.132785 -0.039591 -46425.100000 0 0 1
29.794026 15.620854 12.537571 35.901055 0.482894 1.214052 0.139100 -0.027438 680513.000000 0 0 1
28.824626 15.774254 11.487571 34.808769 0.500729 1.234472 0.128518 -0.026716 382009.000000 0 0 1
27.492426 16.507954 11.728371 34.145288 0.540754 1.220172 0.105498 -0.032142 -410837.000000 0 0 1
27.402426 17.894854 11.529971 34.699553 0.578509 1.232076 0.073254 -0.020518 -71104.000000 0 0 1
28.171926 18.754254 12.329571 36.019408 0.587338 1.221429 0.078033 -0.029844 -193090.000000 0 0 1
27.686926 18.867854 13.829071 36.246448 0.598182 1.179346 0.068966 -0.029283 546651.000000 0 0 1
26.463326 19.566254 14.038871 35.780383 0.636665 1.167598 0.049088 -0.017197 611240.000000 0 0 1
25.755826 19.425354 15.268671 35.690885 0.646191 1.128735 0.027229 -0.013661 93306.800000 0 0 1
26.382726 20.159054 16.472171 37.064378 0.652465 1.110269 0.033614 -0.024746 -129161.000000 0 0 1
26.212626 21.554354 16.394871 37.689305 0.688185 1.120757 0.016153 -0.010162 639838.000000 0 0 1
24.931326 22.070254 16.789671 37.290215 0.724601 1.103758 0.022664 -0.011731 429120.000000 0 0 1
24.735226 23.562454 16.601571 37.982006 0.761121 1.118435 0.028589 -0.009840 -187099.000000 0 0 1
24.616026 23.776254 15.185171 37.441266 0.768046 1.153191 0.044884 -0.021896 149489.000000 0 0 1
24.315426 25.121254 14.957271 38.026797 0.801697 1.166540 0.043520 -0.020805 -600317.000000 0 0 1
24.483726 25.533154 13.439271 37.841892 0.806377 1.207730 0.058677 -0.023550 -567382.000000 0 0 1
23.457626 25.128554 12.607571 36.614960 0.819776 1.219273 0.066445 -0.018032 -443518.000000 0 0 1
23.552026 25.964254 11.468071 36.883018 0.834076 1.254624 0.073517 -0.033303 -325329.000000 0 0 1
23.066826 25.239454 10.164071 35.670952 0.830344 1.281853 0.080152 -0.031454 692987.000000 0 0 1
21.660926 24.963754 10.150171 34.574712 0.856119 1.272835 0.075126 -0.030104 454796.000000 0 0 1
21.270926 23.773754 10.877571 33.704083 0.840904 1.242176 0.068020 -0.027172 -379068.000000 0 0 1
20.879626 22.558054 9.970071 32.314500 0.824019 1.257147 0.082795 -0.027551 -369252.000000 0 0 1
19.702126 22.861054 9.286871 31.576059 0.859480 1.272271 0.100873 -0.026821 -468796.000000 0 0 1
19.927126 23.484754 8.007771 31.823708 0.867166 1.316433 0.097401 -0.033632 57802.500000 0 0 1
18.582726 23.728854 7.273071 31.004415 0.906428 1.334008 0.095403 -0.033492 -278099.000000 0 0 1
17.994526 22.562354 6.778071 29.644646 0.897553 1.340112 0.102527 -0.032037 118016.000000 0 0 1
17.503826 22.678954 5.433471 29.158900 0.913483 1.383361 0.101315 -0.033251 -23637.500000 0 0 1
16.107726 23.362854 5.244871 28.858109 0.967180 1.388034 0.082456 -0.026999 299325.000000 0 0 1
16.214226 24.784654 5.357071 30.097814 0.991471 1.391854 0.090480 -0.033304 -527956.000000 0 0 1
14.967026 25.258654 5.729971 29.913944 1.035872 1.378057 0.078589 -0.033641 -569097.000000 0 0 1
14.725426 26.760554 5.496171 31.035033 1.067749 1.392762 0.075919 -0.035639 -151215.000000 0 0 1
14.380426 26.969854 4.149071 30.844521 1.080940 1.435872 0.075360 -0.016855 269438.000000 0 0 1
14.340226 28.322954 3.737471 31.965614 1.102113 1.453607 0.067811 -0.019647 -79816.800000 0 0 1
13.709426 28.548154 2.360771 31.757183 1.123097 1.496390 0.079482 -0.018502 98026.200000 0 0 1
14.613626 28.189154 1.296471 31.778409 1.092527 1.529988 0.094568 -0.020050 422868.000000 0 0 1
14.558226 26.816354 0.861971 30.525428 1.073431 1.542555 0.082778 -0.013422 -132500.000000 0 0 1
15.531126 26.569554 -0.313829 30.777517 1.041818 1.580993 0.090413 -0.014772 158982.000000 0 0 1
15.200426 27.112354 -1.606629 31.124170 1.059817 1.622439 0.088136 -0.008209 -276467.000000 0 0 1
16.157426 26.572254 -2.485329 31.198140 1.024474 1.650544 0.080077 -0.006077 16873.200000 0 0 1
16.131126 27.064254 -3.947429 31.753256 1.033301 1.695434 0.099821 -0.017852 176387.000000 0 0 1
15.046826 26.547254 -4.731729 30.879652 1.055151 1.724634 0.117264 -0.023845 103515.000000 0 0 1
15.120926 26.991354 -6.104929 31.534834 1.060145 1.765620 0.109221 -0.027284 833708.000000 0 0 1
13.795926 26.598154 -6.853229 30.736885 1.092317 1.795651 0.118577 -0.043802 845609.000000 0 0 1
13.644326 25.213254 -7.117429 29.538680 1.074768 1.814144 0.103763 -0.038198 -542060.000000 0 0 1
12.379226 25.057454 -7.691229 28.987518 1.111933 1.839341 0.093313 -0.037113 -189297.000000 0 0 1
12.086126 23.579854 -8.088929 27.704056 1.097150 1.867089 0.082401 -0.025062 18035.800000 0 0 1
12.513126 23.292554 -9.428929 28.071802 1.077821 1.913342 0.077992 -0.023111 182811.000000 0 0 1
12.246826 21.944854 -9.770229 26.963285 1.061776 1.941588 0.066083 -0.017090 -224597.000000 0 0 1
12.591926 21.581054 -11.238729 27.397217 1.042619 1.993485 0.063376 -0.011917 214478.000000 0 0 1
12.169326 20.249654 -11.600729 26.319534 1.029668 2.027247 0.071131 -0.019518 -83332.400000 0 0 1
12.345226 20.084154 -12.985129 26.914520 1.019656 2.074255 0.071936 -0.016698 -99927.400000 0 0 1
13.657326 19.426054 -13.425729 27.279009 0.958032 2.085370 0.070231 -0.019684 155207.000000 0 0 1
14.816326 20.238354 -13.298829 28.389669 0.938856 2.058319 0.068466 -0.019976 -858180.000000 0 0 1
15.893226 19.648654 -13.925529 28.854542 0.890670 2.074430 0.062876 -0.016524 -451062.000000 0 0 1
17.175626 20.509354 -13.790329 30.096659 0.873632 2.046767 0.085773 -0.011121 -168214.000000 0 0 1
17.261026 21.793454 -14.406829 31.312208 0.900935 2.048907 0.078519 -0.007987 62919.900000 0 0 1
16.217826 22.728254 -14.148129 31.301133 0.951032 2.039803 0.080488 -0.011133 44433.100000 0 0 1
16.523226 24.210254 -14.536429 32.717903 0.971920 2.031184 0.093370 -0.005114 114233.000000 0 0 1
16.894026 24.536554 -15.861429 33.749600 0.967813 2.060057 0.070413 -0.005733 -801887.000000 0 0 1
15.802626 24.581354 -16.707329 33.661562 0.999449 2.090165 0.059227 -0.005599 -700162.000000 0 0 1
16.099626 24.622454 -18.253529 34.621590 0.991713 2.126133 0.042696 0.003406 124860.000000 0 0 1
16.554026 23.371454 -18.766929 34.241178 0.954521 2.150864 0.044755 0.007372 -18438.100000 0 0 1
16.401026 23.237954 -20.142229 34.852626 0.956198 2.186981 0.042085 0.010642 96357.600000 0 0 1
17.012926 21.936354 -20.724529 34.643172 0.911137 2.212085 0.046420 0.010762 -202810.000000 0 0 1
16.008426 20.958454 -20.722529 33.540270 0.918511 2.236789 0.062364 0.011663 51895.100000 0 0 1
16.348126 19.844154 -21.504429 33.518534 0.881695 2.267337 0.053818 0.012218 -245204.000000 0 0 1
15.217926 18.817754 -21.678229 32.490595 0.890773 2.301261 0.045349 0.014318 -778950.000000 0 0 1
14.939226 18.179854 -20.423529 31.157793 0.882935 2.285624 0.054676 0.003947 576419.000000 0 0 1
14.120926 16.999654 -20.625529 30.229145 0.877638 2.321709 0.059388 0.000571 1271690.000000 0 0 1
12.611226 17.147654 -21.045529 29.933248 0.936673 2.350519 0.070315 0.000478 937786.000000 0 0 1
11.672826 17.075154 -19.931129 28.723956 0.971152 2.337667 0.060719 -0.005293 26347.200000 0 0 1
10.379226 17.322454 -20.392329 28.699178 1.030982 2.361082 0.066743 -0.003681 94669.900000 0 0 1
9.265026 16.933054 -19.351729 27.332370 1.070139 2.357480 0.069516 -0.014016 154915.000000 0 0 1
8.888026 15.528954 -19.282929 26.305451 1.050954 2.393576 0.064886 -0.017698 -1402180.000000 0 0 1
7.593926 15.309154 -18.951429 25.518514 1.110323 2.407821 0.072771 -0.017051 -1420520.000000 0 0 1
7.077026 15.470154 -17.484129 24.394768 1.141753 2.369879 0.068222 -0.019443 -207384.000000 0 1 0
7.251726 16.771854 -16.936429 24.914358 1.162696 2.318267 0.078522 -0.018928 -166598.000000 0 1 0
6.783726 16.826654 -15.595929 23.924636 1.187574 2.280854 0.064423 -0.024847 -59068.800000 0 1 0
6.625026 18.323154 -15.197929 24.710443 1.223855 2.233234 0.069449 -0.019396 -294998.000000 0 1 0
7.740126 19.171254 -15.055429 25.575622 1.187073 2.200201 0.058168 -0.016018 -168449.000000 0 0 1
8.081526 19.883854 -16.271429 26.933958 1.184754 2.219461 0.071426 -0.013011 -32442.600000 0 0 1
9.199426 20.940054 -16.127429 27.985876 1.156858 2.184954 0.054849 -0.008470 -156729.000000 0 0 1
8.970926 22.150554 -15.390229 28.425054 1.185989 2.142936 0.053683 -0.018206 -154987.000000 0 0 1
8.980526 22.107454 -13.957629 27.644254 1.184938 2.100064 0.051851 -0.008800 -262119.000000 0 0 1
8.610526 23.347254 -13.223229 28.179588 1.217470 2.059236 0.060880 -0.022912 711958.000000 0 0 1
7.204226 23.657554 -13.347929 28.102454 1.275197 2.065731 0.062651 -0.020894 843525.000000 0 0 1
6.893626 24.799054 -12.547529 28.634867 1.299662 2.024381 0.047759 -0.021059 -3357.490000 0 0 1
6.049626 24.478354 -11.295729 27.629355 1.328509 1.991969 0.041412 -0.022940 -146499.000000 0 0 1
6.798126 23.864954 -10.247529 26.847018 1.293288 1.962432 0.037601 -0.027705 4930.160000 0 0 1
6.021926 23.389554 -9.166429 25.833278 1.318807 1.933529 0.054171 -0.029798 -12782.900000 0 0 1
6.867426 23.166654 -7.901529 25.422225 1.282613 1.886843 0.037246 -0.027512 80339.000000 0 0 1
7.003226 24.279554 -7.072929 26.240584 1.289977 1.843713 0.034307 -0.035028 -50.687800 0 0 1
8.030326 24.169154 -6.116629 26.192504 1.250016 1.806499 0.062359 -0.029998 -11616.500000 0 0 1
8.456626 25.475054 -5.440029 27.387713 1.250285 1.770756 0.054705 -0.034938 -87672.600000 0 0 1
9.138326 26.338154 -6.299929 28.581400 1.236831 1.793042 0.076605 -0.040905 -178023.000000 0 0 1
9.406526 27.543954 -5.626929 29.644805 1.241705 1.761767 0.075429 -0.038196 22289.500000 0 0 1
9.756226 28.728554 -6.496129 31.027624 1.243416 1.781723 0.076899 -0.033160 580606.000000 0 0 1
11.072626 28.637554 -7.039829 31.500345 1.201854 1.796184 0.082935 -0.035322 287354.000000 0 0 1
11.298026 29.802754 -7.758729 32.803161 1.208442 1.809583 0.077818 -0.028154 -336404.000000 0 0 1
12.610926 29.810754 -8.537329 33.475401 1.170593 1.828678 0.090303 -0.029109 108745.000000 0 0 1
13.767926 29.932154 -7.728929 33.841187 1.139681 1.801218 0.081059 -0.023036 -208968.000000 0 0 1
14.864726 30.435554 -8.448329 34.909272 1.116472 1.815231 0.074721 -0.018529 183751.000000 0 0 1
16.146426 30.757754 -7.661529 35.573101 1.087385 1.787871 0.067879 -0.015820 413330.000000 0 0 1
16.851126 29.619554 -7.129129 34.815268 1.053544 1.777025 0.072983 -0.016638 -161074.000000 0 0 1
18.030826 29.970254 -6.457429 35.567192 1.029184 1.753365 0.056259 -0.008992 -137938.000000 0 0 1
19.041926 28.828054 -6.396229 35.136354 0.987051 1.753857 0.054862 -0.002734 -374157.000000 0 0 1
18.874926 28.095354 -5.187629 34.242126 0.979237 1.722880 0.083749 -0.019017 101250.000000 0 0 1
19.906026 27.155554 -4.881229 34.022057 0.938240 1.714766 0.067455 -0.014940 79252.300000 0 0 1
20.165226 25.856854 -5.829529 33.304604 0.908445 1.746739 0.072946 -0.005708 -167883.000000 0 0 1
20.886726 26.219054 -6.983429 34.241238 0.898117 1.776185 0.052850 0.002366 257109.000000 0 0 1
20.732226 25.310854 -8.072129 33.699017 0.884515 1.812684 0.060286 -0.011828 -719666.000000 0 0 1
21.449326 25.852954 -9.352029 34.869890 0.878226 1.842318 0.063126 -0.011601 1877540.000000 0 0 1
22.909126 25.834954 -9.295729 35.758684 0.845351 1.833774 0.032106 -0.005339 1765800.000000 0 0 1
23.518626 24.548154 -9.315829 35.249430 0.806814 1.838257 0.057283 -0.002731 -92988.200000 0 0 1
25.073226 24.564454 -9.380429 36.332788 0.775149 1.831935 0.011681 0.009691 424699.000000 0 0 1
25.614126 24.982054 -10.601729 37.317330 0.772906 1.858860 0.018164 0.010900 258364.000000 0 0 1
27.007226 25.249754 -10.470929 38.426302 0.751779 1.846780 0.009829 0.019120 360454.000000 0 0 1
27.756726 25.495254 -11.790429 39.489974 0.742956 1.873988 0.009445 0.017560 -197125.000000 0 0 1
27.452326 26.706754 -12.448229 40.272066 0.771633 1.885046 0.010229 0.022775 -8463.400000 0 0 1
28.209726 26.878354 -13.637129 41.282028 0.761235 1.907461 0.003344 0.028042 169240.000000 0 0 1
27.748126 28.055154 -14.548429 42.055997 0.790900 1.924026 0.014141 0.011849 -82504.700000 0 0 1
28.102326 29.347454 -14.160229 43.029360 0.807068 1.906129 0.031740 -0.005445 12526.700000 0 0 1
28.178026 30.190754 -15.268629 44.029692 0.819867 1.924933 0.055783 -0.005945 -142110.000000 0 0 1
28.563026 31.675454 -15.007529 45.215116 0.837021 1.909128 0.063269 -0.017132 17408.600000 0 0 1
29.874026 31.793554 -14.511029 45.976705 0.816515 1.891903 0.048024 -0.024021 -170253.000000 0 0 1
30.250626 33.109654 -14.271329 47.064003 0.830491 1.878879 0.053566 -0.033819 -167205.000000 0 0 1
16.203126 -31.845946 -27.708362 45.215693 -1.100136 2.230401 0.097423 -0.045517 -233960.000000 0 0 1
17.222426 -32.723246 -27.300532 45.964572 -1.086326 2.206753 0.080612 -0.030907 272463.000000 0 0 1
17.814826 -32.333146 -26.043662 45.178233 -1.067203 2.185192 0.078802 -0.033109 -767270.000000 0 0 1
18.945926 -33.235246 -25.578872 46.019652 -1.052686 2.160151 0.027359 -0.029028 -400801.000000 0 0 1
20.221326 -32.860946 -26.045572 46.552289 -1.019159 2.164568 0.034247 -0.023480 222768.000000 0 0 1
20.533926 -33.297946 -27.358422 47.737601 -1.018208 2.181080 0.049709 -0.020615 -1264440.000000 0 0 1
21.932626 -32.909446 -27.799612 48.341392 -0.982941 2.183484 0.053238 -0.012056 -638053.000000 0 0 1
22.048826 -31.510446 -28.039712 47.595004 -0.960251 2.200780 0.054995 -0.024513 80624.600000 0 0 1
23.397626 -31.170746 -27.812552 47.881128 -0.926894 2.190589 0.011473 -0.010780 -78213.100000 0 0 1
23.901126 -29.881946 -28.620032 47.783897 -0.896146 2.212982 -0.000045 0.001678 132090.000000 0 0 1
24.072626 -30.069646 -30.041972 48.848695 -0.895713 2.233183 -0.005111 -0.009204 176394.000000 0 0 1
24.703826 -28.947446 -30.675112 48.879404 -0.864330 2.249221 0.014751 -0.019805 176509.000000 0 0 1
25.053926 -29.149246 -32.139042 50.102852 -0.860810 2.267198 0.023897 -0.007194 504923.000000 0 0 1
26.180526 -30.015746 -32.366002 51.321760 -0.853539 2.253185 0.016040 -0.019897 418554.000000 0 0 1
26.147526 -30.628546 -33.652312 52.481226 -0.864159 2.266891 0.014280 -0.024381 -958208.000000 0 0 1
27.444426 -31.358846 -33.907972 53.724523 -0.851868 2.253825 0.010160 -0.027233 -725565.000000 0 0 1
28.514026 -30.500646 34.046010 53.874575 -0.819049 0.886730 0.022609 -0.033176 -629318.000000 0 0 1
29.719526 -31.213646 33.886149 54.825295 -0.809914 0.904505 0.020246 -0.020171 62290.300000 0 0 1
30.944426 -30.280346 33.879456 54.975216 -0.774552 0.906802 0.029647 -0.033850 -5453.680000 0 0 1
30.950226 -29.493846 32.683490 53.814626 -0.761308 0.918095 0.036711 -0.027979 646515.000000 0 0 1
32.215126 -28.809746 32.608553 54.139944 -0.729653 0.924416 0.035922 -0.033220 688864.000000 0 0 1
32.364126 -27.855446 31.449871 53.032602 -0.710667 0.935981 0.036519 -0.035168 -119446.000000 0 0 1
33.567126 -27.082246 31.387881 53.342282 -0.678879 0.941688 0.045567 -0.039515 480615.000000 0 0 1
33.657826 -26.209246 30.329631 52.341765 -0.661616 0.952738 0.049978 -0.035329 -90505.500000 0 0 1
34.268426 -26.896446 29.035721 52.352812 -0.665450 0.982895 0.063139 -0.035729 -115600.000000 0 0 1
33.478526 -27.878446 28.386351 51.998119 -0.694380 0.993320 0.059345 -0.044036 456217.000000 0 0 1
32.442526 -27.341446 27.566761 50.596427 -0.700279 0.994603 0.069122 -0.049544 286272.000000 0 0 1
31.558826 -28.426246 26.891001 50.270636 -0.733223 1.006378 0.060797 -0.035951 966774.000000 0 0 1
30.357726 -27.979546 26.204081 48.898879 -0.744655 1.005243 0.058674 -0.031084 798803.000000 0 0 1
29.804226 -29.125646 25.625591 48.921018 -0.773884 1.019472 0.037498 -0.019634 -128252.000000 0 0 1
28.484226 -28.941346 24.824281 47.594092 -0.793358 1.022091 0.020703 -0.011876 77558.900000 0 0 1
27.439826 -28.726246 25.743831 47.337998 -0.808298 0.995802 0.008548 -0.009706 -20605.800000 0 0 1
26.216726 -28.417046 25.051911 46.069984 -0.825650 0.995862 0.006264 0.004848 912738.000000 0 0 1
25.049826 -28.207146 26.056881 45.848641 -0.844613 0.966329 0.023990 -0.002839 -24462.000000 0 0 1
25.150926 -27.010946 26.821061 45.623783 -0.821042 0.942367 0.009572 -0.003284 332769.000000 0 0 1
24.106726 -26.940846 27.797981 45.603412 -0.840860 0.915292 0.024342 -0.014663 353066.000000 0 0 1
24.201326 -25.672246 28.664511 45.457921 -0.814883 0.888506 0.039294 -0.005742 -110071.000000 0 0 1
23.202026 -25.805646 29.676571 45.661409 -0.838475 0.863308 0.067823 -0.011136 591697.000000 0 0 1
22.821626 -24.718146 30.527121 45.428168 -0.825270 0.833908 0.070205 -0.019173 -435355.000000 0 0 1
22.286726 -23.406646 29.885661 44.019563 -0.809903 0.824509 0.069098 -0.016237 -614784.000000 0 0 1
23.214626 -22.735446 29.053161 43.587906 -0.774970 0.841236 0.060991 -0.012445 -9292.960000 0 0 1
22.936526 -21.389346 28.725161 42.529087 -0.750508 0.829257 0.077077 -0.007184 -152494.000000 0 0 1
23.588026 -20.354946 29.632451 42.997685 -0.711956 0.810462 0.069267 -0.007953 106585.000000 0 0 1
23.002226 -20.390446 30.950021 43.620826 -0.725281 0.781974 0.073197 -0.008577 256117.000000 0 0 1
23.640326 -19.450446 31.750961 44.105650 -0.688469 0.767161 0.065355 -0.014974 -327433.000000 0 0 1
23.122226 -19.291646 33.192956 44.817153 -0.695328 0.736788 0.070939 0.000440 -72549.800000 0 0 1
23.414326 -20.408146 33.979109 46.035887 -0.716906 0.740546 0.072824 -0.003366 225907.000000 0 0 1
22.594026 -20.349946 -33.083862 44.934978 -0.733190 2.398324 0.071963 -0.008110 -35530.300000 0 0 1
22.791226 -21.485346 -32.105082 44.853053 -0.755913 2.368542 0.066319 -0.005009 1021550.000000 0 0 1
24.069526 -21.446146 -31.421072 45.017364 -0.727825 2.343365 0.060440 -0.012711 867275.000000 0 0 1
24.059726 -22.539746 -30.534762 44.936425 -0.752792 2.317891 0.057729 -0.017006 319049.000000 0 0 1
25.410926 -22.780946 -29.807412 45.311902 -0.730879 2.288727 0.059637 -0.011769 93736.400000 0 0 1
26.368326 -23.517346 -30.530112 46.695202 -0.728310 2.283414 0.050754 -0.009969 -714593.000000 0 0 1
27.233526 -24.107146 -29.594522 46.889820 -0.724578 2.253832 0.046295 -0.022202 -419950.000000 0 0 1
28.335526 -24.880146 -30.341422 48.399645 -0.720558 2.248356 0.024081 -0.019871 141585.000000 0 0 1
29.322326 -24.044346 -31.021402 48.992416 -0.686818 2.256461 0.023954 -0.014192 505685.000000 0 0 1
29.224826 -23.870946 -32.481062 49.788874 -0.684903 2.281511 0.028132 -0.011651 -132425.000000 0 0 1
29.395726 -25.128546 -33.425952 51.116013 -0.707295 2.283555 0.013636 -0.014407 -36530.200000 0 0 1
28.333926 -26.036246 -33.180642 50.809964 -0.743163 2.282380 0.042519 -0.028183 111091.000000 0 0 1
28.404626 -27.250446 -33.849782 51.915483 -0.764663 2.281038 0.023472 -0.029991 -165158.000000 0 0 1
28.043626 -27.194446 32.861404 51.047573 -0.770026 0.871420 0.029483 -0.035074 -296254.000000 0 0 1
28.930826 -26.475346 32.044431 50.643679 -0.741109 0.885706 0.014072 -0.036886 -12377.500000 0 0 1
28.501926 -26.489546 30.677111 49.549379 -0.748820 0.903172 0.015761 -0.034923 -842973.000000 0 0 1
29.644926 -26.003146 29.810681 49.433409 -0.720048 0.923481 0.025467 -0.029104 -583294.000000 0 0 1
29.880726 -24.586146 29.776801 48.826163 -0.688495 0.914921 0.028730 -0.028660 107841.000000 0 0 1
30.257326 -24.011946 31.031961 49.548581 -0.670821 0.894007 0.023220 -0.020429 -1342620.000000 0 0 1
30.734726 -22.519846 30.877361 49.042617 -0.632348 0.889755 0.015462 -0.011669 1502610.000000 0 0 1
32.084626 -22.266246 30.436271 49.513387 -0.606678 0.908781 0.034457 -0.022399 1328260.000000 0 0 1
33.165826 -22.820646 31.178271 50.919922 -0.602679 0.911830 0.030812 -0.025895 48371.200000 0 0 1
34.570326 -22.281246 30.813631 51.391062 -0.572513 0.927806 0.036891 -0.034458 84394.600000 0 0 1
34.958326 -22.468146 29.478061 50.949565 -0.571235 0.953818 0.050810 -0.039687 -299245.000000 0 0 1
36.180826 -21.827246 29.239691 51.385215 -0.542829 0.965471 0.037868 -0.035344 -162307.000000 0 0 1
-36.349628 -22.155046 27.847071 50.868467 0.547374 0.991503 0.057704 -0.033791 -182052.000000 0 0 1
-36.025028 -23.507546 27.687341 51.156585 0.578154 0.998900 0.061434 -0.029564 241778.000000 0 0 1
-35.410628 -23.790046 26.421631 50.179492 0.591571 1.016268 0.061583 -0.020359 -124460.000000 0 0 1
-35.210328 -25.286346 26.156731 50.629449 0.622805 1.027885 0.061145 -0.032172 -40757.500000 0 0 1
-36.426128 -25.996646 26.330271 51.922746 0.619849 1.038974 0.072285 -0.032748 41768.800000 0 0 1
-36.347428 -27.354446 26.119561 52.456007 0.645152 1.049583 0.082755 -0.027041 -306023.000000 0 0 1
-35.443728 -28.233146 26.961731 52.728582 0.672641 1.034064 0.076389 -0.026407 -1498510.000000 0 0 1
-35.431528 -29.595246 26.473801 53.217797 0.695886 1.050126 0.087177 -0.020743 619532.000000 0 0 1
-34.231928 -30.263546 26.873781 53.008558 0.723946 1.039130 0.070835 -0.022369 -132063.000000 0 0 1
-32.905928 -29.705746 26.435651 51.614679 0.734331 1.033083 0.064839 -0.010183 -2052610.000000 0 0 1
-32.527228 -29.912046 25.125201 50.833324 0.743539 1.053806 0.052653 -0.004772 336910.000000 0 0 1
-31.281328 -29.274946 24.840741 49.523796 0.752278 1.045358 0.012562 0.001430 352061.000000 0 0 1
-30.830228 -29.181246 23.384831 48.465435 0.757927 1.067284 0.008801 -0.002269 -396676.000000 0 0 1
-30.532028 -30.506046 22.929171 48.873003 0.784972 1.082459 0.017601 -0.004076 440579.000000 0 0 1
-29.852528 -30.337246 21.694571 47.772129 0.793451 1.099405 0.012646 -0.001265 -419312.000000 0 0 1
-29.749428 -31.679646 20.844571 48.198803 0.816810 1.123565 0.036922 -0.003154 919213.000000 0 0 1
-28.829928 -32.728446 21.321671 48.548219 0.848644 1.116105 0.021546 -0.013553 1478800.000000 0 0 1
-27.419328 -32.463546 21.176671 47.477919 0.869435 1.108469 0.041634 -0.012730 700992.000000 0 0 1
-26.771328 -33.894046 21.260771 48.140739 0.902273 1.113373 0.025798 -0.008640 -569614.000000 0 0 1
-26.987028 33.455754 20.092771 47.447936 -0.892015 1.133524 0.014428 -0.008003 -15679.900000 0 0 1
-28.256628 32.840354 20.017571 47.724512 -0.860282 1.137968 0.026011 -0.008513 63511.900000 0 0 1
-28.657228 31.782654 21.082371 47.705767 -0.837063 1.113053 0.035513 -0.010927 -70492.700000 0 0 1
-27.801228 30.656654 20.940571 46.381529 -0.834205 1.102367 0.024161 -0.011413 210411.000000 0 0 1
-27.647028 29.851354 22.060871 46.283296 -0.823717 1.073958 0.030094 -0.018151 -156110.000000 0 0 1
-26.829328 28.561954 21.763871 44.824816 -0.816668 1.063825 0.030638 -0.016964 -50427.300000 0 0 1
-25.451728 28.869554 21.757971 44.211434 -0.848234 1.056256 0.020165 -0.011256 -62280.800000 0 0 1
-24.622828 27.856154 21.216271 42.806298 -0.846932 1.052231 0.012612 -0.022006 571189.000000 0 0 1
-23.097028 28.158754 21.244071 42.162764 -0.883833 1.042736 0.006767 -0.014400 285101.000000 0 0 1
-22.672928 28.170954 22.589671 42.637513 -0.893115 1.012423 0.015147 -0.008765 887555.000000 0 0 1
-21.240628 28.198154 22.694771 41.968474 -0.925210 0.999459 0.046349 -0.015350 563343.000000 0 0 1
-20.679828 28.464854 24.081231 42.635770 -0.942503 0.970590 0.036227 -0.003423 -822734.000000 0 0 1
-20.435528 27.222654 24.697051 42.055059 -0.926860 0.943133 0.047593 -0.009599 267696.000000 0 0 1
-20.123228 27.323454 26.088661 42.803431 -0.936003 0.915367 0.041206 -0.007578 763819.000000 0 0 1
-18.638628 27.781554 26.357441 42.590232 -0.979869 0.903504 0.053588 -0.001273 63244.500000 0 0 1
-18.359228 29.130454 26.141071 43.231935 -1.008437 0.921444 0.022568 0.001010 336104.000000 0 0 1
-17.102128 29.554354 26.662381 43.322340 -1.046211 0.907850 0.024156 0.002238 248695.000000 0 0 1
-16.814228 29.596954 28.218181 44.214971 -1.054158 0.878633 0.012059 0.008153 -450066.000000 0 0 1
-16.759528 28.358954 28.857531 43.793483 -1.037037 0.851380 0.020165 0.003770 237385.000000 0 0 1
-16.786328 28.660854 30.249941 44.925319 -1.040967 0.832081 0.011725 0.014192 -141798.000000 0 0 1
-16.691628 27.408054 31.153421 44.725245 -1.023782 0.800217 0.015022 0.009554 -1754720.000000 0 0 1
-15.422128 26.967154 31.331371 44.121698 -1.051306 0.781138 0.027119 0.011172 -1360150.000000 0 0 1
-15.308128 25.850154 32.222674 44.055306 -1.036141 0.750403 0.044488 0.003126 -393177.000000 0 0 1
-15.563328 26.099954 33.706381 45.382209 -1.033104 0.733669 0.037954 0.010011 -1530350.000000 0 0 1
-16.911328 26.033554 33.903788 45.969618 -0.994704 0.741397 0.029624 0.012653 -1555370.000000 0 0 1
-17.400328 26.596054 -33.120642 45.903142 -0.991443 2.376811 0.023857 0.017159 251472.000000 0 0 1
-18.785828 26.052754 -32.700202 45.836193 -0.946070 2.365155 0.017578 0.015919 -611419.000000 0 0 1
-19.763528 26.246854 -33.634592 47.018934 -0.925387 2.367909 0.023634 0.012916 -843320.000000 0 0 1
-20.999128 25.814754 -33.111592 46.944035 -0.887905 2.353702 0.055409 0.001458 -691489.000000 0 0 1
-22.229028 25.921854 -33.989842 48.180718 -0.861941 2.353876 0.070262 -0.018217 -566267.000000 0 0 1
-22.372528 25.020154 33.151160 47.175603 -0.841206 0.791585 0.068550 -0.015445 -28169.600000 0 0 1
-22.536328 23.659354 33.497495 46.794586 -0.809704 0.772968 0.063798 -0.013269 -298145.000000 0 0 1
-22.818028 22.835554 32.209680 45.602505 -0.785782 0.786519 0.057309 -0.005946 -1048820.000000 0 0 1
-24.107428 22.881054 31.749721 45.964720 -0.759305 0.808283 0.074309 -0.017767 -1376230.000000 0 0 1
-24.183328 22.419554 30.429291 44.871054 -0.747569 0.825554 0.086767 -0.013510 -376902.000000 0 0 1
-25.541728 22.037554 29.868901 45.057573 -0.711882 0.846104 0.089967 -0.025794 -404495.000000 0 0 1
-26.073928 20.787754 30.354081 45.092690 -0.673069 0.832338 0.097997 -0.032377 127780.000000 0 0 1
-27.340728 20.602354 29.750251 45.354711 -0.645763 0.855361 0.095182 -0.036940 -31514.100000 0 0 1
-28.101728 19.310754 30.082051 45.470234 -0.602065 0.847877 0.113722 -0.038227 -329569.000000 0 0 1
-28.548528 19.301754 31.415851 46.631876 -0.594507 0.831593 0.106575 -0.034237 -341797.000000 0 0 1
-28.744328 18.085154 32.128661 46.749974 -0.561594 0.813107 0.104000 -0.019562 -523637.000000 0 0 1
-29.535828 16.925654 31.502891 46.381840 -0.520371 0.824114 0.090681 -0.022710 -812836.000000 0 0 1
-30.866328 17.288154 31.307241 47.241442 -0.510563 0.846368 0.066138 -0.020172 -352573.000000 0 0 1
-31.635728 16.112854 30.998231 47.131027 -0.471079 0.853031 0.061282 -0.005101 216869.000000 0 0 1
-33.172028 16.154554 30.998131 48.189596 -0.453188 0.872056 0.056584 -0.001077 -18761.000000 0 0 1
-33.672928 16.044554 32.324576 49.357593 -0.444657 0.856738 0.040112 -0.000004 869563.000000 0 0 1
-35.096628 16.190754 32.340222 50.396466 -0.432227 0.874063 0.059638 -0.003741 525642.000000 0 0 1
-35.734028 16.400354 33.732904 51.805417 -0.430277 0.861703 0.054490 -0.000921 -641571.000000 0 0 1
36.036526 16.661854 33.694642 52.072809 0.433085 0.867064 0.051715 -0.006649 -507091.000000 0 0 1
35.558726 17.178454 -33.282572 51.645444 0.450037 2.271092 0.047797 -0.010222 1317190.000000 0 0 1
33.990026 17.346554 -33.190882 50.575285 0.471887 2.286657 0.060556 -0.013749 1415660.000000 0 0 1
33.267426 16.096854 -33.119932 49.626205 0.450654 2.301492 0.072305 -0.008372 1421720.000000 0 0 1
31.918426 16.331854 -32.613152 48.467856 0.472944 2.308894 0.073609 -0.008804 839632.000000 0 0 1
31.175326 15.008454 -32.637492 47.564278 0.448674 2.327016 0.078368 -0.017516 -493486.000000 0 0 1
30.641926 14.794654 -33.914672 48.041799 0.449813 2.354547 0.072988 -0.026144 -121074.000000 0 0 1
29.882226 13.584554 -33.938752 47.215744 0.426675 2.372873 0.065021 -0.024692 -166689.000000 0 0 1
30.723326 12.318854 34.091771 47.517636 0.381335 0.770654 0.075345 -0.020227 -406084.000000 0 0 1
31.473526 11.964154 -33.044022 47.176596 0.363264 2.346800 0.077362 -0.005686 -113380.000000 0 0 1
32.626826 11.222854 -33.423622 48.037493 0.331298 2.340304 0.078024 -0.005157 166206.000000 0 0 1
18.005826 -20.896246 10.008068 29.343215 -0.859562 1.222742 0.031045 -0.020750 -7608.710000 0 0 1
17.781026 -22.008846 10.835768 30.297988 -0.891255 1.205057 0.024489 -0.021326 808121.000000 0 0 1
18.966626 -22.828546 10.944868 31.633298 -0.877538 1.217500 0.022350 -0.019566 608762.000000 0 0 1
18.669126 -24.208646 11.598768 32.697496 -0.913880 1.208172 0.025207 -0.014719 155270.000000 0 0 1
17.852326 -25.116456 10.899368 32.685442 -0.952871 1.230822 0.019425 -0.021125 514675.000000 0 0 1
16.471326 -25.182816 11.249668 32.125283 -0.991565 1.213032 0.024649 -0.015776 956947.000000 0 0 1
15.564126 -26.221376 10.447568 32.232813 -1.035121 1.240706 0.040684 -0.012463 457128.000000 0 0 1
15.246926 -25.596106 9.235768 31.191807 -1.033564 1.270194 0.036075 -0.016398 -47644.300000 0 0 1
14.685326 -26.482146 8.303268 31.399158 -1.064477 1.303171 0.050389 -0.012964 -126042.000000 0 0 1
14.610926 -25.852526 6.925068 30.492439 -1.056385 1.341690 0.061072 -0.012747 -450624.000000 0 0 1
13.657826 -24.843646 6.996968 29.201036 -1.068144 1.328828 0.070702 -0.021928 -126818.000000 0 0 1
13.437026 -24.195546 5.732768 28.263806 -1.063854 1.366548 0.074473 -0.008305 104482.000000 0 0 1
12.591426 -22.887146 5.947868 26.790718 -1.067836 1.346919 0.079686 -0.016148 235321.000000 0 0 1
12.170626 -22.229546 4.744768 25.783516 -1.069876 1.385718 0.086871 -0.013234 250950.000000 0 0 1
11.460526 -21.006946 4.974668 24.441415 -1.071369 1.365830 0.092436 -0.017621 53444.600000 0 1 0
10.692126 -20.592246 3.684468 23.493349 -1.091883 1.413316 0.084682 -0.018026 -430800.000000 0 1 0
11.413526 -20.000046 2.657968 23.180492 -1.052218 1.455880 0.071489 -0.015466 -197305.000000 0 1 0
10.568226 -19.549346 1.597968 22.280436 -1.075205 1.499014 0.057646 -0.002315 199722.000000 0 1 0
11.398026 -19.082646 0.404068 22.231186 -1.032366 1.552620 0.047027 0.001786 245248.000000 0 1 0
12.172426 -17.942046 0.687568 21.692343 -0.974694 1.539095 0.050041 0.000772 19302.900000 0 1 0
12.944726 -17.432846 -0.389132 21.716848 -0.932082 1.588716 0.067836 -0.006725 -467364.000000 0 1 0
14.116326 -16.597046 0.071968 21.788478 -0.865993 1.567493 0.062739 -0.000769 -1326300.000000 0 1 0
15.110526 -17.312246 0.657068 22.988554 -0.853201 1.542210 0.058636 -0.004463 -598092.000000 0 1 0
16.367826 -16.644946 0.557468 23.351033 -0.793792 1.546921 0.058295 -0.010253 983290.000000 0 1 0
17.520626 -17.420146 1.302868 24.741287 -0.782522 1.518112 0.047377 -0.004161 422786.000000 0 1 0
17.961026 -18.557946 0.635968 25.834091 -0.801742 1.546176 0.039475 -0.006064 231510.000000 0 0 1
19.150226 -19.076846 1.218868 27.058138 -0.783479 1.525735 0.041792 -0.001411 283340.000000 0 0 1
19.464926 -20.532446 0.818868 28.304332 -0.812082 1.541861 0.020357 0.006885 -445688.000000 0 0 1
18.655626 -21.595046 1.210268 28.562968 -0.858297 1.528412 0.021213 0.010271 -381078.000000 0 0 1
18.902026 -22.784346 0.547368 29.609333 -0.878262 1.552309 0.029718 0.007022 -921587.000000 0 0 1
17.808626 -23.777246 0.783768 29.717316 -0.927950 1.544419 0.032498 0.006144 -629394.000000 0 0 1
18.064626 -24.510846 1.990468 30.513509 -0.935664 1.505518 0.018884 0.008726 171808.000000 0 0 1
16.873926 -25.140776 2.399468 30.373433 -0.979677 1.491715 0.023647 0.008732 -150165.000000 0 0 1
17.065726 -25.702476 3.841968 31.090465 -0.984662 1.446906 0.027604 0.000693 624227.000000 0 0 1
17.949826 -26.839756 3.918468 32.525731 -0.981334 1.450030 0.010051 0.006864 540397.000000 0 0 1
19.290826 -26.502646 4.240068 33.053054 -0.941601 1.442161 0.022001 0.009678 235141.000000 0 0 1
20.259726 -27.722156 4.268768 34.600532 -0.939688 1.447108 0.040091 0.001976 105299.000000 0 0 1
20.502426 -28.163716 2.911068 34.957384 -0.941542 1.487425 0.032699 0.004745 -545486.000000 0 0 1
21.194726 -29.373716 2.844868 36.333523 -0.945751 1.492417 0.056360 0.000925 -72566.400000 0 0 1
20.508426 -30.707966 3.292568 37.073113 -0.981972 1.481866 0.056612 -0.001145 -72062.300000 0 0 1
20.448226 -30.765466 4.709868 37.240122 -0.984192 1.443984 0.088856 -0.000822 -143517.000000 0 0 1
19.631026 -31.843026 5.131768 37.758317 -1.018337 1.434463 0.071423 -0.015531 -354453.000000 0 0 1
19.711226 -32.283616 6.606068 38.397974 -1.022645 1.397894 0.079491 -0.023073 -140273.000000 0 0 1
20.885326 -32.919796 7.073668 39.622552 -1.005444 1.391308 0.080453 -0.042443 73222.400000 0 0 1
20.626726 -33.783076 8.210668 40.424907 -1.022645 1.366264 0.067861 -0.034886 599661.000000 0 0 1
21.910626 33.614982 8.674068 41.052186 0.993149 1.357898 0.082977 -0.041843 871493.000000 0 0 1
22.895726 -33.713006 9.224268 41.783587 -0.974211 1.348200 0.090295 -0.042166 -790581.000000 0 0 1
24.082426 33.828251 9.489068 42.595261 0.952127 1.346138 0.108866 -0.044855 -643582.000000 0 0 1
25.026426 -33.529856 10.404768 43.114179 -0.929608 1.327060 0.097357 -0.034748 -69018.100000 0 0 1
25.750026 -32.507246 9.746868 42.600309 -0.900871 1.339954 0.079760 -0.031202 21277.400000 0 0 1
26.539926 -31.684746 10.572668 42.662303 -0.873531 1.320365 0.059373 -0.021396 -52997.600000 0 0 1
27.083626 -30.508496 9.739468 41.942203 -0.844796 1.336445 0.057993 -0.025389 -419019.000000 0 0 1
26.119726 -29.648686 9.191868 40.568154 -0.848593 1.342233 0.049662 -0.025899 -395330.000000 0 0 1
26.611026 -28.786126 8.234868 40.057469 -0.824642 1.363744 0.049052 -0.019692 -147588.000000 0 0 1
26.007926 -27.395586 8.386768 38.694550 -0.811377 1.352320 0.039886 -0.018147 -144680.000000 0 0 1
26.602626 -26.703546 9.452068 38.860271 -0.787291 1.325100 0.044535 -0.029107 -170795.000000 0 0 1
26.196226 -25.378416 9.557168 37.704717 -0.769543 1.314526 0.036185 -0.033179 -627498.000000 0 0 1
26.995026 -24.624346 10.578268 38.039316 -0.739504 1.288994 0.044484 -0.040204 -423135.000000 0 0 1
28.324226 -24.449646 10.168968 38.774410 -0.712111 1.305433 0.052102 -0.036533 -746462.000000 0 0 1
29.115026 -23.698946 11.079168 39.141701 -0.683205 1.283821 0.046290 -0.039743 1237.710000 0 0 1
30.515826 -23.546346 10.467568 39.940156 -0.657189 1.305618 0.061664 -0.040006 -23499.300000 0 0 1
30.409926 -22.832546 9.208868 39.126615 -0.644029 1.333207 0.060469 -0.035159 -464696.000000 0 0 1
31.662526 -22.727646 8.585168 39.909479 -0.622579 1.353986 0.062677 -0.035295 -82229.500000 0 0 1
31.662726 -21.868746 7.244168 39.156714 -0.604442 1.384720 0.060328 -0.016966 -51837.500000 0 0 1
31.325826 -20.519646 7.613268 38.214200 -0.579910 1.370228 0.046015 -0.006765 60637.500000 0 0 1
31.458226 -19.681946 6.427368 37.660457 -0.559069 1.399291 0.033486 -0.002349 13422.400000 0 0 1
30.978226 -18.240646 6.532468 36.538265 -0.532159 1.391046 0.045484 -0.002297 49391.200000 0 0 1
31.878026 -17.479746 7.333268 37.088096 -0.501562 1.371759 0.065080 -0.005781 434787.000000 0 0 1
31.396926 -16.168046 7.500068 36.102960 -0.475541 1.361531 0.069601 -0.010242 -84340.800000 0 0 1
32.149526 -15.485346 8.629968 36.713271 -0.448873 1.333512 0.073278 -0.031391 708919.000000 0 0 1
33.540126 -15.224446 8.366468 37.771968 -0.426107 1.347445 0.088294 -0.032107 468170.000000 0 0 1
34.162226 -15.110946 9.616868 38.573080 -0.416457 1.318823 0.079169 -0.045732 234807.000000 0 0 1
35.700326 -15.332046 9.564168 40.013225 -0.405647 1.329435 0.071448 -0.056691 430874.000000 0 0 1
36.429126 -14.256346 9.018468 40.145453 -0.373023 1.344218 0.078131 -0.041846 -1156060.000000 0 0 1
-35.341228 -14.385846 9.049768 39.215472 0.386574 1.337927 0.078095 -0.048144 -689697.000000 0 0 1
-34.596128 -13.271146 8.269568 37.965789 0.366291 1.351220 0.084633 -0.042005 56419.500000 0 0 1
-34.825128 -13.314046 6.837168 37.905148 0.365165 1.389428 0.102313 -0.044090 275490.000000 0 0 1
-33.830228 -12.546146 6.153468 36.602668 0.355133 1.401879 0.089525 -0.034611 969118.000000 0 0 1
-32.629028 -13.388746 5.575668 35.707143 0.389382 1.414005 0.058836 -0.026246 80281.600000 0 0 1
-31.779628 -13.811646 6.580368 35.270492 0.409980 1.383128 0.076998 -0.030034 -252690.000000 0 0 1
-30.779528 -14.728546 6.167868 34.674948 0.446314 1.391968 0.070580 -0.012087 307485.000000 0 0 1
-30.223928 -15.620346 7.268068 34.789450 0.477013 1.360330 0.053219 -0.018886 -322202.000000 0 0 1
-31.192128 -16.550446 7.631068 36.126158 0.487824 1.357959 0.074693 -0.026689 -168721.000000 0 0 1
-30.864328 -17.097046 8.883068 36.384401 0.505865 1.324158 0.050370 -0.020948 369362.000000 0 0 1
-32.130428 -17.718246 9.527868 37.908850 0.503954 1.316736 0.019851 -0.023247 -413478.000000 0 0 1
-33.179828 -16.769546 9.806968 38.448606 0.467969 1.312879 0.046333 -0.028077 1040990.000000 0 0 1
-34.173428 -17.157846 10.780768 39.729584 0.465311 1.295997 0.059124 -0.030340 641885.000000 0 0 1
-35.008628 -18.422246 10.416368 40.908238 0.484403 1.313334 0.072069 -0.033333 -759068.000000 0 0 1
-34.292928 -19.697046 10.519568 40.922364 0.521365 1.310816 0.072378 -0.026408 -34485.400000 0 0 1
-33.885428 -20.098646 11.843168 41.139257 0.535357 1.278784 0.050774 -0.038180 -662209.000000 0 0 1
-34.844028 -20.872546 12.736368 42.567412 0.539704 1.266937 0.060366 -0.042983 -451692.000000 0 0 1
-35.070828 -22.212646 12.423868 43.332633 0.564592 1.280006 0.063835 -0.043699 527843.000000 0 0 1
-36.182228 -22.398746 11.510368 44.083399 0.554312 1.306630 0.072029 -0.036370 375388.000000 0 0 1
36.494626 -23.864446 11.331168 45.052912 -0.579124 1.316558 0.072193 -0.030766 -296240.000000 0 0 1
36.143426 -24.452646 12.540768 45.404295 -0.594810 1.290956 0.098612 -0.022353 -83009.700000 0 0 1
35.457626 -25.657286 12.337368 45.472521 -0.626393 1.296038 0.075755 -0.015005 38680.700000 0 0 1
34.414826 -25.860266 13.474668 45.107652 -0.644414 1.267443 0.082524 -0.033171 561361.000000 0 0 1
33.311226 -24.946246 13.441068 43.733457 -0.642787 1.258399 0.077697 -0.035988 541996.000000 0 0 1
32.499626 -24.972046 14.624768 43.516808 -0.655161 1.228053 0.073963 -0.019485 -186684.000000 0 0 1
32.305626 -23.514346 15.161668 42.737034 -0.629188 1.208132 0.093059 -0.025690 303182.000000 0 0 1
33.460926 -22.912346 15.746368 43.503532 -0.600417 1.200431 0.099035 -0.028632 214017.000000 0 0 1
34.476926 -22.580546 14.808768 43.793140 -0.579845 1.225843 0.082792 -0.032296 332805.000000 0 0 1
35.757626 -22.017246 15.528368 44.771611 -0.551910 1.216602 0.067979 -0.030988 382581.000000 0 0 1
35.707126 -20.676346 16.047268 44.272169 -0.524875 1.199881 0.063225 -0.015181 -266699.000000 0 0 1
34.897926 -20.493546 17.165968 43.960449 -0.530986 1.169636 0.063796 -0.022075 -204294.000000 0 0 1
34.970226 -19.141946 17.829368 43.671697 -0.500828 1.150250 0.055172 -0.008791 -172068.000000 0 0 1
34.356826 -18.142146 17.008968 42.412662 -0.485836 1.158150 0.060356 -0.015756 279607.000000 0 0 1
34.210326 -16.862246 17.662668 42.031554 -0.457951 1.137104 0.061382 -0.010307 255368.000000 0 0 1
35.574026 -16.124746 17.853968 42.945115 -0.425572 1.142041 0.030659 -0.012798 143400.000000 0 0 1
36.267426 -16.622946 18.973168 44.177252 -0.429771 1.126881 0.034841 -0.001069 -277816.000000 0 0 1
-35.952828 -15.632146 19.333368 43.712114 0.410139 1.112648 0.028347 -0.009598 -315441.000000 0 0 1
-35.506028 -15.606146 20.833568 44.025758 0.414117 1.077862 0.025227 -0.003891 19711.500000 0 0 1
-34.613728 -16.621346 21.244268 43.882778 0.447679 1.065446 0.015983 0.000064 110933.000000 0 0 1
-34.421628 -16.510546 22.682168 44.406389 0.447240 1.034697 0.019272 -0.005030 -135494.000000 0 0 1
-33.544428 -17.649446 23.214368 44.448155 0.484349 1.021274 0.018307 -0.002671 -836020.000000 0 0 1
-34.034428 -18.960846 23.121468 45.304064 0.508284 1.035191 0.016809 -0.005326 -5036.090000 0 0 1
-33.214128 -19.953746 23.742568 45.442709 0.540979 1.021048 0.006958 -0.000096 99091.000000 0 0 1
-31.934428 -20.366346 22.974668 44.299335 0.567719 1.025556 0.004379 0.006843 -11353.500000 0 0 1
-30.836728 -19.476546 22.958168 43.096602 0.563333 1.008992 0.007320 0.015206 -160641.000000 0 0 1
-29.766228 -20.136546 22.331268 42.310688 0.594772 1.014797 0.011182 0.006738 -418242.000000 0 0 1
-28.484228 -19.288946 22.360868 41.029539 0.595246 0.994414 0.029500 0.003370 -307030.000000 0 0 1
-27.873528 -19.222946 23.655768 41.304365 0.603745 0.960978 0.027201 -0.000992 -32588.000000 0 0 1
-26.792928 -18.346246 23.525868 40.098780 0.600412 0.943821 0.042753 -0.010751 -551795.000000 0 0 1
-26.499528 -17.669246 24.884468 40.418609 0.588078 0.907562 0.039025 -0.021737 -389445.000000 0 0 1
-25.408528 -16.727546 24.905868 39.315472 0.582218 0.884744 0.047310 -0.025422 674617.000000 0 0 1
-25.086828 -16.203046 26.148768 39.694404 0.573472 0.851638 0.044922 -0.032906 -191589.000000 0 0 1
-24.107428 -17.067446 26.979768 40.004671 0.616058 0.830624 0.033658 -0.022728 -612359.000000 0 0 1
-24.501528 -18.348446 27.371768 41.063415 0.642777 0.841194 0.035938 -0.018637 -329462.000000 0 0 1
-23.521228 -18.891646 28.201968 41.297620 0.676674 0.819077 0.029297 -0.015762 -558966.000000 0 0 1
-24.018428 -20.230046 28.815968 42.620413 0.699990 0.828330 0.017611 -0.001237 -273311.000000 0 0 1
-25.030528 -20.053546 29.780468 43.766977 0.675450 0.822444 0.026258 -0.011265 -132140.000000 0 0 1
-25.481828 -21.247746 30.241068 44.892232 0.695037 0.831677 0.026928 -0.008411 -50108.400000 0 0 1
-26.663828 -21.079346 31.277468 46.190676 0.668958 0.826930 0.042745 -0.011245 -488153.000000 0 0 1
-26.348428 -20.356546 32.435768 46.483413 0.657803 0.798486 0.058785 -0.015041 285598.000000 0 0 1
-27.359028 -20.407246 33.425568 47.772803 0.640875 0.795850 0.062755 -0.014226 478443.000000 0 0 1
-28.775828 -19.851246 33.156068 48.181377 0.603887 0.811859 0.049627 -0.021431 -187259.000000 0 0 1
-29.528628 -20.354246 32.035168 48.088327 0.603512 0.841730 0.058001 -0.022507 -681864.000000 0 0 1
-30.805128 -19.878546 32.299168 48.860503 0.573064 0.848581 0.060766 -0.030162 -489090.000000 0 0 1
-31.900628 -20.418546 31.307268 49.139720 0.569361 0.880057 0.052279 -0.010686 173534.000000 0 0 1
-31.887928 -19.756846 30.057868 48.069204 0.554686 0.895275 0.040992 -0.024851 1046230.000000 0 0 1
-33.056028 -20.188946 29.324168 48.581903 0.548286 0.922784 0.037446 -0.026836 807152.000000 0 0 1
-33.509628 -19.179046 28.219068 47.823078 0.519836 0.939648 0.032886 -0.017775 770771.000000 0 0 1
-34.698028 -19.580846 27.492368 48.406538 0.513772 0.966786 0.019381 -0.019299 860547.000000 0 0 1
-35.066228 -18.524746 26.621368 47.765090 0.486014 0.979618 0.034080 -0.018477 -556899.000000 0 0 1
-36.234628 -19.040946 25.774368 48.371727 0.483831 1.008844 0.019723 -0.017477 422453.000000 0 0 1
35.676026 -19.029746 26.554368 48.374006 -0.490013 0.989702 0.029591 -0.022415 998292.000000 0 0 1
34.599726 -19.474246 25.735968 47.315191 -0.512651 0.995688 0.071778 -0.017907 696915.000000 0 0 1
33.391026 -20.061746 26.545568 47.139171 -0.541017 0.972626 0.070798 -0.023149 145242.000000 0 0 1
32.436426 -19.153846 26.986268 46.338431 -0.533408 0.949151 0.059570 -0.032361 452482.000000 0 0 1
31.384026 -19.833446 27.696868 46.318885 -0.563589 0.929842 0.056820 -0.021700 453811.000000 0 0 1
-29.948494 -5.708246 33.782077 45.505221 0.188343 0.734183 0.036860 -0.001461 493348.000000 0 0 1
-30.749754 -5.644446 32.563995 45.142230 0.181540 0.765026 0.050593 0.000051 649964.000000 0 0 1
-30.449814 -4.528846 31.781071 44.246334 0.147649 0.769475 0.049444 -0.004802 -245901.000000 0 0 1
-31.302044 -4.457546 30.495641 43.928030 0.141453 0.803463 0.052345 -0.013048 2602.600000 0 0 1
-30.951524 -5.431946 29.463181 43.076466 0.173729 0.817600 0.048292 -0.015037 474627.000000 0 0 1
-29.602944 -5.362746 28.987561 41.777650 0.179212 0.803970 0.045730 -0.014139 466781.000000 0 0 1
-29.324254 -6.342146 27.814501 40.911871 0.212996 0.823219 0.046475 -0.023327 -178819.000000 0 0 1
-29.857624 -5.955846 26.591691 40.423605 0.196891 0.852868 0.066188 -0.024759 -195742.000000 0 0 1
-29.584354 -6.911846 25.545541 39.693605 0.229515 0.871645 0.088408 -0.023657 34159.900000 0 0 1
-30.374854 -6.578546 24.267251 39.431060 0.213285 0.907859 0.092981 -0.020907 -112631.000000 0 0 1
-29.930934 -5.403546 23.602781 38.498707 0.178610 0.910843 0.110226 -0.022722 -378521.000000 0 0 1
-30.546764 -5.087246 22.414971 38.228468 0.165025 0.944260 0.113634 -0.021795 -291452.000000 0 0 1
-30.004544 -3.798346 21.725571 37.238428 0.125923 0.947865 0.120401 -0.022997 -887582.000000 0 0 1
-28.710924 -3.947446 21.297971 35.965304 0.136633 0.937034 0.136550 -0.022587 -1146870.000000 0 0 1
-28.186154 -2.771646 20.710971 35.086830 0.098018 0.939394 0.137023 -0.022190 266537.000000 0 0 1
-26.751024 -2.962946 20.165171 33.630796 0.110310 0.927790 0.134634 -0.013752 97792.100000 0 0 1
-26.620014 -3.763146 18.966871 32.901803 0.140435 0.956395 0.150602 -0.023276 -141813.000000 0 0 1
-25.335484 -3.638346 18.399071 31.522217 0.142632 0.947536 0.131031 -0.013427 34078.500000 0 0 1
-25.202164 -4.233146 16.916771 30.647116 0.166414 0.986053 0.120891 -0.018837 -281054.000000 0 0 1
-25.970294 -3.464946 16.053271 30.727342 0.132636 1.021083 0.146009 -0.018728 -102137.000000 0 0 1
-26.075934 -4.088646 14.780671 30.251274 0.155531 1.060316 0.127640 -0.023520 495566.000000 0 0 1
-27.543734 -4.089246 14.245971 31.278218 0.147387 1.097908 0.150643 -0.031146 616845.000000 0 0 1
-27.938134 -2.864646 13.605871 31.206814 0.102178 1.119658 0.157734 -0.037383 1271800.000000 0 0 1
-29.304954 -2.935746 13.098271 32.232959 0.099846 1.152327 0.167559 -0.042383 1403480.000000 0 0 1
-29.648374 -1.643346 12.274671 32.130892 0.055371 1.178814 0.157699 -0.033679 -37139.800000 0 0 1
-28.749834 -1.473946 11.182271 30.883145 0.051223 1.200294 0.157680 -0.030740 260855.000000 0 0 1
-28.952814 -0.219646 10.426371 30.773737 0.007586 1.225147 0.145364 -0.022478 274107.000000 0 0 1
-30.262454 -0.085346 9.575171 31.741256 0.002820 1.264360 0.139404 -0.017365 552059.000000 0 0 1
-30.391994 -1.071446 8.587771 31.600176 0.035240 1.295571 0.136876 -0.029469 -687522.000000 0 0 1
-31.691734 -1.139146 8.100271 32.730384 0.035929 1.320713 0.123695 -0.032185 -618462.000000 0 0 1
-31.833424 -2.099746 6.920471 32.644582 0.065865 1.357181 0.134341 -0.036874 -289857.000000 0 0 1
-31.411814 -1.535046 5.656171 31.953884 0.048830 1.392848 0.139097 -0.041585 477936.000000 0 0 1
-31.933014 -0.272746 5.213871 32.357012 0.008541 1.408955 0.133386 -0.035455 -92475.200000 0 0 1
-31.415284 0.001154 3.793771 31.643527 -0.000037 1.450616 0.126004 -0.033805 17028.400000 0 0 1
-31.949104 -0.782146 2.736671 32.075635 0.024476 1.485373 0.116025 -0.046528 521624.000000 0 0 1
-31.277004 -0.481546 1.520971 31.317666 0.015395 1.522211 0.118748 -0.048872 -412359.000000 0 0 1
-32.061004 -1.150346 0.461171 32.084949 0.035865 1.556422 0.115580 -0.048080 159683.000000 0 0 1
-33.376874 -0.589546 0.401871 33.384499 0.017661 1.558758 0.122876 -0.042893 400455.000000 0 0 1
-34.043301 -0.967146 -0.780629 34.065982 0.028402 1.593714 0.108348 -0.038128 -428741.000000 0 0 1
-35.562506 -0.813046 -0.721429 35.579114 0.022858 1.591074 0.098816 -0.030034 -493952.000000 0 0 1
-36.257794 -1.758346 0.083071 36.300500 0.048458 1.568508 0.093422 -0.032283 -847223.000000 0 0 1
35.526850 -1.512646 -0.026229 35.559047 -0.042552 1.571534 0.084688 -0.026018 -1111110.000000 0 0 1
34.762880 -2.718146 0.595571 34.874071 -0.078032 1.553718 0.088585 -0.031816 -520501.000000 0 0 1
34.808930 -2.786446 1.979571 34.976343 -0.079879 1.514169 0.088307 -0.034738 270454.000000 0 0 1
34.210440 -3.987746 2.462971 34.530024 -0.116042 1.499407 0.082530 -0.027039 -24463.400000 0 0 1
34.219350 -4.197646 3.993971 34.706425 -0.122059 1.455462 0.080819 -0.020571 -18629.500000 0 0 1
33.482780 -3.242146 4.721371 33.969095 -0.096529 1.431355 0.083513 -0.028047 114541.000000 0 0 1
33.606260 -3.341346 6.146771 34.326784 -0.099101 1.390759 0.071782 -0.026742 -69799.100000 0 0 1
32.835870 -2.201646 6.848071 33.614546 -0.066950 1.365637 0.093018 -0.025140 545118.000000 0 0 1
31.413890 -2.264446 6.781871 32.217293 -0.071960 1.358706 0.088926 -0.023102 159810.000000 0 0 1
30.832160 -1.183646 7.423671 31.735375 -0.038371 1.334684 0.111649 -0.021531 -561142.000000 0 0 1
29.332640 -1.416846 7.635571 30.343256 -0.048265 1.316422 0.093962 -0.018008 -658400.000000 0 0 1
28.586430 -1.371746 6.418071 29.330143 -0.047949 1.350190 0.098250 -0.016891 103710.000000 0 0 1
27.235780 -1.728946 6.623971 28.082983 -0.063396 1.332681 0.093980 -0.010087 38050.800000 0 0 1
26.852380 -3.230546 6.798371 27.887355 -0.119732 1.324535 0.111167 -0.017668 -808916.000000 0 0 1
27.236080 -3.961846 7.888471 28.630897 -0.144450 1.291663 0.085090 -0.013920 24940.000000 0 0 1
26.787980 -5.250446 7.727071 28.370243 -0.193547 1.294946 0.103432 -0.023326 -189778.000000 0 0 1
26.768380 -6.051346 9.017771 28.887457 -0.222326 1.253321 0.081283 -0.026896 158023.000000 0 0 1
25.825580 -5.589346 9.976871 28.244280 -0.213139 1.209769 0.083637 -0.017399 615042.000000 0 0 1
26.256080 -6.137146 11.184571 29.191453 -0.229619 1.177597 0.062988 -0.019156 -359429.000000 0 0 1
25.156080 -6.155146 12.226371 28.639105 -0.239964 1.129721 0.041758 -0.015511 12294.200000 0 0 1
24.163480 -7.145046 11.951771 27.888533 -0.287504 1.127903 0.061461 -0.023628 -829221.000000 0 0 1
23.039680 -6.931146 12.705571 27.208439 -0.292223 1.084933 0.061400 -0.027236 -832534.000000 0 0 1
22.055980 -8.101646 12.574471 26.649958 -0.352022 1.079422 0.075456 -0.023730 -334850.000000 0 0 1
22.543680 -9.218346 13.302871 27.751789 -0.388164 1.070880 0.062556 -0.025408 118828.000000 0 0 1
21.505180 -10.143146 13.537571 27.360958 -0.440720 1.053218 0.095821 -0.042975 -362838.000000 0 0 1
21.819880 -11.346446 14.407571 28.503107 -0.479523 1.040865 0.075666 -0.034168 -308937.000000 0 0 1
21.961580 -10.952846 15.756271 29.163949 -0.462629 1.000044 0.064995 -0.027041 114422.000000 0 0 1
22.341580 -12.030646 16.538071 30.288454 -0.493961 0.993191 0.064568 -0.024351 -146849.000000 0 0 1
22.096180 -11.766646 18.040471 30.856988 -0.489323 0.946350 0.069808 -0.018141 -482379.000000 0 0 1
20.769080 -11.625746 18.441671 30.109930 -0.510307 0.911605 0.062731 -0.015111 -687213.000000 0 0 1
20.622680 -11.816246 19.846671 30.964640 -0.520310 0.875066 0.074547 -0.007796 235861.000000 0 0 1
21.227380 -10.778746 20.851671 31.647673 -0.469849 0.851482 0.064369 -0.005333 -362117.000000 0 0 1
20.551580 -9.589746 20.992571 30.903377 -0.436588 0.823992 0.066698 -0.000369 -342287.000000 0 0 1
20.860780 -8.632246 20.006071 30.165058 -0.392348 0.845683 0.071263 -0.006388 -1243900.000000 0 0 1
21.935580 -7.658346 20.513671 30.994042 -0.335899 0.847501 0.071088 0.000706 -66698.300000 0 0 1
23.259680 -8.100846 20.631971 32.129654 -0.335140 0.873500 0.071533 0.001364 85920.900000 0 0 1
23.878680 -8.422846 19.361771 31.874973 -0.339109 0.917977 0.070060 -0.005307 -1230890.000000 0 0 1
25.215380 -9.139146 19.478371 33.147343 -0.347717 0.942670 0.059411 -0.006891 -600598.000000 0 0 1
25.071180 -10.393646 20.052071 33.744296 -0.392999 0.934481 0.052860 -0.013959 -530691.000000 0 0 1
26.179680 -11.215546 19.905571 34.747603 -0.404752 0.960803 0.055164 -0.012252 -392955.000000 0 0 1
25.862080 -12.723746 20.177071 35.183165 -0.457215 0.960041 0.049085 -0.014657 242186.000000 0 0 1
24.961580 -13.280146 19.228771 34.193397 -0.488937 0.973567 0.065806 -0.016719 180856.000000 0 0 1
24.629580 -14.592446 19.500171 34.638308 -0.534869 0.972827 0.055006 -0.011010 270554.000000 0 0 1
23.529480 -15.184646 18.550771 33.590788 -0.573096 0.985726 0.053263 -0.019890 164028.000000 0 0 1
23.969380 -15.282346 17.171771 33.210706 -0.567593 1.027389 0.069299 -0.022064 189267.000000 0 0 1
22.974980 -15.818946 16.322071 32.318706 -0.602986 1.041374 0.050896 -0.027393 -116972.000000 0 0 1
22.758680 -17.375546 16.432671 33.013631 -0.652066 1.049789 0.035027 -0.026402 -862499.000000 0 0 1
23.875280 -18.128146 16.147271 34.049861 -0.649417 1.076714 0.068659 -0.019991 -762781.000000 0 0 1
23.586680 -19.455046 16.292671 34.645078 -0.689700 1.081195 0.046576 -0.013941 22786.400000 0 0 1
24.753980 -20.430846 15.996471 35.861764 -0.690012 1.108439 0.045511 -0.007011 -80468.500000 0 0 1
25.190980 -20.404946 14.660771 35.579285 -0.680815 1.146083 0.040834 -0.022855 -333811.000000 0 0 1
26.237780 -21.320246 14.547071 36.804772 -0.682364 1.164457 0.041961 -0.029042 -439505.000000 0 0 1
26.776380 -21.287246 13.094771 36.627782 -0.671685 1.205197 0.037609 -0.047326 -337402.000000 0 0 1
25.823780 -21.606946 12.105771 35.780965 -0.696726 1.225655 0.025280 -0.037034 -39025.800000 0 0 1
26.342880 -21.210246 10.853171 35.519195 -0.677880 1.260272 0.028640 -0.032535 -1189930.000000 0 0 1
25.426880 -21.109346 9.690171 34.438788 -0.692885 1.285571 0.013352 -0.032932 -558791.000000 0 0 1
24.744380 -22.322546 9.282271 34.593944 -0.733988 1.299147 0.007785 -0.032205 103814.000000 0 0 1
23.435280 -22.445046 9.794371 33.895754 -0.763819 1.277661 0.001144 -0.017365 -471043.000000 0 0 1
22.586480 -23.301246 8.846671 33.635706 -0.800973 1.304651 0.006168 -0.020463 -835370.000000 0 0 1
22.916080 -24.678246 8.870471 34.825965 -0.822406 1.313250 0.005847 -0.016062 -50131.500000 0 0 1
22.291480 -25.444566 7.866771 34.730709 -0.851355 1.342306 0.015766 -0.005363 102726.000000 0 0 1
20.770280 -25.705276 7.981971 33.998200 -0.891187 1.333808 0.019208 0.009262 -79125.600000 0 0 1
19.991180 -24.533846 7.797571 32.593849 -0.887071 1.329219 0.015839 0.001884 -1534310.000000 0 0 1
18.682580 -24.983546 7.705271 32.133901 -0.928708 1.328651 0.023450 -0.013752 -1254570.000000 0 0 1
17.728980 -23.831846 7.494471 30.633980 -0.931198 1.323642 0.026516 -0.015010 -568612.000000 0 0 1
17.722480 -23.292846 6.199971 29.917931 -0.920384 1.362051 0.034167 -0.010166 279788.000000 0 0 1
16.616180 -22.404446 6.149771 28.563549 -0.932663 1.353796 0.043109 -0.008755 -42643.600000 0 0 1
16.393680 -21.777846 4.772471 27.673160 -0.925526 1.397471 0.051596 -0.003697 -319583.000000 0 0 1
15.536580 -20.681146 4.909171 26.328598 -0.926500 1.383241 0.067952 -0.007632 -280924.000000 0 0 1
15.202880 -20.140446 3.663371 25.498734 -0.924203 1.426629 0.067003 -0.007575 94988.000000 0 0 1
14.373680 -18.878646 3.807171 24.031240 -0.920057 1.411700 0.069869 -0.005881 121500.000000 0 1 0
15.243480 -17.802746 4.191171 23.808977 -0.862689 1.393841 0.060028 -0.004145 297822.000000 0 1 0
14.625080 -16.557846 4.169971 22.482079 -0.847301 1.384236 0.044321 -0.005189 -36203.800000 0 1 0
15.632180 -15.401046 4.393671 22.379938 -0.777950 1.373191 0.040569 -0.005613 -609348.000000 0 1 0
15.968180 -15.107346 5.722071 22.714682 -0.757704 1.316142 0.056177 -0.019347 -143322.000000 0 1 0
17.110080 -14.335946 5.837971 23.072843 -0.697407 1.314992 0.071686 -0.019589 -276552.000000 0 1 0
18.538180 -14.921646 5.697671 24.470045 -0.677730 1.335797 0.082224 -0.021597 -567615.000000 0 1 0
19.438680 -13.896146 5.471171 24.513239 -0.620637 1.345708 0.094085 -0.024660 82648.800000 0 1 0
20.751080 -14.441146 5.289671 25.828950 -0.607984 1.364541 0.098130 -0.022364 516317.000000 0 0 1
21.891080 -13.415346 5.208171 26.197632 -0.549794 1.370660 0.100880 -0.024655 -30983.700000 0 0 1
21.912680 -12.597446 6.390971 26.071166 -0.521754 1.323137 0.113601 -0.030967 263397.000000 0 0 1
23.000380 -11.694246 6.347971 26.571970 -0.470374 1.329566 0.117845 -0.035103 154979.000000 0 0 1
23.005080 -10.876346 7.683071 26.581162 -0.441636 1.277570 0.114364 -0.038682 -6414.730000 0 0 1
23.515680 -11.678446 8.750671 27.675758 -0.460943 1.249090 0.112962 -0.032726 241477.000000 0 0 1
23.536580 -11.084146 9.988371 27.867480 -0.440125 1.204217 0.125805 -0.044661 41453.600000 0 0 1
24.070780 -11.958146 11.145171 29.096642 -0.461077 1.177712 0.099340 -0.033982 -258748.000000 0 0 1
23.175780 -12.995446 11.466571 28.939258 -0.511047 1.163390 0.102652 -0.037073 -63522.900000 0 0 1
23.628980 -13.964046 12.381671 30.110282 -0.533754 1.147014 0.102276 -0.038718 -246563.000000 0 0 1
22.567480 -14.985446 12.830871 29.974756 -0.586174 1.128456 0.083546 -0.041030 -92637.600000 0 0 1
21.395780 -14.472146 13.403471 29.101125 -0.594712 1.092145 0.063051 -0.035550 322016.000000 0 0 1
20.326680 -15.465046 13.321971 28.806536 -0.650393 1.090025 0.035732 -0.028586 1343810.000000 0 0 1
19.020280 -14.830446 13.916971 27.845920 -0.662251 1.047446 0.036799 -0.033632 -363722.000000 0 0 1
19.070680 -14.777146 15.310271 28.573752 -0.659224 1.005323 0.042807 -0.034988 68968.800000 0 0 1
18.712480 -13.542846 15.881971 28.032171 -0.626477 0.968468 0.059328 -0.036060 -649351.000000 0 0 1
17.246980 -13.108046 15.878071 26.858748 -0.649883 0.938288 0.071546 -0.040168 -542549.000000 0 0 1
16.864280 -12.836746 14.485871 25.671511 -0.650618 0.971238 0.075079 -0.053195 -501558.000000 0 0 1
15.480980 -12.729746 14.306671 24.624947 -0.688181 0.950861 0.105773 -0.050147 -206352.000000 0 1 0
14.919480 -11.294346 14.113971 23.438373 -0.647979 0.924575 0.088496 -0.052140 -140950.000000 0 1 0
15.208380 -10.449646 15.154871 23.878024 -0.602014 0.883204 0.079578 -0.039108 43923.100000 0 1 0
14.753880 -9.157646 14.912071 22.889066 -0.555497 0.861245 0.077586 -0.032454 -620846.000000 0 1 0
15.400380 -8.176446 15.886271 23.588124 -0.488080 0.831882 0.090097 -0.025793 1135870.000000 0 1 0
16.836580 -8.092846 15.706571 24.406166 -0.448065 0.871670 0.091673 -0.035567 1361780.000000 0 1 0
17.608580 -8.854446 16.619371 25.781133 -0.465924 0.870253 0.103725 -0.031652 -1248300.000000 0 0 1
19.080280 -8.756846 16.379371 26.627490 -0.430270 0.908245 0.078187 -0.025855 -1181990.000000 0 0 1
19.739880 -7.564946 16.709171 26.946014 -0.365968 0.901929 0.074017 -0.022717 376733.000000 0 0 1
21.091280 -7.505146 16.290971 27.686911 -0.341869 0.941718 0.061699 -0.019930 131622.000000 0 0 1
21.749480 -6.111446 16.445471 27.943571 -0.273929 0.941564 0.058238 -0.006111 -182850.000000 0 0 1
22.121280 -5.897846 17.768471 28.980238 -0.260553 0.910788 0.063083 -0.004792 111849.000000 0 0 1
22.412680 -4.567146 18.016871 29.116914 -0.201023 0.903612 0.077151 -0.009422 -37477.500000 0 0 1
-5.546874 -32.778846 -6.676632 33.908671 1.403163 1.768992 0.036355 -0.024973 -204898.000000 0 0 1
-6.148374 -31.517046 -6.729132 32.808656 1.378135 1.777365 0.035559 -0.028142 54389.000000 0 0 1
-5.736174 -30.709646 -5.626532 31.743407 1.386137 1.748988 0.039922 -0.026072 -410789.000000 0 0 1
-6.495074 -29.328646 -5.645332 30.565098 1.352855 1.756562 0.046054 -0.024335 1383420.000000 0 0 1
-7.901774 -29.288946 -5.327132 30.800304 1.307283 1.744628 0.046663 -0.028617 1239260.000000 0 0 1
-8.736174 -29.900046 -6.333232 31.787471 1.286530 1.771375 0.044482 -0.025254 -464863.000000 0 0 1
-10.221174 -29.805046 -5.908232 32.058078 1.240430 1.756154 0.052814 -0.019280 -11447.100000 0 0 1
-11.079274 -30.484646 -6.802532 33.141189 1.222201 1.777525 0.039286 -0.022845 -764939.000000 0 0 1
-12.391474 -30.191546 -6.421932 33.261378 1.181332 1.765091 0.042326 -0.017950 -448651.000000 0 0 1
-13.481874 -30.747146 -7.343432 34.366756 1.157567 1.786135 0.047522 -0.024033 -108942.000000 0 0 1
-13.675574 -29.954646 -8.510532 34.010753 1.142515 1.823715 0.063392 -0.030818 223271.000000 0 0 1
-14.775674 -30.363646 -9.308532 35.027422 1.117907 1.839778 0.065765 -0.025609 81205.000000 0 0 1
-14.941774 -29.450546 -10.519332 34.659019 1.101285 1.879170 0.075329 -0.025250 -250487.000000 0 0 1
-15.374274 -28.094046 -10.338232 33.652976 1.070072 1.883047 0.083607 -0.032870 501947.000000 0 0 1
-14.363874 -27.225546 -9.823832 32.311900 1.085323 1.879718 0.072785 -0.024226 -180108.000000 0 0 1
-14.777274 -25.803746 -9.535032 31.226879 1.050708 1.881099 0.071467 -0.018460 -198749.000000 0 0 1
-14.879674 -25.049046 -10.721932 31.045438 1.034784 1.923421 0.079227 -0.024742 217572.000000 0 0 1
-15.185774 -23.689846 -10.385832 29.994700 1.000757 1.924373 0.073628 -0.010895 -362442.000000 0 0 1
-15.810374 -22.866146 -11.500332 30.084651 0.965844 1.963043 0.063641 -0.011993 -21423.700000 0 0 1
-17.143774 -23.301246 -11.696632 31.203658 0.936481 1.955029 0.060192 -0.015281 -184288.000000 0 0 1
-17.814474 -22.620546 -12.748432 31.489159 0.903702 1.987613 0.076374 -0.023857 545066.000000 0 0 1
-19.264174 -23.151546 -13.021332 32.812461 0.876792 1.978869 0.063719 -0.011523 529023.000000 0 0 1
-19.380174 -24.543446 -13.370632 34.010964 0.902412 1.974826 0.086696 -0.013429 -66477.200000 0 0 1
-19.086774 -25.409246 -12.313432 34.081598 0.926544 1.940450 0.089141 -0.019601 -1200220.000000 0 0 1
-19.307974 -26.901046 -12.557332 35.413991 0.948263 1.933268 0.099759 -0.020801 249425.000000 0 0 1
-18.537274 -27.611046 -13.554932 35.912903 0.979543 1.957826 0.095241 -0.023805 931819.000000 0 0 1
-17.124774 -27.523046 -13.321232 35.046129 1.014215 1.960707 0.094835 -0.028627 52017.400000 0 0 1
-16.442274 -28.771846 -13.900132 35.935792 1.051618 1.967960 0.092135 -0.029728 -296661.000000 0 0 1
-16.516774 -28.979946 -15.319732 36.706066 1.052775 2.001337 0.097794 -0.034945 -86451.600000 0 0 1
-15.717174 -30.031346 -15.803132 37.398533 1.088637 2.007065 0.112064 -0.039274 9632.800000 0 0 1
-16.402374 -31.428146 -15.665432 38.757864 1.089782 1.986886 0.114975 -0.042803 -14629.800000 0 0 1
-16.694274 -31.775846 -14.356032 38.658749 1.087054 1.951262 0.112762 -0.042349 64453.500000 0 0 1
-16.966574 -33.149246 -14.226532 39.863911 1.097734 1.935719 0.103016 -0.039712 -1059710.000000 0 0 1
-17.374674 -33.471646 -12.748832 39.809083 1.091996 1.896789 0.107677 -0.037774 1049340.000000 0 0 1
-18.760374 -33.189246 -12.451932 40.106462 1.056317 1.886486 0.120565 -0.036632 1153910.000000 0 0 1
-19.352374 -31.898046 -12.485532 39.343211 1.025469 1.893729 0.123115 -0.039028 -53345.500000 0 0 1
-18.697374 -30.865846 -11.481032 37.869597 1.026150 1.878817 0.131525 -0.036634 -105909.000000 0 0 1
-18.795574 -31.157346 -10.106032 37.764874 1.027993 1.841702 0.110325 -0.035906 89602.400000 0 0 1
-18.653674 -29.980346 -9.352432 36.527369 1.014215 1.829719 0.111699 -0.026688 -213292.000000 0 0 1
-18.773974 -30.223146 -7.866432 36.438735 1.014950 1.788390 0.093158 -0.022933 -245785.000000 0 0 1
-17.797074 -31.059746 -7.320332 36.538075 1.050470 1.772509 0.082661 -0.024795 -68596.600000 0 0 1
-18.172374 -31.473046 -6.006632 36.835681 1.047164 1.734593 0.092191 -0.024614 30519.300000 0 0 1
-17.278474 -32.610646 -5.434832 37.303315 1.083561 1.717010 0.078854 -0.023849 507051.000000 0 0 1
-16.013074 -32.194746 -4.935032 36.294280 1.109246 1.707192 0.069610 -0.018551 586645.000000 0 0 1
-16.080874 -32.237946 -3.545932 36.200184 1.108095 1.668907 0.056544 -0.017820 238695.000000 0 0 1
-14.950974 -31.353746 -2.934732 34.859743 1.125841 1.655083 0.052118 -0.012506 785297.000000 0 0 1
-13.619974 -31.801946 -3.186732 34.742233 1.166155 1.662650 0.041338 -0.013566 86138.700000 0 0 1
-12.734974 -31.022046 -2.401332 33.620132 1.181259 1.642283 0.051660 -0.011818 -399292.000000 0 0 1
-11.331174 -31.626646 -2.407532 33.681396 1.226765 1.642337 0.043844 -0.016730 -880053.000000 0 0 1
-11.179274 -32.742446 -1.571032 34.633973 1.241776 1.616173 0.041531 -0.009781 1196420.000000 0 0 1
-9.831974 -33.289246 -1.605432 34.747935 1.283611 1.617015 0.064872 -0.016342 1627210.000000 0 0 1
-8.715174 -32.544946 -0.816432 33.701548 1.309147 1.595024 0.075869 -0.023133 -445091.000000 0 0 1
-8.960274 -32.440746 0.557868 33.660061 1.301311 1.554222 0.074569 -0.016842 58221.300000 0 0 1
-7.865074 -32.013046 1.371068 32.993550 1.329884 1.529229 0.077325 -0.014749 211097.000000 0 0 1
-7.031574 -33.182246 1.852268 33.969624 1.361978 1.516242 0.082416 -0.016100 -321684.000000 0 0 1
-7.805674 -34.001746 2.758368 34.995083 1.345139 1.491893 0.079934 -0.027099 118736.000000 0 0 1
-7.155874 33.040754 3.226468 33.960389 -1.357513 1.475646 0.089618 -0.022226 -4027.950000 0 0 1
-6.172374 33.202754 4.442268 34.062513 -1.386995 1.440009 0.088529 -0.027717 133278.000000 0 0 1
-5.023374 33.926254 4.145468 34.545765 -1.423797 1.450507 0.095648 -0.025708 -464945.000000 0 0 1
-4.305774 -33.810646 5.292268 34.492138 1.444128 1.416754 0.082641 -0.025760 1048810.000000 0 0 1
-3.045574 -32.894846 4.972568 33.407676 1.478474 1.421396 0.096298 -0.021396 817857.000000 0 0 1
-3.270374 -31.666746 4.281868 32.121839 1.467886 1.437098 0.083789 -0.015523 -113969.000000 0 0 1
-3.519074 -31.757346 2.906568 32.083657 1.460435 1.480079 0.080306 -0.016042 -77444.000000 0 0 1
-3.871174 -30.384846 2.251268 30.713076 1.444074 1.497431 0.064558 -0.019762 766162.000000 0 0 1
-2.819774 -29.420846 2.443368 29.656489 1.475245 1.488314 0.063614 -0.024841 267552.000000 0 0 1
-3.208074 -28.274646 1.848268 28.516021 1.457818 1.505936 0.069965 -0.022713 113990.000000 0 0 1
-2.641174 -27.064746 2.505468 27.308490 1.473517 1.478920 0.068836 -0.019267 -96351.000000 0 0 1
-3.069374 -25.904646 1.772968 26.146035 1.452859 1.502934 0.076053 -0.020325 -88622.600000 0 0 1
-2.799774 -24.705046 2.429568 24.981610 1.457950 1.473388 0.053128 -0.019352 167767.000000 0 1 0
-3.915474 -24.219846 3.401168 24.768928 1.410519 1.433045 0.038238 -0.015912 40876.100000 0 1 0
-4.110374 -25.052746 4.513168 25.785731 1.408176 1.394864 0.063270 -0.014514 -64182.800000 0 0 1
-5.056874 -24.429046 5.353368 25.514874 1.366677 1.359412 0.040664 -0.011268 -2654.720000 0 0 1
-5.777074 -25.356346 6.381768 26.777711 1.346785 1.330157 0.048364 -0.010551 81280.700000 0 0 1
-5.041174 -25.677446 7.568168 27.240077 1.376935 1.289260 0.054908 -0.016727 490757.000000 0 0 1
-5.802874 -26.556746 8.434968 28.461953 1.355669 1.269918 0.051282 -0.012134 201317.000000 0 0 1
-4.920174 -27.086746 9.529668 29.132705 1.391110 1.237550 0.037096 -0.005499 -242762.000000 0 0 1
-4.524874 -26.081846 10.453968 28.460896 1.399019 1.194681 0.029492 -0.013651 -318018.000000 0 0 1
-5.496674 -25.595846 11.360068 28.537903 1.359260 1.161385 0.033857 -0.018780 -654585.000000 0 0 1
-5.084774 -24.439446 12.285368 27.822144 1.365667 1.113451 0.031575 -0.017842 202186.000000 0 0 1
-4.174774 -24.979246 13.253468 28.584014 1.405197 1.088667 0.028511 -0.013169 -103964.000000 0 0 1
-3.742674 -24.003646 14.155468 28.116897 1.416121 1.043209 0.034710 -0.018503 585523.000000 0 0 1
-2.589074 -24.639946 15.020868 28.973379 1.466104 1.025774 0.031061 -0.015181 699594.000000 0 0 1
-3.136374 -25.558146 15.978868 30.304783 1.448692 1.015409 0.040067 -0.015709 -416501.000000 0 0 1
-2.130474 -26.121346 16.731168 31.093337 1.489416 1.002621 0.048467 -0.014175 -538645.000000 0 0 1
-2.540274 -26.673546 18.122468 32.347409 1.475847 0.976115 0.054089 -0.016133 -206891.000000 0 0 1
-2.725374 -25.614546 19.006968 32.012458 1.464796 0.935102 0.058122 -0.018587 -72764.800000 0 0 1
-2.508674 -26.088046 20.304968 33.153752 1.474929 0.911642 0.059613 -0.023115 245559.000000 0 0 1
-3.054674 -25.125946 21.433768 33.167010 1.449816 0.868152 0.079540 -0.030605 -18504.300000 0 0 1
-2.458374 -25.367146 22.669268 34.109110 1.474186 0.843824 0.054198 -0.031294 -139106.000000 0 0 1
-2.697474 -24.303746 23.568968 33.962401 1.460259 0.803805 0.060109 -0.031427 -17976.800000 0 0 1
-1.881474 -22.998946 23.435068 32.889114 1.489171 0.777673 0.063788 -0.030571 -122367.000000 0 0 1
-2.275774 -22.110446 22.375068 31.538779 1.468230 0.782084 0.079782 -0.027203 -25284.800000 0 0 1
-1.220474 -21.327146 21.818168 30.534720 1.513632 0.774835 0.075701 -0.034619 21579.000000 0 0 1
-1.757874 -20.076546 21.117168 29.190625 1.483460 0.762049 0.057927 -0.009576 -267284.000000 0 0 1
-2.419874 -19.099746 21.960868 29.205064 1.444771 0.719775 0.057290 -0.023657 1102730.000000 0 0 1
-3.730474 -19.407846 22.494068 29.942678 1.380898 0.720861 0.075792 -0.030286 732215.000000 0 0 1
-4.887974 -19.146546 21.496268 29.198836 1.320843 0.743354 0.062798 -0.025356 -542356.000000 0 0 1
-4.884374 -20.062246 20.348368 28.989772 1.331981 0.792713 0.076066 -0.023388 -190933.000000 0 0 1
-5.298574 -21.433746 20.569268 30.175737 1.328448 0.820782 0.056131 -0.017099 -42589.000000 0 0 1
-5.314674 -22.093146 19.198968 29.748163 1.334724 0.869271 0.049872 -0.019881 9663.760000 0 0 1
-5.750274 -23.431646 19.216468 30.844453 1.330146 0.898209 0.043473 -0.018685 -332269.000000 0 0 1
-5.574574 -23.986946 17.915968 30.453757 1.342449 0.941840 0.035909 -0.020087 -82984.200000 0 0 1
-6.304674 -25.325446 17.694668 31.531387 1.326810 0.974990 0.033859 -0.026020 -272401.000000 0 0 1
-7.688274 -25.214746 17.862268 31.842638 1.274839 0.975258 0.067509 -0.030359 -1044580.000000 0 0 1
-8.271774 -26.426446 17.493068 32.753423 1.267446 1.007373 0.074474 -0.031753 -268418.000000 0 0 1
-9.791074 -26.595246 17.506568 33.311442 1.218043 1.017444 0.062123 -0.034181 -550434.000000 0 0 1
-10.464574 -25.819846 16.502568 32.380650 1.185736 1.036027 0.082539 -0.038680 413837.000000 0 0 1
-11.876074 -25.959546 16.578868 33.012089 1.141736 1.044648 0.112692 -0.046433 629047.000000 0 0 1
-12.697674 -25.242046 17.677468 33.329936 1.104722 1.011750 0.109431 -0.043604 -440371.000000 0 0 1
-12.564774 -23.838746 17.511268 32.137266 1.085725 0.994539 0.109048 -0.050538 -12985.200000 0 0 1
-12.674174 -23.000646 18.654968 32.212920 1.067158 0.953154 0.094029 -0.035520 423242.000000 0 0 1
-11.276174 -22.529946 19.174368 31.660811 1.106751 0.920254 0.099419 -0.037325 612545.000000 0 0 1
-10.531774 -23.479546 19.896668 32.528214 1.149148 0.912621 0.107674 -0.040189 -127884.000000 0 0 1
-9.151874 -23.163846 19.837268 31.840819 1.194527 0.898207 0.073483 -0.038173 1692.280000 0 0 1
-8.401274 -24.043746 20.824468 32.898960 1.234642 0.885397 0.061562 -0.033055 -333350.000000 0 0 1
-8.584174 -23.639746 22.169468 33.526272 1.222477 0.848304 0.065176 -0.030367 -273056.000000 0 0 1
-7.615074 -24.251646 22.943968 34.242624 1.266543 0.836532 0.048306 -0.029238 -329947.000000 0 0 1
-7.586274 -23.834846 24.383968 34.931781 1.262650 0.798132 0.055674 -0.031445 -178972.000000 0 0 1
-6.560574 -24.441146 25.115968 35.654208 1.308555 0.789174 0.055567 -0.030348 -223863.000000 0 0 1
-6.500374 -24.020046 26.472968 36.332292 1.306504 0.754470 0.060887 -0.024728 -120262.000000 0 0 1
-5.440174 -24.778146 27.296968 37.264949 1.354670 0.748794 0.065750 -0.021612 -531375.000000 0 0 1
-4.166074 -24.534646 26.808368 36.578595 1.402597 0.748225 0.056148 -0.021135 -736615.000000 0 0 1
-3.205574 -24.439646 27.860268 37.199012 1.440378 0.724318 0.047401 -0.020544 601737.000000 0 0 1
-1.849774 -23.813746 27.470468 36.402510 1.493275 0.715705 0.040523 -0.024646 -684866.000000 0 0 1
-2.028774 -22.448246 27.181068 35.310765 1.480666 0.692320 0.050102 -0.027059 -315169.000000 0 0 1
-0.954174 -21.697446 26.673368 34.397066 1.526848 0.683361 0.049085 -0.034788 288999.000000 0 0 1
0.259326 -21.462746 27.640968 34.996283 -1.558714 0.660271 0.056044 -0.027388 253410.000000 0 0 1
0.844226 -22.632046 28.170468 36.145504 -1.533511 0.677148 0.058718 -0.031766 -190864.000000 0 0 1
1.701426 -22.324146 29.248368 36.833807 -1.494729 0.653332 0.039486 -0.036194 -449012.000000 0 0 1
2.177126 -23.563546 29.976968 38.191611 -1.478664 0.668246 0.043636 -0.036203 -920023.000000 0 0 1
2.988126 -24.439946 29.230968 38.218965 -1.449136 0.700021 0.044002 -0.041456 159645.000000 0 0 1
3.631626 -25.434446 30.025168 39.517217 -1.428971 0.707791 0.030182 -0.026109 -459131.000000 0 0 1
4.914526 -24.846146 30.713168 39.809323 -1.375519 0.689590 0.025726 -0.027299 212061.000000 0 0 1
6.117426 -24.717846 29.956868 39.316774 -1.328181 0.704499 0.038623 -0.021733 424474.000000 0 0 1
6.568826 -25.769346 29.221068 39.510498 -1.321203 0.738354 0.037221 -0.019094 -1651770.000000 0 0 1
7.903026 -25.417246 28.561068 39.041373 -1.269341 0.750191 0.045516 -0.020481 -558251.000000 0 0 1
7.869526 -24.439646 27.560568 37.667102 -1.259282 0.750001 0.049649 -0.024920 -127204.000000 0 0 1
9.067526 -24.369646 26.824868 37.358710 -1.214586 0.769821 0.032956 -0.016735 -283903.000000 0 0 1
9.052326 -23.256946 25.755268 35.863128 -1.199608 0.769650 0.040737 -0.013816 82408.300000 0 0 1
8.253026 -23.431446 24.594568 34.957658 -1.232145 0.790411 0.056772 -0.019151 114732.000000 0 0 1
7.994326 -22.153646 23.933668 33.578471 -1.224481 0.777359 0.049478 -0.011120 280997.000000 0 0 1
7.301226 -22.382846 22.562568 32.609341 -1.255482 0.806672 0.064692 -0.006852 -59895.100000 0 0 1
8.198626 -22.872946 21.595568 32.507809 -1.226621 0.844213 0.054833 0.003783 -135996.000000 0 0 1
7.565526 -23.136846 20.400668 31.760637 -1.254765 0.873268 0.075044 -0.004326 -139198.000000 0 0 1
8.369726 -24.130446 19.497868 32.132500 -1.236928 0.918773 0.063297 -0.013112 578893.000000 0 0 1
9.504126 -23.480646 18.911868 31.612148 -1.186190 0.929485 0.049804 -0.010382 8757.030000 0 0 1
10.073226 -24.289846 17.895868 31.807681 -1.177674 0.973236 0.065241 -0.019630 86990.000000 0 0 1
11.456426 -23.784346 17.439268 31.639735 -1.121912 0.987016 0.047597 -0.013726 1031.960000 0 0 1
11.328926 -22.583946 16.701768 30.287427 -1.105841 0.986704 0.055997 -0.006448 -745777.000000 0 0 1
12.552226 -22.101046 16.263768 30.174902 -1.054279 1.001567 0.054221 -0.018437 -528269.000000 0 0 1
-12.120874 22.407254 11.532568 27.964276 -1.074939 1.145705 0.049340 -0.025597 -271586.000000 0 0 1
-13.289374 21.794854 11.038968 27.811543 -1.023240 1.162637 0.031443 -0.025958 126240.000000 0 0 1
-12.967574 20.502954 10.493768 26.431955 -1.006841 1.162539 0.050200 -0.028635 -438732.000000 0 0 1
-14.077974 19.948554 9.642668 26.251004 -0.956246 1.194664 0.050887 -0.026509 -1331510.000000 0 0 1
-14.286774 20.854754 8.467068 26.659405 -0.970167 1.247597 0.051247 -0.023953 -160943.000000 0 0 1
-15.071674 20.251254 7.453268 26.321471 -0.930996 1.283706 0.055905 -0.016109 24185.600000 0 0 1
-16.579074 20.109454 7.751868 27.190941 -0.881329 1.281696 0.041711 -0.015742 -483914.000000 0 0 1
-16.960374 19.166754 8.803968 27.065265 -0.846395 1.239482 0.036754 -0.019987 591899.000000 0 0 1
-18.389674 19.119354 8.870868 27.971809 -0.804849 1.248088 0.042892 -0.017502 380469.000000 0 0 1
-18.803874 18.023154 9.813168 27.833757 -0.764202 1.210487 0.037236 -0.015929 -241437.000000 0 0 1
-18.867974 16.761754 9.196868 26.861482 -0.726353 1.221346 0.040341 -0.009609 22403.600000 0 0 1
-19.233174 15.758454 10.103368 26.838813 -0.686421 1.184839 0.047101 -0.016163 -1302600.000000 0 0 1
-18.172274 15.131854 10.952368 26.060677 -0.694358 1.137060 0.041979 -0.009464 -157607.000000 0 0 1
-17.158474 14.410954 10.188668 24.614991 -0.698586 1.144039 0.021511 0.003876 720781.000000 0 1 0
-16.298874 13.623954 10.982468 23.914013 -0.696241 1.093648 0.008475 -0.002619 -83978.600000 0 1 0
-16.941674 12.503154 11.833268 24.153165 -0.635784 1.058791 0.013267 -0.005928 -370261.000000 0 1 0
-17.698374 11.590454 11.063868 23.874259 -0.579804 1.088943 -0.007136 -0.007267 551184.000000 0 1 0
-18.667374 10.886554 11.856268 24.648712 -0.527965 1.068990 0.023837 -0.010522 95811.700000 0 1 0
-19.761974 10.114254 11.128968 24.833197 -0.473046 1.106103 0.034758 -0.016207 -495837.000000 0 1 0
-19.397474 8.972654 10.306068 23.727316 -0.433256 1.121475 0.030376 -0.015330 406612.000000 0 1 0
-18.757174 9.260754 9.036868 22.787236 -0.458609 1.163012 0.037219 -0.013440 -27382.100000 0 1 0
-19.738674 9.608154 7.855968 23.316263 -0.453006 1.227141 0.048069 -0.014406 335502.000000 0 1 0
-20.440774 8.515254 7.330168 23.325226 -0.394719 1.251120 0.045502 -0.022515 200835.000000 0 1 0
-21.327574 8.866854 6.303868 23.942123 -0.394006 1.304359 0.060863 -0.015811 -26593.100000 0 1 0
-21.483774 7.728554 5.320468 23.443346 -0.345325 1.341852 0.059742 -0.013749 -296642.000000 0 1 0
-22.177574 6.630454 5.847268 23.874636 -0.290513 1.323364 0.070176 -0.022372 477275.000000 0 1 0
-22.031274 5.510854 4.987468 23.251266 -0.245108 1.354613 0.082667 -0.017121 -374791.000000 0 1 0
-22.914774 4.350554 5.445868 23.951444 -0.187625 1.341419 0.080761 -0.025341 -464040.000000 0 1 0
-24.202274 4.347754 4.891868 25.071566 -0.177747 1.374420 0.120125 -0.025782 -142312.000000 0 0 1
-24.850674 3.124654 5.075568 25.555447 -0.125081 1.370857 0.132141 -0.034518 -737287.000000 0 0 1
-26.062354 3.025254 4.170768 26.566779 -0.115560 1.413152 0.138780 -0.038941 -751356.000000 0 0 1
-25.802344 3.012354 2.762468 26.124059 -0.116221 1.464854 0.145739 -0.028638 1169180.000000 0 0 1
-26.984264 2.578054 2.038368 27.183668 -0.095250 1.495741 0.145078 -0.023521 883525.000000 0 0 1
-26.665224 2.525354 0.540268 26.789988 -0.094424 1.550628 0.157729 -0.025097 -86581.300000 0 0 1
-26.332654 3.800854 0.093568 26.605712 -0.143350 1.567279 0.160636 -0.031526 262491.000000 0 0 1
-26.260374 3.941754 -1.308132 26.586761 -0.148990 1.620019 0.180744 -0.025151 -821199.000000 0 0 1
-27.446784 4.569754 -2.017732 27.897667 -0.164982 1.643186 0.161077 -0.021447 -772377.000000 0 0 1
-28.458184 3.634254 -2.200232 28.773548 -0.127018 1.647338 0.138136 -0.018563 -727966.000000 0 0 1
-29.740244 4.178654 -2.225732 30.114733 -0.139591 1.644772 0.127143 -0.007847 -849333.000000 0 0 1
-30.798984 3.093154 -2.372832 31.044732 -0.100095 1.647304 0.129481 -0.013675 -742759.000000 0 0 1
-30.856854 2.465254 -3.617932 31.165884 -0.079724 1.687145 0.120278 -0.016750 318718.000000 0 0 1
-31.602144 1.269454 -3.674232 31.840336 -0.040148 1.686450 0.127691 -0.024629 -285232.000000 0 0 1
-31.904284 0.768754 -5.115932 32.321001 -0.024091 1.729750 0.121093 -0.012003 -497128.000000 0 0 1
-30.760514 0.366754 -5.828332 31.309954 -0.011922 1.758038 0.139870 -0.026098 14819.100000 0 0 1
-30.873474 -0.251346 -7.078232 31.675479 0.008141 1.796160 0.146001 -0.023384 -515901.000000 0 0 1
-31.358734 0.493954 -8.337432 32.451918 -0.015750 1.830627 0.143929 -0.019778 172983.000000 0 0 1
-32.748254 0.758054 -8.189732 33.765286 -0.023144 1.815789 0.132590 -0.011038 482495.000000 0 0 1
-33.319064 1.636454 -9.125332 34.584819 -0.049075 1.837812 0.129637 -0.011253 756542.000000 0 0 1
-34.878578 1.795554 -9.064032 36.081795 -0.051435 1.824724 0.120687 -0.010442 825286.000000 0 0 1
-35.209926 2.789054 -8.128532 36.243493 -0.079047 1.796996 0.097953 -0.005858 173652.000000 0 0 1
36.551440 2.904654 -7.843132 37.496126 0.079301 1.781524 0.107056 -0.008105 54164.400000 0 0 1
36.209070 3.693254 -6.514032 36.975255 0.101647 1.747893 0.111467 -0.011420 -79255.800000 0 0 1
34.850190 3.588254 -6.143232 35.568956 0.102601 1.744380 0.112801 -0.016433 190656.000000 0 0 1
34.430950 4.559254 -5.166832 35.113719 0.131651 1.718478 0.112947 -0.023346 366556.000000 0 0 1
33.014000 4.191754 -4.646932 33.601919 0.126293 1.709535 0.115696 -0.027976 247304.000000 0 0 1
32.924650 2.975354 -3.876032 33.285266 0.090124 1.687510 0.109161 -0.026553 -272381.000000 0 0 1
31.707630 2.330654 -4.148732 32.062715 0.073373 1.700554 0.113066 -0.024222 -154254.000000 0 0 1
31.526120 1.006554 -3.413232 31.726323 0.031917 1.678589 0.128964 -0.019883 119739.000000 0 0 1
32.444050 0.054654 -3.943932 32.682931 0.001685 1.691764 0.085279 -0.023417 448298.000000 0 0 1
32.257390 -1.106746 -3.234632 32.438048 -0.034296 1.670680 0.092186 -0.021390 233410.000000 0 0 1
33.396220 -2.098646 -3.609232 33.656179 -0.062758 1.678241 0.072909 -0.017354 237743.000000 0 0 1
33.317490 -3.360546 -2.977632 33.618666 -0.100524 1.659483 0.055984 -0.018716 -390448.000000 0 0 1
34.558960 -4.005146 -2.967232 34.916577 -0.115378 1.655880 0.073805 -0.018191 -272145.000000 0 0 1
34.529740 -5.459446 -2.432532 35.043198 -0.156810 1.640267 0.080631 -0.023625 -234423.000000 0 0 1
34.469510 -5.588446 -1.030532 34.934794 -0.160729 1.600299 0.089712 -0.030541 -2167.550000 0 0 1
34.500750 -6.923146 -0.641132 35.194357 -0.198036 1.589014 0.110480 -0.027308 -344695.000000 0 0 1
33.791590 -7.332146 0.668668 34.584376 -0.213669 1.551461 0.103101 -0.022581 -437167.000000 0 0 1
32.397350 -7.292746 0.426268 33.210753 -0.221413 1.557961 0.092286 -0.020787 223216.000000 0 0 1
31.697110 -7.472646 1.707468 32.610775 -0.231524 1.518413 0.105634 -0.027860 -326164.000000 0 0 1
31.655930 -8.874646 2.341168 32.959647 -0.273330 1.499705 0.098257 -0.025844 2877.520000 0 0 1
30.705500 -9.814446 1.774768 32.284685 -0.309369 1.515796 0.092684 -0.027606 1213020.000000 0 0 1
29.361970 -9.493446 2.159968 30.934063 -0.312716 1.500915 0.091591 -0.031778 -337429.000000 0 0 1
28.284700 -10.580046 1.738568 30.248707 -0.357942 1.513289 0.102764 -0.027351 -16271.100000 0 0 1
26.997780 -10.470746 2.317868 29.049770 -0.369978 1.490922 0.118387 -0.029951 412765.000000 0 0 1
26.258680 -9.361346 1.884768 27.941106 -0.342458 1.503290 0.126238 -0.031685 -1164230.000000 0 0 1
25.556480 -9.444946 0.507068 27.250648 -0.354003 1.552188 0.114148 -0.025252 -907726.000000 0 0 1
26.448380 -9.455546 -0.594132 28.094077 -0.343349 1.591946 0.106755 -0.031542 398727.000000 0 0 1
25.909180 -9.687946 -1.932432 27.728617 -0.357823 1.640544 0.105883 -0.023000 78338.600000 0 0 1
25.220180 -11.088446 -2.299032 27.645916 -0.414227 1.654052 0.101285 -0.015764 377543.000000 0 0 1
23.909280 -11.181346 -1.765432 26.453599 -0.437440 1.637583 0.091374 -0.007717 448361.000000 0 0 1
23.332280 -12.490146 -1.883232 26.531973 -0.491500 1.641836 0.074619 -0.003667 -225777.000000 0 0 1
21.899680 -12.812646 -1.452732 25.413979 -0.529362 1.627990 0.077288 -0.000703 -157009.000000 0 0 1
20.963380 -12.284846 -2.379732 24.414010 -0.530073 1.668425 0.072330 -0.000557 525833.000000 0 1 0
19.607780 -12.489146 -1.988132 23.332305 -0.567145 1.656109 0.078035 -0.002556 220010.000000 0 1 0
18.685280 -11.926346 -3.066032 22.378069 -0.568088 1.708239 0.075364 -0.002393 -378393.000000 0 1 0
18.676880 -12.597646 -4.328332 22.940379 -0.593409 1.760612 0.064193 -0.011151 362012.000000 0 1 0
17.637980 -12.120246 -5.154932 22.012997 -0.602062 1.807168 0.058219 -0.011550 -348910.000000 0 1 0
17.603280 -12.632846 -6.587132 22.646293 -0.622468 1.865933 0.063243 -0.019734 -469864.000000 0 1 0
16.871380 -13.810146 -6.818232 22.844078 -0.685953 1.873884 0.047779 -0.020934 240281.000000 0 1 0
16.997880 -14.196046 -8.159332 23.601491 -0.695819 1.923794 0.053268 -0.026608 -499937.000000 0 1 0
16.149880 -15.394246 -8.572832 23.901776 -0.761448 1.937638 0.051473 -0.025384 398130.000000 0 1 0
14.716780 -15.198146 -8.515432 22.805259 -0.801488 1.953465 0.055511 -0.018187 1474530.000000 0 1 0
14.023280 -16.114046 -9.362732 23.323285 -0.854662 1.983877 0.055650 -0.018553 -315386.000000 0 1 0
14.152680 -15.907546 -10.941432 23.938741 -0.843710 2.045483 0.069035 -0.025726 -1071540.000000 0 1 0
13.329880 -14.869946 -11.470432 23.029803 -0.839957 2.092167 0.057575 -0.020992 112111.000000 0 1 0
13.675280 -13.564146 -11.094532 22.228090 -0.781318 2.093382 0.058775 -0.012901 -237952.000000 0 1 0
13.574880 -12.532046 -12.226832 22.154570 -0.745475 2.155422 0.061497 -0.015863 548527.000000 0 1 0
14.775180 -12.574246 -13.013832 23.361880 -0.705097 2.161631 0.070448 -0.020193 630169.000000 0 1 0
14.556480 -12.055646 -14.320832 23.713202 -0.691700 2.219204 0.076746 -0.016557 -43042.200000 0 1 0
15.835980 -11.733246 -15.129932 24.846774 -0.637667 2.225507 0.088059 -0.029422 210702.000000 0 1 0
16.678980 -12.832946 -15.354532 26.050615 -0.655807 2.201126 0.091349 -0.028063 -366967.000000 0 0 1
17.679580 -12.629846 -16.315832 27.171436 -0.620308 2.214894 0.088665 -0.026886 -88730.400000 0 0 1
18.720380 -13.776646 -16.236332 28.352550 -0.634427 2.180542 0.078868 -0.023867 34389.400000 0 0 1
19.680480 -13.623546 -15.208332 28.358697 -0.605497 2.136825 0.081328 -0.029445 470123.000000 0 0 1
20.666180 -14.640146 -15.028932 29.449850 -0.616349 2.106357 0.061318 -0.015486 360338.000000 0 0 1
21.526680 -14.346246 -13.798732 29.319239 -0.587846 2.060809 0.046182 -0.008778 -250340.000000 0 0 1
22.458780 -13.320446 -13.971932 29.614962 -0.535335 2.062112 0.053278 -0.016471 -42740.400000 0 0 1
23.204680 -12.967546 -12.811032 29.508253 -0.509600 2.019892 0.031487 -0.003449 540855.000000 0 0 1
24.027680 -11.650646 -12.958232 29.681354 -0.451482 2.022588 0.045267 -0.020090 -389905.000000 0 0 1
23.237680 -10.498346 -12.918632 28.584893 -0.424334 2.039734 0.046245 -0.013106 -94675.500000 0 0 1
23.881880 -9.218346 -12.856532 28.646335 -0.368377 2.036221 0.060998 -0.018439 321125.000000 0 0 1
24.775780 -8.926846 -11.581432 28.769036 -0.345826 1.985115 0.068144 -0.017786 274586.000000 0 0 1
25.974180 -9.654246 -11.572932 30.029906 -0.355862 1.966416 0.056919 -0.013989 -186064.000000 0 0 1
26.832880 -9.271246 -10.495532 30.267403 -0.332676 1.924911 0.056522 -0.019076 -492659.000000 0 0 1
28.106280 -10.100546 -10.624232 31.699500 -0.344998 1.912566 0.065505 -0.014920 -450436.000000 0 0 1
28.771300 -9.703146 -11.832032 32.587356 -0.325272 1.942375 0.052880 -0.021001 178497.000000 0 0 1
29.925080 -10.463046 -12.139932 33.946483 -0.336355 1.936514 0.040943 -0.019825 427319.000000 0 0 1
30.801270 -9.994546 -13.335032 35.020455 -0.313766 1.961434 0.027986 -0.017157 48016.300000 0 0 1
30.164800 -10.232746 -14.558832 35.022619 -0.327046 1.999506 0.016050 -0.013170 -10626.100000 0 0 1
30.957430 -9.756646 -15.625732 36.023855 -0.305309 2.019459 0.014994 -0.006313 -114940.000000 0 0 1
30.655980 -10.310046 -16.989132 36.533776 -0.324431 2.054460 0.006282 0.001675 566861.000000 0 0 1
29.387600 -10.050846 -17.602132 35.699938 -0.329539 2.086397 0.008109 -0.002017 521647.000000 0 0 1
29.458240 -8.982646 -18.484732 35.918814 -0.295972 2.111367 0.014090 -0.001685 117577.000000 0 0 1
28.143240 -8.539746 -19.186632 35.115468 -0.294609 2.148841 -0.006197 -0.007931 264756.000000 0 0 1
27.603180 -9.441846 -20.154632 35.458331 -0.329581 2.175360 -0.005787 -0.002202 1250920.000000 0 0 1
26.263280 -9.055646 -20.545632 34.552679 -0.332037 2.207586 0.030949 -0.006150 1004710.000000 0 0 1
25.857180 -9.518946 -21.961232 35.234923 -0.352739 2.243727 0.043772 -0.012754 -44169.600000 0 0 1
25.590980 -10.913746 -21.952832 35.439173 -0.403114 2.238840 0.031531 -0.008060 -20003.300000 0 0 1
24.782180 -11.309746 -23.021532 35.665919 -0.428135 2.272444 0.038037 -0.012469 -1129570.000000 0 0 1
25.123180 -12.662346 -23.657832 36.758703 -0.466851 2.269987 0.026190 0.003716 738922.000000 0 0 1
26.360180 -12.896646 -24.346732 38.130643 -0.455008 2.263355 0.028270 0.007594 780978.000000 0 0 1
27.518280 -12.786246 -23.535632 38.401430 -0.434966 2.230502 0.015686 0.009477 101644.000000 0 0 1
28.843370 -13.435146 -24.027832 39.872044 -0.435913 2.217581 0.020088 0.014287 701018.000000 0 0 1
29.321370 -12.936746 -25.303062 40.833162 -0.415516 2.239118 0.035203 0.005286 -720211.000000 0 0 1
30.684890 -13.144346 -25.421462 41.959350 -0.404718 2.221642 0.016631 0.003922 -711565.000000 0 0 1
31.281960 -12.714646 -26.776442 43.095256 -0.386057 2.241237 0.036596 -0.004196 -76110.600000 0 0 1
31.174670 -13.647446 -27.817842 43.953899 -0.412640 2.256072 0.048668 -0.009031 -109372.000000 0 0 1
31.984880 -13.294746 -28.899342 45.110473 -0.393931 2.266121 0.045566 -0.014697 -102437.000000 0 0 1
31.914000 -14.223846 -30.151442 46.151172 -0.419266 2.282757 0.059047 -0.020695 263220.000000 0 0 1
32.775150 -15.370446 -30.081372 47.067505 -0.438514 2.264138 0.074897 -0.023616 46033.000000 0 0 1
32.744490 -16.180846 -31.244002 48.064635 -0.458961 2.278435 0.037989 -0.021636 111020.000000 0 0 1
31.443900 -16.897846 -31.688382 47.732689 -0.493115 2.296780 0.056096 -0.015690 189839.000000 0 0 1
30.540060 -16.105746 -32.404682 47.351386 -0.485299 2.324501 0.069198 -0.023309 808940.000000 0 0 1
29.356540 -16.836646 -32.848722 47.162672 -0.520723 2.341302 0.058888 -0.020498 1112560.000000 0 0 1
28.480800 -16.100646 -33.865682 47.087910 -0.514526 2.373448 0.061410 -0.017433 -393570.000000 0 0 1
27.762980 -15.007246 -33.384662 45.940572 -0.495558 2.384291 0.067919 -0.017421 328681.000000 0 0 1
28.508380 -13.768946 -33.299652 45.947562 -0.449938 2.381441 0.083155 -0.021486 570640.000000 0 0 1
27.583480 -12.553146 -32.870872 44.709329 -0.427084 2.396777 0.083983 -0.018817 1050170.000000 0 0 1
26.493380 -12.282846 -33.763682 44.640270 -0.434122 2.428512 0.071322 -0.015117 301861.000000 0 0 1
26.009280 -10.978546 -33.575712 43.867295 -0.399413 2.442448 0.054500 -0.025003 -56460.300000 0 0 1
20.670026 -29.448246 9.281068 37.156256 -0.958789 1.318338 0.038764 -0.012679 -191313.000000 0 0 1
21.179426 -29.140746 8.055668 36.914021 -0.942311 1.350798 0.037322 -0.017712 360648.000000 0 0 1
22.403026 -29.841046 7.802368 38.121654 -0.926818 1.364670 0.060456 -0.017142 550989.000000 0 0 1
23.055726 -29.637746 6.433868 38.096681 -0.909666 1.401100 0.055401 -0.018466 -88435.900000 0 0 1
23.495826 -28.312346 6.326668 37.331883 -0.878100 1.400504 0.046113 -0.002661 503164.000000 0 0 1
24.306026 -28.132646 5.123068 37.529648 -0.858242 1.433862 0.037164 0.000938 482043.000000 0 0 1
24.315726 -26.709346 4.707268 36.425294 -0.832274 1.441203 0.026553 -0.004978 403176.000000 0 0 1
25.154426 -25.806646 5.477368 36.451744 -0.798196 1.419962 0.031091 -0.008208 515107.000000 0 0 1
24.956426 -24.457046 5.180268 35.324290 -0.775292 1.423617 0.026078 -0.003922 -304232.000000 0 0 1
25.732526 -23.551546 6.122968 35.416507 -0.741174 1.397039 0.013396 -0.011890 -304832.000000 0 0 1
27.044026 -23.297546 5.656068 36.140643 -0.711114 1.413649 0.014292 -0.008945 155430.000000 0 0 1
27.830426 -22.531846 6.569968 36.405785 -0.680574 1.389337 0.021401 -0.014509 255721.000000 0 0 1
27.544826 -21.040946 6.456068 35.257902 -0.652325 1.386648 0.006586 -0.011976 -377749.000000 0 0 1
27.794326 -20.371746 5.254268 34.858857 -0.632497 1.419490 0.012278 0.005472 164575.000000 0 0 1
27.482126 -18.996646 5.458968 33.851737 -0.604820 1.408828 0.018918 -0.000880 -241636.000000 0 0 1
27.508326 -18.194646 4.201168 33.247601 -0.584364 1.444098 0.028996 0.003074 -381218.000000 0 0 1
28.820226 -18.044646 3.729268 34.207048 -0.559397 1.461559 0.052278 0.006134 -138189.000000 0 0 1
28.834026 -17.263046 2.552468 33.703544 -0.539466 1.494991 0.059800 0.009734 -3095.590000 0 0 1
29.887526 -16.140846 2.641068 34.070021 -0.495174 1.493200 0.070801 -0.004669 168739.000000 0 0 1
29.607326 -15.130446 3.602068 33.443969 -0.472438 1.462882 0.074556 -0.013476 -542376.000000 0 0 1
30.839626 -14.528946 3.881468 34.310911 -0.440272 1.457427 0.079652 -0.018647 -159890.000000 0 0 1
30.732326 -13.291546 4.793868 33.824876 -0.408201 1.428591 0.093194 -0.024113 72051.500000 0 0 1
30.232026 -13.569246 6.066668 33.688340 -0.421886 1.389726 0.083342 -0.029436 -86060.000000 0 0 1
30.024626 -12.438846 6.866568 33.216755 -0.392763 1.362575 0.072860 -0.028213 -82228.100000 0 0 1
29.499526 -12.730746 8.289668 33.181509 -0.407412 1.318294 0.088543 -0.017797 1215150.000000 0 0 1
28.103126 -13.140546 8.358368 32.129767 -0.437379 1.307625 0.080620 -0.011502 1119320.000000 0 0 1
27.645126 -13.430746 9.696368 32.228209 -0.452245 1.265196 0.085287 -0.013120 136685.000000 0 0 1
28.246826 -14.626046 10.455968 33.483304 -0.477782 1.253210 0.081180 -0.020188 -743890.000000 0 0 1
29.444026 -14.405946 11.125068 34.615734 -0.455023 1.243602 0.073664 -0.011824 -530672.000000 0 0 1
29.871326 -15.596346 11.788268 35.700215 -0.481185 1.234279 0.074914 -0.014908 114893.000000 0 0 1
30.778126 -15.413746 13.038068 36.808529 -0.464289 1.208724 0.089527 -0.014791 831079.000000 0 0 1
32.164426 -15.213346 12.734868 37.791177 -0.441804 1.227089 0.075636 -0.013838 426671.000000 0 0 1
32.893526 -15.195746 13.956268 38.828754 -0.432762 1.203138 0.067073 -0.013938 -354782.000000 0 0 1
34.367726 -14.885346 13.707668 39.882506 -0.408728 1.219941 0.072545 -0.018706 -412736.000000 0 0 1
34.764726 -13.516746 13.462168 39.654994 -0.370820 1.224430 0.073694 -0.023504 1041500.000000 0 0 1
36.158726 -13.436546 13.106768 40.740417 -0.355786 1.243257 0.085480 -0.022428 843938.000000 0 0 1
-36.437728 -11.982746 13.115368 40.537724 0.317715 1.241333 0.085453 -0.031867 -883013.000000 0 0 1
-35.217728 -11.863946 12.468768 39.198364 0.324934 1.247078 0.098598 -0.032904 -374551.000000 0 0 1
-34.549928 -10.598646 12.630168 38.282502 0.297650 1.234577 0.109218 -0.040471 387037.000000 0 0 1
-33.272828 -10.374346 11.787068 36.791889 0.302244 1.244675 0.111247 -0.035157 472058.000000 0 0 1
-32.234828 -11.341446 11.972468 36.208459 0.338312 1.233800 0.099212 -0.031696 403320.000000 0 0 1
-32.362728 -12.600346 11.264468 36.510315 0.371290 1.257151 0.076449 -0.032002 -533395.000000 0 0 1
-31.455828 -13.732746 11.807068 36.296891 0.411632 1.239476 0.053566 -0.026454 1777040.000000 0 0 1
-30.047728 -13.569046 11.473568 34.908849 0.424170 1.235899 0.059699 -0.024111 1057180.000000 0 0 1
-29.277028 -14.716146 11.653568 34.778082 0.465767 1.229102 0.055135 -0.015426 986980.000000 0 0 1
-27.810928 -14.578946 11.079668 33.297934 0.482833 1.231585 0.061870 -0.010004 957079.000000 0 0 1
-27.776128 -14.667946 9.682368 32.869593 0.485856 1.271792 0.058513 -0.008478 -190345.000000 0 0 1
-26.454728 -14.787246 9.236568 31.683268 0.509699 1.274972 0.057345 -0.005689 -352723.000000 0 0 1
-26.275028 -14.748146 7.695368 31.098289 0.511477 1.320746 0.077995 -0.010411 253838.000000 0 0 1
-26.927328 -15.820746 6.956868 31.996484 0.531204 1.351620 0.068367 0.000293 468897.000000 0 0 1
-26.709428 -15.648646 5.558968 31.451165 0.529976 1.393114 0.070422 0.001496 -531245.000000 0 0 1
-27.199428 -16.775346 4.621268 32.288965 0.552647 1.427181 0.059904 0.002206 506168.000000 0 0 1
-28.616028 -16.732646 4.447468 33.446053 0.529116 1.437427 0.035953 -0.005357 338296.000000 0 0 1
-29.036828 -17.805746 3.658668 34.257376 0.550078 1.463793 0.035696 -0.000318 381082.000000 0 0 1
-30.557228 -18.061046 3.915668 35.711035 0.533817 1.460927 0.054277 -0.010595 52366.800000 0 0 1
-31.373928 -17.047046 3.455568 35.872916 0.497724 1.474319 0.069248 -0.012756 244660.000000 0 0 1
-32.726228 -17.232546 3.904968 37.191604 0.484674 1.465607 0.090857 -0.012329 986460.000000 0 0 1
-33.792528 -16.418446 3.122868 37.699504 0.452272 1.487866 0.077943 -0.020750 313607.000000 0 0 1
-33.934628 -16.811746 1.816168 37.914275 0.459973 1.522876 0.071291 -0.013042 146894.000000 0 0 1
-34.953928 -16.079146 1.132868 38.491550 0.431147 1.541360 0.089105 -0.017859 185320.000000 0 0 1
-35.268428 -16.707846 -0.224432 39.026459 0.442415 1.576547 0.076863 -0.013602 -541247.000000 0 0 1
-34.245128 -16.748846 -1.183532 38.139919 0.454879 1.601833 0.074239 -0.011707 -123545.000000 0 0 1
-34.676628 -17.529146 -2.258832 38.920969 0.468040 1.628865 0.064826 -0.009458 -422640.000000 0 0 1
-33.588428 -18.065746 -3.163632 38.269600 0.493472 1.653558 0.051869 -0.011270 -286430.000000 0 0 1
-34.122628 -19.068146 -4.008932 39.294013 0.509584 1.672998 0.058958 -0.017199 300240.000000 0 0 1
-33.035028 -19.798046 -4.540432 38.780036 0.539908 1.688147 0.053621 -0.013909 179534.000000 0 0 1
-33.528428 -20.916246 -5.574232 39.908857 0.557762 1.710929 0.064736 -0.020444 -129347.000000 0 0 1
-33.895828 -22.089446 -4.893032 40.753068 0.577560 1.691152 0.084008 -0.032066 81538.500000 0 0 1
-34.424428 -23.083946 -5.784132 41.849325 0.590699 1.709453 0.100686 -0.023748 213082.000000 0 0 1
-35.101928 -24.340946 -5.213632 43.032650 0.606307 1.692250 0.102539 -0.028774 -113299.000000 0 0 1
-34.221228 -25.161846 -4.453032 42.708786 0.634007 1.675251 0.113463 -0.025962 -305770.000000 0 0 1
-34.669528 -26.506946 -4.278732 43.850905 0.652755 1.668526 0.095891 -0.025630 86391.900000 0 0 1
-33.584628 -27.475146 -3.727132 43.551147 0.685673 1.656482 0.073832 -0.023606 -817096.000000 0 0 1
-32.584528 -27.707846 -4.704432 43.030314 0.704690 1.680344 0.070354 -0.024800 -52412.400000 0 0 1
-31.687628 -28.753146 -4.438732 43.018037 0.736885 1.674163 0.065971 -0.023860 -2988.010000 0 0 1
-30.660028 -28.501346 -3.312432 41.992097 0.748926 1.649761 0.065456 -0.024129 -837511.000000 0 0 1
-31.266828 -28.203446 -2.079932 42.158926 0.733932 1.620152 0.062180 -0.023592 12012.100000 0 0 1
-30.249728 -28.402846 -1.107832 41.508975 0.753920 1.597488 0.078940 -0.024324 301221.000000 0 0 1
-30.698628 -28.177946 0.392868 41.672014 0.742611 1.561369 0.075024 -0.021591 259811.000000 0 0 1
-31.409428 -29.317046 0.863268 42.974255 0.750956 1.550707 0.060977 -0.013635 -138262.000000 0 0 1
-32.323228 -29.154946 1.892368 43.570437 0.733909 1.527350 0.070505 -0.006743 -264476.000000 0 0 1
-33.042228 -30.492146 2.221268 45.016595 0.745283 1.521433 0.050687 -0.002352 -899323.000000 0 0 1
-34.020928 -30.312846 3.188168 45.677747 0.727824 1.500943 0.045992 -0.001365 -309817.000000 0 0 1
-34.537328 -31.517246 3.719368 46.904131 0.739709 1.491416 0.031225 0.006904 -734541.000000 0 0 1
-35.582628 -32.263546 2.969968 48.123596 0.736516 1.509042 0.028136 0.012781 -898097.000000 0 0 1
-36.220428 -33.348146 3.671668 49.371038 0.744135 1.496359 0.028663 0.012006 581592.000000 0 0 1
36.004826 -34.035946 2.767968 49.623127 -0.757295 1.514988 0.025504 0.014872 -279741.000000 0 0 1
34.869226 33.466254 3.551068 48.460944 0.764870 1.497454 0.018665 0.009780 -72292.400000 0 0 1
33.955026 -33.930346 4.313368 48.195615 -0.785035 1.481179 0.016760 0.006888 576155.000000 0 0 1
33.263026 -32.831446 3.669868 46.880707 -0.778869 1.492435 0.024519 0.009792 32929.500000 0 0 1
32.183026 -33.030546 2.590068 46.189529 -0.798393 1.514692 0.039252 0.001722 -349485.000000 0 0 1
32.773826 -33.535346 1.397568 46.911579 -0.796882 1.541000 0.044796 -0.002181 -137725.000000 0 0 1
32.036826 -33.210546 0.238268 46.144938 -0.803385 1.565633 0.053463 -0.007405 -1236540.000000 0 0 1
32.523326 -33.908546 -1.047632 46.996316 -0.806247 1.593090 0.056200 -0.014175 200106.000000 0 0 1
33.683826 -33.473146 -1.700732 47.517829 -0.782261 1.606595 0.052605 -0.012107 89004.000000 0 0 1
34.862926 -33.343946 -0.907932 48.250043 -0.763132 1.589615 0.052184 -0.002339 -682263.000000 0 0 1
36.159226 -33.088746 -1.689732 49.042940 -0.741087 1.605257 0.038464 -0.004475 -219156.000000 0 0 1
-36.393828 33.934454 -2.246132 49.810671 -0.750442 1.615905 0.033490 -0.016409 120656.000000 0 0 1
-35.627828 -33.948846 -3.389132 49.329023 0.761271 1.639555 0.040434 -0.015791 -452532.000000 0 0 1
-35.085528 33.041054 -4.213032 48.378251 -0.755397 1.657992 0.040128 -0.018282 -512584.000000 0 0 1
-33.971128 32.537054 -3.547032 47.172861 -0.763839 1.646060 0.051399 -0.017098 -671142.000000 0 0 1
-33.346028 31.616254 -4.395832 46.161331 -0.758777 1.666168 0.055623 -0.024243 230286.000000 0 0 1
-31.976628 31.081054 -3.891232 44.762466 -0.771197 1.657837 0.055943 -0.027915 -342095.000000 0 0 1
-30.909428 31.989254 -3.916432 44.654715 -0.802564 1.658614 0.047494 -0.028363 -323888.000000 0 0 1
-29.650728 31.430654 -3.627532 43.361396 -0.814530 1.654552 0.064968 -0.037961 238647.000000 0 0 1
-29.368128 31.240454 -2.108132 42.928978 -0.816280 1.619924 0.060039 -0.033360 -338058.000000 0 0 1
-30.225628 30.298154 -1.446732 42.821254 -0.786596 1.604588 0.048294 -0.022799 -894.380000 0 0 1
-30.111628 30.326754 -0.051832 42.736692 -0.788958 1.572009 0.049641 -0.009204 -670522.000000 0 0 1
-31.387028 29.797654 0.553068 43.282232 -0.759427 1.558018 0.043113 -0.013746 -665969.000000 0 0 1
-31.611728 28.418754 0.141568 42.508199 -0.732259 1.567466 0.046090 -0.021486 -441612.000000 0 0 1
-32.878228 28.316354 -0.459732 43.393607 -0.710989 1.581391 0.043095 -0.019783 -150444.000000 0 0 1
-33.132328 26.919954 -1.120132 42.704681 -0.682315 1.597029 0.046319 -0.018365 39446.500000 0 0 1
-33.292028 25.904154 -0.081332 42.182827 -0.661237 1.572724 0.053256 -0.015452 -211540.000000 0 0 1
-33.645428 24.698954 -0.684232 41.743518 -0.633244 1.587188 0.059825 -0.006573 -171504.000000 0 0 1
-33.968328 23.587754 0.329868 41.356236 -0.606961 1.562820 0.084775 -0.011508 64105.800000 0 0 1
-32.834428 23.047754 0.975268 40.127918 -0.612026 1.546490 0.085468 -0.018922 15769.900000 0 0 1
-32.412228 23.760854 2.139668 40.245607 -0.632586 1.517606 0.076618 -0.020746 666703.000000 0 0 1
-30.869128 23.630554 2.494668 38.955481 -0.653352 1.506714 0.069998 -0.027514 1045870.000000 0 0 1
-29.968328 24.377554 1.760868 38.671262 -0.682885 1.525246 0.078000 -0.027796 -247588.000000 0 0 1
-29.815728 25.723554 2.264568 39.443721 -0.711850 1.513352 0.048927 -0.025224 -322425.000000 0 0 1
-29.262928 26.706154 1.201768 39.635613 -0.739748 1.540471 0.055294 -0.022501 -289907.000000 0 0 1
-27.941428 26.396254 0.882168 38.448197 -0.756969 1.547850 0.063054 -0.022090 -1129050.000000 0 0 1
-27.294028 27.337754 0.138568 38.630764 -0.786199 1.567209 0.059327 -0.022638 522105.000000 0 0 1
-26.040328 26.748154 -0.600132 37.335273 -0.798806 1.586871 0.052283 -0.030206 341345.000000 0 0 1
-26.401328 25.810954 -1.602832 36.956793 -0.774091 1.614180 0.057848 -0.028447 787062.000000 0 0 1
-25.246628 25.331554 -2.364632 35.842312 -0.787077 1.636817 0.058004 -0.021541 1695480.000000 0 0 1
-24.267628 24.314254 -1.685532 34.393920 -0.786358 1.619823 0.054346 -0.024808 336376.000000 0 0 1
-24.805328 23.024454 -1.469432 33.876083 -0.748182 1.614187 0.035637 -0.018917 -250925.000000 0 0 1
-23.843528 22.238254 -0.810432 32.614576 -0.750577 1.595648 0.038115 -0.028791 -722153.000000 0 0 1
-24.244428 20.775854 -0.543432 31.933113 -0.708505 1.587815 0.042093 -0.028111 438686.000000 0 0 1
-25.163328 20.480354 0.576568 32.449505 -0.683157 1.553027 0.030953 -0.026709 1956160.000000 0 0 1
-26.500528 21.039854 0.567168 33.841914 -0.671035 1.554036 0.033529 -0.021266 1308710.000000 0 0 1
-27.426928 20.473454 -0.583532 34.230676 -0.641240 1.587844 0.035738 -0.021338 -424465.000000 0 0 1
-27.806828 19.123154 -0.373532 33.749877 -0.602433 1.581864 0.047620 -0.021233 268392.000000 0 0 1
-28.619328 18.654554 -1.430132 34.192157 -0.577651 1.612635 0.070363 -0.016056 -182644.000000 0 0 1
-28.856028 17.152354 -1.289632 33.593701 -0.536300 1.609195 0.066271 -0.012354 -109218.000000 0 0 1
-29.739128 16.764754 -0.263232 34.140035 -0.513321 1.578507 0.078996 -0.016939 266392.000000 0 0 1
-30.036228 15.352554 -0.216232 33.733109 -0.472516 1.577206 0.085278 -0.024585 -500056.000000 0 0 1
-28.893428 14.434154 0.189668 32.298776 -0.463300 1.564924 0.093254 -0.025782 -969563.000000 0 0 1
-28.627728 14.546254 1.541268 32.148341 -0.470121 1.522836 0.100965 -0.025733 1110860.000000 0 0 1
-27.394428 14.053854 2.128568 30.862539 -0.474008 1.501772 0.106556 -0.027652 637654.000000 0 0 1
-27.075328 12.554254 1.907768 29.905221 -0.434171 1.506959 0.119186 -0.025827 -413573.000000 0 0 1
-26.893528 12.177754 0.571068 29.527710 -0.425191 1.551455 0.117858 -0.025229 549479.000000 0 0 1
-26.366628 10.821554 0.468968 28.504825 -0.389462 1.554343 0.141779 -0.019648 47873.800000 0 0 1
-26.422428 10.175754 -0.912832 28.328853 -0.367612 1.603025 0.145284 -0.019164 84950.900000 0 0 1
-27.776528 10.064154 -1.314332 29.572795 -0.347613 1.615255 0.139393 -0.026166 556786.000000 0 0 1
-27.804328 9.366554 -2.569432 29.451910 -0.324934 1.658149 0.152808 -0.028977 -563762.000000 0 0 1
-29.204128 8.895554 -2.942532 30.670352 -0.295671 1.666885 0.156224 -0.028652 -631633.000000 0 0 1
-29.251028 8.317454 -4.192432 30.698195 -0.277035 1.707794 0.171133 -0.018588 -445973.000000 0 0 1
-30.553428 8.050554 -4.576532 31.925977 -0.257635 1.714640 0.142298 -0.024617 -930463.000000 0 0 1
-11.448274 18.110154 -19.547032 29.002192 -1.007074 2.310386 0.078658 -0.022962 180913.000000 0 0 1
-11.727874 17.246854 -20.602132 29.316290 -0.973619 2.350057 0.064985 -0.026288 -175339.000000 0 0 1
-10.786174 17.423054 -21.627732 29.793677 -1.016469 2.383163 0.061566 -0.027856 -43748.100000 0 0 1
-10.840874 16.232254 -22.676832 29.920718 -0.981968 2.430880 0.050626 -0.026403 -224917.000000 0 0 1
-10.236874 15.032054 -22.225732 28.718277 -0.972934 2.455809 0.056224 -0.028147 13493.200000 0 0 1
-10.351774 14.002554 -23.191232 29.001103 -0.934193 2.497537 0.043821 -0.027723 368847.000000 0 0 1
-9.482274 12.687354 -22.859632 27.810884 -0.928974 2.535653 0.022891 -0.020057 415608.000000 0 0 1
-8.095574 12.753554 -23.084132 27.587472 -1.005202 2.562138 0.020296 -0.021714 69548.200000 0 0 1
-7.499474 11.486754 -22.668632 26.496311 -0.992399 2.597388 0.010710 -0.012256 -73272.300000 0 0 1
-5.985074 11.420954 -22.516832 25.947390 -1.088100 2.621530 0.011001 -0.009949 -471485.000000 0 0 1
-5.267774 11.209554 -23.669932 26.714589 -1.131488 2.659508 0.006964 -0.018727 -329483.000000 0 0 1
-3.875774 11.041454 -23.495332 26.248161 -1.233213 2.679503 0.018557 -0.017420 766890.000000 0 0 1
-3.055374 10.601554 -24.803032 27.146246 -1.290200 2.723049 0.041547 -0.025112 217756.000000 0 0 1
-3.272174 9.303254 -25.290772 27.145549 -1.232587 2.769787 0.031649 -0.029000 -314433.000000 0 0 1
-2.713174 9.306054 -26.564722 28.278056 -1.287110 2.791705 0.032337 -0.023421 -306057.000000 0 0 1
-2.384774 7.918954 -27.100032 28.333880 -1.278287 2.845395 0.033142 -0.007619 -431820.000000 0 0 1
-1.337174 7.242754 -26.449222 27.455544 -1.388230 2.870009 0.040596 -0.020724 -212698.000000 0 0 1
-1.642574 6.462554 -25.309012 26.172672 -1.321899 2.883982 0.046818 -0.029512 -265421.000000 0 0 1
-0.411074 5.635854 -24.837332 25.472042 -1.497986 2.917887 -0.017456 -0.018858 -19129.300000 0 0 1
0.437126 6.412354 -24.061732 24.905347 1.502732 2.880572 0.005892 -0.012905 -330837.000000 0 1 0
1.362526 5.654554 -23.322832 24.037158 1.334343 2.897192 0.007144 -0.004488 -30520.900000 0 1 0
1.762726 6.199254 -21.929832 22.857286 1.293763 2.855749 0.022731 -0.005349 178014.000000 0 1 0
2.234126 7.527154 -22.078232 23.432834 1.282270 2.799910 0.010432 -0.007328 14213.800000 0 1 0
2.399626 8.165054 -20.854332 22.523976 1.284955 2.754135 0.029419 -0.004340 -161373.000000 0 1 0
3.082626 9.527654 -20.848932 23.129132 1.257881 2.693822 0.030709 -0.008554 -331624.000000 0 1 0
3.105026 10.094254 -19.588332 22.253942 1.272379 2.647119 0.030089 -0.018053 -115955.000000 0 1 0
3.446826 11.444254 -19.665332 23.012537 1.278254 2.595478 0.039569 -0.018056 142982.000000 0 1 0
4.718626 11.818654 -18.851432 22.744725 1.190935 2.547803 0.040876 -0.010509 632037.000000 0 1 0
5.841826 11.006954 -19.172232 22.866011 1.082861 2.565247 0.052852 -0.014096 -30997.300000 0 1 0
6.633926 10.643854 -18.067032 21.993596 1.013447 2.534777 0.050965 -0.020983 -125609.000000 0 1 0
7.838926 9.757654 -18.390932 22.246055 0.894009 2.544023 0.072262 -0.028410 -94148.000000 0 1 0
7.468426 8.418154 -18.772932 21.887569 0.845109 2.601573 0.061811 -0.019173 14639.000000 0 1 0
6.903826 8.232254 -20.032032 22.731369 0.872940 2.649298 0.051925 -0.009482 -140851.000000 0 1 0
6.523126 6.781254 -20.346632 22.417003 0.804797 2.708430 0.053493 -0.004677 -4894.030000 0 1 0
7.625926 5.887454 -20.460132 22.614904 0.657453 2.701516 0.056481 -0.002496 200556.000000 0 1 0
7.342226 4.539754 -20.766632 22.489346 0.553772 2.747639 0.048659 -0.000566 -246518.000000 0 1 0
7.341226 4.153254 -22.281332 23.824376 0.514850 2.779712 0.061624 -0.012143 150392.000000 0 1 0
6.296826 4.866454 -22.943632 24.284618 0.657961 2.807720 0.056034 -0.015167 300833.000000 0 1 0
6.325826 4.554554 -24.300732 25.520298 0.624019 2.831194 0.063717 -0.016533 278165.000000 0 0 1
5.208926 5.278454 -25.135942 26.207071 0.792028 2.854702 0.041043 -0.020839 289562.000000 0 0 1
5.302626 6.694954 -25.328432 26.729567 0.900932 2.816375 0.056893 -0.023271 -19469.200000 0 0 1
5.117626 7.517954 -24.169632 25.824036 0.973127 2.781702 0.060078 -0.026200 -1013460.000000 0 0 1
4.932926 8.996354 -24.575232 26.631001 1.069240 2.746096 0.064568 -0.030178 49662.900000 0 0 1
3.802426 9.302454 -25.332652 27.253208 1.182765 2.763930 0.069737 -0.029047 713312.000000 0 0 1
2.505926 9.090554 -24.723132 26.460369 1.301814 2.777215 0.047214 -0.015690 1128130.000000 0 0 1
1.306226 9.674654 -25.570012 27.370252 1.436593 2.776880 0.040659 -0.013260 650809.000000 0 0 1
1.362626 11.079654 -25.642112 27.966648 1.448426 2.730994 0.065257 -0.031070 960579.000000 0 0 1
0.154226 11.487654 -26.316252 28.714720 1.557372 2.729969 0.078690 -0.034823 380112.000000 0 0 1
0.104626 13.042354 -26.482062 29.519715 1.562774 2.683952 0.077064 -0.039558 -129801.000000 0 0 1
-0.201374 13.623154 -25.238322 28.681070 -1.556016 2.646584 0.064461 -0.041180 159533.000000 0 0 1
-0.318874 15.043654 -25.421192 29.540654 -1.549603 2.607144 0.063326 -0.045515 -251289.000000 0 0 1
-0.910974 15.694354 -24.126832 28.796643 -1.512817 2.564101 0.070531 -0.034097 299081.000000 0 0 1
-2.269574 15.361854 -23.899532 28.501319 -1.424116 2.565397 0.069706 -0.033973 -263822.000000 0 0 1
-2.673974 15.567554 -22.618732 27.588148 -1.400690 2.531983 0.063514 -0.043798 -238279.000000 0 0 1
-3.963274 14.755854 -22.312432 27.042326 -1.308399 2.541163 0.057550 -0.037101 643557.000000 0 0 1
-5.169974 15.216654 -22.917432 27.990782 -1.243275 2.530026 0.057639 -0.037009 144077.000000 0 0 1
-5.340374 14.900354 -24.265032 28.971226 -1.226653 2.563591 0.055702 -0.035392 -385031.000000 0 0 1
-6.806674 15.143354 -24.709832 29.769578 -1.148373 2.549969 0.038758 -0.035846 180075.000000 0 0 1
-7.224774 16.477054 -24.924632 30.739681 -1.157568 2.516364 0.046563 -0.038731 -239339.000000 0 0 1
-8.589374 16.420954 -25.250162 31.320852 -1.088860 2.508459 0.048843 -0.031239 -694272.000000 0 0 1
-9.348074 17.683954 -25.646842 32.524902 -1.084517 2.479210 0.061896 -0.034028 -112485.000000 0 0 1
-9.659574 18.657854 -24.713932 32.437653 -1.093072 2.437023 0.062304 -0.041281 -767455.000000 0 0 1
-10.670474 19.441054 -25.192012 33.562644 -1.068827 2.419761 0.070301 -0.028698 -600254.000000 0 0 1
-11.323574 20.338554 -24.125732 33.525081 -1.062782 2.374069 0.064696 -0.027044 169260.000000 0 0 1
-10.533074 21.480454 -23.751032 33.711528 -1.114893 2.352567 0.073793 -0.025219 362453.000000 0 0 1
-11.108874 22.733654 -24.153832 34.980476 -1.116267 2.332969 0.069698 -0.028300 -6941.880000 0 0 1
-10.725274 23.167754 -25.603202 36.156608 -1.137234 2.357628 0.053945 -0.018805 19431.900000 0 0 1
-11.303574 22.345454 -26.609462 36.539753 -1.102475 2.386537 0.054978 -0.021210 195459.000000 0 0 1
-11.157274 23.028454 -27.868232 37.834281 -1.119626 2.398806 0.057907 -0.011998 -139398.000000 0 0 1
-11.741274 22.252854 -29.083292 38.456273 -1.085290 2.428388 0.046830 -0.016673 -250174.000000 0 0 1
-11.009774 21.201854 -29.634302 38.064756 -1.091841 2.463106 0.052338 -0.020631 -242561.000000 0 0 1
-11.019974 20.117654 -28.774072 36.798194 -1.069662 2.468572 0.064146 -0.022438 -16822.300000 0 0 1
-10.022974 19.022554 -29.228612 36.285388 -1.085861 2.507349 0.062974 -0.025754 125588.000000 0 0 1
-8.677874 19.379054 -28.925582 35.882343 -1.149776 2.508367 0.056916 -0.022280 334146.000000 0 0 1
-7.649374 18.611454 -29.533352 35.736788 -1.180840 2.543504 0.055884 -0.022257 493781.000000 0 0 1
-7.277874 17.246754 -28.896622 34.430114 -1.171482 2.566760 0.064615 -0.035575 -165435.000000 0 0 1
-8.255174 16.249654 -29.165782 34.392470 -1.100752 2.583050 0.047189 -0.034137 366179.000000 0 0 1
-7.911474 15.051954 -28.488002 33.177086 -1.086870 2.603456 0.027820 -0.026691 -265006.000000 0 0 1
-9.144374 14.134354 -28.358562 32.978896 -0.996561 2.605871 0.027302 -0.019556 -513921.000000 0 0 1
-10.010174 14.766054 -27.466812 32.751576 -0.975045 2.565580 0.043401 -0.027024 -1056940.000000 0 0 1
-11.093074 13.946554 -27.175932 32.497599 -0.898867 2.561194 0.073378 -0.029980 -827098.000000 0 0 1
-12.038974 14.510754 -26.167162 32.252430 -0.878231 2.517209 0.070424 -0.028250 -439654.000000 0 0 1
-12.764874 15.675654 -26.579702 33.393842 -0.887389 2.491365 0.065417 -0.026920 98031.300000 0 0 1
-13.759174 15.978654 -25.611122 33.174717 -0.859895 2.452789 0.057558 -0.025633 -93039.100000 0 0 1
-14.782574 16.979854 -26.073792 34.448260 -0.854467 2.429349 0.042185 -0.022694 -529553.000000 0 0 1
-14.225474 18.300154 -26.183942 34.969395 -0.910025 2.416997 0.051218 -0.025687 386459.000000 0 0 1
-15.221174 19.299054 -26.414112 36.081061 -0.902983 2.392162 0.035620 -0.019861 -223800.000000 0 0 1
-14.732474 20.762854 -26.382522 36.663052 -0.953684 2.374014 0.035987 -0.020292 253022.000000 0 0 1
-15.685374 21.691654 -26.904172 37.952514 -0.944730 2.358720 0.014389 -0.019638 353337.000000 0 0 1
-15.155374 22.969154 -26.918022 38.494770 -0.987553 2.345164 0.021985 -0.017005 42699.500000 0 0 1
-14.830074 23.743954 -25.598202 37.933816 -1.012497 2.311507 0.005267 -0.021709 27894.800000 0 0 1
-13.999874 24.842654 -25.824132 38.471285 -1.057616 2.306700 0.028814 -0.024981 -138155.000000 0 0 1
-13.808774 25.620754 -24.674732 38.156883 -1.076462 2.274001 0.050592 -0.033512 -50823.900000 0 0 1
-13.484074 27.108354 -24.752432 39.107109 -1.109220 2.256140 0.058664 -0.029761 46364.700000 0 0 1
-14.583574 27.846754 -25.207982 40.293482 -1.088363 2.246709 0.064801 -0.035013 -284863.000000 0 0 1
-15.208574 28.611554 -24.217632 40.452632 -1.082226 2.212631 0.067384 -0.040385 -1448520.000000 0 0 1
-16.514874 29.196654 -24.593532 41.593599 -1.056023 2.203443 0.058710 -0.034501 -1133570.000000 0 0 1
-17.534274 28.221254 -24.664032 41.378792 -1.014852 2.209375 0.050036 -0.036156 -531450.000000 0 0 1
-18.666974 28.680054 -25.346802 42.584760 -0.993810 2.208321 0.040159 -0.031631 69317.900000 0 0 1
-19.941074 27.791954 -25.227232 42.502381 -0.948413 2.206257 0.036489 -0.017674 385964.000000 0 0 1
-20.461474 27.690854 -23.909332 41.917914 -0.934421 2.177770 0.051660 -0.023306 -417910.000000 0 0 1
-21.434074 26.724054 -23.715332 41.665472 -0.894806 2.176310 0.056237 -0.033038 -406495.000000 0 0 1
-22.137574 26.792654 -22.325432 41.307910 -0.880250 2.141785 0.049104 -0.019284 301046.000000 0 0 1
-23.056774 27.876854 -22.167832 42.428135 -0.879752 2.120553 0.041996 -0.008760 43757.900000 0 0 1
-23.445074 28.007454 -20.800232 42.032590 -0.873838 2.088470 0.018699 -0.003548 -886097.000000 0 0 1
-24.734274 28.804654 -20.722432 43.254036 -0.861279 2.070410 0.006861 0.002308 -691103.000000 0 0 1
-25.769834 27.966554 -21.155332 43.517359 -0.826255 2.078458 0.009554 0.007319 -169745.000000 0 0 1
-27.068434 28.495754 -20.915032 44.521306 -0.811080 2.059833 0.023722 0.002579 1220100.000000 0 0 1
-28.288204 27.555354 -21.231532 44.836347 -0.772276 2.064095 0.019890 0.006006 594228.000000 0 0 1
-28.461974 27.243754 -22.644232 45.443012 -0.763533 2.092433 0.017984 0.009727 -263449.000000 0 0 1
-29.762144 26.889454 -23.037632 46.255383 -0.734734 2.092148 0.020999 0.010833 -20702.700000 0 0 1
-29.751824 26.568954 -24.559932 46.843042 -0.728945 2.122692 0.017713 0.016576 365092.000000 0 0 1
-29.192814 25.264654 -24.878532 45.928907 -0.713390 2.143225 0.031859 0.028346 211369.000000 0 0 1
-29.530914 24.963154 -26.231632 46.726143 -0.701772 2.166862 0.037154 0.023524 108929.000000 0 0 1
-29.725674 23.451154 -26.528082 46.231066 -0.667948 2.181953 0.043435 0.019721 -311935.000000 0 0 1
-28.572184 22.659954 -26.489972 45.072850 -0.670506 2.199028 0.064286 0.003068 -125951.000000 0 0 1
-28.920384 21.343754 -26.903352 44.896935 -0.635788 2.213329 0.066678 -0.005040 -701411.000000 0 0 1
-27.729584 20.421554 -26.927952 43.715950 -0.634775 2.234420 0.079628 -0.003234 -568544.000000 0 0 1
-27.327414 19.952654 -25.643342 42.455588 -0.630665 2.219312 0.073815 0.000424 178805.000000 0 0 1
-26.804264 18.641554 -25.564952 41.467371 -0.607679 2.235096 0.058533 -0.010753 -205902.000000 0 0 1
-27.849034 17.518354 -25.483332 41.615642 -0.561504 2.229826 0.049460 0.000060 -529855.000000 0 0 1
-28.670314 17.305154 -26.571662 42.749368 -0.543056 2.241540 0.044045 -0.005492 -124216.000000 0 0 1
-29.240144 16.004454 -26.419352 42.533643 -0.500803 2.240993 0.021130 -0.008592 -349410.000000 0 0 1
-30.027534 15.564554 -27.660212 43.692053 -0.478214 2.256312 0.008771 -0.007832 -352488.000000 0 0 1
-31.274704 16.194154 -27.794672 44.865371 -0.477789 2.238918 0.001056 -0.007688 -520291.000000 0 0 1
-31.901744 15.655854 -28.897132 45.802525 -0.456222 2.253518 0.008168 -0.003663 32203.800000 0 0 1
-33.083354 16.559154 -29.404832 47.258418 -0.464070 2.242364 0.013994 -0.006737 746962.000000 0 0 1
-34.195458 16.419454 -28.506712 47.450611 -0.447654 2.215255 -0.003908 0.000823 81509.500000 0 0 1
-35.391430 16.826454 -29.132212 48.829998 -0.443806 2.210060 0.006367 0.005288 241730.000000 0 0 1
36.498980 16.301354 -28.364302 49.014726 0.420044 2.187917 0.020694 0.003842 170959.000000 0 0 1
36.095400 17.106254 -27.271472 48.365639 0.442565 2.169849 0.029731 -0.001790 41681.600000 0 0 1
34.962710 16.551654 -26.617932 46.955965 0.442149 2.173498 0.037801 0.000415 46456.600000 0 0 1
34.506680 17.587454 -25.587972 46.419541 0.471364 2.154637 0.039101 0.004490 -259369.000000 0 0 1
33.968170 18.762954 -26.186062 46.814473 0.504660 2.164408 0.041878 -0.010406 -8302.500000 0 0 1
33.701530 19.720454 -25.213822 46.480386 0.529429 2.144161 0.041701 -0.003105 -562705.000000 0 0 1
33.088770 20.967554 -25.899422 46.960463 0.564814 2.154976 0.045198 -0.013287 860522.000000 0 0 1
31.741600 20.900254 -26.378592 46.262079 0.582292 2.177544 0.054153 -0.015318 274488.000000 0 0 1
30.736470 21.209254 -25.457512 45.195663 0.604007 2.169138 0.059430 -0.011377 -134376.000000 0 0 1
29.308280 21.159254 -26.043792 44.552984 0.625309 2.195131 0.042555 -0.015401 200413.000000 0 0 1
28.911550 19.841354 -26.299702 43.831854 0.601457 2.214314 0.052909 -0.025400 -767815.000000 0 0 1
27.711480 19.760754 -26.997892 43.443063 0.619457 2.241394 0.066955 -0.024221 -457317.000000 0 0 1
27.193280 18.328054 -27.158942 42.579340 0.593057 2.262491 0.087240 -0.020769 331335.000000 0 0 1
28.013780 17.585754 -28.078072 43.386735 0.560577 2.274647 0.080610 -0.026308 692457.000000 0 0 1
29.075950 16.859654 -27.454172 43.398046 0.525471 2.255719 0.082228 -0.019378 -43153.800000 0 0 1
29.425820 15.589354 -28.255112 43.672167 0.487191 2.274416 0.086675 -0.017577 191606.000000 0 0 1
28.356010 14.645854 -28.379082 42.707571 0.476760 2.297618 0.102240 -0.017561 395582.000000 0 0 1
27.742680 14.131954 -27.225062 41.359067 0.471135 2.289303 0.122872 -0.019663 -333239.000000 0 0 1
28.520250 13.014454 -26.468952 41.029089 0.428100 2.271985 0.111179 -0.018451 -406249.000000 0 0 1
29.585110 13.495554 -25.724572 41.462782 0.427965 2.240082 0.104300 -0.016529 -767345.000000 0 0 1
30.324080 12.525654 -25.083152 41.298987 0.391714 2.223523 0.094385 -0.012843 -158186.000000 0 0 1
-15.135774 -31.009846 -23.553132 41.778610 1.116717 2.169728 0.085134 -0.013226 -327782.000000 0 0 1
-14.370474 -29.969146 -24.047732 41.023818 1.123676 2.197144 0.071529 -0.025425 -56818.200000 0 0 1
-14.490374 -29.831846 -25.475602 41.820047 1.118626 2.225812 0.055837 -0.016534 151209.000000 0 0 1
-13.638174 -28.684046 -26.093022 41.104989 1.126971 2.258533 0.054611 -0.015862 8501.750000 0 0 1
-14.264074 -27.469346 -25.888752 40.351658 1.091850 2.267351 0.069619 -0.008390 70972.500000 0 0 1
-13.442674 -26.467546 -26.425332 39.743360 1.100854 2.298155 0.050298 -0.005563 -171410.000000 0 0 1
-13.886774 -25.062446 -26.062402 38.732641 1.064821 2.308891 0.031015 -0.001373 -166132.000000 0 0 1
-13.468574 -24.608546 -24.808332 37.449117 1.070019 2.294887 0.025892 -0.007072 103223.000000 0 0 1
-13.998974 -23.326246 -24.620532 36.691357 1.030275 2.306376 0.015800 -0.001572 -266736.000000 0 0 1
-13.679674 -22.741746 -23.254632 35.285952 1.029258 2.290330 0.016247 0.013268 -38532.400000 0 0 1
-12.290574 -22.522546 -23.157932 34.563176 1.071260 2.305029 0.016560 0.001494 -184232.000000 0 0 1
-11.927874 -22.045046 -21.848732 33.250945 1.074836 2.287743 0.014886 -0.000658 -619334.000000 0 0 1
-10.460274 -21.736846 -21.665432 32.423738 1.122283 2.302579 0.031368 -0.003700 -642772.000000 0 0 1
-10.007174 -20.675146 -22.541532 32.182695 1.120015 2.346788 0.037146 -0.009046 -132005.000000 0 0 1
-8.614974 -20.495846 -22.428632 31.580707 1.172890 2.360579 0.066851 -0.007290 -56181.600000 0 0 1
-8.206774 -19.297646 -23.348932 31.383482 1.168694 2.409815 0.093328 -0.012156 -233873.000000 0 0 1
-8.614174 -18.068046 -22.845432 30.373871 1.125911 2.422101 0.058618 -0.009207 -90567.500000 0 0 1
-8.665574 -16.931346 -23.769432 30.442545 1.097748 2.466736 0.063695 -0.008432 -5415.550000 0 0 1
-7.407374 -16.519046 -24.591232 30.536483 1.149262 2.506989 0.098536 -0.026090 127473.000000 0 0 1
-7.219474 -17.329646 -25.731652 31.852086 1.176065 2.511288 0.079047 -0.029571 207360.000000 0 0 1
-6.007074 -17.020746 -26.390852 31.972923 1.231517 2.541729 0.082291 -0.033717 107937.000000 0 0 1
-6.083474 -17.728446 -27.749202 33.486187 1.240239 2.547535 0.084257 -0.028594 -151891.000000 0 0 1
-7.022774 -17.169146 -28.609542 34.096992 1.182526 2.566356 0.094297 -0.030445 -261995.000000 0 0 1
-7.098974 -18.039246 -29.725802 35.488493 1.195880 2.563704 0.108126 -0.036972 18757.400000 0 0 1
-7.556774 -17.336246 -31.091812 36.391634 1.159734 2.595128 0.114918 -0.036251 -106614.000000 0 0 1
-6.612674 -16.473946 -31.629482 36.270408 1.189082 2.630165 0.102628 -0.031753 -320442.000000 0 0 1
-6.483974 -15.215546 -30.908672 35.055681 1.167959 2.650254 0.093960 -0.034231 -401193.000000 0 0 1
-7.141274 -14.020246 -31.543772 35.250173 1.099693 2.678901 0.099418 -0.028784 -43325.100000 0 0 1
-6.519174 -13.638246 -32.801452 36.116986 1.124898 2.709760 0.093111 -0.029855 361780.000000 0 0 1
-7.338074 -12.889746 -33.711892 36.830484 1.053260 2.727113 0.097079 -0.028426 -246597.000000 0 0 1
-7.463874 -11.364546 -33.515592 36.168457 0.989678 2.756204 0.082443 -0.032397 798477.000000 0 0 1
-6.231374 -10.623046 -33.614102 35.799260 1.040295 2.790393 0.070744 -0.028549 444671.000000 0 0 1
-5.887774 -10.280046 33.291978 35.336964 1.050664 0.341871 0.059584 -0.026828 34144.300000 0 0 1
-4.592974 -9.440346 33.195831 34.816357 1.117986 0.306302 0.044264 -0.023779 -148532.000000 0 0 1
-4.338374 -8.983346 31.895121 33.418868 1.120894 0.303138 0.051775 -0.019743 -404935.000000 0 0 1
-3.350474 -8.011046 31.953361 33.112231 1.174672 0.265346 0.041301 -0.029035 -1333250.000000 0 0 1
-3.533274 -7.013246 30.688581 31.677416 1.104113 0.250518 0.038028 -0.025390 839529.000000 0 0 1
-4.735574 -6.219746 30.634451 31.616143 0.920053 0.249849 0.039816 -0.019331 2121680.000000 0 0 1
-6.009574 -6.900746 30.378881 31.727144 0.854317 0.292575 0.036452 -0.017120 2001880.000000 0 0 1
-7.293674 -6.002246 30.533751 31.961455 0.688572 0.300020 0.024054 -0.006462 681440.000000 0 0 1
-8.432674 -6.572246 29.932881 31.784930 0.662040 0.343054 0.027141 0.000406 175138.000000 0 0 1
-9.552674 -5.661346 30.054931 32.040651 0.534994 0.353909 0.021302 -0.000575 845040.000000 0 0 1
-10.743374 -6.110446 29.189081 31.697951 0.517135 0.400540 0.035304 -0.000532 -30374.300000 0 0 1
-10.363874 -5.906846 27.860011 30.306450 0.518028 0.404558 0.022382 0.001689 667272.000000 0 0 1
-11.377074 -6.443246 27.013361 30.011246 0.515299 0.450779 0.031167 -0.002286 349217.000000 0 0 1
-11.009174 -6.135346 25.562981 28.501059 0.508426 0.458057 0.016220 -0.002925 985079.000000 0 0 1
-9.858074 -6.919146 25.130681 27.867676 0.611984 0.446912 0.028230 -0.004520 960329.000000 0 0 1
-9.389974 -6.578246 23.813801 26.429946 0.611102 0.448691 0.027492 -0.005887 349075.000000 0 0 1
-10.343674 -6.905646 22.577371 25.776292 0.588662 0.503505 0.023310 -0.008844 1496750.000000 0 0 1
-11.519274 -6.063746 22.474871 25.972727 0.484544 0.524996 0.008845 -0.003576 957534.000000 0 0 1
-12.298074 -6.229246 21.271971 25.348430 0.468852 0.575017 0.010989 -0.006216 344072.000000 0 0 1
-13.395474 -5.162246 21.154171 25.565337 0.367833 0.596236 0.014508 -0.000865 -40549.000000 0 0 1
-12.923974 -3.897646 20.793471 24.790909 0.292908 0.575806 0.001491 0.000404 15787.700000 0 1 0
-14.002074 -2.965946 20.834771 25.277314 0.208736 0.601924 0.009506 0.002239 430163.000000 0 0 1
-13.688074 -1.653946 20.169171 24.431422 0.120248 0.599634 0.003600 -0.001873 -335097.000000 0 1 0
-12.858674 -0.829946 20.910871 24.562142 0.064454 0.552251 0.004533 -0.003307 -482091.000000 0 1 0
-13.001374 0.547054 20.660171 24.416750 -0.042052 0.562082 0.013726 -0.008855 -299718.000000 0 1 0
-12.523674 1.126054 19.338271 23.066841 -0.089673 0.576532 0.022446 -0.016021 41129.100000 0 1 0
-13.322074 0.747054 18.207971 22.573568 -0.056018 0.632409 0.027199 -0.011606 564454.000000 0 1 0
-14.538574 1.498054 18.101371 23.265295 -0.102678 0.679254 0.020418 -0.006526 464415.000000 0 1 0
-15.594074 0.795054 17.207271 23.235693 -0.050940 0.736903 0.039114 -0.007922 99549.600000 0 1 0
-15.926074 -0.533946 17.635771 23.768579 0.033514 0.734780 0.028754 -0.010923 403286.000000 0 1 0
-16.956474 -1.084946 16.839871 23.922382 0.063897 0.789870 0.035430 -0.004907 4647.140000 0 1 0
-16.978074 -2.596946 17.065971 24.212528 0.151782 0.788598 0.036525 -0.004615 -152870.000000 0 1 0
-17.414774 -3.013946 18.326071 25.459833 0.171371 0.767277 0.037885 0.000502 -17511.200000 0 0 1
-17.150574 -4.385746 18.629471 25.698913 0.250355 0.759889 0.041651 0.000040 -215182.000000 0 0 1
-17.749974 -4.886946 19.991971 27.177615 0.268665 0.744238 0.040125 0.003919 -64612.900000 0 0 1
-17.111774 -4.485046 21.183671 27.598485 0.256337 0.695761 0.037514 0.003562 140807.000000 0 0 1
-17.950474 -4.556646 22.347671 29.024144 0.248595 0.692005 0.036743 0.001208 51132.200000 0 0 1
-18.303774 -5.897746 23.038771 30.009940 0.311711 0.695545 0.054418 -0.001868 712717.000000 0 0 1
-17.248774 -6.594446 23.733881 30.071648 0.365167 0.661219 0.030456 -0.006880 386510.000000 0 0 1
-16.264874 -7.196246 22.941071 29.028001 0.416550 0.659484 0.034607 -0.001170 261921.000000 0 0 1
-15.103674 -7.881846 23.742361 29.222323 0.480974 0.622414 0.037158 0.000755 564147.000000 0 0 1
-15.606974 -9.037946 24.374541 30.321286 0.524908 0.637014 0.042119 -0.011301 56597.000000 0 0 1
-14.992274 -9.195846 25.609051 31.066950 0.550194 0.601800 0.046860 -0.006007 214161.000000 0 0 1
-15.702474 -10.258246 26.524931 32.486478 0.578684 0.615489 0.048025 -0.016326 -160826.000000 0 0 1
-15.606074 -11.587946 26.092991 32.537274 0.638702 0.640258 0.054076 -0.022383 -235278.000000 0 0 1
-14.811674 -12.226346 27.042871 33.169053 0.690070 0.617542 0.054178 -0.023078 -115088.000000 0 0 1
-14.717574 -13.731646 26.829071 33.540485 0.750756 0.643666 0.051790 -0.025143 351561.000000 0 0 1
-15.860774 -14.394646 27.385061 34.766529 0.736978 0.663755 0.048054 -0.027436 426837.000000 0 0 1
-15.971374 -15.796746 27.029761 35.145838 0.779901 0.693405 0.059367 -0.014748 -181907.000000 0 0 1
-14.999574 -16.831246 27.642111 35.670217 0.842879 0.684184 0.068687 -0.012069 1220980.000000 0 0 1
-13.648374 -16.668946 27.142521 34.653259 0.884702 0.670904 0.062293 -0.020645 1060520.000000 0 0 1
-12.693874 -17.412346 27.855641 35.217339 0.940861 0.658414 0.075785 -0.013888 323279.000000 0 0 1
-11.366074 -17.735346 27.126101 34.344657 1.000865 0.660281 0.078962 -0.023430 -59689.000000 0 0 1
-10.381474 -18.318046 27.916431 34.966454 1.055196 0.646200 0.090266 -0.022695 -283543.000000 0 0 1
-9.421574 -18.973646 27.110521 34.405605 1.109904 0.663294 0.085607 -0.029166 -195832.000000 0 0 1
-8.269474 -19.572346 27.934281 35.096795 1.171038 0.650269 0.088224 -0.023937 -319898.000000 0 0 1
-8.676674 -20.622746 28.763351 36.440536 1.172545 0.661091 0.093349 -0.017961 68532.000000 0 0 1
-7.572574 -21.136446 29.483931 37.059350 1.226772 0.650821 0.094852 -0.015047 58974.700000 0 0 1
-7.753074 -22.517546 30.255011 38.503451 1.239197 0.666850 0.101651 -0.016959 174324.000000 0 0 1
-7.861774 -23.623546 29.427861 38.547094 1.249531 0.702195 0.081200 -0.018591 -89491.700000 0 0 1
-8.531574 -24.619546 30.172881 39.866183 1.237210 0.712310 0.089866 -0.018561 -151775.000000 0 0 1
-8.886374 -25.859046 29.357241 40.118643 1.239793 0.749895 0.078463 -0.019084 -335709.000000 0 0 1
-9.858274 -25.667346 28.363671 39.503114 1.204090 0.769856 0.088848 -0.017228 -105043.000000 0 0 1
-10.039674 -26.858246 27.610811 39.805996 1.213076 0.804274 0.062727 -0.016022 49154.800000 0 0 1
-11.409874 -27.014446 26.889461 39.787041 1.171162 0.828700 0.071919 -0.017538 -547.606000 0 0 1
-11.545074 -26.497146 25.596691 38.608005 1.159889 0.845992 0.085201 -0.022919 110436.000000 0 0 1
-11.502074 -25.091146 25.437731 37.535869 1.140969 0.826178 0.089117 -0.017029 -238032.000000 0 0 1
-11.705974 -24.652946 23.926611 36.294356 1.127486 0.850992 0.104248 -0.036063 577763.000000 0 0 1
-13.097174 -24.497446 23.640371 36.476403 1.079827 0.865709 0.098038 -0.028334 660508.000000 0 0 1
-13.221774 -24.126646 22.274971 35.398936 1.069478 0.890202 0.101837 -0.041429 726307.000000 0 0 1
-14.676874 -24.073846 21.676471 35.564450 1.023304 0.915369 0.097656 -0.040724 500968.000000 0 0 1
-14.987574 -25.351446 21.272771 36.329795 1.036878 0.945243 0.107815 -0.046663 -263667.000000 0 0 1
-16.217974 -25.357646 20.602571 36.476003 1.001789 0.970575 0.105148 -0.049604 -394847.000000 0 0 1
-16.649574 -26.792446 20.257371 37.488726 1.014770 0.999933 0.111938 -0.044998 -117197.000000 0 0 1
-15.933174 -27.326346 19.180871 36.993257 1.042918 1.025705 0.108680 -0.049814 -6606.350000 0 0 1
-16.231574 -28.701646 18.967671 38.039730 1.056110 1.048781 0.110662 -0.042054 25986.100000 0 0 1
-15.235474 -29.291846 17.958271 37.584989 1.091177 1.072643 0.116782 -0.041396 31587.400000 0 0 1
-15.334374 -28.900246 16.638971 36.704531 1.082972 1.100308 0.116129 -0.046473 828999.000000 0 0 1
-14.093174 -29.151246 15.938371 36.089394 1.120476 1.113375 0.109862 -0.045597 1102610.000000 0 0 1
-14.176774 -28.677946 14.495171 35.121439 1.111684 1.145363 0.112776 -0.033813 -62687.000000 0 0 1
-14.368574 -27.294946 14.453771 34.064373 1.086238 1.132599 0.112280 -0.041844 -180191.000000 0 0 1
-14.495574 -26.771146 13.183871 33.175750 1.074531 1.162120 0.100975 -0.033234 -252316.000000 0 0 1
-13.376874 -26.972846 12.153371 32.468132 1.110403 1.187136 0.092568 -0.028928 -218580.000000 0 0 1
-13.649374 -26.303846 10.913571 31.580116 1.092134 1.217936 0.085910 -0.017913 -440420.000000 0 0 1
-12.788574 -26.665946 9.906071 31.188949 1.123614 1.247583 0.072463 -0.016729 -280442.000000 0 0 1
-13.170674 -25.921146 8.539771 30.303468 1.100685 1.285118 0.075551 -0.009161 22332.400000 0 0 1
-14.196674 -26.565846 7.801171 31.115077 1.080012 1.317372 0.099718 -0.014810 49241.200000 0 0 1
-14.506574 -25.717646 6.713571 30.280522 1.057214 1.347226 0.086458 -0.017491 563317.000000 0 0 1
-15.630774 -26.329946 5.813671 31.167065 1.035059 1.383165 0.082590 -0.012840 547222.000000 0 0 1
-15.068174 -27.292246 5.001171 31.574171 1.066339 1.411732 0.084304 -0.013302 -6937.950000 0 0 1
-15.859774 -27.349546 3.834871 31.847077 1.045294 1.450088 0.089199 -0.008319 57152.200000 0 0 1
-15.428474 -28.352246 2.719171 32.392616 1.072439 1.486753 0.080496 -0.004333 523267.000000 0 0 1
-14.209574 -28.106846 2.004171 31.558255 1.102714 1.507247 0.072891 -0.005641 441402.000000 0 0 1
-13.770974 -29.321246 1.369571 32.423000 1.131715 1.528543 0.057339 -0.015712 475771.000000 0 0 1
-12.343074 -29.274946 0.718871 31.778778 1.171787 1.548173 0.038616 -0.011945 556168.000000 0 0 1
-12.176074 -28.558346 -0.475529 31.049348 1.167776 1.586112 0.051584 -0.014879 -95317.100000 0 0 1
-12.355374 -27.177946 -0.390429 29.857134 1.144115 1.583873 0.048607 -0.022475 -490833.000000 0 0 1
-12.101274 -26.447946 -1.743029 29.137138 1.141681 1.630654 0.052388 -0.023448 -321.363000 0 0 1
-10.810974 -26.715446 -2.232929 28.906369 1.186269 1.648120 0.054829 -0.024199 -507168.000000 0 0 1
-10.460274 -25.828346 -3.276229 28.058055 1.185994 1.687829 0.068718 -0.029116 257024.000000 0 0 1
-9.164474 -26.355046 -3.934429 28.178995 1.236144 1.710877 0.059370 -0.026251 4858.450000 0 0 1
-8.642174 -25.450546 -4.840829 27.310274 1.243446 1.748991 0.062063 -0.031191 -514477.000000 0 0 1
-7.368974 -25.923246 -5.220929 27.451312 1.293841 1.762151 0.065517 -0.017843 238469.000000 0 0 1
-6.514574 -24.847346 -5.963429 26.370301 1.314384 1.798911 0.053480 -0.016674 220985.000000 0 0 1
-6.978174 -24.689946 -7.303429 26.676364 1.295348 1.848116 0.072103 -0.018511 460868.000000 0 0 1
-6.210774 -23.654246 -7.995629 25.729888 1.314027 1.886781 0.065480 -0.014585 275453.000000 0 0 1
-6.349874 -23.572946 -9.541829 26.211661 1.307671 1.943387 0.071657 -0.019927 6150.370000 0 0 1
-5.654674 -24.649046 -10.169629 27.257516 1.345291 1.953138 0.051235 -0.022775 -22258.400000 0 0 1
-5.856774 -24.791046 -11.549129 27.969271 1.338804 1.996456 0.038682 -0.020373 -454313.000000 0 0 1
-7.146374 -25.493446 -11.962429 29.053161 1.297489 1.995162 0.040246 -0.021473 -333407.000000 0 0 1
-7.340874 -25.301646 -13.375329 29.545916 1.288415 2.040583 0.048731 -0.022737 246688.000000 0 0 1
-8.486674 -26.019946 -13.815229 30.658144 1.255515 2.038258 0.066501 -0.024344 -318341.000000 0 0 1
-8.713174 -26.092346 -15.365329 31.509098 1.248503 2.080189 0.069764 -0.026913 698617.000000 0 0 1
-7.674274 -26.772646 -16.118029 32.178563 1.291635 2.095427 0.059228 -0.031134 1198420.000000 0 0 1
-6.414074 -26.071446 -16.210129 31.362859 1.329568 2.113972 0.060368 -0.026727 409697.000000 0 0 1
-5.385374 -27.037046 -16.833129 32.301058 1.374185 2.118974 0.048484 -0.024160 -398243.000000 0 0 1
-5.520574 -27.123546 -18.228029 33.142488 1.370005 2.153148 0.082470 -0.024212 324640.000000 0 0 1
-4.366074 -27.610446 -18.897529 33.741902 1.413964 2.165256 0.081379 -0.027688 235926.000000 0 0 1
-25.140004 14.685054 -5.983032 29.723178 -0.528669 1.773473 0.079031 -0.023981 -66735.600000 0 0 1
-25.154754 13.661154 -4.973932 29.053894 -0.497518 1.742841 0.087466 -0.031294 344874.000000 0 0 1
-23.910974 12.982854 -4.882032 27.642782 -0.497427 1.748339 0.104222 -0.030325 -188215.000000 0 0 1
-24.003674 11.546054 -4.358632 26.990469 -0.448342 1.732994 0.126523 -0.033056 55564.600000 0 0 1
-24.563674 10.590954 -5.268032 27.263429 -0.407079 1.765246 0.120865 -0.021786 1275710.000000 0 0 1
-25.997524 10.571954 -5.405732 28.580752 -0.386228 1.761081 0.123268 -0.024635 744416.000000 0 0 1
-26.628854 9.723054 -6.535732 29.092086 -0.350092 1.797387 0.139282 -0.024010 77963.900000 0 0 1
-26.527454 10.472654 -7.723932 29.547274 -0.376003 1.835278 0.168983 -0.023747 6093.740000 0 0 1
-26.392974 9.782454 -8.943232 29.534165 -0.354948 1.878436 0.145973 -0.025979 -435997.000000 0 0 1
-26.736504 10.530854 -10.207432 30.494773 -0.375216 1.912112 0.112690 -0.022289 50009.300000 0 0 1
-25.799614 11.512554 -10.671332 30.199939 -0.419714 1.931953 0.114164 -0.029991 621003.000000 0 0 1
-26.286704 12.246654 -11.802332 31.309206 -0.435987 1.957309 0.103283 -0.033381 -239304.000000 0 0 1
-25.242064 13.227154 -12.316732 31.045471 -0.482672 1.978750 0.099922 -0.032656 -337906.000000 0 0 1
-25.054204 14.295854 -11.420532 31.024396 -0.518519 1.947777 0.085647 -0.029488 464828.000000 0 0 1
-24.049274 15.208154 -11.854432 30.825040 -0.563885 1.965540 0.066585 -0.028845 61059.400000 0 0 1
-24.037574 16.649954 -11.231032 31.323506 -0.605785 1.937510 0.044398 -0.021488 -222134.000000 0 0 1
-23.316674 16.707454 -10.006532 30.379878 -0.621744 1.906443 0.037523 -0.015844 194472.000000 0 0 1
-23.355474 18.088854 -9.575832 31.054490 -0.658999 1.884260 0.006342 -0.000316 -413928.000000 0 0 1
-22.476474 18.508054 -8.416432 30.308023 -0.688872 1.852192 0.017088 0.009484 -522308.000000 0 0 1
-22.729074 17.891754 -7.195232 29.807667 -0.666872 1.814593 0.035923 0.002719 192188.000000 0 0 1
-23.461374 18.708654 -6.284032 30.658422 -0.673168 1.777229 0.037284 -0.000006 -224068.000000 0 0 1
-23.707074 18.077754 -4.934432 30.218854 -0.651483 1.734821 0.042542 0.004941 223469.000000 0 0 1
-22.620774 18.126754 -4.008232 29.263365 -0.675553 1.708199 0.050280 -0.015976 469720.000000 0 0 1
-23.040574 17.776054 -2.671632 29.223172 -0.657127 1.662346 0.050943 -0.011475 77467.700000 0 0 1
-21.840974 17.358154 -1.779832 27.955348 -0.671533 1.634506 0.060050 -0.031687 156773.000000 0 0 1
-21.066074 18.517954 -1.460832 28.086084 -0.721114 1.622832 0.051765 -0.031550 576041.000000 0 0 1
-19.965374 18.274254 -0.584932 27.072249 -0.741203 1.592404 0.081541 -0.046095 313254.000000 0 0 1
-19.360174 19.624254 -0.143532 27.567159 -0.792172 1.576003 0.068734 -0.048181 -418204.000000 0 0 1
-20.022874 20.212354 0.944668 28.466597 -0.790107 1.537605 0.060698 -0.042560 46925.100000 0 0 1
-19.986974 21.591554 0.848068 29.434564 -0.823971 1.541980 0.069328 -0.036797 265873.000000 0 0 1
-21.077974 22.276854 1.736668 30.717344 -0.813044 1.514229 0.048663 -0.028065 -42304.800000 0 0 1
-20.959874 21.887554 3.075768 30.460494 -0.807046 1.469648 0.053758 -0.024298 286406.000000 0 0 1
-22.203074 21.942054 3.744368 31.439633 -0.779485 1.451416 0.039183 -0.024863 76104.600000 0 0 1
-22.036674 21.558554 5.208968 31.265310 -0.774431 1.403410 0.038845 -0.022998 416743.000000 0 0 1
-21.185574 22.453454 5.978668 31.444087 -0.814444 1.379495 0.030246 -0.014365 569501.000000 0 0 1
-20.526674 21.901654 7.101268 30.845661 -0.817794 1.338493 0.024373 -0.008858 213880.000000 0 0 1
-21.398374 21.559654 8.370068 31.508207 -0.789153 1.301921 0.016195 -0.024258 -445503.000000 0 0 1
-22.288574 20.446554 8.276968 31.358417 -0.742322 1.303684 0.032144 -0.018669 718772.000000 0 0 1
-22.923374 20.026654 9.502668 31.888064 -0.718056 1.268199 0.051661 -0.015922 387721.000000 0 0 1
-23.512174 21.120754 10.473968 33.295834 -0.731870 1.250790 0.052327 -0.021663 -718818.000000 0 0 1
-24.685474 21.836654 10.120468 34.476600 -0.724239 1.272862 0.066506 -0.021356 501552.000000 0 0 1
-25.046284 22.741654 11.177368 35.629099 -0.737209 1.251694 0.068642 -0.019084 462431.000000 0 0 1
-26.226744 23.719154 10.820168 36.979946 -0.735234 1.273856 0.082089 -0.029042 369536.000000 0 0 1
-26.741804 24.264654 11.999068 38.050954 -0.736871 1.249979 0.082619 -0.025684 -186809.000000 0 0 1
-27.164504 25.586154 11.801868 39.138799 -0.755486 1.264490 0.082878 -0.021805 -256129.000000 0 0 1
-27.726654 26.090954 13.165068 40.284292 -0.755014 1.237876 0.093722 -0.027720 276456.000000 0 0 1
-26.746554 26.430254 14.163068 40.181201 -0.779450 1.210577 0.064734 -0.021548 199568.000000 0 0 1
-27.259274 26.685754 15.498668 41.175310 -0.774767 1.184882 0.075402 -0.025674 -44960.600000 0 0 1
-26.174434 26.701454 16.597668 40.909060 -0.795365 1.153029 0.061283 -0.032102 24181.100000 0 0 1
-25.485374 25.462654 16.709268 39.712097 -0.784952 1.136513 0.072413 -0.028544 71940.500000 0 0 1
-24.539974 25.573454 17.754468 39.641304 -0.806018 1.106406 0.056370 -0.029266 -220743.000000 0 0 1
-23.846374 24.212254 18.145168 38.524406 -0.793011 1.080367 0.066571 -0.020471 -87899.100000 0 0 1
-22.900474 24.319254 19.196568 38.527471 -0.815435 1.049209 0.062399 -0.032468 415551.000000 0 0 1
-22.419974 23.020654 19.555268 37.616675 -0.798616 1.024114 0.075430 -0.038972 -618176.000000 0 0 1
-21.015774 23.075854 20.162168 37.157379 -0.832087 0.997249 0.059910 -0.041820 -690238.000000 0 0 1
-20.057674 23.243154 19.116568 36.166250 -0.858832 1.013876 0.059470 -0.047685 1047140.000000 0 0 1
-18.700074 23.006254 19.528968 35.501564 -0.888284 0.988327 0.050344 -0.047478 798095.000000 0 0 1
-18.239574 21.513054 19.377368 34.219525 -0.867559 0.968827 0.042209 -0.029648 -632899.000000 0 0 1
-18.981874 20.667354 20.248568 34.604271 -0.827882 0.945736 0.071302 -0.032017 374055.000000 0 0 1
-18.283774 20.438454 21.461568 34.822775 -0.840985 0.906750 0.058743 -0.021865 67138.500000 0 0 1
-19.290274 20.024354 22.573068 35.813863 -0.804068 0.888872 0.046941 -0.017065 -148476.000000 0 0 1
-20.227374 21.065554 22.686868 36.981052 -0.805694 0.910346 0.056077 -0.024955 -413425.000000 0 0 1
-20.904074 20.867754 23.896868 37.993470 -0.784529 0.890565 0.042609 -0.007514 -231051.000000 0 0 1
-21.999674 21.941254 24.096768 39.319950 -0.784069 0.911149 0.049023 -0.016233 -399714.000000 0 0 1
-21.484074 23.258454 24.336468 39.934756 -0.825035 0.915486 0.069511 -0.024863 -79079.500000 0 0 1
-22.465174 24.217354 24.564168 41.165065 -0.822915 0.931384 0.065256 -0.026077 -254923.000000 0 0 1
-23.448074 24.588654 23.429768 41.271880 -0.809138 0.967095 0.051571 -0.029648 117196.000000 0 0 1
-24.481874 23.655754 23.153468 41.170862 -0.768238 0.973541 0.046955 -0.026291 52775.800000 0 0 1
-25.236574 24.175954 22.094068 41.346212 -0.763937 1.007037 0.040045 -0.029762 290896.000000 0 0 1
-26.402314 23.311754 21.501668 41.265503 -0.723311 1.022708 0.052095 -0.022942 1424720.000000 0 0 1
-27.597384 23.296554 22.316268 42.454220 -0.701093 1.017312 0.061858 -0.026165 996372.000000 0 0 1
-28.550594 22.302554 21.942368 42.355729 -0.663146 1.026227 0.088005 -0.021606 -246649.000000 0 0 1
-29.977904 22.607954 22.345768 43.693565 -0.646154 1.033960 0.110441 -0.011167 -1075990.000000 0 0 1
-30.489684 23.714854 21.588468 44.250164 -0.661057 1.061145 0.109598 -0.025106 1779390.000000 0 0 1
-31.918514 23.958854 21.825068 45.487930 -0.643901 1.070371 0.117832 -0.021047 1760230.000000 0 0 1
-32.880444 23.165954 20.937668 45.345021 -0.613774 1.090839 0.133136 -0.029661 -945378.000000 0 0 1
-32.864434 21.820854 21.339468 44.850792 -0.586130 1.074937 0.122055 -0.026811 546975.000000 0 0 1
-33.704934 20.987354 20.525168 44.696466 -0.556929 1.093688 0.140430 -0.028034 241955.000000 0 0 1
-35.236920 21.028454 20.637768 45.932057 -0.538044 1.104803 0.137913 -0.027728 -338801.000000 0 0 1
-35.849182 20.154954 19.729368 45.613967 -0.512173 1.123500 0.143491 -0.034598 -504808.000000 0 0 1
35.894940 20.247754 19.688668 45.673426 0.513592 1.125113 0.130192 -0.037432 -337707.000000 0 0 1
35.260980 19.288954 18.644568 44.305985 0.500563 1.136454 0.137957 -0.033741 -52449.900000 0 0 1
35.449150 17.927554 18.934668 44.006375 0.468218 1.126003 0.150058 -0.036862 523658.000000 0 0 1
34.696500 17.059154 18.052068 42.670118 0.456960 1.133975 0.155759 -0.052507 295951.000000 0 0 1
35.254660 15.598254 18.003168 42.547745 0.416554 1.133901 0.160689 -0.064725 -74938.200000 0 0 1
34.575650 14.812654 17.045068 41.296787 0.404758 1.145330 0.178701 -0.056996 129927.000000 0 0 1
35.057750 13.492054 16.926368 41.201739 0.367380 1.147447 0.161061 -0.049616 -441715.000000 0 0 1
34.269260 12.719254 15.855468 39.844164 0.355397 1.161529 0.143464 -0.060531 -12215.500000 0 0 1
34.444110 13.158754 14.510968 39.624711 0.364921 1.195863 0.143283 -0.057042 -229477.000000 0 0 1
33.412830 12.685554 13.688868 38.271733 0.362851 1.205019 0.141331 -0.048660 -364384.000000 0 0 1
33.515400 13.111954 12.224668 38.008524 0.372916 1.243346 0.163609 -0.047267 52297.000000 0 0 1
34.591350 12.480954 11.538168 38.541731 0.346274 1.266766 0.146014 -0.041229 308829.000000 0 0 1
34.445920 12.530054 10.129768 38.028093 0.348880 1.301165 0.127717 -0.030524 882611.000000 0 0 1
35.873170 12.478754 9.443168 39.137923 0.334765 1.327113 0.106666 -0.022037 1175530.000000 0 0 1
-36.390194 11.413754 9.910368 39.404763 -0.303931 1.316565 0.120494 -0.025522 1117800.000000 0 0 1
-35.069914 11.489554 9.356568 38.071697 -0.316598 1.322491 0.120032 -0.022889 584396.000000 0 0 1
-34.848488 11.048254 7.909568 37.403774 -0.307013 1.357723 0.127590 -0.036647 -595911.000000 0 0 1
-35.352303 11.963654 6.957168 37.964675 -0.326315 1.386501 0.116502 -0.040895 448785.000000 0 0 1
-34.653370 11.856954 5.686368 37.064514 -0.329672 1.416770 0.132064 -0.051010 537006.000000 0 0 1
-35.322405 12.786754 4.598268 37.845970 -0.347326 1.448996 0.148026 -0.046445 513588.000000 0 0 1
-36.563214 12.265754 4.066768 38.779581 -0.323670 1.465734 0.149980 -0.049786 1272500.000000 0 0 1
35.544930 13.279154 4.035668 38.158414 0.357532 1.464837 0.121402 -0.048447 617452.000000 0 0 1
34.839260 13.674954 5.347568 37.807074 0.374038 1.428877 0.132777 -0.036226 -754457.000000 0 0 1
34.256150 15.024654 5.336968 37.785014 0.413331 1.429077 0.125251 -0.028044 469086.000000 0 0 1
33.784470 15.496954 6.609068 37.752162 0.430066 1.394825 0.111049 -0.023845 1107040.000000 0 0 1
32.362340 14.945354 7.048668 36.336873 0.432634 1.375578 0.123426 -0.029546 736639.000000 0 0 1
32.496010 13.692354 7.678968 36.089303 0.398779 1.356380 0.144133 -0.030980 366695.000000 0 0 1
31.273720 12.984654 7.884468 34.767968 0.393535 1.342032 0.149409 -0.026093 278160.000000 0 0 1
31.014550 11.826554 6.908668 33.904268 0.364302 1.365589 0.147786 -0.031114 -164919.000000 0 0 1
30.640260 12.241754 5.631368 33.472352 0.380103 1.401753 0.149591 -0.041991 210825.000000 0 0 1
31.002650 11.201354 4.750668 33.304706 0.346709 1.427666 0.147485 -0.042009 98124.700000 0 0 1
30.303680 11.371554 3.351668 32.540113 0.358993 1.467612 0.124853 -0.052583 -513965.000000 0 0 1
28.959200 11.037054 3.325868 31.169107 0.364129 1.463889 0.102020 -0.047565 -654972.000000 0 0 1
28.395660 11.494054 2.120268 30.707040 0.384622 1.501693 0.106885 -0.052320 385084.000000 0 0 1
26.946180 11.028754 1.775368 29.169881 0.388488 1.509896 0.130894 -0.040610 395429.000000 0 0 1
26.795180 9.760954 1.226168 28.544025 0.349340 1.527826 0.088169 -0.045435 713788.000000 0 0 1
25.393080 9.453654 1.314068 27.127603 0.356395 1.522337 0.084464 -0.041789 637998.000000 0 0 1
25.013580 7.931754 1.313168 26.273871 0.307068 1.520796 0.080366 -0.038454 -32682.900000 0 0 1
25.410380 7.191954 2.427568 26.519892 0.275818 1.479130 0.087720 -0.031223 787795.000000 0 0 1
26.822180 7.000354 2.559868 27.838592 0.255296 1.478712 0.112644 -0.044704 284365.000000 0 0 1
27.342080 6.593554 3.938968 28.400348 0.236632 1.431653 0.112791 -0.044421 -855210.000000 0 0 1
28.732090 6.546354 4.053768 29.745937 0.224017 1.434091 0.137815 -0.038439 -159930.000000 0 0 1
29.041460 6.118154 5.376768 30.162026 0.207633 1.391576 0.127747 -0.022877 -144568.000000 0 0 1
30.532030 5.878854 5.684368 31.608192 0.190219 1.389974 0.123590 -0.032148 105936.000000 0 0 1
31.282680 7.076654 5.917568 32.614455 0.222472 1.388346 0.139479 -0.040335 -627104.000000 0 0 1
32.525230 6.758954 6.446768 33.839841 0.204890 1.379117 0.121084 -0.031903 -435849.000000 0 0 1
33.221880 7.889154 7.202468 34.897100 0.233150 1.362911 0.111536 -0.032180 -152002.000000 0 0 1
32.530590 8.099354 8.407368 34.561867 0.244015 1.325075 0.121820 -0.033632 177308.000000 0 0 1
33.044320 9.206854 9.102968 35.490242 0.271730 1.311405 0.128287 -0.032590 12410.100000 0 0 1
32.579960 9.177354 10.598968 35.468517 0.274572 1.267333 0.121233 -0.029517 304971.000000 0 0 1
31.321070 9.762654 10.937968 34.582625 0.302152 1.248985 0.113765 -0.028553 448057.000000 0 0 1
31.091380 9.564154 12.302668 34.777903 0.298428 1.209219 0.101940 -0.029417 -338130.000000 0 0 1
29.648950 9.954854 12.707668 33.758616 0.323931 1.184859 0.087082 -0.032171 -31813.900000 0 0 1
29.324390 11.378054 12.701268 33.922001 0.370125 1.187019 0.110318 -0.038503 139746.000000 0 0 1
29.262360 12.044954 11.455868 33.654175 0.390483 1.223454 0.119317 -0.036221 155634.000000 0 0 1
28.007180 11.755854 10.556268 32.156446 0.397411 1.236316 0.095342 -0.028254 427440.000000 0 0 1
27.995380 12.621454 9.484868 32.140397 0.423553 1.271228 0.084471 -0.013491 176813.000000 0 0 1
26.757680 12.636654 8.789168 30.869207 0.441213 1.282079 0.069858 -0.012560 14670.400000 0 0 1
26.625080 13.784254 7.763468 30.970501 0.477720 1.317421 0.060370 -0.015490 37429.200000 0 0 1
26.380480 15.032754 8.375468 31.497014 0.517951 1.301645 0.059374 -0.010670 41235.800000 0 0 1
26.713580 16.119954 7.551968 32.101409 0.542943 1.333317 0.053846 -0.007372 -653126.000000 0 0 1
26.399980 17.497154 8.233668 32.724648 0.585301 1.316459 0.070929 -0.015262 1131000.000000 0 0 1
25.051380 18.028654 8.299568 31.960707 0.623804 1.308105 0.065167 -0.016923 1068120.000000 0 0 1
24.179880 17.210554 9.076768 31.036389 0.618583 1.274003 0.067177 -0.014865 49231.100000 0 0 1
22.823380 17.950954 9.357268 30.507407 0.666465 1.259050 0.072042 -0.022702 204375.000000 0 0 1
22.146180 18.194154 8.142468 29.795642 0.687743 1.293998 0.081937 -0.024786 357496.000000 0 0 1
21.224280 19.301354 8.303868 29.865809 0.737984 1.289044 0.123640 -0.037836 480327.000000 0 0 1
20.500680 19.681354 6.987468 29.265308 0.765011 1.329705 0.113417 -0.033882 610153.000000 0 0 1
21.368180 20.277554 5.981268 30.059173 0.759216 1.370476 0.083466 -0.019739 764281.000000 0 0 1
20.626480 21.242354 5.230968 30.067462 0.800107 1.395932 0.095195 -0.021710 -222480.000000 0 0 1
18.968926 17.247654 32.547200 41.432137 0.737907 0.667205 0.045743 -0.019177 -511857.000000 0 0 1
17.842726 17.826054 31.939721 40.697381 0.784931 0.668406 0.062586 -0.019907 -69255.100000 0 0 1
17.097026 16.813154 31.319301 39.444760 0.777027 0.653429 0.057039 -0.027453 167878.000000 0 0 1
16.172526 17.351754 30.173751 38.380844 0.820559 0.666214 0.061075 -0.029849 686263.000000 0 0 1
16.961526 17.845454 29.041681 38.073256 0.810788 0.703188 0.072887 -0.015685 505450.000000 0 0 1
16.172726 18.097454 27.909461 36.986659 0.841503 0.715780 0.062831 -0.021622 265100.000000 0 0 1
17.078126 18.379654 26.676301 36.621020 0.822088 0.754751 0.080626 -0.023050 781419.000000 0 0 1
17.915626 19.553654 26.809921 37.710567 0.829087 0.779963 0.074933 -0.025245 664100.000000 0 0 1
18.773626 19.803454 25.718021 37.497232 0.812087 0.815005 0.081238 -0.027550 1028190.000000 0 0 1
19.867026 20.989954 25.889181 38.801116 0.812876 0.840316 0.083298 -0.027955 1360570.000000 0 0 1
19.215626 22.253354 25.981061 39.236049 0.858521 0.847081 0.071080 -0.029000 421024.000000 0 0 1
20.161426 23.259354 26.191131 40.416036 0.856624 0.865791 0.081605 -0.036872 15707.000000 0 0 1
19.392726 24.589154 26.272711 40.877373 0.903002 0.872753 0.084358 -0.039700 138002.000000 0 0 1
19.028826 25.116954 25.023301 40.238330 0.922443 0.899659 0.077319 -0.041444 236654.000000 0 0 1
18.168826 26.243154 25.093761 40.601800 0.965239 0.904542 0.077635 -0.034663 26964.800000 0 0 1
18.195226 27.167154 23.838081 40.464486 0.980662 0.940838 0.057489 -0.036668 -823886.000000 0 0 1
19.411326 27.833154 23.691311 41.385532 0.961806 0.961301 0.074259 -0.043628 -413727.000000 0 0 1
19.387526 28.850654 22.706971 41.519187 0.979113 0.992136 0.066612 -0.025920 -235087.000000 0 0 1
20.672226 29.673254 22.562071 42.624992 0.962314 1.013003 0.081392 -0.019861 387992.000000 0 0 1
21.612826 29.264554 21.557271 42.287638 0.934675 1.035871 0.079503 -0.028567 76862.800000 0 0 1
22.785426 30.024054 21.511171 43.397580 0.921620 1.052182 0.100810 -0.035597 39704.200000 0 0 1
23.419726 30.107554 20.112271 43.121361 0.909696 1.085567 0.104008 -0.032031 261439.000000 0 0 1
22.655026 31.014954 19.323571 42.995092 0.939922 1.104662 0.076256 -0.021321 228394.000000 0 0 1
23.123226 31.071454 18.012071 42.714793 0.931021 1.135497 0.072802 -0.005684 -549050.000000 0 0 1
22.281026 31.900054 17.073771 42.492013 0.961102 1.157302 0.076147 -0.017884 -531646.000000 0 0 1
22.468926 33.343754 17.154071 43.714079 0.977832 1.167540 0.087660 -0.017195 87637.000000 0 0 1
22.672526 -34.041446 15.939371 43.896777 -0.983237 1.199192 0.079431 -0.016190 31753.500000 0 0 1
23.781326 33.867654 14.895271 43.982253 0.958606 1.225298 0.060430 -0.011915 67616.900000 0 0 1
23.505426 32.717354 14.068071 42.671312 0.947802 1.234827 0.081690 -0.014745 -136984.000000 0 0 1
22.562126 32.972254 13.063271 42.034130 0.970701 1.254785 0.055291 -0.012945 -265268.000000 0 0 1
22.212626 31.723254 12.228871 40.611709 0.959936 1.264933 0.064216 -0.029670 -144147.000000 0 0 1
23.253526 31.239554 11.382371 40.573323 0.930914 1.286441 0.083220 -0.047971 29251.900000 0 0 1
22.877526 30.058654 10.734571 39.270025 0.920231 1.293919 0.079203 -0.047221 -326870.000000 0 0 1
24.050926 29.375754 9.949071 39.247496 0.884736 1.314504 0.081116 -0.044728 738869.000000 0 0 1
25.044326 28.805654 10.794171 39.667343 0.855133 1.295204 0.074501 -0.039656 -135349.000000 0 0 1
26.004126 29.674654 11.307571 41.044620 0.851226 1.291692 0.073464 -0.036908 -1783730.000000 0 0 1
27.309826 28.968954 11.529871 41.448339 0.814870 1.288903 0.072860 -0.035230 -893110.000000 0 0 1
27.395126 28.162454 12.683971 41.285589 0.799209 1.258521 0.068211 -0.027186 229988.000000 0 0 1
28.754826 27.956254 13.048371 42.174069 0.771318 1.256241 0.064530 -0.011067 473759.000000 0 0 1
28.879226 26.864554 14.150371 41.904021 0.749272 1.226340 0.045846 -0.023184 85786.200000 0 0 1
30.091326 27.087754 14.834271 43.119484 0.732917 1.219594 0.043847 -0.031130 -61819.300000 0 0 1
30.261526 26.098454 15.848571 42.989143 0.711666 1.193224 0.057082 -0.032570 202697.000000 0 0 1
31.462226 26.318354 16.811271 44.329970 0.696608 1.181832 0.071128 -0.046019 -132154.000000 0 0 1
32.695326 26.351854 16.156671 44.993806 0.678378 1.203507 0.075326 -0.031567 -445747.000000 0 0 1
33.722326 26.465054 17.140271 46.166906 0.665400 1.190423 0.077640 -0.034487 258473.000000 0 0 1
35.161326 26.503454 16.600771 47.056748 0.645908 1.210254 0.099235 -0.043000 -4361.630000 0 0 1
35.481826 27.681454 15.828371 47.704928 0.662525 1.232588 0.087059 -0.021646 468532.000000 0 0 1
-36.245828 27.797954 15.576971 48.261044 -0.654248 1.242147 0.104316 -0.019595 1001360.000000 0 0 1
-36.129828 28.972854 14.569871 48.549685 -0.675904 1.265996 0.069966 -0.013254 88230.800000 0 0 1
-36.367728 30.165954 15.183771 49.630065 -0.692454 1.259872 0.061386 -0.015885 -137803.000000 0 0 1
-36.532628 31.192954 14.198371 50.092185 -0.706718 1.283412 0.051244 0.008331 687654.000000 0 0 1
35.485226 32.232754 14.628471 50.121291 0.737405 1.274624 0.037094 -0.000039 231928.000000 0 0 1
35.351926 33.252854 13.645671 50.415427 0.754811 1.296713 0.004335 -0.000087 302743.000000 0 0 1
34.291726 -33.989646 13.755271 50.203844 -0.780974 1.293259 0.001067 0.002586 584373.000000 0 0 1
32.825426 33.758354 13.492771 48.981526 0.799409 1.291721 0.039260 0.002593 164319.000000 0 0 1
32.343326 32.763154 14.357271 48.224954 0.791846 1.268499 0.034754 -0.012792 32838.700000 0 0 1
31.254526 32.080854 13.749071 46.851505 0.798444 1.272951 0.051381 -0.007683 -169305.000000 0 0 1
30.516826 30.997354 14.548671 45.866943 0.793210 1.248028 0.072548 -0.016719 -76341.700000 0 0 1
29.679226 31.472954 15.591371 45.983629 0.814722 1.224875 0.068990 -0.021826 34218.300000 0 0 1
29.379926 30.424354 16.428371 45.373040 0.802860 1.200305 0.075866 -0.023886 -356885.000000 0 0 1
28.281226 30.802954 17.417371 45.299167 0.828053 1.176134 0.076955 -0.024639 -288218.000000 0 0 1
28.105226 29.764054 18.413971 44.887381 0.814055 1.148094 0.066793 -0.024634 127061.000000 0 0 1
28.806726 30.034454 19.656271 46.024612 0.806260 1.129533 0.060297 -0.027817 281780.000000 0 0 1
28.694826 28.884654 20.666471 45.659821 0.788695 1.101097 0.067161 -0.034958 73373.500000 0 0 1
27.386426 28.810854 21.215471 45.057495 0.810740 1.080539 0.080544 -0.039983 271182.000000 0 0 1
27.389626 28.341254 22.561571 45.414125 0.802472 1.050893 0.070792 -0.040594 554868.000000 0 0 1
25.948726 28.292654 23.177371 44.844188 0.828584 1.027638 0.085404 -0.035281 517816.000000 0 0 1
25.129726 27.248554 22.675671 43.453111 0.825829 1.021787 0.098422 -0.038505 -145063.000000 0 0 1
23.914426 27.227454 23.382771 43.127578 0.850089 0.997771 0.103487 -0.041733 -198994.000000 0 0 1
23.660926 26.044254 24.314141 42.770551 0.833311 0.966141 0.110427 -0.045373 37664.800000 0 0 1
24.656326 26.156054 25.333711 43.975794 0.814905 0.956868 0.105572 -0.047177 288325.000000 0 0 1
24.484526 25.203854 26.398051 43.949782 0.799874 0.926493 0.110862 -0.047674 -419020.000000 0 0 1
25.611526 25.112154 27.446401 45.164980 0.775554 0.917645 0.103206 -0.040377 13596.100000 0 0 1
26.018126 26.284754 28.170631 46.491027 0.790496 0.919853 0.119578 -0.052770 163074.000000 0 0 1
26.694926 27.280154 27.465791 47.023351 0.796240 0.947040 0.092156 -0.038537 -659710.000000 0 0 1
27.270726 28.356054 28.456021 48.554129 0.804907 0.944599 0.052834 -0.030096 84304.100000 0 0 1
28.476326 27.952454 29.094541 49.383531 0.776115 0.940784 0.057305 -0.024251 151126.000000 0 0 1
28.989526 28.956054 29.972701 50.766214 0.784821 0.939234 0.044710 -0.019957 787505.000000 0 0 1
30.557826 28.971154 29.929761 51.661389 0.758751 0.952872 0.029959 -0.018286 544963.000000 0 0 1
31.017426 29.253354 28.632441 51.358116 0.756137 0.979418 0.014665 -0.013104 -2226320.000000 0 0 1
32.363426 29.303754 28.723121 52.260109 0.735823 0.988889 0.030149 -0.014115 -2002910.000000 0 0 1
32.958626 29.938954 27.484581 52.326037 0.737426 1.017780 0.019853 -0.015501 -530694.000000 0 0 1
32.685826 31.296254 27.434391 52.919415 0.763683 1.025796 0.014169 -0.016911 158153.000000 0 0 1
33.188426 31.787854 26.232571 52.915849 0.763846 1.052108 0.034811 -0.022042 -483647.000000 0 0 1
32.866226 33.264054 25.976231 53.492529 0.791414 1.063741 0.022350 -0.019939 -291081.000000 0 0 1
33.361826 -34.048346 26.989851 54.779132 -0.795582 1.055603 0.053162 -0.029663 370273.000000 0 0 1
32.892026 -32.688146 26.797131 53.558253 -0.782289 1.046809 0.063411 -0.027156 -550809.000000 0 0 1
33.848526 -31.627546 27.282211 53.761914 -0.751491 1.038558 0.066765 -0.026815 -430393.000000 0 0 1
33.805926 -31.412846 28.675861 54.331506 -0.748722 1.014795 0.060931 -0.028757 810914.000000 0 0 1
35.026126 -30.791746 29.104131 54.972826 -0.721152 1.012871 0.069276 -0.031966 407374.000000 0 0 1
35.080126 -30.360946 30.614071 55.584383 -0.713409 0.987513 0.064352 -0.033288 -409031.000000 0 0 1
35.023226 -31.328746 31.635331 56.647249 -0.729776 0.978266 0.071425 -0.027939 857976.000000 0 0 1
33.850526 -32.169846 31.602571 56.386874 -0.759947 0.975856 0.060400 -0.027353 257639.000000 0 0 1
33.804426 -33.198346 32.754182 57.599530 -0.776353 0.965928 0.063989 -0.021813 -296811.000000 0 0 1
33.438926 -32.648246 34.003455 57.795369 -0.773435 0.941789 0.058954 -0.033312 150641.000000 0 0 1
33.755726 -33.463346 -33.069662 57.903775 -0.781049 2.178659 0.064210 -0.029475 -39894.900000 0 0 1
33.052026 33.321654 -32.897472 57.315031 0.789460 2.182150 0.068763 -0.024587 66104.000000 0 0 1
33.417126 32.473054 -33.928722 57.639932 0.771071 2.200162 0.078932 -0.026880 113096.000000 0 0 1
32.622726 31.303754 -33.899522 56.509688 0.764768 2.214158 0.077455 -0.018566 196884.000000 0 0 1
32.797526 30.344454 33.070990 55.589153 0.746568 0.933633 0.054586 -0.011719 147670.000000 0 0 1
34.068826 29.734054 33.102656 56.040920 0.717562 0.938886 0.066802 -0.020563 62532.300000 0 0 1
34.107526 28.681354 32.195044 54.976943 0.699193 0.945164 0.046239 -0.013774 783852.000000 0 0 1
35.548526 28.064554 32.003661 55.457652 0.668288 0.955644 0.053564 -0.011079 876934.000000 0 0 1
35.869126 27.079454 33.010253 55.763499 0.646663 0.937297 0.051113 -0.008046 216338.000000 0 0 1
-35.941428 26.649654 32.795309 55.475423 -0.638022 0.938290 0.026115 -0.004545 60914.600000 0 0 1
-35.672028 25.308754 33.424963 55.047750 -0.617063 0.918265 0.013973 -0.002001 143543.000000 0 0 1
-36.447228 24.274854 32.830434 54.731219 -0.587560 0.927485 0.019237 -0.002925 226174.000000 0 0 1
36.562026 23.149854 33.632837 54.807529 0.564450 0.910117 0.018461 -0.003599 -51708.800000 0 0 1
36.080826 21.909454 32.848219 53.486967 0.545721 0.909507 0.015448 -0.014551 -510326.000000 0 0 1
-36.107528 21.248954 32.073961 52.763724 -0.531914 0.917410 0.030579 -0.015031 -390062.000000 0 0 1
36.557326 20.080754 31.490871 52.262316 0.502302 0.924099 0.027305 -0.009726 -569246.000000 0 0 1
-35.491328 19.391854 30.695851 50.773159 -0.500062 0.921572 0.027671 -0.014283 -395159.000000 0 0 1
-35.131728 20.167254 29.576691 50.157124 -0.521118 0.940133 0.030790 -0.016931 -38299.200000 0 0 1
-34.153628 19.529654 28.771711 48.741041 -0.519440 0.939369 0.059886 -0.022378 -157867.000000 0 0 1
-34.640528 18.482754 27.767631 48.089705 -0.490133 0.955240 0.080460 -0.022225 -470088.000000 0 0 1
-35.367428 17.393754 28.317321 48.531107 -0.457067 0.947779 0.071397 -0.019980 386210.000000 0 0 1
-36.083728 16.635754 27.390531 48.259972 -0.431990 0.967255 0.085652 -0.033043 -133193.000000 0 0 1
36.480526 15.317854 27.928581 48.430064 0.397536 0.956139 0.056453 -0.029211 216463.000000 0 0 1
-35.682328 14.304354 28.099891 47.617717 -0.381265 0.939596 0.078155 -0.028208 156924.000000 0 0 1
-36.290328 13.127754 28.532001 47.993759 -0.347097 0.934160 0.082141 -0.027483 -211794.000000 0 0 1
-35.329128 12.112654 29.138571 47.370033 -0.330293 0.908250 0.086687 -0.017972 -285471.000000 0 0 1
-34.857328 12.555954 30.441461 47.951724 -0.345741 0.883001 0.076429 -0.013520 319160.000000 0 0 1
-33.827928 11.754754 30.997111 47.363740 -0.334434 0.857344 0.071237 -0.001808 964724.000000 0 0 1
-32.382428 12.287754 30.677301 46.267779 -0.362673 0.845926 0.061933 0.005308 -175452.000000 0 0 1
-31.924128 11.944854 29.388281 45.005561 -0.358037 0.859268 0.081570 -0.004260 1066470.000000 0 0 1
-30.579728 12.448354 29.195311 44.073206 -0.386594 0.846742 0.097069 -0.003910 1753450.000000 0 0 1
-29.384528 11.565654 29.707811 43.356302 -0.374974 0.815916 0.075616 -0.002560 185355.000000 0 0 1
-29.014528 10.535854 28.801811 42.218377 -0.348318 0.820015 0.071848 -0.019672 -29024.400000 0 0 1
-27.844828 9.878254 29.244421 41.571030 -0.340910 0.790513 0.073282 -0.019186 -34189.900000 0 0 1
-27.440028 8.490854 28.606491 40.538637 -0.300088 0.787442 0.067765 -0.017349 459521.000000 0 0 1
-28.252928 7.288354 28.660101 40.899260 -0.252464 0.794350 0.079831 -0.023575 563212.000000 0 0 1
-29.549828 7.364354 28.063471 41.412371 -0.244243 0.826222 0.082549 -0.020752 -71489.400000 0 0 1
-30.213828 6.016254 28.118921 41.710244 -0.196552 0.830984 0.069530 -0.020462 -411002.000000 0 0 1
-30.746628 5.661254 29.382641 42.903899 -0.182087 0.816402 0.069067 -0.017217 117219.000000 0 0 1
-31.334328 4.361154 29.292741 43.115246 -0.138293 0.823844 0.075123 -0.023747 -346395.000000 0 0 1
-32.065928 3.918054 30.546441 44.459644 -0.121585 0.813361 0.054839 -0.011803 -772190.000000 0 0 1
-33.107428 4.767454 30.885011 45.527072 -0.143016 0.825230 0.055524 -0.016068 -744312.000000 0 0 1
-33.736028 4.247254 32.064121 46.736138 -0.125238 0.814727 0.073080 -0.022434 -934311.000000 0 0 1
-35.168928 4.691254 32.103861 47.848921 -0.132609 0.835318 0.070189 -0.019489 -1207240.000000 0 0 1
-35.218028 6.115954 32.284875 48.166664 -0.171945 0.836218 0.062779 -0.013630 -570388.000000 0 0 1
-36.550428 6.530254 32.256525 49.183955 -0.176799 0.855509 0.054376 -0.006752 -225854.000000 0 0 1
36.472226 8.025154 32.606274 49.576158 0.216583 0.853034 0.053237 -0.004884 43883.800000 0 0 1
36.388126 8.284654 34.004521 50.488005 0.223859 0.831840 0.055302 -0.004420 135474.000000 0 0 1
36.237926 9.635854 -33.943852 50.578870 0.259891 2.306498 0.058956 -0.010989 -242302.000000 0 0 1
36.170226 9.849354 -32.428862 49.567390 0.265859 2.283971 0.052422 -0.014019 183464.000000 0 0 1
34.959626 9.312254 -31.902172 48.235279 0.260327 2.293462 0.081878 -0.004510 241862.000000 0 0 1
34.999526 9.324654 -30.458012 47.324481 0.260374 2.269988 0.089297 0.004453 756411.000000 0 0 1
33.689026 8.668254 -29.886902 45.861924 0.251839 2.280582 0.084959 0.002558 646321.000000 0 0 1
33.747626 7.242854 -29.819902 45.613460 0.211411 2.283329 0.068129 0.000013 76975.200000 0 0 1
32.508526 6.693754 -29.404972 44.342564 0.203069 2.295792 0.070838 -0.000434 -74603.500000 0 0 1
35.465650 5.523954 -19.577632 40.885328 0.154514 2.070132 0.059228 -0.015612 -154779.000000 0 0 1
34.933220 6.664054 -18.774132 40.214519 0.188501 2.056521 0.047589 -0.008718 734794.000000 0 0 1
35.614080 7.924354 -18.838332 41.061428 0.218940 2.047423 0.031484 -0.004914 -321938.000000 0 0 1
-36.045094 8.130654 -18.434432 41.293881 -0.221856 2.033557 0.042607 -0.009769 701700.000000 0 0 1
-35.033047 7.597554 -19.301432 40.713419 -0.213561 2.064716 0.052226 -0.021028 487912.000000 0 0 1
-34.888665 8.244054 -20.571232 41.332299 -0.232040 2.091745 0.033995 -0.010058 -583855.000000 0 0 1
-33.830164 7.554754 -21.464132 40.770863 -0.219709 2.125225 0.037690 -0.004444 -137456.000000 0 0 1
-34.205408 6.366154 -22.162432 41.251803 -0.184010 2.137967 0.041864 -0.010234 408217.000000 0 0 1
-35.108497 6.512754 -23.266632 42.618760 -0.183419 2.148289 0.038717 -0.012221 417939.000000 0 0 1
-35.054698 5.332954 -24.192432 42.924889 -0.150975 2.169533 0.062084 -0.019596 207006.000000 0 0 1
-33.790334 5.332554 -24.827132 42.268302 -0.156522 2.198602 0.056862 -0.018594 159192.000000 0 0 1
-33.532794 4.074654 -25.511432 42.330654 -0.120920 2.217640 0.058664 -0.019419 -673578.000000 0 0 1
-32.177814 4.140554 -26.174012 41.684947 -0.127974 2.249649 0.071929 -0.018800 -203396.000000 0 0 1
-31.011284 4.208754 -25.381862 40.294569 -0.134893 2.252231 0.071757 -0.017548 8796.100000 0 0 1
-29.828304 3.915654 -26.088792 39.820663 -0.130527 2.285187 0.067242 -0.017804 -193612.000000 0 0 1
-28.561314 4.304754 -25.332012 38.418621 -0.149594 2.290774 0.048187 -0.016553 -523051.000000 0 0 1
-28.333924 5.697054 -25.424932 38.492790 -0.198423 2.292296 0.022953 -0.015452 -555425.000000 0 0 1
-27.119344 5.897854 -24.778132 37.204830 -0.214143 2.299620 0.033815 -0.005935 -698679.000000 0 0 1
-26.665374 7.341454 -24.863732 37.190648 -0.268662 2.303051 0.022726 -0.010605 -361587.000000 0 0 1
-27.484044 8.211354 -24.120332 37.477853 -0.290326 2.269975 0.013474 -0.014750 -326547.000000 0 0 1
-27.194784 9.567054 -24.377332 37.753664 -0.338275 2.272729 0.003423 -0.014377 354792.000000 0 0 1
-25.874604 10.103254 -23.707332 36.518605 -0.372264 2.277309 0.041101 -0.008096 355357.000000 0 0 1
-25.900234 10.364454 -22.329632 35.733129 -0.380651 2.245800 0.030960 -0.010826 -559713.000000 0 0 1
-24.628174 10.542854 -21.815632 34.548814 -0.404477 2.254210 0.074302 -0.019318 -1075400.000000 0 0 1
-24.611374 10.749854 -20.251832 33.636525 -0.411809 2.216898 0.098811 -0.030015 -940218.000000 0 0 1
-24.947174 12.054254 -19.768832 34.036352 -0.450110 2.190526 0.082475 -0.032703 222993.000000 0 0 1
-26.251324 12.553454 -19.904332 35.254839 -0.446058 2.170726 0.077423 -0.014155 -512816.000000 0 0 1
-27.360694 11.832054 -19.112232 35.410203 -0.408161 2.140922 0.072629 -0.017189 -845994.000000 0 0 1
-27.190364 11.929654 -17.705532 34.570485 -0.413455 2.108491 0.089801 -0.030897 87653.500000 0 0 1
-28.117504 11.125054 -17.040032 34.709128 -0.376762 2.083963 0.078829 -0.029634 -410852.000000 0 0 1
-27.549054 10.721254 -15.625732 33.437392 -0.371135 2.057046 0.094076 -0.037562 879383.000000 0 0 1
-26.585594 9.648254 -15.540232 32.270442 -0.348132 2.073233 0.112921 -0.037273 2158640.000000 0 0 1
-25.234214 9.967754 -15.962632 31.478998 -0.376197 2.102600 0.098435 -0.031886 496493.000000 0 0 1
-24.269974 8.775554 -15.972032 30.350417 -0.346954 2.124986 0.087815 -0.029887 393443.000000 0 0 1
-22.898374 9.187654 -15.859732 29.330524 -0.381572 2.142094 0.087931 -0.029682 873780.000000 0 0 1
-22.131774 8.040254 -15.463832 28.170751 -0.348465 2.151883 0.094047 -0.028134 -202776.000000 0 0 1
-20.646574 8.426154 -15.351932 27.073288 -0.387481 2.173717 0.124726 -0.034908 -282935.000000 0 0 1
-20.070374 8.671654 -16.634832 27.472443 -0.407837 2.221203 0.132196 -0.045432 -38792.400000 0 0 1
-18.688474 8.907054 -16.522432 26.487458 -0.444759 2.244370 0.149711 -0.044102 -460230.000000 0 0 1
-18.018974 9.339654 -17.871532 27.042637 -0.478199 2.292767 0.116745 -0.033490 -160467.000000 0 0 1
-17.908074 8.324254 -18.843432 27.295920 -0.435120 2.332754 0.151836 -0.036239 415705.000000 0 0 1
-16.930074 7.332454 -18.529132 26.148060 -0.408713 2.358342 0.144254 -0.034656 -426714.000000 0 0 1
-16.337374 6.657454 -19.772132 26.498466 -0.386954 2.413074 0.122452 -0.036690 16818.100000 0 0 1
-17.135974 5.742954 -20.503532 27.331629 -0.323376 2.419125 0.119069 -0.029680 229575.000000 0 0 1
-18.148674 6.253154 -21.373332 28.727959 -0.331813 2.409819 0.111474 -0.024263 455773.000000 0 0 1
-19.048874 5.135954 -22.006432 29.555384 -0.263357 2.410706 0.100094 -0.008815 -137512.000000 0 0 1
-19.742374 4.500054 -20.990332 29.165148 -0.224110 2.374175 0.101512 -0.014366 -159151.000000 0 0 1
-20.452574 3.401454 -21.502832 29.870545 -0.164801 2.374408 0.059520 -0.000526 -120244.000000 0 0 1
-21.309674 2.654354 -20.452332 29.655450 -0.123923 2.331823 0.066833 0.005275 -116503.000000 0 0 1
-21.905074 1.494354 -20.983232 30.370404 -0.068114 2.333544 0.083531 0.006719 483231.000000 0 0 1
-22.766874 0.917054 -19.977932 30.303289 -0.040258 2.290639 0.086223 0.000895 594996.000000 0 0 1
-23.562074 -0.406146 -20.251032 31.071540 0.017236 2.280692 0.089018 0.009211 699269.000000 0 0 1
-22.567174 -1.423146 -20.429132 30.473794 0.062979 2.305522 0.076653 -0.003351 596106.000000 0 0 1
-23.068574 -2.721846 -20.725732 31.130749 0.117446 2.299314 0.081431 -0.010285 -477266.000000 0 0 1
-23.579974 -2.828346 -22.190532 32.502838 0.119377 2.322283 0.081218 -0.013173 405236.000000 0 0 1
-22.621074 -2.730246 -23.280632 32.575375 0.120114 2.366948 0.047092 -0.009636 521573.000000 0 0 1
-21.731274 -3.835646 -23.327032 32.110916 0.174704 2.383941 0.040027 -0.017670 -275741.000000 0 0 1
-20.772874 -3.726246 -24.510232 32.344222 0.177493 2.430721 0.036318 -0.012414 -164070.000000 0 0 1
-21.373474 -3.922946 -25.802772 33.734225 0.181522 2.441658 0.035695 -0.015635 269577.000000 0 0 1
-20.421074 -4.032146 -26.825722 33.954350 0.194943 2.481691 0.038839 -0.018184 -234763.000000 0 0 1
-21.137374 -3.984646 -28.175612 35.447583 0.186325 2.489561 0.040056 -0.016961 260965.000000 0 0 1
-21.975274 -5.126246 -28.350082 36.234214 0.229175 2.469326 0.051789 -0.014325 412691.000000 0 0 1
-22.699674 -5.122746 -29.567832 37.626778 0.221957 2.474815 0.028349 -0.017376 -455739.000000 0 0 1
-22.587374 -6.375646 -30.452982 38.447659 0.275109 2.484978 0.051894 -0.020097 -685719.000000 0 0 1
-21.395174 -6.328746 -31.155282 38.320466 0.287601 2.520116 0.034157 -0.021008 -1044610.000000 0 0 1
-20.674974 -7.498146 -31.193492 38.166880 0.347915 2.527492 0.041426 -0.024575 -375497.000000 0 0 1
-19.247874 -7.145446 -31.693532 37.762654 0.355464 2.566758 0.051189 -0.027469 -304685.000000 0 0 1
-19.112974 -6.728146 -33.045642 38.763233 0.338473 2.591545 0.057169 -0.036229 230162.000000 0 0 1
-19.190074 -7.771046 -33.998452 39.806317 0.384767 2.594608 0.057115 -0.038545 -647320.000000 0 0 1
-19.182374 -7.212346 32.771662 38.651821 0.359637 0.558844 0.054986 -0.037929 677535.000000 0 0 1
-17.871474 -6.839946 32.311477 37.552710 0.365530 0.534683 0.063445 -0.039382 1039500.000000 0 0 1
-17.267374 -5.632746 32.779616 37.475235 0.315324 0.505978 0.051201 -0.041775 -31445.700000 0 0 1
-15.831374 -5.447946 32.243918 36.331567 0.331430 0.478926 0.045037 -0.033600 -264911.000000 0 0 1
-15.852674 -5.286346 30.845261 35.081090 0.321871 0.496498 0.041396 -0.023535 166911.000000 0 0 1
-14.609574 -5.098646 30.191391 33.925742 0.335778 0.473614 0.029664 -0.013389 131312.000000 0 0 1
-14.884474 -5.039246 28.650171 32.676809 0.326445 0.501684 0.033217 -0.001091 245099.000000 0 0 1
-15.620974 -3.896046 28.279331 32.540968 0.244424 0.517542 0.023919 -0.011156 -241081.000000 0 0 1
-16.297574 -3.960346 27.032861 31.813061 0.238382 0.555303 0.037684 -0.007199 196142.000000 0 0 1
-15.507774 -3.830146 25.676771 30.240001 0.242136 0.556518 0.037792 -0.002454 117966.000000 0 0 1
-15.190574 -2.461746 25.436911 29.729618 0.160661 0.544071 0.028452 0.012943 -45582.600000 0 0 1
-14.505574 -2.247446 24.216191 28.317602 0.153715 0.544929 0.025734 0.012804 151033.000000 0 0 1
-14.306374 -0.696346 24.120801 28.052991 0.048635 0.535860 0.023498 0.009990 -299101.000000 0 0 1
-15.509274 -0.086546 23.775641 28.387078 0.005580 0.578010 0.015470 0.005868 -470008.000000 0 0 1
-15.427774 1.215454 24.297491 28.807319 -0.078621 0.567126 0.004133 0.013466 -179959.000000 0 0 1
-16.198774 2.311354 23.520661 28.652472 -0.141730 0.607820 0.006827 0.010653 -85953.100000 0 0 1
-15.543274 2.734954 22.308571 27.326648 -0.174174 0.615704 0.014511 0.006274 -42431.500000 0 0 1
-16.301074 3.678554 21.675571 27.369457 -0.221946 0.656781 0.016071 0.009779 -415382.000000 0 0 1
-15.549574 4.523354 20.606471 26.208331 -0.283086 0.666069 0.010819 0.010299 -511146.000000 0 0 1
-14.568274 5.322254 21.121971 26.204936 -0.350268 0.633382 0.027192 0.006691 -260989.000000 0 0 1
-13.608874 5.679754 20.140771 24.962206 -0.395379 0.631995 0.035462 0.008603 817138.000000 0 1 0
-12.511974 6.786454 20.493771 24.951956 -0.496987 0.607059 0.032538 0.005894 666602.000000 0 1 0
-12.850474 8.158754 20.571471 25.590728 -0.565686 0.637033 0.039318 -0.001241 -371766.000000 0 0 1
-11.748974 8.973354 20.353671 25.156140 -0.652247 0.628188 0.047209 -0.004446 -422266.000000 0 0 1
-12.174274 10.439254 20.424171 25.968014 -0.708823 0.665655 0.045357 -0.004976 -219785.000000 0 0 1
-12.708574 10.854354 19.187771 25.445931 -0.706868 0.716574 0.050215 -0.006879 472922.000000 0 0 1
-13.238174 12.181554 19.440271 26.487047 -0.743855 0.746671 0.031902 -0.002080 -355328.000000 0 0 1
-13.635174 12.911154 18.147471 26.114107 -0.758131 0.802474 0.028576 -0.009995 -664947.000000 0 0 1
-12.591674 13.507254 17.427171 25.390992 -0.820465 0.814335 0.030743 -0.013820 -71437.300000 0 0 1
-12.472974 14.892154 17.730171 26.300386 -0.873573 0.830995 0.039753 -0.017443 -199343.000000 0 0 1
-13.407674 15.943454 17.042271 26.914651 -0.871579 0.885120 0.039592 -0.006074 -142537.000000 0 0 1
-13.192874 16.097254 15.677871 26.057036 -0.884234 0.925200 0.027381 -0.024625 79108.400000 0 0 1
-13.890074 15.196554 14.812371 25.362881 -0.830285 0.947127 0.045780 -0.028707 -285384.000000 0 0 1
-14.430874 15.912554 13.565771 25.406488 -0.834190 1.007532 0.037685 -0.024180 1172260.000000 0 0 1
-15.581474 16.723054 13.988971 26.798026 -0.820722 1.021585 0.028838 -0.015937 1054970.000000 0 0 1
-16.074274 17.579454 12.955571 27.115794 -0.830094 1.072663 0.037082 -0.013022 458098.000000 0 0 1
-17.320774 18.423854 13.387771 28.612585 -0.816248 1.083885 0.036135 -0.017920 646148.000000 0 0 1
-18.545774 17.728054 13.548971 29.013863 -0.762859 1.084921 0.045575 -0.012737 -207970.000000 0 0 1
-19.647274 18.558854 13.482771 30.203171 -0.756918 1.108055 0.043248 -0.023967 335092.000000 0 0 1
-21.069974 17.910854 13.426271 30.740970 -0.704532 1.118808 0.059982 -0.015818 874858.000000 0 0 1
-21.361774 17.222954 12.176371 30.020319 -0.678541 1.153156 0.065576 -0.018900 -509128.000000 0 0 1
-22.641674 16.681754 12.162571 30.640732 -0.634981 1.162614 0.075653 -0.016251 -548096.000000 0 0 1
-22.928474 15.871554 10.878071 29.932484 -0.605486 1.198860 0.074127 -0.018201 -310602.000000 0 0 1
-22.204174 14.687954 10.688771 28.688171 -0.584414 1.189004 0.068124 -0.016883 -148119.000000 0 0 1
-22.577774 14.050354 9.518871 28.244951 -0.556662 1.227056 0.072844 -0.017336 -313827.000000 0 0 1
-22.015274 12.598554 9.252571 27.000110 -0.519776 1.221021 0.094810 -0.019742 -794556.000000 0 0 1
-22.465674 11.645754 10.214971 27.288747 -0.478243 1.187123 0.092384 -0.017761 -228609.000000 0 0 1
-23.832574 11.366354 10.269471 28.331036 -0.445018 1.199867 0.098103 -0.015544 -558741.000000 0 0 1
-24.542774 10.862154 9.019671 28.314106 -0.416667 1.246589 0.110248 -0.018437 -1031840.000000 0 0 1
-24.836774 11.857854 8.094671 28.687937 -0.445430 1.284748 0.108099 -0.018181 185770.000000 0 0 1
-26.043654 11.570354 7.410471 29.445884 -0.418077 1.316397 0.127588 -0.022408 -306261.000000 0 0 1
-26.507054 12.624654 6.355371 30.039916 -0.444488 1.357621 0.107692 -0.019323 -398073.000000 0 0 1
-25.730834 12.882954 5.199071 29.241694 -0.464193 1.392049 0.104276 -0.023383 24807.700000 0 0 1
-24.420774 13.367154 5.344271 28.348126 -0.500820 1.381138 0.093717 -0.026365 -539702.000000 0 0 1
-24.286074 14.852554 5.789371 29.050449 -0.548881 1.370166 0.081699 -0.026990 363259.000000 0 0 1
-22.932274 15.228554 6.134771 28.203430 -0.586200 1.351525 0.069753 -0.027816 1298400.000000 0 0 1
-22.915574 16.603554 6.466471 29.027862 -0.627015 1.346144 0.060176 -0.029677 -900646.000000 0 0 1
-21.499374 17.102854 6.549771 28.242348 -0.671994 1.336752 0.050233 -0.026714 -851105.000000 0 0 1
-20.922774 17.496554 5.320971 27.788570 -0.696454 1.378126 0.063864 -0.039883 -279703.000000 0 0 1
-19.642274 18.030254 5.443971 27.212971 -0.742634 1.369387 0.063731 -0.033004 -520529.000000 0 0 1
-19.164974 18.923454 4.270271 27.269554 -0.779057 1.413554 0.055013 -0.025308 474252.000000 0 0 1
-17.770674 19.246554 4.338771 26.552808 -0.825247 1.406659 0.040642 -0.024617 660469.000000 0 0 1
-17.324474 20.362354 3.604671 26.976963 -0.865833 1.436775 0.045991 -0.022200 27782.900000 0 0 1
-17.696674 21.776154 4.104571 28.358784 -0.888382 1.425549 0.038265 -0.029136 -286877.000000 0 0 1
-17.020874 22.083854 5.300671 28.381400 -0.914154 1.382927 0.042365 -0.027755 16062.100000 0 0 1
-17.265974 23.411954 5.700471 29.643360 -0.935353 1.377289 0.022520 -0.020286 4928.140000 0 0 1
-16.400574 23.936854 6.884771 29.822003 -0.970100 1.337833 0.016167 -0.007749 106819.000000 0 0 1
-16.866074 23.338854 8.091571 29.910534 -0.945023 1.296857 0.020058 -0.008505 561294.000000 0 0 1
-16.002974 23.519254 9.230371 29.907361 -0.973332 1.257042 0.028126 -0.012534 210361.000000 0 0 1
-16.582074 22.685354 10.352771 29.946124 -0.939593 1.217798 0.014496 -0.015058 -113576.000000 0 0 1
-17.825974 23.228554 10.695071 31.172353 -0.916242 1.220587 0.014232 -0.015639 -481438.000000 0 0 1
-18.715074 22.295054 11.324171 31.233960 -0.872472 1.199783 0.018875 -0.018661 832192.000000 0 0 1
-20.013674 23.058154 11.764271 32.720386 -0.855965 1.203022 0.033306 -0.026731 -46989.600000 0 0 1
-20.776174 23.664954 10.737471 33.271200 -0.850309 1.242188 0.041243 -0.013858 10938.400000 0 0 1
-20.342174 24.977554 10.323771 33.826949 -0.887325 1.260655 0.011246 -0.013467 -726934.000000 0 0 1
-21.439174 25.862854 9.731171 34.974578 -0.878647 1.288840 0.018988 -0.011874 514971.000000 0 0 1
-22.444374 26.118654 10.746171 36.075119 -0.860914 1.268322 0.042014 -0.019243 509811.000000 0 0 1
-23.488874 26.930654 10.270271 37.181525 -0.853555 1.290938 0.037939 -0.011885 151629.000000 0 0 1
-24.321574 27.686354 11.342371 38.558041 -0.850006 1.272216 0.039446 -0.019955 -156219.000000 0 0 1
-23.597374 28.751854 11.900771 39.052958 -0.883545 1.261137 0.041059 -0.021934 547157.000000 0 0 1
-24.388874 29.483354 12.862071 40.367291 -0.879684 1.246517 0.044027 -0.023266 254071.000000 0 0 1
8.950626 -32.580746 27.866621 43.796887 -1.302689 0.881143 0.073202 -0.028437 -339669.000000 0 0 1
10.287626 -32.988546 27.643731 44.252178 -1.268500 0.896067 0.067370 -0.038633 472689.000000 0 0 1
10.755426 -32.550646 26.366411 43.248253 -1.251669 0.915174 0.077743 -0.031093 -464636.000000 0 0 1
12.267426 -32.631046 26.197981 43.607443 -1.211199 0.926334 0.041878 -0.024579 -461070.000000 0 0 1
12.852026 -33.921746 25.919521 44.583416 -1.208635 0.950383 0.058257 -0.031595 80156.100000 0 0 1
14.167826 -33.742746 25.449531 44.575541 -1.173272 0.963158 0.069578 -0.030770 -266451.000000 0 0 1
14.885026 33.108354 25.197651 44.188785 1.148287 0.964014 0.090889 -0.025474 -145097.000000 0 0 1
14.655826 32.457854 23.989871 42.939718 1.146667 0.977994 0.068031 -0.038960 809687.000000 0 0 1
15.754926 31.539554 23.841781 42.560447 1.107525 0.976186 0.061616 -0.032569 146697.000000 0 0 1
15.903026 30.941954 22.392371 41.373047 1.096041 0.998896 0.057467 -0.039460 12451.200000 0 0 1
14.953326 29.946554 22.000471 40.055197 1.107682 0.989325 0.050167 -0.024818 159879.000000 0 0 1
15.132426 28.616154 22.499171 39.421914 1.084369 0.963405 0.055830 -0.024575 -248875.000000 0 0 1
14.526326 28.320954 23.890621 39.797642 1.096868 0.926917 0.059330 -0.036857 -255510.000000 0 0 1
15.414526 28.667154 24.930271 40.999167 1.077440 0.917172 0.056907 -0.028364 339972.000000 0 0 1
14.828126 28.457054 26.235541 41.448532 1.090435 0.885417 0.052753 -0.028681 1312.580000 0 0 1
15.621526 29.026854 27.441651 42.890961 1.077077 0.876558 0.058239 -0.029466 30804.500000 0 0 1
15.650326 30.461254 27.545591 43.949747 1.096187 0.893418 0.071715 -0.043687 -31962.300000 0 0 1
16.532526 30.805354 28.563081 45.145806 1.078239 0.885781 0.096905 -0.044189 -297415.000000 0 0 1
16.363626 32.221654 29.019051 46.347692 1.100892 0.894234 0.105761 -0.041364 22036.700000 0 0 1
16.885026 33.159354 28.123731 46.643232 1.099809 0.923597 0.102642 -0.043050 41473.000000 0 0 1
16.402926 -33.732346 28.445561 47.075228 -1.118195 0.921963 0.102623 -0.031906 -171926.000000 0 0 1
17.274026 -32.681546 27.776541 46.238638 -1.084566 0.926393 0.087408 -0.030881 -762320.000000 0 0 1
17.271626 -32.687246 26.359461 45.404695 -1.084695 0.951399 0.099208 -0.031650 51914.900000 0 0 1
17.884526 -31.537046 25.814671 44.506615 -1.054923 0.952045 0.100090 -0.035917 1525140.000000 0 0 1
19.495026 -31.506146 25.789881 45.142123 -1.016690 0.962702 0.098880 -0.030778 1414850.000000 0 0 1
19.910626 -31.165146 27.062801 45.826789 -1.002282 0.939062 0.095572 -0.031115 56483.800000 0 0 1
21.207826 -30.577146 26.995591 45.972771 -0.964389 0.943191 0.107378 -0.029435 243256.000000 0 0 1
21.470626 -29.683146 28.204351 46.233779 -0.944585 0.914688 0.124503 -0.024613 -476561.000000 0 0 1
20.452426 -28.726446 28.288611 45.207919 -0.952081 0.894711 0.111186 -0.026148 -71179.600000 0 0 1
20.482326 -27.986146 29.464051 45.506926 -0.938997 0.866546 0.127257 -0.024156 -95486.300000 0 0 1
19.084126 -27.696346 30.035921 45.093769 -0.967458 0.841860 0.103765 -0.030140 -75735.400000 0 0 1
18.282426 -26.739546 29.378471 43.730367 -0.971079 0.834148 0.120816 -0.034327 -623237.000000 0 0 1
17.075426 -26.603146 30.041991 43.609847 -1.000167 0.810852 0.105750 -0.033588 -658071.000000 0 0 1
16.042826 -25.726046 29.293811 42.158381 -1.013203 0.802583 0.098761 -0.017131 -471361.000000 0 0 1
15.527026 -26.288546 28.059121 41.466739 -1.037289 0.827572 0.099369 -0.024420 409127.000000 0 0 1
14.810026 -25.363146 27.278481 40.084181 -1.042285 0.822311 0.095937 -0.037324 809777.000000 0 0 1
13.311026 -25.069546 27.726131 39.678759 -1.082685 0.797127 0.052938 -0.027976 783757.000000 0 0 1
12.339226 -26.073746 27.692031 39.986814 -1.128782 0.805807 0.050535 -0.020616 129001.000000 0 0 1
12.008926 -26.596046 26.415751 39.361858 -1.146670 0.835105 0.042747 -0.021464 -526607.000000 0 0 1
11.073626 -27.840146 26.377381 39.918231 -1.192225 0.848932 0.060491 -0.027504 52430.000000 0 0 1
9.730926 -27.577446 26.744711 39.629358 -1.231578 0.830006 0.060835 -0.036021 -223862.000000 0 0 1
9.166326 -28.889846 26.752931 40.427269 -1.263558 0.847640 0.058630 -0.026679 -198808.000000 0 0 1
7.649226 -28.765646 27.077221 40.238650 -1.310896 0.832653 0.033138 -0.021698 715532.000000 0 0 1
6.722626 -28.538146 25.979821 39.173595 -1.339448 0.845714 0.037711 -0.028216 493332.000000 0 0 1
6.827026 -27.321546 25.286921 37.848428 -1.325933 0.839130 0.062171 -0.033256 -665991.000000 0 0 1
5.622626 -26.988746 24.357101 36.786882 -1.365402 0.847160 0.068658 -0.029973 -362478.000000 0 0 1
5.312526 -27.821246 23.274651 36.659979 -1.382116 0.882944 0.049502 -0.021032 125113.000000 0 0 1
4.601226 -29.033846 23.551191 37.666883 -1.413625 0.895345 0.051324 -0.019100 795615.000000 0 0 1
3.075726 -28.782046 23.873671 37.520907 -1.464338 0.881134 0.062125 -0.028065 -80017.000000 0 0 1
2.315326 -28.376446 22.767471 36.454645 -1.489383 0.896251 0.069884 -0.024072 410283.000000 0 0 1
0.985326 -27.962946 23.054571 36.254799 -1.535574 0.881617 0.068666 -0.024568 424131.000000 0 0 1
0.777126 -26.562146 23.744281 35.636251 -1.541548 0.841566 0.066891 -0.029067 -417935.000000 0 0 1
1.087626 -26.488046 25.094011 36.503546 -1.529758 0.812838 0.060332 -0.029908 -18058.700000 0 0 1
1.117426 -25.181446 25.550191 35.891031 -1.526450 0.778621 0.070097 -0.030310 60564.800000 0 0 1
2.407226 -24.755946 26.307181 36.203859 -1.473863 0.757377 0.062741 -0.031074 -301351.000000 0 0 1
3.549626 -24.612446 25.475661 35.600304 -1.427563 0.773310 0.073742 -0.032438 192604.000000 0 0 1
4.609026 -23.976746 26.169001 35.790279 -1.380884 0.750752 0.072854 -0.032976 141883.000000 0 0 1
4.367026 -22.460546 26.575511 35.068573 -1.378761 0.710838 0.069851 -0.030054 -796207.000000 0 0 1
4.331026 -21.695646 25.440561 33.714700 -1.373760 0.715777 0.076165 -0.025653 132390.000000 0 0 1
3.710826 -20.455946 25.661871 33.026468 -1.391342 0.680896 0.080988 -0.036783 -83086.100000 0 0 1
3.876826 -19.536146 24.429961 31.520054 -1.374898 0.683985 0.091018 -0.037794 195288.000000 0 0 1
5.189126 -19.034746 24.274751 31.281178 -1.304650 0.682469 0.086919 -0.019144 -66541.700000 0 0 1
5.313826 -18.439646 22.963171 29.925984 -1.290224 0.696126 0.081762 -0.019996 973123.000000 0 0 1
6.827126 -18.042446 22.821171 29.882191 -1.209055 0.701764 0.071767 -0.019626 347312.000000 0 0 1
7.728326 -19.097646 22.679571 30.640007 -1.186267 0.737436 0.064924 -0.009345 117504.000000 0 0 1
8.957826 -18.689346 22.059471 30.268045 -1.123844 0.754223 0.050849 0.000803 1216250.000000 0 0 1
10.089226 -18.344446 23.111871 31.184447 -1.067962 0.736038 0.049972 0.006291 145776.000000 0 0 1
9.914826 -17.143946 23.882411 31.025606 -1.046464 0.692324 0.056830 0.009550 -21539.500000 0 0 1
11.029426 -17.008746 24.736641 31.981981 -0.995507 0.686521 0.065738 0.007269 -273351.000000 0 0 1
10.808326 -16.084846 25.938211 32.377970 -0.979140 0.641654 0.077042 0.002102 -338784.000000 0 0 1
10.772326 -14.727946 25.558721 31.403879 -0.939292 0.620012 0.090352 0.003282 20979.300000 0 0 1
10.707126 -14.005046 26.756121 32.041752 -0.918068 0.582592 0.084468 -0.009425 -110438.000000 0 0 1
11.024826 -12.496646 26.532951 31.332259 -0.847890 0.560809 0.084539 -0.015210 721764.000000 0 0 1
10.122426 -11.774446 25.623771 29.961287 -0.860701 0.544803 0.088950 -0.014488 716176.000000 0 0 1
10.505326 -10.421346 25.544091 29.520618 -0.781385 0.525055 0.085784 -0.012558 640657.000000 0 0 1
9.412826 -9.526646 24.776191 28.164125 -0.791408 0.495550 0.091724 -0.016428 854417.000000 0 0 1
8.226226 -9.451746 25.538851 28.447130 -0.854612 0.456126 0.071401 -0.019012 -521976.000000 0 0 1
7.191926 -8.934046 24.764191 27.291137 -0.893013 0.433722 0.067599 -0.014177 2669.600000 0 0 1
5.752526 -9.138646 25.310351 27.517636 -1.008987 0.403260 0.058000 -0.018864 -833841.000000 0 0 1
5.346326 -8.288346 26.384971 28.168184 -0.997915 0.357730 0.057244 -0.014263 813275.000000 0 0 1
3.955126 -8.359146 26.733021 28.287325 -1.128859 0.333040 0.047248 -0.014531 1671830.000000 0 0 1
2.850226 -8.309146 25.616531 27.080849 -1.240351 0.330353 0.042115 -0.013910 -648243.000000 0 0 1
2.806526 -7.067746 24.904951 26.040089 -1.192802 0.296352 0.048526 -0.011188 88476.500000 0 0 1
1.880126 -7.126946 23.820551 24.934853 -1.312867 0.300085 0.045923 -0.022005 331776.000000 0 1 0
1.954826 -5.825346 23.047871 23.852890 -1.247032 0.260541 0.031797 -0.025842 -112129.000000 0 1 0
1.518026 -4.772146 23.876561 24.396064 -1.262817 0.206739 0.042263 -0.022403 -55790.800000 0 1 0
1.877426 -3.475246 23.354221 23.685897 -1.075486 0.167546 0.037279 -0.021820 -1128960.000000 0 1 0
1.027326 -2.845946 22.262971 22.467637 -1.224375 0.135079 0.031292 -0.025383 885057.000000 0 1 0
-0.078274 -1.958946 22.628171 22.712942 1.530860 0.086424 0.036344 -0.028260 1224550.000000 0 1 0
-1.130474 -2.584946 23.354621 23.524418 1.158529 0.120221 0.044917 -0.021695 -184172.000000 0 1 0
-2.147574 -1.579946 23.976341 24.124122 0.634279 0.110744 0.046166 -0.023010 293489.000000 0 1 0
-1.584974 -0.905946 25.116351 25.182613 0.519263 0.072559 0.059116 -0.020443 142570.000000 0 0 1
-2.329974 0.206054 25.544351 25.651221 -0.088207 0.091314 0.057255 -0.021774 -305004.000000 0 0 1
-1.764674 0.939054 26.806121 26.880551 -0.489028 0.074434 0.088133 -0.033305 -176294.000000 0 0 1
-1.853774 0.288054 28.038741 28.101432 -0.154155 0.066809 0.089120 -0.026183 186698.000000 0 0 1
-0.861774 -0.670946 28.382871 28.403876 0.661533 0.038461 0.100320 -0.025142 -108721.000000 0 0 1
0.397126 -0.138946 29.113021 29.116061 -0.336567 0.014451 0.125140 -0.029752 -212750.000000 0 0 1
1.336026 0.620054 28.379631 28.417827 0.434520 0.051853 0.109230 -0.021284 761651.000000 0 0 1
2.231126 -0.120946 27.514521 27.605098 -0.054155 0.081030 0.096090 -0.024289 620167.000000 0 0 1
3.243826 -1.181946 27.996551 28.208621 -0.349417 0.122697 0.085125 -0.023608 126080.000000 0 0 1
2.515426 -2.382946 28.324671 28.535816 -0.758359 0.121725 0.100218 -0.026360 629450.000000 0 0 1
3.339726 -3.565046 28.447831 28.864207 -0.818019 0.170060 0.091391 -0.018360 239566.000000 0 0 1
3.845626 -4.319546 27.177211 27.785754 -0.843375 0.209674 0.069469 -0.017561 232148.000000 0 0 1
5.044326 -3.789246 26.654351 27.390839 -0.644262 0.232420 0.066235 -0.011757 -198568.000000 0 0 1
5.594826 -4.511846 25.598151 26.588046 -0.678651 0.273730 0.055509 -0.010683 251380.000000 0 0 1
6.917126 -3.931146 24.985861 26.222010 -0.516800 0.308275 0.058625 -0.012568 318115.000000 0 0 1
8.088026 -4.178146 25.724531 27.287810 -0.476827 0.340130 0.051896 -0.010947 -177019.000000 0 0 1
8.705326 -5.449746 25.698371 27.674694 -0.559336 0.380208 0.055203 -0.016306 -264613.000000 0 0 1
9.476826 -5.865446 24.445381 26.866156 -0.554219 0.427765 0.051023 -0.023423 -626347.000000 0 0 1
8.665326 -5.962746 23.334351 25.595589 -0.602705 0.423502 0.059840 -0.017570 -380398.000000 0 0 1
9.449126 -5.899446 22.157771 24.800328 -0.558123 0.465835 0.069055 -0.020347 207298.000000 0 1 0
9.500626 -4.508646 21.492871 23.927668 -0.443092 0.455040 0.076802 -0.020969 558583.000000 0 1 0
8.174626 -4.093046 21.182371 23.070986 -0.464208 0.407438 0.064902 -0.021294 -33065.000000 0 1 0
8.100426 -2.937946 20.374971 22.122113 -0.347935 0.400098 0.050504 -0.020199 1474770.000000 0 1 0
6.640226 -2.286946 20.298471 21.479075 -0.331684 0.333096 0.046596 -0.012904 1564140.000000 0 1 0
6.035626 -1.882946 21.488871 22.399684 -0.302404 0.286148 0.049414 -0.008817 -132341.000000 0 1 0
4.856526 -1.133946 21.347471 21.922276 -0.229380 0.229502 0.036904 -0.005614 -19087.400000 0 1 0
4.286026 -0.619946 22.702471 23.111827 -0.143647 0.188491 0.033325 -0.011587 -324763.000000 0 1 0
3.095626 0.100054 22.595271 22.806560 0.032310 0.136226 0.037394 -0.012601 -421115.000000 0 1 0
2.561926 0.597054 23.780501 23.925555 0.228962 0.110171 0.050909 -0.017303 -411063.000000 0 1 0
1.080126 0.939054 23.620851 23.664173 0.715646 0.060519 0.053224 -0.025780 -593600.000000 0 1 0
0.804026 2.203054 23.041771 23.160810 1.220857 0.101431 0.056286 -0.025042 -858012.000000 0 1 0
-0.544774 2.479054 23.181271 23.319816 -1.354484 0.109059 0.041793 -0.016598 -775283.000000 0 1 0
-0.933574 3.849054 22.575071 22.919874 -1.332845 0.173676 0.036910 -0.020280 -283502.000000 0 1 0
-0.688674 4.900054 23.519321 24.034210 -1.431167 0.207365 0.045093 -0.025938 -13532.200000 0 1 0
-1.494774 6.030054 23.244031 24.059944 -1.327807 0.261171 0.036151 -0.022974 -224571.000000 0 1 0
-1.349674 7.303054 24.048301 25.168969 -1.388049 0.299534 0.044718 -0.023464 162816.000000 0 0 1
-0.180274 8.081054 23.839441 25.172503 -1.548492 0.326898 0.036318 -0.021290 226191.000000 0 0 1
-0.331074 9.324054 24.504121 26.220213 -1.535304 0.363802 0.038857 -0.020067 -244734.000000 0 0 1
0.337726 10.576054 23.782881 26.030605 1.538874 0.418620 0.034456 -0.026530 -527801.000000 0 0 1
1.720426 10.656054 23.756901 26.094093 1.410727 0.426469 0.031037 -0.019291 -1018290.000000 0 0 1
2.287826 11.084054 25.000011 27.442503 1.367248 0.425104 0.044434 -0.032641 -1086180.000000 0 0 1
3.450926 12.079054 24.780271 27.782625 1.292514 0.469192 0.044181 -0.035036 -641551.000000 0 0 1
4.683826 11.525054 24.446421 27.429776 1.184782 0.470732 0.062871 -0.028246 -653224.000000 0 0 1
4.782826 10.799054 23.281701 26.106179 1.153868 0.469470 0.044279 -0.021978 -972013.000000 0 0 1
6.191126 10.324054 22.804971 25.787261 1.030612 0.485696 0.064465 -0.017964 428029.000000 0 0 1
7.023426 11.347054 22.291471 25.980643 1.016549 0.539427 0.058264 -0.016668 -76001.600000 0 0 1
8.189926 10.770054 21.753471 25.618010 0.920650 0.556427 0.063710 -0.013151 -101028.000000 0 0 1
9.143726 11.818054 21.185171 25.924614 0.912294 0.614289 0.051480 -0.018905 -656580.000000 0 0 1
8.602926 12.324054 19.964071 24.989133 0.961374 0.645315 0.051027 -0.014191 -82582.000000 0 1 0
9.379026 13.138054 19.158671 25.052530 0.950814 0.700159 0.068742 -0.019792 -786234.000000 0 0 1
10.716426 12.635054 18.615971 24.920689 0.867377 0.727245 0.059843 -0.019333 -418236.000000 0 1 0
11.737126 12.576054 19.586971 26.068500 0.819890 0.720667 0.056266 -0.018698 1809.300000 0 0 1
12.982226 12.359054 18.953371 26.086676 0.760812 0.757503 0.047507 -0.021957 710144.000000 0 0 1
14.238426 12.179054 19.877971 27.316586 0.707601 0.755850 0.050168 -0.014626 726249.000000 0 0 1
14.758726 13.388054 20.464671 28.563311 0.736739 0.772072 0.052091 -0.014303 -580830.000000 0 0 1
15.923026 13.043054 21.129071 29.497486 0.686298 0.772310 0.049310 -0.016561 -611664.000000 0 0 1
16.644726 14.284054 21.683671 30.842547 0.709220 0.791127 0.050182 -0.012556 -17480.600000 0 0 1
15.937126 14.885054 22.803871 31.552708 0.751278 0.763062 0.059175 -0.012867 431579.000000 0 0 1
16.699626 15.858054 23.467031 32.879430 0.759555 0.775987 0.061695 -0.013170 -183970.000000 0 0 1
-21.198074 12.041954 -25.106232 34.995570 -0.516609 2.370876 0.066219 -0.018290 -98888.500000 0 0 1
-21.132574 12.199454 -26.512632 36.032375 -0.523548 2.397644 0.073969 -0.022664 -396670.000000 0 0 1
-21.880874 13.314954 -26.865142 37.118682 -0.546661 2.380037 0.066626 -0.019580 -188467.000000 0 0 1
-21.673174 13.618854 -28.297172 38.156646 -0.561022 2.406257 0.067849 -0.012215 351184.000000 0 0 1
-20.317174 13.983654 -28.518992 37.704948 -0.602808 2.428546 0.072668 -0.020090 85552.800000 0 0 1
-20.128574 14.471054 -29.785422 38.752320 -0.623319 2.447462 0.075344 -0.026965 -233734.000000 0 0 1
-18.709874 14.953154 -30.115312 38.478413 -0.674260 2.469716 0.076692 -0.027619 -104689.000000 0 0 1
-17.771974 13.899454 -30.240062 37.729289 -0.663730 2.500597 0.078670 -0.034073 -104674.000000 0 0 1
-16.431574 14.321254 -30.072272 37.140766 -0.716884 2.514409 0.062319 -0.029280 489768.000000 0 0 1
-15.779174 13.823854 -28.697032 35.547165 -0.719443 2.510350 0.085257 -0.021295 10955.200000 0 0 1
-16.246674 14.423654 -27.498612 35.045255 -0.726029 2.472944 0.086192 -0.029205 -65466.700000 0 0 1
-17.145174 13.497654 -26.902952 34.639753 -0.666922 2.460126 0.108346 -0.020729 -112931.000000 0 0 1
-17.649974 13.974654 -25.515402 34.027170 -0.669700 2.418637 0.101540 -0.017859 -416641.000000 0 0 1
-16.664974 14.158654 -24.536932 32.867155 -0.704265 2.413656 0.128173 -0.030986 -142759.000000 0 0 1
-17.233474 14.566454 -23.346732 32.469126 -0.701725 2.373222 0.114676 -0.032298 -523020.000000 0 0 1
-16.225874 15.200254 -22.413732 31.570589 -0.752774 2.360232 0.107054 -0.022621 -336809.000000 0 0 1
-15.933474 16.517354 -22.850132 32.385601 -0.803389 2.354016 0.087376 -0.028078 -56032.400000 0 0 1
-15.266774 17.303754 -21.880032 31.799844 -0.847857 2.329601 0.079240 -0.028749 -441729.000000 0 0 1
-15.056874 18.762654 -22.475432 32.922511 -0.894538 2.322216 0.077908 -0.024974 503489.000000 0 0 1
-16.184474 19.636354 -22.412332 33.909235 -0.881467 2.292881 0.060118 -0.025790 327165.000000 0 0 1
-17.254274 19.324154 -23.259032 34.815449 -0.841925 2.302404 0.042836 -0.020422 -188346.000000 0 0 1
-18.528874 20.193654 -23.151432 35.876060 -0.828364 2.272235 0.024924 -0.020250 146387.000000 0 0 1
-18.288074 21.555554 -23.517232 36.771671 -0.867223 2.264706 0.023312 -0.021015 -1217330.000000 0 0 1
-19.464874 22.223254 -23.611532 37.818763 -0.851469 2.245075 0.039179 -0.031354 -1253720.000000 0 0 1
-19.384874 23.724654 -24.001632 38.919287 -0.885729 2.235344 0.035244 -0.036331 40411.900000 0 0 1
-18.881274 24.556154 -22.935332 38.542660 -0.915307 2.208141 0.039415 -0.030326 -23924.600000 0 0 1
-17.885674 25.452354 -23.322232 38.879894 -0.958253 2.214114 0.037437 -0.021685 -470329.000000 0 0 1
-16.761374 25.655554 -22.274832 37.885608 -0.992088 2.199318 0.051590 -0.034582 285368.000000 0 0 1
-15.672874 24.733854 -22.244532 36.772568 -1.005993 2.220464 0.060156 -0.044892 296303.000000 0 0 1
-15.987074 23.415154 -21.778032 35.751065 -0.971731 2.225794 0.061500 -0.024646 -1016220.000000 0 0 1
-14.801474 22.501754 -21.551732 34.494778 -0.988963 2.245649 0.090068 -0.023541 41088.900000 0 0 1
-14.012674 22.815854 -20.389132 33.654642 -1.020027 2.221610 0.101095 -0.025713 194632.000000 0 0 1
-12.885874 22.014654 -20.159232 32.512850 -1.041232 2.239589 0.086433 -0.024648 -163045.000000 0 0 1
-12.187774 22.354554 -18.817832 31.660365 -1.071643 2.207273 0.074749 -0.021545 236195.000000 0 0 1
-12.812474 21.886354 -17.575232 30.855482 -1.041174 2.176813 0.090857 -0.014755 549262.000000 0 0 1
-13.905374 22.698454 -17.154432 31.667867 -1.021154 2.143253 0.085900 -0.018293 -19741.600000 0 0 1
-14.366274 22.490954 -15.708532 30.967577 -1.002365 2.102796 0.095908 -0.013161 94009.900000 0 0 1
-13.500674 22.897154 -14.673732 30.362251 -1.038042 2.075204 0.088455 -0.018275 -240434.000000 0 0 1
-14.293474 23.130154 -13.529632 30.370353 -1.017277 2.032516 0.089051 -0.023474 -172668.000000 0 0 1
-13.570874 23.725554 -12.307332 29.975673 -1.051224 1.993883 0.098686 -0.028042 -396734.000000 0 0 1
-13.073374 24.991254 -12.652832 30.912296 -1.088826 1.992498 0.084408 -0.025981 96754.100000 0 0 1
-12.075074 25.274454 -11.690632 30.352534 -1.125100 1.966179 0.050016 -0.021235 -184763.000000 0 0 1
-11.689374 26.745654 -11.708432 31.449306 -1.158758 1.952277 0.063689 -0.025403 -237813.000000 0 0 1
-11.002274 27.025854 -12.898232 31.903154 -1.184183 1.987002 0.062929 -0.027692 -60328.000000 0 0 1
-10.662274 28.390454 -12.964732 32.981605 -1.211536 1.974786 0.052723 -0.017572 -826959.000000 0 0 1
-10.056174 28.814654 -14.330932 33.716265 -1.235017 2.009808 0.085095 -0.040443 776132.000000 0 0 1
-8.634774 28.877254 -14.521632 33.456433 -1.280242 2.019775 0.059347 -0.039858 564067.000000 0 0 1
-8.039374 27.592054 -14.425032 32.156407 -1.287280 2.035983 0.064082 -0.033067 -799335.000000 0 0 1
-6.566974 27.641854 -14.843732 32.055165 -1.337547 2.052250 0.078088 -0.033942 -226988.000000 0 0 1
-5.674274 28.271254 -13.977532 32.044229 -1.372720 2.022162 0.077236 -0.040775 -1050190.000000 0 0 1
-4.383574 28.187054 -14.481032 31.991030 -1.416515 2.040542 0.095651 -0.044841 -407619.000000 0 0 1
-3.381574 29.219254 -13.880032 32.524685 -1.455578 2.011697 0.072271 -0.039795 -96947.000000 0 0 1
-3.442474 30.555154 -14.168632 33.855844 -1.458605 2.002588 0.062511 -0.038769 42549.100000 0 0 1
-4.620374 31.235154 -13.769132 34.446650 -1.423939 1.982011 0.053511 -0.038416 68290.900000 0 0 1
-4.432674 32.759254 -14.087832 35.934445 -1.436303 1.973647 0.050368 -0.041602 -197695.000000 0 0 1
-3.408974 33.370154 -13.383732 36.115268 -1.468993 1.950434 0.040206 -0.041070 -447932.000000 0 0 1
-3.452474 -33.397746 -13.646332 36.242950 1.467788 1.956837 0.041373 -0.036733 322074.000000 0 0 1
-2.482574 -32.580746 -12.746632 35.073420 1.494746 1.942740 0.038429 -0.034314 -200475.000000 0 0 1
-2.966374 -32.389846 -11.413032 34.469679 1.479468 1.908269 0.035708 -0.033502 -208783.000000 0 0 1
-2.125774 -31.615646 -10.658632 33.431638 1.503659 1.895279 0.022837 -0.024465 -494998.000000 0 0 1
-2.544774 -31.719546 -9.177132 33.118352 1.490740 1.851572 0.016247 -0.018270 -60217.400000 0 0 1
-1.657974 -31.062746 -8.284432 32.191224 1.517472 1.831076 0.023143 -0.018681 -42444.200000 0 0 1
-2.078574 -31.135846 -6.920932 31.963427 1.504137 1.789052 0.020575 -0.021749 -392211.000000 0 0 1
-0.943274 -30.779346 -5.961932 31.365627 1.540160 1.762038 0.042677 -0.021473 -173634.000000 0 0 1
-1.250774 -30.703746 -4.547632 31.063892 1.530082 1.717720 0.051312 -0.031535 -1037070.000000 0 0 1
-0.166974 -30.185646 -3.884932 30.435075 1.565265 1.698792 0.050610 -0.027517 -922095.000000 0 0 1
-0.238474 -30.277946 -2.318732 30.367539 1.562920 1.647226 0.050674 -0.026250 -272936.000000 0 0 1
-0.016774 -31.613646 -1.812232 31.665550 1.570266 1.628058 0.052072 -0.028937 650612.000000 0 0 1
1.206426 -32.252446 -2.184532 32.348847 -1.533408 1.638378 0.048431 -0.027898 903997.000000 0 0 1
2.603126 -31.796946 -1.629532 31.944912 -1.489111 1.621829 0.062349 -0.024855 19032.500000 0 0 1
2.829426 -32.080846 -0.218432 32.206118 -1.482827 1.577579 0.054202 -0.025718 141814.000000 0 0 1
4.107226 -31.828146 0.347268 32.093937 -1.442462 1.559976 0.059953 -0.021908 258379.000000 0 0 1
4.578326 -30.373546 0.437368 30.719776 -1.421189 1.556559 0.040755 -0.021836 -725573.000000 0 0 1
4.786226 -29.853046 -0.832432 30.245748 -1.411823 1.598322 0.048662 -0.028966 18590.700000 0 0 1
4.737026 -28.464346 -0.830832 28.867779 -1.405888 1.599581 0.051544 -0.019891 -487593.000000 0 0 1
4.447226 -27.745346 -2.141632 28.180998 -1.411861 1.646865 0.042357 -0.016189 341706.000000 0 0 1
3.115226 -28.073146 -2.553532 28.360654 -1.460280 1.660956 0.053556 -0.021507 528369.000000 0 0 1
2.561626 -27.120146 -3.432032 27.456203 -1.476621 1.696124 0.052619 -0.017870 22873.100000 0 0 1
2.956426 -27.190046 -4.952132 27.795012 -1.462490 1.749919 0.041652 -0.012479 -165357.000000 0 0 1
2.338426 -28.217146 -5.648832 28.871870 -1.488113 1.767718 0.045370 -0.016501 -242744.000000 0 0 1
2.745126 -28.071046 -7.007532 29.062430 -1.473314 1.814316 0.056857 -0.025223 -249326.000000 0 0 1
1.962026 -28.724546 -8.158332 29.925031 -1.502597 1.846917 0.049175 -0.024753 -66701.000000 0 0 1
0.743926 -28.036546 -8.405432 29.278877 -1.544268 1.861975 0.044214 -0.021185 -262257.000000 0 0 1
0.406426 -28.024446 -9.745932 29.673523 -1.556295 1.905446 0.040599 -0.021436 271238.000000 0 0 1
-1.033874 -27.500246 -9.983732 29.274688 1.533219 1.918815 0.031068 -0.020571 -590446.000000 0 0 1
-1.291174 -26.171946 -9.544032 27.887747 1.521502 1.920086 0.037949 -0.011918 -897998.000000 0 0 1
-2.656174 -25.877446 -9.537132 27.706576 1.468510 1.922203 0.047241 -0.022868 -174725.000000 0 0 1
-3.477874 -26.570146 -8.418032 28.087925 1.440642 1.875178 0.058375 -0.018389 -924769.000000 0 0 1
-3.116774 -26.300146 -7.090432 27.416896 1.452839 1.832385 0.067006 -0.023447 122001.000000 0 0 1
-2.050874 -27.145446 -6.597032 28.010751 1.495388 1.808548 0.058794 -0.022733 852048.000000 0 0 1
-1.605374 -26.717246 -5.146432 27.255719 1.510781 1.760757 0.069082 -0.020591 852164.000000 0 0 1
-2.663774 -26.836346 -4.176432 27.289700 1.471860 1.724441 0.072340 -0.029276 695904.000000 0 0 1
-2.095474 -26.636346 -2.889132 26.874393 1.492288 1.678510 0.073993 -0.022148 -184394.000000 0 0 1
-3.121874 -26.752546 -1.796332 26.993918 1.454627 1.637391 0.066307 -0.023323 -568511.000000 0 0 1
-4.053474 -25.726646 -1.757732 26.103268 1.414522 1.638185 0.059549 -0.020636 -390713.000000 0 0 1
-5.119474 -25.976746 -0.841932 26.489794 1.376211 1.602585 0.071304 -0.024716 747331.000000 0 0 1
-6.282574 -24.950946 -1.152132 25.755540 1.324127 1.615545 0.065944 -0.021606 309786.000000 0 0 1
-6.051274 -23.596346 -0.785632 24.372580 1.319757 1.603036 0.055534 -0.023453 -10028.900000 0 1 0
-6.626174 -23.247246 0.484268 24.177989 1.293129 1.550766 0.060794 -0.009335 -2266.240000 0 1 0
-6.226174 -21.830446 0.813368 22.715527 1.292967 1.534982 0.037263 -0.011198 1658100.000000 0 1 0
-4.869274 -21.716346 1.347168 22.296286 1.350223 1.510338 0.030061 -0.022406 1289660.000000 0 1 0
-4.525374 -20.411846 1.698868 20.976382 1.352622 1.489718 0.011051 -0.015999 -91787.300000 0 1 0
-3.389374 -20.231846 2.712968 20.692405 1.404811 1.439308 0.015401 -0.012920 -478000.000000 0 1 0
-3.809574 -20.380946 4.027268 21.121427 1.386010 1.378950 0.009682 0.001996 -512101.000000 0 1 0
-2.847474 -20.195746 5.017368 21.003577 1.430726 1.329582 0.021495 -0.006270 -137281.000000 0 1 0
-1.874074 -21.400446 5.209468 22.104972 1.483447 1.332889 0.022574 -0.017112 267374.000000 0 1 0
-0.933174 -21.689146 4.192268 22.110291 1.527798 1.380034 0.047282 -0.019751 60192.600000 0 1 0
-0.100074 -22.816746 4.560768 23.268316 1.566410 1.373511 0.052585 -0.020494 164346.000000 0 1 0
1.070526 -23.082846 3.564368 23.380943 -1.524452 1.417752 0.052745 -0.029544 -17561.000000 0 1 0
2.125226 -22.188246 3.517768 22.565671 -1.475306 1.414268 0.024917 -0.030899 -669983.000000 0 1 0
3.070326 -22.550546 4.500868 23.199393 -1.435475 1.375550 0.056025 -0.030585 -1107950.000000 0 1 0
4.349126 -21.721346 4.473068 22.599560 -1.373186 1.371553 0.068961 -0.032042 -816137.000000 0 1 0
5.230326 -21.953546 3.449068 22.830036 -1.336911 1.419140 0.046131 -0.015310 -1930100.000000 0 1 0
6.356726 -21.250846 3.775568 22.500252 -1.280140 1.402198 0.078069 -0.011172 -911807.000000 0 1 0
7.077526 -20.672946 2.555568 21.999841 -1.240947 1.454370 0.085772 -0.005101 -348856.000000 0 1 0
7.618426 -21.684846 1.764468 23.051818 -1.232942 1.494178 0.076414 -0.004753 -239459.000000 0 1 0
7.210726 -21.568246 0.400868 22.745208 -1.248157 1.553171 0.069357 -0.010659 -225586.000000 0 1 0
8.124426 -22.455546 -0.392832 23.883303 -1.223648 1.587245 0.067359 -0.003223 188166.000000 0 1 0
9.421626 -21.899546 -0.601332 23.847825 -1.164512 1.596014 0.061755 -0.001201 -462196.000000 0 1 0
10.176826 -22.898546 -1.234832 25.088563 -1.152583 1.620035 0.061420 0.001026 -695754.000000 0 0 1
11.517926 -22.348446 -1.683732 25.198226 -1.094921 1.637666 0.065124 0.003046 -541539.000000 0 0 1
11.475826 -21.287446 -2.690632 24.332888 -1.076369 1.681599 0.067043 0.005665 -938524.000000 0 1 0
12.716926 -21.089946 -3.267532 24.843164 -1.028185 1.702705 0.060769 -0.000471 -654848.000000 0 1 0
12.823926 -19.904946 -4.253532 24.057275 -0.998468 1.748539 0.053281 -0.008839 -129627.000000 0 1 0
12.922626 -18.646146 -3.624532 22.974121 -0.964753 1.729224 0.070346 -0.009387 165011.000000 0 1 0
12.868426 -17.568146 -4.537632 22.244690 -0.938599 1.776225 0.057814 -0.017661 -554247.000000 0 1 0
13.437826 -16.231346 -3.967732 21.442357 -0.879277 1.756911 0.079073 -0.012593 622552.000000 0 1 0
14.789226 -16.061646 -3.576132 22.124339 -0.826619 1.733147 0.067869 -0.009823 712766.000000 0 1 0
15.770426 -16.205146 -4.600932 23.075564 -0.798993 1.771527 0.064612 -0.006880 -122696.000000 0 1 0
17.150026 -15.609146 -4.255932 23.577145 -0.738396 1.752302 0.057758 -0.007039 -171385.000000 0 1 0
17.919026 -16.385346 -3.385332 24.515944 -0.740720 1.709326 0.062151 -0.011622 442938.000000 0 1 0
19.324726 -16.250446 -3.550332 25.497586 -0.699196 1.710492 0.046746 0.004626 158305.000000 0 0 1
19.995626 -17.048546 -2.414432 26.387638 -0.706010 1.662423 0.045520 -0.011534 57770.100000 0 0 1
21.414726 -17.013046 -2.381132 27.453670 -0.671351 1.657638 0.049410 -0.005925 233144.000000 0 0 1
21.900726 -17.663346 -1.287832 28.165477 -0.678703 1.616536 0.042952 -0.005837 -170498.000000 0 0 1
23.431426 -17.830446 -1.234432 29.469991 -0.650481 1.612696 0.047370 -0.010161 -123809.000000 0 0 1
24.173126 -16.643946 -1.045632 29.367572 -0.602987 1.606409 0.053856 -0.010782 -738307.000000 0 0 1
25.467526 -16.983346 -0.700832 30.618950 -0.588138 1.593687 0.079788 -0.009786 -1020240.000000 0 0 1
26.286826 -15.775746 -0.204432 30.658003 -0.540522 1.577465 0.073791 -0.012981 -305015.000000 0 0 1
25.866926 -15.215546 1.005568 30.027019 -0.531716 1.537301 0.070295 -0.009270 34313.400000 0 0 1
26.544126 -14.043746 1.287368 30.057856 -0.486634 1.527954 0.060589 -0.015642 -203274.000000 0 0 1
25.817926 -13.267246 2.414168 29.127535 -0.474688 1.487818 0.081327 -0.022130 -85680.300000 0 0 1
25.600826 -13.900246 3.699968 29.365096 -0.497423 1.444462 0.092427 -0.014501 849702.000000 0 0 1
26.795426 -14.237846 4.425268 30.664215 -0.488415 1.425977 0.091533 -0.003697 359718.000000 0 0 1
26.394526 -14.787746 5.824368 30.810253 -0.510685 1.380612 0.082289 -0.004297 441875.000000 0 0 1
25.632426 -15.990546 5.702368 30.744688 -0.557765 1.384241 0.064559 -0.013534 -161096.000000 0 0 1
24.760926 -16.062946 6.785568 30.284742 -0.575476 1.344819 0.043951 -0.010078 161998.000000 0 0 1
23.787626 -17.287846 6.773368 30.176137 -0.628460 1.344406 0.044013 -0.016071 513504.000000 0 0 1
24.522626 -18.488346 7.070968 31.514706 -0.646012 1.344499 0.046485 -0.014029 553987.000000 0 0 1
23.669526 -19.623846 7.120268 31.560101 -0.692221 1.343227 0.037659 -0.006094 -88854.300000 0 0 1
1.511226 23.097754 -3.048932 23.347077 1.505462 1.701762 0.024078 -0.019036 -50259.400000 0 1 0
2.562326 23.870554 -2.533932 24.141037 1.463863 1.675954 0.031223 -0.024656 -105969.000000 0 1 0
3.295526 24.344254 -3.669632 24.838868 1.436242 1.719077 0.047536 -0.021970 -280615.000000 0 1 0
4.191526 25.521354 -3.372332 26.082197 1.408014 1.700456 0.034892 -0.014595 -920066.000000 0 0 1
5.317726 25.142554 -2.682532 25.838386 1.362365 1.674803 0.035165 -0.019254 -1291960.000000 0 0 1
6.025426 26.179754 -2.078232 26.944467 1.344580 1.648003 0.021265 -0.019356 71224.200000 0 0 1
7.281526 25.501054 -1.453732 26.560077 1.292659 1.625557 0.018580 -0.032475 595146.000000 0 0 1
8.230626 25.002054 -2.430832 26.433971 1.252772 1.662885 0.036099 -0.030070 -8423.590000 0 0 1
9.212826 24.227954 -1.816132 25.984000 1.207426 1.640748 0.019831 -0.018410 -737237.000000 0 0 1
10.398726 23.921854 -2.718932 26.225583 1.160742 1.674658 0.043115 -0.017812 -903324.000000 0 0 1
11.304726 25.048054 -2.748532 27.618042 1.146844 1.670481 0.048062 -0.014107 48857.300000 0 0 1
12.309126 24.941354 -3.709732 28.059719 1.112344 1.703393 0.065506 -0.016774 850297.000000 0 0 1
13.521426 23.947454 -3.512032 27.724427 1.056791 1.697814 0.067189 -0.011531 172673.000000 0 0 1
13.034326 22.610354 -3.621332 26.348355 1.047854 1.708673 0.066876 -0.016856 -16080.300000 0 0 1
12.935926 22.085254 -4.922632 26.063939 1.040938 1.760805 0.081123 -0.029654 -698780.000000 0 0 1
12.009326 20.930354 -5.166532 24.677858 1.049883 1.781716 0.066406 -0.028222 40093.000000 0 1 0
10.641326 21.275654 -4.960132 24.300086 1.107017 1.776361 0.070581 -0.028005 -307070.000000 0 1 0
9.772226 20.199754 -5.002832 22.990319 1.120209 1.790157 0.037975 -0.025646 -142272.000000 0 1 0
8.307826 20.630954 -4.790632 22.750964 1.187975 1.782953 0.038200 -0.020801 29003.700000 0 1 0
7.943226 21.029054 -3.438532 22.740700 1.209638 1.722585 0.040331 -0.024895 220883.000000 0 1 0
6.567626 21.365154 -3.456132 22.617435 1.272565 1.724206 0.043150 -0.022351 326125.000000 0 1 0
5.947826 22.041754 -2.216832 22.937521 1.307230 1.667594 0.041484 -0.023597 46543.200000 0 1 0
5.545626 21.124254 -1.208732 21.873479 1.314065 1.626085 0.032228 -0.027384 1778.970000 0 1 0
4.794026 21.833154 -0.249732 22.354679 1.354651 1.581968 0.034453 -0.024182 -57694.400000 0 1 0
4.406126 21.032554 0.974268 21.511194 1.364292 1.525490 0.019140 -0.017891 -266933.000000 0 1 0
3.683826 21.746854 1.958868 22.143473 1.402993 1.482218 0.020574 -0.014578 47750.500000 0 1 0
3.332926 20.875854 3.005768 21.352852 1.412478 1.429561 0.017188 -0.014738 379747.000000 0 1 0
2.246526 21.374554 4.025268 21.865983 1.466078 1.385652 0.008866 -0.015357 290838.000000 0 1 0
0.945426 21.586354 3.531968 21.893819 1.527027 1.408766 0.008590 -0.013901 -308669.000000 0 1 0
0.101026 21.956454 4.588268 22.430967 1.566195 1.364792 0.012928 -0.023563 -184757.000000 0 1 0
-1.303174 22.299554 4.087968 22.708585 -1.512423 1.389791 0.022339 -0.014977 -238435.000000 0 1 0
-2.337074 22.331554 5.061168 23.016855 -1.466522 1.349095 0.038273 -0.026886 -326737.000000 0 1 0
-3.469274 22.813454 4.369168 23.485722 -1.419881 1.383671 0.054787 -0.021166 654615.000000 0 1 0
-4.770174 22.978654 5.244968 24.047511 -1.366112 1.350920 0.073669 -0.032726 756712.000000 0 1 0
-4.994574 24.301754 5.686768 25.453101 -1.368096 1.345473 0.097781 -0.026616 576685.000000 0 0 1
-6.237374 24.433654 6.401068 26.016955 -1.320856 1.322210 0.113604 -0.029811 908122.000000 0 0 1
-6.694874 25.773054 6.933568 27.516286 -1.316651 1.316070 0.118176 -0.034362 384520.000000 0 0 1
-5.687674 26.210354 7.872368 27.951860 -1.357108 1.285293 0.101062 -0.040752 458107.000000 0 0 1
-5.754774 27.476954 8.483968 29.327088 -1.364341 1.277314 0.124174 -0.037429 -326466.000000 0 0 1
-5.833774 28.740954 7.575468 30.289653 -1.370539 1.318012 0.128812 -0.038485 28987.500000 0 0 1
-7.047574 28.818654 6.856368 30.449842 -1.330955 1.343680 0.118870 -0.038513 -508042.000000 0 0 1
-7.279474 30.103354 6.282068 31.601693 -1.333535 1.370674 0.114246 -0.038902 -529924.000000 0 0 1
-8.687874 30.123754 5.616068 31.850587 -1.290010 1.393544 0.088279 -0.033216 1006550.000000 0 0 1
-9.790274 30.409054 6.481368 32.597057 -1.259323 1.370629 0.085767 -0.031288 185152.000000 0 0 1
-10.050174 29.374854 7.417368 31.920297 -1.241145 1.336281 0.067251 -0.027256 -962183.000000 0 0 1
-11.173874 29.721454 8.414568 32.848519 -1.211190 1.311746 0.043645 -0.022576 115753.000000 0 0 1
-10.694974 30.448954 9.550968 33.656236 -1.233015 1.283062 0.054076 -0.022937 287839.000000 0 0 1
-11.776374 30.897154 10.368768 34.652972 -1.206647 1.266924 0.057252 -0.018736 681392.000000 0 0 1
-11.128774 31.491754 11.687268 35.386048 -1.231107 1.234197 0.052403 -0.023590 453556.000000 0 0 1
-10.453074 32.751054 11.528068 36.260097 -1.261849 1.247254 0.041390 -0.023425 772561.000000 0 0 1
-9.663574 33.020854 12.728168 36.684707 -1.286096 1.216467 0.039582 -0.025695 407621.000000 0 0 1
-9.196274 -33.710846 12.770968 37.203363 1.304478 1.220395 0.035219 -0.024605 515092.000000 0 0 1
-10.188074 -32.745446 13.193268 36.744025 1.269161 1.203537 0.031922 -0.012471 687213.000000 0 0 1
-9.593874 -31.431946 13.246168 35.432620 1.274551 1.187649 0.036409 -0.010391 413731.000000 0 0 1
-10.538774 -30.363546 13.855468 34.999781 1.236719 1.163778 0.058338 -0.009129 278796.000000 0 0 1
-10.818574 -30.428946 15.292368 35.732601 1.229199 1.128554 0.056391 -0.023504 706691.000000 0 0 1
-9.682874 -30.048746 16.082768 35.430786 1.259064 1.099636 0.057167 -0.018438 689227.000000 0 0 1
-10.003674 -30.397846 17.544868 36.495546 1.252868 1.069298 0.056591 -0.031985 414609.000000 0 0 1
-10.946774 -29.546946 18.217668 36.396941 1.215988 1.046588 0.079963 -0.036686 679846.000000 0 0 1
-11.465974 -30.273246 19.353368 37.715923 1.208743 1.031963 0.075730 -0.035510 338.897000 0 0 1
-11.712474 -29.378146 20.569368 37.727396 1.191429 0.994156 0.077735 -0.044466 -288513.000000 0 0 1
-10.555874 -29.089746 21.291368 37.562776 1.222700 0.968154 0.051932 -0.033069 -162411.000000 0 0 1
-10.895374 -28.375046 22.475068 37.801866 1.204178 0.934092 0.046969 -0.027908 644854.000000 0 0 1
-9.729574 -28.340346 23.535268 38.101819 1.240092 0.904989 0.071096 -0.032296 565400.000000 0 0 1
-9.528474 -29.585646 24.152668 39.363100 1.259222 0.910202 0.046936 -0.010716 -332855.000000 0 0 1
-8.468674 -29.554646 25.062268 39.665007 1.291731 0.886861 0.061323 -0.019013 -220379.000000 0 0 1
-8.346474 -30.807046 25.982368 41.156058 1.306220 0.887551 0.051369 -0.012889 -256457.000000 0 0 1
-8.168074 -32.035746 25.300568 41.630820 1.321148 0.917589 0.074167 -0.015908 347993.000000 0 0 1
-8.172374 -33.123346 26.206568 43.020087 1.328902 0.915782 0.073637 -0.018075 -320220.000000 0 0 1
-8.045474 33.684754 25.518668 43.018539 -1.336343 0.935766 0.070186 -0.017421 -706024.000000 0 0 1
-6.706374 33.410754 25.250768 42.412913 -1.372704 0.933088 0.070006 -0.013064 -325308.000000 0 0 1
-6.398574 32.140654 24.587068 40.969345 -1.374285 0.927129 0.068452 -0.010366 538730.000000 0 0 1
-7.302274 31.799454 23.294068 40.089176 -1.345074 0.950770 0.061091 -0.014359 303813.000000 0 0 1
-8.484274 31.140954 23.661268 40.019964 -1.304805 0.938205 0.052216 -0.016108 -190883.000000 0 0 1
-9.403074 31.095454 22.575968 39.560326 -1.277145 0.963472 0.043444 -0.011248 525444.000000 0 0 1
-10.336874 29.836754 22.775368 38.933279 -1.237290 0.945935 0.045656 -0.017239 397506.000000 0 0 1
-9.670674 28.617154 22.466868 37.646030 -1.244912 0.931299 0.041502 -0.010085 -146217.000000 0 0 1
-10.356674 27.504454 22.951468 37.289751 -1.210672 0.907789 0.021377 -0.003599 -567048.000000 0 0 1
-9.803974 26.154854 22.528068 35.884650 -1.212163 0.892084 0.006416 -0.005530 -111898.000000 0 0 1
-8.492074 25.929754 22.999768 35.685526 -1.254302 0.870411 0.012851 -0.014323 212940.000000 0 0 1
-7.924874 24.672954 22.622868 34.399890 -1.260008 0.853110 0.020199 -0.009402 -34521.200000 0 0 1
-6.673374 24.314054 23.445868 34.429868 -1.302927 0.821704 0.022161 -0.014742 345419.000000 0 0 1
-5.572474 25.144054 23.066368 34.573591 -1.352699 0.840397 0.011771 -0.016558 -53681.600000 0 0 1
-4.383274 24.642454 23.639768 34.428218 -1.394763 0.813940 0.051658 -0.010445 -138477.000000 0 0 1
-3.110174 25.260354 23.061268 34.345025 -1.448288 0.834621 0.039389 -0.007989 -452620.000000 0 0 1
-2.861674 24.822354 21.717568 33.105757 -1.456017 0.855282 0.034412 -0.008385 55011.000000 0 0 1
-1.800474 25.559554 21.124968 33.208384 -1.500470 0.881320 0.030756 -0.004193 166815.000000 0 0 1
-1.318074 24.789354 19.850368 31.785004 -1.517675 0.896280 0.024740 -0.011338 -736869.000000 0 0 1
-0.617074 23.679154 20.308468 31.201233 -1.544742 0.862045 0.041427 -0.012680 -316588.000000 0 0 1
-0.499574 22.689754 19.265168 29.769467 -1.548782 0.866963 0.014430 -0.011502 -20237.600000 0 0 1
0.563326 21.533454 19.434268 29.012027 1.544642 0.836764 0.025839 -0.009042 -322075.000000 0 0 1
1.848026 22.048654 19.439868 29.452789 1.487176 0.849931 0.033336 -0.019540 -1588040.000000 0 0 1
2.800426 21.045654 19.421968 28.774550 1.438509 0.829872 0.047049 -0.018074 -317748.000000 0 0 1
4.183026 21.718254 19.277068 29.339148 1.380522 0.853907 0.038923 -0.028507 96170.900000 0 0 1
5.303226 20.859154 19.169868 28.822080 1.321831 0.843155 0.061091 -0.027520 820033.000000 0 0 1
6.538426 21.589854 19.303568 29.690074 1.276730 0.862989 0.096225 -0.029610 1272090.000000 0 0 1
7.809026 20.792054 18.850868 29.131522 1.211520 0.867028 0.089929 -0.017492 122059.000000 0 0 1
8.390426 19.910254 19.793668 29.301992 1.171968 0.829146 0.084356 -0.032598 -558690.000000 0 0 1
9.378026 19.141354 19.214768 28.697493 1.115233 0.837177 0.088778 -0.028185 -253447.000000 0 0 1
10.118526 18.212954 20.206068 29.023808 1.063689 0.800721 0.096870 -0.026831 -175477.000000 0 0 1
9.184326 17.308654 20.722668 28.519647 1.082953 0.757421 0.087210 -0.033742 -205272.000000 0 0 1
9.691626 16.400654 21.671268 28.853993 1.037073 0.721120 0.083529 -0.039116 -237199.000000 0 0 1
8.663426 15.383954 22.251668 28.405241 1.057916 0.670735 0.065629 -0.034578 66490.800000 0 0 1
7.610826 16.014154 22.950768 29.001992 1.127139 0.657780 0.064202 -0.030685 400526.000000 0 0 1
6.556126 15.141754 23.414068 28.643918 1.162183 0.613881 0.058326 -0.026461 593219.000000 0 0 1
6.852726 13.915654 24.391968 28.906286 1.113209 0.566417 0.065390 -0.024218 -788279.000000 0 0 1
7.422826 14.356854 25.560068 30.241274 1.093623 0.563848 0.078845 -0.034565 -274158.000000 0 0 1
7.564326 13.314154 26.528068 30.630444 1.054132 0.523512 0.081497 -0.036762 -91050.200000 0 0 1
8.594926 13.623754 27.689068 32.033793 1.007981 0.526899 0.063264 -0.025222 1215270.000000 0 0 1
9.972526 13.813454 27.357068 32.228433 0.945495 0.556993 0.081184 -0.024830 716265.000000 0 0 1
10.274726 14.980254 26.612368 32.221051 0.969607 0.598945 0.072344 -0.023632 -704747.000000 0 0 1
11.728026 15.044254 26.082168 32.313397 0.908638 0.631466 0.074074 -0.028934 183331.000000 0 0 1
11.769426 14.186854 24.930268 31.004910 0.878265 0.636679 0.074869 -0.028759 360124.000000 0 0 1
13.113626 13.832354 24.645068 31.155747 0.812065 0.658309 0.075493 -0.029123 -399574.000000 0 0 1
13.118126 12.676354 23.670568 29.884293 0.768273 0.656597 0.061842 -0.019311 225578.000000 0 0 1
12.682726 11.362954 24.232268 29.617074 0.730567 0.612548 0.060586 -0.014029 55783.900000 0 0 1
11.308026 11.265454 24.489868 29.232439 0.783512 0.577622 0.075685 -0.015613 -642996.000000 0 0 1
10.904926 9.896954 25.060568 29.067149 0.736980 0.531276 0.067897 -0.009622 -134909.000000 0 0 1
11.031426 8.871354 24.096368 27.946882 0.677290 0.531160 0.064186 -0.012444 263071.000000 0 0 1
10.673526 7.647954 24.617468 27.900449 0.621737 0.490001 0.068428 -0.013437 -147792.000000 0 0 1
10.866826 6.419454 23.694268 26.846147 0.533582 0.489443 0.064555 -0.013619 455343.000000 0 0 1
12.220526 5.988454 23.515868 27.169815 0.455642 0.524620 0.069927 -0.010061 761951.000000 0 0 1
12.302526 4.884954 22.608668 26.198602 0.377977 0.529673 0.077751 -0.018086 -163588.000000 0 0 1
12.051626 3.495954 23.173268 26.352679 0.282333 0.496298 0.066926 -0.024361 7722.580000 0 0 1
12.988826 3.000954 24.133968 27.571067 0.227057 0.504665 0.062345 -0.018786 152022.000000 0 0 1
12.839526 1.652854 24.437968 27.655011 0.128028 0.487146 0.060857 -0.020124 -705674.000000 0 0 1
14.034426 1.041954 25.180268 28.846086 0.074107 0.509644 0.041536 -0.010324 -682507.000000 0 0 1
15.013426 0.628054 24.304668 28.574714 0.041808 0.553736 0.068773 -0.018601 -521338.000000 0 0 1
16.211426 1.375154 24.267968 29.217043 0.084624 0.590594 0.070638 -0.020511 -182598.000000 0 0 1
17.291426 0.608654 23.474468 29.161867 0.035185 0.635169 0.071139 -0.024212 -138286.000000 0 0 1
17.492126 -0.664146 24.115368 29.798767 -0.037950 0.627881 0.073768 -0.019346 -349162.000000 0 0 1
18.544426 -1.353846 23.521068 29.982816 -0.072876 0.668931 0.080500 -0.013382 -340836.000000 0 0 1
18.668326 -2.882846 23.758668 30.352784 -0.153214 0.671722 0.073651 -0.004931 220772.000000 0 0 1
17.588526 -3.514746 23.085368 29.234293 -0.197234 0.660530 0.063948 0.003528 326563.000000 0 0 1
17.712626 -4.909446 23.286568 29.666547 -0.270384 0.668191 0.064698 0.005777 38523.900000 0 0 1
16.657026 -5.814846 22.591668 28.664480 -0.335866 0.663013 0.061177 0.005139 13648.500000 0 0 1
16.671726 -5.664546 21.189568 27.550523 -0.327532 0.693338 0.057382 0.001503 80624.100000 0 0 1
16.153626 -6.747746 20.378368 26.865397 -0.395691 0.709733 0.073228 0.000105 -165471.000000 0 0 1
16.803526 -8.157346 20.526968 27.753507 -0.451944 0.738295 0.070850 -0.003883 326904.000000 0 0 1
16.346226 -8.819146 21.713168 28.573381 -0.494763 0.707623 0.056702 -0.006272 269777.000000 0 0 1
17.152226 -9.982546 21.834268 29.505683 -0.527077 0.737723 0.052575 -0.006948 194257.000000 0 0 1
17.038126 -10.841246 23.109868 30.690330 -0.566679 0.718184 0.056709 0.005698 -1001230.000000 0 0 1
15.957426 -11.671846 23.175768 30.462889 -0.631514 0.706272 0.059910 -0.000692 -807451.000000 0 0 1
15.870726 -12.233246 24.502068 31.652544 -0.656684 0.685512 0.059188 0.006111 -237956.000000 0 0 1
14.587426 -13.070046 24.486668 31.356275 -0.730590 0.674663 0.085665 0.014447 -238145.000000 0 0 1
14.687926 -14.165146 23.633068 31.223523 -0.767281 0.712241 0.077991 -0.001379 -810360.000000 0 0 1
13.522326 -14.887046 23.581368 30.992876 -0.833399 0.706153 0.087311 -0.011122 -1215870.000000 0 0 1
13.462626 -15.787846 22.326068 30.478709 -0.864725 0.748789 0.075933 -0.015419 283310.000000 0 0 1
14.508826 -16.786046 22.249368 31.421517 -0.858037 0.784002 0.081237 -0.018188 622539.000000 0 0 1
14.287726 -17.909746 21.422968 31.366250 -0.897421 0.818942 0.069827 -0.000972 3411.630000 0 0 1
-25.319074 -32.693146 26.017971 48.855216 0.911833 1.009183 0.000981 -0.015181 -130671.000000 0 0 1
-24.721874 -33.951846 26.014811 49.403130 0.941430 1.016221 0.030447 -0.005229 219386.000000 0 0 1
-25.402064 33.292054 26.862791 49.751736 -0.919023 1.000434 0.024813 -0.015408 36718.700000 0 0 1
-25.570534 33.539954 28.415531 50.854922 -0.919412 0.977910 0.020324 -0.010592 374653.000000 0 0 1
-26.704414 -33.824246 28.745491 51.802593 0.902488 0.982548 0.053983 -0.016494 772140.000000 0 0 1
-26.733714 -33.807646 30.131081 52.588311 0.901715 0.960682 0.029966 -0.019270 299331.000000 0 0 1
-27.987254 -33.069746 30.733921 53.117496 0.868448 0.953782 0.023785 -0.018058 50040.900000 0 0 1
-27.991534 -31.687746 30.533431 52.152945 0.847254 0.945350 0.010495 -0.003613 202182.000000 0 0 1
-28.978564 -31.025346 31.300881 52.745373 0.819496 0.935478 0.013475 0.007146 -137596.000000 0 0 1
-29.026984 -29.505646 31.123921 51.786556 0.793576 0.926040 -0.002364 0.000986 -272093.000000 0 0 1
-29.568904 -29.121646 29.893851 51.147167 0.777778 0.946573 -0.013637 0.010596 47796.900000 0 0 1
-29.978594 -27.763146 29.849111 50.601164 0.747049 0.939874 0.010921 0.003034 92842.600000 0 0 1
-30.751674 -27.306646 28.585071 50.084176 0.726130 0.963389 0.002912 -0.003060 62794.100000 0 0 1
-29.943444 -27.182746 27.428961 48.865729 0.737109 0.974825 -0.003723 0.009995 513591.000000 0 0 1
-29.234044 -25.917946 27.325811 47.676716 0.725344 0.960454 -0.005831 0.001524 -88332.800000 0 0 1
-28.171294 -25.873146 26.255501 46.393888 0.742900 0.969241 -0.012841 0.017046 -629473.000000 0 0 1
-28.750664 -25.945746 24.963981 46.075837 0.734161 0.998217 -0.016295 0.006623 640255.000000 0 0 1
-27.825004 -25.776046 23.868171 44.814339 0.747191 1.009125 0.003042 0.004136 -301767.000000 0 0 1
-28.474344 -26.224346 22.592471 44.821026 0.744287 1.042503 -0.000650 0.010766 -171372.000000 0 0 1
-29.364774 -25.272746 22.050771 44.578449 0.710644 1.053363 -0.004693 0.006729 -8578.350000 0 0 1
-29.710334 -25.606646 20.726771 44.362183 0.711349 1.084656 0.002703 0.011406 -244436.000000 0 0 1
-30.477314 -24.505646 20.009971 43.929401 0.677213 1.097859 0.006368 0.001131 -148118.000000 0 0 1
-31.797844 -24.275846 20.443271 44.926016 0.652049 1.098376 0.014512 0.000753 192072.000000 0 0 1
-32.394744 -23.211746 19.680271 44.446796 0.621733 1.112097 0.018109 0.004804 306630.000000 0 0 1
-33.866624 -22.859746 20.028171 45.504328 0.593745 1.115044 0.039256 0.005047 537139.000000 0 0 1
-34.819777 -23.791146 19.564371 46.488710 0.599406 1.136424 0.037544 0.004458 1064570.000000 0 0 1
-36.159324 -23.296446 19.389271 47.182252 0.572338 1.147307 0.057224 -0.003881 1021530.000000 0 0 1
35.922760 -24.212146 18.751171 47.204651 -0.593066 1.162298 0.074645 -0.014396 110418.000000 0 0 1
35.443140 -25.183046 19.638871 47.708356 -0.617751 1.146539 0.069901 -0.009256 -20273.500000 0 0 1
34.907890 -26.331146 19.010171 47.678891 -0.646250 1.160684 0.072572 -0.005392 -318213.000000 0 0 1
34.553300 -27.442146 19.964171 48.431085 -0.671193 1.145909 0.070468 -0.008038 898688.000000 0 0 1
33.267790 -27.502446 20.611371 47.832614 -0.690810 1.125300 0.064877 -0.007625 657562.000000 0 0 1
32.901720 -26.423946 21.437171 47.331812 -0.676639 1.100767 0.062391 -0.016392 349488.000000 0 0 1
31.759730 -26.829746 22.486471 47.266871 -0.701451 1.074998 0.064924 -0.022571 1354120.000000 0 0 1
30.446610 -26.850546 21.924171 46.136939 -0.722719 1.075608 0.077413 -0.013838 -29942.000000 0 0 1
29.635490 -25.848046 22.427271 45.269926 -0.717241 1.052487 0.070947 -0.018632 -843340.000000 0 0 1
29.342880 -24.596346 21.521171 43.922040 -0.697626 1.058723 0.056300 -0.010448 -296977.000000 0 0 1
30.466270 -23.820346 21.179071 44.092579 -0.663581 1.069763 0.063462 -0.007505 27704.400000 0 0 1
31.197630 -23.213546 22.243871 44.799003 -0.639702 1.051204 0.081284 -0.019170 -279462.000000 0 0 1
32.019680 -22.052946 21.654771 44.503050 -0.603123 1.062613 0.074435 -0.015105 -223393.000000 0 0 1
31.276190 -20.992446 21.108071 43.179086 -0.591132 1.060026 0.073064 -0.023433 137497.000000 0 0 1
32.141580 -19.913046 20.730771 43.120476 -0.554665 1.069271 0.073287 -0.020386 -31647.100000 0 0 1
31.473660 -18.530646 20.917071 42.089191 -0.532119 1.050693 0.078849 -0.010429 42367.500000 0 0 1
31.317220 -18.078046 22.276571 42.471516 -0.523528 1.018661 0.063933 -0.021236 -539048.000000 0 0 1
30.141880 -18.508646 22.863171 42.116831 -0.550687 0.996968 0.084769 -0.015303 -826142.000000 0 0 1
29.960310 -18.145946 24.375121 42.673669 -0.544575 0.962831 0.072318 -0.014626 -89861.500000 0 0 1
29.627120 -16.805146 24.562461 41.993972 -0.515969 0.946034 0.069737 -0.021188 35862.600000 0 0 1
29.585330 -16.634046 25.951991 42.725743 -0.512192 0.918002 0.068632 -0.022051 -116448.000000 0 0 1
29.225190 -15.179146 26.419211 42.219580 -0.479036 0.894694 0.062212 -0.018588 -259869.000000 0 0 1
27.848380 -14.894646 26.330841 41.118073 -0.491136 0.875815 0.072749 -0.010499 -20010.600000 0 0 1
27.530980 -13.566146 26.861221 40.786277 -0.457838 0.851860 0.068955 -0.012220 100682.000000 0 0 1
28.047180 -12.330846 26.076801 40.232992 -0.414211 0.865651 0.078467 -0.022443 -262162.000000 0 0 1
27.488880 -12.283746 24.799991 39.007288 -0.420242 0.881780 0.073591 -0.014628 -104651.000000 0 0 1
28.009780 -11.287046 23.986721 38.565632 -0.383062 0.899538 0.068204 -0.013137 95810.600000 0 0 1
29.221290 -11.632746 23.074271 39.008032 -0.378860 0.937846 0.070210 -0.017241 154311.000000 0 0 1
28.953660 -12.617146 22.055571 38.522137 -0.410958 0.961192 0.068846 -0.018074 65556.800000 0 0 1
29.456230 -13.881046 22.455571 39.555096 -0.440379 0.967083 0.071757 -0.025632 905.210000 0 0 1
29.001160 -15.016446 21.508071 39.104451 -0.477776 0.988413 0.089082 -0.008719 -8806.130000 0 0 1
29.535290 -14.856546 20.201171 38.744517 -0.466053 1.022312 0.076872 -0.011222 31306.400000 0 0 1
28.948830 -15.850546 19.330571 38.248471 -0.500950 1.040957 0.091099 -0.017725 -90999.300000 0 0 1
29.299580 -15.791446 17.794471 37.742262 -0.494332 1.079836 0.098887 -0.020169 -73913.200000 0 0 1
28.654180 -16.815646 16.990571 37.316317 -0.530693 1.098074 0.096671 -0.024503 644049.000000 0 0 1
27.241780 -16.625946 16.878771 36.103041 -0.547966 1.084317 0.083138 -0.027908 355501.000000 0 0 1
26.816580 -15.568646 15.761571 34.784175 -0.526003 1.100529 0.089009 -0.026513 -551279.000000 0 0 1
26.913680 -15.890146 14.386571 34.406632 -0.533339 1.139407 0.087084 -0.031144 -75383.600000 0 0 1
26.007780 -16.874246 13.959271 34.000089 -0.575542 1.147722 0.068094 -0.040433 -461171.000000 0 0 1
26.256880 -17.397346 12.566471 33.911762 -0.585170 1.191180 0.063103 -0.022068 -230372.000000 0 0 1
25.918680 -16.651446 11.429471 32.858506 -0.571049 1.215531 0.068334 -0.027487 -213679.000000 0 0 1
25.809080 -17.386446 10.184671 32.743314 -0.592826 1.254503 0.056542 -0.027810 -19654.300000 0 0 1
27.122780 -17.739646 9.448971 33.758307 -0.579217 1.287106 0.058522 -0.019433 43694.500000 0 0 1
27.869680 -18.757746 10.068671 35.070646 -0.592410 1.279602 0.050297 -0.013030 -1027970.000000 0 0 1
29.157110 -18.784546 9.527571 35.969026 -0.572324 1.302714 0.044821 -0.006467 -432830.000000 0 0 1
30.136680 -19.640146 10.361671 37.434196 -0.577571 1.290337 0.059750 -0.025078 -170118.000000 0 0 1
30.305330 -19.094646 11.654571 37.667593 -0.562241 1.256228 0.078422 -0.039530 64484.500000 0 0 1
30.200980 -20.065146 12.705371 38.420512 -0.586423 1.233759 0.075042 -0.039409 -110269.000000 0 0 1
30.440380 -19.495646 14.107571 38.803615 -0.569635 1.198706 0.085411 -0.031050 67079.600000 0 0 1
30.093820 -20.466146 15.092471 39.399033 -0.597230 1.177682 0.089375 -0.030586 -8172.490000 0 0 1
30.013450 -19.978746 16.401671 39.610255 -0.587305 1.143868 0.103926 -0.039316 94525.800000 0 0 1
29.709070 -21.042846 17.434271 40.365629 -0.616273 1.124188 0.083461 -0.026174 1102940.000000 0 0 1
28.355750 -21.530546 17.293871 39.581447 -0.649427 1.118626 0.050758 -0.013655 747423.000000 0 0 1
28.061480 -22.460746 18.299471 40.333639 -0.674992 1.099881 0.050321 -0.014413 1237670.000000 0 0 1
26.577980 -22.981546 18.114371 39.530633 -0.712957 1.094786 0.031755 -0.004647 504125.000000 0 0 1
25.517080 -22.209446 18.595171 38.602607 -0.716205 1.068194 0.046634 -0.004517 -873560.000000 0 0 1
24.386880 -23.003546 18.404271 38.243957 -0.756216 1.068735 0.034638 -0.004342 -1329400.000000 0 0 1
23.228880 -22.475746 19.218971 37.604639 -0.768921 1.034356 0.015859 -0.004882 -926815.000000 0 0 1
22.658880 -21.269346 18.709071 36.274499 -0.753777 1.028897 0.020339 -0.009124 12991.700000 0 0 1
21.619280 -20.718346 19.508871 35.738483 -0.764122 0.993359 0.025833 -0.006337 208410.000000 0 0 1
21.891380 -20.366546 20.985071 36.529466 -0.749330 0.958840 0.020574 -0.000322 -497954.000000 0 0 1
21.925780 -21.426946 21.951671 37.705831 -0.773892 0.949386 0.031172 -0.001088 -253741.000000 0 0 1
22.500680 -20.905246 23.124471 38.445430 -0.748659 0.925434 0.033605 -0.004813 -127694.000000 0 0 1
22.808780 -22.007546 24.155521 39.850492 -0.767522 0.919581 0.035830 -0.004055 -27838.400000 0 0 1
21.730080 -22.677546 24.765221 39.997295 -0.806731 0.903108 0.048175 -0.005743 41942.700000 0 0 1
22.287980 -23.606946 25.646581 41.373773 -0.814129 0.902213 0.050245 -0.003103 -255878.000000 0 0 1
21.188580 -24.152746 26.538701 41.672697 -0.850680 0.880408 0.069803 -0.017135 -224464.000000 0 0 1
20.343280 -25.016146 25.792521 41.290565 -0.888055 0.896102 0.076625 -0.014031 630059.000000 0 0 1
19.253180 -25.513946 26.590841 41.577869 -0.924349 0.876892 0.093296 -0.023807 442547.000000 0 0 1
18.600980 -26.703646 25.881861 41.580667 -0.962376 0.898928 0.099835 -0.020977 -46285.400000 0 0 1
17.926980 -26.411946 24.677791 40.347997 -0.974478 0.912685 0.093537 -0.031924 312034.000000 0 0 1
17.295880 -27.537046 24.052221 40.446826 -1.009975 0.933950 0.091401 -0.032488 -265818.000000 0 0 1
16.349780 -27.085646 22.956171 39.088788 -1.027710 0.943099 0.081430 -0.037274 257757.000000 0 0 1
15.072880 -26.617546 23.406491 38.516870 -1.055543 0.917642 0.070094 -0.028099 575909.000000 0 0 1
14.305080 -26.138646 22.323371 37.231667 -1.070046 0.927820 0.043038 -0.021506 861374.000000 0 0 1
12.882080 -25.559646 22.663471 36.508580 -1.103953 0.901070 0.042001 -0.021652 1016240.000000 0 0 1
11.831880 -26.515046 22.703071 36.857435 -1.151080 0.907180 0.038589 -0.026532 389592.000000 0 0 1
10.575980 -25.838446 22.556871 35.892744 -1.182288 0.891235 0.031489 -0.019406 789293.000000 0 0 1
9.398280 -26.859946 22.485771 36.268364 -1.234211 0.902075 0.032830 -0.014475 110460.000000 0 0 1
9.257880 -27.630746 21.280771 36.083759 -1.247495 0.940034 0.040690 -0.011952 -867967.000000 0 0 1
7.921780 -27.902346 21.072371 35.851643 -1.294165 0.942502 0.040275 -0.009798 -896333.000000 0 0 1
7.654580 -28.802746 19.862071 35.814699 -1.311042 0.982940 0.056322 -0.008301 64975.700000 0 0 1
8.150080 -30.165546 19.946871 37.071035 -1.306918 1.002649 0.062826 -0.013365 357964.000000 0 0 1
7.817980 -30.843046 18.774371 36.944435 -1.322549 1.037728 0.055308 -0.012856 189129.000000 0 0 1
8.506280 -32.240746 18.602671 38.182219 -1.312838 1.061907 0.058518 -0.015426 -31724.600000 0 0 1
7.903280 -33.164146 19.452671 39.252119 -1.336852 1.052291 0.064763 -0.011795 292884.000000 0 0 1
8.864380 34.041054 19.858571 40.394720 1.316051 1.056855 0.074816 -0.022307 261253.000000 0 0 1
8.276680 33.062654 20.900671 39.981002 1.325504 1.020705 0.098432 -0.027226 -121323.000000 0 0 1
7.499180 32.047254 20.335271 38.688337 1.340929 1.017355 0.088593 -0.027754 -130602.000000 0 0 1
6.959480 31.233854 21.384371 38.487392 1.351559 0.981688 0.097453 -0.038979 136322.000000 0 0 1
5.993980 30.132054 20.890871 37.152348 1.374436 0.973628 0.081803 -0.033298 -967951.000000 0 0 1
4.660480 30.329854 21.148871 37.267880 1.418329 0.967351 0.083595 -0.033437 -1116200.000000 0 0 1
3.965080 29.114054 20.857771 36.033271 1.435438 0.953482 0.086441 -0.029838 636211.000000 0 0 1
2.529880 28.921354 21.429771 36.084347 1.483544 0.934923 0.065434 -0.019699 406365.000000 0 0 1
2.498080 28.649854 22.816271 36.710172 1.483823 0.900109 0.057375 -0.026715 360197.000000 0 0 1
1.143280 28.451154 23.219671 36.741371 1.530634 0.886696 0.040130 -0.016052 477088.000000 0 0 1
1.065580 28.000354 24.674351 37.336027 1.532759 0.848816 0.043851 -0.017043 -401512.000000 0 0 1
1.509280 28.903854 25.625741 38.657332 1.518626 0.846118 0.049100 -0.018934 165776.000000 0 0 1
1.368880 28.399054 26.949841 39.174916 1.522632 0.812155 0.042953 -0.016825 885669.000000 0 0 1
2.611580 27.591454 27.560811 39.085892 1.476426 0.788184 0.029127 -0.012611 670507.000000 0 0 1
2.833380 26.265454 27.044601 37.806250 1.463337 0.773675 0.035506 -0.015527 191342.000000 0 0 1
3.824980 25.580554 27.764101 37.945230 1.422369 0.750000 0.009033 -0.005524 -123447.000000 0 0 1
4.358780 24.272754 27.173691 36.695709 1.393115 0.736961 0.014340 -0.003845 -515439.000000 0 0 1
3.371380 23.278554 27.102621 35.886061 1.426969 0.714775 0.033684 -0.002988 -131087.000000 0 0 1
3.856180 22.104354 26.465091 34.696882 1.398081 0.703239 0.042177 0.000455 399182.000000 0 0 1
2.721280 21.031954 26.262931 33.756333 1.442123 0.679296 0.037429 0.006623 262701.000000 0 0 1
3.020380 19.664654 26.366551 33.030536 1.418393 0.646416 0.044339 0.002977 -469647.000000 0 0 1
3.781480 19.206154 25.311291 31.997459 1.376394 0.658288 0.045739 0.000705 -838341.000000 0 0 1
4.346280 17.779554 25.609771 31.477977 1.331044 0.620518 0.054620 -0.011231 -648025.000000 0 0 1
5.414380 17.673554 26.490691 32.302116 1.273520 0.609225 0.032497 -0.008413 -766914.000000 0 0 1
6.570380 17.742654 25.680151 31.897364 1.216139 0.634974 0.049125 -0.015907 -744529.000000 0 0 1
7.926080 17.713454 26.445871 32.802032 1.150056 0.633050 0.049654 -0.026097 119928.000000 0 0 1
8.237480 18.784854 27.323081 34.165444 1.157532 0.643953 0.026547 -0.014152 73988.700000 0 0 1
8.538180 20.029354 26.613031 34.385011 1.167839 0.685706 0.018567 -0.017089 -291287.000000 0 0 1
9.160580 21.120754 27.499951 35.864325 1.161560 0.696991 0.007682 -0.008484 488021.000000 0 0 1
10.420280 20.864254 28.129511 36.539961 1.107603 0.692224 0.025391 -0.019806 391198.000000 0 0 1
10.673580 21.772454 29.157331 37.922487 1.114993 0.693730 0.024892 -0.031274 -131426.000000 0 0 1
11.880880 21.470954 30.044151 38.791857 1.065387 0.684878 0.045470 -0.030540 -817444.000000 0 0 1
13.124980 21.545754 29.459681 38.786047 1.023663 0.708186 0.045413 -0.028666 -1004940.000000 0 0 1
14.134180 21.112254 30.358921 39.587452 0.980850 0.696827 0.051971 -0.013023 -64801.800000 0 0 1
15.512680 21.161854 29.695791 39.627103 0.938232 0.723670 0.052931 -0.020919 -300435.000000 0 0 1
15.842980 22.515954 29.362111 40.250488 0.957636 0.753228 0.048823 -0.030880 -221776.000000 0 0 1
16.969280 22.580454 28.526121 40.144401 0.926334 0.780463 0.084583 -0.024624 -178997.000000 0 0 1
-8.625474 16.797854 4.608968 19.437317 -1.096418 1.331397 0.022153 -0.010827 -109420.000000 0 1 0
-8.581974 18.160254 4.939568 20.684400 -1.129333 1.329660 0.032813 -0.013532 609799.000000 0 1 0
-7.245774 18.636954 5.137468 20.645359 -1.199995 1.319310 0.027265 -0.004447 405316.000000 0 1 0
-7.212674 20.124654 5.634568 22.108205 -1.226658 1.313090 0.038657 -0.006717 -78692.700000 0 1 0
-7.572574 21.200254 4.802768 23.018714 -1.227728 1.360606 0.056712 -0.013945 1519940.000000 0 1 0
-8.955474 21.192054 4.304968 23.405905 -1.170972 1.385817 0.061940 -0.023106 1588250.000000 0 1 0
-9.073174 22.280054 3.234168 24.273095 -1.184070 1.437158 0.080272 -0.027990 425118.000000 0 1 0
-8.212074 22.126454 2.072768 23.692076 -1.215412 1.483197 0.055068 -0.027687 256655.000000 0 1 0
-8.585274 21.182454 1.104868 22.882832 -1.185728 1.522494 0.054929 -0.031684 -455592.000000 0 1 0
-7.824474 21.350154 -0.237832 22.740009 -1.219513 1.581255 0.027213 -0.010306 392944.000000 0 1 0
-6.497674 20.868254 -0.315032 21.858706 -1.268944 1.585209 0.014299 -0.006816 -138286.000000 0 1 0
-5.552474 21.860654 0.043868 22.554824 -1.322062 1.568851 0.025248 -0.008586 -646745.000000 0 1 0
-4.163574 21.490554 -0.481032 21.895448 -1.379427 1.592768 0.018486 -0.006956 -606259.000000 0 1 0
-4.023874 21.480354 -1.859732 21.932983 -1.385614 1.655690 0.015579 -0.015493 144692.000000 0 1 0
-2.706174 21.496154 -2.385832 21.796793 -1.445564 1.680474 0.013168 -0.006539 332917.000000 0 1 0
-2.859074 21.895454 -3.914932 22.425697 -1.440953 1.746269 0.018274 -0.010176 -608198.000000 0 1 0
-1.660474 22.325554 -4.442332 22.823712 -1.496558 1.766683 0.038375 -0.001656 -935338.000000 0 1 0
-1.684874 22.750854 -5.792532 23.537068 -1.496874 1.819453 0.042507 -0.009591 248039.000000 0 1 0
-0.377874 23.358754 -6.400332 24.222684 -1.554621 1.838201 0.037132 -0.015820 736010.000000 0 1 0
0.689926 22.408954 -6.383832 23.310738 1.540018 1.848198 0.045382 -0.001504 -551382.000000 0 1 0
1.847126 22.896254 -6.969632 24.004710 1.490297 1.865383 0.052199 -0.012400 -644639.000000 0 1 0
3.023526 21.926454 -6.752632 23.141070 1.433767 1.866908 0.047649 -0.007153 -231365.000000 0 1 0
3.028226 20.822654 -7.624432 22.380461 1.426379 1.918430 0.050717 -0.018574 -346481.000000 0 1 0
3.978326 19.907454 -7.188432 21.536187 1.373554 1.911111 0.049188 -0.017873 -81289.900000 0 1 0
3.956926 18.656954 -8.059832 20.705074 1.361805 1.970634 0.039498 -0.021652 273435.000000 0 1 0
4.372026 18.945954 -9.421232 21.606096 1.344003 2.021996 0.046898 -0.026031 -234239.000000 0 1 0
3.285026 18.758554 -10.273532 21.638397 1.397433 2.065513 0.047461 -0.030337 -925306.000000 0 1 0
3.549826 18.985154 -11.774232 22.620121 1.385952 2.118257 0.055281 -0.039316 -65884.600000 0 1 0
3.768426 20.327954 -12.154032 23.982228 1.387496 2.102257 0.087101 -0.040078 45616.000000 0 1 0
4.035726 20.517654 -13.534532 24.908729 1.376580 2.145237 0.099380 -0.028800 17933.300000 0 1 0
4.427426 21.956154 -13.971832 26.398615 1.371816 2.128529 0.096111 -0.034449 747853.000000 0 0 1
3.374726 22.964354 -14.026232 27.119836 1.424886 2.114366 0.121158 -0.039898 421899.000000 0 0 1
3.764426 24.134454 -14.705832 28.511476 1.416066 2.112722 0.101765 -0.035022 -280253.000000 0 0 1
2.591526 24.990654 -15.217332 29.373730 1.467466 2.115377 0.105344 -0.026002 271777.000000 0 0 1
1.675126 25.393054 -14.168632 29.126678 1.504924 2.078817 0.117117 -0.044676 503578.000000 0 0 1
1.503226 26.791054 -14.189932 30.354150 1.514746 2.057233 0.090040 -0.035261 -434637.000000 0 0 1
0.586126 27.265754 -13.016232 30.218987 1.549303 2.016098 0.091385 -0.041859 691241.000000 0 0 1
-0.828974 27.127954 -13.123132 30.146802 -1.540248 2.021176 0.087376 -0.046890 510106.000000 0 0 1
-1.491174 25.900754 -13.261532 29.136590 -1.513287 2.043338 0.082786 -0.041436 -246462.000000 0 0 1
-1.398174 24.924654 -12.040532 27.715838 -1.514759 2.020199 0.105810 -0.043250 -566685.000000 0 0 1
-2.225574 25.334354 -10.987532 27.703944 -1.483173 1.978612 0.083934 -0.039602 -200272.000000 0 0 1
-2.692374 24.225754 -10.222032 26.431534 -1.460114 1.967886 0.113347 -0.034904 720214.000000 0 0 1
-3.858574 24.579754 -9.223832 26.535485 -1.415085 1.925811 0.076987 -0.030980 353711.000000 0 0 1
-3.480174 25.049654 -7.928632 26.503962 -1.432749 1.874597 0.078564 -0.031082 -16453.000000 0 0 1
-2.878074 26.357054 -7.956332 27.681778 -1.462032 1.862330 0.066069 -0.038167 213371.000000 0 0 1
-2.431274 26.902354 -6.559032 27.796918 -1.480667 1.809005 0.051850 -0.027207 740607.000000 0 0 1
-1.323574 26.179654 -5.984632 26.887580 -1.520282 1.795256 0.048127 -0.023179 315229.000000 0 0 1
-1.080174 26.499654 -4.595532 26.916860 -1.530057 1.742367 0.051766 -0.025034 116835.000000 0 0 1
-1.996474 25.873054 -3.486332 26.183112 -1.493785 1.704345 0.043544 -0.018548 91624.600000 0 0 1
-3.288974 26.409554 -3.356132 26.824345 -1.446897 1.696240 0.036160 -0.017399 -180883.000000 0 0 1
-4.076274 25.914254 -2.315832 26.334913 -1.414776 1.658848 0.035777 -0.012476 127408.000000 0 0 1
-5.120374 24.822754 -2.719532 25.490845 -1.367372 1.677686 0.042183 -0.017125 -255790.000000 0 0 1
-6.311774 25.392754 -3.228732 26.363899 -1.327168 1.693572 0.038691 -0.016163 -398916.000000 0 0 1
-7.146974 24.349854 -3.680832 25.642604 -1.285302 1.714838 0.012031 -0.022958 -1094820.000000 0 0 1
-8.445074 24.921654 -4.167132 26.641567 -1.244076 1.727856 0.026260 -0.015499 -1329390.000000 0 0 1
-9.151674 25.412854 -3.038232 27.180823 -1.225135 1.682809 0.037788 -0.011297 -1038170.000000 0 0 1
-10.364274 25.942854 -3.473132 28.151598 -1.190718 1.694484 0.041939 -0.011730 -39069.100000 0 0 1
-11.328074 26.290254 -2.245832 28.714917 -1.163952 1.649088 0.037744 -0.008684 72038.700000 0 0 1
-11.855674 25.107054 -1.675832 27.815995 -1.129631 1.631080 0.041099 -0.007147 -293936.000000 0 0 1
-11.004774 24.382554 -0.832832 26.763923 -1.146830 1.601919 0.054798 -0.018024 -441684.000000 0 0 1
-11.606774 23.087154 -0.261732 25.841873 -1.104961 1.580925 0.058085 -0.022472 -417801.000000 0 0 1
-12.458874 23.237154 0.815968 26.379057 -1.078639 1.539859 0.064553 -0.026237 -192058.000000 0 0 1
-13.157274 22.001254 1.029068 25.655955 -1.031831 1.530675 0.059977 -0.028770 43242.200000 0 0 1
-13.980674 21.999554 2.318768 26.168995 -1.004683 1.482073 0.064222 -0.030173 203096.000000 0 0 1
-13.145774 21.915154 3.477468 25.791047 -1.030488 1.435552 0.060975 -0.028862 402977.000000 0 0 1
-13.306274 23.071854 4.237668 26.968967 -1.047661 1.413011 0.056371 -0.025433 37600.600000 0 0 1
-12.918774 22.713354 5.694668 26.743605 -1.053653 1.356218 0.058437 -0.033589 -480943.000000 0 0 1
-11.589274 22.389154 5.981268 25.910636 -1.093145 1.337853 0.069939 -0.027840 -448659.000000 0 0 1
-11.538174 21.848954 7.290768 25.761629 -1.084931 1.283867 0.057697 -0.038140 -542356.000000 0 0 1
-10.147274 21.553954 7.854568 25.084544 -1.130793 1.252316 0.073236 -0.034283 -324080.000000 0 0 1
-9.413474 22.707454 8.251668 25.929365 -1.177806 1.246928 0.079316 -0.035688 238364.000000 0 0 1
-8.188074 22.509854 8.926868 25.562219 -1.221920 1.214057 0.079890 -0.033783 100492.000000 0 0 1
-8.308074 22.288954 10.443768 25.978719 -1.214005 1.157083 0.059180 -0.027335 -175812.000000 0 0 1
-8.971974 21.095154 10.864068 25.367889 -1.168663 1.128229 0.063748 -0.026722 112384.000000 0 0 1
-8.766074 20.757154 12.241768 25.643018 -1.171201 1.073112 0.042234 -0.020799 -466998.000000 0 0 1
-9.848274 19.767654 12.673668 25.463120 -1.108589 1.049821 0.041568 -0.018383 -354999.000000 0 0 1
-10.025774 18.605354 11.905268 24.257179 -1.076542 1.057796 0.060919 -0.027168 -99012.100000 0 1 0
-10.587674 17.513954 12.579768 24.022655 -1.027054 1.019652 0.052250 -0.025237 -182511.000000 0 1 0
-10.703674 16.253154 11.670868 22.692351 -0.988427 1.030595 0.044530 -0.030869 -239487.000000 0 1 0
-11.203574 15.091354 12.276868 22.449733 -0.932188 0.992187 0.037514 -0.028143 270932.000000 0 1 0
-11.539674 14.078454 11.291468 21.421115 -0.884177 1.015590 0.028698 -0.021582 39997.800000 0 1 0
-11.770774 12.694754 11.979068 21.052457 -0.823147 0.965494 0.017531 -0.026517 187779.000000 0 1 0
-12.918374 12.737754 12.817368 22.213052 -0.778358 0.955721 0.023910 -0.021409 251860.000000 0 1 0
-13.249474 11.508954 13.323768 22.034685 -0.715214 0.921442 0.020631 -0.013787 393112.000000 0 1 0
-14.191574 11.499554 14.568968 23.364403 -0.680995 0.897516 0.028578 -0.019839 1854330.000000 0 1 0
-15.573274 11.950054 14.512868 24.412169 -0.654509 0.934161 0.044855 -0.024610 1129890.000000 0 1 0
-16.153674 12.067154 15.737568 25.577889 -0.641593 0.908055 0.031338 -0.021980 -684682.000000 0 0 1
-17.058574 13.278854 15.904968 26.838236 -0.661448 0.936484 0.045339 -0.017695 -166099.000000 0 0 1
-18.225574 13.110254 15.106168 27.060055 -0.623584 0.978526 0.036757 -0.014785 99955.500000 0 0 1
-19.017674 14.294354 15.178268 28.220211 -0.644547 1.002910 0.054773 -0.011755 -85422.700000 0 0 1
-20.178374 14.149754 14.171768 28.429233 -0.611553 1.048937 0.070691 -0.009130 560977.000000 0 0 1
-21.231874 13.276154 14.666368 29.019839 -0.558810 1.040961 0.061531 -0.006442 633946.000000 0 0 1
-22.308274 13.255054 13.759268 29.371295 -0.536127 1.083250 0.055288 -0.005411 -12994.400000 0 0 1
-23.381974 12.213654 14.123468 29.922607 -0.481370 1.079238 0.069498 -0.011756 220370.000000 0 0 1
-24.029174 12.366454 15.391568 31.100333 -0.475294 1.053076 0.075576 -0.016674 277693.000000 0 0 1
-24.975074 11.403754 15.756068 31.655230 -0.428333 1.049805 0.058802 -0.017316 -82752.900000 0 0 1
-25.980604 11.826554 16.850368 33.148063 -0.427176 1.037544 0.054262 -0.014162 14309.300000 0 0 1
-26.891404 12.856754 16.495868 34.066954 -0.445974 1.065326 0.067904 -0.012502 172407.000000 0 0 1
-27.636184 13.210754 17.620668 35.337949 -0.445913 1.048775 0.068997 0.008035 -342085.000000 0 0 1
-28.681254 14.336254 17.405968 36.484383 -0.463526 1.073467 0.067728 0.002984 -48774.100000 0 0 1
-28.270134 15.661254 17.107568 36.566983 -0.505898 1.083949 0.069265 0.004574 79546.000000 0 0 1
-29.413244 16.507654 17.155168 37.841001 -0.511426 1.100278 0.081244 0.006372 142445.000000 0 0 1
-29.047754 17.984554 16.932068 38.130186 -0.554372 1.110672 0.087134 -0.002189 -437765.000000 0 0 1
-28.362024 18.610254 17.996868 38.400953 -0.580699 1.083027 0.076103 0.005081 -82979.600000 0 0 1
-28.880474 18.665154 19.306268 39.436046 -0.573763 1.059213 0.093436 -0.002499 -523869.000000 0 0 1
-27.678124 18.873254 20.284168 39.162810 -0.598463 1.026350 0.081968 -0.012388 848697.000000 0 0 1
-27.103404 17.650154 20.849968 38.481731 -0.577229 0.998202 0.083089 -0.015093 634495.000000 0 0 1
-26.525884 16.739154 19.863068 37.126315 -0.562938 1.006273 0.074592 -0.006458 -536214.000000 0 0 1
-26.180744 15.375854 20.483868 36.625634 -0.531026 0.977283 0.067448 -0.009219 -355292.000000 0 0 1
-27.327434 14.800454 21.056068 37.539314 -0.496369 0.975315 0.079090 -0.012325 308933.000000 0 0 1
-27.009514 13.558754 21.685268 37.196834 -0.465246 0.948396 0.059599 -0.004976 -645458.000000 0 0 1
-28.335784 12.873654 21.991668 38.108806 -0.426445 0.955653 0.069399 -0.015066 -342801.000000 0 0 1
-28.944334 12.611354 20.697568 37.751954 -0.410908 0.990524 0.071455 -0.010983 -356409.000000 0 0 1
-30.146384 11.934654 20.922468 38.587434 -0.376958 0.997732 0.112484 -0.015165 -671316.000000 0 0 1
-30.931764 11.831654 19.601068 38.483294 -0.365337 1.036379 0.136754 -0.025604 -480006.000000 0 0 1
-30.364214 11.115154 18.523368 37.264558 -0.350911 1.050569 0.145457 -0.027109 166726.000000 0 0 1
-30.014064 9.750154 18.675668 36.670016 -0.314099 1.036437 0.143532 -0.024941 -98242.300000 0 0 1
-29.251234 9.140454 17.463568 35.272635 -0.302868 1.052844 0.130463 -0.024503 -268979.000000 0 0 1
-29.940074 8.941154 16.264168 35.226062 -0.290204 1.090876 0.142108 -0.027264 -144995.000000 0 0 1
-30.326684 10.090854 15.537768 35.538083 -0.321215 1.118297 0.141243 -0.030662 688059.000000 0 0 1
-29.171844 11.004654 14.873668 34.544535 -0.360729 1.125678 0.134145 -0.018662 826827.000000 0 0 1
-28.537464 10.373754 13.760868 33.337113 -0.348662 1.145293 0.124694 -0.027400 578218.000000 0 0 1
-27.691724 11.325954 13.079068 32.652271 -0.388242 1.158673 0.087871 -0.017408 127509.000000 0 0 1
-27.719664 11.154354 11.536668 32.029581 -0.382572 1.202327 0.112152 -0.015789 -554637.000000 0 0 1
-26.978614 10.040654 11.058468 30.837478 -0.356288 1.204023 0.123601 -0.017669 514187.000000 0 0 1
-27.608454 8.767054 11.194068 31.054712 -0.307479 1.202032 0.129062 -0.016802 -405988.000000 0 0 1
-26.847944 7.710054 10.451468 29.824322 -0.279649 1.212761 0.133199 -0.026184 -445467.000000 0 0 1
-26.663034 7.888154 9.036868 29.237054 -0.287642 1.256561 0.132636 -0.020631 208395.000000 0 0 1
-26.151304 6.756054 8.381368 28.280422 -0.252817 1.269910 0.145030 -0.041705 -241113.000000 0 0 1
-25.392224 7.210554 7.081868 27.329654 -0.276684 1.308677 0.133009 -0.028126 16726.900000 0 0 1
-26.214884 7.939554 6.186968 28.080869 -0.294083 1.348647 0.137148 -0.028458 169252.000000 0 0 1
-25.506794 8.279254 5.040368 27.286405 -0.313861 1.385009 0.129994 -0.027103 -125153.000000 0 0 1
-26.493374 8.659254 3.899268 28.144019 -0.315901 1.431802 0.116501 -0.018940 118981.000000 0 0 1
-27.290174 7.561654 3.396768 28.521400 -0.270302 1.451418 0.143685 -0.021790 584174.000000 0 0 1
-26.657134 6.364354 2.812368 27.550267 -0.234361 1.468537 0.147258 -0.021676 -189868.000000 0 0 1
-25.783584 6.699754 1.584368 26.686891 -0.254224 1.511393 0.164132 -0.017346 -94239.500000 0 0 1
-24.631974 7.449054 1.860468 25.800851 -0.293670 1.498625 0.142199 -0.013145 767451.000000 0 0 1
-23.723574 7.671354 0.729268 24.943726 -0.312752 1.541556 0.149878 -0.004676 257850.000000 0 1 0
-22.484474 8.436554 1.137868 24.042083 -0.358961 1.523450 0.122322 -0.005656 -548506.000000 0 1 0
-22.846874 9.787954 1.512568 24.901236 -0.404760 1.510016 0.119335 -0.011806 1177490.000000 0 1 0
-21.666874 10.486254 1.900268 24.145931 -0.450747 1.492016 0.121933 -0.014746 445752.000000 0 1 0
-22.054274 11.862954 2.530768 25.169932 -0.493505 1.470079 0.120476 -0.022897 899242.000000 0 0 1
-20.879874 12.662354 2.799668 24.579310 -0.545140 1.456645 0.109043 -0.024897 1240260.000000 0 1 0
-21.302174 13.865854 3.313568 25.632484 -0.577017 1.441161 0.101057 -0.031333 -233489.000000 0 0 1
-20.028074 14.612254 3.754368 25.074628 -0.630309 1.420503 0.059294 -0.021622 244144.000000 0 0 1
-19.431374 13.751454 4.762168 24.276718 -0.615871 1.373354 0.050579 -0.023879 10979.200000 0 1 0
-18.661874 14.495354 5.667968 24.300343 -0.660394 1.335381 0.054058 -0.025820 -469946.000000 0 1 0
-18.182274 13.650354 6.863168 23.749322 -0.643981 1.277631 0.035264 -0.013421 -43153.500000 0 1 0
-17.242474 12.662254 6.482668 22.353088 -0.633419 1.276557 0.039732 -0.013557 125468.000000 0 1 0
-16.633174 12.230554 7.665268 22.022835 -0.634034 1.215295 0.021142 -0.004056 -261882.000000 0 1 0
11.205826 -32.528146 -13.857332 37.090113 -1.239033 1.953697 0.047211 -0.013110 540976.000000 0 0 1
12.561426 -32.732446 -13.435332 37.546113 -1.204367 1.936745 0.020598 -0.016750 699210.000000 0 0 1
13.126326 -31.460346 -13.103732 36.520701 -1.175522 1.937781 0.023814 -0.027404 -138558.000000 0 0 1
14.628826 -31.589646 -12.798832 37.090678 -1.137111 1.923108 0.065750 -0.022730 55273.500000 0 0 1
15.410126 -32.055946 -13.899132 38.186929 -1.122686 1.943330 0.055463 -0.022519 711164.000000 0 0 1
16.822726 -31.903346 -13.699532 38.581145 -1.085546 1.933800 0.064430 -0.022301 727452.000000 0 0 1
17.603726 -33.163246 -14.020532 40.078266 -1.082798 1.928185 0.048397 -0.019863 -213863.000000 0 0 1
17.706126 34.083954 -12.964132 40.537532 1.091682 1.896321 0.051422 -0.016985 -196798.000000 0 0 1
18.459426 32.995854 -13.481432 40.140077 1.060729 1.913314 0.025085 0.006369 125894.000000 0 0 1
18.462126 31.687354 -12.666832 38.799319 1.043244 1.903363 0.025085 -0.003958 -34428.400000 0 0 1
19.159626 31.756954 -11.446332 38.815125 1.027939 1.870141 0.022890 -0.002250 -285447.000000 0 0 1
19.151626 30.528354 -10.837832 37.632749 1.010517 1.862923 0.020123 -0.006318 -110277.000000 0 0 1
20.105526 30.365354 -9.642632 37.673163 0.985948 1.829632 0.026318 -0.000768 -2013350.000000 0 0 1
21.336026 30.066654 -10.054632 38.214203 0.953640 1.837043 0.025567 -0.004597 -2232150.000000 0 0 1
22.201326 29.884454 -8.970132 38.294160 0.931851 1.807236 0.022672 -0.005933 -352265.000000 0 0 1
23.420526 28.978054 -9.213532 38.381477 0.891066 1.813215 0.010337 0.002412 -143986.000000 0 0 1
24.236526 29.586854 -10.229032 39.590709 0.884478 1.832130 0.019948 0.001794 -21114.700000 0 0 1
25.501326 28.953454 -10.153832 39.896371 0.848708 1.828132 0.017258 0.007504 -239741.000000 0 0 1
26.534126 29.622154 -11.057532 41.277123 0.840333 1.841994 0.023298 0.002113 -555728.000000 0 0 1
26.889626 30.885854 -10.616432 42.304806 0.854456 1.824459 0.033094 -0.017933 -91742.500000 0 0 1
27.926526 31.332654 -11.461832 43.508616 0.842813 1.837381 0.043095 -0.014669 308966.000000 0 0 1
28.586126 32.735754 -11.256732 44.894434 0.852965 1.824239 0.043975 -0.023487 -82667.500000 0 0 1
27.769426 33.725454 -11.775732 45.246161 0.881951 1.834087 0.060744 -0.018002 -184404.000000 0 0 1
28.244526 -33.165846 -11.366932 45.021481 -0.865366 1.826037 0.065675 -0.016837 133613.000000 0 0 1
27.254426 -32.033846 -11.705832 43.657732 -0.865837 1.842245 0.062170 -0.019028 586025.000000 0 0 1
25.993526 -32.131846 -11.010532 42.770910 -0.890613 1.831158 0.059805 -0.015193 896748.000000 0 0 1
25.002226 -31.164146 -11.323532 41.527553 -0.894670 1.846969 0.062965 -0.019306 396710.000000 0 0 1
25.368926 -29.774246 -10.829132 40.587661 -0.865118 1.840876 0.062284 -0.033472 -790685.000000 0 0 1
26.447826 -29.209646 -11.514432 41.052077 -0.834979 1.855094 0.050735 -0.021592 -545448.000000 0 0 1
27.010026 -28.153146 -10.765832 40.472760 -0.806118 1.840039 0.049897 -0.020325 -619197.000000 0 0 1
27.969826 -27.307446 -11.556632 40.762281 -0.773416 1.858252 0.062758 -0.009748 179226.000000 0 0 1
29.214026 -27.856446 -11.988932 42.109089 -0.761615 1.859502 0.046307 -0.006469 408680.000000 0 0 1
29.100426 -28.899646 -12.934232 43.003706 -0.781936 1.876296 0.062985 -0.017935 -622486.000000 0 0 1
30.482126 -29.395946 -13.440732 44.428987 -0.767260 1.878134 0.070104 -0.013933 157273.000000 0 0 1
30.955026 -30.360846 -12.553032 45.139486 -0.775708 1.852606 0.081873 -0.017733 191422.000000 0 0 1
31.897326 -31.198946 -13.235532 46.540229 -0.774330 1.859165 0.065421 -0.022604 268082.000000 0 0 1
32.350826 -32.446046 -12.349732 47.453532 -0.786868 1.834076 0.053715 -0.018905 188748.000000 0 0 1
33.315126 -33.252646 -13.014932 48.836713 -0.784460 1.840555 0.048302 -0.027807 223379.000000 0 0 1
34.138826 -34.051946 -12.173232 49.731097 -0.784124 1.818090 0.052877 -0.020628 -291717.000000 0 0 1
33.536826 33.023154 -11.356832 48.417198 0.777681 1.807564 0.045551 -0.030309 -874392.000000 0 0 1
32.719526 33.502054 -10.350232 47.959173 0.797214 1.788321 0.059745 -0.040816 -446559.000000 0 0 1
32.418726 32.416954 -9.480732 46.815777 0.785371 1.774718 0.070156 -0.038816 -402382.000000 0 0 1
31.579326 32.936854 -8.290632 46.376985 0.806437 1.750529 0.041509 -0.029269 -551150.000000 0 0 1
30.438026 33.586254 -8.734432 46.160591 0.834531 1.761162 0.033377 -0.031691 -787306.000000 0 0 1
29.592326 33.946554 -7.662132 45.681315 0.853820 1.739323 0.026602 -0.025370 874937.000000 0 0 1
28.563426 -33.079946 -7.927632 44.418459 -0.858536 1.750234 0.027739 -0.026782 310253.000000 0 0 1
29.186626 -31.822646 -7.775132 43.874738 -0.828578 1.748949 0.014027 -0.027870 293138.000000 0 0 1
28.405026 -30.656946 -8.117132 42.574425 -0.823508 1.762628 0.017960 -0.010501 387457.000000 0 0 1
27.173926 -30.330446 -7.210832 41.356430 -0.840235 1.746050 0.016964 -0.018949 475206.000000 0 0 1
26.478426 -29.199946 -7.721232 40.166669 -0.834239 1.764230 0.019168 -0.025009 -3641.190000 0 0 1
25.424126 -28.817346 -6.851132 39.035415 -0.847874 1.747221 0.026674 -0.032482 693730.000000 0 0 1
24.404726 -27.793446 -7.498632 37.739843 -0.850227 1.770820 0.084303 -0.040492 330110.000000 0 0 1
23.524426 -28.344246 -8.457232 37.793117 -0.878056 1.796484 0.105654 -0.040099 264910.000000 0 0 1
22.770126 -27.331046 -9.140632 36.728951 -0.876182 1.822307 0.129312 -0.043080 -488652.000000 0 0 1
21.562026 -27.928146 -9.832532 36.627599 -0.913330 1.842576 0.110457 -0.029892 -903301.000000 0 0 1
21.828926 -28.937046 -10.793332 37.819977 -0.924511 1.860207 0.110201 -0.032689 371769.000000 0 0 1
20.684026 -29.627746 -11.328832 37.867858 -0.961326 1.874616 0.100756 -0.027314 723599.000000 0 0 1
20.247926 -30.880046 -10.472732 38.382729 -0.990427 1.847151 0.090123 -0.030755 264231.000000 0 0 1
21.245526 -31.857446 -10.598332 39.731522 -0.982637 1.840814 0.069318 -0.020727 -27587.900000 0 0 1
20.739726 -33.100846 -10.208232 40.373385 -1.011075 1.826417 0.064686 -0.026512 541952.000000 0 0 1
21.818926 33.972654 -10.471332 41.711576 0.999889 1.824552 0.035947 -0.012463 670039.000000 0 0 1
22.938726 34.079254 -9.611332 42.189553 0.978353 1.800627 0.031323 0.000017 -725199.000000 0 0 1
23.840326 33.083554 -9.919532 41.967604 0.946372 1.809416 0.035129 -0.008558 -704185.000000 0 0 1
25.189926 33.293454 -9.216332 42.754265 0.923083 1.788067 0.038904 -0.015848 -413662.000000 0 0 1
25.199026 32.989954 -7.811432 42.241525 0.918497 1.756790 0.027947 -0.020239 188526.000000 0 0 1
25.617226 31.646054 -7.636532 41.425012 0.890294 1.756203 0.022028 -0.007028 -453515.000000 0 0 1
25.688026 31.228554 -6.136832 40.899364 0.882437 1.721412 0.020671 -0.007775 -735948.000000 0 0 1
26.777726 31.839954 -5.491632 41.964119 0.871545 1.702038 0.031590 -0.017768 -446807.000000 0 0 1
27.840426 30.975454 -5.213832 41.973231 0.838650 1.695336 0.035557 -0.025067 -462002.000000 0 0 1
27.638026 29.941954 -4.071832 40.950713 0.825389 1.670393 0.043369 -0.014791 -633751.000000 0 0 1
27.459026 30.527954 -2.806532 41.156174 0.838273 1.639042 0.046488 -0.013743 -25855.700000 0 0 1
27.441026 29.591154 -1.706332 40.392547 0.823081 1.613053 0.040228 -0.005559 407524.000000 0 0 1
26.095126 28.801654 -1.519832 38.894739 0.834660 1.609882 0.040926 0.005229 416466.000000 0 0 1
25.078026 29.578454 -0.895932 38.789109 0.867553 1.593896 0.043388 0.003807 -84557.900000 0 0 1
23.868426 28.884154 -1.149732 37.487571 0.880193 1.601471 0.043682 0.009231 86867.900000 0 0 1
22.612926 29.490254 -0.492432 37.165333 0.916634 1.584046 0.060920 0.004236 110955.000000 0 0 1
22.383426 29.203354 0.925168 36.806379 0.916839 1.545658 0.071226 -0.010603 -412875.000000 0 0 1
21.229926 29.836654 1.379568 36.644766 0.952368 1.533140 0.055868 -0.012800 -658476.000000 0 0 1
20.481726 29.126354 2.485268 35.693447 0.957924 1.501112 0.069416 -0.023651 -574113.000000 0 0 1
19.896226 27.923254 2.089668 34.350176 0.951709 1.509924 0.084662 -0.017247 22128.800000 0 0 1
19.185226 27.380854 3.181868 33.584346 0.959614 1.475911 0.103478 -0.020649 -391793.000000 0 0 1
18.343026 26.160654 2.790868 32.072345 0.959287 1.483668 0.109628 -0.012958 -410237.000000 0 0 1
18.936426 25.000454 2.285168 31.445714 0.922549 1.498062 0.113465 -0.017374 -426440.000000 0 0 1
19.862126 24.316654 3.082068 31.548420 0.885888 1.472947 0.106943 -0.013490 -636676.000000 0 0 1
20.903826 23.573254 2.282568 31.589212 0.845344 1.498475 0.097944 -0.008110 -552087.000000 0 0 1
20.434726 22.459654 1.536868 30.403553 0.832570 1.520226 0.099316 -0.003039 212169.000000 0 0 1
21.548826 21.769554 0.997568 30.647357 0.790494 1.538241 0.063721 -0.007865 3034.000000 0 0 1
21.263026 20.715854 -0.022932 29.686081 0.772364 1.571569 0.104203 -0.012091 -297585.000000 0 0 1
21.149826 21.373954 -1.285932 30.096755 0.790669 1.613536 0.082823 -0.006727 245837.000000 0 0 1
21.501826 20.417254 -2.235732 29.735354 0.759531 1.646055 0.114938 -0.017577 -34466.600000 0 0 1
21.491626 21.009654 -3.632132 30.273552 0.774058 1.691063 0.085739 -0.016062 171962.000000 0 0 1
22.590926 21.870854 -3.865632 31.680077 0.769204 1.693122 0.079544 -0.011646 267056.000000 0 0 1
22.392626 22.581254 -5.044232 32.199177 0.789592 1.728101 0.067222 -0.010901 -163384.000000 0 0 1
23.500226 23.631654 -5.296232 33.745603 0.788187 1.728394 0.058469 -0.000509 -130610.000000 0 0 1
23.562226 24.825654 -4.497632 34.521302 0.811503 1.701453 0.039853 -0.000961 -120658.000000 0 0 1
23.704126 24.744754 -3.064832 34.403221 0.806874 1.660000 0.054548 0.000419 -394496.000000 0 0 1
22.460326 24.448154 -2.210832 33.272605 0.827750 1.637291 0.057998 -0.003991 -1570110.000000 0 0 1
21.524726 25.480954 -2.077932 33.420213 0.869365 1.633012 0.069703 -0.005971 258726.000000 0 0 1
20.457926 25.214354 -1.196532 32.491877 0.889167 1.607630 0.082867 0.001387 470669.000000 0 0 1
19.496326 24.028754 -1.608932 30.985100 0.889158 1.622746 0.107012 -0.013144 -1120160.000000 0 0 1
18.772926 24.255254 -2.779832 30.797200 0.912128 1.661182 0.085846 -0.011000 -235246.000000 0 0 1
17.951826 23.208354 -3.191832 29.514124 0.912420 1.679154 0.090881 -0.013312 -25261.900000 0 0 1
17.387626 23.572654 -4.591932 29.649374 0.935267 1.726297 0.088166 -0.020202 -261281.000000 0 0 1
16.717326 22.611654 -5.334232 28.621843 0.934163 1.758262 0.091022 -0.024501 -115389.000000 0 0 1
16.493526 23.156354 -6.643932 29.195804 0.951884 1.800372 0.084910 -0.024213 -36610.800000 0 0 1
15.741826 22.129954 -7.551932 28.188147 0.952503 1.842021 0.100652 -0.022878 -322153.000000 0 0 1
16.285326 20.869954 -7.775932 27.590432 0.908169 1.856502 0.080373 -0.020393 109757.000000 0 0 1
15.417026 20.105654 -8.619032 26.762095 0.916629 1.898702 0.077902 -0.020818 35085.000000 0 0 1
15.952226 18.727954 -9.096232 26.228824 0.865266 1.924957 0.057973 -0.018781 136998.000000 0 0 1
17.093626 18.851154 -9.944232 27.321160 0.834254 1.943329 0.095204 -0.016928 760245.000000 0 0 1
17.784226 17.597554 -10.111432 26.985064 0.780122 1.954875 0.085459 -0.021454 95135.700000 0 0 1
19.248826 17.647954 -10.571832 28.173236 0.742038 1.955456 0.069233 -0.018590 -195187.000000 0 0 1
19.506626 18.187754 -11.886232 29.199064 0.750424 1.990047 0.078318 -0.023543 145910.000000 0 0 1
20.902926 18.186154 -12.110232 30.237828 0.716008 1.982858 0.073900 -0.012202 125815.000000 0 0 1
21.397726 18.782854 -13.410232 31.472092 0.720412 2.010973 0.070777 -0.020136 -118753.000000 0 0 1
21.211826 17.836854 -14.482732 31.270504 0.699183 2.052335 0.064388 -0.017421 143862.000000 0 0 1
21.578726 18.269454 -15.746832 32.363206 0.702541 2.078951 0.054601 -0.017776 -235.792000 0 0 1
21.467726 17.163554 -16.768232 32.196653 0.674439 2.118592 0.056829 -0.022053 -140840.000000 0 0 1
22.498626 16.198754 -16.687332 32.358227 0.624016 2.112628 0.065117 -0.018791 13522.300000 0 0 1
22.574226 15.301754 -17.783532 32.557539 0.595699 2.148640 0.077750 -0.029684 -287446.000000 0 0 1
23.460426 15.804354 -18.916932 34.029686 0.592829 2.160236 0.085505 -0.024919 -463901.000000 0 0 1
24.858826 15.689754 -18.783132 34.884605 0.563013 2.139377 0.102233 -0.018836 -25468.400000 0 0 1
25.491026 16.101154 -19.963032 36.160230 0.563360 2.155643 0.117751 -0.019127 256045.000000 0 0 1
26.997526 16.413354 -19.730832 37.250105 0.546250 2.129026 0.097314 -0.017543 463542.000000 0 0 1
27.040326 17.605554 -18.939332 37.414343 0.577138 2.101575 0.076062 -0.016161 390164.000000 0 0 1
28.428726 17.785454 -18.697232 38.394027 0.559042 2.079428 0.060708 -0.020280 232359.000000 0 0 1
28.618926 18.697054 -17.437832 38.375783 0.578699 2.042491 0.050754 -0.011605 -106342.000000 0 0 1
28.071526 18.285454 -16.208532 37.216729 0.577350 2.021409 0.053560 -0.014504 6622.720000 0 0 1
26.743026 18.763954 -16.128732 36.433658 0.611825 2.029390 0.059000 -0.001824 -313011.000000 0 0 1
25.980626 18.422154 -14.875632 35.151858 0.616789 2.007751 0.059899 0.002706 -274216.000000 0 0 1
26.412326 19.156454 -13.739232 35.402644 0.627495 1.969349 0.063718 -0.003803 220626.000000 0 0 1
25.714326 18.775454 -12.551532 34.224044 0.630679 1.946305 0.065818 -0.011786 -56740.400000 0 0 1
26.246126 19.442754 -11.278732 34.555602 0.637578 1.903282 0.067186 -0.011772 -354610.000000 0 0 1
25.928226 20.790854 -11.193232 35.068803 0.675875 1.895660 0.062725 -0.005352 -68138.500000 0 0 1
26.335126 21.358554 -9.923432 35.329891 0.681430 1.855506 0.049797 -0.005528 -22487.400000 0 0 1
25.506126 21.062254 -8.650332 34.190777 0.690259 1.826578 0.061837 -0.011758 -493706.000000 0 0 1
25.585926 19.755354 -8.096232 33.323604 0.657507 1.816210 0.081276 -0.023230 247300.000000 0 0 1
24.726426 19.562054 -6.977532 32.291733 0.669315 1.788592 0.083765 -0.026395 1004000.000000 0 0 1
23.198926 19.305854 -7.251832 31.040220 0.694062 1.806603 0.096831 -0.025238 1053410.000000 0 0 1
22.423826 20.480354 -7.624232 31.311368 0.740131 1.816766 0.085822 -0.013846 -472551.000000 0 0 1
21.119426 20.158754 -7.933232 30.254614 0.762129 1.836114 0.084861 -0.014991 -1136800.000000 0 0 1
20.242226 21.406054 -7.980632 30.523062 0.813335 1.835333 0.086489 -0.017172 -578362.000000 0 0 1
20.539926 22.379254 -8.993132 31.679583 0.828228 1.858632 0.096216 -0.018606 119687.000000 0 0 1
20.178826 22.044654 -10.355132 31.628793 0.829559 1.904342 0.096545 -0.010760 990952.000000 0 0 1
18.634326 22.082554 -10.699032 30.811468 0.869884 1.925425 0.086775 -0.020103 758577.000000 0 0 1
18.288026 23.437354 -10.519232 31.534357 0.908187 1.910895 0.099423 -0.024787 -660803.000000 0 0 1
16.937626 23.737154 -10.633732 31.038877 0.951035 1.920473 0.096452 -0.020713 -641336.000000 0 0 1
16.622626 25.092354 -9.945832 31.699487 0.985713 1.889940 0.091172 -0.024301 -31653.700000 0 0 1
17.239826 26.190954 -10.566132 33.088077 0.988653 1.895822 0.109074 -0.017896 152087.000000 0 0 1
17.284526 27.349954 -9.742432 33.788901 1.007196 1.863281 0.107163 -0.030395 22088.700000 0 0 1
20.846326 28.995554 33.803857 49.173287 0.947466 0.812833 0.060944 -0.013579 298065.000000 0 0 1
19.438826 29.132654 33.744682 48.634176 0.982388 0.803979 0.081831 -0.028345 123207.000000 0 0 1
18.717126 27.927554 33.588130 47.523063 0.980350 0.785867 0.063852 -0.027945 -1057420.000000 0 0 1
17.228526 28.063454 33.617066 47.058333 1.020209 0.775073 0.107392 -0.037433 -1224760.000000 0 0 1
16.660326 28.765654 32.534801 46.513897 1.045831 0.796149 0.095047 -0.035499 857047.000000 0 0 1
15.302026 29.118154 32.880962 46.509962 1.086946 0.785597 0.129159 -0.042716 1303090.000000 0 0 1
14.327026 29.607654 31.756531 45.720390 1.120115 0.802959 0.109478 -0.038890 547719.000000 0 0 1
13.805726 28.529354 30.959031 44.305572 1.120101 0.797132 0.095240 -0.039155 138489.000000 0 0 1
12.460726 28.849254 30.646391 43.894765 1.163074 0.797946 0.094246 -0.013598 244138.000000 0 0 1
11.539626 27.571554 30.536091 42.729456 1.174415 0.774690 0.072540 -0.018109 -56281.900000 0 0 1
11.711226 26.572354 29.473491 41.375470 1.155678 0.777967 0.069222 -0.020086 -423918.000000 0 0 1
12.958026 25.970454 29.320091 41.255820 1.107987 0.780318 0.050267 -0.022377 -594833.000000 0 0 1
13.183726 25.080254 28.082511 39.893072 1.086831 0.789860 0.050548 -0.014027 -245695.000000 0 0 1
12.980426 25.722754 26.866361 39.394833 1.103453 0.820334 0.050929 -0.021098 397551.000000 0 0 1
13.152626 24.851754 25.727541 38.111778 1.084029 0.829757 0.050171 -0.019963 908890.000000 0 0 1
11.843726 23.989954 25.434471 36.914822 1.112205 0.810682 0.048339 -0.018829 713123.000000 0 0 1
11.806826 23.421254 24.110321 35.626729 1.103868 0.827460 0.071811 -0.031574 676518.000000 0 0 1
10.707526 22.496754 23.962641 34.568240 1.126566 0.804879 0.082598 -0.035260 465498.000000 0 0 1
10.621226 21.881054 22.554971 33.171037 1.118891 0.823089 0.108653 -0.041091 -169172.000000 0 0 1
10.425026 22.932954 21.601071 33.184451 1.144134 0.861975 0.116223 -0.050355 27737.500000 0 0 1
10.577626 22.474554 20.273071 32.062270 1.130904 0.886274 0.121043 -0.037847 -736661.000000 0 0 1
10.400926 23.677354 19.372171 32.312186 1.156895 0.927881 0.108723 -0.035414 1466350.000000 0 0 1
9.031426 24.178154 19.237171 32.190348 1.213309 0.930283 0.120763 -0.039014 1391700.000000 0 0 1
8.470926 24.841454 20.371471 33.224257 1.242162 0.910754 0.118593 -0.041901 -595171.000000 0 0 1
7.036026 25.250854 19.983171 32.961165 1.299044 0.919442 0.115064 -0.035944 -116983.000000 0 0 1
7.047726 26.244054 18.946071 33.126642 1.308441 0.961941 0.108549 -0.039388 83709.900000 0 0 1
5.765426 26.791354 18.696371 33.174856 1.358832 0.972095 0.091756 -0.040205 -17175.600000 0 0 1
5.843026 27.902354 17.641471 33.524675 1.364369 1.016643 0.095797 -0.030853 145517.000000 0 0 1
6.188226 27.362354 16.358471 32.474484 1.348380 1.042882 0.082763 -0.021928 -94668.800000 0 0 1
7.273326 28.048254 15.789571 32.998733 1.317070 1.071862 0.077211 -0.014152 -109313.000000 0 0 1
7.748526 27.649454 14.382671 32.115311 1.297564 1.106443 0.072727 -0.016717 76878.000000 0 0 1
6.848726 27.819854 13.306271 31.589653 1.329415 1.136004 0.062220 -0.019995 -274447.000000 0 0 1
6.798226 26.686754 12.488271 30.238314 1.321360 1.145056 0.043219 -0.021272 -218061.000000 0 0 1
6.065826 26.826654 11.147771 29.677203 1.348424 1.185715 0.032102 -0.021429 -589867.000000 0 0 1
6.657726 27.458654 10.001971 29.972361 1.332923 1.230564 0.024013 -0.017115 131342.000000 0 0 1
6.933726 28.874854 10.105371 31.368013 1.335128 1.242791 0.024282 -0.013249 -139420.000000 0 0 1
7.377026 29.370054 8.647871 31.492955 1.324712 1.292626 0.011101 -0.006600 -287700.000000 0 0 1
6.338526 29.511954 7.698771 31.151299 1.359232 1.321067 0.006280 -0.011441 -186161.000000 0 0 1
6.092926 28.335954 7.021671 29.822037 1.358997 1.333112 0.002625 0.001501 -786878.000000 0 0 1
4.596326 28.111554 6.889771 29.306221 1.408727 1.333479 0.008747 -0.006162 -590882.000000 0 0 1
4.015726 29.194754 6.152671 30.105067 1.434105 1.364973 0.008231 -0.006647 -603618.000000 0 0 1
2.634726 29.045454 5.959871 29.767436 1.480333 1.369220 0.023157 -0.005774 -60674.600000 0 0 1
2.106226 30.088354 4.942571 30.564264 1.500909 1.408372 0.045060 -0.017215 -441918.000000 0 0 1
2.538826 29.703054 3.679771 30.037606 1.485530 1.447982 0.025356 -0.013366 11505.900000 0 0 1
1.875626 30.336654 2.587871 30.504551 1.509048 1.485859 0.012036 -0.017013 1129690.000000 0 0 1
0.430526 29.829654 2.199171 29.913708 1.556365 1.497213 0.062461 -0.018949 775009.000000 0 0 1
0.477726 28.478354 1.796971 28.538990 1.554023 1.507789 0.063777 -0.013860 707671.000000 0 0 1
-0.764074 28.013754 1.198271 28.049778 -1.543528 1.528064 0.058009 -0.015293 1148790.000000 0 0 1
-0.973974 28.295354 -0.286729 28.313564 -1.536388 1.580923 0.047867 -0.019260 -76894.200000 0 0 1
-1.497374 29.584554 -0.538729 29.627321 -1.520226 1.588981 0.052322 -0.018235 205.666000 0 0 1
-1.332474 29.826654 -1.939229 29.919314 -1.526152 1.635657 0.046795 -0.020025 -247009.000000 0 0 1
-2.354974 30.841354 -2.525929 31.034099 -1.494587 1.652279 0.052725 -0.018872 1401450.000000 0 0 1
-3.664674 30.299054 -2.881229 30.655570 -1.450431 1.664922 0.047764 -0.022299 1347430.000000 0 0 1
-3.562374 29.637054 -4.151529 30.137695 -1.451170 1.708988 0.033742 -0.022744 -1028230.000000 0 0 1
-4.865674 29.252754 -4.832629 30.045843 -1.405973 1.732340 0.039368 -0.017364 -803833.000000 0 0 1
-5.490574 30.418554 -5.300429 31.361272 -1.392218 1.740623 0.040794 -0.018687 -245341.000000 0 0 1
-6.568174 30.037254 -6.119829 31.350117 -1.355517 1.767267 0.037887 -0.021305 -350063.000000 0 0 1
-7.266374 31.132054 -6.935429 32.712461 -1.341497 1.784429 0.042081 -0.013917 -317217.000000 0 0 1
-8.022174 32.027654 -6.189829 33.592259 -1.325369 1.756119 0.039021 -0.008928 -209870.000000 0 0 1
-8.467574 33.077354 -7.016929 34.857545 -1.320185 1.773484 0.037445 -0.020567 -156696.000000 0 0 1
-9.609474 33.932454 -6.438929 35.849871 -1.294828 1.751384 0.038608 -0.020780 567989.000000 0 0 1
-10.912574 33.358854 -6.481429 35.691824 -1.254642 1.753404 0.040690 -0.013175 -221948.000000 0 0 1
-11.862774 -33.964846 -5.937029 36.463468 1.234775 1.734346 0.050380 -0.017976 245488.000000 0 0 1
-13.314974 33.644054 -5.982029 36.674181 -1.193950 1.734641 0.048802 -0.018141 575884.000000 0 0 1
-13.772574 33.640454 -7.332429 37.082724 -1.182208 1.769840 0.046372 -0.018323 -735479.000000 0 0 1
-15.108474 33.318054 -7.512529 37.346978 -1.145067 1.773333 0.055869 -0.022565 -1042590.000000 0 0 1
-15.560774 33.552854 -8.997429 38.064227 -1.136551 1.809430 0.078168 -0.029894 492122.000000 0 0 1
-16.917774 33.302454 -9.341329 38.503570 -1.100766 1.815851 0.111352 -0.034335 -132621.000000 0 0 1
-17.807874 -33.863046 -9.070429 39.320465 1.086660 1.803572 0.111166 -0.036781 -236556.000000 0 0 1
-19.282574 33.793854 -9.329129 40.010934 -1.052279 1.806127 0.118759 -0.036485 969665.000000 0 0 1
-19.783874 32.877054 -8.339829 39.266463 -1.029089 1.784817 0.105591 -0.030409 154833.000000 0 0 1
-20.162674 33.553054 -7.154929 39.793641 -1.029701 1.751580 0.076665 -0.019624 -602957.000000 0 0 1
-20.284774 32.642954 -5.930929 38.887150 -1.014780 1.723910 0.073972 -0.026862 -593155.000000 0 0 1
-20.063874 33.216354 -4.666629 39.085325 -1.027414 1.690478 0.059917 -0.030090 637591.000000 0 0 1
-21.202874 33.217454 -3.786229 39.589097 -1.002686 1.666581 0.066807 -0.031433 942484.000000 0 0 1
-22.244774 -33.819246 -4.093629 40.685737 0.988989 1.671583 0.086049 -0.035035 192348.000000 0 0 1
-22.910174 -33.938646 -5.343229 41.294768 0.977015 1.700553 0.094136 -0.037284 -90738.800000 0 0 1
-23.827574 -32.918246 -5.596629 41.020561 0.944248 1.707658 0.089534 -0.039309 -334614.000000 0 0 1
-24.229974 -32.960446 -7.078529 41.516120 0.936885 1.742134 0.100133 -0.034917 390364.000000 0 0 1
-23.280974 -32.331946 -7.986429 40.634241 0.946733 1.768629 0.113359 -0.034547 677180.000000 0 0 1
-23.663574 -32.373146 -9.378929 41.181909 0.939591 1.800556 0.102373 -0.029104 -285093.000000 0 0 1
-24.911174 -31.688246 -9.905529 41.507000 0.904568 1.811769 0.071048 -0.021655 -721170.000000 0 0 1
-26.144544 -32.262946 -9.540929 42.608264 0.889771 1.796633 0.064861 -0.017416 521477.000000 0 0 1
-27.396444 -31.728246 -9.944729 43.082994 0.858533 1.803724 0.019216 -0.008228 786927.000000 0 0 1
-27.669534 -30.231946 -9.603129 42.092680 0.829624 1.800966 0.007115 0.001571 -1029310.000000 0 0 1
-26.905244 -29.263946 -10.262129 41.055840 0.827366 1.823431 0.022639 0.002498 -341644.000000 0 0 1
-27.187864 -29.053246 -11.629429 41.454972 0.818554 1.855144 0.011270 0.000402 -689332.000000 0 0 1
-26.025804 -28.358246 -12.302129 40.408848 0.828260 1.880148 0.039375 0.004391 -588337.000000 0 0 1
-24.860574 -29.119446 -12.440529 40.258627 0.864132 1.884954 0.045599 -0.003097 -259190.000000 0 0 1
-23.932774 -28.655246 -13.393629 39.664721 0.874959 1.915238 0.040760 -0.005051 274802.000000 0 0 1
-22.684774 -29.579246 -13.484429 39.640391 0.916557 1.917893 0.057644 -0.019846 74777.500000 0 0 1
-22.768574 -30.772146 -14.297929 40.862742 0.933785 1.928262 0.066059 -0.019236 119692.000000 0 0 1
-23.668674 -31.737646 -13.734429 41.906072 0.930014 1.904710 0.054483 -0.017534 261074.000000 0 0 1
-23.917974 -32.908346 -14.675129 43.247984 0.942306 1.916996 0.074669 -0.029060 -23766.900000 0 0 1
-24.299274 -34.047446 -13.892129 44.075782 0.950942 1.891450 0.058917 -0.036455 -222519.000000 0 0 1
-24.575774 32.918654 -14.579529 43.590929 -0.929500 1.911831 0.078179 -0.036812 92447.900000 0 0 1
-25.021074 31.814254 -13.554329 42.683963 -0.904358 1.893942 0.069434 -0.031590 960887.000000 0 0 1
-23.999674 31.367654 -12.583129 41.451769 -0.917695 1.879224 0.079477 -0.030233 1227130.000000 0 0 1
-23.615774 32.396854 -11.589829 41.732302 -0.940902 1.852215 0.100987 -0.027712 238785.000000 0 0 1
-22.794774 31.955854 -10.360829 40.597107 -0.951186 1.828862 0.106014 -0.023302 62898.900000 0 0 1
-23.493074 31.016754 -9.568129 40.068849 -0.922556 1.811918 0.096681 -0.015438 -66572.700000 0 0 1
-22.728274 30.475754 -8.510829 38.958699 -0.930000 1.791030 0.095965 -0.022242 -243492.000000 0 0 1
-23.462074 29.510754 -7.548129 38.449028 -0.899090 1.768395 0.086432 -0.022677 -145196.000000 0 0 1
-23.915974 28.390954 -8.261229 38.029830 -0.870743 1.789772 0.079478 -0.010541 7895.140000 0 0 1
-24.325774 27.330354 -7.458229 37.340550 -0.843498 1.771884 0.071821 -0.013631 89290.200000 0 0 1
-23.153774 26.599054 -6.739229 35.902982 -0.854536 1.759623 0.072150 -0.016645 266738.000000 0 0 1
-22.519974 27.145954 -5.627829 35.717286 -0.878272 1.729022 0.079819 -0.016144 87300.300000 0 0 1
-21.621474 26.217354 -5.009429 34.350141 -0.881174 1.717153 0.077798 -0.021081 87612.100000 0 0 1
-20.295474 26.945554 -4.629129 34.049933 -0.925248 1.707170 0.061765 -0.029606 -21220.100000 0 0 1
-19.550274 26.949354 -5.843129 33.802708 -0.943197 1.744529 0.064550 -0.019852 -203436.000000 0 0 1
-18.470174 27.871154 -5.748829 33.926355 -0.985546 1.741068 0.041976 -0.020250 74177.100000 0 0 1
-17.588974 27.768654 -7.012629 33.610223 -1.006171 1.780986 0.059681 -0.022756 -384407.000000 0 0 1
-18.056674 28.343854 -8.217329 34.596850 -1.003573 1.810605 0.068206 -0.026037 70351.300000 0 0 1
-18.218674 29.724654 -8.311729 35.840758 -1.020935 1.804834 0.077417 -0.026484 -124257.000000 0 0 1
-18.243474 30.178854 -9.777129 36.594806 -1.027066 1.841254 0.093806 -0.026176 562642.000000 0 0 1
-17.000074 30.017554 -10.493929 36.057989 -1.055496 1.866099 0.086852 -0.025711 549798.000000 0 0 1
-16.866774 30.723254 -11.700529 36.950085 -1.068729 1.893000 0.108686 -0.032914 1410160.000000 0 0 1
-15.339974 30.953254 -12.162629 36.624422 -1.110687 1.909316 0.090200 -0.033426 1871480.000000 0 0 1
-15.145474 31.701054 -13.362929 37.588696 -1.125099 1.934249 0.097290 -0.039146 -203626.000000 0 0 1
-15.477674 30.981454 -14.524929 37.555059 -1.107486 1.967916 0.109579 -0.044704 -240953.000000 0 0 1
-15.037874 31.684454 -15.848729 38.486679 -1.127663 1.995222 0.117565 -0.048514 -1110180.000000 0 0 1
-13.681774 31.795754 -16.006929 38.136369 -1.164443 2.003943 0.111803 -0.050100 -1376320.000000 0 0 1
-13.262174 31.896254 -17.335029 38.649185 -1.176752 2.035908 0.104843 -0.058546 -263257.000000 0 0 1
-11.746574 32.070154 -17.547529 38.397819 -1.219695 2.045408 0.111292 -0.061969 -943081.000000 0 0 1
-11.097374 30.940654 -17.093729 37.049579 -1.226422 2.050340 0.115790 -0.069157 -906686.000000 0 0 1
-9.791074 30.710454 -17.512229 36.683447 -1.262165 2.068476 0.099234 -0.061250 -415849.000000 0 0 1
-9.561374 30.592454 -19.047829 37.284553 -1.267875 2.107001 0.089397 -0.066380 -576778.000000 0 0 1
-10.396274 29.604754 -19.649929 37.022205 -1.233080 2.130294 0.097914 -0.066681 557937.000000 0 0 1
-9.973074 29.547554 -21.036229 37.617058 -1.245277 2.164242 0.075901 -0.068106 -380453.000000 0 0 1
-11.174274 29.322454 -21.979129 38.311262 -1.206704 2.181811 0.081631 -0.059607 192846.000000 0 0 1
-12.037874 30.444654 -22.141429 39.522528 -1.194260 2.165451 0.093013 -0.058350 -342163.000000 0 0 1
-13.175474 30.269654 -21.356929 39.318742 -1.160259 2.145009 0.097753 -0.058485 -764295.000000 0 0 1
-14.209674 31.419054 -21.438429 40.603916 -1.146062 2.127027 0.113571 -0.061570 -56564.800000 0 0 1
-14.837974 31.458854 -22.695529 41.532060 -1.130074 2.148925 0.085448 -0.055125 -405064.000000 0 0 1
-15.559974 32.648554 -22.797929 42.752619 -1.126051 2.133237 0.084812 -0.043516 -13269.700000 0 0 1
-16.154874 32.840754 -24.189729 43.870697 -1.113637 2.154822 0.072764 -0.028670 267322.000000 0 0 1
-15.141574 33.183254 -25.124829 44.290548 -1.142714 2.173987 0.072496 -0.027002 135120.000000 0 0 1
-15.569974 33.107054 -26.457929 45.150007 -1.131197 2.196911 0.078299 -0.020316 145056.000000 0 0 1
-16.023874 -33.734346 -27.109329 46.148525 1.127347 2.198684 0.064233 -0.012006 512212.000000 0 0 1
-17.312774 -33.240846 -26.759029 46.051402 1.090625 2.190838 0.067971 -0.012272 247221.000000 0 0 1
-17.709074 -32.158046 -27.570929 45.911952 1.067424 2.214944 0.055027 -0.002364 711039.000000 0 0 1
-19.249874 -31.899746 -27.485029 46.298793 1.027845 2.206377 0.054037 -0.016142 745412.000000 0 0 1
-20.114674 -32.995946 -27.720529 47.557968 1.023340 2.193063 0.058556 -0.015337 -507072.000000 0 0 1
-21.458474 -32.603546 -27.600329 47.804136 0.988703 2.186291 0.054505 -0.013731 608513.000000 0 0 1
-22.488574 -33.807846 -27.579929 49.085221 0.983818 2.167451 0.047767 -0.006690 525889.000000 0 0 1
-22.758474 33.680254 -26.392129 48.464957 -0.976551 2.146662 0.068521 -0.009758 -438078.000000 0 0 1
-23.814174 32.760054 -26.549429 48.427350 -0.942226 2.151045 0.050606 -0.011867 -36322.700000 0 0 1
-23.477674 31.393054 -27.208529 47.718226 -0.928665 2.177535 0.064891 -0.009015 639960.000000 0 0 1
-22.579674 30.526654 -26.474629 46.288489 -0.933939 2.179676 0.068327 -0.030040 320669.000000 0 0 1
-23.293374 29.652454 -25.635529 45.596377 -0.904931 2.167873 0.056527 -0.025406 24286.600000 0 0 1
31.864100 9.617354 -26.774592 42.716427 0.293129 2.248234 0.072344 -0.010825 -114726.000000 0 0 1
31.323170 8.396254 -26.367632 41.795814 0.261896 2.253467 0.067529 -0.005224 1235100.000000 0 0 1
29.897150 8.216454 -26.542402 40.814811 0.268203 2.278793 0.070005 -0.012331 1222360.000000 0 0 1
29.368700 6.856854 -26.177242 39.934759 0.229366 2.285641 0.054522 -0.014551 -132289.000000 0 0 1
29.476480 6.594054 -24.766132 39.060283 0.220082 2.257574 0.056510 -0.006221 187196.000000 0 0 1
28.760950 5.434354 -24.363332 38.082757 0.186747 2.264965 0.040916 -0.006243 55807.100000 0 0 1
28.890240 5.242254 -22.834932 37.196254 0.179501 2.231793 0.039826 -0.008301 489488.000000 0 0 1
30.227630 5.081254 -22.355732 37.938207 0.166543 2.200948 0.048462 -0.012639 453811.000000 0 0 1
30.205530 4.837454 -21.004732 37.107597 0.158803 2.172502 0.050644 -0.014426 -831219.000000 0 0 1
31.557830 4.616054 -20.364132 37.840487 0.145243 2.139046 0.041528 -0.015284 -731348.000000 0 0 1
32.061560 3.283754 -20.547632 38.222138 0.102064 2.138366 0.060101 -0.015980 622563.000000 0 0 1
32.926480 2.910354 -19.470332 38.362965 0.088160 2.103111 0.065696 -0.017313 5152.760000 0 0 1
33.562320 1.496154 -19.538432 38.864098 0.044549 2.097559 0.073870 -0.021923 -285602.000000 0 0 1
32.658590 0.505054 -19.152132 37.863475 0.015463 2.101130 0.052691 -0.018060 -94777.300000 0 0 1
33.232920 -0.791646 -19.039632 38.308762 -0.023817 2.090940 0.060429 -0.017576 5532.820000 0 0 1
32.193790 -1.858746 -18.625232 37.239688 -0.057672 2.094562 0.044557 -0.011565 213558.000000 0 0 1
32.086000 -1.917046 -17.168632 36.441026 -0.059676 2.061373 0.053353 -0.010461 793067.000000 0 0 1
30.795870 -1.444446 -16.722532 35.072997 -0.046870 2.067798 0.037204 -0.016238 552699.000000 0 0 1
30.475730 -1.763146 -15.211532 34.106737 -0.057790 2.033085 0.037642 -0.016526 -482686.000000 0 0 1
30.262340 -3.110046 -14.976632 33.908423 -0.102410 2.028265 0.031585 -0.020312 215543.000000 0 0 1
29.601690 -3.334546 -13.769832 32.817488 -0.112174 2.003788 0.033317 -0.020158 -256210.000000 0 0 1
29.407250 -4.809646 -13.348532 32.651223 -0.162118 1.991959 0.029232 -0.022593 52742.200000 0 0 1
28.455420 -5.525946 -14.124332 32.245058 -0.191809 2.024203 0.023146 -0.022230 478014.000000 0 0 1
28.069380 -6.743746 -13.485932 31.862809 -0.235784 2.007826 0.026452 -0.018364 -316499.000000 0 0 1
27.553380 -7.759846 -14.594432 32.131004 -0.274519 2.042289 0.023587 -0.014115 372757.000000 0 0 1
26.307280 -7.412346 -15.194432 31.271179 -0.274640 2.078180 0.038977 -0.020343 203337.000000 0 0 1
26.027380 -8.278446 -16.251132 31.781386 -0.307948 2.107541 0.048933 -0.021030 493757.000000 0 0 1
24.555280 -8.171846 -16.769832 30.837771 -0.321265 2.145765 0.044136 -0.021798 234538.000000 0 0 1
24.210480 -6.853246 -17.241032 30.501927 -0.275853 2.171525 0.053935 -0.021603 231491.000000 0 0 1
22.875980 -6.751046 -17.711732 29.708459 -0.286969 2.209537 0.081476 -0.024215 257520.000000 0 0 1
22.633380 -7.241546 -19.136032 30.510615 -0.309657 2.248740 0.062277 -0.019460 -193891.000000 0 0 1
23.204280 -6.336246 -20.108532 31.351869 -0.266565 2.267095 0.062053 -0.022535 632552.000000 0 0 1
22.930980 -6.843446 -21.412532 32.111667 -0.290022 2.300723 0.077589 -0.024600 33701.400000 0 0 1
23.453180 -5.776746 -22.428932 32.961788 -0.241502 2.319176 0.064913 -0.024260 24842.700000 0 0 1
23.712280 -6.342046 -23.720632 34.134472 -0.261341 2.339101 0.067995 -0.031934 268264.000000 0 0 1
23.879180 -5.353346 -24.676032 34.753131 -0.220538 2.360348 0.070492 -0.022470 -342786.000000 0 0 1
24.055980 -5.859646 -26.153862 36.014582 -0.238931 2.383578 0.076679 -0.025630 1379810.000000 0 0 1
22.792080 -6.433846 -26.662992 35.662143 -0.275126 2.415321 0.081210 -0.026026 1496480.000000 0 0 1
22.771680 -6.435646 -28.086122 36.725975 -0.275433 2.441447 0.073418 -0.027412 1240940.000000 0 0 1
21.399080 -6.986046 -28.691992 36.468560 -0.315556 2.476338 0.051467 -0.031063 1278510.000000 0 0 1
21.211780 -8.359446 -28.421622 36.436363 -0.375405 2.465517 0.042675 -0.024094 172206.000000 0 0 1
20.149580 -8.965746 -29.142502 36.546896 -0.418654 2.493771 0.036456 -0.028082 -252867.000000 0 0 1
20.056380 -10.483046 -28.770722 36.604742 -0.481626 2.475082 0.049588 -0.025090 -156636.000000 0 0 1
19.057680 -10.870846 -27.825612 35.434943 -0.518384 2.473911 0.056798 -0.028082 393475.000000 0 0 1
19.205980 -12.109946 -27.248142 35.468038 -0.562566 2.446891 0.059549 -0.028891 -330172.000000 0 0 1
19.165580 -13.339146 -28.174392 36.593014 -0.608033 2.449542 0.042575 -0.012666 -94495.800000 0 0 1
17.923580 -13.546046 -28.814432 36.537947 -0.647182 2.479352 0.039227 -0.016119 323805.000000 0 0 1
18.032980 -14.641546 -29.727392 37.726398 -0.681974 2.478307 0.033089 -0.017764 419820.000000 0 0 1
16.740580 -14.990446 -30.539362 37.915869 -0.730299 2.507232 0.045178 -0.020830 574813.000000 0 0 1
15.719480 -15.776446 -29.968542 37.337807 -0.787207 2.502492 0.075938 -0.027595 -181381.000000 0 0 1
14.595480 -15.901946 -30.763562 37.580536 -0.828211 2.529772 0.071612 -0.033557 -1043650.000000 0 0 1
13.463580 -16.619146 -30.046642 36.881767 -0.889912 2.522964 0.089279 -0.037300 -498412.000000 0 0 1
13.756680 -17.949146 -29.652322 37.291800 -0.916866 2.490040 0.078648 -0.034467 10950.700000 0 0 1
12.830080 -18.338746 -28.659132 36.362982 -0.960328 2.478578 0.078195 -0.033525 27288.900000 0 0 1
13.195980 -19.568646 -27.809602 36.475194 -0.977498 2.437849 0.073306 -0.029666 -237663.000000 0 0 1
14.103380 -19.324046 -26.771572 35.903220 -0.940326 2.412320 0.067888 -0.024401 -271936.000000 0 0 1
14.304980 -20.476246 -25.994042 36.049956 -0.961002 2.376122 0.047383 -0.015875 -666379.000000 0 0 1
15.455780 -20.322146 -25.015232 35.743987 -0.920584 2.345976 0.036973 -0.007257 -261681.000000 0 0 1
16.731580 -20.628346 -25.583172 36.877814 -0.889326 2.337449 0.036513 -0.005515 692112.000000 0 0 1
17.690780 -20.421346 -24.547132 36.504202 -0.856922 2.308306 0.025880 -0.003743 323342.000000 0 0 1
19.132580 -20.963346 -24.789232 37.683200 -0.831026 2.288734 0.016630 0.005649 251692.000000 0 0 1
19.472880 -22.344046 -24.805732 38.649370 -0.853951 2.267659 0.023737 -0.002667 168018.000000 0 0 1
19.036380 -23.126646 -23.706632 38.199868 -0.882106 2.240297 0.028076 -0.012955 -531105.000000 0 0 1
19.664580 -24.535546 -23.651132 39.345455 -0.895158 2.215692 0.041680 -0.020187 175907.000000 0 0 1
21.026980 -24.595146 -23.249632 39.844705 -0.863451 2.193836 0.052913 -0.016657 441850.000000 0 0 1
21.485080 -25.937596 -22.921832 40.740373 -0.879014 2.168362 0.063068 -0.027132 117002.000000 0 0 1
21.221880 -26.301446 -21.422632 40.013291 -0.891880 2.135763 0.070923 -0.029615 -689476.000000 0 0 1
19.862280 -26.523636 -21.161432 39.316913 -0.928030 2.139129 0.055959 -0.030403 -270340.000000 0 0 1
19.752380 -26.664126 -19.764732 38.623526 -0.933219 2.107991 0.058167 -0.030080 -45276.200000 0 0 1
18.352180 -27.112066 -19.318732 38.014209 -0.975742 2.103887 0.046247 -0.030704 -1067480.000000 0 0 1
18.228180 -28.450696 -19.710532 39.117947 -1.000991 2.098875 0.043790 -0.027279 -110223.000000 0 0 1
17.116380 -29.162986 -19.239532 38.905139 -1.040049 2.088084 0.027904 -0.008623 813496.000000 0 0 1
15.658480 -28.611856 -19.442032 37.971291 -1.070050 2.108330 0.044969 -0.023973 -247490.000000 0 0 1
15.198280 -27.571416 -18.654232 36.594413 -1.067007 2.105698 0.049999 -0.023728 -313467.000000 0 0 1
13.953180 -27.169546 -19.166632 36.058775 -1.096360 2.131212 0.036623 -0.015095 -141873.000000 0 0 1
13.050780 -26.133166 -18.455032 34.552185 -1.107633 2.134263 0.024964 -0.019964 -190295.000000 0 0 1
12.351680 -26.700186 -17.356732 34.157285 -1.137508 2.103822 0.031774 -0.020442 286241.000000 0 0 1
11.293980 -25.815986 -16.976632 32.897191 -1.158403 2.113031 0.039179 -0.028410 597669.000000 0 0 1
9.865380 -26.190146 -17.451932 32.982108 -1.210551 2.128375 0.047553 -0.029237 -472478.000000 0 0 1
9.257780 -27.267086 -16.747132 33.311664 -1.243486 2.097563 0.048196 -0.020494 -259801.000000 0 0 1
7.854480 -27.152796 -16.776532 32.869731 -1.289213 2.106440 0.037722 -0.009298 90826.300000 0 0 1
7.222380 -27.901966 -17.946732 33.952433 -1.317507 2.127729 0.050748 -0.003753 -520436.000000 0 0 1
7.225880 -27.135136 -19.127332 33.976224 -1.310543 2.168762 0.064078 -0.008126 -111088.000000 0 0 1
6.702880 -27.913326 -20.174732 35.087066 -1.335127 2.183389 0.063916 -0.004843 -10367.800000 0 0 1
6.748280 -27.177686 -21.493432 35.300617 -1.327416 2.225430 0.065431 -0.015840 -198494.000000 0 0 1
5.930280 -26.046346 -21.480032 34.277867 -1.346931 2.248036 0.096069 -0.023559 -105002.000000 0 0 1
5.999880 -25.473776 -22.721432 34.657976 -1.339481 2.285760 0.090114 -0.023571 -172765.000000 0 0 1
4.722780 -24.713846 -23.186732 34.215543 -1.381974 2.315381 0.068373 -0.015827 -101790.000000 0 0 1
3.700080 -25.660566 -23.236532 34.815107 -1.427590 2.301544 0.061094 -0.014105 -451185.000000 0 0 1
2.448680 -25.154506 -23.633032 34.601524 -1.473757 2.322666 0.070073 -0.016899 302948.000000 0 0 1
1.326580 -26.100956 -24.046832 35.514362 -1.520015 2.314613 0.049534 -0.022681 158175.000000 0 0 1
1.744280 -26.751866 -25.233792 36.816425 -1.505686 2.325942 0.032226 -0.019707 -387496.000000 0 0 1
0.844480 -27.712686 -25.658362 37.776417 -1.540333 2.317491 0.040033 -0.026971 -579215.000000 0 0 1
1.261580 -28.613046 -26.805022 39.227633 -1.526734 2.323096 0.025806 -0.021009 -651676.000000 0 0 1
1.503480 -27.962106 -28.021502 39.614952 -1.517080 2.356534 0.023750 -0.021836 -2559.900000 0 0 1
1.880880 -28.963706 -29.012332 41.038390 -1.505948 2.355981 0.028185 -0.021017 -429696.000000 0 0 1
3.344480 -29.384306 -29.158292 41.531061 -1.457465 2.349116 0.036013 -0.009757 -411154.000000 0 0 1
3.881980 -30.057236 -28.036072 41.285937 -1.442354 2.317292 0.028068 -0.028706 647188.000000 0 0 1
5.238980 -30.474256 -28.282562 41.905018 -1.400546 2.311654 0.056414 -0.034731 816895.000000 0 0 1
5.613380 -31.602056 -27.355672 42.172655 -1.395003 2.276617 0.074232 -0.042169 -243814.000000 0 0 1
4.792480 -32.730816 -27.498082 43.016494 -1.425408 2.264313 0.067313 -0.051525 -139199.000000 0 0 1
5.317480 -33.834736 -26.840432 43.514064 -1.414911 2.235495 0.089464 -0.061163 -193253.000000 0 0 1
4.248780 33.325763 -26.403012 42.729120 1.443988 2.236886 0.092411 -0.057209 -20135.700000 0 0 1
3.664080 32.527245 -27.444212 42.715711 1.458623 2.268533 0.081094 -0.052643 -191046.000000 0 0 1
2.415680 32.086063 -27.035672 42.027117 1.495651 2.269586 0.056982 -0.054165 -736659.000000 0 0 1
1.274380 32.201905 -28.043412 42.720250 1.531242 2.286890 0.057792 -0.030245 -547215.000000 0 0 1
0.979280 31.176313 -28.939942 42.549286 1.539396 2.318765 0.078019 -0.027123 35834.200000 0 0 1
0.116180 31.662153 -29.946012 43.580605 1.567127 2.328343 0.062060 -0.034215 33256.200000 0 0 1
-0.182020 30.575663 -30.991022 43.535592 -1.564843 2.362932 0.066177 -0.035407 529020.000000 0 0 1
0.988080 30.340383 -31.781112 43.949451 1.538241 2.379118 0.083097 -0.038177 442012.000000 0 0 1
0.611880 29.697973 -32.955852 44.367017 1.550196 2.408040 0.099415 -0.042320 -265374.000000 0 0 1
1.763980 29.206733 -33.847662 44.741582 1.510473 2.428763 0.093455 -0.034261 -144841.000000 0 0 1
2.350380 30.268983 33.668145 45.335192 1.493302 0.733779 0.098909 -0.041368 -143290.000000 0 0 1
3.228780 29.992863 32.589613 44.408105 1.463558 0.746800 0.066716 -0.034831 -146856.000000 0 0 1
2.760580 29.112963 31.406271 42.913160 1.476256 0.749754 0.064911 -0.024695 -307435.000000 0 0 1
2.621880 27.752733 31.678171 42.197097 1.476603 0.721646 0.066631 -0.025815 -68460.800000 0 0 1
3.859680 27.080323 31.607981 41.800784 1.429223 0.713375 0.057441 -0.019887 -223635.000000 0 0 1
3.699880 25.551263 31.944341 41.073070 1.426994 0.679727 0.052799 -0.019767 124684.000000 0 0 1
2.930480 24.877193 30.953981 39.819736 1.453539 0.680350 0.045941 -0.010690 182496.000000 0 0 1
3.286680 23.495683 30.927691 38.979116 1.431814 0.654352 0.039000 -0.011815 -513688.000000 0 0 1
2.496380 22.584953 30.019851 37.649748 1.460710 0.647913 0.039745 0.000471 -757158.000000 0 0 1
1.193180 22.377553 30.483151 37.833862 1.517526 0.633922 0.053106 -0.003805 -509644.000000 0 0 1
0.487880 21.640653 29.510771 36.598381 1.548256 0.632857 0.044488 -0.002889 661356.000000 0 0 1
-1.004420 21.269853 29.764111 36.596692 -1.523609 0.620994 0.039822 -0.000577 743424.000000 0 0 1
-1.945920 22.324453 29.890541 37.357894 -1.483851 0.643313 0.050164 -0.004102 228494.000000 0 0 1
-3.217920 21.826953 30.235581 37.429417 -1.424422 0.630382 0.040975 -0.003779 -293965.000000 0 0 1
-4.290320 22.883853 30.435351 38.319554 -1.385465 0.653022 0.028683 -0.018129 -267959.000000 0 0 1
-4.059220 23.672813 31.594171 39.687164 -1.400976 0.650006 0.051088 -0.023361 -349240.000000 0 0 1
-5.110420 24.559093 31.803791 40.506130 -1.365637 0.667842 0.039349 -0.029945 -235435.000000 0 0 1
-5.088820 25.216873 33.159846 41.968585 -1.371669 0.659806 0.050399 -0.029035 -277329.000000 0 0 1
-6.354620 25.665403 33.564381 42.727764 -1.328083 0.667228 0.036756 -0.029408 -236186.000000 0 0 1
-6.411120 25.935233 -33.254912 42.657098 -1.328457 2.464802 0.040442 -0.024024 -62894.400000 0 0 1
-7.830420 26.363463 -32.842222 42.836424 -1.282078 2.444465 0.049319 -0.013696 30392.500000 0 0 1
-8.263320 27.685303 -33.241822 44.042902 -1.280741 2.426085 0.043279 -0.015710 869798.000000 0 0 1
-9.554020 28.102953 -32.724962 44.181200 -1.243089 2.404906 0.031924 -0.010421 1005520.000000 0 0 1
-9.673820 28.461763 -31.190222 43.318411 -1.243158 2.374631 0.032127 -0.005850 -279712.000000 0 0 1
-8.958320 29.641413 -30.874142 43.727309 -1.277301 2.354716 0.035247 -0.003780 150605.000000 0 0 1
-8.866920 29.796153 -29.448332 42.820992 -1.281556 2.329123 0.050895 -0.005353 -410220.000000 0 0 1
-8.167020 31.099633 -29.016972 43.311339 -1.313987 2.304955 0.037845 -0.010291 449360.000000 0 0 1
-6.760520 31.086953 -29.230422 43.203251 -1.356659 2.313904 0.014887 -0.011799 99828.600000 0 0 1
-6.174520 32.323321 -28.937472 43.821218 -1.382047 2.292085 0.024935 -0.012056 692339.000000 0 0 1
-4.609920 32.332853 -29.094672 43.739739 -1.429174 2.298527 0.044599 -0.018136 1089320.000000 0 0 1
-3.937620 33.565565 -28.686182 44.328874 -1.454019 2.274599 0.051516 -0.019735 192476.000000 0 0 1
-4.180120 -33.416926 -29.430682 44.725043 1.446353 2.289004 0.052024 -0.023087 -58807.800000 0 0 1
-3.408520 -33.395856 -30.810532 45.565229 1.469084 2.313369 0.049648 -0.036239 -163047.000000 0 0 1
-3.930220 33.886042 -31.774772 46.619166 -1.455329 2.320718 0.048360 -0.017871 -147225.000000 0 0 1
-4.861220 -33.764526 -32.653492 47.222084 1.427805 2.334343 0.060075 -0.028787 -444704.000000 0 0 1
-4.212220 -32.788266 -33.640332 47.164448 1.443029 2.364929 0.030900 -0.032797 -398714.000000 0 0 1
-3.734120 -31.560376 -33.067232 45.863306 1.453027 2.376034 0.035703 -0.026470 738427.000000 0 0 1
-2.994120 -30.701326 -33.990202 45.900654 1.473580 2.404635 0.022051 -0.037871 360651.000000 0 0 1
32.045200 18.058054 12.537871 38.861116 0.513163 1.242287 0.139042 -0.031120 -728281.000000 0 0 1
33.293860 18.162154 13.126571 40.132927 0.499390 1.237587 0.134719 -0.039078 -687172.000000 0 0 1
33.555680 17.061254 13.958871 40.148725 0.470382 1.215702 0.121307 -0.018899 -172331.000000 0 0 1
35.030750 17.072554 14.402671 41.545908 0.453484 1.216779 0.130306 -0.047809 146475.000000 0 0 1
35.930220 16.493354 13.435471 41.755518 0.430345 1.243203 0.131510 -0.017251 553222.000000 0 0 1
-36.398014 15.440054 13.928571 41.919158 -0.401193 1.232085 0.139982 -0.020497 -157217.000000 0 0 1
-35.858933 14.547454 12.845371 40.773705 -0.385398 1.250297 0.132629 -0.029963 -105798.000000 0 0 1
-35.067512 13.437754 13.215171 39.811360 -0.365937 1.232432 0.126004 -0.031017 185887.000000 0 0 1
-35.840592 12.271254 13.428171 40.192630 -0.329874 1.230151 0.127953 -0.037953 -120974.000000 0 0 1
-35.185128 11.478554 14.565471 39.773149 -0.315347 1.195860 0.144134 -0.044532 77469.400000 0 0 1
-35.378713 12.150654 15.809471 40.610726 -0.330824 1.170932 0.151035 -0.037571 204417.000000 0 0 1
-34.559759 11.681954 16.873871 40.194185 -0.325964 1.137562 0.144042 -0.034836 -5619.320000 0 0 1
-34.506386 12.673954 18.025871 40.942054 -0.351997 1.114888 0.142913 -0.032085 -651827.000000 0 0 1
-35.665509 12.740954 18.790471 42.278153 -0.343105 1.110238 0.148554 -0.045733 -448815.000000 0 0 1
-35.458915 13.214254 20.076971 42.837319 -0.356721 1.083001 0.157470 -0.039891 505617.000000 0 0 1
36.339620 13.216754 20.903771 43.957004 0.348828 1.075207 0.151731 -0.047744 717068.000000 0 0 1
35.861690 11.897154 21.172071 43.311196 0.320326 1.060041 0.140710 -0.037421 -464585.000000 0 0 1
34.797760 11.921654 22.043771 42.882838 0.330066 1.030901 0.138975 -0.042910 -697154.000000 0 0 1
34.491610 10.565154 22.647471 42.593445 0.297236 1.010175 0.137516 -0.037945 -83415.600000 0 0 1
35.518800 10.105354 23.505751 43.774692 0.277183 1.003954 0.125387 -0.029579 97272.200000 0 0 1
35.379550 10.655954 24.803841 44.502724 0.292548 0.979599 0.118067 -0.024323 941391.000000 0 0 1
-36.358074 10.692154 25.581851 45.723766 -0.286016 0.977030 0.093301 -0.026752 1197010.000000 0 0 1
-35.493828 11.576054 24.928451 44.891475 -0.315265 0.982067 0.100791 -0.031580 -97148.300000 0 0 1
-34.363263 10.936954 24.335871 43.505005 -0.308137 0.977158 0.110155 -0.035726 -68202.800000 0 0 1
-33.461734 11.969954 23.679321 42.704539 -0.343536 0.983044 0.122038 -0.042398 397682.000000 0 0 1
-32.552714 12.765154 24.475351 42.681040 -0.373710 0.960088 0.116363 -0.034582 479009.000000 0 0 1
-33.260964 13.729354 25.248051 43.957377 -0.391472 0.958955 0.112323 -0.033172 -146460.000000 0 0 1
-32.628904 14.358054 26.536451 44.440773 -0.414541 0.930891 0.112213 -0.035172 -293140.000000 0 0 1
-31.736224 15.392054 26.237961 43.960594 -0.451575 0.931225 0.127667 -0.031513 -269230.000000 0 0 1
-31.663744 16.311154 27.303151 44.878820 -0.475683 0.916785 0.133326 -0.023977 -139471.000000 0 0 1
-30.942394 17.663254 27.076181 44.749770 -0.518705 0.920958 0.121464 -0.018557 -1056430.000000 0 0 1
-31.651144 18.633454 26.372921 45.216496 -0.532079 0.948061 0.093740 -0.037175 -136790.000000 0 0 1
-30.971194 19.847954 26.230481 45.179578 -0.569917 0.951352 0.094764 -0.043394 -302500.000000 0 0 1
-31.842524 20.922554 25.543351 45.871150 -0.581325 0.980208 0.107599 -0.032654 9130.360000 0 0 1
-32.869094 21.421854 26.387721 47.281973 -0.577592 0.978711 0.096261 -0.036975 486048.000000 0 0 1
-33.768584 22.351354 25.767201 47.998426 -0.584694 1.004116 0.096268 -0.027389 -107698.000000 0 0 1
-33.371974 23.865954 25.681841 48.402783 -0.620821 1.011505 0.090892 -0.028191 -430212.000000 0 0 1
-34.239321 24.447754 24.778891 48.826399 -0.620077 1.038527 0.096497 -0.022206 -106804.000000 0 0 1
-33.865914 25.814254 24.506881 49.131080 -0.651294 1.048576 0.082754 -0.023533 483123.000000 0 0 1
-34.931605 26.398254 23.535541 49.709220 -0.647147 1.077577 0.097102 -0.025421 347030.000000 0 0 1
-34.762250 25.979854 22.204771 48.748525 -0.641808 1.097867 0.108757 -0.035865 -109711.000000 0 0 1
-35.790534 26.474454 21.387471 49.389098 -0.636880 1.122933 0.112530 -0.035240 -67498.600000 0 0 1
-35.688909 26.081554 19.866571 48.462628 -0.631101 1.148413 0.148218 -0.053764 19015.500000 0 0 1
-35.795294 24.719154 19.550971 47.692558 -0.604369 1.148411 0.137380 -0.044132 198191.000000 0 0 1
-35.354439 24.535154 18.195471 46.722428 -0.606672 1.170775 0.135518 -0.041018 -388188.000000 0 0 1
-35.627616 23.185154 17.564271 45.993282 -0.576912 1.178958 0.146672 -0.036266 -676464.000000 0 0 1
36.156210 23.031054 17.298571 46.227065 0.567173 1.187253 0.139929 -0.044284 -849039.000000 0 0 1
35.926590 22.203954 16.215371 45.240178 0.553576 1.204212 0.135353 -0.046269 527032.000000 0 0 1
34.493650 22.348154 15.596071 43.960088 0.574892 1.208120 0.123125 -0.039614 703619.000000 0 0 1
33.559070 21.389854 16.034071 42.904877 0.567452 1.187788 0.119541 -0.044710 -42511.600000 0 0 1
32.358080 21.480954 15.286471 41.739105 0.586051 1.195833 0.119090 -0.037165 -334793.000000 0 0 1
31.164500 20.681454 15.879771 40.633923 0.585892 1.169295 0.073743 -0.036381 402451.000000 0 0 1
30.585160 21.332854 17.019971 40.990512 0.609040 1.142615 0.065308 -0.027857 -57180.000000 0 0 1
29.653070 22.341354 16.690971 40.706623 0.645689 1.148308 0.050079 -0.017502 -479128.000000 0 0 1
29.011720 22.923654 17.932871 41.094545 0.668707 1.119224 0.032494 -0.016537 -120568.000000 0 0 1
29.911480 23.726554 18.660971 42.495621 0.670597 1.116170 0.015931 -0.016330 -219042.000000 0 0 1
29.290930 24.355754 19.745971 42.907630 0.693662 1.092579 0.013605 -0.014283 -458305.000000 0 0 1
30.320940 25.034654 20.631371 44.404355 0.690190 1.087585 0.024501 -0.020971 50530.600000 0 0 1
30.784120 26.319454 20.282071 45.296116 0.707371 1.106531 0.049687 -0.026454 591485.000000 0 0 1
31.943380 26.658254 21.059471 46.631999 0.695454 1.102227 0.062359 -0.031670 -108009.000000 0 0 1
32.590130 27.970854 20.612571 47.637835 0.709271 1.123318 0.086510 -0.036770 864296.000000 0 0 1
33.914520 28.113154 21.177571 48.877741 0.692141 1.122671 0.086237 -0.033297 1315850.000000 0 0 1
33.719730 28.836954 22.376171 49.691882 0.707502 1.103697 0.046342 -0.019299 297011.000000 0 0 1
34.890320 28.630954 23.428311 50.852254 0.687176 1.091998 0.051776 -0.023029 1006000.000000 0 0 1
35.938890 29.580654 23.245191 52.028433 0.688658 1.107635 0.079660 -0.023322 12231.600000 0 0 1
36.260710 30.200154 24.491331 53.166848 0.694460 1.092068 0.077966 -0.009969 480377.000000 0 0 1
-35.486526 30.907354 24.392761 53.005328 -0.716537 1.092582 0.082041 -0.026361 1772490.000000 0 0 1
-34.283058 30.060154 24.388911 51.708412 -0.719861 1.079621 0.080210 -0.029606 177039.000000 0 0 1
-33.271864 30.846354 24.841051 51.726128 -0.747587 1.069866 0.084075 -0.020121 -1206340.000000 0 0 1
-31.889144 30.184354 24.839121 50.447940 -0.757941 1.055984 0.093835 -0.033289 -393119.000000 0 0 1
-31.142334 30.100754 23.632031 49.339368 -0.768392 1.071316 0.070090 -0.029953 219180.000000 0 0 1
-31.623474 29.263754 22.580571 48.644564 -0.746662 1.088071 0.085364 -0.028441 -473419.000000 0 0 1
-31.223854 27.796854 22.620271 47.531787 -0.727399 1.074812 0.075667 -0.021478 288080.000000 0 0 1
-29.820924 27.524054 22.452571 46.378648 -0.745366 1.065446 0.039633 -0.022540 831347.000000 0 0 1
-29.404134 26.322654 23.082271 45.719541 -0.730158 1.041569 0.055599 -0.023591 -220600.000000 0 0 1
-29.081494 26.495954 24.539271 46.367496 -0.738910 1.013098 0.074624 -0.024718 -667763.000000 0 0 1
-30.255474 26.640354 25.313871 47.601410 -0.721944 1.010086 0.067475 -0.024644 29669.000000 0 0 1
-29.986624 26.918454 26.660531 48.317540 -0.731533 0.986302 0.086740 -0.036578 -1288180.000000 0 0 1
-31.180704 27.225054 27.503351 49.697829 -0.717774 0.984342 0.084738 -0.044206 -1081960.000000 0 0 1
-31.887274 26.057454 27.802461 49.686678 -0.685126 0.976947 0.070321 -0.036443 -92168.800000 0 0 1
-32.989114 26.410354 28.630821 51.044220 -0.675093 0.975321 0.063336 -0.025722 533898.000000 0 0 1
-33.863514 25.275654 29.248451 51.391324 -0.641192 0.965346 0.053736 -0.018085 962092.000000 0 0 1
-33.026204 24.402754 30.048091 50.883321 -0.636353 0.939082 0.049877 -0.026842 693185.000000 0 0 1
-33.705214 23.159754 30.216381 50.847275 -0.602034 0.934454 0.037588 -0.037729 394891.000000 0 0 1
-32.992904 22.276754 31.301051 50.641300 -0.593886 0.904481 0.045606 -0.047625 -899.630000 0 0 1
-31.679574 21.952554 30.900681 49.400022 -0.605983 0.894999 0.054348 -0.035893 -82524.300000 0 0 1
-31.041554 20.928854 31.651561 49.024650 -0.593214 0.868954 0.053046 -0.036353 -173418.000000 0 0 1
-30.314724 21.339854 32.998796 49.631567 -0.613368 0.843470 0.050381 -0.038306 -813514.000000 0 0 1
-31.120984 21.556554 -34.091689 50.945500 -0.605789 2.303901 0.074595 -0.039078 -313941.000000 0 0 1
-30.630304 21.303854 -32.753712 49.647511 -0.607710 2.291249 0.054974 -0.021251 -361018.000000 0 0 1
-29.333754 22.041854 -32.340932 48.910616 -0.644407 2.293247 0.077394 -0.025650 -59259.100000 0 0 1
-29.460634 23.428354 -32.040992 49.431184 -0.671833 2.276007 0.061407 -0.020265 -350160.000000 0 0 1
-28.572294 23.725354 -31.028292 48.394456 -0.692982 2.266797 0.099644 -0.015576 -407979.000000 0 0 1
-29.066764 24.970354 -30.252232 48.822054 -0.709736 2.239084 0.070886 -0.006355 -129777.000000 0 0 1
-28.721234 26.275854 -30.740782 49.601668 -0.740964 2.239224 0.081207 -0.016034 3792.060000 0 0 1
-29.438394 26.767754 -31.853122 50.968158 -0.737919 2.245878 0.048060 -0.008193 -626040.000000 0 0 1
-29.222104 28.272454 -32.129472 51.822447 -0.768882 2.239528 0.065334 -0.012831 -419920.000000 0 0 1
-29.634314 29.252854 -31.222952 52.046083 -0.778920 2.214185 0.047354 -0.022479 182948.000000 0 0 1
-29.008304 30.478354 -31.656322 52.654862 -0.810105 2.215803 0.058550 -0.039394 -38073.000000 0 0 1
-29.293194 31.650054 -30.722462 52.949852 -0.824052 2.189793 0.039836 -0.028281 5354.430000 0 0 1
-28.558744 31.689854 -29.510162 51.871942 -0.837321 2.175969 0.039565 -0.024879 -28987.300000 0 0 1
-28.839684 32.866454 -28.774972 52.344343 -0.850563 2.152831 0.013189 -0.018034 -646733.000000 0 0 1
-27.975984 33.009554 -27.522012 51.281064 -0.867749 2.137305 0.002204 -0.010256 -448999.000000 0 0 1
-26.676804 33.482854 -27.728422 51.006066 -0.898052 2.145552 0.037396 -0.011514 -403239.000000 0 0 1
-26.554694 -33.269346 -28.009462 50.956169 0.897170 2.152775 0.038051 0.005423 -690357.000000 0 0 1
-26.817434 -32.259546 -26.880822 49.824007 0.877258 2.140658 0.031737 0.011342 569183.000000 0 0 1
-28.203274 -31.918346 -26.764252 50.304380 0.847112 2.131812 0.019424 -0.001589 315324.000000 0 0 1
-28.455404 -31.124446 -25.663542 49.366573 0.830166 2.117479 0.009824 0.010051 71793.900000 0 0 1
-29.949794 -30.824046 -25.436252 49.941114 0.799783 2.105196 -0.009633 0.008681 -17274.900000 0 0 1
-30.532504 -30.029846 -26.422762 50.320849 0.777099 2.123612 -0.000037 0.001396 -384809.000000 0 0 1
-31.926804 -30.053246 -26.277832 51.117931 0.755179 2.110711 0.008717 -0.001990 -366164.000000 0 0 1
-32.636354 -28.979346 -27.127282 51.388944 0.726116 2.126901 0.029571 -0.008537 -551683.000000 0 0 1
-34.022194 -28.974746 -26.936142 52.178553 0.705447 2.113240 0.027188 -0.009081 -388778.000000 0 0 1
-34.633237 -28.372746 -28.059442 52.837545 0.686360 2.130637 0.034486 -0.015462 -289455.000000 0 0 1
-36.131644 -28.564546 -28.267412 54.041425 0.668964 2.121245 0.027431 -0.023955 -501263.000000 0 0 1
36.203530 -27.871746 -27.393272 53.272143 -0.656092 2.110887 0.018588 -0.011249 378969.000000 0 0 1
34.809590 -27.982446 -27.741432 52.576724 -0.677097 2.126613 0.023117 -0.014136 1323260.000000 0 0 1
33.788780 -27.313346 -26.769212 51.032257 -0.679815 2.122988 0.025378 -0.004632 159383.000000 0 0 1
33.757230 -27.927546 -25.526982 50.706264 -0.691170 2.098359 0.018951 0.000769 72100.700000 0 0 1
32.789530 -27.393246 -24.644832 49.324547 -0.695972 2.093987 0.022391 0.010549 -8050.660000 0 0 1
32.558550 -28.018946 -23.255232 48.845945 -0.710599 2.067003 0.012329 0.016283 12244.800000 0 0 1
32.033380 -29.322646 -23.370832 49.316841 -0.741246 2.064501 0.033075 0.008985 141683.000000 0 0 1
31.519260 -30.010346 -22.191132 48.852134 -0.760880 2.042328 0.040367 0.000961 455487.000000 0 0 1
32.531970 -30.141446 -20.975932 49.059409 -0.747274 2.012590 0.033969 0.003414 -900192.000000 0 0 1
33.568960 -30.996446 -21.321132 50.420684 -0.745576 2.007401 0.021247 0.000148 -547585.000000 0 0 1
34.622990 -30.933546 -20.396332 50.711400 -0.729179 1.984719 0.010568 0.005356 301094.000000 0 0 1
35.589620 -29.707346 -20.340532 50.624942 -0.695556 1.984266 0.015232 0.003752 -690307.000000 0 0 1
35.035550 -28.537146 -19.864932 49.360652 -0.683532 1.984982 0.021591 0.018158 -179972.000000 0 0 1
35.597580 -27.426446 -20.552632 49.414657 -0.656466 1.999753 0.014560 0.018457 337192.000000 0 0 1
34.812450 -26.109746 -20.125132 47.944202 -0.643509 2.003979 0.022338 0.024179 679264.000000 0 0 1
33.555170 -26.145946 -20.797932 47.350965 -0.661924 2.025537 0.026072 0.019683 232002.000000 0 0 1
32.545340 -25.516746 -20.017332 45.945588 -0.664931 2.021584 0.030793 0.014438 -366538.000000 0 0 1
31.287220 -25.199946 -20.807432 45.242421 -0.678049 2.048690 0.030240 0.006794 -333593.000000 0 0 1
30.534240 -26.379946 -21.088132 45.529668 -0.712535 2.052369 0.045075 0.008274 463236.000000 0 0 1
29.379410 -26.069146 -21.900332 44.970820 -0.725769 2.079436 0.052429 -0.004397 948371.000000 0 0 1
28.707020 -27.452246 -22.279832 45.542395 -0.763059 2.081981 0.057582 -0.005608 116228.000000 0 0 1
28.339660 -28.283346 -21.168332 45.289980 -0.784404 2.057139 0.065962 -0.008840 33813.600000 0 0 1
27.718480 -29.485646 -21.611532 45.877835 -0.816281 2.061296 0.063941 -0.009774 -212962.000000 0 0 1
27.134480 -30.279146 -20.406932 45.492302 -0.840116 2.035972 0.075972 -0.005821 36706.400000 0 0 1
28.017380 -30.857046 -19.450332 45.993981 -0.833593 2.007427 0.087905 -0.008534 -213584.000000 0 0 1
28.816060 -31.930946 -19.931532 47.404816 -0.836630 2.004742 0.089423 0.000362 -86357.900000 0 0 1
29.648780 -32.402246 -18.742832 47.751958 -0.829743 1.974149 0.079553 -0.007632 -451250.000000 0 0 1
28.946970 -32.934946 -17.663732 47.272034 -0.849754 1.953750 0.085769 -0.012484 -354639.000000 0 0 1
28.512010 -31.937946 -16.725332 45.964158 -0.842012 1.943224 0.080194 -0.019073 27850.500000 0 0 1
27.774180 -32.502346 -15.513432 45.480481 -0.863679 1.918884 0.084215 -0.017296 -897633.000000 0 0 1
26.490380 -32.932346 -15.774332 45.112185 -0.893386 1.928014 0.095702 -0.011843 -886852.000000 0 0 1
25.898880 -33.538946 -14.648032 44.835006 -0.913236 1.903616 0.081807 -0.013385 -53932.900000 0 0 1
24.411180 -33.932146 -14.760232 44.330133 -0.947161 1.910239 0.070172 0.000438 446294.000000 0 0 1
23.524080 -32.832446 -14.923732 43.058909 -0.949090 1.924728 0.076665 -0.002253 -109058.000000 0 0 1
22.460880 -32.858346 -14.010932 42.195595 -0.971185 1.909269 0.055935 0.003400 -318613.000000 0 0 1
-0.759374 -7.162146 -28.943382 29.826035 1.465165 2.897705 0.046898 -0.013737 128256.000000 0 0 1
-0.360974 -8.527246 -28.880642 30.115374 1.528490 2.854249 0.043996 -0.009678 74381.200000 0 0 1
-0.614374 -9.182846 -30.104772 31.480144 1.503991 2.844904 0.035882 -0.015809 -478267.000000 0 0 1
-0.312574 -10.678846 -30.044422 31.887345 1.541534 2.799949 0.034759 -0.013769 -269083.000000 0 0 1
1.034326 -10.993346 -29.822832 31.801334 -1.476986 2.786993 0.018187 -0.010056 -283482.000000 0 0 1
1.320526 -12.367846 -29.847442 32.335387 -1.464428 2.746753 0.019305 -0.013758 -531065.000000 0 0 1
2.623326 -12.684746 -29.125662 31.876148 -1.366862 2.723127 0.020161 -0.010964 -1395030.000000 0 0 1
3.738326 -12.493546 -29.996712 32.708814 -1.280055 2.731499 0.034854 -0.011771 791176.000000 0 0 1
5.007626 -12.661346 -29.342442 32.347565 -1.194171 2.707136 0.060172 -0.018818 794241.000000 0 0 1
5.265126 -14.133046 -28.830442 32.537040 -1.214184 2.659617 0.064945 -0.029581 -1876330.000000 0 0 1
4.733826 -14.465346 -27.544792 31.470160 -1.254528 2.636784 0.058454 -0.027884 -12643.800000 0 0 1
5.509826 -15.381946 -26.816172 31.401745 -1.226834 2.594366 0.077952 -0.038341 -442992.000000 0 0 1
5.287526 -16.888546 -27.150112 32.408479 -1.267380 2.563941 0.059050 -0.037650 -259233.000000 0 0 1
5.622126 -17.303146 -28.491862 33.805227 -1.256637 2.573306 0.062311 -0.042723 295834.000000 0 0 1
5.294426 -18.663746 -28.691132 34.634484 -1.294384 2.547038 0.056777 -0.043193 -448738.000000 0 0 1
5.595226 -19.227746 -30.099452 36.152314 -1.287619 2.554534 0.060163 -0.038054 -654932.000000 0 0 1
6.935726 -19.444746 -30.402812 36.749605 -1.228175 2.545074 0.055324 -0.036126 -461739.000000 0 0 1
7.027226 -20.095046 -31.679012 38.167429 -1.234389 2.549906 0.054641 -0.038358 151562.000000 0 0 1
8.441126 -20.050646 -32.320462 38.960150 -1.172327 2.549147 0.054812 -0.030078 246813.000000 0 0 1
8.769426 -18.739746 -32.754092 38.741599 -1.133109 2.578204 0.064294 -0.029914 -982280.000000 0 0 1
10.040526 -18.712146 -33.257002 39.458647 -1.078316 2.573320 0.047889 -0.025755 -1480820.000000 0 0 1
10.460126 -17.352046 -33.871522 39.468820 -1.028307 2.602518 0.059783 -0.021438 -210509.000000 0 0 1
9.665426 -16.984346 33.219266 38.540993 -1.053424 0.531751 0.065172 -0.025984 142796.000000 0 0 1
9.771026 -15.704746 32.783180 37.641053 -1.014234 0.513680 0.068724 -0.025215 -133186.000000 0 0 1
8.777126 -15.232146 31.687251 36.237247 -1.048043 0.506519 0.072193 -0.029390 -21155.700000 0 0 1
8.858226 -15.961046 30.489101 35.536016 -1.064130 0.539477 0.071485 -0.024082 496703.000000 0 0 1
7.907826 -15.495246 29.502771 34.249816 -1.098912 0.532778 0.074116 -0.020479 263537.000000 0 0 1
7.950526 -16.177346 28.113631 33.396012 -1.114004 0.570139 0.064182 -0.004148 -643573.000000 0 0 1
7.481826 -17.510846 28.086561 33.933205 -1.167006 0.595797 0.063784 -0.010459 239054.000000 0 0 1
7.947626 -18.316646 27.018591 33.595663 -1.161410 0.636420 0.053304 -0.009268 -18782.800000 0 0 1
7.412426 -19.736946 27.158261 34.381132 -1.211534 0.660122 0.053352 -0.019631 -38693.900000 0 0 1
7.999626 -20.302246 28.302761 35.738236 -1.195450 0.656806 0.052744 -0.017059 383341.000000 0 0 1
7.282526 -21.400846 28.817641 36.626327 -1.242797 0.665187 0.034483 -0.023650 -115946.000000 0 0 1
7.883626 -21.764446 30.203171 38.053570 -1.223272 0.653927 0.031436 -0.018692 54789.300000 0 0 1
7.386226 -20.973446 31.297051 38.392020 -1.232189 0.617727 0.047871 -0.017734 340872.000000 0 0 1
7.681926 -19.585446 31.334491 37.741913 -1.197009 0.591275 0.051295 -0.027254 -391431.000000 0 0 1
7.065026 -18.943446 32.558976 38.325653 -1.213821 0.555693 0.050560 -0.029326 938064.000000 0 0 1
5.621626 -19.042546 32.662645 38.223941 -1.283736 0.546194 0.055939 -0.035403 967177.000000 0 0 1
5.275126 -18.144746 33.655814 38.597572 -1.287871 0.511590 0.057766 -0.025678 -250.074000 0 0 1
3.790926 -18.150246 34.091478 38.807621 -1.364893 0.498138 0.047647 -0.028006 117792.000000 0 0 1
3.379426 -19.230346 -33.306762 38.607864 -1.396839 2.611369 0.036754 -0.034718 446125.000000 0 0 1
2.360026 -18.819446 -32.394312 37.538417 -1.446044 2.611904 0.035244 -0.045531 120367.000000 0 0 1
1.637826 -19.859746 -31.524102 37.294249 -1.488513 2.577886 0.051767 -0.036896 -946564.000000 0 0 1
0.977426 -20.854146 -32.254692 38.421556 -1.523961 2.567149 0.056920 -0.035874 -31088.800000 0 0 1
0.392626 -21.887646 -31.518042 38.374604 -1.552860 2.534527 0.064694 -0.033956 299284.000000 0 0 1
-0.627774 -21.499046 -30.391332 37.232193 1.541605 2.525712 0.068933 -0.039852 -234784.000000 0 0 1
-1.784074 -20.768746 -30.800582 37.191392 1.485105 2.546621 0.080437 -0.051090 408848.000000 0 0 1
-2.326974 -19.981046 -29.757462 35.918847 1.454860 2.547155 0.088708 -0.027947 -163204.000000 0 0 1
-1.783574 -18.503346 -29.690862 35.030020 1.474701 2.582211 0.063278 -0.018599 516407.000000 0 0 1
-2.734674 -17.533846 -29.192442 34.163034 1.416077 2.595391 0.075102 -0.028502 64801.700000 0 0 1
-2.196974 -16.229546 -29.287532 33.555691 1.436245 2.631714 0.069605 -0.026921 289806.000000 0 0 1
-3.167074 -14.982846 -29.212482 32.983104 1.362483 2.658753 0.066529 -0.013985 297577.000000 0 0 1
-3.515174 -14.669946 -27.873432 31.693722 1.335613 2.645528 0.065098 -0.023879 -74873.900000 0 0 1
-4.327174 -13.551846 -27.631692 31.078729 1.261724 2.666143 0.066980 -0.029704 -192892.000000 0 0 1
-4.435774 -13.221746 -26.103962 29.595735 1.247105 2.650923 0.063861 -0.026739 -543895.000000 0 0 1
-5.263974 -14.017446 -25.295812 29.395176 1.211561 2.607131 0.071935 -0.018319 149090.000000 0 0 1
-5.143974 -13.696146 -23.951032 28.065938 1.211519 2.593240 0.064009 -0.017213 -136502.000000 0 0 1
-6.221874 -12.662946 -23.518232 27.425703 1.114097 2.601236 0.058608 -0.015685 679198.000000 0 0 1
-7.511074 -13.310846 -23.487932 28.022809 1.057054 2.564719 0.053896 -0.017412 572489.000000 0 0 1
-8.537974 -12.341846 -23.312732 27.725470 0.965601 2.569633 0.058240 -0.020969 -347043.000000 0 0 1
-9.940174 -12.924146 -23.403432 28.522995 0.915172 2.533101 0.066931 -0.032048 -470547.000000 0 0 1
-10.300574 -13.753646 -22.304332 28.155778 0.927978 2.485163 0.065717 -0.029107 -741542.000000 0 0 1
-11.516774 -14.372446 -22.590532 29.146791 0.895258 2.457607 0.044523 -0.020486 -647306.000000 0 0 1
-12.028674 -15.012446 -21.322232 28.717593 0.895296 2.407561 0.046439 -0.014748 -120038.000000 0 0 1
-11.424574 -16.256846 -20.895832 28.834732 0.958224 2.381360 0.064867 -0.017050 -17914.700000 0 0 1
-11.997574 -17.488946 -21.408632 30.135271 0.969522 2.360888 0.044317 -0.011385 215846.000000 0 0 1
-12.231074 -17.791346 -22.919532 31.487079 0.968527 2.386055 0.028774 -0.002814 -31013.900000 0 0 1
-13.386174 -17.136746 -23.390432 31.936970 0.907663 2.392627 0.026864 -0.004991 -408405.000000 0 0 1
-13.797974 -17.673546 -24.612832 33.294592 0.907927 2.402744 0.014061 -0.010270 -289764.000000 0 0 1
-15.222274 -17.201946 -24.949732 33.913327 0.846378 2.397483 0.010103 -0.012408 -1206890.000000 0 0 1
-16.209274 -17.956246 -24.295432 34.284623 0.836486 2.358364 0.012953 -0.008625 401711.000000 0 0 1
-17.477074 -17.640546 -24.904432 35.169131 0.790053 2.357647 0.012566 -0.013906 1173370.000000 0 0 1
-18.248674 -16.280046 -24.523232 34.632975 0.728446 2.357585 0.019542 -0.014362 -100681.000000 0 0 1
-19.039774 -16.291046 -23.323532 34.233001 0.707755 2.320357 0.027735 -0.020036 317377.000000 0 0 1
-19.770974 -15.080346 -23.274832 34.059156 0.651612 2.323158 0.040876 -0.026719 -145934.000000 0 0 1
-20.511274 -14.925246 -21.969832 33.558142 0.629050 2.284555 0.045865 -0.037395 -369198.000000 0 0 1
-19.605574 -14.688946 -20.916332 32.212368 0.643004 2.277494 0.042912 -0.028268 -141007.000000 0 0 1
-20.122474 -14.836046 -19.630632 31.786537 0.635315 2.236455 0.049127 -0.034260 -617167.000000 0 0 1
-20.563374 -13.550146 -19.036232 31.126146 0.582638 2.228857 0.063863 -0.038548 59667.400000 0 0 1
-21.822674 -13.149646 -19.558632 32.119813 0.542306 2.225504 0.062995 -0.042509 60575.000000 0 0 1
-22.313174 -12.099146 -18.802032 31.587711 0.496868 2.208351 0.067959 -0.042958 -867339.000000 0 0 1
-23.779374 -11.737246 -18.888332 32.557498 0.458506 2.189713 0.087571 -0.036723 -855666.000000 0 0 1
-24.149274 -11.269146 -20.158832 33.414961 0.436610 2.218413 0.078219 -0.044532 -292444.000000 0 0 1
-25.530374 -11.020746 -20.176732 34.356330 0.407508 2.198489 0.078148 -0.040649 -288887.000000 0 0 1
-25.852274 -9.951746 -21.250732 34.913765 0.367462 2.225171 0.078092 -0.028759 -225408.000000 0 0 1
-25.944954 -10.479646 -22.555132 35.940195 0.383880 2.249230 0.059101 -0.030570 247183.000000 0 0 1
-26.685614 -9.602846 -23.362332 36.744186 0.345424 2.259854 0.052869 -0.022428 -407163.000000 0 0 1
-26.981044 -9.999546 -24.841132 38.013807 0.354920 2.282965 0.046553 -0.015736 166113.000000 0 0 1
-25.928564 -9.809546 -25.780852 37.857232 0.361687 2.319926 0.036701 -0.019126 279376.000000 0 0 1
-24.958374 -10.849446 -25.745132 37.462552 0.410059 2.328456 0.030648 -0.010682 267125.000000 0 0 1
-23.943474 -10.930546 -26.937642 37.661696 0.428258 2.367782 0.031987 -0.012246 241122.000000 0 0 1
-24.459874 -11.436446 -28.159972 39.013610 0.437360 2.377194 0.033877 -0.005533 -194863.000000 0 0 1
-23.580274 -11.293246 -29.257192 39.237100 0.446648 2.412308 0.023454 -0.008695 8465.270000 0 0 1
-24.106274 -11.812246 -30.660342 40.751665 0.455621 2.422449 0.027099 -0.008821 500266.000000 0 0 1
-25.000174 -10.808446 -31.217832 41.429268 0.408067 2.424198 0.021431 -0.004422 595868.000000 0 0 1
-24.289774 -9.742346 -31.860012 41.230654 0.381444 2.453922 0.018981 -0.008646 -220700.000000 0 0 1
-25.181034 -8.623146 -32.436152 41.958874 0.329929 2.454426 0.026668 -0.004733 190262.000000 0 0 1
-26.113854 -8.976846 -33.508932 43.420798 0.331103 2.452346 0.040346 -0.002944 2308620.000000 0 0 1
-27.384694 -9.620346 -33.214112 44.109521 0.337836 2.423393 0.040121 -0.005825 1262300.000000 0 0 1
-28.357624 -8.812746 -32.277892 43.859796 0.301310 2.397841 0.014917 0.005157 111025.000000 0 0 1
-29.700874 -9.290046 -32.264572 44.826884 0.303146 2.374252 0.024930 0.004091 272384.000000 0 0 1
-30.518814 -8.617746 -31.359622 44.599209 0.275210 2.350604 0.029991 0.005998 727871.000000 0 0 1
-32.009074 -9.105846 -31.359182 45.726312 0.277155 2.326501 0.045691 -0.005473 696999.000000 0 0 1
-32.091614 -10.432046 -30.864742 45.731079 0.314296 2.311650 0.038686 -0.005771 153796.000000 0 0 1
-33.433254 -10.855546 -30.754772 46.706331 0.313954 2.289582 0.036935 -0.002895 -56593.000000 0 0 1
-33.486484 -12.421546 -30.797942 47.160923 0.355208 2.282387 0.027786 -0.003617 -696348.000000 0 0 1
-34.742631 -12.887046 -31.155392 48.412652 0.355197 2.269908 0.012153 -0.001732 -487968.000000 0 0 1
-34.655462 -14.295246 -31.328892 48.855446 0.391232 2.266932 0.011405 -0.002518 42636.600000 0 0 1
-35.922620 -15.048946 -30.876402 49.701687 0.396715 2.241113 0.010203 -0.011871 62968.700000 0 0 1
-35.987203 -14.940746 -29.453632 48.844868 0.393514 2.218057 0.025987 -0.018720 104182.000000 0 0 1
-36.527304 -16.174946 -28.944282 49.331981 0.416865 2.197804 0.013701 -0.022214 -5515.660000 0 0 1
-36.568744 -16.223246 -27.425102 48.503639 0.417550 2.171743 0.040757 -0.013017 632049.000000 0 0 1
-35.241602 -16.210246 -26.884722 47.196726 0.431118 2.176853 0.030442 -0.026365 496487.000000 0 0 1
-35.142896 -15.986346 -25.496152 46.267053 0.426918 2.154436 0.059130 -0.022022 -869843.000000 0 0 1
-33.852064 -15.516546 -24.853832 44.770955 0.429787 2.159319 0.069675 -0.027630 -876450.000000 0 0 1
-32.849994 -16.501846 -24.958332 44.433674 0.465517 2.167234 0.065289 -0.027906 -641699.000000 0 0 1
-31.681004 -15.963146 -24.395732 43.054150 0.466740 2.173205 0.078087 -0.019781 -108412.000000 0 0 1
-30.372294 -16.680246 -24.801432 42.612415 0.502223 2.192011 0.060293 -0.023021 -72316.500000 0 0 1
-30.146824 -18.008446 -24.308432 42.708723 0.538475 2.176290 0.061285 -0.029570 -193252.000000 0 0 1
-31.061384 -19.025146 -24.692932 44.005757 0.549561 2.166546 0.054681 -0.032947 -54126.000000 0 0 1
-30.941644 -20.363246 -23.876432 44.069617 0.582061 2.143360 0.055616 -0.034565 73872.400000 0 0 1
-29.714864 -21.023446 -24.102832 43.656672 0.615746 2.155677 0.057478 -0.024173 -10219.100000 0 0 1
-29.661694 -22.140646 -23.178832 43.672447 0.641218 2.130273 0.058494 -0.018203 -428038.000000 0 0 1
-28.358384 -22.946846 -23.302532 43.286993 0.680309 2.139246 0.053208 -0.016403 607752.000000 0 0 1
-27.146474 -22.392046 -22.764832 41.911483 0.689717 2.144998 0.053437 -0.024813 495194.000000 0 0 1
-26.981484 -22.082546 -21.361332 40.889435 0.685880 2.120479 0.056806 -0.031494 -425881.000000 0 0 1
-26.848934 -23.380546 -20.461632 41.063288 0.716457 2.092427 0.043723 -0.023793 -76867.500000 0 0 1
-26.826334 -23.043546 -19.087032 40.186715 0.709690 2.065714 0.043794 -0.020506 -53522.500000 0 0 1
-26.858004 -24.149646 -18.216732 40.452529 0.732351 2.037924 0.031674 0.002180 -121246.000000 0 0 1
-26.823514 -23.644246 -16.726532 39.475666 0.722485 2.008342 0.026289 0.008558 296242.000000 0 0 1
-28.053754 -23.117946 -16.289532 39.834676 0.689240 1.992076 0.031518 -0.001457 -21356.600000 0 0 1
-27.724834 -21.927046 -15.549432 38.616663 0.669156 1.985219 0.041606 -0.009669 723228.000000 0 0 1
-28.968894 -21.144646 -15.016432 38.881694 0.630518 1.967314 0.057114 -0.004774 510125.000000 0 0 1
-29.781034 -20.532246 -15.981032 39.545879 0.603604 1.986806 0.058987 -0.004793 1272230.000000 0 0 1
-31.103784 -20.238246 -15.440032 40.192370 0.576845 1.965087 0.058390 -0.005391 1666090.000000 0 0 1
-32.122794 -19.517246 -16.373632 40.998691 0.545976 1.981626 0.064883 -0.018251 92675.300000 0 0 1
-32.916414 -20.323846 -17.181232 42.328995 0.553143 1.988757 0.051209 -0.016711 -585710.000000 0 0 1
-33.795154 -19.546646 -17.946032 42.967940 0.524375 2.001666 0.048832 -0.014793 22448.500000 0 0 1
-34.497957 -20.430246 -19.036932 44.383655 0.534676 2.014091 0.042586 -0.003062 1267350.000000 0 0 1
-35.623874 -21.269846 -18.660132 45.493596 0.538260 1.993437 0.038558 -0.000894 690129.000000 0 0 1
-35.299740 -22.266246 -17.701132 45.334175 0.562742 1.971926 0.048950 -0.002289 -600214.000000 0 0 1
-36.163574 -23.533946 -17.708532 46.639499 0.576912 1.960257 0.050247 0.004935 348113.000000 0 0 1
35.683380 -23.224746 -17.162732 45.904813 -0.576977 1.953981 0.053113 -0.002290 497318.000000 0 0 1
35.011920 -24.443246 -16.899832 45.922883 -0.609477 1.947658 0.049138 0.003404 68594.100000 0 0 1
33.637260 -24.337346 -16.215832 44.572692 -0.626340 1.943147 0.044848 0.001471 -123601.000000 0 0 1
32.503470 -24.142146 -17.003132 43.913839 -0.638849 1.968382 0.040033 0.004400 -679522.000000 0 0 1
31.341250 -24.485446 -16.304032 42.984096 -0.663205 1.959840 0.050718 0.002718 -266243.000000 0 0 1
30.100460 -24.542746 -17.210332 42.480344 -0.684038 1.987924 0.058330 -0.017674 -36259.400000 0 0 1
29.706810 -23.195546 -17.628832 41.608937 -0.662933 2.008299 0.041224 -0.002476 262596.000000 0 0 1
28.472030 -23.200146 -18.314332 41.040444 -0.683724 2.033368 0.053747 -0.006004 -190547.000000 0 0 1
34.691010 29.014754 -17.806332 48.604399 0.696532 1.945882 0.025652 -0.013859 -728423.000000 0 0 1
33.993600 29.240654 -19.043232 48.715761 0.710375 1.972411 0.014407 -0.017056 217873.000000 0 0 1
34.587070 28.593154 -20.134332 49.185620 0.690811 1.992542 0.007277 -0.014965 -132069.000000 0 0 1
33.722320 28.748054 -21.396732 49.208390 0.705940 2.020633 0.021443 -0.014969 -547586.000000 0 0 1
32.531380 28.012054 -21.313832 47.929587 0.710890 2.031625 0.017084 -0.006275 216415.000000 0 0 1
31.672730 28.067754 -22.465732 47.913148 0.725127 2.058824 0.037099 -0.001359 460012.000000 0 0 1
30.668960 29.255254 -22.436532 47.956782 0.761811 2.057652 0.045455 -0.007954 -553967.000000 0 0 1
31.296790 30.507154 -22.484732 49.150165 0.772622 2.045944 0.050151 -0.004381 65549.600000 0 0 1
30.339250 31.517354 -22.726732 49.298256 0.804442 2.049923 0.053741 0.000491 272987.000000 0 0 1
30.973530 32.964654 -22.453532 50.499397 0.816529 2.031557 0.047200 0.002678 440048.000000 0 0 1
31.394960 33.198854 -21.121232 50.337996 0.813318 2.003788 0.053608 -0.001032 -269669.000000 0 0 1
32.715760 32.853054 -20.797232 50.815047 0.787492 1.992454 0.058210 -0.002019 -487819.000000 0 0 1
32.958960 32.911654 -19.303232 50.419091 0.784680 1.963682 0.044236 -0.009371 -161838.000000 0 0 1
33.028860 -33.982546 -18.714332 50.950420 -0.799629 1.946906 0.053460 -0.009776 51266.300000 0 0 1
33.005640 34.018254 -17.338632 50.470209 0.800505 1.921482 0.039308 -0.025739 -308522.000000 0 0 1
32.961450 -32.870846 -16.543132 49.402681 -0.784022 1.912256 0.043528 -0.018646 106246.000000 0 0 1
34.116000 -32.089846 -16.724332 49.732916 -0.754804 1.913764 0.047805 -0.008005 -156588.000000 0 0 1
35.265920 -32.345246 -15.950332 50.441185 -0.742227 1.892535 0.044635 -0.010639 -415475.000000 0 0 1
36.393400 -31.403246 -16.324932 50.765607 -0.711926 1.898188 0.036636 0.004729 -352926.000000 0 0 1
-36.094874 -31.796146 -17.525332 51.195431 0.722165 1.920184 0.026384 0.005280 -23253.400000 0 0 1
-34.918160 -31.008146 -17.700532 49.940884 0.726159 1.933100 0.022570 0.008407 116760.000000 0 0 1
-33.868504 -31.547046 -18.650132 49.901093 0.749925 1.953836 0.024079 0.001628 -1607110.000000 0 0 1
-33.224854 -32.679646 -18.100132 49.994650 0.777126 1.941253 0.023152 -0.003986 -79519.500000 0 0 1
-32.246374 -33.283446 -18.903132 50.049424 0.801223 1.958096 0.026461 -0.001423 -734739.000000 0 0 1
-31.023384 -32.482846 -19.216232 48.855391 0.808376 1.975046 0.018943 0.000059 -2466660.000000 0 0 1
-31.199174 -31.650146 -20.365432 48.886307 0.792573 2.000485 0.020523 0.002939 171216.000000 0 0 1
-29.976284 -31.187246 -20.925332 48.053007 0.805194 2.021349 0.025712 0.004229 28474.500000 0 0 1
-29.125974 -32.241246 -21.631932 48.536180 0.836119 2.032738 0.023022 0.015775 -721143.000000 0 0 1
-29.765014 -32.991946 -22.644832 49.871966 0.836772 2.042112 0.020188 0.017169 -387123.000000 0 0 1
-28.920174 -33.966446 -23.215032 50.289498 0.865471 2.050626 0.013098 0.008165 -366594.000000 0 0 1
-29.528954 33.402454 -24.388332 50.818046 -0.846872 2.071354 0.005240 -0.004017 12793.800000 0 0 1
-30.539194 32.472954 -23.985532 50.620558 -0.816077 2.064431 -0.001410 -0.016719 87855.900000 0 0 1
-31.126814 31.769054 -25.048632 51.044934 -0.795609 2.083709 -0.002946 -0.009424 428342.000000 0 0 1
-32.120614 32.449354 -26.049312 52.566730 -0.790489 2.089261 0.013831 -0.025188 -305784.000000 0 0 1
-31.605704 33.440254 -26.951012 53.324743 -0.813595 2.100657 0.011162 -0.027354 -439635.000000 0 0 1
-32.612844 -34.067946 -27.663062 54.676024 0.807217 2.101274 0.015594 -0.034612 -44374.700000 0 0 1
-32.077134 -33.214146 -28.886692 54.466164 0.802811 2.129822 0.017738 -0.030516 301657.000000 0 0 1
-31.668694 -33.943746 -30.071662 55.311743 0.820058 2.145607 0.017757 -0.026365 371683.000000 0 0 1
-32.696404 -33.895146 -31.051602 56.410440 0.803398 2.153710 0.031385 -0.023119 140707.000000 0 0 1
-32.471864 33.349154 -32.241122 56.622239 -0.798726 2.176581 0.042608 -0.023062 -566150.000000 0 0 1
-31.495564 33.725854 -33.151102 56.819005 -0.819581 2.193768 0.031502 -0.028428 -526171.000000 0 0 1
-31.685104 33.077254 33.841819 56.950147 -0.806891 0.934481 0.040391 -0.044706 -565634.000000 0 0 1
-30.640844 33.435554 32.767970 55.951206 -0.828986 0.945111 0.046979 -0.040526 -78011.800000 0 0 1
-29.351204 32.938554 33.040877 55.119335 -0.842926 0.927992 0.052746 -0.036935 -184648.000000 0 0 1
-29.235344 31.615354 32.516186 53.958672 -0.824491 0.924025 0.055283 -0.038763 -1662080.000000 0 0 1
-27.869394 31.063254 32.723055 53.032322 -0.839540 0.905821 0.059910 -0.034398 -1383790.000000 0 0 1
-27.478264 30.915054 34.089051 53.599057 -0.844186 0.881491 0.070955 -0.043392 411945.000000 0 0 1
-26.085254 30.656254 -33.956722 52.662182 -0.865783 2.271562 0.074119 -0.037392 153624.000000 0 0 1
-25.685304 29.218654 -33.975732 51.650895 -0.849665 2.288685 0.094900 -0.038507 -518371.000000 0 0 1
-26.154104 28.490354 -32.865362 50.753024 -0.828126 2.275167 0.091072 -0.034393 30439.100000 0 0 1
-25.906054 27.130554 -33.125772 50.045054 -0.808482 2.294172 0.088727 -0.025181 -586702.000000 0 0 1
-25.546694 26.237154 -31.862312 48.541001 -0.798731 2.286833 0.105665 -0.026246 2022180.000000 0 0 1
-24.218174 26.450554 -31.219702 47.548097 -0.829428 2.287088 0.091714 -0.024144 2057140.000000 0 0 1
-23.966474 27.772854 -30.654382 47.806009 -0.858834 2.266889 0.061021 -0.022851 -769859.000000 0 0 1
-22.675274 27.890354 -29.884612 46.745374 -0.888170 2.264392 0.100002 -0.020396 -25385.400000 0 0 1
-21.451474 28.001254 -30.654992 46.732906 -0.917077 2.286252 0.108966 -0.016967 1324200.000000 0 0 1
-20.274574 28.074254 -29.836272 45.710231 -0.945341 2.281974 0.068770 -0.011221 568867.000000 0 0 1
-20.042974 29.315154 -28.939792 45.810595 -0.971089 2.254575 0.048017 -0.015179 -970535.000000 0 0 1
-19.714674 30.485354 -29.653862 46.876185 -0.996749 2.255702 0.046126 -0.006124 147316.000000 0 0 1
-19.440374 31.557454 -28.767982 46.919056 -1.018673 2.230826 0.054388 -0.009829 -41224.700000 0 0 1
-19.131074 32.905754 -29.434842 48.116490 -1.044173 2.229056 0.041625 -0.001029 1289000.000000 0 0 1
-17.846974 32.855754 -30.135722 48.022670 -1.073195 2.249175 0.029157 0.005284 1074560.000000 0 0 1
-17.637874 34.074054 -30.825982 49.217649 -1.093142 2.247620 0.037185 0.002618 -363991.000000 0 0 1
-16.212374 -34.002846 -31.384482 49.030810 1.125885 2.265421 0.017163 0.012812 19554.500000 0 0 1
-15.252774 -33.729246 -30.363332 47.877355 1.146104 2.257757 0.035061 -0.001889 -520745.000000 0 0 1
-13.911874 -33.891646 -30.675772 47.782705 1.181287 2.267881 0.052843 0.005522 -332917.000000 0 0 1
-13.284274 32.909954 -30.647462 46.891406 -1.187143 2.283106 0.050366 0.002753 -819083.000000 0 0 1
-13.145974 32.314954 -29.379922 45.609788 -1.184435 2.270719 0.060187 -0.006088 -107200.000000 0 0 1
-12.631974 31.023254 -29.429722 44.588312 -1.184118 2.291658 0.052356 -0.001886 -120945.000000 0 0 1
-12.570074 30.401754 -28.017252 43.211571 -1.178736 2.276243 0.046792 -0.016471 -139000.000000 0 0 1
-11.540174 30.997954 -27.267172 42.866624 -1.214405 2.260221 0.053631 -0.015797 -178867.000000 0 0 1
-11.370374 30.419254 -25.976592 41.586053 -1.213088 2.245475 0.045345 -0.026321 21683.500000 0 0 1
-10.103574 30.941754 -25.263422 41.203335 -1.255176 2.230826 0.057540 -0.025961 92379.500000 0 0 1
-8.941574 30.402654 -25.839772 40.889692 -1.284756 2.254848 0.057218 -0.018493 -918766.000000 0 0 1
-7.793674 30.778554 -25.145302 40.501197 -1.322792 2.240627 0.065533 -0.019039 -558868.000000 0 0 1
-6.529874 30.067054 -25.610122 40.031804 -1.356940 2.264962 0.047421 -0.019632 -474786.000000 0 0 1
-6.398074 28.777054 -25.126932 38.735215 -1.352022 2.276651 0.049316 -0.032375 -441267.000000 0 0 1
-5.243474 28.208454 -25.668362 38.497737 -1.387011 2.300636 0.045936 -0.036860 -528234.000000 0 0 1
-4.797874 26.963654 -24.963132 37.056932 -1.394701 2.309923 0.062542 -0.028487 -252805.000000 0 0 1
-5.541774 25.774654 -25.223802 36.486768 -1.359012 2.334102 0.071282 -0.024222 380322.000000 0 0 1
-5.218974 24.827054 -24.179432 35.046615 -1.363600 2.332178 0.073419 -0.036755 -323564.000000 0 0 1
-6.122574 23.588254 -24.275232 34.397362 -1.316840 2.354249 0.071780 -0.035728 -149869.000000 0 0 1
-5.972274 22.691754 -25.384272 34.567977 -1.313441 2.395474 0.068854 -0.031027 1346360.000000 0 0 1
-7.019374 21.622054 -25.354422 34.053363 -1.256890 2.410656 0.072432 -0.035880 1008800.000000 0 0 1
-7.027274 20.647254 -26.601732 34.399765 -1.242745 2.454844 0.071639 -0.029935 33073.300000 0 0 1
-5.813474 19.928354 -26.725352 33.840512 -1.286954 2.481188 0.083726 -0.032312 -94200.000000 0 0 1
-5.524274 19.037954 -25.669412 32.432700 -1.288381 2.484002 0.074158 -0.035374 -278834.000000 0 0 1
-4.247974 18.200554 -25.936292 31.968683 -1.341503 2.517174 0.073737 -0.044275 134316.000000 0 0 1
-4.287174 17.500754 -27.201372 32.627763 -1.330557 2.556549 0.070638 -0.040461 209705.000000 0 0 1
-3.193274 16.569454 -27.249082 32.050839 -1.380410 2.587129 0.067444 -0.039938 179672.000000 0 0 1
-2.796574 16.284254 -28.678692 33.097812 -1.400721 2.618910 0.073987 -0.032442 -244560.000000 0 0 1
-1.873174 17.169254 -29.241922 33.961479 -1.462126 2.608092 0.069105 -0.037395 -35943.000000 0 0 1
-1.489374 16.861054 -30.579882 34.952004 -1.482693 2.636048 0.064497 -0.044644 -84089.000000 0 0 1
-0.738674 17.887454 -31.388962 36.135490 -1.529524 2.623260 0.068180 -0.015759 3194.930000 0 0 1
0.644826 18.069554 -31.150792 36.018002 1.535126 2.615682 0.065205 -0.024517 394384.000000 0 0 1
1.298126 19.192954 -31.752542 37.125174 1.503264 2.596894 0.053022 -0.014934 115456.000000 0 0 1
0.883126 20.570954 -31.282672 37.450629 1.527892 2.559482 0.063369 -0.020488 -434089.000000 0 0 1
1.482626 20.979754 -30.097512 36.717959 1.500244 2.531674 0.081313 -0.030256 -116572.000000 0 0 1
0.827826 22.092554 -29.459122 36.832134 1.533343 2.497794 0.088753 -0.033980 97060.000000 0 0 1
1.413626 22.539954 -28.080832 36.035829 1.508162 2.464261 0.089046 -0.035571 1048020.000000 0 0 1
2.564026 23.405254 -28.093432 36.655437 1.461682 2.444044 0.082664 -0.035330 1059530.000000 0 0 1
3.814126 22.778154 -27.748062 36.101895 1.404889 2.447452 0.098413 -0.036323 763661.000000 0 0 1
4.934926 23.770654 -27.408622 36.614615 1.366098 2.416700 0.105408 -0.040003 -169308.000000 0 0 1
5.463326 24.388654 -28.572352 37.960950 1.350423 2.422916 0.089530 -0.042943 11041.600000 0 0 1
5.855226 25.698854 -28.169242 38.577467 1.346780 2.389410 0.097375 -0.050557 -131475.000000 0 0 1
6.685626 26.496354 -29.193272 39.987517 1.323633 2.389206 0.101391 -0.043187 -949273.000000 0 0 1
7.988826 26.068154 -29.289582 40.015617 1.273424 2.391981 0.098735 -0.040961 -773597.000000 0 0 1
8.780226 26.994154 -30.069782 41.351766 1.256326 2.384987 0.096386 -0.038610 571667.000000 0 0 1
10.300126 26.853954 -29.816182 41.427433 1.204541 2.374196 0.083251 -0.036721 -297429.000000 0 0 1
11.100026 27.659354 -30.575342 42.697798 1.189160 2.368977 0.086013 -0.035994 -582608.000000 0 0 1
12.394426 27.733354 -30.023662 42.710432 1.150512 2.350345 0.079506 -0.041129 -198355.000000 0 0 1
13.320126 28.684554 -30.788112 44.137708 1.136060 2.342764 0.082895 -0.048652 -515337.000000 0 0 1
12.959926 30.055854 -30.752862 44.911608 1.163690 2.325046 0.096007 -0.044540 356046.000000 0 0 1
13.836326 30.832254 -31.568642 46.245551 1.148973 2.322153 0.134178 -0.051131 131386.000000 0 0 1
13.591226 32.356254 -31.428792 47.110695 1.173126 2.301141 0.135343 -0.053570 52503.000000 0 0 1
12.361926 32.751054 -31.986142 47.419005 1.209878 2.311141 0.109086 -0.052406 -13227.800000 0 0 1
11.904426 34.084954 -31.728982 48.064829 1.234783 2.291787 0.098588 -0.043578 149914.000000 0 0 1
10.508926 -33.803746 -32.342552 47.949676 -1.269388 2.311098 0.065640 -0.032820 139363.000000 0 0 1
10.568426 -33.496446 -33.701912 48.677740 -1.265173 2.335534 0.069454 -0.015979 968577.000000 0 0 1
9.245026 -33.154046 34.068153 48.428301 -1.298854 0.790520 0.086153 -0.022711 925142.000000 0 0 1
9.309326 -32.604346 32.598634 47.035921 -1.292673 0.805073 0.084612 -0.017599 -47896.600000 0 0 1
9.121026 -31.208946 32.508994 45.978540 -1.286458 0.785483 0.074119 -0.024680 114849.000000 0 0 1
9.326726 -30.779246 31.174231 44.790428 -1.276571 0.800982 0.092762 -0.023903 -660498.000000 0 0 1
8.792326 -29.359746 30.819791 43.464459 -1.279827 0.782603 0.083141 -0.040782 558323.000000 0 0 1
7.378726 -29.246246 30.719981 43.052360 -1.323657 0.776245 0.054973 -0.020716 589051.000000 0 0 1
6.615026 -29.276346 31.917341 43.813008 -1.348577 0.754681 0.048598 -0.008839 438038.000000 0 0 1
5.075326 -29.050546 31.687721 43.287467 -1.397835 0.749500 0.042870 -0.014573 799422.000000 0 0 1
4.335526 -30.110946 31.081111 43.491394 -1.427794 0.774673 0.064812 -0.020867 217712.000000 0 0 1
4.339826 -30.320146 29.687971 42.655843 -1.428629 0.801001 0.082144 -0.029470 -376365.000000 0 0 1
3.839826 -29.157846 28.754001 41.130485 -1.439859 0.796669 0.038433 -0.032788 468291.000000 0 0 1
2.435726 -28.958746 28.981601 41.042355 -1.486884 0.786766 0.066516 -0.034820 775810.000000 0 0 1
1.914526 -28.194846 27.884191 39.700666 -1.502997 0.792088 0.075508 -0.044309 85537.000000 0 0 1
0.651826 -28.895246 27.288021 39.749166 -1.548242 0.814124 0.068907 -0.043181 -34668.700000 0 0 1
0.826926 -30.184146 26.746451 40.337813 -1.543407 0.845895 0.075189 -0.046217 85336.400000 0 0 1
0.622726 -31.205246 27.766321 41.774678 -1.550843 0.843746 0.099233 -0.051856 -736651.000000 0 0 1
0.931526 -32.669046 27.422771 42.663130 -1.542290 0.872682 0.099971 -0.045188 936706.000000 0 0 1
2.334426 -32.986846 27.285851 42.873059 -1.500146 0.880931 0.092848 -0.041124 1181770.000000 0 0 1
2.894826 -32.555446 26.059741 41.801282 -1.482110 0.897688 0.090921 -0.049993 -450177.000000 0 0 1
4.439026 -32.512146 26.056021 41.900606 -1.435101 0.899690 0.107218 -0.033071 -110500.000000 0 0 1
4.955626 -32.340746 24.794251 41.051638 -1.418747 0.922314 0.091241 -0.047598 1128030.000000 0 0 1
6.389526 -32.160746 24.954951 41.205451 -1.374675 0.920248 0.078423 -0.043160 1013610.000000 0 0 1
7.193826 -31.952746 23.667121 40.408684 -1.349349 0.945060 0.070698 -0.037616 455768.000000 0 0 1
8.572426 -31.685846 23.933071 40.623530 -1.306577 0.940798 0.076768 -0.027845 705900.000000 0 0 1
9.331626 -31.480946 22.766571 39.955550 -1.282626 0.964537 0.054682 -0.024771 653382.000000 0 0 1
10.438426 -30.363046 22.878471 39.424608 -1.239667 0.951688 0.049471 -0.016698 1005400.000000 0 0 1
11.636226 -30.684846 23.593351 40.417914 -1.208333 0.947475 0.062533 -0.022843 293043.000000 0 0 1
12.605726 -29.696146 23.380031 39.842079 -1.169357 0.943673 0.059050 -0.020122 -240379.000000 0 0 1
13.867626 -29.990546 24.207441 40.960275 -1.137679 0.938501 0.087698 -0.026424 -264701.000000 0 0 1
13.677726 -29.697446 25.591891 41.520638 -1.139188 0.906677 0.084089 -0.024836 -346959.000000 0 0 1
14.898926 -29.704946 26.241501 42.343573 -1.105898 0.902400 0.089975 -0.032632 -960850.000000 0 0 1
-11.138974 -14.009546 25.548351 31.193948 0.899051 0.611102 0.068023 -0.032243 -879816.000000 0 0 1
-9.770474 -14.067546 25.354341 30.597396 0.963744 0.594116 0.062835 -0.029330 -1402770.000000 0 0 1
-9.150874 -14.409946 26.544841 31.559684 1.005011 0.571483 0.055995 -0.033045 170130.000000 0 0 1
-7.593974 -14.302346 26.541881 31.091751 1.082689 0.547818 0.081151 -0.027887 677253.000000 0 0 1
-6.946674 -15.185446 25.617971 30.579969 1.141759 0.577671 0.074638 -0.034039 52841.300000 0 0 1
-7.058574 -14.860746 24.221581 29.280544 1.127363 0.596647 0.074223 -0.031469 -582986.000000 0 0 1
-6.311774 -15.866246 23.261711 28.856255 1.192178 0.633224 0.065388 -0.035514 195854.000000 0 0 1
-6.824674 -17.194846 23.078371 29.577866 1.192963 0.675718 0.068319 -0.032624 -403409.000000 0 0 1
-7.118474 -17.906446 24.222751 30.952466 1.192415 0.671999 0.071302 -0.030039 -259632.000000 0 0 1
-7.721374 -19.347446 23.962501 31.751295 1.191075 0.715609 0.060876 -0.030388 -394997.000000 0 0 1
-9.044774 -19.230046 23.511791 31.692380 1.131152 0.734934 0.058390 -0.029959 -202493.000000 0 0 1
-9.597174 -20.536046 23.132671 32.387581 1.133622 0.775251 0.059873 -0.026761 484817.000000 0 0 1
-11.141374 -20.651446 23.172971 32.978767 1.076053 0.791663 0.072538 -0.031840 163434.000000 0 0 1
-11.627674 -20.641446 24.494011 34.076806 1.057787 0.768738 0.079454 -0.028898 -1420280.000000 0 0 1
-12.993374 -20.658446 24.507821 34.586594 1.009353 0.783294 0.096593 -0.022843 -1015320.000000 0 0 1
-13.660374 -20.558646 25.966591 35.826354 0.984324 0.760066 0.095617 -0.025901 -154989.000000 0 0 1
-13.396574 -21.685346 26.815101 36.996920 1.017412 0.760063 0.094283 -0.020459 407904.000000 0 0 1
-12.303574 -21.407446 27.688181 37.098411 1.049162 0.728244 0.092135 -0.019346 122605.000000 0 0 1
-11.941874 -22.687846 28.441041 38.291507 1.086287 0.733627 0.098274 -0.014332 583458.000000 0 0 1
-12.937274 -23.202146 29.363381 39.596980 1.062145 0.735410 0.097981 -0.017623 604627.000000 0 0 1
-12.450074 -24.391046 29.945751 40.579250 1.098835 0.740758 0.093519 -0.012634 -104042.000000 0 0 1
-13.470874 -25.136706 30.826861 41.995402 1.078839 0.746525 0.085320 -0.021492 157104.000000 0 0 1
-13.450474 -24.730446 32.180991 42.756595 1.072661 0.718710 0.077992 -0.018914 741904.000000 0 0 1
-14.690074 -25.166586 32.788373 43.866077 1.042438 0.726558 0.074856 -0.025312 639436.000000 0 0 1
-14.840074 -24.849046 -33.872142 44.553619 1.032432 2.434503 0.068148 -0.021604 17475.600000 0 0 1
-14.910974 -23.433846 -33.482452 43.503528 1.004112 2.449088 0.069572 -0.020536 165606.000000 0 0 1
-16.025074 -22.752546 -34.047496 43.974008 0.957177 2.456348 0.060971 -0.022528 -215337.000000 0 0 1
-15.959474 -21.238346 -33.783962 42.978230 0.926370 2.475224 0.047702 -0.012840 -84146.700000 0 0 1
-16.417474 -20.880246 -32.529012 41.995890 0.904485 2.456841 0.047752 -0.012982 40703.100000 0 0 1
-16.430074 -19.489046 -32.330692 41.170911 0.870356 2.473945 0.037257 -0.015613 -187002.000000 0 0 1
-16.460274 -19.001146 -30.903982 39.837675 0.856928 2.458695 0.034637 -0.008369 -671481.000000 0 0 1
-17.626174 -19.389446 -30.265952 40.033243 0.832998 2.428008 0.034167 -0.003658 -524257.000000 0 0 1
-17.676474 -19.088746 -28.857322 38.853353 0.823793 2.407926 0.028741 -0.014226 293487.000000 0 0 1
-16.790974 -19.990646 -27.930472 38.231846 0.872171 2.389931 0.021934 -0.005730 -230616.000000 0 0 1
-15.418374 -20.038546 -28.152142 37.839301 0.914972 2.409822 0.016856 -0.005592 -568653.000000 0 0 1
-14.818774 -20.889346 -27.193362 37.355586 0.953794 2.386138 0.003372 0.000353 193627.000000 0 0 1
-13.300174 -21.124946 -27.352332 37.031177 1.008899 2.401832 0.019704 -0.011514 -172112.000000 0 0 1
-12.531474 -20.097746 -26.768872 35.742549 1.013257 2.417251 0.016673 -0.015975 283830.000000 0 0 1
-11.123474 -20.135446 -26.948632 35.431577 1.066088 2.435006 0.010520 -0.026087 600163.000000 0 0 1
-10.366974 -21.100346 -26.006092 35.057319 1.114119 2.406571 0.027968 -0.014420 -619459.000000 0 0 1
-10.430774 -22.469646 -26.342222 36.160735 1.136183 2.386891 0.031070 -0.016077 46472.400000 0 0 1
-10.013074 -23.296246 -25.268802 35.797893 1.164854 2.354453 0.059374 -0.012456 -81722.300000 0 0 1
-10.010674 -24.785946 -25.527552 36.962314 1.186945 2.333166 0.055167 -0.011147 270231.000000 0 0 1
-8.992074 -25.163516 -26.440022 37.591684 1.227593 2.350892 0.062311 -0.018357 377819.000000 0 0 1
-9.522374 -26.207866 -27.246492 38.985885 1.222287 2.344628 0.063623 -0.021843 143335.000000 0 0 1
-9.306274 -27.677306 -26.759972 39.607274 1.246430 2.312619 0.086523 -0.016947 -221362.000000 0 0 1
-10.182974 -28.028576 -25.715992 39.377739 1.222316 2.282413 0.069311 -0.023410 -26538.900000 0 0 1
-9.831574 -29.209736 -24.977932 39.670715 1.246122 2.251875 0.095735 -0.020200 219404.000000 0 0 1
-10.667874 -29.371226 -23.615932 39.168670 1.222403 2.217964 0.095073 -0.023829 439435.000000 0 0 1
-10.587874 -28.315586 -22.655632 37.777681 1.212969 2.213934 0.077317 -0.027571 -147461.000000 0 0 1
-11.507174 -27.267466 -22.927432 37.437908 1.171460 2.229905 0.063705 -0.021541 39839.300000 0 0 1
-11.395274 -26.165376 -21.951232 36.004663 1.160058 2.226450 0.072998 -0.020958 -108717.000000 0 0 1
-12.095474 -26.453106 -20.783832 35.749616 1.141936 2.191210 0.056075 -0.019509 45361.900000 0 0 1
-12.179874 -25.263916 -20.021432 34.459724 1.121566 2.190765 0.047751 -0.011156 -616130.000000 0 0 1
-12.765374 -25.508476 -18.626032 34.067084 1.106800 2.149269 0.064047 -0.016216 1003540.000000 0 0 1
-14.169374 -25.862186 -18.665832 34.900389 1.069582 2.135105 0.080396 -0.020906 1043980.000000 0 0 1
-14.509674 -26.362956 -17.339432 34.730275 1.067661 2.093541 0.071627 -0.016448 107880.000000 0 0 1
-16.011274 -26.506166 -17.024532 35.337975 1.027398 2.073462 0.077396 -0.020655 -720224.000000 0 0 1
-16.791574 -25.339726 -16.981732 34.820079 0.985574 2.080249 0.058274 -0.010063 1212830.000000 0 0 1
-18.142774 -25.543336 -16.485132 35.403134 0.953208 2.055155 0.074482 -0.010567 1019210.000000 0 0 1
-19.162674 -26.183506 -17.428732 36.831302 0.939006 2.063721 0.065286 -0.007434 -1209850.000000 0 0 1
-19.011074 -27.527596 -17.772532 37.882086 0.966394 2.059129 0.075995 -0.020255 -102958.000000 0 0 1
-19.310474 -28.416126 -16.691132 38.196394 0.973920 2.023037 0.078881 -0.021701 -321627.000000 0 0 1
-20.804874 -28.804276 -16.551932 39.198158 0.945271 2.006737 0.067251 -0.016404 81966.700000 0 0 1
-21.283374 -29.449596 -17.706632 40.420113 0.944994 2.024241 0.061493 -0.010312 -618573.000000 0 0 1
-22.545374 -29.985796 -17.438832 41.370941 0.926100 2.005921 0.058579 -0.003544 -575937.000000 0 0 1
-23.003574 -31.039806 -18.428732 42.804815 0.933016 2.015876 0.037946 -0.001142 -115557.000000 0 0 1
-22.373874 -32.289226 -18.412832 43.384522 0.964837 2.009107 0.042473 -0.007427 -34841.700000 0 0 1
-22.949374 -33.106206 -19.443032 44.729478 0.964646 2.020480 0.035016 0.010935 342355.000000 0 0 1
-22.346774 33.664642 -19.455232 44.846321 -0.984777 2.019525 0.035844 0.001123 322089.000000 0 0 1
-22.998274 32.887877 -18.445432 44.167489 -0.960545 2.001626 0.033749 -0.001511 129770.000000 0 0 1
-22.240474 31.749363 -18.180032 42.815585 -0.959734 2.009330 0.039556 -0.009001 -316213.000000 0 0 1
-23.119174 30.557543 -17.907132 42.295686 -0.923098 2.007969 0.038483 -0.012713 -208098.000000 0 0 1
-23.885474 30.534043 -16.723932 42.220062 -0.906968 1.978076 0.027702 -0.014458 41676.000000 0 0 1
-24.588774 29.295843 -16.468832 41.642247 -0.872532 1.977391 0.028983 -0.010111 -241703.000000 0 0 1
-23.822074 28.021293 -16.176532 40.179153 -0.866220 1.985163 0.030386 -0.017647 -576744.000000 0 0 1
-23.054074 27.554823 -17.249932 39.853717 -0.874097 2.018427 0.024094 -0.015540 208375.000000 0 0 1
-22.509574 26.219813 -17.056832 38.536931 -0.861391 2.029304 0.017667 -0.010340 -64992.500000 0 0 1
-21.772674 25.761623 -18.277132 38.363578 -0.869119 2.067373 0.037381 -0.002604 -734443.000000 0 0 1
-21.485174 24.338263 -18.298932 37.266804 -0.847581 2.084062 0.043360 -0.012680 309295.000000 0 0 1
-20.711874 23.856233 -19.389032 37.067994 -0.855833 2.121241 0.045937 -0.006466 93931.700000 0 0 1
-19.264774 24.340633 -19.611532 36.717981 -0.901281 2.134254 0.050323 -0.010851 -660697.000000 0 0 1
-18.513474 24.015683 -18.458432 35.499514 -0.914058 2.117604 0.068116 -0.010981 95106.100000 0 0 1
-17.220374 24.592803 -18.392232 35.208259 -0.959923 2.120441 0.085212 -0.025170 260990.000000 0 0 1
-17.150874 25.944723 -17.654432 35.762552 -0.986689 2.087086 0.093859 -0.031750 82053.400000 0 0 1
-18.036474 26.955143 -18.176132 37.178837 -0.981091 2.081606 0.080813 -0.031219 369478.000000 0 0 1
-17.946174 28.151413 -17.441832 37.666759 -1.003268 2.052237 0.093433 -0.040767 -269160.000000 0 0 1
-19.112374 29.096213 -17.770732 39.085437 -0.989608 2.042791 0.088605 -0.038534 -188305.000000 0 0 1
-19.074974 29.804923 -19.024032 40.175887 -1.001487 2.064078 0.094969 -0.042452 -46266.600000 0 0 1
-19.547174 28.982573 -20.044932 40.297406 -0.977428 2.091424 0.062355 -0.030151 -323546.000000 0 0 1
-19.303374 29.500203 -21.482932 41.284363 -0.991371 2.118075 0.067271 -0.035520 -91208.300000 0 0 1
-20.182474 30.564063 -21.675532 42.559640 -0.987191 2.105165 0.066185 -0.033042 -81113.100000 0 0 1
-20.314474 30.855353 -23.065232 43.551529 -0.988554 2.128935 0.066352 -0.032426 244644.000000 0 0 1
-21.035174 32.168057 -23.437232 45.017400 -0.991674 2.118380 0.059309 -0.020533 303028.000000 0 0 1
-20.127774 33.230486 -23.229432 45.265871 -1.026195 2.109679 0.048143 -0.013085 237525.000000 0 0 1
-20.500374 -33.912976 -24.099932 46.380621 1.027075 2.117193 0.043176 -0.003600 477647.000000 0 0 1
-19.472174 -32.714156 -24.023832 45.016954 1.033898 2.133721 0.057021 -0.002642 535752.000000 0 0 1
-19.280474 -31.871306 -22.871632 43.710736 1.026747 2.121456 0.048849 -0.007341 178614.000000 0 0 1
-18.929874 -32.504976 -21.657832 43.404785 1.043442 2.093210 0.061680 -0.020043 -143765.000000 0 0 1
-18.982074 -31.448076 -20.591932 42.110905 1.027734 2.081731 0.073311 -0.027697 -13265.000000 0 0 1
-17.855374 -30.615596 -20.750032 41.069368 1.042813 2.100460 0.081492 -0.026923 147266.000000 0 0 1
-17.540074 -29.951716 -19.528232 39.826014 1.041024 2.083275 0.073341 -0.024876 -178970.000000 0 0 1
-16.229274 -29.160876 -19.648132 38.727189 1.062944 2.102900 0.089236 -0.026289 863139.000000 0 0 1
-15.046274 -29.996386 -19.774732 38.951426 1.105867 2.103282 0.097390 -0.035515 579765.000000 0 0 1
-13.951674 -29.200696 -20.160332 38.128321 1.125078 2.127923 0.082423 -0.030808 -1099270.000000 0 0 1
-12.687174 -30.011306 -20.483832 38.486755 1.170836 2.132030 0.104916 -0.038951 -148417.000000 0 0 1
-12.027074 -30.555576 -19.364132 38.121692 1.195808 2.103606 0.100120 -0.042963 144612.000000 0 0 1
-11.340674 -29.593046 -18.565432 36.729206 1.204838 2.100720 0.074868 -0.033150 -947314.000000 0 0 1
-10.744874 -30.084536 -17.223332 36.292903 1.227761 2.065266 0.059642 -0.025935 -255339.000000 0 0 1
-11.568074 -30.662246 -16.241732 36.575778 1.210033 2.030918 0.083386 -0.039129 -478801.000000 0 0 1
-11.950974 -31.931296 -16.543032 37.895981 1.212664 2.022543 0.100080 -0.042617 -362245.000000 0 0 1
-12.819274 -32.576626 -15.457232 38.268739 1.195896 1.986586 0.099319 -0.047268 -657059.000000 0 0 1
-12.196374 -32.707076 -14.225432 37.694394 1.213871 1.957771 0.092523 -0.041812 -321260.000000 0 0 1
-12.834474 -33.652936 -13.394132 38.427160 1.206446 1.926830 0.101350 -0.039680 -389735.000000 0 0 1
-12.270274 -33.692906 -12.031832 37.822434 1.221545 1.894535 0.082751 -0.033091 -531687.000000 0 0 1
-12.497774 -32.581686 -11.220432 36.655951 1.204522 1.881891 0.046932 -0.024276 196482.000000 0 0 1
-11.970674 -32.876486 -9.918632 36.366738 1.221607 1.847035 0.053121 -0.025686 -899404.000000 0 0 1
-10.537374 -32.482666 -9.662532 35.489779 1.257107 1.846540 0.056658 -0.027865 -1050000.000000 0 0 1
-9.614874 -33.323326 -10.333232 36.189302 1.289893 1.860359 0.045931 -0.032336 -1127270.000000 0 0 1
-8.386674 -32.716216 -10.199632 35.280584 1.319854 1.864083 0.038940 -0.041160 -821901.000000 0 0 1
-7.092974 -33.403176 -10.664032 35.774349 1.361560 1.873489 0.036202 -0.050160 -39149.500000 0 0 1
-6.605774 33.781284 -9.874832 35.809548 -1.377688 1.850176 0.029159 -0.028900 431561.000000 0 0 1
-5.320674 33.429009 -10.424032 35.418480 -1.412957 1.869530 0.039555 -0.024489 1018770.000000 0 0 1
-4.516574 32.290931 -9.688932 34.014396 -1.431827 1.859644 0.042488 -0.026636 297180.000000 0 0 1
-4.009274 32.871383 -8.470132 34.181066 -1.449427 1.821207 0.051604 -0.030245 -94353.600000 0 0 1
-3.415474 31.963503 -7.590732 33.029536 -1.464345 1.802685 0.042598 -0.035388 -74082.200000 0 0 1
-3.015374 32.576480 -6.231932 33.304002 -1.478496 1.759029 0.046447 -0.033229 -219674.000000 0 0 1
-2.048374 33.598254 -6.166132 34.220750 -1.509905 1.751973 0.032898 -0.025318 -130287.000000 0 0 1
-1.838774 -33.986526 -4.876532 34.383799 1.516746 1.713103 0.038169 -0.021100 -51501.500000 0 0 1
-0.854374 33.448552 -3.944732 33.691194 -1.545259 1.688150 0.049750 -0.024278 330947.000000 0 0 1
0.491626 33.439694 -4.437832 33.736467 1.556096 1.702723 0.046029 -0.025598 -197699.000000 0 0 1
1.328926 32.684778 -3.672232 32.917261 1.530160 1.682589 0.042932 -0.026609 -1147980.000000 0 0 1
2.750926 32.722483 -4.199332 33.105330 1.486925 1.697987 0.069789 -0.026894 -646998.000000 0 0 1
3.415926 33.927723 -3.852332 34.316169 1.470452 1.683293 0.067215 -0.026422 177689.000000 0 0 1
4.812326 33.730011 -4.046732 34.311051 1.429081 1.689014 0.076544 -0.019358 375247.000000 0 0 1
5.720426 -33.298896 -3.630232 33.981147 -1.400667 1.677831 0.079006 -0.017746 -85667.800000 0 0 1
5.733326 -32.194806 -4.467032 33.005014 -1.394562 1.706557 0.073414 -0.015379 -325543.000000 0 0 1
6.416826 -31.116036 -3.909232 32.010396 -1.367425 1.693226 0.064381 -0.021072 -319798.000000 0 0 1
6.236426 -29.678986 -4.505032 30.659918 -1.363680 1.718266 0.056148 -0.018301 -21374.800000 0 0 1
6.788926 -29.596406 -5.842632 30.922049 -1.345314 1.760886 0.056519 -0.015458 29096.300000 0 0 1
6.686126 -28.372166 -6.539032 29.873785 -1.339361 1.791472 0.037867 -0.012934 259240.000000 0 0 1
7.294826 -27.056926 -5.963332 28.650534 -1.307448 1.780470 0.042304 -0.011832 -116524.000000 0 0 1
6.463826 -26.565356 -4.987032 27.791540 -1.332117 1.751218 0.054061 -0.016553 -768535.000000 0 0 1
6.821626 -25.293246 -4.497932 26.580336 -1.307363 1.740835 0.047222 -0.017960 -31791.700000 0 0 1
5.919026 -24.735546 -3.345932 25.653019 -1.335921 1.701599 0.048712 -0.015938 -222709.000000 0 0 1
4.714126 -24.309846 -3.916432 25.070502 -1.379255 1.727656 0.042452 -0.020239 -728359.000000 0 0 1
3.909026 -23.762546 -2.880832 24.253624 -1.407753 1.689857 0.037714 -0.020718 185860.000000 0 1 0
2.616526 -23.059446 -3.361932 23.449666 -1.457811 1.714660 0.048738 -0.023428 478779.000000 0 1 0
1.799726 -24.001246 -4.069932 24.410309 -1.495952 1.738309 0.051252 -0.021878 -682782.000000 0 1 0
0.554626 -23.425446 -4.323332 23.827512 -1.547125 1.753250 0.042101 -0.018649 -418442.000000 0 1 0
-14.843874 22.688754 17.900171 32.489018 -0.991447 0.987281 0.012207 -0.019616 -292787.000000 0 0 1
-15.185074 22.300154 19.174671 33.099114 -0.972977 0.952914 0.007087 -0.013530 86114.100000 0 0 1
-15.000074 23.334454 20.094571 34.253332 -0.999478 0.943886 0.013808 -0.004062 -978606.000000 0 0 1
-15.100874 22.832054 21.553071 34.840694 -0.986456 0.903814 0.019945 -0.012843 146633.000000 0 0 1
-14.196074 21.892054 22.194471 34.254709 -0.995506 0.865940 0.014673 -0.005792 823860.000000 0 0 1
-12.790674 22.064454 22.059171 33.720150 -1.045440 0.857694 -0.000190 -0.009649 355100.000000 0 0 1
-12.148274 23.189654 22.905071 34.784808 -1.088239 0.852000 0.019931 0.006589 -530471.000000 0 0 1
-11.909574 22.825554 24.226991 35.352383 -1.089889 0.815781 0.020344 0.004256 -20421.600000 0 0 1
-11.958674 23.957154 25.090921 36.694815 -1.107814 0.817876 0.044736 -0.000459 -4131.340000 0 0 1
-11.550774 23.700154 26.562561 37.425758 -1.117303 0.781667 0.051883 -0.007829 24031.100000 0 0 1
-10.179874 23.382154 26.613241 36.859457 -1.160176 0.764080 0.030026 -0.003390 -400478.000000 0 0 1
-9.926374 22.805954 27.865581 37.351507 -1.160273 0.728707 0.028202 -0.012290 487500.000000 0 0 1
-8.429974 22.389454 28.161901 36.951925 -1.210698 0.704211 0.018879 -0.018628 1080700.000000 0 0 1
-7.460774 23.337654 28.484251 37.572088 -1.261376 0.710367 0.024888 -0.017082 -202734.000000 0 0 1
-7.198574 24.325354 27.535101 37.439606 -1.283079 0.744460 0.024616 -0.007122 -565349.000000 0 0 1
-6.161774 25.437854 27.912001 38.263974 -1.333145 0.753266 0.028566 -0.018562 -1088370.000000 0 0 1
-4.930074 24.940654 28.150751 37.931605 -1.375640 0.734531 0.035332 -0.021502 -1757650.000000 0 0 1
-3.960774 25.942254 28.381641 38.654958 -1.419290 0.746264 0.045021 -0.014483 -397585.000000 0 0 1
-2.521374 25.460454 28.395081 38.221364 -1.472087 0.733387 0.044865 -0.014001 -753886.000000 0 0 1
-2.054174 25.117754 27.079361 36.992067 -1.489196 0.749497 0.037628 -0.019521 -1179270.000000 0 0 1
-0.754974 24.687254 27.105921 36.670989 -1.540224 0.738966 0.040523 -0.009255 -892594.000000 0 0 1
-0.094074 24.403054 25.741101 35.470018 -1.566941 0.758724 0.040539 -0.016351 40811.100000 0 0 1
-0.580074 23.265754 25.073301 34.209680 -1.545869 0.748177 0.037531 -0.010017 60564.100000 0 0 1
-0.085574 23.213654 23.701371 33.175835 -1.567110 0.775006 0.029794 -0.008290 196216.000000 0 0 1
-0.589474 21.903854 22.951871 31.731919 -1.543891 0.762219 0.027694 -0.005287 -154259.000000 0 0 1
0.122026 20.767954 23.237291 31.165598 1.564921 0.729351 0.031474 -0.006731 -449004.000000 0 0 1
-0.393074 19.631554 22.592971 29.933171 -1.550776 0.715477 0.021859 -0.002295 -86984.500000 0 0 1
0.535426 18.395654 22.737671 29.252153 1.541698 0.680435 0.028611 -0.002783 552335.000000 0 0 1
1.810526 18.636654 22.128871 28.987753 1.473952 0.702256 0.036086 -0.013063 205781.000000 0 0 1
2.546526 17.439254 22.138671 28.297228 1.425798 0.672347 0.021990 -0.017102 -369264.000000 0 0 1
3.971526 17.613954 21.573171 28.132296 1.349029 0.696882 0.041469 -0.021623 -121911.000000 0 0 1
4.802426 18.443054 22.370871 29.388185 1.316061 0.705604 0.043392 -0.014351 -927417.000000 0 0 1
5.951926 18.725754 21.636471 29.226977 1.263048 0.737293 0.070116 -0.032031 -471832.000000 0 0 1
7.142926 19.151254 22.542771 30.429730 1.213803 0.736515 0.076836 -0.036034 -322133.000000 0 0 1
7.021726 20.240754 23.427711 31.746660 1.236877 0.740756 0.058342 -0.029596 -62584.300000 0 0 1
6.990526 21.475754 22.732271 32.044213 1.256105 0.782145 0.070734 -0.040422 -601774.000000 0 0 1
5.736026 22.303054 23.033571 32.571055 1.319066 0.785296 0.050151 -0.028764 -234944.000000 0 0 1
5.532926 23.590254 22.433371 33.020743 1.340418 0.823890 0.051946 -0.031308 462911.000000 0 0 1
4.332326 24.151054 22.960971 33.604295 1.393300 0.818558 0.025463 -0.023524 -79035.200000 0 0 1
3.927526 25.527854 22.470571 34.234826 1.418141 0.854805 0.039559 -0.019750 -160057.000000 0 0 1
3.672526 25.740954 21.087971 33.478152 1.429080 0.889369 0.044470 -0.023254 -243550.000000 0 0 1
2.570226 25.022654 20.613271 32.521473 1.468439 0.884294 0.036576 -0.025155 -695842.000000 0 0 1
2.145226 25.423354 19.138071 31.893803 1.486616 0.927225 0.042048 -0.026909 -229044.000000 0 0 1
1.249226 26.538554 19.124071 32.735081 1.523759 0.946893 0.044005 -0.027885 374532.000000 0 0 1
1.138326 27.089554 17.843071 32.457894 1.528800 0.988756 0.052716 -0.018910 330855.000000 0 0 1
0.041726 28.197654 17.911871 33.405756 1.569317 1.004878 0.031828 -0.004517 571834.000000 0 0 1
0.602726 29.465954 18.247071 34.663544 1.550344 1.016429 0.040352 -0.002044 647792.000000 0 0 1
-0.486574 30.258654 18.701371 35.574769 -1.554717 1.017268 0.027581 -0.002004 294760.000000 0 0 1
-0.106374 31.637454 19.336771 37.078977 -1.567434 1.022186 0.019564 0.006916 -19071.300000 0 0 1
0.439026 31.517154 20.616371 37.663756 1.556867 0.991566 0.023913 0.002038 -44454.900000 0 0 1
0.925526 32.729954 21.158371 38.984396 1.542526 0.997101 0.022530 0.000348 387759.000000 0 0 1
1.513426 32.528054 22.593271 39.633580 1.524303 0.964225 0.028734 -0.014275 199025.000000 0 0 1
0.422626 32.330954 23.464041 39.950349 1.557725 0.943040 0.026391 -0.006977 182275.000000 0 0 1
0.665826 32.699554 24.813351 41.053703 1.550437 0.921769 0.050957 -0.019122 -118071.000000 0 0 1
-0.501474 32.314054 25.750621 41.322440 -1.555279 0.898016 0.049540 -0.013640 145511.000000 0 0 1
-1.644074 33.179854 25.703661 42.003379 -1.521286 0.912282 0.052953 -0.013439 142667.000000 0 0 1
-2.520274 32.903354 26.756271 42.483885 -1.494349 0.889503 0.057158 -0.013231 -482194.000000 0 0 1
-2.212374 33.465154 28.175511 43.802632 -1.504783 0.872077 0.078580 -0.023466 -589177.000000 0 0 1
-1.195774 32.658254 28.740091 43.519929 -1.534198 0.849459 0.082445 -0.022336 13759.400000 0 0 1
-0.794574 32.986054 30.042741 44.623731 -1.546713 0.832207 0.083261 -0.031532 -568177.000000 0 0 1
0.432826 32.195954 30.561821 44.393600 1.557354 0.811476 0.076868 -0.030079 -170628.000000 0 0 1
1.650726 32.484354 29.931271 44.202253 1.520024 0.826922 0.070244 -0.032601 -101621.000000 0 0 1
1.850826 31.814354 28.673361 42.868873 1.512686 0.838119 0.055051 -0.026191 178605.000000 0 0 1
3.377426 31.649554 28.330501 42.611249 1.464485 0.843490 0.042315 -0.024605 765375.000000 0 0 1
4.034726 30.604754 28.938711 42.312870 1.439719 0.817671 0.039383 -0.023986 -233434.000000 0 0 1
5.324226 30.357254 28.450791 41.944699 1.397177 0.825359 0.054488 -0.036651 332083.000000 0 0 1
6.309926 29.285354 29.060991 41.737134 1.358577 0.800586 0.045188 -0.020969 598301.000000 0 0 1
6.631226 29.553054 30.398601 42.911899 1.350068 0.783574 0.058183 -0.033412 445701.000000 0 0 1
7.508026 28.574554 30.976181 42.806534 1.313852 0.761746 0.043991 -0.025592 330865.000000 0 0 1
7.646626 28.584654 32.504030 43.955265 1.309409 0.738499 0.070019 -0.029567 -410341.000000 0 0 1
6.343726 28.371954 32.992918 43.974348 1.350823 0.722316 0.070743 -0.030382 -271413.000000 0 0 1
6.208426 28.274654 -33.867072 44.553105 1.354651 2.434341 0.089465 -0.032071 -79598.500000 0 0 1
6.307626 26.763054 -33.425662 43.281891 1.339336 2.453216 0.072485 -0.027640 447358.000000 0 0 1
7.593926 26.218054 -33.728842 43.389963 1.288866 2.461226 0.069956 -0.027363 430134.000000 0 0 1
7.697426 24.899354 -33.245362 42.243133 1.270974 2.476728 0.072867 -0.029015 164494.000000 0 0 1
9.132726 24.376354 -33.476252 42.406047 1.212328 2.480663 0.077049 -0.030425 -65057.800000 0 0 1
9.253326 23.942354 33.440007 42.155598 1.201996 0.654665 0.045095 -0.021540 585303.000000 0 0 1
10.464226 23.174354 33.278273 41.880714 1.146660 0.652453 0.060404 -0.033029 481714.000000 0 0 1
10.539326 21.629354 33.697735 41.405841 1.117385 0.620066 0.047424 -0.033161 -321134.000000 0 0 1
9.870026 20.964854 32.608218 40.002980 1.130789 0.617817 0.033750 -0.029516 314074.000000 0 0 1
9.497126 19.608954 32.838022 39.408656 1.119766 0.585801 0.034107 -0.032720 229906.000000 0 0 1
8.107826 19.374254 33.515159 39.552047 1.174457 0.559786 0.044811 -0.039808 195223.000000 0 0 1
7.990826 19.823154 -33.342822 39.604981 1.187616 2.571562 0.047408 -0.031177 428119.000000 0 0 1
7.049426 20.901554 -33.178642 39.842084 1.245509 2.554859 0.062169 -0.033396 34452.800000 0 0 1
6.917826 21.400754 -31.664262 38.839079 1.258147 2.523988 0.080178 -0.039751 35612.000000 0 0 1
8.088226 22.089554 -31.266502 39.127509 1.219802 2.496581 0.087766 -0.037155 220392.000000 0 0 1
7.998526 22.531854 -29.913702 38.294784 1.229685 2.467291 0.073993 -0.034384 -1120190.000000 0 0 1
9.310526 23.003554 -29.365672 38.447264 1.186208 2.439962 0.079717 -0.029712 -919287.000000 0 0 1
10.077526 21.876754 -28.987602 37.688592 1.139121 2.448282 0.081627 -0.033145 130760.000000 0 0 1
11.481926 22.122954 -29.052742 38.279519 1.092060 2.432516 0.079960 -0.031933 734394.000000 0 0 1
12.268826 20.764554 -29.034232 37.744899 1.037129 2.448420 0.077413 -0.038949 -121433.000000 0 0 1
12.189326 19.919054 -30.215552 38.188061 1.021641 2.483615 0.052329 -0.034552 614784.000000 0 0 1
10.900626 19.564554 -30.780052 38.065825 1.062471 2.512566 0.065417 -0.034735 791149.000000 0 0 1
10.911426 18.538854 -31.964882 38.529236 1.038823 2.549235 0.060688 -0.039434 -509988.000000 0 0 1
11.187526 17.210754 -31.500482 37.598553 0.994399 2.564058 0.044834 -0.030821 129952.000000 0 0 1
11.362026 16.244254 -32.512012 38.078897 0.960440 2.594050 0.048568 -0.023124 451003.000000 0 0 1
12.739526 16.317454 -33.279462 39.192824 0.907916 2.585116 0.041267 -0.015747 318862.000000 0 0 1
12.927326 17.516954 -34.037097 40.404003 0.935026 2.572553 0.052002 -0.030035 -54285.900000 0 0 1
13.500126 17.338754 32.894342 39.559114 0.909235 0.588951 0.059107 -0.030537 -287374.000000 0 0 1
12.477926 17.189354 31.752971 38.202404 0.942892 0.589575 0.070242 -0.038125 -860511.000000 0 0 1
12.836526 17.715254 30.475991 37.515232 0.943748 0.622603 0.058156 -0.032336 81099.400000 0 0 1
12.079026 17.263254 29.334021 36.116583 0.960275 0.622877 0.053934 -0.034463 -720432.000000 0 0 1
10.619326 17.652654 29.263661 35.787542 1.029222 0.613383 0.042361 -0.037816 -951530.000000 0 0 1
9.874826 16.759854 30.090921 35.831110 1.038359 0.573884 0.054052 -0.036231 -90129.000000 0 0 1
8.531526 17.174754 30.246661 35.813679 1.109754 0.565061 0.052237 -0.033362 42201.600000 0 0 1
7.752026 16.353354 31.272121 36.131311 1.128137 0.524623 0.051914 -0.027432 -157105.000000 0 0 1
8.171226 16.455054 32.661460 37.474107 1.109890 0.512392 0.062393 -0.030157 831132.000000 0 0 1
7.383526 15.580754 33.555613 37.726059 1.128256 0.474646 0.066619 -0.024125 543365.000000 0 0 1
7.617026 15.924654 -33.197272 37.598838 1.124645 2.652870 0.067086 -0.030218 97326.500000 0 0 1
6.652026 16.888654 -32.770302 37.461564 1.195581 2.635760 0.065505 -0.034937 571838.000000 0 0 1
6.923826 17.150254 -31.408492 36.449471 1.187091 2.609406 0.074244 -0.033232 -234575.000000 0 0 1
5.700526 17.744454 -30.719802 35.931433 1.259954 2.596263 0.070197 -0.034555 -718614.000000 0 0 1
5.877426 17.873154 -29.270482 34.795904 1.253094 2.570304 0.071273 -0.040616 87030.700000 0 0 1
5.065626 18.833554 -28.601562 34.618098 1.308046 2.543130 0.074920 -0.037987 648286.000000 0 0 1
3.519626 18.646554 -28.597092 34.320190 1.384237 2.555746 0.078308 -0.039961 -495032.000000 0 0 1
3.012326 17.586854 -27.797262 33.031187 1.401160 2.570935 0.094484 -0.036067 1223090.000000 0 0 1
1.602826 17.283254 -27.919652 32.875324 1.478322 2.585376 0.081870 -0.034294 1595540.000000 0 0 1
0.548426 18.402754 -27.646972 33.216219 1.541004 2.554101 0.076211 -0.041266 -661828.000000 0 0 1
0.378426 18.743754 -26.291512 32.291100 1.550610 2.522152 0.094594 -0.046034 -110768.000000 0 0 1
-0.606174 19.738254 -26.216052 32.821449 -1.540095 2.496007 0.104060 -0.043041 -319090.000000 0 0 1
-0.976774 20.361154 -24.891032 32.172879 -1.522861 2.455402 0.078776 -0.041799 106107.000000 0 0 1
-1.689774 19.458754 -24.029732 30.966538 -1.484175 2.459080 0.075676 -0.042365 249087.000000 0 0 1
-2.100474 20.031454 -22.805232 30.426136 -1.466319 2.418145 0.099134 -0.045061 -160670.000000 0 0 1
-3.085974 19.079354 -22.110232 29.366773 -1.410441 2.423253 0.089768 -0.045603 -312537.000000 0 0 1
-4.450974 19.221054 -22.394432 29.845782 -1.343240 2.419370 0.074620 -0.033816 -62752.800000 0 0 1
-5.211674 18.173654 -21.736032 28.807956 -1.291520 2.425711 0.052478 -0.042100 633420.000000 0 0 1
-6.743274 18.281354 -22.003232 29.390847 -1.217419 2.416808 0.089976 -0.034471 638298.000000 0 0 1
-7.528174 19.238254 -21.304532 29.676033 -1.197801 2.371583 0.048699 -0.017688 181747.000000 0 0 1
-7.380974 20.563454 -21.762832 30.837563 -1.226183 2.354242 0.053474 -0.021314 -1799.210000 0 0 1
-8.055774 21.704154 -20.915532 31.199764 -1.215394 2.305510 0.059306 -0.026746 144437.000000 0 0 1
-7.418174 21.800254 -19.668632 30.284245 -1.242808 2.277680 0.066649 -0.027761 230408.000000 0 0 1
-7.826674 22.955854 -18.904632 30.750824 -1.242211 2.232889 0.077430 -0.024466 -179351.000000 0 0 1
-7.116174 23.178354 -17.548932 29.930604 -1.272913 2.197306 0.096067 -0.033025 -227171.000000 0 0 1
-5.773574 23.593554 -17.545132 29.963672 -1.330803 2.196351 0.098933 -0.032543 -434520.000000 0 0 1
-5.270174 23.809454 -16.269132 29.314663 -1.352961 2.159139 0.115528 -0.030102 235039.000000 0 0 1
-3.749874 24.074254 -16.135532 29.223050 -1.416275 2.155738 0.120438 -0.032828 269753.000000 0 0 1
-3.366974 25.372154 -16.475132 30.438671 -1.438864 2.142727 0.098775 -0.039043 -172387.000000 0 0 1
-2.014474 25.380554 -16.880532 30.548044 -1.491592 2.156264 0.090723 -0.045391 235543.000000 0 0 1
-1.418174 26.787154 -17.087132 31.804605 -1.517903 2.137974 0.080460 -0.054824 121335.000000 0 0 1
-2.149074 27.432454 -18.116932 32.945125 -1.492615 2.153056 0.076081 -0.058605 -88065.200000 0 0 1
-1.543974 28.604554 -18.517332 34.110056 -1.516872 2.144647 0.077158 -0.057723 -1239090.000000 0 0 1
-2.367074 29.501354 -19.516732 35.451880 -1.490732 2.153775 0.094434 -0.056924 381070.000000 0 0 1
-3.418174 30.261454 -18.924132 35.854739 -1.458318 2.126805 0.069257 -0.054637 381927.000000 0 0 1
-4.505574 29.464654 -18.450732 35.055607 -1.419057 2.125072 0.047397 -0.055905 -740318.000000 0 0 1
-5.498374 30.332054 -17.609532 35.501567 -1.391471 2.089807 0.075623 -0.045876 271789.000000 0 0 1
-6.010774 31.401954 -18.408332 36.892802 -1.381670 2.093204 0.101682 -0.048332 79455.800000 0 0 1
-6.017374 32.595354 -17.593832 37.526108 -1.388243 2.058776 0.091885 -0.070848 -189551.000000 0 0 1
-6.863374 33.782954 -18.100132 38.935956 -1.370363 2.054283 0.082761 -0.047825 -443078.000000 0 0 1
-8.222974 33.469754 -18.119532 38.937889 -1.329884 2.054820 0.092494 -0.067419 -899111.000000 0 0 1
-8.985874 -33.619246 -18.500732 39.411632 1.309618 2.059434 0.123602 -0.056523 -196581.000000 0 0 1
29.627326 -20.348746 -25.951892 44.332275 -0.601828 2.196164 0.054726 0.003604 42071.300000 0 0 1
29.186326 -21.634446 -25.613372 44.451499 -0.637879 2.184879 0.060055 -0.001001 -915784.000000 0 0 1
27.869726 -21.858446 -25.993082 43.933514 -0.665099 2.203895 0.061131 -0.008117 -475183.000000 0 0 1
27.337126 -23.289546 -25.690142 44.155462 -0.705618 2.191750 0.045885 -0.004476 222023.000000 0 0 1
27.957726 -24.350546 -26.414262 45.522487 -0.716547 2.189828 0.036693 0.005249 -599851.000000 0 0 1
29.232926 -24.733246 -26.007722 46.289297 -0.702211 2.167419 0.039110 0.006432 -503742.000000 0 0 1
29.670126 -26.108946 -26.582002 47.629784 -0.721640 2.162886 0.037615 0.003688 -133102.000000 0 0 1
29.054026 -27.171006 -25.922632 47.480342 -0.751920 2.148338 0.043653 -0.002375 -167797.000000 0 0 1
29.459126 -28.441426 -26.426082 48.734922 -0.767823 2.143899 0.036684 0.003773 509606.000000 0 0 1
28.339026 -29.045706 -27.337742 48.929598 -0.797712 2.163633 0.033773 0.001625 215459.000000 0 0 1
28.087326 -28.418706 -28.601482 49.138229 -0.791263 2.192058 0.024071 -0.002593 32217.700000 0 0 1
28.953526 -28.830666 -29.640932 50.478697 -0.783272 2.198388 0.006050 -0.004289 -282465.000000 0 0 1
29.127526 -30.303056 -29.993252 51.636065 -0.805175 2.190579 0.016037 -0.004204 -582274.000000 0 0 1
29.753126 -31.122326 -29.010932 51.918031 -0.807886 2.163714 0.022047 -0.001480 1016030.000000 0 0 1
31.159926 -31.055506 -28.701492 52.527718 -0.783720 2.148864 0.029454 -0.000380 1352460.000000 0 0 1
32.247026 -30.834736 -29.803152 53.655191 -0.763014 2.159709 0.023807 -0.004507 -351853.000000 0 0 1
32.208026 -29.481016 -30.198632 53.089026 -0.741221 2.175879 0.030354 -0.017062 -833138.000000 0 0 1
33.246426 -29.074136 -31.007852 53.964036 -0.718549 2.182914 0.028620 -0.018825 -713112.000000 0 0 1
33.066126 -27.699176 -31.760082 53.565996 -0.697304 2.205470 0.019055 -0.012566 56695.100000 0 0 1
33.219926 -26.517266 -31.034402 52.629488 -0.673663 2.201455 0.017438 -0.005031 341923.000000 0 0 1
32.037326 -26.232116 -30.263162 51.287164 -0.686099 2.201945 0.026292 -0.009718 509243.000000 0 0 1
31.924526 -24.910146 -29.568392 50.139611 -0.662602 2.201510 0.023228 -0.012114 -299657.000000 0 0 1
32.578426 -24.865946 -28.287332 49.798015 -0.651936 2.174920 0.025906 -0.005518 107429.000000 0 0 1
32.699726 -23.557546 -27.835822 48.980231 -0.624300 2.175243 0.022316 0.002023 -250840.000000 0 0 1
33.765326 -23.300846 -26.759762 48.980726 -0.604039 2.148776 0.025883 0.001912 -426207.000000 0 0 1
33.493026 -23.822746 -25.445172 48.340075 -0.618253 2.125132 0.024618 0.005320 -543553.000000 0 0 1
32.415526 -23.228846 -24.801332 46.962237 -0.621778 2.127172 0.032207 0.009907 -588214.000000 0 0 1
32.601326 -21.869246 -24.069332 46.048270 -0.590865 2.120809 0.043144 0.013535 -328685.000000 0 0 1
33.069726 -20.857846 -24.885132 46.345726 -0.562704 2.137609 0.051296 -0.005851 -60798.500000 0 0 1
33.201226 -19.611846 -24.297132 45.577369 -0.533551 2.133053 0.043801 -0.013128 68331.200000 0 0 1
33.488926 -18.538746 -25.299962 45.883345 -0.505586 2.154835 0.032127 -0.028925 -353188.000000 0 0 1
32.361226 -18.346846 -26.096832 45.441175 -0.515755 2.182544 0.037692 -0.007684 -198157.000000 0 0 1
32.178726 -16.989246 -26.457102 44.989812 -0.485769 2.199465 0.037561 0.006446 -10496.600000 0 0 1
30.979726 -16.925746 -27.426952 44.704161 -0.500036 2.231308 0.041108 0.010471 131523.000000 0 0 1
29.700926 -16.976746 -26.806122 43.461743 -0.519268 2.235435 0.049109 0.005662 -18166.500000 0 0 1
28.761626 -16.879346 -27.873412 43.463440 -0.530709 2.266997 0.039501 -0.007510 1417070.000000 0 0 1
27.290326 -16.499246 -27.333892 42.001532 -0.543782 2.279412 0.027470 -0.001471 1530180.000000 0 0 1
26.601426 -17.578846 -26.796742 41.649935 -0.583946 2.269702 0.056960 0.005541 -224686.000000 0 0 1
26.938026 -17.620746 -25.412802 41.011687 -0.579267 2.239090 0.047728 0.014439 -821098.000000 0 0 1
26.031226 -18.370546 -24.474032 40.175614 -0.614549 2.225818 0.041249 0.017944 -630555.000000 0 0 1
25.937226 -17.788346 -23.213432 39.090004 -0.601148 2.206627 0.034418 0.027159 -56141.800000 0 0 1
25.246326 -18.626446 -22.333032 38.510853 -0.635640 2.189421 0.039692 0.023691 -110105.000000 0 0 1
25.037026 -18.053846 -20.892932 37.273431 -0.624738 2.165824 0.034710 0.021339 42791.000000 0 0 1
24.194826 -16.905846 -20.770632 36.091778 -0.609879 2.184005 0.018058 0.013603 168433.000000 0 0 1
24.654426 -15.648146 -21.300532 36.144403 -0.565544 2.201010 0.020618 0.016259 326018.000000 0 0 1
25.933026 -14.985746 -20.690232 36.403024 -0.523984 2.175315 0.016349 0.014379 451364.000000 0 0 1
25.807626 -14.412346 -19.377132 35.344342 -0.509310 2.151053 0.014339 0.004100 243904.000000 0 0 1
26.938926 -13.565646 -19.216932 35.763431 -0.466500 2.138070 -0.000944 0.007160 21276.000000 0 0 1
26.901926 -12.521546 -18.079532 34.747262 -0.435629 2.118016 0.011375 0.003716 -263957.000000 0 0 1
27.296626 -13.058946 -16.866332 34.642676 -0.446226 2.079294 0.007238 0.008856 84884.200000 0 0 1
27.132226 -12.153246 -15.802132 33.668479 -0.421128 2.059345 0.004854 0.004187 140169.000000 0 0 1
27.850526 -12.590646 -14.494232 33.826897 -0.424582 2.013609 0.017080 -0.003914 -1867.010000 0 0 1
27.219926 -13.721946 -13.879232 33.494018 -0.466933 1.998057 0.046802 -0.009609 413690.000000 0 0 1
27.680626 -13.878146 -12.512332 33.397282 -0.464740 1.954817 0.061393 -0.013887 135390.000000 0 0 1
27.208126 -15.251446 -11.848232 33.365691 -0.510905 1.933820 0.065450 -0.032794 -824004.000000 0 0 1
25.842126 -15.260846 -11.639332 32.189796 -0.533436 1.940763 0.062353 -0.034849 -710336.000000 0 0 1
25.446326 -16.474346 -11.029432 32.257836 -0.574556 1.919750 0.048269 -0.029114 23464.700000 0 0 1
23.978526 -16.512146 -10.550132 30.966530 -0.603049 1.918452 0.068353 -0.031773 -45789.100000 0 0 1
23.730426 -15.752046 -9.360332 29.981259 -0.586009 1.888311 0.067391 -0.029923 -32819.100000 0 0 1
22.358626 -15.718046 -9.079032 28.799201 -0.612735 1.891519 0.074050 -0.031245 -511139.000000 0 0 1
21.888626 -15.351746 -7.631732 27.803442 -0.611636 1.848854 0.062706 -0.023799 -186564.000000 0 0 1
22.273726 -14.031246 -7.210232 27.294362 -0.562148 1.838135 0.076106 -0.016334 356117.000000 0 0 1
21.967526 -13.793646 -5.859632 26.592709 -0.560690 1.792967 0.072285 -0.009514 -295873.000000 0 0 1
22.828626 -14.450446 -4.759632 27.433841 -0.564329 1.745174 0.068581 -0.010886 135813.000000 0 0 1
24.234426 -14.266146 -4.821532 28.532043 -0.532049 1.740598 0.085349 -0.008280 767181.000000 0 0 1
24.985826 -15.021646 -3.846332 29.406387 -0.541306 1.701971 0.075509 -0.017825 -1827830.000000 0 0 1
26.429026 -14.872646 -4.044832 30.594929 -0.512571 1.703390 0.093469 -0.022078 -2254620.000000 0 0 1
26.858926 -13.660846 -3.579332 30.345218 -0.470516 1.689025 0.090583 -0.020020 470895.000000 0 0 1
28.161926 -13.262446 -4.022032 31.387311 -0.440127 1.699292 0.098443 -0.026099 414306.000000 0 0 1
28.632026 -11.976646 -3.405232 31.222245 -0.396178 1.680078 0.107388 -0.025975 -854545.000000 0 0 1
29.227226 -12.170646 -2.158732 31.733507 -0.394576 1.638876 0.114798 -0.026482 150998.000000 0 0 1
29.754726 -11.010046 -1.526732 31.763119 -0.354403 1.618881 0.107446 -0.022995 1572500.000000 0 0 1
31.289726 -10.723846 -1.881732 33.129877 -0.330181 1.627626 0.107753 -0.018909 1155180.000000 0 0 1
31.496726 -10.439946 -3.273232 33.342919 -0.320065 1.669123 0.110803 -0.021949 517748.000000 0 0 1
32.786326 -10.750646 -3.795932 34.712082 -0.316853 1.680370 0.116219 -0.019133 312173.000000 0 0 1
32.892426 -10.601546 -5.296232 34.962187 -0.311797 1.722866 0.112447 -0.025272 -503883.000000 0 0 1
32.024326 -11.454346 -5.967632 34.530742 -0.343497 1.744489 0.089503 -0.028310 -149788.000000 0 0 1
32.116226 -11.496146 -7.386032 34.902247 -0.343744 1.784029 0.075466 -0.025160 309490.000000 0 0 1
30.831026 -12.025746 -8.102032 34.070716 -0.371902 1.810897 0.101087 -0.026389 393294.000000 0 0 1
30.617526 -13.404146 -7.868632 34.336852 -0.412657 1.802011 0.083534 -0.025588 112335.000000 0 0 1
29.255626 -13.712246 -8.086932 33.306393 -0.438299 1.816052 0.082090 -0.028779 76851.200000 0 0 1
28.954826 -15.242646 -8.050732 33.697693 -0.484566 1.812040 0.093243 -0.038829 -5883.420000 0 0 1
29.398926 -15.956646 -9.218232 34.697078 -0.497270 1.839703 0.092644 -0.041336 319013.000000 0 0 1
29.593426 -17.277046 -9.060332 35.445124 -0.528433 1.829281 0.088562 -0.041701 -156836.000000 0 0 1
29.876626 -17.987846 -10.409732 36.394202 -0.541941 1.860875 0.082702 -0.045921 -401174.000000 0 0 1
31.187826 -17.872346 -10.896832 37.561179 -0.520371 1.865137 0.090711 -0.040012 -109357.000000 0 0 1
31.303926 -18.073646 -12.318832 38.188298 -0.523606 1.899252 0.070878 -0.026618 228122.000000 0 0 1
30.518326 -17.147246 -13.375332 37.473935 -0.511909 1.935769 0.056776 -0.027269 -48637.400000 0 0 1
31.176826 -16.022946 -13.724532 37.644283 -0.474735 1.943983 0.054874 -0.028229 -228497.000000 0 0 1
30.480726 -15.349646 -14.752432 37.179572 -0.466512 1.978812 0.041080 -0.023286 -678800.000000 0 0 1
31.336926 -14.190246 -15.275032 37.638978 -0.425203 1.988683 0.028184 -0.018327 63614.300000 0 0 1
32.441626 -14.490546 -16.073532 38.997352 -0.420077 1.995631 0.010085 -0.018128 -236790.000000 0 0 1
33.608626 -14.940546 -15.440532 39.889469 -0.418308 1.968262 0.026927 -0.026038 -519813.000000 0 0 1
34.724926 -15.088246 -16.520232 41.308519 -0.409896 1.982229 0.036881 -0.026117 792601.000000 0 0 1
36.049526 -15.415346 -16.055132 42.367069 -0.404084 1.959461 0.048872 -0.027097 921963.000000 0 0 1
-36.264928 -15.657046 -17.196632 43.081461 0.407566 1.981403 0.052299 -0.033510 494990.000000 0 0 1
-34.764428 -15.985146 -16.884832 41.823294 0.430985 1.986374 0.061069 -0.030252 421149.000000 0 0 1
-34.458528 -16.939146 -15.884932 41.553049 0.456889 1.963060 0.050360 -0.026372 76390.900000 0 0 1
-34.844828 -16.679446 -14.551132 41.280763 0.446445 1.931029 0.051200 -0.031512 -915124.000000 0 0 1
-34.157628 -17.599146 -13.529432 40.737195 0.475760 1.909341 0.047777 -0.028804 -197030.000000 0 0 1
-32.802528 -17.259546 -13.316632 39.385663 0.484360 1.915703 0.067476 -0.023848 -18417.900000 0 0 1
-32.347028 -17.808346 -12.086032 38.852794 0.503258 1.887118 0.087440 -0.016438 -526413.000000 0 0 1
-30.884828 -17.455046 -11.855032 37.404452 0.514412 1.893300 0.098442 -0.022256 -570180.000000 0 0 1
-30.736328 -16.088546 -11.445832 36.531771 0.482221 1.889475 0.090134 -0.038003 270799.000000 0 0 1
-29.414828 -15.766446 -11.048732 35.155191 0.492034 1.890499 0.111480 -0.039597 126049.000000 0 0 1
-29.240728 -15.780546 -9.483432 34.554035 0.494883 1.848816 0.105187 -0.037127 -208867.000000 0 0 1
-29.356628 -17.043446 -8.916532 35.096940 0.526007 1.827666 0.091150 -0.028835 86704.600000 0 0 1
-29.680228 -17.034446 -7.525432 35.038842 0.521032 1.787257 0.102970 -0.029346 -123288.000000 0 0 1
-30.021228 -18.387846 -6.907632 35.876210 0.549556 1.764547 0.086891 -0.025175 1136880.000000 0 0 1
-31.206028 -19.127146 -7.347032 37.331526 0.549873 1.768894 0.073614 -0.023398 1006090.000000 0 0 1
-31.245828 -19.625846 -8.721432 37.914892 0.560833 1.802901 0.076944 -0.020619 -390771.000000 0 0 1
-32.476828 -20.467846 -9.074732 39.446519 0.562351 1.802927 0.066527 -0.024188 -978429.000000 0 0 1
-33.624728 -19.755946 -9.353432 40.104943 0.531209 1.806188 0.066297 -0.024595 -740944.000000 0 0 1
-34.519528 -20.629446 -10.002132 41.439287 0.538665 1.814572 0.059515 -0.024465 -779192.000000 0 0 1
-35.895928 -20.050646 -10.278532 42.381533 0.509405 1.815763 0.054909 -0.026689 -520454.000000 0 0 1
-36.014028 -19.340246 -11.489432 42.462482 0.492823 1.844790 0.052306 -0.030913 -141972.000000 0 0 1
35.759426 -19.290046 -11.795232 42.308036 -0.494699 1.853335 0.073979 -0.037419 -393084.000000 0 0 1
35.258426 -18.789746 -13.146132 42.059862 -0.489632 1.888681 0.060237 -0.035004 -117459.000000 0 0 1
35.705426 -19.676846 -14.179332 43.163749 -0.503678 1.905512 0.074300 -0.030740 498065.000000 0 0 1
34.993826 -19.351346 -15.367432 42.839239 -0.505138 1.937696 0.067887 -0.023973 566191.000000 0 0 1
33.787526 -20.312546 -15.678732 42.426632 -0.541290 1.949320 0.073539 -0.025153 329475.000000 0 0 1
32.736126 -19.982046 -14.753632 41.092649 -0.548030 1.938028 0.077765 -0.027015 874867.000000 0 0 1
31.565326 -20.829346 -14.822832 40.619550 -0.583290 1.944342 0.077495 -0.023210 1527310.000000 0 0 1
30.607526 -20.502646 -16.043932 40.181923 -0.590208 1.981530 0.065379 -0.015622 104126.000000 0 0 1
29.771926 -19.346046 -15.890332 38.899097 -0.576240 1.991608 0.054442 -0.013217 637408.000000 0 0 1
28.720726 -19.304246 -16.832232 38.481919 -0.591780 2.023509 0.038326 -0.008272 290887.000000 0 0 1
27.855926 -18.027146 -16.945732 37.257059 -0.574374 2.042981 0.030157 -0.009938 186174.000000 0 0 1
26.951726 -17.801046 -15.884832 35.994453 -0.583707 2.027858 0.034825 -0.010297 413184.000000 0 0 1
26.442226 -16.430946 -15.835732 34.927607 -0.555999 2.041358 0.017041 0.002056 -974155.000000 0 0 1
25.070926 -16.088046 -15.263132 33.471477 -0.570519 2.044297 0.015756 -0.007411 -559037.000000 0 0 1
23.963726 -16.551946 -15.967132 33.214099 -0.604463 2.072287 0.032177 -0.003499 -113145.000000 0 0 1
23.708026 -15.937246 -17.218932 33.355029 -0.591844 2.113242 0.027173 0.007630 -169811.000000 0 0 1
22.571326 -16.690646 -18.012432 33.354012 -0.636723 2.141279 0.026783 0.005758 805205.000000 0 0 1
21.234726 -16.619646 -17.570832 32.184785 -0.664080 2.148302 0.037031 0.001680 -233979.000000 0 0 1
20.371726 -17.277246 -18.450532 32.464328 -0.703390 2.175274 0.030644 0.000603 -190699.000000 0 0 1
18.925226 -17.485946 -18.003532 31.433257 -0.745890 2.180658 0.045414 -0.000416 -112340.000000 0 0 1
18.112226 -16.321646 -17.945632 30.273662 -0.733444 2.205303 0.046824 -0.010081 326499.000000 0 0 1
16.790826 -16.766146 -17.649632 29.572707 -0.784663 2.210330 0.058713 -0.011251 745334.000000 0 0 1
15.739726 -15.603546 -17.511032 28.246166 -0.781053 2.239467 0.062536 -0.016945 205437.000000 0 0 1
15.044026 -15.267546 -18.685832 28.435559 -0.792772 2.287800 0.057059 -0.009463 -917802.000000 0 0 1
13.854726 -14.648746 -18.396032 27.293831 -0.813248 2.310406 0.068973 -0.018236 -888090.000000 0 0 1
13.180326 -14.285346 -19.714832 27.685136 -0.825609 2.363294 0.068967 -0.013937 -326978.000000 0 0 1
13.682926 -13.106046 -20.238932 27.723732 -0.763867 2.389150 0.080287 -0.021720 6245.560000 0 0 1
13.021426 -12.782946 -21.453932 28.164383 -0.776157 2.436791 0.094055 -0.020915 231483.000000 0 0 1
13.199026 -11.230946 -21.825932 27.869693 -0.705012 2.470499 0.085133 -0.026137 423128.000000 0 0 1
14.480126 -10.953746 -22.419232 28.849274 -0.647628 2.460867 0.081879 -0.026394 530889.000000 0 0 1
14.564126 -9.629246 -22.907332 28.802466 -0.584182 2.490341 0.076040 -0.034024 -873438.000000 0 0 1
15.955626 -9.285946 -23.376232 29.786894 -0.527068 2.473141 0.058068 -0.021113 -817098.000000 0 0 1
16.137526 -9.852946 -24.660232 31.074545 -0.548149 2.487472 0.090104 -0.024882 -435235.000000 0 0 1
17.430026 -9.638446 -25.135812 32.070462 -0.505128 2.471507 0.068748 -0.028578 -1075080.000000 0 0 1
22.587826 4.595554 -6.987832 24.086486 0.200713 1.865143 0.129641 0.004214 -84625.200000 0 1 0
22.672426 5.987954 -7.064332 24.490800 0.258211 1.863402 0.105978 0.005337 695853.000000 0 1 0
21.945226 6.526854 -5.964132 23.659325 0.289084 1.825629 0.081289 0.004957 -61119.500000 0 1 0
21.978726 7.995354 -6.084732 24.166383 0.348895 1.825321 0.082005 0.001850 -108371.000000 0 1 0
21.061026 8.462454 -7.082832 23.777015 0.382063 1.873273 0.109224 0.001174 587681.000000 0 1 0
20.941626 9.878354 -7.287232 24.274211 0.440760 1.875704 0.110987 0.008187 -334275.000000 0 1 0
20.267726 10.643654 -6.173832 23.710426 0.483567 1.834217 0.106039 -0.001898 -275690.000000 0 1 0
21.024126 10.842654 -4.965332 24.170882 0.476148 1.777696 0.095718 -0.001155 355336.000000 0 1 0
20.348826 11.744954 -4.090732 23.848538 0.523472 1.743178 0.106746 -0.019450 120766.000000 0 1 0
21.194626 12.196554 -2.863632 24.620489 0.522176 1.687371 0.093931 -0.037869 -693794.000000 0 1 0
22.279926 12.994154 -3.343432 26.008108 0.527992 1.699707 0.090178 -0.036786 808963.000000 0 0 1
23.173126 13.412954 -2.304032 26.873959 0.524697 1.656636 0.091014 -0.038868 248975.000000 0 0 1
24.018026 12.294554 -1.633332 27.031267 0.473113 1.631257 0.072008 -0.034818 -1314240.000000 0 0 1
25.131526 11.915154 -2.412132 27.917429 0.442723 1.657307 0.056888 -0.032172 135267.000000 0 0 1
25.812326 10.846154 -1.784132 28.055273 0.397792 1.634433 0.058385 -0.030665 1358360.000000 0 0 1
27.327626 10.689354 -2.279632 29.432264 0.372859 1.648327 0.076183 -0.025546 1173590.000000 0 0 1
28.138226 11.727054 -1.860432 30.540870 0.394876 1.631750 0.071902 -0.034629 -32971.000000 0 0 1
29.498626 11.489854 -2.158132 31.730793 0.371426 1.638863 0.078553 -0.030966 490339.000000 0 0 1
30.557726 12.495754 -1.606032 33.052955 0.388175 1.619405 0.063264 -0.030592 -237265.000000 0 0 1
30.681526 12.409054 -0.179832 33.096420 0.384334 1.576230 0.101424 -0.041767 409546.000000 0 0 1
31.672426 13.288354 0.309868 34.348492 0.397250 1.561775 0.109934 -0.040267 984214.000000 0 0 1
33.198326 12.881854 0.155868 35.610326 0.370143 1.566419 0.123421 -0.042362 1029390.000000 0 0 1
34.060226 13.990954 0.484068 36.824993 0.389757 1.557651 0.128657 -0.046435 718012.000000 0 0 1
34.802926 14.457554 -0.668432 37.692324 0.393722 1.588531 0.119586 -0.026305 152376.000000 0 0 1
34.063626 15.537354 -1.486032 37.469298 0.427938 1.610467 0.082653 -0.004739 1258200.000000 0 0 1
32.793626 15.235154 -2.129032 36.222432 0.434910 1.629607 0.076461 -0.002734 1093830.000000 0 0 1
32.264626 16.302254 -2.829732 36.259853 0.467852 1.648916 0.056036 0.016083 1102510.000000 0 0 1
30.872226 16.031254 -3.543832 34.966472 0.478950 1.672320 0.071572 -0.007672 569921.000000 0 0 1
31.127326 15.285454 -4.739132 35.000213 0.456472 1.706616 0.044481 -0.006783 541354.000000 0 0 1
29.973826 15.054754 -5.520332 33.993381 0.465457 1.733913 0.050868 -0.024729 701005.000000 0 0 1
28.757626 14.253154 -4.938332 32.473690 0.460146 1.723460 0.058090 -0.034536 559500.000000 0 0 1
27.573626 14.220654 -5.720732 31.547720 0.476155 1.753141 0.062598 -0.037228 1136580.000000 0 0 1
26.507926 13.435554 -5.169932 30.164755 0.469113 1.743037 0.060292 -0.018840 429953.000000 0 0 1
25.426826 12.970454 -6.145632 29.198030 0.471702 1.782863 0.055469 -0.014454 -299756.000000 0 0 1
25.930926 12.189054 -7.235332 29.552259 0.439409 1.818143 0.049468 0.001338 761500.000000 0 0 1
24.939726 11.898154 -8.234632 28.833404 0.445141 1.860422 0.052605 0.006029 324057.000000 0 0 1
24.408526 13.071054 -9.094432 29.143392 0.491652 1.888155 0.081548 -0.002479 -127666.000000 0 0 1
23.432026 13.877154 -8.449632 28.513708 0.534687 1.871650 0.079879 -0.016185 -12950.400000 0 0 1
23.379926 15.217754 -8.955432 29.298477 0.577000 1.881430 0.096647 -0.022107 -444871.000000 0 0 1
22.244826 16.032354 -8.242232 28.632203 0.624499 1.862794 0.094822 -0.008349 692210.000000 0 0 1
20.928326 15.593254 -8.541132 27.460796 0.640344 1.887073 0.088654 -0.016255 503980.000000 0 0 1
20.539326 14.353554 -7.912532 26.277302 0.609942 1.876660 0.079600 -0.020537 -2517060.000000 0 0 1
19.156426 13.929954 -8.267932 25.087267 0.628728 1.906641 0.077633 -0.023243 -1783080.000000 0 0 1
18.224226 14.559554 -7.456232 24.488741 0.674077 1.880185 0.104625 -0.043273 -531211.000000 0 1 0
16.939726 14.047654 -7.693432 23.312653 0.692337 1.907112 0.117469 -0.056603 -691043.000000 0 1 0
15.825526 14.574154 -6.821332 22.569533 0.744257 1.877834 0.084203 -0.033947 -486340.000000 0 1 0
15.810026 14.080754 -5.490932 21.871783 0.727610 1.824562 0.038074 -0.027544 223681.000000 0 1 0
16.260926 15.080154 -4.629032 22.655169 0.747741 1.776571 0.090075 -0.010035 -81450.600000 0 1 0
15.925726 14.566954 -3.217232 21.821445 0.740867 1.718770 0.062209 0.014131 -217738.000000 0 1 0
16.599926 13.317654 -2.980632 21.489570 0.676125 1.709946 0.040458 -0.008266 804141.000000 0 1 0
16.083526 12.591854 -1.874532 20.512154 0.664229 1.662310 0.023086 -0.008296 -5775.830000 0 1 0
16.337326 13.146254 -0.447832 20.974574 0.677586 1.592149 0.030457 -0.011776 -368376.000000 0 1 0
15.449226 14.166254 -0.131532 20.961360 0.742104 1.577071 0.045635 -0.015349 346826.000000 0 1 0
15.921226 14.872554 0.987968 21.809502 0.751357 1.525481 0.057270 -0.012540 -284247.000000 0 1 0
14.904526 15.925754 1.486468 21.862848 0.818510 1.502753 0.063583 -0.005918 48712.200000 0 1 0
14.704126 17.044154 0.641768 22.519466 0.858971 1.542294 0.066273 -0.005779 -167563.000000 0 1 0
13.666126 17.784654 1.195568 22.460772 0.915609 1.517542 0.044289 -0.016446 -512002.000000 0 1 0
13.371426 19.122554 0.559268 23.340520 0.960575 1.546833 0.028674 -0.010632 -247458.000000 0 1 0
12.835126 19.063954 -0.759932 22.994614 0.978238 1.603851 0.027552 -0.018864 -14207.600000 0 1 0
12.341926 20.298954 -1.144132 23.784022 1.024509 1.618920 0.038674 -0.017576 743756.000000 0 1 0
10.795626 20.503754 -0.974832 23.192666 1.086159 1.612841 0.026555 -0.017654 743801.000000 0 1 0
10.246326 20.533854 0.334468 22.950778 1.107952 1.556223 0.012041 -0.019987 -477201.000000 0 1 0
8.871726 20.295754 0.358368 22.152958 1.158703 1.554619 0.016867 -0.024958 -312847.000000 0 1 0
8.339526 20.470354 1.802768 22.177309 1.183931 1.489418 0.016213 -0.019291 26468.400000 0 1 0
8.342126 21.779454 2.333568 23.438882 1.205007 1.471071 0.017943 -0.011787 -443617.000000 0 1 0
7.199126 21.826654 3.107668 23.192409 1.252200 1.436397 0.005561 -0.013356 -505594.000000 0 1 0
6.761726 23.241854 3.719668 24.489602 1.287682 1.418319 -0.001887 -0.003628 381999.000000 0 1 0
7.627026 23.657754 4.754168 25.307369 1.258927 1.381816 0.006974 -0.009725 256323.000000 0 0 1
7.113226 24.841054 5.313268 26.380044 1.291909 1.367997 0.006237 -0.004429 97679.000000 0 0 1
7.642626 25.006754 6.768368 27.010336 1.274189 1.317513 0.014176 -0.010975 34337.700000 0 0 1
7.093826 24.111054 7.690368 26.283208 1.284656 1.273856 0.005333 -0.022400 101017.000000 0 0 1
7.900226 24.163254 8.852168 26.919087 1.254800 1.235718 0.015283 -0.021464 99004.100000 0 0 1
7.486026 23.190054 10.029368 26.351611 1.258545 1.180354 0.023319 -0.024412 -543307.000000 0 0 1
6.368826 23.527254 10.767368 26.646385 1.306432 1.154820 0.022285 -0.023751 -430935.000000 0 0 1
5.712426 22.384054 11.323268 25.727302 1.320929 1.115057 0.023519 -0.022502 241261.000000 0 0 1
4.328626 22.718554 11.930068 26.022994 1.382520 1.094554 0.017055 -0.021749 -276092.000000 0 0 1
3.357526 22.992354 10.970068 25.695597 1.425793 1.129708 0.009159 -0.020142 -617469.000000 0 0 1
2.110426 23.144654 11.626268 25.986516 1.479864 1.106945 0.016703 -0.021281 -150382.000000 0 0 1
1.110226 23.723054 10.612768 26.012434 1.524031 1.150547 0.035283 -0.015807 -662142.000000 0 0 1
1.394426 25.073054 10.147068 27.084413 1.515239 1.186781 0.044477 -0.015252 347733.000000 0 0 1
0.534326 25.506254 9.080768 27.079786 1.549851 1.228837 0.031387 -0.013495 269178.000000 0 0 1
-0.877274 26.027854 9.409268 27.690307 -1.537104 1.224088 0.048328 -0.016170 -143513.000000 0 0 1
-1.711274 25.038154 9.953468 26.998317 -1.502556 1.193219 0.040677 -0.014067 -422197.000000 0 0 1
-3.043874 25.407754 9.668768 27.355149 -1.451564 1.209536 0.063386 -0.020679 -125262.000000 0 0 1
-4.158074 24.566854 10.356068 26.982736 -1.403130 1.176885 0.072498 -0.027888 229886.000000 0 0 1
-4.379774 24.731454 11.743968 27.726305 -1.395520 1.133416 0.045262 -0.013527 234146.000000 0 0 1
-5.428174 25.654754 12.034768 28.852506 -1.362286 1.140529 0.060321 -0.016381 81609.000000 0 0 1
-5.867474 25.651054 13.478868 29.564906 -1.345923 1.097405 0.024480 -0.002568 194711.000000 0 0 1
-6.977874 24.796854 13.738368 29.194476 -1.296488 1.080847 0.033069 -0.013102 311613.000000 0 0 1
-7.364974 24.806754 15.081868 29.951304 -1.282192 1.043098 0.007680 0.013554 -160384.000000 0 0 1
-8.543974 23.941054 15.507868 29.776963 -1.228010 1.023008 0.009610 0.002972 350309.000000 0 0 1
-9.840674 24.341154 15.073768 30.274562 -1.186605 1.049618 0.001096 0.008300 575263.000000 0 0 1
-10.854974 23.447854 15.515068 30.138839 -1.137233 1.030038 0.008909 -0.000635 651938.000000 0 0 1
-12.306474 23.945054 15.269168 30.950967 -1.096054 1.054878 0.013487 -0.008892 178265.000000 0 0 1
-12.771374 24.924754 16.162268 32.335279 -1.097280 1.047389 0.013510 -0.012881 -324149.000000 0 0 1
-13.833274 25.632254 15.597668 33.040265 -1.075909 1.079147 0.015654 -0.015817 -896493.000000 0 0 1
-14.438374 26.672454 16.523068 34.538358 -1.074640 1.071967 0.038023 -0.020489 -675928.000000 0 0 1
-15.701674 26.279854 16.966068 35.000296 -1.032232 1.064730 0.030844 -0.023912 -576968.000000 0 0 1
-16.168274 27.156854 17.924868 36.334676 -1.033791 1.054886 0.050085 -0.021114 -844456.000000 0 0 1
-17.493874 26.747454 18.520168 36.938578 -0.991587 1.045606 0.041137 -0.032649 -693314.000000 0 0 1
-18.599674 26.864854 17.657768 37.141150 -0.965228 1.075351 0.041858 -0.036191 172645.000000 0 0 1
-19.767074 26.396654 18.327168 37.728048 -0.928033 1.063552 0.044583 -0.024205 -139908.000000 0 0 1
-21.092674 26.587354 17.606368 38.233133 -0.900133 1.092238 0.043261 -0.032460 -854201.000000 0 0 1
-21.571774 27.955354 17.659468 39.480375 -0.913582 1.107055 0.035961 -0.028542 -56732.000000 0 0 1
-22.338974 28.331054 16.571068 39.702376 -0.903108 1.140234 0.032139 -0.024705 -638782.000000 0 0 1
-23.090674 29.646854 16.808068 41.165839 -0.909081 1.150204 0.027925 -0.028272 -227853.000000 0 0 1
-24.310174 29.438354 17.490268 41.994175 -0.880521 1.141212 0.019097 -0.027974 140967.000000 0 0 1
-25.196954 30.527254 17.225568 43.168506 -0.880763 1.160337 0.016719 -0.019985 -199984.000000 0 0 1
-26.582364 30.456454 17.866368 44.197565 -0.853214 1.154650 0.015914 -0.013778 -434456.000000 0 0 1
-27.468454 29.576654 17.163068 43.861889 -0.822338 1.168755 0.048811 -0.011961 743256.000000 0 0 1
-28.746964 29.571754 17.841668 44.935528 -0.799540 1.162496 0.081078 -0.017129 879337.000000 0 0 1
-28.916854 28.371554 18.855968 44.684192 -0.775880 1.135165 0.067608 -0.022406 -474156.000000 0 0 1
-29.165264 27.127654 18.202268 43.793205 -0.749217 1.142148 0.085565 -0.022125 182176.000000 0 0 1
-29.397414 26.087454 19.119168 43.707045 -0.725814 1.118048 0.087622 -0.024723 -6822.080000 0 0 1
-29.181904 24.702154 18.367668 42.416402 -0.702452 1.122942 0.097787 -0.029151 -91481.200000 0 0 1
-30.265704 24.485654 17.492368 42.679538 -0.680219 1.148503 0.116072 -0.032214 21644.500000 0 0 1
-30.080014 23.366954 16.563268 41.535089 -0.660450 1.160613 0.126428 -0.025965 -1087610.000000 0 0 1
-30.568524 21.971654 17.062768 41.331904 -0.623211 1.145245 0.116507 -0.019830 -1422870.000000 0 0 1
-31.829584 21.808854 16.567468 41.990826 -0.600707 1.165219 0.123333 -0.021829 -1382960.000000 0 0 1
-32.176404 20.440054 16.585168 41.571439 -0.565936 1.160418 0.119260 -0.030334 544501.000000 0 0 1
-33.644044 20.112054 16.153168 42.395061 -0.538792 1.179902 0.148199 -0.037510 569731.000000 0 0 1
-33.945674 20.357654 14.783368 42.252702 -0.540208 1.213354 0.126981 -0.042768 454388.000000 0 0 1
-35.186375 19.716454 14.461868 42.848164 -0.510750 1.226521 0.137587 -0.041137 528884.000000 0 0 1
-35.599831 19.645954 12.971968 42.680012 -0.504266 1.261976 0.142814 -0.032140 71994.700000 0 0 1
-36.060714 20.907354 12.518868 43.522576 -0.525421 1.279034 0.135257 -0.039963 -178841.000000 0 0 1
-36.353864 21.092954 11.124068 43.477132 -0.525743 1.312059 0.111836 -0.031131 215686.000000 0 0 1
-35.131330 21.054854 10.162268 42.199394 -0.539918 1.327590 0.103274 -0.027880 56003.500000 0 0 1
-34.563657 19.775354 10.119668 41.086721 -0.519685 1.321935 0.113920 -0.027282 43680.300000 0 0 1
-33.329194 19.874754 9.397968 39.926968 -0.537707 1.333188 0.124867 -0.024245 167293.000000 0 0 1
-32.338274 18.852854 9.973668 38.738458 -0.527817 1.310402 0.106171 -0.029026 -451922.000000 0 0 1
-31.837144 19.226554 11.238868 38.853266 -0.543285 1.277338 0.108029 -0.033312 150056.000000 0 0 1
-31.194064 18.104354 11.878468 37.972823 -0.525867 1.252641 0.087518 -0.028347 437219.000000 0 0 1
-30.661534 18.471754 13.338068 38.199992 -0.542212 1.214117 0.085842 -0.014905 55739.600000 0 0 1
-29.659994 19.454554 13.439568 37.931740 -0.580525 1.208621 0.077303 -0.016112 -45220.300000 0 0 1
-30.076144 20.828354 13.264068 38.914396 -0.605689 1.222973 0.100045 -0.017576 -720508.000000 0 0 1
-28.904054 21.717554 13.483668 38.586342 -0.644375 1.213821 0.089801 -0.023501 -470398.000000 0 0 1
-28.314154 21.664554 14.780568 38.594163 -0.653126 1.177783 0.097892 -0.014717 -564755.000000 0 0 1
-27.172264 22.464854 14.884468 38.269426 -0.690844 1.171317 0.074794 -0.020140 -891416.000000 0 0 1
-26.654354 22.298754 16.319668 38.392975 -0.696657 1.131758 0.073427 -0.019434 -647583.000000 0 0 1
-25.843174 21.176754 16.586668 37.302039 -0.686479 1.110003 0.071100 -0.016117 90083.200000 0 0 1
-25.457024 20.976554 17.905468 37.532408 -0.689204 1.073482 0.062336 -0.010028 -272572.000000 0 0 1
-24.431074 19.847554 18.025368 36.272809 -0.682250 1.050729 0.062264 -0.012967 -366181.000000 0 0 1
-23.963674 19.591554 19.286568 36.469965 -0.685352 1.013570 0.062776 -0.015363 -250905.000000 0 0 1
-22.919374 18.670154 19.178368 35.237510 -0.683581 0.995290 0.054566 -0.014723 -233440.000000 0 0 1
-22.027874 18.430054 20.457968 35.262197 -0.696704 0.951862 0.060506 -0.026316 229673.000000 0 0 1
-22.537574 17.687654 21.593868 35.876043 -0.665408 0.924915 0.089643 -0.012606 -475655.000000 0 0 1
-23.711674 18.133354 22.182168 37.190194 -0.652871 0.931723 0.050849 -0.014892 -663645.000000 0 0 1
-24.335474 17.101354 23.132168 37.679819 -0.612558 0.909787 0.075816 -0.016670 -338662.000000 0 0 1
-23.640174 16.839154 24.325368 37.870020 -0.618941 0.873251 0.066777 -0.019949 -167040.000000 0 0 1
-24.214774 15.823254 25.076168 38.282435 -0.578800 0.856573 0.084352 -0.022542 -288766.000000 0 0 1
21.392526 24.890454 33.401022 46.827376 0.860832 0.776630 0.089985 -0.027323 45014.900000 0 0 1
21.911926 23.606954 33.072128 46.164775 0.822619 0.772177 0.096611 -0.043687 10305.900000 0 0 1
21.105026 22.529854 33.474781 45.536550 0.818040 0.744954 0.095594 -0.043311 136870.000000 0 0 1
19.948626 22.042454 32.570897 44.098535 0.835221 0.739814 0.110767 -0.043492 -144946.000000 0 0 1
20.386726 21.483654 31.340111 43.120396 0.811590 0.757138 0.124709 -0.034932 180497.000000 0 0 1
19.470526 20.583954 30.721731 41.792646 0.813189 0.744984 0.095808 -0.025913 -165940.000000 0 0 1
20.078726 19.951954 29.503911 40.886629 0.782231 0.764681 0.094022 -0.020762 -318371.000000 0 0 1
21.165026 19.083854 29.649421 41.124688 0.733737 0.765604 0.081270 -0.022014 -378730.000000 0 0 1
21.498526 18.398554 28.446621 40.123605 0.707855 0.782753 0.068138 -0.019167 176526.000000 0 0 1
22.641726 17.348854 28.515691 40.333300 0.653810 0.785547 0.061931 -0.019114 -215468.000000 0 0 1
23.918326 17.913054 28.535971 41.319069 0.642813 0.808444 0.072473 -0.019439 -652437.000000 0 0 1
24.847526 16.940554 28.992321 41.772438 0.598393 0.803692 0.048621 -0.010874 154295.000000 0 0 1
26.282726 17.510154 29.106761 42.948699 0.587695 0.826152 0.046591 -0.020287 -147229.000000 0 0 1
27.037226 17.374654 27.926341 42.576645 0.571169 0.855412 0.026194 -0.011720 -887986.000000 0 0 1
28.342226 17.731254 28.223121 43.751842 0.559040 0.869678 0.029400 -0.015855 -717772.000000 0 0 1
29.357526 17.599654 27.081901 43.646781 0.540047 0.901443 0.020516 -0.007114 -278631.000000 0 0 1
29.344526 18.761754 26.285311 43.635103 0.568860 0.924305 0.022041 -0.009384 31635.300000 0 0 1
30.153326 18.575054 25.163911 43.445116 0.552116 0.953035 0.019476 -0.008265 -727862.000000 0 0 1
30.713026 19.799754 24.504201 43.997455 0.572619 0.980092 0.032036 -0.015025 -155224.000000 0 0 1
29.737926 20.556954 23.776551 43.269585 0.604843 0.989033 0.020044 -0.016935 219937.000000 0 0 1
30.204626 21.371754 22.718371 43.418840 0.615786 1.020151 0.015445 -0.017561 -146445.000000 0 0 1
30.813726 20.612754 21.517271 42.864487 0.589580 1.044906 0.028150 -0.017105 343708.000000 0 0 1
29.768226 19.868754 20.919471 41.455264 0.588544 1.041846 0.033886 -0.020053 388716.000000 0 0 1
30.185226 19.284154 19.634671 40.847849 0.568505 1.069368 0.047512 -0.023657 -456000.000000 0 0 1
31.173326 18.126954 19.639971 41.062040 0.526697 1.072079 0.076095 -0.037075 -324032.000000 0 0 1
30.702926 16.912654 20.172571 40.443048 0.503494 1.048595 0.080793 -0.032241 849720.000000 0 0 1
31.762526 15.934654 20.199371 40.875247 0.464991 1.053915 0.086120 -0.029211 435389.000000 0 0 1
31.170026 14.529954 20.600171 40.088117 0.436204 1.031104 0.088542 -0.028871 436824.000000 0 0 1
30.697526 14.471354 21.979871 40.433562 0.440521 0.996071 0.074135 -0.026803 83019.100000 0 0 1
29.335726 14.748854 22.156871 39.611115 0.465854 0.977183 0.063000 -0.026682 -662336.000000 0 0 1
28.689126 14.055754 23.353681 39.573028 0.455562 0.939562 0.029243 -0.013340 -92789.600000 0 0 1
28.037526 12.881854 22.954971 38.457453 0.430685 0.931174 0.037073 -0.013590 -376514.000000 0 0 1
27.320126 12.327754 24.017751 38.408530 0.423879 0.895250 0.027630 -0.010467 -374388.000000 0 0 1
26.769026 10.997154 23.578221 37.328952 0.389796 0.887138 0.046884 -0.010569 213383.000000 0 0 1
25.580026 11.159754 22.798471 36.036761 0.411376 0.885833 0.023886 -0.003562 334210.000000 0 0 1
25.297826 9.987454 22.078171 35.031056 0.376011 0.888927 0.035562 0.002298 9221.070000 0 0 1
24.027026 10.109354 21.194471 33.596170 0.398265 0.888136 0.037323 0.007311 -888368.000000 0 0 1
22.865826 10.013154 21.903471 33.209506 0.412754 0.850571 0.021771 0.006592 -1243480.000000 0 0 1
21.830326 9.516554 21.134271 31.839996 0.411094 0.844955 0.015031 0.015800 160303.000000 0 0 1
20.413826 9.304454 21.788971 31.273893 0.427660 0.799989 0.012362 0.002730 697218.000000 0 0 1
20.319026 8.312754 22.770671 31.630178 0.388337 0.767133 0.025449 0.002590 1122970.000000 0 0 1
18.921326 8.149254 23.097071 30.949986 0.406681 0.728354 0.008217 0.001143 857893.000000 0 0 1
18.621126 7.518554 24.431721 31.625685 0.383748 0.687984 0.012370 0.004712 -324515.000000 0 0 1
19.006526 6.162854 24.449461 31.575385 0.313553 0.685156 0.026799 0.002460 334618.000000 0 0 1
18.786326 5.593554 25.719681 32.337531 0.289388 0.651210 0.044976 -0.013111 -95058.600000 0 0 1
19.002026 4.061354 25.648381 32.177804 0.210565 0.648347 0.052416 -0.018084 1077660.000000 0 0 1
20.401526 3.707154 25.584801 32.932466 0.179748 0.681090 0.065479 -0.010378 1021760.000000 0 0 1
20.765126 2.315054 25.331961 32.836842 0.111029 0.689680 0.062670 -0.011486 604598.000000 0 0 1
22.324426 2.312554 25.236811 33.773133 0.103220 0.726889 0.065594 -0.006568 354079.000000 0 0 1
22.978826 2.359554 26.480431 35.139823 0.102325 0.717315 0.068197 -0.015744 76550.900000 0 0 1
24.368126 2.444554 26.182741 35.851323 0.099983 0.752014 0.070885 -0.015703 406230.000000 0 0 1
25.301126 2.832254 27.341421 37.359362 0.111478 0.749765 0.063484 -0.016136 -384454.000000 0 0 1
25.551626 1.807454 28.216731 38.109532 0.070620 0.737114 0.057124 -0.020771 187136.000000 0 0 1
26.409926 2.149154 29.304371 39.507584 0.081198 0.735135 0.053996 -0.008364 836043.000000 0 0 1
27.950426 2.163054 29.085921 40.396732 0.077235 0.766984 0.076112 -0.016653 -26180.900000 0 0 1
28.341326 3.328754 28.339121 40.217125 0.116917 0.788862 0.069570 -0.001469 754668.000000 0 0 1
29.708026 3.424254 27.903731 40.901229 0.114757 0.819998 0.067485 -0.001151 817573.000000 0 0 1
30.116826 2.455654 26.729601 40.342596 0.081358 0.846558 0.070793 -0.003078 -224269.000000 0 0 1
29.539026 2.811154 25.480631 39.111625 0.094882 0.861256 0.055694 0.010377 104832.000000 0 0 1
29.937426 1.889554 24.480801 38.718594 0.063033 0.886310 0.059679 0.015333 -172584.000000 0 0 1
29.469226 2.264154 23.090571 37.506481 0.076680 0.907596 0.064064 0.005999 273718.000000 0 0 1
30.311526 3.206054 22.454971 37.858858 0.105378 0.935864 0.065786 0.007894 60012.200000 0 0 1
31.602626 2.835454 22.011571 38.617030 0.089482 0.964295 0.057110 0.005734 182606.000000 0 0 1
32.330626 3.993254 21.346171 38.947073 0.122891 0.990727 0.059002 -0.000349 -227753.000000 0 0 1
31.612326 4.404754 20.162271 37.752592 0.138445 1.007397 0.058427 -0.009502 308221.000000 0 0 1
32.049126 5.701954 19.714471 38.056788 0.176071 1.026253 0.087696 -0.007145 153174.000000 0 0 1
33.524826 5.850154 19.199471 39.073750 0.172763 1.057140 0.075723 -0.011674 218173.000000 0 0 1
34.443826 5.762554 20.262971 40.375391 0.165768 1.045043 0.085439 -0.008999 -240892.000000 0 0 1
34.611226 6.940954 21.038971 41.094429 0.197915 1.033324 0.102318 -0.014302 -768229.000000 0 0 1
35.573726 6.842254 22.224371 42.499754 0.190020 1.020512 0.100082 -0.010592 109681.000000 0 0 1
35.069726 5.842754 23.152371 42.427064 0.165088 0.993574 0.081772 -0.003256 600577.000000 0 0 1
35.939726 5.800454 24.279691 43.758571 0.160014 0.982607 0.091950 0.002013 113517.000000 0 0 1
35.307426 5.140354 25.516421 43.864853 0.144573 0.949973 0.072284 0.004807 4905.580000 0 0 1
35.089326 3.754954 25.322231 43.434731 0.106606 0.948386 0.065093 0.004047 135793.000000 0 0 1
34.093126 3.214554 26.178431 43.104348 0.094010 0.918105 0.061232 0.008877 255706.000000 0 0 1
34.086726 1.650254 26.116441 42.973209 0.048376 0.917588 0.042991 0.014721 -6100.770000 0 0 1
33.529326 1.149854 24.926301 41.795435 0.034281 0.931802 0.046057 0.008640 -26494.000000 0 0 1
33.765326 -0.224646 24.827231 41.911086 -0.006653 0.936788 0.042292 0.000522 -149737.000000 0 0 1
32.979826 -0.912146 23.688021 40.615555 -0.027651 0.948103 0.057196 0.008563 -357441.000000 0 0 1
31.645826 -1.139146 24.039301 39.757313 -0.035981 0.921469 0.059989 0.006509 -785336.000000 0 0 1
30.926126 -1.556546 22.910271 38.519198 -0.050289 0.933810 0.056699 -0.009101 59208.800000 0 0 1
29.467926 -1.936546 23.266851 37.595947 -0.065623 0.903498 0.080819 0.004338 224233.000000 0 0 1
28.598826 -0.839346 23.172871 36.818193 -0.029341 0.890033 0.056618 0.011264 -277473.000000 0 0 1
27.250826 -1.236946 23.034471 35.703283 -0.045360 0.869558 0.066125 0.010929 97774.600000 0 0 1
26.179226 -0.154946 22.963671 34.823930 -0.005919 0.850746 0.079512 -0.004062 -146412.000000 0 0 1
26.221326 0.621354 21.812171 34.113265 0.023692 0.877073 0.064074 -0.009378 108006.000000 0 0 1
25.184826 1.594354 21.866871 33.391278 0.063222 0.856789 0.072260 -0.003196 170164.000000 0 0 1
25.145426 2.738354 20.902971 32.813492 0.108473 0.880165 0.061798 -0.007252 21865.800000 0 0 1
24.582126 2.355454 19.617071 31.538208 0.095528 0.899490 0.066626 -0.013292 426383.000000 0 0 1
23.911026 3.446354 19.009871 30.740685 0.143147 0.904098 0.065884 -0.016919 31747.700000 0 0 1
23.746426 3.253254 17.460971 29.654037 0.136152 0.941195 0.067497 -0.015656 -115354.000000 0 0 1
24.969526 3.141754 16.762371 30.237806 0.125166 0.983213 0.059770 -0.022783 -109489.000000 0 0 1
24.958426 3.436754 15.394371 29.524921 0.136839 1.022302 0.060313 -0.019916 -343188.000000 0 0 1
24.355526 2.396754 14.407771 28.399295 0.098091 1.038714 0.053988 -0.020117 777388.000000 0 0 1
22.924626 2.286354 14.442971 27.191273 0.099405 1.010825 0.079061 -0.016549 905014.000000 0 0 1
22.546626 1.169954 13.636371 26.375552 0.051844 1.027445 0.067732 -0.026447 -441328.000000 0 0 1
21.106126 0.645054 13.777771 25.213322 0.030553 0.992679 0.092078 -0.032040 220889.000000 0 0 1
20.030926 1.374854 13.162171 24.007727 0.068529 0.990529 0.099736 -0.029854 988411.000000 0 1 0
19.943126 1.308054 11.710171 23.163924 0.065495 1.040795 0.101231 -0.023235 -851971.000000 0 1 0
19.556026 -0.064546 11.022671 22.448643 -0.003301 1.057539 0.090928 -0.025375 -575717.000000 0 1 0
20.455426 -1.118346 11.096671 23.298310 -0.054618 1.074370 0.083493 -0.031268 -152268.000000 0 1 0
21.575126 -0.916946 10.265171 23.910261 -0.042475 1.127056 0.073136 -0.026348 398235.000000 0 1 0
22.854526 -1.779546 10.642371 25.273627 -0.077707 1.136154 0.082053 -0.029323 743653.000000 0 0 1
23.338726 -1.538946 11.945871 26.263441 -0.065844 1.098595 0.067691 -0.033717 -253465.000000 0 0 1
24.355126 -2.370146 12.391371 27.428741 -0.097011 1.102053 0.040170 -0.027205 -422916.000000 0 0 1
24.555026 -2.186646 13.929671 28.315481 -0.088817 1.056473 0.059962 -0.021045 50606.100000 0 0 1
25.455126 -1.119046 14.288271 29.212504 -0.043933 1.059722 0.052464 -0.012381 358315.000000 0 0 1
25.743126 -1.103246 15.654771 30.149586 -0.042830 1.024839 0.045179 -0.023267 863717.000000 0 0 1
27.016726 -0.209846 15.995071 31.397290 -0.007767 1.036261 0.064594 -0.020282 1036710.000000 0 0 1
28.222826 -0.943446 15.847671 32.381579 -0.033416 1.059390 0.055784 -0.018025 225666.000000 0 0 1
29.330026 -0.051446 15.949171 33.386062 -0.001754 1.072739 0.044097 -0.013789 -92279.700000 0 0 1
30.691726 -0.723546 16.085871 34.659210 -0.023570 1.088161 0.045523 -0.012540 -318773.000000 0 0 1
31.212526 -1.202746 14.874071 34.596335 -0.038515 1.126379 0.068611 -0.013835 -1288610.000000 0 0 1
32.470626 -1.714646 14.973571 35.797896 -0.052757 1.139245 0.063499 -0.014466 -1188220.000000 0 0 1
32.948726 -2.450546 13.663671 35.753596 -0.074238 1.178661 0.072195 -0.021331 -79472.000000 0 0 1
33.377726 -1.543346 12.696271 35.744228 -0.046206 1.207671 0.080557 -0.023712 -49899.800000 0 0 1
33.584626 -2.222746 11.520671 35.575182 -0.066087 1.241011 0.084999 -0.022488 -59414.100000 0 0 1
33.152926 -1.455146 10.246371 34.730708 -0.043864 1.271316 0.102220 -0.019192 -246164.000000 0 0 1
33.906226 -0.300446 9.995971 35.350274 -0.008861 1.284116 0.110551 -0.022253 532414.000000 0 0 1
33.050326 0.773954 9.652371 34.439676 0.023413 1.286722 0.095809 -0.019769 -143982.000000 0 0 1
33.865426 2.064854 9.485271 35.229264 0.060897 1.298188 0.101819 -0.022644 31218.800000 0 0 1
34.563126 2.026854 8.244271 35.590530 0.058575 1.337031 0.106030 -0.022032 316192.000000 0 0 1
34.922626 3.326654 7.806771 35.938866 0.094971 1.351827 0.108211 -0.022260 -108503.000000 0 0 1
35.173726 3.366054 6.301371 35.891901 0.095407 1.394316 0.100902 -0.027560 -84639.500000 0 0 1
35.482026 4.656954 5.789771 36.251660 0.130502 1.410399 0.094472 -0.019412 217329.000000 0 0 1
35.621726 4.560654 4.386271 36.179363 0.127337 1.449261 0.106582 -0.025698 -170456.000000 0 0 1
36.058826 5.929454 3.784471 36.738530 0.162980 1.467602 0.115638 -0.041719 174713.000000 0 0 1
35.157926 6.996954 4.101871 36.081331 0.196448 1.456866 0.117898 -0.044675 40323.800000 0 0 1
35.482426 8.261654 3.564271 36.605485 0.228762 1.473272 0.116142 -0.055284 -1187370.000000 0 0 1
34.371926 9.303854 3.738871 35.804611 0.264347 1.466181 0.132805 -0.064138 501099.000000 0 0 1
33.214626 9.293154 2.907471 34.612533 0.272815 1.486697 0.132940 -0.063823 335775.000000 0 0 1
32.432826 8.112254 2.980871 33.564601 0.245096 1.481869 0.147655 -0.056484 -1547560.000000 0 0 1
31.296726 8.123654 1.973171 32.394015 0.253964 1.509847 0.158199 -0.062971 -651157.000000 0 0 1
31.547726 7.993654 0.621271 32.550630 0.248160 1.551709 0.155007 -0.060906 561147.000000 0 0 1
30.338226 7.880354 -0.147229 31.345328 0.254134 1.575493 0.141266 -0.050046 497646.000000 0 0 1
30.697026 7.825354 -1.655229 31.721969 0.249606 1.622999 0.125898 -0.036037 200097.000000 0 0 1
29.705326 7.144654 -2.432929 30.649170 0.236034 1.650260 0.136864 -0.034767 938750.000000 0 0 1
30.172926 6.850854 -3.702829 31.161685 0.223268 1.689904 0.128409 -0.031837 -187746.000000 0 0 1
29.009526 6.185754 -4.470529 29.996696 0.210085 1.720388 0.128495 -0.029706 -84289.500000 0 0 1
28.904026 4.760154 -4.238129 29.598370 0.163223 1.714478 0.129735 -0.032178 1293250.000000 0 0 1
27.792026 4.171754 -4.955529 28.536950 0.148994 1.745334 0.115488 -0.022960 359574.000000 0 0 1
27.693826 2.648954 -4.983729 28.263094 0.095361 1.748057 0.136534 -0.019205 -375164.000000 0 0 1
27.236126 2.098154 -3.778829 27.576953 0.076884 1.708257 0.138760 -0.026181 442004.000000 0 0 1
27.284626 0.690454 -3.824129 27.559962 0.025300 1.710002 0.130545 -0.029994 -148548.000000 0 0 1
27.336126 0.147254 -2.365929 27.438715 0.005387 1.657129 0.145062 -0.026651 412326.000000 0 0 1
28.606326 0.524254 -1.836429 28.670005 0.018324 1.634894 0.141639 -0.022971 681988.000000 0 0 1
28.712626 0.140054 -0.421429 28.716060 0.004878 1.585473 0.143309 -0.023072 329790.000000 0 0 1
30.043226 0.665054 0.207071 30.051299 0.022133 1.563906 0.155217 -0.024042 460243.000000 0 0 1
31.191126 0.009054 -0.272429 31.192317 0.000290 1.579530 0.122402 -0.021787 -85080.800000 0 0 1
32.385326 0.537054 0.247771 32.390726 0.016582 1.563147 0.087558 -0.026190 -108470.000000 0 0 1
-3.097274 -21.221246 -8.545432 23.085901 1.425868 1.949975 0.032369 -0.006739 250056.000000 0 1 0
-3.488374 -21.553346 -7.251932 23.006651 1.410339 1.891475 0.039269 -0.017030 149286.000000 0 1 0
-2.670574 -22.656846 -6.832632 23.814901 1.453467 1.861792 0.041793 -0.016700 311338.000000 0 1 0
-3.191274 -23.241646 -5.516932 24.099687 1.434341 1.801766 0.043594 -0.008130 -424583.000000 0 1 0
-3.004674 -22.434446 -4.388932 23.056348 1.437657 1.762322 0.047260 -0.015027 -459572.000000 0 1 0
-3.523974 -23.101146 -3.262432 23.595017 1.419418 1.709509 0.041339 -0.018329 -234782.000000 0 1 0
-2.897674 -22.586146 -1.965532 22.855937 1.443199 1.656899 0.039624 -0.025185 408083.000000 0 1 0
-1.476874 -22.582946 -1.935232 22.713779 1.505492 1.656101 0.051862 -0.024540 -323219.000000 0 1 0
-1.090074 -22.463546 -0.556132 22.496854 1.522308 1.595519 0.044773 -0.025873 -219953.000000 0 1 0
0.410926 -22.499546 -0.289332 22.505158 -1.552535 1.583653 0.051204 -0.027945 -709461.000000 0 1 0
1.106526 -21.439946 -0.783232 21.482764 -1.519232 1.607263 0.034400 -0.022881 -889216.000000 0 1 0
2.271626 -21.160046 -0.060732 21.281718 -1.463851 1.573650 0.028472 -0.021092 -70265.300000 0 1 0
3.157626 -20.037246 -0.615732 20.293865 -1.414494 1.601142 0.033684 -0.019595 523607.000000 0 1 0
3.863326 -20.416746 -1.815332 20.858194 -1.383784 1.657939 0.028976 -0.017440 -460083.000000 0 1 0
4.750726 -19.442546 -2.249932 20.140611 -1.331145 1.682741 0.038541 -0.014603 -321709.000000 0 1 0
5.647226 -20.061946 -3.351632 21.109389 -1.296407 1.730246 0.035472 -0.005705 -238137.000000 0 1 0
6.534926 -21.135646 -2.962932 22.320389 -1.270930 1.703935 0.045096 -0.008829 439604.000000 0 1 0
7.415926 -21.614646 -3.964632 23.192826 -1.240284 1.742582 0.042973 -0.008439 475526.000000 0 1 0
8.493226 -20.708646 -4.605832 22.851622 -1.181588 1.773740 0.062470 -0.007681 -420120.000000 0 1 0
8.096726 -19.660546 -5.502132 21.962867 -1.180137 1.824013 0.041508 -0.011365 -751263.000000 0 1 0
9.201926 -19.111246 -6.120532 22.076596 -1.122064 1.851717 0.052423 -0.011089 -534387.000000 0 1 0
8.789626 -18.025346 -7.099432 21.273753 -1.117097 1.911041 0.030513 -0.003181 1017740.000000 0 1 0
9.986826 -17.739846 -7.897032 21.835795 -1.058057 1.940839 0.039081 0.001688 1705290.000000 0 1 0
9.822926 -16.472446 -8.546632 20.997054 -1.033084 1.990007 0.036549 -0.003340 -90184.900000 0 1 0
10.525626 -16.370146 -9.904832 21.837495 -0.999374 2.041563 0.037633 -0.008684 -376363.000000 0 1 0
9.961626 -17.222346 -10.932232 22.701474 -1.046401 2.073236 0.039597 -0.002093 183213.000000 0 1 0
8.951226 -16.576246 -11.665532 22.158092 -1.075661 2.125238 0.015460 -0.010109 -227740.000000 0 1 0
8.501326 -17.204346 -13.031132 23.196389 -1.111849 2.167325 0.023230 -0.012195 -336537.000000 0 1 0
7.431826 -18.032846 -12.693732 23.271150 -1.179879 2.147747 0.022243 -0.007921 -271365.000000 0 1 0
6.890626 -18.649146 -13.854332 24.232497 -1.216867 2.179404 0.014877 -0.005898 164092.000000 0 1 0
5.649826 -19.548246 -13.732632 24.548720 -1.289444 2.164462 0.012925 0.004193 -179601.000000 0 1 0
5.971326 -20.787946 -13.152432 25.313671 -1.291078 2.117154 0.018271 -0.003301 234822.000000 0 0 1
4.836026 -21.619046 -12.903632 25.637356 -1.350726 2.098226 0.041628 -0.010105 357387.000000 0 0 1
5.227526 -23.057446 -12.574032 26.778334 -1.347848 2.059589 0.023531 -0.009336 -330545.000000 0 0 1
5.531826 -23.694146 -13.792832 27.968838 -1.341437 2.086503 0.032581 -0.011968 -115094.000000 0 0 1
5.261226 -25.113276 -13.752632 29.111717 -1.364283 2.062818 0.025820 -0.012553 503671.000000 0 0 1
3.800526 -25.549156 -14.123132 29.439196 -1.423126 2.071154 0.042103 -0.022860 348613.000000 0 0 1
2.888926 -25.044046 -13.162832 28.439590 -1.455950 2.051987 0.042073 -0.018694 114905.000000 0 0 1
1.533526 -25.081906 -13.607832 28.576683 -1.509732 2.067109 0.047177 -0.027678 456796.000000 0 0 1
0.674026 -26.330026 -13.228432 29.473989 -1.545203 2.036238 0.043679 -0.017222 -723643.000000 0 0 1
0.926026 -27.396156 -14.106332 30.828485 -1.537008 2.046062 0.045870 -0.017813 94092.400000 0 0 1
0.563226 -28.634166 -13.575832 31.694415 -1.551129 2.013446 0.033982 -0.012149 372619.000000 0 0 1
-0.888774 -29.139366 -13.804832 32.256255 1.540305 2.013046 0.022281 -0.020167 881185.000000 0 0 1
-1.962874 -28.460116 -13.164532 31.418721 1.501936 2.003143 0.025489 -0.019604 372754.000000 0 0 1
-3.233374 -28.903086 -13.596432 32.104611 1.459390 2.008106 0.034016 -0.017672 902778.000000 0 0 1
-4.514774 -28.102466 -13.099232 31.332438 1.411503 2.002119 0.031268 -0.020962 860048.000000 0 0 1
-4.928774 -28.216346 -11.730732 30.952627 1.397863 1.959501 0.023182 -0.025947 13442.200000 0 0 1
-5.516474 -29.435356 -11.418232 32.050705 1.385536 1.935053 0.033923 -0.025888 -701294.000000 0 0 1
-5.746874 -29.589726 -9.876632 31.719494 1.378966 1.887435 0.027674 -0.027076 -121496.000000 0 0 1
-6.964274 -29.084326 -9.384832 31.344445 1.335770 1.874870 0.030872 -0.022958 -410814.000000 0 0 1
-7.046974 -27.660996 -9.323532 30.028633 1.321341 1.886503 0.037075 -0.021935 -1234340.000000 0 0 1
-8.396374 -27.150676 -8.760032 29.738804 1.270874 1.869797 0.032763 -0.021852 -121081.000000 0 0 1
-9.448474 -27.359496 -9.654432 30.512682 1.238274 1.892736 0.037378 -0.024035 -420917.000000 0 0 1
-9.942674 -28.681616 -9.780332 31.892739 1.237103 1.882482 0.053899 -0.034416 -2038890.000000 0 0 1
-11.144174 -28.752466 -10.659832 32.627120 1.201034 1.903624 0.055517 -0.027793 -1259120.000000 0 0 1
-10.908674 -28.302496 -11.981032 32.612507 1.202912 1.946982 0.061578 -0.031113 175117.000000 0 0 1
-11.730474 -28.958326 -12.947432 33.820477 1.185917 1.963652 0.066712 -0.033913 -71682.300000 0 0 1
-11.710074 -28.245076 -14.332832 33.768924 1.177778 2.009138 0.077081 -0.029008 -102432.000000 0 0 1
-12.677274 -27.243746 -14.619332 33.416461 1.135269 2.023601 0.054444 -0.039197 310065.000000 0 0 1
-12.582874 -26.109846 -13.744732 32.077569 1.121717 2.013611 0.069506 -0.030695 140364.000000 0 0 1
-13.772574 -25.114126 -13.906632 31.840188 1.069183 2.022794 0.083529 -0.025998 174279.000000 0 0 1
-13.520674 -24.102446 -14.844332 31.370221 1.059572 2.063714 0.072295 -0.024641 348537.000000 0 0 1
-14.732674 -23.428546 -15.149532 31.550861 1.009444 2.071636 0.086131 -0.023304 47057.700000 0 0 1
-14.556574 -22.398746 -16.275232 31.280679 0.994503 2.117995 0.073851 -0.020097 414847.000000 0 0 1
-13.752174 -21.200446 -16.035732 29.928681 0.995354 2.136249 0.068624 -0.018129 633459.000000 0 0 1
-13.685574 -20.418146 -17.191632 29.995797 0.980307 2.181122 0.061294 -0.006553 -294082.000000 0 0 1
-13.403174 -18.994946 -16.948232 28.769700 0.956310 2.200741 0.061999 -0.012270 -5050.720000 0 0 1
-12.072574 -18.527246 -17.067932 27.934212 0.993289 2.228125 0.059601 -0.009477 242331.000000 0 0 1
-12.096474 -17.122746 -17.300532 27.181272 0.955750 2.260732 0.067975 -0.011580 -519457.000000 0 0 1
-10.744474 -16.482246 -17.580332 26.385152 0.993099 2.300027 0.072746 -0.019863 -593068.000000 0 0 1
-10.066574 -16.194046 -16.383832 25.139869 1.014630 2.280629 0.094861 -0.019638 -1325600.000000 0 0 1
-8.827174 -15.715646 -16.643032 24.533468 1.059030 2.316353 0.077814 -0.016984 -1831000.000000 0 1 0
-7.965874 -14.984346 -15.586132 23.041556 1.082179 2.313709 0.075781 -0.016306 182618.000000 0 1 0
-7.559974 -15.849246 -14.501832 22.773997 1.125723 2.261100 0.066157 -0.018902 584341.000000 0 1 0
-6.600974 -16.874646 -14.852132 23.428879 1.197919 2.257413 0.063871 -0.004842 -393022.000000 0 1 0
-6.211574 -17.665846 -13.536332 23.106235 1.232684 2.196701 0.052191 -0.010444 -607607.000000 0 1 0
-5.466674 -16.939946 -12.597632 21.807032 1.258638 2.186688 0.039951 -0.007704 67877.500000 0 1 0
-5.355674 -17.675146 -11.430232 21.719674 1.276584 2.124995 0.040136 -0.013210 109895.000000 0 1 0
-4.198874 -18.732746 -11.388032 22.321147 1.350295 2.106202 0.042956 -0.016233 -171428.000000 0 1 0
-2.890474 -18.224946 -11.402932 21.691712 1.413507 2.124312 0.031470 -0.005606 -661880.000000 0 1 0
-2.015974 -19.297746 -11.607032 22.609519 1.466707 2.109903 0.021018 0.000307 739616.000000 0 1 0
-0.537874 -18.926946 -11.989432 22.411272 1.542386 2.135273 0.016202 0.011014 53583.200000 0 1 0
-0.417174 -18.486546 -13.321732 22.790239 1.548234 2.195105 0.022737 -0.000990 -9005.950000 0 1 0
0.792726 -17.814146 -13.680832 22.475262 -1.526326 2.225225 0.021308 -0.003047 651444.000000 0 1 0
2.034626 -18.736546 -13.775532 23.344446 -1.462629 2.201978 0.033870 -0.009444 -689030.000000 0 1 0
2.068226 -19.585546 -14.897432 24.694224 -1.465587 2.218399 0.050272 -0.011577 172294.000000 0 1 0
1.409926 -20.856446 -14.759632 25.589568 -1.503298 2.185582 0.045688 -0.017802 -996200.000000 0 0 1
1.303826 -21.667146 -16.052532 26.997203 -1.510694 2.207564 0.066902 -0.017470 681138.000000 0 0 1
2.443026 -22.363946 -16.614032 27.966776 -1.461988 2.206897 0.058793 -0.015645 283521.000000 0 0 1
3.562426 -21.521146 -16.760632 27.509442 -1.406752 2.225934 0.051411 -0.016612 -1236260.000000 0 0 1
4.867626 -22.306346 -16.856432 28.379679 -1.355947 2.206770 0.056761 -0.019904 -550654.000000 0 0 1
5.059826 -23.027746 -18.027532 29.679469 -1.354506 2.223589 0.079461 -0.023615 -58937.800000 0 0 1
6.340726 -23.624446 -18.026732 30.385562 -1.308579 2.205907 0.075929 -0.024735 181241.000000 0 0 1
6.831826 -23.567446 -19.501432 31.343328 -1.288646 2.242330 0.095098 -0.018470 -279425.000000 0 0 1
7.029026 -22.225246 -20.030432 30.734134 -1.264487 2.280663 0.105179 -0.033294 2870.470000 0 0 1
7.325226 -22.130746 -21.399732 31.644548 -1.251149 2.313461 0.102351 -0.032281 -294862.000000 0 0 1
7.348726 -20.698646 -21.955632 31.056199 -1.229644 2.355993 0.102641 -0.038891 531711.000000 0 0 1
6.060626 -20.115746 -22.141932 30.522772 -1.278159 2.382446 0.109274 -0.039972 374750.000000 0 0 1
6.177426 -18.724546 -22.325532 29.785880 -1.252129 2.418154 0.113978 -0.038175 -952809.000000 0 0 1
4.892526 -18.042446 -22.650232 29.368345 -1.305997 2.451593 0.110241 -0.035381 -1763590.000000 0 0 1
4.302726 -18.462546 -23.871232 30.483025 -1.341832 2.470430 0.106476 -0.035899 813879.000000 0 0 1
3.144726 -17.727146 -24.308432 30.249643 -1.395227 2.504106 0.082964 -0.025704 1466500.000000 0 0 1
1.868226 -17.602346 -23.415632 29.353445 -1.465057 2.494290 0.067801 -0.013867 37161.000000 0 0 1
2.076426 -16.625846 -22.459832 28.020963 -1.446548 2.500657 0.074378 -0.018775 -131635.000000 0 0 1
0.831226 -16.153946 -21.997032 27.304035 -1.519385 2.507540 0.052448 -0.009051 218698.000000 0 0 1
1.021126 -15.259546 -20.769732 25.792988 -1.503979 2.506889 0.033506 -0.007108 345953.000000 0 0 1
2.037326 -14.251946 -20.837332 25.327122 -1.428808 2.536990 0.033401 -0.005965 205838.000000 0 0 1
2.194626 -13.518646 -19.680532 23.976938 -1.409860 2.533626 0.031312 -0.008529 -419051.000000 0 1 0
3.361926 -12.541946 -19.687032 23.583516 -1.308899 2.558528 0.036161 -0.008543 -756471.000000 0 1 0
4.551226 -13.214246 -19.376732 23.891164 -1.239103 2.516727 0.044708 -0.011072 -888889.000000 0 1 0
5.729826 -12.477146 -19.486832 23.837926 -1.140297 2.527804 0.049746 -0.009002 133365.000000 0 1 0
6.181926 -11.399846 -18.431432 22.536424 -1.073898 2.528462 0.045386 -0.004740 -158169.000000 0 1 0
5.288326 -10.284946 -18.307432 21.654297 -1.095868 2.578187 0.025078 0.001171 57091.500000 0 1 0
5.523626 -9.161846 -19.151132 21.936630 -1.028251 2.632159 0.035715 -0.006017 -298296.000000 0 1 0
4.904526 -9.262846 -20.549932 23.068472 -1.083841 2.669950 0.046775 -0.014237 180011.000000 0 1 0
3.485826 -9.364346 -20.525532 22.828479 -1.214444 2.688550 0.038414 -0.016659 -68654.400000 0 1 0
2.981726 -9.367246 -21.833432 23.944410 -1.262623 2.718536 0.043665 -0.022726 -574841.000000 0 1 0
1.464026 -9.340346 -21.751932 23.717757 -1.415319 2.731580 0.049890 -0.022685 -613954.000000 0 1 0
0.960426 -8.020946 -21.632232 23.091372 -1.451624 2.784194 0.035917 -0.014940 -263380.000000 0 1 0
-0.443474 -7.934746 -21.732332 23.139817 1.514964 2.791016 0.034651 -0.012710 -58062.500000 0 1 0
-0.842874 -6.974046 -22.799932 23.857592 1.450521 2.842716 0.048254 -0.010096 -312424.000000 0 1 0
-0.676374 -7.396646 -24.128732 25.246061 1.479607 2.842969 0.056612 -0.012603 -377026.000000 0 0 1
-1.351974 -6.607646 -25.070252 25.961633 1.368974 2.878789 0.059630 -0.019379 -10023.200000 0 0 1
-0.795474 -5.200146 -25.347992 25.888125 1.419002 2.936961 0.065862 -0.019692 138687.000000 0 0 1
-1.443074 -4.728946 -26.504202 26.961420 1.274614 2.957167 0.069206 -0.018746 -205213.000000 0 0 1
-1.033774 -3.466246 -26.907332 27.149366 1.280955 3.007965 0.056249 -0.018752 -531198.000000 0 0 1
-1.396674 -2.157746 -26.127082 26.253209 0.996333 3.043530 0.059354 -0.018959 -476503.000000 0 0 1
-2.758774 -1.876246 -26.033142 26.246060 0.597246 3.014130 0.052904 -0.018164 -566806.000000 0 0 1
-3.294474 -1.258646 -27.200662 27.428339 0.364935 3.012656 0.066890 -0.013056 637536.000000 0 0 1
-4.866274 -1.248046 -27.179992 27.640373 0.251057 2.958822 0.057244 -0.010792 971073.000000 0 0 1
-5.423774 -0.365046 -26.190382 26.748583 0.067203 2.936940 0.058126 -0.017179 207078.000000 0 0 1
-6.839274 -0.420146 -26.175562 27.057573 0.061354 2.885561 0.072742 -0.025710 115395.000000 0 0 1
-7.465674 0.862454 -25.503652 26.587900 -0.115013 2.855027 0.070928 -0.028499 -376327.000000 0 0 1
-7.649274 1.993554 -26.349152 27.509335 -0.254949 2.850134 0.071253 -0.028179 715217.000000 0 0 1
-8.690374 1.872654 -27.323902 28.733692 -0.212241 2.827044 0.087045 -0.033839 1307350.000000 0 0 1
-10.210074 1.746354 -26.916402 28.840737 -0.169403 2.774228 0.079769 -0.034846 827006.000000 0 0 1
-11.210074 2.092454 -27.894062 30.135077 -0.184535 2.753505 0.082935 -0.041525 5921.080000 0 0 1
-12.421774 1.580754 -27.399572 30.125335 -0.126576 2.712922 0.047781 -0.026574 160878.000000 0 0 1
-13.553774 2.098854 -28.400102 31.538481 -0.153634 2.691692 0.029608 -0.016030 550832.000000 0 0 1
-14.869474 1.707254 -27.997492 31.747056 -0.114315 2.650658 0.022493 -0.013130 961767.000000 0 0 1
-15.848874 2.183854 -28.944792 33.071998 -0.136930 2.636657 0.017130 -0.008786 309465.000000 0 0 1
-16.638374 3.427554 -28.487892 33.168413 -0.203161 2.603887 0.028712 0.000961 -248417.000000 0 0 1
-15.924674 4.679054 -28.281132 32.791939 -0.285781 2.610870 0.044106 -0.006063 27999.900000 0 0 1
-15.691374 5.408354 -29.465992 33.818844 -0.331919 2.628619 0.036672 -0.007940 -325821.000000 0 0 1
-16.847574 6.050354 -30.269912 35.166961 -0.344779 2.607535 0.045508 -0.000458 -227347.000000 0 0 1
-17.378874 7.163954 -29.614932 35.076940 -0.390998 2.576026 0.056898 -0.001150 101859.000000 0 0 1
-18.291274 7.912254 -30.412022 36.360220 -0.408265 2.561495 0.060276 -0.008744 -458481.000000 0 0 1
-19.201874 8.723754 -29.524082 36.283430 -0.426439 2.521298 0.061697 -0.005464 -580229.000000 0 0 1
-18.455574 9.659954 -28.773842 35.522626 -0.482205 2.514973 0.059553 -0.004218 263846.000000 0 0 1
-19.237574 10.738254 -28.282392 35.850915 -0.509111 2.479795 0.082963 -0.002303 -247565.000000 0 0 1
-8.813874 25.432554 30.851851 40.943081 -1.237190 0.717381 0.038506 -0.017399 -514552.000000 0 0 1
-9.684074 26.525854 30.845801 41.819441 -1.220750 0.741295 0.036564 -0.012134 -339068.000000 0 0 1
-9.281674 27.522354 31.699431 42.993992 -1.245533 0.741733 0.040043 -0.022346 750076.000000 0 0 1
-7.863074 28.180954 31.444241 42.950371 -1.298696 0.749387 0.044543 -0.021120 820721.000000 0 0 1
-7.803574 28.805354 30.180471 42.444140 -1.306239 0.779787 0.051821 -0.019782 1160090.000000 0 0 1
-6.412974 29.012254 29.840421 42.110424 -1.353251 0.783251 0.050665 -0.015656 1110090.000000 0 0 1
-6.221874 30.194554 28.875711 42.240141 -1.367581 0.818101 0.061022 -0.019957 -98151.600000 0 0 1
-6.731274 31.356154 29.508271 43.580460 -1.359334 0.826983 0.056745 -0.023118 394437.000000 0 0 1
-6.512774 32.565054 28.849241 43.990654 -1.373408 0.855549 0.054695 -0.017729 -149881.000000 0 0 1
-6.960674 33.727754 29.734051 45.498639 -1.367275 0.858577 0.054269 -0.017741 -234888.000000 0 0 1
-6.163274 33.806754 30.914051 46.222950 -1.390468 0.838199 0.060856 -0.028102 282565.000000 0 0 1
-6.808074 -33.573746 31.889881 46.802893 1.370729 0.821170 0.049724 -0.031606 202710.000000 0 0 1
-8.046474 34.057054 32.626113 47.844455 -1.338786 0.820411 0.010211 -0.026537 4567.400000 0 0 1
-7.740174 33.020954 33.513234 47.680505 -1.340551 0.791371 0.016895 -0.023047 -47866.600000 0 0 1
-7.497574 31.736254 32.947003 46.356320 -1.338804 0.780256 0.040596 -0.020918 -196552.000000 0 0 1
-7.181074 30.546454 33.896007 46.190832 -1.339902 0.746860 0.043011 -0.017541 -180035.000000 0 0 1
-5.881874 30.549554 -33.787622 45.929023 -1.380588 2.397420 0.053146 -0.029768 -193324.000000 0 0 1
-5.971374 29.953254 -32.514432 44.609898 -1.374020 2.387454 0.043275 -0.016425 -115675.000000 0 0 1
-4.612174 29.655854 -31.807182 43.731438 -1.416509 2.385220 0.048981 -0.025941 581561.000000 0 0 1
-3.880074 28.489954 -32.082862 43.081812 -1.435438 2.410876 0.060325 -0.018229 -227093.000000 0 0 1
-3.320074 28.396454 -33.385172 43.953967 -1.454406 2.433415 0.048524 -0.019459 -686481.000000 0 0 1
-2.543374 27.091254 -33.462442 43.129338 -1.477189 2.458878 0.059840 -0.034533 -1189310.000000 0 0 1
-1.336574 27.069954 -32.734662 42.498552 -1.521462 2.450035 0.077371 -0.027238 158045.000000 0 0 1
-0.537874 25.914954 -32.828212 41.827810 -1.550044 2.473237 0.080952 -0.024548 269831.000000 0 0 1
0.112026 25.582854 34.045691 42.586430 1.566417 0.644418 0.079295 -0.026378 -530383.000000 0 0 1
-0.907074 25.168454 33.148830 41.630743 -1.534772 0.649711 0.072358 -0.024488 161744.000000 0 0 1
-0.478874 24.911254 31.785101 40.386787 -1.551575 0.664837 0.063943 -0.018352 -2864.600000 0 0 1
-0.218874 26.185954 30.983711 40.567751 -1.562438 0.701690 0.046518 -0.017061 282708.000000 0 0 1
-1.359274 27.045954 30.863161 41.059298 -1.520581 0.720201 0.058699 -0.025290 329085.000000 0 0 1
-0.960574 28.390754 30.476391 41.662549 -1.536975 0.750269 0.059509 -0.022027 -92301.000000 0 0 1
-2.081574 29.454354 30.460921 42.423574 -1.500242 0.769845 0.068919 -0.027700 -92338.300000 0 0 1
-2.481774 29.831854 31.776141 43.655720 -1.487795 0.755571 0.069061 -0.028084 398105.000000 0 0 1
-3.391474 30.946054 31.727141 44.449655 -1.461639 0.775920 0.063362 -0.027987 241482.000000 0 0 1
-3.170074 31.851054 32.922763 45.917832 -1.471595 0.771317 0.068200 -0.029492 -385061.000000 0 0 1
-1.899874 32.425354 32.910159 46.239503 -1.512271 0.778835 0.110024 -0.041335 -597251.000000 0 0 1
-1.500574 32.862454 -33.985962 47.299453 -1.525166 2.372479 0.086196 -0.038991 -385595.000000 0 0 1
-0.031574 33.283254 -34.058960 47.621306 -1.569848 2.367713 0.099422 -0.045597 -394018.000000 0 0 1
0.127526 -33.731446 33.389587 47.462525 -1.567016 0.790495 0.098169 -0.042280 1105580.000000 0 0 1
1.512426 -33.439146 33.095358 47.071930 -1.525598 0.791076 0.086852 -0.041206 985687.000000 0 0 1
1.640026 -31.998846 32.557770 45.679582 -1.519588 0.777396 0.077932 -0.044965 -146892.000000 0 0 1
1.510626 -31.036946 33.565307 45.740615 -1.522163 0.746871 0.066149 -0.033472 224205.000000 0 0 1
1.711526 -29.698446 33.160201 44.548018 -1.513230 0.731206 0.048999 -0.032614 -302790.000000 0 0 1
1.368926 -28.645146 -33.977972 44.462579 -1.523044 2.440585 0.049222 -0.024304 1418460.000000 0 0 1
-0.069674 -28.457246 -33.841622 44.216231 1.568348 2.442407 0.025406 -0.026140 1505810.000000 0 0 1
-0.371674 -27.744846 -32.656672 42.852921 1.557401 2.437291 0.035015 -0.026152 -331484.000000 0 0 1
-1.881074 -27.486446 -32.561042 42.652839 1.502466 2.439352 0.050034 -0.019100 -314028.000000 0 0 1
-2.337974 -27.534946 -31.216022 41.690280 1.486090 2.416986 0.059615 -0.026821 81578.300000 0 0 1
-3.572074 -26.848146 -31.182942 41.303251 1.438526 2.426413 0.085679 -0.030677 -176797.000000 0 0 1
-3.942974 -26.137946 -29.836912 39.862020 1.421073 2.416601 0.082120 -0.035629 -506318.000000 0 0 1
-4.247774 -27.106846 -28.889972 39.842881 1.415356 2.381972 0.072202 -0.029269 47789.800000 0 0 1
-4.578374 -26.575546 -27.588502 38.579096 1.400193 2.367585 0.075230 -0.024283 523548.000000 0 0 1
-3.367174 -26.093146 -26.704272 37.487442 1.442461 2.363641 0.087343 -0.027693 304985.000000 0 0 1
-2.694174 -25.028646 -27.279762 37.119767 1.463566 2.396333 0.099919 -0.026494 620426.000000 0 0 1
-1.542074 -24.652046 -26.497302 36.224417 1.508324 2.391281 0.090292 -0.023974 715900.000000 0 0 1
-0.536674 -23.592546 -27.057382 35.902621 1.548053 2.424367 0.074948 -0.031606 625105.000000 0 0 1
0.115826 -23.822346 -28.285682 36.981041 -1.565934 2.441636 0.057216 -0.038774 -95881.800000 0 0 1
1.106526 -24.809946 -28.309992 37.659175 -1.526226 2.421496 0.066125 -0.029518 -521369.000000 0 0 1
1.893326 -25.006546 -29.589072 38.786921 -1.495227 2.438525 0.040130 -0.027307 378498.000000 0 0 1
3.006526 -24.137246 -29.781462 38.452326 -1.446875 2.456726 0.028924 -0.029468 794171.000000 0 0 1
3.658026 -24.188946 -31.076052 39.550061 -1.420706 2.474687 0.034136 -0.022965 -49891.100000 0 0 1
4.787526 -23.099846 -31.195732 39.111341 -1.366436 2.494124 0.047771 -0.033540 -105418.000000 0 0 1
5.877626 -23.130646 -30.293282 38.564961 -1.321957 2.474321 0.050662 -0.034992 458597.000000 0 0 1
6.755526 -24.221246 -30.365562 39.425541 -1.298800 2.449951 0.045538 -0.020393 -605872.000000 0 0 1
7.616726 -24.439446 -31.618262 40.681882 -1.268680 2.461012 0.036817 -0.010963 -657625.000000 0 0 1
6.887826 -25.118446 -32.678262 41.788124 -1.303161 2.468663 0.025495 -0.013345 369239.000000 0 0 1
7.207526 -24.806946 -34.028783 42.723426 -1.288037 2.492264 0.040859 -0.008468 -23726.100000 0 0 1
6.646126 -23.423246 33.719469 41.591129 -1.294322 0.625386 0.023577 -0.003359 965992.000000 0 0 1
5.206126 -23.323046 33.724065 41.332563 -1.351179 0.616478 0.026805 -0.012426 874813.000000 0 0 1
4.812826 -22.179346 32.981290 40.035636 -1.357113 0.602717 0.035554 -0.020169 -962886.000000 0 0 1
3.371426 -21.758346 33.217257 39.851954 -1.417070 0.585354 0.025921 -0.034007 32230.800000 0 0 1
2.336326 -22.712346 32.885538 40.034581 -1.468291 0.606885 0.027646 -0.027273 533014.000000 0 0 1
2.138426 -23.676546 33.878357 41.387133 -1.480722 0.611875 0.023138 -0.020597 -662236.000000 0 0 1
0.782026 -24.412846 33.776263 41.682545 -1.538774 0.626096 0.032595 -0.021306 241429.000000 0 0 1
0.644726 -25.222246 32.565334 41.195611 -1.545240 0.659163 0.024812 -0.023667 -146741.000000 0 0 1
-0.687774 -25.624646 32.360025 41.282766 1.543962 0.669934 0.025968 -0.030469 -76943.200000 0 0 1
-0.756874 -26.625046 31.148491 40.984075 1.542377 0.707461 0.030016 -0.035063 24432.700000 0 0 1
-2.001374 -26.575246 30.484611 40.491489 1.495629 0.718393 0.038766 -0.039909 37210.200000 0 0 1
-2.142474 -27.824246 29.760941 40.798192 1.493948 0.753254 0.047817 -0.044073 58047.400000 0 0 1
-3.507574 -27.925146 29.029141 40.432758 1.445844 0.769928 0.059211 -0.035268 460972.000000 0 0 1
-4.584574 -28.251646 29.915951 41.402149 1.409922 0.763284 0.062876 -0.032756 735504.000000 0 0 1
-5.733974 -28.615446 29.137361 41.239641 1.373035 0.786203 0.070993 -0.026194 550676.000000 0 0 1
-6.953374 -29.126146 29.970231 42.366219 1.336450 0.784971 0.057067 -0.016262 682670.000000 0 0 1
-7.999774 -29.639446 29.083641 42.288903 1.307175 0.812429 0.060056 -0.012345 803801.000000 0 0 1
-9.269974 -29.714646 29.689921 43.016090 1.268398 0.809024 0.048291 -0.009117 31790.300000 0 0 1
-9.521774 -30.888846 30.680431 44.565388 1.271780 0.811465 0.020031 -0.006850 -654599.000000 0 0 1
-9.493874 -32.226546 30.128351 45.126505 1.284303 0.839759 0.031700 -0.008121 674485.000000 0 0 1
-10.589774 -32.608046 29.268231 45.078347 1.256782 0.864166 0.024255 -0.004174 448277.000000 0 0 1
-10.563974 34.073354 28.879141 45.897666 -1.270158 0.890264 0.041212 -0.006637 -468875.000000 0 0 1
-10.775574 33.149854 29.921091 45.937974 -1.256513 0.861452 0.030539 -0.002638 228529.000000 0 0 1
-10.463574 31.863054 29.456491 44.636593 -1.253499 0.850087 0.040739 -0.010728 -48370.100000 0 0 1
-10.921074 30.658954 30.413011 44.544276 -1.228599 0.819264 0.037775 0.001897 341395.000000 0 0 1
-12.340074 30.604254 30.476031 44.918663 -1.187522 0.825116 0.015087 0.017826 176096.000000 0 0 1
-12.886074 29.355254 30.927821 44.545617 -1.157153 0.803356 0.018682 0.014611 30399.200000 0 0 1
-12.812174 29.072254 32.444324 45.409051 -1.155702 0.774901 0.021934 0.003110 -1050070.000000 0 0 1
-13.815574 29.726654 33.101156 46.585733 -1.135741 0.780527 0.024122 0.011618 -537984.000000 0 0 1
-13.860174 29.360854 -33.739142 46.824074 -1.129747 2.375393 0.024361 0.010454 187619.000000 0 0 1
-15.026374 29.971354 -32.904322 46.976254 -1.106063 2.346818 0.014016 0.013558 308522.000000 0 0 1
-15.114174 29.344154 -31.655472 45.733867 -1.095169 2.335284 0.011955 0.014387 -87504.400000 0 0 1
-16.297974 29.749954 -31.014842 45.963074 -1.069619 2.311459 0.020275 0.015299 177.822000 0 0 1
-16.331974 29.428554 -29.523252 44.770477 -1.064145 2.290864 0.041918 -0.003164 -290465.000000 0 0 1
-16.314974 28.002654 -29.295792 43.687189 -1.043252 2.305788 0.033289 -0.006047 152493.000000 0 0 1
-16.529074 27.635754 -27.988442 42.664952 -1.031772 2.286310 0.038402 -0.015764 -287800.000000 0 0 1
-17.004874 26.178854 -27.809702 41.807627 -0.994727 2.298535 0.019668 -0.019343 -69957.200000 0 0 1
-18.404774 26.061254 -27.891152 42.377365 -0.955913 2.289171 0.021452 -0.013647 -391878.000000 0 0 1
-18.846774 24.764054 -27.618112 41.607925 -0.920258 2.296645 0.016527 -0.009566 -199783.000000 0 0 1
-20.330374 24.575354 -27.941862 42.403064 -0.879649 2.290230 0.032160 -0.009526 -313533.000000 0 0 1
-21.270874 25.056254 -27.023052 42.550103 -0.866927 2.258919 0.042889 -0.015697 1081010.000000 0 0 1
-22.594174 24.514854 -27.285752 43.081168 -0.826147 2.256680 0.069422 -0.020609 1514140.000000 0 0 1
-23.648874 24.703354 -26.155362 43.053779 -0.807203 2.223711 0.095381 -0.030033 -26887.200000 0 0 1
-24.345174 25.914054 -26.251842 44.197114 -0.816604 2.206783 0.068101 -0.016751 -406879.000000 0 0 1
-25.521724 26.006554 -25.488412 44.467498 -0.794807 2.181192 0.068111 -0.008395 83339.000000 0 0 1
-25.449134 25.964854 -23.948632 43.535836 -0.795429 2.153268 0.051838 0.003109 -635627.000000 0 0 1
-25.163754 24.636054 -23.420132 42.292461 -0.774802 2.157677 0.054023 -0.005316 -264478.000000 0 0 1
-26.257774 23.764254 -23.327232 42.407196 -0.735591 2.153253 0.057793 0.010609 -260746.000000 0 0 1
-27.123824 23.807454 -22.038432 42.286986 -0.720375 2.119010 0.032712 0.010779 -53411.500000 0 0 1
-26.560384 23.288854 -20.859232 41.023558 -0.719864 2.104203 0.025640 0.004577 -376515.000000 0 0 1
-25.474154 23.999654 -20.343632 40.481839 -0.755603 2.097327 0.027964 0.011382 -553909.000000 0 0 1
-24.723074 23.273654 -19.228832 39.021037 -0.755209 2.086079 0.023902 0.010443 -465712.000000 0 0 1
-25.345214 23.107354 -17.977932 38.723839 -0.739244 2.053595 0.022058 0.005513 117082.000000 0 0 1
-24.396774 22.796354 -16.963932 37.451987 -0.751499 2.040869 0.016305 0.000110 246683.000000 0 0 1
-24.976574 23.066054 -15.534432 37.379014 -0.745652 1.999390 0.020663 0.002921 -93877.700000 0 0 1
-25.116374 24.381654 -15.138132 38.137388 -0.770556 1.978973 0.021384 -0.007557 -142639.000000 0 0 1
-25.852004 24.612854 -13.977432 38.333892 -0.760848 1.944025 0.007429 -0.007069 -33457.200000 0 0 1
-25.950494 26.049654 -13.448232 39.151853 -0.787305 1.921426 0.011528 -0.010840 961742.000000 0 0 1
-24.651374 26.506054 -13.011232 38.464962 -0.821637 1.915866 0.043744 -0.016727 820983.000000 0 0 1
-24.734074 27.571454 -12.057532 38.953095 -0.839591 1.885505 0.059782 -0.017755 -64672.400000 0 0 1
-23.329874 28.059554 -11.693832 38.319281 -0.877176 1.880912 0.075195 -0.023215 144897.000000 0 0 1
-22.372774 27.122154 -11.212832 36.903656 -0.881062 1.879518 0.071745 -0.029168 56986.900000 0 0 1
-21.267174 27.752154 -10.633532 36.545133 -0.916929 1.866037 0.074704 -0.030082 -510493.000000 0 0 1
-20.282174 26.792954 -9.982932 35.055497 -0.922832 1.859568 0.077436 -0.025125 -689802.000000 0 0 1
-19.634974 26.015154 -10.896232 34.366384 -0.924261 1.893425 0.063912 -0.024835 -397974.000000 0 0 1
-19.012674 24.944754 -10.202832 32.982121 -0.919538 1.885300 0.061465 -0.016388 -284125.000000 0 0 1
-18.364774 23.965054 -11.179032 32.195644 -0.916935 1.925403 0.058217 -0.020781 -272011.000000 0 0 1
-18.001474 22.747654 -10.587632 30.880524 -0.901349 1.920754 0.038556 -0.013381 4589.290000 0 0 1
-17.594274 21.884054 -11.582232 30.374634 -0.893635 1.962012 0.058012 -0.010749 -146005.000000 0 0 1
-17.289774 20.437454 -11.181432 29.011209 -0.868638 1.966457 0.047451 -0.007212 -689848.000000 0 0 1
-18.358974 19.733954 -10.676232 28.990736 -0.821478 1.947937 0.033615 -0.002075 -638781.000000 0 0 1
-17.916574 18.461454 -10.299432 27.711139 -0.800375 1.951605 0.060593 -0.016731 -1010830.000000 0 0 1
-19.046474 17.442754 -10.249732 27.786235 -0.741476 1.948598 0.047771 -0.006702 -234989.000000 0 0 1
-19.594774 16.990554 -11.464932 28.356283 -0.714336 1.987028 0.035326 -0.005831 125641.000000 0 0 1
-20.294174 17.972854 -12.201132 29.727842 -0.724811 1.993719 0.030549 0.001231 -1344650.000000 0 0 1
-21.052674 17.360954 -13.374932 30.389252 -0.689588 2.026529 0.042305 -0.007313 -861473.000000 0 0 1
-20.253174 16.846054 -14.413232 30.028684 -0.693817 2.071431 0.061682 -0.016040 -145446.000000 0 0 1
-21.021474 16.479554 -15.516632 30.890839 -0.664871 2.097059 0.066724 -0.017970 -376982.000000 0 0 1
-20.227474 16.288754 -16.789132 30.924896 -0.677951 2.144683 0.094399 -0.029420 -891462.000000 0 0 1
-19.711874 17.447954 -17.301632 31.501358 -0.724550 2.152244 0.068226 -0.027821 270827.000000 0 0 1
-18.809674 17.080654 -18.354832 31.344097 -0.737260 2.196406 0.077564 -0.024620 -115410.000000 0 0 1
-17.991074 18.282454 -18.896932 31.859393 -0.793431 2.205744 0.056558 -0.006489 -15576.000000 0 0 1
-16.845974 18.646454 -18.149532 30.998107 -0.836083 2.196299 0.063041 -0.009644 194188.000000 0 0 1
-16.253374 19.799254 -18.627432 31.672762 -0.883436 2.199531 0.074242 -0.008974 -243179.000000 0 0 1
33.573900 30.469954 1.929568 45.380040 0.736970 1.528263 0.060143 -0.017345 -432021.000000 0 0 1
34.729640 30.346154 1.164268 46.134504 0.718140 1.545557 0.068084 -0.020444 -489566.000000 0 0 1
34.825580 31.199454 0.023968 46.757112 0.730533 1.570284 0.062740 -0.021766 -617560.000000 0 0 1
36.176090 31.073454 -0.654932 47.693794 0.709667 1.584529 0.044880 -0.016016 -723609.000000 0 0 1
-35.893281 31.490654 0.151768 47.749471 -0.720154 1.567618 0.017028 -0.002941 147678.000000 0 0 1
-34.741257 31.633654 -0.692232 46.990661 -0.738613 1.585528 0.035364 -0.011829 -131164.000000 0 0 1
-33.880844 32.829254 -0.374232 47.178507 -0.769636 1.578729 0.015341 -0.007811 -483160.000000 0 0 1
-33.088284 32.544054 0.760368 46.416895 -0.777106 1.554414 0.016899 0.009272 -27676.000000 0 0 1
-32.714654 33.724154 1.463968 47.007556 -0.800591 1.539648 0.004718 0.000719 -95097.800000 0 0 1
-32.065844 33.540654 2.830268 46.488754 -0.807874 1.509878 0.020960 -0.003524 -144013.000000 0 0 1
-31.812874 -33.436546 3.496868 46.284875 0.810277 1.495173 0.027488 0.000574 -2912.500000 0 0 1
-31.364104 -33.672746 4.823068 46.269027 0.820881 1.466367 0.045893 -0.008085 -382503.000000 0 0 1
-31.315954 -32.270046 5.563268 45.309986 0.800402 1.447703 0.059064 -0.006563 305636.000000 0 0 1
-32.511414 -31.764246 6.154468 45.867601 0.773774 1.436211 0.038858 -0.000735 271820.000000 0 0 1
-32.938424 -32.398646 7.359868 46.784396 0.777137 1.412826 0.034827 -0.007992 -753462.000000 0 0 1
-33.995184 -31.628646 8.173968 47.147190 0.749352 1.396545 0.045924 -0.003955 1569020.000000 0 0 1
-35.383268 -31.534046 7.779268 48.030081 0.727939 1.408113 0.026357 0.001138 1294480.000000 0 0 1
-36.065844 -32.675246 7.282568 49.208257 0.736114 1.422256 0.010590 0.004286 -606245.000000 0 0 1
35.536800 -32.554946 7.251968 48.736841 -0.741634 1.421443 0.017446 0.010814 5856.490000 0 0 1
34.916470 -32.628446 8.486968 48.536625 -0.751537 1.395036 0.015207 0.013313 -222282.000000 0 0 1
33.526320 -32.427846 8.382868 47.390419 -0.768745 1.392971 -0.001625 0.024734 -160630.000000 0 0 1
32.807330 -32.423146 9.731468 47.141094 -0.779509 1.362869 -0.003894 0.012427 -363937.000000 0 0 1
31.438960 -32.109646 9.581368 45.948234 -0.795952 1.360729 0.012232 0.001401 -422413.000000 0 0 1
30.707420 -32.008446 10.730868 45.635926 -0.806140 1.333433 0.022773 0.007786 -508806.000000 0 0 1
30.982070 -30.806146 11.604868 45.205976 -0.782551 1.311179 0.022877 0.001533 -738950.000000 0 0 1
30.634620 -29.475246 11.212068 43.965674 -0.766113 1.312929 0.019040 -0.004064 26850.000000 0 0 1
30.982610 -29.034946 9.936768 43.608366 -0.752958 1.340913 0.024286 -0.006868 -263782.000000 0 0 1
30.373660 -27.690446 9.520768 42.189632 -0.739220 1.343170 0.030512 -0.015703 -95087.600000 0 0 1
30.280880 -27.461846 8.149968 41.683410 -0.736616 1.374008 0.039008 -0.020668 54348.300000 0 0 1
29.676590 -26.206046 7.879368 40.367577 -0.723374 1.374345 0.026958 -0.022046 -66379.700000 0 0 1
29.836170 -25.889546 6.346068 40.009226 -0.714694 1.411508 0.025494 -0.016668 -111366.000000 0 0 1
31.138840 -25.548046 5.976268 40.719108 -0.687090 1.423496 0.051179 -0.018962 -657995.000000 0 0 1
31.184790 -25.059746 4.630668 40.273131 -0.676925 1.455560 0.045892 -0.014753 196595.000000 0 0 1
32.539380 -24.428746 4.198368 40.904782 -0.643977 1.467978 0.061590 -0.018198 -8218.770000 0 0 1
33.516740 -25.402446 4.044068 42.249386 -0.648540 1.474931 0.057865 -0.010605 -450914.000000 0 0 1
34.788510 -24.767646 3.853668 42.878053 -0.618701 1.480800 0.066940 -0.012961 649056.000000 0 0 1
35.877960 -25.854546 3.641668 44.372822 -0.624434 1.488634 0.065062 -0.010207 -20663.100000 0 0 1
35.901570 -26.618646 4.813868 44.951622 -0.637996 1.463501 0.041440 -0.005232 23479.100000 0 0 1
-36.548734 -27.856946 4.549468 46.179184 0.651255 1.472119 0.037711 -0.006264 -306778.000000 0 0 1
36.088860 -28.864446 5.596568 46.549797 -0.674629 1.450277 0.028269 -0.000886 784903.000000 0 0 1
34.777180 -29.379946 5.459368 45.852352 -0.701471 1.451449 0.010249 0.007842 387131.000000 0 0 1
33.650980 -28.523246 5.620268 44.469668 -0.703111 1.444073 0.019649 -0.002969 -69035.800000 0 0 1
32.372230 -29.281946 6.135068 44.079844 -0.735317 1.431162 0.030066 -0.002989 805189.000000 0 0 1
31.672540 -29.960346 5.090168 43.893985 -0.757625 1.454570 0.011487 0.000173 -324622.000000 0 0 1
30.796280 -29.222046 4.313668 42.672550 -0.759175 1.469536 0.028735 -0.002316 -684244.000000 0 0 1
29.406070 -29.865646 4.158368 42.118473 -0.793152 1.471905 0.037631 -0.006253 88540.400000 0 0 1
29.490510 -31.033846 3.395068 42.945503 -0.810892 1.491658 0.041930 -0.002235 -330436.000000 0 0 1
28.357600 -31.859146 3.552468 42.799284 -0.843482 1.487698 0.059234 -0.011200 -204471.000000 0 0 1
28.486650 -33.289946 3.055768 43.920923 -0.862995 1.501166 0.062964 -0.015309 -299863.000000 0 0 1
28.506860 -33.355346 1.648968 43.908305 -0.863614 1.533233 0.060032 -0.018606 196093.000000 0 0 1
28.193880 33.552854 1.190268 43.841825 0.871971 1.543644 0.055570 -0.016643 -528599.000000 0 0 1
27.830780 33.556654 -0.293232 43.596873 0.878403 1.577522 0.047105 -0.024521 34589.000000 0 0 1
28.944460 33.781254 -1.145432 44.500190 0.862356 1.596539 0.047788 -0.018161 431131.000000 0 0 1
28.538910 33.603654 -2.495632 44.157707 0.866720 1.627343 0.048244 -0.022322 -448118.000000 0 0 1
29.540910 34.075754 -3.550732 45.237485 0.856562 1.649368 0.040682 -0.010490 -133111.000000 0 0 1
29.772270 -32.722646 -3.621532 44.387781 -0.832573 1.652476 0.027008 -0.019571 210478.000000 0 0 1
30.714520 -32.273146 -4.577332 44.787159 -0.810138 1.673177 0.039090 -0.024185 -77613.700000 0 0 1
30.897140 -30.780846 -4.419832 43.836385 -0.783513 1.671794 0.035848 -0.014862 646040.000000 0 0 1
29.676830 -30.046546 -4.680932 42.490238 -0.791589 1.681185 0.017184 -0.026299 969999.000000 0 0 1
29.814490 -28.649246 -4.374932 41.579119 -0.765470 1.676211 0.016379 -0.027917 -420486.000000 0 0 1
30.637170 -27.713646 -5.250532 41.644333 -0.735337 1.697213 0.046147 -0.029309 242765.000000 0 0 1
32.045970 -27.865446 -4.976632 42.757387 -0.715733 1.687453 0.063259 -0.036794 559298.000000 0 0 1
32.838900 -27.227046 -5.946932 43.070540 -0.692240 1.709313 0.074595 -0.032857 -57640.600000 0 0 1
33.042410 -28.033846 -7.296032 43.942342 -0.703576 1.737605 0.084566 -0.004543 -407977.000000 0 0 1
31.878770 -28.143946 -8.106732 43.290377 -0.723255 1.759173 0.072103 -0.010635 110176.000000 0 0 1
32.029290 -29.074046 -9.162332 44.216783 -0.737071 1.779523 0.064595 -0.009880 72953.100000 0 0 1
32.100090 -30.596446 -8.749032 45.200706 -0.761420 1.765585 0.061467 -0.008929 -123163.000000 0 0 1
33.306740 -30.982346 -8.123732 46.208654 -0.749259 1.747520 0.074006 -0.017492 -351593.000000 0 0 1
33.162930 -32.214046 -7.546732 46.845254 -0.770885 1.732601 0.081727 -0.026927 -420739.000000 0 0 1
34.485910 -32.854446 -7.137432 48.162595 -0.761176 1.719539 0.078604 -0.025479 -289945.000000 0 0 1
34.440120 34.023954 -6.578932 48.857278 0.779320 1.705863 0.069633 -0.029628 -127150.000000 0 0 1
34.104630 34.034854 -5.183332 48.459921 0.784374 1.677963 0.067729 -0.026076 -157391.000000 0 0 1
33.972870 32.586954 -4.689932 47.308148 0.764579 1.670095 0.041142 -0.020003 -246223.000000 0 0 1
32.831780 31.992354 -5.237832 46.139694 0.772450 1.684563 0.055710 -0.030744 -205711.000000 0 0 1
32.746020 30.585554 -4.915432 45.077038 0.751298 1.680059 0.057206 -0.019981 546968.000000 0 0 1
31.447000 29.884554 -5.438832 43.721634 0.759928 1.695516 0.063434 -0.028228 298856.000000 0 0 1
31.409090 29.657154 -6.814432 43.732301 0.756717 1.727255 0.039882 -0.022462 -289715.000000 0 0 1
30.201830 29.078854 -7.211932 42.541065 0.766457 1.741148 0.031601 -0.020008 -427266.000000 0 0 1
30.221140 28.917054 -8.767732 42.736243 0.763350 1.777423 0.029648 -0.013842 -231068.000000 0 0 1
30.953930 27.720154 -9.087032 42.533832 0.730340 1.786098 0.032692 -0.015946 253163.000000 0 0 1
31.309940 27.671254 -10.483032 43.080211 0.723784 1.816602 0.021329 -0.012200 -554156.000000 0 0 1
32.474210 28.535254 -10.869032 44.575452 0.720925 1.817114 0.037068 -0.016077 -2444150.000000 0 0 1
33.717350 28.023354 -10.550432 45.094120 0.693434 1.806950 0.038747 -0.019476 -585344.000000 0 0 1
34.824310 28.714154 -11.079032 46.475587 0.689528 1.811498 0.051469 -0.019065 61124.600000 0 0 1
35.141590 30.083654 -10.474732 47.430766 0.708007 1.793475 0.055685 -0.027493 -1347380.000000 0 0 1
35.801880 29.927854 -9.233032 47.567846 0.696269 1.766139 0.055022 -0.019830 165048.000000 0 0 1
35.715940 31.149254 -8.491232 48.145669 0.717207 1.748089 0.053122 -0.023348 -575083.000000 0 0 1
-36.368684 31.242854 -7.342732 48.504771 -0.709730 1.722762 0.051411 -0.016023 1879620.000000 0 0 1
-35.017085 31.486354 -7.858732 47.742501 -0.732357 1.736156 0.050120 -0.014038 1497310.000000 0 0 1
-34.282295 30.267754 -8.100832 46.443903 -0.723285 1.746115 0.048552 -0.012880 505718.000000 0 0 1
-32.773984 30.511354 -8.469832 45.572084 -0.749661 1.757739 0.056996 -0.006862 575004.000000 0 0 1
-32.127004 31.186454 -7.374232 45.377512 -0.770544 1.734029 0.050568 -0.012137 546577.000000 0 0 1
-30.786064 31.592454 -7.672732 44.774275 -0.798325 1.743011 0.047064 -0.013414 496650.000000 0 0 1
-30.634574 32.846854 -8.602532 45.731789 -0.820233 1.760032 0.026465 -0.012869 -462589.000000 0 0 1
-30.729244 34.087054 -7.914332 46.570917 -0.837157 1.741567 0.029844 -0.012354 442318.000000 0 0 1
-29.651154 -33.812146 -7.006332 45.514183 0.850870 1.725348 0.046884 -0.024343 351039.000000 0 0 1
-29.772414 -32.360746 -6.507632 44.451814 0.827032 1.717722 0.037181 -0.023818 315686.000000 0 0 1
-30.796734 -32.126846 -5.551732 44.848576 0.806534 1.694903 0.037297 -0.032259 171581.000000 0 0 1
-30.404214 -32.659346 -4.276732 44.825657 0.821143 1.666350 0.050143 -0.032472 348516.000000 0 0 1
-31.575964 -32.855146 -3.265032 45.685474 0.805249 1.642325 0.054692 -0.033817 59327.500000 0 0 1
-32.014534 -31.601946 -2.725732 45.067094 0.778913 1.631315 0.048116 -0.028258 461895.000000 0 0 1
-33.159204 -31.681546 -1.884032 45.899921 0.762613 1.611854 0.042475 -0.025051 224213.000000 0 0 1
-33.697344 -30.302846 -1.381632 45.339634 0.732409 1.601274 0.058998 -0.015594 -3663.600000 0 0 1
-34.851446 -30.463246 -0.577232 46.292179 0.718313 1.583266 0.057205 -0.006720 -105642.000000 0 0 1
-35.383099 -29.148946 -0.482632 45.846021 0.689091 1.581324 0.077001 -0.011876 353290.000000 0 0 1
-36.448014 -28.913246 0.654368 46.528074 0.670626 1.556732 0.068931 -0.005090 752566.000000 0 0 1
35.488360 -29.708546 0.513568 46.284826 -0.696978 1.559700 0.041339 0.001632 541397.000000 0 0 1
34.615470 -29.644946 1.590868 45.602461 -0.708202 1.535904 0.036644 0.006003 -65811.100000 0 0 1
33.747610 -28.360146 1.673468 44.113485 -0.698871 1.532852 0.032133 0.005982 -195607.000000 0 0 1
32.561080 -28.471646 0.877168 43.262316 -0.718494 1.550519 0.028705 -0.001082 772391.000000 0 0 1
31.785880 -27.274746 0.737468 41.890307 -0.709165 1.553191 0.030085 0.001753 171884.000000 0 0 1
30.511020 -27.400746 -0.110832 41.008968 -0.731743 1.573499 0.020402 -0.012121 -207443.000000 0 0 1
29.358810 -28.007846 0.407568 40.577645 -0.761853 1.560752 0.018562 0.003362 151135.000000 0 0 1
29.434970 -29.421246 0.335668 41.618984 -0.785165 1.562731 0.020752 0.000392 -273034.000000 0 0 1
28.875890 -30.059546 -1.016632 41.694446 -0.805479 1.595182 0.022427 -0.003465 277927.000000 0 0 1
27.508380 -29.810546 -1.304332 40.584244 -0.825541 1.602941 0.030830 0.001225 277542.000000 0 0 1
27.020880 -30.335646 -2.529732 40.703549 -0.843126 1.632987 0.023247 -0.005145 721055.000000 0 0 1
25.459180 -30.412546 -2.567432 39.745245 -0.873823 1.635439 0.015631 -0.005157 654082.000000 0 0 1
24.794380 -29.256146 -2.957432 38.463356 -0.867759 1.647762 0.030567 0.002071 -276486.000000 0 0 1
23.396980 -29.446746 -2.923432 37.723679 -0.899386 1.648370 0.036658 -0.000485 225871.000000 0 0 1
22.546680 -28.159046 -3.130032 36.208863 -0.895635 1.657348 0.036792 -0.003708 89064.600000 0 0 1
22.400180 -27.706646 -4.418632 35.901958 -0.890908 1.694184 0.044092 -0.009407 -81083.100000 0 0 1
22.020880 -26.360646 -4.371032 34.625261 -0.874858 1.697372 0.054726 -0.016517 -257978.000000 0 0 1
21.513580 -25.834446 -5.748632 34.107177 -0.876404 1.740151 0.065565 -0.031896 -563138.000000 0 0 1
20.273580 -26.354546 -6.107232 33.806485 -0.915080 1.752446 0.067108 -0.028974 -942413.000000 0 0 1
19.802880 -25.831946 -7.279232 33.353121 -0.916753 1.790815 0.085270 -0.027215 -466437.000000 0 0 1
18.342880 -26.185446 -7.581432 32.857525 -0.959736 1.803631 0.079496 -0.019331 -327092.000000 0 0 1
17.486980 -25.466646 -6.759732 31.623385 -0.969078 1.786216 0.066621 -0.017884 -211896.000000 0 0 1
16.132580 -25.894246 -6.794232 31.255939 -1.013624 1.789920 0.063401 -0.019763 168052.000000 0 0 1
15.233280 -25.102246 -5.843932 29.938723 -1.025356 1.767254 0.042953 -0.006347 -335626.000000 0 0 1
15.438880 -25.322246 -4.427532 29.986300 -1.023278 1.718990 0.030811 -0.004202 91036.600000 0 0 1
14.822780 -24.354046 -3.593532 28.735828 -1.024050 1.696179 0.037340 0.000599 38595.400000 0 0 1
14.906180 -24.760446 -2.071032 28.975215 -1.028896 1.642333 0.044009 -0.003525 313304.000000 0 0 1
14.055080 -25.888746 -1.934732 29.521443 -1.073418 1.636380 0.050472 0.000712 431383.000000 0 0 1
14.827780 -27.006746 -1.524132 30.847210 -1.068691 1.620226 0.051773 -0.002442 25532.200000 0 0 1
14.131680 -28.343646 -1.736132 31.718777 -1.108282 1.625559 0.050138 0.002332 532970.000000 0 0 1
13.064080 -28.674446 -0.812632 31.520698 -1.143295 1.596580 0.068875 -0.011570 556569.000000 0 0 1
12.528680 -29.968746 -1.099532 32.500808 -1.174820 1.604634 0.067524 -0.013584 -172953.000000 0 0 1
13.332180 -31.213946 -0.648832 33.948173 -1.167129 1.589910 0.064643 -0.012927 -531513.000000 0 0 1
14.422880 -31.419846 -1.492632 34.604250 -1.140452 1.613944 0.054614 -0.006558 -698567.000000 0 0 1
14.998680 -32.691846 -1.365732 35.994200 -1.140657 1.608749 0.052601 -0.006572 -909841.000000 0 0 1
16.409980 -32.712746 -1.919232 36.648256 -1.105839 1.623189 0.035138 -0.000434 -805937.000000 0 0 1
17.298680 -31.862946 -1.224732 36.276599 -1.073414 1.604564 0.034240 0.011582 -89934.600000 0 0 1
18.566580 -31.874146 -1.855332 36.934013 -1.043346 1.621051 0.020660 0.011873 -187514.000000 0 0 1
19.422880 -30.721646 -1.252832 36.368082 -1.007021 1.605252 0.023673 0.009905 -29130.000000 0 0 1
18.882580 -29.397046 -1.401932 34.967178 -0.999833 1.610900 0.030225 0.002322 349912.000000 0 0 1
19.481380 -28.583246 -0.398832 34.593138 -0.972549 1.582326 0.022920 0.007797 -88514.600000 0 0 1
19.016480 -27.126046 -0.449132 33.130810 -0.959372 1.584353 0.020930 0.011479 -453078.000000 0 0 1
19.283280 -26.345046 -1.633632 32.689067 -0.938947 1.620792 0.025263 0.001109 92032.600000 0 0 1
18.578880 -26.673146 -2.804932 32.626663 -0.962397 1.656873 0.034755 -0.000639 -283413.000000 0 0 1
32.480710 -28.970846 14.156168 45.767931 -0.728344 1.256336 0.019435 -0.012239 28796.500000 0 0 1
33.251740 -29.369646 15.283368 46.923721 -0.723484 1.239037 0.033097 -0.005989 -91291.900000 0 0 1
32.488450 -29.917746 16.326268 47.086282 -0.744228 1.216713 0.027463 0.004343 -53109.400000 0 0 1
33.309370 -30.310346 17.610368 48.356553 -0.738293 1.198047 0.034900 0.008970 628.722000 0 0 1
32.616450 -31.155246 18.484968 48.746038 -0.762489 1.181854 0.036140 0.001903 3372.600000 0 0 1
33.408110 -31.445846 19.624268 49.900450 -0.755151 1.166613 0.039454 -0.002579 -187265.000000 0 0 1
34.323400 -32.623946 19.476168 51.202917 -0.760019 1.180598 0.033039 0.002062 -1128860.000000 0 0 1
35.394170 -32.544246 18.624168 51.562921 -0.743474 1.201249 0.028782 0.013283 -539147.000000 0 0 1
36.095870 -33.766346 18.447368 52.757780 -0.752066 1.213586 0.038761 0.006927 -539235.000000 0 0 1
-35.907977 -33.648046 17.464568 52.216711 0.752919 1.229761 0.038737 0.012152 -371818.000000 0 0 1
-34.703186 -33.168846 18.064668 51.291478 0.762796 1.210880 0.043082 0.007627 -46232.500000 0 0 1
-33.738494 -33.067046 17.067268 50.229544 0.775348 1.224108 0.044580 0.014530 -948247.000000 0 0 1
-32.444044 -32.390746 17.585968 49.102369 0.784576 1.204512 0.033507 0.000858 34970.000000 0 0 1
-31.405524 -32.303346 16.638668 48.027683 0.799490 1.217024 0.030479 -0.007563 -63671.300000 0 0 1
-31.620414 -31.308446 15.649168 47.169543 0.780441 1.232623 0.040792 -0.005515 -566782.000000 0 0 1
-30.542054 -31.338546 14.544668 46.113652 0.798269 1.249909 0.040104 -0.016689 -46617.900000 0 0 1
-29.285194 -30.982046 15.052268 45.211509 0.813546 1.231387 0.033528 -0.014475 -499712.000000 0 0 1
-28.418584 -30.534446 14.015168 44.004468 0.821273 1.246656 0.039229 -0.009382 -125435.000000 0 0 1
-27.157724 -29.940646 14.660968 42.999165 0.834099 1.222859 0.043757 -0.016617 -236229.000000 0 0 1
-26.061534 -30.202846 13.826068 42.220559 0.858870 1.237169 0.048458 -0.012574 -327956.000000 0 0 1
-24.855574 -29.727146 14.410968 41.342215 0.874413 1.214743 0.039517 -0.017211 1199940.000000 0 0 1
-23.552474 -29.800846 13.509968 40.315365 0.901980 1.229077 0.063592 -0.017893 1023130.000000 0 0 1
-23.167574 -31.125746 13.263268 41.005644 0.930939 1.241423 0.068244 -0.019404 328525.000000 0 0 1
-21.876574 -31.256946 12.682568 40.204834 0.960141 1.249867 0.068472 -0.030988 549255.000000 0 0 1
-21.393674 -32.658946 12.234468 40.914279 0.990870 1.267124 0.066833 -0.017971 227865.000000 0 0 1
-22.205474 -33.162346 11.175068 41.445222 0.980766 1.297783 0.055019 -0.014826 171458.000000 0 0 1
-22.085174 33.609154 10.985468 41.689455 -0.989434 1.304140 0.066681 -0.002722 218215.000000 0 0 1
-23.081374 33.079654 9.925568 41.539502 -0.961581 1.329519 0.060774 -0.002993 159305.000000 0 0 1
-22.641974 33.348754 8.628068 41.221862 -0.974341 1.359929 0.062340 -0.008732 608903.000000 0 0 1
-23.762374 33.196754 7.733568 41.550968 -0.949542 1.383582 0.058820 -0.010864 123780.000000 0 0 1
-23.459574 33.642754 6.256268 41.488883 -0.961875 1.419425 0.057015 -0.010408 -1125.450000 0 0 1
-22.627374 32.741854 5.525668 40.181588 -0.966079 1.432842 0.054935 -0.017942 1681160.000000 0 0 1
-21.218674 32.696454 5.896468 39.421549 -0.995153 1.420658 0.061742 -0.021250 1374120.000000 0 0 1
-20.219374 33.873354 5.593068 39.843564 -1.032651 1.429955 0.073524 -0.018924 -92858.200000 0 0 1
-20.252474 -33.223046 6.463668 39.442521 1.023354 1.406178 0.089915 -0.016327 -12108.600000 0 0 1
-19.802174 -33.415446 7.784968 39.614692 1.035832 1.372992 0.085813 -0.013573 -311855.000000 0 0 1
-19.756974 -32.155446 8.675168 38.724272 1.019841 1.344855 0.085183 -0.014757 -513890.000000 0 0 1
-18.775474 -31.268546 8.193168 37.381391 1.030040 1.349825 0.099294 -0.023695 -212060.000000 0 0 1
-18.691774 -30.069946 8.939068 36.516996 1.014639 1.323491 0.097752 -0.020070 306785.000000 0 0 1
-18.094874 -30.128146 10.391268 36.648439 1.029938 1.283314 0.094867 -0.019180 790431.000000 0 0 1
-16.742674 -30.595146 10.414768 36.398454 1.070080 1.280609 0.102256 -0.024928 446968.000000 0 0 1
-16.096074 -30.575646 11.680168 36.474375 1.086225 1.244825 0.120034 -0.025326 404849.000000 0 0 1
-14.697474 -31.231146 11.580468 36.407519 1.130942 1.247094 0.119500 -0.025656 42328.100000 0 0 1
-13.684674 -30.453746 11.001068 35.152872 1.148475 1.252500 0.085822 -0.020968 -294446.000000 0 0 1
-12.683374 -31.306346 10.457668 35.359837 1.185869 1.270556 0.072623 -0.013372 358124.000000 0 0 1
-11.644874 -30.467346 9.656568 34.016342 1.205721 1.282958 0.063739 -0.012391 491330.000000 0 0 1
-10.658774 -29.791846 10.441368 33.319449 1.227212 1.252055 0.046709 -0.016824 -455616.000000 0 0 1
-9.656274 -29.250846 9.630968 32.274001 1.251941 1.267767 0.049061 -0.014374 -371482.000000 0 0 1
-8.651374 -28.593846 10.559768 31.685375 1.276992 1.231027 0.037385 -0.008117 -480161.000000 0 0 1
-9.182374 -27.452746 11.115668 31.008504 1.248015 1.204166 0.041296 -0.011989 -585693.000000 0 0 1
-8.627074 -27.250946 12.361568 31.142396 1.264200 1.162619 0.038626 -0.018095 -240825.000000 0 0 1
-9.017274 -25.935446 13.038268 30.396628 1.236188 1.127480 0.053919 -0.028413 101692.000000 0 0 1
-8.491474 -24.750946 12.387268 28.950973 1.240302 1.128661 0.044749 -0.028787 -379804.000000 0 0 1
-9.324074 -24.189046 11.418568 28.327230 1.202881 1.155900 0.046917 -0.023843 -121987.000000 0 0 1
-8.752174 -22.862246 10.869368 26.784809 1.205186 1.152939 0.045668 -0.022689 -260990.000000 0 0 1
-7.718474 -22.994546 9.956968 26.219557 1.246948 1.181267 0.028753 -0.028045 -480349.000000 0 0 1
-7.093174 -21.734746 9.626368 24.806839 1.255342 1.172278 0.035491 -0.020498 130121.000000 0 1 0
-5.878174 -21.903246 8.668368 24.278503 1.308604 1.205701 0.023996 -0.024164 371477.000000 0 1 0
-4.815774 -22.410146 9.488468 24.808009 1.359123 1.178322 0.013193 -0.023394 -885814.000000 0 1 0
-3.708874 -22.611546 8.689668 24.506082 1.408218 1.208318 0.021658 -0.020334 -10759.100000 0 1 0
-2.497474 -23.376546 9.332368 25.294137 1.464363 1.192913 0.040513 -0.016763 636891.000000 0 0 1
-1.880974 -22.653146 10.357068 24.979430 1.487953 1.143267 0.036508 -0.013183 -685807.000000 0 1 0
-0.881274 -23.425846 10.957668 25.876966 1.533194 1.133543 0.049914 -0.016692 495265.000000 0 0 1
0.098426 -22.676746 11.907968 25.613359 -1.566456 1.087261 0.053809 -0.013135 -50972.700000 0 0 1
-0.648774 -22.149846 12.956268 25.669076 1.541514 1.041713 0.049981 -0.017891 -187585.000000 0 0 1
0.074626 -21.990246 14.189568 26.170982 -1.567403 0.997759 0.069228 -0.014007 -107078.000000 0 0 1
1.023226 -20.802246 14.273368 25.248949 -1.521648 0.969993 0.063841 -0.015487 -115462.000000 0 0 1
2.169626 -20.870546 13.450668 24.924033 -1.467212 1.000755 0.076653 -0.016697 -205288.000000 0 1 0
2.486126 -19.616846 12.901268 23.610256 -1.444734 0.992705 0.069121 -0.021141 1203070.000000 0 1 0
4.030826 -19.336146 12.674768 23.468784 -1.365279 1.000277 0.079464 -0.019916 1245690.000000 0 1 0
4.470526 -19.944546 11.509268 23.457062 -1.350293 1.057958 0.074092 -0.007933 -1402580.000000 0 1 0
5.842026 -19.878446 11.368668 23.633207 -1.284957 1.068949 0.106834 -0.016195 -645483.000000 0 1 0
6.328526 -20.781946 10.178268 23.990345 -1.275198 1.132646 0.099354 -0.019323 -229693.000000 0 1 0
5.905926 -20.313846 8.884468 22.944848 -1.287862 1.173193 0.085701 -0.023976 -273187.000000 0 1 0
6.109726 -21.223346 7.818368 23.428317 -1.290498 1.230555 0.084080 -0.025518 -371521.000000 0 1 0
7.545426 -21.668846 7.520568 24.146040 -1.235712 1.254065 0.078803 -0.016870 101065.000000 0 1 0
8.517826 -20.798046 6.917168 23.515086 -1.182085 1.272221 0.074690 -0.021312 601284.000000 0 1 0
9.014526 -19.704246 7.713668 23.000427 -1.141730 1.228798 0.078049 -0.013099 332631.000000 0 1 0
10.092926 -19.934946 8.824968 24.023931 -1.102127 1.194648 0.060222 -0.009147 364381.000000 0 1 0
9.515026 -20.278846 10.106968 24.574745 -1.132083 1.146944 0.090968 -0.012220 -152322.000000 0 1 0
10.348726 -19.923246 11.208968 25.093282 -1.091726 1.107732 0.081889 -0.004058 357411.000000 0 0 1
9.618426 -19.962846 12.621968 25.501831 -1.121801 1.053026 0.088078 -0.011800 165818.000000 0 0 1
9.306226 -21.277446 12.934768 26.582772 -1.158491 1.062620 0.071916 -0.012594 -186948.000000 0 0 1
8.564126 -21.402746 14.121868 27.034218 -1.190168 1.021168 0.092701 -0.018995 179191.000000 0 0 1
8.469826 -22.849946 14.688468 28.453630 -1.215826 1.028359 0.080146 -0.020031 177993.000000 0 0 1
8.171026 -23.885246 13.771268 28.756190 -1.241181 1.071398 0.085967 -0.019464 -181909.000000 0 0 1
8.095226 -25.146846 14.418968 30.096564 -1.259354 1.071178 0.085728 -0.020037 158742.000000 0 0 1
8.005326 -26.263046 13.334868 30.522967 -1.274930 1.118669 0.094168 -0.031736 80311.300000 0 0 1
9.237826 -26.767446 12.857668 31.099087 -1.238481 1.144565 0.087688 -0.023944 -205277.000000 0 0 1
9.141826 -27.935246 12.041868 31.764092 -1.254530 1.181969 0.083290 -0.029589 584097.000000 0 0 1
10.506026 -28.409846 11.407768 32.367161 -1.216590 1.210610 0.070360 -0.026773 815575.000000 0 0 1
11.505526 -28.707046 12.368868 33.308565 -1.189608 1.190342 0.055513 -0.021017 351054.000000 0 0 1
12.646226 -29.258946 11.724168 33.962760 -1.162828 1.218337 0.067427 -0.018910 577287.000000 0 0 1
13.690826 -29.940346 12.689368 35.282901 -1.141913 1.202907 0.048463 -0.020779 -46718.700000 0 0 1
14.323626 -29.013546 13.570168 35.087057 -1.112211 1.173684 0.043232 -0.016895 -144188.000000 0 0 1
15.125026 -29.565446 14.578568 36.268673 -1.097929 1.157140 0.044357 -0.014706 1208640.000000 0 0 1
16.600426 -29.822146 14.020968 36.898808 -1.062864 1.181017 0.050762 -0.008808 797482.000000 0 0 1
17.261026 -28.597946 13.692068 36.100668 -1.027752 1.181784 0.039936 -0.013653 -767436.000000 0 0 1
18.615726 -28.804546 13.510668 36.861704 -0.997043 1.195527 0.042106 -0.008516 -800782.000000 0 0 1
19.282326 -27.569246 12.772368 35.986175 -0.960464 1.207963 0.027586 -0.011278 467597.000000 0 0 1
20.638026 -27.847446 12.463068 36.833903 -0.933009 1.225624 0.019198 -0.015024 -73256.400000 0 0 1
21.437526 -26.751146 12.231268 36.397737 -0.895221 1.228082 0.013958 -0.014368 37650.800000 0 0 1
22.879026 -27.068946 11.765068 37.344270 -0.869088 1.250294 0.020994 -0.017200 -115038.000000 0 0 1
23.725826 -27.622146 12.735568 38.575801 -0.861134 1.234340 0.032483 -0.022746 -333239.000000 0 0 1
24.884426 -28.026646 12.032568 39.363819 -0.844715 1.260148 0.024397 -0.026638 -572480.000000 0 0 1
25.923626 -28.670046 13.012568 40.783978 -0.835662 1.246058 0.033749 -0.020473 -137327.000000 0 0 1
26.718626 -27.759546 13.732568 40.903066 -0.804503 1.228412 0.025191 -0.021686 921993.000000 0 0 1
27.960226 -27.637646 12.968368 41.397974 -0.779596 1.252171 0.010831 -0.024186 157243.000000 0 0 1
29.064226 -26.736546 13.502868 41.736070 -0.743708 1.241339 0.034103 -0.025346 -530857.000000 0 0 1
28.913226 -25.353646 13.623868 40.796958 -0.719898 1.230312 0.049213 -0.030861 165521.000000 0 0 1
28.098226 -24.861946 14.694768 40.293459 -0.724366 1.197493 0.053103 -0.026401 316839.000000 0 0 1
28.845326 -24.949246 16.104668 41.399010 -0.713099 1.171239 0.037353 -0.019926 -50939.400000 0 0 1
29.205326 -26.233646 16.583168 42.616390 -0.731847 1.171113 0.026317 -0.020221 451750.000000 0 0 1
29.878926 -26.087146 17.860568 43.500451 -0.717750 1.147702 0.047677 -0.006026 248036.000000 0 0 1
30.412126 -27.421446 18.385068 44.887012 -0.733732 1.148797 0.046098 0.007455 221764.000000 0 0 1
29.322626 -28.220946 18.798968 44.829001 -0.766255 1.138069 0.024036 0.002066 726431.000000 0 0 1
29.814926 -29.089146 19.834468 46.135825 -0.773077 1.126398 0.053648 -0.015498 811578.000000 0 0 1
28.622326 -30.014946 20.232768 46.146499 -0.809143 1.116927 0.043640 -0.005131 797269.000000 0 0 1
27.629826 -29.355046 21.084268 45.493652 -0.815664 1.088906 0.030853 0.003778 1417530.000000 0 0 1
26.621226 -30.261846 21.609268 45.732149 -0.849313 1.078651 0.017534 0.002585 267520.000000 0 0 1
25.549126 -30.846746 20.750468 45.109439 -0.879060 1.092798 0.049128 -0.005133 -1448410.000000 0 0 1
25.945626 -31.912146 19.940868 45.707754 -0.888159 1.119348 0.075406 -0.008530 -180639.000000 0 0 1
25.295126 -32.090546 18.696668 44.935642 -0.903266 1.141670 0.073591 -0.007584 -222505.000000 0 0 1
25.637126 -31.065546 17.581668 43.948213 -0.880842 1.159220 0.064574 -0.000279 -277061.000000 0 0 1
26.916726 -31.274846 17.016168 44.633800 -0.860151 1.179660 0.058984 -0.010684 45537.100000 0 0 1
27.233326 -30.270246 16.045368 43.765233 -0.838162 1.195419 0.046395 -0.020115 -100933.000000 0 0 1
28.705626 -30.353246 15.574468 44.585833 -0.813289 1.213957 0.049392 -0.012373 -26597.600000 0 0 1
28.974826 -31.214446 14.491568 44.987639 -0.822591 1.242825 0.081941 -0.009670 58592.000000 0 0 1
29.321626 -32.580946 14.805768 46.265392 -0.838002 1.245048 0.086791 -0.017064 -384367.000000 0 0 1
28.460126 -33.672246 14.190768 46.316053 -0.869090 1.259398 0.084301 -0.017795 -335086.000000 0 0 1
28.714926 -33.907046 12.811268 46.242441 -0.868121 1.290078 0.086094 -0.014881 560091.000000 0 0 1
27.871226 33.220054 12.332568 45.082917 0.872730 1.293711 0.079647 -0.022406 37064.100000 0 0 1
28.307626 32.830454 10.900468 44.698776 0.859241 1.324447 0.085022 -0.027572 329596.000000 0 0 1
29.642426 32.328254 10.902968 45.195842 0.828711 1.327155 0.057919 -0.022216 579494.000000 0 0 1
29.818426 31.579154 9.693468 44.501065 0.814068 1.351210 0.052853 -0.023666 -133368.000000 0 0 1
31.262026 31.045854 9.619768 45.096554 0.781929 1.355830 0.026301 -0.009924 -72287.200000 0 0 1
31.538726 30.096854 10.608168 44.866971 0.762009 1.332100 0.027718 -0.009052 1084450.000000 0 0 1
32.965526 30.100654 10.839868 45.937762 0.740003 1.332581 0.031746 -0.006498 1140470.000000 0 0 1
33.296526 29.105554 12.000568 45.823635 0.718338 1.305820 0.035503 -0.006721 7893.630000 0 0 1
32.998926 27.784454 11.646768 44.682795 0.699820 1.307096 0.034549 -0.011950 149532.000000 0 0 1
33.201926 27.019954 12.816968 44.684678 0.683103 1.279879 0.050697 -0.019831 83245.800000 0 0 1
32.857826 25.506154 12.648368 43.476221 0.660096 1.275602 0.040385 -0.017548 309991.000000 0 0 1
33.883826 24.748754 11.996068 43.640808 0.630839 1.292329 0.046707 -0.007184 27280.900000 0 0 1
33.796226 23.389054 12.062168 42.833732 0.605378 1.285331 0.058368 -0.016111 -84329.000000 0 0 1
32.598526 22.671054 11.404368 41.312228 0.607674 1.291111 0.058514 -0.013906 109416.000000 0 0 1
31.345026 22.927954 11.980568 40.641552 0.631536 1.271565 0.069547 -0.024682 -410441.000000 0 0 1
30.266026 22.475254 11.180268 39.321339 0.638742 1.282488 0.052059 -0.013455 -31609.900000 0 0 1
29.014226 22.423454 12.071168 38.605047 0.657961 1.252779 0.033607 -0.007817 -214556.000000 0 0 1
28.564026 23.699554 12.536968 39.175860 0.692590 1.245048 0.033186 -0.010848 549655.000000 0 0 1
27.411226 23.463454 13.382568 38.483790 0.707955 1.215631 0.054054 -0.009441 630626.000000 0 0 1
23.956226 9.308554 25.891821 36.482000 0.370610 0.781703 0.022749 0.001269 -194758.000000 0 0 1
23.826726 8.064054 26.529191 36.558717 0.326345 0.758803 0.027817 -0.003738 804438.000000 0 0 1
22.435226 7.726154 26.490671 35.563865 0.331656 0.730447 0.023985 -0.003850 571668.000000 0 0 1
22.280126 6.428754 27.321841 35.835958 0.280912 0.703761 0.039595 -0.005385 -163864.000000 0 0 1
22.550626 6.475654 28.701011 37.070377 0.279636 0.685298 0.053561 -0.013551 637480.000000 0 0 1
23.915226 6.571154 29.116671 38.247858 0.268151 0.705538 0.048029 -0.015874 308712.000000 0 0 1
24.150626 6.327654 30.625451 39.512152 0.256248 0.683940 0.052157 -0.018258 -462321.000000 0 0 1
23.974626 7.508054 31.416691 40.226385 0.303492 0.674536 0.057428 -0.014814 137159.000000 0 0 1
24.164326 7.239954 32.803810 41.381415 0.291102 0.655541 0.060717 -0.011550 -30891.800000 0 0 1
24.365426 8.586754 33.620732 42.399999 0.338825 0.655174 0.078586 -0.015651 -349817.000000 0 0 1
25.417126 9.416654 33.214769 42.871022 0.354806 0.684460 0.053169 -0.014935 -501003.000000 0 0 1
25.833326 10.129854 -33.837772 43.760365 0.373698 2.454749 0.072296 -0.010992 1157880.000000 0 0 1
27.114426 11.046154 34.072269 44.923592 0.386861 0.709866 0.056646 -0.008057 711259.000000 0 0 1
26.887126 12.339254 33.509687 44.699819 0.430254 0.723247 0.038991 -0.009442 95945.700000 0 0 1
26.178526 13.259254 -33.908782 44.843378 0.468829 2.428222 0.043036 -0.017081 -380961.000000 0 0 1
25.715626 14.512254 33.581977 44.717425 0.513783 0.721248 0.041211 -0.019441 123570.000000 0 0 1
26.803226 15.378654 33.218098 45.369130 0.520903 0.749288 0.033818 -0.020381 561513.000000 0 0 1
26.343626 16.665054 32.954865 45.362251 0.564048 0.757608 0.047346 -0.026065 -137886.000000 0 0 1
26.845226 17.670654 33.993520 46.781167 0.582147 0.757364 0.053331 -0.030026 -552446.000000 0 0 1
26.303826 17.546954 -32.927302 45.650784 0.588294 2.376455 0.057882 -0.033558 166309.000000 0 0 1
27.098526 16.764854 -32.017142 45.171759 0.554029 2.358573 0.051168 -0.026939 -410505.000000 0 0 1
26.419026 16.325354 -30.713862 43.678638 0.553506 2.350654 0.058805 -0.022017 -544707.000000 0 0 1
25.672026 15.202854 -31.006002 43.029663 0.534661 2.375424 0.065084 -0.020185 -363688.000000 0 0 1
24.801326 14.826654 -29.966332 41.628314 0.538813 2.374389 0.076312 -0.024812 -190612.000000 0 0 1
24.045526 13.536154 -30.237762 40.935767 0.512723 2.401882 0.067763 -0.019282 -158691.000000 0 0 1
23.016226 13.756954 -31.226722 41.159551 0.538732 2.432073 0.065127 -0.022225 536246.000000 0 0 1
22.576826 12.494354 -31.729792 40.897453 0.505461 2.458838 0.056699 -0.012492 689614.000000 0 0 1
21.471726 11.733754 -30.871582 39.392520 0.500133 2.471383 0.070518 -0.018662 606493.000000 0 0 1
20.199826 12.387354 -30.785842 38.849036 0.550098 2.485609 0.082906 -0.017675 294823.000000 0 0 1
19.421626 11.574654 -29.897512 37.483775 0.537449 2.494122 0.076961 -0.012732 -472148.000000 0 0 1
18.294226 12.476854 -29.414682 36.818122 0.598550 2.496291 0.050159 -0.004012 -602885.000000 0 0 1
17.160426 12.527054 -30.231892 36.950976 0.630576 2.529004 0.032302 0.000123 315319.000000 0 0 1
16.011626 13.024454 -29.551932 36.046155 0.682881 2.531921 0.029932 -0.008406 -97458.400000 0 0 1
14.729026 13.202654 -30.357912 36.233370 0.730806 2.564118 0.026525 -0.010599 -185662.000000 0 0 1
14.242926 11.889454 -30.737202 35.902586 0.695581 2.598526 0.020550 -0.002658 -309711.000000 0 0 1
12.909726 11.685854 -30.355902 34.995729 0.735679 2.620785 0.018217 -0.006198 -217728.000000 0 0 1
12.026726 11.128254 -31.502872 35.509311 0.746615 2.661977 0.023287 -0.006628 -43029.400000 0 0 1
11.647326 12.169154 -32.437322 36.550354 0.807305 2.662621 0.033018 -0.008699 193141.000000 0 0 1
10.637326 11.687254 -33.312602 36.871047 0.832394 2.698639 0.046978 -0.002999 52894.500000 0 0 1
10.187426 12.628454 33.782085 37.476536 0.891981 0.447759 0.060205 -0.006024 -260684.000000 0 0 1
11.260126 12.983754 32.969215 37.179799 0.856374 0.480528 0.049626 -0.003661 141909.000000 0 0 1
10.738926 13.485554 31.758081 36.135307 0.898298 0.497317 0.067628 -0.013099 414694.000000 0 0 1
11.837026 13.473054 30.648631 35.510237 0.849948 0.529434 0.062168 -0.012476 283927.000000 0 0 1
12.365526 12.216654 30.275911 34.911082 0.779342 0.521186 0.039517 -0.012115 45142.100000 0 0 1
12.253426 11.872354 28.896591 33.557595 0.769604 0.533359 0.061025 -0.012354 -316033.000000 0 0 1
12.696226 10.479854 28.473811 32.890415 0.690056 0.524214 0.061994 -0.010067 -852386.000000 0 0 1
11.997026 9.415954 28.933191 32.706549 0.665439 0.485097 0.062956 -0.017385 -314294.000000 0 0 1
12.458026 8.166054 28.334091 32.011054 0.580222 0.484013 0.035324 -0.018340 -568636.000000 0 0 1
11.618426 6.919954 28.584861 31.622269 0.537179 0.441885 0.030867 -0.018015 -307422.000000 0 0 1
10.419126 7.038254 27.823071 30.532253 0.594102 0.424443 0.040127 -0.024810 330514.000000 0 0 1
9.418326 6.089554 28.224361 30.371073 0.573956 0.378237 0.039065 -0.032915 162700.000000 0 0 1
9.529926 4.663454 27.592851 29.562353 0.455090 0.367083 0.034440 -0.022432 14533.900000 0 0 1
10.693226 4.027454 28.116851 30.350005 0.360204 0.386006 0.020428 -0.017782 430381.000000 0 0 1
10.984726 2.842754 27.422671 29.677405 0.253236 0.392318 0.015806 -0.017474 -278857.000000 0 0 1
11.754526 1.758854 28.158691 30.564266 0.148530 0.399400 0.003568 -0.019768 -217005.000000 0 0 1
10.935226 1.256454 29.185861 31.192504 0.114398 0.360646 0.001486 -0.005696 -144521.000000 0 0 1
11.520526 0.194754 29.858751 32.004773 0.016903 0.368283 0.007614 -0.005991 -139075.000000 0 0 1
10.608226 -0.386746 30.988521 32.756259 -0.036441 0.330027 0.017692 -0.004670 217987.000000 0 0 1
10.493426 0.510954 32.109391 33.784406 0.048654 0.316211 -0.005768 -0.011811 -491250.000000 0 0 1
9.175226 0.694254 32.560589 33.835761 0.075522 0.275413 0.017657 -0.012030 -358217.000000 0 0 1
9.033326 1.868854 33.545895 34.791100 0.204006 0.268352 0.021642 -0.018699 -96937.700000 0 0 1
9.128726 3.165054 32.928660 34.316874 0.333744 0.285407 0.009079 -0.023965 -445345.000000 0 0 1
10.393126 3.670154 32.610319 34.422667 0.339463 0.325940 0.005127 -0.019301 -1272820.000000 0 0 1
10.389026 5.017454 31.854651 33.879574 0.449921 0.347486 0.016060 -0.017544 25728.300000 0 0 1
10.451526 6.157954 32.671204 34.850572 0.532434 0.355521 0.024899 -0.016117 -81506.000000 0 0 1
10.632126 7.339754 31.915561 34.431339 0.604211 0.384640 0.034419 -0.017617 -306377.000000 0 0 1
10.591226 8.613954 32.820879 35.546932 0.682804 0.394182 0.052842 -0.019392 192029.000000 0 0 1
9.346026 9.025854 33.359304 35.800243 0.767973 0.371407 0.057277 -0.017336 72163.800000 0 0 1
8.832826 8.182754 -33.827222 35.906229 0.747212 2.799632 0.053638 -0.019842 -630846.000000 0 0 1
7.437426 8.564554 -33.357342 35.233211 0.855719 2.813810 0.059895 -0.015526 -298439.000000 0 0 1
6.828326 7.590854 -32.543062 34.107155 0.838232 2.837576 0.059825 -0.012135 1020750.000000 0 0 1
5.461426 7.895754 -32.168982 33.571022 0.965668 2.851567 0.065640 -0.019118 1327180.000000 0 0 1
4.959426 7.037454 -30.973762 32.148027 0.956910 2.870479 0.077872 -0.014929 -266619.000000 0 0 1
5.444026 7.581654 -29.732882 31.163491 0.948057 2.837415 0.069984 -0.017452 322803.000000 0 0 1
4.953126 6.947354 -28.538882 29.787027 0.951431 2.851082 0.063647 -0.015098 427190.000000 0 0 1
3.508026 7.395554 -28.151952 29.317791 1.127885 2.858637 0.059548 -0.017356 447408.000000 0 0 1
2.499926 6.875854 -28.981182 29.890399 1.222075 2.894312 0.058086 -0.017909 -507249.000000 0 0 1
1.213926 7.366654 -28.776752 29.729492 1.407477 2.887744 0.053715 -0.010500 -465483.000000 0 0 1
0.142026 6.718654 -29.652462 30.404424 1.549660 2.918727 0.058171 -0.021289 -374067.000000 0 0 1
0.139426 7.217654 -30.974912 31.805018 1.551481 2.912620 0.075718 -0.019771 218983.000000 0 0 1
-0.143674 6.182854 -31.929942 32.523369 -1.547563 2.950271 0.093186 -0.030363 -454058.000000 0 0 1
-0.188274 6.654154 -33.407422 34.064191 -1.542510 2.944907 0.105268 -0.033781 162206.000000 0 0 1
1.015026 7.179654 -33.980862 34.745888 1.430352 2.931359 0.079221 -0.034065 219375.000000 0 0 1
1.889026 6.207754 33.731942 34.350379 1.275398 0.190042 0.087304 -0.029328 -181450.000000 0 0 1
1.608326 5.883954 32.230013 32.802155 1.303973 0.187046 0.099171 -0.033903 579142.000000 0 0 1
0.334926 5.247654 32.012071 32.441066 1.507059 0.162807 0.110224 -0.036161 524185.000000 0 0 1
-0.158274 5.328554 30.689461 31.149022 -1.541102 0.171989 0.129654 -0.043979 328831.000000 0 0 1
0.705726 4.499054 29.670321 30.017786 1.415203 0.152300 0.138106 -0.055197 183185.000000 0 0 1
0.328326 4.699754 28.327741 28.716831 1.501049 0.164802 0.125176 -0.045559 201358.000000 0 0 1
1.196626 3.990754 27.438221 27.752730 1.279478 0.150692 0.114276 -0.042272 281369.000000 0 0 1
1.356526 4.603154 26.000261 26.439417 1.284214 0.182516 0.101692 -0.042743 -232940.000000 0 0 1
2.167326 5.734454 26.018891 26.731329 1.209444 0.231392 0.088985 -0.034551 -194604.000000 0 0 1
2.286126 6.152454 24.647421 25.506361 1.215028 0.260255 0.075654 -0.033383 -553181.000000 0 0 1
3.214326 7.409754 24.553801 25.848124 1.161499 0.317798 0.073977 -0.033416 69986.400000 0 0 1
4.602226 7.279554 24.654851 26.115782 1.007027 0.336066 0.062175 -0.025450 -477808.000000 0 0 1
5.215326 6.681954 23.553881 25.032648 0.908054 0.345440 0.052370 -0.024965 -2029670.000000 0 0 1
6.719226 6.629954 23.589361 25.407917 0.778711 0.380644 0.070341 -0.021650 -1160340.000000 0 0 1
7.271426 5.668854 24.470741 26.150080 0.662182 0.360329 0.072117 -0.020851 -62767.800000 0 0 1
6.953826 4.293554 24.424081 25.755117 0.553143 0.322899 0.076479 -0.020821 -926248.000000 0 0 1
7.144326 3.592654 23.044171 24.392261 0.465939 0.334017 0.064506 -0.020293 798263.000000 0 1 0
6.095426 3.838954 22.066471 23.212517 0.562050 0.315543 0.056949 -0.019680 196495.000000 0 1 0
4.938426 3.093654 22.281371 23.030811 0.559638 0.255808 0.052306 -0.017048 -844923.000000 0 1 0
3.712826 3.420754 21.443071 22.029343 0.744478 0.231223 0.034871 -0.010218 -14287.500000 0 1 0
3.217426 4.787054 21.538671 22.297580 0.979035 0.261650 0.026255 -0.015182 505599.000000 0 1 0
2.033626 4.963954 20.763871 21.445625 1.181974 0.252823 0.019322 -0.010373 235204.000000 0 1 0
1.399726 6.376854 20.747871 21.750808 1.354722 0.304858 0.017955 -0.017273 348737.000000 0 1 0
2.292626 7.385454 20.241471 21.668369 1.269803 0.364931 0.011666 -0.008016 363687.000000 0 1 0
1.674826 8.650154 20.461471 22.277837 1.379545 0.406608 0.018032 -0.004586 100283.000000 0 1 0
2.607626 9.804154 20.158671 22.567525 1.310843 0.466250 0.011753 -0.007450 -585666.000000 0 1 0
2.804626 9.980354 18.711971 21.391850 1.296847 0.505930 0.008768 0.001240 133385.000000 0 1 0
3.718426 11.041754 18.443171 21.815077 1.245965 0.563422 0.006165 -0.001447 703651.000000 0 1 0
5.220526 10.638754 18.514171 21.982072 1.114610 0.569372 0.014266 -0.006120 -47270.900000 0 1 0
5.552326 9.837654 17.377671 20.726582 1.056968 0.576411 0.015248 0.000801 516501.000000 0 1 0
6.862726 9.256354 17.478971 20.935413 0.932817 0.582846 0.019456 -0.004355 585918.000000 0 1 0
6.978626 7.845654 18.157571 20.975054 0.843819 0.524300 0.031524 -0.003527 -214257.000000 0 1 0
6.938726 7.791454 19.583871 22.189653 0.843223 0.489501 0.041287 -0.001402 -47474.200000 0 1 0
6.966526 6.471454 20.051471 22.191748 0.748574 0.442801 0.047107 -0.006841 191831.000000 0 1 0
8.375926 5.901054 20.339971 22.774833 0.613757 0.466629 0.058596 -0.004817 -87507.400000 0 1 0
9.105826 5.587754 19.177171 21.952288 0.550393 0.508277 0.054601 -0.008333 75343.400000 0 1 0
10.417826 5.127754 19.489471 22.686217 0.457396 0.537310 0.062144 -0.004816 424372.000000 0 1 0
10.550126 3.578054 19.447171 22.412052 0.326975 0.520219 0.071812 -0.005871 -363148.000000 0 1 0
9.928326 2.939754 20.525671 22.989497 0.287873 0.467210 0.073914 -0.010038 66224.900000 0 1 0
10.099826 1.518654 20.438971 22.848727 0.149246 0.463408 0.078056 -0.017403 -978880.000000 0 1 0
9.089026 0.722554 21.159571 23.040398 0.079331 0.406859 0.076870 -0.026912 -969088.000000 0 1 0
9.129326 0.983054 22.577371 24.373114 0.107268 0.386264 0.073629 -0.019232 292518.000000 0 1 0
8.432826 -0.005146 23.326511 24.804006 -0.000610 0.346894 0.062178 -0.028226 -891600.000000 0 1 0
8.846326 0.088454 24.781771 26.313523 0.009999 0.342886 0.051534 -0.018922 672964.000000 0 0 1
10.194626 -0.297146 25.099881 27.092854 -0.029139 0.385955 0.046168 -0.021411 963153.000000 0 0 1
10.428626 -1.701746 24.881191 27.031941 -0.161755 0.401600 0.051606 -0.024515 -756970.000000 0 0 1
11.819726 -2.221346 25.269641 27.985622 -0.185769 0.444209 0.045133 -0.015341 -77420.400000 0 0 1
12.068126 -3.609646 25.154801 28.132423 -0.290636 0.464252 0.040288 -0.012170 -222200.000000 0 0 1
13.403726 -3.917946 25.466731 29.044183 -0.284380 0.501573 0.040211 -0.006867 -96735.100000 0 0 1
13.612126 -5.503646 25.590501 29.503455 -0.384224 0.520897 0.043348 -0.009064 -77540.600000 0 0 1
13.406726 -6.205146 24.378681 28.505512 -0.433479 0.544808 0.055624 -0.008020 380801.000000 0 0 1
13.134826 -7.610746 24.622861 28.926327 -0.525159 0.552478 0.061074 -0.015291 25674.400000 0 0 1
13.396126 -8.501346 23.374931 28.250955 -0.565482 0.596328 0.081595 -0.023525 25948.700000 0 0 1
12.766226 -9.750046 23.453321 28.427068 -0.652235 0.600532 0.081229 -0.014485 -325433.000000 0 0 1
12.806626 -10.390146 22.202571 27.657169 -0.681599 0.638856 0.079268 -0.021008 60007.800000 0 0 1
12.037226 -11.716946 22.204271 27.842617 -0.771916 0.647669 0.095794 -0.010695 -909979.000000 0 0 1
10.663826 -11.604646 22.187071 27.214906 -0.827622 0.617628 0.101795 -0.012852 -1543060.000000 0 0 1
10.136126 -12.857046 22.466171 27.798805 -0.903186 0.629757 0.090818 -0.009958 173571.000000 0 0 1
8.607626 -12.885146 22.779671 27.550529 -0.981853 0.597344 0.076776 -0.011518 291649.000000 0 0 1
7.922726 -12.473446 21.670371 26.229019 -1.004919 0.598470 0.069878 -0.015430 -995360.000000 0 0 1
6.527726 -12.527846 21.744771 25.930546 -1.090445 0.576130 0.048966 -0.014017 60003.900000 0 0 1
5.782026 -11.374246 21.010071 24.581058 -1.100496 0.545773 0.042927 -0.011011 157519.000000 0 1 0
5.807626 -10.216646 21.752371 24.723957 -1.053900 0.495335 0.048172 -0.007322 -422510.000000 0 1 0
5.218726 -9.142146 21.127171 23.604476 -1.052092 0.462254 0.039456 -0.012640 -317174.000000 0 1 0
5.393426 -7.801046 21.842271 23.812395 -0.965884 0.409639 0.043369 -0.022398 -88354.500000 0 1 0
4.949426 -6.771946 21.049271 22.658947 -0.939650 0.379201 0.042275 -0.025540 -321673.000000 0 1 0
5.404926 -5.564446 21.635171 22.983840 -0.799939 0.344273 0.048225 -0.024874 -103535.000000 0 1 0
-7.855774 -15.273146 -20.595032 26.816740 1.095733 2.446496 0.070030 -0.001036 427526.000000 0 0 1
-7.226474 -14.585546 -19.519232 25.415753 1.110792 2.446505 0.068943 -0.006404 73499.300000 0 0 1
-6.561374 -13.347646 -19.736832 24.713435 1.113911 2.495808 0.058180 -0.019122 334698.000000 0 1 0
-5.724474 -12.931046 -18.487932 23.276280 1.154036 2.488621 0.055545 -0.021725 856231.000000 0 1 0
-4.668374 -13.899946 -18.270332 23.426636 1.246777 2.465295 0.050521 -0.007149 293894.000000 0 1 0
-4.105174 -13.768446 -16.998932 22.257275 1.281030 2.439895 0.037325 -0.006433 274658.000000 0 1 0
-3.170474 -14.993246 -16.673832 22.646546 1.362406 2.398329 0.026840 0.013528 316251.000000 0 1 0
-1.860674 -14.778046 -17.152532 22.717001 1.445547 2.426531 0.020488 -0.002204 227821.000000 0 1 0
-0.975774 -15.738946 -16.536532 22.850021 1.508878 2.379943 0.024193 0.003068 275053.000000 0 1 0
0.443326 -15.995046 -17.054532 23.385789 -1.543087 2.388049 0.024676 -0.002530 67424.100000 0 1 0
0.477426 -16.914546 -18.202532 24.852807 -1.542578 2.392656 0.038404 -0.002654 -176092.000000 0 1 0
0.221526 -18.311346 -17.901732 25.609110 -1.558699 2.344847 0.042304 -0.001439 -243170.000000 0 0 1
-0.199474 -18.943346 -19.194532 26.968875 1.560267 2.362753 0.059192 -0.003915 144534.000000 0 0 1
-1.469374 -18.498546 -19.645232 27.023886 1.491531 2.384678 0.069041 -0.008445 73957.700000 0 0 1
-1.728274 -18.977546 -20.966532 28.332484 1.479977 2.403893 0.089442 -0.005440 745242.000000 0 0 1
-2.985174 -18.296946 -21.660732 28.510995 1.409070 2.433698 0.073822 0.000938 901297.000000 0 0 1
-2.823374 -16.917546 -21.942632 27.850564 1.405430 2.478139 0.064267 -0.003315 -125842.000000 0 0 1
-3.444774 -16.075046 -20.981832 26.655410 1.359696 2.476972 0.049932 0.001386 -201065.000000 0 0 1
-2.659874 -14.801346 -20.640432 25.537859 1.392989 2.511934 0.056684 -0.004734 -285404.000000 0 0 1
-2.699874 -13.764146 -21.548732 25.711649 1.377103 2.564573 0.055703 -0.015625 108665.000000 0 0 1
-1.805974 -12.786146 -21.041132 24.687574 1.430480 2.591156 0.037253 -0.007645 149581.000000 0 1 0
-1.507174 -11.710746 -22.033332 24.997618 1.442800 2.649651 0.038971 -0.014795 416984.000000 0 1 0
-2.660074 -10.896546 -22.255732 24.922447 1.331359 2.674763 0.046559 -0.018399 543899.000000 0 1 0
-2.669674 -10.353346 -23.546132 25.859994 1.318437 2.715345 0.046473 -0.016435 85328.900000 0 0 1
-3.654674 -9.144546 -23.639832 25.609003 1.190586 2.746878 0.043846 -0.015073 -737058.000000 0 0 1
-4.978274 -9.525346 -23.440832 25.787362 1.089206 2.711686 0.044149 -0.022093 -599905.000000 0 0 1
-5.773874 -8.422346 -23.780832 25.880524 0.969840 2.736003 0.040540 -0.019252 -32116.200000 0 0 1
-7.316274 -8.578646 -23.555632 26.114916 0.864652 2.695174 0.037783 -0.026176 646281.000000 0 0 1
-8.052374 -9.065646 -24.640032 27.461935 0.844522 2.684282 0.051119 -0.028592 24464.100000 0 0 1
-8.402274 -8.057646 -25.593412 28.116661 0.764464 2.714703 0.045897 -0.028909 -494587.000000 0 0 1
-9.335974 -8.535346 -26.706122 29.550457 0.740629 2.699239 0.047137 -0.030487 -232683.000000 0 0 1
-9.896674 -7.434546 -27.369692 30.038587 0.644279 2.716865 0.058446 -0.035335 -242371.000000 0 0 1
-10.790074 -7.858746 -28.350472 31.335840 0.629488 2.701542 0.071307 -0.037606 -665977.000000 0 0 1
-11.640174 -6.751546 -28.993482 31.964028 0.525600 2.707058 0.069683 -0.040028 -115793.000000 0 0 1
-10.938074 -5.743846 -29.730922 32.195667 0.483544 2.747759 0.038951 -0.026865 -165996.000000 0 0 1
-11.690474 -5.183146 -30.757852 33.310324 0.417323 2.747572 0.049021 -0.024681 -221732.000000 0 0 1
-10.965374 -4.002346 -31.498842 33.592191 0.349974 2.786699 0.031429 -0.022094 474910.000000 0 0 1
-9.978374 -4.468146 -32.444432 34.237019 0.421009 2.816565 0.042894 -0.022451 492616.000000 0 0 1
-9.341774 -3.375946 -33.071082 34.530599 0.346778 2.849810 0.035337 -0.013323 167488.000000 0 0 1
-8.317674 -3.843646 34.034231 35.246081 0.432875 0.262988 0.025370 -0.015709 858199.000000 0 0 1
-7.110374 -4.328646 -33.583402 34.599704 0.546850 2.898619 0.030684 -0.016971 1378920.000000 0 0 1
-6.084074 -4.647846 33.627231 34.487811 0.652361 0.223864 0.028884 -0.015059 1335790.000000 0 0 1
-4.639074 -4.200946 33.941114 34.513305 0.735877 0.182345 0.047784 -0.016662 145781.000000 0 0 1
-4.514574 -2.796446 33.956375 34.369127 0.554581 0.155135 0.068525 -0.024396 521531.000000 0 0 1
-3.169574 -2.411046 -33.960012 34.192715 0.650304 3.024859 0.070109 -0.027385 653212.000000 0 0 1
-3.045774 -0.894246 -33.546442 33.696294 0.285577 3.047248 0.081751 -0.031863 -142898.000000 0 0 1
-3.435674 -0.740046 -32.198302 32.389539 0.212159 3.032872 0.079384 -0.025666 190092.000000 0 0 1
-3.798274 0.582954 -31.856192 32.087127 -0.152290 3.021545 0.088941 -0.029814 -838032.000000 0 0 1
-4.234974 0.530754 -30.384832 30.683135 -0.124676 3.002038 0.098802 -0.034456 751687.000000 0 0 1
-5.390474 -0.256346 -30.079832 30.560092 0.047520 2.964073 0.082458 -0.033709 1870270.000000 0 0 1
-6.682374 0.280454 -30.536112 31.259990 -0.041945 2.925970 0.080522 -0.034567 1588930.000000 0 0 1
-7.793174 -0.834146 -30.352422 31.348029 0.106630 2.888890 0.063510 -0.034057 420548.000000 0 0 1
-8.237974 -1.163646 -29.057742 30.225332 0.140326 2.862735 0.069511 -0.025437 36647.600000 0 0 1
-9.085274 -2.283746 -29.085232 30.556643 0.246266 2.830000 0.035585 -0.019094 -167066.000000 0 0 1
-9.520874 -2.854946 -27.716492 29.444893 0.291330 2.797259 0.034427 -0.017426 170610.000000 0 0 1
-10.358374 -1.992546 -26.945392 28.936488 0.190040 2.768462 0.036648 -0.017633 440435.000000 0 0 1
-10.659274 -2.607846 -25.658672 27.906782 0.239942 2.737456 0.038949 -0.014217 108407.000000 0 0 1
-11.518474 -1.748446 -24.697732 27.307697 0.150645 2.700824 0.046857 -0.014170 -164956.000000 0 0 1
-10.908374 -0.598446 -24.274332 26.619429 0.054806 2.718693 0.062984 -0.018066 -297724.000000 0 0 1
-11.771674 0.267154 -23.564332 26.342389 -0.022691 2.678198 0.062998 -0.023114 -33821.900000 0 0 1
-11.044474 1.455954 -22.897132 25.463285 -0.131071 2.688783 0.078989 -0.026985 50388.300000 0 0 1
-10.477574 2.373154 -23.786232 26.099737 -0.222740 2.717370 0.058012 -0.028637 -474097.000000 0 0 1
-9.896074 3.364454 -23.068432 25.325963 -0.327719 2.716162 0.056479 -0.032732 -633957.000000 0 0 1
-9.861774 4.709754 -23.807732 26.196269 -0.445549 2.711247 0.072376 -0.040685 -198954.000000 0 0 1
-11.081374 5.283554 -24.214332 27.148604 -0.444913 2.672366 0.081042 -0.031753 -155493.000000 0 0 1
-11.575174 4.715054 -25.465502 28.367379 -0.386820 2.685326 0.076534 -0.032767 3745.720000 0 0 1
-13.014074 5.197854 -25.754792 29.320524 -0.379991 2.643275 0.075942 -0.020397 104232.000000 0 0 1
-13.052074 6.547454 -26.115432 29.920588 -0.464959 2.631757 0.070216 -0.012908 365788.000000 0 0 1
-14.390074 7.001754 -26.288652 30.776485 -0.452845 2.594768 0.079209 -0.017260 408257.000000 0 0 1
-14.403074 8.540054 -26.563222 31.400412 -0.535207 2.579143 0.089121 -0.011518 -116224.000000 0 0 1
-14.092474 9.323754 -25.455342 30.553309 -0.584495 2.555567 0.112339 -0.018861 84849.800000 0 0 1
-14.532474 10.682854 -25.557372 31.280912 -0.633898 2.527034 0.103306 -0.020108 -46011.500000 0 0 1
-14.218174 11.514854 -24.256132 30.382697 -0.680730 2.495352 0.100512 -0.020367 -29525.200000 0 0 1
-14.863174 11.095254 -23.093432 29.619676 -0.641253 2.464927 0.124706 -0.018970 -64580.200000 0 0 1
-14.430774 11.961354 -22.065132 28.951534 -0.692103 2.437409 0.110036 -0.014574 -253211.000000 0 0 1
-15.203874 11.879954 -20.735632 28.324151 -0.663282 2.392171 0.115897 -0.018056 268802.000000 0 0 1
-16.555274 12.279154 -20.942332 29.384282 -0.638172 2.364144 0.101934 -0.015052 195305.000000 0 0 1
-17.135274 12.704254 -19.742332 29.065020 -0.637980 2.317533 0.099769 -0.015001 -168485.000000 0 0 1
-18.666274 12.869054 -19.783732 30.090504 -0.603595 2.288258 0.103687 -0.024601 -34597.400000 0 0 1
-19.140574 13.948754 -20.597132 31.387437 -0.629764 2.286598 0.089818 -0.020765 1165600.000000 0 0 1
-20.561474 14.157854 -20.479732 32.289913 -0.603008 2.257829 0.068872 -0.022616 1096730.000000 0 0 1
-21.114074 15.500754 -21.038532 33.596091 -0.633275 2.247491 0.073306 -0.021308 -81960.600000 0 0 1
-20.942274 15.613754 -22.469532 34.456466 -0.640654 2.281165 0.075188 -0.021394 332628.000000 0 0 1
-21.457274 16.862354 -22.946632 35.655316 -0.666058 2.269948 0.048032 -0.003224 -57777.900000 0 0 1
-21.528474 17.089554 -24.458232 36.793113 -0.670956 2.297956 0.051302 -0.007571 659133.000000 0 0 1
-20.179974 17.226354 -24.915832 36.397491 -0.706601 2.324780 0.067704 -0.018823 606897.000000 0 0 1
-19.941774 16.705054 -26.181282 36.907895 -0.697305 2.359398 0.062977 -0.030345 -8818.520000 0 0 1
-18.796574 17.401454 -26.935802 37.170677 -0.746876 2.381325 0.037576 -0.023238 -148799.000000 0 0 1
-19.344674 18.558554 -27.506942 38.409220 -0.764661 2.369073 0.020740 -0.027525 387742.000000 0 0 1
-18.695774 19.815454 -27.243312 38.527682 -0.814464 2.356199 0.006808 -0.024807 -1221400.000000 0 0 1
-19.619574 21.047754 -27.289292 39.656539 -0.820502 2.329720 0.035410 -0.018537 -270164.000000 0 0 1
-20.678274 21.193154 -26.408462 39.675530 -0.797694 2.299108 0.047265 -0.007204 327391.000000 0 0 1
-21.789574 20.307654 -26.641922 39.962212 -0.750210 2.300539 0.080489 -0.022288 153151.000000 0 0 1
-23.024074 20.592454 -25.723582 40.197759 -0.729706 2.265198 0.071323 -0.003341 343489.000000 0 0 1
-22.871374 20.271054 -24.363132 39.084237 -0.725198 2.243815 0.034686 0.003101 -117950.000000 0 0 1
-23.981274 20.714854 -23.617632 39.522136 -0.712447 2.211276 0.041616 -0.002955 -495220.000000 0 0 1
-23.935174 20.508254 -22.071732 38.479116 -0.708443 2.181694 0.041058 0.010225 40917.400000 0 0 1
-22.923474 21.154054 -21.274532 37.756925 -0.745276 2.169365 0.031650 0.007418 -131784.000000 0 0 1
-21.717674 20.478354 -21.246632 36.639319 -0.756036 2.189385 0.026226 0.007253 -1016210.000000 0 0 1
-21.607074 19.606854 -19.943132 35.341518 -0.736904 2.170378 0.045146 -0.012408 -553605.000000 0 0 1
-22.563174 18.543354 -20.042332 35.421009 -0.687918 2.172238 0.078763 -0.025166 551075.000000 0 0 1
-22.895774 17.861554 -18.846832 34.618704 -0.662504 2.146484 0.048807 -0.021522 -676654.000000 0 0 1
-23.941574 18.659354 -18.092032 35.336838 -0.662035 2.108294 0.029323 -0.006842 -1001600.000000 0 0 1
-25.184204 18.767254 -18.743132 36.575387 -0.640422 2.108834 0.024954 -0.010393 -69804.100000 0 0 1
-26.007824 19.738454 -18.136732 37.349090 -0.649200 2.077846 0.029082 -0.012841 -1571160.000000 0 0 1
-27.416934 19.751654 -18.704032 38.621975 -0.624298 2.076342 0.027548 0.009867 -214461.000000 0 0 1
-28.334204 18.705554 -18.372032 38.603840 -0.583495 2.066797 0.020256 -0.002111 509697.000000 0 0 1
-28.528764 18.527154 -16.972432 38.015908 -0.575967 2.033597 0.016027 -0.009102 -1379980.000000 0 0 1
-29.658634 17.535754 -16.657632 38.270275 -0.533963 2.021127 0.018056 -0.010123 -368950.000000 0 0 1
-29.427944 16.186154 -16.929032 37.611004 -0.502864 2.037683 0.037645 -0.017141 -17842.600000 0 0 1
-30.306764 15.282554 -16.264532 37.637633 -0.467052 2.017655 0.039439 -0.019072 -99788.300000 0 0 1
-29.600904 14.242754 -15.438132 36.296081 -0.448462 2.010133 0.074884 -0.022113 -254632.000000 0 0 1
-28.790324 14.730154 -14.369032 35.388265 -0.472913 1.988912 0.068622 -0.022089 80651.300000 0 0 1
-29.486104 15.105554 -13.229132 35.673772 -0.473434 1.950706 0.046099 -0.018892 8994.250000 0 0 1
-28.512354 15.830454 -12.267732 34.843290 -0.506837 1.930592 0.041625 -0.018986 196102.000000 0 0 1
-28.262214 17.147954 -12.611632 35.381610 -0.545364 1.935258 0.046198 -0.008595 -499149.000000 0 0 1
-29.337364 18.016054 -12.449232 36.609323 -0.550722 1.917773 0.023302 -0.006611 -561980.000000 0 0 1
-28.906134 19.488054 -12.485132 37.030087 -0.593189 1.914697 0.040323 -0.011583 -17192.600000 0 0 1
-28.251094 19.895654 -11.280532 36.348477 -0.613568 1.886351 0.007853 -0.018336 496483.000000 0 0 1
-27.388874 20.984354 -11.666032 36.422381 -0.653766 1.896841 -0.004022 -0.015993 758506.000000 0 0 1
-26.501574 21.645054 -10.544732 35.805491 -0.684869 1.869729 0.019797 -0.006335 420783.000000 0 0 1
-27.161324 22.717754 -9.925032 36.774178 -0.696546 1.844077 0.009915 -0.013122 12976.500000 0 0 1
-26.450424 23.916754 -10.068932 37.054277 -0.735137 1.845991 0.024966 -0.016757 11134.200000 0 0 1
-27.161854 25.031554 -9.299632 38.089738 -0.744605 1.817440 0.040876 0.004664 121575.000000 0 0 1
-26.848264 24.889154 -7.881932 37.448954 -0.747550 1.782853 0.044583 -0.003011 986492.000000 0 0 1
-28.027614 25.103154 -7.085532 38.287338 -0.730411 1.756931 0.056858 -0.014502 465590.000000 0 0 1
-27.793654 24.496254 -5.658832 37.477674 -0.722422 1.722368 0.062465 -0.009571 -245133.000000 0 0 1
-27.825234 23.093954 -5.727232 36.611140 -0.692747 1.727876 0.058227 -0.013474 110825.000000 0 0 1
-27.812954 22.461554 -4.421732 36.022681 -0.679354 1.693855 0.055885 -0.007821 -225778.000000 0 0 1
-27.758984 20.870354 -4.556132 35.027007 -0.644679 1.701241 0.053589 -0.001517 358564.000000 0 0 1
-26.638354 20.296354 -5.247932 33.898152 -0.651088 1.726236 0.051940 -0.004208 597219.000000 0 0 1
-26.559784 20.481754 -6.658232 34.194392 -0.656904 1.766765 0.038489 -0.002384 -886991.000000 0 0 1
-27.369714 19.557354 -7.561932 34.478604 -0.620432 1.791916 0.043749 -0.007762 -235045.000000 0 0 1
-26.869404 18.232954 -7.582332 33.345123 -0.596203 1.800192 0.041217 -0.005703 320591.000000 0 0 1
-27.496034 17.499954 -8.635432 33.717221 -0.566793 1.829796 0.022554 -0.004455 -29651.000000 0 0 1
-27.149004 16.017354 -8.905232 32.755568 -0.533019 1.846131 0.046097 -0.012089 -161234.000000 0 0 1
-27.623734 15.073254 -7.965632 32.461130 -0.499507 1.818718 0.056212 -0.006350 -110940.000000 0 0 1
-27.888404 13.819854 -8.549432 32.277612 -0.460074 1.838867 0.060076 -0.018707 -144119.000000 0 0 1
-28.612824 12.854654 -7.629332 32.282233 -0.422240 1.809386 0.066157 -0.026948 -850668.000000 0 0 1
-29.959754 13.195854 -7.428132 33.569250 -0.414886 1.793921 0.079754 -0.014046 -451165.000000 0 0 1
-30.680114 12.225354 -6.682732 33.695513 -0.379194 1.770447 0.085275 -0.018557 81343.500000 0 0 1
-31.216034 11.021854 -7.561032 33.957197 -0.339419 1.795342 0.071281 -0.019228 -607744.000000 0 0 1
-30.252924 10.135154 -8.060532 32.907946 -0.323262 1.818256 0.084898 -0.012980 -301109.000000 0 0 1
-30.876874 8.892754 -8.299432 33.186488 -0.280418 1.823564 0.073833 -0.004259 -43591.800000 0 0 1
-29.903634 7.687154 -8.446332 32.010314 -0.251616 1.837821 0.111063 -0.015400 150835.000000 0 0 1
-29.192434 7.672154 -9.697132 31.703226 -0.257001 1.881651 0.110073 -0.025550 601063.000000 0 0 1
-28.274164 6.608754 -9.871132 30.668277 -0.229616 1.898498 0.131124 -0.035633 -48609.800000 0 0 1
-27.443164 6.530754 -11.168332 30.339902 -0.233628 1.947769 0.106919 -0.034568 307383.000000 0 0 1
-26.412564 7.546354 -11.158732 29.649423 -0.278296 1.956656 0.128983 -0.038838 852076.000000 0 0 1
-25.764704 7.560254 -12.432432 29.589572 -0.285423 2.004421 0.117069 -0.027406 -137998.000000 0 0 1
-31.125614 25.218954 33.802239 52.415559 -0.680949 0.869918 0.021115 0.002625 -58994.200000 0 0 1
-30.918404 26.525054 33.220278 52.565322 -0.709065 0.886690 0.006690 -0.004642 -68495.200000 0 0 1
-32.040294 26.912354 32.493466 52.978114 -0.698632 0.910517 0.029143 -0.017835 -442466.000000 0 0 1
-31.938034 28.417654 32.124591 53.475138 -0.727137 0.926371 0.044671 -0.027398 297166.000000 0 0 1
-33.184834 28.897154 31.633121 54.193478 -0.716443 0.947509 0.080166 -0.025062 253186.000000 0 0 1
-33.268334 30.305354 31.535791 54.951821 -0.738825 0.959560 0.099343 -0.033711 -92865.300000 0 0 1
-32.974674 30.903654 30.136271 54.319055 -0.752988 0.982672 0.110018 -0.038582 227024.000000 0 0 1
-31.571224 30.759254 29.955041 53.293324 -0.772372 0.973899 0.080098 -0.043245 192603.000000 0 0 1
-31.260694 31.355554 28.703101 52.766180 -0.786913 0.995638 0.085228 -0.037173 -746652.000000 0 0 1
-29.837224 31.374354 28.190021 51.665146 -0.810505 0.993656 0.073776 -0.031354 -903123.000000 0 0 1
-29.362714 30.095554 27.782851 50.396410 -0.797723 0.986891 0.093483 -0.036497 562680.000000 0 0 1
-28.177614 30.036254 26.990271 49.240524 -0.817315 0.990668 0.054791 -0.023053 24568.200000 0 0 1
-28.197824 30.642854 25.575051 48.869060 -0.826928 1.020032 0.047990 -0.011406 -635898.000000 0 0 1
-28.191014 32.103454 25.558841 49.785735 -0.850196 1.031681 0.035820 -0.017550 4839.920000 0 0 1
-28.994994 32.593754 24.512201 50.039089 -0.843764 1.058866 0.038971 -0.022653 -58183.600000 0 0 1
-29.209984 34.082954 24.714271 51.241254 -0.862237 1.067504 0.046660 -0.006855 -383690.000000 0 0 1
-29.841554 -33.936446 25.901791 52.087460 0.849516 1.050341 0.061887 -0.020954 -373361.000000 0 0 1
-29.622634 -32.681346 26.502131 51.458078 0.834452 1.029761 0.050313 -0.015154 38367.000000 0 0 1
-30.103454 -32.702946 27.990571 52.527828 0.826764 1.008806 0.061570 -0.011681 -154919.000000 0 0 1
-31.489054 -32.842346 28.190341 53.524532 0.806431 1.016105 0.069897 -0.027350 -104277.000000 0 0 1
-31.769064 -32.986346 29.564751 54.510980 0.804194 0.997549 0.063873 -0.026318 -575955.000000 0 0 1
-33.163014 -33.550246 29.786631 55.791109 0.791203 1.007595 0.084059 -0.036195 -484897.000000 0 0 1
-33.539974 -33.626646 31.148101 56.796878 0.786689 0.990332 0.074461 -0.036979 -296948.000000 0 0 1
-34.902105 -33.942846 31.223071 57.837305 0.771465 1.000546 0.075735 -0.040562 -202979.000000 0 0 1
-35.526922 33.932754 32.636189 58.980631 -0.762451 0.984431 0.083614 -0.034247 345825.000000 0 0 1
-35.021622 32.735754 33.204496 58.315368 -0.751675 0.965026 0.051879 -0.024913 327316.000000 0 0 1
-35.889191 32.369754 -33.941052 59.057853 -0.733884 2.183044 0.068323 -0.025075 533170.000000 0 0 1
-35.511880 30.978154 -33.370712 57.743780 -0.717317 2.186962 0.050859 -0.030630 550028.000000 0 0 1
-34.376547 30.963854 -32.510092 56.545675 -0.733216 2.183321 0.044397 -0.034479 -344901.000000 0 0 1
-33.947834 29.647154 -32.331592 55.468379 -0.717875 2.193069 0.020062 -0.020475 146080.000000 0 0 1
-32.959784 29.645054 -31.119372 54.162643 -0.732501 2.182856 0.013808 -0.016325 -170743.000000 0 0 1
-33.380944 29.744054 -29.776002 53.717841 -0.727848 2.158323 0.037379 -0.020192 -786996.000000 0 0 1
-33.897504 31.014054 -29.478632 54.588479 -0.741006 2.141252 0.030708 -0.017560 220017.000000 0 0 1
-35.027518 31.036754 -28.414802 54.750417 -0.725064 2.116463 0.032774 -0.010973 289221.000000 0 0 1
-34.616943 30.559554 -27.142562 53.562466 -0.723226 2.102202 0.008838 -0.016488 -14522.400000 0 0 1
-35.731024 30.598754 -26.258912 53.875043 -0.708177 2.079911 0.039351 -0.015097 190207.000000 0 0 1
-35.442721 30.367654 -24.779832 52.843363 -0.708434 2.058875 0.035526 -0.014457 -124868.000000 0 0 1
-34.955866 31.524954 -24.095632 52.880382 -0.733836 2.043913 0.042931 -0.014110 -151180.000000 0 0 1
-34.954267 31.364354 -22.700232 52.161519 -0.731320 2.021047 0.030234 -0.012326 661884.000000 0 0 1
-36.317404 31.426154 -21.898332 52.783463 -0.713321 1.998597 0.022628 -0.012838 870431.000000 0 0 1
36.168200 32.700154 -21.875232 53.441225 0.735083 1.992519 0.034554 -0.019398 97849.900000 0 0 1
-36.258464 33.759354 -21.201832 53.887734 -0.749721 1.975172 0.038873 -0.018537 127266.000000 0 0 1
-36.197134 33.674054 -19.631632 53.193753 -0.749303 1.948793 0.033762 -0.017704 557018.000000 0 0 1
-35.325007 32.551254 -19.357832 51.789631 -0.744556 1.953875 0.030422 -0.022721 187886.000000 0 0 1
-35.084058 32.446454 -17.959132 51.050896 -0.746360 1.930278 0.035279 -0.014215 -128831.000000 0 0 1
-34.009014 31.406554 -17.677032 49.552620 -0.745636 1.935564 0.036927 -0.009616 -155151.000000 0 0 1
-33.895704 31.163854 -16.277432 48.837069 -0.743433 1.910599 0.037516 -0.004843 -47029.200000 0 0 1
-32.702864 30.455054 -15.994232 47.463703 -0.749823 1.914502 0.039751 -0.001725 87188.500000 0 0 1
-32.390634 30.353754 -14.464532 46.687538 -0.752946 1.885796 0.038068 -0.000943 -465547.000000 0 0 1
-33.341214 29.649554 -13.743932 46.686489 -0.726859 1.869611 0.033163 -0.001322 -51860.500000 0 0 1
-32.741954 29.169354 -12.511732 45.600770 -0.727757 1.848737 0.050935 0.001370 -233151.000000 0 0 1
-33.681354 28.318854 -11.721732 45.538886 -0.699121 1.831127 0.047579 -0.008213 -371751.000000 0 0 1
-33.092074 27.837554 -10.497032 44.499466 -0.699372 1.808932 0.060725 -0.004127 198699.000000 0 0 1
-33.881944 26.908554 -9.854132 44.375222 -0.671186 1.794727 0.062236 -0.011566 -196397.000000 0 0 1
-32.918434 26.253754 -8.865632 43.028855 -0.673239 1.778322 0.073565 -0.009599 118295.000000 0 0 1
-32.575544 27.219054 -7.886632 43.176868 -0.696055 1.754486 0.059089 -0.013188 420014.000000 0 0 1
-31.426384 26.709754 -7.207332 41.868535 -0.704445 1.743800 0.068287 -0.020155 -21682.700000 0 0 1
-31.069184 27.731754 -6.119932 42.092730 -0.728701 1.716705 0.067985 -0.020312 -56199.300000 0 0 1
-30.038614 27.264854 -5.265232 40.907374 -0.737031 1.699865 0.081871 -0.018421 80643.900000 0 0 1
-30.439044 27.422654 -3.896532 41.154833 -0.733314 1.665618 0.083237 -0.024448 2881.430000 0 0 1
-29.623384 26.611154 -2.867032 39.923906 -0.731884 1.642671 0.083663 -0.020072 -16101.800000 0 0 1
-30.103434 25.272254 -2.803832 39.405140 -0.698375 1.642010 0.072025 -0.017387 294208.000000 0 0 1
-29.404044 24.444654 -1.830132 38.281697 -0.693559 1.618622 0.058057 -0.011019 33968.400000 0 0 1
-30.212674 23.268354 -1.339832 38.157792 -0.656274 1.605916 0.064838 -0.015433 -347369.000000 0 0 1
-30.382944 22.245254 -2.338932 37.728573 -0.631987 1.632830 0.044957 -0.005277 -63998.100000 0 0 1
-31.356974 21.302354 -1.943432 37.958227 -0.596732 1.622018 0.044721 -0.002932 -15491.600000 0 0 1
-31.834924 20.401054 -3.077032 37.935913 -0.569908 1.651997 0.077671 -0.003696 -498985.000000 0 0 1
-30.865264 19.507154 -3.509432 36.681190 -0.563624 1.666617 0.062867 -0.004752 -329705.000000 0 0 1
-31.214084 18.910454 -4.702532 36.797257 -0.544696 1.698942 0.070394 -0.004863 -640715.000000 0 0 1
-30.152444 17.932154 -5.078632 35.447490 -0.536525 1.714563 0.080254 -0.005155 -608003.000000 0 0 1
-30.253614 16.731454 -4.299032 34.838260 -0.505174 1.694511 0.088980 -0.014931 218200.000000 0 0 1
-29.636184 15.601254 -4.939232 33.854077 -0.484564 1.717217 0.084089 -0.019225 -103698.000000 0 0 1
-29.337224 14.484754 -4.018932 32.964111 -0.458621 1.693019 0.092275 -0.023508 -81418.600000 0 0 1
-30.465984 13.853654 -3.448832 33.645124 -0.426777 1.673483 0.104133 -0.026998 110007.000000 0 0 1
-30.142274 12.584254 -2.889132 32.791267 -0.395497 1.659017 0.093414 -0.029195 -24434.700000 0 0 1
-31.337034 11.886954 -2.174532 33.586276 -0.362558 1.635586 0.101842 -0.027515 534933.000000 0 0 1
-32.315934 11.445154 -3.156932 34.427857 -0.340380 1.662622 0.100212 -0.014768 389185.000000 0 0 1
-32.947964 10.337954 -2.581632 34.628116 -0.304038 1.645419 0.091877 -0.011358 75597.800000 0 0 1
-34.150941 9.875954 -3.472932 35.719497 -0.281506 1.668178 0.067571 -0.007326 420251.000000 0 0 1
-33.671054 9.115254 -4.596232 35.184558 -0.264378 1.701803 0.057650 -0.015539 103736.000000 0 0 1
-34.706020 8.639654 -5.402532 36.170966 -0.243979 1.720718 0.060567 -0.007450 -347566.000000 0 0 1
-34.239270 7.833154 -6.660332 35.749768 -0.224906 1.758195 0.065731 -0.014020 -134535.000000 0 0 1
-33.538734 6.647954 -6.361032 34.777934 -0.195681 1.754736 0.064593 -0.010876 333830.000000 0 0 1
-33.113464 5.884354 -7.429532 34.443070 -0.175867 1.788210 0.080282 -0.010758 -605435.000000 0 0 1
-32.237494 4.674254 -7.090732 33.337414 -0.143991 1.785130 0.104751 -0.014424 -383727.000000 0 0 1
-30.916034 5.103854 -6.862832 32.077234 -0.163612 1.786410 0.104543 -0.016123 -116872.000000 0 0 1
-30.164194 3.986354 -6.421032 31.096612 -0.131394 1.778779 0.102669 -0.018665 -60592.100000 0 0 1
-28.657954 4.182954 -6.180632 29.613775 -0.144938 1.781050 0.146267 -0.012823 186415.000000 0 0 1
-27.804444 4.339954 -7.312732 29.075735 -0.154839 1.825033 0.139078 -0.017945 1187090.000000 0 0 1
-26.420184 4.239154 -6.908032 27.635439 -0.159095 1.823446 0.168850 -0.028518 931685.000000 0 0 1
-25.469404 4.695954 -8.044432 27.119281 -0.182329 1.871960 0.170775 -0.034532 -199505.000000 0 0 1
-25.509894 3.852354 -9.222132 27.397866 -0.149882 1.914101 0.157344 -0.051343 307332.000000 0 0 1
-24.504874 4.216054 -10.140832 26.853314 -0.170382 1.958040 0.154269 -0.048091 -55897.400000 0 0 1
-24.637774 3.427954 -11.508132 27.408172 -0.138247 2.004109 0.133635 -0.054078 127582.000000 0 0 1
-25.680144 4.054354 -12.227732 28.730211 -0.156586 2.010427 0.137130 -0.036970 221543.000000 0 0 1
-26.201464 3.344554 -13.320332 29.582664 -0.126961 2.037870 0.126919 -0.038958 115476.000000 0 0 1
-27.059304 4.180554 -14.290832 30.885447 -0.153284 2.051840 0.106701 -0.025848 129995.000000 0 0 1
-26.292594 5.239554 -14.955032 30.698639 -0.196702 2.079627 0.090964 -0.023721 935649.000000 0 0 1
-27.013824 6.092054 -15.865832 31.915270 -0.221806 2.091077 0.107413 -0.023705 152449.000000 0 0 1
-27.897294 5.535854 -17.038932 33.154636 -0.195892 2.110548 0.069350 0.000268 -624299.000000 0 0 1
-29.065604 4.953754 -16.619932 33.846287 -0.168811 2.084081 0.084407 -0.013011 -805014.000000 0 0 1
-29.799344 4.398154 -17.716232 34.945809 -0.146534 2.102454 0.086907 -0.005558 624823.000000 0 0 1
-31.279814 4.094054 -17.293032 35.975506 -0.130145 2.072237 0.087162 -0.007005 484053.000000 0 0 1
-31.516924 2.935954 -16.515432 35.702883 -0.092887 2.051699 0.100082 -0.018165 252242.000000 0 0 1
-31.372014 1.720454 -17.219832 35.828562 -0.054786 2.072155 0.118836 -0.024841 -254413.000000 0 0 1
-31.336524 0.556354 -16.233132 35.295918 -0.017752 2.048696 0.123506 -0.023133 -112411.000000 0 0 1
-30.975514 -0.708146 -16.831732 35.260334 0.022858 2.068440 0.122913 -0.017164 367850.000000 0 0 1
-31.212514 -1.751846 -15.933532 35.087996 0.056068 2.042160 0.122862 -0.025170 -183916.000000 0 0 1
-30.835654 -3.068146 -16.502832 35.108326 0.099174 2.060149 0.109803 -0.014364 -22926.600000 0 0 1
-31.652824 -3.327846 -17.617032 36.377681 0.104751 2.076338 0.114316 -0.019280 185376.000000 0 0 1
-31.254164 -4.528846 -18.224332 36.461754 0.143902 2.094188 0.111484 -0.018338 192062.000000 0 0 1
-32.312574 -5.054946 -19.239832 37.945040 0.155181 2.102549 0.122966 -0.018061 83590.700000 0 0 1
-31.992244 -6.217046 -19.980632 38.228014 0.191938 2.120776 0.111916 -0.013398 -177474.000000 0 0 1
-32.997324 -6.495846 -20.925432 39.609256 0.194374 2.127389 0.113414 -0.014074 -384315.000000 0 0 1
-32.652344 -7.615046 -21.868432 40.029899 0.229121 2.148740 0.100235 -0.016842 -646001.000000 0 0 1
-31.597314 -7.295446 -22.708732 39.589144 0.226912 2.181703 0.102750 -0.019895 -564553.000000 0 0 1
-31.427684 -8.293746 -23.678732 40.214026 0.258017 2.200392 0.090289 -0.012655 -290033.000000 0 0 1
-30.195524 -8.137946 -24.570432 39.770617 0.263254 2.236743 0.088390 -0.011045 -502096.000000 0 0 1
-30.327434 -6.994046 -25.403652 40.174812 0.226655 2.255351 0.086181 -0.015022 13145.000000 0 0 1
-30.287804 -7.299246 -26.750202 41.063407 0.236487 2.280273 0.065272 -0.008509 318458.000000 0 0 1
-31.661584 -7.396146 -27.481242 42.572028 0.229485 2.272505 0.080058 -0.004340 272731.000000 0 0 1
-32.418904 -8.523646 -27.129832 43.123841 0.257103 2.251210 0.069392 -0.010550 53162.600000 0 0 1
-33.769164 -8.421246 -27.578732 44.405634 0.244392 2.240896 0.070050 -0.009815 642454.000000 0 0 1
-34.633853 -9.516946 -26.942892 44.899839 0.268169 2.214381 0.064282 -0.008216 -643737.000000 0 0 1
-34.255210 -10.834746 -27.365802 45.163019 0.306338 2.221736 0.063452 -0.004972 337852.000000 0 0 1
-35.236133 -11.879246 -27.220172 46.082962 0.325166 2.202695 0.044149 -0.006068 974468.000000 0 0 1
-36.479774 -11.774746 -28.195982 47.586048 0.312218 2.204988 0.044212 -0.004733 277963.000000 0 0 1
35.839380 -10.701346 -27.856092 46.636272 -0.290164 2.210933 0.029626 -0.005417 -490126.000000 0 0 1
34.925100 -10.413146 -28.888342 46.505188 -0.289765 2.241051 0.030627 -0.015928 190893.000000 0 0 1
33.940090 -9.217746 -28.615762 45.340472 -0.265192 2.253806 0.024400 -0.008447 640796.000000 0 0 1
32.951850 -9.616346 -27.655822 44.081096 -0.283945 2.248987 0.014600 -0.003192 -230322.000000 0 0 1
32.024420 -8.611146 -27.422172 43.031278 -0.262680 2.261736 -0.001395 0.004311 118344.000000 0 0 1
30.868230 -8.955246 -26.431272 41.613174 -0.282361 2.259020 0.005684 0.004563 299529.000000 0 0 1
31.338330 -9.292946 -25.158772 41.248195 -0.288276 2.226777 -0.009879 0.015936 -759203.000000 0 0 1
30.242930 -9.564146 -24.370032 40.000077 -0.306292 2.225910 -0.011994 0.017690 -606459.000000 0 0 1
30.560390 -9.768846 -22.844632 39.385848 -0.309392 2.189551 -0.020754 0.015845 180049.000000 0 0 1
31.161900 -11.011546 -22.427732 39.941474 -0.339670 2.167012 -0.035587 0.020418 277233.000000 0 0 1
31.419980 -10.864446 -21.066932 39.358188 -0.332912 2.135614 -0.023030 0.014488 -76221.600000 0 0 1
32.096460 -12.140046 -20.450632 39.947363 -0.361605 2.108237 -0.000183 0.015796 404232.000000 0 0 1
33.499340 -12.099746 -20.672032 41.181823 -0.346612 2.096671 0.011295 0.011866 394832.000000 0 0 1
34.236050 -13.096146 -19.948232 41.731860 -0.365352 2.069184 0.038584 0.006699 771007.000000 0 0 1
35.716380 -13.227646 -20.453732 43.231766 -0.354690 2.063623 0.058133 -0.010246 806.577000 0 0 1
36.488320 -12.057146 -20.359632 43.488929 -0.319143 2.058000 0.078672 -0.015550 148281.000000 0 0 1
36.362100 -11.045746 -21.345832 43.587331 -0.294913 2.082571 0.082379 -0.000591 -828935.000000 0 0 1
-36.137134 -11.244946 -22.761732 44.163761 0.301677 2.112264 0.059955 -0.006410 -60629.900000 0 0 1
36.503620 -12.253846 -23.609332 45.167152 -0.323869 2.120823 0.049560 -0.000849 -478607.000000 0 0 1
35.185730 -12.259046 -24.051832 44.348737 -0.335257 2.144009 0.059121 0.005788 -599750.000000 0 0 1
34.743190 -13.580746 -24.792332 44.790464 -0.372628 2.157379 0.039626 -0.012820 -125177.000000 0 0 1
34.706110 -14.802746 -24.031932 44.734429 -0.403155 2.137926 0.038209 -0.017611 454698.000000 0 0 1
33.604380 -14.968246 -23.151332 43.465929 -0.419043 2.132503 0.019996 -0.005368 -84509.000000 0 0 1
-29.959484 8.029554 -19.380132 36.573678 -0.261860 2.129271 0.034089 0.002860 462052.000000 0 0 1
-28.757714 7.335654 -19.692232 35.617439 -0.249759 2.156615 0.034932 0.001379 334775.000000 0 0 1
-27.852034 8.128254 -20.475532 35.511290 -0.283951 2.185348 0.053879 -0.013720 -1004580.000000 0 0 1
-26.637464 7.308654 -20.698832 34.516845 -0.267785 2.213889 0.048258 -0.011017 -1117300.000000 0 0 1
-25.847894 7.224854 -19.499532 33.174447 -0.272558 2.199118 0.060218 -0.005294 151220.000000 0 0 1
-24.731974 6.384154 -19.616732 32.206275 -0.252619 2.225717 0.080061 -0.016848 41553.700000 0 0 1
-23.384574 6.976654 -19.156732 31.024062 -0.289937 2.236331 0.071378 -0.015246 163287.000000 0 0 1
-22.804874 7.851254 -20.118532 31.407958 -0.331570 2.266017 0.071940 -0.012016 32085.500000 0 0 1
-21.585674 8.405554 -19.629132 30.362765 -0.371339 2.273767 0.068579 -0.009498 231113.000000 0 0 1
-20.963874 9.444454 -20.559232 30.844185 -0.423279 2.300369 0.074740 -0.007287 -323490.000000 0 0 1
-20.387074 8.865054 -21.706832 31.071024 -0.410173 2.344263 0.101078 -0.015659 125413.000000 0 0 1
-19.831174 9.845254 -22.578532 31.622691 -0.460806 2.365988 0.088285 -0.014861 57152.700000 0 0 1
-18.807874 9.320754 -23.599732 31.584172 -0.460103 2.414637 0.125224 -0.015799 100595.000000 0 0 1
-19.426774 8.442754 -24.538032 32.415963 -0.409968 2.429466 0.113241 -0.012816 417425.000000 0 0 1
-18.483674 8.001954 -25.523142 32.513202 -0.408560 2.473506 0.096552 -0.007632 473530.000000 0 0 1
-19.030574 6.820654 -26.431842 33.276514 -0.344143 2.488666 0.066103 -0.002345 168874.000000 0 0 1
-19.434474 5.671054 -25.775352 32.775424 -0.283921 2.475793 0.081241 -0.002915 9269.380000 0 0 1
-19.991074 4.751454 -26.660052 33.659735 -0.233349 2.484949 0.064662 0.000454 -687884.000000 0 0 1
-20.229574 3.375454 -25.983072 33.102106 -0.165334 2.473391 0.054557 0.007810 158115.000000 0 0 1
-19.153874 2.490254 -25.666572 32.122347 -0.129288 2.496469 0.055435 0.009638 125733.000000 0 0 1
-18.201174 2.980654 -24.760432 30.874683 -0.162321 2.501375 0.056658 0.002405 -246016.000000 0 0 1
-17.279474 1.899654 -24.117932 29.729843 -0.109497 2.517060 0.039977 0.000216 -31999.300000 0 0 1
-17.799674 1.202754 -23.044832 29.143427 -0.067469 2.482811 0.044788 -0.000048 -343388.000000 0 0 1
-18.827874 0.305054 -23.333232 29.983690 -0.016201 2.462587 0.039460 0.000176 -195051.000000 0 0 1
-19.380074 -0.439846 -22.063732 29.369866 0.022692 2.420731 0.062028 -0.002275 695030.000000 0 0 1
-18.376774 -1.312246 -21.524632 28.332625 0.071287 2.433666 0.063606 -0.011427 560387.000000 0 0 1
-19.006774 -2.134346 -20.598332 28.108792 0.111826 2.393235 0.070780 -0.004265 -71388.900000 0 0 1
-18.347874 -3.513146 -20.407432 27.666767 0.189184 2.400328 0.055976 -0.020578 -110291.000000 0 0 1
-18.530574 -4.453246 -21.431932 28.679981 0.235846 2.414753 0.059158 -0.027460 239087.000000 0 0 1
-18.848974 -5.700746 -20.922732 28.732265 0.293697 2.386483 0.071934 -0.026526 -257815.000000 0 0 1
-18.926474 -6.771246 -22.005432 29.804366 0.343576 2.401386 0.050241 -0.025388 1377100.000000 0 0 1
-17.647774 -6.994146 -22.699932 29.591366 0.377329 2.445126 0.050093 -0.024489 1566400.000000 0 0 1
-17.803974 -7.771446 -23.850532 30.760767 0.411571 2.458074 0.071771 -0.031855 416633.000000 0 0 1
-16.432074 -7.947046 -24.561732 30.601427 0.450466 2.502494 0.063612 -0.032747 -830937.000000 0 0 1
-16.464674 -8.607446 -25.864812 31.845913 0.481707 2.518686 0.062563 -0.049705 -36295.000000 0 0 1
-15.251674 -8.876646 -26.539942 31.871256 0.527087 2.554805 0.064865 -0.049767 499334.000000 0 0 1
-14.170574 -9.652246 -25.690772 30.886677 0.597961 2.553094 0.066331 -0.046317 -546238.000000 0 0 1
-13.529974 -9.008446 -24.635632 29.514855 0.587412 2.558358 0.059728 -0.031444 -214487.000000 0 0 1
-12.528374 -9.837546 -24.109932 28.896822 0.665664 2.557741 0.032399 -0.026031 -546405.000000 0 0 1
-11.646974 -9.149946 -23.095932 27.437121 0.665903 2.571363 0.046379 -0.024347 -671760.000000 0 0 1
-12.211974 -8.747346 -21.886332 26.545431 0.621577 2.540089 0.030854 -0.020678 -334258.000000 0 0 1
-11.288174 -8.127046 -21.035732 25.218521 0.623997 2.557365 0.032907 -0.015122 -1085330.000000 0 0 1
-11.853674 -7.920046 -19.637432 24.266551 0.589030 2.513651 0.027951 -0.010769 113077.000000 0 1 0
-12.848674 -6.928746 -19.454032 24.321911 0.494558 2.497852 0.032766 -0.003842 1172050.000000 0 1 0
-14.146774 -7.179646 -20.029232 25.550904 0.469638 2.471711 0.035556 -0.014516 550514.000000 0 0 1
-15.203374 -6.066046 -19.734532 25.639643 0.379638 2.449149 0.036810 -0.004764 188158.000000 0 0 1
-15.646174 -5.840546 -18.417632 24.862098 0.357270 2.405044 0.044472 -0.007372 151101.000000 0 1 0
-14.797874 -4.943046 -17.805932 23.674079 0.322384 2.422081 0.041671 -0.004646 -1035060.000000 0 1 0
-15.011874 -4.737746 -16.226532 22.607586 0.305706 2.371358 0.051135 0.004484 9132.640000 0 1 0
-16.235274 -4.221746 -15.738432 23.002294 0.254401 2.324318 0.081633 -0.001847 209862.000000 0 1 0
-16.340674 -2.786046 -15.806432 22.904650 0.168874 2.332420 0.034988 -0.004996 -272360.000000 0 1 0
-17.612074 -2.289846 -15.113332 23.320407 0.129290 2.275848 0.041937 -0.009792 -431272.000000 0 1 0
-17.700774 -2.831846 -13.793032 22.618234 0.158640 2.226629 0.073443 -0.013648 607689.000000 0 1 0
-18.608074 -2.134046 -12.937132 22.763655 0.114185 2.175264 0.075343 -0.028218 -166502.000000 0 1 0
-18.029974 -0.980546 -12.162932 21.771044 0.054331 2.163583 0.061848 -0.028950 -269921.000000 0 1 0
-17.533074 0.086954 -13.014632 21.835680 -0.004959 2.209339 0.067768 -0.033709 852184.000000 0 1 0
-16.893674 1.115754 -12.271632 20.910143 -0.065950 2.197990 0.072611 -0.031531 -524471.000000 0 1 0
-16.440174 2.261254 -13.223232 21.219012 -0.136687 2.243597 0.081408 -0.029449 536595.000000 0 1 0
-15.503874 1.949254 -14.264732 21.157795 -0.125071 2.310687 0.061711 -0.029689 280495.000000 0 1 0
-14.183474 1.596054 -13.978732 19.978070 -0.112058 2.345779 0.047700 -0.023431 -769005.000000 0 1 0
-13.581674 0.768254 -15.155632 20.365296 -0.056505 2.410116 0.038130 -0.021542 -138719.000000 0 1 0
-13.209874 1.480254 -16.303732 21.035770 -0.111591 2.457587 0.041270 -0.027472 -6116.570000 0 1 0
-12.782874 0.467454 -17.185132 21.423099 -0.036552 2.501730 0.020660 -0.013089 -307172.000000 0 1 0
-12.088174 1.021354 -18.416132 22.052688 -0.084292 2.559105 0.034789 -0.019542 -352108.000000 0 1 0
-10.811874 1.570154 -18.247032 21.267727 -0.144217 2.602098 0.019094 -0.019910 -686739.000000 0 1 0
-10.439974 2.217554 -19.419432 22.159083 -0.209299 2.639058 0.025117 -0.016392 -437459.000000 0 1 0
-9.021874 2.749554 -19.247232 21.433857 -0.295823 2.685960 0.018545 -0.016459 -1119240.000000 0 1 0
-8.092474 1.712354 -19.485032 21.168060 -0.208522 2.740134 0.024466 -0.009713 215384.000000 0 1 0
-6.730874 2.024454 -19.194832 20.441249 -0.292164 2.790578 0.023127 -0.009415 806216.000000 0 1 0
-6.046274 3.043154 -20.130532 21.238092 -0.466293 2.817218 0.026514 -0.009792 -1029790.000000 0 1 0
-6.144174 2.666054 -21.463232 22.483974 -0.409398 2.839115 0.027179 -0.010166 302133.000000 0 1 0
-5.628374 3.723354 -22.259032 23.259546 -0.584440 2.847222 0.015620 -0.014642 -338824.000000 0 1 0
-5.185574 3.375454 -23.706632 24.500781 -0.577030 2.886290 0.036910 -0.019944 -333670.000000 0 1 0
-4.037274 2.575354 -23.669732 24.149291 -0.567818 2.941972 0.043528 -0.025298 -540514.000000 0 1 0
-3.611974 2.142354 -24.907532 25.259082 -0.535349 2.974559 0.067573 -0.023587 -35651.800000 0 0 1
-2.211174 1.487054 -24.890732 25.032962 -0.592042 3.034943 0.041513 -0.021437 519410.000000 0 0 1
-1.157874 2.397154 -24.504432 24.648615 -1.120824 3.033378 0.034819 -0.025012 1953860.000000 0 1 0
0.213526 1.902954 -24.522032 24.596685 1.459056 3.063662 0.040728 -0.024108 1633380.000000 0 1 0
0.687726 0.887054 -23.458632 23.485469 0.911304 3.093782 0.037429 -0.024641 -757320.000000 0 1 0
0.273526 -0.439346 -23.677732 23.683388 -1.013943 3.119739 0.039163 -0.021729 -32405.300000 0 1 0
0.821226 -1.340646 -22.719632 22.773964 -1.021193 3.072504 0.035789 -0.016977 -691327.000000 0 1 0
0.288926 -2.793546 -22.715632 22.888585 -1.467737 3.018582 0.046007 -0.020542 -269994.000000 0 1 0
-0.860674 -3.027146 -21.948532 22.173012 1.293787 2.999177 0.043919 -0.018084 -54292.000000 0 1 0
-2.114374 -2.943146 -22.622332 22.910753 0.947824 2.982751 0.055309 -0.020288 419612.000000 0 1 0
-2.771874 -1.502646 -22.729232 22.946879 0.496761 3.003754 0.054639 -0.018458 -1442010.000000 0 1 0
-3.298574 -1.133146 -21.457532 21.739142 0.330896 2.980458 0.035553 -0.016574 -489234.000000 0 1 0
-4.171574 -0.096446 -21.506832 21.907879 0.023116 2.949957 0.034149 -0.016086 330074.000000 0 1 0
-5.574674 -0.350646 -22.179332 22.871876 0.062817 2.894881 0.034154 -0.012111 -100890.000000 0 1 0
-6.353174 -1.376246 -21.548832 22.507978 0.213327 2.848609 0.038313 -0.005393 -999072.000000 0 1 0
-7.665574 -1.059146 -21.784632 23.118240 0.137300 2.800273 0.029037 0.000721 -825973.000000 0 1 0
-8.747374 -2.090246 -21.358832 23.175103 0.234559 2.743052 0.027047 0.000748 252345.000000 0 1 0
-9.025474 -3.051146 -22.341032 24.287660 0.325998 2.738497 0.064908 -0.006763 -60740.200000 0 1 0
-9.357774 -4.308746 -21.836832 24.144989 0.431506 2.700778 0.038831 -0.006944 -452204.000000 0 1 0
-10.086474 -5.168246 -22.910532 25.560521 0.473513 2.682207 0.036838 -0.010236 -224346.000000 0 0 1
-11.440074 -4.807146 -22.757032 25.920387 0.397800 2.642378 0.033688 -0.012722 -307119.000000 0 0 1
-12.195674 -5.440146 -23.798132 27.288840 0.419582 2.630239 0.026700 -0.024322 79916.100000 0 0 1
-13.731874 -5.404046 -23.697532 27.916682 0.374925 2.584633 0.049690 -0.028930 11381.700000 0 0 1
-14.218574 -4.049346 -23.815232 28.030882 0.277447 2.586036 0.050544 -0.024186 215753.000000 0 0 1
-15.640074 -4.045446 -23.758532 28.730566 0.253112 2.544445 0.052897 -0.023493 317354.000000 0 0 1
-16.129174 -2.661446 -24.166132 29.175941 0.163535 2.546845 0.040415 -0.019709 -345383.000000 0 0 1
-15.896674 -2.403446 -25.556142 30.192668 0.150055 2.580051 0.039031 -0.019616 225167.000000 0 0 1
-16.402574 -1.122446 -25.923802 30.697685 0.068325 2.576403 0.027177 -0.014499 -134185.000000 0 0 1
-17.828174 -1.200846 -26.515082 31.973980 0.067255 2.548598 0.033393 -0.010111 -167022.000000 0 0 1
-18.151374 -1.749946 -27.799242 33.246542 0.096111 2.561030 0.044057 -0.020597 -8689.990000 0 0 1
-17.819174 -0.865346 -28.837482 33.909765 0.048525 2.587576 0.035477 -0.016395 -291882.000000 0 0 1
-17.878874 -1.623446 -30.211022 35.142504 0.090554 2.605423 0.047286 -0.021883 346510.000000 0 0 1
-19.183774 -2.036046 -30.585532 36.161270 0.105738 2.578876 0.045153 -0.026061 202057.000000 0 0 1
-19.187074 -2.765346 -31.785962 37.230879 0.143140 2.593947 0.053167 -0.030798 -1067940.000000 0 0 1
-20.566674 -3.335346 -32.108832 38.276491 0.160773 2.565992 0.027259 -0.023640 -280351.000000 0 0 1
-21.501274 -2.352246 -32.536282 39.069778 0.108967 2.554895 0.034640 -0.024804 269933.000000 0 0 1
-22.220974 -1.769346 -31.477402 38.571092 0.079457 2.525405 0.024711 -0.008801 -214675.000000 0 0 1
-23.442174 -0.920246 -31.959682 39.645979 0.039236 2.508373 0.022100 -0.001295 217189.000000 0 0 1
-22.960174 0.250654 -32.540382 39.825983 -0.010916 2.527097 0.033830 -0.001703 -133923.000000 0 0 1
-23.991774 1.073154 -32.977972 40.795877 -0.044700 2.512166 0.038066 0.001467 -599125.000000 0 0 1
-23.583974 2.413654 -33.541922 41.074203 -0.101988 2.526323 0.048338 -0.001378 -472124.000000 0 0 1
-23.187774 3.369454 -32.544902 40.102329 -0.144302 2.517590 0.047999 -0.001546 354994.000000 0 0 1
-24.112074 3.843154 -31.562822 39.904558 -0.158058 2.483169 0.040485 -0.000576 -261915.000000 0 0 1
-25.114304 4.960854 -31.984052 40.967279 -0.195020 2.466617 0.037990 -0.010378 55934.500000 0 0 1
-26.220814 4.351354 -32.613772 42.072836 -0.164452 2.457787 0.047692 -0.011581 -199596.000000 0 0 1
-26.868484 5.084054 -33.627852 43.342768 -0.187009 2.458871 0.059407 -0.018962 404230.000000 0 0 1
-28.174314 4.426254 34.049543 44.415708 -0.155829 0.697251 0.057697 -0.017186 240723.000000 0 0 1
-27.954534 3.073754 33.686595 43.882692 -0.109516 0.695628 0.055534 -0.019769 697957.000000 0 0 1
-28.934084 2.581354 32.741548 43.770465 -0.088979 0.725710 0.058204 -0.024716 426810.000000 0 0 1
-28.933344 1.030854 32.660824 43.645509 -0.035614 0.725270 0.063605 -0.008771 -478731.000000 0 0 1
-29.287474 0.264454 33.755677 44.690847 -0.009029 0.714661 0.068673 -0.001766 147817.000000 0 0 1
-29.304014 -1.094046 33.345810 44.405689 0.037317 0.721319 0.063536 0.002594 -809116.000000 0 0 1
-29.080284 -2.019246 -33.671112 44.536323 0.069326 2.428033 0.015569 0.015302 1095570.000000 0 0 1
-27.732564 -2.158746 -33.139982 43.266774 0.077685 2.443307 0.029869 0.005295 1465700.000000 0 0 1
-27.202994 -0.952346 -32.592822 42.464125 0.034995 2.445787 0.035064 0.009093 -809052.000000 0 0 1
-27.585984 -0.702946 -31.090192 41.570190 0.025476 2.415684 0.056737 0.009518 -59530.700000 0 0 1
-26.718114 -1.431146 -30.223892 40.365697 0.053514 2.416973 0.040749 0.002536 552993.000000 0 0 1
-26.847344 -1.031746 -28.900472 39.459874 0.038411 2.392639 0.051195 -0.004919 -474044.000000 0 0 1
-25.740544 -1.542146 -27.980832 38.051029 0.059840 2.396980 0.047278 -0.001918 -311619.000000 0 0 1
-25.791054 -2.885146 -27.627822 37.905133 0.111403 2.387463 0.037807 0.003839 -311048.000000 0 0 1
-24.735574 -3.209946 -26.785252 36.600576 0.129049 2.391794 0.053430 -0.002393 -481630.000000 0 0 1
-24.976574 -4.516746 -25.926202 36.282203 0.178906 2.366807 0.049237 -0.009353 -122834.000000 0 0 1
-25.971284 -4.258646 -24.971932 36.280037 0.162529 2.329954 0.056838 -0.001559 -362455.000000 0 0 1
-26.225634 -5.424546 -24.274032 36.144685 0.203965 2.307135 0.057725 -0.013153 750170.000000 0 0 1
-27.411164 -5.251946 -23.232332 36.313856 0.189305 2.264989 0.072792 -0.018024 799943.000000 0 0 1
-27.619214 -6.362746 -22.472932 36.170958 0.226423 2.241194 0.077822 -0.022963 -90792.100000 0 0 1
-28.698004 -6.200646 -21.575932 36.435482 0.212794 2.204543 0.086286 -0.017556 -261940.000000 0 0 1
-28.967944 -7.413946 -20.690632 36.362215 0.250558 2.176103 0.100810 -0.026330 -278432.000000 0 0 1
-27.936674 -7.833446 -19.808232 35.130994 0.273380 2.169823 0.106180 -0.027207 177910.000000 0 0 1
-28.428634 -8.706846 -18.779632 35.166333 0.297199 2.134148 0.108225 -0.016727 240025.000000 0 0 1
-29.223234 -8.038146 -17.598532 35.047362 0.268422 2.096863 0.101881 -0.019664 229258.000000 0 0 1
-28.438164 -7.140746 -16.816332 33.801013 0.246011 2.091522 0.089901 -0.027149 118805.000000 0 0 1
-28.970594 -6.780346 -15.552032 33.572818 0.229904 2.052436 0.088201 -0.024590 -300205.000000 0 0 1
-28.049654 -5.897146 -14.695632 32.210573 0.207222 2.044557 0.094498 -0.021460 -88098.600000 0 0 1
-27.897594 -4.597146 -15.174832 32.088706 0.163319 2.063378 0.097974 -0.018160 211358.000000 0 0 1
-27.120324 -3.825046 -14.284432 30.889933 0.140116 2.051530 0.098265 -0.022650 -62231.800000 0 0 1
-14.317074 20.882554 -4.625532 25.738205 -0.969800 1.751493 0.055600 -0.031243 -75694.100000 0 0 1
-14.395674 20.448154 -5.949832 25.705309 -0.957385 1.804378 0.095328 -0.039773 271327.000000 0 0 1
-15.286074 19.348954 -6.136932 25.410785 -0.902170 1.814717 0.072304 -0.045614 -87435.800000 0 0 1
-15.381874 18.772854 -7.538232 25.413521 -0.884357 1.871951 0.096633 -0.050465 -549742.000000 0 0 1
-14.212174 18.116654 -7.977132 24.368703 -0.905590 1.904296 0.087864 -0.046898 -72948.700000 0 1 0
-14.377274 16.987554 -8.827532 23.941769 -0.868430 1.948416 0.076043 -0.052250 -103006.000000 0 1 0
-15.151474 15.734754 -8.237432 23.345341 -0.804281 1.931413 0.080817 -0.045024 1128390.000000 0 1 0
-16.549374 15.952154 -7.986132 24.333748 -0.767025 1.905185 0.087104 -0.029120 841312.000000 0 1 0
-16.964274 15.036654 -6.942132 23.708242 -0.725234 1.867966 0.100347 -0.021623 411644.000000 0 1 0
-18.465274 15.191654 -6.539632 24.789504 -0.688439 1.837763 0.105268 -0.023004 270676.000000 0 1 0
-19.329274 14.759254 -7.538432 25.461429 -0.652129 1.871375 0.108460 -0.024258 -853794.000000 0 0 1
-20.625374 15.247354 -7.348632 26.681272 -0.636587 1.849826 0.074452 -0.020396 -547595.000000 0 0 1
-21.613774 14.477254 -8.222932 27.283012 -0.590180 1.876950 0.073033 -0.012754 -432887.000000 0 0 1
-21.721174 13.084354 -8.016432 26.594603 -0.542166 1.876989 0.105989 -0.016226 36697.400000 0 0 1
-22.538674 12.458754 -8.985932 27.275618 -0.504969 1.906517 0.099735 -0.015235 140845.000000 0 0 1
-23.013474 11.046654 -8.616232 26.942309 -0.447527 1.896318 0.117927 -0.022228 -12558.700000 0 0 1
-21.918174 10.145154 -8.541132 25.617991 -0.433501 1.910708 0.127397 -0.025494 465724.000000 0 0 1
-22.089674 9.278854 -7.455632 25.092574 -0.397674 1.872477 0.142832 -0.029726 -433084.000000 0 0 1
-20.877074 8.361954 -7.413632 23.679874 -0.380966 1.889228 0.116343 -0.012849 -656274.000000 0 1 0
-20.722074 7.286154 -8.272432 23.471803 -0.338111 1.930975 0.113583 -0.017138 160506.000000 0 1 0
-19.690074 6.464254 -7.787732 22.138979 -0.317214 1.930253 0.083506 -0.008585 -382440.000000 0 1 0
-19.238674 5.277254 -8.584232 21.717851 -0.267719 1.977149 0.052128 -0.024473 -128581.000000 0 1 0
-20.208574 4.236854 -8.643032 22.383910 -0.206663 1.967226 0.074658 -0.023479 572386.000000 0 1 0
-19.875374 3.225754 -9.617932 22.314583 -0.160896 2.016414 0.057550 -0.024924 -506607.000000 0 1 0
-20.854774 2.063754 -9.608332 23.054300 -0.098637 2.000685 0.059852 -0.024525 -247438.000000 0 1 0
-20.809974 1.202154 -8.496632 22.509841 -0.057704 1.957851 0.075780 -0.030452 181657.000000 0 1 0
-21.900574 0.306854 -8.432232 23.469807 -0.014010 1.938293 0.096723 -0.025468 -160673.000000 0 1 0
-21.761974 -1.050746 -9.190432 23.646387 0.048246 1.969974 0.073149 -0.041052 -161184.000000 0 1 0
-20.663574 -1.860346 -8.799232 22.535986 0.089788 1.971919 0.063844 -0.028552 382788.000000 0 1 0
-20.619574 -3.209946 -9.196832 22.804656 0.154435 1.985903 0.051277 -0.021530 -237854.000000 0 1 0
-21.642174 -4.143946 -8.513432 23.622754 0.189186 1.939484 0.064040 -0.017774 -16342.200000 0 1 0
-21.200074 -4.634546 -7.223932 22.871540 0.215224 1.892147 0.043014 -0.014457 563022.000000 0 1 0
-22.196474 -5.285046 -6.432432 23.706357 0.233750 1.845579 0.068568 -0.018486 -37515.100000 0 1 0
-22.353774 -6.787946 -6.682532 24.298635 0.294811 1.849403 0.079922 -0.024476 -515046.000000 0 1 0
-21.298674 -7.525246 -6.158032 23.413334 0.339629 1.836941 0.065904 -0.023146 196054.000000 0 1 0
-21.631074 -8.866746 -6.312832 24.215169 0.389018 1.834541 0.081436 -0.022567 -54804.300000 0 1 0
-20.603974 -9.892546 -5.771832 23.573296 0.447624 1.818157 0.080421 -0.015591 490044.000000 0 1 0
-19.386674 -10.010046 -6.501932 22.766627 0.476631 1.860419 0.073146 -0.007933 1060840.000000 0 1 0
-18.453674 -10.890446 -5.834332 22.207642 0.533146 1.836634 0.076228 -0.002601 669430.000000 0 1 0
-17.367174 -11.493146 -6.753932 21.893532 0.584608 1.884401 0.045840 -0.004679 557261.000000 0 1 0
-16.397574 -10.579746 -7.333732 20.846945 0.572995 1.930278 0.052546 -0.029501 872645.000000 0 1 0
-16.730774 -10.079246 -8.602532 21.342764 0.542210 1.985660 0.054187 -0.034868 -271094.000000 0 1 0
-15.879974 -10.646846 -9.775732 21.473096 0.590622 2.043455 0.071673 -0.023831 376464.000000 0 1 0
-16.158274 -11.995246 -10.107632 22.519769 0.638593 2.036256 0.096644 -0.033583 -63415.100000 0 1 0
-15.070374 -12.398246 -10.892732 22.349146 0.688424 2.079894 0.085124 -0.022117 -16830.500000 0 1 0
-15.124674 -13.769346 -11.607232 23.517621 0.738526 2.086969 0.099281 -0.026548 766375.000000 0 1 0
-16.130074 -13.880946 -12.659632 24.761386 0.710595 2.107452 0.089467 -0.025249 942845.000000 0 1 0
-16.059574 -15.110846 -13.197032 25.698429 0.754971 2.110095 0.064889 -0.023788 476784.000000 0 0 1
-16.801274 -15.103246 -14.631932 26.916246 0.732226 2.145528 0.084566 -0.023031 453307.000000 0 0 1
-16.574374 -16.335846 -15.281632 27.840583 0.778150 2.151841 0.056941 -0.014675 218445.000000 0 0 1
-16.852274 -16.171246 -16.643432 28.679473 0.764779 2.189925 0.056622 -0.015834 -170232.000000 0 0 1
-17.508274 -17.396746 -17.313432 30.148655 0.782203 2.182507 0.054273 -0.019231 -682869.000000 0 0 1
-18.855674 -17.462446 -16.996832 30.811780 0.747055 2.155119 0.039067 -0.020385 -1304320.000000 0 0 1
-19.632074 -18.039446 -18.043332 32.193195 0.743147 2.165750 0.041807 -0.016456 -368673.000000 0 0 1
-21.127474 -18.045746 -17.735632 32.963188 0.706891 2.138911 0.039391 -0.026636 -898576.000000 0 0 1
-21.561674 -16.744646 -17.442332 32.396357 0.660305 2.139339 0.050928 -0.018456 -22247.200000 0 0 1
-21.563174 -16.606446 -15.999632 31.571075 0.656260 2.102243 0.039781 -0.025315 -641238.000000 0 0 1
-21.406674 -15.143746 -15.475232 30.447686 0.615696 2.103955 0.052317 -0.026219 438822.000000 0 0 1
-22.633974 -14.420546 -15.558032 31.020982 0.567267 2.096166 0.076491 -0.023429 728622.000000 0 0 1
-22.452974 -13.294946 -14.813932 30.005737 0.534608 2.087139 0.081015 -0.023050 -92212.500000 0 0 1
-23.782874 -12.658646 -14.373932 30.536476 0.489120 2.060896 0.085725 -0.026372 -279193.000000 0 0 1
-24.382074 -13.152146 -13.227032 30.698842 0.494683 2.016247 0.101209 -0.025779 -58080.200000 0 0 1
-25.577604 -12.496646 -12.909032 31.257369 0.454468 1.996533 0.110259 -0.022639 -576758.000000 0 0 1
-26.170394 -13.014146 -11.618132 31.452163 0.461473 1.949149 0.112842 -0.028396 185325.000000 0 0 1
-27.370614 -12.300046 -11.293432 32.062178 0.422345 1.930755 0.107035 -0.030630 695601.000000 0 0 1
-27.817374 -12.659646 -9.972532 32.148474 0.427086 1.886202 0.099504 -0.029484 431269.000000 0 0 1
-28.761874 -11.552746 -9.363032 32.378662 0.381944 1.864159 0.095873 -0.032332 197610.000000 0 0 1
-28.047874 -10.595346 -8.665332 31.209495 0.361188 1.852144 0.109831 -0.039535 -227698.000000 0 0 1
-28.877644 -9.738546 -7.928532 31.489986 0.325258 1.825315 0.122222 -0.036709 -131909.000000 0 0 1
-28.125794 -8.556246 -7.276332 30.285552 0.295318 1.813427 0.118188 -0.031337 335437.000000 0 0 1
-27.371364 -8.963246 -6.115032 29.443590 0.316463 1.780005 0.101846 -0.034116 437078.000000 0 0 1
-26.479974 -8.041546 -5.529132 28.221035 0.294833 1.767994 0.094458 -0.031599 206361.000000 0 0 1
-27.135784 -6.724746 -4.962132 28.393586 0.242924 1.746461 0.116667 -0.032264 -200732.000000 0 0 1
-28.110194 -6.715546 -3.941132 29.168718 0.234505 1.706326 0.116889 -0.031250 362710.000000 0 0 1
-27.712054 -6.972046 -2.590332 28.692807 0.246474 1.661198 0.116077 -0.028644 -700054.000000 0 0 1
-26.942984 -5.937546 -1.820832 27.649490 0.216907 1.636698 0.109094 -0.026154 -287261.000000 0 0 1
-27.737744 -4.840546 -1.373132 28.190403 0.172771 1.619525 0.119275 -0.029235 186384.000000 0 0 1
-27.036144 -3.974946 -0.499032 27.331343 0.145978 1.589056 0.116598 -0.043598 -1051390.000000 0 0 1
-27.827154 -2.768246 0.070868 27.964598 0.099154 1.568262 0.126544 -0.045475 -22522.800000 0 0 1
-28.840524 -3.148246 1.003368 29.029193 0.108730 1.536225 0.127986 -0.046560 77351.100000 0 0 1
-28.395274 -3.479946 2.266168 28.697337 0.121946 1.491746 0.118318 -0.040343 -32212.500000 0 0 1
-29.511664 -3.720446 3.355668 29.933936 0.125405 1.458458 0.110115 -0.039220 499417.000000 0 0 1
-30.198054 -4.942246 3.235768 30.770415 0.162223 1.465443 0.114881 -0.036088 -507496.000000 0 0 1
-31.311934 -5.020646 4.054268 31.970005 0.158990 1.443639 0.117085 -0.037440 -868593.000000 0 0 1
-31.954494 -6.375646 3.919068 32.819166 0.196937 1.451097 0.114834 -0.030527 -643546.000000 0 0 1
-31.144224 -7.430846 4.362368 32.314245 0.234216 1.435385 0.106492 -0.022395 215910.000000 0 0 1
-31.690094 -8.719446 4.015368 33.112143 0.268503 1.449231 0.110951 -0.029005 103508.000000 0 0 1
-30.878484 -9.981046 4.529268 32.766085 0.312636 1.432122 0.094297 -0.021634 265044.000000 0 0 1
-30.771394 -10.135046 5.934268 32.936505 0.318176 1.389634 0.081824 -0.024612 721103.000000 0 0 1
-29.806694 -11.147646 6.283868 32.437571 0.357892 1.375842 0.079492 -0.021358 239330.000000 0 0 1
-29.792554 -11.426346 7.762368 32.839184 0.366228 1.332163 0.079592 -0.022138 -149195.000000 0 0 1
-29.420454 -10.347446 8.544068 32.336262 0.338197 1.303395 0.095882 -0.020555 287894.000000 0 0 1
-29.453144 -10.636746 9.954468 32.859085 0.346566 1.263016 0.110068 -0.026132 -217898.000000 0 0 1
-29.727994 -9.354446 10.763968 32.971538 0.304859 1.238238 0.118788 -0.028486 922387.000000 0 0 1
-28.494594 -8.591246 10.831168 31.671211 0.292836 1.221765 0.117100 -0.033552 1386890.000000 0 0 1
-28.676564 -7.541946 11.757468 31.897717 0.257176 1.193295 0.134588 -0.034398 129964.000000 0 0 1
-27.648934 -6.395846 11.611368 30.662587 0.227325 1.182425 0.139538 -0.032499 -32329.000000 0 0 1
-27.871154 -5.588546 10.409868 30.272073 0.197889 1.219754 0.150526 -0.037724 14670.100000 0 0 1
-27.204484 -4.389946 10.425468 29.462620 0.159989 1.209108 0.137678 -0.034940 -459129.000000 0 0 1
-27.370424 -3.590246 9.135568 29.077286 0.130428 1.251201 0.145447 -0.038741 226882.000000 0 0 1
-26.529524 -4.155646 8.117368 28.053105 0.155380 1.277241 0.121325 -0.029557 656677.000000 0 0 1
-27.032884 -3.893046 6.758668 28.135604 0.143028 1.328206 0.125730 -0.040097 264099.000000 0 0 1
-26.015844 -4.401146 5.706368 26.995497 0.167585 1.357807 0.108660 -0.032526 966181.000000 0 0 1
-24.738974 -3.689446 5.731068 25.660748 0.148044 1.345557 0.124541 -0.038302 1048440.000000 0 0 1
-23.901774 -4.326946 4.841968 24.768163 0.179091 1.374038 0.121634 -0.024061 -769177.000000 0 1 0
-22.463474 -3.791046 4.859068 23.293566 0.167190 1.360652 0.112440 -0.022544 -187314.000000 0 1 0
-22.269674 -2.422846 4.467668 22.842255 0.108370 1.373939 0.092688 -0.023621 266678.000000 0 1 0
-20.874574 -2.193146 4.346268 21.434733 0.104679 1.366613 0.065320 -0.013676 -106111.000000 0 1 0
-20.563074 -0.688946 4.472568 21.055131 0.033492 1.356744 0.053698 -0.021369 -319163.000000 0 1 0
-20.850074 0.268554 3.411868 21.129093 -0.012880 1.408609 0.068752 -0.014496 259083.000000 0 1 0
-22.198674 0.494154 3.076968 22.416357 -0.022257 1.433097 0.072567 -0.026062 -304623.000000 0 1 0
-22.285974 1.689254 2.104668 22.448783 -0.075654 1.476904 0.099636 -0.017872 -158063.000000 0 1 0
-21.846874 2.905754 2.706968 22.204887 -0.132229 1.448584 0.088832 -0.016983 159853.000000 0 1 0
-22.048874 4.026554 1.896168 22.493587 -0.180629 1.486398 0.109621 -0.005139 463288.000000 0 1 0
-20.791074 4.357454 1.018768 21.267206 -0.206593 1.522875 0.076541 0.001508 167511.000000 0 1 0
-20.976074 5.155854 -0.169132 21.601091 -0.241019 1.578626 0.087062 0.008279 -111200.000000 0 1 0
-21.827174 4.630554 -1.122132 22.341145 -0.209047 1.621045 0.115581 -0.005056 -724000.000000 0 1 0
-21.362974 3.465154 -1.981132 21.732668 -0.160803 1.662082 0.102107 -0.005662 -449022.000000 0 1 0
-21.157374 2.316954 -1.189432 21.317071 -0.109076 1.626623 0.063609 -0.004832 607731.000000 0 1 0
-20.502174 1.321154 -1.974032 20.639317 -0.064351 1.666587 0.043223 -0.002490 -370368.000000 0 1 0
-19.848474 0.289754 -1.001932 19.875858 -0.014597 1.621227 0.051320 -0.003943 -449833.000000 0 1 0
-20.654674 -0.741246 -0.505832 20.674160 0.035872 1.595266 0.061838 -0.009845 557955.000000 0 1 0
-20.038874 -1.365246 0.643668 20.095638 0.068025 1.538761 0.063337 -0.015418 194638.000000 0 1 0
-19.104074 -2.559946 0.262968 19.276621 0.133207 1.557154 0.037441 -0.013697 -162828.000000 0 1 0
-18.375474 -3.154346 1.282668 18.688317 0.170004 1.502108 0.039368 -0.013307 118174.000000 0 1 0
-17.686174 -4.311846 0.884568 18.225675 0.239133 1.522243 0.030157 -0.010845 -482765.000000 0 1 0
-18.515674 -5.541246 0.465668 19.332678 0.290790 1.546707 0.027944 -0.013920 -721921.000000 0 1 0
-19.332674 -5.897246 1.518968 20.269116 0.296075 1.495786 0.064531 -0.017427 170620.000000 0 1 0
-20.135474 -7.042146 1.273568 21.369397 0.336442 1.511163 0.053843 -0.018681 -336393.000000 0 1 0
-20.705174 -7.587946 2.552668 22.199038 0.351277 1.455551 0.062491 -0.017301 -342588.000000 0 1 0
-19.785174 -8.088346 3.509568 21.660829 0.388077 1.408055 0.047809 -0.011975 592176.000000 0 1 0
-20.494274 -8.847246 4.490068 22.769491 0.407526 1.372299 0.036666 -0.013316 430618.000000 0 1 0
-19.566374 -9.632046 5.498768 22.491237 0.457449 1.323808 0.033979 -0.006135 162024.000000 0 1 0
-19.320774 -10.973946 5.162968 22.811752 0.516548 1.342489 0.052346 0.002095 64725.300000 0 1 0
-18.527074 -11.599446 6.112968 22.697313 0.559376 1.298104 0.061442 0.001386 -626077.000000 0 1 0
-18.067374 -13.055546 5.807468 23.034843 0.625736 1.315929 0.051193 0.003729 -220381.000000 0 1 0
-19.070174 -14.050946 5.859168 24.401444 0.635001 1.328311 0.078594 0.001984 -72196.900000 0 1 0
-18.544174 -15.255346 5.378568 24.607742 0.688400 1.350445 0.073804 0.003022 -1049520.000000 0 1 0
-19.444074 -16.417246 5.307368 25.995502 0.701194 1.365186 0.089397 -0.005871 -1132930.000000 0 0 1
-18.733974 -17.587446 5.047168 26.186904 0.753842 1.376846 0.090932 -0.005086 -236190.000000 0 0 1
-19.484974 -18.746446 5.156868 27.526110 0.766083 1.382338 0.090705 -0.011786 -291706.000000 0 0 1
-18.582574 -20.009046 5.090468 27.777452 0.822345 1.386496 0.098824 -0.024606 -223053.000000 0 0 1
-18.063774 -20.180146 3.812368 27.350912 0.840681 1.430954 0.099905 -0.019208 86452.200000 0 0 1
-17.333174 -21.356146 3.540568 27.731922 0.889007 1.442776 0.094964 -0.017480 -1014470.000000 0 0 1
-15.858774 -21.211946 3.753768 26.749545 0.928811 1.430001 0.100373 -0.016730 -1353220.000000 0 0 1
-15.103574 -22.392046 3.664668 27.257136 0.977386 1.435940 0.094343 -0.018762 -27862.400000 0 0 1
-13.718174 -22.163546 3.843968 26.347432 1.016558 1.424378 0.083470 -0.017955 217061.000000 0 0 1
-12.925974 -23.452946 4.169968 27.101847 1.067074 1.416320 0.091252 -0.024236 -176640.000000 0 0 1
-13.014674 -24.413346 3.068968 27.835441 1.081023 1.460318 0.077364 -0.018271 43701.800000 0 0 1
-12.334274 -25.608976 3.340268 28.620122 1.121945 1.453819 0.069188 -0.017949 -36798.100000 0 0 1
19.530726 18.782754 -24.842432 36.761223 0.765878 2.312816 0.082247 0.008391 -58123.300000 0 0 1
18.573626 19.263854 -25.787812 37.162978 0.803638 2.337703 0.055354 0.005911 82448.500000 0 0 1
18.869926 18.941954 -27.114442 38.079715 0.787303 2.363202 0.072348 0.000239 579125.000000 0 0 1
17.628626 19.186454 -28.066022 38.296084 0.827688 2.393326 0.053173 0.002241 644389.000000 0 0 1
17.363026 20.540654 -28.289362 39.034359 0.869037 2.381438 0.048700 0.006184 89551.900000 0 0 1
16.355826 20.742454 -29.251352 39.413247 0.903095 2.407100 0.032479 0.001476 -178743.000000 0 0 1
16.084926 22.291554 -29.572872 40.375649 0.945740 2.392700 0.046200 -0.009665 -193067.000000 0 0 1
15.544826 23.018054 -28.455002 39.763797 0.976819 2.368280 0.050601 -0.011666 459004.000000 0 0 1
15.193526 24.339554 -28.840832 40.682315 1.012750 2.358773 0.048297 -0.018030 -253332.000000 0 0 1
14.491926 25.140554 -27.748072 40.149955 1.047883 2.333821 0.051876 -0.020997 -442020.000000 0 0 1
13.175226 24.737154 -27.505452 39.269113 1.081403 2.346803 0.053569 -0.030103 -654579.000000 0 0 1
12.566426 25.636354 -26.632362 39.043827 1.115036 2.321447 0.055404 -0.023500 820798.000000 0 0 1
11.038326 25.372554 -26.304022 38.177385 1.160444 2.330898 0.076634 -0.024833 1569490.000000 0 0 1
10.427626 26.179254 -25.278352 37.856093 1.191742 2.301976 0.067872 -0.039080 -47206.000000 0 0 1
9.905326 27.368354 -25.811102 38.901867 1.223537 2.296274 0.080334 -0.040769 -282163.000000 0 0 1
9.331526 28.321054 -24.711732 38.727628 1.252508 2.262812 0.091067 -0.044457 -51431.900000 0 0 1
10.313126 28.956254 -23.928532 38.953817 1.228642 2.232269 0.074852 -0.034424 112114.000000 0 0 1
9.736226 29.826454 -22.955632 38.876375 1.255272 2.202447 0.093944 -0.032992 276650.000000 0 0 1
10.774926 30.136154 -21.826532 38.738667 1.227419 2.169328 0.060789 -0.034974 734935.000000 0 0 1
11.793726 31.075354 -22.195532 39.967627 1.208069 2.159565 0.048979 -0.038512 634415.000000 0 0 1
12.673826 31.327454 -21.101132 39.840846 1.186365 2.128967 0.029891 -0.026465 34091.800000 0 0 1
13.973326 32.061854 -21.463832 41.035502 1.159793 2.121228 0.032267 -0.018131 17114.800000 0 0 1
14.899926 31.266454 -22.186732 41.132105 1.126087 2.140523 0.036870 -0.017492 -964738.000000 0 0 1
15.921426 32.056454 -22.654032 42.359334 1.109818 2.135075 0.027003 -0.010061 -363821.000000 0 0 1
17.072126 31.235454 -23.348332 42.570596 1.070596 2.151320 0.014700 0.002455 426279.000000 0 0 1
17.821226 30.583154 -22.349732 41.862106 1.043184 2.133990 0.017655 0.003962 192236.000000 0 0 1
19.047226 30.106154 -22.924432 42.363981 1.006701 2.142577 0.021056 -0.001078 438175.000000 0 0 1
20.010426 29.465854 -21.908132 41.816503 0.974232 2.122233 0.032228 0.000062 83514.600000 0 0 1
20.673226 30.347354 -20.993332 42.297330 0.972786 2.090160 0.030152 0.008787 435174.000000 0 0 1
21.551626 29.519954 -20.211732 41.766187 0.940173 2.075931 0.048406 0.008577 131223.000000 0 0 1
22.250626 30.218954 -19.066632 42.092897 0.936112 2.040885 0.054092 0.008884 -594835.000000 0 0 1
23.392726 30.927454 -19.429732 43.373281 0.923228 2.035285 0.062627 0.007664 -400541.000000 0 0 1
23.928926 31.531454 -18.265032 43.594007 0.921629 2.003118 0.066934 0.007028 -534682.000000 0 0 1
25.120726 32.439654 -18.538432 45.022833 0.911872 1.995177 0.077568 -0.002021 -1051380.000000 0 0 1
26.207826 31.704154 -18.939032 45.284550 0.880023 2.002284 0.084613 -0.002433 -1642930.000000 0 0 1
27.343226 32.505454 -18.861532 46.475950 0.871440 1.988688 0.081951 -0.008932 -300575.000000 0 0 1
28.657726 31.872154 -19.352032 47.027658 0.838453 1.994899 0.081729 -0.010433 23820.800000 0 0 1
29.224526 31.033654 -18.407332 46.432644 0.815412 1.978422 0.074696 -0.006583 128532.000000 0 0 1
30.423726 30.381654 -18.837732 46.941540 0.784706 1.983734 0.034118 -0.003023 277864.000000 0 0 1
30.875526 29.229754 -17.922532 46.139937 0.758024 1.969733 0.018003 -0.010134 -431225.000000 0 0 1
31.360726 29.657254 -16.668232 46.269621 0.757488 1.939323 0.014793 -0.010380 -16323.400000 0 0 1
31.604026 28.554754 -15.819132 45.436036 0.734754 1.926407 0.009143 -0.012927 -635775.000000 0 0 1
32.028726 28.967754 -14.397532 45.522071 0.735257 1.892598 0.024008 -0.016286 556833.000000 0 0 1
33.367426 29.478954 -14.300332 46.764231 0.723604 1.881571 0.016260 -0.015009 507901.000000 0 0 1
33.448726 30.840054 -14.695232 47.810836 0.744843 1.883216 0.026615 -0.015660 168445.000000 0 0 1
34.939226 31.263554 -14.872232 49.186813 0.729934 1.877966 0.039331 -0.019398 761587.000000 0 0 1
35.628726 31.326554 -13.647732 49.366180 0.721232 1.850904 0.040383 -0.019535 -446481.000000 0 0 1
-36.155428 31.683954 -13.763232 50.005145 -0.719581 1.849632 0.033712 -0.023668 44705.300000 0 0 1
-35.486528 31.924754 -12.374232 49.311309 -0.732611 1.824449 0.034894 -0.014172 -375287.000000 0 0 1
-35.846428 33.079654 -11.708532 50.162931 -0.745279 1.806379 0.050261 -0.018611 -188209.000000 0 0 1
-35.055728 33.311554 -10.593232 49.505356 -0.759892 1.786445 0.042204 -0.013488 -160824.000000 0 0 1
-35.492828 -33.542546 -9.836132 49.815587 0.757155 1.769553 0.056081 -0.009246 421006.000000 0 0 1
-34.422928 -33.032246 -9.056632 48.560167 0.764785 1.758398 0.050796 -0.007815 204673.000000 0 0 1
-34.157428 -33.690646 -7.811532 48.608739 0.778518 1.732198 0.054787 -0.012512 46017.800000 0 0 1
-33.832628 -32.777246 -6.643032 47.572308 0.769555 1.710895 0.077073 -0.014079 -308485.000000 0 0 1
-34.942628 -32.011146 -6.257832 47.800222 0.741642 1.702090 0.073464 -0.016054 -253557.000000 0 0 1
-34.681528 -31.062446 -5.274632 46.856224 0.730406 1.683606 0.087880 -0.020414 813310.000000 0 0 1
-36.082028 -30.343646 -5.098432 47.419865 0.699224 1.678521 0.081763 -0.017931 1287430.000000 0 0 1
36.165526 -31.180446 -4.351132 47.948908 -0.711511 1.661667 0.067741 -0.022071 -764380.000000 0 0 1
34.909826 -30.644046 -4.172232 46.638622 -0.720417 1.660375 0.057018 -0.014478 -759015.000000 0 0 1
34.517926 -29.695546 -3.009332 45.632979 -0.710440 1.636791 0.058209 -0.009650 -167677.000000 0 0 1
35.147026 -28.430246 -3.218532 45.320539 -0.680141 1.641873 0.082869 -0.020169 270852.000000 0 0 1
34.764226 -27.493946 -2.239232 44.378853 -0.669148 1.621275 0.056072 -0.016361 -185043.000000 0 0 1
35.114426 -26.028546 -2.592332 43.786166 -0.637877 1.630035 0.072008 -0.023058 -374626.000000 0 0 1
34.490426 -25.536546 -3.746632 43.078323 -0.637326 1.657879 0.081789 -0.030737 99459.800000 0 0 1
34.488426 -24.122646 -3.812432 42.259771 -0.610351 1.661133 0.079091 -0.031895 -189462.000000 0 0 1
34.055826 -23.681246 -5.206332 41.805581 -0.607609 1.695657 0.080547 -0.033580 -374473.000000 0 0 1
35.017326 -23.937346 -6.193732 42.866910 -0.599625 1.715791 0.101166 -0.033054 -206418.000000 0 0 1
34.631926 -23.363946 -7.361332 42.419730 -0.593500 1.745215 0.082358 -0.029735 5324.980000 0 0 1
35.779326 -23.352746 -8.403032 43.544481 -0.578263 1.764990 0.084997 -0.031382 341826.000000 0 0 1
36.384026 -24.613246 -8.693032 44.779214 -0.594769 1.766168 0.088466 -0.017094 466967.000000 0 0 1
-35.588328 -24.412746 -9.491432 44.188217 0.601252 1.787279 0.103618 -0.016348 853901.000000 0 0 1
-34.847028 -25.672646 -10.094732 44.444389 0.634950 1.799928 0.113947 -0.013775 401892.000000 0 0 1
-34.118328 -26.473846 -9.190232 44.151843 0.659898 1.780480 0.102300 -0.021970 231622.000000 0 0 1
-34.938928 -27.519446 -8.682432 45.314824 0.667161 1.763591 0.092442 -0.015232 383259.000000 0 0 1
-33.984128 -28.632646 -8.141832 45.177858 0.700141 1.752004 0.083009 -0.013608 220635.000000 0 0 1
-33.289628 -29.152546 -9.259532 45.208508 0.719240 1.777074 0.077678 -0.008024 -136488.000000 0 0 1
-32.457528 -30.200846 -8.813332 45.202401 0.749398 1.767028 0.059191 -0.017307 -205753.000000 0 0 1
-31.913628 -31.022346 -9.982232 45.612614 0.771237 1.791430 0.036966 -0.007755 -303755.000000 0 0 1
-31.077728 -30.296246 -10.836032 44.733738 0.772666 1.815464 0.018964 0.002208 39775.500000 0 0 1
-30.902628 -31.018946 -12.074332 45.419566 0.787277 1.839871 0.001085 0.006965 -381037.000000 0 0 1
-30.891128 -30.054546 -13.279132 45.098480 0.771672 1.869674 -0.007522 0.004249 -141609.000000 0 0 1
-29.764328 -29.196246 -13.439832 43.805994 0.775764 1.882629 -0.014449 0.008940 297.096000 0 0 1
-30.057328 -28.276046 -14.466332 43.729310 0.754871 1.907964 -0.011790 0.008039 -139034.000000 0 0 1
-28.895328 -27.431446 -15.020532 42.579815 0.759415 1.931317 -0.006585 0.010208 -105274.000000 0 0 1
-27.838328 -28.227046 -15.498032 42.566743 0.792331 1.943450 0.004590 0.003672 -774014.000000 0 0 1
-26.819528 -27.449146 -16.017932 41.585056 0.797000 1.966204 0.015845 0.012613 -3409.360000 0 0 1
-25.702028 -28.347446 -16.687432 41.744968 0.834304 1.982037 0.032385 0.000751 -22655.600000 0 0 1
-25.923528 -28.944146 -17.987632 42.817611 0.840395 2.004351 0.023774 0.004577 -250975.000000 0 0 1
-26.128328 -28.100446 -19.128432 42.874486 0.821749 2.033255 0.014888 0.012294 333528.000000 0 0 1
-24.912628 -27.249946 -19.621932 41.811707 0.830177 2.059286 0.034602 0.006319 497344.000000 0 0 1
-24.542028 -26.191846 -18.746132 40.493721 0.817906 2.052105 0.033127 0.009737 53342.800000 0 0 1
-23.163228 -25.873046 -18.910832 39.541993 0.840604 2.069454 0.033708 0.003357 436154.000000 0 0 1
-22.840628 -24.688046 -18.000832 38.147397 0.824248 2.062213 0.041051 -0.002278 -341073.000000 0 0 1
-22.965428 -24.989946 -16.681832 37.817877 0.827590 2.027631 0.048920 -0.004760 190393.000000 0 0 1
-22.304128 -24.080846 -15.817632 36.435680 0.823683 2.019863 0.050980 -0.010488 -81093.700000 0 0 1
-22.724628 -24.237646 -14.336332 36.185669 0.817605 1.978158 0.047116 -0.007159 -872807.000000 0 0 1
-24.042828 -23.856346 -14.156532 36.709539 0.781505 1.966694 0.022935 0.006915 -770424.000000 0 0 1
-24.321028 -23.803846 -12.766632 36.347247 0.774652 1.929692 0.024608 0.008542 -339538.000000 0 0 1
-25.817328 -23.740246 -12.453732 37.218667 0.743510 1.911988 0.028073 0.017801 -942468.000000 0 0 1
-26.437028 -25.026146 -12.470532 38.480367 0.757990 1.900830 0.029507 0.009649 1323250.000000 0 0 1
-27.765228 -25.092146 -11.875032 39.262451 0.734870 1.878061 0.013762 0.014660 1416330.000000 0 0 1
-28.898828 -24.340446 -12.679232 39.854266 0.699986 1.894563 0.029185 0.008249 -689329.000000 0 0 1
-29.257728 -23.014646 -12.260532 39.191954 0.666528 1.888971 0.039899 0.005951 357464.000000 0 0 1
-29.968228 -22.904946 -11.047832 39.303764 0.652595 1.855724 0.053986 0.002115 -240701.000000 0 0 1
-31.434628 -23.377046 -10.917232 40.667039 0.639439 1.842584 0.046621 -0.002786 380283.000000 0 0 1
-32.549828 -22.709546 -11.513032 41.325110 0.609171 1.853129 0.075467 -0.008751 662552.000000 0 0 1
-32.528728 -22.653146 -12.948232 41.700598 0.608309 1.886520 0.069993 -0.002701 136947.000000 0 0 1
-33.941828 -22.360246 -13.605332 42.861794 0.582524 1.893807 0.046872 -0.017265 1459040.000000 0 0 1
-34.862328 -23.376246 -13.125832 43.978612 0.590673 1.873874 0.066572 -0.012992 -187465.000000 0 0 1
-36.192228 -23.010346 -13.314332 44.906846 0.566315 1.871809 0.084739 -0.014987 -496822.000000 0 0 1
35.932026 -24.108746 -12.930032 45.161132 -0.590965 1.861169 0.078450 -0.000428 -169030.000000 0 0 1
35.869526 -25.277146 -13.761932 45.988561 -0.613871 1.874700 0.064691 0.007214 -269640.000000 0 0 1
35.104426 -26.255546 -13.157432 45.768903 -0.642173 1.862386 0.065385 0.002930 -127352.000000 0 0 1
34.959526 -27.517346 -14.086232 46.666848 -0.666838 1.877425 0.055355 -0.000618 454593.000000 0 0 1
34.019426 -27.244546 -15.123432 46.133554 -0.675261 1.904790 0.058162 -0.006269 59343.700000 0 0 1
33.931626 -28.369746 -16.052832 47.052005 -0.696360 1.918960 0.047887 -0.003750 -341042.000000 0 0 1
33.008926 -28.255846 -17.251832 46.750484 -0.707971 1.948750 0.045606 -0.005059 -389967.000000 0 0 1
31.649126 -28.378546 -16.899032 45.744796 -0.730967 1.949181 0.076663 -0.006592 -321827.000000 0 0 1
30.877926 -28.290046 -18.093432 45.619571 -0.741688 1.978623 0.068731 -0.007960 -146770.000000 0 0 1
29.392026 -28.483346 -17.786632 44.626858 -0.769699 1.980746 0.072906 -0.016813 -270689.000000 0 0 1
28.715326 -27.459046 -17.061332 43.239544 -0.763038 1.976404 0.076738 -0.024881 1266150.000000 0 0 1
27.304426 -27.737846 -16.866832 42.419451 -0.793272 1.979718 0.094241 -0.029105 1561720.000000 0 0 1
26.600826 -26.857446 -15.781932 40.963346 -0.790199 1.966296 0.088795 -0.035359 96977.500000 0 0 1
26.500726 -25.493046 -16.128032 40.153422 -0.766020 1.984125 0.088562 -0.035194 -63356.400000 0 0 1
26.325726 -24.660346 -14.982132 39.059452 -0.752746 1.964458 0.069166 -0.027053 -196556.000000 0 0 1
26.268226 -23.175146 -15.339932 38.241608 -0.722922 1.983549 0.059072 -0.021998 -540299.000000 0 0 1
25.012726 -22.774846 -15.777632 37.326448 -0.738603 2.007211 0.072019 -0.023357 -541942.000000 0 0 1
25.061726 -21.389846 -16.120732 36.680971 -0.706515 2.025821 0.055770 -0.023587 337375.000000 0 0 1
23.633926 -20.793546 -16.257732 35.429477 -0.721552 2.047526 0.059277 -0.018544 353673.000000 0 0 1
23.044426 -20.437446 -15.015732 34.266704 -0.725514 2.024394 0.073010 -0.023626 765994.000000 0 0 1
21.933526 -19.525246 -15.217132 33.073795 -0.727375 2.048900 0.066809 -0.027031 785863.000000 0 0 1
21.731426 -18.466846 -14.129032 31.826229 -0.704364 2.030791 0.069704 -0.013925 -46671.300000 0 0 1
21.124926 -18.847046 -12.898632 31.110261 -0.728473 1.998311 0.059063 -0.021344 112193.000000 0 0 1
20.716426 -17.618046 -12.339232 29.863397 -0.704749 1.996750 0.058995 -0.027052 -144146.000000 0 0 1
19.737926 -17.656246 -11.145532 28.732414 -0.729787 1.969157 0.062289 -0.022192 -43343.700000 0 0 1
20.308026 -17.990446 -9.889632 28.876927 -0.724958 1.920347 0.064597 -0.034757 409638.000000 0 0 1
19.238226 -18.172346 -8.958332 27.939134 -0.756914 1.897199 0.057533 -0.033107 230815.000000 0 0 1
19.540226 -18.998146 -7.726532 28.327536 -0.771333 1.847054 0.054777 -0.031981 84948.300000 0 0 1
20.556126 -18.255846 -7.047732 28.381345 -0.726200 1.821745 0.051737 -0.033093 309514.000000 0 0 1
21.023326 -19.059646 -5.961032 28.996280 -0.736447 1.777852 0.041278 -0.025191 550180.000000 0 0 1
22.469726 -18.661246 -5.504132 29.722486 -0.693067 1.757056 0.049245 -0.022958 478657.000000 0 0 1
23.440626 -18.595246 -6.521432 30.623115 -0.670637 1.785398 0.048491 -0.042617 279294.000000 0 0 1
24.486526 -17.743346 -6.067832 30.842096 -0.627057 1.768827 0.066039 -0.039339 124813.000000 0 0 1
25.742826 -17.554846 -6.963832 31.927428 -0.598496 1.790678 0.068873 -0.049363 174464.000000 0 0 1
26.584126 -18.681846 -7.068032 33.251830 -0.612565 1.784991 0.071609 -0.055739 306317.000000 0 0 1
26.132126 -19.692146 -7.956332 33.674498 -0.645776 1.809323 0.061866 -0.062410 -357596.000000 0 0 1
27.185226 -20.818846 -7.923532 35.146027 -0.653546 1.798197 0.071883 -0.066798 38166.500000 0 0 1
28.430526 -20.492746 -8.468532 36.055006 -0.624550 1.807890 0.087745 -0.057803 -506057.000000 0 0 1
29.415726 -21.407646 -8.099332 37.271590 -0.629116 1.789850 0.082905 -0.057756 -287956.000000 0 0 1
-30.426474 29.780354 4.244768 42.786188 -0.774667 1.471424 0.060954 -0.008718 303929.000000 0 0 1
-29.762544 30.574954 3.304368 42.796678 -0.798862 1.493509 0.057292 -0.014557 226394.000000 0 0 1
-28.782594 31.470854 3.868368 42.823085 -0.829984 1.480339 0.059443 -0.006057 655324.000000 0 0 1
-28.132134 32.404954 2.809168 43.004528 -0.855863 1.505427 0.063957 -0.005995 -432650.000000 0 0 1
-27.264504 31.714254 1.925568 41.867110 -0.860702 1.524788 0.076275 -0.026226 168890.000000 0 0 1
-26.678744 32.608354 0.969268 42.142610 -0.885082 1.547795 0.068738 -0.034308 593632.000000 0 0 1
-25.533874 33.586054 1.442368 42.214715 -0.920766 1.536622 0.096184 -0.024562 86082.000000 0 0 1
-24.246974 33.016554 1.430568 40.988475 -0.937362 1.535888 0.074493 -0.025341 -497935.000000 0 0 1
-23.338374 33.676954 2.263268 41.035829 -0.964779 1.515615 0.063550 -0.022366 212821.000000 0 0 1
-21.872574 33.293254 1.947168 39.882850 -0.989539 1.521955 0.057931 -0.031331 87499.100000 0 0 1
-21.343974 33.885254 0.814068 40.055441 -1.008689 1.550471 0.067196 -0.035158 604973.000000 0 0 1
-19.941774 33.588854 0.725268 39.069316 -1.035020 1.552232 0.056903 -0.032812 1141880.000000 0 0 1
-19.068774 -34.012846 -0.474232 38.996368 1.059825 1.582958 0.056846 -0.030912 464092.000000 0 0 1
-18.903974 -32.615846 -0.657532 37.703925 1.045516 1.588237 0.056127 -0.018915 526857.000000 0 0 1
-17.979674 -31.996346 0.240268 36.702760 1.058841 1.564250 0.058650 -0.017911 -46245.800000 0 0 1
-17.920774 -30.461846 0.282568 35.343430 1.039022 1.562801 0.061621 -0.016338 -31682.800000 0 0 1
-17.073974 -29.895846 -0.715432 34.435360 1.051886 1.591574 0.072886 -0.014095 249387.000000 0 0 1
-16.922274 -28.493346 -0.595332 33.144963 1.034872 1.588759 0.058546 -0.002807 -172977.000000 0 0 1
-15.882374 -27.995946 -1.605232 32.227311 1.054761 1.620627 0.055614 -0.006042 -466448.000000 0 0 1
-16.338874 -28.073746 -2.946732 32.615598 1.043718 1.661267 0.048934 -0.007397 -416374.000000 0 0 1
-15.424874 -27.825946 -3.961332 32.060913 1.064632 1.694669 0.045956 -0.003411 -576341.000000 0 0 1
-16.103274 -27.857046 -5.321632 32.613651 1.046659 1.734701 0.059325 -0.007507 238900.000000 0 0 1
-17.072274 -26.816246 -5.501032 32.261974 1.003871 1.742145 0.048751 -0.001252 -84176.800000 0 0 1
-17.633874 -26.868446 -6.776832 32.844975 0.990002 1.778617 0.062212 -0.002848 -99022.700000 0 0 1
-18.404174 -25.597546 -7.092032 32.314778 0.947444 1.792065 0.040567 -0.002193 -355532.000000 0 0 1
-17.549074 -24.516046 -7.055632 30.964309 0.949532 1.800679 0.044871 0.000453 -205015.000000 0 0 1
-18.167874 -23.333846 -7.528732 30.515927 0.909237 1.820085 0.039481 0.000596 -457992.000000 0 0 1
-17.397874 -22.098146 -7.191632 29.029875 0.903847 1.821135 0.045858 -0.004463 -288515.000000 0 0 1
-16.164474 -22.144646 -7.869632 28.523791 0.940251 1.850319 0.062189 -0.012033 -611727.000000 0 0 1
-15.338574 -21.105646 -7.414132 27.123597 0.942341 1.847666 0.106762 -0.026741 713112.000000 0 0 1
-14.003174 -20.944646 -8.211532 26.498988 0.981470 1.885864 0.099763 -0.029197 453403.000000 0 0 1
-14.343974 -20.238046 -9.352632 26.510372 0.954213 1.931349 0.093594 -0.021118 62152.800000 0 0 1
-13.264374 -19.949046 -10.232932 26.050354 0.984009 1.974485 0.098177 -0.028038 85084.800000 0 0 1
-13.687674 -19.041046 -11.375032 26.063484 0.947530 2.022430 0.113589 -0.037614 -486869.000000 0 0 1
-14.631674 -19.666546 -12.199232 27.380288 0.931154 2.032583 0.081198 -0.022637 -371358.000000 0 0 1
-14.904674 -18.923046 -13.382632 27.555867 0.903633 2.077908 0.087121 -0.028895 3323.810000 0 0 1
-16.085474 -19.387246 -14.284832 28.959700 0.878210 2.086637 0.084109 -0.021120 -200502.000000 0 0 1
-17.296474 -19.156846 -13.622532 29.184348 0.836388 2.056437 0.080015 -0.023121 58914.600000 0 0 1
-18.419774 -19.553846 -14.439232 30.498072 0.815254 2.063997 0.052322 -0.016236 -57855.300000 0 0 1
-19.767874 -19.251046 -13.801532 30.852130 0.772153 2.034590 0.037780 -0.020291 -1088080.000000 0 0 1
-20.762774 -19.827146 -14.559132 32.189701 0.762351 2.040129 0.049570 -0.024941 -686481.000000 0 0 1
-22.051474 -19.560946 -14.027432 32.644555 0.725619 2.014959 0.045645 -0.023704 834218.000000 0 0 1
-23.195674 -20.143946 -14.970332 34.174972 0.715100 2.024224 0.044471 -0.022728 319418.000000 0 0 1
-23.352974 -19.615246 -16.282332 34.572151 0.698628 2.061183 0.047691 -0.034078 114902.000000 0 0 1
-24.201074 -20.493446 -16.990132 35.976908 0.702633 2.062639 0.049953 -0.034595 -230381.000000 0 0 1
-24.504774 -19.936546 -18.407632 36.562149 0.682966 2.098397 0.053183 -0.033669 237190.000000 0 0 1
-23.374174 -19.816346 -19.284632 36.206859 0.703209 2.132494 0.045449 -0.035017 469285.000000 0 0 1
-23.700374 -19.504346 -20.660032 36.999516 0.688582 2.163236 0.048618 -0.038454 -650982.000000 0 0 1
-22.594774 -18.876746 -21.488932 36.450371 0.695985 2.201285 0.038492 -0.031155 30508.200000 0 0 1
-21.449974 -19.686046 -21.723432 36.325601 0.742544 2.211825 0.027375 -0.023199 196972.000000 0 0 1
-20.418074 -19.031546 -22.434332 35.810568 0.750266 2.247815 0.026961 -0.019935 -96495.700000 0 0 1
-19.113174 -19.825446 -22.377732 35.484146 0.803688 2.253174 0.028517 -0.012949 -485000.000000 0 0 1
-19.083474 -20.889746 -23.315132 36.662731 0.830554 2.260016 0.014932 -0.002551 -59001.600000 0 0 1
-17.867974 -21.618046 -23.278132 36.448263 0.880086 2.263555 0.010986 0.004156 22396.500000 0 0 1
-17.722074 -22.937146 -24.054532 37.667029 0.912965 2.263487 0.016363 0.007307 -373253.000000 0 0 1
-17.630674 -22.859546 -25.427702 38.470347 0.913827 2.292906 0.013231 0.006278 202258.000000 0 0 1
-17.779274 -24.097846 -26.112582 39.732552 0.935152 2.287906 0.026474 -0.005730 -131007.000000 0 0 1
-17.754974 -24.102746 -27.639422 40.744560 0.935903 2.316323 0.043551 0.001320 391849.000000 0 0 1
-16.474374 -23.848046 -28.224342 40.456740 0.966267 2.342898 0.018696 0.003501 317418.000000 0 0 1
-16.464974 -23.936346 -29.640032 41.503922 0.968261 2.366206 0.045126 -0.005614 -1078780.000000 0 0 1
-15.118174 -23.785946 -30.302342 41.383117 1.004616 2.392400 0.016713 -0.010322 -705260.000000 0 0 1
-14.348974 -24.960346 -29.978072 41.564369 1.049059 2.376394 0.025936 -0.013672 392392.000000 0 0 1
-13.023074 -24.747446 -30.485722 41.369262 1.086378 2.399295 0.045061 -0.015295 295142.000000 0 0 1
-12.087074 -25.865046 -30.058532 41.456162 1.133638 2.381929 0.050157 -0.012800 -1206000.000000 0 0 1
-12.394374 -27.177046 -30.619592 42.775832 1.142914 2.368587 0.049335 -0.013024 451322.000000 0 0 1
-11.477674 -28.226446 -30.276952 42.955362 1.184589 2.353004 0.048084 -0.014228 768583.000000 0 0 1
-10.068374 -28.112546 -30.943562 43.002226 1.226884 2.373994 0.055348 -0.012033 221499.000000 0 0 1
-9.307474 -27.042946 -30.428402 41.759282 1.239321 2.387163 0.064218 -0.014906 -268576.000000 0 0 1
-8.209174 -26.639646 -31.206312 41.843700 1.271874 2.412505 0.061134 -0.018487 -250786.000000 0 0 1
-7.341274 -25.472846 -30.750092 40.599610 1.290200 2.430116 0.091534 -0.027081 -384468.000000 0 0 1
-7.890774 -24.134746 -30.819602 39.932420 1.254805 2.452454 0.095038 -0.023089 34118.800000 0 0 1
-8.807874 -23.875246 -29.797342 39.185299 1.217373 2.434758 0.071991 -0.016083 -589585.000000 0 0 1
-9.358974 -22.492746 -29.679622 38.397839 1.176498 2.454275 0.067454 -0.024074 -541219.000000 0 0 1
-10.177174 -22.095646 -30.743702 39.204179 1.139165 2.472193 0.064445 -0.027421 -347991.000000 0 0 1
-10.625574 -20.813846 -30.469462 38.399312 1.098780 2.487318 0.061812 -0.028960 28993.900000 0 0 1
-11.293174 -20.233646 -31.734662 39.294084 1.061726 2.510900 0.062958 -0.024966 -16511.900000 0 0 1
-11.559574 -18.867846 -31.526622 38.516844 1.021120 2.529618 0.058090 -0.027148 -207202.000000 0 0 1
-12.394874 -18.451546 -32.542972 39.409866 0.979281 2.542339 0.077055 -0.018467 -694767.000000 0 0 1
-13.276474 -17.225546 -32.316972 38.953445 0.914151 2.549242 0.075487 -0.027613 -286630.000000 0 0 1
-12.773274 -15.898446 -32.427812 38.307703 0.893968 2.580189 0.084501 -0.028630 17084.400000 0 0 1
-11.661674 -15.490046 -31.644562 37.112188 0.925474 2.591877 0.070593 -0.028257 328822.000000 0 0 1
-11.205674 -13.974646 -31.692372 36.404180 0.894924 2.627155 0.076229 -0.027961 214371.000000 0 0 1
-10.485274 -13.576246 -32.877312 37.083326 0.913160 2.660694 0.090904 -0.033339 11179.600000 0 0 1
-11.099374 -13.768246 34.085811 38.400563 0.892312 0.478605 0.095594 -0.027504 -681532.000000 0 0 1
-11.729974 -12.518946 33.507138 37.643653 0.817923 0.473201 0.086475 -0.024255 625138.000000 0 0 1
-12.971674 -12.165546 -34.055867 38.419617 0.753340 2.660346 0.063344 -0.021955 346804.000000 0 0 1
-13.641874 -11.263746 33.319880 37.725152 0.690201 0.488096 0.050266 -0.028815 -639162.000000 0 0 1
-14.900974 -10.695246 33.890792 38.535868 0.622543 0.496068 0.057569 -0.027300 -687287.000000 0 0 1
-14.565374 -9.769346 -33.295002 37.631734 0.590806 2.656772 0.075095 -0.030939 -541729.000000 0 0 1
-15.638174 -9.086346 -32.760792 37.421701 0.526359 2.637160 0.068137 -0.038725 -504062.000000 0 0 1
-15.085074 -8.063746 -31.755812 36.069587 0.490905 2.647510 0.073799 -0.046573 36091.400000 0 0 1
-14.544774 -6.922146 -32.426242 36.206736 0.444199 2.680543 0.058016 -0.050152 194218.000000 0 0 1
-15.366574 -5.771846 -32.403312 36.323828 0.359306 2.672697 0.050896 -0.043833 -95633.100000 0 0 1
-15.778274 -5.114746 -31.056042 35.207845 0.313475 2.651050 0.050950 -0.045291 420938.000000 0 0 1
-16.652574 -5.855546 -30.176992 34.960642 0.338126 2.612312 0.065489 -0.045842 241027.000000 0 0 1
-16.997374 -5.315346 -28.928472 33.970872 0.303081 2.589763 0.065997 -0.042874 -373704.000000 0 0 1
-15.888274 -4.898446 -27.942182 32.514575 0.299059 2.604841 0.064577 -0.043288 -36554.500000 0 0 1
-15.240774 -3.756646 -28.545402 32.576580 0.241669 2.638831 0.056755 -0.037397 145042.000000 0 0 1
-14.068674 -3.374546 -27.838892 31.373860 0.235415 2.662314 0.049696 -0.032202 -14748.300000 0 0 1
-13.544474 -2.125946 -28.471282 31.600417 0.155690 2.692815 0.027217 -0.011963 -220651.000000 0 0 1
-13.346774 -2.164946 -29.865352 32.783573 0.160807 2.716463 0.026749 -0.020258 222679.000000 0 0 1
-13.091874 -0.891946 -30.483292 33.187706 0.068025 2.735096 0.024133 -0.027963 -8420.180000 0 0 1
-13.251574 -1.057946 -32.010342 34.661008 0.079667 2.747971 0.019768 -0.029525 857915.000000 0 0 1
-14.609774 -1.310946 -32.468422 35.628114 0.089491 2.717262 0.026791 -0.025570 1417500.000000 0 0 1
-14.650174 -1.575946 -33.837602 36.906565 0.107160 2.730901 0.023093 -0.025259 -140421.000000 0 0 1
-16.099174 -1.639946 33.838735 37.509103 0.101515 0.446075 0.022215 -0.027284 133817.000000 0 0 1
-16.095174 -1.830946 32.421694 36.243251 0.113271 0.463355 0.031482 -0.024913 -657146.000000 0 0 1
-17.353274 -1.872946 31.861191 36.328770 0.107514 0.501165 0.044605 -0.020971 -770897.000000 0 0 1
-17.275574 -1.856946 30.349731 34.971415 0.107079 0.519950 0.046946 -0.015960 42488.600000 0 0 1
-16.986374 -0.573946 29.856191 34.354890 0.033776 0.517513 0.035012 -0.000774 -63664.500000 0 0 1
-16.874874 -0.458946 28.453261 33.084136 0.027190 0.535473 0.028926 -0.004936 -247675.000000 0 0 1
-16.346474 0.910054 28.018231 32.450835 -0.055615 0.528815 0.024541 -0.001285 15978.000000 0 0 1
-17.246574 1.952054 28.309341 33.206530 -0.112705 0.550002 0.022022 -0.002448 325405.000000 0 0 1
-18.466174 2.047054 27.586411 33.259587 -0.110403 0.592715 0.032607 -0.005790 128833.000000 0 0 1
-18.395974 2.820054 26.277491 32.200483 -0.152113 0.616237 0.033955 -0.010769 -525780.000000 0 0 1
-18.143074 4.176054 26.382081 32.289701 -0.226233 0.614532 0.026556 -0.003626 131533.000000 0 0 1
-18.729674 4.811054 25.275421 31.824422 -0.251432 0.653082 0.026892 0.002587 -488683.000000 0 0 1
-18.609274 6.359054 25.238311 31.995547 -0.329274 0.661931 0.021392 -0.002799 -127016.000000 0 0 1
-17.294574 6.842054 25.253671 31.363417 -0.376724 0.634792 0.016826 0.004716 -196103.000000 0 0 1
-16.671274 6.961054 23.957211 30.005593 -0.395542 0.646122 0.009000 0.006868 116447.000000 0 0 1
-15.487974 7.939054 23.873571 29.544091 -0.473673 0.629935 0.024935 -0.001550 -475974.000000 0 0 1
-14.334574 7.489054 24.509611 29.364723 -0.481443 0.583278 0.022013 0.001789 -24944.100000 0 0 1
-13.258174 8.327054 24.044911 28.692800 -0.560804 0.577167 0.043364 -0.005460 79440.600000 0 0 1
-11.913574 8.174054 24.761251 28.668240 -0.601345 0.528197 0.040214 0.006569 70477.900000 0 0 1
-10.971174 9.122054 24.195161 28.088865 -0.693630 0.532818 0.042751 0.003530 943881.000000 0 0 1
-9.702974 9.010054 24.856271 28.163150 -0.748386 0.489472 0.045040 -0.008029 470823.000000 0 0 1
-9.471774 10.181054 25.870341 29.370783 -0.821473 0.493207 0.060368 -0.017480 -537488.000000 0 0 1
-10.384974 10.218054 26.957681 30.642665 -0.777297 0.495474 0.047513 -0.015779 188602.000000 0 0 1
-10.365574 11.364054 27.771751 31.746764 -0.831316 0.505794 0.047287 -0.018486 -155497.000000 0 0 1
-10.991674 12.647054 27.103501 31.864787 -0.855312 0.553712 0.060960 -0.021388 1629920.000000 0 0 1
-12.405374 12.590054 26.710031 32.028558 -0.792787 0.584579 0.063749 -0.023017 1831730.000000 0 0 1
-12.473674 12.288054 25.354221 30.812747 -0.777902 0.604391 0.057985 -0.007341 694213.000000 0 0 1
-13.905774 11.810054 24.862011 30.837761 -0.704083 0.633062 0.054271 -0.016049 1197670.000000 0 0 1
-14.792574 12.926054 24.697371 31.557301 -0.718162 0.671933 0.047639 -0.025805 257138.000000 0 0 1
-16.125274 12.641054 24.330381 31.808618 -0.664864 0.699912 0.044015 -0.015124 180013.000000 0 0 1
-16.335674 12.295054 22.819671 30.639191 -0.645195 0.730581 0.037877 -0.010712 -497935.000000 0 0 1
-16.106074 10.959054 22.430371 29.709057 -0.597471 0.715140 0.029790 -0.009736 65142.900000 0 0 1
-16.197974 10.807054 21.029371 28.660098 -0.588362 0.746970 0.032147 0.001823 -134264.000000 0 0 1
-16.346474 9.319054 20.627271 27.920177 -0.518141 0.739517 0.019374 -0.005171 -369051.000000 0 0 1
-17.684374 8.935054 20.702371 28.655897 -0.467840 0.763461 0.025076 -0.003817 -798969.000000 0 0 1
-17.966174 7.575054 20.517771 28.304484 -0.399012 0.759915 0.016483 0.002117 -631567.000000 0 0 1
-19.430074 7.308054 20.812571 29.395553 -0.359753 0.784109 0.030168 0.006051 -595518.000000 0 0 1
-19.857774 7.627054 22.107571 30.679763 -0.366711 0.766142 0.025060 -0.002816 343219.000000 0 0 1
-21.277774 7.738054 22.172871 31.690020 -0.348799 0.795847 0.022360 -0.001897 243188.000000 0 0 1
-21.861474 8.472054 23.383151 33.113011 -0.369713 0.786733 0.040608 -0.013647 -641038.000000 0 0 1
-21.666874 9.884054 23.524201 33.474408 -0.427984 0.791538 0.034836 -0.004624 -142138.000000 0 0 1
-20.368874 10.420054 23.555051 32.837616 -0.472859 0.770849 0.032238 -0.002420 -68792.100000 0 0 1
-19.512874 10.042054 24.794611 33.111446 -0.475289 0.724512 0.031188 -0.017100 -401107.000000 0 0 1
-20.115774 10.421054 25.989481 34.477469 -0.477986 0.716954 0.033723 -0.016327 155517.000000 0 0 1
-19.415874 9.771054 27.030361 34.685589 -0.466245 0.677254 0.037187 -0.022078 131876.000000 0 0 1
-31.615184 -14.009946 20.651571 40.277610 0.417134 1.032434 0.062830 -0.016353 -43576.000000 0 0 1
-30.759134 -15.144646 20.663971 40.031042 0.457519 1.028390 0.056303 -0.015746 232554.000000 0 0 1
-30.993414 -16.025946 19.563971 40.002145 0.477215 1.059770 0.044103 -0.002417 61261.400000 0 0 1
-30.463074 -15.595246 18.180271 38.752198 0.473153 1.082478 0.043532 -0.000195 -108338.000000 0 0 1
-31.248604 -14.561046 17.585471 38.700751 0.436058 1.099102 0.055463 -0.009916 56775.900000 0 0 1
-30.823464 -14.176746 16.262171 37.623454 0.431084 1.123827 0.053654 -0.012810 -834611.000000 0 0 1
-31.821064 -13.247846 15.524671 37.803452 0.394498 1.147610 0.052525 -0.010758 -673679.000000 0 0 1
-33.018724 -13.772446 15.066771 38.819119 0.395169 1.172197 0.068713 -0.013533 179537.000000 0 0 1
-34.029744 -13.917546 16.099471 40.136200 0.388225 1.158056 0.065289 -0.013574 -298557.000000 0 0 1
-34.970021 -12.726446 16.331271 40.639577 0.349025 1.157253 0.078867 -0.014346 -517865.000000 0 0 1
-35.846943 -12.990946 17.411371 41.915676 0.347679 1.142424 0.048789 -0.012033 -133286.000000 0 0 1
-36.492274 -11.808646 17.832171 42.297949 0.312959 1.135604 0.065741 -0.009296 -399571.000000 0 0 1
35.671880 -11.958546 18.977871 42.138456 -0.323463 1.103617 0.063990 0.004538 -838077.000000 0 0 1
36.251980 -12.406846 20.185971 43.308305 -0.329744 1.085920 0.046945 0.006064 -285196.000000 0 0 1
35.554760 -12.036746 21.367971 43.192759 -0.326430 1.053293 0.027868 0.001843 -1026320.000000 0 0 1
36.174900 -12.406946 22.757171 44.502186 -0.330399 1.034016 0.029191 -0.011541 46115.900000 0 0 1
-35.812447 -11.666846 23.127671 44.198822 0.314934 1.020119 0.035913 -0.013345 225062.000000 0 0 1
-34.640634 -12.237646 22.566671 43.115985 0.339589 1.019966 0.037250 -0.016151 -736497.000000 0 0 1
-33.378574 -11.391646 22.599271 41.888255 0.328891 1.000937 0.066935 -0.016216 -280122.000000 0 0 1
-33.537694 -10.214646 21.876771 41.324436 0.295646 1.012914 0.088298 -0.018374 279752.000000 0 0 1
-32.328264 -9.462346 21.866171 40.159458 0.284742 0.995023 0.115043 -0.024586 134082.000000 0 0 1
-32.472174 -8.177346 21.089571 39.573742 0.246697 1.008751 0.132374 -0.022982 -11475.900000 0 0 1
-32.540184 -8.356446 19.709771 38.950852 0.251372 1.040236 0.132953 -0.018457 458073.000000 0 0 1
-33.897294 -8.464746 19.288271 39.908845 0.244713 1.066367 0.122066 -0.020786 145722.000000 0 0 1
-34.097653 -8.496846 17.751271 39.369455 0.244218 1.103035 0.124537 -0.026445 123723.000000 0 0 1
-35.458157 -8.372046 17.372671 40.363124 0.231864 1.125850 0.060738 -0.012400 190737.000000 0 0 1
-35.632984 -8.532646 15.985471 39.975629 0.235034 1.159410 0.075244 -0.010875 1247520.000000 0 0 1
35.953370 -8.450246 15.647871 40.111187 -0.230844 1.170043 0.063048 -0.011068 1110880.000000 0 0 1
35.319910 -9.552146 16.210871 40.019144 -0.264128 1.153732 0.048280 0.007712 382818.000000 0 0 1
33.897100 -9.343346 16.187071 38.708304 -0.268960 1.139355 0.028313 0.007152 1174130.000000 0 0 1
32.986680 -10.584746 16.004071 38.161344 -0.310500 1.138035 0.018095 0.007571 -13329.600000 0 0 1
33.060440 -11.497746 17.106971 38.959457 -0.334695 1.116203 0.010694 0.007184 138985.000000 0 0 1
32.143410 -12.589746 17.010671 38.484587 -0.373308 1.112955 0.027074 0.007505 79029.500000 0 0 1
31.940760 -13.194446 18.406871 39.155057 -0.391741 1.081390 0.022103 0.006582 -133890.000000 0 0 1
32.874810 -14.140646 18.880571 40.462167 -0.406213 1.085328 0.031560 0.003870 -192244.000000 0 0 1
32.648350 -14.262646 20.296171 41.003322 -0.411870 1.052975 0.038603 0.004599 -430769.000000 0 0 1
33.461810 -15.321846 20.995371 42.370477 -0.429396 1.052364 0.027813 0.004126 -228476.000000 0 0 1
33.642600 -15.240746 22.410071 43.200882 -0.425362 1.025419 0.028298 -0.008493 -318513.000000 0 0 1
34.343420 -16.328346 22.932871 44.407229 -0.443810 1.028129 0.027072 -0.007214 -146866.000000 0 0 1
34.662600 -16.144146 24.385831 45.351935 -0.435875 1.003087 0.047413 -0.015987 -90355.100000 0 0 1
35.633850 -15.158246 24.636281 45.896514 -0.402200 1.004182 0.036837 -0.009551 -5832.020000 0 0 1
36.031040 -15.102946 26.007291 46.933080 -0.396918 0.983472 0.044170 -0.011339 27413.200000 0 0 1
-35.917523 -14.112146 26.204761 46.646657 0.374374 0.974271 0.032726 -0.014952 569064.000000 0 0 1
-34.658606 -14.612646 25.758971 45.588080 0.399001 0.970318 0.015747 -0.016271 -138575.000000 0 0 1
-33.669514 -13.658746 25.996711 44.676913 0.385386 0.949755 0.038873 -0.020309 967230.000000 0 0 1
-32.214914 -14.232246 25.678131 43.585823 0.416006 0.940803 0.031190 -0.021170 818924.000000 0 0 1
-31.938474 -14.319146 24.303361 42.611705 0.421469 0.963871 0.034842 -0.013824 857425.000000 0 0 1
-30.579014 -14.711146 24.024831 41.577475 0.448403 0.954725 0.039703 -0.021600 830518.000000 0 0 1
-30.130244 -16.168146 24.209071 41.896536 0.492504 0.954729 0.039760 -0.022540 -592023.000000 0 0 1
-30.025074 -16.466846 25.596701 42.753400 0.501642 0.928912 0.043000 -0.025272 161690.000000 0 0 1
-29.914704 -17.824546 25.909661 43.404084 0.537359 0.931114 0.039612 -0.033779 -533606.000000 0 0 1
-29.720194 -18.070146 27.425241 44.294063 0.546288 0.903120 0.050237 -0.030674 -195056.000000 0 0 1
-28.580824 -17.422846 27.947931 43.606260 0.547448 0.875106 0.052170 -0.035085 -87444.500000 0 0 1
-28.205654 -17.952446 29.191111 44.384347 0.566815 0.853049 0.065697 -0.033821 -136254.000000 0 0 1
-26.881504 -17.322746 29.628761 43.595370 0.572436 0.823537 0.062281 -0.031946 -507237.000000 0 0 1
-27.010714 -15.983246 30.111771 43.494386 0.534322 0.806105 0.074865 -0.040308 -222001.000000 0 0 1
-25.795274 -15.283746 30.136021 42.510808 0.534888 0.782855 0.056501 -0.032237 -871772.000000 0 0 1
-25.843834 -13.866646 30.761111 42.502160 0.492462 0.761569 0.063678 -0.026837 -346831.000000 0 0 1
-25.299964 -13.840346 32.040081 43.106962 0.500576 0.732852 0.059920 -0.025922 173716.000000 0 0 1
-25.218794 -12.536746 32.553675 43.045317 0.461340 0.713211 0.065101 -0.017097 -305363.000000 0 0 1
-24.494974 -12.409646 33.900446 43.626177 0.468930 0.680804 0.063722 -0.013603 -15059.400000 0 0 1
-23.100074 -12.607046 33.959951 42.963116 0.499580 0.659262 0.036808 -0.015006 215068.000000 0 0 1
-22.602174 -13.968446 34.060953 43.198661 0.553559 0.662475 0.036436 -0.012071 -57677.800000 0 0 1
-22.548774 -14.709446 -32.784872 42.422434 0.578018 2.454068 0.036868 -0.014640 -343936.000000 0 0 1
-21.618574 -14.280946 -31.812892 41.028872 0.583782 2.458110 0.020950 -0.010479 -34158.600000 0 0 1
-21.620574 -15.238146 -30.781672 40.585240 0.613939 2.431720 0.032176 -0.012614 -538767.000000 0 0 1
-20.457174 -15.443046 -29.822462 39.323821 0.646627 2.431623 0.031915 -0.013147 -448984.000000 0 0 1
-20.132074 -14.307446 -29.013012 38.101946 0.617857 2.436355 0.032877 -0.017145 499990.000000 0 0 1
-20.841274 -14.250446 -27.744662 37.512667 0.599744 2.403284 0.041924 -0.016498 337508.000000 0 0 1
-20.389774 -12.994246 -26.937142 36.196726 0.567390 2.410114 0.046797 -0.016625 -942341.000000 0 0 1
-19.072074 -13.028146 -26.547222 35.188516 0.599294 2.425579 0.044002 -0.027447 -1225660.000000 0 0 1
-18.696474 -11.858146 -25.902572 34.075167 0.565220 2.434355 0.051535 -0.028829 -167455.000000 0 0 1
-17.325974 -11.988646 -25.250082 32.885919 0.605300 2.446210 0.046594 -0.035798 -682905.000000 0 0 1
-17.462574 -12.662346 -23.992132 32.262965 0.627383 2.409299 0.050715 -0.034505 1854110.000000 0 0 1
-16.182574 -12.898746 -23.294732 31.159235 0.672956 2.415242 0.046006 -0.039585 2134090.000000 0 0 1
-15.064074 -13.836646 -23.886732 31.447656 0.742953 2.433450 0.029060 -0.029449 337718.000000 0 0 1
-14.273274 -13.104546 -24.831632 31.497071 0.742735 2.478966 0.048309 -0.038627 -57010.300000 0 0 1
-13.564174 -13.920646 -25.701482 32.223243 0.798367 2.494114 0.055194 -0.039416 -529582.000000 0 0 1
-12.699074 -13.243146 -26.733332 32.424042 0.806368 2.540099 0.063430 -0.036713 -382146.000000 0 0 1
-13.420274 -12.383046 -27.559032 33.059701 0.745222 2.556415 0.092643 -0.042364 -309490.000000 0 0 1
-12.538274 -11.665846 -28.378882 33.146059 0.749369 2.598620 0.099751 -0.044885 41481.500000 0 0 1
-13.250774 -10.765846 -29.472622 34.060563 0.682298 2.616546 0.077736 -0.044743 -357396.000000 0 0 1
-12.500474 -9.817946 -30.137232 34.072081 0.665779 2.656248 0.080688 -0.040858 -496246.000000 0 0 1
-11.972274 -10.247346 -31.385252 35.119475 0.707923 2.676257 0.096932 -0.030386 -328587.000000 0 0 1
-11.160674 -9.142846 -32.026612 35.126289 0.686340 2.718336 0.085082 -0.031651 -176898.000000 0 0 1
-9.809274 -9.099046 -31.618142 34.332513 0.747854 2.741279 0.076537 -0.029385 -13136.600000 0 0 1
-9.267774 -7.839246 -32.098412 34.316956 0.702086 2.780047 0.060863 -0.024069 -203333.000000 0 0 1
-7.739274 -7.702946 -32.009812 33.820997 0.783046 2.812847 0.059953 -0.023769 -34364.500000 0 0 1
-7.067874 -7.673946 -30.735502 32.457902 0.826487 2.814357 0.052683 -0.021608 4073.800000 0 0 1
-7.402574 -6.666146 -29.815292 31.435446 0.733101 2.819140 0.047503 -0.013687 -739983.000000 0 0 1
-6.847074 -5.273446 -30.070222 31.287536 0.656289 2.861727 0.038166 -0.020561 -53097.600000 0 0 1
-5.464874 -5.048746 -29.907762 30.819295 0.745839 2.897775 0.047400 -0.021214 37344.600000 0 0 1
-5.029274 -3.860446 -30.523012 31.174524 0.654667 2.936790 0.055055 -0.021075 198417.000000 0 0 1
-3.559474 -3.458846 -30.227892 30.632645 0.771061 2.978852 0.057789 -0.010892 -720560.000000 0 0 1
-2.629574 -4.242546 -30.928732 31.328906 1.015938 2.981589 0.045991 -0.012161 -384835.000000 0 0 1
-1.290474 -3.917046 -30.674792 30.950791 1.252544 3.007947 0.075730 -0.015438 -63895.600000 0 0 1
-0.745574 -2.499346 -31.009962 31.119453 1.280893 3.057682 0.081704 -0.015467 290232.000000 0 0 1
0.613526 -2.309246 -30.486402 30.579892 -1.311113 3.063378 0.088857 -0.014154 1759600.000000 0 0 1
1.119126 -1.019046 -30.873582 30.910661 -0.738626 3.092607 0.069765 -0.014041 45315.000000 0 0 1
1.364226 -0.033246 -29.796142 29.827375 -0.024365 3.095826 0.071277 -0.024035 -281139.000000 0 0 1
0.167926 0.396054 -29.205732 29.208900 1.169775 3.126864 0.073131 -0.024205 -338735.000000 0 0 1
0.427926 1.556154 -28.388702 28.434542 1.302440 3.084803 0.085568 -0.033959 -282196.000000 0 0 1
-0.739774 2.434754 -27.960152 28.075709 -1.275821 3.050832 0.059446 -0.027514 -544858.000000 0 0 1
-1.660274 2.825054 -28.925082 29.110099 -1.039473 3.028788 0.047950 -0.028827 -51932.700000 0 0 1
-2.650474 3.743754 -28.496552 28.863371 -0.954740 2.981994 0.075457 -0.030765 -397266.000000 0 0 1
-3.837174 3.838254 -29.424422 29.920774 -0.785539 2.959192 0.092840 -0.033165 -649993.000000 0 0 1
-3.519774 4.385154 -30.692992 31.203817 -0.894437 2.960400 0.095544 -0.033852 862552.000000 0 0 1
-4.724374 4.722354 -31.408612 32.111077 -0.785184 2.932039 0.099291 -0.023230 553282.000000 0 0 1
-4.297674 5.563854 -32.652012 33.400305 -0.913095 2.929518 0.111344 -0.018553 232519.000000 0 0 1
-3.983874 4.905154 -33.935202 34.518542 -0.888672 2.957489 0.121248 -0.023651 1269500.000000 0 0 1
-2.821874 4.023554 -33.769172 34.124902 -0.959172 2.997076 0.119876 -0.031125 577144.000000 0 0 1
-2.311674 3.302754 33.182316 33.426309 -0.960122 0.120899 0.114221 -0.027759 444963.000000 0 0 1
-3.246974 2.308754 32.666068 32.908133 -0.618102 0.121366 0.100933 -0.028567 512809.000000 0 0 1
-2.950574 1.725354 31.398731 31.584222 -0.529132 0.108431 0.096699 -0.028888 -243437.000000 0 0 1
-2.858174 2.669554 30.176151 30.428536 -0.751289 0.128886 0.104429 -0.030835 -115446.000000 0 0 1
-3.991874 3.504654 30.029181 30.495399 -0.720497 0.175084 0.085382 -0.033244 -30084.100000 0 0 1
-3.834274 4.435454 29.028261 29.614437 -0.857967 0.199295 0.078013 -0.035244 -36633.800000 0 0 1
-5.157374 5.137754 28.716611 29.624969 -0.783492 0.248274 0.073640 -0.022843 137730.000000 0 0 1
-4.937374 5.945354 27.559081 28.622157 -0.877757 0.273401 0.069644 -0.017228 945738.000000 0 0 1
-6.188674 6.635254 27.282671 28.751877 -0.820208 0.321063 0.058230 -0.013717 1049030.000000 0 0 1
-6.256574 7.444454 25.946121 27.708587 -0.871882 0.358589 0.060979 -0.013666 97466.400000 0 0 1
-5.346174 8.535554 26.020401 27.901587 -1.011233 0.369307 0.064615 -0.017721 110173.000000 0 0 1
-5.358274 9.329354 24.835921 27.066047 -1.049454 0.408785 0.064039 -0.011772 171987.000000 0 0 1
-4.498674 10.607254 25.021601 27.546913 -1.169677 0.431530 0.056102 -0.014008 -441786.000000 0 0 1
-4.589574 11.403854 23.858581 26.839224 -1.188173 0.475761 0.053268 -0.016511 264108.000000 0 0 1
-4.227474 12.824654 24.018001 27.553723 -1.252377 0.512178 0.044902 -0.008606 194868.000000 0 0 1
-2.674074 13.007954 24.058441 27.480286 -1.368049 0.504368 0.025649 -0.009894 551817.000000 0 0 1
-1.923974 12.386854 25.150971 28.101729 -1.416704 0.462371 0.039164 -0.013950 321279.000000 0 0 1
-2.169274 12.970354 26.435061 29.525384 -1.405081 0.461617 0.057359 -0.010983 -855796.000000 0 0 1
-1.296274 12.382154 27.547361 30.230037 -1.466487 0.424468 0.055076 -0.016510 768027.000000 0 0 1
0.070726 12.803054 27.458381 30.296632 1.565272 0.436308 0.048130 -0.013481 96051.300000 0 0 1
0.796626 12.515954 28.602861 31.231513 1.507233 0.413218 0.056173 -0.023988 1006190.000000 0 0 1
2.350526 12.733854 28.394821 31.208042 1.388262 0.427860 0.046682 -0.023645 1042150.000000 0 0 1
2.735126 14.094054 28.509961 31.920858 1.379116 0.466506 0.043769 -0.018200 360674.000000 0 0 1
4.146426 14.038654 28.257891 31.824284 1.283604 0.477961 0.063337 -0.023285 469940.000000 0 0 1
4.768926 15.424354 28.550811 32.799423 1.270938 0.514646 0.057357 -0.024242 -424873.000000 0 0 1
4.771326 15.880654 29.918931 34.206771 1.278928 0.506084 0.055270 -0.018336 -124701.000000 0 0 1
3.659026 16.634354 30.309951 34.767562 1.354277 0.511955 0.028590 -0.009160 -302637.000000 0 0 1
3.698726 18.090454 29.812201 35.067256 1.369119 0.554538 0.042266 -0.008232 29468.300000 0 0 1
4.802226 18.816154 30.320351 36.006009 1.320912 0.569647 0.061013 -0.007495 79727.900000 0 0 1
5.129326 19.824954 29.365331 35.800300 1.317617 0.608942 0.049357 -0.010919 -200422.000000 0 0 1
6.294126 20.666454 29.895471 36.884381 1.275163 0.625760 0.046907 -0.015573 -343662.000000 0 0 1
5.939726 21.404654 31.067031 38.191622 1.300110 0.620734 0.037772 -0.022667 493027.000000 0 0 1
7.009226 22.230454 31.543511 39.221364 1.265364 0.636396 0.020596 -0.018123 166916.000000 0 0 1
7.229426 23.596054 30.916081 39.558089 1.273494 0.673672 0.020109 -0.008051 -167003.000000 0 0 1
7.521626 23.557854 29.532521 38.519049 1.261744 0.697113 0.001654 -0.005535 288009.000000 0 0 1
7.943926 24.808454 29.006121 38.986157 1.260903 0.731743 0.012809 -0.005061 -96598.600000 0 0 1
8.409226 24.648854 27.553331 37.913944 1.242018 0.757242 0.029162 -0.009391 -658165.000000 0 0 1
7.412226 24.324054 26.647721 36.833432 1.275007 0.761987 0.026004 -0.010241 -262325.000000 0 0 1
7.868526 24.446354 25.300261 36.050536 1.259399 0.792875 0.043899 -0.024817 -349436.000000 0 0 1
28.409210 2.554954 6.693668 29.298740 0.089693 1.340298 0.100935 -0.009656 22421.000000 0 0 1
28.654810 3.452654 7.745968 29.883423 0.119913 1.308596 0.090108 -0.012814 372029.000000 0 0 1
27.840180 3.123054 8.870068 29.385493 0.111711 1.264162 0.078082 -0.002601 -90614.700000 0 0 1
28.132280 4.028054 10.076168 30.152604 0.142216 1.230069 0.071929 -0.003863 -31662.200000 0 0 1
27.945280 5.429954 9.951368 30.157135 0.191915 1.234510 0.076097 -0.004648 495170.000000 0 0 1
29.070480 6.149954 9.390868 31.162528 0.208479 1.264687 0.090367 -0.016772 509792.000000 0 0 1
28.880110 7.603054 8.965668 31.180930 0.257422 1.279142 0.112413 -0.025728 -102579.000000 0 0 1
27.999680 7.855254 7.913568 30.138209 0.273517 1.305106 0.097627 -0.024237 -163423.000000 0 0 1
28.258180 9.178854 7.491668 30.641494 0.314070 1.323798 0.114523 -0.038533 130413.000000 0 0 1
27.502580 9.630454 6.204668 29.793211 0.336822 1.361003 0.111170 -0.036329 589932.000000 0 0 1
26.103380 9.822254 6.409668 28.617249 0.359895 1.344901 0.077636 -0.030330 273531.000000 0 0 1
25.448880 9.833954 5.148668 27.764382 0.368745 1.384275 0.102398 -0.039101 532146.000000 0 0 1
23.952880 10.258654 5.261868 26.583222 0.404650 1.371541 0.048672 -0.035541 410807.000000 0 0 1
23.847580 11.575254 5.799068 27.135268 0.451887 1.355426 0.043648 -0.013547 -730378.000000 0 0 1
22.516480 11.949854 5.788768 26.140021 0.487917 1.347493 0.041242 -0.014116 -830518.000000 0 0 1
22.308680 13.388154 6.325268 26.775527 0.540517 1.332309 0.031043 0.001895 -153581.000000 0 0 1
22.336580 14.452554 5.394868 27.145970 0.574288 1.370729 0.041004 0.003000 248954.000000 0 0 1
21.998380 15.650254 6.019568 27.660339 0.618354 1.351416 0.057039 -0.007142 -219579.000000 0 0 1
21.604280 16.775654 5.017968 27.809126 0.660245 1.389359 0.064395 -0.009741 404231.000000 0 0 1
20.428680 16.581054 4.216768 26.646640 0.681808 1.411881 0.079199 -0.011532 710450.000000 0 0 1
20.157080 17.705754 3.387068 27.042075 0.720746 1.445215 0.089259 -0.007743 -195302.000000 0 0 1
18.662780 17.883154 3.099268 26.032902 0.764069 1.451461 0.070587 -0.001517 -445442.000000 0 0 1
17.883380 18.369354 4.156768 25.971661 0.798803 1.410055 0.071309 -0.013872 -447148.000000 0 0 1
16.543980 18.213054 3.774768 24.893121 0.833382 1.418570 0.058144 -0.021663 -431938.000000 0 1 0
15.617580 19.291354 4.444968 25.215528 0.890251 1.393591 0.073096 -0.027061 -523070.000000 0 0 1
14.273180 18.982654 4.230768 24.123934 0.926076 1.394508 0.077008 -0.034022 -435788.000000 0 1 0
13.507080 20.178454 4.436768 24.683924 0.980917 1.390071 0.062258 -0.030940 -334509.000000 0 1 0
12.008580 19.899954 4.324468 23.641387 1.027846 1.386841 0.050958 -0.028149 -600665.000000 0 1 0
11.513980 19.143954 5.404368 22.984123 1.029317 1.333439 0.047456 -0.038490 117270.000000 0 1 0
10.129080 18.992254 5.105068 22.121611 1.080844 1.337924 0.037668 -0.031934 509384.000000 0 1 0
9.300880 18.413754 6.293368 21.568013 1.103073 1.274697 0.031404 -0.030443 -385745.000000 0 1 0
9.034680 19.348354 7.298568 22.566642 1.133938 1.241452 0.035830 -0.028543 -205834.000000 0 1 0
8.376480 18.681354 8.358668 22.113926 1.149284 1.183181 0.033657 -0.023927 -581279.000000 0 1 0
7.344180 19.582254 9.022568 22.777365 1.211988 1.163509 0.036691 -0.023399 -870872.000000 0 1 0
6.223680 19.832254 8.260068 22.366967 1.266713 1.192543 0.027265 -0.027694 -956609.000000 0 1 0
6.218580 21.038554 7.492868 23.182635 1.283399 1.241676 0.022996 -0.020914 -1027410.000000 0 1 0
4.983880 21.232854 6.567668 22.777344 1.340245 1.278301 0.003442 -0.012777 76397.700000 0 1 0
3.793680 21.443554 7.299868 22.967500 1.395693 1.247351 0.000383 -0.011914 -195215.000000 0 1 0
3.688680 22.687254 8.026668 24.346360 1.409618 1.234825 0.012598 -0.018066 -1170390.000000 0 1 0
3.638380 23.958654 7.140168 25.263351 1.420087 1.284262 0.018330 -0.019743 -110887.000000 0 0 1
2.642780 24.034954 6.132668 24.945398 1.461281 1.322406 0.014662 -0.017810 396549.000000 0 1 0
2.963980 25.145854 5.248468 25.858181 1.453466 1.366405 0.028201 -0.011710 188233.000000 0 0 1
1.709980 25.368454 4.360368 25.797195 1.503492 1.400956 0.031625 -0.009956 167811.000000 0 0 1
0.619680 25.780354 5.177368 26.302391 1.546764 1.372662 0.048766 -0.016365 -194929.000000 0 0 1
-0.428420 26.158654 4.296968 26.512688 -1.554420 1.408006 0.058929 -0.013459 -171405.000000 0 0 1
-1.758220 26.377854 5.042368 26.912970 -1.504240 1.382324 0.083366 -0.022345 201829.000000 0 0 1
-2.693220 27.025354 4.182168 27.479332 -1.471469 1.418009 0.112995 -0.024979 865259.000000 0 0 1
-3.760220 27.774154 4.859868 28.445759 -1.436229 1.399107 0.105385 -0.027336 1221220.000000 0 0 1
-4.813820 28.338654 3.837868 28.999679 -1.402535 1.438065 0.107632 -0.030114 140601.000000 0 0 1
-4.273620 29.144154 2.790768 29.587732 -1.425197 1.476334 0.101041 -0.021906 59705.900000 0 0 1
-5.262820 29.681454 1.916068 30.205253 -1.395310 1.507319 0.107031 -0.026808 56243.100000 0 0 1
-4.677520 30.547054 0.683268 30.910654 -1.418851 1.548690 0.086574 -0.025230 284076.000000 0 0 1
-4.100020 31.802154 1.067568 32.083124 -1.442581 1.537515 0.082276 -0.025975 779106.000000 0 0 1
-2.898320 31.827854 1.867268 32.014047 -1.479984 1.512437 0.088146 -0.027004 177177.000000 0 0 1
-2.254620 33.220054 1.668868 33.338272 -1.503031 1.520717 0.076475 -0.031289 -1037580.000000 0 0 1
-1.549020 33.270654 0.430768 33.309480 -1.524272 1.557864 0.052274 -0.030648 78295.100000 0 0 1
-0.633220 -33.861046 0.334768 33.868621 1.552098 1.560912 0.050828 -0.035781 1123000.000000 0 0 1
0.674480 -33.818046 1.262268 33.848316 -1.550855 1.533496 0.038522 -0.025110 695151.000000 0 0 1
0.322580 -33.817946 2.648768 33.923052 -1.561258 1.492635 0.044018 -0.024883 -106796.000000 0 0 1
1.518980 -34.054846 3.355768 34.253482 -1.526222 1.472670 0.031316 -0.020280 273697.000000 0 0 1
1.316080 -33.883046 4.907868 34.261933 -1.531974 1.427056 0.038231 -0.021679 176860.000000 0 0 1
0.568380 33.294854 5.573968 33.762989 1.553727 1.404946 0.060363 -0.024494 -72648.900000 0 0 1
0.222880 33.594954 6.932568 34.303514 1.564162 1.367300 0.071881 -0.025539 -759227.000000 0 0 1
1.303580 33.577454 7.974268 34.535976 1.531993 1.337796 0.049229 -0.017489 -902118.000000 0 0 1
1.732180 32.243454 8.089668 33.287888 1.517126 1.325317 0.047162 -0.020169 591547.000000 0 0 1
2.810880 32.255354 9.057168 33.620547 1.483871 1.298033 0.045523 -0.020439 221359.000000 0 0 1
3.356780 30.868854 9.376568 32.435692 1.462479 1.277529 0.036750 -0.019377 -75650.900000 0 0 1
2.616680 30.133554 10.334268 31.963654 1.484178 1.241568 0.059314 -0.019838 341392.000000 0 0 1
3.078480 28.781654 10.271568 30.714259 1.464242 1.229803 0.025792 -0.018889 -217867.000000 0 0 1
2.561780 27.799154 11.339168 30.131916 1.478903 1.184978 0.028680 -0.019550 -664875.000000 0 0 1
3.045680 28.103454 12.669468 30.977341 1.462844 1.149448 0.029905 -0.014886 90969.800000 0 0 1
2.756280 27.151854 13.736368 30.553364 1.469629 1.104494 0.041663 -0.008951 1270670.000000 0 0 1
1.196480 26.891854 13.966068 30.325804 1.526333 1.092199 0.034828 -0.011613 1349100.000000 0 0 1
0.468080 27.834754 14.734168 31.497433 1.553982 1.084008 0.038399 -0.012887 217835.000000 0 0 1
-0.018120 28.918654 13.918268 32.093723 -1.570170 1.122228 0.045635 -0.018254 -353472.000000 0 0 1
-0.684920 30.062654 14.695468 33.469225 -1.548017 1.116229 0.042777 -0.018439 484186.000000 0 0 1
-1.946520 29.687154 15.260568 33.436521 -1.505322 1.096847 0.029014 -0.013807 270375.000000 0 0 1
-2.629720 30.835554 15.686768 34.696131 -1.485720 1.101657 0.029495 -0.010790 -239021.000000 0 0 1
-3.952620 30.589654 16.426168 34.945230 -1.442294 1.081444 0.014973 -0.003955 216246.000000 0 0 1
-4.959520 30.095354 15.535468 34.229781 -1.407471 1.099706 0.013357 -0.004363 334622.000000 0 0 1
-6.053820 29.544154 16.255468 34.259976 -1.368686 1.076430 0.026925 -0.005254 115951.000000 0 0 1
-7.109920 28.928954 15.269268 33.475153 -1.329801 1.097146 0.021437 -0.013632 -580047.000000 0 0 1
-8.344020 28.877054 15.878668 33.994691 -1.289508 1.084797 0.021311 -0.012557 -163691.000000 0 0 1
-9.379520 28.341854 14.984268 33.403059 -1.251199 1.105610 0.026489 -0.014052 664359.000000 0 0 1
-10.665220 27.918054 15.684468 33.751551 -1.205886 1.087496 0.025521 -0.010178 -542116.000000 0 0 1
-11.426420 28.931754 16.238968 35.090077 -1.194656 1.089668 0.026788 -0.019834 -541.898000 0 0 1
-10.898220 29.384154 17.493268 35.891700 -1.215636 1.061698 0.023272 -0.021056 -568954.000000 0 0 1
-11.687320 30.504254 18.220268 37.404292 -1.204911 1.062011 0.035724 -0.017164 -608083.000000 0 0 1
-12.991720 30.182254 18.590768 37.754071 -1.164325 1.055931 0.044324 -0.015240 -65917.500000 0 0 1
-13.759520 31.347054 18.955368 39.131421 -1.157177 1.065116 0.072468 -0.021074 640422.000000 0 0 1
-14.945820 31.015154 19.878268 39.755035 -1.121743 1.047176 0.082839 -0.017525 221603.000000 0 0 1
-14.480020 31.073154 21.213268 40.313950 -1.134719 1.016669 0.068720 -0.009560 66441.100000 0 0 1
-15.414320 30.578754 22.141668 40.778853 -1.103885 0.996827 0.057662 -0.000235 -163497.000000 0 0 1
-14.875520 30.686554 23.602868 41.473377 -1.119417 0.965375 0.038946 0.013901 -597603.000000 0 0 1
-13.905720 29.685754 23.792868 40.505723 -1.132722 0.942960 0.027126 0.010066 139044.000000 0 0 1
-13.563020 29.372554 25.154868 40.981335 -1.138207 0.909915 0.037980 0.005852 -125970.000000 0 0 1
-12.999820 30.467954 26.030168 42.129101 -1.167510 0.904770 0.027945 0.006688 -604124.000000 0 0 1
-13.992220 31.403354 26.367968 43.326927 -1.151637 0.916525 0.022625 0.011058 243727.000000 0 0 1
-13.395820 32.569854 26.851468 44.285942 -1.180591 0.919371 0.018905 0.009101 255208.000000 0 0 1
-14.457520 33.591654 27.440068 45.720634 -1.164369 0.927085 0.026350 0.004875 201835.000000 0 0 1
-15.167620 33.066454 28.522868 46.227709 -1.140730 0.905861 0.002668 0.005616 236958.000000 0 0 1
-14.411120 32.928554 29.754568 46.661594 -1.158262 0.879330 0.013536 0.010148 -105646.000000 0 0 1
-15.135320 32.132454 30.876968 47.063358 -1.130593 0.855194 0.005651 0.014078 -714794.000000 0 0 1
-16.236920 32.828054 31.353868 48.211863 -1.111474 0.862771 0.008807 0.013012 -750058.000000 0 0 1
-16.668320 32.342254 32.597868 48.851563 -1.094926 0.840240 -0.000549 0.017996 -28842.400000 0 0 1
-18.154920 32.670554 32.827968 49.745770 -1.063590 0.850091 0.005378 0.008156 -90785.400000 0 0 1
-18.450720 34.050254 33.044568 50.909648 -1.074218 0.864418 0.024535 -0.000611 -60157.700000 0 0 1
-19.857120 -33.982246 33.083168 51.415895 1.041973 0.871810 0.042985 -0.005321 101020.000000 0 0 1
-20.200720 -32.443646 33.254768 50.661019 1.013896 0.854737 0.055851 -0.008033 -363666.000000 0 0 1
-20.023420 -31.888046 -33.665836 50.509141 1.010094 2.300340 0.059016 -0.013921 301528.000000 0 0 1
-20.782920 -32.406546 -32.530236 50.401689 1.000548 2.272369 0.059009 -0.014741 271120.000000 0 0 1
-20.502820 -31.724446 -31.201336 48.993157 0.997042 2.261203 0.073164 -0.024374 5075.090000 0 0 1
-20.721320 -30.313946 -31.279536 48.236063 0.971191 2.276366 0.084129 -0.027159 -22114.000000 0 0 1
-20.164820 -29.573446 -30.208336 46.837509 0.972352 2.271768 0.074732 -0.025333 118804.000000 0 0 1
-20.482020 -28.059846 -30.290336 46.090916 0.940257 2.287876 0.082425 -0.032215 368081.000000 0 0 1
-21.823120 -27.701546 -30.003336 46.301451 0.903542 2.275752 0.078499 -0.025461 26198.000000 0 0 1
-22.068920 -26.326546 -30.185836 45.730832 0.873148 2.291717 0.078810 -0.021011 652796.000000 0 0 1
-23.249120 -25.853146 -29.240936 45.430596 0.838381 2.270041 0.084366 -0.017976 413312.000000 0 0 1
-23.094320 -26.044546 -27.841436 44.573664 0.845365 2.245436 0.084648 -0.020744 463781.000000 0 0 1
-22.098620 -25.258646 -27.138436 43.160664 0.852027 2.250776 0.086608 -0.028549 514896.000000 0 0 1
-22.119320 -25.534346 -25.655736 42.420325 0.856939 2.220309 0.083654 -0.027313 456734.000000 0 0 1
-23.300220 -25.128646 -24.958536 42.394311 0.823135 2.200275 0.072972 -0.025184 371671.000000 0 0 1
-23.254720 -25.518746 -23.678136 41.864574 0.831784 2.171943 0.068251 -0.014648 -560379.000000 0 0 1
-24.557320 -25.365646 -22.858436 42.059316 0.801588 2.145375 0.051285 -0.010804 587868.000000 0 0 1
-25.709420 -26.124846 -23.236836 43.398530 0.793412 2.135812 0.037292 -0.002213 217956.000000 0 0 1
-25.594320 -27.532746 -23.238736 44.194572 0.821869 2.124484 0.047493 0.008017 -1848830.000000 0 0 1
-26.909520 -28.243646 -23.520636 45.552674 0.809583 2.113367 0.030662 0.014893 101581.000000 0 0 1
-27.749220 -28.251246 -22.344236 45.468857 0.794363 2.084514 0.023498 0.017638 175942.000000 0 0 1
-28.870620 -27.397646 -22.526136 45.733691 0.759226 2.085814 0.023278 0.012607 55151.600000 0 0 1
-29.344520 -26.810846 -21.162036 45.030591 0.740310 2.060028 0.022939 0.010841 118397.000000 0 0 1
-29.828820 -27.862246 -20.308236 45.590434 0.751323 2.032473 0.031318 0.013496 109983.000000 0 0 1
-30.314220 -27.418846 -19.072836 45.105633 0.735289 2.007382 0.030290 0.011395 -261849.000000 0 0 1
-31.322420 -28.321646 -18.261736 46.007615 0.735129 1.978964 0.021070 0.011920 1013040.000000 0 0 1
-32.637020 -28.444346 -18.848936 47.217987 0.716865 1.981429 0.019814 0.013049 1064480.000000 0 0 1
-33.525720 -27.358946 -18.774636 47.169617 0.684456 1.980158 0.023270 0.019413 -380785.000000 0 0 1
-33.984720 -26.780846 -17.400036 46.636211 0.667397 1.953146 0.030868 0.013387 -716466.000000 0 0 1
-33.039420 -25.978946 -16.754736 45.246327 0.666332 1.950129 0.027556 0.018041 -68401.400000 0 0 1
-33.646920 -25.365446 -15.663336 44.953990 0.645974 1.926692 0.036364 0.008477 -43721.100000 0 0 1
-33.441520 -26.081046 -14.283736 44.750210 0.662364 1.895669 0.036208 0.004063 -364286.000000 0 0 1
-34.139320 -27.260246 -14.045636 45.890021 0.673826 1.881860 0.048135 0.010229 -335691.000000 0 0 1
-33.791320 -27.984046 -12.886036 45.727563 0.691667 1.856466 0.051533 0.009413 -819753.000000 0 0 1
-34.482620 -29.249546 -12.428636 46.894115 0.703472 1.839038 0.061423 0.004569 -626135.000000 0 0 1
-34.304120 -30.308046 -13.390736 47.693418 0.723630 1.855389 0.044446 0.008134 190686.000000 0 0 1
-34.569420 -31.562946 -12.822236 48.535287 0.739968 1.838154 0.030899 -0.001330 -426370.000000 0 0 1
-34.273620 -32.825946 -13.662436 49.385078 0.763826 1.851104 0.020111 0.003873 29031.700000 0 0 1
-32.898520 -32.924346 -13.986536 48.599880 0.785791 1.862714 -0.000033 0.006840 -55568.700000 0 0 1
-32.663720 -33.856346 -15.002236 49.378516 0.803325 1.879497 0.018985 -0.008432 434816.000000 0 0 1
-31.145320 -33.960446 -15.316336 48.558552 0.828611 1.891695 -0.002108 0.001463 423512.000000 0 0 1
-30.867620 33.293354 -16.291936 48.235719 -0.823187 1.915329 0.015215 -0.000965 204250.000000 0 0 1
-29.459120 33.058754 -16.424836 47.228129 -0.842912 1.925995 0.009988 -0.004903 581037.000000 0 0 1
9.441626 20.016954 -8.812032 23.821727 1.130059 1.949715 0.037274 -0.013387 -5216.810000 0 1 0
8.047226 20.209354 -9.050632 23.560343 1.191849 1.965080 0.046728 -0.015336 442925.000000 0 1 0
7.787126 20.438854 -10.436432 24.234380 1.206779 2.016004 0.053349 -0.014711 178049.000000 0 1 0
7.679726 19.185454 -11.323532 23.564427 1.190041 2.072061 0.045734 -0.008321 -3728.910000 0 1 0
8.920226 18.534354 -11.548932 23.589628 1.122236 2.082401 0.056760 -0.014508 34932.900000 0 1 0
8.772026 17.382254 -12.341832 23.052375 1.103432 2.135757 0.052133 -0.019657 -144460.000000 0 1 0
10.076626 16.910554 -13.025832 23.604608 1.033413 2.155358 0.059541 -0.018325 152721.000000 0 1 0
9.971026 15.647854 -13.746132 23.091835 1.003462 2.208412 0.070472 -0.034745 964682.000000 0 1 0
11.284926 15.326354 -14.245432 23.773494 0.936115 2.213316 0.092603 -0.043159 784454.000000 0 1 0
11.250726 14.140354 -15.267532 23.656415 0.898715 2.272326 0.083941 -0.044784 -217446.000000 0 1 0
11.097426 12.863354 -14.621832 22.414654 0.858966 2.281456 0.091406 -0.041518 289483.000000 0 1 0
12.322326 12.220054 -14.330432 22.506237 0.781231 2.261048 0.109820 -0.035873 -67948.200000 0 1 0
13.125926 11.524354 -15.500432 23.353031 0.720518 2.296610 0.111806 -0.036784 -112156.000000 0 1 0
13.797026 12.472954 -16.285232 24.721272 0.735038 2.289958 0.099782 -0.033842 552323.000000 0 1 0
14.744026 11.859554 -17.187532 25.562601 0.677396 2.308203 0.097042 -0.038432 442364.000000 0 0 1
15.407226 12.771354 -18.198432 27.049455 0.692128 2.308761 0.073342 -0.031507 123300.000000 0 0 1
16.389926 13.670054 -17.717732 27.738386 0.695162 2.263661 0.057622 -0.029691 198938.000000 0 0 1
17.172226 14.212154 -18.793232 29.155724 0.691360 2.271272 0.038215 -0.017023 30165.500000 0 0 1
18.335826 15.058054 -18.233132 29.923145 0.687557 2.226014 0.035582 -0.015161 -509217.000000 0 0 1
18.058626 16.291554 -17.520732 29.975069 0.734001 2.195073 0.045409 -0.022457 192425.000000 0 0 1
17.596826 17.384554 -18.357832 30.803912 0.779330 2.209254 0.041232 -0.006725 6346.220000 0 0 1
17.417726 18.759554 -17.748132 31.149546 0.822472 2.177024 0.046727 0.004774 -732246.000000 0 0 1
18.628026 19.416354 -17.689032 32.200932 0.806116 2.152362 0.048983 0.002528 -555340.000000 0 0 1
18.457926 20.789054 -17.329832 32.759775 0.844725 2.128215 0.047076 0.001650 -41603.100000 0 0 1
19.696726 21.643254 -17.680432 34.190483 0.832449 2.114274 0.065191 -0.006105 856624.000000 0 0 1
20.827926 21.693254 -16.791632 34.443558 0.805746 2.080034 0.051395 -0.006761 455590.000000 0 0 1
20.628526 22.342154 -15.541632 34.150406 0.825256 2.043274 0.066152 -0.005293 -327650.000000 0 0 1
21.960926 22.623554 -14.841632 34.847977 0.800259 2.010749 0.064905 -0.005268 -111910.000000 0 0 1
22.578326 21.602354 -14.024032 34.250781 0.763311 1.992649 0.074725 -0.004373 601697.000000 0 0 1
23.688026 22.099354 -13.275732 35.010700 0.750715 1.959718 0.064250 0.001112 678425.000000 0 0 1
25.119726 22.224654 -13.842632 36.284354 0.724325 1.962219 0.058903 0.006462 -97203.500000 0 0 1
25.245126 23.174854 -14.876232 37.358968 0.742668 1.980347 0.064468 0.006223 -828216.000000 0 0 1
26.324926 22.848454 -15.649532 38.209442 0.714817 1.992782 0.040389 0.024326 -1036700.000000 0 0 1
26.498326 23.537654 -16.996632 39.307352 0.726296 2.017953 0.036128 0.012131 -328070.000000 0 0 1
27.391226 22.830554 -17.833632 39.869185 0.694836 2.034545 0.044049 0.010227 120928.000000 0 0 1
27.539026 23.348654 -19.148532 40.868373 0.703238 2.058436 0.045088 0.000968 -189091.000000 0 0 1
28.089426 22.272854 -20.136132 41.116416 0.670413 2.082582 0.045637 0.001782 -779229.000000 0 0 1
29.469726 22.382654 -20.184632 42.152904 0.649562 2.070133 0.042755 0.005660 -1079620.000000 0 0 1
29.840126 21.453754 -21.222232 42.439131 0.623336 2.094468 0.045877 -0.000643 156192.000000 0 0 1
31.334126 21.576854 -21.608632 43.752955 0.603038 2.087341 0.069058 -0.011145 -220259.000000 0 0 1
31.580526 22.875054 -22.033032 44.788974 0.626876 2.085101 0.049420 0.000719 751886.000000 0 0 1
32.970126 23.244554 -22.030232 45.963786 0.614086 2.070648 0.040406 0.001780 673734.000000 0 0 1
33.315526 24.690054 -22.429432 47.144485 0.637779 2.066624 0.014932 0.007875 -324145.000000 0 0 1
33.466026 24.883954 -23.807932 48.020867 0.639366 2.089533 0.026084 0.000297 434023.000000 0 0 1
32.295926 24.714854 -24.616832 47.537767 0.653198 2.115117 0.031456 -0.005554 28795.100000 0 0 1
32.464926 25.194754 -26.080552 48.671781 0.659972 2.136305 0.042448 -0.019172 -435260.000000 0 0 1
32.179826 26.576054 -26.173702 49.263481 0.690312 2.130931 0.050018 -0.022558 934780.000000 0 0 1
30.796726 26.910654 -26.446932 48.703818 0.718159 2.144820 0.061631 -0.011399 1113960.000000 0 0 1
30.242826 26.564854 -27.875712 48.963000 0.720744 2.176477 0.062986 -0.010121 -336630.000000 0 0 1
30.105426 25.157754 -28.189522 48.310438 0.696107 2.193838 0.047253 -0.021958 -70899.800000 0 0 1
29.724526 25.040754 -29.566622 48.834127 0.700081 2.221127 0.058398 -0.025132 -91973.200000 0 0 1
28.882526 23.727154 -29.740282 47.766751 0.687717 2.242876 0.061300 -0.027815 196369.000000 0 0 1
27.565026 23.769254 -29.251682 46.695492 0.711590 2.247767 0.070570 -0.027636 -483579.000000 0 0 1
26.891026 22.578554 -29.535902 45.883416 0.698444 2.270141 0.086240 -0.035074 196970.000000 0 0 1
25.443726 22.581354 -28.974022 44.685509 0.725867 2.276275 0.082035 -0.025261 -28932.500000 0 0 1
25.346826 22.529754 -27.514302 43.670221 0.726626 2.252410 0.083969 -0.017185 -40024.700000 0 0 1
24.094926 22.636654 -26.875882 42.606298 0.754203 2.253375 0.076031 -0.019100 -142905.000000 0 0 1
24.267226 22.722754 -25.375112 41.822460 0.752542 2.222742 0.075972 -0.019656 -110432.000000 0 0 1
24.801326 21.595754 -24.707832 41.133433 0.716418 2.215142 0.067843 -0.014069 166141.000000 0 0 1
25.042226 21.856254 -23.357832 40.625081 0.717569 2.183353 0.065941 -0.008075 -67127.400000 0 0 1
25.476026 20.611254 -22.597932 39.806007 0.680232 2.174508 0.068665 -0.001467 -264007.000000 0 0 1
26.704226 20.072354 -23.022932 40.571794 0.644559 2.174216 0.058631 -0.001564 -168147.000000 0 0 1
26.832326 18.748454 -22.659532 39.811213 0.609871 2.176298 0.088191 -0.010372 544512.000000 0 0 1
28.092726 17.951154 -23.139332 40.581694 0.568601 2.177535 0.092094 -0.013160 565110.000000 0 0 1
29.339626 18.229754 -22.546632 41.249099 0.555960 2.149091 0.102774 -0.021846 301069.000000 0 0 1
30.383026 17.705954 -23.378332 42.227663 0.527645 2.157508 0.079081 -0.014743 4457.520000 0 0 1
31.692126 17.382254 -22.688932 42.676940 0.501670 2.131337 0.071610 -0.009385 -375062.000000 0 0 1
32.234226 18.518354 -22.016432 43.205301 0.521454 2.105490 0.050020 -0.000156 52308.300000 0 0 1
33.535426 18.264954 -21.519632 43.832955 0.498724 2.083972 0.055810 -0.007410 297654.000000 0 0 1
34.072626 19.370354 -20.569832 44.263670 0.516937 2.054105 0.030987 -0.013626 67678.700000 0 0 1
33.488726 19.288854 -19.257532 43.178782 0.522571 2.033082 0.054112 -0.011286 129733.000000 0 0 1
33.720226 20.413054 -18.445432 43.519885 0.544355 2.008476 0.026788 -0.003179 -170899.000000 0 0 1
33.110726 20.457954 -17.036632 42.486408 0.553452 1.983394 0.046426 -0.013679 -19209.800000 0 0 1
33.578926 19.385054 -16.195032 42.019087 0.523560 1.966460 0.055236 -0.021076 417614.000000 0 0 1
33.417126 19.667454 -14.838532 41.517407 0.531953 1.936284 0.068966 -0.017081 -124637.000000 0 0 1
34.012026 18.475954 -13.980332 41.153718 0.497622 1.917405 0.061768 -0.017373 -1179290.000000 0 0 1
35.386426 18.319454 -13.962332 42.222604 0.477705 1.907824 0.036791 -0.024400 -874017.000000 0 0 1
35.692926 17.210354 -13.157932 41.752993 0.449289 1.891398 0.023476 -0.011597 -130913.000000 0 0 1
35.677726 17.464854 -11.642832 41.394164 0.455226 1.855911 0.048321 -0.021322 -605805.000000 0 0 1
-36.511528 18.423754 -11.163632 42.392842 -0.467322 1.837277 0.040092 -0.024454 176169.000000 0 0 1
36.356826 19.091054 -9.951332 42.253002 0.483527 1.808548 0.049821 -0.021321 -680440.000000 0 0 1
35.250626 20.153654 -9.974932 41.812386 0.519369 1.811683 0.052841 -0.025157 -336846.000000 0 0 1
33.985726 19.528354 -10.085732 40.473549 0.521537 1.822643 0.077057 -0.034648 -349114.000000 0 0 1
32.977026 20.522654 -9.919632 40.088186 0.556678 1.820839 0.055556 -0.014507 -711263.000000 0 0 1
31.620326 19.869354 -10.051832 38.673965 0.561021 1.833728 0.035716 -0.013596 -914801.000000 0 0 1
31.136926 19.795154 -11.384432 38.612972 0.566289 1.870079 0.058326 -0.019209 -393014.000000 0 0 1
30.055226 18.930054 -11.447532 37.319024 0.562074 1.882571 0.057148 -0.021024 -545484.000000 0 0 1
29.785526 18.470754 -12.868432 37.335544 0.555086 1.922683 0.083302 -0.008880 34519.100000 0 0 1
30.705026 17.447254 -13.231832 37.713216 0.516725 1.929279 0.084352 -0.009659 460517.000000 0 0 1
30.220426 16.657754 -14.331832 37.365175 0.503771 1.964446 0.071545 -0.006364 353396.000000 0 0 1
31.435526 16.038654 -15.083132 38.378791 0.471781 1.974696 0.073993 -0.016652 196343.000000 0 0 1
32.108226 15.147654 -14.262632 38.259800 0.440809 1.952804 0.061853 -0.020626 -24746.600000 0 0 1
33.110126 14.392754 -14.916432 39.063176 0.410052 1.962598 0.053555 -0.019431 93445.700000 0 0 1
33.895026 13.398554 -14.049432 39.061241 0.376444 1.938718 0.032701 -0.024319 -414011.000000 0 0 1
34.707226 13.992454 -13.082832 39.642664 0.383225 1.907120 0.029261 -0.008651 186347.000000 0 0 1
35.475526 12.992354 -12.371732 39.753918 0.351064 1.887260 0.027342 -0.002821 -13781.900000 0 0 1
36.387226 13.682154 -11.372332 40.503845 0.359661 1.855394 0.046383 0.000211 -761455.000000 0 0 1
-35.648928 14.301254 -11.928632 40.220197 -0.381514 1.871909 0.021556 -0.004122 -384104.000000 0 0 1
-34.860428 15.039354 -10.981832 39.522554 -0.407293 1.852365 0.018713 0.002789 -959302.000000 0 0 1
-33.427528 15.271354 -11.416732 38.483187 -0.428535 1.871998 0.038593 -0.020181 -76296.700000 0 0 1
-32.631228 14.115654 -11.899232 37.491872 -0.408274 1.893763 0.044417 -0.014731 803474.000000 0 0 1
-32.463728 13.039654 -10.975032 36.665754 -0.381944 1.874783 0.053863 -0.004987 -892863.000000 0 0 1
-31.343328 12.006054 -11.196832 35.382462 -0.365809 1.892783 0.067872 -0.014530 -158771.000000 0 0 1
-31.494528 11.140454 -12.340032 35.613079 -0.339991 1.924637 0.050713 -0.015872 287394.000000 0 0 1
-30.572428 10.065954 -12.226132 34.430729 -0.318071 1.933811 0.084354 -0.023312 -70473.200000 0 0 1
-30.496628 9.129954 -13.475432 34.568594 -0.290884 1.971229 0.081124 -0.028562 72957.200000 0 0 1
-31.728528 8.462954 -13.686932 35.576020 -0.260662 1.965705 0.063438 -0.026529 332501.000000 0 0 1
-31.618628 7.549054 -14.789932 35.713694 -0.234366 1.997778 0.073391 -0.024057 712490.000000 0 0 1
-32.930628 7.150154 -15.576832 37.123964 -0.213809 2.003790 0.074657 -0.015617 804783.000000 0 0 1
-34.002628 6.550454 -14.877432 37.688528 -0.190314 1.976589 0.084820 -0.028004 786633.000000 0 0 1
-34.773928 5.685254 -15.757032 38.598345 -0.162058 1.991311 0.067805 -0.026457 681502.000000 0 0 1
-35.903828 4.926254 -14.981732 39.214859 -0.136356 1.962801 0.057779 -0.019400 325297.000000 0 0 1
36.319926 4.185054 -15.751232 39.808957 0.114722 1.977594 0.063641 -0.017598 -382044.000000 0 0 1
35.301426 3.746754 -14.932732 38.512535 0.105740 1.968972 0.072613 -0.018201 -371614.000000 0 0 1
34.282026 2.733254 -15.466232 37.708518 0.079560 1.993417 0.069660 -0.017782 79954.200000 0 0 1
34.902526 1.410354 -15.531832 38.228435 0.040386 1.989187 0.078441 -0.019166 1053080.000000 0 0 1
33.966626 0.303954 -15.355932 37.277724 0.008948 1.995371 0.057235 -0.021340 408034.000000 0 0 1
33.464226 0.090354 -13.935732 36.250065 0.002700 1.965390 0.060718 -0.019331 252628.000000 0 0 1
34.514626 -0.249846 -12.991932 36.879698 -0.007239 1.930801 0.073515 -0.015342 877267.000000 0 0 1
34.139626 -0.115546 -11.620532 36.063336 -0.003385 1.898876 0.071182 -0.004802 -212079.000000 0 0 1
34.253726 1.340454 -10.981332 35.995892 0.039113 1.880810 0.073183 -0.011063 615462.000000 0 0 1
33.187726 2.258454 -11.322732 35.138726 0.067946 1.898880 0.067617 -0.005874 972632.000000 0 0 1
33.645726 3.567454 -11.094332 35.606823 0.105635 1.887650 0.076524 -0.011962 -622017.000000 0 0 1
32.747126 4.667354 -11.569132 35.042878 0.141574 1.907251 0.080630 -0.008102 -615080.000000 0 0 1
32.652326 4.765954 -12.968932 35.455351 0.144937 1.945269 0.069181 -0.014818 282423.000000 0 0 1
31.953826 5.927154 -13.358032 35.137091 0.183407 1.960775 0.067968 -0.018809 -85010.100000 0 0 1
32.282926 6.316154 -14.827032 36.082156 0.193209 1.994264 0.046328 -0.011481 -74301.000000 0 0 1
31.817126 5.303654 -15.741232 35.892125 0.165173 2.024804 0.038717 -0.006666 335357.000000 0 0 1
32.096926 5.836954 -17.024632 36.798380 0.179888 2.051774 0.033229 -0.008399 -440526.000000 0 0 1
31.104326 6.905454 -17.608432 36.403589 0.218466 2.075674 0.049113 -0.010047 712954.000000 0 0 1
29.878426 6.445954 -18.169932 35.558643 0.212483 2.107127 0.048335 -0.018420 388854.000000 0 0 1
28.877626 5.936454 -17.348732 34.207269 0.202748 2.102689 0.042269 -0.014675 -605632.000000 0 0 1
27.498026 6.001154 -18.069232 33.446262 0.214870 2.141527 0.037909 -0.020495 81012.800000 0 0 1
27.345326 5.045054 -19.088132 33.727974 0.182443 2.172374 0.045549 -0.010465 -679493.000000 0 0 1
26.111426 5.229654 -19.664932 33.103858 0.197667 2.206865 0.034108 -0.006234 -921962.000000 0 0 1
25.566826 4.103254 -20.560932 33.064350 0.159134 2.241894 0.041668 0.006752 -264284.000000 0 0 1
25.144326 3.056354 -19.744232 32.115621 0.120959 2.232911 0.042641 -0.000335 140657.000000 0 0 1
24.851526 1.897154 -20.518632 32.283305 0.076192 2.259556 0.031981 -0.001376 -267020.000000 0 0 1
23.933126 0.932154 -19.710932 31.019096 0.038929 2.259381 0.035580 -0.004468 142205.000000 0 0 1
22.642626 1.500054 -19.608932 29.990814 0.066152 2.283433 0.036165 -0.006274 160275.000000 0 0 1
21.761926 0.813454 -18.734132 28.726483 0.037362 2.281221 0.047431 -0.008572 -580778.000000 0 0 1
20.446726 1.523354 -18.531032 27.636721 0.074366 2.305709 0.047374 -0.015137 -2285180.000000 0 0 1
19.672426 1.637954 -19.694732 27.884937 0.083070 2.355034 0.039099 -0.007168 187127.000000 0 0 1
18.660926 2.631054 -19.511732 27.126745 0.140069 2.373562 0.042082 -0.010391 656558.000000 0 0 1
17.449226 2.159254 -18.641832 25.625296 0.123119 2.385435 0.076777 -0.021630 -1011100.000000 0 0 1
17.720726 2.258854 -17.223832 24.815055 0.126786 2.337949 0.077250 -0.025437 192543.000000 0 1 0
16.568426 1.952254 -16.467332 23.441354 0.117289 2.349687 0.059217 -0.016817 602538.000000 0 1 0
15.582426 3.142754 -16.179532 22.681847 0.199016 2.365028 0.068380 -0.022361 322800.000000 0 1 0
15.014326 3.751454 -17.307832 23.217762 0.244845 2.412016 0.068923 -0.012918 257832.000000 0 1 0
13.899226 4.550154 -16.950732 22.387937 0.316372 2.429715 0.078622 -0.026076 176375.000000 0 1 0
-19.474474 -21.646146 -16.860232 33.646370 0.838161 2.095667 0.058478 -0.028387 33477.900000 0 0 1
-19.390174 -21.994746 -18.216232 34.519253 0.848251 2.126701 0.053285 -0.019326 875815.000000 0 0 1
-20.706474 -21.876146 -18.792432 35.503230 0.812860 2.128591 0.057995 -0.021411 753539.000000 0 0 1
-20.751974 -22.571646 -20.204832 36.720007 0.827375 2.153448 0.041455 -0.014759 -148070.000000 0 0 1
-20.568174 -23.987846 -20.217432 37.512813 0.861998 2.139983 0.033153 -0.007920 187096.000000 0 0 1
-20.263774 -24.555546 -21.501032 38.417311 0.880864 2.164784 0.038066 -0.004700 -152057.000000 0 0 1
-20.056274 -26.094746 -21.498332 39.311172 0.915501 2.149424 0.040524 -0.004440 -533018.000000 0 0 1
-21.256574 -26.795086 -21.378332 40.334250 0.900153 2.129431 0.044021 -0.000281 -500244.000000 0 0 1
-21.015074 -28.156796 -21.569132 41.227006 0.929630 2.121374 0.059412 -0.007143 -581376.000000 0 0 1
-22.197674 -29.026646 -21.939132 42.621690 0.917932 2.111502 0.056553 0.001840 -469609.000000 0 0 1
-22.747374 -28.749216 -23.211432 43.390449 0.901423 2.135237 0.044304 0.005008 -66992.500000 0 0 1
-22.268574 -29.665816 -24.166332 44.271454 0.926881 2.148220 0.045091 0.000059 -336286.000000 0 0 1
-22.813674 -29.315246 -25.530272 45.073742 0.909478 2.172941 0.042180 0.005494 486595.000000 0 0 1
-24.188374 -29.656406 -25.757132 46.130356 0.886603 2.163198 0.051397 0.007204 802979.000000 0 0 1
-24.775974 -28.966966 -26.859242 46.629957 0.863223 2.184633 0.051287 0.004394 -22930.500000 0 0 1
-24.185174 -29.207186 -28.249282 47.286408 0.879181 2.211061 0.064364 -0.018124 -391602.000000 0 0 1
-24.678674 -30.435826 -28.773322 48.613584 0.889479 2.204183 0.047789 -0.008071 193485.000000 0 0 1
-24.294774 -30.492496 -30.135062 49.276266 0.898043 2.228819 0.083839 -0.017486 115148.000000 0 0 1
-24.705174 -31.744326 -30.969782 50.765887 0.909456 2.226921 0.053612 -0.012422 -213440.000000 0 0 1
-24.036974 -32.940306 -30.688492 51.035512 0.940406 2.215944 0.059249 -0.017883 -212305.000000 0 0 1
-24.769674 -34.088268 -31.089282 52.364972 0.942418 2.206450 0.061285 -0.021515 -131876.000000 0 0 1
-23.989974 32.759888 -31.007332 51.089958 -0.938722 2.222971 0.076414 -0.026727 926918.000000 0 0 1
-22.884974 32.635407 -31.932662 51.073347 -0.959244 2.246224 0.083936 -0.033347 642268.000000 0 0 1
-22.157874 31.416303 -31.772222 49.874138 -0.956523 2.261459 0.085158 -0.023589 652551.000000 0 0 1
-20.860574 31.375713 -32.656422 49.860213 -0.984043 2.284925 0.075775 -0.014616 351024.000000 0 0 1
-20.964674 31.160933 -34.089918 50.721237 -0.978568 2.307842 0.065759 -0.008685 4266.570000 0 0 1
-20.757074 29.833593 33.732792 49.586295 -0.962920 0.822645 0.038598 0.001906 -10175.700000 0 0 1
-21.053774 29.535713 32.231349 48.522980 -0.951515 0.844307 0.025592 0.003931 133338.000000 0 0 1
-20.087274 30.162913 31.401721 47.951726 -0.983284 0.856797 0.020083 0.012365 497047.000000 0 0 1
-20.514774 30.143203 30.061171 47.256139 -0.973225 0.881321 0.037636 0.012123 -170120.000000 0 0 1
-20.011374 31.384863 29.278221 47.356932 -1.003179 0.904288 0.027843 -0.005278 276591.000000 0 0 1
-20.887174 32.542196 29.361311 48.552602 -1.000173 0.921367 0.028814 -0.001382 706521.000000 0 0 1
-20.309674 33.761775 28.931291 48.881080 -1.029232 0.937418 0.027432 -0.022165 87532.100000 0 0 1
-21.392274 -33.303836 28.987081 49.061449 0.999827 0.938706 0.044724 -0.030764 21597.000000 0 0 1
-21.618574 -33.108956 30.333471 49.836585 0.992348 0.916427 0.036580 -0.020368 6028.270000 0 0 1
-22.769274 -32.328446 30.581731 49.988104 0.957183 0.912487 0.043069 -0.025294 -13325.700000 0 0 1
-22.535674 -30.838506 30.150841 48.661518 0.939720 0.902559 0.053095 -0.019442 -420291.000000 0 0 1
-22.503974 -30.532866 28.764861 47.603592 0.935641 0.921962 0.029770 -0.012016 -22129.500000 0 0 1
-22.515774 -29.162106 28.567951 46.620986 0.913307 0.911235 0.024587 -0.017696 -160071.000000 0 0 1
-23.836474 -28.577156 28.042831 46.596478 0.875600 0.925015 0.019862 -0.006079 -490558.000000 0 0 1
-25.001274 -28.635616 28.801841 47.692854 0.853053 0.922408 0.032261 0.000490 -134892.000000 0 0 1
-25.875964 -29.742876 28.730661 48.781709 0.854812 0.941020 0.020538 -0.002879 740868.000000 0 0 1
-26.990924 -29.528316 27.622831 48.615350 0.830262 0.966490 0.001028 0.010519 462187.000000 0 0 1
-26.370924 -29.653996 26.323601 47.620553 0.843931 0.985102 0.001386 0.008151 295318.000000 0 0 1
-27.260004 -29.385816 25.278001 47.387882 0.822909 1.008149 -0.001008 0.008911 -209094.000000 0 0 1
-26.639034 -29.748316 23.897021 46.536739 0.840484 1.031528 0.000388 0.008467 -657708.000000 0 0 1
-25.839754 -28.701976 23.397911 45.154829 0.837828 1.026086 -0.013755 0.008332 217039.000000 0 0 1
-25.332424 -28.989676 22.104071 44.392826 0.852622 1.049598 0.009218 0.000868 13348.000000 0 0 1
-24.161074 -30.003606 22.029671 44.376574 0.892849 1.051320 0.015538 -0.013929 -1185720.000000 0 0 1
-24.454974 -31.346396 21.776771 45.330675 0.908275 1.069688 0.015693 -0.017028 468144.000000 0 0 1
-23.347774 -32.270286 21.693171 45.355084 0.944468 1.072083 0.037767 -0.017636 304908.000000 0 0 1
-22.669274 -32.727406 23.011671 45.983868 0.965007 1.046702 0.041624 -0.011324 -223937.000000 0 0 1
-21.867174 -31.716806 23.545471 45.149954 0.967186 1.022194 0.061990 -0.019679 -122229.000000 0 0 1
-21.309674 -32.216756 24.739351 45.870002 0.986416 1.001148 0.058730 -0.029689 -3023.700000 0 0 1
-20.279674 -31.261426 25.420491 45.108129 0.995327 0.972125 0.047133 -0.017674 -220474.000000 0 0 1
-19.109074 -31.078646 24.624391 44.015902 1.019521 0.977083 0.057799 -0.021640 -101947.000000 0 0 1
-18.141474 -30.321346 25.245551 43.426201 1.031623 0.950417 0.082682 -0.032124 65828.300000 0 0 1
-17.212574 -31.068216 26.304131 44.197444 1.064868 0.933343 0.068414 -0.031123 -210517.000000 0 0 1
-17.935274 -31.539296 27.445951 45.493752 1.053736 0.923176 0.062540 -0.024535 163705.000000 0 0 1
-17.130874 -32.263116 28.345001 46.236507 1.082678 0.910889 0.053283 -0.015336 -381950.000000 0 0 1
-17.492274 -31.928796 29.768691 47.027680 1.069603 0.885369 0.073603 -0.019306 -50454.000000 0 0 1
-17.114674 -30.587096 30.059191 46.173992 1.060659 0.861897 0.073029 -0.017671 309195.000000 0 0 1
-17.791074 -30.088286 31.201921 46.854959 1.036802 0.842062 0.077574 -0.017138 -183392.000000 0 0 1
-17.718074 -28.522096 31.399151 45.971152 1.014931 0.818909 0.075774 -0.018059 4628.930000 0 0 1
-18.628574 -27.688706 30.684831 45.334833 0.978569 0.827323 0.075794 -0.019161 46442.100000 0 0 1
-18.708574 -27.757476 29.243631 44.448602 0.977733 0.852743 0.085981 -0.015524 227354.000000 0 0 1
-17.497774 -27.230996 28.385211 43.051358 0.999663 0.850864 0.080409 -0.011958 435572.000000 0 0 1
-17.237774 -25.854646 28.408951 42.103113 0.982758 0.830174 0.074120 -0.006130 657652.000000 0 0 1
-16.063074 -25.574566 27.622431 40.927735 1.009980 0.829957 0.073670 -0.008387 724506.000000 0 0 1
-16.000274 -24.217046 26.974551 39.624494 0.986934 0.822004 0.077464 -0.006891 -27535.900000 0 0 1
-16.995974 -24.160546 25.982021 39.340317 0.957752 0.849388 0.077937 -0.017849 57176.700000 0 0 1
-16.834974 -22.958746 25.262941 38.062272 0.938088 0.845006 0.093558 -0.023872 104767.000000 0 0 1
-17.239274 -21.575646 25.884201 37.850931 0.896656 0.817776 0.080337 -0.016177 -500897.000000 0 0 1
-17.125074 -20.671446 24.855571 36.583825 0.878952 0.823832 0.091349 -0.016128 31698.800000 0 0 1
-17.226574 -19.346146 25.381281 36.266206 0.843288 0.795594 0.076004 -0.010297 -150906.000000 0 0 1
-16.918074 -18.286946 24.293221 34.796469 0.824261 0.797983 0.065098 -0.017062 -1286040.000000 0 0 1
-15.577674 -18.037946 24.293201 34.032206 0.858456 0.775845 0.073197 -0.022612 -1756320.000000 0 0 1
-15.296774 -16.878646 23.553751 32.766739 0.834523 0.768677 0.067439 -0.019797 -190383.000000 0 0 1
-13.861774 -16.366746 23.675851 31.946284 0.868077 0.736068 0.061740 -0.024216 -925669.000000 0 0 1
-12.913374 -17.120146 23.033371 31.470475 0.924562 0.749684 0.050801 -0.026287 29685.500000 0 0 1
-11.615674 -16.499146 23.040271 30.626782 0.957380 0.719263 0.036599 -0.028213 127117.000000 0 0 1
-11.190274 -15.841046 21.679671 29.088986 0.955781 0.729830 0.033475 -0.032482 -269162.000000 0 0 1
-10.540474 -16.675346 20.772471 28.647239 1.007108 0.759599 0.065515 -0.028437 1304020.000000 0 0 1
-9.153974 -16.953746 21.172671 28.627028 1.075711 0.738314 0.061628 -0.024503 751118.000000 0 0 1
-8.602674 -18.163546 20.351071 28.602212 1.128472 0.779136 0.067718 -0.024558 38500.300000 0 0 1
-8.605974 -17.917246 18.968171 27.475116 1.123018 0.808787 0.067458 -0.027263 -41074.900000 0 0 1
-8.020074 -19.018646 18.272771 27.566731 1.171728 0.846170 0.072735 -0.028368 373672.000000 0 0 1
-7.920874 -18.766546 16.774671 26.387745 1.171407 0.881882 0.052539 -0.029495 160633.000000 0 0 1
-6.765774 -17.997446 16.516871 25.347402 1.211211 0.861078 0.051255 -0.031328 -237635.000000 0 0 1
-6.479174 -17.797946 15.189271 24.278809 1.221668 0.894872 0.054640 -0.030312 49241.200000 0 1 0
-5.509474 -16.655846 14.943571 23.045213 1.251343 0.865255 0.042355 -0.028882 2362.740000 0 1 0
-6.114574 -15.478246 15.463171 22.717257 1.194570 0.822107 0.045462 -0.034983 8598.760000 0 1 0
-5.216874 -14.417446 15.648171 21.907619 1.223609 0.775202 0.030749 -0.025734 -355286.000000 0 1 0
-5.744574 -13.362846 16.684971 22.134906 1.164790 0.716992 0.023451 -0.018304 -117835.000000 0 1 0
-5.422174 -13.627546 18.063671 23.268137 1.192116 0.681980 0.034615 -0.017525 331721.000000 0 1 0
-6.279774 -14.658746 18.596171 24.497591 1.166051 0.708864 0.056801 -0.027678 810161.000000 0 1 0
-7.609774 -14.152746 19.221871 25.053727 1.077454 0.696291 0.059372 -0.032070 71538.800000 0 0 1
-7.357674 -13.350446 20.328871 25.409305 1.067095 0.643407 0.057431 -0.027991 116527.000000 0 0 1
-8.547974 -12.897946 20.952171 26.046465 0.985518 0.636106 0.058817 -0.022595 239873.000000 0 0 1
-8.143074 -12.048946 22.131071 26.481523 0.976475 0.581358 0.070980 -0.017742 -243069.000000 0 0 1
-7.767574 -10.720346 21.807371 25.511222 0.943774 0.545602 0.061584 -0.016376 118164.000000 0 0 1
-7.221974 -9.972546 22.871071 25.974882 0.944022 0.493865 0.055190 -0.015716 486592.000000 0 0 1
-5.755174 -10.289246 23.297921 26.110989 1.060812 0.468459 0.070578 -0.019747 131362.000000 0 0 1
-5.565774 -11.339346 24.190901 27.290260 1.114506 0.481222 0.077907 -0.016705 -181692.000000 0 0 1
-4.206374 -11.524546 24.500771 27.400667 1.220828 0.464229 0.069786 -0.018662 -342156.000000 0 0 1
-3.964074 -12.802046 25.304521 28.634334 1.270516 0.487060 0.074083 -0.020101 -734301.000000 0 0 1
-2.643174 -12.988146 25.707451 28.923198 1.370031 0.476038 0.055618 -0.022988 -548665.000000 0 0 1
-2.449974 -13.920546 26.742851 30.248373 1.396583 0.486213 0.053193 -0.024019 -205025.000000 0 0 1
-2.492474 -15.458546 26.413041 30.705501 1.410936 0.535124 0.056258 -0.031174 160602.000000 0 0 1
-1.362674 -15.880646 25.661081 30.208325 1.485199 0.555815 0.041832 -0.033587 133065.000000 0 0 1
-1.669774 -17.155946 25.096021 30.445442 1.473773 0.601841 0.058417 -0.033401 -474656.000000 0 0 1
-0.404474 -18.044946 24.962831 30.804653 1.548385 0.626032 0.060168 -0.036784 564524.000000 0 0 1
0.256126 -18.524646 26.134921 32.035328 -1.556971 0.616658 0.059883 -0.033832 231944.000000 0 0 1
0.802226 -17.477146 26.908191 32.095871 -1.524927 0.576512 0.063140 -0.035525 -1127900.000000 0 0 1
1.513526 -17.855346 28.208261 33.418710 -1.486232 0.565938 0.048430 -0.027082 -530044.000000 0 0 1
2.712826 -18.594946 28.042381 33.756578 -1.425928 0.590390 0.059403 -0.034371 699152.000000 0 0 1
3.525426 -18.658946 29.267761 34.888204 -1.384057 0.575535 0.056296 -0.035495 823554.000000 0 0 1
4.333726 -17.369746 29.500801 34.507775 -1.326290 0.545432 0.062791 -0.030053 -1156610.000000 0 0 1
3.593726 -16.359446 30.092921 34.440242 -1.354558 0.507891 0.049704 -0.034418 -270322.000000 0 0 1
4.367926 -15.517346 30.878471 34.833128 -1.296410 0.481139 0.057242 -0.038299 -32311.900000 0 0 1
3.441826 -14.377746 31.448211 34.749903 -1.335832 0.439447 0.046159 -0.030490 104510.000000 0 0 1
2.666326 -14.956846 32.452927 35.833072 -1.394382 0.437840 0.041057 -0.034816 -711745.000000 0 0 1
1.727126 -14.068346 32.948627 35.867999 -1.448641 0.406253 0.045354 -0.023674 -623430.000000 0 0 1
0.987826 -14.784746 34.062895 37.146270 -1.504082 0.410319 0.031517 -0.014573 320838.000000 0 0 1
1.769526 -14.833546 -32.931332 36.161277 -1.452065 2.715722 0.046567 -0.011710 490790.000000 0 0 1
1.001026 -15.416246 -31.898592 35.442671 -1.505954 2.690578 0.037909 -0.022030 -7762.240000 0 0 1
1.864626 -15.760646 -30.718392 34.575923 -1.453035 2.664716 0.035703 -0.022985 -101393.000000 0 0 1
1.112826 -16.420746 -29.718312 33.971420 -1.503130 2.635826 0.056720 -0.028871 242083.000000 0 0 1
1.836726 -16.491546 -28.495742 32.975021 -1.459880 2.614278 0.034791 -0.026130 103666.000000 0 0 1
1.381726 -17.780946 -27.770392 33.004029 -1.493244 2.570710 0.076173 -0.033856 -43769.400000 0 0 1
1.855226 -18.961746 -28.406642 34.204196 -1.473266 2.550804 0.075540 -0.032526 75948.300000 0 0 1
1.499926 -20.104046 -27.672282 34.237080 -1.496326 2.511978 0.101026 -0.038754 -176410.000000 0 0 1
2.530226 -21.307146 -27.816472 35.130509 -1.452600 2.484553 0.103311 -0.038394 -87301.400000 0 0 1
3.831826 -21.199946 -27.356082 34.820624 -1.391980 2.474508 0.086219 -0.037358 -610598.000000 0 0 1
3.946926 -20.965246 -25.939612 33.585462 -1.384714 2.453323 0.088655 -0.041973 -1237260.000000 0 0 1
5.395626 -21.026646 -25.409572 33.419740 -1.319607 2.434596 0.089847 -0.036962 264440.000000 0 0 1
6.085826 -22.301846 -25.440972 34.375176 -1.304398 2.404011 0.087031 -0.031551 505003.000000 0 0 1
6.368426 -22.843946 -26.743422 35.743718 -1.298920 2.416140 0.078314 -0.032390 -799119.000000 0 0 1
5.551926 -24.079446 -27.194862 36.745124 -1.344189 2.404007 0.049902 -0.031352 -116603.000000 0 0 1
5.778026 -25.213566 -26.348532 36.923633 -1.345523 2.365413 0.070387 -0.020915 91029.100000 0 0 1
4.998826 -26.317806 -26.742982 37.852375 -1.383091 2.355347 0.062173 -0.020654 -8555.530000 0 0 1
5.225426 -27.429126 -25.725582 37.966665 -1.382546 2.315268 0.073164 -0.027738 -901199.000000 0 0 1
6.558726 -27.706396 -25.490832 38.215754 -1.338353 2.301004 0.086626 -0.029885 -969294.000000 0 0 1
6.712826 -28.923856 -24.820832 38.700455 -1.342748 2.267063 0.081066 -0.033759 -338477.000000 0 0 1
8.164526 -29.411316 -24.791532 39.323086 -1.300016 2.252939 0.071110 -0.042742 -383743.000000 0 0 1
8.462626 -29.866286 -26.081442 40.544454 -1.294683 2.269571 0.072458 -0.042922 984023.000000 0 0 1
9.785326 -30.468916 -26.099572 41.295219 -1.260044 2.254959 0.134864 -0.027235 864877.000000 0 0 1
10.453626 -30.311486 -27.453992 42.211209 -1.238696 2.278902 0.133398 -0.050584 -443854.000000 0 0 1
9.859026 -30.965266 -28.551932 43.258074 -1.262555 2.291664 0.130339 -0.043836 -291852.000000 0 0 1
10.628026 -30.993376 -29.714142 44.232054 -1.240449 2.307403 0.126700 -0.025587 -408159.000000 0 0 1
-35.373403 -4.467446 -5.440932 36.067152 0.125629 1.722230 0.120399 -0.023000 -60194.100000 0 0 1
-35.419862 -3.721446 -4.184232 35.859777 0.104683 1.687746 0.143415 -0.030503 238813.000000 0 0 1
-34.561540 -2.607246 -4.162232 34.908766 0.075295 1.690312 0.142790 -0.032227 -127761.000000 0 0 1
-35.243036 -1.333446 -4.698032 35.579786 0.037818 1.703225 0.100292 -0.013515 96984.900000 0 0 1
-36.140434 -0.739346 -3.763732 36.343408 0.020455 1.674543 0.088350 -0.022246 369959.000000 0 0 1
36.428960 0.373554 -4.405032 36.696226 0.010254 1.691127 0.099395 -0.013484 33231.900000 0 0 1
35.730070 1.299254 -3.382932 35.913371 0.036347 1.665133 0.095770 -0.011163 -154425.000000 0 0 1
-36.467014 1.980554 -2.604532 36.613513 -0.054258 1.641992 0.098430 -0.011979 16028.000000 0 0 1
36.039490 2.978554 -1.858632 36.210097 0.082460 1.622148 0.103234 -0.026292 -158178.000000 0 0 1
-36.182424 4.211554 -1.749332 36.468687 -0.115876 1.618783 0.103790 -0.034246 -205686.000000 0 0 1
-35.906310 4.863054 -2.988332 36.357152 -0.134618 1.653083 0.114259 -0.028468 744764.000000 0 0 1
-34.643625 4.447154 -3.537832 35.106612 -0.127670 1.671742 0.081989 -0.020299 508392.000000 0 0 1
-33.536744 5.509654 -3.234032 34.139837 -0.162833 1.665668 0.066817 -0.027389 -444400.000000 0 0 1
-33.111724 5.553354 -1.914732 33.628741 -0.166169 1.627765 0.073842 -0.034570 281396.000000 0 0 1
-32.902894 6.932554 -1.534932 33.660314 -0.207660 1.616413 0.090108 -0.042918 -155253.000000 0 0 1
-32.319744 7.182554 -0.114132 33.108427 -0.218680 1.574244 0.099626 -0.042088 1411170.000000 0 0 1
-30.871324 7.010854 0.028768 31.657409 -0.223312 1.569888 0.128816 -0.036138 2048570.000000 0 0 1
-30.353864 7.415554 1.319268 31.274398 -0.239610 1.528600 0.134350 -0.043847 188307.000000 0 0 1
-30.315194 8.928754 1.599668 31.643207 -0.286432 1.520222 0.133419 -0.042119 -964828.000000 0 0 1
-31.590274 9.472154 1.662968 33.021699 -0.291314 1.520415 0.117902 -0.045570 -633194.000000 0 0 1
-31.620584 10.832654 1.933968 33.480561 -0.330051 1.513000 0.117614 -0.036627 368471.000000 0 0 1
-33.075504 11.405854 1.943368 35.040821 -0.332073 1.515308 0.132998 -0.036451 216694.000000 0 0 1
-33.754314 11.263854 0.703868 35.591060 -0.322082 1.551019 0.111997 -0.021634 373443.000000 0 0 1
-34.989237 11.968354 0.766868 36.987516 -0.329582 1.550062 0.115248 -0.007553 600770.000000 0 0 1
-36.258174 11.072054 0.853568 37.920629 -0.296373 1.548285 0.130952 -0.038429 75616.400000 0 0 1
36.556470 10.362254 -0.343732 37.998289 0.276213 1.579842 0.124668 -0.033390 187388.000000 0 0 1
35.460490 9.480354 -0.112132 36.706076 0.261240 1.573851 0.145201 -0.038759 431098.000000 0 0 1
35.222430 8.521554 -1.345732 36.263583 0.237374 1.607915 0.131979 -0.056602 136147.000000 0 0 1
34.667210 9.194754 -2.449832 35.949418 0.259260 1.638996 0.120754 -0.045067 85148.800000 0 0 1
34.344340 8.261354 -3.450832 35.492139 0.236060 1.668178 0.107478 -0.042620 161482.000000 0 0 1
33.726380 8.902154 -4.759832 35.204731 0.258066 1.706416 0.094140 -0.033594 -297194.000000 0 0 1
32.414850 9.348954 -4.635232 34.053059 0.280795 1.707338 0.115052 -0.034926 -382847.000000 0 0 1
31.895680 9.872354 -5.826632 33.893177 0.300168 1.743566 0.098818 -0.021077 113883.000000 0 0 1
30.420060 10.360954 -5.772332 32.650409 0.328273 1.748523 0.106011 -0.022460 -22325.300000 0 0 1
29.485140 9.323254 -5.761032 31.456097 0.306254 1.754981 0.094574 -0.013901 317606.000000 0 0 1
28.180210 9.887154 -5.786132 30.419720 0.337436 1.762172 0.081245 -0.003428 -599446.000000 0 0 1
27.043480 8.929854 -5.949132 29.094403 0.318931 1.776726 0.090881 0.004141 -921633.000000 0 0 1
26.948680 8.313754 -7.201732 29.106955 0.299240 1.820816 0.098015 -0.002878 214401.000000 0 0 1
26.018780 7.238554 -7.214932 27.954048 0.271343 1.831851 0.101846 -0.009174 -8566.930000 0 0 1
26.240480 6.173454 -8.272132 28.197562 0.231063 1.868539 0.117401 -0.023228 259221.000000 0 0 1
27.368780 5.312454 -8.132532 29.041528 0.191722 1.854623 0.108374 -0.020719 664515.000000 0 0 1
27.215480 4.193054 -9.013232 28.974168 0.152867 1.887124 0.099643 -0.023551 -176749.000000 0 0 1
28.271520 3.045754 -8.892432 29.793134 0.107318 1.873888 0.084959 -0.015657 222910.000000 0 0 1
29.567860 3.423554 -9.362432 31.203112 0.115273 1.875539 0.098560 -0.005617 712105.000000 0 0 1
30.671660 3.154754 -8.543232 31.995156 0.102495 1.841092 0.078239 -0.013865 105983.000000 0 0 1
31.075390 1.662954 -8.277032 32.201779 0.053463 1.830751 0.069467 -0.008949 -751591.000000 0 0 1
30.202730 1.192054 -7.265532 31.087198 0.039448 1.806693 0.080062 -0.013395 535229.000000 0 0 1
30.419620 -0.187546 -6.838732 31.179428 -0.006165 1.791929 0.081993 -0.015376 -395015.000000 0 0 1
30.134430 -1.288346 -7.882132 31.174857 -0.042727 1.826407 0.064742 -0.011836 -1111270.000000 0 0 1
31.108690 -1.470646 -8.808832 32.365242 -0.047239 1.846443 0.056416 -0.009917 -616337.000000 0 0 1
30.734760 -2.647846 -9.493732 32.276424 -0.085939 1.869350 0.042578 -0.018757 251283.000000 0 0 1
31.697830 -3.007646 -10.677832 33.582949 -0.094602 1.894367 0.052231 -0.017709 -137012.000000 0 0 1
32.992930 -3.411646 -10.332032 34.740807 -0.103039 1.872768 0.059788 -0.006591 -226522.000000 0 0 1
33.700410 -3.708146 -11.521832 35.808108 -0.109592 1.898390 0.067761 -0.024322 123263.000000 0 0 1
35.140790 -4.237046 -11.300132 37.155359 -0.119994 1.879823 0.080634 -0.012095 -24288.900000 0 0 1
35.199710 -5.423346 -10.497732 37.129970 -0.152872 1.857435 0.071052 -0.013409 1155660.000000 0 0 1
36.525720 -5.833446 -10.081532 38.337900 -0.158370 1.836891 0.088615 -0.008691 942706.000000 0 0 1
36.494410 -7.014246 -9.069132 38.252984 -0.189885 1.810158 0.088558 -0.018591 -218622.000000 0 0 1
35.996400 -6.701846 -7.801932 37.436956 -0.184073 1.780737 0.081701 -0.013071 400965.000000 0 0 1
35.759950 -7.905446 -7.061232 37.297870 -0.217571 1.761266 0.079167 -0.020969 -1346.280000 0 0 1
35.292370 -7.698146 -5.570532 36.549195 -0.214761 1.723805 0.086700 -0.018422 -690430.000000 0 0 1
36.396660 -7.520846 -4.744832 37.467231 -0.203768 1.697777 0.095431 -0.018963 101746.000000 0 0 1
36.496620 -8.579546 -3.810332 37.684619 -0.230886 1.672080 0.111774 -0.015782 -231348.000000 0 0 1
-35.932524 -9.850546 -4.296332 37.505173 0.267567 1.685601 0.109321 -0.016282 -732547.000000 0 0 1
36.434750 -10.662046 -5.185632 38.315284 -0.284685 1.706554 0.087988 -0.011723 331864.000000 0 0 1
-35.921078 -11.671846 -5.728832 38.201772 0.314169 1.721327 0.071310 -0.010532 -318334.000000 0 0 1
-36.548094 -12.312746 -6.979532 39.192866 0.324950 1.749833 0.069260 -0.021735 18780.500000 0 0 1
36.503640 -11.379246 -8.008232 39.065775 -0.302182 1.777253 0.072131 -0.020737 264187.000000 0 0 1
36.090430 -12.037546 -9.202632 39.142178 -0.321935 1.808126 0.081840 -0.019617 -26042.000000 0 0 1
36.219930 -11.142246 -10.476032 39.316412 -0.298440 1.840509 0.066119 -0.029226 -580200.000000 0 0 1
35.201690 -10.180946 -10.553832 38.133896 -0.281536 1.851214 0.060606 -0.027913 202059.000000 0 0 1
35.384410 -9.397046 -11.730332 38.444267 -0.259578 1.880867 0.064313 -0.027407 -314778.000000 0 0 1
34.155290 -8.574446 -12.135732 37.247563 -0.245960 1.902668 0.064988 -0.023923 -278667.000000 0 0 1
34.540440 -7.784146 -13.252132 37.805475 -0.221660 1.928938 0.069017 -0.020550 402389.000000 0 0 1
33.511610 -6.881346 -13.556132 36.798772 -0.202527 1.948068 0.065574 -0.025454 -234602.000000 0 0 1
33.739470 -6.093146 -14.817332 37.350122 -0.178668 1.978731 0.064195 -0.030075 326711.000000 0 0 1
34.774670 -5.084846 -14.753932 38.115769 -0.145194 1.968261 0.075880 -0.020332 567931.000000 0 0 1
34.589780 -3.961246 -15.572332 38.139768 -0.114024 1.991383 0.067302 -0.019630 -186718.000000 0 0 1
35.763970 -2.971446 -15.754032 39.192864 -0.082895 1.984455 0.071746 -0.022853 -1026140.000000 0 0 1
-36.471904 -3.363146 -16.736932 40.269535 0.091952 1.999424 0.080890 -0.021855 1531470.000000 0 0 1
-35.149659 -2.697446 -16.626532 38.977126 0.076592 2.011495 0.107232 -0.021967 1818330.000000 0 0 1
-35.003355 -1.174546 -16.467932 38.701514 0.033543 2.010323 0.103928 -0.019509 -1069430.000000 0 0 1
-35.471191 -0.359246 -17.524932 39.565866 0.010127 2.029661 0.093064 -0.018647 141357.000000 0 0 1
-35.388412 1.025554 -17.207132 39.363395 -0.028972 2.023207 0.109050 -0.023687 -21461.900000 0 0 1
-35.696252 2.008954 -18.330932 40.178121 -0.056220 2.044563 0.079232 -0.020719 402148.000000 0 0 1
-34.654489 2.016954 -19.309432 39.722234 -0.058136 2.078431 0.089715 -0.018072 532011.000000 0 0 1
-34.766278 3.198354 -20.105232 40.288260 -0.091738 2.093281 0.083119 -0.017543 200365.000000 0 0 1
-33.783454 3.142354 -21.338632 40.081584 -0.092748 2.132206 0.081506 -0.011224 -229900.000000 0 0 1
-32.428454 3.224254 -20.999732 38.768405 -0.099101 2.143220 0.082545 -0.013505 -368196.000000 0 0 1
-31.763054 3.703954 -22.123432 38.885179 -0.116088 2.176016 0.061545 -0.006232 -55118.600000 0 0 1
-30.327004 4.239054 -21.868932 37.629071 -0.138878 2.190963 0.071303 -0.009037 490670.000000 0 0 1
-29.358934 3.247054 -21.519032 36.545302 -0.110151 2.200409 0.077149 -0.000299 -53480.100000 0 0 1
-28.158494 3.908554 -21.209432 35.468544 -0.137924 2.211773 0.053200 0.003405 -115893.000000 0 0 1
-27.077594 2.894454 -20.719032 34.217719 -0.106490 2.221198 0.078671 0.003688 139022.000000 0 0 1
-26.661724 3.168454 -19.376832 33.111150 -0.118284 2.195930 0.082182 0.007260 390138.000000 0 0 1
-26.103324 2.015954 -18.689432 32.167413 -0.077077 2.190759 0.087683 -0.004280 -288425.000000 0 0 1
-25.310844 2.229354 -17.426632 30.810653 -0.087852 2.171962 0.094616 -0.016569 79758.400000 0 0 1
-24.089674 2.933154 -17.621732 29.990686 -0.121163 2.198853 0.085077 -0.011579 632751.000000 0 0 1
-23.438274 3.254954 -16.365532 28.771133 -0.137991 2.175864 0.094551 -0.021276 125053.000000 0 0 1
-22.388174 4.396554 -16.480532 28.145479 -0.193911 2.196352 0.084635 -0.026953 -381754.000000 0 0 1
-21.241874 3.803454 -17.014432 27.480436 -0.177177 2.238452 0.103444 -0.037767 -477146.000000 0 0 1
-20.252574 4.796454 -17.226432 27.017082 -0.232547 2.262192 0.087253 -0.032396 129835.000000 0 0 1
-18.889174 4.291554 -17.758332 26.278826 -0.223404 2.312799 0.113253 -0.033614 417309.000000 0 0 1
-18.064274 3.484254 -16.877332 24.966024 -0.190541 2.313134 0.108304 -0.033170 170483.000000 0 1 0
-17.137174 2.808554 -17.662532 24.769654 -0.162443 2.364666 0.093795 -0.033400 -923485.000000 0 1 0
-16.976074 1.346854 -17.245132 24.236248 -0.079173 2.362488 0.077865 -0.024243 5754.830000 0 1 0
-17.918874 0.397654 -17.680432 25.176216 -0.022188 2.349374 0.072421 -0.022765 1054280.000000 0 0 1
-19.268974 0.523654 -17.184432 25.823871 -0.027169 2.298890 0.082249 -0.023633 306790.000000 0 0 1
-20.240674 -0.535846 -17.605932 26.831714 0.026468 2.286517 0.074851 -0.015291 -670629.000000 0 0 1
-20.220574 -1.791446 -16.893832 26.409893 0.088365 2.264876 0.059492 -0.021774 295463.000000 0 0 1
-21.203774 -2.650746 -17.465732 27.598520 0.124368 2.256025 0.075162 -0.018976 110359.000000 0 0 1
-21.550774 -3.827646 -16.561932 27.447848 0.175778 2.218550 0.091597 -0.029344 70146.100000 0 0 1
-22.192874 -3.399046 -15.365532 27.206190 0.151978 2.170964 0.091843 -0.029262 244360.000000 0 0 1
-22.914874 -4.429046 -14.750632 27.609583 0.190928 2.134426 0.107769 -0.041345 5985.110000 0 0 1
-23.047774 -4.245146 -13.233732 26.913804 0.182147 2.084846 0.098837 -0.029379 87935.200000 0 0 1
-24.047774 -3.290346 -12.913732 27.493387 0.135981 2.059751 0.089649 -0.032275 422894.000000 0 0 1
-24.135374 -3.036946 -11.501232 26.907577 0.125172 2.012450 0.099768 -0.045433 -420979.000000 0 0 1
-25.114934 -1.917746 -11.132432 27.538495 0.076211 1.986955 0.132381 -0.048746 -468024.000000 0 0 1
-25.328144 -1.744446 -9.736932 27.191282 0.068765 1.937018 0.131920 -0.056611 187627.000000 0 0 1
-26.015934 -0.582746 -9.547532 27.718654 0.022396 1.922443 0.141623 -0.060140 -659978.000000 0 0 1
-26.179224 -0.165746 -8.075832 27.397049 0.006331 1.870011 0.162063 -0.045515 -420034.000000 0 0 1
-25.114874 0.587954 -7.575532 26.239117 -0.023406 1.863677 0.139627 -0.037161 14970.300000 0 0 1
-25.234954 0.782954 -6.177832 25.991951 -0.031017 1.810776 0.142242 -0.034947 -652877.000000 0 0 1
-23.966974 1.294254 -5.525132 24.629617 -0.053949 1.797051 0.086200 -0.020352 -649059.000000 0 1 0
-23.749274 2.677954 -5.647932 24.558066 -0.112285 1.802856 0.121580 -0.023740 813336.000000 0 1 0
-22.370674 3.054354 -5.559232 23.252553 -0.135695 1.812215 0.100454 -0.006510 420260.000000 0 1 0
-22.217774 4.555354 -5.736232 23.394125 -0.202229 1.818522 0.119477 -0.015938 -230618.000000 0 1 0
-22.645874 5.268554 -4.573332 23.696174 -0.228583 1.765014 0.117663 -0.014687 709214.000000 0 1 0
-22.478674 6.649054 -4.837532 23.935380 -0.287593 1.774306 0.132860 -0.019010 -724138.000000 0 1 0
-22.904974 7.549054 -3.700132 24.399119 -0.318370 1.723034 0.126225 -0.013870 -468879.000000 0 1 0
-22.173074 7.462254 -2.494732 23.527731 -0.324639 1.677030 0.102808 -0.010752 -66984.400000 0 1 0
-20.830474 7.829854 -2.491232 22.392443 -0.359546 1.682280 0.116146 -0.012601 -893602.000000 0 1 0
-20.444674 9.325254 -2.582732 22.618920 -0.427933 1.685231 0.108342 -0.016457 -690487.000000 0 1 0
-20.417374 9.754854 -3.910132 22.963351 -0.445708 1.741907 0.100531 -0.017245 582321.000000 0 1 0
-19.951974 11.089254 -4.019732 23.177814 -0.507283 1.745108 0.103127 -0.014684 -286107.000000 0 1 0
-19.865074 11.510554 -5.520332 23.613303 -0.525162 1.806761 0.104285 -0.015437 -324506.000000 0 1 0
-18.752974 11.023954 -6.219532 22.624858 -0.531438 1.849280 0.079180 -0.014193 -77107.300000 0 1 0
-18.791974 11.578654 -7.518532 23.318058 -0.552209 1.899096 0.084765 -0.010997 640406.000000 0 1 0
-17.423874 11.518654 -8.302332 22.476643 -0.584128 1.949134 0.071502 -0.003029 666288.000000 0 1 0
-16.902774 10.223954 -8.647832 21.564276 -0.543992 1.983433 0.044028 0.000446 654664.000000 0 1 0
-17.672674 9.410654 -9.569832 22.191564 -0.489306 2.016660 0.052554 -0.005386 304349.000000 0 1 0
-17.966974 9.968154 -11.022032 23.316549 -0.506524 2.063163 0.067066 -0.006666 99571.000000 0 1 0
-16.845574 9.836754 -11.856432 22.827836 -0.528525 2.116927 0.061983 -0.006262 -77007.300000 0 1 0
-16.962074 10.521854 -13.077432 23.862955 -0.555224 2.150794 0.073508 -0.013222 21908.300000 0 1 0
-15.839374 10.090954 -14.052632 23.456121 -0.567239 2.213177 0.063685 -0.006306 -51184.900000 0 1 0
-15.889574 8.801554 -14.660532 23.342603 -0.505848 2.249853 0.069313 -0.023161 77997.000000 0 1 0
-15.643374 7.712454 -13.819832 22.252750 -0.458046 2.240864 0.055212 -0.020656 -281794.000000 0 1 0
-15.678974 6.364454 -14.608232 22.354797 -0.385602 2.282958 0.062298 -0.023072 825853.000000 0 1 0
-14.486474 6.080154 -15.396932 21.997539 -0.397384 2.346108 0.062050 -0.030448 1356880.000000 0 1 0
-14.410074 4.739354 -15.802832 21.905278 -0.317748 2.376642 0.057536 -0.042930 -194550.000000 0 1 0
32.323400 -16.020646 28.477451 45.961163 -0.460150 0.902566 0.053667 -0.019071 -184992.000000 0 0 1
31.432660 -14.962546 28.730801 45.137001 -0.444279 0.880813 0.069492 -0.015372 365480.000000 0 0 1
30.488720 -14.974146 29.828221 45.205197 -0.456532 0.850190 0.080326 -0.016623 617279.000000 0 0 1
31.063890 -14.972846 31.228121 46.522542 -0.449146 0.834906 0.072561 -0.024258 -263127.000000 0 0 1
31.853450 -13.870846 31.576771 46.948217 -0.410695 0.833097 0.067359 -0.025670 -6415.800000 0 0 1
32.139030 -13.912346 32.966662 48.096481 -0.408526 0.815605 0.060784 -0.027471 -102393.000000 0 0 1
32.463820 -12.559946 33.571246 48.359905 -0.369154 0.803494 0.062892 -0.022476 -12646.900000 0 0 1
32.044690 -12.338046 -33.307762 47.838233 -0.367532 2.340968 0.060038 -0.031699 213339.000000 0 0 1
32.135190 -10.976246 -33.051142 47.386986 -0.329140 2.342661 0.072928 -0.026309 -365011.000000 0 0 1
31.763660 -10.613446 -31.609452 46.051415 -0.322475 2.327316 0.067614 -0.022008 110073.000000 0 0 1
30.376760 -10.791846 -31.389862 44.994833 -0.341359 2.342884 0.098117 -0.025263 124297.000000 0 0 1
30.049220 -10.114846 -30.238212 43.813414 -0.324696 2.332505 0.072707 -0.019177 260656.000000 0 0 1
28.752850 -10.718346 -29.603402 42.637668 -0.356819 2.338245 0.079405 -0.015955 381536.000000 0 0 1
28.435590 -10.120346 -28.348222 41.408042 -0.341925 2.324860 0.062834 -0.012762 353755.000000 0 0 1
27.397280 -10.920846 -27.775632 40.513721 -0.379308 2.326204 0.073845 -0.014551 -265771.000000 0 0 1
26.868080 -10.536746 -26.363722 39.089162 -0.373735 2.311017 0.061921 -0.005741 364702.000000 0 0 1
25.886280 -9.471846 -26.239582 38.056945 -0.350771 2.331570 0.056227 -0.012110 1538310.000000 0 0 1
24.694180 -9.411046 -27.045892 37.813366 -0.364111 2.367774 0.046574 -0.016659 831505.000000 0 0 1
23.663580 -10.570746 -26.852762 37.319922 -0.420114 2.373920 0.053425 -0.005850 -688542.000000 0 0 1
24.111180 -11.742446 -27.492502 38.406663 -0.453204 2.368603 0.052280 -0.010171 452888.000000 0 0 1
23.230580 -12.853446 -27.216852 38.021415 -0.505372 2.368608 0.045284 -0.015279 499240.000000 0 0 1
23.797680 -14.151046 -27.855862 39.275065 -0.536469 2.359231 0.066553 -0.001265 178274.000000 0 0 1
23.826580 -14.059946 -29.268792 40.274685 -0.533105 2.384345 0.062384 -0.009323 411473.000000 0 0 1
24.854580 -14.839446 -29.882782 41.604567 -0.538248 2.372091 0.064981 -0.003998 91434.000000 0 0 1
25.015780 -14.878246 -31.465912 42.863214 -0.536554 2.395138 0.070637 -0.010816 207082.000000 0 0 1
23.940880 -15.660446 -32.043512 42.955815 -0.579273 2.412778 0.069404 -0.007616 712500.000000 0 0 1
23.977880 -15.962446 -33.443732 44.138664 -0.587344 2.430573 0.056378 -0.003801 -76155.200000 0 0 1
24.189280 -14.722946 33.819739 44.109649 -0.546760 0.697080 0.050719 -0.013674 -72371.900000 0 0 1
23.044480 -13.916946 33.689663 43.124504 -0.543294 0.674181 0.037096 -0.009190 -303593.000000 0 0 1
23.250580 -12.834746 32.825832 42.223873 -0.504391 0.680237 0.030976 -0.010581 -1002240.000000 0 0 1
22.196180 -11.724746 32.714360 41.235536 -0.485978 0.654498 0.036174 -0.017443 -865006.000000 0 0 1
20.926580 -12.181746 32.372466 40.426393 -0.527167 0.642207 0.033422 -0.016954 -326893.000000 0 0 1
20.710080 -12.579546 31.017341 39.360232 -0.545852 0.663182 0.030980 -0.014586 132057.000000 0 0 1
19.176380 -12.897046 30.838271 38.536558 -0.592064 0.643111 0.036440 -0.008695 1594210.000000 0 0 1
18.285580 -11.771646 31.045931 37.904933 -0.571981 0.611048 0.037517 -0.016776 693860.000000 0 0 1
17.418980 -11.931246 32.171401 38.480834 -0.600558 0.580776 0.027332 -0.014971 641816.000000 0 0 1
16.623280 -10.604246 32.554571 38.060262 -0.567833 0.544584 0.033463 -0.016166 155484.000000 0 0 1
15.698080 -10.102046 31.569691 36.675966 -0.571807 0.534009 0.049545 -0.018616 1074630.000000 0 0 1
14.877680 -8.936846 31.917421 36.330901 -0.540925 0.498041 0.053297 -0.017547 966315.000000 0 0 1
13.907880 -9.070546 33.127120 37.055499 -0.577912 0.464632 0.053986 -0.020532 -1310550.000000 0 0 1
13.042580 -10.171046 33.032952 36.942320 -0.662323 0.464208 0.058370 -0.013637 -642617.000000 0 0 1
11.877880 -10.046146 33.763179 37.174741 -0.702043 0.431764 0.061391 -0.020277 -412415.000000 0 0 1
10.765080 -9.227946 33.024902 35.940035 -0.708666 0.405541 0.090815 -0.020999 -658898.000000 0 0 1
11.060280 -7.840746 32.877680 35.563309 -0.616681 0.391119 0.066663 -0.019922 72689.000000 0 0 1
9.932880 -7.260546 32.286540 34.551387 -0.631204 0.364085 0.086880 -0.013730 -164751.000000 0 0 1
10.131280 -5.714946 32.151141 34.190632 -0.513596 0.347140 0.069166 -0.011532 29577.500000 0 0 1
10.283080 -5.024746 33.393669 35.300523 -0.454520 0.330185 0.065287 -0.013746 54594.600000 0 0 1
10.689780 -3.757346 33.140205 35.023739 -0.338001 0.329447 0.024093 -0.007009 -227698.000000 0 0 1
10.764780 -2.874546 -33.798652 35.587813 -0.260944 2.823154 0.030148 -0.015836 -819075.000000 0 0 1
9.517180 -2.370146 -33.485302 34.892116 -0.244074 2.856662 0.042285 -0.008401 -834889.000000 0 0 1
9.558580 -1.461246 -32.422772 33.833975 -0.151698 2.851755 0.056728 -0.011522 288840.000000 0 0 1
8.146080 -1.109646 -31.872092 32.915349 -0.135385 2.889149 0.055993 -0.005642 490812.000000 0 0 1
7.326780 -0.369946 -32.754562 33.566053 -0.050449 2.921257 0.053452 -0.011118 109539.000000 0 0 1
6.059780 -0.073246 -32.203232 32.768498 -0.012087 2.955581 0.064724 -0.010875 315475.000000 0 0 1
5.205580 0.970254 -33.005532 33.427603 0.184273 2.982514 0.091490 -0.014575 340532.000000 0 0 1
5.693880 2.337354 -32.990932 33.560172 0.389528 2.957148 0.073214 -0.024707 114005.000000 0 0 1
5.022880 3.050554 -34.002032 34.506136 0.545793 2.970451 0.093713 -0.022178 196317.000000 0 0 1
5.893680 4.298954 33.935010 34.710249 0.630198 0.211746 0.071888 -0.018854 337266.000000 0 0 1
5.439580 5.029854 32.847835 33.672967 0.746283 0.221833 0.090536 -0.031353 -324532.000000 0 0 1
6.313480 6.075954 32.621627 33.777919 0.766229 0.262409 0.078016 -0.030249 -172697.000000 0 0 1
5.712180 7.093154 31.563581 32.851202 0.892827 0.280907 0.090213 -0.027894 1446610.000000 0 0 1
4.487780 7.749254 32.082481 33.308808 1.045868 0.272195 0.094801 -0.032902 1393810.000000 0 0 1
4.159680 9.054354 31.654971 33.186164 1.140143 0.304955 0.095584 -0.032939 -114605.000000 0 0 1
3.973980 9.098554 30.074421 31.670917 1.158998 0.318867 0.095150 -0.039148 -313586.000000 0 0 1
2.759880 8.447754 29.710841 31.011539 1.255028 0.290651 0.104879 -0.042256 23123.900000 0 0 1
2.361980 8.911754 28.457071 29.913261 1.311712 0.313307 0.083679 -0.038043 521560.000000 0 0 1
1.109480 8.167654 27.903741 29.095709 1.435784 0.287228 0.077763 -0.030710 898935.000000 0 0 1
-0.097220 8.265354 28.668861 29.836708 -1.559035 0.280711 0.080728 -0.026690 358279.000000 0 0 1
-1.185620 7.951454 27.817291 28.955708 -1.422780 0.281340 0.078116 -0.025172 155646.000000 0 0 1
-2.604120 8.158754 28.348041 29.613479 -1.261836 0.293393 0.081030 -0.022489 -16010.600000 0 0 1
-3.030120 9.539454 28.359391 30.073874 -1.263235 0.339291 0.076927 -0.023853 -95147.000000 0 0 1
-4.296820 9.613754 28.977921 30.831913 -1.150486 0.348553 0.065783 -0.007162 -158867.000000 0 0 1
-4.391520 10.908554 29.818461 32.053434 -1.188071 0.375639 0.060091 -0.000604 -74925.900000 0 0 1
-4.607620 12.192554 29.172771 31.952138 -1.209482 0.420182 0.048362 -0.007729 -130843.000000 0 0 1
-5.837820 12.321854 28.521901 31.613400 -1.128346 0.445932 0.051364 -0.008464 -454785.000000 0 0 1
-6.065020 13.778054 28.019451 31.807371 -1.156127 0.493014 0.034695 -0.005648 388331.000000 0 0 1
-5.184220 14.201854 26.957991 30.907961 -1.220788 0.511110 0.030646 0.000425 217893.000000 0 0 1
-5.352020 15.625254 26.664191 31.365136 -1.240797 0.554579 0.019207 0.003930 207484.000000 0 0 1
-4.162420 16.305854 25.922261 30.905828 -1.320862 0.575813 0.034686 -0.000207 125749.000000 0 0 1
-3.952120 15.927954 24.609191 29.579237 -1.327583 0.588138 0.015093 0.007974 -48562.000000 0 0 1
-3.054820 16.811954 23.953101 29.423201 -1.391052 0.619638 0.020143 0.005776 41745.000000 0 0 1
-2.899220 16.629954 22.416871 28.062020 -1.398194 0.645443 0.024227 -0.000880 83754.600000 0 0 1
-2.378820 15.333454 21.979871 26.905173 -1.416884 0.614714 0.007561 -0.002567 293548.000000 0 0 1
-2.412020 15.262054 20.569171 25.726230 -1.414052 0.644266 0.005134 -0.005845 -706941.000000 0 0 1
-1.390520 14.305854 20.031171 24.654387 -1.473901 0.622405 0.004850 -0.005408 -606197.000000 0 1 0
-1.759420 12.936754 20.165571 24.023018 -1.435624 0.574568 0.013518 -0.005494 452447.000000 0 1 0
-0.899620 12.048754 19.413471 22.866234 -1.496270 0.556703 0.019439 -0.003775 192244.000000 0 1 0
-1.522720 10.635254 19.261971 22.055630 -1.428586 0.508788 0.002072 -0.008833 -463504.000000 0 1 0
-1.680020 9.753054 20.386571 22.661792 -1.400215 0.451941 0.010710 -0.019320 417173.000000 0 1 0
-2.619620 10.111554 21.400871 23.813929 -1.317298 0.454068 0.034474 -0.016859 -393302.000000 0 1 0
-4.108420 10.145254 21.086871 23.758397 -1.186022 0.478787 0.028047 -0.010576 -790899.000000 0 1 0
-4.750820 8.873454 20.838271 23.141781 -1.079234 0.449968 0.035575 -0.019040 332013.000000 0 1 0
-6.127720 9.135554 21.105771 23.800438 -0.979969 0.480464 0.038892 -0.003971 408072.000000 0 1 0
-6.954020 7.806854 21.080571 23.530742 -0.843111 0.460403 0.039453 -0.009049 127.348000 0 1 0
-6.932320 7.048754 22.278271 24.373415 -0.793726 0.417662 0.051710 -0.014199 552256.000000 0 1 0
-8.020920 6.122254 22.155571 24.345153 -0.651950 0.427365 0.048654 -0.015599 667717.000000 0 1 0
-8.123020 5.159754 23.365461 25.269572 -0.565902 0.390686 0.048262 -0.018031 -213196.000000 0 0 1
-8.625420 5.719354 24.508131 26.603710 -0.585516 0.399566 0.039820 -0.010603 -181404.000000 0 0 1
-9.026720 4.683354 25.423261 27.381703 -0.478600 0.380508 0.031240 0.004393 111970.000000 0 0 1
-10.051520 5.228454 26.455581 28.779638 -0.479650 0.404634 0.025989 0.006552 -112630.000000 0 0 1
-9.441420 6.102254 27.382341 29.600178 -0.573789 0.389567 0.033493 0.007632 -296245.000000 0 0 1
-10.271520 6.479154 28.450191 30.933751 -0.562751 0.403446 0.029372 -0.003296 -181108.000000 0 0 1
-9.797020 7.760354 29.220321 31.780998 -0.669914 0.404174 0.040430 -0.006145 -430767.000000 0 0 1
-8.706820 7.520054 30.032821 32.161005 -0.712392 0.365830 0.051359 -0.004605 -533547.000000 0 0 1
-8.487520 8.654554 30.856131 33.151774 -0.795142 0.374328 0.048459 -0.011846 107893.000000 0 0 1
-7.529620 8.354054 32.035981 33.952754 -0.837256 0.337619 0.063196 -0.008632 -797578.000000 0 0 1
-6.196420 8.341054 31.697451 33.357116 -0.931866 0.316773 0.064346 -0.014620 -1373710.000000 0 0 1
-5.422120 7.678154 32.682448 34.007291 -0.955938 0.280047 0.095438 -0.014168 -368565.000000 0 0 1
-3.960120 7.647354 32.278362 33.407443 -1.092977 0.260727 0.077823 -0.015908 -468558.000000 0 0 1
-3.220820 8.843254 32.242465 33.587995 -1.221517 0.284008 0.068583 -0.017214 223816.000000 0 0 1
-1.816620 8.589254 32.145221 33.322524 -1.362369 0.266610 0.078326 -0.022504 927198.000000 0 0 1
-0.973820 9.818354 31.719741 33.218826 -1.471936 0.301566 0.073720 -0.021180 -7261.050000 0 0 1
-0.966820 10.886554 32.598614 34.381993 -1.482220 0.323494 0.070433 -0.026875 -64852.100000 0 0 1
-1.448220 12.104354 32.059731 34.299258 -1.451718 0.363365 0.064167 -0.019681 -16883.300000 0 0 1
-1.509020 13.166754 33.154916 35.705587 -1.456686 0.380272 0.052681 -0.025457 723979.000000 0 0 1
-0.238620 13.795454 33.382779 36.121758 -1.553501 0.391930 0.075056 -0.029089 627772.000000 0 0 1
-0.324620 14.407854 -33.598302 36.558686 -1.548269 2.736393 0.069003 -0.025101 252408.000000 0 0 1
1.061480 14.908954 -33.135422 36.350514 1.499719 2.717842 0.068861 -0.028536 -169132.000000 0 0 1
1.495780 16.031754 -33.852752 37.486842 1.477765 2.697630 0.052282 -0.025732 38384.100000 0 0 1
2.816180 16.334254 -33.452862 37.334069 1.400065 2.681567 0.051463 -0.026328 11445.900000 0 0 1
3.607180 17.302854 33.881682 38.214773 1.365267 0.480828 0.066318 -0.024441 -35078.600000 0 0 1
3.077980 18.581454 33.970857 38.842805 1.406639 0.506242 0.054249 -0.015646 -192483.000000 0 0 1
3.938880 19.433154 33.257959 38.720203 1.370817 0.537619 0.043486 -0.006447 45470.700000 0 0 1
3.586180 20.942454 33.441553 39.620506 1.401202 0.566012 0.045468 -0.014689 -50117.100000 0 0 1
3.883280 21.558454 -33.540782 40.060341 1.392579 2.563043 0.050243 -0.024664 156125.000000 0 0 1
3.289580 22.852454 -33.527132 40.707795 1.427830 2.538534 0.056053 -0.027116 161880.000000 0 0 1
3.404080 23.417354 -32.097322 39.877291 1.426442 2.506307 0.057103 -0.028003 -54600.400000 0 0 1
3.172880 24.821454 -32.063302 40.672191 1.443658 2.478894 0.071782 -0.033392 230012.000000 0 0 1
2.912280 25.297554 -30.751722 39.926383 1.456180 2.449968 0.089103 -0.038579 -118765.000000 0 0 1
2.645680 26.831454 -30.661062 40.829245 1.472510 2.420308 0.095190 -0.042532 -151540.000000 0 0 1
3.762880 27.667254 -30.809202 41.579360 1.435621 2.405315 0.104085 -0.044988 95929.300000 0 0 1
3.366480 28.952954 -30.383112 42.103922 1.455042 2.376939 0.097896 -0.042174 110265.000000 0 0 1
4.599880 29.865154 -30.140762 42.679642 1.417976 2.354926 0.124227 -0.053674 210747.000000 0 0 1
5.422180 29.570954 -29.062032 41.814388 1.389449 2.339251 0.107670 -0.058821 -840428.000000 0 0 1
6.249880 30.600554 -28.749082 42.449554 1.369326 2.314819 0.120156 -0.063267 -1477710.000000 0 0 1
7.138980 30.276754 -27.545502 41.549989 1.339235 2.295547 0.125508 -0.057331 438870.000000 0 0 1
8.413380 29.690754 -27.840352 41.562135 1.294668 2.304802 0.117537 -0.046640 692057.000000 0 0 1
9.551780 30.498454 -28.049802 42.522742 1.267284 2.291139 0.119708 -0.049708 -114567.000000 0 0 1
9.593480 31.735454 -29.029612 44.066907 1.277235 2.289969 0.135338 -0.056485 -1202980.000000 0 0 1
8.999280 32.874454 -28.473752 44.412513 1.303595 2.266753 0.146542 -0.056603 252783.000000 0 0 1
8.661880 34.030354 -29.238652 45.694550 1.321555 2.265128 0.124739 -0.056107 360108.000000 0 0 1
7.348780 33.997054 -30.103972 46.000580 1.357912 2.284219 0.101342 -0.039044 536790.000000 0 0 1
7.451080 33.140954 -31.260632 46.163498 1.349644 2.314709 0.085345 -0.033264 397349.000000 0 0 1
6.127380 32.938154 -31.729402 46.143491 1.386872 2.329009 0.092052 -0.033017 186746.000000 0 0 1
6.055080 32.289454 -33.155482 46.675034 1.385424 2.360788 0.096247 -0.046622 1107.820000 0 0 1
6.178480 33.200754 33.983223 47.909531 1.386806 0.782262 0.093955 -0.037476 228536.000000 0 0 1
5.911780 32.560654 32.777077 46.577700 1.391191 0.790194 0.108008 -0.046070 -116032.000000 0 0 1
5.688880 33.435354 31.528041 46.306626 1.402265 0.821869 0.090364 -0.047945 -721587.000000 0 0 1
6.843380 34.033554 31.119381 46.621138 1.372365 0.839957 0.103468 -0.037652 -685846.000000 0 0 1
6.454180 -33.312946 30.080531 45.345862 -1.379423 0.845499 0.065628 -0.034592 -250324.000000 0 0 1
18.107626 -22.452546 28.758311 40.731357 -0.892114 0.786894 0.109301 -0.010794 63478.700000 0 0 1
17.107626 -21.458646 28.881131 39.840483 -0.897742 0.759879 0.095223 -0.012752 -1989.570000 0 0 1
15.812726 -21.883646 29.191961 39.763135 -0.945075 0.746388 0.094060 -0.007380 19003.400000 0 0 1
15.337026 -22.112246 30.696701 40.822338 -0.964379 0.719768 0.085758 -0.011319 -150415.000000 0 0 1
15.844426 -23.283846 31.359561 42.149797 -0.973285 0.731755 0.110912 -0.021525 319057.000000 0 0 1
15.461826 -23.264446 32.705669 43.011200 -0.984218 0.706869 0.096352 -0.016074 -380809.000000 0 0 1
16.149626 -24.277146 33.547612 44.448088 -0.983796 0.715509 0.117295 -0.023174 -456744.000000 0 0 1
15.899526 -25.633346 33.184079 44.844693 -1.015608 0.737759 0.126040 -0.027369 123306.000000 0 0 1
16.655726 -26.479616 34.065039 46.249434 -1.009324 0.742840 0.123886 -0.028863 97885.900000 0 0 1
16.524426 -28.043526 33.880010 46.982455 -1.038325 0.765378 0.117568 -0.024806 -190761.000000 0 0 1
17.203926 -28.604036 32.820843 46.812111 -1.029311 0.793831 0.121961 -0.032795 -145927.000000 0 0 1
16.933026 -29.999716 32.689543 47.490173 -1.056935 0.811594 0.114928 -0.038070 -189499.000000 0 0 1
17.563826 -30.638536 31.474101 47.305675 -1.050271 0.842854 0.133474 -0.038088 -326185.000000 0 0 1
18.871826 -31.099116 31.691831 48.245964 -1.025371 0.854122 0.124189 -0.043474 -99199.800000 0 0 1
19.390126 -31.609646 30.435231 47.973430 -1.020564 0.883540 0.091328 -0.034755 -1171420.000000 0 0 1
20.771026 -32.172376 30.555941 48.991457 -0.997509 0.897330 0.069206 -0.028793 -1134010.000000 0 0 1
21.842226 -31.279656 30.762161 49.008268 -0.961220 0.892210 0.058938 -0.031855 186250.000000 0 0 1
22.957726 -32.003836 31.267191 50.288567 -0.948525 0.899814 0.041329 -0.030309 15116.400000 0 0 1
24.157826 -31.058606 31.535081 50.425181 -0.909730 0.895173 0.023112 -0.033465 -105416.000000 0 0 1
24.965726 -30.878006 30.402161 50.010300 -0.890877 0.917361 0.013621 -0.030542 -507068.000000 0 0 1
25.680026 -29.692806 30.361311 49.627973 -0.857740 0.912490 0.003820 -0.023710 -408267.000000 0 0 1
26.857126 -29.754106 29.392201 49.704261 -0.836527 0.938075 0.011376 -0.026140 47197.800000 0 0 1
27.949926 -30.494636 29.918591 51.051379 -0.828911 0.944623 0.008400 -0.017439 707527.000000 0 0 1
29.167826 -30.344506 29.160011 51.204076 -0.805168 0.964916 0.007298 -0.036666 792727.000000 0 0 1
30.241126 -31.361016 29.555141 52.645469 -0.803576 0.974720 0.023539 -0.029900 -105033.000000 0 0 1
29.796626 -32.672336 29.393881 53.097276 -0.831400 0.984133 0.007692 -0.029653 84342.000000 0 0 1
30.817426 -33.533286 29.888781 54.475079 -0.827577 0.990025 0.024927 -0.023740 -721386.000000 0 0 1
30.270726 33.289178 30.367471 54.283235 0.832852 0.977103 0.017102 -0.017948 -756988.000000 0 0 1
29.375826 33.243935 31.448591 54.379337 0.847091 0.954130 0.020492 -0.013978 922572.000000 0 0 1
28.127426 33.962595 31.360581 54.111884 0.879102 0.952619 -0.004329 -0.009316 699422.000000 0 0 1
27.204126 33.709737 30.093591 52.745001 0.891795 0.963623 0.013306 -0.013280 -326763.000000 0 0 1
26.584226 32.399044 29.896331 51.480188 0.883665 0.951165 0.018384 -0.012047 122548.000000 0 0 1
25.267226 32.270556 30.386161 51.020979 0.906519 0.932831 0.030140 -0.019843 127778.000000 0 0 1
24.742226 30.814343 30.411081 49.865172 0.894262 0.914905 0.052940 -0.022621 -67447.400000 0 0 1
24.330526 30.380673 29.151601 48.628959 0.895534 0.927958 0.058268 -0.029889 -54279.700000 0 0 1
23.754226 29.109053 29.184531 47.574543 0.886350 0.910376 0.093162 -0.045086 -589482.000000 0 0 1
23.185326 28.697173 27.790311 46.188619 0.891238 0.925206 0.093269 -0.044652 -496152.000000 0 0 1
21.876326 29.205483 27.786691 45.865391 0.927904 0.919986 0.110479 -0.040780 -408174.000000 0 0 1
21.142426 28.733433 26.676141 44.544684 0.936437 0.928716 0.113216 -0.035529 657133.000000 0 0 1
19.759726 29.439363 26.493281 44.260782 0.979661 0.929079 0.096306 -0.031122 364126.000000 0 0 1
19.935526 30.772973 26.013181 44.956498 0.995951 0.953748 0.121539 -0.035375 -1099310.000000 0 0 1
18.784626 31.422973 25.673481 44.714573 1.031997 0.959214 0.111947 -0.037879 -1602150.000000 0 0 1
18.983326 32.872351 25.106591 45.511527 1.047096 0.986451 0.122636 -0.041130 -190613.000000 0 0 1
19.546026 32.904864 23.794521 45.066134 1.034788 1.014563 0.113427 -0.044695 -52844.800000 0 0 1
20.873926 33.355858 23.849041 46.012073 1.011626 1.025909 0.115265 -0.043599 -445902.000000 0 0 1
21.548726 33.503053 22.503271 45.751496 0.999226 1.056573 0.113784 -0.043686 -286823.000000 0 0 1
21.020826 -33.597156 21.789371 45.226328 -1.011713 1.068106 0.099387 -0.034477 311841.000000 0 0 1
21.646726 -33.484716 20.530271 44.847508 -0.996910 1.095300 0.103100 -0.031163 -5138.690000 0 0 1
21.345426 -32.176476 19.786671 43.387385 -0.985068 1.097248 0.089970 -0.026965 -7064.360000 0 0 1
21.959426 -31.070226 20.484471 43.210981 -0.955543 1.076904 0.079814 -0.020248 376131.000000 0 0 1
21.734726 -29.741986 19.970471 41.902312 -0.939713 1.074018 0.070833 -0.018075 -302608.000000 0 0 1
22.496526 -29.362426 18.679271 41.438640 -0.917028 1.103169 0.054404 -0.017385 -330167.000000 0 0 1
22.110526 -30.082926 17.517571 41.239824 -0.936974 1.132085 0.047329 -0.024289 75658.400000 0 0 1
22.750726 -29.477646 16.431071 40.700212 -0.913491 1.155228 0.037088 -0.023290 -513601.000000 0 0 1
22.210326 -29.776096 14.991771 40.058304 -0.929917 1.187210 0.034167 -0.016445 -173327.000000 0 0 1
22.826626 -30.925676 14.420571 41.053686 -0.934947 1.211878 0.058805 -0.013484 93404.500000 0 0 1
22.785226 -31.078216 12.968971 40.659762 -0.938162 1.246161 0.056247 -0.019320 -439380.000000 0 0 1
21.404526 -31.192626 12.298371 39.779185 -0.969389 1.256480 0.056588 -0.016798 -393669.000000 0 0 1
20.652526 -32.262446 12.824271 40.396215 -1.001383 1.247744 0.069137 -0.022628 -634900.000000 0 0 1
19.526326 -32.511746 12.040671 39.790310 -1.029941 1.263374 0.072481 -0.019625 -490979.000000 0 0 1
18.587126 -33.494526 12.752171 40.373041 -1.064176 1.249435 0.064101 -0.019415 -429962.000000 0 0 1
18.124226 -32.933456 13.946871 40.095078 -1.067701 1.215525 0.060288 -0.013426 -87561.200000 0 0 1
18.745026 -33.399086 15.129271 41.179726 -1.059362 1.194589 0.041740 -0.017620 -848771.000000 0 0 1
18.618626 -32.454426 16.370871 40.840524 -1.049951 1.158353 0.041562 -0.018032 -791107.000000 0 0 1
17.341726 -32.114846 16.769071 40.165913 -1.075670 1.140109 0.051943 -0.022859 -1056490.000000 0 0 1
16.469226 -33.083416 17.281671 40.797108 -1.108903 1.133380 0.054551 -0.016092 -815679.000000 0 0 1
16.824826 -33.836116 18.598171 42.117093 -1.109355 1.113435 0.043597 -0.024618 145742.000000 0 0 1
17.934826 33.435974 18.478171 42.202668 1.078460 1.117598 0.028871 -0.016963 445207.000000 0 0 1
18.139826 32.858304 19.729271 42.402424 1.066371 1.086838 0.031552 -0.023374 163288.000000 0 0 1
19.085426 31.658173 19.607571 41.844358 1.028277 1.083110 0.051958 -0.016924 239077.000000 0 0 1
18.402126 30.642113 18.872971 40.419876 1.029972 1.084988 0.028944 -0.021235 -39030.600000 0 0 1
19.192426 29.519853 18.693071 39.864795 0.994313 1.082738 0.025360 -0.022823 -719617.000000 0 0 1
18.364926 28.281973 18.505871 38.465670 0.994878 1.068886 0.025205 -0.021874 -832450.000000 0 0 1
17.747026 27.808343 19.663471 38.404596 1.002768 1.033275 0.037775 -0.032665 -138564.000000 0 0 1
17.377526 26.450573 19.455471 37.150055 0.989529 1.019608 0.043769 -0.034039 -599821.000000 0 0 1
17.331226 25.424093 20.651271 37.057130 0.972468 0.979688 0.045661 -0.028522 62925.100000 0 0 1
16.188826 25.468973 21.497571 37.052561 1.004590 0.951833 0.040072 -0.029443 429015.000000 0 0 1
15.205126 24.518083 21.095471 35.740050 1.015685 0.939431 0.043952 -0.029368 -529035.000000 0 0 1
13.833826 24.711543 21.722271 35.691626 1.060451 0.916489 0.076398 -0.043859 -683226.000000 0 0 1
13.291826 25.941533 21.335071 36.122307 1.097297 0.938952 0.078483 -0.039942 -391943.000000 0 0 1
11.924726 25.929883 21.675871 35.838545 1.139754 0.921256 0.088719 -0.042418 -346061.000000 0 0 1
11.214726 27.140193 21.018071 36.112595 1.178950 0.949592 0.090613 -0.045526 -389778.000000 0 0 1
11.688026 28.381353 21.468271 37.456613 1.180141 0.960451 0.077509 -0.041238 -67147.900000 0 0 1
11.306426 29.286133 20.471171 37.477750 1.202358 0.992949 0.083097 -0.042879 -128829.000000 0 0 1
11.870626 30.711943 20.696771 38.890764 1.201969 1.009626 0.088290 -0.041626 -134029.000000 0 0 1
11.245626 31.565543 21.623271 39.879989 1.228553 0.997733 0.082011 -0.039601 -348764.000000 0 0 1
11.380626 31.117993 22.962771 40.312988 1.220182 0.964762 0.076038 -0.035264 1563.620000 0 0 1
10.699526 31.977713 24.053021 41.419824 1.247912 0.951192 0.078608 -0.030460 270301.000000 0 0 1
9.322326 31.754263 24.264701 41.036748 1.285242 0.938136 0.068478 -0.035287 -187883.000000 0 0 1
8.935526 32.214760 25.507251 42.050616 1.300225 0.919039 0.064370 -0.025203 -676751.000000 0 0 1
7.559726 31.856913 26.064381 41.849305 1.337803 0.898461 0.101617 -0.040263 -608427.000000 0 0 1
6.478126 32.712461 25.674621 42.086309 1.375293 0.914677 0.091109 -0.036128 1119550.000000 0 0 1
5.684426 32.219134 24.532041 40.892620 1.396163 0.927403 0.082990 -0.041434 625160.000000 0 0 1
4.816226 30.963253 24.761151 39.937873 1.416486 0.902064 0.070538 -0.034528 -511454.000000 0 0 1
5.622326 29.808223 24.952291 39.277953 1.384370 0.882432 0.065636 -0.030144 -160489.000000 0 0 1
4.915426 28.586653 24.766741 38.141180 1.400513 0.864075 0.047323 -0.026575 -291758.000000 0 0 1
5.925626 27.382023 24.808751 37.421416 1.357677 0.846036 0.050695 -0.037862 -437607.000000 0 0 1
6.871226 27.324053 23.796841 36.879632 1.324433 0.869437 0.071236 -0.041514 535552.000000 0 0 1
8.004526 28.207553 23.786631 37.756355 1.294293 0.889239 0.077636 -0.045571 1100070.000000 0 0 1
9.126826 27.963043 24.895231 38.535740 1.255309 0.868425 0.068328 -0.045264 -139692.000000 0 0 1
8.700626 28.249343 26.197921 39.497562 1.272022 0.845604 0.062709 -0.032106 626149.000000 0 0 1
9.768326 28.086303 27.145041 40.263059 1.236086 0.830926 0.090291 -0.020491 986633.000000 0 0 1
10.999026 29.032903 27.146911 41.241276 1.208657 0.852310 0.075183 -0.025354 11267.300000 0 0 1
10.696526 30.283383 27.762401 42.452914 1.231261 0.857993 0.081136 -0.032308 305769.000000 0 0 1
11.871326 31.067123 27.934031 43.432760 1.205799 0.872184 0.070423 -0.021133 -5449.210000 0 0 1
11.706226 32.384276 28.752061 44.860429 1.223932 0.875097 0.068922 -0.027615 -35994.100000 0 0 1
11.393526 32.100113 30.143101 45.484462 1.229730 0.846362 0.067894 -0.047502 637027.000000 0 0 1
10.031926 31.825013 30.486101 45.198157 1.265434 0.830511 0.086401 -0.040728 345778.000000 0 0 1
9.782026 31.685113 32.032791 46.105685 1.271353 0.802698 0.113951 -0.042747 70848.500000 0 0 1
10.386826 30.522983 32.629363 45.871712 1.242793 0.779425 0.084577 -0.040390 286548.000000 0 0 1
10.708826 30.750313 33.988899 47.069162 1.235681 0.763955 0.107718 -0.040361 -111665.000000 0 0 1
10.744326 29.369933 -33.516462 45.840886 1.220092 2.390799 0.090872 -0.035711 160325.000000 0 0 1
11.767926 28.531863 -34.068978 45.970062 1.179605 2.405522 0.106462 -0.030447 564905.000000 0 0 1
11.682226 27.225243 -33.603432 44.798203 1.165462 2.419020 0.110092 -0.029203 -248947.000000 0 0 1
12.784426 26.338683 34.002790 44.870453 1.118908 0.710863 0.085870 -0.029774 54559.500000 0 0 1
12.836026 25.007163 -33.763382 43.932764 1.096570 2.447327 0.070695 -0.033838 -378251.000000 0 0 1
13.482126 24.727743 -32.557352 43.048928 1.071628 2.428416 0.070704 -0.031593 -283601.000000 0 0 1
13.529026 23.252163 -32.162042 41.929639 1.043837 2.445024 0.043284 -0.040047 197174.000000 0 0 1
14.389126 22.479153 -33.015282 42.454307 1.001405 2.461741 0.050228 -0.030279 371761.000000 0 0 1
14.275026 21.135053 -32.656492 41.435653 0.976759 2.478554 0.043862 -0.029036 -746114.000000 0 0 1
15.438926 20.330053 -33.170582 41.856410 0.921297 2.485669 0.051030 -0.038233 -171094.000000 0 0 1
16.648726 20.589453 -32.478912 41.904480 0.890831 2.457622 0.065359 -0.039053 -262236.000000 0 0 1
17.776826 20.053353 -33.116202 42.600885 0.845503 2.461254 0.071283 -0.033484 427604.000000 0 0 1
19.045926 20.204853 -32.192162 42.512571 0.814916 2.429871 0.055210 -0.029067 389757.000000 0 0 1
19.300326 21.596253 -31.959022 43.130962 0.841479 2.405319 0.064287 -0.036697 -133331.000000 0 0 1
20.374726 21.825553 -31.070502 43.091303 0.819764 2.376097 0.058111 -0.021937 22914.900000 0 0 1
20.064426 22.132253 -29.618882 42.067755 0.834363 2.351917 0.055809 -0.023831 -57427.100000 0 0 1
19.532826 23.482773 -29.567002 42.510935 0.876967 2.339933 0.047366 -0.014416 140710.000000 0 0 1
19.255326 23.885053 -28.228462 41.690640 0.892307 2.314602 0.054747 -0.004823 -30284.500000 0 0 1
20.531326 24.369763 -27.492012 42.086001 0.870677 2.282644 0.044084 -0.006138 255625.000000 0 0 1
21.279626 25.431163 -28.053052 43.434322 0.874043 2.272962 0.053934 -0.008707 -476639.000000 0 0 1
20.615026 26.636873 -28.302372 43.994620 0.912156 2.269616 0.046043 -0.005805 -847806.000000 0 0 1
21.364726 27.523233 -29.303722 45.526784 0.910710 2.270066 0.044833 -0.007791 -505327.000000 0 0 1
21.448526 27.201373 -30.692482 46.281556 0.903102 2.295841 0.048372 -0.005002 110341.000000 0 0 1
22.073126 25.966823 -31.027672 46.089210 0.866273 2.309336 0.057631 -0.007067 720517.000000 0 0 1
23.526326 25.665023 -30.504042 46.289070 0.828848 2.290272 0.080866 -0.017091 686768.000000 0 0 1
24.516626 26.576253 -31.058062 47.665139 0.825688 2.280473 0.067409 -0.012044 610252.000000 0 0 1
25.769726 26.169853 -30.512242 47.748685 0.793102 2.264017 0.075976 -0.023656 289339.000000 0 0 1
26.971226 27.123403 -30.690362 49.041048 0.788211 2.246966 0.040495 -0.012054 -82079.300000 0 0 1
27.082926 28.230333 -29.843972 49.204667 0.806139 2.222482 0.024552 -0.003928 509501.000000 0 0 1
28.166026 29.053213 -30.330882 50.570512 0.800902 2.214015 0.028189 -0.006986 687924.000000 0 0 1
28.387926 30.351623 -29.520312 50.975918 0.818816 2.188424 0.022479 0.006470 -122409.000000 0 0 1
28.871726 30.178413 -28.221522 50.406027 0.807523 2.165042 0.044462 0.000348 169166.000000 0 0 1
27.936926 30.691263 -27.299382 49.675766 0.832343 2.152623 0.029307 0.007052 -588569.000000 0 0 1
28.502026 30.677523 -25.879742 49.226385 0.822143 2.124368 0.055770 0.001508 -8437.630000 0 0 1
28.866426 29.379823 -25.370952 48.374888 0.794212 2.122883 0.050706 0.006395 871753.000000 0 0 1
27.732926 28.563163 -24.972832 46.995870 0.800145 2.131029 0.062886 0.001497 593502.000000 0 0 1
27.099226 28.819453 -23.570032 46.048620 0.816151 2.108134 0.069176 -0.002657 11302.700000 0 0 1
26.441626 30.050813 -23.365932 46.348439 0.849199 2.099178 0.076483 0.002456 235690.000000 0 0 1
25.794226 30.079213 -22.084832 45.363432 0.861939 2.079267 0.074550 0.004830 397847.000000 0 0 1
3.311626 -26.186576 -19.515532 32.826204 -1.445001 2.207453 0.079162 -0.014327 -34000.700000 0 0 1
2.935126 -27.413066 -18.864232 33.405844 -1.464132 2.170864 0.072517 -0.013306 163043.000000 0 0 1
2.889726 -27.124386 -17.469832 32.392559 -1.464661 2.140421 0.075679 -0.017636 -269682.000000 0 0 1
2.902826 -28.360246 -16.539332 32.958754 -1.468796 2.096497 0.058182 -0.013748 -199076.000000 0 0 1
4.152126 -28.961396 -16.340132 33.511230 -1.428399 2.080137 0.053522 -0.019611 -352672.000000 0 0 1
4.091026 -29.758676 -15.168232 33.651012 -1.434179 2.038403 0.048552 -0.025350 -505176.000000 0 0 1
5.386926 -30.450966 -14.777132 34.273079 -1.395703 2.016573 0.093436 -0.030603 -338078.000000 0 0 1
6.312326 -29.487206 -14.271132 33.361745 -1.359909 2.012820 0.058433 -0.023376 400397.000000 0 0 1
7.670926 -29.904326 -14.127232 33.951296 -1.319695 1.999952 0.069175 -0.024176 830304.000000 0 0 1
7.918526 -30.640696 -12.743332 34.116680 -1.317898 1.953599 0.064067 -0.025967 -645657.000000 0 0 1
7.920426 -29.780116 -11.607732 32.929135 -1.310850 1.931044 0.049220 -0.027990 -98082.300000 0 0 1
7.899326 -30.375506 -10.323632 33.040099 -1.316376 1.888575 0.046410 -0.024332 -165626.000000 0 0 1
9.119726 -31.240786 -9.893832 34.015350 -1.286771 1.865926 0.067693 -0.021382 39096.300000 0 0 1
10.329026 -30.540336 -9.651532 33.653425 -1.244664 1.861673 0.055720 -0.021987 29365.200000 0 0 1
11.312026 -31.555236 -9.621932 34.875155 -1.226584 1.850319 0.059769 -0.022342 109383.000000 0 0 1
12.677026 -31.327156 -8.929932 34.954848 -1.186274 1.829131 0.056195 -0.019656 5282.390000 0 0 1
13.535826 -30.390396 -9.527532 34.605905 -1.151776 1.849714 0.076218 -0.029973 -158062.000000 0 0 1
14.692926 -30.350436 -8.735532 34.833039 -1.119942 1.824285 0.061034 -0.024599 583649.000000 0 0 1
15.990226 -29.706566 -9.393332 35.020024 -1.077002 1.842349 0.068964 -0.031255 879681.000000 0 0 1
15.865526 -28.272496 -9.523332 33.789685 -1.059422 1.856509 0.076621 -0.028235 451730.000000 0 0 1
15.141526 -27.953196 -10.726932 33.551663 -1.074368 1.896224 0.065644 -0.030548 65250.900000 0 0 1
15.063826 -26.454506 -10.880032 32.328546 -1.053163 1.914043 0.068860 -0.024275 -187226.000000 0 0 1
14.102426 -25.859376 -9.974032 31.097702 -1.071530 1.897299 0.056108 -0.026382 644920.000000 0 0 1
13.603026 -24.589146 -10.390032 29.960327 -1.065490 1.924946 0.039923 -0.008035 302441.000000 0 0 1
12.893726 -24.451946 -11.748832 30.036326 -1.085541 1.972682 0.024131 -0.013191 -337360.000000 0 0 1
13.816126 -24.239246 -12.817132 30.703506 -1.052735 2.001432 0.030726 -0.007018 344064.000000 0 0 1
13.138626 -24.167546 -14.065232 30.895381 -1.072843 2.043453 0.024891 -0.010012 107386.000000 0 0 1
14.084326 -23.522646 -15.097932 31.299053 -1.031292 2.074162 0.050892 -0.006267 135518.000000 0 0 1
15.146026 -24.322946 -15.532932 32.592634 -1.013849 2.067554 0.052224 -0.016537 -228961.000000 0 0 1
15.787126 -23.747546 -16.639432 33.015905 -0.984094 2.099000 0.058832 -0.022763 201348.000000 0 0 1
17.007426 -24.550346 -17.224032 34.476649 -0.964948 2.093916 0.070817 -0.033588 1284240.000000 0 0 1
18.245026 -24.606646 -16.526532 34.806526 -0.932778 2.065546 0.085893 -0.037147 426592.000000 0 0 1
19.100826 -23.484346 -16.619832 34.533678 -0.887972 2.072893 0.088729 -0.033925 -775564.000000 0 0 1
20.560126 -23.700246 -16.287432 35.351109 -0.856226 2.049618 0.076390 -0.030728 -327371.000000 0 0 1
21.292426 -24.366646 -17.338232 36.711240 -0.852627 2.062680 0.094858 -0.026913 1080900.000000 0 0 1
22.567826 -24.860146 -16.850332 37.566838 -0.833693 2.035931 0.112420 -0.015319 1303820.000000 0 0 1
23.082126 -26.124596 -17.662532 39.079971 -0.847150 2.039756 0.110611 -0.025471 101352.000000 0 0 1
23.403526 -25.819166 -19.026632 39.703490 -0.834435 2.070560 0.109693 -0.025220 -222047.000000 0 0 1
24.247226 -26.747206 -19.621232 41.089339 -0.834384 2.068633 0.090421 -0.031049 -571966.000000 0 0 1
25.594626 -26.143996 -20.037232 41.714315 -0.796016 2.071844 0.074021 -0.023252 -192237.000000 0 0 1
25.513926 -25.251596 -21.100932 41.639559 -0.780231 2.102209 0.075738 -0.019654 -97755.600000 0 0 1
26.027126 -23.950546 -20.747532 41.006098 -0.743872 2.101293 0.077058 -0.017328 -259085.000000 0 0 1
25.027726 -22.776446 -20.946032 39.798114 -0.738339 2.125048 0.073315 -0.006814 142012.000000 0 0 1
24.862826 -22.227646 -22.270932 40.102653 -0.729497 2.159578 0.070268 -0.004592 69259.300000 0 0 1
24.331026 -23.152146 -23.219132 40.830734 -0.760576 2.175682 0.057848 -0.016137 -417118.000000 0 0 1
23.439126 -22.435046 -24.247532 40.505145 -0.763514 2.212584 0.043189 -0.008651 -332742.000000 0 0 1
24.091426 -21.644846 -25.189752 41.029499 -0.731956 2.231842 0.035638 -0.003659 -238671.000000 0 0 1
23.218026 -20.769246 -25.849552 40.480090 -0.729785 2.263441 0.026335 0.007898 -333517.000000 0 0 1
23.841026 -20.228746 -27.154882 41.412369 -0.703614 2.285931 0.036522 0.004471 -67906.800000 0 0 1
23.071126 -19.284946 -27.868592 40.998103 -0.696246 2.318222 0.034026 0.002843 342358.000000 0 0 1
23.737326 -18.885546 -29.053812 42.002958 -0.672056 2.334649 0.050973 -0.005231 169535.000000 0 0 1
22.834926 -17.803346 -29.712372 41.487565 -0.662211 2.369103 0.061196 -0.005975 -361454.000000 0 0 1
21.720926 -18.362746 -30.337482 41.585477 -0.701814 2.388418 0.057795 -0.006636 96367.400000 0 0 1
20.991726 -17.332246 -31.054652 41.297103 -0.690199 2.421859 0.060071 -0.006961 39678.600000 0 0 1
19.690526 -17.775946 -31.730532 41.358527 -0.734341 2.445271 0.046797 -0.004681 -248290.000000 0 0 1
19.819826 -18.496246 -32.930322 42.653754 -0.750868 2.452838 0.052564 0.001343 -197146.000000 0 0 1
18.607726 -19.114846 -33.254032 42.631625 -0.798841 2.465513 0.062069 -0.010691 -335204.000000 0 0 1
18.595926 -19.990646 33.689238 43.363570 -0.821528 0.681066 0.086313 -0.004156 120893.000000 0 0 1
19.441626 -21.114446 33.927234 44.439328 -0.826622 0.702157 0.094642 -0.007083 346216.000000 0 0 1
19.612626 -21.969746 32.775441 44.063073 -0.842023 0.732014 0.095067 -0.014607 145269.000000 0 0 1
20.228226 -23.341646 33.201222 45.346827 -0.856735 0.749306 0.085531 -0.008438 401381.000000 0 0 1
19.388026 -24.139346 34.061912 46.030614 -0.894125 0.737750 0.095931 -0.015129 479695.000000 0 0 1
19.568626 -23.839946 -32.786732 45.013820 -0.883481 2.386737 0.103990 -0.015220 -123394.000000 0 0 1
18.834226 -24.901846 -31.921482 44.652111 -0.923251 2.367267 0.110712 -0.016173 -84429.400000 0 0 1
19.413426 -26.205176 -31.944792 45.651529 -0.933194 2.345848 0.105302 -0.030603 231252.000000 0 0 1
20.556226 -26.286666 -31.107082 45.620147 -0.907127 2.321115 0.097591 -0.029377 25654.800000 0 0 1
20.994826 -27.734026 -30.861492 46.501512 -0.922826 2.296506 0.081139 -0.032085 -254702.000000 0 0 1
19.990026 -28.583666 -30.329342 46.222247 -0.960506 2.286519 0.090821 -0.030022 -73479.800000 0 0 1
20.268226 -29.910946 -30.319842 47.167346 -0.975250 2.268963 0.087852 -0.026008 -467347.000000 0 0 1
19.056826 -30.638236 -29.662472 46.708954 -1.014361 2.258868 0.105290 -0.025919 1141570.000000 0 0 1
17.788226 -30.585246 -30.340512 46.609280 -1.044020 2.279637 0.113957 -0.028512 592178.000000 0 0 1
17.758526 -31.202336 -31.595442 47.824920 -1.053376 2.292478 0.123777 -0.038177 -100565.000000 0 0 1
16.384126 -31.796666 -32.051672 48.028921 -1.095001 2.301429 0.136155 -0.045046 1272710.000000 0 0 1
15.357426 -30.982226 -32.633272 47.546602 -1.110607 2.327245 0.139189 -0.035419 1119540.000000 0 0 1
14.195626 -31.701786 -33.058142 47.951641 -1.149785 2.331465 0.100561 -0.028030 1215490.000000 0 0 1
13.004226 -30.911586 -33.721192 47.557911 -1.172581 2.358954 0.095791 -0.018220 734731.000000 0 0 1
12.397926 -29.905516 -32.977912 46.212457 -1.177793 2.365442 0.101420 -0.022395 -701867.000000 0 0 1
11.281626 -29.437376 -33.646592 46.107780 -1.204820 2.388735 0.088906 -0.012543 -730751.000000 0 0 1
10.484926 -28.380726 -32.879732 44.681944 -1.216911 2.397735 0.088020 -0.025224 322327.000000 0 0 1
9.462126 -29.053946 -32.118322 44.331143 -1.255955 2.381118 0.087098 -0.015063 290934.000000 0 0 1
8.663726 -28.115196 -31.411992 43.037631 -1.271878 2.388932 0.050216 -0.016252 498208.000000 0 0 1
7.501026 -28.854346 -30.664832 42.768804 -1.316464 2.370272 0.041982 -0.010738 -71831.600000 0 0 1
6.308026 -29.236946 -31.264292 43.267149 -1.358298 2.378334 0.043156 -0.008505 -315019.000000 0 0 1
6.367426 -30.442796 -32.027252 44.643621 -1.364608 2.370857 0.059117 -0.013017 -654587.000000 0 0 1
5.046026 -31.044466 -32.496642 45.224474 -1.409664 2.372530 0.085459 -0.019612 -233573.000000 0 0 1
4.438926 -31.785286 -31.443752 44.930146 -1.432040 2.345965 0.080790 -0.035109 401890.000000 0 0 1
3.303526 -32.538386 -31.861192 45.659560 -1.469616 2.343116 0.103863 -0.060776 -1120030.000000 0 0 1
2.547826 -33.251206 -30.726412 45.345855 -1.494322 2.315292 0.079381 -0.070115 -178268.000000 0 0 1
1.564826 -32.407956 -30.189152 44.318272 -1.522549 2.320183 0.055255 -0.056963 -372914.000000 0 0 1
0.357526 -32.406286 -30.910112 44.785380 -1.559764 2.332538 0.040111 -0.024630 -1206070.000000 0 0 1
-0.493774 -31.169916 -30.648472 43.716546 1.554956 2.347697 0.017924 -0.016472 -169667.000000 0 0 1
-1.142074 -31.117476 -29.339722 42.783419 1.534111 2.326462 0.000180 -0.020267 480389.000000 0 0 1
-1.710174 -29.819126 -29.057892 41.670926 1.513508 2.342445 0.034317 -0.009676 131243.000000 0 0 1
-2.505674 -29.941896 -27.713122 40.875576 1.487306 2.315817 0.041543 -0.010870 140307.000000 0 0 1
-1.645774 -29.953256 -26.579272 40.079469 1.515907 2.295835 0.034520 -0.011366 -17654.500000 0 0 1
-2.314274 -30.190596 -25.346712 39.487768 1.494290 2.267754 0.057527 -0.020590 -168346.000000 0 0 1
-1.366174 -30.725246 -24.270332 39.178517 1.526361 2.238877 0.040111 -0.018801 -356083.000000 0 0 1
-1.913774 -30.789356 -22.968032 38.460077 1.508719 2.210791 0.073301 -0.030161 -495805.000000 0 0 1
-0.968374 -31.144656 -21.999032 38.142952 1.539714 2.185544 0.070163 -0.026411 -32791.800000 0 0 1
-1.463874 -30.974556 -20.505532 37.175838 1.523571 2.155056 0.036912 -0.011906 196708.000000 0 0 1
-1.566974 -29.612956 -20.084132 35.815569 1.517930 2.166106 0.033306 -0.014676 907260.000000 0 0 1
-0.277574 -29.059086 -19.725732 35.122814 1.561245 2.167141 0.062409 -0.027961 989780.000000 0 0 1
-0.389274 -27.653056 -19.107332 33.614479 1.556720 2.175387 0.064878 -0.028716 -213083.000000 0 0 1
-0.912974 -27.552486 -17.788132 32.808393 1.537673 2.143829 0.064704 -0.029257 30977.700000 0 0 1
-0.839374 -26.211436 -17.265532 31.398130 1.538784 2.153029 0.064944 -0.023475 -20003.400000 0 0 1
-1.673074 -26.110156 -15.966032 30.650508 1.506806 2.118708 0.052349 -0.021565 -192394.000000 0 0 1
-1.890874 -24.802346 -15.519232 29.318567 1.494706 2.128608 0.046769 -0.023196 -316986.000000 0 0 1
-2.481274 -24.926246 -14.310832 28.849166 1.471579 2.089848 0.045916 -0.021646 -730773.000000 0 0 1
-2.257874 -23.689546 -13.386532 27.303697 1.475772 2.083211 0.048671 -0.020917 258334.000000 0 0 1
-0.969774 -23.679046 -12.786232 26.928153 1.529864 2.065565 0.035058 -0.015595 -225355.000000 0 0 1
-0.828074 -22.565746 -11.922032 25.534946 1.534117 2.056568 0.038263 -0.012695 -105816.000000 0 0 1
0.342826 -22.639146 -10.937632 25.145184 -1.555654 2.020812 0.042066 -0.015404 1125.260000 0 0 1
0.529826 -21.368846 -10.389632 23.766631 -1.546007 2.023226 0.028849 -0.012099 68740.900000 0 1 0
1.763926 -21.358246 -9.680932 23.516092 -1.488396 1.995085 0.020725 -0.015254 489352.000000 0 1 0
2.184126 -19.882746 -9.458132 22.125783 -1.461385 2.012490 0.018929 -0.007063 -1980640.000000 0 1 0
2.558426 -19.191946 -10.647432 22.096248 -1.438270 2.073579 0.008995 -0.003694 147864.000000 0 1 0
3.336526 -18.003946 -10.355132 21.035761 -1.387553 2.085484 -0.000879 -0.005407 -102281.000000 0 1 0
4.764726 -18.327146 -9.934732 21.384242 -1.316445 2.053959 0.014399 -0.017407 -1495750.000000 0 1 0
4.748226 -18.928746 -8.678332 21.357821 -1.325020 1.989231 0.014712 -0.010227 -658987.000000 0 1 0
5.836126 -19.822446 -8.529432 22.354887 -1.284467 1.962265 0.028426 -0.000295 -318925.000000 0 1 0
5.558526 -20.897146 -7.416132 22.860161 -1.310822 1.901187 0.033306 -0.006852 335513.000000 0 1 0
4.762126 -22.013746 -7.873632 23.859525 -1.357754 1.907099 0.034589 -0.015423 378440.000000 0 1 0
4.805126 -23.020946 -6.892532 24.506330 -1.365022 1.855898 0.050454 -0.017725 162874.000000 0 1 0
3.870526 -24.189846 -7.285232 25.557861 -1.412135 1.859853 0.055631 -0.015501 284537.000000 0 0 1
4.412226 -24.951446 -8.306132 26.665225 -1.395773 1.887564 0.044336 -0.013099 -321876.000000 0 0 1
3.385226 -25.220096 -9.210332 27.061841 -1.437367 1.918079 0.038817 -0.009247 55515.500000 0 0 1
3.902926 -26.009666 -10.432832 28.294515 -1.421851 1.948431 0.024913 -0.009793 7441.490000 0 0 1
4.070526 -27.383476 -10.250532 29.521134 -1.423228 1.925409 0.034111 -0.012894 -159745.000000 0 0 1
4.720726 -27.955326 -11.354632 30.540354 -1.403508 1.951734 0.043293 -0.008621 78836.500000 0 0 1
4.639126 -29.472586 -11.288432 31.899585 -1.414673 1.932506 0.054452 -0.024934 186030.000000 0 0 1
3.297226 -29.947426 -11.454532 32.232380 -1.461138 1.934110 0.068074 -0.029531 658627.000000 0 0 1
3.303026 -31.323936 -11.138832 33.409169 -1.465737 1.910711 0.057118 -0.026871 -131171.000000 0 0 1
2.042726 -32.082136 -11.563332 34.163531 -1.507210 1.916087 0.044971 -0.032183 -345663.000000 0 0 1
1.967526 -32.168766 -12.965932 34.739259 -1.509710 1.953291 0.055766 -0.035247 368178.000000 0 0 1
1.009026 -33.061196 -13.503132 35.726677 -1.540286 1.958384 0.051554 -0.031648 -521644.000000 0 0 1
0.721026 -32.934006 -14.969532 36.183636 -1.548907 1.997322 0.065461 -0.026068 22080.000000 0 0 1
-0.391874 -32.068836 -15.130632 35.461245 1.558577 2.011616 0.065050 -0.026828 -531.345000 0 0 1
-0.747274 -31.999516 -16.500132 36.010857 1.547448 2.046764 0.041242 -0.028164 -240504.000000 0 0 1
-1.994474 -31.152416 -16.731232 35.417300 1.506860 2.062811 0.043102 -0.024331 -813191.000000 0 0 1
-3.183674 -31.705136 -16.307132 35.794888 1.470717 2.043810 0.052964 -0.032071 -785734.000000 0 0 1
-4.290474 -31.175606 -17.008732 35.771827 1.434033 2.066304 0.059267 -0.025193 913004.000000 0 0 1
-5.648374 -31.132066 -16.227132 35.558818 1.391316 2.044681 0.055820 -0.027244 -100709.000000 0 0 1
-5.741974 -30.064426 -15.256932 34.199620 1.382080 2.033215 0.039014 -0.021983 968242.000000 0 0 1
-7.099174 -29.704586 -14.914532 33.988292 1.336204 2.025075 0.048911 -0.023119 1139980.000000 0 0 1
-7.980574 -30.761806 -14.154032 34.789581 1.316961 1.989796 0.046348 -0.034649 -13823.500000 0 0 1
-8.181674 -31.995136 -14.828432 36.200980 1.320445 1.992827 0.048473 -0.037666 31.655300 0 0 1
-9.014274 -32.879346 -14.051832 36.874958 1.303209 1.961747 0.042927 -0.028665 144971.000000 0 0 1
-9.070674 33.918988 -14.666232 38.050930 -1.309489 1.966478 0.080114 -0.035319 -444064.000000 0 0 1
-7.983074 33.170620 -14.258332 36.977284 -1.334621 1.966651 0.076937 -0.038820 -426388.000000 0 0 1
-8.227374 31.844943 -14.575532 35.975495 -1.317968 1.987941 0.095738 -0.047322 -371135.000000 0 0 1
-7.444674 -21.611846 -3.236232 23.086106 1.239055 1.711441 0.060800 -0.026665 220816.000000 0 1 0
-7.446274 -20.708146 -4.359332 22.433861 1.225611 1.766360 0.051419 -0.023225 502078.000000 0 1 0
-6.220174 -20.774046 -5.103732 22.277784 1.279871 1.801944 0.046701 -0.021398 687416.000000 0 1 0
-6.190474 -19.767846 -6.306832 21.653310 1.267311 1.866344 0.047124 -0.021095 -447706.000000 0 1 0
-7.024074 -20.036446 -7.359432 22.471271 1.233618 1.904457 0.057865 -0.024494 -628249.000000 0 1 0
-6.794974 -19.136546 -8.409432 21.979482 1.229605 1.963409 0.042097 -0.024250 -108464.000000 0 1 0
-7.806974 -19.423046 -9.550532 23.009047 1.188615 1.998824 0.055256 -0.019245 134636.000000 0 1 0
-7.457874 -20.577646 -10.326632 24.201214 1.223095 2.011636 0.074576 -0.016379 -575179.000000 0 1 0
-8.302874 -20.771946 -11.407232 25.110484 1.190535 2.042362 0.081530 -0.025188 -339567.000000 0 0 1
-7.672174 -21.548446 -12.619832 26.123896 1.228748 2.074961 0.070142 -0.022882 152266.000000 0 0 1
-6.567174 -20.905346 -13.211032 25.586963 1.266419 2.113343 0.067108 -0.022882 -57335.000000 0 0 1
-6.155674 -21.649846 -14.374232 26.706305 1.293778 2.139136 0.057127 -0.019541 -297551.000000 0 0 1
-5.083974 -20.955346 -15.179232 26.370105 1.332785 2.184162 0.051493 -0.012463 413524.000000 0 0 1
-3.762074 -20.922146 -14.591932 25.783985 1.392885 2.172357 0.048020 -0.016840 990074.000000 0 0 1
-2.756774 -20.188146 -15.239632 25.444203 1.435082 2.212977 0.058013 -0.010271 107388.000000 0 0 1
-2.982474 -18.622146 -15.227832 24.239768 1.411988 2.250056 0.049256 -0.006726 -359004.000000 0 1 0
-4.057774 -18.072646 -16.003032 24.478217 1.349933 2.283347 0.054551 -0.008004 149129.000000 0 1 0
-3.900974 -18.214946 -17.411232 25.498096 1.359820 2.322445 0.078485 -0.011944 -1023750.000000 0 0 1
-5.236274 -18.032146 -18.110932 26.087981 1.288183 2.338139 0.080172 -0.007097 -568751.000000 0 0 1
-6.190574 -18.879846 -17.518532 26.489069 1.253950 2.293413 0.063116 -0.008336 -117926.000000 0 0 1
-7.463874 -18.724746 -18.139032 27.117338 1.191489 2.303536 0.062111 -0.007633 715747.000000 0 0 1
-8.572274 -19.515346 -17.352332 27.485197 1.156911 2.254068 0.076847 -0.018966 155367.000000 0 0 1
-8.417674 -20.931746 -17.416732 28.501540 1.188439 2.228221 0.066754 -0.016159 -154383.000000 0 0 1
-9.524974 -21.675946 -17.006932 29.151458 1.156770 2.193704 0.067451 -0.021249 -349176.000000 0 0 1
-9.418774 -23.135246 -17.557232 30.532103 1.184169 2.183451 0.059389 -0.018559 -200232.000000 0 0 1
-9.397674 -23.235946 -18.971232 31.434585 1.186463 2.218698 0.043125 -0.017886 283834.000000 0 0 1
-8.867074 -24.439846 -19.564732 32.537822 1.222753 2.215913 0.072119 -0.024038 -814741.000000 0 0 1
-7.341574 -24.596446 -19.666132 32.336367 1.280734 2.224554 0.095424 -0.026619 -121435.000000 0 0 1
-6.562274 -23.612546 -20.370632 31.868142 1.299722 2.264275 0.097757 -0.018369 381370.000000 0 0 1
-6.409374 -22.321146 -19.800932 30.518692 1.291176 2.276820 0.075353 -0.013010 -1300640.000000 0 0 1
-5.329674 -22.177046 -18.765932 29.536199 1.334945 2.259263 0.108187 -0.009337 -1193860.000000 0 0 1
-4.098174 -22.614946 -19.253732 29.982279 1.391526 2.268123 0.100488 -0.023390 -679299.000000 0 0 1
-3.081574 -22.149946 -18.396032 28.957386 1.432560 2.259167 0.055946 -0.020909 12879.400000 0 0 1
-1.711074 -22.801546 -18.658932 29.512608 1.495895 2.255232 0.084133 -0.023021 125567.000000 0 0 1
-0.856874 -22.307346 -19.677932 29.758578 1.532403 2.293283 0.098412 -0.019231 654738.000000 0 0 1
0.408626 -23.002046 -19.634032 30.244939 -1.553033 2.277286 0.075081 -0.026969 1699900.000000 0 0 1
1.550926 -22.403546 -20.557132 30.445360 -1.501680 2.312051 0.105009 -0.031466 772516.000000 0 0 1
1.401726 -22.543746 -21.919332 31.474473 -1.508698 2.341188 0.109921 -0.040843 -378587.000000 0 0 1
0.861926 -21.429846 -22.554632 31.123828 -1.530597 2.381358 0.114567 -0.033821 -133975.000000 0 0 1
0.548026 -21.612646 -24.109332 32.383124 -1.545445 2.410586 0.124818 -0.037487 290805.000000 0 0 1
-0.009674 -20.537046 -24.865932 32.250348 1.570325 2.451251 0.120111 -0.039953 -514601.000000 0 0 1
-1.383374 -20.350946 -24.707032 32.039229 1.502925 2.451441 0.109688 -0.030609 -576024.000000 0 0 1
-1.859274 -19.143946 -25.496832 31.938003 1.473979 2.495301 0.098584 -0.019581 -340744.000000 0 0 1
-1.248174 -17.992146 -25.085782 30.896145 1.501534 2.518262 0.088821 -0.019437 -116257.000000 0 0 1
-1.850474 -16.829046 -25.675322 30.754890 1.461279 2.558633 0.079382 -0.015119 -53123.200000 0 0 1
-1.266374 -15.510046 -25.191192 29.610157 1.489328 2.588230 0.072075 -0.013871 -435476.000000 0 0 1
0.079126 -15.396246 -25.570952 29.848355 -1.565657 2.599625 0.064891 -0.021850 -681524.000000 0 0 1
0.620626 -14.134846 -25.191492 28.892739 -1.526917 2.629859 0.050685 -0.026094 247055.000000 0 0 1
0.305826 -12.893646 -26.069362 29.085242 -1.547082 2.682171 0.046595 -0.018542 -209490.000000 0 0 1
1.043426 -11.768846 -25.644282 28.235150 -1.482368 2.709854 0.032356 -0.016201 3296.510000 0 0 1
0.801326 -10.598346 -26.374222 28.435307 -1.495331 2.758510 0.027202 -0.015665 -202084.000000 0 0 1
1.712226 -9.346146 -26.026112 27.706330 -1.389604 2.791545 0.042832 -0.015475 1712610.000000 0 0 1
3.091726 -9.239946 -26.451582 28.189033 -1.247902 2.788664 0.053638 -0.018668 955644.000000 0 0 1
3.354226 -9.497746 -27.852292 29.617701 -1.231309 2.794582 0.047867 -0.008166 -1436700.000000 0 0 1
4.732526 -9.097646 -28.298702 30.099510 -1.091126 2.793930 0.057213 -0.009007 -1813180.000000 0 0 1
4.931126 -7.708246 -28.489122 29.922620 -1.001681 2.830806 0.064906 -0.013587 -152436.000000 0 0 1
6.190526 -7.348946 -29.014852 30.564543 -0.870749 2.821791 0.087641 -0.021238 -479368.000000 0 0 1
7.295726 -7.343246 -27.918512 29.775732 -0.788644 2.786535 0.091457 -0.024372 -552844.000000 0 0 1
7.730426 -8.578646 -27.424402 29.756520 -0.837360 2.743048 0.071776 -0.022979 66068.200000 0 0 1
8.464226 -9.403246 -28.314632 31.012620 -0.837905 2.721383 0.083913 -0.026992 -606054.000000 0 0 1
8.883826 -10.793246 -27.736802 31.060372 -0.882133 2.674756 0.104239 -0.032289 593461.000000 0 0 1
7.776226 -11.692946 -27.483362 30.863083 -0.983924 2.669224 0.089293 -0.032227 806497.000000 0 0 1
8.148326 -12.920246 -26.940892 30.969980 -1.008135 2.625803 0.090790 -0.033776 -531439.000000 0 0 1
8.981826 -13.938146 -27.734522 32.313292 -0.998364 2.602745 0.103026 -0.044774 -182747.000000 0 0 1
8.269926 -14.645746 -28.727142 33.288711 -1.056765 2.611914 0.105960 -0.046153 -395501.000000 0 0 1
9.004226 -15.693846 -29.261802 34.403866 -1.049908 2.587804 0.107830 -0.045913 -268127.000000 0 0 1
8.261626 -16.305846 -30.440492 35.507164 -1.101830 2.600809 0.082042 -0.042811 -200666.000000 0 0 1
8.088826 -15.357346 -31.495052 35.961306 -1.086012 2.637895 0.083394 -0.035279 558642.000000 0 0 1
7.212826 -15.857346 -32.500022 36.874541 -1.143911 2.649545 0.079007 -0.033603 -175133.000000 0 0 1
6.202226 -14.855246 -33.085752 36.794197 -1.175286 2.688759 0.075430 -0.024830 123894.000000 0 0 1
6.838026 -13.882546 -33.903922 37.268749 -1.113116 2.713392 0.092233 -0.028180 239552.000000 0 0 1
5.874926 -13.058446 33.677870 36.595583 -1.148030 0.402023 0.054288 -0.021285 249840.000000 0 0 1
6.570626 -11.924246 32.836250 35.546872 -1.067162 0.393050 0.090973 -0.026288 125605.000000 0 0 1
7.135126 -12.350546 31.633951 34.700906 -1.046922 0.423594 0.084380 -0.029509 125770.000000 0 0 1
7.470926 -11.212246 30.819581 33.635930 -0.983035 0.412130 0.087685 -0.024748 -37385.700000 0 0 1
7.676226 -11.694746 29.396311 32.555102 -0.989947 0.444162 0.080879 -0.020324 -257594.000000 0 0 1
6.490026 -12.119046 28.789161 31.903096 -1.079136 0.445503 0.082378 -0.020182 -114245.000000 0 0 1
6.635926 -12.130646 27.369011 30.663510 -1.070230 0.467806 0.086655 -0.018776 -393005.000000 0 0 1
5.593226 -12.925946 26.621741 30.117791 -1.162411 0.486615 0.071022 -0.028403 -718729.000000 0 0 1
5.713426 -14.336446 26.809981 30.934641 -1.191563 0.522317 0.077632 -0.021185 20891.200000 0 0 1
5.259026 -15.117746 25.700891 30.277705 -1.236019 0.557011 0.051522 -0.017585 -280469.000000 0 0 1
3.747726 -15.338246 25.589311 30.068590 -1.331153 0.552850 0.049705 -0.023458 -573725.000000 0 0 1
2.993526 -14.211646 25.256021 29.134150 -1.363192 0.521873 0.043927 -0.025277 -388478.000000 0 0 1
1.679626 -14.557946 24.878501 28.873773 -1.455929 0.532324 0.039583 -0.023515 134289.000000 0 0 1
0.785426 -13.335546 24.574901 27.971047 -1.511967 0.497908 0.023348 -0.023677 -152874.000000 0 0 1
1.322726 -12.496046 23.475921 26.627423 -1.465337 0.491461 0.007641 -0.017480 88904.600000 0 0 1
0.668426 -11.257646 23.194251 25.790593 -1.511491 0.452562 0.013527 -0.016387 1097630.000000 0 0 1
-0.840574 -11.341246 22.732471 25.418412 1.496815 0.463863 0.032460 -0.025723 777697.000000 0 0 1
-0.967474 -11.927046 21.442071 24.555098 1.489858 0.509019 0.033393 -0.024242 -1006650.000000 0 1 0
-2.153574 -12.627946 21.389671 24.932327 1.401881 0.539610 0.049180 -0.024862 -629395.000000 0 1 0
-2.294374 -13.612146 20.236871 24.496645 1.403812 0.598631 0.051732 -0.021251 635551.000000 0 1 0
-1.277474 -14.632546 20.215471 24.988170 1.483714 0.628345 0.064561 -0.023227 99479.000000 0 1 0
-1.315574 -15.339846 18.996471 24.452148 1.485244 0.681095 0.070094 -0.027821 -120601.000000 0 1 0
-2.483374 -16.332546 18.862371 25.074055 1.419901 0.719301 0.058919 -0.029608 25399.500000 0 0 1
-2.178974 -17.429646 17.987871 25.141679 1.446426 0.773514 0.044218 -0.022249 -158169.000000 0 0 1
-3.185874 -18.453746 17.910071 25.912568 1.399840 0.807685 0.053334 -0.016725 288641.000000 0 0 1
-2.803574 -19.728346 17.153571 26.292826 1.429633 0.860043 0.046319 -0.015526 178688.000000 0 0 1
-1.744674 -20.436946 17.778471 27.143815 1.485634 0.856649 0.060774 -0.022859 -47557.300000 0 0 1
-1.830474 -21.768546 17.388871 27.921194 1.486906 0.898500 0.050319 -0.038478 -411994.000000 0 0 1
-0.741074 -22.630546 18.018771 28.937293 1.538061 0.898629 0.067756 -0.031259 -151837.000000 0 0 1
0.520126 -22.273646 17.495071 28.327784 -1.547449 0.905116 0.088419 -0.036533 -409324.000000 0 0 1
1.494826 -23.184246 17.978171 29.376154 -1.506410 0.912211 0.086508 -0.026263 -249729.000000 0 0 1
2.882526 -23.052646 17.353871 28.998109 -1.446401 0.929233 0.094116 -0.030604 -501301.000000 0 0 1
3.553826 -21.908646 17.758371 28.424957 -1.409986 0.895990 0.096446 -0.033357 -999948.000000 0 0 1
4.445126 -21.534646 16.785671 27.663313 -1.367238 0.918787 0.087565 -0.030036 -437213.000000 0 0 1
5.133426 -20.181546 17.191971 27.003902 -1.321716 0.880653 0.083436 -0.026981 51124.400000 0 0 1
6.086026 -20.458546 18.248871 28.082256 -1.281652 0.863427 0.082175 -0.017034 921478.000000 0 0 1
6.957026 -19.350246 18.616171 27.737954 -1.225655 0.835045 0.090868 -0.010161 1252960.000000 0 0 1
7.950026 -18.732946 17.576971 26.890074 -1.169445 0.858385 0.074285 -0.013371 -211283.000000 0 0 1
7.296426 -17.962446 16.541071 25.485179 -1.184953 0.864466 0.078357 -0.016607 43349.300000 0 0 1
8.223726 -17.264546 15.765271 24.783825 -1.126258 0.881348 0.084291 -0.011348 -78362.800000 0 1 0
7.539226 -16.363546 14.724971 23.268656 -1.139053 0.885601 0.076385 -0.014348 365625.000000 0 1 0
6.570926 -16.962646 13.866671 22.873413 -1.201220 0.919478 0.067625 -0.015807 323210.000000 0 1 0
6.035126 -16.130446 12.872371 21.501441 -1.212775 0.928951 0.063495 -0.019345 -126316.000000 0 1 0
6.521126 -16.464546 11.469671 21.098809 -1.193682 0.996056 0.067520 -0.009656 -132887.000000 0 1 0
7.870726 -16.068046 11.359071 21.193370 -1.115312 1.005137 0.064489 -0.009445 -127952.000000 0 1 0
8.350726 -16.490446 10.078971 21.053624 -1.102044 1.071590 0.069095 -0.009414 -261719.000000 0 1 0
9.771726 -16.001046 9.834071 21.171421 -1.022551 1.087729 0.055470 -0.006662 -308839.000000 0 1 0
10.415426 -16.555546 8.718171 21.414334 -1.009240 1.151499 0.053890 -0.002621 -3176.350000 0 1 0
11.723626 -16.026046 8.563171 21.624187 -0.939217 1.163640 0.049442 -0.008247 622643.000000 0 1 0
12.737926 -16.854946 7.716571 22.491986 -0.923633 1.220601 0.055914 -0.014210 149540.000000 0 1 0
12.973026 -18.135046 8.372971 23.817765 -0.949838 1.211577 0.058469 -0.013916 226271.000000 0 1 0
13.802026 -18.953946 7.545671 24.630979 -0.941402 1.259441 0.055798 -0.016165 297771.000000 0 1 0
14.411826 -20.165346 8.375871 26.162896 -0.950284 1.244916 0.054539 -0.018439 85264.900000 0 0 1
13.454426 -21.041346 8.890771 26.510482 -1.001889 1.228800 0.050892 -0.012367 179230.000000 0 0 1
14.193026 -22.068946 9.555371 27.924639 -0.999271 1.221556 0.047982 -0.011076 581195.000000 0 0 1
13.264426 -23.111146 10.212271 28.537003 -1.049759 1.204820 0.064371 -0.013342 176531.000000 0 0 1
12.615426 -22.672546 11.399871 28.339908 -1.063039 1.156818 0.057488 -0.017370 -269240.000000 0 0 1
11.584426 -23.456746 11.921371 28.749556 -1.112070 1.143224 0.071641 -0.014166 -329727.000000 0 0 1
12.006226 -24.849146 12.450271 30.276043 -1.120708 1.146999 0.055666 -0.024965 -242813.000000 0 0 1
13.004526 -24.768046 13.440671 31.035874 -1.087308 1.122902 0.032769 -0.021205 -131671.000000 0 0 1
13.338226 -26.045156 13.811571 32.357656 -1.097500 1.129800 0.030573 -0.025637 205480.000000 0 0 1
14.446826 -26.175466 14.913671 33.410828 -1.066478 1.108089 0.039671 -0.016335 346716.000000 0 0 1
14.111726 -25.601856 16.209371 33.426630 -1.067033 1.064520 0.041860 -0.016980 -114228.000000 0 0 1
14.863026 -26.178036 17.205971 34.673399 -1.054415 1.051546 0.045070 -0.016989 -760780.000000 0 0 1
14.660026 -25.638616 18.599871 34.902868 -1.051374 1.008768 0.049735 -0.022105 -207209.000000 0 0 1
15.134626 -24.352746 18.883071 34.331961 -1.014736 0.988415 0.034937 -0.016891 474404.000000 0 0 1
16.537326 -24.313946 19.148271 35.089990 -0.973512 0.993584 0.031780 -0.017909 490866.000000 0 0 1
17.160926 -22.963246 19.556371 34.702445 -0.929012 0.972126 0.024309 -0.011408 -213574.000000 0 0 1
17.181426 -21.974346 18.520471 33.482550 -0.907199 0.984670 0.016116 -0.011186 -412282.000000 0 0 1
15.989526 -21.289546 18.336971 32.328845 -0.926623 0.967692 0.030072 -0.005181 -1070830.000000 0 0 1
16.187126 -20.095746 17.340171 31.089284 -0.892711 0.979119 0.018093 -0.007143 -164334.000000 0 0 1
17.066526 -19.063046 17.665671 31.092475 -0.840602 0.966521 0.008636 -0.015062 -537244.000000 0 0 1
18.409526 -19.384246 17.405571 31.900056 -0.811183 0.993658 0.014153 -0.019458 -1157280.000000 0 0 1
19.198826 -18.128746 17.525671 31.692199 -0.756739 0.984840 0.028363 -0.016241 -926134.000000 0 0 1
19.504526 -17.863746 18.890471 32.502152 -0.741518 0.950585 0.024562 -0.009991 44501.100000 0 0 1
19.925826 -16.543146 19.037171 32.142310 -0.692908 0.936914 0.028864 -0.009713 -209437.000000 0 0 1
20.402326 -16.180946 20.499571 33.140766 -0.670515 0.903887 0.035872 -0.007680 30467.800000 0 0 1
21.588126 -16.887046 20.795471 34.404522 -0.663816 0.921734 0.044194 -0.010323 -162744.000000 0 0 1
22.057526 -16.694946 22.115671 35.416925 -0.647891 0.896385 0.054073 -0.010757 39397.300000 0 0 1
33.964160 -1.037946 -7.712032 34.844181 -0.030551 1.793974 0.091357 -0.004083 304354.000000 0 0 1
35.292990 -1.005146 -8.275132 36.264077 -0.028472 1.801015 0.093765 -0.003339 753613.000000 0 0 1
35.945610 -2.218846 -8.171732 36.929492 -0.061650 1.793922 0.101488 -0.008456 408455.000000 0 0 1
-35.720819 -2.058146 -8.686232 36.819336 0.057554 1.808956 0.107135 -0.013887 718136.000000 0 0 1
-34.935183 -3.238246 -8.537332 36.108715 0.092429 1.809491 0.128158 -0.014867 315985.000000 0 0 1
-33.553514 -2.916646 -8.618232 34.765199 0.086707 1.821307 0.188422 -0.022874 893643.000000 0 0 1
-32.590694 -4.106146 -8.160832 33.846905 0.125331 1.814306 0.179242 -0.023588 375874.000000 0 0 1
-32.276914 -4.089146 -6.786832 33.235243 0.126018 1.776449 0.172548 -0.028502 519151.000000 0 0 1
-31.003974 -4.715546 -6.626432 32.052962 0.150938 1.779032 0.167072 -0.033550 431369.000000 0 0 1
-30.528794 -4.639246 -5.158332 31.307160 0.150809 1.736316 0.165025 -0.044239 -163974.000000 0 0 1
-30.206894 -3.319046 -4.833632 30.770709 0.109438 1.728535 0.157285 -0.042456 298513.000000 0 0 1
-30.029224 -3.135446 -3.470032 30.391223 0.104036 1.685225 0.156746 -0.044660 -207766.000000 0 0 1
-29.569054 -1.742646 -3.046432 29.776610 0.058867 1.673285 0.159763 -0.041614 -448529.000000 0 0 1
-28.223074 -1.408246 -3.277132 28.447578 0.049856 1.686252 0.154852 -0.039856 244122.000000 0 0 1
-28.006754 -0.051846 -3.059632 28.173433 0.001851 1.679611 0.161997 -0.044753 337205.000000 0 0 1
-26.489244 0.214854 -2.778032 26.635384 -0.008111 1.675285 0.156686 -0.032009 497959.000000 0 0 1
-26.053324 -0.390646 -1.555132 26.102619 0.014993 1.630409 0.137090 -0.031549 500364.000000 0 0 1
-24.638574 -0.398646 -1.473132 24.685793 0.016178 1.630507 0.114246 -0.027373 503778.000000 0 1 0
-24.035074 -1.114846 -0.171632 24.061528 0.046351 1.577929 0.096029 -0.030302 227627.000000 0 1 0
-24.426374 -2.489146 -0.050932 24.552926 0.101553 1.572871 0.112313 -0.032510 263031.000000 0 1 0
-23.529174 -3.126746 0.834768 23.750693 0.132114 1.535642 0.094230 -0.029647 -192156.000000 0 1 0
-23.648074 -4.677346 0.816368 24.120021 0.195269 1.536944 0.095070 -0.026844 -389975.000000 0 1 0
-24.698174 -5.138346 1.636968 25.280073 0.205120 1.505998 0.098494 -0.033596 172256.000000 0 0 1
-24.872574 -6.546846 1.622768 25.770904 0.257378 1.507786 0.081054 -0.024671 82091.600000 0 0 1
-26.223784 -7.037546 2.201868 27.240817 0.262187 1.489878 0.099638 -0.023739 -786.637000 0 0 1
-26.180924 -7.085846 3.590068 27.359433 0.264317 1.439198 0.097567 -0.025487 706304.000000 0 0 1
-27.465494 -7.455546 4.102968 28.753659 0.265064 1.427614 0.095829 -0.016356 577529.000000 0 0 1
-27.535254 -7.585546 5.596168 29.104086 0.268817 1.377310 0.105416 -0.015777 -210545.000000 0 0 1
-26.766734 -8.663446 6.062568 28.779647 0.313024 1.358552 0.090446 -0.006534 -48239.200000 0 0 1
-26.586824 -8.798346 7.463668 28.982347 0.319585 1.310337 0.096124 -0.023207 77769.400000 0 0 1
-25.897604 -7.709946 8.363968 28.285776 0.289354 1.270613 0.104955 -0.021048 48061.600000 0 0 1
-24.546774 -7.497246 8.009668 26.886941 0.296428 1.268302 0.112125 -0.017935 16759.900000 0 0 1
-24.182074 -6.191446 8.426668 26.346071 0.250650 1.245230 0.110446 -0.031344 161927.000000 0 0 1
-22.701174 -5.817846 8.129568 24.804848 0.250880 1.236885 0.097641 -0.028702 312881.000000 0 1 0
-21.690074 -6.603246 8.723668 24.293303 0.295522 1.203495 0.094664 -0.027726 -641462.000000 0 1 0
-20.527974 -6.421646 7.982668 22.942499 0.303180 1.215421 0.087327 -0.020306 -1173050.000000 0 1 0
-19.285374 -6.616346 8.824668 22.216580 0.330493 1.162321 0.085057 -0.018594 -740731.000000 0 1 0
-19.128874 -5.447446 9.671068 22.116013 0.277432 1.118215 0.074639 -0.023162 -128826.000000 0 1 0
-18.184674 -5.742346 10.650668 21.842473 0.305870 1.061443 0.070720 -0.027185 -465594.000000 0 1 0
-17.895474 -4.622046 11.680568 21.864285 0.252756 1.007199 0.063572 -0.021735 -359056.000000 0 1 0
-18.968174 -4.382746 12.519768 23.146159 0.227073 0.999289 0.077049 -0.022543 -444352.000000 0 1 0
-18.833274 -3.130046 13.180868 23.199670 0.164692 0.966542 0.069963 -0.019291 934154.000000 0 1 0
-19.939074 -2.919846 14.308368 24.714804 0.145405 0.953369 0.065444 -0.016557 756679.000000 0 1 0
-19.891374 -3.957146 15.290568 25.399355 0.196374 0.924785 0.068820 -0.014004 498631.000000 0 0 1
-21.059574 -3.964846 16.114568 26.812403 0.186090 0.926030 0.064690 -0.009461 446920.000000 0 0 1
-20.919674 -5.087446 17.172068 27.538968 0.238559 0.897514 0.060753 -0.001082 -10822.600000 0 0 1
-21.945874 -5.027946 18.130568 28.907077 0.225220 0.892841 0.054401 -0.001137 340203.000000 0 0 1
-21.542374 -5.698646 19.325368 29.496072 0.258608 0.856370 0.062241 0.001225 -96636.000000 0 0 1
-22.356474 -5.238246 20.556968 30.819476 0.230154 0.840605 0.069335 -0.001394 -243646.000000 0 0 1
-22.202774 -3.900046 20.987068 30.799846 0.173882 0.821120 0.067381 -0.004145 -28117.200000 0 0 1
-22.999974 -3.578346 22.075868 32.080326 0.154343 0.811869 0.072339 -0.006930 -275080.000000 0 0 1
-23.014374 -2.033346 22.191568 32.035318 0.088122 0.805540 0.062290 -0.000492 33782.000000 0 0 1
-24.132674 -1.488446 21.515768 32.365563 0.061600 0.843606 0.078486 -0.012205 -141932.000000 0 0 1
-24.172574 -0.067246 21.597368 32.415492 0.002782 0.841605 0.065578 -0.008958 -326179.000000 0 0 1
-25.504594 0.641554 21.303468 33.237534 -0.025149 0.875066 0.079944 -0.010329 -109612.000000 0 0 1
-26.477224 0.386254 22.294868 34.615801 -0.014587 0.870994 0.087694 -0.011678 -310025.000000 0 0 1
-27.722654 0.939454 21.942268 35.367941 -0.033875 0.901544 0.088031 -0.013038 248341.000000 0 0 1
-28.768864 0.900454 23.103768 36.908569 -0.031289 0.894418 0.080866 -0.010915 -10680.400000 0 0 1
-28.477334 1.836154 24.095068 37.348391 -0.064389 0.869585 0.066381 -0.010749 104633.000000 0 0 1
-29.425394 1.758754 25.125968 38.733206 -0.059699 0.864930 0.064691 -0.009727 -344323.000000 0 0 1
-28.980894 2.732154 26.273668 39.213040 -0.093996 0.836556 0.082551 -0.019392 258851.000000 0 0 1
-27.843814 2.365354 27.035568 38.881805 -0.084747 0.801922 0.067952 -0.027173 371852.000000 0 0 1
-27.539354 3.183454 28.168268 39.522167 -0.115086 0.777427 0.060362 -0.028227 -779526.000000 0 0 1
-26.313214 2.706154 28.898968 39.177274 -0.102484 0.741219 0.074223 -0.026787 -829972.000000 0 0 1
-26.522784 1.657154 29.805568 39.932144 -0.062399 0.728152 0.066123 -0.028427 242204.000000 0 0 1
-25.381144 1.368954 30.595168 39.776133 -0.053884 0.693233 0.066007 -0.026285 -38250.300000 0 0 1
-25.599824 0.210354 31.595668 40.665482 -0.008217 0.680965 0.049404 -0.028561 -408400.000000 0 0 1
-25.897754 -0.944446 30.871968 40.307121 0.036452 0.698328 0.039586 -0.028487 -197325.000000 0 0 1
-26.145724 -2.092746 31.578168 41.050690 0.079871 0.693133 0.041254 -0.016326 -649750.000000 0 0 1
-26.938664 -3.109846 30.698268 40.960303 0.114933 0.723544 0.044875 -0.013713 77895.600000 0 0 1
-28.255134 -2.713846 30.370368 41.570143 0.095754 0.751624 0.051081 -0.011577 -235231.000000 0 0 1
-28.383594 -1.709046 29.432368 40.924485 0.060140 0.768164 0.054748 -0.012569 -275741.000000 0 0 1
-29.860324 -1.267346 29.139868 41.741790 0.042417 0.798058 0.062067 -0.021344 952899.000000 0 0 1
-30.495544 -0.786446 30.312668 43.005285 0.025783 0.788572 0.074346 -0.022215 -1020960.000000 0 0 1
-31.785474 -0.341346 30.044868 43.739307 0.010739 0.813571 0.059702 -0.026169 -502216.000000 0 0 1
-32.663014 -0.225246 31.283868 45.228349 0.006896 0.806974 0.065904 -0.018410 -120071.000000 0 0 1
-33.247524 -1.399646 31.829468 46.048582 0.042073 0.807627 0.073810 -0.023891 123745.000000 0 0 1
-33.852604 -1.079546 33.077968 47.342541 0.031879 0.797225 0.100717 -0.015971 57275.000000 0 0 1
-34.149769 -2.336146 33.885268 48.165088 0.068302 0.790453 0.101977 -0.020196 359466.000000 0 0 1
-35.158220 -3.227646 33.406668 48.605798 0.091547 0.813034 0.076639 -0.015853 420385.000000 0 0 1
-34.963596 -4.522646 33.954068 48.946767 0.128639 0.804192 0.077592 -0.012045 188928.000000 0 0 1
-36.127444 -5.452346 33.511468 49.577603 0.149789 0.828557 0.081517 -0.013240 1984610.000000 0 0 1
35.742330 -5.104446 -34.045136 49.625002 -0.141853 2.326840 0.086587 -0.023261 1563800.000000 0 0 1
34.592650 -5.647946 33.560468 48.526856 -0.161842 0.807115 0.079019 -0.029818 66243.600000 0 0 1
33.220000 -5.171146 -34.106436 47.891107 -0.154424 2.363376 0.091668 -0.029180 88759.400000 0 0 1
32.929150 -5.749746 -32.806236 46.836285 -0.172867 2.346817 0.080616 -0.033083 79792.400000 0 0 1
32.467550 -7.082446 -32.842536 46.721890 -0.214775 2.350315 0.086358 -0.027585 -266725.000000 0 0 1
31.040710 -7.423446 -33.339136 46.153345 -0.234743 2.377999 0.075127 -0.030871 597464.000000 0 0 1
29.981080 -7.065446 -32.456136 44.745798 -0.231441 2.382332 0.072042 -0.029347 1103510.000000 0 0 1
28.660670 -7.429546 -32.876136 44.243333 -0.253641 2.408451 0.081664 -0.024701 382782.000000 0 0 1
27.493780 -6.776046 -32.151636 42.843324 -0.241642 2.419534 0.079827 -0.030607 -426597.000000 0 0 1
26.292580 -7.397346 -32.545736 42.488180 -0.274258 2.443384 0.071188 -0.028426 -520924.000000 0 0 1
25.214980 -7.026646 -31.738336 41.139895 -0.271775 2.451950 0.068552 -0.028426 -144480.000000 0 0 1
23.868380 -7.559946 -32.323436 40.885901 -0.306738 2.482546 0.056190 -0.034896 225744.000000 0 0 1
23.601080 -8.934746 -32.255736 40.954526 -0.361900 2.477699 0.064347 -0.038644 251716.000000 0 0 1
23.228680 -9.434946 -30.966236 39.843413 -0.385820 2.460998 0.070691 -0.039517 -565759.000000 0 0 1
23.119480 -11.011246 -30.913936 40.142613 -0.444489 2.449799 0.059759 -0.030730 -155468.000000 0 0 1
21.977080 -11.424646 -31.630536 40.174686 -0.479396 2.477255 0.055721 -0.032943 126492.000000 0 0 1
21.886080 -12.816346 -31.528736 40.463816 -0.529759 2.464158 0.050385 -0.019499 -287840.000000 0 0 1
20.732380 -13.407346 -32.407136 40.740778 -0.574042 2.490541 0.038434 -0.014526 23206.400000 0 0 1
19.438880 -13.014446 -32.036636 39.668526 -0.589966 2.510882 0.022053 -0.015938 -226344.000000 0 0 1
18.980680 -11.793346 -32.603836 39.526692 -0.555959 2.540744 0.024235 -0.022299 566402.000000 0 0 1
17.548080 -11.277246 -32.164236 38.336008 -0.571190 2.566255 0.037543 -0.026425 1328110.000000 0 0 1
16.461280 -12.049946 -32.657236 38.505454 -0.631893 2.583223 0.038544 -0.024552 -65971.400000 0 0 1
15.271180 -11.792746 -31.948036 37.322310 -0.657572 2.598286 0.073170 -0.031235 -334861.000000 0 0 1
14.055280 -12.249046 -32.747936 37.683118 -0.716839 2.624044 0.071009 -0.033409 -1230370.000000 0 0 1
13.749880 -13.605646 -32.635836 37.937720 -0.780126 2.606552 0.082437 -0.031322 -336454.000000 0 0 1
12.607180 -13.976146 -33.343036 38.288794 -0.836850 2.627685 0.081017 -0.035956 418918.000000 0 0 1
11.271280 -13.827246 -32.517536 37.089414 -0.886886 2.639825 0.075727 -0.033459 108457.000000 0 0 1
10.864680 -12.487346 -32.380436 36.365749 -0.854774 2.669042 0.106748 -0.025167 -152079.000000 0 0 1
9.765280 -12.517346 -31.478636 35.255484 -0.908283 2.674480 0.105381 -0.030485 -191336.000000 0 0 1
8.658280 -11.547646 -31.855036 34.972236 -0.927431 2.716175 0.097523 -0.023524 -559027.000000 0 0 1
9.055780 -10.218246 -31.866436 34.668277 -0.845638 2.736793 0.090484 -0.016570 -191065.000000 0 0 1
7.934380 -9.424346 -32.064536 34.349777 -0.871022 2.774770 0.095345 -0.011686 -319681.000000 0 0 1
8.293680 -7.940546 -32.418336 34.391655 -0.763649 2.801196 0.101485 -0.010432 -115316.000000 0 0 1
8.656580 -7.068946 -31.355736 33.287964 -0.684780 2.799200 0.081575 -0.014911 239464.000000 0 0 1
9.146380 -5.816846 -31.792636 33.589636 -0.566451 2.813012 0.081606 -0.010495 -118956.000000 0 0 1
9.353280 -4.807346 -30.593236 32.350279 -0.474765 2.810498 0.076868 -0.013688 297384.000000 0 0 1
8.135780 -4.413846 -29.977836 31.374251 -0.497084 2.842118 0.087042 -0.018502 265228.000000 0 0 1
8.421880 -3.452246 -28.982136 30.377793 -0.389024 2.837292 0.076713 -0.018576 -730019.000000 0 0 1
7.170280 -2.917246 -28.389336 29.425799 -0.386400 2.875391 0.081886 -0.022482 -1294530.000000 0 0 1
6.474280 -1.989546 -29.198836 29.974099 -0.298141 2.913660 0.069159 -0.012264 884825.000000 0 0 1
5.170080 -1.611646 -28.738236 29.244031 -0.302179 2.955336 0.090186 -0.020112 1260010.000000 0 0 1
3.961980 -2.591946 -28.871336 29.256957 -0.579325 2.979053 0.082057 -0.020931 -150637.000000 0 0 1
4.010880 -3.651946 -27.952036 28.473500 -0.738591 2.949915 0.083213 -0.025630 -510893.000000 0 0 1
3.010280 -4.598346 -28.095036 28.627568 -0.991163 2.948409 0.081815 -0.018425 -278069.000000 0 0 1
3.147080 -5.715246 -27.056136 27.831684 -1.067457 2.904966 0.065869 -0.023309 -26699.600000 0 0 1
3.039480 -5.224146 -25.764736 26.464160 -1.043856 2.911174 0.069130 -0.022346 157812.000000 0 0 1
3.457080 -6.209146 -24.843336 25.839819 -1.062769 2.862974 0.059480 -0.025443 -258558.000000 0 0 1
3.211180 -5.808146 -23.358036 24.282588 -1.065748 2.864758 0.059320 -0.022538 73945.300000 0 1 0
4.061380 -4.744946 -22.978736 23.812426 -0.862865 2.876199 0.056008 -0.025060 97496.500000 0 1 0
3.819180 -4.434146 -21.623536 22.401453 -0.859772 2.877286 0.050172 -0.021107 151042.000000 0 1 0
4.689180 -3.225046 -21.141936 21.894538 -0.602466 2.878637 0.051689 -0.028096 991092.000000 0 1 0
6.066580 -3.425646 -20.811236 21.946435 -0.514040 2.818551 0.046403 -0.029897 449066.000000 0 1 0
6.663380 -2.248746 -20.376536 21.555990 -0.325476 2.809261 0.045586 -0.020545 -599426.000000 0 1 0
8.129180 -2.435646 -19.995036 21.721358 -0.291106 2.740216 0.058184 -0.023514 -746847.000000 0 1 0
8.929880 -2.493046 -21.182036 23.122212 -0.272248 2.729015 0.063800 -0.031383 349935.000000 0 1 0
10.234580 -3.021846 -21.075536 23.623217 -0.287101 2.672886 0.054463 -0.029057 507029.000000 0 1 0
11.359580 -2.254746 -20.343836 23.409306 -0.195942 2.624073 0.057559 -0.025104 -626425.000000 0 1 0
11.341980 -2.060146 -18.926936 22.161084 -0.179680 2.594541 0.061119 -0.023237 433842.000000 0 1 0
12.624680 -1.715346 -18.423836 22.400060 -0.135045 2.536572 0.066501 -0.018202 111870.000000 0 1 0
12.956680 -0.199646 -18.471236 22.563288 -0.015408 2.529837 0.066075 -0.016875 -201720.000000 0 1 0
13.082980 0.385654 -19.732636 23.678894 0.029469 2.555924 0.056440 -0.021244 279103.000000 0 1 0
13.137280 1.739054 -19.546636 23.615322 0.131610 2.545811 0.072544 -0.031434 -108203.000000 0 1 0
13.502080 2.536854 -20.796836 24.924891 0.185721 2.557804 0.069537 -0.025887 550628.000000 0 1 0
14.900780 2.436654 -21.107236 25.951608 0.162091 2.520650 0.065362 -0.019183 869744.000000 0 0 1
15.242980 3.384054 -22.072336 27.036795 0.218464 2.525913 0.065478 -0.021338 635730.000000 0 0 1
16.693380 3.319754 -22.669536 28.347797 0.196305 2.497580 0.048756 -0.010931 733763.000000 0 0 1
16.743580 2.355054 -23.691636 29.106483 0.139737 2.521740 0.040685 -0.009467 192916.000000 0 0 1
17.562780 1.236654 -23.376036 29.264648 0.070297 2.496062 0.042857 -0.007960 -300024.000000 0 0 1
9.722126 26.791254 3.377768 28.700180 1.222690 1.452831 0.021197 -0.005726 -5936.320000 0 0 1
9.557426 27.077254 4.723668 29.100431 1.231479 1.407752 0.022337 -0.003862 -137182.000000 0 0 1
10.674026 27.712254 5.284668 30.163414 1.203136 1.394686 0.037360 -0.004747 -325552.000000 0 0 1
10.533326 28.049554 6.761868 30.715652 1.211565 1.348834 0.028278 -0.019314 -57031.300000 0 0 1
10.713926 27.027154 7.675368 30.069362 1.193386 1.312684 0.024819 -0.022498 91124.800000 0 0 1
10.601126 27.608454 8.973868 30.905354 1.204175 1.276187 0.024955 -0.017036 -451301.000000 0 0 1
10.534926 26.525354 10.112668 30.279450 1.192737 1.230276 0.034864 -0.012347 584011.000000 0 0 1
11.777326 25.969654 10.560068 30.407949 1.145033 1.216127 0.028786 -0.014521 391093.000000 0 0 1
12.361526 25.033954 9.681568 29.550616 1.112129 1.237006 0.036840 -0.021857 -248570.000000 0 0 1
13.695326 24.493854 10.250968 29.876298 1.060968 1.220566 0.056877 -0.026141 -4951.730000 0 0 1
14.724126 25.474054 10.227468 31.150095 1.046707 1.236263 0.060740 -0.026619 -942075.000000 0 0 1
15.835126 24.949554 10.835568 31.474449 1.005262 1.219340 0.063638 -0.029140 -1491140.000000 0 0 1
16.854626 26.009754 11.127168 32.930223 0.995820 1.226110 0.062591 -0.028638 -1537460.000000 0 0 1
17.361126 26.666954 9.999968 33.354677 0.993694 1.266306 0.065060 -0.036414 1127970.000000 0 0 1
18.788526 26.492554 9.820568 33.930925 0.953922 1.277167 0.073348 -0.038343 1546170.000000 0 0 1
19.707126 27.256154 10.852368 35.341797 0.944778 1.258685 0.067656 -0.033214 -834953.000000 0 0 1
19.718826 28.658554 10.845268 36.438505 0.968128 1.268585 0.076115 -0.044725 156671.000000 0 0 1
18.534926 29.288954 11.307868 36.458938 1.006586 1.255442 0.052830 -0.035287 120350.000000 0 0 1
18.769226 30.842854 11.404868 37.863392 1.024118 1.264834 0.053298 -0.033640 -897114.000000 0 0 1
19.072926 31.625454 10.256668 38.329428 1.028109 1.299903 0.077445 -0.049329 342712.000000 0 0 1
18.041226 31.699954 9.276668 37.635481 1.053389 1.321742 0.077674 -0.054867 -526745.000000 0 0 1
16.667926 32.178454 9.643268 37.500203 1.092865 1.310722 0.071895 -0.043255 -1522430.000000 0 0 1
16.685826 33.476954 10.113968 38.748104 1.108408 1.306719 0.068965 -0.038528 1144930.000000 0 0 1
15.368126 34.084454 10.058568 38.718265 1.147208 1.307993 0.066976 -0.023315 1296210.000000 0 0 1
15.571126 -32.593446 10.465768 37.607512 -1.125116 1.288784 0.059653 -0.017954 52708.200000 0 0 1
16.281026 -31.956146 9.432868 37.084310 -1.099593 1.313608 0.059377 -0.018234 -64654.000000 0 0 1
16.249826 -30.640346 9.585468 35.982896 -1.083172 1.301151 0.055197 -0.011030 255687.000000 0 0 1
16.949626 -29.962646 8.334468 35.419109 -1.055985 1.333259 0.051497 -0.009856 226857.000000 0 0 1
16.188126 -29.974646 7.164968 34.811946 -1.075616 1.363496 0.042304 -0.013924 -167158.000000 0 0 1
16.977326 -29.424346 6.133068 34.520085 -1.047474 1.392181 0.045561 0.002709 121407.000000 0 0 1
16.467426 -29.582046 4.671868 34.177476 -1.062847 1.433673 0.041672 -0.000350 -32728.400000 0 0 1
16.632526 -30.880646 4.149368 35.319576 -1.076742 1.453044 0.046385 -0.007252 -114180.000000 0 0 1
16.651926 -30.885846 2.741668 35.195722 -1.076326 1.492820 0.037997 -0.002474 -189346.000000 0 0 1
16.858826 -32.262246 2.161068 36.465638 -1.089267 1.511498 0.041845 -0.008124 -447739.000000 0 0 1
18.193526 -32.662646 2.271168 37.456789 -1.062585 1.510125 0.040867 -0.005490 -397606.000000 0 0 1
18.397826 -33.869846 1.637668 38.578860 -1.073195 1.528334 0.061030 -0.011883 113851.000000 0 0 1
19.846326 33.792754 1.846568 39.233107 1.039771 1.523712 0.066609 -0.018482 328631.000000 0 0 1
20.133726 33.510154 3.216668 39.225556 1.029771 1.488700 0.071686 -0.046032 -1349570.000000 0 0 1
21.459626 33.253254 3.395768 39.721854 0.997705 1.485203 0.070238 -0.032544 -1399210.000000 0 0 1
21.766526 33.120254 4.926068 39.937439 0.989378 1.447137 0.078237 -0.033721 -290143.000000 0 0 1
21.306626 31.827654 5.453768 38.687407 0.980878 1.429355 0.075822 -0.045721 -133449.000000 0 0 1
22.112626 30.679154 5.408668 38.202518 0.946266 1.428740 0.060078 -0.051793 -451571.000000 0 0 1
21.664026 29.641754 6.430668 37.273544 0.939657 1.397402 0.082127 -0.055396 419709.000000 0 0 1
20.371826 29.241054 5.986368 36.137060 0.962298 1.404372 0.075888 -0.047661 -465111.000000 0 0 1
19.615526 28.725654 7.023168 35.486010 0.971668 1.371567 0.082132 -0.057246 -443003.000000 0 0 1
18.107326 28.741754 6.699768 34.624421 1.008609 1.376070 0.092437 -0.048304 -185220.000000 0 0 1
17.508126 30.005654 6.527568 35.348025 1.042602 1.385065 0.077177 -0.047165 -220221.000000 0 0 1
17.822026 30.696454 5.307168 35.889593 1.044772 1.422377 0.092493 -0.049991 -622291.000000 0 0 1
17.737926 32.220054 5.436368 37.179564 1.067551 1.424051 0.087461 -0.045092 62673.600000 0 0 1
16.398926 32.647254 5.532868 36.951056 1.105305 1.420496 0.070726 -0.043205 -372800.000000 0 0 1
16.313026 34.017854 5.761268 38.164400 1.123648 1.419258 0.066277 -0.042413 404485.000000 0 0 1
14.905026 -33.472946 5.800368 37.097738 -1.151870 1.413798 0.056975 -0.034560 363494.000000 0 0 1
14.233826 -33.494046 4.595768 36.682066 -1.168955 1.445180 0.052133 -0.023709 -799245.000000 0 0 1
13.069926 -32.727746 4.674068 35.549616 -1.190848 1.438934 0.043166 -0.016223 -288244.000000 0 0 1
12.335226 -32.646946 3.286268 35.053964 -1.209541 1.476910 0.050314 -0.014767 -120336.000000 0 0 1
11.369126 -31.624446 3.353368 33.772884 -1.225680 1.471341 0.055791 -0.018365 -79184.000000 0 0 1
10.723826 -31.453046 2.106168 33.297605 -1.242209 1.507501 0.054085 -0.015053 -476693.000000 0 0 1
9.767726 -30.242546 1.940268 31.839986 -1.258393 1.509820 0.069091 -0.017707 170463.000000 0 0 1
9.309626 -29.955246 0.626668 31.374808 -1.269475 1.550821 0.078745 -0.014597 -32524.600000 0 0 1
8.337726 -30.874846 0.159968 31.981235 -1.307039 1.565794 0.065231 -0.016798 -333761.000000 0 0 1
8.835026 -31.711946 -1.107932 32.938317 -1.299084 1.604439 0.079393 -0.014754 -541481.000000 0 0 1
9.928826 -32.514746 -0.872132 34.008100 -1.274426 1.596444 0.078858 -0.018589 -921997.000000 0 0 1
10.222826 -33.277046 -2.020632 34.870488 -1.272744 1.628776 0.083303 -0.013120 154417.000000 0 0 1
11.555526 -34.057846 -1.874932 36.013642 -1.243693 1.622882 0.074520 -0.015991 -2800.310000 0 0 1
11.486326 33.121554 -0.865832 35.067402 1.236981 1.595489 0.071664 -0.015638 -568560.000000 0 0 1
12.671926 32.412154 -0.817832 34.810835 1.198105 1.594292 0.075613 -0.017892 -917441.000000 0 0 1
12.875026 31.596354 0.473468 34.122134 1.183854 1.556920 0.063190 -0.017769 -712987.000000 0 0 1
13.118326 32.462054 1.557668 35.047136 1.186750 1.526337 0.060991 -0.022592 137154.000000 0 0 1
14.449326 32.893554 1.737068 35.969241 1.156897 1.522484 0.070777 -0.018336 55601.900000 0 0 1
15.591126 31.879254 2.084068 35.548746 1.115932 1.512137 0.073235 -0.023581 -452700.000000 0 0 1
16.007726 31.377154 0.833168 35.234461 1.099045 1.547148 0.079337 -0.022281 -758657.000000 0 0 1
16.783026 30.281454 1.089068 34.638454 1.064708 1.539350 0.086801 -0.017511 -937697.000000 0 0 1
17.508726 29.746254 -0.183832 34.517081 1.038799 1.576122 0.082651 -0.009476 735547.000000 0 0 1
18.590926 30.618154 -0.613232 35.825548 1.025109 1.587914 0.065834 0.002383 737756.000000 0 0 1
18.213926 31.727654 -1.419832 36.611570 1.049660 1.609587 0.060082 -0.002004 198244.000000 0 0 1
19.470126 32.347854 -2.095032 37.813471 1.028982 1.626229 0.051704 0.000198 42206.300000 0 0 1
20.254126 33.223454 -1.414632 38.936213 1.023324 1.607136 0.039580 0.001517 81229.500000 0 0 1
21.227026 33.939354 -2.208132 40.091673 1.011881 1.625901 0.034085 0.004169 -108665.000000 0 0 1
22.326926 -33.500146 -1.366932 40.281756 -0.982928 1.604737 0.037248 0.000262 891905.000000 0 0 1
23.384026 33.839954 -0.798832 41.141138 0.966124 1.590214 0.035777 -0.005782 1606840.000000 0 0 1
24.206826 33.019154 -1.650932 40.975121 0.938190 1.611098 0.046792 -0.001869 28357.700000 0 0 1
24.951326 33.654054 -2.872632 41.993047 0.932818 1.639257 0.037058 -0.005490 -870361.000000 0 0 1
24.079026 34.039954 -3.902632 41.877780 0.955138 1.664123 0.031056 -0.007934 -346.569000 0 0 1
24.759426 -33.318446 -4.844032 41.792495 -0.931716 1.686964 0.031194 -0.009955 543910.000000 0 0 1
23.850626 -32.767846 -6.023632 40.973995 -0.941612 1.718342 0.032011 -0.013988 596388.000000 0 0 1
22.821426 -31.856346 -5.629732 39.589622 -0.949158 1.713482 0.038394 -0.010196 558092.000000 0 0 1
22.132326 -31.481146 -6.839232 39.085515 -0.958037 1.746683 0.045126 -0.015303 40751.100000 0 0 1
21.087426 -30.365546 -6.722132 37.575697 -0.963803 1.750660 0.071898 -0.016927 863008.000000 0 0 1
19.813526 -30.729246 -6.151532 37.076997 -0.998101 1.737479 0.057934 -0.009327 -74962.000000 0 0 1
18.927526 -29.720346 -6.419232 35.815594 -1.003718 1.751000 0.072864 -0.022012 239315.000000 0 0 1
17.722426 -29.631446 -5.399032 34.946481 -1.031779 1.725912 0.063985 -0.010527 326427.000000 0 0 1
16.656926 -30.450046 -5.717832 35.176016 -1.070240 1.734070 0.063099 -0.012870 -39145.200000 0 0 1
15.586826 -30.377346 -4.738132 34.470019 -1.096718 1.708690 0.043545 -0.011262 1215940.000000 0 0 1
14.418926 -31.370446 -5.016632 34.888062 -1.139960 1.715089 0.045665 -0.008951 126532.000000 0 0 1
14.806026 -32.686446 -4.912332 36.218133 -1.145474 1.706848 0.039849 -0.001310 -71010.900000 0 0 1
13.722126 -33.554046 -5.194632 36.621782 -1.182593 1.713122 0.053795 -0.003399 -36301.400000 0 0 1
14.051326 33.144954 -5.122532 36.363004 1.169828 1.712139 0.050838 -0.004986 -367844.000000 0 0 1
14.328626 32.620154 -3.826132 35.833270 1.156912 1.677776 0.051846 -0.009298 64482.000000 0 0 1
14.624526 31.165554 -3.884132 34.644696 1.132048 1.683146 0.068600 -0.013018 -363.520000 0 0 1
13.537026 30.217854 -4.496732 33.415421 1.149623 1.705776 0.073579 -0.022558 797853.000000 0 0 1
12.474126 29.786654 -3.623932 32.495868 1.174204 1.682549 0.077948 -0.023118 350736.000000 0 0 1
12.917326 29.027854 -2.534432 31.873138 1.152110 1.650397 0.083194 -0.022771 -1032570.000000 0 0 1
11.867926 28.143454 -1.850832 30.599465 1.171729 1.631319 0.073986 -0.016139 -106374.000000 0 0 1
10.864226 28.907854 -1.214332 30.905825 1.211305 1.610098 0.066995 -0.018189 -10675.300000 0 0 1
9.932726 28.054154 -0.563332 29.765953 1.230513 1.589723 0.052250 -0.010433 -7534.370000 0 0 1
8.746826 28.864154 0.002568 30.160344 1.276558 1.570711 0.038776 -0.001497 274545.000000 0 0 1
7.759826 28.018354 0.593768 29.079127 1.300613 1.550376 0.022263 -0.001786 -211098.000000 0 0 1
6.708926 28.781054 1.093268 29.572859 1.341784 1.533819 0.035443 0.003790 -868203.000000 0 0 1
5.619826 28.060054 1.845468 28.676729 1.373133 1.506398 0.024643 -0.003500 -440457.000000 0 0 1
4.800526 27.372154 0.947668 27.806077 1.397182 1.536708 0.018735 -0.009323 -159949.000000 0 0 1
3.623826 26.859054 1.556468 27.147071 1.436686 1.513430 0.023624 -0.012414 209678.000000 0 0 1
3.015826 25.762554 0.677868 25.947329 1.454264 1.544669 0.034589 -0.018673 -250074.000000 0 0 1
1.932526 25.162254 1.339368 25.271873 1.494144 1.517773 0.035132 -0.016994 -415831.000000 0 0 1
1.287126 24.239254 0.549568 24.279624 1.517745 1.548159 0.025071 -0.017124 682623.000000 0 1 0
-0.151774 23.851054 1.048368 23.874565 -1.564433 1.526871 0.024126 -0.013460 599178.000000 0 1 0
-1.172674 24.813654 0.945068 24.859319 -1.523572 1.532771 0.038878 -0.016756 -429644.000000 0 1 0
-2.368674 24.103554 1.206068 24.249671 -1.472840 1.521040 0.042006 -0.015321 -666019.000000 0 1 0
-3.564174 25.049454 1.353568 25.337928 -1.429460 1.517350 0.073540 -0.024546 -574072.000000 0 0 1
-4.761574 24.316954 1.463568 24.821943 -1.377430 1.511799 0.063908 -0.022007 -641943.000000 0 1 0
-5.812574 24.951654 2.102368 25.705855 -1.341925 1.488919 0.069453 -0.021540 70900.700000 0 0 1
-6.935374 25.475254 1.141868 26.427104 -1.304998 1.527575 0.073402 -0.017585 29598.000000 0 0 1
-6.653774 26.650554 0.446568 27.472243 -1.326131 1.554540 0.082064 -0.018813 -524250.000000 0 0 1
-7.587374 26.777654 -0.554232 27.837352 -1.294686 1.590707 0.075133 -0.015358 -733958.000000 0 0 1
-7.362374 27.921354 -1.546232 28.917078 -1.312982 1.624293 0.070232 -0.010839 -78721.400000 0 0 1
-7.465574 29.222254 -1.024032 30.178197 -1.320671 1.604736 0.080578 -0.017300 -36264.200000 0 0 1
-7.389874 30.146654 -2.088132 31.109344 -1.330406 1.637969 0.075040 -0.019278 -111493.000000 0 0 1
-7.397774 31.556454 -1.522932 32.447745 -1.340525 1.617749 0.067899 -0.020881 -380894.000000 0 0 1
-7.522674 32.630754 -2.471732 33.577763 -1.344216 1.644475 0.064587 -0.010387 468631.000000 0 0 1
-6.410774 32.883954 -3.332832 33.668386 -1.378260 1.669949 0.051978 -0.015894 842201.000000 0 0 1
-5.034774 33.376154 -2.798232 33.869554 -1.421076 1.653509 0.057956 -0.022172 17636.100000 0 0 1
-5.122574 -33.461146 -2.505232 33.943560 1.418886 1.644669 0.059760 -0.023277 320830.000000 0 0 1
-4.236274 -33.152946 -1.424432 33.452845 1.443705 1.613390 0.066594 -0.028276 327532.000000 0 0 1
-4.093074 -31.594046 -1.285432 31.883998 1.441962 1.611123 0.070231 -0.037579 -80635.100000 0 0 1
-5.357874 -31.076846 -0.970932 31.550275 1.400067 1.601575 0.068816 -0.032061 -351634.000000 0 0 1
-5.689474 -30.045346 -1.860032 30.635807 1.383649 1.631548 0.079973 -0.024532 396000.000000 0 0 1
-7.108674 -29.439946 -1.619732 30.329312 1.333868 1.624227 0.106148 -0.023436 403112.000000 0 0 1
-7.357874 -28.938446 -0.326732 29.860990 1.321813 1.581738 0.087360 -0.020752 -536789.000000 0 0 1
-8.520774 -28.173846 -0.233332 29.435075 1.277107 1.578723 0.053914 -0.022878 -315224.000000 0 0 1
-8.565574 -27.671446 1.229668 28.992931 1.270605 1.528371 0.058670 -0.014478 -44859.000000 0 0 1
-7.751174 -26.545846 1.348868 27.687219 1.286702 1.522059 0.061550 -0.023039 -312025.000000 0 0 1
-7.287774 -26.303246 2.671868 27.424647 1.300509 1.473216 0.066318 -0.013015 498563.000000 0 0 1
-8.224774 -25.378646 3.544168 26.912519 1.257395 1.438721 0.056632 -0.015751 103780.000000 0 0 1
-8.129674 -24.009946 3.304668 25.563449 1.244317 1.441160 0.062390 -0.018234 -622933.000000 0 0 1
-9.093774 -23.265346 3.952268 25.290185 1.198184 1.413876 0.055463 -0.016961 -328255.000000 0 0 1
-8.514474 -21.834946 4.148368 23.800632 1.198986 1.395605 0.032512 -0.006449 179710.000000 0 1 0
-7.461674 -21.755546 5.069068 23.551556 1.240391 1.353866 0.029153 -0.008383 -362891.000000 0 1 0
-6.921974 -20.426846 5.159268 22.176289 1.244074 1.335997 0.005691 -0.013211 -109198.000000 0 1 0
-7.749574 -19.359746 5.865468 21.662395 1.190037 1.296606 0.016056 -0.015246 -259208.000000 0 1 0
-7.866074 -19.664246 7.234668 22.380753 1.190273 1.241630 0.015338 -0.016945 165345.000000 0 1 0
-8.959974 -18.936346 7.770668 22.343894 1.128848 1.215598 0.023023 -0.019525 -136514.000000 0 1 0
-27.288524 28.555454 -5.441832 39.870930 -0.808081 1.707710 0.093476 -0.013487 -498287.000000 0 0 1
-26.487254 29.407554 -4.679832 39.853227 -0.837597 1.688495 0.091935 -0.032976 -398909.000000 0 0 1
-25.337514 28.807754 -4.154032 38.589277 -0.849402 1.678653 0.078746 -0.025210 -110799.000000 0 0 1
-24.414174 29.757354 -3.380132 38.639064 -0.883715 1.658388 0.070178 -0.032728 -529871.000000 0 0 1
-24.930974 30.257554 -2.160632 39.265014 -0.881616 1.625851 0.058807 -0.035866 -63856.300000 0 0 1
-24.096874 31.210754 -1.548932 39.460989 -0.913320 1.610059 0.053548 -0.039278 -219205.000000 0 0 1
-22.787574 30.752054 -0.911532 38.285679 -0.933074 1.594607 0.057680 -0.030959 -55116.800000 0 0 1
-21.740774 30.419954 -1.816032 37.434380 -0.950281 1.619328 0.058678 -0.039283 496130.000000 0 0 1
-20.508774 30.291954 -1.109932 36.598418 -0.975649 1.601128 0.043236 -0.033575 89744.900000 0 0 1
-19.338374 29.715554 -1.905632 35.505187 -0.993871 1.624494 0.061745 -0.033907 327324.000000 0 0 1
-18.096174 29.932054 -1.236432 34.998973 -1.027020 1.606131 0.052034 -0.025394 -671583.000000 0 0 1
-17.070474 29.145354 -1.663732 33.817462 -1.040957 1.620014 0.045657 -0.024553 -1100750.000000 0 0 1
-15.774174 29.584054 -0.976732 33.540942 -1.080944 1.599921 0.045505 -0.024440 -497319.000000 0 0 1
-15.544974 29.064454 0.315668 32.961923 -1.079663 1.561219 0.039933 -0.026323 -75933.100000 0 0 1
-14.572674 29.829054 0.988868 33.213147 -1.116359 1.541019 0.048353 -0.025692 -78026.400000 0 0 1
-14.058274 29.071054 2.274468 32.371816 -1.120368 1.500478 0.039991 -0.025435 -509672.000000 0 0 1
-14.952874 29.098054 3.364768 32.887792 -1.096107 1.468306 0.038589 -0.017568 -424851.000000 0 0 1
-14.563474 28.495754 4.568368 32.326038 -1.098328 1.429000 0.038771 -0.024965 648350.000000 0 0 1
-13.279374 29.059754 5.284568 32.384220 -1.142163 1.406880 0.054897 -0.022411 641241.000000 0 0 1
-13.560774 30.326954 5.851468 33.732157 -1.150313 1.396446 0.052778 -0.038561 -129031.000000 0 0 1
-13.135274 31.426854 5.090368 34.439721 -1.174901 1.422448 0.063193 -0.033359 -201166.000000 0 0 1
-13.023174 32.700054 5.985068 35.703188 -1.191790 1.402367 0.063883 -0.026292 -782151.000000 0 0 1
-14.189774 33.168754 6.576968 36.671139 -1.166552 1.390471 0.053080 -0.017108 -575368.000000 0 0 1
-13.915074 -33.858146 7.392968 37.345138 1.180859 1.371517 0.081377 -0.030447 74600.000000 0 0 1
-15.114274 -33.387046 8.241868 37.564138 1.145700 1.349589 0.088291 -0.021933 113659.000000 0 0 1
-15.405574 33.972154 9.321268 38.448992 -1.145055 1.325924 0.077185 -0.022394 -531501.000000 0 0 1
-16.603774 -33.869046 9.938368 39.007291 1.114992 1.313174 0.090330 -0.021104 -1115540.000000 0 0 1
-16.963774 33.400654 11.187868 39.096569 -1.100859 1.280580 0.094821 -0.019698 187816.000000 0 0 1
-16.207974 33.480154 12.403868 39.210650 -1.119944 1.248928 0.109613 -0.024459 551002.000000 0 0 1
-14.838374 33.080154 12.308968 38.288178 -1.149142 1.243502 0.100877 -0.020881 473160.000000 0 0 1
-13.995874 33.336854 13.583168 38.622956 -1.173311 1.211424 0.096492 -0.022165 -100655.000000 0 0 1
-14.367274 32.585854 14.733468 38.539999 -1.155531 1.178523 0.088044 -0.020309 -80967.500000 0 0 1
-13.623774 31.378454 14.946668 37.331186 -1.161179 1.158865 0.061961 -0.014075 -167442.000000 0 0 1
-14.243874 30.123954 14.375868 36.290579 -1.129110 1.163496 0.063213 -0.015423 -27183.700000 0 0 1
-14.184674 30.052754 12.970568 35.673640 -1.129805 1.198678 0.057229 -0.014956 593599.000000 0 0 1
-15.445974 29.582454 12.485768 35.631364 -1.089600 1.212782 0.049611 -0.022091 527066.000000 0 0 1
-15.570274 29.641254 10.918768 35.217280 -1.087121 1.255561 0.038511 -0.017685 66704.700000 0 0 1
-14.895774 28.547854 10.328868 33.816409 -1.089875 1.260396 0.033485 -0.011694 164088.000000 0 0 1
-15.055674 28.444554 8.859668 33.380528 -1.083985 1.302163 0.027207 -0.008897 -212606.000000 0 0 1
-14.555974 27.064854 8.397568 31.857524 -1.077354 1.304046 0.027088 -0.012872 -416949.000000 0 0 1
-13.169374 26.983954 8.285468 31.148277 -1.116759 1.301554 0.054238 -0.020796 -438469.000000 0 0 1
-12.617874 25.674754 8.252168 29.774183 -1.114012 1.289961 0.051882 -0.024515 421981.000000 0 0 1
-11.258174 25.704954 7.507168 29.049074 -1.157986 1.309399 0.075372 -0.032941 265755.000000 0 0 1
-11.581574 26.109054 6.160668 29.219332 -1.153290 1.358360 0.075745 -0.024622 767056.000000 0 0 1
-10.492374 25.852454 5.261968 28.392386 -1.185252 1.384388 0.107041 -0.022162 277405.000000 0 0 1
-10.667774 26.380054 3.835468 28.712705 -1.186513 1.436815 0.079379 -0.015296 -101863.000000 0 0 1
-10.453774 27.769554 3.577468 29.886917 -1.210757 1.450809 0.084186 -0.017590 48371.500000 0 0 1
-10.563174 27.995054 2.211168 30.003216 -1.209991 1.497032 0.081835 -0.019974 -432652.000000 0 0 1
-10.069074 29.380354 1.781568 31.108928 -1.240627 1.513496 0.091879 -0.018963 -109235.000000 0 0 1
-10.849974 30.514954 2.106668 32.454929 -1.229175 1.505840 0.068086 -0.026831 -212532.000000 0 0 1
-10.327274 31.753754 1.672168 33.432763 -1.256356 1.520760 0.068067 -0.023508 -280380.000000 0 0 1
-11.018274 32.936454 2.323768 34.808221 -1.247968 1.503987 0.060717 -0.023202 -601236.000000 0 0 1
-12.344374 33.229454 2.035768 35.506683 -1.215107 1.513430 0.065689 -0.026952 -921655.000000 0 0 1
-12.613974 -34.089946 0.946568 36.361143 1.216398 1.544761 0.053273 -0.021641 -271556.000000 0 0 1
-14.145174 -33.951446 0.782568 36.788572 1.176037 1.549523 0.060694 -0.022824 195290.000000 0 0 1
-14.755274 33.078354 0.153468 36.220425 -1.151215 1.566559 0.058999 -0.021456 -70093.800000 0 0 1
-14.887474 33.173554 -1.250632 36.382491 -1.148961 1.605178 0.045745 -0.016022 -855323.000000 0 0 1
-13.644174 33.080854 -2.108432 35.846225 -1.179604 1.629649 0.057018 -0.015026 -666050.000000 0 0 1
-13.144974 31.743954 -2.200732 34.428363 -1.178199 1.634762 0.048805 -0.013651 -594601.000000 0 0 1
-11.784274 31.754854 -2.513932 33.964094 -1.215448 1.644881 0.049421 -0.010283 -564132.000000 0 0 1
-11.305574 30.283454 -2.571832 32.427117 -1.213495 1.650191 0.025305 -0.012128 -208285.000000 0 0 1
-11.522474 29.546254 -3.784932 31.938601 -1.198957 1.689582 0.025217 -0.012069 564260.000000 0 0 1
-10.420874 29.590354 -4.748632 31.729059 -1.232188 1.721023 0.023405 -0.008735 863855.000000 0 0 1
-10.786374 28.957254 -6.125032 31.502134 -1.214225 1.766475 0.028511 -0.009354 -149946.000000 0 0 1
-11.007574 27.548754 -6.098832 30.286899 -1.190663 1.773551 0.027031 -0.003774 108007.000000 0 0 1
-11.252274 26.914554 -7.335432 30.080150 -1.174807 1.817143 0.019320 -0.001920 18287.200000 0 0 1
-11.722174 25.459954 -7.215432 28.942721 -1.139314 1.822754 0.037283 -0.011542 111102.000000 0 0 1
-10.767974 24.610154 -6.622132 27.666976 -1.158351 1.812494 0.019123 -0.007478 -84432.300000 0 0 1
-11.356674 23.329954 -6.430032 26.732118 -1.117776 1.813714 0.052056 -0.027360 9134.780000 0 0 1
-10.632874 22.274954 -5.541732 25.297082 -1.125435 1.791654 0.056452 -0.037589 -202109.000000 0 0 1
-9.303874 22.010254 -5.977832 24.632252 -1.170870 1.815927 0.060374 -0.036258 337992.000000 0 1 0
-8.714374 20.834254 -5.435032 23.228130 -1.174639 1.806971 0.060861 -0.034396 -200175.000000 0 1 0
-8.417774 20.786254 -3.877732 22.758824 -1.186014 1.742015 0.040906 -0.036684 -622191.000000 0 1 0
-9.462674 20.573354 -2.966732 22.838708 -1.139700 1.701064 0.050209 -0.041689 -327073.000000 0 1 0
-10.117674 19.330454 -3.066032 22.032574 -1.088600 1.710408 0.045889 -0.040082 139743.000000 0 1 0
-11.461574 19.218254 -2.285832 22.492976 -1.033035 1.672596 0.044780 -0.039892 262933.000000 0 1 0
-11.299574 19.181154 -0.875232 22.279207 -1.038432 1.610091 0.039944 -0.039876 134219.000000 0 1 0
-11.248974 17.876454 -0.374932 21.124573 -1.009138 1.588546 0.045359 -0.037407 -351335.000000 0 1 0
-11.078674 18.053554 1.172168 21.214189 -1.020396 1.515514 0.048692 -0.027442 -596030.000000 0 1 0
-12.234874 18.383654 1.855668 22.160649 -0.983581 1.486961 0.063984 -0.022034 -814430.000000 0 1 0
-11.987874 18.688554 3.174568 22.428755 -1.000451 1.428779 0.061392 -0.007835 427173.000000 0 1 0
-13.249174 18.695454 4.114368 23.280649 -0.954266 1.393134 0.050526 -0.013388 511126.000000 0 1 0
-13.865274 17.435954 4.104968 22.651911 -0.898982 1.388570 0.039031 -0.008683 316655.000000 0 1 0
-15.161374 17.453454 4.692968 23.590554 -0.855560 1.370526 0.051804 -0.020629 355439.000000 0 1 0
-15.474674 16.022454 5.252968 22.886202 -0.802788 1.339206 0.036504 -0.011766 -86019.900000 0 1 0
-14.643374 15.707054 6.390368 22.404837 -0.820430 1.281558 0.033585 -0.004087 323156.000000 0 1 0
-15.162174 16.170954 7.641268 23.447393 -0.817582 1.238844 0.029782 -0.002480 -485846.000000 0 1 0
-14.168874 15.877054 8.835368 23.041301 -0.842189 1.177259 0.027003 -0.000259 1865890.000000 0 1 0
-12.933974 16.645054 8.831268 22.854688 -0.910209 1.174061 0.032301 -0.015663 1493400.000000 0 1 0
-12.032574 16.303554 7.745868 21.693021 -0.934998 1.205670 0.029582 -0.013810 -177790.000000 0 1 0
-10.859474 17.301154 7.510568 21.763886 -1.010277 1.218458 0.049189 -0.018543 682735.000000 0 1 0
-9.835374 17.299454 8.486968 21.634100 -1.053833 1.167670 0.045754 -0.016202 180749.000000 0 1 0
-8.990774 18.434654 8.472568 22.191324 -1.117029 1.179057 0.046631 -0.020006 -5183.670000 0 1 0
-7.845574 18.387554 9.502368 22.134818 -1.167505 1.127084 0.040850 -0.015709 57934.300000 0 1 0
-6.808974 17.457954 9.105168 20.833779 -1.198922 1.118493 0.025078 -0.014243 1012160.000000 0 1 0
-5.535774 17.727354 9.709268 20.956473 -1.268118 1.089074 0.019920 -0.016525 808526.000000 0 1 0
-4.646174 18.889254 9.245768 21.537759 -1.329615 1.127099 0.022575 -0.012217 -1347190.000000 0 1 0
-5.222074 20.163254 9.214968 22.775919 -1.317375 1.154263 0.037159 -0.019356 -37090.800000 0 1 0
-4.596974 21.098254 8.274768 23.124452 -1.356265 1.204847 0.047949 -0.026761 1083330.000000 0 1 0
-3.132274 21.622454 8.467168 23.431487 -1.426935 1.201072 0.037734 -0.021546 1948500.000000 0 1 0
-1.980674 20.757754 8.204668 22.408123 -1.475666 1.195931 0.024958 -0.013422 72331.200000 0 1 0
-0.827874 21.483554 8.321368 23.053712 -1.532280 1.201504 0.016968 -0.008547 167462.000000 0 1 0
0.544826 20.713354 8.226068 22.293677 1.544499 1.192878 0.003345 0.005114 1053310.000000 0 1 0
0.800526 19.834854 9.283168 21.914367 1.530459 1.133368 0.006983 -0.013515 -581995.000000 0 1 0
2.124226 19.342354 9.198568 21.523304 1.461412 1.129207 0.003821 -0.016773 126808.000000 0 1 0
2.747226 18.952554 10.572368 21.875134 1.426846 1.066370 -0.002704 -0.025260 -706236.000000 0 1 0
4.130226 18.803954 10.616168 21.985233 1.354583 1.066859 0.023339 -0.008221 -491572.000000 0 1 0
4.597426 18.193054 11.815168 22.174799 1.323276 1.008867 0.019901 -0.014876 -449490.000000 0 1 0
6.089826 18.096654 12.087768 22.598429 1.246183 1.006414 0.031306 -0.019169 -564308.000000 0 1 0
6.794826 17.133854 11.316268 21.628604 1.193248 1.020185 0.025352 -0.021827 -274282.000000 0 1 0
7.871926 16.688454 12.098968 22.064830 1.130045 0.990422 0.035490 -0.014163 -5060.560000 0 1 0
9.090626 16.169654 11.272268 21.706248 1.058633 1.024753 0.046417 -0.019161 682074.000000 0 1 0
9.972526 17.219154 10.802168 22.641496 1.045846 1.073449 0.058158 -0.031104 1218220.000000 0 1 0
11.102226 16.604554 10.119368 22.391343 0.981439 1.101866 0.059331 -0.032674 695452.000000 0 1 0
12.237326 17.549854 9.705368 23.493481 0.961892 1.144931 0.073231 -0.021348 -645545.000000 0 1 0
13.166426 16.906754 8.939768 23.218797 0.909137 1.175564 0.075070 -0.021695 -1169480.000000 0 1 0
14.139726 17.786954 8.473768 24.251027 0.899143 1.213845 0.079103 -0.028947 -617042.000000 0 1 0
15.077126 17.236454 7.431968 24.075905 0.852123 1.256982 0.071502 -0.038697 -153503.000000 0 1 0
16.151126 16.457554 7.942368 24.388340 0.794795 1.239084 0.085047 -0.039369 527175.000000 0 1 0
17.206826 16.366354 6.973068 24.749870 0.760369 1.285188 0.114529 -0.028983 -350065.000000 0 1 0
18.576726 16.439854 7.599468 25.944468 0.724449 1.273524 0.085175 -0.023801 -1110250.000000 0 0 1
18.860626 15.295354 8.359268 25.681675 0.681393 1.239261 0.087947 -0.020251 511913.000000 0 0 1
19.918626 15.562054 9.291568 26.930696 0.663223 1.218539 0.084360 -0.018076 239461.000000 0 0 1
20.346726 14.445154 10.239468 26.972179 0.617373 1.181399 0.077310 -0.013401 -271894.000000 0 0 1
21.054326 13.438554 9.634668 26.771369 0.568092 1.202650 0.080369 -0.011945 -214762.000000 0 0 1
21.210326 12.286354 10.414368 26.632526 0.525032 1.169036 0.090583 -0.022588 -250311.000000 0 0 1
21.992626 11.117754 9.781568 26.513376 0.468055 1.192939 0.084505 -0.014478 -1206500.000000 0 0 1
23.363126 11.410054 9.722868 27.758947 0.454307 1.212947 0.066731 -0.012512 -231957.000000 0 0 1
24.112426 10.397154 9.113268 27.794991 0.407106 1.236744 0.070565 -0.015545 -523784.000000 0 0 1
24.236126 9.008954 9.866268 27.674795 0.355888 1.206269 0.081924 -0.019474 -168481.000000 0 0 1
22.979926 8.303354 9.986268 26.395989 0.346733 1.182810 0.080854 -0.012572 997723.000000 0 0 1
22.954226 6.880854 10.176368 26.034613 0.291240 1.169211 0.078484 -0.016242 -641197.000000 0 0 1
23.854926 5.992054 9.316468 26.301307 0.246096 1.208716 0.078104 -0.019453 -289894.000000 0 0 1
23.684026 6.136954 7.878268 25.703354 0.253542 1.259275 0.072467 -0.011281 351848.000000 0 0 1
24.685926 5.516954 7.079168 26.266829 0.219873 1.297912 0.081215 -0.010027 36446.100000 0 0 1
24.296926 5.267054 5.574868 25.478650 0.213476 1.350206 0.082912 -0.019456 -216246.000000 0 0 1
23.206226 4.381054 5.444868 24.235700 0.186592 1.344199 0.071282 -0.010954 591870.000000 0 1 0
23.318026 3.835554 4.115468 23.987056 0.163029 1.398373 0.097635 -0.022944 202508.000000 0 1 0
22.380226 2.613254 3.858968 22.860342 0.116240 1.401178 0.096325 -0.019103 76532.000000 0 1 0
22.895426 1.464154 4.462968 23.372256 0.063863 1.378665 0.103979 -0.021241 261057.000000 0 1 0
22.314726 0.309454 3.899968 22.655077 0.013867 1.397789 0.113825 -0.023951 -266303.000000 0 1 0
22.990926 -1.055346 4.140968 23.384697 -0.045871 1.392777 0.123862 -0.023162 -746871.000000 0 1 0
22.865126 -1.455246 5.525768 23.568323 -0.063559 1.334136 0.113101 -0.022707 546962.000000 0 1 0
22.918326 -2.805846 5.679868 23.777791 -0.121822 1.329591 0.098254 -0.023026 -198034.000000 0 1 0
22.617926 -3.211646 7.212968 23.956464 -0.141053 1.264965 0.107287 -0.024257 29674.400000 0 1 0
22.580726 -4.585746 7.440368 24.213164 -0.200358 1.258457 0.088589 -0.028059 410691.000000 0 1 0
22.384126 -4.884946 8.777968 24.534965 -0.214864 1.204914 0.090167 -0.027612 -44226.300000 0 1 0
22.063226 -6.353446 9.162068 24.720350 -0.280380 1.191111 0.077377 -0.033201 318511.000000 0 1 0
20.715126 -6.730746 8.921268 23.537383 -0.314159 1.182053 0.080770 -0.026634 578245.000000 0 1 0
20.526926 -8.097846 9.296768 23.944930 -0.375755 1.172058 0.089549 -0.029742 -804894.000000 0 1 0
-27.207194 -32.677146 4.740668 42.784357 0.876487 1.459765 0.044785 -0.015901 396080.000000 0 0 1
-27.960584 -33.699446 5.417368 44.122497 0.878203 1.447706 0.053230 -0.013064 182159.000000 0 0 1
-27.816154 -33.689946 6.849668 44.222945 0.880609 1.415281 0.059349 -0.005720 -360458.000000 0 0 1
-28.522284 33.313054 7.504768 44.492716 -0.862720 1.401312 0.070504 -0.008854 -210309.000000 0 0 1
-29.921204 33.344454 7.373768 45.403783 -0.839455 1.407670 0.063637 -0.006926 -518004.000000 0 0 1
-30.430624 32.084254 7.755468 44.895094 -0.811844 1.397179 0.068912 -0.005722 1054220.000000 0 0 1
-32.002714 31.998154 7.787768 45.920637 -0.785327 1.400381 0.060339 -0.000739 949822.000000 0 0 1
-32.601234 32.154654 6.526768 46.253226 -0.778502 1.429214 0.054243 -0.001017 918511.000000 0 0 1
-34.041291 32.246854 6.688968 47.364664 -0.758335 1.429100 0.035371 0.004200 1091400.000000 0 0 1
-34.739045 32.181154 5.312668 47.651362 -0.747194 1.459074 0.008777 0.011528 -322346.000000 0 0 1
-34.523360 30.895454 4.757368 46.572782 -0.729998 1.468469 0.015240 0.003300 431179.000000 0 0 1
-35.000546 30.884854 3.390268 46.801777 -0.723012 1.498294 0.018472 0.010877 58682.600000 0 0 1
-34.475293 29.584154 2.741268 45.511345 -0.709193 1.510527 0.023833 -0.004990 113798.000000 0 0 1
-34.999653 28.417954 3.351368 45.208268 -0.681985 1.496597 0.039722 -0.005106 247065.000000 0 0 1
-34.340265 27.257254 2.871368 43.936960 -0.670912 1.505398 0.049833 -0.012451 -116530.000000 0 0 1
-34.742734 25.896054 3.552668 43.477404 -0.640529 1.488992 0.071881 -0.008599 -560787.000000 0 0 1
-36.085024 25.589254 3.273768 44.358273 -0.616832 1.496926 0.068794 -0.006227 -522409.000000 0 0 1
-36.554154 24.604954 4.152868 44.258968 -0.592450 1.476827 0.080325 -0.005143 285712.000000 0 0 1
35.045320 24.389954 4.027768 42.886679 0.608006 1.476741 0.085208 -0.007078 523605.000000 0 0 1
34.580400 23.461754 2.994768 41.895424 0.596129 1.499253 0.082474 -0.011787 277488.000000 0 0 1
34.980860 22.150554 3.241168 41.530865 0.564488 1.492675 0.081964 -0.014056 -708410.000000 0 0 1
34.294110 21.142854 2.222768 40.349064 0.552475 1.515680 0.099995 -0.018208 2028580.000000 0 0 1
32.879250 20.867454 2.515568 39.023375 0.565522 1.506289 0.105282 -0.025430 2085980.000000 0 0 1
32.491720 20.217154 3.757468 38.452097 0.556601 1.472922 0.086507 -0.015658 -498335.000000 0 0 1
32.822680 18.689654 3.788468 37.960295 0.517625 1.470829 0.107355 -0.029325 -141942.000000 0 0 1
32.173490 18.006254 2.724368 36.969999 0.510230 1.497038 0.102093 -0.041144 300889.000000 0 0 1
32.476230 16.636554 2.711268 36.590045 0.473414 1.496630 0.092370 -0.039489 -321748.000000 0 0 1
31.561290 15.785154 3.587568 35.470505 0.463762 1.469481 0.113417 -0.042021 -614575.000000 0 0 1
30.204140 15.854754 3.229668 34.265056 0.483384 1.476401 0.106632 -0.037296 -493113.000000 0 0 1
29.500830 15.072454 4.124668 33.383989 0.472342 1.446928 0.102792 -0.040893 -334650.000000 0 0 1
27.960680 15.093654 4.065268 32.033489 0.494992 1.443546 0.090590 -0.030281 -112469.000000 0 0 1
27.355680 14.548154 2.932368 31.122030 0.488774 1.476435 0.083079 -0.036685 445915.000000 0 0 1
26.025780 15.090054 2.831168 30.216989 0.525443 1.476964 0.056849 -0.020747 546289.000000 0 0 1
25.233280 14.515854 1.655668 29.157669 0.522034 1.513983 0.056998 -0.028923 -641712.000000 0 0 1
25.516980 14.958554 0.324568 29.580060 0.530225 1.559824 0.068469 -0.028201 512204.000000 0 0 1
26.705680 14.330454 -0.154932 30.308072 0.492503 1.575908 0.067375 -0.032225 -672960.000000 0 0 1
27.299180 15.081454 -1.379632 31.218566 0.504723 1.615003 0.082052 -0.033960 222376.000000 0 0 1
27.956180 16.341454 -1.082432 32.400043 0.528973 1.604211 0.070277 -0.030664 1185800.000000 0 0 1
29.132590 16.264954 -0.257232 33.366490 0.509199 1.578506 0.096596 -0.037029 -35486.300000 0 0 1
29.664930 17.711054 0.040368 34.549835 0.538238 1.569628 0.107036 -0.026536 8604.370000 0 0 1
30.077880 18.311654 -1.158732 35.232630 0.546871 1.603690 0.086691 -0.025807 88874.500000 0 0 1
30.774270 19.483554 -0.819532 36.432625 0.564411 1.593293 0.075556 -0.012735 25332.200000 0 0 1
30.805300 20.372754 -2.056232 36.989778 0.584305 1.626414 0.070081 -0.010328 -368081.000000 0 0 1
31.879040 21.258054 -2.006732 38.369324 0.588119 1.623121 0.037724 -0.006400 -58289.200000 0 0 1
31.812200 22.136954 -3.079332 38.878568 0.607944 1.650083 0.045797 -0.008206 -97878.100000 0 0 1
32.926710 23.204554 -3.015932 40.394497 0.613896 1.645528 0.038538 -0.004441 -327336.000000 0 0 1
32.876390 24.171754 -1.999132 40.854954 0.633982 1.619748 0.056291 -0.001033 202191.000000 0 0 1
33.398850 23.722354 -0.762732 40.973345 0.617588 1.589413 0.064259 0.005790 -421175.000000 0 0 1
33.330260 24.781954 0.370368 41.535390 0.639346 1.561879 0.076114 -0.016973 -76275.400000 0 0 1
34.069800 25.973454 0.114068 42.841389 0.651365 1.568134 0.081480 -0.013335 379696.000000 0 0 1
35.379780 25.989754 0.690768 43.905276 0.633568 1.555063 0.075362 -0.018806 603551.000000 0 0 1
36.208170 27.205854 0.163868 45.290362 0.644379 1.567178 0.051214 -0.014295 -239613.000000 0 0 1
-36.507894 26.973454 -1.162532 45.406442 -0.636320 1.596402 0.061138 -0.023134 97310.000000 0 0 1
35.614280 27.105854 -2.153332 44.807824 0.650564 1.618872 0.057393 -0.024226 -129845.000000 0 0 1
36.148520 26.794254 -3.522732 45.133770 0.637863 1.648927 0.058587 -0.014820 39742.700000 0 0 1
-36.168984 27.800054 -4.120532 45.804118 -0.655309 1.660878 0.054636 -0.015407 330192.000000 0 0 1
-35.759172 27.508354 -5.455632 45.444382 -0.655718 1.691137 0.047155 -0.013699 31439.200000 0 0 1
36.272020 27.706154 -6.514632 46.105648 0.652302 1.712569 0.037883 -0.008316 -56692.900000 0 0 1
35.199900 26.819754 -6.372832 44.709564 0.651091 1.713822 0.045627 -0.004143 -585087.000000 0 0 1
34.256260 26.976054 -7.404532 44.226982 0.667059 1.739010 0.035869 -0.006302 305645.000000 0 0 1
33.036570 26.002654 -7.261732 42.664807 0.666817 1.741833 0.037971 0.002154 -361456.000000 0 0 1
33.153910 24.615754 -7.331432 41.938848 0.638664 1.746512 0.025379 -0.000270 257824.000000 0 0 1
34.197620 23.984254 -6.547832 42.279969 0.611627 1.726291 0.041403 -0.002718 677154.000000 0 0 1
34.271080 22.461954 -6.891832 41.551698 0.580176 1.737428 0.045893 0.001456 804193.000000 0 0 1
33.143530 21.741754 -6.341132 40.142339 0.580573 1.729427 0.034641 0.000520 732581.000000 0 0 1
33.326260 20.355854 -6.476932 39.584732 0.548327 1.735157 0.051769 -0.005681 -238977.000000 0 0 1
32.180280 19.537654 -5.885632 38.104212 0.545647 1.725879 0.062577 -0.009857 -28366.300000 0 0 1
30.940560 19.579654 -6.588932 37.203429 0.564199 1.748841 0.060007 -0.020257 -154378.000000 0 0 1
30.078360 18.842154 -5.764232 35.957765 0.559631 1.731797 0.082627 -0.029712 14123.500000 0 0 1
28.708770 18.585454 -6.472132 34.806624 0.574530 1.757830 0.064782 -0.031103 165211.000000 0 0 1
28.674750 17.420154 -7.226032 34.320819 0.545922 1.782927 0.066019 -0.024954 132419.000000 0 0 1
27.550480 17.253854 -8.086432 33.497982 0.559507 1.814605 0.084220 -0.025583 13825.000000 0 0 1
27.618480 15.999154 -9.012632 33.165960 0.525054 1.846001 0.085234 -0.020701 -238097.000000 0 0 1
26.725880 16.111354 -10.099632 32.800167 0.542503 1.883796 0.072757 -0.024849 167580.000000 0 0 1
26.858180 15.021654 -10.974832 32.671989 0.509952 1.913367 0.070561 -0.010044 50524.600000 0 0 1
26.138280 15.216354 -12.364032 32.674400 0.527190 1.958865 0.071940 -0.016261 -114658.000000 0 0 1
24.736380 15.203354 -12.447232 31.590569 0.551097 1.975795 0.079125 -0.016821 4012.250000 0 0 1
24.210380 15.290754 -13.738532 31.759989 0.563316 2.018142 0.066529 -0.019579 -374193.000000 0 0 1
24.337480 13.971354 -14.621032 31.643107 0.521133 2.051114 0.061655 -0.028452 -775208.000000 0 0 1
25.641080 13.734254 -15.057032 32.753762 0.491747 2.048458 0.072197 -0.035212 -309898.000000 0 0 1
26.073780 14.382454 -16.226132 33.911419 0.504075 2.069726 0.077179 -0.035108 -35143.300000 0 0 1
27.512080 13.975854 -16.632032 35.055150 0.470019 2.065139 0.103287 -0.034637 203932.000000 0 0 1
27.502280 12.614354 -17.063232 34.736886 0.430037 2.084279 0.096708 -0.036991 615640.000000 0 0 1
28.795280 12.034354 -17.285732 35.676188 0.395865 2.076608 0.090779 -0.016180 665601.000000 0 0 1
28.638570 10.624954 -17.900132 35.404408 0.355261 2.100863 0.067469 -0.015985 -331677.000000 0 0 1
28.090380 10.566854 -19.155832 35.604406 0.359799 2.138881 0.074363 -0.024608 -261511.000000 0 0 1
28.054880 9.337754 -19.845732 35.610715 0.321305 2.161923 0.057007 -0.010814 -548173.000000 0 0 1
29.377900 8.997054 -20.520932 36.947485 0.297183 2.159650 0.063261 -0.011020 -1072230.000000 0 0 1
29.788160 9.834554 -21.567632 38.068566 0.318883 2.173106 0.076745 -0.018574 235711.000000 0 0 1
30.324090 9.058854 -22.646632 38.916362 0.290295 2.191897 0.072069 -0.008404 1280920.000000 0 0 1
31.842400 8.604454 -22.535232 39.947613 0.263917 2.170163 0.062969 -0.010970 285794.000000 0 0 1
32.799880 9.591954 -22.565332 40.951580 0.284505 2.154388 0.064386 -0.007707 446982.000000 0 0 1
34.095620 8.929954 -22.523032 41.827531 0.256155 2.139421 0.042505 0.000319 861265.000000 0 0 1
35.269340 9.907354 -22.494932 42.989580 0.273848 2.121474 0.060729 -0.007533 -377205.000000 0 0 1
35.247760 10.580954 -21.283632 42.512988 0.291629 2.095132 0.039698 -0.004579 582429.000000 0 0 1
36.253670 11.600654 -21.138332 43.540014 0.309690 2.077722 0.012105 0.001895 234803.000000 0 0 1
36.142450 12.385654 -19.759232 43.012886 0.330148 2.048093 0.007768 -0.000945 -48655.900000 0 0 1
36.373580 11.579854 -18.605532 42.465235 0.308214 2.024320 0.004180 0.002975 265232.000000 0 0 1
36.251940 12.409154 -17.451032 42.103786 0.329802 1.998164 -0.001746 0.004830 -109899.000000 0 0 1
-36.328004 11.646654 -16.235032 41.460158 -0.310245 1.973146 -0.009622 0.009926 -562672.000000 0 0 1
36.057720 10.535354 -15.808832 40.756251 0.284267 1.969135 -0.009615 0.004360 217324.000000 0 0 1
-36.286814 9.686754 -15.068532 40.467601 -0.260867 1.952347 0.012508 -0.006103 155974.000000 0 0 1
35.984240 8.388654 -14.837732 39.816998 0.229030 1.952657 0.045113 -0.001765 201778.000000 0 0 1
34.888000 8.490754 -13.985132 38.533743 0.238731 1.942209 0.047993 -0.001366 250784.000000 0 0 1
35.276460 8.511654 -12.633432 38.424998 0.236759 1.905809 0.048851 -0.010944 117185.000000 0 0 1
34.040820 8.872054 -11.747432 37.087639 0.254958 1.893095 0.073312 -0.005881 191627.000000 0 0 1
33.827680 10.259254 -11.604832 37.205327 0.294463 1.888002 0.062076 -0.012966 371712.000000 0 0 1
32.771820 10.764154 -10.796232 36.144402 0.317356 1.874124 0.060531 -0.005037 -37112.000000 0 0 1
33.017640 10.455354 -9.295532 35.859251 0.306670 1.833014 0.083537 -0.005746 403978.000000 0 0 1
34.200700 11.047254 -8.732632 36.986329 0.312433 1.809151 0.077576 -0.005019 672193.000000 0 0 1
34.186490 12.453154 -8.471732 37.357294 0.349332 1.799562 0.084389 -0.010082 -458777.000000 0 0 1
33.761200 12.866454 -7.033832 36.808138 0.364109 1.763073 0.076608 -0.017381 -161317.000000 0 0 1
34.828550 12.655554 -6.143832 37.562449 0.348533 1.735098 0.084979 -0.014682 320588.000000 0 0 1
34.464450 12.909254 -4.761232 37.109520 0.358391 1.699453 0.084980 -0.013126 -481011.000000 0 0 1
35.596400 12.587054 -3.812332 37.948274 0.339883 1.671427 0.109440 -0.008635 -140190.000000 0 0 1
36.565770 13.621154 -3.794132 39.204423 0.356587 1.667726 0.105245 0.000596 -447539.000000 0 0 1
-35.482285 13.401554 -2.974132 38.045232 -0.361133 1.649050 0.097436 -0.014687 243088.000000 0 0 1
-34.315521 14.447154 -3.125532 37.363675 -0.398486 1.654546 0.103168 -0.013245 668624.000000 0 0 1
-34.617951 15.588354 -2.391232 38.040995 -0.423101 1.633697 0.123732 -0.011781 150683.000000 0 0 1
-33.582164 16.531654 -2.504132 37.514371 -0.457448 1.637597 0.119861 -0.011448 44903.300000 0 0 1
-33.761624 17.653854 -1.486932 38.127638 -0.481797 1.609805 0.126376 -0.007443 -143464.000000 0 0 1
-34.880163 18.461154 -1.724132 39.502058 -0.486791 1.614457 0.098591 -0.000978 -100072.000000 0 0 1
-35.275573 19.245954 -0.654932 40.189572 -0.499450 1.587093 0.086897 -0.005475 -485942.000000 0 0 1
-36.366984 20.198954 -1.057032 41.613370 -0.506995 1.596200 0.080239 -0.008884 -547871.000000 0 0 1
-35.847385 21.336654 -1.640832 41.749014 -0.536889 1.610109 0.080196 -0.005026 45467.200000 0 0 1
36.426080 21.827554 -2.637332 42.547114 0.539852 1.632822 0.065584 0.001545 -206601.000000 0 0 1
-36.230984 23.179354 -3.247032 43.133628 -0.569147 1.646146 0.074808 -0.014943 -116318.000000 0 0 1
-34.921558 23.030154 -3.748232 41.999434 -0.583012 1.660160 0.074661 -0.006079 -191478.000000 0 0 1
-34.470738 24.234254 -4.320032 42.357922 -0.612762 1.672963 0.071189 -0.014389 -342847.000000 0 0 1
-32.998824 24.038454 -4.709332 41.096806 -0.629575 1.685640 0.061208 -0.024060 -151845.000000 0 0 1
-32.699734 23.164954 -5.816132 40.493396 -0.616351 1.714926 0.048038 -0.010939 112207.000000 0 0 1
-31.303334 23.233854 -6.079532 39.454675 -0.638501 1.725502 0.044576 0.002946 130722.000000 0 0 1
-30.823264 22.419754 -7.238332 38.795778 -0.628856 1.758471 0.045584 -0.010701 -324464.000000 0 0 1
-31.469124 22.761154 -8.407032 39.737314 -0.626183 1.783972 0.056503 -0.021516 -329791.000000 0 0 1
-30.792194 22.217354 -9.509632 39.143366 -0.625027 1.816196 0.017192 -0.023595 125443.000000 0 0 1
-31.707354 22.146454 -10.747732 40.141443 -0.609695 1.841850 0.036222 -0.016029 -45493.200000 0 0 1
-32.207534 23.386254 -11.250432 41.361992 -0.628036 1.846266 0.038552 -0.013382 198146.000000 0 0 1
-32.832954 23.164654 -12.526732 42.089465 -0.614428 1.872997 0.017130 -0.011729 -177015.000000 0 0 1
-33.382994 24.442954 -13.258732 43.447397 -0.632010 1.880911 0.042485 -0.011566 -88771.200000 0 0 1
-32.436344 25.446754 -13.429632 43.359067 -0.665226 1.885706 0.034431 -0.013441 -238550.000000 0 0 1
-31.537004 25.357554 -14.552732 43.004304 -0.677210 1.916014 0.032736 -0.011893 684439.000000 0 0 1
-30.157814 26.073254 -14.350932 42.370480 -0.712887 1.916332 0.032533 -0.009708 823298.000000 0 0 1
-29.204754 25.505454 -13.435732 41.036139 -0.717885 1.904360 0.030999 -0.011768 564151.000000 0 0 1
-29.686684 25.186854 -12.101932 40.769273 -0.703578 1.872178 0.040785 -0.010193 -981234.000000 0 0 1
-30.101434 26.428454 -11.307432 41.622320 -0.720515 1.845922 0.048206 -0.001612 16753.000000 0 0 1
-28.953314 27.190454 -10.936332 41.197312 -0.754009 1.839480 0.043318 -0.001641 163976.000000 0 0 1
-29.235164 28.272954 -10.093532 41.903868 -0.768668 1.814062 0.029410 -0.006554 -45977.600000 0 0 1
-27.959454 29.093754 -9.809532 41.525950 -0.805277 1.809277 0.035192 -0.010703 339364.000000 0 0 1
-28.217324 30.449754 -9.465132 42.579263 -0.823432 1.794963 0.035014 -0.017361 -832636.000000 0 0 1
-27.023364 30.984054 -9.025832 42.092035 -0.853571 1.786905 0.077229 -0.015611 -477792.000000 0 0 1
34.699830 -25.383516 33.873754 54.734197 -0.631567 0.903484 0.024695 -0.014326 59547.300000 0 0 1
34.300640 -24.016146 34.102302 54.002557 -0.610837 0.887318 0.020295 -0.019616 -395527.000000 0 0 1
33.250270 -23.880046 -33.229132 52.725822 -0.622831 2.252639 0.010060 -0.014104 -284032.000000 0 0 1
32.728170 -22.415646 -32.932892 51.557441 -0.600522 2.263683 0.008768 -0.011493 434238.000000 0 0 1
31.946810 -21.820946 -33.989962 51.498252 -0.599252 2.291644 0.010333 -0.011586 185349.000000 0 0 1
31.634420 -20.437646 -33.685062 50.528382 -0.573599 2.300510 0.016613 -0.007707 371223.000000 0 0 1
31.425900 -19.548446 33.222321 49.733807 -0.556474 0.839275 0.022056 -0.010645 673468.000000 0 0 1
32.667920 -19.370046 32.525528 50.003017 -0.535211 0.862592 0.029547 -0.016757 602537.000000 0 0 1
32.514850 -18.598646 31.406411 48.882387 -0.519580 0.873054 0.036850 -0.013625 -540053.000000 0 0 1
33.639650 -18.710546 30.387311 49.041811 -0.507595 0.902537 0.037500 -0.016442 -423559.000000 0 0 1
34.723700 -17.863246 30.735741 49.694232 -0.475132 0.903968 0.033290 -0.019788 197880.000000 0 0 1
35.675280 -17.748846 29.702661 49.699046 -0.461654 0.930229 0.043639 -0.016276 -64259.300000 0 0 1
-36.528934 -16.536446 29.930141 50.036291 0.425092 0.929582 0.043821 -0.022871 -542942.000000 0 0 1
-35.440996 -16.492246 29.044491 48.699495 0.435540 0.931785 0.046317 -0.018922 -126565.000000 0 0 1
-34.580593 -15.498846 29.574091 48.069310 0.421352 0.908108 0.041272 -0.018619 -358965.000000 0 0 1
-33.142714 -16.024946 29.723711 47.315298 0.450372 0.891552 0.061791 -0.021581 59220.700000 0 0 1
-32.261024 -15.106346 30.409581 46.837143 0.437930 0.864183 0.055057 -0.014436 737587.000000 0 0 1
-31.129214 -15.767246 30.965571 46.652981 0.468842 0.844985 0.055235 -0.019296 508962.000000 0 0 1
-30.034124 -14.846346 31.554961 46.023670 0.459090 0.815335 0.060485 -0.023647 439461.000000 0 0 1
-30.457114 -14.277446 32.817080 46.994064 0.438355 0.797743 0.053976 -0.019347 1100800.000000 0 0 1
-29.291074 -13.671046 33.401138 46.481185 0.436680 0.769017 0.052063 -0.023652 596294.000000 0 0 1
-29.505074 -13.103246 -33.382352 46.439487 0.417938 2.372922 0.048382 -0.012504 -139448.000000 0 0 1
-29.390914 -14.075646 -32.366802 45.929942 0.446635 2.352796 0.047649 -0.010521 164074.000000 0 0 1
-29.574904 -13.351846 -31.169692 44.994405 0.424066 2.336086 0.045490 -0.004837 -215413.000000 0 0 1
-29.645384 -14.203346 -29.919152 44.449292 0.446795 2.309199 0.046561 -0.010527 560808.000000 0 0 1
-30.983354 -14.701746 -29.819942 45.445996 0.443044 2.286518 0.039667 -0.007189 574084.000000 0 0 1
-31.314484 -15.201046 -28.557792 45.024618 0.451925 2.257861 0.055465 -0.009283 123071.000000 0 0 1
-32.484704 -16.197046 -28.628902 46.230016 0.462531 2.238610 0.045476 -0.015590 -157403.000000 0 0 1
-32.221094 -17.469446 -29.234072 46.882955 0.496815 2.244077 0.037510 -0.010355 110139.000000 0 0 1
-33.414764 -18.211346 -29.352952 48.060331 0.499003 2.227807 0.026020 -0.016045 -17227.600000 0 0 1
-33.091264 -19.592746 -30.006612 48.778112 0.534577 2.233392 0.027721 -0.014354 418006.000000 0 0 1
-34.266832 -20.401446 -30.080112 49.952457 0.537008 2.217019 0.025074 -0.016664 230762.000000 0 0 1
-33.977404 -21.669346 -30.534852 50.560872 0.567721 2.219210 0.024505 -0.016607 -753327.000000 0 0 1
-35.178701 -22.485346 -30.962852 51.979131 0.568728 2.208906 0.029880 -0.016406 -961159.000000 0 0 1
-36.083254 -22.650346 -29.910052 52.054305 0.560556 2.182903 0.020720 -0.020915 -448643.000000 0 0 1
35.996840 -23.557546 -30.155092 52.536274 -0.579486 2.182162 0.024774 -0.016333 -31018.000000 0 0 1
36.274330 -25.061646 -30.396422 53.552363 -0.604587 2.174386 0.023016 -0.015318 -361989.000000 0 0 1
-36.279164 -25.426676 -31.627412 54.433325 0.611304 2.190790 0.041999 -0.014511 -127269.000000 0 0 1
-35.717583 -26.748666 -31.511042 54.627673 0.642793 2.185643 0.045199 -0.012005 436337.000000 0 0 1
-35.740734 -27.585176 -32.820422 55.816863 0.657316 2.199383 0.056392 -0.013059 -134842.000000 0 0 1
36.126010 -28.153056 -32.975592 56.436450 -0.661992 2.194809 0.045471 -0.012704 -638684.000000 0 0 1
35.945110 -29.219046 -33.875452 57.387715 -0.682545 2.202216 0.055437 -0.013501 -21111.600000 0 0 1
36.482010 -30.613046 -33.465582 58.206880 -0.698148 2.183330 0.067595 -0.017766 -39273.700000 0 0 1
36.041460 -31.070066 -32.197632 57.454533 -0.711457 2.165667 0.061544 -0.024214 -64704.500000 0 0 1
-36.179994 -31.969176 -31.608332 57.707078 0.723688 2.150454 0.054300 -0.027582 -69315.900000 0 0 1
36.468320 -32.447226 -30.223432 57.412688 -0.727116 2.125186 0.047148 -0.031537 75450.000000 0 0 1
35.403700 -33.370456 -30.310952 57.321577 -0.755843 2.127968 0.069840 -0.027359 -29209.800000 0 0 1
35.041800 -33.807026 -29.012662 56.679603 -0.767466 2.108158 0.070087 -0.026577 91800.700000 0 0 1
33.819690 33.418737 -28.984602 55.683845 0.779435 2.118257 0.064896 -0.029594 894584.000000 0 0 1
32.648740 33.984795 -29.603152 55.652971 0.805446 2.131667 0.071302 -0.024109 575386.000000 0 0 1
31.481700 33.273618 -29.259402 54.353875 0.813063 2.139230 0.064253 -0.021811 1216830.000000 0 0 1
30.115110 33.630850 -29.966562 54.184396 0.840495 2.156814 0.024318 -0.009090 1046480.000000 0 0 1
30.094770 33.203839 -31.363622 54.697961 0.834476 2.181442 0.033398 -0.004829 430504.000000 0 0 1
28.872210 33.609299 -31.986192 54.647104 0.861069 2.196074 0.022063 0.005397 395740.000000 0 0 1
28.657780 32.947600 -33.352192 54.947079 0.854920 2.223061 0.020772 -0.008549 65313.000000 0 0 1
28.534810 31.547093 -33.315622 54.031335 0.835493 2.235211 0.015379 -0.003891 62752.100000 0 0 1
28.224850 30.939473 33.654457 53.726303 0.831249 0.893863 0.020167 -0.006586 -44163.200000 0 0 1
28.218960 29.429353 33.515501 52.779592 0.806391 0.882777 0.027299 -0.020584 229054.000000 0 0 1
29.503770 28.835573 33.674097 53.253240 0.773945 0.886228 0.037473 -0.015138 168171.000000 0 0 1
29.420840 27.468453 34.055331 52.724447 0.751093 0.868580 0.040531 -0.021036 685336.000000 0 0 1
30.831420 26.859173 -33.901822 53.116148 0.716652 2.263030 0.058657 -0.023305 1014360.000000 0 0 1
31.515720 27.212803 -32.673892 52.927880 0.712261 2.236139 0.059212 -0.019354 363968.000000 0 0 1
32.853470 26.732583 -32.647762 53.477639 0.683034 2.227480 0.076736 -0.019818 466112.000000 0 0 1
33.550180 26.921373 -31.304372 53.200927 0.676215 2.199897 0.096228 -0.022728 -72705.900000 0 0 1
34.237510 28.169413 -31.092992 54.152536 0.688469 2.182392 0.083447 -0.020543 1121540.000000 0 0 1
33.306380 29.290343 -31.022092 54.125866 0.721329 2.181138 0.094963 -0.017340 984564.000000 0 0 1
32.376060 29.512383 -29.783072 52.973781 0.739160 2.167868 0.081978 -0.008761 666405.000000 0 0 1
33.061340 29.898103 -28.550432 52.934639 0.735198 2.140464 0.065489 -0.009985 -324194.000000 0 0 1
32.139980 30.072823 -27.561572 51.932584 0.752183 2.130244 0.067812 -0.011376 -718596.000000 0 0 1
32.729890 30.494853 -26.211812 51.848249 0.750062 2.100814 0.074867 -0.016681 45959.600000 0 0 1
33.336650 31.769263 -26.220502 52.991821 0.761328 2.088404 0.068728 -0.017732 44198.200000 0 0 1
33.706530 32.175307 -24.933832 52.849565 0.762160 2.062115 0.055183 -0.019007 89083.200000 0 0 1
34.115480 33.637978 -24.802932 53.949653 0.778351 2.048501 0.059536 -0.012150 386125.000000 0 0 1
32.944630 -33.748876 -24.959432 53.360178 -0.797456 2.057544 0.052988 -0.001162 497315.000000 0 0 1
33.236170 -32.391316 -24.853732 52.645497 -0.772525 2.062463 0.045658 -0.008133 -821005.000000 0 0 1
33.699250 -31.663626 -26.171242 53.133404 -0.754265 2.085822 0.038085 -0.012847 427429.000000 0 0 1
35.005710 -32.035526 -26.615312 54.406337 -0.741123 2.081963 0.054905 -0.018986 438129.000000 0 0 1
36.021000 -31.381706 -25.850552 54.319195 -0.716677 2.066784 0.055543 -0.020936 -1628200.000000 0 0 1
-35.761162 -31.832496 -26.320402 54.634532 0.727342 2.073451 0.036238 -0.012234 -1246730.000000 0 0 1
-35.322042 -33.208886 -26.121792 55.071089 0.754573 2.064998 0.037014 -0.010113 -113549.000000 0 0 1
-35.165617 -33.596596 -24.751032 54.570739 0.762584 2.041551 0.046384 -0.004782 99175.300000 0 0 1
-33.938514 -32.939496 -24.016632 53.043678 0.770461 2.040667 0.030049 -0.003035 243469.000000 0 0 1
-34.005034 -31.503446 -23.773232 52.095835 0.747229 2.044670 0.008330 -0.003354 -359743.000000 0 0 1
-33.509604 -31.087596 -22.527832 50.959155 0.747922 2.028708 0.031168 -0.006656 -400819.000000 0 0 1
-33.396544 -29.521216 -22.418432 49.894063 0.723882 2.036801 0.032884 0.001707 340924.000000 0 0 1
-34.561383 -28.711106 -22.581132 50.286423 0.693199 2.036498 0.016760 0.005530 -101438.000000 0 0 1
-34.927276 -28.567166 -23.913532 51.067158 0.685563 2.058135 0.034330 0.010220 -95394.900000 0 0 1
-36.168734 -27.679446 -24.140332 51.546918 0.653213 2.058182 0.029801 0.018548 3170.180000 0 0 1
-35.939436 -26.306936 -23.905132 50.548524 0.631868 2.063392 0.027376 0.014313 -456039.000000 0 0 1
36.357340 -25.360526 -24.503532 50.650129 -0.609070 2.075765 0.025866 0.005307 -191165.000000 0 0 1
-36.137764 -24.707846 -25.755622 50.791414 0.599711 2.102597 0.021235 0.002951 690962.000000 0 0 1
-34.937025 -23.959346 -25.495232 49.443431 0.601123 2.112556 0.019814 -0.004990 448140.000000 0 0 1
-34.524665 -23.378146 -26.762112 49.544938 0.595221 2.141422 0.017128 -0.011449 387056.000000 0 0 1
-33.502694 -22.197946 -26.492352 48.135476 0.585162 2.153604 0.024857 -0.014827 283259.000000 0 0 1
-34.007364 -21.090946 -25.756712 47.589254 0.555131 2.142695 0.030026 -0.019322 -14247.700000 0 0 1
-34.896230 -20.203646 -26.453562 48.225773 0.524808 2.151408 0.038529 -0.018230 290422.000000 0 0 1
-36.099864 -19.788846 -25.564822 48.459868 0.501437 2.126506 0.054869 -0.020012 -232941.000000 0 0 1
-35.834335 -19.116246 -24.354932 47.357082 0.490057 2.110967 0.054500 -0.027636 -527437.000000 0 0 1
-35.142993 -19.847346 -23.367132 46.636574 0.514104 2.095605 0.032168 -0.019989 -200832.000000 0 0 1
-35.873198 -21.041046 -22.703232 47.381945 0.530463 2.070487 0.041351 -0.001178 132267.000000 0 0 1
36.195060 -20.686146 -21.848632 47.067630 -0.519214 2.053524 0.044394 0.000627 -425376.000000 0 0 1
35.607250 -21.855946 -21.478932 46.977688 -0.550509 2.045658 0.045568 0.021679 -249145.000000 0 0 1
34.643860 -21.718446 -20.284532 45.643731 -0.559969 2.031312 0.051125 0.008867 -83889.000000 0 0 1
33.385070 -21.154646 -20.502432 44.524507 -0.564800 2.049327 0.043671 0.018639 -31138.800000 0 0 1
32.376180 -21.456046 -19.532232 43.475131 -0.585259 2.036749 0.035727 0.021077 1191230.000000 0 0 1
30.963360 -20.942046 -19.975032 42.382790 -0.594676 2.061561 0.039885 0.021707 172244.000000 0 0 1
30.425030 -21.719846 -21.062732 42.907725 -0.619981 2.083901 0.035274 0.018840 -471598.000000 0 0 1
29.192890 -21.313746 -21.546932 42.080529 -0.630643 2.108355 0.053900 0.015180 -503811.000000 0 0 1
29.137810 -19.982546 -22.375332 41.820684 -0.601128 2.135340 0.054738 0.016614 -346348.000000 0 0 1
29.477220 -18.829446 -21.632132 41.126679 -0.568447 2.124673 0.042501 0.015143 -109550.000000 0 0 1
29.417170 -17.748246 -22.462032 41.047692 -0.542864 2.149833 0.035760 0.013252 -142023.000000 0 0 1
30.036250 -16.477846 -21.878532 40.649304 -0.501767 2.139128 0.027232 0.008466 -409817.000000 0 0 1
29.450110 -16.000346 -20.628532 39.355513 -0.497687 2.122523 0.007678 0.005827 -89111.200000 0 0 1
30.203130 -15.332846 -19.637432 39.152956 -0.469755 2.096194 -0.002104 0.002783 -440591.000000 0 0 1
31.254090 -16.210246 -18.931032 39.974670 -0.478464 2.064143 0.017717 -0.002643 -253474.000000 0 0 1
32.298410 -16.682746 -19.726132 41.359662 -0.476775 2.067968 0.022582 -0.005664 -505429.000000 0 0 1
33.217870 -17.386446 -18.934032 42.002535 -0.482197 2.038439 0.026415 0.003848 100239.000000 0 0 1
34.467060 -17.867646 -19.725932 43.547025 -0.478257 2.040901 0.042241 -0.015322 347911.000000 0 0 1
35.335140 -16.832246 -20.160732 44.026716 -0.444557 2.046451 0.043091 -0.024442 212101.000000 0 0 1
36.243830 -17.347646 -21.119332 45.393637 -0.446412 2.054712 0.062217 -0.025030 -267021.000000 0 0 1
-35.963485 -16.297946 -21.692632 45.050701 0.425496 2.073180 0.066458 -0.027355 -163604.000000 0 0 1
-34.839836 -15.970446 -20.880832 43.644914 0.429814 2.069657 0.075811 -0.036326 283573.000000 0 0 1
-34.285964 -14.717946 -21.332132 42.979125 0.405482 2.090171 0.087312 -0.035132 -565463.000000 0 0 1
-33.025824 -14.342946 -20.523632 41.444477 0.409717 2.088870 0.095184 -0.034531 436898.000000 0 0 1
-31.821714 -15.062346 -20.760732 40.871797 0.442089 2.103597 0.096520 -0.039637 530331.000000 0 0 1
-31.828384 -16.307046 -20.112832 41.030377 0.473473 2.083108 0.088527 -0.041108 -506865.000000 0 0 1
-30.624424 -17.223646 -20.427632 40.642312 0.512325 2.097423 0.076972 -0.045364 -6714.070000 0 0 1
-30.684584 -18.443946 -19.655232 40.841780 0.541215 2.072880 0.069183 -0.046445 139910.000000 0 0 1
-29.674844 -19.381046 -19.981232 40.687479 0.578561 2.084137 0.072911 -0.046465 -141312.000000 0 0 1
-29.727554 -20.649046 -19.108032 40.929543 0.607099 2.056524 0.062912 -0.022026 103042.000000 0 0 1
-30.720944 -21.521346 -19.639332 42.339676 0.611090 2.053134 0.061164 -0.012010 291492.000000 0 0 1
-30.646464 -22.873646 -19.195232 42.788625 0.641175 2.036001 0.052639 0.006989 -486596.000000 0 0 1
-31.761924 -23.575646 -19.929832 44.292540 0.638530 2.037516 0.032782 0.003267 -410934.000000 0 0 1
-31.546974 -23.727546 -21.296832 44.852682 0.644865 2.065553 0.027102 -0.003041 247710.000000 0 0 1
-32.561444 -24.596346 -21.794632 46.262662 0.646937 2.061341 0.025556 0.004201 212197.000000 0 0 1
-32.603064 -24.852646 -23.359732 47.183587 0.651314 2.088725 0.017369 0.006366 -506926.000000 0 0 1
-31.417204 -25.411156 -23.830032 46.910958 0.680102 2.103639 0.031045 0.003250 -735567.000000 0 0 1
-31.435094 -25.673816 -25.248462 47.799528 0.684856 2.127294 0.029527 0.009146 496067.000000 0 0 1
-30.069884 -26.155786 -25.834002 47.494408 0.715896 2.145919 0.034600 -0.001938 669167.000000 0 0 1
-29.045754 -25.172346 -25.755042 46.266889 0.714078 2.161159 0.039241 -0.008601 156037.000000 0 0 1
-27.808364 -25.673316 -26.247322 46.058074 0.745498 2.177149 0.037716 -0.013363 987765.000000 0 0 1
-26.715814 -24.551546 -26.447462 44.899682 0.743208 2.200660 0.054228 -0.015031 592494.000000 0 0 1
-26.821564 -23.823246 -27.689312 45.317120 0.726264 2.228135 0.061859 -0.014016 -141961.000000 0 0 1
-25.710614 -22.969746 -27.833482 44.309679 0.729154 2.249980 0.073889 -0.011208 172885.000000 0 0 1
-25.482274 -22.494546 -29.304842 44.879001 0.723204 2.282301 0.062926 -0.007482 52436.400000 0 0 1
-24.886874 -23.457946 -30.128812 45.578252 0.755850 2.292993 0.064854 -0.009128 200281.000000 0 0 1
-24.358974 -22.961546 -31.380362 45.883759 0.755876 2.323905 0.064538 0.001568 55615.800000 0 0 1
-23.981574 -24.037246 -32.422882 46.948359 0.786558 2.333125 0.056084 -0.002415 -985558.000000 0 0 1
-25.085794 -24.731646 -32.804522 48.136141 0.778289 2.320599 0.032143 -0.007839 -1213920.000000 0 0 1
-24.793574 -25.706086 -33.766142 49.149533 0.803466 2.328160 0.047184 -0.012347 122733.000000 0 0 1
-19.968674 -14.451646 -11.986232 27.409265 0.626466 2.023397 0.045565 -0.008762 135240.000000 0 0 1
-20.443174 -14.375346 -10.650532 27.166299 0.612861 1.973655 0.052045 -0.018662 -386689.000000 0 0 1
-19.470674 -14.858646 -9.795832 26.378871 0.651851 1.951260 0.041852 -0.022959 -506052.000000 0 0 1
-19.595674 -14.397946 -8.289632 25.690646 0.633670 1.899347 0.060262 -0.027458 135294.000000 0 0 1
-20.747174 -14.928446 -7.628532 26.673924 0.623721 1.860838 0.084971 -0.032893 456077.000000 0 0 1
-21.144474 -14.076646 -6.591232 26.242810 0.587358 1.824678 0.079188 -0.036626 -65386.600000 0 0 1
-22.435874 -14.567246 -5.885832 27.390074 0.575871 1.787375 0.095238 -0.038444 -391758.000000 0 0 1
-22.528074 -15.911046 -5.273832 28.080043 0.614926 1.759733 0.078227 -0.038069 133059.000000 0 0 1
-21.775874 -16.128246 -4.105532 27.407379 0.637489 1.721159 0.086961 -0.031854 -243868.000000 0 0 1
-21.825374 -17.608646 -3.674732 28.282769 0.678872 1.701093 0.066880 -0.016661 30987.700000 0 0 1
-23.048774 -18.025446 -3.116132 29.425720 0.663704 1.676894 0.059160 -0.012974 106122.000000 0 0 1
-22.780774 -19.033046 -2.198632 29.766668 0.696008 1.644726 0.054383 -0.003989 -135867.000000 0 0 1
-23.961074 -19.993846 -2.006532 31.271603 0.695385 1.635005 0.032591 -0.008561 -212817.000000 0 0 1
-24.073774 -20.860146 -3.068332 32.001671 0.714001 1.666824 0.018269 -0.010005 622448.000000 0 0 1
-25.086944 -21.885646 -2.921432 33.419621 0.717351 1.658325 0.032901 -0.007251 527514.000000 0 0 1
-24.884474 -23.008446 -3.936432 34.119220 0.746247 1.686427 0.031937 -0.006675 -717743.000000 0 0 1
-23.686574 -23.693046 -3.772232 33.714151 0.785535 1.682920 0.027168 -0.002733 -1039270.000000 0 0 1
-23.377474 -24.662346 -4.714432 34.306902 0.812138 1.708652 0.027575 0.000857 -282235.000000 0 0 1
-21.998674 -24.394046 -5.325432 33.277190 0.836985 1.731520 0.027803 0.003430 -365630.000000 0 0 1
-21.822374 -23.142446 -6.017432 32.372802 0.814748 1.757763 0.022465 0.003902 -16158.900000 0 0 1
-21.685974 -22.018846 -5.220232 31.342653 0.793014 1.738130 0.017722 0.004660 -884101.000000 0 0 1
-21.699974 -20.584946 -5.934032 30.493305 0.759035 1.766647 0.030146 -0.000728 -10957.400000 0 0 1
-20.631374 -20.154346 -6.767832 29.625240 0.773703 1.801280 0.014645 -0.003506 94855.200000 0 0 1
-20.774874 -18.878646 -7.307732 29.006924 0.737615 1.825471 0.010225 0.001786 514404.000000 0 0 1
-19.536174 -18.657646 -8.237232 28.242200 0.762400 1.866762 0.025105 -0.006752 293003.000000 0 0 1
-19.488974 -19.461246 -9.445732 29.116698 0.784686 1.901184 0.004905 -0.011577 633192.000000 0 0 1
-18.151474 -19.527446 -9.961932 28.461154 0.821900 1.928387 0.048665 -0.013211 774870.000000 0 0 1
-17.464874 -18.350346 -10.644232 27.478295 0.810116 1.968572 0.047299 -0.014556 -514492.000000 0 0 1
-17.162774 -17.226846 -9.891132 26.251848 0.787261 1.957112 0.063766 -0.019080 -449875.000000 0 0 1
-15.853974 -17.212046 -9.411432 25.222571 0.826447 1.953182 0.073414 -0.023023 -982870.000000 0 0 1
-15.664974 -16.001446 -8.526232 23.961100 0.796023 1.934605 0.072410 -0.020240 -253878.000000 0 1 0
-16.491974 -16.033146 -7.392532 24.159812 0.771292 1.881769 0.065065 -0.016125 84845.400000 0 1 0
-16.332574 -15.019946 -6.472132 23.113638 0.743556 1.854605 0.055672 -0.019319 -95191.100000 0 1 0
-17.286374 -15.220946 -5.256332 23.624669 0.721946 1.795168 0.070011 -0.020810 4645.290000 0 1 0
-17.308274 -14.100946 -4.458532 22.766017 0.683637 1.767912 0.057110 -0.018387 250369.000000 0 1 0
-17.770174 -14.414646 -3.175732 23.100788 0.681515 1.708706 0.061106 -0.010726 -353492.000000 0 1 0
-18.541774 -13.298946 -2.459832 22.950166 0.622205 1.678184 0.060119 -0.013616 -513617.000000 0 1 0
-19.789274 -13.068746 -3.051632 23.910666 0.583648 1.698772 0.077625 -0.031564 38848.100000 0 1 0
-20.581574 -12.175446 -2.278832 24.021569 0.534198 1.665805 0.085615 -0.024562 276424.000000 0 1 0
-22.099374 -12.491146 -2.360132 25.494731 0.514458 1.663502 0.085326 -0.021179 91707.400000 0 0 1
-22.657874 -12.205046 -3.604532 25.987210 0.494101 1.709949 0.098113 -0.019638 613791.000000 0 0 1
-24.086774 -12.233646 -3.629232 27.258139 0.469947 1.704336 0.090161 -0.021725 696875.000000 0 0 1
-24.640374 -11.370346 -4.829232 27.563641 0.432336 1.746908 0.100519 -0.029649 -67185.200000 0 0 1
-24.320074 -12.013546 -6.061032 27.794377 0.458817 1.790630 0.106328 -0.038463 340669.000000 0 0 1
-24.979274 -11.456546 -7.202832 28.409459 0.430017 1.827131 0.116649 -0.041889 -74872.600000 0 0 1
-24.166574 -11.658546 -8.492632 28.143735 0.449489 1.877334 0.119659 -0.040520 -82694.000000 0 0 1
-23.095474 -10.753546 -8.604932 26.890231 0.435761 1.896528 0.116579 -0.039198 -468700.000000 0 0 1
-22.143674 -11.183446 -9.507532 26.566990 0.467672 1.936782 0.082627 -0.033072 -763595.000000 0 0 1
-20.892174 -10.296146 -9.499232 25.154105 0.457890 1.958044 0.089371 -0.037644 -458611.000000 0 0 1
-21.017674 -9.046546 -10.169432 25.039968 0.406457 1.989009 0.083156 -0.027709 2335.870000 0 0 1
-19.949574 -8.198946 -9.872332 23.720691 0.389939 2.000048 0.090964 -0.024596 -520156.000000 0 1 0
-19.967374 -6.850746 -10.570032 23.608353 0.330512 2.035015 0.109968 -0.038720 -223138.000000 0 1 0
-19.537674 -7.122546 -11.868132 23.943766 0.349582 2.089399 0.114810 -0.029436 379017.000000 0 1 0
-19.262074 -5.959246 -12.654432 23.804932 0.300037 2.131271 0.104697 -0.036004 -219488.000000 0 1 0
-18.624074 -6.174646 -14.051732 24.133661 0.320137 2.192285 0.116687 -0.022052 428239.000000 0 1 0
-19.432874 -6.889446 -15.039032 25.520062 0.340701 2.200991 0.123349 -0.034402 687376.000000 0 0 1
-18.840774 -6.693846 -16.291832 25.791591 0.341375 2.254505 0.119732 -0.037478 -184268.000000 0 0 1
-19.426674 -7.558246 -17.392632 27.148230 0.371045 2.266147 0.096867 -0.035518 -6127.140000 0 0 1
-20.764374 -7.310046 -17.804732 28.312621 0.338498 2.250885 0.084683 -0.036054 626066.000000 0 0 1
-21.057274 -8.121946 -18.985432 29.492736 0.368125 2.270162 0.098276 -0.039765 234143.000000 0 0 1
-22.527474 -8.034446 -19.496632 30.857059 0.342588 2.254717 0.090160 -0.037788 -259190.000000 0 0 1
-22.668974 -6.807546 -20.211432 31.124381 0.291734 2.277560 0.086557 -0.034089 830972.000000 0 0 1
-23.992274 -6.700446 -20.767032 32.431387 0.272336 2.265734 0.069136 -0.033908 1748800.000000 0 0 1
-25.116244 -6.244046 -19.720232 32.537692 0.243666 2.221911 0.091973 -0.033665 194462.000000 0 0 1
-25.042964 -4.916946 -19.363332 32.035372 0.193874 2.219854 0.079129 -0.022859 121338.000000 0 0 1
-26.051664 -4.671446 -18.404732 32.237335 0.177429 2.178415 0.099521 -0.015822 -116249.000000 0 0 1
-26.068434 -3.201246 -17.990232 31.834882 0.122190 2.171364 0.083442 -0.015823 121199.000000 0 0 1
-26.390184 -2.192246 -18.956632 32.566880 0.082880 2.192085 0.095413 -0.013438 431591.000000 0 0 1
-27.725124 -2.240746 -19.451932 33.942321 0.080645 2.181065 0.120086 -0.011028 286531.000000 0 0 1
-27.994944 -1.015946 -20.348032 34.623568 0.036274 2.199001 0.121148 -0.012122 -194648.000000 0 0 1
-27.326834 -1.060446 -21.567932 34.828955 0.038787 2.238587 0.106088 -0.005474 -234022.000000 0 0 1
-28.079524 -1.696046 -22.583832 36.074447 0.060328 2.247253 0.109134 -0.002141 -194300.000000 0 0 1
-27.517094 -1.680846 -24.024832 36.567859 0.061008 2.287620 0.099701 -0.002189 -506326.000000 0 0 1
-27.513324 -0.434146 -24.724932 36.993158 0.015778 2.302805 0.100836 0.002939 61951.200000 0 0 1
-26.886924 0.731554 -24.233732 36.203807 -0.027202 2.304156 0.078305 0.003499 1878740.000000 0 0 1
-25.306184 0.635254 -23.919732 34.827577 -0.025097 2.327880 0.070869 0.003840 1427450.000000 0 0 1
-24.480274 0.528354 -25.066132 35.041033 -0.021579 2.367902 0.056395 0.005441 -33995.100000 0 0 1
-23.136474 0.550454 -24.625732 33.793877 -0.023787 2.387224 0.053364 0.002306 228357.000000 0 0 1
-22.097974 0.043754 -25.669262 33.870834 -0.001980 2.430819 0.047660 0.000139 68342.000000 0 0 1
-22.068074 0.903954 -26.799512 34.727956 -0.040939 2.452304 0.031111 0.004586 7056.630000 0 0 1
-21.332974 0.413154 -27.902522 35.125735 -0.019364 2.488752 0.019411 0.007744 -124662.000000 0 0 1
-21.401374 1.230054 -29.205502 36.228348 -0.057412 2.508414 0.025554 0.020233 -418438.000000 0 0 1
-20.560274 2.343154 -29.182312 35.774608 -0.113476 2.524781 0.040390 0.019531 -38494.700000 0 0 1
-20.593974 3.150854 -30.329772 36.795852 -0.151821 2.539711 0.036267 0.014716 -295453.000000 0 0 1
-19.805674 2.678054 -31.550172 37.347692 -0.134401 2.576930 0.033456 0.010967 -307070.000000 0 0 1
-18.409974 2.673354 -31.379352 36.479278 -0.144204 2.606451 0.019790 0.009358 120202.000000 0 0 1
-17.796474 1.918154 -32.473792 37.080197 -0.107368 2.637829 0.013177 0.007571 -222536.000000 0 0 1
-16.289874 1.708654 -32.575532 36.461553 -0.104508 2.675701 0.020487 -0.005251 -415671.000000 0 0 1
-15.642374 2.995354 -32.619392 36.299873 -0.189199 2.687385 0.026536 0.000274 -997442.000000 0 0 1
-14.316974 2.748054 -32.922722 36.006016 -0.189637 2.724739 0.016996 -0.002411 -1165130.000000 0 0 1
-13.550574 4.031654 -33.193982 36.079257 -0.289186 2.738952 0.012194 0.001816 -465782.000000 0 0 1
-13.428874 4.889354 -32.065382 35.105971 -0.349174 2.722327 0.023189 -0.011964 88905.500000 0 0 1
-12.956074 6.178754 -32.344152 35.386170 -0.444998 2.723916 0.041410 -0.003569 -246508.000000 0 0 1
-12.520374 7.043854 -31.156602 34.309030 -0.512459 2.709560 0.046180 -0.019382 31418.400000 0 0 1
-11.362574 6.664354 -30.406172 33.136944 -0.530447 2.732775 0.062575 -0.028097 582988.000000 0 0 1
-11.498274 5.520554 -29.547052 32.182528 -0.447618 2.734078 0.070222 -0.027125 345834.000000 0 0 1
-10.103174 4.820554 -29.324442 31.388450 -0.445187 2.776927 0.082417 -0.042400 610887.000000 0 0 1
-9.635774 4.040854 -30.440362 32.183727 -0.397083 2.810941 0.074291 -0.040138 532637.000000 0 0 1
-10.364574 2.813054 -30.653282 32.480169 -0.265026 2.804601 0.075520 -0.034591 -12144.900000 0 0 1
-10.000374 2.280654 -32.023782 33.626351 -0.224222 2.831620 0.061740 -0.035976 -33395.300000 0 0 1
-10.719174 1.085454 -32.267622 34.018794 -0.100919 2.819337 0.061975 -0.030830 285757.000000 0 0 1
-10.404174 0.509554 -33.527392 35.108297 -0.048937 2.840357 0.051723 -0.018786 -427715.000000 0 0 1
-10.868274 1.288254 33.408603 35.155565 -0.117983 0.316574 0.043319 -0.013213 -633408.000000 0 0 1
-12.251374 1.233254 33.294414 35.498382 -0.100325 0.354231 0.011563 -0.008012 -908693.000000 0 0 1
-12.618874 1.385154 31.909251 34.341738 -0.109331 0.378640 0.004895 -0.003717 -365802.000000 0 0 1
-14.101874 1.126954 31.652261 34.669850 -0.079746 0.420311 0.020621 0.004220 -298135.000000 0 0 1
-14.921174 2.278454 31.866991 35.260997 -0.151529 0.442355 0.027250 0.013327 320855.000000 0 0 1
-16.238174 1.918154 31.456571 35.452411 -0.117581 0.479361 0.026143 0.011082 239716.000000 0 0 1
-17.136374 3.144054 31.191251 35.727224 -0.181454 0.509397 0.028025 0.014839 -177880.000000 0 0 1
-17.339374 4.049154 32.288856 36.873022 -0.229412 0.503960 0.028285 0.007848 508766.000000 0 0 1
-16.346474 5.072854 32.343398 36.592847 -0.300910 0.486719 0.014513 0.008177 -453744.000000 0 0 1
-16.505974 5.962854 33.549620 37.862644 -0.346666 0.481961 0.009959 0.007294 -591433.000000 0 0 1
-17.718074 6.643854 33.715148 38.662413 -0.358750 0.511442 0.027928 0.002853 -119825.000000 0 0 1
-18.651874 5.839754 -33.753652 39.003900 -0.303424 2.616728 0.029914 0.002410 -367755.000000 0 0 1
-20.093174 6.317854 -33.927242 39.933804 -0.304640 2.585998 0.026199 0.004907 -338464.000000 0 0 1
-20.487674 7.499054 -33.256332 39.773914 -0.350881 2.560994 0.040354 -0.003146 120707.000000 0 0 1
-20.380074 8.656554 -34.097638 40.656270 -0.401664 2.565653 0.025625 -0.001016 -147856.000000 0 0 1
-20.578174 9.983754 -33.320492 40.415242 -0.451707 2.540032 0.041667 -0.005698 -132733.000000 0 0 1
-19.509674 10.297054 -32.434852 39.225965 -0.485633 2.544319 0.050361 -0.014286 274045.000000 0 0 1
-19.287674 11.676754 -32.100292 39.227410 -0.544380 2.529266 0.063350 -0.026815 35623.100000 0 0 1
-18.492674 12.452654 -33.181222 39.975506 -0.592638 2.549974 0.036912 -0.029385 -204294.000000 0 0 1
-19.195874 12.653954 33.824269 40.898476 -0.582817 0.596992 0.049599 -0.026441 750555.000000 0 0 1
-18.272574 12.715454 32.718491 39.573595 -0.607953 0.597445 0.048098 -0.030409 861331.000000 0 0 1
-19.023574 12.204254 31.422611 38.706856 -0.570400 0.623551 0.054191 -0.031900 277221.000000 0 0 1
-19.214674 10.774454 31.460061 38.406093 -0.511052 0.610882 0.035458 -0.017898 -369375.000000 0 0 1
-18.117574 10.135954 30.901341 37.227368 -0.510073 0.591562 0.030559 -0.017106 -281953.000000 0 0 1
-18.222674 8.638054 30.894941 36.894162 -0.442655 0.578299 0.043924 -0.005249 -511043.000000 0 0 1
-19.088874 8.066754 30.008801 36.468970 -0.399827 0.604373 0.044738 -0.008776 -394371.000000 0 0 1
-19.130874 6.687254 30.309121 36.460287 -0.336277 0.589369 0.036134 -0.006824 -214152.000000 0 0 1
-19.550774 5.871354 29.107131 35.551802 -0.291744 0.611610 0.046157 -0.005366 -587099.000000 0 0 1
-20.890174 6.038754 28.769311 36.062989 -0.281401 0.647239 0.072491 -0.017922 -633846.000000 0 0 1
-21.304374 5.086854 27.802011 35.393562 -0.234382 0.667276 0.072102 -0.020644 -363821.000000 0 0 1
-22.812074 5.081754 27.524421 36.108291 -0.219187 0.703977 0.075991 -0.014675 -115705.000000 0 0 1
-23.320474 6.089454 26.599091 35.894813 -0.255417 0.736195 0.081072 -0.014563 -917324.000000 0 0 1
-24.687474 6.090754 26.725491 36.889301 -0.241884 0.760519 0.074132 -0.015845 -1318010.000000 0 0 1
-25.496014 6.844654 25.595311 36.769770 -0.262276 0.800850 0.072423 -0.017376 183787.000000 0 0 1
-25.639404 6.096454 24.411281 35.922924 -0.233442 0.823653 0.061830 -0.009320 528435.000000 0 0 1
-26.469724 4.933054 24.458561 36.375851 -0.184252 0.833371 0.055041 0.004931 -258599.000000 0 0 1
-26.408554 4.205654 23.069471 35.317131 -0.157927 0.858981 0.063353 -0.010194 -70344.900000 0 0 1
-26.975514 4.917554 21.988071 35.147347 -0.180317 0.894900 0.066567 -0.005998 125135.000000 0 0 1
-26.924074 4.209354 20.768371 34.262949 -0.155086 0.919590 0.069003 0.003207 -32481.200000 0 0 1
-27.534344 4.887854 19.503871 34.094460 -0.175688 0.961788 0.105920 -0.005611 630404.000000 0 0 1
-28.957114 4.980554 19.462871 35.243776 -0.170331 0.985753 0.110791 -0.007017 524981.000000 0 0 1
-29.359974 5.373354 18.160271 34.938181 -0.181013 1.024199 0.107990 -0.013790 -402544.000000 0 0 1
-30.879884 5.321854 17.973771 36.124034 -0.170664 1.050016 0.123265 -0.017781 -349512.000000 0 0 1
-31.544894 6.394354 18.631771 37.190200 -0.199997 1.046059 0.140956 -0.006136 441097.000000 0 0 1
-32.807934 5.929254 19.119071 38.432479 -0.178796 1.050115 0.142170 -0.012733 284223.000000 0 0 1
-33.593894 7.035854 19.789271 39.619038 -0.206454 1.047788 0.162307 -0.013158 -259342.000000 0 0 1
-33.136624 7.345854 21.072671 39.950656 -0.218156 1.015179 0.113034 -0.011629 321950.000000 0 0 1
-34.019014 8.295154 21.691171 41.189924 -0.239171 1.016184 0.132547 -0.023673 497977.000000 0 0 1
0.124326 32.638454 12.057768 34.794739 1.566987 1.216916 0.058665 -0.020770 79241.800000 0 0 1
0.023826 32.876254 13.410368 35.506149 1.570072 1.183495 0.046415 -0.016813 -22298.500000 0 0 1
0.003826 -33.925946 13.760268 36.610310 -1.570684 1.185474 0.040788 -0.013445 -60502.900000 0 0 1
0.040026 -33.629646 15.277868 36.937351 -1.569606 1.144375 0.042653 -0.003684 440430.000000 0 0 1
-1.167674 -33.924546 15.969768 37.513621 1.536390 1.131055 0.037034 0.000243 173437.000000 0 0 1
-0.878774 -33.734546 17.349168 37.944505 1.544753 1.095924 0.027775 -0.004542 683455.000000 0 0 1
-2.140574 -33.489346 18.239168 38.194052 1.506965 1.072944 0.042862 -0.003910 397054.000000 0 0 1
-2.912074 33.547254 18.566068 38.452533 -1.484208 1.066912 0.024447 -0.002459 -416899.000000 0 0 1
-3.898774 33.981054 19.454268 39.349472 -1.456562 1.053655 0.022458 -0.004204 -366553.000000 0 0 1
-4.967174 32.926954 19.806668 38.744821 -1.421071 1.034206 0.015657 -0.009939 -42019.100000 0 0 1
-5.862174 32.650754 18.742968 38.101649 -1.393147 1.056503 0.016387 -0.012102 -277093.000000 0 0 1
-6.902474 31.904254 19.330668 37.936793 -1.357731 1.036135 0.018729 -0.026169 -582638.000000 0 0 1
-8.041074 31.568654 18.375868 37.402022 -1.321383 1.057207 -0.002189 -0.023473 -664442.000000 0 0 1
-8.816274 32.723254 18.093468 38.417595 -1.307626 1.080408 0.016360 -0.025148 -185077.000000 0 0 1
-9.296874 32.772054 16.793068 37.979554 -1.294376 1.112790 0.033156 -0.016350 -565809.000000 0 0 1
-10.223974 33.947954 16.535068 39.120349 -1.278270 1.134405 0.097622 -0.029952 216696.000000 0 0 1
-11.344174 34.000154 17.431168 39.856572 -1.248760 1.118149 0.104241 -0.032476 309160.000000 0 0 1
-12.261174 -33.221946 16.953668 39.261443 1.217236 1.124293 0.081478 -0.035476 -1088730.000000 0 0 1
-13.608174 -33.288446 17.611868 40.043488 1.182731 1.115400 0.112045 -0.031855 -937536.000000 0 0 1
-13.718974 -32.832046 18.949768 40.314354 1.174995 1.081449 0.093235 -0.022258 187330.000000 0 0 1
-15.053474 -32.936746 19.423468 41.093885 1.142102 1.078489 0.072969 -0.033577 393448.000000 0 0 1
-15.190274 -32.432846 20.896568 41.464448 1.132779 1.042615 0.071582 -0.038904 -107587.000000 0 0 1
-15.274774 -31.023946 21.139168 40.529845 1.113284 1.022106 0.099408 -0.034119 94783.700000 0 0 1
-15.414974 -30.673546 22.493168 41.041813 1.105111 0.990759 0.073274 -0.028662 149999.000000 0 0 1
-15.191674 -29.099846 22.776668 39.954531 1.089662 0.964212 0.094844 -0.034742 -264342.000000 0 0 1
-15.323774 -28.756046 24.144668 40.554817 1.081185 0.933084 0.091957 -0.029319 -72759.900000 0 0 1
-15.459974 -27.329246 24.343768 39.730561 1.055984 0.911297 0.090091 -0.031235 652883.000000 0 0 1
-16.830674 -26.648746 23.983668 39.606105 1.007483 0.920333 0.105378 -0.029105 509782.000000 0 0 1
-17.887874 -26.924446 24.862668 40.780560 0.984383 0.915153 0.097192 -0.022627 461106.000000 0 0 1
-19.089074 -26.257546 24.475468 40.655873 0.942182 0.924773 0.096409 -0.018744 737393.000000 0 0 1
-20.214774 -26.066446 25.575968 41.739990 0.911168 0.911267 0.080426 -0.008853 491517.000000 0 0 1
-20.957474 -27.230246 26.010768 43.095963 0.914844 0.922845 0.062837 -0.009517 358742.000000 0 0 1
-21.796074 -27.915946 25.130268 43.426941 0.907888 0.953688 0.065377 -0.011414 -536205.000000 0 0 1
-23.076474 -27.167046 24.690068 43.360944 0.866634 0.965011 0.052228 0.000130 -657936.000000 0 0 1
-22.904274 -25.887646 24.114368 42.145922 0.846467 0.961655 0.055805 -0.007961 -1055940.000000 0 0 1
-24.167474 -25.586146 23.686668 42.423766 0.813904 0.978419 0.039496 -0.007197 -1326250.000000 0 0 1
-24.499274 -24.084346 23.393268 41.563387 0.776858 0.972986 0.033302 0.000395 -222767.000000 0 0 1
-24.748274 -23.369346 24.588968 41.990722 0.756749 0.945200 0.027454 0.000351 158744.000000 0 0 1
-25.276084 -22.106846 24.208868 41.396405 0.718612 0.946155 0.023927 -0.003431 -7006.100000 0 0 1
-25.899904 -21.321846 25.358268 42.053155 0.688752 0.923534 0.026747 0.000739 -338505.000000 0 0 1
-27.109464 -21.843446 25.847068 43.360467 0.678237 0.932164 0.014740 0.008717 144446.000000 0 0 1
-27.500964 -21.061346 27.007468 43.923645 0.653562 0.908571 0.015707 -0.000655 -902837.000000 0 0 1
-28.489584 -21.836346 27.909268 45.468776 0.653957 0.909916 0.011858 -0.008026 1359530.000000 0 0 1
-29.904924 -21.738946 27.589568 46.131014 0.628576 0.929706 0.021961 -0.011590 1558790.000000 0 0 1
-30.331284 -22.136746 26.303968 45.846712 0.630468 0.959735 0.013281 -0.004968 620504.000000 0 0 1
-31.847364 -22.670446 26.274568 47.101556 0.618633 0.979030 0.013592 -0.007743 1376690.000000 0 0 1
-32.294024 -23.176646 25.046268 46.982725 0.622491 1.008542 0.009392 -0.007225 149532.000000 0 0 1
-31.645264 -24.374546 24.606968 46.915286 0.656331 1.018671 -0.001687 -0.008306 -361364.000000 0 0 1
-32.296834 -24.926646 23.313668 46.988831 0.657307 1.051634 0.013041 -0.004339 573369.000000 0 0 1
-33.547114 -25.609046 23.526568 48.319059 0.652007 1.062259 0.049019 -0.008247 435260.000000 0 0 1
-33.975194 -26.137146 22.320568 48.328790 0.655740 1.090718 0.053451 0.000719 -88022.400000 0 0 1
-35.258039 -26.992346 22.320668 49.698373 0.653389 1.105013 0.062933 -0.012149 -146508.000000 0 0 1
-35.246448 -28.217046 22.948468 50.647270 0.675085 1.100552 0.066127 -0.015286 161270.000000 0 0 1
-34.401221 -29.251946 22.440268 50.425053 0.704678 1.109597 0.052142 -0.011269 -156039.000000 0 0 1
-35.070227 -30.061946 21.289168 50.861283 0.708655 1.138923 0.067113 -0.005575 57074.300000 0 0 1
-35.139669 -29.359146 20.059168 49.991259 0.696015 1.157911 0.050182 0.003576 315456.000000 0 0 1
-35.422633 -30.288146 19.092268 50.365161 0.707419 1.181998 0.049015 0.009467 -367880.000000 0 0 1
-35.828425 -29.712646 17.727268 49.807363 0.692355 1.206902 0.050061 0.020781 -188689.000000 0 0 1
-34.734088 -29.278746 16.947468 48.486271 0.700381 1.213726 0.063858 0.009130 96878.100000 0 0 1
-35.106720 -28.645346 15.722768 47.960849 0.684391 1.236796 0.060096 0.001916 98030.200000 0 0 1
-35.837985 -29.548946 14.697968 48.718904 0.689511 1.264332 0.050255 0.008723 853431.000000 0 0 1
-34.937789 -30.654646 14.410068 48.662167 0.720191 1.270164 0.052128 -0.001276 703311.000000 0 0 1
-35.433452 -31.572646 13.469868 49.333547 0.727843 1.294248 0.039757 -0.004617 -26564.400000 0 0 1
-35.568564 -31.150246 11.983468 48.775650 0.719272 1.322570 0.047419 -0.005281 1077800.000000 0 0 1
36.378450 -30.387646 11.648868 48.810826 -0.695910 1.329817 0.050448 -0.008979 935010.000000 0 0 1
36.462600 -29.725146 10.412168 48.182141 -0.683955 1.352978 0.037020 -0.005816 193191.000000 0 0 1
35.303930 -28.701746 10.330068 46.656918 -0.682612 1.347541 0.066246 0.001025 246761.000000 0 0 1
35.522170 -27.754446 9.320968 46.032752 -0.663251 1.366901 0.074249 -0.042024 -14948.300000 0 0 1
34.354570 -27.027246 9.024268 44.633462 -0.666588 1.367207 0.063990 -0.037623 -168806.000000 0 0 1
34.499600 -25.960846 7.899168 43.892878 -0.645097 1.389846 0.055516 -0.037057 -268196.000000 0 0 1
35.129660 -24.840946 8.332868 43.824677 -0.615490 1.379491 0.067216 -0.044086 -310143.000000 0 0 1
35.342250 -23.900046 7.271768 43.280081 -0.594605 1.401979 0.069276 -0.041726 28069.300000 0 0 1
35.858900 -22.531146 7.743668 43.052034 -0.560989 1.389944 0.085719 -0.039856 -724400.000000 0 0 1
34.917060 -21.820946 8.467768 42.036387 -0.558554 1.367970 0.072035 -0.038148 -512471.000000 0 0 1
35.189980 -20.463246 8.372968 41.559424 -0.526711 1.367938 0.091530 -0.036487 -5711.140000 0 0 1
34.438220 -19.537946 9.334468 40.679904 -0.516053 1.339272 0.090111 -0.029616 261737.000000 0 0 1
35.000230 -19.524946 10.643768 41.467209 -0.508852 1.311212 0.076058 -0.041422 -691045.000000 0 0 1
34.166920 -18.849446 11.484868 40.676556 -0.504137 1.284557 0.083683 -0.027040 -567008.000000 0 0 1
34.608290 -18.747346 12.931568 41.429725 -0.496449 1.253359 0.072992 -0.040617 1130590.000000 0 0 1
35.857330 -17.999846 13.025368 42.182968 -0.465234 1.256883 0.039743 -0.026452 1355980.000000 0 0 1
36.491710 -18.215946 14.278168 43.212633 -0.462992 1.234051 0.039286 -0.023035 -335631.000000 0 0 1
-35.524185 -17.294546 14.761568 42.177872 0.453063 1.213243 0.051350 -0.026229 -83985.600000 0 0 1
-34.354521 -17.562346 14.026668 41.053825 0.472575 1.222108 0.035006 -0.022265 389986.000000 0 0 1
-33.172164 -16.983946 14.592368 40.022295 0.473197 1.197587 0.021488 -0.020434 683589.000000 0 0 1
-31.855104 -17.069746 13.801268 38.685900 0.491919 1.206008 0.047870 -0.024298 -44889.400000 0 0 1
-31.456434 -18.364046 13.497568 38.844945 0.528417 1.215922 0.039028 -0.027851 179817.000000 0 0 1
-30.413564 -18.395246 12.527868 37.687099 0.543968 1.231930 0.018020 -0.017046 127380.000000 0 0 1
-29.765444 -19.793946 12.363568 37.823799 0.586846 1.237804 0.002884 -0.015504 182562.000000 0 0 1
-30.582594 -20.776046 11.703468 38.780282 0.596727 1.264228 0.011044 -0.017941 59698.200000 0 0 1
-29.675194 -21.500346 10.929468 38.240493 0.626995 1.280946 0.007766 -0.015930 -84766.900000 0 0 1
-30.288344 -22.413546 9.854568 38.946930 0.637074 1.314990 0.018984 -0.019456 479369.000000 0 0 1
-31.056514 -23.567946 10.270368 40.316691 0.649156 1.313215 0.022060 -0.020464 1009590.000000 0 0 1
-32.445654 -23.315946 10.557868 41.325808 0.623111 1.312453 0.036091 -0.028907 509364.000000 0 0 1
-33.202554 -24.646946 10.673968 42.706149 0.638568 1.318178 0.063222 -0.033079 -508559.000000 0 0 1
-33.394574 -25.235546 9.411368 42.902263 0.647125 1.349630 0.064492 -0.028723 -16695.000000 0 0 1
-34.196596 -26.403446 9.477668 44.230932 0.657500 1.354845 0.076756 -0.021578 210479.000000 0 0 1
-34.137962 -27.246646 8.142068 44.430546 0.673602 1.386501 0.070688 -0.017663 868750.000000 0 0 1
-32.813884 -27.725646 7.865768 43.673021 0.701547 1.389702 0.055962 -0.021323 500869.000000 0 0 1
-32.813474 -28.403546 6.622168 43.901465 0.713485 1.419377 0.054297 -0.017153 -56770.800000 0 0 1
-31.413814 -28.620546 6.023268 42.921360 0.738904 1.429999 0.082730 -0.012768 -55324.500000 0 0 1
-30.986944 -27.576246 5.171268 41.801699 0.727224 1.446769 0.084013 -0.014539 -204678.000000 0 0 1
-29.777074 -28.034246 4.576268 41.152586 0.755260 1.459363 0.079317 -0.020445 76653.400000 0 0 1
-28.941374 -26.889446 4.025268 39.709548 0.748662 1.469254 0.074948 -0.015778 -119822.000000 0 0 1
-29.412254 -26.369846 2.766168 39.599257 0.730911 1.500885 0.083921 -0.011533 70708.000000 0 0 1
-28.689314 -25.187346 2.375668 38.250790 0.720490 1.508649 0.066226 -0.016345 -34566.000000 0 0 1
-29.127404 -24.626746 1.050868 38.157393 0.701866 1.543253 0.069244 -0.016104 -84832.700000 0 0 1
-28.475454 -25.256546 -0.062232 38.062429 0.725563 1.572431 0.079805 -0.018011 -44215.600000 0 0 1
-28.720434 -24.628246 -1.322032 37.857121 0.708842 1.605725 0.081178 -0.020549 1208720.000000 0 0 1
-30.189114 -24.670046 -1.947632 39.035715 0.685131 1.620711 0.095496 -0.024570 1252580.000000 0 0 1
-30.985284 -23.560346 -1.613832 38.958724 0.650106 1.612232 0.077863 -0.010129 473457.000000 0 0 1
-32.329644 -23.729846 -2.114232 40.159450 0.633180 1.623467 0.081803 -0.017974 662912.000000 0 0 1
-33.122994 -22.458246 -1.916932 40.064700 0.595825 1.618661 0.072143 -0.016730 -503385.000000 0 0 1
-33.374274 -22.065946 -0.589432 40.013692 0.584185 1.585528 0.081100 -0.022636 -4342.050000 0 0 1
-34.091892 -20.871646 -0.458532 39.976155 0.549354 1.582267 0.089447 -0.012295 -468598.000000 0 0 1
-34.359964 -20.530446 1.007968 40.039010 0.538587 1.545619 0.083997 -0.020093 -289232.000000 0 0 1
-35.176761 -21.422046 1.727968 41.222499 0.546998 1.528866 0.092044 -0.024881 190303.000000 0 0 1
-35.252785 -20.982746 3.084468 41.140593 0.536889 1.495752 0.095568 -0.021415 -394124.000000 0 0 1
-36.361124 -21.720146 3.866968 42.530572 0.538465 1.479749 0.104760 -0.016885 981879.000000 0 0 1
35.413860 -21.632046 3.439568 41.640335 -0.548349 1.488100 0.081382 -0.015560 1005140.000000 0 0 1
34.759310 -20.370846 3.772868 40.464991 -0.530102 1.477423 0.084498 -0.021166 892039.000000 0 0 1
33.391890 -20.164246 3.015368 39.124258 -0.543258 1.493648 0.060795 -0.007733 788938.000000 0 0 1
32.309220 -20.994846 3.330468 38.675073 -0.576241 1.484575 0.051856 -0.004478 -553948.000000 0 0 1
31.201470 -20.614446 2.548668 37.483100 -0.583852 1.502749 0.045437 -0.007749 -67445.500000 0 0 1
29.933550 -21.413646 2.888768 36.917565 -0.620969 1.492467 0.028219 0.006546 -356541.000000 0 0 1
29.799520 -22.715346 2.378168 37.545359 -0.651309 1.507413 0.030383 0.001106 -684992.000000 0 0 1
28.527510 -23.167946 2.723868 36.850943 -0.682092 1.496813 0.015391 0.006072 -492532.000000 0 0 1
28.265510 -24.457546 1.909368 37.426679 -0.713298 1.519758 0.021731 0.004002 -178742.000000 0 0 1
27.972480 -24.098946 0.569968 36.926192 -0.711146 1.555360 0.025350 -0.008781 239334.000000 0 0 1
27.513080 -25.296246 -0.113832 37.374892 -0.743445 1.573842 0.013959 -0.008490 -319293.000000 0 0 1
26.779180 -25.031346 -1.408432 36.683463 -0.751676 1.609200 0.029526 -0.017200 -411769.000000 0 0 1
27.582080 -24.604746 -2.479032 37.044706 -0.728408 1.637766 0.017237 -0.031728 -130275.000000 0 0 1
27.629380 -25.540646 -3.508332 37.789094 -0.746134 1.663770 0.012826 -0.029127 153811.000000 0 0 1
26.368380 -25.871746 -4.410132 37.203333 -0.775892 1.689617 0.013207 -0.034090 530913.000000 0 0 1
25.992780 -24.926446 -5.357832 36.409596 -0.764460 1.718487 0.014461 -0.045569 -228489.000000 0 0 1
24.942080 -24.165346 -4.854232 35.066150 -0.769582 1.709673 0.038858 -0.044948 -725388.000000 0 0 1
24.340280 -23.077046 -5.823532 34.042808 -0.758764 1.742707 0.044342 -0.052530 -276886.000000 0 0 1
23.708480 -23.639446 -6.949932 34.193815 -0.783940 1.775474 0.054914 -0.049591 730702.000000 0 0 1
22.592280 -22.778646 -7.324732 32.907895 -0.789506 1.795259 0.048184 -0.044657 531735.000000 0 0 1
22.834280 -21.477946 -8.052232 32.365799 -0.754799 1.822225 0.043398 -0.042013 -829875.000000 0 0 1
23.101980 -21.646246 -9.425232 33.031749 -0.752878 1.860156 0.048116 -0.046862 258599.000000 0 0 1
22.957180 -20.393346 -10.140432 32.338043 -0.726325 1.889753 0.044001 -0.041338 -709172.000000 0 0 1
23.679480 -20.547346 -11.438732 33.372980 -0.714696 1.920644 0.045261 -0.028359 -444158.000000 0 0 1
25.079980 -20.446646 -11.315432 34.279874 -0.683975 1.907195 0.051402 -0.036487 -325829.000000 0 0 1
25.537480 -19.890646 -12.487732 34.695016 -0.661730 1.938988 0.040270 -0.035440 682825.000000 0 0 1
27.101380 -19.870946 -12.711232 35.929302 -0.632667 1.932411 0.038287 -0.027256 1136520.000000 0 0 1
27.596780 -21.187246 -12.926132 37.115584 -0.654761 1.926518 0.028508 -0.027139 223818.000000 0 0 1
28.431430 -21.662546 -11.884832 37.667776 -0.651088 1.891798 0.045720 -0.039804 10799.500000 0 0 1
28.914020 -23.157046 -12.034332 38.949897 -0.675285 1.884906 0.053936 -0.029716 14600.700000 0 0 1
29.851460 -23.432646 -13.068832 40.137176 -0.665512 1.902447 0.052542 -0.032464 381306.000000 0 0 1
30.194710 -24.778046 -13.147032 41.213063 -0.687182 1.895472 0.064707 -0.021832 -205333.000000 0 0 1
-3.399874 -9.485246 -27.426012 29.218405 1.226624 2.789507 0.034665 -0.016137 18844.400000 0 0 1
-3.787774 -8.331946 -26.703432 28.228388 1.144117 2.811394 0.050187 -0.010997 402468.000000 0 0 1
-4.741374 -7.587946 -27.470472 28.890905 1.012301 2.826716 0.045076 -0.010366 136641.000000 0 0 1
-4.701774 -6.128546 -26.967472 28.051922 0.916383 2.862629 0.043320 -0.007916 -152924.000000 0 0 1
-5.182574 -5.986246 -25.636512 26.831418 0.857231 2.842032 0.032869 -0.012921 280664.000000 0 0 1
-4.999974 -4.634546 -25.153402 26.060937 0.747487 2.876913 0.044359 -0.005254 -106504.000000 0 0 1
-5.504374 -4.329546 -23.721532 24.733665 0.666495 2.854527 0.031306 -0.009017 -212110.000000 0 1 0
-4.876474 -5.113846 -22.743732 23.816146 0.809154 2.840359 0.035663 -0.023858 336016.000000 0 1 0
-5.384374 -4.871346 -21.449432 22.645080 0.735416 2.815186 0.027541 -0.015944 -122234.000000 0 1 0
-4.877874 -5.874646 -20.390532 21.773354 0.877835 2.783281 0.031910 -0.024663 -441277.000000 0 1 0
-5.404574 -7.137546 -20.576532 22.439868 0.922701 2.731197 0.033061 -0.022264 432396.000000 0 1 0
-4.600074 -8.139046 -19.965932 22.046388 1.056369 2.703666 0.043072 -0.024563 -533454.000000 0 1 0
-5.288074 -9.528846 -19.991732 22.769102 1.064157 2.642506 0.057963 -0.024584 1415040.000000 0 1 0
-6.399874 -9.732146 -19.055232 22.333270 0.989096 2.592928 0.056777 -0.021224 676029.000000 0 1 0
-7.606474 -9.110546 -19.363032 22.710956 0.875129 2.591709 0.046364 -0.019711 -680205.000000 0 1 0
-8.738174 -9.412446 -18.332532 22.383735 0.822530 2.530482 0.040630 -0.014969 -101767.000000 0 1 0
-9.300174 -10.700346 -18.443532 23.262729 0.855291 2.486245 0.069995 -0.017730 138771.000000 0 1 0
-9.919574 -11.067646 -17.191432 22.725230 0.840047 2.428727 0.057487 -0.022921 98824.700000 0 1 0
-10.978274 -12.189846 -17.376532 23.896835 0.837645 2.384954 0.067068 -0.017907 1841410.000000 0 1 0
-12.259974 -11.898446 -18.048132 24.851863 0.770434 2.383616 0.075679 -0.029683 1795400.000000 0 1 0
-12.072074 -11.731946 -19.432132 25.709557 0.771110 2.427722 0.064793 -0.030663 -943556.000000 0 0 1
-13.354774 -11.461946 -20.254832 26.832526 0.709273 2.426239 0.050206 -0.022148 93061.800000 0 0 1
-14.249374 -12.528246 -20.462332 27.905352 0.721212 2.393924 0.049074 -0.022647 3452.450000 0 0 1
-15.068874 -12.869446 -19.358232 27.702613 0.706836 2.344497 0.055368 -0.024051 -1101190.000000 0 0 1
-16.184374 -13.792146 -19.777532 29.039767 0.705764 2.319992 0.046338 -0.014967 -357005.000000 0 0 1
-15.723474 -15.160146 -19.891632 29.542084 0.767160 2.309503 0.046547 -0.010692 212255.000000 0 0 1
-16.629374 -15.880346 -20.715032 30.948894 0.762362 2.304103 0.028240 -0.012504 360844.000000 0 0 1
-15.986174 -17.252346 -21.173832 31.646997 0.823473 2.303744 0.024751 -0.002784 245033.000000 0 0 1
-15.967274 -18.271146 -20.181732 31.560909 0.852586 2.264584 0.028889 0.004024 288683.000000 0 0 1
-15.499374 -19.580246 -20.643132 32.399931 0.901209 2.261572 0.019478 0.006612 399011.000000 0 0 1
-16.305274 -20.686946 -19.875532 32.997704 0.903297 2.217214 0.029092 -0.002813 97037.700000 0 0 1
-15.924874 -21.962046 -20.235732 33.844024 0.943417 2.211689 0.023923 0.006288 -11044.900000 0 0 1
-16.870874 -22.966346 -19.880232 34.746267 0.937230 2.179927 0.038768 0.003811 -181102.000000 0 0 1
-16.532174 -24.474146 -20.133632 35.744367 0.976706 2.169131 0.033415 -0.003723 -271250.000000 0 0 1
-16.633574 -24.823846 -21.539832 36.835628 0.980445 2.195375 0.024024 -0.000111 293591.000000 0 0 1
-16.164874 -26.178246 -21.759032 37.683673 1.017614 2.186353 0.029184 -0.000372 -86840.200000 0 0 1
-16.137174 -26.454936 -23.276732 38.756655 1.023066 2.215031 0.038714 -0.010148 81081.300000 0 0 1
-17.348274 -26.884176 -23.877232 39.922973 0.997734 2.211903 0.060444 -0.007622 30200.200000 0 0 1
-17.554674 -28.307676 -23.736732 40.901389 1.015701 2.189943 0.065761 -0.008299 -202091.000000 0 0 1
-18.703474 -28.951796 -24.570032 42.328630 0.997223 2.190089 0.074487 -0.008649 -233234.000000 0 0 1
-18.621474 -29.124296 -25.963592 43.232997 1.001924 2.214986 0.075717 -0.015165 -86778.400000 0 0 1
-18.439974 -27.914946 -26.678122 42.790175 0.987021 2.243961 0.081095 -0.027322 4906.500000 0 0 1
-17.147974 -27.923186 -27.528922 42.797184 1.020065 2.269521 0.087274 -0.028667 -218037.000000 0 0 1
-17.098374 -28.694686 -28.684272 44.028705 1.033417 2.280343 0.095854 -0.030060 35193.600000 0 0 1
-15.885674 -28.397596 -29.332642 43.808470 1.060763 2.304420 0.055720 -0.013105 -59341.800000 0 0 1
-16.102974 -28.212076 -30.873922 44.815467 1.052137 2.330784 0.076523 -0.020962 286460.000000 0 0 1
-16.594774 -29.457446 -31.474982 46.193097 1.057763 2.320441 0.060564 -0.017830 281915.000000 0 0 1
-16.813174 -29.305536 -32.857182 47.128460 1.049924 2.342257 0.066127 -0.019171 1281.020000 0 0 1
-16.809874 -30.717756 -33.535952 48.485178 1.070077 2.334601 0.053500 -0.019567 499256.000000 0 0 1
-15.517474 -31.176326 -33.927482 48.619229 1.108964 2.343146 0.048680 -0.005490 69231.100000 0 0 1
-15.619774 -32.260086 33.407722 48.997616 1.119882 0.820544 0.033240 0.001641 85879.400000 0 0 1
-14.310374 -32.855536 32.814445 48.590749 1.160020 0.829394 0.015768 0.003547 81193.900000 0 0 1
-13.477874 -33.444286 33.763226 49.397660 1.187711 0.818252 0.019040 0.007627 -698404.000000 0 0 1
-12.568974 33.890396 33.151604 49.046579 -1.215650 0.828583 0.020375 0.000652 -506445.000000 0 0 1
-11.848474 32.973482 -34.083584 48.880749 -1.225831 2.342393 0.024176 -0.004239 -160941.000000 0 0 1
-10.972274 33.676375 -33.241992 48.574882 -1.255827 2.324502 0.035783 -0.007803 -455809.000000 0 0 1
-10.254674 32.795788 -32.444042 47.258205 -1.267745 2.327498 0.026208 -0.011338 -83951.200000 0 0 1
-9.304274 33.511919 -31.417212 46.868534 -1.299977 2.305445 0.023105 -0.010767 204614.000000 0 0 1
-10.031174 -33.856096 -30.547682 46.690691 1.282748 2.283995 0.042488 -0.008948 -193973.000000 0 0 1
-9.199874 -32.984286 -29.837342 45.418805 1.298792 2.287547 0.049049 -0.015015 -166557.000000 0 0 1
-10.083074 -31.941936 -29.091962 44.365504 1.265027 2.285951 0.057530 -0.014421 356895.000000 0 0 1
-10.450574 -32.238146 -27.775772 43.817874 1.257317 2.257371 0.079456 -0.014063 -174067.000000 0 0 1
-11.345274 -33.288736 -27.495862 44.641658 1.242328 2.234354 0.081077 -0.017176 -438685.000000 0 0 1
-11.450874 -33.379346 -25.958962 43.808344 1.240324 2.205026 0.090169 -0.023715 -246412.000000 0 0 1
-10.279174 -33.504806 -25.197682 43.164298 1.273115 2.194151 0.088058 -0.029973 -595641.000000 0 0 1
-10.565474 -33.825306 -23.829532 42.703948 1.268044 2.162791 0.096381 -0.041454 -99083.900000 0 0 1
-9.373274 -33.893676 -22.867532 41.947152 1.300990 2.147366 0.099225 -0.052318 -333946.000000 0 0 1
-8.639174 33.089264 -22.903532 41.159525 -1.315410 2.160913 0.081736 -0.046309 -372152.000000 0 0 1
-7.901574 33.028034 -21.691632 40.296561 -1.335972 2.139215 0.089623 -0.045796 -287187.000000 0 0 1
-7.189674 31.677323 -21.699032 39.063951 -1.347611 2.159730 0.082787 -0.049754 -347339.000000 0 0 1
-6.005874 31.555593 -22.466432 39.199064 -1.382719 2.181125 0.060275 -0.054776 134763.000000 0 0 1
-5.299874 30.393793 -22.104732 37.953795 -1.398159 2.192489 0.041402 -0.040297 161302.000000 0 0 1
-3.780874 30.428883 -22.413632 37.981349 -1.447177 2.202006 0.045466 -0.050614 18949.600000 0 0 1
-3.492974 30.477723 -23.769532 38.808287 -1.456687 2.229998 0.060887 -0.039769 964813.000000 0 0 1
-2.290574 31.249963 -24.071532 39.512601 -1.497629 2.225862 0.039191 -0.050290 822597.000000 0 0 1
-2.227374 31.394863 -25.622082 40.584354 -1.499968 2.254062 0.057170 -0.022503 -198463.000000 0 0 1
-1.397274 32.463040 -26.066692 41.656618 -1.527781 2.246891 0.064156 -0.037466 6864.520000 0 0 1
-1.963174 33.736680 -26.111712 42.706430 -1.512671 2.228655 0.057403 -0.031413 -317610.000000 0 0 1
-0.961774 -33.511676 -26.819922 42.933270 1.542105 2.245529 0.023652 -0.018714 210903.000000 0 0 1
0.090726 -33.176816 -25.912682 42.097227 -1.568062 2.233872 0.038797 -0.019650 -230007.000000 0 0 1
0.878826 -32.193836 -26.524802 41.722663 -1.543505 2.259764 0.017013 -0.008409 -365343.000000 0 0 1
2.174026 -31.852736 -25.730662 41.004758 -1.502650 2.249140 0.029546 -0.003992 -358233.000000 0 0 1
2.027326 -31.231666 -24.482132 39.735398 -1.505975 2.234615 0.032800 -0.006357 241535.000000 0 0 1
3.212926 -30.600616 -24.005732 39.025579 -1.466184 2.233345 0.023012 -0.004373 34932.200000 0 0 1
3.081326 -29.983986 -22.601932 37.674678 -1.468390 2.214202 0.045029 -0.013678 -166940.000000 0 0 1
3.446526 -30.934226 -21.656832 37.918640 -1.459839 2.178690 0.045567 -0.013539 397915.000000 0 0 1
3.433126 -30.254126 -20.398032 36.649396 -1.457803 2.161050 0.059764 -0.016345 -256033.000000 0 0 1
3.377726 -31.249916 -19.250232 36.858347 -1.463127 2.120314 0.062093 -0.009937 -615518.000000 0 0 1
2.170826 -31.925206 -19.066132 37.248472 -1.502904 2.108149 0.064166 -0.015488 -465394.000000 0 0 1
2.160826 -33.314826 -19.177232 38.500819 -1.506026 2.092202 0.060204 -0.004393 -402490.000000 0 0 1
2.930226 -34.057066 -18.069132 38.664758 -1.484969 2.057063 0.039441 -0.023318 1193380.000000 0 0 1
4.343126 34.005570 -18.359932 38.888670 1.443766 2.062485 0.042710 -0.010167 814353.000000 0 0 1
4.743526 32.724130 -17.964932 37.631218 1.426844 2.068483 0.053258 -0.030066 151756.000000 0 0 1
5.877026 32.115859 -18.820132 37.685080 1.389804 2.093709 0.063495 -0.024401 420252.000000 0 0 1
7.053426 32.908871 -18.892532 38.596275 1.359659 2.082302 0.101650 -0.022164 -221407.000000 0 0 1
8.021126 32.237164 -19.679032 38.611366 1.326932 2.105597 0.073408 -0.018216 190983.000000 0 0 1
9.352326 33.039577 -19.646032 39.560665 1.294948 2.090480 0.052856 -0.027048 183167.000000 0 0 1
10.031426 33.083976 -18.397432 39.161773 1.276396 2.059838 0.049499 -0.024059 -156944.000000 0 0 1
11.209326 33.841857 -18.452332 40.142358 1.250943 2.048423 0.051462 -0.016455 -180997.000000 0 0 1
11.862926 33.967013 -17.077332 39.826151 1.234791 2.013957 0.028870 -0.016532 41015.400000 0 0 1
12.613826 32.813692 -16.637732 38.892945 1.203804 2.012835 0.028258 -0.016365 350079.000000 0 0 1
13.347426 33.186703 -15.469732 38.972088 1.188402 1.978981 0.032958 -0.018962 439441.000000 0 0 1
14.578326 32.241942 -15.211432 38.515687 1.146153 1.976800 0.037308 -0.013680 510875.000000 0 0 1
14.325126 31.008713 -14.556332 37.129993 1.138032 1.973641 0.052758 -0.014767 -465350.000000 0 0 1
15.337726 30.097023 -14.857532 36.902885 1.099491 1.985165 0.042388 -0.009875 -104241.000000 0 0 1
15.202326 28.842993 -14.056032 35.504944 1.085727 1.977833 0.060918 -0.014234 -277571.000000 0 0 1
15.340126 29.100073 -12.686232 35.257258 1.085665 1.938870 0.069505 -0.022525 186221.000000 0 0 1
14.167626 29.001283 -11.872732 34.391247 1.116377 1.923275 0.075967 -0.021691 495150.000000 0 0 1
13.590326 27.554113 -11.701932 32.876456 1.112585 1.934712 0.074543 -0.025740 -310496.000000 0 0 1
12.750026 27.149013 -12.766632 32.597837 1.131737 1.973210 0.061518 -0.021333 266457.000000 0 0 1
12.109426 25.869983 -12.696432 31.258497 1.133003 1.989061 0.083720 -0.025349 488933.000000 0 0 1
11.221926 25.503513 -11.471632 30.132361 1.156277 1.961358 0.079657 -0.024704 275981.000000 0 0 1
9.953526 26.176943 -11.436032 30.250420 1.207439 1.958480 0.074467 -0.023621 847434.000000 0 0 1
9.574926 26.379353 -10.023032 29.799508 1.222614 1.913834 0.073842 -0.012412 -15764.100000 0 0 1
8.467926 27.428773 -9.859132 30.352032 1.271355 1.901624 0.063740 -0.014358 99474.600000 0 0 1
8.930526 28.730703 -10.186732 31.764400 1.269428 1.897261 0.067229 -0.026535 360195.000000 0 0 1
7.839426 29.618223 -10.037832 32.240562 1.312047 1.887401 0.066170 -0.031951 340471.000000 0 0 1
8.223326 30.991043 -10.543732 33.752602 1.311428 1.888497 0.080806 -0.035290 -105555.000000 0 0 1
9.132826 31.666063 -9.680632 34.349130 1.290006 1.856498 0.076932 -0.030352 -92525.700000 0 0 1
9.650526 32.810051 -10.338432 35.728354 1.284731 1.864357 0.086712 -0.031623 -246706.000000 0 0 1
10.807626 32.681329 -11.337832 36.241144 1.251420 1.888982 0.073640 -0.034737 -1027780.000000 0 0 1
12.042126 32.582889 -10.712732 36.351343 1.216782 1.869938 0.066063 -0.026356 -626541.000000 0 0 1
13.098526 32.780610 -11.624932 37.165560 1.190651 1.888923 0.071534 -0.024289 -122399.000000 0 0 1
14.545226 32.728037 -11.147932 37.509524 1.152587 1.872558 0.067671 -0.025309 -123425.000000 0 0 1
14.970326 33.728685 -10.278632 38.306464 1.153072 1.842452 0.073785 -0.022556 -849066.000000 0 0 1
16.356926 33.828245 -10.267332 38.952758 1.120412 1.837532 0.050668 -0.024783 -466307.000000 0 0 1
16.885326 -33.401196 -9.125732 38.523151 -1.102734 1.809959 0.062587 -0.024506 -31213.800000 0 0 1
16.886026 34.086644 -7.938832 38.859520 1.110847 1.776540 0.059645 -0.022923 288365.000000 0 0 1
17.398426 -33.280376 -6.837332 38.171164 -1.089089 1.750891 0.058299 -0.016634 -1149400.000000 0 0 1
17.766826 -34.034246 -5.538132 38.789959 -1.089682 1.714058 0.048840 -0.007622 381158.000000 0 0 1
18.815326 33.197546 -5.701732 38.582422 1.055170 1.719120 0.047175 -0.013150 331502.000000 0 0 1
20.087826 33.729250 -6.045932 39.720730 1.033647 1.723601 0.050457 -0.010486 -1033970.000000 0 0 1
20.910726 32.698533 -6.800832 39.404364 1.001838 1.744256 0.034840 -0.009524 -93024.800000 0 0 1
21.174526 31.453013 -6.208332 38.421296 0.978276 1.733094 0.042013 -0.005122 -217990.000000 0 0 1
22.014526 31.428653 -5.087832 38.707695 0.959761 1.702620 0.028856 0.002041 -464252.000000 0 0 1
22.353926 30.021973 -4.520632 37.702162 0.930770 1.690989 0.025475 -0.003438 16663.200000 0 0 1
23.294826 29.422603 -5.388732 37.912754 0.901117 1.713414 0.021589 0.000630 -106173.000000 0 0 1
23.642926 28.119553 -5.008432 37.078048 0.871668 1.706289 0.023533 0.003487 -126718.000000 0 0 1
24.506126 27.392183 -6.055832 37.249900 0.840951 1.734094 0.019207 0.005173 317511.000000 0 0 1
25.816626 27.962183 -6.193032 38.558210 0.825273 1.732110 0.028267 0.001779 369585.000000 0 0 1
26.699626 27.178923 -6.947932 38.727738 0.794294 1.751177 0.015142 0.003206 6014.460000 0 0 1
27.536126 26.260123 -6.022032 38.523982 0.761683 1.727759 0.012504 0.003072 -1052970.000000 0 0 1
28.630726 26.831673 -5.378432 39.605362 0.752972 1.707018 0.027112 -0.005012 27559.100000 0 0 1
29.361826 25.855483 -4.590832 39.391606 0.721983 1.687605 0.028514 0.000062 -211661.000000 0 0 1
30.683426 26.328003 -4.019232 40.629923 0.709151 1.669881 0.037464 -0.010556 -779208.000000 0 0 1
30.660726 27.338773 -3.056632 41.192616 0.728185 1.645068 0.056266 -0.022621 104907.000000 0 0 1
31.790126 27.512853 -2.202132 42.100102 0.713397 1.623127 0.073180 -0.036987 162796.000000 0 0 1
31.539426 28.558323 -1.092632 42.561803 0.735835 1.596471 0.070242 -0.022713 178673.000000 0 0 1
31.418926 29.840733 -1.669332 43.363636 0.759642 1.609302 0.053696 -0.014829 101394.000000 0 0 1
30.938326 30.816353 -0.744032 43.673576 0.783423 1.587833 0.071358 -0.022671 -92054.700000 0 0 1
33.270050 22.730254 19.046971 44.568462 0.599365 1.129221 0.095291 -0.025844 41222.600000 0 0 1
33.485610 22.525054 20.409971 45.224231 0.592153 1.102568 0.088934 -0.027892 -164296.000000 0 0 1
34.373930 23.514154 20.864171 46.581070 0.599954 1.106369 0.111745 -0.033592 -58276.100000 0 0 1
34.434030 23.678954 22.367171 47.399215 0.602397 1.079364 0.069395 -0.017076 -891342.000000 0 0 1
33.202810 24.085854 22.811171 46.935109 0.627581 1.063272 0.043604 -0.010124 -889676.000000 0 0 1
32.992800 24.003354 24.185641 47.430276 0.628967 1.035705 0.040319 -0.008169 -21782.200000 0 0 1
31.719300 24.721754 24.676401 47.182665 0.662048 1.020433 0.049097 -0.013768 67828.200000 0 0 1
31.752310 26.131454 24.766051 48.004368 0.688596 1.028724 0.050247 -0.023722 366319.000000 0 0 1
30.421710 26.576654 24.965181 47.487464 0.718041 1.017233 0.035982 -0.025989 280934.000000 0 0 1
30.334550 28.079754 25.308081 48.468097 0.746817 1.021415 0.030130 -0.017824 62154.400000 0 0 1
30.772890 28.907954 24.210831 48.670370 0.754160 1.050145 0.033535 -0.029294 504365.000000 0 0 1
30.277720 30.209554 24.483681 49.282939 0.784271 1.050891 0.037786 -0.024546 -351490.000000 0 0 1
30.538460 31.148354 23.301001 49.454566 0.795285 1.080191 0.037444 -0.017697 -1143580.000000 0 0 1
31.877730 31.451954 23.203171 50.436120 0.778675 1.092744 0.003128 -0.019760 -1006180.000000 0 0 1
32.120960 32.295754 22.067671 50.613772 0.788112 1.119646 0.012301 -0.013367 210448.000000 0 0 1
33.605250 32.718954 21.985271 51.799565 0.772036 1.132464 -0.000204 -0.028287 304357.000000 0 0 1
34.089210 33.691954 22.916171 53.126009 0.779537 1.124802 0.014481 -0.013514 -424207.000000 0 0 1
35.439950 34.004554 22.738471 54.123357 0.764731 1.137215 0.026164 -0.014046 -250639.000000 0 0 1
35.832310 -33.077046 23.753901 54.242909 -0.745436 1.117516 0.041522 -0.006964 -282219.000000 0 0 1
35.363000 -31.834446 23.333581 52.994620 -0.732936 1.114862 0.036632 -0.006239 42769.400000 0 0 1
35.577470 -30.773446 24.264451 52.929433 -0.713121 1.094568 0.065724 -0.006205 -882818.000000 0 0 1
34.618560 -29.602246 24.069021 51.517525 -0.707446 1.084674 0.057583 -0.015959 613460.000000 0 0 1
33.228750 -29.810946 24.338871 50.845088 -0.731234 1.071638 0.039739 -0.006167 610719.000000 0 0 1
32.476350 -30.206246 23.209071 50.057882 -0.749198 1.088692 0.032830 0.000467 -508237.000000 0 0 1
32.001480 -31.650546 23.228861 50.650091 -0.779885 1.094361 0.010219 0.000920 -479625.000000 0 0 1
30.851670 -31.706046 24.037021 50.347565 -0.799055 1.073078 0.018293 -0.008169 -115359.000000 0 0 1
30.266910 -32.983446 24.083151 50.832979 -0.828321 1.077229 0.013405 -0.017224 306980.000000 0 0 1
29.303830 -33.304246 25.279901 51.058404 -0.849208 1.052826 0.019422 -0.017676 222789.000000 0 0 1
29.213390 33.473254 25.501701 51.227118 0.853249 1.049717 0.037116 -0.028562 14077.500000 0 0 1
28.546360 33.248954 26.726361 51.329192 0.861351 1.023143 0.040720 -0.025660 -560296.000000 0 0 1
28.188030 31.754254 26.811201 50.216911 0.844822 1.007581 0.056954 -0.026594 -56725.500000 0 0 1
27.306980 31.167854 25.908361 48.870742 0.851329 1.012030 0.048183 -0.026096 899945.000000 0 0 1
25.927380 31.610854 25.954011 48.426086 0.883856 1.005162 0.042954 -0.027104 909778.000000 0 0 1
25.128980 31.542054 24.632571 47.256009 0.898082 1.022472 0.090038 -0.039357 183719.000000 0 0 1
25.519680 32.494154 23.587671 47.576279 0.905045 1.052056 0.104136 -0.045458 958523.000000 0 0 1
26.842280 32.427854 23.028171 47.983022 0.879360 1.070229 0.085352 -0.031226 481727.000000 0 0 1
27.128580 33.065054 21.662671 47.942976 0.883703 1.101967 0.095810 -0.024872 214733.000000 0 0 1
28.495770 33.272654 21.335071 48.726416 0.862580 1.117586 0.080764 -0.022368 263741.000000 0 0 1
28.701420 33.972554 20.103471 48.806306 0.869305 1.146255 0.064817 -0.022114 -430166.000000 0 0 1
30.104950 -34.021346 19.541771 49.453421 -0.846396 1.164560 0.062900 -0.016887 -463089.000000 0 0 1
30.638470 33.017954 18.858171 48.831667 0.822761 1.174302 0.068019 -0.026949 564741.000000 0 0 1
31.669290 33.414354 17.924771 49.404052 0.812204 1.199504 0.065559 -0.007750 550008.000000 0 0 1
32.630760 32.276354 17.470071 49.109397 0.779938 1.207093 0.051782 -0.022874 130642.000000 0 0 1
33.546210 31.936954 18.505971 49.877732 0.760828 1.190682 0.034058 -0.014981 496073.000000 0 0 1
34.480380 30.963854 17.987171 49.711117 0.731717 1.200562 0.032182 -0.021084 513097.000000 0 0 1
35.497810 30.364554 18.962671 50.415112 0.707616 1.185180 0.046927 -0.025427 188211.000000 0 0 1
36.441940 31.286054 19.495871 51.835520 0.709418 1.185202 0.073576 -0.025823 99890.500000 0 0 1
-35.778398 30.581154 20.300071 51.258108 -0.707238 1.163600 0.085002 -0.024961 -349471.000000 0 0 1
-34.773423 31.463454 21.022871 51.391643 -0.735468 1.149360 0.067433 -0.026016 -244322.000000 0 0 1
-33.885484 31.989654 20.046371 50.728897 -0.756627 1.164547 0.073079 -0.025472 436078.000000 0 0 1
-32.767104 32.783654 20.487971 50.677490 -0.785651 1.154603 0.066674 -0.011920 664827.000000 0 0 1
-32.930384 34.066454 21.367871 51.976142 -0.802354 1.147126 0.043910 -0.009242 -465426.000000 0 0 1
-33.039714 33.803354 22.733771 52.451061 -0.796822 1.122503 0.073859 -0.009966 156526.000000 0 0 1
-33.049164 -33.159946 23.497481 52.382830 0.787071 1.105629 0.060056 -0.007038 14799.100000 0 0 1
-33.290964 -33.522846 24.996441 53.449898 0.788869 1.084153 0.073180 -0.015811 -435579.000000 0 0 1
-34.576268 -33.978346 25.285341 54.675358 0.776677 1.090025 0.067908 -0.015321 -792498.000000 0 0 1
-34.789498 33.781154 26.608711 55.312738 -0.770694 1.068934 0.074503 -0.008038 252213.000000 0 0 1
-36.224064 33.415754 27.055021 56.220722 -0.745094 1.068741 0.048948 -0.021904 99781.100000 0 0 1
-36.126454 32.696154 28.290201 56.342654 -0.735597 1.044760 0.075714 -0.032848 1359490.000000 0 0 1
35.729890 32.406854 28.958121 56.261905 0.736667 1.030136 0.078454 -0.027539 1248250.000000 0 0 1
35.791560 31.288754 30.039341 56.235077 0.718373 1.007265 0.076230 -0.025329 -237022.000000 0 0 1
35.724830 29.963854 29.511821 55.181914 0.697921 1.006514 0.052887 -0.022844 953014.000000 0 0 1
-36.317844 29.510754 28.661161 54.875610 -0.682358 1.021258 0.063938 -0.029591 482277.000000 0 0 1
-36.455064 28.046354 28.181601 53.942305 -0.655765 1.021087 0.063537 -0.030515 264665.000000 0 0 1
35.499280 27.966254 27.362391 52.830017 0.667256 1.026364 0.048311 -0.017288 770640.000000 0 0 1
35.169380 26.741154 26.756481 51.651562 0.650094 1.026263 0.058287 -0.018039 -18241.000000 0 0 1
34.846820 25.509454 27.572031 51.237193 0.631911 1.002585 0.050405 -0.012794 -224710.000000 0 0 1
35.946690 24.963854 28.289411 52.111892 0.607004 0.996959 0.042473 -0.012551 131838.000000 0 0 1
35.622910 23.678654 28.802831 51.568144 0.586642 0.978173 0.052126 -0.012751 -22065.500000 0 0 1
36.046000 22.529954 27.895661 50.843690 0.558623 0.990041 0.035531 -0.001856 -18980.700000 0 0 1
35.404040 22.510254 26.624851 49.689438 0.566335 1.005312 0.041096 -0.006321 242580.000000 0 0 1
35.931130 21.410454 25.853711 49.171821 0.537381 1.017161 0.039120 -0.012842 -158894.000000 0 0 1
35.408670 20.005954 26.236191 48.397829 0.514288 0.997869 0.035668 -0.008537 -417567.000000 0 0 1
34.031790 19.773954 26.015481 47.180263 0.526364 0.986748 0.051363 -0.010521 331104.000000 0 0 1
33.594740 18.495354 26.530711 46.632213 0.503260 0.965586 0.057907 -0.015421 -355935.000000 0 0 1
33.280200 18.447054 28.029671 47.260215 0.506135 0.935902 0.033274 -0.004977 -571392.000000 0 0 1
32.267650 19.167454 28.671451 47.229701 0.536007 0.918436 0.040369 -0.013501 -46089.400000 0 0 1
32.484990 20.589754 28.615641 47.938163 0.564919 0.931129 0.021175 -0.013363 -742494.000000 0 0 1
31.539870 21.473954 29.503501 48.232258 0.597758 0.912593 0.032411 -0.021997 514968.000000 0 0 1
30.173410 21.445454 29.086351 47.078211 0.617898 0.904816 0.048120 -0.033235 437872.000000 0 0 1
29.848800 22.068654 27.827261 46.393241 0.636649 0.927529 0.042045 -0.026686 -702514.000000 0 0 1
29.739740 23.623954 27.954601 47.159337 0.671290 0.936303 0.045957 -0.022291 -617846.000000 0 0 1
30.997740 24.214454 28.098761 48.339839 0.663152 0.950501 0.059134 -0.027297 -492783.000000 0 0 1
31.065650 25.516754 28.661061 49.372419 0.687643 0.951444 0.040750 -0.019771 -108114.000000 0 0 1
31.400310 25.551054 30.180451 50.494509 0.683051 0.930170 0.034279 -0.021223 -87204.200000 0 0 1
32.675580 25.037754 30.507591 51.237640 0.653822 0.933016 0.015219 -0.007699 64041.500000 0 0 1
33.173070 24.836254 31.853921 52.268196 0.642660 0.915452 0.032100 -0.009759 189311.000000 0 0 1
32.501490 23.714054 32.671340 51.827789 0.630336 0.888750 0.032680 -0.008450 -539973.000000 0 0 1
32.881920 23.698954 34.005092 52.907536 0.624503 0.872744 0.031823 -0.022028 -41813.800000 0 0 1
32.374010 22.591454 -33.508912 51.781247 0.609266 2.274603 0.036264 -0.025685 -253274.000000 0 0 1
32.896120 22.401654 -32.056052 51.103613 0.597848 2.248846 0.023634 -0.025679 -135305.000000 0 0 1
32.493630 23.464354 -31.121442 50.744025 0.625419 2.231031 0.016189 -0.027343 171056.000000 0 0 1
32.945960 23.365654 -29.768502 50.175231 0.616881 2.205937 0.032851 -0.026188 -598324.000000 0 0 1
34.414560 23.696154 -29.502192 51.149282 0.603000 2.185585 0.038097 -0.003430 -445355.000000 0 0 1
34.875590 23.093854 -28.330852 50.519997 0.584889 2.166130 0.022304 -0.003587 -974781.000000 0 0 1
36.098900 23.645954 -27.983292 51.432736 0.579905 2.146083 0.031174 0.005782 -737749.000000 0 0 1
-36.359694 22.972754 -26.808462 50.680059 -0.563488 2.128188 0.009721 0.012301 -304741.000000 0 0 1
-35.644872 21.797654 -27.127682 49.815718 -0.548849 2.146662 -0.002403 0.012576 310620.000000 0 0 1
-36.103154 20.764554 -26.259232 49.235675 -0.521943 2.133338 -0.010723 0.014559 -935248.000000 0 0 1
-35.204240 19.570354 -26.355732 48.134830 -0.507369 2.150218 -0.002382 0.023907 -1171800.000000 0 0 1
-33.954754 19.989554 -25.888812 47.145924 -0.532078 2.152108 -0.002672 0.019188 -628851.000000 0 0 1
-33.135964 18.789954 -25.894122 46.060396 -0.515844 2.167813 -0.009988 0.008342 343990.000000 0 0 1
-31.736244 19.068654 -25.291382 44.838117 -0.541043 2.170091 0.006241 0.011966 26556.800000 0 0 1
-31.811534 19.397454 -23.911632 44.271899 -0.547566 2.141362 0.018552 0.009658 -492425.000000 0 0 1
-30.575374 19.404354 -23.273332 43.046840 -0.565501 2.142008 0.041528 0.007732 -417701.000000 0 0 1
-30.745154 19.860654 -21.848032 42.626829 -0.573542 2.108939 0.028257 -0.002585 -85556.200000 0 0 1
-31.459234 18.944054 -21.082632 42.344279 -0.542019 2.091956 0.010123 0.004384 -207794.000000 0 0 1
-31.748734 19.415454 -19.782732 42.146156 -0.548858 2.059389 0.018240 0.007851 -761849.000000 0 0 1
-32.735924 18.492554 -19.024132 42.137073 -0.514211 2.039222 0.006810 -0.003974 315745.000000 0 0 1
-33.414384 19.071954 -17.911632 42.439216 -0.518650 2.006506 0.007149 -0.010540 574683.000000 0 0 1
-34.372241 20.079854 -18.322432 43.821947 -0.528712 2.002161 -0.003385 -0.006284 -319373.000000 0 0 1
-35.479183 20.323254 -17.264232 44.383114 -0.520196 1.970323 0.008059 -0.016366 -47056.300000 0 0 1
-34.984766 20.899654 -16.057532 43.801526 -0.538500 1.946146 0.015786 -0.030822 287555.000000 0 0 1
-35.909146 20.563954 -15.036632 44.027756 -0.520079 1.919337 0.016499 -0.018755 -860760.000000 0 0 1
-35.952577 21.445954 -13.763732 44.067642 -0.537847 1.888443 0.030490 -0.019849 -187588.000000 0 0 1
-36.336334 22.806754 -14.050832 45.143140 -0.560508 1.887305 0.038774 -0.019414 1637950.000000 0 0 1
35.399340 22.868054 -14.427032 44.544365 0.573560 1.900624 0.043571 -0.011402 720649.000000 0 0 1
34.817250 24.243854 -14.721832 44.908103 0.608250 1.904793 0.046976 -0.014930 -2912.360000 0 0 1
34.947200 25.221954 -13.694132 45.221488 0.625152 1.878450 0.046066 -0.016853 126867.000000 0 0 1
34.535780 26.482854 -14.135832 45.758971 0.654182 1.884853 0.018045 -0.006135 -127860.000000 0 0 1
35.779070 27.335754 -14.489832 47.300534 0.652411 1.882137 0.061125 -0.004999 332293.000000 0 0 1
36.197980 26.955154 -15.841432 47.831214 0.640074 1.908366 0.061130 -0.003654 418469.000000 0 0 1
-35.669046 27.545354 -16.109632 47.859666 -0.657589 1.914102 0.072162 -0.008721 -148977.000000 0 0 1
-35.298844 27.490854 -17.617132 48.084496 -0.661682 1.945910 0.057917 -0.009548 -379750.000000 0 0 1
-34.915017 26.200554 -18.100232 47.256173 -0.643763 1.963864 0.049335 -0.017162 653262.000000 0 0 1
-33.654844 25.687854 -17.658832 45.873181 -0.651942 1.965949 0.068731 -0.015385 218166.000000 0 0 1
-33.282684 24.294354 -18.323032 45.096410 -0.630538 1.989206 0.060188 -0.011619 -199979.000000 0 0 1
-32.786534 24.412854 -19.616932 45.340581 -0.640036 2.018234 0.035128 -0.003943 206761.000000 0 0 1
-32.327774 23.209754 -20.211932 44.635186 -0.622672 2.040728 0.033486 0.003361 -168385.000000 0 0 1
-31.972104 23.305254 -21.683432 45.116755 -0.629876 2.072143 0.020673 0.021656 -1015270.000000 0 0 1
-33.038814 23.484154 -22.506032 46.363673 -0.617941 2.077644 0.015362 0.021340 -764448.000000 0 0 1
-32.696484 23.213954 -23.832032 46.646688 -0.617395 2.107034 0.006004 0.024336 170449.000000 0 0 1
-33.563574 23.984754 -24.874732 48.171924 -0.620462 2.113408 -0.009834 0.023980 -106081.000000 0 0 1
-33.122164 25.324954 -24.996532 48.613349 -0.652775 2.110860 -0.006115 0.028960 -59445.300000 0 0 1
-33.751144 26.009354 -26.066342 49.950780 -0.656569 2.119803 0.002903 0.020260 -309344.000000 0 0 1
-33.167064 27.353254 -26.379272 50.439277 -0.689628 2.121152 0.004072 0.019272 -277571.000000 0 0 1
-32.043394 27.424354 -27.202842 50.188335 -0.707881 2.143630 -0.016665 0.019477 -699550.000000 0 0 1
-31.524194 28.714254 -27.431592 50.702815 -0.738785 2.142454 -0.005081 0.005215 -748184.000000 0 0 1
-30.238444 28.650654 -28.194142 50.300429 -0.758442 2.165804 0.019602 -0.003615 -1365250.000000 0 0 1
-29.199684 28.015554 -27.513582 48.933527 -0.764705 2.167918 0.009915 0.000879 -671103.000000 0 0 1
-27.917424 28.112654 -28.066282 48.553271 -0.788883 2.187135 0.037053 -0.004090 481229.000000 0 0 1
-27.134144 29.473654 -27.894082 48.816369 -0.826703 2.179017 0.042590 -0.021950 -725110.000000 0 0 1
-26.611404 29.736054 -26.673102 47.998480 -0.840795 2.160010 0.048946 -0.015394 -37966.200000 0 0 1
-27.561444 29.876754 -25.620862 48.048748 -0.825686 2.133206 0.018187 0.000282 -108374.000000 0 0 1
-26.847424 30.218854 -24.324432 47.176703 -0.844409 2.112507 -0.006653 -0.004608 -91216.600000 0 0 1
-26.379024 31.528654 -24.348032 47.777982 -0.874093 2.105525 0.007429 0.004624 -461085.000000 0 0 1
-25.650304 31.796254 -23.222332 46.991665 -0.891978 2.087687 0.028662 0.010696 -355507.000000 0 0 1
-24.990974 33.166654 -23.118432 47.529334 -0.925061 2.078765 0.022477 0.020147 -89808.000000 0 0 1
-25.889644 -34.002446 -22.745632 48.412847 0.920036 2.059890 -0.001273 0.017341 -282822.000000 0 0 1
-25.237704 -32.758646 -22.677832 47.163065 0.914358 2.072407 0.015602 0.022179 55118.700000 0 0 1
16.795926 8.278254 -25.259072 31.442859 0.457930 2.503667 0.050072 -0.014799 -758015.000000 0 0 1
15.499726 7.892054 -24.987632 30.445160 0.470960 2.533506 0.058661 -0.016222 -795674.000000 0 0 1
15.297026 6.487554 -25.003832 30.021309 0.401113 2.555069 0.062376 -0.016735 820839.000000 0 0 1
13.847226 5.854554 -25.146022 29.297507 0.400002 2.602742 0.055912 -0.018052 1012130.000000 0 0 1
13.252526 5.947054 -23.842932 27.919211 0.421813 2.594417 0.080557 -0.033999 -454384.000000 0 0 1
11.932426 5.515854 -23.926632 27.300021 0.433000 2.639200 0.078914 -0.032188 -800357.000000 0 0 1
11.072626 5.723354 -22.683332 25.882299 0.477070 2.639138 0.092034 -0.035933 -218874.000000 0 0 1
11.658226 5.030054 -21.580532 25.038671 0.407329 2.609778 0.079904 -0.031965 267330.000000 0 0 1
11.163326 5.314554 -20.275132 23.747533 0.444323 2.593996 0.086814 -0.027493 -158130.000000 0 1 0
11.755526 6.616954 -19.670932 23.852087 0.512678 2.540477 0.090565 -0.036541 -118236.000000 0 1 0
11.510926 6.782454 -18.276332 22.639069 0.532454 2.510345 0.082403 -0.028976 -154975.000000 0 1 0
11.773926 8.124154 -17.839732 22.866641 0.603991 2.465724 0.083148 -0.027816 560604.000000 0 1 0
13.229426 8.464854 -17.394532 23.435896 0.569207 2.407170 0.087753 -0.032402 379324.000000 0 1 0
13.554926 7.871954 -16.156032 22.510466 0.526141 2.371307 0.081696 -0.038846 892264.000000 0 1 0
14.946326 8.006854 -15.846432 23.208011 0.491804 2.322385 0.071864 -0.044117 345316.000000 0 1 0
15.417726 7.553554 -14.436632 22.431647 0.455556 2.269967 0.072171 -0.045273 -154352.000000 0 1 0
16.824926 7.452254 -14.308232 23.309649 0.416958 2.231703 0.074735 -0.053062 704832.000000 0 1 0
17.308826 7.846054 -12.996032 23.022877 0.425593 2.170604 0.074124 -0.051768 36108.100000 0 1 0
17.813026 9.297454 -12.945132 23.902364 0.481051 2.143116 0.088524 -0.047505 -646565.000000 0 1 0
16.726126 10.183454 -12.994532 23.501572 0.546891 2.156663 0.094462 -0.043161 298257.000000 0 1 0
17.058326 11.535254 -12.957432 24.329891 0.594590 2.132433 0.102815 -0.048242 323550.000000 0 1 0
15.692926 12.289354 -13.084732 23.843371 0.664360 2.151699 0.101921 -0.035077 719497.000000 0 1 0
14.870526 12.380854 -11.903032 22.717840 0.694292 2.122279 0.091372 -0.026802 580931.000000 0 1 0
15.393526 13.307554 -10.946432 23.105757 0.712847 2.064344 0.088683 -0.021508 -507527.000000 0 1 0
15.002826 14.800054 -11.091832 23.815019 0.778594 2.055278 0.084209 -0.023960 528475.000000 0 1 0
13.714626 15.026854 -10.505632 22.896847 0.831023 2.047468 0.085603 -0.028038 736415.000000 0 1 0
13.504126 16.397354 -10.500232 23.695770 0.881857 2.029880 0.080300 -0.030014 139027.000000 0 1 0
12.391626 16.867754 -9.530332 22.997842 0.937202 1.998081 0.071216 -0.027750 127846.000000 0 1 0
12.828726 16.788654 -8.180232 22.657257 0.918313 1.940182 0.068559 -0.026089 378140.000000 0 1 0
11.837226 17.166154 -7.226932 22.068650 0.967106 1.904426 0.058892 -0.020599 82220.000000 0 1 0
12.132626 16.942354 -5.702732 21.604748 0.949338 1.837919 0.044959 -0.018581 -258139.000000 0 1 0
13.077126 17.898354 -5.350032 22.803183 0.939806 1.807622 0.053326 -0.017134 -180392.000000 0 1 0
13.491026 17.780354 -3.996332 22.674202 0.921712 1.747972 0.046045 -0.012498 127632.000000 0 1 0
14.665226 18.753954 -3.629132 24.082156 0.907140 1.722071 0.052470 -0.019372 -175575.000000 0 1 0
15.866926 18.329354 -4.201432 24.604402 0.857283 1.742397 0.065619 -0.032802 -239980.000000 0 1 0
16.611726 19.438454 -4.686232 25.995455 0.863649 1.752059 0.057970 -0.028335 309958.000000 0 0 1
17.792726 19.084254 -5.638432 26.694227 0.820406 1.783622 0.062032 -0.015130 915447.000000 0 0 1
18.986926 18.625554 -4.979432 27.059367 0.775791 1.755870 0.079753 -0.026125 693764.000000 0 0 1
19.397726 17.380454 -5.490532 26.617624 0.730603 1.778562 0.087251 -0.042368 -101509.000000 0 0 1
20.456926 16.626654 -4.651032 26.768704 0.682476 1.745432 0.098919 -0.046404 434724.000000 0 0 1
21.778426 17.113354 -4.891532 28.126390 0.666018 1.745598 0.097723 -0.049568 380338.000000 0 0 1
22.644026 16.601754 -3.925832 28.351055 0.632638 1.709715 0.102872 -0.056352 -115390.000000 0 0 1
24.173326 16.670254 -4.112732 29.650660 0.603721 1.709951 0.091119 -0.050513 36462.800000 0 0 1
24.749526 17.913654 -3.822932 30.790467 0.626520 1.695277 0.095427 -0.050191 -214239.000000 0 0 1
26.141726 17.729754 -3.777532 31.812006 0.595956 1.689823 0.086564 -0.041130 -183310.000000 0 0 1
26.975126 18.833854 -3.060932 33.041501 0.609512 1.663568 0.102756 -0.036428 -130163.000000 0 0 1
27.161726 20.039754 -3.833332 33.971246 0.635643 1.683878 0.088855 -0.037175 243655.000000 0 0 1
27.094026 21.186754 -3.011532 34.525847 0.663651 1.658133 0.107719 -0.013032 -181012.000000 0 0 1
26.954026 22.529454 -3.770132 35.331426 0.696220 1.677707 0.064452 -0.012719 110565.000000 0 0 1
28.071226 22.815654 -4.607432 36.466097 0.682484 1.697483 0.053581 -0.003784 444447.000000 0 0 1
28.124426 22.175954 -5.894732 36.297440 0.667686 1.733920 0.053022 -0.007171 776471.000000 0 0 1
29.288926 22.807654 -6.782132 37.736290 0.661625 1.751503 0.037617 -0.002862 782962.000000 0 0 1
28.832526 23.898454 -7.584332 38.209590 0.692099 1.770616 0.025955 0.003172 784543.000000 0 0 1
29.863926 24.679454 -8.234532 39.607285 0.690631 1.780228 0.007631 0.001728 84319.900000 0 0 1
30.761526 24.081454 -9.356032 40.171174 0.664192 1.805859 0.016695 -0.003302 -69976.200000 0 0 1
30.158626 23.859054 -10.585032 39.885337 0.669302 1.839401 0.015421 0.007882 -481759.000000 0 0 1
31.188426 23.539954 -11.466332 40.722526 0.646544 1.856229 0.007274 0.002624 -128649.000000 0 0 1
30.762426 22.713154 -12.709232 40.295642 0.635997 1.891674 0.004794 0.004699 -20048.300000 0 0 1
30.604826 23.545154 -13.840332 41.019318 0.655757 1.914961 0.010066 0.013299 80958.200000 0 0 1
30.348226 22.817954 -14.998232 40.824267 0.644698 1.946992 0.016993 0.010170 39833.700000 0 0 1
30.229926 23.710654 -16.220832 41.703224 0.665121 1.970297 0.022269 0.006324 -561012.000000 0 0 1
31.510226 24.098554 -16.603632 43.003665 0.652897 1.967194 -0.000053 0.011367 -447058.000000 0 0 1
31.537526 24.660954 -17.911432 43.858837 0.663641 1.991484 0.014634 0.006094 -281588.000000 0 0 1
32.963526 25.156554 -18.173432 45.273832 0.651873 1.983854 -0.005784 -0.001492 -145896.000000 0 0 1
33.895626 24.090754 -18.009332 45.316817 0.617893 1.979488 0.000639 0.008744 -96934.100000 0 0 1
35.200926 24.623554 -18.238732 46.669861 0.610400 1.972300 0.020358 -0.004347 -136966.000000 0 0 1
36.215626 23.479154 -18.273832 46.869768 0.575190 1.971303 0.025343 -0.020392 -761618.000000 0 0 1
36.306626 22.611354 -19.387032 46.960637 0.557008 1.996362 0.007110 -0.010897 -220007.000000 0 0 1
-36.171228 23.114554 -20.472732 47.558103 -0.568626 2.015819 0.002610 -0.000265 -626103.000000 0 0 1
-36.026228 22.147554 -21.695832 47.530121 -0.551203 2.044814 0.006573 0.000640 7530.620000 0 0 1
-35.448928 20.881754 -21.428832 46.388242 -0.532341 2.050984 -0.003474 0.002348 343538.000000 0 0 1
-35.066528 20.199354 -22.628232 46.364989 -0.522608 2.080646 0.000488 0.006386 56409.100000 0 0 1
-34.767128 18.746154 -22.388632 45.402889 -0.494507 2.086458 -0.008036 0.009888 431244.000000 0 0 1
-35.939728 17.970054 -22.145432 45.880356 -0.463652 2.074506 -0.007025 0.000934 608774.000000 0 0 1
-35.554528 16.615154 -22.226932 45.102376 -0.437159 2.086113 -0.008018 0.002235 -140922.000000 0 0 1
36.418926 15.644554 -22.043732 45.354342 0.405737 2.078342 -0.008852 0.000147 296075.000000 0 0 1
35.435626 15.751854 -23.097232 45.136312 0.418288 2.107984 0.045968 -0.001035 1204300.000000 0 0 1
34.420126 14.718454 -23.130432 44.004487 0.404081 2.124261 0.079634 -0.007612 392423.000000 0 0 1
34.875826 13.443854 -23.855732 44.341362 0.367925 2.138861 0.050211 -0.010678 -304230.000000 0 0 1
34.845026 13.574054 -25.256542 45.125644 0.371470 2.164813 0.058069 -0.000632 124162.000000 0 0 1
35.189926 12.310354 -25.847632 45.364918 0.336520 2.177024 0.047612 0.004308 -105507.000000 0 0 1
35.016026 12.250054 -27.456322 46.152308 0.336533 2.207946 0.067097 0.002142 1081390.000000 0 0 1
33.645626 12.100154 -27.935232 45.374212 0.345233 2.234024 0.078056 -0.002637 1483030.000000 0 0 1
33.127726 13.291654 -28.504532 45.679565 0.381561 2.244661 0.081522 0.002220 -93201.900000 0 0 1
33.382326 13.379954 -30.032052 46.854317 0.381204 2.266553 0.080315 -0.005884 -46997.500000 0 0 1
34.756226 13.661154 -30.227302 48.044898 0.374506 2.251252 0.072806 0.004194 29055.700000 0 0 1
35.170826 13.587554 -31.554822 49.166202 0.368667 2.267638 0.065827 -0.003943 1101920.000000 0 0 1
-36.407428 13.867654 -31.746522 50.255889 -0.363935 2.254537 0.052737 -0.001029 1718040.000000 0 0 1
-35.473828 12.947554 -31.193702 48.980391 -0.349965 2.261216 0.042683 -0.000181 211340.000000 0 0 1
-35.386928 12.949254 -29.796312 48.038923 -0.350798 2.239862 0.022199 -0.000763 -1024440.000000 0 0 1
-34.349228 11.904354 -29.389232 46.747300 -0.333614 2.250655 0.023978 -0.010170 -417790.000000 0 0 1
-34.735628 10.564054 -29.663562 46.883793 -0.295239 2.255836 0.031449 -0.017582 -45377.300000 0 0 1
-33.748028 9.613154 -29.400242 45.778995 -0.277501 2.268189 0.029506 -0.023214 -410997.000000 0 0 1
-34.099628 8.199454 -29.888482 46.079682 -0.235976 2.276574 0.042768 -0.020375 -581746.000000 0 0 1
-34.265728 8.104954 -31.274722 47.094996 -0.232264 2.297055 0.046081 -0.018620 95166.400000 0 0 1
-34.473028 6.765554 -31.825302 47.402661 -0.193793 2.306869 0.051320 -0.015454 367201.000000 0 0 1
-35.852928 6.117854 -31.431902 48.071042 -0.169010 2.283476 0.064868 -0.004854 410888.000000 0 0 1
-35.831528 5.662854 -30.081382 47.125958 -0.156745 2.263109 0.068022 -0.014849 804836.000000 0 0 1
36.071826 4.974454 -29.811702 47.060168 0.137040 2.256840 0.067678 -0.006888 553863.000000 0 0 1
36.009626 4.379754 -28.386512 46.061584 0.121033 2.234798 0.075384 -0.009402 -108291.000000 0 0 1
-36.140928 3.393554 -28.197282 45.964874 -0.093623 2.231222 0.082352 -0.013683 159638.000000 0 0 1
-36.431828 2.472254 -27.210922 45.539263 -0.067756 2.211209 0.093266 -0.016289 -440612.000000 0 0 1
-35.514028 1.255654 -27.285022 44.802849 -0.035342 2.225598 0.119384 -0.020665 -196562.000000 0 0 1
-34.203128 1.468854 -26.829722 43.495350 -0.042919 2.235519 0.113801 -0.016935 -726680.000000 0 0 1
-33.416328 0.357954 -26.845482 42.865593 -0.010712 2.247557 0.124765 -0.013590 -784514.000000 0 0 1
-32.205628 0.566554 -25.954072 41.365896 -0.017590 2.249041 0.114473 -0.013486 -574577.000000 0 0 1
-32.500728 0.329154 -24.584932 40.753216 -0.010127 2.218383 0.104599 -0.008430 -275006.000000 0 0 1
-31.365028 0.430954 -23.798432 39.374054 -0.013739 2.219833 0.112212 -0.004877 -464421.000000 0 0 1
-31.651828 0.099154 -22.293132 38.714749 -0.003133 2.184416 0.110502 -0.000601 -340215.000000 0 0 1
-31.890328 -1.282846 -22.008232 38.768557 0.040205 2.174484 0.125315 -0.013684 402224.000000 0 0 1
-32.359228 -1.445146 -20.660032 38.419332 0.044630 2.138564 0.122747 -0.013203 1015100.000000 0 0 1
-33.903628 -1.299646 -20.371632 39.574594 0.038315 2.111530 0.109694 -0.010505 600145.000000 0 0 1
-34.678228 -2.395446 -20.800132 40.508804 0.068967 2.110022 0.097946 -0.019105 709418.000000 0 0 1
-36.013028 -2.170246 -20.310932 41.402683 0.060190 2.083541 0.082539 -0.015248 1166260.000000 0 0 1
36.205126 -3.414946 -20.047032 41.525372 -0.094044 2.074607 0.065554 -0.013124 316041.000000 0 0 1
35.780526 -4.256046 -21.137032 41.774802 -0.118392 2.101309 0.059263 -0.006846 468244.000000 0 0 1
-36.311728 -4.959646 -21.786532 42.635580 0.135745 2.107137 0.053462 -0.008417 155341.000000 0 0 1
36.233626 -5.835346 -22.937532 43.278832 -0.159677 2.129390 0.051919 -0.013626 38831.700000 0 0 1
35.563326 -7.048146 -22.546032 42.693677 -0.195651 2.127144 0.055384 -0.002636 581378.000000 0 0 1
34.924526 -7.871246 -23.554032 42.854072 -0.221675 2.152722 0.054488 -0.000454 541489.000000 0 0 1
33.561226 -7.296846 -24.021432 41.912159 -0.214087 2.181126 0.031895 0.002956 -436352.000000 0 0 1
33.617526 -6.096446 -24.786532 42.209915 -0.179398 2.198417 0.028616 -0.006484 -162069.000000 0 0 1
32.303626 -5.656946 -25.033732 41.257885 -0.173360 2.222777 0.017370 -0.007270 76018.700000 0 0 1
32.281326 -4.370146 -25.860392 41.592572 -0.134559 2.241778 0.049545 -0.036787 -8517.710000 0 0 1
32.317026 -4.664046 -27.185262 42.487433 -0.143332 2.265090 0.049835 -0.037607 176529.000000 0 0 1
31.706526 -3.664546 -28.013092 42.467235 -0.115066 2.291136 0.047845 -0.042198 193455.000000 0 0 1
31.526926 -4.183146 -29.432472 43.332623 -0.131914 2.317498 0.058380 -0.036578 88360.700000 0 0 1
30.928926 -3.252746 -30.294042 43.415525 -0.104783 2.343076 0.059878 -0.042631 19131.600000 0 0 1
30.319926 -3.864246 -31.439162 43.848047 -0.126766 2.370289 0.063780 -0.041415 -338087.000000 0 0 1
29.905326 -2.853446 -32.571602 44.310044 -0.095128 2.396587 0.073365 -0.034719 -78361.100000 0 0 1
28.945126 -1.842646 -32.221742 43.352697 -0.063574 2.408706 0.064323 -0.036502 1380730.000000 0 0 1
27.605826 -2.283846 -31.868222 42.224178 -0.082543 2.426052 0.065547 -0.040433 1080450.000000 0 0 1
26.746126 -2.624846 -33.147662 42.673324 -0.097826 2.460328 0.064481 -0.041442 -596911.000000 0 0 1
27.056426 -3.855346 -33.782952 43.453444 -0.141540 2.461400 0.078188 -0.039194 25723.400000 0 0 1
26.278826 -4.033046 33.270862 42.588642 -0.152283 0.674187 0.074160 -0.035798 -379999.000000 0 0 1
26.692826 -5.261746 32.452115 42.347759 -0.194627 0.697696 0.067275 -0.041401 621247.000000 0 0 1
28.057026 -5.339646 32.007491 42.897413 -0.188065 0.728550 0.069097 -0.034250 621232.000000 0 0 1
28.358726 -4.643946 30.793041 42.118819 -0.162317 0.750864 0.071252 -0.037105 -383010.000000 0 0 1
28.887026 -3.223746 31.005431 42.499289 -0.111139 0.753130 0.061313 -0.037910 -489278.000000 0 0 1
30.223226 -3.228846 31.457491 43.742915 -0.106430 0.768225 0.070006 -0.037038 -179727.000000 0 0 1
30.627726 -1.900246 31.630071 44.069603 -0.061964 0.770260 0.061496 -0.033070 197387.000000 0 0 1
31.985326 -1.711346 32.386916 45.551093 -0.053453 0.779874 0.061232 -0.036371 620690.000000 0 0 1
33.035626 -1.984646 31.457701 45.660468 -0.060004 0.810759 0.069876 -0.031739 -680302.000000 0 0 1
34.273926 -1.797046 32.082781 46.981233 -0.052384 0.819092 0.080545 -0.025597 -92973.000000 0 0 1
35.411226 -2.414146 31.201891 47.258238 -0.068069 0.849655 0.093098 -0.018335 214561.000000 0 0 1
35.781126 -1.785846 30.004331 46.730484 -0.049869 0.873599 0.081150 -0.017089 -613291.000000 0 0 1
-36.224628 -2.423246 29.531081 46.799365 0.066795 0.887936 0.082688 -0.016397 -192524.000000 0 0 1
-35.690928 -1.881646 28.134321 45.485415 0.052672 0.903919 0.072149 -0.018399 168450.000000 0 0 1
36.545926 -2.103546 27.081021 45.534726 -0.057496 0.933862 0.064874 -0.021010 -481559.000000 0 0 1
-36.031928 -1.832346 25.841881 44.378600 0.050810 0.949235 0.060354 -0.013779 -42200.700000 0 0 1
-26.553644 15.038054 12.347468 32.919584 -0.515292 1.186314 0.062999 -0.009923 389209.000000 0 0 1
-27.866454 14.473154 12.441868 33.775901 -0.479028 1.193546 0.065112 -0.002070 209462.000000 0 0 1
-28.715194 15.402554 12.973668 35.073025 -0.492334 1.191890 0.066700 -0.003425 -1053940.000000 0 0 1
-29.865314 14.694154 13.687568 35.988952 -0.457238 1.180647 0.074951 -0.011305 -627605.000000 0 0 1
-30.853044 15.552954 14.186468 37.350510 -0.466921 1.181195 0.086505 -0.013515 -80730.300000 0 0 1
-31.892624 14.711754 14.705268 38.076503 -0.432203 1.174284 0.097258 -0.020164 107689.000000 0 0 1
-33.012734 15.374354 15.479868 39.570667 -0.435841 1.168866 0.102132 -0.024986 -479794.000000 0 0 1
-32.550134 15.976054 16.682168 39.912908 -0.456272 1.139593 0.098803 -0.015864 708472.000000 0 0 1
-33.643304 16.272454 17.589668 41.304492 -0.450503 1.130891 0.132959 -0.033673 734401.000000 0 0 1
-33.214194 16.499454 19.048468 41.692431 -0.461052 1.096311 0.147136 -0.013299 275387.000000 0 0 1
-32.603634 15.335854 19.688668 41.058848 -0.439666 1.070685 0.131181 -0.012598 113494.000000 0 0 1
-31.564624 15.689454 20.566668 40.810198 -0.461291 1.042620 0.115707 -0.005958 32692.500000 0 0 1
-31.971974 16.146554 22.007068 42.038427 -0.467657 1.019844 0.124233 -0.015509 -913151.000000 0 0 1
-32.794704 17.273354 21.986168 43.095857 -0.484788 1.035415 0.131976 -0.019792 -75800.000000 0 0 1
-33.273564 17.730454 23.209468 44.273902 -0.489596 1.018992 0.137969 -0.025505 -1151560.000000 0 0 1
-34.134474 16.761254 24.049268 44.994102 -0.456451 1.006882 0.135885 -0.030726 -564912.000000 0 0 1
-35.404534 16.386854 23.569068 45.579721 -0.433485 1.027342 0.122242 -0.024195 -605055.000000 0 0 1
-36.334854 17.369754 23.415268 46.585456 -0.445931 1.044158 0.096617 -0.025161 -1607180.000000 0 0 1
35.429800 16.759354 23.055368 45.471932 0.441840 1.039068 0.071009 -0.028725 53722.900000 0 0 1
34.908500 15.989854 24.127468 45.347695 0.429528 1.009771 0.066909 -0.022031 465730.000000 0 0 1
33.626300 15.405554 23.852568 44.011409 0.429603 0.998025 0.069373 -0.028970 790900.000000 0 0 1
33.242120 14.562054 25.086368 44.118225 0.412881 0.965973 0.061868 -0.033163 5053.140000 0 0 1
32.742750 15.386054 26.176768 44.654692 0.439285 0.944431 0.071829 -0.033432 696743.000000 0 0 1
32.226600 14.757054 27.384768 44.791181 0.429417 0.912984 0.067944 -0.030460 1249700.000000 0 0 1
31.199680 13.528754 27.433968 43.692903 0.409148 0.891968 0.054017 -0.025455 586510.000000 0 0 1
31.913570 12.334354 27.176968 43.694391 0.368808 0.899530 0.063516 -0.025964 516415.000000 0 0 1
31.110150 11.137754 27.110068 42.741628 0.343793 0.883722 0.072271 -0.018538 -265055.000000 0 0 1
31.970460 9.995954 26.628268 42.791285 0.303033 0.899141 0.085357 -0.014944 -395091.000000 0 0 1
32.819480 9.488354 27.612468 43.927161 0.281434 0.891049 0.088486 -0.014391 -329357.000000 0 0 1
33.419580 8.305754 27.149168 43.851239 0.243594 0.903175 0.089943 -0.008028 136766.000000 0 0 1
34.590780 7.751254 28.009868 45.179162 0.220443 0.902088 0.072263 -0.005994 621918.000000 0 0 1
35.828260 8.442854 27.949568 46.218225 0.231426 0.921369 0.081003 -0.009868 919486.000000 0 0 1
-36.243444 7.658054 28.530668 46.757160 -0.208232 0.914498 0.065720 -0.012127 953373.000000 0 0 1
-34.892570 8.364254 28.800368 46.009927 -0.235275 0.894435 0.059166 -0.007549 346126.000000 0 0 1
-34.137002 8.629654 27.620268 44.751369 -0.247607 0.905625 0.058543 -0.009725 487009.000000 0 0 1
-32.906914 9.235154 28.036668 44.206422 -0.273607 0.883795 0.077944 -0.005621 532668.000000 0 0 1
-31.981864 9.757154 26.902668 42.916141 -0.296114 0.893272 0.083092 -0.014529 -69997.600000 0 0 1
-31.372034 8.816154 26.040568 41.713790 -0.273954 0.896603 0.076620 -0.016014 -4835.830000 0 0 1
-30.609244 9.525454 25.097568 40.712995 -0.301696 0.906569 0.086297 -0.010420 101129.000000 0 0 1
-29.685474 8.564354 24.264868 39.285612 -0.280876 0.905042 0.074658 -0.012079 -16922.700000 0 0 1
-29.049344 9.145854 23.186768 38.277111 -0.305014 0.920075 0.074149 -0.011682 -562492.000000 0 0 1
-28.192684 8.216754 22.622968 37.069410 -0.283594 0.914374 0.047000 -0.004221 -217000.000000 0 0 1
-27.156614 8.855354 21.653768 35.843892 -0.315213 0.922144 0.034637 -0.003910 -1356850.000000 0 0 1
-26.216184 9.640554 22.294068 35.738691 -0.352384 0.897191 0.037250 -0.005463 -503144.000000 0 0 1
-25.405024 10.436454 21.498168 34.878446 -0.389784 0.906667 0.025796 0.005563 -460842.000000 0 0 1
-24.445374 9.714654 20.562168 33.387925 -0.378265 0.907324 0.018301 0.005165 -1556590.000000 0 0 1
-24.929874 9.517654 19.245668 32.901065 -0.364699 0.945971 0.019622 0.005506 -62233.900000 0 0 1
-24.108474 8.821154 18.331868 31.545026 -0.350764 0.950676 0.034084 0.001756 -338524.000000 0 0 1
-24.059674 7.305754 18.489268 31.210495 -0.294803 0.936755 0.036093 0.008133 407495.000000 0 0 1
-23.057374 6.893254 19.471268 30.956255 -0.290503 0.890539 0.026921 0.011885 1051820.000000 0 0 1
-23.227474 5.600754 19.976668 31.144040 -0.236610 0.874438 0.042041 0.006964 -325684.000000 0 0 1
-23.196574 4.361554 19.025768 30.316399 -0.185856 0.892364 0.043619 -0.001283 -436016.000000 0 0 1
-24.306574 4.185954 18.164968 30.631647 -0.170542 0.936001 0.075133 -0.002288 207607.000000 0 0 1
-24.169374 3.294654 17.083168 29.779993 -0.135480 0.959846 0.068324 -0.005433 -156895.000000 0 0 1
-24.258574 1.770754 17.424668 29.920445 -0.072866 0.949159 0.083542 -0.006011 323748.000000 0 0 1
-23.004774 1.242454 17.849568 29.143960 -0.053956 0.911625 0.056895 -0.002734 620709.000000 0 0 1
-23.198974 -0.096746 18.249268 29.516733 0.004170 0.904258 0.085990 -0.013757 147956.000000 0 0 1
-21.924974 -0.991546 18.405568 28.643543 0.045194 0.872945 0.069530 -0.005246 260819.000000 0 0 1
-21.090974 -0.553046 19.463268 28.704596 0.026216 0.825684 0.048038 0.001488 941641.000000 0 0 1
-20.025574 -1.533046 19.719368 28.146533 0.076405 0.794563 0.042084 0.000795 1108090.000000 0 0 1
-18.971074 -1.078046 20.742668 28.130448 0.056765 0.741621 0.043921 0.003609 260677.000000 0 0 1
-19.463874 -1.184446 22.049268 29.434937 0.060779 0.724117 0.046714 0.005887 361471.000000 0 0 1
-18.416574 -0.822846 22.977868 29.458949 0.044650 0.676137 0.038138 0.001711 -103205.000000 0 0 1
-18.733874 -0.836346 24.479968 30.837093 0.044614 0.653685 0.046874 0.002499 173308.000000 0 0 1
-19.640374 0.106054 25.051768 31.833105 -0.005400 0.664910 0.044299 -0.008900 463188.000000 0 0 1
-21.016374 -0.082346 24.734768 32.457718 0.003918 0.704306 0.083913 -0.019448 43622.400000 0 0 1
-21.875674 1.067054 25.321368 33.479178 -0.048739 0.713109 0.075580 -0.029451 -239165.000000 0 0 1
-21.552574 2.303354 24.756068 32.904130 -0.106467 0.719144 0.060049 -0.018473 563129.000000 0 0 1
-22.677374 2.900954 24.126668 33.238154 -0.127232 0.758494 0.060620 -0.018338 -311328.000000 0 0 1
-22.146474 4.083354 23.321068 32.419320 -0.182332 0.767920 0.053408 -0.006229 188062.000000 0 0 1
-21.682774 3.719154 22.017868 31.124930 -0.169873 0.784979 0.057999 0.001960 640485.000000 0 0 1
-20.399974 3.100154 21.976368 30.145159 -0.150815 0.753910 0.037858 0.001951 -361329.000000 0 0 1
-20.047874 2.397954 20.657568 28.886027 -0.119046 0.773971 0.035467 0.004843 -14689.700000 0 0 1
-19.403474 3.208354 19.671668 27.816593 -0.163867 0.785278 0.022943 0.009496 268220.000000 0 0 1
-19.380474 2.500854 18.490868 26.902959 -0.128331 0.813007 0.044965 -0.009447 -45560.000000 0 0 1
-18.821774 3.355254 17.363468 25.826477 -0.176411 0.833468 0.025954 -0.000069 -317840.000000 0 0 1
-17.477574 3.734854 17.531068 25.035037 -0.210528 0.795033 0.030638 -0.010489 -9971.640000 0 0 1
-17.127774 4.733054 16.541568 24.277271 -0.269610 0.821177 0.040710 -0.010933 161386.000000 0 1 0
-15.660274 5.252454 16.540168 23.375406 -0.323609 0.784717 0.047412 -0.012346 227634.000000 0 1 0
-15.409874 6.193254 17.537568 24.153403 -0.382145 0.758177 0.050422 -0.008677 147550.000000 0 1 0
-16.014274 7.485054 17.421668 24.819297 -0.437228 0.792678 0.042629 -0.017489 -457150.000000 0 1 0
-15.469374 8.431354 16.289168 23.994296 -0.499023 0.824565 0.029978 -0.016165 99696.200000 0 1 0
-15.793674 8.127854 14.909068 23.190137 -0.475281 0.872511 0.029551 -0.015396 467521.000000 0 1 0
-17.192974 8.065454 14.663368 23.993004 -0.438634 0.913281 0.023436 -0.013226 78628.500000 0 1 0
-17.426874 7.474454 13.247568 23.131395 -0.405173 0.960989 0.025821 -0.018014 -467767.000000 0 1 0
-17.213274 6.137754 13.289168 22.595814 -0.342517 0.942058 0.026795 -0.020952 64522.800000 0 1 0
-17.793174 5.567054 12.121768 22.237949 -0.303227 0.994295 0.031536 -0.027827 36675.400000 0 1 0
-17.522174 4.059454 12.025868 21.636248 -0.227659 0.981447 0.034817 -0.026815 47306.000000 0 1 0
-18.041074 3.351254 13.140668 22.569634 -0.183664 0.949330 0.037599 -0.018721 204153.000000 0 1 0
-17.653674 1.994054 13.192268 22.128361 -0.112477 0.932074 0.029975 -0.021035 -557947.000000 0 1 0
-18.473874 1.182054 14.232668 23.350591 -0.063898 0.915341 0.032980 -0.020990 -598090.000000 0 1 0
-19.814674 1.162954 13.899568 24.231627 -0.058624 0.959887 0.051750 -0.017476 -748906.000000 0 1 0
-20.684274 0.705054 14.902468 25.503330 -0.034073 0.946737 0.064354 -0.015643 1089700.000000 0 0 1
-22.182074 0.425854 14.487168 26.497241 -0.019196 0.992328 0.078368 -0.025916 798010.000000 0 0 1
-22.274174 -0.693946 13.677668 26.147638 0.031145 1.020319 0.086738 -0.026341 -755375.000000 0 0 1
-23.494374 -1.015246 13.135268 26.936065 0.043185 1.061405 0.115661 -0.035530 -1108800.000000 0 0 1
-23.501574 -2.179846 12.080168 26.514263 0.092489 1.097739 0.104409 -0.039203 -169191.000000 0 0 1
-23.233774 -3.421846 12.744068 26.719441 0.146228 1.073605 0.092618 -0.030179 227505.000000 0 0 1
-22.993074 -4.410946 11.750568 26.195682 0.189535 1.105633 0.094042 -0.035667 16453.200000 0 0 1
-22.834374 -5.813046 12.363868 26.609498 0.249279 1.087567 0.092498 -0.029996 -139187.000000 0 0 1
-23.979474 -6.276746 13.019068 27.998372 0.256011 1.087169 0.087214 -0.031993 -43803.300000 0 0 1
-23.938674 -7.690046 13.112368 28.357206 0.310827 1.090096 0.083133 -0.031779 -378408.000000 0 0 1
-24.798974 -8.161146 14.263668 29.749717 0.317929 1.070762 0.095893 -0.026802 356801.000000 0 0 1
-26.131654 -7.660146 14.353068 30.782328 0.285148 1.085720 0.132169 -0.038458 525349.000000 0 0 1
-26.801124 -8.204246 15.469268 32.014187 0.297058 1.066490 0.134429 -0.028368 -417465.000000 0 0 1
-28.143374 -7.508746 15.842068 33.157230 0.260730 1.072663 0.148139 -0.035822 734281.000000 0 0 1
-29.303424 -7.823846 15.041768 33.854955 0.260908 1.110403 0.125813 -0.033103 1096480.000000 0 0 1
-29.783604 -9.163446 14.939968 34.557697 0.298476 1.123733 0.122313 -0.040942 -558984.000000 0 0 1
-30.317314 -9.783646 16.201968 35.740216 0.312158 1.100303 0.120659 -0.037055 -351478.000000 0 0 1
-29.208464 -10.007546 17.061768 35.275902 0.330090 1.065958 0.124925 -0.014505 315710.000000 0 0 1
-29.562214 -10.599746 18.270468 36.333031 0.344278 1.043891 0.099964 -0.003856 -767003.000000 0 0 1
-28.384574 -10.841046 19.169568 35.926100 0.364836 1.007965 0.108572 -0.006315 -691989.000000 0 0 1
-27.417254 -11.689646 18.638368 35.153128 0.403023 1.011954 0.089513 -0.007967 -562980.000000 0 0 1
-26.229724 -11.673846 19.398368 34.649297 0.418740 0.976593 0.091700 -0.015446 47769.600000 0 0 1
-25.232434 -12.698046 18.775668 33.918163 0.466239 0.984166 0.063750 -0.010382 -106905.000000 0 0 1
-24.971674 -12.360146 17.423768 32.862523 0.459613 1.011958 0.064844 -0.011226 -86408.900000 0 0 1
-24.006474 -13.221646 16.885268 32.190604 0.503421 1.018621 0.063597 -0.017570 -576145.000000 0 0 1
-23.735774 -12.947746 15.401268 31.116397 0.499378 1.053011 0.050834 -0.014985 -1197210.000000 0 0 1
-22.959674 -11.825146 15.141568 29.937398 0.475607 1.040517 0.046299 -0.019677 -303663.000000 0 0 1
-22.538174 -11.757146 13.809168 28.929101 0.480821 1.073165 0.053401 -0.016567 393536.000000 0 0 1
-21.240174 -10.967046 13.471968 27.439297 0.476630 1.057589 0.052484 -0.025719 126082.000000 0 0 1
-21.406074 -9.505446 13.545068 27.056282 0.417898 1.046475 0.056494 -0.027031 -63445.000000 0 0 1
-20.176374 -8.839046 13.646868 25.912387 0.412905 1.016136 0.065599 -0.024825 -180903.000000 0 0 1
-19.269574 -8.667046 12.426168 24.512116 0.422670 1.039165 0.063707 -0.012749 -349660.000000 0 1 0
-18.678874 -9.877046 11.901168 24.250653 0.486407 1.057838 0.053259 -0.020179 339020.000000 0 1 0
-18.478374 -9.905746 10.513668 23.454452 0.492087 1.105980 0.062489 -0.008671 112842.000000 0 1 0
-17.632674 -11.105346 9.926268 23.081826 0.562055 1.126252 0.033828 -0.011051 1192910.000000 0 1 0
-16.209374 -11.213846 10.013268 22.107910 0.605210 1.100751 0.038141 -0.012045 1120800.000000 0 1 0
-15.677574 -11.546646 11.290768 22.507616 0.634810 1.045300 0.053344 -0.012219 177262.000000 0 1 0
-14.218374 -12.085346 11.195168 21.761193 0.704483 1.030424 0.051833 -0.013843 291488.000000 0 1 0
-14.093674 -13.469546 10.928468 22.349312 0.762759 1.059871 0.052994 -0.018070 845478.000000 0 1 0
-12.753774 -13.848746 10.572368 21.592162 0.826535 1.059121 0.060439 -0.024913 750719.000000 0 1 0
-12.520674 -15.391646 10.408668 22.405589 0.887895 1.087662 0.075867 -0.031461 -88801.600000 0 1 0
-12.707774 -15.899446 9.105968 22.297950 0.896507 1.150121 0.059219 -0.033283 124267.000000 0 1 0
-12.524374 -17.289146 9.128268 23.218523 0.943877 1.166746 0.066312 -0.021654 -36387.300000 0 1 0
-12.956974 -18.087146 7.895568 23.608643 0.949172 1.229790 0.062250 -0.022719 -839503.000000 0 1 0
-12.096274 -18.071246 6.823268 22.791375 0.980927 1.266754 0.052123 -0.019919 -441481.000000 0 1 0
-12.457274 -18.929246 5.804168 23.392059 0.988750 1.320052 0.044439 -0.008790 -392438.000000 0 1 0
-11.516774 -18.748946 4.630268 22.485516 1.019956 1.363390 0.045832 -0.000993 -332737.000000 0 1 0
-11.800274 -19.520946 3.542968 23.083900 1.027080 1.416705 0.055789 -0.005718 -104548.000000 0 1 0
-10.893074 -19.277846 2.514468 22.284904 1.056467 1.457723 0.052507 -0.017432 -171795.000000 0 1 0
-11.160074 -20.255346 1.299968 23.162820 1.067209 1.514644 0.067457 -0.015931 -95709.900000 0 1 0
-10.878374 -21.572246 1.717368 24.220863 1.103733 1.499832 0.047328 -0.018818 -286185.000000 0 1 0
-11.160374 -22.598846 0.766068 25.216040 1.112083 1.540411 0.048955 -0.024167 224555.000000 0 0 1
-10.279474 -22.678046 -0.531732 24.904701 1.145219 1.592149 0.061598 -0.017095 72606.600000 0 1 0
-10.356374 -21.557846 -1.413032 23.958128 1.122952 1.629810 0.069785 -0.028464 -612843.000000 0 1 0
-11.394574 -21.709046 -2.343032 24.629430 1.087446 1.666072 0.076686 -0.019008 844185.000000 0 1 0
-12.617874 -20.702146 -2.209032 24.344803 1.023424 1.661661 0.080441 -0.014049 887157.000000 0 1 0
-13.261074 -20.688846 -0.957532 24.592709 1.000790 1.609742 0.075430 -0.014712 727477.000000 0 1 0
-14.422974 -19.837946 -0.889632 24.542977 0.942152 1.607052 0.090175 0.001935 915148.000000 0 1 0
26.569026 -20.549146 -4.089832 33.836479 -0.658325 1.691963 0.081957 -0.025086 -19567.800000 0 0 1
25.288326 -20.556146 -3.495032 32.776056 -0.682540 1.677633 0.058420 -0.024800 74353.500000 0 0 1
25.307126 -21.563446 -2.501032 33.341986 -0.705695 1.645878 0.047729 -0.024810 -344092.000000 0 0 1
23.970126 -21.728646 -1.765432 32.400891 -0.736388 1.625310 0.035332 -0.020612 67326.800000 0 0 1
22.967026 -22.240746 -2.641732 32.079804 -0.769334 1.653238 0.040618 -0.023009 -283944.000000 0 0 1
21.825626 -22.583546 -1.907232 31.464457 -0.802463 1.631449 0.032614 -0.010708 -388090.000000 0 0 1
20.725626 -23.261546 -2.726232 31.274326 -0.842986 1.658079 0.039021 -0.016758 -109698.000000 0 0 1
19.993726 -22.381046 -3.542132 30.219315 -0.841677 1.688281 0.040838 -0.024566 -590774.000000 0 0 1
19.115226 -23.047546 -4.393732 30.263611 -0.878394 1.716493 0.049165 -0.019005 -592256.000000 0 0 1
18.200926 -22.180046 -5.195632 29.158579 -0.883621 1.749938 0.040958 -0.000515 -473162.000000 0 0 1
17.240326 -21.402646 -4.474032 27.844552 -0.892697 1.732175 0.041924 0.003196 488733.000000 0 0 1
17.708026 -20.306646 -3.706132 27.196865 -0.853650 1.707492 0.035366 -0.004789 -824459.000000 0 0 1
16.665026 -19.906746 -2.685232 26.100040 -0.873807 1.673861 0.058419 0.001991 -264463.000000 0 0 1
16.341126 -20.934546 -1.754532 26.615146 -0.908008 1.636766 0.055706 -0.004077 157177.000000 0 0 1
15.519026 -20.312546 -0.771632 25.574110 -0.918388 1.600973 0.071273 0.001461 -56420.500000 0 0 1
15.368926 -21.241946 0.436068 26.222401 -0.944460 1.554166 0.056178 0.002022 -15565.100000 0 0 1
14.362426 -22.246346 0.340668 26.481980 -0.997515 1.557932 0.073679 -0.003945 107153.000000 0 0 1
14.076726 -22.752446 1.634368 26.804835 -1.016747 1.509786 0.070890 0.003009 -440865.000000 0 0 1
12.913726 -23.729146 1.667068 27.066877 -1.072406 1.509167 0.072037 -0.004544 -274978.000000 0 0 1
13.293626 -25.085306 1.560468 28.432871 -1.083487 1.515886 0.057642 0.001686 218505.000000 0 0 1
12.118926 -25.858346 1.655168 28.605279 -1.132529 1.512902 0.066725 -0.007888 157701.000000 0 0 1
12.364626 -27.265896 2.163468 30.016556 -1.145050 1.498658 0.064731 -0.006880 -33558.500000 0 0 1
12.311326 -27.249596 3.572768 30.114347 -1.146448 1.451876 0.074801 -0.010503 214361.000000 0 0 1
12.505726 -28.500476 4.267368 31.414658 -1.157304 1.434535 0.072146 -0.008828 4401.370000 0 0 1
12.332026 -28.534166 5.810568 31.623412 -1.162856 1.386004 0.075189 -0.009653 -79402.300000 0 0 1
12.527326 -29.852066 6.340668 32.989147 -1.173469 1.377388 0.056126 -0.012314 -106421.000000 0 0 1
12.351226 -29.875196 7.722268 33.237231 -1.178768 1.336316 0.056211 -0.012898 115127.000000 0 0 1
12.389026 -31.338926 8.218368 34.686565 -1.194328 1.331589 0.041638 -0.011146 77718.200000 0 0 1
12.081626 -31.515546 9.537368 35.073590 -1.204721 1.295404 0.041220 -0.010922 -188594.000000 0 0 1
11.313026 -32.676666 9.665668 35.905072 -1.237501 1.298233 0.037659 -0.008353 -23730.600000 0 0 1
11.157126 -32.959986 11.169968 36.546003 -1.244398 1.260184 0.038325 -0.009951 937687.000000 0 0 1
12.348026 -33.591436 11.724168 37.660516 -1.218534 1.254223 0.036111 -0.016522 1015560.000000 0 0 1
12.282026 -33.799936 13.132368 38.285022 -1.222257 1.220671 0.046737 -0.015589 816832.000000 0 0 1
11.123526 33.380898 13.585268 37.717061 1.249139 1.202326 0.051129 -0.012160 700827.000000 0 0 1
11.174026 32.144117 12.978368 36.421713 1.236241 1.206453 0.062651 -0.016038 186360.000000 0 0 1
9.988226 31.381163 13.144668 35.458770 1.262648 1.191031 0.058000 -0.009180 82019.300000 0 0 1
10.050626 30.163103 12.182768 34.047727 1.249157 1.204870 0.056251 -0.014277 18790.800000 0 0 1
9.884326 30.440753 10.731668 33.756600 1.256829 1.247269 0.031901 -0.013157 98109.800000 0 0 1
10.968926 31.145713 10.171468 34.551868 1.232180 1.271987 0.030099 -0.012111 16881.500000 0 0 1
10.605326 31.558503 8.718468 34.415458 1.246600 1.314675 0.023955 -0.015158 385612.000000 0 0 1
9.430226 32.360141 8.717268 34.815207 1.287234 1.317717 0.019447 -0.010893 427691.000000 0 0 1
8.800026 32.488887 7.408968 34.465360 1.306281 1.354137 0.013469 -0.009056 -67758.500000 0 0 1
9.225326 33.677493 6.512568 35.520328 1.303424 1.386406 0.029720 -0.006882 -431159.000000 0 0 1
8.646326 -33.244736 6.758568 35.009280 -1.316352 1.376526 0.024742 -0.004585 -202960.000000 0 0 1
9.223726 -32.170876 6.081268 34.015059 -1.291576 1.391048 0.043334 -0.012002 -176125.000000 0 0 1
8.533926 -30.841206 6.427668 32.639283 -1.300845 1.372570 0.045044 -0.013548 146697.000000 0 0 1
8.829926 -30.411566 7.759968 32.604418 -1.288218 1.330487 0.047097 -0.009746 -63088.400000 0 0 1
8.112326 -29.255036 8.112568 31.424206 -1.300296 1.309676 0.069976 -0.012656 -339211.000000 0 0 1
8.674726 -27.925636 7.652768 30.226758 -1.269610 1.314832 0.084967 -0.021792 -147537.000000 0 0 1
9.660026 -27.461996 8.558868 30.343559 -1.232555 1.284850 0.077721 -0.021375 308837.000000 0 0 1
10.414226 -26.263296 8.207168 29.420646 -1.193284 1.288086 0.072908 -0.026107 303530.000000 0 0 1
9.788526 -25.002846 7.554668 27.893199 -1.197642 1.296528 0.070324 -0.025227 -550699.000000 0 0 1
9.509126 -25.280616 6.196768 27.711603 -1.211024 1.345273 0.073554 -0.026840 -658950.000000 0 0 1
8.702126 -24.425946 5.494868 26.505611 -1.228551 1.361972 0.078639 -0.018243 -239550.000000 0 0 1
8.536826 -24.848946 4.024068 26.580832 -1.239880 1.418822 0.076224 -0.013750 324363.000000 0 0 1
7.590626 -25.888606 3.777768 27.241679 -1.285587 1.431672 0.065617 -0.019542 -124359.000000 0 0 1
7.998626 -27.217166 4.122168 28.666085 -1.284962 1.426497 0.061496 -0.015376 142521.000000 0 0 1
7.054026 -28.378396 3.670868 29.471476 -1.327164 1.445915 0.058034 -0.014376 1003500.000000 0 0 1
5.947026 -28.624406 4.578268 29.591963 -1.365950 1.415459 0.042797 -0.012913 694492.000000 0 0 1
4.863326 -29.389886 4.114968 30.072418 -1.406806 1.433530 0.040878 -0.010219 224830.000000 0 0 1
5.094226 -30.921616 4.281468 31.629550 -1.407517 1.435017 0.037815 -0.009774 -262779.000000 0 0 1
6.040326 -31.405656 3.367568 32.158067 -1.380784 1.465885 0.050776 -0.011502 -164232.000000 0 0 1
6.200026 -32.783506 3.549368 33.552893 -1.383884 1.464814 0.040607 -0.009465 287784.000000 0 0 1
7.349826 -33.422776 2.704168 34.328042 -1.354337 1.491940 0.045150 -0.005595 289113.000000 0 0 1
6.985426 -33.746606 1.375568 34.489445 -1.366683 1.530902 0.062010 -0.012172 -11306.400000 0 0 1
7.871926 33.441167 0.891568 34.366754 1.339609 1.544851 0.049263 -0.011789 -262604.000000 0 0 1
7.364026 32.784226 -0.422432 33.603762 1.349843 1.583368 0.077913 -0.011875 1397470.000000 0 0 1
6.184026 31.944373 -0.234532 32.538288 1.379574 1.578004 0.055112 -0.009070 782578.000000 0 0 1
4.970426 32.643805 -0.326132 33.021652 1.419694 1.580673 0.062229 -0.015729 -702296.000000 0 0 1
3.695026 31.810433 -0.260832 32.025379 1.455157 1.578941 0.067298 -0.018600 -232661.000000 0 0 1
3.655626 30.866993 -1.334032 31.111325 1.452914 1.613689 0.063678 -0.015331 -174522.000000 0 0 1
2.829626 29.801983 -0.940332 29.950780 1.476133 1.602197 0.043842 -0.017430 -892.931000 0 0 1
2.610126 28.766753 -2.072832 28.959204 1.480310 1.642435 0.045703 -0.011993 505222.000000 0 0 1
1.755626 29.260123 -3.134632 29.479874 1.510868 1.677329 0.045148 -0.023596 447188.000000 0 0 1
2.036326 28.558313 -4.312232 28.953743 1.499613 1.720288 0.052500 -0.036486 -87301.300000 0 0 1
1.630326 29.294463 -5.596232 29.868736 1.515201 1.759271 0.060155 -0.038816 437845.000000 0 0 1
0.238326 29.533263 -5.828432 30.103838 1.562727 1.765638 0.064507 -0.038864 622188.000000 0 0 1
0.041626 30.445733 -6.906632 31.219321 1.569429 1.793871 0.058236 -0.039582 -95438.500000 0 0 1
0.190726 29.923843 -8.379532 31.075543 1.564423 1.843826 0.062889 -0.041467 -747123.000000 0 0 1
-0.915874 29.130313 -8.750432 30.429986 -1.539366 1.862474 0.059230 -0.036513 154193.000000 0 0 1
-1.107174 28.871803 -10.126332 30.616164 -1.532467 1.907896 0.068766 -0.036601 -20925.300000 0 0 1
-1.393374 30.154303 -11.005332 32.130061 -1.524621 1.920399 0.059003 -0.039840 -127603.000000 0 0 1
-0.223774 30.916963 -11.306832 32.920406 -1.563559 1.921395 0.054282 -0.029057 245060.000000 0 0 1
-0.450674 32.309124 -11.670132 34.355125 -1.556848 1.917385 0.049971 -0.031373 -99484.100000 0 0 1
-0.626674 33.231174 -10.404432 34.827516 -1.551941 1.874170 0.041948 -0.036993 740692.000000 0 0 1
0.515726 33.390573 -9.525232 34.726451 1.555352 1.848651 0.036667 -0.037665 559537.000000 0 0 1
0.166426 -33.932756 -8.444432 34.968101 -1.565892 1.814697 0.037235 -0.027670 2258.720000 0 0 1
1.307626 -33.670976 -7.408032 34.501065 -1.531980 1.787200 0.042532 -0.024863 387182.000000 0 0 1
2.401626 -32.973596 -7.969832 34.008000 -1.498090 1.807348 0.050230 -0.022046 -83498.500000 0 0 1
3.329626 -32.591526 -6.955732 33.491435 -1.468987 1.780006 0.057177 -0.025137 -1641040.000000 0 0 1
4.465026 -31.846696 -7.542832 33.030938 -1.431501 1.801186 0.046771 -0.023361 -576182.000000 0 0 1
5.371026 -32.565926 -8.400732 34.058182 -1.407340 1.820027 0.055681 -0.022663 -110439.000000 0 0 1
6.292526 -33.293386 -7.696832 34.746031 -1.383998 1.794166 0.080190 -0.012362 -1980440.000000 0 0 1
6.594026 33.543332 -8.375832 35.196461 1.376689 1.811075 0.073482 -0.020870 354196.000000 0 0 1
5.605226 32.487286 -8.547332 34.057293 1.399942 1.824478 0.070364 -0.025486 442426.000000 0 0 1
4.527626 32.780848 -9.438432 34.411734 1.433547 1.848637 0.064788 -0.031205 996382.000000 0 0 1
3.470826 31.636453 -9.602232 33.243265 1.461524 1.863819 0.059214 -0.039275 590376.000000 0 0 1
4.104626 30.563603 -10.266232 32.501959 1.437297 1.892165 0.060065 -0.034752 -187515.000000 0 0 1
3.258826 29.467823 -10.260732 31.372842 1.460655 1.903985 0.053523 -0.041127 -503065.000000 0 0 1
3.787326 28.140953 -10.946332 30.431551 1.437016 1.938746 0.051172 -0.041121 -116557.000000 0 0 1
3.742026 28.169293 -12.357732 30.987504 1.438729 1.981001 0.057737 -0.032479 261006.000000 0 0 1
5.067226 28.303943 -12.845132 31.492657 1.393644 1.990924 0.050416 -0.024970 157302.000000 0 0 1
5.127426 28.817463 -14.314332 32.582769 1.394711 2.025640 0.054517 -0.022675 -244728.000000 0 0 1
4.311426 28.115153 -15.255732 32.276735 1.418633 2.063096 0.062232 -0.017315 309609.000000 0 0 1
4.441926 28.705933 -16.521332 33.417297 1.417275 2.087935 0.082728 -0.009645 -56402.900000 0 0 1
3.352626 28.303973 -17.524332 33.458291 1.452895 2.122063 0.069445 -0.010893 140448.000000 0 0 1
3.671526 27.055213 -18.061432 32.736524 1.435915 2.155223 0.085912 -0.008300 318201.000000 0 0 1
2.564126 26.626253 -18.815132 32.703843 1.474792 2.183790 0.091100 -0.021742 298685.000000 0 0 1
3.022626 25.428413 -19.588232 32.240337 1.452483 2.223793 0.105115 -0.027917 308523.000000 0 0 1
3.426326 24.306463 -18.796432 30.916820 1.430755 2.224295 0.114147 -0.037735 25486.700000 0 0 1
4.368526 23.500053 -19.461532 30.823494 1.387000 2.254136 0.107517 -0.030293 100560.000000 0 0 1
4.798126 22.229553 -18.632632 29.399831 1.358213 2.257209 0.099133 -0.017476 420387.000000 0 0 1
3.759526 21.279453 -18.386932 28.373023 1.395927 2.275808 0.127244 -0.017629 99705.800000 0 0 1
4.295826 20.175653 -17.661032 27.155537 1.361008 2.278862 0.103273 -0.014918 -64182.800000 0 0 1
3.388426 18.951253 -17.522132 26.031837 1.393869 2.309194 0.099074 -0.024995 -360505.000000 0 0 1
2.347926 19.159253 -16.605532 25.462393 1.448856 2.281225 0.104584 -0.023909 -471448.000000 0 0 1
1.601326 17.982053 -16.323232 24.338579 1.481979 2.305912 0.082724 -0.018172 -150836.000000 0 1 0
2.165926 16.959853 -15.341332 22.971381 1.443775 2.302107 0.066219 -0.012282 -64856.300000 0 1 0
3.274726 16.189753 -15.788032 22.849374 1.371218 2.333614 0.073386 -0.021572 -68476.300000 0 1 0
3.013926 15.102553 -16.648832 22.679385 1.373820 2.395130 0.072601 -0.029670 -268145.000000 0 1 0
2.958026 15.272853 -18.222732 23.959924 1.379486 2.434957 0.071844 -0.027763 337113.000000 0 1 0
4.180726 15.827753 -18.697632 24.851513 1.312555 2.422455 0.081150 -0.026062 37079.400000 0 1 0
3.985626 16.242753 -20.087132 26.138193 1.330172 2.447286 0.063485 -0.021788 -221846.000000 0 0 1
4.379626 15.203053 -21.200332 26.453129 1.290315 2.500479 0.066703 -0.025698 202496.000000 0 0 1
3.561226 14.045653 -21.345332 25.798952 1.322483 2.545209 0.056158 -0.027976 415769.000000 0 0 1
2.264226 14.326353 -21.883032 26.253347 1.414047 2.556269 0.057981 -0.028051 476426.000000 0 0 1
1.586526 13.106653 -22.559832 26.139003 1.450335 2.612116 0.067723 -0.025002 -170882.000000 0 0 1
0.947826 12.285653 -21.639632 24.901995 1.493800 2.623958 0.069650 -0.021183 -144413.000000 0 1 0
0.072526 11.403353 -22.307232 25.053031 1.564436 2.669021 0.051177 -0.012481 -342503.000000 0 0 1
-0.503074 10.416053 -21.313432 23.727825 -1.522536 2.686559 0.033833 -0.012237 -658869.000000 0 1 0
-1.374974 11.108653 -20.393332 23.263292 -1.447648 2.639612 0.030562 -0.010638 405424.000000 0 1 0
-1.961474 10.275853 -19.406732 22.046809 -1.382183 2.647188 0.017063 -0.008434 432437.000000 0 1 0
-3.086274 9.279553 -19.776132 22.061972 -1.249716 2.682354 0.009855 -0.010955 27878.300000 0 1 0
-2.544074 8.165753 -20.541432 22.250894 -1.268773 2.747052 0.010441 -0.012136 -414962.000000 0 1 0
-3.601974 7.394153 -20.969132 22.524481 -1.117491 2.767798 0.013889 -0.004476 -604884.000000 0 1 0
-3.109974 6.243553 -21.872132 22.957441 -1.108662 2.832879 0.012385 -0.011712 168909.000000 0 1 0
-2.222574 5.347153 -21.214432 21.990544 -1.176867 2.875125 0.011446 -0.005368 178139.000000 0 1 0
-1.916974 4.232153 -21.979832 22.465506 -1.145488 2.933281 0.024891 -0.011398 -455660.000000 0 1 0
-1.134074 3.128353 -21.180032 21.439834 -1.223016 2.985758 0.019338 -0.009342 518638.000000 0 1 0
0.246526 3.446053 -21.053232 21.334823 1.499379 2.978941 0.014967 -0.006384 299495.000000 0 1 0
0.942426 2.583953 -20.144232 20.331136 1.221066 3.005894 0.016733 -0.001974 -596069.000000 0 1 0
2.440326 2.604653 -20.316732 20.627870 0.817959 2.967688 0.015896 -0.001085 -771740.000000 0 1 0
2.899326 1.813953 -21.450132 21.721066 0.559064 2.983483 0.033408 -0.004251 71299.100000 0 1 0
4.301226 1.694153 -21.257032 21.753899 0.375217 2.927453 0.046101 -0.006961 285511.000000 0 1 0
5.060326 1.000353 -22.454632 23.039491 0.195169 2.915791 0.052699 -0.006220 129914.000000 0 1 0
6.435626 0.838453 -22.177732 23.107836 0.129553 2.856905 0.057534 -0.015026 -130423.000000 0 1 0
7.041926 0.066853 -23.201832 24.247025 0.009493 2.846909 0.055837 -0.022244 -1162820.000000 0 1 0
8.540626 0.202953 -23.145932 24.672204 0.023759 2.788009 0.051514 -0.026184 -967754.000000 0 1 0
8.998326 1.489153 -23.629432 25.328591 0.164006 2.773222 0.049769 -0.028493 -111686.000000 0 0 1
10.310626 1.732453 -23.202232 25.449047 0.166471 2.718231 0.053898 -0.021101 -292103.000000 0 0 1
14.229126 -21.839346 21.653371 33.886480 -0.993342 0.877602 0.063642 0.004758 -759220.000000 0 0 1
13.103226 -22.594146 22.092271 34.209040 -1.045258 0.868723 0.046304 0.013775 1392060.000000 0 0 1
11.813226 -21.921546 22.011571 33.235760 -1.076526 0.846931 0.035735 0.007435 1490760.000000 0 0 1
11.352626 -21.486446 20.634371 31.879880 -1.084717 0.866820 0.037310 -0.001750 -1297950.000000 0 0 1
11.870326 -20.250746 20.238571 30.993501 -1.040610 0.859265 0.036834 -0.001634 -17909.400000 0 0 1
11.463626 -20.010846 18.902471 29.818654 -1.050564 0.884192 0.058446 -0.005131 152362.000000 0 0 1
11.742826 -18.560346 18.367071 28.630922 -1.006691 0.874329 0.067690 -0.014698 109941.000000 0 0 1
10.791626 -17.686246 18.920971 28.058254 -1.022932 0.830718 0.079369 -0.016918 -174446.000000 0 0 1
11.109526 -16.361146 18.542571 27.109696 -0.974291 0.817588 0.085079 -0.009496 -340566.000000 0 0 1
10.104626 -15.288446 18.901271 26.326756 -0.986774 0.769945 0.096807 -0.012371 -262105.000000 0 0 1
8.811926 -15.589746 18.441271 25.705461 -1.056329 0.770724 0.083859 -0.011574 -508751.000000 0 0 1
7.820826 -14.746246 18.966471 25.265473 -1.083156 0.721694 0.072439 -0.012805 935966.000000 0 0 1
6.340126 -15.082246 18.557571 24.739741 -1.172854 0.722565 0.055271 -0.005522 462526.000000 0 1 0
5.997126 -14.850346 17.212171 23.510788 -1.186986 0.749401 0.045817 -0.008336 -223613.000000 0 1 0
4.621526 -14.989246 16.962271 23.103131 -1.271722 0.746312 0.025575 -0.003469 -142339.000000 0 1 0
3.909326 -16.362346 16.973471 23.897864 -1.336271 0.780942 0.016100 0.000557 -1235450.000000 0 1 0
2.559926 -16.261546 16.707971 23.455221 -1.414656 0.777977 0.021867 0.002330 -1182250.000000 0 1 0
1.983726 -17.530646 16.815371 24.372432 -1.458118 0.809398 0.033969 -0.004905 97802.900000 0 1 0
0.506226 -17.535146 16.371471 23.995055 -1.541935 0.819912 0.036610 -0.000713 -78059.900000 0 1 0
0.290426 -17.497346 14.978471 23.034671 -1.554200 0.862873 0.034754 -0.002705 -711531.000000 0 1 0
-1.049474 -17.740646 14.675971 23.048125 1.511709 0.880516 0.026056 0.001745 -683058.000000 0 1 0
-1.417374 -17.968846 13.214571 22.349794 1.492080 0.938174 0.023032 -0.013451 -290173.000000 0 1 0
-2.756274 -18.356446 13.073671 22.704120 1.421757 0.957180 0.017903 -0.013598 -427561.000000 0 1 0
-2.858974 -19.569246 12.426271 23.356827 1.425727 1.009813 0.022479 -0.017887 408758.000000 0 1 0
-4.273274 -20.209646 12.309371 24.046024 1.362418 1.033391 0.017698 -0.016615 650483.000000 0 1 0
-4.870874 -20.655446 13.525371 25.165622 1.339212 1.003381 0.024489 -0.016344 -229380.000000 0 0 1
-6.223374 -20.965246 13.302571 25.597467 1.282239 1.024316 0.025446 -0.022983 -32581.000000 0 0 1
-6.937474 -21.732146 14.450171 27.004114 1.261795 1.006158 0.035115 -0.018280 1516580.000000 0 0 1
-8.386174 -21.636246 14.409271 27.314505 1.201027 1.015104 0.047992 -0.020990 1225430.000000 0 0 1
-9.003074 -22.454146 15.420771 28.688747 1.189468 1.003303 0.050718 -0.021562 613803.000000 0 0 1
-10.510374 -22.094846 15.529371 28.979502 1.126782 1.005253 0.074748 -0.029279 252650.000000 0 0 1
-10.665674 -20.771946 15.959471 28.283123 1.096435 0.971241 0.071868 -0.031294 -874567.000000 0 0 1
-11.949874 -20.252946 15.867671 28.368368 1.037739 0.977202 0.077174 -0.024340 -571479.000000 0 0 1
-12.091274 -19.031846 16.779571 28.106300 1.004812 0.931035 0.072422 -0.023135 -371021.000000 0 0 1
-12.212074 -19.459546 18.102871 29.249319 1.010357 0.903434 0.069827 -0.030164 -110428.000000 0 0 1
-12.406674 -18.453946 19.041871 29.275699 0.978901 0.862642 0.065280 -0.030689 -347950.000000 0 0 1
-12.935374 -19.033946 20.330871 30.707643 0.973897 0.847207 0.071170 -0.034098 138632.000000 0 0 1
-14.274774 -19.454346 20.106971 31.409092 0.937772 0.876085 0.086939 -0.026793 95613.800000 0 0 1
-14.851874 -20.004946 21.253471 32.748833 0.932170 0.864548 0.084748 -0.025318 600272.000000 0 0 1
-16.326774 -20.517546 21.158671 33.693065 0.898654 0.891838 0.089990 -0.028873 232911.000000 0 0 1
-16.412974 -21.685946 20.327571 33.954030 0.922927 0.928945 0.103652 -0.030742 131483.000000 0 0 1
-17.698874 -21.925646 19.797471 34.437247 0.891667 0.958332 0.085915 -0.023151 -169157.000000 0 0 1
-18.719974 -22.606346 20.717071 35.926054 0.879163 0.956163 0.090487 -0.027186 -602491.000000 0 0 1
-19.267274 -21.743346 21.690771 36.255903 0.845701 0.929458 0.091660 -0.025221 128158.000000 0 0 1
-19.929674 -22.416846 22.754571 37.649401 0.844065 0.921808 0.059174 -0.019566 -107196.000000 0 0 1
-20.353974 -21.487446 23.870551 38.023648 0.812481 0.892096 0.044211 -0.006466 31215.000000 0 0 1
-21.440374 -20.713746 23.349221 37.867335 0.768162 0.906372 0.051475 -0.001055 367528.000000 0 0 1
-21.695274 -19.711846 24.268181 38.055045 0.737534 0.879271 0.051474 -0.003191 -218375.000000 0 0 1
-22.752674 -18.775146 23.697481 37.838617 0.689910 0.894027 0.050584 -0.010647 -294920.000000 0 0 1
-22.282274 -18.057846 22.549571 36.483814 0.681058 0.904510 0.061876 -0.006467 -42483.900000 0 0 1
-23.151174 -17.012746 22.164271 36.285883 0.633737 0.913696 0.060970 -0.010684 -185301.000000 0 0 1
-22.847974 -16.432346 20.746071 34.963572 0.623498 0.935567 0.073159 -0.009148 378075.000000 0 0 1
-21.817574 -15.434346 20.737971 33.827341 0.615693 0.910876 0.073516 -0.007786 69061.600000 0 0 1
-21.778974 -14.855546 19.419371 32.743289 0.598615 0.935918 0.062922 -0.006692 52139.400000 0 0 1
-20.432674 -14.130146 19.213271 31.405493 0.605030 0.912487 0.070798 -0.018325 24306.600000 0 0 1
-20.120374 -14.082546 17.824271 30.345547 0.610669 0.942983 0.065674 -0.021102 -186284.000000 0 0 1
-19.167674 -13.079646 17.543871 29.090622 0.598803 0.923444 0.067259 -0.033007 -480434.000000 0 0 1
-18.580374 -13.188546 16.081471 27.888739 0.617280 0.956199 0.056796 -0.037702 201311.000000 0 0 1
-18.044074 -12.008946 15.528271 26.663282 0.587218 0.949138 0.049409 -0.029615 363890.000000 0 0 1
-16.800874 -11.623946 16.112571 26.019232 0.605246 0.903001 0.058088 -0.035772 -237096.000000 0 0 1
-16.162774 -10.423246 15.366371 24.617163 0.572776 0.896672 0.049042 -0.025504 -307102.000000 0 1 0
-16.753674 -9.214946 15.589271 24.670351 0.502863 0.886790 0.049671 -0.024791 -272774.000000 0 1 0
-16.327774 -8.209646 14.668671 23.434257 0.465887 0.894447 0.035633 -0.017251 -594751.000000 0 1 0
-16.542474 -6.735846 15.158271 23.426444 0.386685 0.867077 0.044560 -0.010725 354751.000000 0 1 0
-15.933374 -6.308546 16.396271 23.717248 0.376995 0.807478 0.040101 -0.012118 -823881.000000 0 1 0
-14.580074 -6.040946 16.332171 22.711482 0.392798 0.768268 0.038382 -0.016182 -1415360.000000 0 1 0
-13.931474 -5.966746 17.702271 23.303614 0.404656 0.708043 0.032720 -0.014931 -249620.000000 0 1 0
-13.787974 -7.192646 18.447271 24.127665 0.480826 0.700424 0.022229 -0.017328 159266.000000 0 1 0
-13.284674 -8.349646 17.714271 23.664204 0.561125 0.724896 0.023737 -0.020869 -430859.000000 0 1 0
-13.145374 -9.562846 18.685171 24.766601 0.628924 0.715980 0.027385 -0.020726 -313141.000000 0 1 0
-14.335074 -10.221846 18.998371 25.902096 0.619441 0.747386 0.030130 -0.022755 -296735.000000 0 0 1
-15.173974 -9.618046 19.976571 26.866702 0.564939 0.732442 0.032470 -0.016782 -959174.000000 0 0 1
-16.550874 -10.234146 20.165671 28.023624 0.553799 0.767577 0.041866 -0.018201 -366811.000000 0 0 1
-17.515774 -10.183946 19.154771 27.882259 0.526642 0.813461 0.064870 -0.019370 40446.100000 0 0 1
-18.052474 -8.893946 18.919371 27.621309 0.457768 0.816254 0.047551 -0.019640 -1217550.000000 0 0 1
-19.155574 -8.924546 17.898371 27.693596 0.435996 0.868071 0.057997 -0.018323 -1183210.000000 0 0 1
-20.388674 -9.279746 18.403671 28.991496 0.427122 0.883052 0.058746 -0.015498 -758741.000000 0 0 1
-21.406574 -9.226946 17.422371 29.101838 0.406970 0.928958 0.078765 -0.017499 18931.000000 0 0 1
-22.842274 -9.500646 17.885471 30.527395 0.394158 0.944828 0.074322 -0.014812 -313854.000000 0 0 1
-23.328374 -8.323446 18.509771 30.920938 0.342715 0.929024 0.091172 -0.012228 682986.000000 0 0 1
-24.753774 -8.429346 18.556071 32.064482 0.328211 0.953649 0.091282 -0.007869 429856.000000 0 0 1
-25.453034 -7.305146 19.370271 32.808985 0.279492 0.939248 0.112812 -0.012311 -83843.000000 0 0 1
-25.314284 -7.396946 20.781871 33.576986 0.284290 0.903414 0.113325 -0.017157 210338.000000 0 0 1
-25.988734 -6.340046 21.418871 34.269207 0.239280 0.895642 0.112484 -0.021541 -511460.000000 0 0 1
-26.035864 -6.401046 22.976671 35.309588 0.241074 0.862263 0.111532 -0.019741 315937.000000 0 0 1
-24.870274 -5.990746 23.646571 34.836474 0.236377 0.824686 0.086484 -0.021148 383021.000000 0 0 1
-23.718174 -6.823646 23.640241 34.175648 0.280132 0.806918 0.086913 -0.019437 495071.000000 0 0 1
-22.648674 -6.547546 24.761691 34.190264 0.281419 0.760876 0.079894 -0.014557 -22596.700000 0 0 1
-21.940374 -5.379446 24.554601 33.365355 0.240442 0.743756 0.071581 -0.010833 -235658.000000 0 0 1
-21.314274 -5.118046 25.803241 33.857051 0.235661 0.704210 0.062620 -0.015054 -11885.600000 0 0 1
-20.672374 -3.703046 25.838011 33.296583 0.177250 0.682504 0.056107 -0.013978 358134.000000 0 0 1
-19.859774 -3.437246 27.020531 33.709559 0.171378 0.640882 0.052715 -0.016299 386525.000000 0 0 1
-20.486574 -3.354946 28.308421 35.104445 0.162322 0.632748 0.060091 -0.024537 -59678.100000 0 0 1
-21.334674 -2.084946 28.600681 35.742332 0.097416 0.643183 0.076304 -0.028322 -118273.000000 0 0 1
-22.560574 -2.078646 27.947721 35.977429 0.091877 0.681208 0.088173 -0.031793 -999706.000000 0 0 1
-23.384174 -1.009146 28.336081 36.752843 0.043128 0.690402 0.076513 -0.032536 359517.000000 0 0 1
-24.720774 -0.963446 27.560491 37.035464 0.038953 0.731513 0.065007 -0.031499 -499608.000000 0 0 1
-24.584474 -0.331446 26.279881 35.988031 0.013481 0.752124 0.062715 -0.030367 -191664.000000 0 0 1
-25.751584 -0.169646 25.518161 36.253957 0.006588 0.789962 0.076592 -0.029629 -268943.000000 0 0 1
-26.643054 -1.378146 25.115751 36.640859 0.051680 0.815565 0.078993 -0.025806 -52883.200000 0 0 1
-27.353054 -1.923046 26.237931 37.951505 0.070189 0.807435 0.067260 -0.023150 -20081.800000 0 0 1
-27.713604 -3.270446 26.051511 38.176182 0.117465 0.819752 0.061538 -0.019246 88740.900000 0 0 1
-26.572234 -4.343746 26.047201 37.462093 0.162036 0.801966 0.073167 -0.025068 290814.000000 0 0 1
-26.173674 -4.632246 27.376601 38.157532 0.175167 0.770643 0.059010 -0.023643 -508040.000000 0 0 1
-25.244814 -5.657446 27.423181 37.700639 0.220461 0.756281 0.073643 -0.024020 -428261.000000 0 0 1
-25.084204 -6.169646 28.905041 38.765748 0.241170 0.729311 0.048050 -0.019542 -143504.000000 0 0 1
-26.200054 -6.866646 29.418001 39.987654 0.256320 0.744131 0.059297 -0.013460 315486.000000 0 0 1
-25.840624 -7.423446 30.666651 40.783439 0.279745 0.719798 0.054606 -0.007726 -170942.000000 0 0 1
-27.048424 -8.014046 31.416901 42.223973 0.288045 0.731679 0.032525 -0.008344 -72962.500000 0 0 1
-27.651444 -9.118446 30.825951 42.402685 0.318535 0.756881 0.039140 -0.011914 -452449.000000 0 0 1
-28.975764 -9.256946 31.224481 43.591905 0.309224 0.772324 0.032312 -0.002515 -663070.000000 0 0 1
-29.915964 -9.945446 30.233571 43.680037 0.320952 0.806319 0.028957 -0.014496 -153240.000000 0 0 1
-29.733334 -11.330746 30.137231 43.825902 0.364089 0.812538 0.037846 -0.015472 442048.000000 0 0 1
-30.696784 -11.884246 29.239671 44.028244 0.369380 0.844491 0.024472 -0.009847 234927.000000 0 0 1
-30.136284 -13.137946 28.551081 43.542686 0.411110 0.855683 0.031535 -0.021604 -581775.000000 0 0 1
-29.103024 -12.716146 27.739081 42.168033 0.411937 0.852872 0.051483 -0.027565 -365197.000000 0 0 1
-28.320814 -13.834046 27.257041 41.670081 0.454386 0.857784 0.060844 -0.034318 482333.000000 0 0 1
-27.030334 -13.287146 26.570141 40.164158 0.456876 0.847928 0.074055 -0.032754 497351.000000 0 0 1
-25.928874 -12.679246 27.261131 39.701877 0.454810 0.813931 0.062128 -0.037285 515790.000000 0 0 1
-26.173404 -11.544746 28.130111 40.120212 0.415417 0.793793 0.065930 -0.043281 -906764.000000 0 0 1
-26.385074 -10.125746 27.462131 39.406491 0.366435 0.799739 0.068323 -0.032416 278770.000000 0 0 1
-25.252034 -9.476646 26.883791 38.081626 0.359018 0.787030 0.059611 -0.026574 345218.000000 0 0 1
-24.689974 -10.067446 25.719391 37.046395 0.387173 0.803422 0.052326 -0.028852 92946.500000 0 0 1
-25.589984 -10.001146 24.465101 36.788740 0.372570 0.843281 0.069021 -0.023210 334426.000000 0 0 1
-26.868704 -10.620446 24.456511 37.852900 0.376424 0.868341 0.070591 -0.028616 333614.000000 0 0 1
-27.513114 -10.473446 23.174571 37.466322 0.363733 0.903908 0.093523 -0.023499 -343827.000000 0 0 1
-28.750504 -11.390946 23.092671 38.595552 0.377226 0.929388 0.095566 -0.030995 825823.000000 0 0 1
-29.978184 -10.888846 23.646221 39.703933 0.348408 0.932829 0.096621 -0.028308 684933.000000 0 0 1
-29.889264 -10.991246 25.081351 40.537017 0.352384 0.903675 0.102594 -0.033464 202434.000000 0 0 1
-31.290244 -10.667446 25.748941 41.903243 0.328562 0.909062 0.052701 -0.028973 597726.000000 0 0 1
-31.755514 -9.396446 25.460821 41.772710 0.287691 0.915356 0.071089 -0.035073 -310640.000000 0 0 1
-33.105584 -9.166646 25.795391 42.958227 0.270124 0.926700 0.057854 -0.026326 222933.000000 0 0 1
-33.676284 -9.189946 27.222611 44.267570 0.266404 0.908466 0.042278 -0.021792 -530655.000000 0 0 1
-34.128896 -10.446246 27.624951 45.133619 0.297027 0.912120 0.045514 -0.029897 -4843.480000 0 0 1
-34.578909 -10.406746 28.921591 46.265103 0.292334 0.895501 0.047538 -0.023901 -783345.000000 0 0 1
-34.992271 -11.840846 29.485611 47.265907 0.326290 0.897170 0.050778 -0.016008 -45920.700000 0 0 1
-36.102324 -12.457746 28.897811 47.892136 0.332274 0.923046 0.039621 -0.023929 609403.000000 0 0 1
35.775470 -11.897746 29.287751 47.741104 -0.321061 0.910349 0.059929 -0.025830 644170.000000 0 0 1
34.468950 -12.569646 28.755091 46.615017 -0.349680 0.906045 0.070205 -0.028560 617525.000000 0 0 1
34.302780 -12.299046 27.372551 45.576351 -0.344266 0.926562 0.060911 -0.017901 -394731.000000 0 0 1
33.249320 -12.985646 26.755601 44.609489 -0.372337 0.927578 0.059298 -0.011786 -310485.000000 0 0 1
33.097090 -12.616046 25.270091 43.510453 -0.364180 0.951107 0.052153 -0.006099 60848.200000 0 0 1
32.853030 -11.240346 25.200831 42.903949 -0.329656 0.942981 0.054049 -0.021528 -5545.850000 0 0 1
32.904560 -10.808746 23.873051 42.064969 -0.317383 0.967296 0.042214 -0.020824 -349930.000000 0 0 1
32.609400 -9.278246 23.851551 41.453049 -0.277201 0.957719 0.046121 0.008103 -1144700.000000 0 0 1
31.273050 -8.943146 24.004431 40.425193 -0.278536 0.935024 0.050561 0.001474 -1072550.000000 0 0 1
31.005040 -7.773546 23.336551 39.576952 -0.245655 0.940171 0.046583 0.009750 8532.620000 0 0 1
29.530400 -7.455546 23.044671 38.192755 -0.247302 0.923066 0.049443 0.021858 389829.000000 0 0 1
28.906300 -8.228046 21.966771 37.226522 -0.277311 0.939634 0.041798 0.025913 277222.000000 0 0 1
27.538380 -7.918446 21.797171 36.002511 -0.279989 0.920484 0.056192 0.004565 -83880.900000 0 0 1
14.928526 -18.312246 25.272711 34.596375 -0.886843 0.751740 0.060046 0.022499 579266.000000 0 0 1
13.913426 -19.288246 25.540151 34.898699 -0.945890 0.749783 0.045545 0.014227 530473.000000 0 0 1
14.565226 -20.517846 25.429861 35.774372 -0.953470 0.780104 0.056704 -0.004430 -63650.700000 0 0 1
13.644926 -21.781046 25.639701 36.304163 -1.011149 0.786614 0.025264 -0.013707 590489.000000 0 0 1
12.978126 -21.901246 26.905481 37.040535 -1.035854 0.757757 0.039458 -0.016268 -341789.000000 0 0 1
11.925226 -21.051946 27.139031 36.358252 -1.055399 0.728109 0.044738 -0.004213 -1149090.000000 0 0 1
11.483226 -21.085946 28.620221 37.357712 -1.072115 0.698025 0.040470 -0.002156 75068.200000 0 0 1
12.393526 -20.414746 29.489651 37.947343 -1.025182 0.680719 0.041891 -0.000569 -112733.000000 0 0 1
11.835626 -19.800846 30.588371 38.311930 -1.032045 0.646158 0.041374 0.000044 -425478.000000 0 0 1
11.561926 -18.314046 30.317641 37.259117 -1.007669 0.620312 0.051050 0.004964 -306151.000000 0 0 1
12.689626 -17.499546 30.251131 37.180528 -0.943396 0.620430 0.049854 0.010940 -617386.000000 0 0 1
12.423126 -16.210646 29.684391 36.031683 -0.916909 0.602641 0.062431 0.002100 463409.000000 0 0 1
13.383326 -15.103846 30.245731 36.359921 -0.845721 0.588377 0.058619 -0.000635 291536.000000 0 0 1
13.062926 -13.825446 29.786841 35.341744 -0.813749 0.568289 0.075862 -0.004143 -263442.000000 0 0 1
13.571626 -12.794246 30.518211 35.766506 -0.755922 0.548587 0.072991 -0.003093 -488480.000000 0 0 1
13.025526 -11.392346 30.155241 34.767635 -0.718613 0.520970 0.070270 -0.016203 -182491.000000 0 0 1
13.332826 -10.816946 28.893741 33.609803 -0.681594 0.536150 0.078751 -0.010846 387436.000000 0 0 1
14.700426 -10.680146 28.511001 33.808952 -0.628303 0.567407 0.065327 -0.006396 203268.000000 0 0 1
15.022726 -9.659746 27.350901 32.665958 -0.571445 0.578487 0.060175 -0.004831 68651.300000 0 0 1
15.120626 -8.239446 27.631021 32.557566 -0.498930 0.557308 0.058451 -0.011185 -749015.000000 0 0 1
16.368126 -7.954646 28.164961 33.532924 -0.452372 0.573661 0.053989 -0.010880 -1248820.000000 0 0 1
16.734726 -6.494746 27.934291 33.204780 -0.370206 0.571162 0.049878 -0.011219 -828088.000000 0 0 1
18.071026 -6.268746 28.223741 34.094556 -0.333906 0.595607 0.045595 -0.013770 -981876.000000 0 0 1
18.480226 -5.019046 27.745641 33.712463 -0.265193 0.604109 0.054315 -0.014566 963652.000000 0 0 1
20.043826 -4.918746 27.542591 34.417196 -0.240644 0.643073 0.057777 -0.017962 2972.780000 0 0 1
20.502626 -5.772346 26.511871 34.008190 -0.274438 0.676812 0.058743 -0.011921 958597.000000 0 0 1
21.883626 -5.667446 26.115261 34.540120 -0.253413 0.713486 0.080668 -0.009221 906679.000000 0 0 1
22.944626 -5.963846 27.177121 36.064099 -0.254296 0.717308 0.068223 -0.022088 -1132450.000000 0 0 1
23.098126 -4.908546 28.122061 36.721486 -0.209393 0.698480 0.071225 -0.023536 56456.600000 0 0 1
24.157626 -5.241846 29.024221 38.124444 -0.213673 0.705477 0.074093 -0.037369 313866.000000 0 0 1
24.862926 -3.931146 29.477671 38.762767 -0.156815 0.706770 0.070500 -0.038376 -366669.000000 0 0 1
25.799026 -3.435546 28.543841 38.628274 -0.132387 0.739306 0.068097 -0.028594 -62039.200000 0 0 1
25.973326 -2.071746 28.798231 38.836116 -0.079596 0.735445 0.063305 -0.031642 -897868.000000 0 0 1
26.984426 -1.421346 27.886421 38.830812 -0.052624 0.769653 0.069967 -0.028393 -1102520.000000 0 0 1
28.273826 -1.835646 28.193281 39.970488 -0.064833 0.787876 0.077681 -0.028639 -1204430.000000 0 0 1
29.123726 -1.318246 27.202951 39.873923 -0.045233 0.819996 0.067842 -0.008440 690489.000000 0 0 1
30.653226 -1.356546 27.550761 41.237179 -0.044226 0.839137 0.055441 -0.010041 796737.000000 0 0 1
31.068026 -0.281546 28.400311 42.093695 -0.009062 0.830248 0.050533 -0.005983 638528.000000 0 0 1
32.482426 -0.314146 28.632341 43.301474 -0.009671 0.848336 0.059657 -0.013678 762554.000000 0 0 1
32.855326 0.765054 29.714941 44.306156 0.023281 0.835681 0.061830 -0.019905 -153761.000000 0 0 1
32.798426 2.075654 29.253421 43.997815 0.063201 0.843458 0.058330 -0.010758 117978.000000 0 0 1
32.973626 3.026754 30.277381 44.868040 0.091537 0.830090 0.054936 -0.010003 -21140.000000 0 0 1
33.223826 4.468954 29.649831 44.753845 0.133708 0.846633 0.059608 -0.008729 -2485.240000 0 0 1
33.414126 5.498154 30.586101 45.631602 0.163084 0.836206 0.061881 -0.006525 -50568.100000 0 0 1
32.203626 6.166054 30.833471 45.008851 0.189181 0.816119 0.046722 -0.004328 -17761.400000 0 0 1
32.185226 6.878154 32.181561 46.030975 0.210538 0.796619 0.041608 -0.008824 79636.000000 0 0 1
32.403826 6.081954 33.302883 46.862353 0.185534 0.780370 0.038299 0.001917 74496.300000 0 0 1
32.441126 6.842554 -33.725382 47.293220 0.207875 2.364724 0.046622 -0.006165 -107520.000000 0 0 1
33.168426 6.090954 -32.610552 46.911537 0.181614 2.339425 0.059430 -0.000404 42024.800000 0 0 1
32.411726 5.010654 -32.041852 45.850921 0.153380 2.344552 0.036834 0.008244 379857.000000 0 0 1
32.366126 3.818454 -32.828402 46.258520 0.117434 2.359830 0.056293 -0.000830 -53564.700000 0 0 1
32.043326 2.652654 -31.881462 45.279564 0.082595 2.351955 0.059187 -0.019125 -78130.800000 0 0 1
32.262426 1.376254 -32.391982 45.738373 0.042632 2.357744 0.063412 -0.021253 -4165.960000 0 0 1
32.545526 0.558554 -31.311472 45.165601 0.017161 2.336798 0.049000 -0.027515 33388.300000 0 0 1
32.830326 -0.908746 -31.727662 45.665093 -0.027673 2.338925 0.066963 -0.042355 -1355620.000000 0 0 1
33.971326 -1.260046 -32.416222 46.972866 -0.037074 2.332431 0.071323 -0.035144 -932668.000000 0 0 1
34.407726 -2.552746 -32.092102 47.120178 -0.074055 2.320018 0.069760 -0.029801 377982.000000 0 0 1
35.394726 -2.585946 -30.887762 47.048141 -0.072931 2.286984 0.075631 -0.025009 -278067.000000 0 0 1
34.734726 -2.351946 -29.658882 45.734912 -0.067608 2.276403 0.064473 -0.028291 231224.000000 0 0 1
35.645626 -1.892046 -28.665922 45.781280 -0.053030 2.247401 0.069465 -0.032742 402743.000000 0 0 1
34.872226 -1.420046 -27.398142 44.370563 -0.040699 2.236337 0.069921 -0.035370 19385.100000 0 0 1
34.227226 -0.186346 -27.508722 43.912043 -0.005444 2.247787 0.067632 -0.031073 171871.000000 0 0 1
33.477926 0.132454 -26.355832 42.607734 0.003956 2.237717 0.070007 -0.030590 -286323.000000 0 0 1
32.777926 1.464854 -26.470012 42.156847 0.044661 2.249640 0.060877 -0.029536 -633737.000000 0 0 1
31.760926 1.537554 -27.415022 41.984568 0.048372 2.282307 0.064488 -0.038196 -517209.000000 0 0 1
31.203226 2.793454 -27.261772 41.528893 0.089286 2.286904 0.043531 -0.019261 -195112.000000 0 0 1
30.286226 3.076654 -28.471532 41.681524 0.101239 2.322759 0.053370 -0.019764 -268977.000000 0 0 1
29.301226 4.053954 -28.259302 40.909468 0.137482 2.333359 0.047405 -0.012271 -29512.800000 0 0 1
28.776726 4.483554 -29.488852 41.446286 0.154562 2.362421 0.041884 -0.011055 102432.000000 0 0 1
27.673326 5.567054 -29.297762 40.683706 0.198521 2.374793 0.038033 -0.012940 738621.000000 0 0 1
26.497726 5.108554 -28.609772 39.328690 0.190455 2.385399 0.039684 -0.016410 334727.000000 0 0 1
25.712026 6.135654 -28.089792 38.571893 0.234249 2.386554 0.044809 -0.015858 222084.000000 0 0 1
24.366226 5.476954 -27.621312 37.237708 0.221102 2.406482 0.036521 -0.012238 773148.000000 0 0 1
23.460926 5.044454 -28.653652 37.375037 0.211791 2.444407 0.054220 -0.017077 734720.000000 0 0 1
22.357726 4.290154 -28.164432 36.214756 0.189582 2.461805 0.053302 -0.012508 -155912.000000 0 0 1
21.334226 3.952454 -29.208292 36.385374 0.183187 2.502686 0.053499 -0.013227 -402144.000000 0 0 1
21.660226 2.699354 -29.743842 36.893740 0.123983 2.508502 0.045482 -0.017512 -132552.000000 0 0 1
20.718026 2.351854 -30.706942 37.117168 0.113033 2.545076 0.036628 -0.020074 -289670.000000 0 0 1
20.934226 2.998854 -32.080752 38.424076 0.142283 2.558771 0.051095 -0.015528 -210775.000000 0 0 1
22.149626 2.658154 -32.675142 39.564336 0.119438 2.542546 0.051053 -0.018536 -609080.000000 0 0 1
22.191826 3.253754 -33.960242 40.698429 0.145582 2.557905 0.062362 -0.019326 -434163.000000 0 0 1
23.450226 2.918354 33.478751 40.978734 0.123812 0.614644 0.058313 -0.016155 -501911.000000 0 0 1
23.662326 1.530054 33.360170 40.928568 0.064572 0.617924 0.061241 -0.028041 863028.000000 0 0 1
24.935826 1.190254 32.753390 41.182480 0.047696 0.651255 0.054625 -0.025966 756785.000000 0 0 1
25.199526 -0.335746 32.507499 41.132303 -0.013323 0.659472 0.052397 -0.024986 -470493.000000 0 0 1
24.627626 -0.912646 31.319461 39.852999 -0.037041 0.666687 0.058992 -0.032609 299317.000000 0 0 1
23.222626 -1.053646 31.239941 38.940139 -0.045340 0.639732 0.063929 -0.034970 -235786.000000 0 0 1
22.587726 -2.106346 32.170331 39.364607 -0.092983 0.614191 0.055992 -0.042517 -923696.000000 0 0 1
22.768626 -3.456746 31.731631 39.207854 -0.150670 0.627806 0.061106 -0.050569 -43449.800000 0 0 1
22.255026 -4.270446 32.718519 39.799804 -0.189582 0.605746 0.050420 -0.044033 -349032.000000 0 0 1
22.254026 -5.803346 32.427313 39.754888 -0.255096 0.616891 0.052925 -0.038169 -723113.000000 0 0 1
23.505826 -6.400646 32.367091 40.510748 -0.265855 0.645207 0.059327 -0.039203 -719403.000000 0 0 1
23.439526 -7.807146 32.194359 40.581272 -0.321519 0.654536 0.060655 -0.040148 -905613.000000 0 0 1
24.819326 -8.398946 31.987731 41.349198 -0.326307 0.686294 0.064497 -0.034025 -571275.000000 0 0 1
25.232426 -8.103446 30.690391 40.549245 -0.310748 0.712290 0.073307 -0.038127 -678695.000000 0 0 1
26.478226 -8.668246 30.374471 41.217028 -0.316376 0.742264 0.070578 -0.029854 -8779.410000 0 0 1
27.037826 -8.167246 29.016501 40.493275 -0.293352 0.771916 0.071985 -0.029068 81410.100000 0 0 1
26.270526 -8.683246 27.962551 39.337559 -0.319227 0.780110 0.070405 -0.028574 -278032.000000 0 0 1
26.526326 -8.051746 26.734931 38.512766 -0.294699 0.803511 0.073961 -0.017035 106587.000000 0 0 1
25.741326 -8.803446 25.639241 37.382980 -0.329527 0.815021 0.052841 -0.009380 1481670.000000 0 0 1
24.306826 -8.590746 25.643801 36.362443 -0.339727 0.788052 0.061374 -0.012677 1000440.000000 0 0 1
23.728326 -9.319446 24.572231 35.407345 -0.374246 0.803785 0.064367 -0.012951 -74185.700000 0 0 1
22.352326 -8.811546 24.117811 34.043188 -0.375506 0.783500 0.035286 -0.003633 -181241.000000 0 0 1
21.359426 -9.072646 25.080721 34.169878 -0.401668 0.746602 0.035283 0.002135 304562.000000 0 0 1
20.086126 -8.582646 24.622601 32.914841 -0.403811 0.725648 0.039477 0.004566 497345.000000 0 0 1
18.976026 -8.710646 25.666941 33.087109 -0.430341 0.682912 0.032901 -0.002738 -371140.000000 0 0 1
18.462226 -9.998746 25.910281 33.349234 -0.496355 0.681009 0.039786 -0.001076 277670.000000 0 0 1
19.331226 -10.820746 26.708731 34.700737 -0.510302 0.692444 0.030310 0.000622 362897.000000 0 0 1
18.587326 -11.926346 27.563511 35.319592 -0.570475 0.675486 0.034647 -0.001170 235347.000000 0 0 1
17.762726 -12.790746 26.845321 34.637969 -0.624082 0.684040 0.051414 -0.005928 452342.000000 0 0 1
16.939726 -13.737046 27.544841 35.133731 -0.681374 0.669713 0.058365 -0.005870 609319.000000 0 0 1
17.815426 -14.951046 27.972061 36.378007 -0.698202 0.693634 0.069596 0.003447 -296257.000000 0 0 1
17.130726 -15.842846 28.763981 37.038145 -0.746360 0.681539 0.059950 0.005692 -380624.000000 0 0 1
17.900426 -16.864946 29.369351 38.306794 -0.755622 0.697130 0.060900 0.003842 -484414.000000 0 0 1
18.166726 -18.107546 28.484791 38.331403 -0.783767 0.733077 0.059100 0.004102 -496839.000000 0 0 1
19.178426 -17.839446 27.585401 38.039614 -0.749243 0.759507 0.057306 -0.000592 -369120.000000 0 0 1
19.478226 -19.003646 26.843311 38.224380 -0.773066 0.792234 0.060273 0.000744 328607.000000 0 0 1
20.717126 -18.974746 25.870521 38.190629 -0.741529 0.826567 0.063170 -0.007823 730812.000000 0 0 1
21.917426 -18.607546 26.550051 39.134634 -0.703904 0.825175 0.067423 -0.013242 293573.000000 0 0 1
22.850626 -18.099446 25.611191 38.803018 -0.669891 0.849936 0.054687 -0.012047 842292.000000 0 0 1
24.287726 -17.774446 26.165851 39.880777 -0.631769 0.855155 0.049889 -0.015424 955185.000000 0 0 1
25.043926 -18.955846 26.444021 41.058599 -0.647905 0.871008 0.056617 -0.018321 -16199.100000 0 0 1
26.373926 -18.611346 26.732991 41.912039 -0.614523 0.879112 0.055518 -0.017248 398448.000000 0 0 1
27.355926 -19.855646 26.966511 43.241023 -0.627849 0.897415 0.039369 -0.015712 515234.000000 0 0 1
26.989026 -20.617146 28.061831 44.056107 -0.652343 0.880252 0.035301 -0.008786 117325.000000 0 0 1
27.755926 -21.806046 28.116511 45.126858 -0.665921 0.898154 0.032769 -0.019100 159691.000000 0 0 1
27.045126 -22.920946 28.916681 45.749132 -0.703045 0.886574 0.038105 -0.016773 107690.000000 0 0 1
27.028926 -22.587246 30.292301 46.458261 -0.696115 0.860534 0.049117 -0.014640 -18839.400000 0 0 1
26.281026 -23.597646 30.949671 46.961935 -0.731652 0.851258 0.065006 -0.015434 -295407.000000 0 0 1
26.076026 -23.301946 32.435428 47.696927 -0.729277 0.822990 0.054928 -0.019281 -234736.000000 0 0 1
25.316426 -24.299646 33.002563 48.172226 -0.764908 0.816062 0.057114 -0.024414 -220209.000000 0 0 1
25.232626 -24.197346 -33.808682 48.633569 -0.764457 2.339455 0.078517 -0.022137 -174858.000000 0 0 1
24.917726 -25.571276 -33.014582 48.628653 -0.798342 2.317076 0.071199 -0.023045 1102870.000000 0 0 1
23.628326 -26.214496 -33.115612 48.395675 -0.837238 2.324396 0.081868 -0.028137 584750.000000 0 0 1
23.339126 -26.669706 33.807135 48.978673 -0.851900 0.808973 0.073141 -0.033558 1143910.000000 0 0 1
21.982726 -27.524956 33.722567 48.765510 -0.896881 0.807198 0.095712 -0.034371 1508180.000000 0 0 1
22.126326 -28.881146 33.984345 49.785848 -0.917060 0.819467 0.083333 -0.031861 554277.000000 0 0 1
20.830426 -29.488096 34.051764 49.628390 -0.955787 0.814634 0.116507 -0.035902 459016.000000 0 0 1
20.894626 -31.073256 -34.100607 50.645672 -0.978814 2.309483 0.092740 -0.034219 -43689.600000 0 0 1
21.419626 -31.844256 -32.972952 50.597160 -0.978672 2.280588 0.055377 -0.028588 -129599.000000 0 0 1
22.806626 -31.851046 -32.847602 51.123344 -0.949386 2.268574 0.026088 -0.012111 -1107200.000000 0 0 1
23.319326 -32.808106 -31.741622 51.261032 -0.952872 2.238539 0.008650 -0.013893 -637036.000000 0 0 1
24.577926 -33.362326 -32.046382 52.384061 -0.935864 2.229078 0.001162 -0.003902 -78059.200000 0 0 1
25.178026 -34.078876 -31.009702 52.506232 -0.934491 2.202587 -0.001253 0.010089 -90426.400000 0 0 1
26.023326 -33.204636 -30.061942 51.802333 -0.906058 2.189918 -0.005492 0.004947 -557379.000000 0 0 1
26.388526 -33.822336 -28.813592 51.677150 -0.908239 2.162251 0.006337 0.008053 -95053.500000 0 0 1
26.775026 -32.819726 -27.928752 50.735113 -0.886483 2.153737 0.014665 0.003676 -609829.000000 0 0 1
26.935726 -33.462026 -26.484052 50.464300 -0.893036 2.123285 0.024323 0.006365 477086.000000 0 0 1
28.085226 33.973060 -26.100332 51.226713 0.879991 2.105407 0.020653 0.029284 986918.000000 0 0 1
29.318326 -33.460976 -25.972962 51.515007 -0.851290 2.099231 0.025104 0.014016 997533.000000 0 0 1
-27.186484 -29.994446 9.314868 41.539601 0.834465 1.344633 0.053012 -0.011783 -238956.000000 0 0 1
-27.200794 -31.267246 9.930568 42.616195 0.854836 1.335611 0.056110 -0.013540 -358384.000000 0 0 1
-26.012314 -31.506446 10.625168 42.216002 0.880628 1.316375 0.053285 -0.012367 -277025.000000 0 0 1
-26.096824 -32.696446 11.596368 43.411721 0.897182 1.300388 0.042718 -0.008214 124778.000000 0 0 1
-26.060744 -33.973846 11.013568 44.211800 0.916452 1.319036 0.050014 -0.000893 359682.000000 0 0 1
-27.022654 33.295554 11.587268 44.419393 -0.889022 1.306883 0.029696 -0.006413 519844.000000 0 0 1
-26.796684 31.797654 11.200768 43.065186 -0.870541 1.307682 0.040702 -0.006192 36830.000000 0 0 1
-26.759874 31.682054 9.732568 42.597726 -0.869423 1.340284 0.065137 -0.019718 -147170.000000 0 0 1
-26.565014 30.317554 9.359468 41.381804 -0.851273 1.342649 0.078944 -0.016991 -246239.000000 0 0 1
-26.029474 30.157154 7.959068 40.624306 -0.858730 1.373602 0.064614 -0.009056 -4788.910000 0 0 1
-24.763174 29.531254 8.102268 39.382185 -0.872992 1.363582 0.048723 -0.003885 387290.000000 0 0 1
-24.016174 29.642054 6.851268 38.760390 -0.889863 1.393103 0.039849 -0.009971 677059.000000 0 0 1
-22.621774 28.949454 6.838068 37.370773 -0.907486 1.386781 0.073241 -0.005368 202491.000000 0 0 1
-22.591774 27.488554 6.955168 36.254423 -0.882867 1.377756 0.049280 -0.009487 -303174.000000 0 0 1
-23.286174 26.726254 6.025768 35.956201 -0.854074 1.402415 0.046509 -0.017221 -604337.000000 0 0 1
-23.392374 25.238054 6.275068 34.979122 -0.823333 1.390425 0.044745 -0.010553 -347315.000000 0 0 1
-24.316274 24.980854 7.298668 35.617338 -0.798878 1.364415 0.063941 -0.013455 166614.000000 0 0 1
-24.738874 23.656754 7.586668 35.060111 -0.763042 1.352681 0.071270 -0.027543 -104858.000000 0 0 1
-25.383714 22.725754 6.546568 34.693665 -0.730206 1.380962 0.061326 -0.033437 -78267.600000 0 0 1
-26.692834 23.066854 6.112968 35.804406 -0.712657 1.399224 0.067119 -0.036079 243970.000000 0 0 1
-26.955554 22.509054 4.799668 35.444269 -0.695747 1.434965 0.058395 -0.030848 34750.700000 0 0 1
-26.711984 23.412954 3.572068 35.699526 -0.719677 1.470569 0.051014 -0.030773 738292.000000 0 0 1
-25.339434 23.847354 3.526668 34.974571 -0.755072 1.469789 0.054651 -0.031936 774160.000000 0 0 1
-25.020274 24.494654 2.311468 35.090527 -0.774783 1.504877 0.052181 -0.027961 -492041.000000 0 0 1
-23.594574 25.020354 2.266268 34.465316 -0.814718 1.504994 0.054212 -0.023974 -568550.000000 0 0 1
-23.415274 25.771654 1.092768 34.837442 -0.833268 1.539424 0.050704 -0.032916 -687371.000000 0 0 1
-22.154174 26.361454 1.164068 34.454154 -0.871902 1.537004 0.050082 -0.033887 -1068630.000000 0 0 1
-21.646374 26.885354 -0.182532 34.516968 -0.892931 1.576085 0.066096 -0.035172 59798.700000 0 0 1
-21.240174 26.004654 -1.226532 33.598979 -0.885905 1.607309 0.063145 -0.031282 231785.000000 0 0 1
-20.158274 25.149554 -0.889932 32.243574 -0.895119 1.598400 0.049643 -0.035566 -209157.000000 0 0 1
-19.901074 24.094354 -2.027132 31.316128 -0.880423 1.635573 0.054702 -0.042710 239536.000000 0 0 1
-21.001474 23.218454 -2.276132 31.390114 -0.835492 1.643371 0.058488 -0.036582 186345.000000 0 0 1
-20.746774 22.282254 -3.292332 30.622980 -0.821068 1.678516 0.056438 -0.031935 20410.700000 0 0 1
-22.038074 21.930754 -4.077532 31.356992 -0.782957 1.701201 0.054543 -0.022465 134950.000000 0 0 1
-22.338974 22.965854 -4.997932 32.425908 -0.799234 1.725547 0.045390 -0.018792 -273414.000000 0 0 1
-23.482874 22.420354 -5.605232 32.947477 -0.762255 1.741754 0.044019 -0.010627 -204496.000000 0 0 1
-23.783974 22.947254 -6.992332 33.780861 -0.767495 1.779295 0.044756 -0.009858 183034.000000 0 0 1
-23.027974 22.193254 -7.941732 32.952985 -0.766942 1.814194 0.041734 -0.011530 391606.000000 0 0 1
-22.732874 22.996754 -9.100632 33.592496 -0.791169 1.845137 0.045874 -0.016873 252919.000000 0 0 1
-21.936574 22.228054 -10.209432 32.856235 -0.791998 1.886758 0.040790 -0.021009 -55984.900000 0 0 1
-22.790574 21.734754 -11.193932 33.423254 -0.761690 1.912311 0.017872 -0.009325 184648.000000 0 0 1
-22.082574 21.228554 -12.337632 33.022852 -0.765682 1.953693 0.007153 0.002713 45102.400000 0 0 1
-22.968574 20.730754 -13.504832 33.759444 -0.734233 1.982347 -0.005680 -0.005580 -154788.000000 0 0 1
-23.603174 19.482854 -13.278032 33.361618 -0.690058 1.980136 0.002214 0.002089 -110252.000000 0 0 1
-24.758574 19.484954 -14.057632 34.500253 -0.666763 1.990472 0.005852 -0.006698 -436943.000000 0 0 1
-25.621564 18.229554 -14.211632 34.507270 -0.618398 1.995274 0.037007 -0.014321 11842.200000 0 0 1
-25.127564 17.257854 -15.195132 34.060535 -0.601818 2.033223 0.041974 -0.025545 291967.000000 0 0 1
-25.867184 16.053154 -15.122532 33.992734 -0.555428 2.031832 0.071825 -0.037724 -268473.000000 0 0 1
-25.583524 14.962754 -16.165132 33.759624 -0.529212 2.070118 0.085368 -0.030485 -155363.000000 0 0 1
-24.411174 14.237054 -15.917032 32.433795 -0.527989 2.083752 0.097724 -0.030018 -119379.000000 0 0 1
-23.965374 13.505554 -17.041132 32.359532 -0.513183 2.125414 0.103357 -0.047578 399342.000000 0 0 1
-22.718674 12.621854 -16.736432 30.912093 -0.507111 2.142922 0.106615 -0.036305 1385080.000000 0 0 1
-21.430174 13.283354 -16.570432 30.170832 -0.554883 2.152227 0.109997 -0.045434 1270560.000000 0 0 1
-20.453974 12.249054 -16.616832 29.060686 -0.539580 2.179492 0.100318 -0.039602 286953.000000 0 0 1
-19.127274 12.596954 -15.854832 27.855189 -0.582387 2.176314 0.100602 -0.040920 212549.000000 0 0 1
-18.472174 13.698554 -16.419332 28.257142 -0.638089 2.190837 0.093639 -0.032066 125351.000000 0 0 1
-17.510474 14.225454 -15.516632 27.381492 -0.682254 2.173271 0.093597 -0.012398 489091.000000 0 0 1
-16.472174 15.258354 -16.128132 27.645371 -0.747163 2.193697 0.061628 -0.003278 313562.000000 0 0 1
-15.566074 14.775854 -17.072832 27.424626 -0.759360 2.242776 0.093119 -0.019256 172137.000000 0 0 1
-14.834674 15.872754 -17.678032 28.009368 -0.819191 2.253828 0.062098 -0.015994 369511.000000 0 0 1
-14.035474 15.400454 -18.905032 28.134832 -0.831736 2.307627 0.051072 -0.015454 169741.000000 0 0 1
-13.098874 14.368154 -18.645332 26.938314 -0.831576 2.335259 0.048929 -0.013892 110341.000000 0 0 1
-12.160274 14.298154 -19.716932 27.222544 -0.866024 2.380796 0.054232 -0.017382 179278.000000 0 0 1
-11.221574 13.086154 -19.593632 26.097540 -0.861956 2.420045 0.039014 -0.019637 -308265.000000 0 0 1
-11.658974 11.946954 -20.244732 26.239485 -0.797597 2.452050 0.067301 -0.009919 -332532.000000 0 0 1
-10.887374 10.816954 -20.021232 25.226794 -0.782154 2.487581 0.034156 0.000254 -480894.000000 0 0 1
-11.311374 9.621154 -20.963432 25.690062 -0.704827 2.525276 0.060901 -0.010869 131825.000000 0 0 1
-11.157674 9.922254 -22.345732 26.875204 -0.726859 2.552532 0.071501 -0.016865 -178838.000000 0 0 1
-11.519974 8.835254 -23.113732 27.294984 -0.654262 2.580760 0.086347 0.001067 4306.420000 0 0 1
-11.079374 8.990854 -24.627732 28.462487 -0.681711 2.616485 0.081096 -0.016989 -290804.000000 0 0 1
-9.722974 8.619454 -24.775232 27.975764 -0.725308 2.658573 0.058059 -0.011721 -308633.000000 0 0 1
-9.519474 8.095654 -26.040102 28.883333 -0.704744 2.694162 0.031233 -0.020891 -112581.000000 0 0 1
-9.329874 9.066054 -27.247252 30.193586 -0.771058 2.696147 0.054498 -0.020390 -943697.000000 0 0 1
-8.150274 9.781754 -27.251842 30.079438 -0.876130 2.704523 0.033609 -0.019185 -635360.000000 0 0 1
-8.205874 10.993954 -26.551842 29.886514 -0.929604 2.664693 0.013090 -0.017328 -60468.700000 0 0 1
-6.800674 11.629754 -26.490512 29.719482 -1.041654 2.671115 0.022899 -0.015364 -27092.700000 0 0 1
-6.185974 11.929554 -27.708882 30.795498 -1.092425 2.690040 0.022730 -0.023440 -32137.400000 0 0 1
-4.829374 12.239554 -27.495492 30.481661 -1.194979 2.695255 0.041949 -0.027883 -51242.800000 0 0 1
-4.101374 12.586454 -28.869392 31.759753 -1.255790 2.711658 0.056961 -0.025055 288126.000000 0 0 1
-2.698174 12.420154 -28.805542 31.484911 -1.356879 2.726056 0.075151 -0.032111 -29726.000000 0 0 1
-2.172374 12.365454 -30.120752 32.632551 -1.396890 2.746674 0.077897 -0.029890 -337328.000000 0 0 1
-0.645374 12.293354 -30.104262 32.523986 -1.518347 2.753419 0.087674 -0.030918 -680342.000000 0 0 1
-0.145174 11.163054 -29.407362 31.455171 -1.557792 2.778767 0.071461 -0.015307 1312030.000000 0 0 1
1.282726 10.996454 -29.652322 31.651660 1.454672 2.784260 0.089263 -0.022136 1451820.000000 0 0 1
1.640226 10.129054 -30.862512 32.523572 1.410257 2.820615 0.097089 -0.029725 -380045.000000 0 0 1
1.415126 10.842854 -32.095492 33.907089 1.441018 2.813230 0.095636 -0.027814 263731.000000 0 0 1
1.937726 10.126554 -33.197392 34.761599 1.381731 2.840462 0.096992 -0.024054 -6838.010000 0 0 1
2.035726 10.937454 33.759277 35.545195 1.386778 0.318340 0.097163 -0.029434 -168405.000000 0 0 1
3.198226 11.739454 33.601845 35.736920 1.304817 0.347416 0.089438 -0.035542 -48816.900000 0 0 1
3.061426 12.658254 32.617227 35.121037 1.333501 0.379880 0.086045 -0.030866 -869097.000000 0 0 1
4.389026 13.255154 32.215252 35.111040 1.251040 0.408985 0.099457 -0.026434 -751350.000000 0 0 1
5.124626 12.219254 31.574201 34.241818 1.173687 0.397337 0.083437 -0.027220 -309402.000000 0 0 1
6.447626 12.607554 31.295601 34.350210 1.098063 0.424913 0.085427 -0.021673 -94898.000000 0 0 1
7.314826 11.413154 30.856221 33.702717 1.000836 0.413945 0.079322 -0.018240 -1944.090000 0 0 1
6.981426 10.980654 29.548461 32.286632 1.004473 0.414813 0.068198 -0.024436 -205067.000000 0 0 1
7.830326 9.924354 29.247881 31.862915 0.902798 0.407969 0.074092 -0.025519 -140478.000000 0 0 1
7.398526 9.050454 28.054381 30.392387 0.885490 0.394802 0.074238 -0.023256 -302771.000000 0 0 1
6.396126 8.159454 28.434921 30.266018 0.905955 0.349629 0.078646 -0.029603 -489821.000000 0 0 1
6.033026 7.255754 27.363751 28.945090 0.877152 0.332076 0.084218 -0.031076 -117559.000000 0 0 1
5.233326 6.048454 27.864351 28.989542 0.857525 0.279526 0.092072 -0.042995 95457.200000 0 0 1
6.062926 5.124554 28.524601 29.608664 0.701717 0.271436 0.071492 -0.034537 371779.000000 0 0 1
5.259626 4.156954 29.218141 29.977387 0.668830 0.225543 0.077310 -0.033896 44917.000000 0 0 1
6.074826 3.138654 30.016761 30.785721 0.476891 0.223975 0.083527 -0.024083 15683.300000 0 0 1
6.417126 1.932454 29.364531 30.119588 0.292502 0.224384 0.089964 -0.024986 496052.000000 0 0 1
7.741026 1.863854 28.823021 29.902575 0.236279 0.269524 0.079022 -0.017846 114740.000000 0 0 1
7.835026 0.514454 28.075501 29.152805 0.065567 0.272703 0.060734 -0.020680 -150969.000000 0 0 1
7.840426 -0.613246 28.922391 29.972538 -0.078057 0.265494 0.026193 -0.012374 114031.000000 0 0 1
7.963926 -1.818146 28.202251 29.361484 -0.224451 0.281936 0.046922 -0.013872 -234897.000000 0 0 1
8.378726 -2.987546 29.133811 30.461573 -0.342510 0.296339 0.031340 -0.004658 691223.000000 0 0 1
9.734426 -2.994646 29.608321 31.311015 -0.298446 0.331301 0.013759 -0.011742 366661.000000 0 0 1
10.508326 -3.894746 28.855841 30.955670 -0.354938 0.370444 0.029885 -0.006998 -1127930.000000 0 0 1
11.987626 -3.694246 29.174401 31.756831 -0.298937 0.406068 0.019937 -0.002409 -534338.000000 0 0 1
12.785526 -4.740946 28.670681 31.748294 -0.355088 0.443950 0.030854 -0.008508 -27870.300000 0 0 1
13.018226 -5.817346 29.572661 32.830748 -0.420241 0.449278 0.039408 -0.008035 -404432.000000 0 0 1
12.406626 -7.167946 29.089801 32.427155 -0.523900 0.457677 0.050271 -0.013192 -95915.600000 0 0 1
11.001626 -7.156246 28.967051 31.801536 -0.576707 0.425410 0.059017 -0.012096 -606069.000000 0 0 1
10.566126 -8.424246 28.631041 31.659871 -0.673085 0.440984 0.071489 -0.015768 -654834.000000 0 0 1
9.072426 -8.268746 28.381071 30.921938 -0.739086 0.408218 0.073010 -0.013882 -735895.000000 0 0 1
8.449326 -7.738446 29.517981 31.663636 -0.741512 0.370253 0.085876 -0.018729 -197837.000000 0 0 1
7.049026 -7.586346 29.325461 31.100226 -0.822095 0.339462 0.081801 -0.015826 462121.000000 0 0 1
6.354726 -6.982146 30.583841 32.007878 -0.832408 0.299413 0.076988 -0.018960 -8156.610000 0 0 1
6.128026 -7.839546 31.677821 33.203848 -0.907326 0.304354 0.078787 -0.017776 43055.900000 0 0 1
5.455326 -7.173246 32.776989 33.993338 -0.920603 0.268319 0.078100 -0.014450 -99388.700000 0 0 1
6.015926 -6.020846 33.690469 34.748952 -0.785807 0.247454 0.088064 -0.006407 -215547.000000 0 0 1
6.229026 -4.856946 32.910047 33.844673 -0.662257 0.235556 0.095079 -0.008047 -47951.900000 0 0 1
6.769426 -3.747546 33.662269 34.540087 -0.505602 0.225933 0.082763 -0.004793 -48350.600000 0 0 1
6.798026 -2.426146 32.857960 33.641416 -0.342800 0.216238 0.062085 -0.010409 -269834.000000 0 0 1
5.543626 -1.905746 32.510786 33.035055 -0.331116 0.178394 0.088840 -0.016950 -578495.000000 0 0 1
5.724326 -0.689046 31.766721 32.285713 -0.119795 0.179545 0.078798 -0.010787 492307.000000 0 0 1
4.423126 0.026054 31.237981 31.549583 0.005890 0.140662 0.111541 -0.025053 624139.000000 0 0 1
3.630926 0.552354 32.293634 32.501808 0.150967 0.113242 0.110648 -0.022947 -457159.000000 0 0 1
2.551526 1.300354 31.809821 31.938471 0.471328 0.089786 0.115783 -0.022556 -128718.000000 0 0 1
1.449026 1.514854 32.888887 32.955627 0.807605 0.063653 0.103177 -0.031171 29110.400000 0 0 1
1.850826 2.250254 34.046514 34.170957 0.882488 0.085370 0.089387 -0.024453 281178.000000 0 0 1
0.936926 2.058454 -33.087662 33.164868 1.143660 3.073346 0.070441 -0.017260 399411.000000 0 0 1
1.352426 3.027654 -31.916832 32.088626 1.150698 3.038070 0.068137 -0.009448 -107154.000000 0 0 1
2.535226 2.686754 -31.253872 31.471425 0.814407 3.023943 0.060428 -0.008206 -272627.000000 0 0 1
2.975026 3.742654 -30.446052 30.819156 0.899174 2.985832 0.050541 -0.004382 358077.000000 0 0 1
4.103026 3.292354 -29.455992 29.922064 0.676215 2.964862 0.056003 -0.006938 312870.000000 0 0 1
3.564926 2.754054 -28.288992 28.645429 0.657772 2.983675 0.057341 -0.023269 679787.000000 0 0 1
4.627126 2.463954 -27.387332 27.884536 0.489310 2.952468 0.068279 -0.025669 225314.000000 0 0 1
4.116926 1.608254 -26.237882 26.607556 0.372415 2.974704 0.060129 -0.027978 -5160.000000 0 0 1
4.044326 0.221154 -26.451172 26.759484 0.054628 2.989647 0.070916 -0.028533 -193614.000000 0 0 1
3.576926 -0.468046 -25.385482 25.640518 -0.130112 3.000432 0.070958 -0.023578 -275573.000000 0 0 1
4.205426 -1.909246 -25.235442 25.654598 -0.426172 2.960578 0.073588 -0.027345 1373420.000000 0 0 1
5.619926 -1.945946 -24.932432 25.631942 -0.333338 2.907432 0.065145 -0.031402 857723.000000 0 0 1
6.054126 -3.295546 -24.729332 25.672027 -0.498493 2.869756 0.066445 -0.035345 -69868.800000 0 0 1
7.499826 -3.420646 -24.178432 25.544957 -0.427912 2.813024 0.073889 -0.039816 -253971.000000 0 0 1
8.368226 -3.029146 -25.174072 26.700877 -0.347309 2.801783 0.060374 -0.027256 -1021730.000000 0 0 1
9.666926 -3.445646 -24.796732 26.836540 -0.342397 2.749186 0.051190 -0.019764 86768.000000 0 0 1
-30.369694 -3.686346 17.460571 35.224693 0.120791 1.052166 0.188148 -0.038347 -385463.000000 0 0 1
-31.743904 -3.675846 17.707471 36.534119 0.115283 1.064795 0.176040 -0.028414 -736627.000000 0 0 1
-32.036754 -4.741746 18.617971 37.355945 0.146943 1.049051 0.148793 -0.025033 190674.000000 0 0 1
-33.535144 -4.618546 18.988971 38.813888 0.136862 1.059588 0.127591 -0.021165 356626.000000 0 0 1
-34.379081 -4.983046 17.867871 39.064214 0.143942 1.095730 0.115312 -0.021836 204582.000000 0 0 1
-35.714421 -4.930046 18.330271 40.445322 0.137174 1.100432 0.077917 -0.010985 -235028.000000 0 0 1
36.363040 -5.067446 17.237371 40.559544 -0.138465 1.131846 0.058437 -0.011589 1692320.000000 0 0 1
34.989980 -4.934246 17.758771 39.547686 -0.140095 1.105098 0.011676 0.008180 1491540.000000 0 0 1
34.036390 -5.245846 16.736871 38.289915 -0.152921 1.118414 0.007174 0.005599 388289.000000 0 0 1
32.785530 -5.819746 17.439471 37.588503 -0.175680 1.088339 0.003025 0.009656 -89889.400000 0 0 1
32.085650 -4.948646 18.290271 37.262743 -0.153027 1.057736 0.017079 0.008440 -744209.000000 0 0 1
30.939730 -5.541246 18.767671 36.608712 -0.177219 1.032521 0.031831 0.007380 -599579.000000 0 0 1
30.280570 -4.735946 19.929371 36.558473 -0.155145 0.994244 0.036649 0.007985 296754.000000 0 0 1
29.381870 -3.700546 19.553571 35.487046 -0.125287 0.987227 0.047144 0.004186 409853.000000 0 0 1
30.071050 -2.472146 19.336471 35.836834 -0.082026 1.000870 0.042974 -0.000802 772831.000000 0 0 1
29.079470 -1.228246 19.512971 35.041122 -0.042212 0.980197 0.051301 0.000356 534156.000000 0 0 1
29.574610 0.053654 19.126771 35.220645 0.001814 0.996724 0.052182 -0.008757 -505943.000000 0 0 1
28.715870 1.041954 19.559371 34.759975 0.036269 0.973150 0.060687 -0.011051 -306389.000000 0 0 1
29.047960 2.438454 19.038471 34.816568 0.083749 0.992232 0.051906 -0.011014 52494.100000 0 0 1
28.855180 2.540054 17.640871 33.915684 0.087801 1.023783 0.044110 -0.013823 -111234.000000 0 0 1
28.997290 3.805254 17.118271 33.887431 0.130482 1.041239 0.042189 -0.012292 173320.000000 0 0 1
28.758580 3.775454 15.565171 32.917845 0.130534 1.078275 0.053406 -0.013752 -188791.000000 0 0 1
28.563430 5.072354 15.057471 32.685253 0.175750 1.092034 0.055996 -0.013114 75753.400000 0 0 1
28.147030 4.973854 13.732971 31.711024 0.174904 1.122905 0.075688 -0.007903 -187702.000000 0 0 1
27.448980 6.213654 13.088171 31.037980 0.222619 1.135496 0.071631 -0.001707 525407.000000 0 0 1
26.180180 6.413554 13.710371 30.240863 0.240246 1.100251 0.060619 -0.008989 470641.000000 0 0 1
25.509180 7.601454 13.304771 29.757643 0.289611 1.107271 0.070310 -0.018479 264122.000000 0 0 1
24.306780 7.939054 14.245771 29.270977 0.315695 1.062504 0.069005 -0.022596 182989.000000 0 0 1
23.018280 7.468554 13.963271 27.939102 0.313745 1.047457 0.072969 -0.013229 229413.000000 0 0 1
22.793880 6.106554 14.208071 27.544877 0.261756 1.028837 0.082136 -0.015448 -1292330.000000 0 0 1
21.332580 5.677054 14.155871 26.223970 0.260093 1.000589 0.093754 -0.013959 -707362.000000 0 0 1
20.875780 5.815154 12.819971 25.178679 0.271673 1.036588 0.088422 -0.013667 53893.400000 0 0 1
19.829780 4.987554 12.439071 23.933791 0.246407 1.024263 0.097852 -0.017430 -563618.000000 0 1 0
19.642180 4.960254 10.891371 23.000898 0.247359 1.077514 0.106459 -0.019378 207827.000000 0 1 0
20.621780 4.134154 10.229271 23.387754 0.197852 1.118116 0.098305 -0.021274 1034160.000000 0 1 0
20.300280 3.807254 8.888671 22.485663 0.185393 1.164398 0.106733 -0.025420 350879.000000 0 1 0
21.553380 3.180854 8.178971 23.271476 0.146523 1.211667 0.106951 -0.020698 -328650.000000 0 1 0
21.818980 1.851854 8.577671 23.517519 0.084671 1.197448 0.101759 -0.018790 883193.000000 0 1 0
22.670680 1.149954 7.625871 23.946524 0.050681 1.246698 0.086930 -0.014607 941444.000000 0 1 0
24.208380 1.480054 7.767071 25.466912 0.061062 1.260872 0.086271 -0.011762 245363.000000 0 0 1
24.847480 0.822854 8.832171 26.383358 0.033104 1.229443 0.079215 -0.005762 385765.000000 0 0 1
24.701380 1.531654 10.077671 26.721968 0.061928 1.184100 0.066378 -0.007212 -778046.000000 0 0 1
25.479880 0.834154 11.193571 27.842703 0.032726 1.157065 0.050489 -0.005989 363092.000000 0 0 1
26.903980 0.977254 11.117071 29.126765 0.036308 1.179184 0.062977 -0.009258 531076.000000 0 0 1
27.496480 0.483954 12.261671 30.110450 0.017599 1.151385 0.056808 -0.011677 1017790.000000 0 0 1
29.080910 0.501154 12.219171 31.547720 0.017231 1.173070 0.082277 -0.018528 1348120.000000 0 0 1
29.668550 1.730054 12.598371 32.279016 0.058247 1.169843 0.076315 -0.009842 -116949.000000 0 0 1
31.043920 1.661154 12.872371 33.647917 0.053459 1.178230 0.077817 -0.013905 11315.800000 0 0 1
31.688030 3.054554 13.189871 34.459168 0.096098 1.178006 0.069390 -0.015163 -109578.000000 0 0 1
31.878610 3.878254 12.057971 34.302788 0.121062 1.211607 0.073036 -0.012578 343392.000000 0 0 1
32.632010 5.081554 12.188171 35.202582 0.154482 1.217247 0.069389 -0.013737 272672.000000 0 0 1
34.094360 4.982754 11.706871 36.390989 0.145119 1.243275 0.081269 -0.015304 -563002.000000 0 0 1
34.899130 4.202454 12.484571 37.302472 0.119840 1.229526 0.081323 -0.016050 -178502.000000 0 0 1
36.261300 4.339954 12.112171 38.476249 0.119119 1.250555 0.094443 -0.016105 443870.000000 0 0 1
-35.949243 3.408054 12.971471 38.369545 -0.094519 1.225934 0.115194 -0.015887 -473873.000000 0 0 1
-35.853025 2.032754 12.590071 38.053665 -0.056636 1.233592 0.089600 -0.016027 538480.000000 0 0 1
36.114590 1.223954 12.670671 38.292396 0.033878 1.233547 0.088525 -0.013013 336220.000000 0 0 1
35.566650 0.909654 14.084171 38.264578 0.025570 1.193860 0.073515 -0.005434 -138967.000000 0 0 1
36.360350 -0.091246 14.677471 39.211115 -0.002509 1.187134 0.078371 -0.016169 271804.000000 0 0 1
35.910700 -0.350146 15.985871 39.309656 -0.009750 1.151995 0.077482 -0.022033 -494074.000000 0 0 1
-36.240134 -1.172946 16.803371 39.963438 0.032355 1.136835 0.090931 -0.023346 270286.000000 0 0 1
-35.050852 -0.424046 17.099271 39.001629 0.012097 1.116951 0.122463 -0.029445 852213.000000 0 0 1
-34.137282 -1.051846 18.028371 38.619717 0.030802 1.085107 0.102152 -0.023612 475437.000000 0 0 1
-34.440035 -0.877246 19.575971 39.624541 0.025466 1.054070 0.116746 -0.028823 -80088.500000 0 0 1
-35.229079 -1.939246 20.108171 40.610186 0.054991 1.052788 0.080950 -0.021168 195526.000000 0 0 1
-35.162993 -1.903946 21.542271 41.281116 0.054093 1.021786 0.069300 -0.014837 31808.400000 0 0 1
-35.530492 -3.214646 22.231671 42.035664 0.090230 1.013520 0.044207 -0.010774 -407628.000000 0 0 1
-34.625827 -4.261046 22.035371 41.263325 0.122444 1.007450 0.073286 -0.014253 -224582.000000 0 0 1
-34.965825 -5.484846 22.743371 42.070814 0.155595 0.999649 0.064660 -0.021225 -132912.000000 0 0 1
-35.030683 -5.476046 24.295721 42.981599 0.155066 0.970050 0.057522 -0.028859 1107850.000000 0 0 1
-33.798924 -4.935146 24.843161 42.236307 0.144990 0.941972 0.081292 -0.032396 640312.000000 0 0 1
-33.810614 -4.978746 26.278501 43.110383 0.146203 0.915287 0.093645 -0.037753 -72992.700000 0 0 1
-32.633424 -4.262246 26.964491 42.546338 0.129875 0.884382 0.085493 -0.031044 -219913.000000 0 0 1
-32.650814 -2.829446 26.861901 42.375030 0.086442 0.884200 0.071443 -0.021261 -74938.700000 0 0 1
-31.864554 -2.477446 25.736271 41.034659 0.077593 0.892864 0.070655 -0.018861 -106049.000000 0 0 1
-31.784264 -0.938746 25.554051 40.793752 0.029526 0.893844 0.057984 -0.019047 280644.000000 0 0 1
-33.073054 -0.343546 25.447511 41.731532 0.010387 0.915000 0.064177 -0.024527 390712.000000 0 0 1
-32.980414 1.018654 25.112271 41.465305 -0.030877 0.920250 0.053250 -0.003295 171000.000000 0 0 1
-34.352176 1.565954 24.612861 42.288499 -0.045554 0.949583 0.069342 -0.005539 418844.000000 0 0 1
-34.700854 1.131754 23.311031 41.819066 -0.032603 0.979514 0.081210 0.002171 -55954.700000 0 0 1
-36.046454 1.411554 22.982271 42.772937 -0.039139 1.003554 0.068620 0.006306 296789.000000 0 0 1
-36.219684 2.707354 22.170771 42.552772 -0.074609 1.022753 0.080610 0.000547 -183174.000000 0 0 1
-35.676695 2.542454 20.891871 41.421745 -0.071143 1.042145 0.094574 -0.019290 -66741.500000 0 0 1
-36.364414 3.160954 19.815671 41.533397 -0.086706 1.073442 0.094234 -0.015960 -52066.400000 0 0 1
-35.862876 2.612354 18.501971 40.438759 -0.072714 1.095580 0.114951 -0.021513 741736.000000 0 0 1
-34.606223 3.191454 18.078571 39.174109 -0.091962 1.091119 0.135625 -0.026533 894345.000000 0 0 1
-34.312968 2.557154 16.800671 38.290748 -0.074387 1.116572 0.150819 -0.029955 -316669.000000 0 0 1
-33.301344 3.268854 15.927071 37.058555 -0.097846 1.126546 0.147382 -0.028772 -235770.000000 0 0 1
-33.817454 4.498754 15.449971 37.450776 -0.132254 1.145555 0.152782 -0.037216 -248478.000000 0 0 1
-32.901974 5.129854 14.641271 36.376120 -0.154668 1.156554 0.159848 -0.029961 -872048.000000 0 0 1
-33.305964 6.568654 14.348171 36.855182 -0.194723 1.170912 0.171673 -0.047886 -52843.900000 0 0 1
-32.508324 7.174454 13.336271 35.862516 -0.217214 1.189771 0.173045 -0.035019 193245.000000 0 0 1
-32.852064 8.482554 12.993971 36.332563 -0.252686 1.205057 0.154220 -0.038974 38479.400000 0 0 1
-31.839984 8.964354 11.935971 35.165489 -0.274440 1.224493 0.162658 -0.034915 239212.000000 0 0 1
-32.097804 10.361254 11.773171 35.724392 -0.312243 1.234964 0.139850 -0.027082 551730.000000 0 0 1
-31.256814 10.984954 10.780971 34.840881 -0.337959 1.256198 0.114774 -0.028160 23564.300000 0 0 1
-31.539164 12.514954 10.754071 35.594845 -0.377751 1.263876 0.104481 -0.024015 -50959.800000 0 0 1
-30.841644 13.280454 9.811471 34.983459 -0.406605 1.286523 0.094673 -0.019999 -44515.500000 0 0 1
-31.043754 14.682554 10.019371 35.772613 -0.441785 1.286914 0.082447 -0.015723 -59977.000000 0 0 1
-30.238354 15.456854 8.974471 35.125682 -0.472541 1.312436 0.081617 -0.016701 647380.000000 0 0 1
-28.815554 15.405954 9.144871 33.930933 -0.490974 1.297908 0.087743 -0.011376 593191.000000 0 0 1
-28.195694 16.333454 8.293671 33.623858 -0.525052 1.321564 0.061931 -0.025288 -817654.000000 0 0 1
-26.745694 16.574654 8.671071 32.637996 -0.554788 1.301893 0.065901 -0.017972 -731796.000000 0 0 1
-26.541784 17.153754 9.919071 33.122584 -0.573764 1.266664 0.049388 -0.014468 208522.000000 0 0 1
-26.686754 18.577354 9.886471 33.985927 -0.608121 1.275630 0.059670 -0.023937 -224018.000000 0 0 1
-26.718544 19.105654 11.343771 34.750363 -0.620769 1.238266 0.066924 -0.007655 233177.000000 0 0 1
-25.413974 19.128254 11.905871 33.963362 -0.645206 1.212638 0.060461 -0.001643 372606.000000 0 0 1
-25.428564 19.549054 13.305171 34.724702 -0.655414 1.177580 0.058603 -0.012954 7707.660000 0 0 1
-25.968114 18.553054 14.376871 35.003617 -0.620362 1.147547 0.050166 -0.014107 -345815.000000 0 0 1
-25.045654 17.619554 14.758171 33.993192 -0.613069 1.121701 0.061168 -0.014336 -324529.000000 0 0 1
-25.634174 16.785154 15.727371 34.441290 -0.579739 1.096578 0.059846 -0.007585 -127956.000000 0 0 1
-24.657374 15.692154 16.221871 33.427218 -0.566761 1.064102 0.053801 -0.008571 671786.000000 0 0 1
-23.545174 16.262954 16.927471 33.247529 -0.604466 1.036617 0.054142 -0.010529 1240420.000000 0 0 1
-22.426874 15.397454 17.256371 32.215347 -0.601651 1.005511 0.042628 -0.029090 696780.000000 0 0 1
-22.581374 14.173754 18.239171 32.302958 -0.560520 0.970813 0.053679 -0.023368 -409796.000000 0 0 1
-22.960974 14.543854 19.592171 33.504973 -0.564629 0.946219 0.048490 -0.019068 401440.000000 0 0 1
-23.109474 13.357654 20.288471 33.527552 -0.524098 0.920869 0.045537 -0.016311 -803488.000000 0 0 1
-22.860874 13.574954 21.795071 34.379122 -0.535854 0.884130 0.026701 -0.006800 110821.000000 0 0 1
-21.530474 13.752454 22.245271 33.875410 -0.568421 0.854390 0.030291 -0.013836 248596.000000 0 0 1
-20.923074 14.971354 21.956671 33.823245 -0.621081 0.864318 0.044348 -0.011394 -787245.000000 0 0 1
-19.471574 15.120854 22.470771 33.357428 -0.660284 0.831678 0.073973 -0.020531 265187.000000 0 0 1
-18.512374 14.521754 21.626771 31.957887 -0.665178 0.827488 0.058891 -0.021120 -60787.900000 0 0 1
-18.021874 15.175154 20.483571 31.219384 -0.699855 0.855134 0.052598 -0.015284 -1419230.000000 0 0 1
-16.882574 14.401454 19.782671 29.728391 -0.706254 0.842704 0.051578 -0.013542 328109.000000 0 0 1
-15.693174 14.136054 20.489971 29.426903 -0.733244 0.800566 0.054423 -0.016163 355923.000000 0 0 1
-14.983874 15.314854 20.924871 29.948480 -0.796322 0.797224 0.046532 -0.014541 -798513.000000 0 0 1
-13.854874 15.131054 21.980171 30.067162 -0.829397 0.750958 0.037144 -0.013209 380222.000000 0 0 1
-12.727874 14.456654 21.391671 28.785365 -0.848907 0.733040 0.031736 -0.005468 -66269.300000 0 0 1
-11.751074 14.406054 22.400271 29.110037 -0.886553 0.692733 0.046061 0.001708 -332868.000000 0 0 1
-10.422474 13.814554 21.898671 27.910959 -0.924449 0.668761 0.046706 0.000473 -1453820.000000 0 0 1
-10.028574 12.710754 22.633571 27.828297 -0.902809 0.620944 0.050285 -0.005512 423584.000000 0 0 1
-8.938074 11.910854 22.154471 26.694160 -0.927030 0.591802 0.055273 -0.000154 693423.000000 0 0 1
-7.569074 12.642054 22.220471 26.661991 -1.031317 0.585540 0.044089 0.001130 -843996.000000 0 0 1
-7.413174 13.621554 21.255371 26.311455 -1.072399 0.630323 0.041387 -0.002400 -251591.000000 0 0 1
-6.420774 14.566854 21.648471 26.871469 -1.155636 0.634058 0.024434 0.005229 118728.000000 0 0 1
-6.894174 15.810354 22.548471 28.388915 -1.159600 0.652991 0.028403 -0.000164 755704.000000 0 0 1
-7.939374 16.662454 22.003071 28.719439 -1.126139 0.697985 0.015071 0.006145 599299.000000 0 0 1
-7.507174 17.508654 20.903271 28.281750 -1.165737 0.739051 0.009691 0.006721 -619133.000000 0 0 1
-8.610074 17.634554 19.789271 27.869807 -1.116593 0.781211 0.015765 0.008632 759364.000000 0 0 1
-9.812974 18.319254 20.048171 28.875919 -1.079026 0.803368 0.006009 0.009139 -111133.000000 0 0 1
-10.662974 17.475654 20.824371 29.201916 -1.022938 0.776862 0.009360 0.003328 -614821.000000 0 0 1
-12.053374 18.074754 21.210471 30.362224 -0.982658 0.797384 0.005950 0.002092 641058.000000 0 0 1
-12.886774 18.131554 20.019071 29.926333 -0.952900 0.838008 0.008581 0.000632 42130.800000 0 0 1
-13.968974 18.994154 20.303571 31.115030 -0.936682 0.859874 0.008464 0.000338 -158152.000000 0 0 1
-14.841674 19.206954 19.058371 30.861041 -0.912910 0.905167 0.018951 -0.008174 -232881.000000 0 0 1
-15.602774 18.091354 18.665671 30.317502 -0.859122 0.907556 0.039539 -0.011086 -40649.500000 0 0 1
-16.376874 18.437054 17.537871 30.260599 -0.844506 0.952606 0.053011 -0.019337 -765952.000000 0 0 1
-17.138174 17.188254 16.984371 29.624685 -0.786857 0.960246 0.054564 -0.023454 278784.000000 0 0 1
-18.181274 16.639854 17.771071 30.385102 -0.741160 0.946087 0.052013 -0.016211 -163306.000000 0 0 1
-19.352274 17.394754 17.699171 31.469805 -0.732178 0.973490 0.053643 -0.020706 -1203100.000000 0 0 1
34.381800 -9.579346 12.379068 37.777154 -0.271726 1.236942 0.049843 -0.030892 -485547.000000 0 0 1
33.262500 -10.150446 11.753168 36.709160 -0.296186 1.244888 0.045400 -0.017241 -272185.000000 0 0 1
32.795340 -11.220146 12.552768 36.864590 -0.329643 1.223337 0.046902 -0.017608 -606706.000000 0 0 1
31.443420 -11.697346 11.986168 35.625620 -0.356149 1.227654 0.057052 -0.006660 -853876.000000 0 0 1
30.529610 -10.604446 12.209668 34.548333 -0.334312 1.209584 0.054543 -0.007741 -33343.300000 0 0 1
29.165040 -10.919046 12.293368 33.480621 -0.358234 1.194822 0.065622 -0.010058 39296.400000 0 0 1
28.728840 -11.898246 13.376968 33.850521 -0.392651 1.164535 0.057441 -0.005627 -1504860.000000 0 0 1
28.877690 -11.317846 14.747868 34.344056 -0.373525 1.126951 0.061354 -0.009798 550434.000000 0 0 1
27.952780 -11.907746 15.685168 34.193228 -0.402713 1.094241 0.063550 -0.015221 1230130.000000 0 0 1
26.483380 -11.369746 15.568668 32.757044 -0.405521 1.075518 0.058789 -0.024113 412202.000000 0 0 1
26.409280 -10.043846 16.074968 32.507438 -0.363422 1.053535 0.044271 0.000478 -75694.600000 0 0 1
25.450780 -9.292246 15.346568 31.138484 -0.350069 1.055435 0.053277 -0.010902 190825.000000 0 0 1
25.359880 -7.844046 15.852768 30.918648 -0.299975 1.032440 0.059779 -0.024085 -852303.000000 0 0 1
26.510280 -7.109346 15.716668 31.628332 -0.262008 1.050753 0.039355 -0.015197 -989555.000000 0 0 1
26.428280 -5.935246 16.446268 31.688497 -0.220914 1.025118 0.039825 -0.005319 178888.000000 0 0 1
27.562180 -4.919146 16.178868 32.336164 -0.176615 1.046812 0.040784 -0.005046 142878.000000 0 0 1
27.698080 -4.606846 14.804468 31.742384 -0.164815 1.085586 0.043171 -0.009204 -323745.000000 0 0 1
28.900030 -3.924346 14.621768 32.625271 -0.134965 1.106076 0.051543 -0.005629 -356911.000000 0 0 1
28.896470 -3.222346 13.271868 31.961414 -0.111055 1.142582 0.055085 -0.012793 -63107.700000 0 0 1
29.326270 -4.120046 12.278068 32.058631 -0.139576 1.177768 0.050018 -0.014336 271665.000000 0 0 1
29.572760 -3.448146 11.067368 31.763571 -0.116075 1.214901 0.062145 -0.014798 -23393.600000 0 0 1
30.141260 -4.248246 9.873468 32.000445 -0.140022 1.257137 0.069069 -0.011039 -9372.750000 0 0 1
31.477670 -4.668646 10.019968 33.362250 -0.147243 1.265749 0.078428 -0.024649 30345.900000 0 0 1
31.910140 -5.496546 8.961768 33.597356 -0.170577 1.300787 0.073835 -0.031692 -377634.000000 0 0 1
33.299420 -6.119246 9.051268 35.045998 -0.181737 1.309567 0.064274 -0.035261 -48230.000000 0 0 1
34.367390 -5.165946 8.990868 35.897635 -0.149198 1.317643 0.072806 -0.038394 963582.000000 0 0 1
35.624570 -5.883746 8.970968 37.204929 -0.163682 1.327273 0.086955 -0.038751 -174284.000000 0 0 1
-36.367054 -5.060246 8.540968 37.697703 0.138256 1.342247 0.088076 -0.039545 -969366.000000 0 0 1
-36.378734 -4.720546 7.187168 37.381161 0.129040 1.377324 0.084911 -0.035395 427738.000000 0 0 1
-35.258723 -3.856446 6.958368 36.145105 0.108943 1.377075 0.103144 -0.025505 395042.000000 0 0 1
-35.291217 -3.230146 5.570768 35.873908 0.091274 1.414878 0.106138 -0.036183 -109722.000000 0 0 1
-34.670610 -3.934446 4.510068 35.183402 0.112997 1.442255 0.115589 -0.040411 92523.200000 0 0 1
-34.782249 -3.203946 3.286668 35.083790 0.091855 1.476978 0.107360 -0.032028 134737.000000 0 0 1
-34.125964 -3.840046 1.993668 34.399158 0.112054 1.512807 0.131718 -0.038559 224298.000000 0 0 1
-34.705292 -5.095046 1.504568 35.109550 0.145768 1.527930 0.116990 -0.033701 795764.000000 0 0 1
-35.678947 -4.935046 0.447868 36.021418 0.137446 1.558363 0.101027 -0.030187 -22438.600000 0 0 1
-35.008720 -4.905846 -0.939532 35.363265 0.139226 1.597367 0.126426 -0.029136 -658540.000000 0 0 1
-34.556973 -6.203446 -1.271332 35.132370 0.177622 1.606991 0.119803 -0.034339 808685.000000 0 0 1
-33.516624 -6.295946 -2.274832 34.178617 0.185682 1.637403 0.117332 -0.030796 1757380.000000 0 0 1
-32.079934 -5.918946 -1.721732 32.666810 0.182454 1.623527 0.133897 -0.040428 252787.000000 0 0 1
-31.499674 -6.763146 -0.797432 32.227403 0.211494 1.595543 0.138672 -0.037308 66621.700000 0 0 1
-30.348974 -6.165646 -0.198432 30.969579 0.200431 1.577204 0.121845 -0.042864 -317561.000000 0 0 1
-29.794854 -7.197346 0.767668 30.661449 0.237023 1.545757 0.090053 -0.035214 -750520.000000 0 0 1
-29.158834 -8.255446 0.127268 30.305217 0.275899 1.566597 0.080249 -0.025457 404170.000000 0 0 1
-28.738094 -9.364546 0.937468 30.239901 0.315008 1.539790 0.081413 -0.018564 -122366.000000 0 0 1
-28.569194 -10.655746 0.172368 30.492187 0.356999 1.565143 0.063166 -0.014923 -171272.000000 0 0 1
-27.487974 -10.652646 -0.731032 29.489015 0.369718 1.595589 0.071515 -0.020504 332964.000000 0 0 1
-26.977434 -11.960346 -1.125132 29.531301 0.417307 1.608905 0.069072 -0.006749 265308.000000 0 0 1
-27.851934 -12.898746 -2.065232 30.763177 0.433710 1.637980 0.065404 -0.012145 569213.000000 0 0 1
-28.930374 -13.602046 -1.419332 31.999949 0.439496 1.615165 0.076028 -0.016489 767419.000000 0 0 1
-29.217794 -14.722246 -2.308532 32.798679 0.466746 1.641239 0.065709 -0.017890 -302755.000000 0 0 1
-30.155564 -15.708046 -1.594332 34.038840 0.480228 1.617652 0.069688 -0.011520 -260127.000000 0 0 1
-29.618054 -16.268046 -0.420532 33.794309 0.502276 1.583241 0.047628 -0.003133 63800.400000 0 0 1
-30.523194 -17.066246 0.312468 34.971700 0.509821 1.561861 0.059639 0.002791 53900.900000 0 0 1
-30.919574 -18.442346 -0.223832 36.002643 0.537814 1.577013 0.060165 0.000992 -222350.000000 0 0 1
-29.822464 -19.326746 -0.136832 35.537603 0.575010 1.574647 0.077346 -0.007906 228247.000000 0 0 1
-30.109234 -20.730246 -0.118032 36.555752 0.602967 1.574025 0.081835 -0.013348 -514071.000000 0 0 1
-30.737734 -21.393946 1.114968 37.466684 0.608047 1.541033 0.091182 -0.013684 -807415.000000 0 0 1
-30.009754 -21.619246 2.267168 37.055596 0.624291 1.509575 0.084936 -0.011495 -88668.100000 0 0 1
-30.910264 -21.787746 3.366568 37.966881 0.613988 1.482009 0.088882 -0.011475 408364.000000 0 0 1
-30.187504 -22.096146 4.700268 37.704345 0.631857 1.445810 0.072274 -0.014826 13779.800000 0 0 1
-29.415064 -21.005946 5.116668 36.505836 0.620141 1.430173 0.061624 -0.011220 -78384.800000 0 0 1
-28.886824 -21.151646 6.411068 36.372277 0.632028 1.393608 0.048176 -0.013271 100707.000000 0 0 1
-28.366274 -19.791746 6.952968 35.280341 0.609195 1.372420 0.054781 -0.013267 347334.000000 0 0 1
-27.658144 -19.950046 8.185368 35.071035 0.624884 1.335230 0.053153 -0.018884 382697.000000 0 0 1
-26.844954 -18.835946 8.564368 33.893846 0.611837 1.315345 0.065316 -0.014227 457262.000000 0 0 1
-26.037094 -19.015046 9.882468 33.721883 0.630777 1.273373 0.067342 -0.014609 117015.000000 0 0 1
-26.852144 -19.129146 11.039568 34.768289 0.618992 1.247685 0.053655 -0.018522 -191894.000000 0 0 1
-26.132584 -19.451146 12.177968 34.778757 0.639859 1.213059 0.065796 -0.019242 -516704.000000 0 0 1
-25.497624 -18.210146 12.866868 33.871737 0.620186 1.181140 0.057951 -0.016086 389501.000000 0 0 1
-24.318174 -17.660346 12.239468 32.450978 0.628107 1.184060 0.059639 -0.011782 747587.000000 0 0 1
-23.803174 -16.472146 12.820768 31.659039 0.605347 1.153857 0.065352 -0.006762 398897.000000 0 0 1
-23.036574 -16.608346 14.162568 31.734827 0.624652 1.108194 0.061756 -0.010790 -91839.800000 0 0 1
-23.879174 -16.858546 15.296468 32.991021 0.614737 1.088680 0.061568 -0.018159 202946.000000 0 0 1
-23.142074 -17.259946 16.441468 33.223233 0.640824 1.053101 0.072673 -0.018563 349817.000000 0 0 1
-24.062874 -17.951846 17.493268 34.746296 0.640961 1.043201 0.053692 -0.002313 671809.000000 0 0 1
-25.013474 -17.078246 18.131768 35.300161 0.599063 1.031368 0.061270 -0.007291 313758.000000 0 0 1
-25.934054 -17.867446 18.860368 36.708776 0.603276 1.031207 0.045176 0.002644 -151768.000000 0 0 1
-26.995284 -17.018946 19.555568 37.427398 0.562503 1.021024 0.047434 -0.000994 -470632.000000 0 0 1
-26.425204 -16.366046 20.647268 37.315527 0.554515 0.984457 0.050201 -0.012355 590843.000000 0 0 1
-27.287774 -15.350146 21.223768 37.824568 0.512411 0.975069 0.059897 -0.018325 260697.000000 0 0 1
-26.586104 -14.543946 22.295468 37.622270 0.500576 0.936497 0.059351 -0.019457 178808.000000 0 0 1
-25.425154 -13.850646 21.832168 36.261859 0.498812 0.924706 0.053326 -0.018735 535150.000000 0 0 1
-24.693874 -13.413646 22.970068 36.295142 0.497605 0.885543 0.048463 -0.019679 -462275.000000 0 0 1
-23.386574 -12.701946 22.661568 34.954512 0.497553 0.865426 0.055439 -0.015266 -527723.000000 0 0 1
-23.597874 -11.481246 21.976568 34.229347 0.452820 0.873642 0.070962 -0.013009 -368005.000000 0 0 1
-22.442474 -10.981046 21.403268 32.899056 0.455049 0.862456 0.070720 -0.014273 -1247760.000000 0 0 1
-22.169774 -9.485246 21.641968 32.401289 0.404279 0.839365 0.074311 -0.012548 -85021.700000 0 0 1
-21.680774 -9.269946 22.948868 32.903471 0.404041 0.798949 0.070793 -0.012777 2091150.000000 0 0 1
-20.216774 -9.475146 22.977468 32.038420 0.438277 0.771042 0.050892 -0.006829 1658890.000000 0 0 1
-19.707174 -9.537246 24.421868 32.798771 0.450724 0.730865 0.041105 -0.009832 39093.300000 0 0 1
-19.920074 -10.765246 25.014268 33.740383 0.495460 0.735680 0.056946 -0.011961 -269094.000000 0 0 1
-19.231174 -10.835646 26.204268 34.262413 0.513105 0.700049 0.057231 -0.012519 -1134860.000000 0 0 1
-19.357074 -12.130546 27.028268 35.388893 0.559801 0.701694 0.052183 -0.027254 407066.000000 0 0 1
-20.575674 -12.471546 27.688568 36.681802 0.544915 0.715400 0.052126 -0.026225 -523716.000000 0 0 1
-21.590774 -12.904546 26.838668 36.783188 0.538718 0.752994 0.047470 -0.023552 -796943.000000 0 0 1
-22.861874 -13.100146 27.681368 38.216976 0.520340 0.760747 0.044610 -0.024800 -723928.000000 0 0 1
-22.938374 -14.283946 28.475868 39.256530 0.556951 0.759211 0.039845 -0.018838 -149739.000000 0 0 1
-22.029474 -14.359246 29.571768 39.572403 0.577653 0.726833 0.034557 -0.015096 -66953.900000 0 0 1
-22.356574 -15.307446 30.761068 40.992409 0.600380 0.722116 0.022214 -0.014761 -944326.000000 0 0 1
-22.207474 -16.680846 30.469568 41.228838 0.644228 0.739159 0.027695 -0.013932 -107974.000000 0 0 1
-22.368474 -17.536046 31.618068 42.515453 0.664885 0.732232 0.025391 -0.004840 112627.000000 0 0 1
-23.799874 -17.816746 32.150668 43.789678 0.642609 0.746299 0.045184 -0.007185 65119.100000 0 0 1
-24.341074 -16.769346 32.920668 44.243296 0.603259 0.731636 0.056420 -0.017526 -156938.000000 0 0 1
-25.678074 -17.076846 33.241268 45.342740 0.586873 0.747911 0.061637 -0.017262 -14724.200000 0 0 1
-26.451884 -16.129846 -34.050936 46.036294 0.547580 2.403353 0.062891 -0.016949 341249.000000 0 0 1
-25.831004 -16.165146 -32.752436 44.735610 0.559177 2.392245 0.066955 -0.018831 55224.100000 0 0 1
-26.377554 -15.123946 -32.055336 44.182052 0.520604 2.382598 0.077401 -0.017813 -773000.000000 0 0 1
-25.811124 -14.817446 -30.700236 42.758336 0.521137 2.371713 0.076852 -0.014894 -581794.000000 0 0 1
-26.301934 -15.625746 -29.664036 42.613504 0.536063 2.340773 0.067014 -0.005551 90141.900000 0 0 1
-25.792234 -15.158246 -28.449536 41.284233 0.531331 2.331062 0.068886 -0.005477 -383755.000000 0 0 1
-26.438044 -15.905846 -27.268036 41.176594 0.541615 2.294576 0.054183 -0.008912 -184158.000000 0 0 1
-27.688714 -15.474646 -26.802736 41.527295 0.509635 2.272375 0.068281 -0.017297 -172781.000000 0 0 1
-27.651204 -14.231746 -26.109636 40.605970 0.475329 2.269205 0.066724 -0.023462 -565354.000000 0 0 1
-26.804914 -14.097346 -24.808536 39.149739 0.484171 2.257102 0.072187 -0.027036 402495.000000 0 0 1
-25.425294 -13.937546 -25.165736 38.392904 0.501442 2.285613 0.056010 -0.028271 868513.000000 0 0 1
-24.529274 -14.027146 -24.048036 37.104638 0.519466 2.275902 0.061221 -0.027665 287759.000000 0 0 1
-23.890874 -15.450046 -23.978536 37.208171 0.574046 2.271091 0.060681 -0.025774 -208758.000000 0 0 1
-22.928874 -15.654146 -25.027236 37.378444 0.599039 2.304417 0.043984 -0.019881 442076.000000 0 0 1
-22.687274 -17.047446 -25.055036 37.856078 0.644403 2.294080 0.051615 -0.012365 -242420.000000 0 0 1
-21.696174 -17.525246 -26.137636 38.223478 0.679453 2.323769 0.045050 -0.003630 5363.200000 0 0 1
-22.194774 -17.609746 -27.471836 39.464072 0.670715 2.340779 0.048729 -0.000144 344111.000000 0 0 1
-23.289374 -18.512246 -27.644136 40.611531 0.671611 2.319510 0.064284 -0.011601 70031.100000 0 0 1
-23.938374 -18.302846 -29.033636 41.844856 0.652768 2.337604 0.053723 -0.010851 -495020.000000 0 0 1
-23.216374 -18.765246 -30.125536 42.410876 0.679767 2.360757 0.056429 -0.001543 -104805.000000 0 0 1
-23.826774 -18.448446 -31.374436 43.501903 0.658856 2.376358 0.047879 -0.004957 -229727.000000 0 0 1
-22.980374 -18.906746 -32.592636 44.134370 0.688451 2.401619 0.047939 -0.003211 -752408.000000 0 0 1
-21.918874 -18.037646 -32.928536 43.475076 0.688566 2.430136 0.033264 -0.000787 232343.000000 0 0 1
-20.638674 -18.571146 -32.596736 42.818098 0.732717 2.436087 0.031379 -0.006598 324388.000000 0 0 1
-20.132674 -19.798546 -33.397236 43.734224 0.777031 2.439730 0.034100 -0.005333 -1143970.000000 0 0 1
-19.696374 -19.545146 33.495968 43.496434 0.781544 0.691821 0.033772 -0.004172 227903.000000 0 0 1
-19.398474 -20.708146 32.721568 43.310843 0.818041 0.714371 0.036553 -0.007782 -311632.000000 0 0 1
-20.680674 -21.352046 32.157868 43.791878 0.801369 0.746111 0.028915 -0.003930 203990.000000 0 0 1
-21.669574 -21.821746 33.093468 45.176727 0.788897 0.748760 0.022992 -0.002714 292492.000000 0 0 1
-22.824774 -22.332546 32.465668 45.538253 0.774498 0.777126 0.024682 0.002100 -97043.500000 0 0 1
-22.651674 -23.608546 31.597368 45.484672 0.806080 0.802819 0.025471 0.007914 -712739.000000 0 0 1
-22.204774 -24.800446 32.248368 46.347290 0.840563 0.801266 0.028343 0.010494 232182.000000 0 0 1
-22.072274 -25.900056 31.359368 46.275351 0.865021 0.826208 0.040669 0.015677 -126903.000000 0 0 1
-21.580674 -27.221606 32.063968 47.274088 0.900475 0.825409 0.051554 0.001212 -142879.000000 0 0 1
-22.530274 -27.839646 32.914568 48.641833 0.890418 0.827563 0.047643 -0.010065 -61668.400000 0 0 1
-21.966974 -29.008236 33.513868 49.469233 0.922661 0.826480 0.058821 -0.024927 -826054.000000 0 0 1
-22.975374 -29.984306 -34.105436 50.893096 0.916978 2.305192 0.063373 -0.020565 -1428820.000000 0 0 1
-23.869474 -30.451816 33.097568 50.916735 0.905985 0.863168 0.042241 -0.017258 1527990.000000 0 0 1
-25.083494 -29.692266 32.799868 50.859057 0.869339 0.869882 0.036101 -0.010326 460565.000000 0 0 1
-25.886534 -29.212776 33.990568 51.757682 0.845693 0.854328 0.035277 -0.013718 -1862200.000000 0 0 1
-27.086044 -28.630396 33.537968 51.750832 0.813109 0.865754 0.024000 -0.002976 -91356.700000 0 0 1
-27.942024 -28.395186 -33.587036 52.106931 0.793442 2.271269 0.024922 0.006600 -162823.000000 0 0 1
-29.182474 -27.503466 -33.784036 52.434898 0.755787 2.270910 0.022738 0.000133 54070.000000 0 0 1
-30.165354 -28.156576 33.617368 53.224701 0.750969 0.887165 0.018915 -0.004020 259182.000000 0 0 1
-31.065734 -27.102506 33.212868 52.940724 0.717369 0.892639 0.028637 -0.009206 114610.000000 0 0 1
